# x y z rho theta phi s1 s2 stress_xx np intf bulk
-0.680513 -10.772322 -14.408432 18.003026 1.507708 2.498648 0.016783 0.001294 -497259.000000 1 0 0
2.126587 -13.431722 -13.052932 18.849737 -1.413774 2.335708 0.030454 -0.001464 1464660.000000 1 0 0
2.247387 -11.105322 -14.604932 18.484669 -1.371123 2.481786 0.018755 -0.002115 529810.000000 1 0 0
-5.420713 -6.485822 -16.549232 18.582979 0.874617 2.669368 0.013935 -0.000647 -775256.000000 1 0 0
4.607487 -14.078222 -11.533132 18.773343 -1.254506 2.232340 0.020475 -0.002454 2772040.000000 1 0 0
14.003687 -10.631122 -7.905032 19.277281 -0.649342 1.993327 0.044019 -0.013909 389351.000000 1 0 0
7.051987 10.864978 -10.826332 16.881580 0.995084 2.267001 0.041876 -0.019848 547092.000000 1 0 0
5.802087 -4.163222 -12.508032 14.403038 -0.622400 2.622824 0.003745 -0.004342 2094550.000000 1 0 0
13.699587 0.616278 -9.968732 16.953882 0.044955 2.199369 0.049546 -0.009065 2617490.000000 1 0 0
14.217987 5.054178 -10.393232 18.322531 0.341546 2.173944 0.048465 -0.010023 -148442.000000 1 0 0
4.052487 4.414078 -13.409632 14.687579 0.828080 2.721353 0.009471 -0.005895 2120580.000000 1 0 0
10.421987 -4.760422 -13.642032 17.815288 -0.428467 2.443001 0.042601 -0.010832 -463719.000000 1 0 0
2.647787 -7.489522 -12.055632 14.437520 -1.230978 2.558967 0.005178 0.000531 1391960.000000 1 0 0
-5.584213 -2.080622 -15.031432 16.169613 0.356656 2.764149 0.006788 -0.006973 984294.000000 1 0 0
10.672087 0.116978 -9.568332 14.333880 0.010961 2.301686 0.021820 -0.007619 1826440.000000 1 0 0
-1.566813 -9.527822 -16.819932 19.394443 1.407809 2.620459 0.028239 -0.007197 804565.000000 1 0 0
8.588687 1.860578 -17.847232 19.893491 0.213335 2.684047 0.035190 -0.013681 -1701500.000000 1 0 0
16.417487 -5.898722 -8.940332 19.602509 -0.344931 2.044383 0.080824 -0.008519 -977913.000000 1 0 0
10.127787 7.591878 -9.915232 16.078573 0.643251 2.235307 0.036105 -0.011778 -452335.000000 1 0 0
13.859287 -2.178822 -10.550532 17.553941 -0.155934 2.215592 0.058247 -0.013325 -980895.000000 1 0 0
7.269287 -1.775522 -13.618132 15.538615 -0.239559 2.639144 0.018145 -0.006648 931883.000000 1 0 0
-2.835713 6.598678 -13.705032 15.472936 -1.164918 2.658887 0.003938 -0.007486 -77148.000000 1 0 0
11.296087 1.822378 -13.881232 17.989198 0.159950 2.452216 0.042190 -0.010311 -402633.000000 1 0 0
-2.398613 10.714878 -12.960532 16.986387 -1.350569 2.438731 0.009684 -0.002975 -1579450.000000 1 0 0
2.859187 -1.007422 -15.188732 15.488300 -0.338763 2.944594 0.010828 -0.004058 248123.000000 1 0 0
-8.986713 0.297178 -15.289732 17.737679 -0.033057 2.609982 0.012891 -0.002968 -1105070.000000 1 0 0
2.456587 -1.749422 -18.020432 18.271050 -0.618824 2.975773 0.030810 -0.013634 1557090.000000 1 0 0
1.047287 7.867378 -13.063432 15.285474 1.438457 2.595635 0.010921 -0.007808 -439916.000000 1 0 0
9.468187 -8.994722 -9.864532 16.366447 -0.759760 2.217713 0.024708 -0.003221 -63252.300000 1 0 0
3.942987 7.348878 -13.522032 15.887055 1.078344 2.588940 0.008211 -0.007064 1516810.000000 1 0 0
-2.714113 8.930378 -15.491432 18.085976 -1.275748 2.599331 0.001933 -0.006808 513771.000000 1 0 0
5.722687 -7.663622 -15.289832 18.034945 -0.929389 2.582599 0.029451 -0.006128 -605054.000000 1 0 0
4.199087 7.255478 -16.385332 18.405255 1.046151 2.668697 0.014093 -0.007408 -502875.000000 1 0 0
-0.212913 5.135278 -13.276832 14.236948 -1.529359 2.772241 0.007760 -0.010342 1979160.000000 1 0 0
8.766487 4.409978 -16.598932 19.282732 0.466084 2.607672 0.035221 -0.010161 -672354.000000 1 0 0
5.330787 0.375378 -14.315732 15.280654 0.070301 2.784318 0.002985 -0.002125 2577070.000000 1 0 0
6.328187 7.977078 -11.524632 15.378455 0.900156 2.417954 0.011478 -0.009548 -150631.000000 1 0 0
2.892387 -8.326222 -15.025632 17.420147 -1.236455 2.611071 0.018660 -0.005369 1132340.000000 1 0 0
3.919187 11.491378 -13.807632 18.386476 1.242113 2.420321 0.030407 -0.022646 -395122.000000 1 0 0
0.622887 -4.449122 -13.728832 14.445190 -1.431698 2.825343 0.008577 -0.000956 918738.000000 1 0 0
8.483987 -0.060022 -11.513132 14.301533 -0.007075 2.506519 0.010036 -0.005325 480199.000000 1 0 0
-0.880613 -5.006622 -16.274132 17.049608 1.396688 2.838830 0.015843 -0.008357 774834.000000 1 0 0
4.500187 0.954078 -11.701032 12.572832 0.208915 2.767009 0.001529 -0.003241 715422.000000 1 0 0
-2.825213 -7.189522 -15.551032 17.363919 1.196371 2.680562 0.005341 -0.000864 1402430.000000 1 0 0
11.352287 -3.613422 -11.240232 16.379074 -0.308159 2.327125 0.034896 -0.006813 897276.000000 1 0 0
6.617487 -6.968822 -12.571032 15.823605 -0.811252 2.488895 0.019130 -0.003863 -653930.000000 1 0 0
3.547087 -3.936822 -14.556732 15.491251 -0.837428 2.792474 0.014373 -0.003564 1915190.000000 1 0 0
-0.501113 -1.536122 -18.303932 18.375112 1.255462 3.053545 0.031893 -0.016718 785951.000000 1 0 0
15.019887 2.964078 -8.474132 17.498391 0.194840 2.076337 0.041253 -0.011574 -404943.000000 1 0 0
6.896587 4.395678 -14.278032 16.454395 0.567445 2.621421 0.011567 -0.005358 4815340.000000 1 0 0
10.160887 -9.505422 -14.103732 19.811914 -0.752081 2.362970 0.066274 -0.013732 -794237.000000 1 0 0
9.021887 -3.078922 -15.578732 18.263929 -0.328879 2.592461 0.054062 -0.018271 -215379.000000 1 0 0
-5.201613 -2.262122 -17.898732 18.776011 0.410216 2.834699 -0.002243 -0.000446 17715.400000 1 0 0
5.068087 -9.077622 -11.225832 15.300590 -1.061599 2.394528 -0.001420 0.002999 1794290.000000 1 0 0
-2.443913 4.025878 -17.082432 17.719760 -1.025208 2.872577 0.010611 -0.001514 631927.000000 1 0 0
9.320987 9.575878 -14.408432 19.651493 0.798886 2.393809 0.083489 -0.026480 -1746150.000000 1 0 0
9.899787 10.083078 -11.515832 18.228786 0.794570 2.254591 0.057270 -0.026432 427438.000000 1 0 0
12.034487 -5.832222 -9.648132 16.490305 -0.451273 2.195774 0.037759 -0.005360 -36449.500000 1 0 0
8.153287 7.027178 -13.586432 17.333449 0.711352 2.471602 0.022204 -0.013016 1783150.000000 1 0 0
4.174987 -4.096022 -17.476032 18.428772 -0.775851 2.818637 0.042167 -0.019049 367387.000000 1 0 0
9.460087 -7.311322 -12.442232 17.255661 -0.657972 2.376116 0.036311 -0.008282 203807.000000 1 0 0
12.095787 -8.596622 -8.832432 17.269101 -0.617879 2.107678 0.043381 -0.006587 938043.000000 1 0 0
-2.889813 -2.499522 -13.842932 14.360550 0.713105 2.872286 0.007056 -0.005223 -2134050.000000 1 0 0
-0.396213 6.162178 -17.575732 18.628897 -1.506587 2.803732 0.016119 -0.007759 637126.000000 1 0 0
1.137587 -8.509022 -17.419932 19.420392 -1.437893 2.683713 0.027762 -0.012369 801852.000000 1 0 0
0.065987 8.480978 -15.839432 17.967163 1.563016 2.649988 0.012291 -0.008525 -269212.000000 1 0 0
1.709587 3.459678 -14.936532 15.426991 1.111843 2.888760 0.012851 -0.007894 1682650.000000 1 0 0
-1.872313 -0.470322 -15.708232 15.826412 0.246106 3.019310 0.014934 -0.009093 1525020.000000 1 0 0
14.168587 -4.234422 -8.508532 17.060900 -0.290410 2.092912 0.052902 -0.005101 413315.000000 1 0 0
0.619287 0.695178 -14.558032 14.587772 0.843069 3.077728 0.009455 -0.005021 -47906.300000 1 0 0
8.820187 2.719178 -12.544732 15.574336 0.299045 2.507272 0.014918 -0.001479 3246190.000000 1 0 0
5.880287 1.142978 -17.103232 18.121941 0.191981 2.804699 0.021978 -0.004047 1173610.000000 1 0 0
15.403187 1.625678 -12.255532 19.750926 0.105152 2.240182 0.091424 -0.021627 -30809.300000 1 0 0
8.857687 -11.072922 -11.973032 18.558603 -0.896091 2.272012 0.047492 -0.007232 1287120.000000 1 0 0
-4.551113 0.742878 -15.073532 15.763118 -0.161803 2.844711 0.007532 -0.005709 335004.000000 1 0 0
2.326287 5.155578 -17.268232 18.170951 1.146930 2.825061 0.019600 -0.009022 738903.000000 1 0 0
5.956187 -11.633822 -12.497732 18.083564 -1.097617 2.333820 0.020841 -0.000717 154324.000000 1 0 0
12.772687 7.242578 -8.677432 17.055624 0.515829 2.104555 0.025562 -0.011553 1092270.000000 1 0 0
-5.022613 3.654878 -15.637032 16.825622 -0.629066 2.763467 0.004494 -0.005584 1055940.000000 1 0 0
-0.670813 -4.386122 -19.139132 19.646741 1.419032 2.913782 0.031783 -0.010897 -1648640.000000 1 0 0
9.801787 4.492678 -10.282132 14.899041 0.429778 2.332452 0.009673 -0.003602 650158.000000 1 0 0
13.397287 3.620478 -12.836432 18.904210 0.263935 2.317230 0.074241 -0.021911 521873.000000 1 0 0
-6.305613 5.864678 -17.224032 19.256752 -0.749184 2.677976 0.005894 0.000667 824955.000000 1 0 0
-10.083313 3.014578 -15.440132 18.685785 -0.290509 2.543309 0.029617 -0.009142 -1194580.000000 1 0 0
10.760587 13.475778 -8.301832 19.139155 0.896963 2.019460 0.118064 -0.020985 595417.000000 1 0 0
7.419787 13.405278 -12.364532 19.688483 1.065272 2.249788 0.084573 -0.027478 -1909110.000000 1 0 0
5.244687 15.172078 -11.417732 19.699322 1.237975 2.189034 0.053976 -0.017383 24421.900000 1 0 0
14.274087 9.517478 -9.889832 19.802544 0.588071 2.093728 0.103443 -0.025490 -2312690.000000 1 0 0
8.494387 -17.176322 -2.110132 19.277793 -1.111526 1.680475 0.033585 -0.008362 -920354.000000 1 0 0
0.775887 -16.050522 -0.030832 16.069294 -1.522494 1.572715 0.012369 -0.009298 2476600.000000 1 0 0
-9.062013 -11.674622 7.525968 16.584845 0.910728 1.099787 0.025840 -0.008838 1107060.000000 1 0 0
2.103287 -15.978022 -2.577132 16.320619 -1.439913 1.729367 0.023676 -0.010362 3747780.000000 1 0 0
-1.248413 -11.067822 -9.486932 14.630691 1.458474 2.276312 0.001498 0.002237 -32411.200000 1 0 0
-4.891813 -12.817422 -12.938532 18.857936 1.206205 2.326918 0.020891 -0.004051 563729.000000 1 0 0
-8.409713 -17.875222 -1.690832 19.826895 1.131053 1.656180 0.049333 -0.021122 -1138220.000000 1 0 0
-11.367913 -7.149722 -8.790632 16.050645 0.561427 2.150386 0.026751 -0.009920 2536000.000000 1 0 0
-13.597213 -11.643322 -4.691132 18.505617 0.708141 1.827091 0.049745 -0.009833 -654276.000000 1 0 0
-5.764113 -13.526322 9.744068 17.638969 1.167960 0.985535 0.020460 -0.009610 -419429.000000 1 0 0
0.181887 -14.113222 -3.743832 14.602479 -1.557909 1.830075 0.013028 -0.002438 -1525720.000000 1 0 0
-14.717613 -11.554122 1.938368 18.811250 0.665561 1.467570 0.021898 -0.005872 -13767.800000 1 0 0
-3.914813 -16.564622 -7.530232 18.612277 1.338719 1.987320 0.020540 -0.011351 -1406410.000000 1 0 0
0.589787 -15.400522 -9.343632 18.022969 -1.532518 2.115809 0.017892 0.002049 2011570.000000 1 0 0
4.631087 -14.219822 -2.614532 15.181768 -1.255951 1.743874 0.017935 -0.002609 477172.000000 1 0 0
-3.396413 -18.110522 -2.530132 18.599145 1.385412 1.707254 0.033025 -0.024378 524696.000000 1 0 0
-0.828113 -13.470422 0.658468 13.511907 1.509397 1.522045 0.010435 -0.000068 2514290.000000 1 0 0
-8.487113 -11.291822 -10.476332 17.586639 0.926262 2.208931 0.030865 -0.010068 3174180.000000 1 0 0
-3.584913 -14.192322 -0.446932 14.644909 1.323377 1.601319 0.011178 -0.001731 4485910.000000 1 0 0
-1.545313 -14.985222 -7.331032 16.753773 1.468037 2.023696 0.019406 -0.000175 696235.000000 1 0 0
-14.147513 -7.978622 -1.811632 16.342966 0.513497 1.681876 0.029360 -0.009816 1096840.000000 1 0 0
-10.762713 -7.413822 -11.666132 17.518544 0.603199 2.299537 0.037571 -0.007317 -1536430.000000 1 0 0
-9.414113 -14.706322 6.772468 18.728795 1.001383 1.200805 0.024342 -0.006614 355563.000000 1 0 0
-2.523913 -14.482022 -12.337732 19.191632 1.398250 2.269036 0.026916 -0.004059 765502.000000 1 0 0
2.483287 -17.802922 -4.817832 18.609736 -1.432203 1.832667 0.043530 -0.019134 -60724.700000 1 0 0
-6.481413 -9.746722 -9.133632 14.846904 0.983960 2.233420 0.019762 -0.004685 301950.000000 1 0 0
-10.984413 -15.528922 0.402168 19.025417 0.955153 1.549656 0.038848 -0.011667 66130.200000 1 0 0
-12.602313 -11.125222 4.104168 17.304134 0.723226 1.331336 0.021538 -0.006223 1237480.000000 1 0 0
-16.922013 -8.975722 -1.596832 19.221550 0.487684 1.653967 0.021635 -0.010022 -154630.000000 1 0 0
-1.212113 -19.263722 -4.062532 19.724715 1.507957 1.778243 0.054649 -0.025822 101388.000000 1 0 0
3.300187 -14.289322 -8.830632 17.118879 -1.343821 2.112786 0.019587 -0.002408 820543.000000 1 0 0
-4.256413 -7.960322 -13.043332 15.862292 1.079773 2.536212 0.007878 0.000524 1828250.000000 1 0 0
5.710387 -16.544722 1.275568 17.548887 -1.238450 1.498046 0.033148 -0.012419 3345360.000000 1 0 0
-2.729313 -13.860122 -3.295032 14.505495 1.376366 1.799954 0.008627 -0.003333 -1993480.000000 1 0 0
-0.355913 -14.057222 3.607568 14.517118 1.545483 1.319660 0.008014 0.001547 -2672450.000000 1 0 0
1.264987 -16.242322 6.981268 17.724314 -1.493071 1.165946 0.026310 -0.012123 2222940.000000 1 0 0
-5.369513 -10.427622 -14.510032 18.657653 1.095275 2.461793 0.022482 -0.010189 -1357370.000000 1 0 0
-0.206413 -17.303822 -6.000832 18.315973 1.558868 1.904589 0.038138 -0.015558 159005.000000 1 0 0
-6.401813 -13.462322 -1.245632 14.958908 1.126911 1.654163 0.008344 -0.002459 2734510.000000 1 0 0
-1.616513 -17.785422 -0.258632 17.860606 1.480156 1.585277 0.029000 -0.016982 2477480.000000 1 0 0
-9.414213 -9.755522 -4.795732 14.380427 0.803201 1.910800 0.018579 -0.004300 1868390.000000 1 0 0
-0.699013 -16.706022 4.810068 17.398751 1.528979 1.290687 0.027961 -0.010690 1105420.000000 1 0 0
-6.698413 -9.962722 -6.240032 13.530062 0.978871 2.050141 0.018655 -0.003661 2773840.000000 1 0 0
-6.039713 -14.642522 -8.533232 17.991599 1.179580 2.064954 0.021416 -0.005765 -912694.000000 1 0 0
-5.832713 -12.358022 -10.239132 17.075745 1.129817 2.213835 0.025398 -0.003084 -940660.000000 1 0 0
-10.721013 -12.169722 -8.767932 18.436890 0.848602 2.066402 0.046988 -0.016819 -393435.000000 1 0 0
4.119587 -17.091922 6.591868 18.776515 -1.334282 1.212083 0.046699 -0.020078 654661.000000 1 0 0
-6.567113 -14.471422 -4.058032 16.401727 1.144788 1.820808 0.019138 -0.010743 -856541.000000 1 0 0
-2.789413 -12.291022 -7.178332 14.504431 1.347629 2.088523 0.007618 -0.000457 2802120.000000 1 0 0
-7.032313 -12.849922 4.363568 15.284458 1.070055 1.281278 0.006652 -0.003017 2952990.000000 1 0 0
2.736287 -16.364422 2.359068 16.758484 -1.405120 1.429559 0.021548 -0.011223 3328780.000000 1 0 0
-6.136913 -12.037722 7.171668 15.297100 1.099334 1.082836 0.007534 -0.003596 1969800.000000 1 0 0
-11.221213 -12.894722 -0.952432 17.120064 0.854681 1.626458 0.037296 -0.008417 -167160.000000 1 0 0
-14.147313 -8.695322 4.633068 17.240081 0.551105 1.298714 0.013452 -0.008590 172341.000000 1 0 0
-7.948313 -15.578422 4.342568 18.020011 1.099012 1.327415 0.024905 -0.002928 614601.000000 1 0 0
-16.441013 -9.166522 1.226468 18.863623 0.508614 1.505733 0.016095 -0.002508 186178.000000 1 0 0
-6.485013 -17.101322 2.304068 18.434189 1.208339 1.445480 0.029139 -0.009808 1509590.000000 1 0 0
-11.471413 -14.962722 -4.708732 19.433181 0.916714 1.815536 0.056536 -0.010791 -373968.000000 1 0 0
-10.142413 -10.102222 -12.577932 19.055913 0.783413 2.291687 0.039512 -0.007962 -617977.000000 1 0 0
-4.243013 -16.056022 -4.610632 17.235340 1.312439 1.841605 0.012724 -0.014374 -312991.000000 1 0 0
-11.757713 -8.404922 0.027668 14.452934 0.620619 1.568882 0.005335 -0.002564 969001.000000 1 0 0
-9.619613 -11.217922 3.472268 15.180098 0.861952 1.340015 0.009262 0.001557 2704730.000000 1 0 0
-14.082713 -12.959222 -0.558732 19.146186 0.743876 1.599983 0.028214 -0.008612 -265634.000000 1 0 0
5.675787 -14.900522 -7.140932 17.470920 -1.206853 1.991861 0.018727 -0.013653 2247090.000000 1 0 0
-7.386613 -10.639822 -1.287332 13.016339 0.963945 1.669860 0.010426 -0.001335 1009940.000000 1 0 0
-11.648513 -8.271922 -6.005932 15.497864 0.617490 1.968750 0.025456 -0.008305 895128.000000 1 0 0
-14.372513 -6.770722 -9.262332 18.390286 0.440252 2.098619 0.042545 -0.013050 1309520.000000 1 0 0
-3.804613 -16.573122 1.370568 17.059364 1.345141 1.490369 0.025762 -0.010242 -73727.500000 1 0 0
-7.966413 -15.516022 0.120568 17.442053 1.096461 1.563884 0.033681 -0.013250 1470860.000000 1 0 0
1.237287 -18.576422 3.690668 18.979867 -1.504289 1.375098 0.033350 -0.016385 795203.000000 1 0 0
-14.144213 -8.797822 -4.618532 17.285580 0.556445 1.841272 0.038709 -0.013434 -915919.000000 1 0 0
-3.285613 -14.446722 11.137968 18.535300 1.347171 0.926163 0.009077 -0.018412 1547660.000000 1 0 0
-10.777813 -12.181522 -3.802932 16.703683 0.846461 1.800481 0.042008 -0.013603 2233720.000000 1 0 0
-9.921613 -10.851322 0.484468 14.711366 0.830124 1.537859 0.007911 0.000777 1192320.000000 1 0 0
-0.139713 -13.305122 -11.185832 17.382999 1.560296 2.269849 0.020397 -0.002527 815501.000000 1 0 0
-5.799913 -12.743422 -6.277732 15.344176 1.143685 1.992295 0.010591 -0.006384 2162100.000000 1 0 0
1.837087 -15.916322 9.874968 18.820711 -1.455883 1.018450 0.023958 -0.013016 606343.000000 1 0 0
-8.839613 -15.871722 -5.327032 18.932184 1.062640 1.856022 0.051347 -0.011871 -1197700.000000 1 0 0
-3.186613 -15.456822 5.854568 16.832819 1.367483 1.215566 0.011037 -0.003375 -1601050.000000 1 0 0
-17.412513 -5.532922 -6.491732 19.389467 0.307666 1.912197 0.024934 -0.009468 -363020.000000 1 0 0
18.702387 5.749778 -2.951432 19.787627 0.298264 1.720510 0.020237 -0.001652 -1404400.000000 1 0 0
12.883487 -12.380922 -5.878632 18.810364 -0.765509 1.888642 0.036545 -0.008251 -89108.000000 1 0 0
11.061387 -13.468922 -1.704932 17.512080 -0.883230 1.668308 0.026051 -0.005032 2318510.000000 1 0 0
18.679587 -2.728122 4.447768 19.394645 -0.145023 1.339407 0.097402 -0.022539 -52451.300000 1 0 0
8.832087 -16.806622 5.044068 19.644616 -1.086948 1.311122 0.056958 -0.026058 50043.900000 1 0 0
18.183587 -1.003422 6.657168 19.389883 -0.055127 1.220334 0.125587 -0.021606 -606637.000000 1 0 0
18.078787 -4.159422 -4.968932 19.205042 -0.226137 1.832504 0.098072 -0.018808 -391579.000000 1 0 0
5.157987 -11.814622 14.650068 19.514472 -1.159161 0.721632 0.006824 0.000170 546769.000000 1 0 0
16.079087 -8.751222 -0.953832 18.331141 -0.498426 1.622853 0.044825 -0.005535 1086800.000000 1 0 0
13.960687 -12.489122 -1.407032 18.784533 -0.729819 1.645770 0.037783 -0.004673 1296300.000000 1 0 0
11.140087 -1.844222 13.790068 17.823262 -0.164060 0.686117 0.043745 -0.010754 -1023220.000000 1 0 0
16.965587 -5.955122 -1.422432 18.036572 -0.337576 1.649742 0.052338 -0.009528 -1363490.000000 1 0 0
17.728487 3.780878 -1.018732 18.155773 0.210118 1.626936 0.024492 -0.006023 684316.000000 1 0 0
9.841987 -10.983822 9.539568 17.564521 -0.840171 0.996653 0.033952 -0.007839 1524260.000000 1 0 0
9.149787 -11.113522 4.212568 14.999157 -0.882007 1.286113 0.012966 -0.002257 700256.000000 1 0 0
14.154187 -9.940122 6.722568 18.556399 -0.612251 1.200086 0.038416 -0.011089 12646.400000 1 0 0
16.362487 -0.464122 -4.720632 17.036160 -0.028357 1.851566 0.037561 -0.005911 -948418.000000 1 0 0
15.779887 -0.442522 -1.734432 15.881087 -0.028036 1.680228 0.029269 -0.005259 1485230.000000 1 0 0
12.918587 -5.140022 -0.380532 13.908793 -0.378676 1.598159 0.013805 -0.006051 1378290.000000 1 0 0
14.374987 -7.453622 1.044168 16.226122 -0.478348 1.506401 0.025563 -0.000381 2319380.000000 1 0 0
15.471687 2.559478 3.607568 16.091568 0.163945 1.344685 0.038175 -0.010592 1542050.000000 1 0 0
15.913787 -7.050422 4.898768 18.081897 -0.417050 1.296447 0.060948 -0.010785 -1156280.000000 1 0 0
13.749087 -11.990222 3.275868 18.534674 -0.717170 1.393120 0.019334 -0.000858 1516950.000000 1 0 0
14.002387 -0.801922 9.228668 16.789229 -0.057208 0.988818 0.065899 -0.009579 129290.000000 1 0 0
14.150487 -2.736322 -1.642632 14.505929 -0.191015 1.684278 0.016410 -0.004366 1428050.000000 1 0 0
14.978687 1.948178 9.140868 17.655365 0.129337 1.026591 0.082283 -0.004090 -1738660.000000 1 0 0
14.404087 -10.002722 -3.019032 17.794570 -0.606982 1.741281 0.042432 -0.010098 -2168250.000000 1 0 0
7.503087 -12.614722 6.130468 15.906293 -1.034218 1.175143 0.009510 -0.006703 322120.000000 1 0 0
12.411887 -4.602922 6.892468 14.924743 -0.355126 1.090756 0.019873 -0.004325 2478160.000000 1 0 0
15.069387 -8.856722 -5.680832 18.379331 -0.531348 1.885030 0.063411 -0.013200 -708895.000000 1 0 0
14.273387 -4.552522 4.516868 15.647911 -0.308752 1.277973 0.021583 -0.008482 1198130.000000 1 0 0
17.158587 -4.068722 0.923268 17.658540 -0.232824 1.518488 0.042476 -0.011693 -1585060.000000 1 0 0
10.381287 -14.460822 1.053968 17.832480 -0.948164 1.511658 0.037182 -0.009809 -24928.200000 1 0 0
16.385587 -2.437222 8.563868 18.648521 -0.147659 1.093674 0.105548 -0.017225 654774.000000 1 0 0
15.989987 -2.519322 3.210568 16.502558 -0.156272 1.374998 0.031847 -0.007465 2050880.000000 1 0 0
7.959487 -15.237822 2.708768 17.403508 -1.089428 1.414516 0.025097 -0.010546 2489940.000000 1 0 0
16.611687 -6.849622 7.858068 19.611596 -0.391097 1.158532 0.086911 -0.015832 -1024120.000000 1 0 0
10.300787 -8.505722 5.067568 14.287539 -0.690237 1.208220 0.006979 -0.001395 2762090.000000 1 0 0
11.054587 -11.811922 2.129168 16.317437 -0.818506 1.439939 0.019893 -0.005658 -191067.000000 1 0 0
12.394887 -7.181722 12.050768 18.719812 -0.525142 0.871415 0.060890 -0.013315 -837894.000000 1 0 0
15.328487 -9.840922 4.196868 18.692778 -0.570732 1.344348 0.032479 -0.004177 -1058830.000000 1 0 0
7.466287 -10.203222 7.826168 14.869434 -0.939073 1.016523 0.011821 -0.002718 -83405.400000 1 0 0
15.316487 -3.186122 -4.432732 16.260236 -0.205094 1.846903 0.049042 -0.011812 2213700.000000 1 0 0
11.829987 -8.901022 9.763268 17.734097 -0.645043 0.987790 0.044238 -0.010353 -1974500.000000 1 0 0
17.015687 -6.503022 2.317668 18.362856 -0.365049 1.444244 0.063351 -0.011540 1130050.000000 1 0 0
17.473787 4.075378 1.965468 18.050069 0.229132 1.461690 0.037369 -0.008010 351637.000000 1 0 0
14.744087 -4.831722 8.692868 17.784813 -0.316677 1.060105 0.072755 -0.014569 90318.700000 1 0 0
13.018087 -12.564222 6.135568 19.104331 -0.767659 1.243841 0.033104 -0.003638 -149961.000000 1 0 0
18.207687 0.859078 -0.977532 18.254135 0.047147 1.624373 0.036876 -0.010119 -114419.000000 1 0 0
11.746287 -2.125322 10.966168 16.209537 -0.178999 0.827762 0.026678 -0.002742 2883310.000000 1 0 0
5.840687 -12.486322 10.557768 17.363419 -1.133266 0.917199 0.008957 -0.004026 -1394000.000000 1 0 0
10.738487 -4.971522 11.007168 16.161339 -0.433582 0.821559 0.027669 -0.006124 2074260.000000 1 0 0
17.746487 1.408278 5.055068 18.506074 0.079189 1.294123 0.083477 -0.013973 208621.000000 1 0 0
12.313887 -7.674922 7.137268 16.170245 -0.557357 1.113657 0.024505 -0.006733 -332449.000000 1 0 0
10.723487 -7.703322 14.263468 19.436585 -0.622942 0.746829 0.075119 -0.015567 -142583.000000 1 0 0
14.133487 -0.169422 3.726268 14.617429 -0.011987 1.313032 0.011157 -0.001123 1212220.000000 1 0 0
11.744087 -7.682322 2.481768 14.251345 -0.579283 1.395761 0.007559 -0.000199 603462.000000 1 0 0
9.180987 6.180778 3.497168 11.607012 0.592522 1.264743 0.005514 0.000216 2032750.000000 1 0 0
-4.056413 14.760578 -10.009832 18.290049 -1.302603 2.149911 0.012153 -0.005378 316376.000000 1 0 0
8.792787 -6.361022 9.212368 14.235288 -0.626283 0.866956 -0.000111 -0.001805 914551.000000 1 0 0
5.863087 -10.592222 -8.608332 14.855112 -1.065249 2.188894 0.001575 0.001969 369325.000000 1 0 0
5.393387 1.081378 0.571068 5.530291 0.197877 1.467350 -0.002724 0.000681 2132220.000000 1 0 0
-0.637213 9.988378 11.039668 14.901275 -1.507087 0.736456 0.004056 0.002884 718228.000000 1 0 0
-6.308113 -5.192822 1.025668 8.234664 0.688727 1.445917 0.008484 -0.004373 4915070.000000 1 0 0
-1.058413 3.945378 -10.738132 11.488853 -1.308701 2.778088 0.009005 -0.007299 631601.000000 1 0 0
10.930087 5.849178 1.264268 12.461062 0.491366 1.469164 0.004977 -0.002612 1496490.000000 1 0 0
-10.152013 -1.939922 -13.705132 17.165585 0.188811 2.495442 0.018333 -0.008137 1036300.000000 1 0 0
7.326087 10.955978 -6.064932 14.508219 0.981398 2.002077 0.010357 -0.003286 681855.000000 1 0 0
-12.444713 -3.013922 -9.579432 15.991252 0.237610 2.213101 0.014507 -0.004777 69368.200000 1 0 0
-3.918213 -8.655122 2.452268 9.812092 1.145696 1.318196 0.008561 -0.000289 -553814.000000 1 0 0
8.036187 -6.663222 -5.879232 11.980993 -0.692266 2.083704 0.000504 -0.006391 1783280.000000 1 0 0
14.417587 3.175278 -4.284932 15.372373 0.216776 1.853281 0.022117 -0.004048 1250730.000000 1 0 0
-2.502013 -4.859622 9.815668 11.234915 1.095333 0.508090 0.002807 -0.000187 2537110.000000 1 0 0
3.535587 -1.973622 -4.610032 6.135793 -0.509129 2.420878 -0.002970 -0.001343 -1584690.000000 1 0 0
-4.098913 8.334878 -3.507532 9.928447 -1.113748 1.931872 -0.001467 0.000882 1548300.000000 1 0 0
5.850087 0.115278 11.771968 13.145951 0.019703 0.461283 -0.006616 -0.001544 -361172.000000 1 0 0
7.035187 4.774078 12.443068 15.070355 0.596219 0.599416 0.005376 0.000274 1711400.000000 1 0 0
1.096987 -14.610222 12.366168 19.172482 -1.495853 0.869779 0.001314 -0.006042 -1550950.000000 1 0 0
2.972487 8.707578 -9.086032 12.931109 1.241832 2.349910 0.009075 -0.003448 1047220.000000 1 0 0
-4.357913 -8.896522 -4.589132 10.917859 1.115306 2.004608 0.012012 -0.002026 773443.000000 1 0 0
5.767287 -6.596322 -4.077032 9.664122 -0.852352 2.006307 -0.000624 -0.003676 2384400.000000 1 0 0
-3.104913 3.450078 8.708068 9.867825 -0.838006 0.489707 0.001326 -0.000527 3000340.000000 1 0 0
-3.809313 3.163878 -11.124732 12.177055 -0.693102 2.722802 0.002393 -0.008164 113234.000000 1 0 0
3.091887 -6.140022 8.546768 10.968449 -1.104303 0.677386 -0.001169 0.000562 296754.000000 1 0 0
-5.136413 -8.745522 10.555968 14.638830 1.039753 0.765417 0.009182 -0.004787 2251060.000000 1 0 0
-13.169313 -2.675922 6.522268 14.937581 0.200465 1.118942 0.018599 -0.011009 -738180.000000 1 0 0
3.976687 -5.936622 -8.334232 10.978021 -0.980588 2.432840 -0.003797 -0.000384 2105770.000000 1 0 0
2.951087 -0.495022 12.337068 12.694770 -0.166195 0.237952 -0.002517 -0.000031 2914100.000000 1 0 0
1.412187 -1.392922 -7.465732 7.724744 -0.778530 2.881904 0.000406 -0.003095 890514.000000 1 0 0
3.596987 -3.447922 3.448168 6.059401 -0.764242 0.965433 -0.002366 0.000278 3186720.000000 1 0 0
1.537087 0.447078 -11.768332 11.876707 0.283051 3.006398 0.005888 -0.006839 -280433.000000 1 0 0
4.049587 3.571978 -10.584232 11.882094 0.722815 2.669837 0.004448 -0.003307 50938.100000 1 0 0
2.775587 3.286078 3.421668 5.496362 0.869416 0.898821 -0.007848 0.004808 -973990.000000 1 0 0
-5.261213 0.869078 2.493668 5.886768 -0.163708 1.133374 0.002299 -0.001050 520795.000000 1 0 0
-9.519913 -9.337822 5.597068 14.462048 0.775742 1.173401 0.007075 -0.002151 -1082640.000000 1 0 0
-3.071613 3.821178 -0.592932 4.938398 -0.893719 1.691152 0.000701 -0.001248 -881193.000000 1 0 0
-15.819113 -6.542922 5.010368 17.836983 0.392183 1.286067 0.031781 -0.014851 1351510.000000 1 0 0
0.937887 6.748378 -8.024432 10.526716 1.432701 2.437643 0.007579 -0.003585 1020690.000000 1 0 0
-1.628313 6.494978 -9.429732 11.565293 -1.325156 2.524125 0.007753 -0.005236 200695.000000 1 0 0
2.082187 -0.281122 5.289268 5.691299 -0.134201 0.378120 -0.001806 0.002242 3643530.000000 1 0 0
-3.399113 -0.589322 -6.341132 7.218811 0.171669 2.643338 0.007499 -0.009883 -83389.000000 1 0 0
2.019687 -1.096122 -2.422232 3.338837 -0.497236 2.382516 -0.001364 -0.001297 969417.000000 1 0 0
2.533087 -8.630722 -7.682732 11.829213 -1.285317 2.277685 -0.001826 0.001769 1926990.000000 1 0 0
-2.502813 14.064078 -5.615632 15.349192 -1.394682 1.945351 0.005301 0.000839 3411600.000000 1 0 0
6.850387 -5.066422 -8.044132 11.717700 -0.636800 2.327453 0.001348 -0.004777 2666650.000000 1 0 0
-14.241813 -5.102022 -2.147132 15.279727 0.343999 1.711785 0.017815 -0.006209 261510.000000 1 0 0
-2.851613 6.864478 -6.826832 10.092492 -1.177071 2.313697 0.003301 -0.002795 -817526.000000 1 0 0
-5.668013 -1.204122 -8.092032 9.952752 0.209330 2.520159 0.013227 -0.012448 453255.000000 1 0 0
-5.653213 -10.652822 3.447368 12.542957 1.082909 1.292368 0.005580 0.000408 -2463670.000000 1 0 0
8.130087 -7.538022 6.618068 12.911968 -0.747628 1.032641 0.004438 -0.001819 503946.000000 1 0 0
8.805587 -5.824622 13.116368 16.837568 -0.584396 0.677736 0.033368 -0.006144 438265.000000 1 0 0
-4.861613 9.510078 -0.799732 10.710576 -1.098224 1.645533 -0.003421 0.004381 1251450.000000 1 0 0
2.812487 6.763578 12.223568 14.250322 1.176720 0.539871 0.005613 0.000421 -1085650.000000 1 0 0
6.078687 -2.787222 10.993368 12.867524 -0.429920 0.546498 -0.000560 -0.001439 -227663.000000 1 0 0
-9.638613 -6.526722 -1.053832 11.688093 0.595221 1.661082 0.009567 -0.006417 1021810.000000 1 0 0
0.821387 -13.417822 6.316768 14.853086 -1.509657 1.131522 0.009398 -0.002336 577590.000000 1 0 0
-0.481713 -3.116922 8.723968 9.276576 1.417462 0.346904 0.001938 -0.000650 984047.000000 1 0 0
4.197887 0.796078 3.391568 5.455156 0.187412 0.899862 -0.007519 0.003995 902047.000000 1 0 0
-10.270313 5.485178 8.370868 14.340081 -0.490539 0.947470 -0.002467 -0.009172 286787.000000 1 0 0
9.350887 7.970878 0.090868 12.287483 0.705897 1.563401 0.003331 -0.002267 912877.000000 1 0 0
4.325787 2.875678 8.229568 9.731790 0.586692 0.563038 -0.008395 0.003769 3611170.000000 1 0 0
1.303787 2.643778 -9.716532 10.153838 1.112641 2.847040 0.007546 -0.006798 2082200.000000 1 0 0
-1.334813 -10.085222 2.981768 10.601149 1.439208 1.285681 0.009649 0.000582 -1223840.000000 1 0 0
-9.956013 9.425578 9.054168 16.429901 -0.758037 0.987140 0.009451 -0.012650 4410.030000 1 0 0
9.749587 -1.982322 -7.599232 12.519280 -0.200589 2.223079 0.014900 -0.005544 787375.000000 1 0 0
-5.195013 -1.866322 6.787468 8.748773 0.344894 0.682784 0.001553 -0.001931 1526920.000000 1 0 0
3.218987 -7.886422 -4.970832 9.862388 -1.183268 2.099042 -0.005646 -0.000491 1365290.000000 1 0 0
-5.215813 4.856178 -13.114932 14.926105 -0.749707 2.643839 -0.003238 -0.011353 3359010.000000 1 0 0
-5.736113 9.590778 5.464168 12.439580 -1.031785 1.116025 -0.001815 0.001120 1050370.000000 1 0 0
-0.515213 -1.775022 -9.320832 9.502319 1.288302 2.945836 0.005314 -0.006517 873326.000000 1 0 0
-16.806013 0.138678 6.317468 17.954712 -0.008251 1.211244 0.041398 -0.016959 -34736.600000 1 0 0
-5.954113 -2.856322 4.057268 7.750578 0.447294 1.019867 -0.000962 -0.000933 2189840.000000 1 0 0
1.069887 -5.716922 -5.104732 7.738614 -1.385792 2.291142 0.000143 -0.001316 249647.000000 1 0 0
-6.999613 1.313878 -8.549832 11.127466 -0.185548 2.447062 0.003726 -0.008200 18408.700000 1 0 0
8.007487 1.987678 4.916068 9.604084 0.243310 1.033433 -0.003120 0.003350 1661580.000000 1 0 0
0.578287 -8.038422 -0.505732 8.075049 -1.498980 1.633466 0.003763 0.001953 861677.000000 1 0 0
5.358587 5.547478 -3.307532 8.392183 0.802716 1.975907 -0.001001 -0.000704 -568757.000000 1 0 0
-0.685213 -0.336322 -1.201032 1.423063 0.456284 2.575451 0.000139 -0.002976 619493.000000 1 0 0
9.002187 6.392378 -6.335632 12.729576 0.617467 2.091752 0.007842 -0.005647 55841.900000 1 0 0
-14.955413 -7.144322 2.512268 16.763568 0.445656 1.420365 0.004474 -0.008001 223044.000000 1 0 0
-6.498713 6.787378 8.935668 12.967186 -0.807122 0.810552 -0.002893 -0.001044 487282.000000 1 0 0
-9.480613 -3.279422 -9.652332 13.921356 0.333025 2.336920 0.009346 -0.005304 885675.000000 1 0 0
14.923287 3.490878 -1.277632 15.379307 0.229790 1.653967 0.009229 -0.003051 1114710.000000 1 0 0
12.041787 1.771478 -5.734432 13.454608 0.146063 2.011091 0.019528 -0.004597 680352.000000 1 0 0
1.741387 -9.497822 12.646068 15.911131 -1.389464 0.652129 -0.009052 -0.000430 -671160.000000 1 0 0
-3.652913 6.371378 7.911168 10.794665 -1.050217 0.748255 0.001496 0.000823 2228320.000000 1 0 0
-4.243913 13.032778 -12.383032 18.471697 -1.255991 2.305515 0.005708 -0.006288 699811.000000 1 0 0
-10.337013 7.645878 6.493868 14.404291 -0.636851 1.103103 -0.002948 -0.007271 1527980.000000 1 0 0
8.100687 -9.276222 -7.162832 14.246950 -0.852945 2.097588 0.006066 -0.003073 -1053390.000000 1 0 0
5.883087 -3.752222 -0.388132 6.988600 -0.567750 1.626363 -0.001412 -0.000418 -1050290.000000 1 0 0
-1.639513 -4.416522 4.188868 6.303989 1.215341 0.844000 0.003248 0.000525 371213.000000 1 0 0
9.885287 -2.015422 -2.581232 10.413625 -0.201124 1.821278 0.004371 -0.004169 -1382160.000000 1 0 0
13.520087 7.072178 1.405368 15.322647 0.481946 1.478949 0.018514 -0.002870 -1154520.000000 1 0 0
5.461087 -3.700822 -3.273532 7.364480 -0.595583 2.031416 -0.004072 -0.002439 -2867420.000000 1 0 0
-12.254713 -6.007622 1.966768 13.789042 0.455801 1.427676 0.003604 -0.002998 2043850.000000 1 0 0
3.822987 -5.780222 -0.264132 6.935125 -0.986455 1.608892 -0.001058 0.000270 107017.000000 1 0 0
-5.253213 3.651478 -8.703832 10.802140 -0.607426 2.507738 0.000215 -0.006839 1207430.000000 1 0 0
-1.712713 -9.251122 7.252868 11.879425 1.387733 0.914054 0.004512 0.000064 2704400.000000 1 0 0
-7.379513 -7.413722 2.596568 10.777878 0.787711 1.327486 0.007458 -0.004177 -5372730.000000 1 0 0
-5.865713 13.048778 -8.622832 16.704204 -1.148340 2.113213 0.010686 -0.007902 1923190.000000 1 0 0
9.245087 -13.840022 -4.234132 17.173984 -0.981874 1.819908 0.020813 -0.003896 -47143.400000 1 0 0
-6.513213 -5.147222 -6.769932 10.712041 0.668782 2.254918 0.016947 -0.007765 1527850.000000 1 0 0
3.386887 0.397978 -6.160732 7.041592 0.116969 2.636038 -0.000362 -0.005284 702159.000000 1 0 0
-3.675013 5.723578 4.989268 8.435512 -1.000007 0.937928 0.001579 0.003945 822589.000000 1 0 0
-2.605513 -10.811422 -2.878932 11.487550 1.334309 1.824110 0.010489 -0.000257 2377640.000000 1 0 0
-12.601513 -0.464922 1.734968 12.728880 0.036877 1.434069 0.009624 -0.005426 334882.000000 1 0 0
8.400587 -11.894322 -6.083132 15.781295 -0.955876 1.966508 0.016254 -0.008155 -677980.000000 1 0 0
6.167587 3.932678 1.028668 7.386694 0.567635 1.431083 -0.004134 -0.000459 -766363.000000 1 0 0
3.446587 -4.773422 -10.894432 12.383585 -0.945433 2.646128 -0.000613 -0.000769 1505570.000000 1 0 0
-7.700613 4.183778 8.659568 12.320371 -0.497688 0.791378 -0.003978 -0.001176 1455880.000000 1 0 0
8.154287 8.836478 4.145368 12.718483 0.825527 1.238798 0.009773 -0.000362 370246.000000 1 0 0
0.164687 10.585978 -6.312332 12.326216 1.555240 2.108432 0.004788 0.000390 1835100.000000 1 0 0
5.362087 8.170778 3.365368 10.336309 0.990039 1.239164 0.003567 0.002038 4492050.000000 1 0 0
7.951887 6.757378 -3.752332 11.089394 0.704368 1.915982 0.002664 -0.003815 -697035.000000 1 0 0
10.536287 2.624178 -8.196932 13.604755 0.244095 2.217432 0.011932 -0.006166 1475800.000000 1 0 0
3.408887 -12.537122 -0.364332 12.997410 -1.305311 1.598831 0.005598 -0.001588 -2029160.000000 1 0 0
0.649987 2.158878 5.299568 5.759223 1.278352 0.402236 -0.002072 0.004550 1083520.000000 1 0 0
-4.919913 13.365378 1.445168 14.315285 -1.218081 1.469671 -0.007874 0.004559 584329.000000 1 0 0
8.180787 4.173378 -8.110432 12.252407 0.471730 2.294208 0.003540 -0.002654 167739.000000 1 0 0
-13.905113 -0.657322 -3.515032 14.357566 0.047237 1.818131 0.013719 -0.007119 26917.300000 1 0 0
-8.522713 -0.077122 -0.517532 8.538760 0.009049 1.631443 0.007181 -0.004812 382941.000000 1 0 0
1.868487 -3.812822 -1.073632 4.379674 -1.115137 1.818460 0.001041 -0.000614 -493901.000000 1 0 0
8.103087 -5.572422 -0.342532 9.840185 -0.602417 1.605613 0.003095 -0.001720 2513000.000000 1 0 0
-2.333613 -1.226822 7.355468 7.813690 0.484010 0.344168 0.003320 0.000048 2127600.000000 1 0 0
-5.877213 8.689878 -11.617932 15.653497 -0.976134 2.407135 -0.001781 -0.007414 -1299580.000000 1 0 0
-6.296813 9.155778 -8.806532 14.178615 -0.968345 2.240959 0.000080 -0.002956 -338691.000000 1 0 0
-1.586413 14.006178 -8.447132 16.433009 -1.458012 2.110678 0.018649 -0.000715 146386.000000 1 0 0
-1.536813 7.240078 9.838868 12.311939 -1.361636 0.644946 0.005738 -0.000825 1038500.000000 1 0 0
10.007887 2.412478 -3.999432 11.044153 0.236545 1.941350 0.006694 -0.003765 -2004170.000000 1 0 0
-2.910313 -7.561022 -6.943832 10.670323 1.203366 2.279383 0.009013 -0.002412 1492660.000000 1 0 0
-5.496713 -5.019622 -1.619232 7.617898 0.740063 1.784987 0.011804 -0.004292 -55263.200000 1 0 0
5.672687 7.440178 -8.723632 12.792083 0.919381 2.321229 0.006055 0.000284 945563.000000 1 0 0
-9.601113 5.141678 -7.434732 13.186867 -0.491665 2.169774 -0.001644 -0.001510 -354964.000000 1 0 0
-0.550613 6.158778 -5.276832 8.128879 -1.481630 2.277258 0.007248 -0.002946 -2312420.000000 1 0 0
-8.218513 2.710278 -6.394732 10.760212 -0.318547 2.207184 0.003568 -0.001170 871890.000000 1 0 0
3.708387 1.425078 -1.960032 4.429978 0.366886 2.029122 -0.003899 -0.002547 1926110.000000 1 0 0
-6.809513 12.480778 -3.603532 14.667131 -1.071337 1.819025 0.003914 0.002607 3704070.000000 1 0 0
-6.512113 3.115878 -2.369532 7.598092 -0.446279 1.887945 0.000519 -0.001007 -1299270.000000 1 0 0
12.068087 4.122778 -0.842332 12.780671 0.329196 1.636751 0.003809 -0.003701 276744.000000 1 0 0
2.249787 12.359578 -5.435932 13.688319 1.390740 1.979175 0.008551 -0.000701 -194768.000000 1 0 0
-9.213213 -1.474222 -4.258232 10.256177 0.158667 1.998945 0.008064 -0.005560 -1124650.000000 1 0 0
-1.106313 5.850778 3.490668 6.902195 -1.383915 1.040565 -0.001172 0.003604 2257320.000000 1 0 0
11.410987 2.745578 12.064468 16.831524 0.236120 0.771626 0.049156 -0.000278 865926.000000 1 0 0
-7.053513 -2.399922 -5.681932 9.369953 0.327958 2.222321 0.014718 -0.009299 -936605.000000 1 0 0
7.477287 -7.273422 10.890668 15.080422 -0.771578 0.763858 0.008035 0.000547 -1022010.000000 1 0 0
-5.479613 -2.054622 -10.845832 12.323949 0.358733 2.646788 0.012451 -0.004773 958235.000000 1 0 0
0.849387 -6.082422 4.432668 7.574025 -1.432047 0.945613 0.001296 0.000918 246952.000000 1 0 0
-4.812813 -9.322722 7.446468 12.865698 1.094237 0.953559 0.001604 -0.001298 2423640.000000 1 0 0
-8.814113 9.272978 1.666368 12.901685 -0.810762 1.441276 -0.001517 0.000662 344929.000000 1 0 0
-8.227313 7.209078 -9.063832 14.206074 -0.719530 2.262727 -0.002743 -0.002927 279751.000000 1 0 0
-1.159313 -10.634922 -0.159132 10.699107 1.462215 1.585670 0.007381 0.001670 59895.800000 1 0 0
-4.024113 10.273078 7.833968 13.531469 -1.197453 0.953363 -0.000947 0.003157 2100390.000000 1 0 0
-7.488813 11.979778 2.019068 14.271441 -1.012110 1.428844 -0.007873 0.000118 2977310.000000 1 0 0
-8.090813 -8.260622 -2.783532 11.893157 0.795783 1.807032 0.018969 -0.006339 890334.000000 1 0 0
5.369787 4.659878 -8.071132 10.756033 0.714735 2.419436 0.003588 -0.000686 1115180.000000 1 0 0
-8.981213 -0.253422 -10.205932 13.597333 0.028209 2.419741 0.005021 -0.008139 -2107750.000000 1 0 0
-15.300113 -2.344322 -1.482132 15.549470 0.152040 1.666258 0.016593 -0.009307 -1411040.000000 1 0 0
-7.174213 -5.829922 8.710968 12.701901 0.682390 0.815094 0.006979 -0.002611 -2061690.000000 1 0 0
8.117987 3.560278 -0.967132 8.916986 0.413305 1.679470 0.001902 -0.000881 642405.000000 1 0 0
11.854687 7.195078 -5.851332 15.051274 0.545506 1.970082 0.010275 -0.006289 391159.000000 1 0 0
3.751787 13.362178 -9.497032 16.817174 1.297068 2.170893 0.012696 -0.007400 909603.000000 1 0 0
-9.811513 5.345478 -0.461132 11.182690 -0.498855 1.612044 -0.001400 -0.000042 2185970.000000 1 0 0
11.273387 -1.247322 -5.207432 12.480482 -0.110195 2.001209 0.021189 -0.006948 -953055.000000 1 0 0
10.527887 1.729978 -1.240932 10.741003 0.162868 1.686587 0.004551 -0.001008 759274.000000 1 0 0
14.544687 5.168578 4.761568 16.153472 0.341441 1.271581 0.038019 -0.008479 1754130.000000 1 0 0
0.843387 -0.774622 10.331168 10.394439 -0.742924 0.110392 0.000798 -0.000377 2060410.000000 1 0 0
-7.971813 1.248778 -12.532232 14.905237 -0.155386 2.569544 0.000183 -0.007935 149241.000000 1 0 0
3.175587 -11.524122 -7.898632 14.327531 -1.301910 2.154707 -0.000929 0.003506 751195.000000 1 0 0
2.840987 4.995678 -6.683732 8.814777 1.053718 2.431409 0.003775 -0.000544 424856.000000 1 0 0
6.478087 7.988878 0.672868 10.307305 0.889451 1.505469 0.004488 -0.002887 478932.000000 1 0 0
-9.056213 -5.425022 6.682868 12.494262 0.539712 1.006437 0.003059 -0.003543 -789462.000000 1 0 0
-0.166813 -6.850822 -11.944932 13.771093 1.546452 2.620733 0.005516 0.001901 1983500.000000 1 0 0
6.482587 -13.399622 -4.684732 15.605144 -1.120202 1.875703 0.011634 -0.003853 2619770.000000 1 0 0
-3.298113 -0.319222 10.070768 10.601878 0.096489 0.317867 0.003365 -0.000548 -327611.000000 1 0 0
8.550387 8.573878 7.009868 13.991381 0.786770 1.046027 0.002389 0.000812 -537888.000000 1 0 0
-7.994613 5.637178 -2.676132 10.141661 -0.614155 1.837834 -0.001049 0.000561 283678.000000 1 0 0
-5.454013 5.747978 -6.503332 10.250797 -0.811634 2.258057 -0.001414 0.000806 -956889.000000 1 0 0
3.515087 -13.609122 2.508968 14.277919 -1.318032 1.394156 0.014955 -0.007960 -2126020.000000 1 0 0
-11.194513 -7.004222 6.455568 14.698660 0.559091 1.116095 0.009939 -0.007637 -1403040.000000 1 0 0
-12.955413 -3.830022 -6.697432 15.078707 0.287444 2.031038 0.015078 -0.007007 -266508.000000 1 0 0
6.027487 0.351378 -7.246332 9.432041 0.058230 2.446927 0.000101 -0.000627 642828.000000 1 0 0
-1.450413 2.165678 -2.432432 3.565191 -0.980678 2.321663 0.002207 -0.003665 2162920.000000 1 0 0
7.557287 1.001278 -4.877332 9.050056 0.131725 2.139961 0.001969 -0.001210 1726.610000 1 0 0
3.711987 -4.492222 10.894268 12.354917 -0.880215 0.491182 -0.001437 -0.000247 -613231.000000 1 0 0
5.990587 -2.500722 2.052468 6.808331 -0.395451 1.264568 -0.000888 -0.000683 -251981.000000 1 0 0
-6.350813 7.707078 1.170068 10.054896 -0.881578 1.454164 -0.004163 0.002868 566392.000000 1 0 0
6.040987 -3.378922 8.037468 10.607145 -0.509980 0.710952 0.000953 -0.003459 -335229.000000 1 0 0
6.682687 -2.256022 -7.803332 10.518552 -0.325579 2.406642 0.001276 -0.004099 1033640.000000 1 0 0
12.194287 -7.985022 -5.866432 15.712296 -0.579754 1.953431 0.031736 -0.011204 717876.000000 1 0 0
5.653687 -9.623922 10.024468 15.002467 -1.039647 0.839026 0.002183 0.001775 2421750.000000 1 0 0
-6.733713 7.499778 -4.559832 11.062623 -0.839168 1.995646 -0.002228 0.002474 -201846.000000 1 0 0
-1.314813 -7.561522 9.736368 12.397669 1.398636 0.667554 0.002284 -0.001109 752875.000000 1 0 0
10.108287 -9.277422 0.755068 13.741112 -0.742565 1.515819 0.005126 -0.001486 106995.000000 1 0 0
11.113687 6.213978 9.891468 16.123545 0.509825 0.910337 0.012985 0.001366 1936480.000000 1 0 0
-15.273713 -4.310722 -4.898932 16.609280 0.275077 1.870201 0.024068 -0.013238 811390.000000 1 0 0
-4.716713 -4.648822 7.818168 10.246105 0.778149 0.702796 0.001742 -0.001126 -1280850.000000 1 0 0
2.909587 10.938578 -11.023532 15.799888 1.310823 2.342974 0.005816 -0.005365 1180410.000000 1 0 0
9.956387 -1.264522 1.508268 10.149065 -0.126330 1.421632 0.002115 -0.000332 -1144250.000000 1 0 0
-1.557813 -2.742222 0.566968 3.204374 1.054175 1.392924 0.002558 -0.001756 -476727.000000 1 0 0
1.553987 3.065378 0.903368 3.553518 1.101606 1.313757 -0.004733 0.000031 -482462.000000 1 0 0
-8.896413 -2.366722 4.297368 10.159474 0.260009 1.134053 0.000758 -0.002238 4285640.000000 1 0 0
9.827187 4.978378 -2.665032 11.334031 0.468908 1.808154 0.003751 -0.002807 1041770.000000 1 0 0
2.538887 8.569978 2.553368 9.295706 1.282780 1.292537 -0.000214 0.000943 479136.000000 1 0 0
-8.086413 -0.105722 2.418368 8.440957 0.013073 1.280221 0.002130 -0.003157 2112370.000000 1 0 0
6.803887 2.130578 13.873068 15.597892 0.303469 0.474723 0.004788 -0.001938 -843524.000000 1 0 0
6.694987 4.408078 3.804668 8.872964 0.582268 1.127640 -0.005194 0.003008 1069120.000000 1 0 0
-0.274413 3.415278 7.868868 8.582453 -1.490620 0.410666 0.000385 0.002635 132398.000000 1 0 0
2.764187 -10.309422 9.189768 14.084628 -1.308835 0.859960 -0.000111 -0.002659 2834660.000000 1 0 0
1.406787 -4.520322 6.892968 8.362139 -1.269084 0.601820 -0.000301 -0.000060 36257.100000 1 0 0
-0.235513 10.789778 -2.034332 10.982408 -1.548972 1.757108 0.005698 -0.001373 1298020.000000 1 0 0
8.689187 5.672378 8.073468 13.147575 0.578347 0.909595 0.002259 0.003441 -689512.000000 1 0 0
2.580887 11.415978 -2.814932 12.037831 1.348457 1.806822 0.009540 -0.005066 2061380.000000 1 0 0
1.407887 2.464778 -6.657032 7.236944 1.051821 2.738540 0.003314 -0.004246 1902350.000000 1 0 0
-13.658413 -2.253622 3.568568 14.295654 0.163525 1.318502 0.010164 -0.005828 1465780.000000 1 0 0
-0.974313 -10.692022 -5.332432 11.987638 1.479922 2.031778 0.002210 0.002266 1295650.000000 1 0 0
-5.659213 2.858178 0.426968 6.354382 -0.467678 1.503553 0.004363 -0.001010 588573.000000 1 0 0
3.602287 7.242878 -4.959232 9.488400 1.109266 2.120768 0.004993 -0.000416 -2108370.000000 1 0 0
2.907187 9.755878 -6.446632 12.049397 1.281181 2.135324 0.008450 0.000233 757269.000000 1 0 0
-12.171513 1.515678 -2.600032 12.538069 -0.123889 1.779683 0.009066 -0.006231 724150.000000 1 0 0
-2.582913 9.658278 -5.776832 11.546669 -1.309481 2.094745 0.001416 -0.000026 469344.000000 1 0 0
-1.369613 3.473578 1.748468 4.122951 -1.195218 1.132849 -0.001815 0.001372 479746.000000 1 0 0
12.846687 3.831878 9.746268 16.574389 0.289876 0.942173 0.050557 -0.000914 1163050.000000 1 0 0
-2.517913 -9.558622 11.641568 15.271976 1.313229 0.703963 -0.001926 -0.007471 2018660.000000 1 0 0
-0.364413 -9.024822 -7.556032 11.775986 1.530439 2.267441 0.002891 0.002175 1985100.000000 1 0 0
2.363287 7.577078 -0.430732 7.948759 1.268459 1.625012 0.002254 -0.001626 2022460.000000 1 0 0
-11.851213 -1.448622 -5.512632 13.150622 0.121631 2.003351 0.007787 -0.003425 32836.900000 1 0 0
-6.152613 -7.200722 -10.872632 14.419403 0.863728 2.424969 0.014939 -0.002203 2559540.000000 1 0 0
-4.682713 -2.295822 -1.456632 5.414829 0.455838 1.843159 0.006178 -0.004458 -1247220.000000 1 0 0
-10.541113 3.742478 4.541468 12.072536 -0.341154 1.185124 0.003264 -0.002573 4734400.000000 1 0 0
6.676187 9.384678 -3.605532 12.068286 0.952465 1.874190 0.004778 -0.001592 681336.000000 1 0 0
1.250187 -2.664122 -11.462032 11.833795 -1.132035 2.890271 0.002867 -0.002094 -2164500.000000 1 0 0
1.153287 8.880178 7.663368 11.786214 1.441647 0.862952 -0.001273 0.004030 1266900.000000 1 0 0
10.345187 0.454378 10.491368 14.741036 0.043893 0.778864 0.009761 0.002252 394801.000000 1 0 0
-5.238113 -0.917822 -3.974932 6.639301 0.173459 2.212670 0.010193 -0.009128 -410990.000000 1 0 0
11.629387 5.799678 5.414168 14.078072 0.462614 1.176042 0.003805 0.000581 2736760.000000 1 0 0
9.912187 -3.386822 3.532968 11.054586 -0.329246 1.245496 0.007223 -0.003349 -1801060.000000 1 0 0
7.268287 -1.625022 -3.423132 8.196739 -0.219960 2.001622 -0.000809 -0.000886 -2494250.000000 1 0 0
2.301387 9.373578 10.516268 14.274180 1.330040 0.742569 0.002707 0.002123 3033680.000000 1 0 0
2.379987 -10.895522 6.328768 12.823028 -1.355737 1.054633 -0.000221 0.001338 726321.000000 1 0 0
5.901387 -7.554122 -1.279332 9.670978 -0.907616 1.703471 0.000010 -0.003194 -269096.000000 1 0 0
-0.224513 -5.559822 -2.289332 6.016899 1.530437 1.961116 0.004620 0.000596 -255454.000000 1 0 0
7.686987 -5.029422 2.639468 9.557805 -0.579376 1.291002 0.000563 -0.001874 1725600.000000 1 0 0
-2.590413 -12.513722 4.545368 13.563327 1.366674 1.229062 0.008902 0.000991 -768493.000000 1 0 0
4.969387 -10.268822 -1.143932 11.465256 -1.120087 1.670736 0.002903 -0.000551 196042.000000 1 0 0
0.923187 0.217978 1.130568 1.475795 0.231868 0.698087 -0.005287 0.000692 -490715.000000 1 0 0
-1.611313 8.631078 2.489068 9.126187 -1.386234 1.294557 -0.000035 0.004527 454606.000000 1 0 0
-7.506313 0.574978 -3.075432 8.132258 -0.076450 1.958623 0.004341 -0.003932 -496230.000000 1 0 0
4.410287 -6.339222 12.930368 15.060902 -0.962953 0.538383 0.013135 -0.001890 -39453.600000 1 0 0
-5.151713 12.987778 8.513068 16.361383 -1.193174 1.023577 0.006157 -0.004249 1735620.000000 1 0 0
0.588087 6.170178 8.314868 10.370823 1.475772 0.640569 -0.000737 0.004855 421324.000000 1 0 0
7.913587 -0.466122 -0.751532 7.962847 -0.058834 1.665317 -0.000077 -0.001538 3257260.000000 1 0 0
2.494887 -9.234822 -2.422632 9.867905 -1.306935 1.818838 -0.001296 0.001001 1720730.000000 1 0 0
-7.192613 12.121678 4.925668 14.930873 -1.035268 1.234601 -0.002033 -0.004572 535179.000000 1 0 0
-15.005113 0.168578 0.161168 15.006925 -0.011234 1.560057 0.013515 -0.009283 2245400.000000 1 0 0
6.778287 -0.493322 3.964268 7.867907 -0.072652 1.042743 -0.003599 0.003541 474577.000000 1 0 0
-4.178813 -4.991522 5.086168 8.261166 0.873791 0.907558 0.003721 -0.001478 -454107.000000 1 0 0
2.926587 5.178878 6.969268 9.162771 1.056434 0.706549 -0.006119 0.004576 1399.030000 1 0 0
2.095187 -7.230322 1.841568 7.749757 -1.288744 1.330872 -0.000956 0.001588 1943160.000000 1 0 0
-2.511813 6.453478 -1.711532 7.133437 -1.199619 1.813091 -0.000850 0.000523 615702.000000 1 0 0
2.672887 -3.885222 -6.548632 8.069936 -0.968195 2.517485 -0.004339 -0.002736 -1077240.000000 1 0 0
-5.124413 0.801078 -12.135732 13.197626 -0.155071 2.737702 0.004381 -0.003768 544961.000000 1 0 0
-7.547313 6.312778 -11.901832 15.442368 -0.696561 2.450776 -0.001792 -0.008417 2231500.000000 1 0 0
-1.131313 11.268078 -9.018932 14.477244 -1.470732 2.243334 0.009327 0.000700 577813.000000 1 0 0
4.647187 5.894478 -0.501932 7.522842 0.903171 1.637567 -0.001919 -0.000912 -663135.000000 1 0 0
-2.749313 13.478678 3.494268 14.193075 -1.369582 1.322044 -0.003831 0.004329 1784900.000000 1 0 0
1.497487 -7.963922 10.201268 13.028138 -1.384933 0.671293 -0.001657 -0.001015 -226594.000000 1 0 0
13.017187 -0.135822 -1.073832 13.062110 -0.010434 1.653099 0.014017 -0.006103 456357.000000 1 0 0
-1.049913 3.124278 -5.345732 6.280150 -1.246603 2.589085 0.004734 -0.006822 -269656.000000 1 0 0
6.557087 1.004378 7.356168 9.905421 0.151993 0.733792 -0.004870 0.005076 1764950.000000 1 0 0
5.513887 -6.095622 6.899568 10.731430 -0.835465 0.872478 -0.000491 0.000933 764161.000000 1 0 0
12.171787 -4.891922 2.541268 13.361936 -0.382149 1.379444 0.011224 -0.004527 -1407110.000000 1 0 0
4.405687 -9.162722 13.905068 17.225460 -1.122604 0.631337 0.005751 0.001629 148352.000000 1 0 0
-2.700013 -4.357922 -1.465932 5.332027 1.016115 1.849313 0.009650 -0.004450 1719910.000000 1 0 0
-9.289113 -5.143022 -7.497332 12.998011 0.505650 2.185610 0.015564 -0.006899 357252.000000 1 0 0
-10.541713 -3.217622 7.860068 13.537410 0.296246 0.951308 0.001587 -0.004433 507931.000000 1 0 0
12.016187 -0.439422 1.655068 12.137590 -0.036553 1.434011 0.006793 -0.002904 997610.000000 1 0 0
-7.579313 4.722178 4.416268 9.962348 -0.557185 1.111524 0.003678 -0.002126 2871000.000000 1 0 0
-1.134313 10.641578 6.944668 12.757674 -1.464605 0.995180 -0.003073 0.007358 2402990.000000 1 0 0
7.437887 -10.022922 1.869868 12.620520 -0.932378 1.422088 0.006484 -0.002570 4019690.000000 1 0 0
-4.228013 -1.719822 1.602168 4.837440 0.386328 1.233220 0.000762 -0.000617 2367230.000000 1 0 0
6.805187 -14.985222 -0.953732 16.485662 -1.144516 1.628681 0.031379 -0.012002 -1261790.000000 1 0 0
-10.464113 1.615778 2.432468 10.863945 -0.153201 1.344979 0.001973 -0.001624 798348.000000 1 0 0
-3.094213 8.281178 -11.362932 14.396815 -1.213215 2.480411 0.003421 -0.004777 -1095970.000000 1 0 0
-1.222213 -5.173722 -6.829932 8.655009 1.338815 2.480189 0.002899 -0.003374 247771.000000 1 0 0
12.761087 -0.322022 6.439268 14.297315 -0.025229 1.103602 0.011995 -0.001771 2040650.000000 1 0 0
6.056387 -13.304622 3.777768 15.098487 -1.143619 1.317901 0.011632 -0.004806 660514.000000 1 0 0
-5.566113 3.451278 -4.967632 8.220116 -0.555033 2.219716 0.001312 -0.002344 1450490.000000 1 0 0
-4.467513 8.074478 3.391168 9.831372 -1.065432 1.218629 -0.000112 0.003137 264195.000000 1 0 0
13.993787 6.137378 -4.054032 15.809132 0.413316 1.830130 0.024406 -0.002737 335806.000000 1 0 0
-6.727113 -8.567822 5.284468 12.107321 0.905170 1.119126 0.004533 -0.001684 1237350.000000 1 0 0
1.582787 11.434678 2.664768 11.847281 1.433250 1.343929 0.003540 -0.002163 1684180.000000 1 0 0
-7.468713 7.176178 5.983068 11.961451 -0.765426 1.046971 -0.000260 -0.004076 -882696.000000 1 0 0
-17.433213 -4.144722 5.147468 18.643821 0.233415 1.291067 0.049375 -0.013149 86858.700000 1 0 0
7.592787 -13.002722 -8.635932 17.358010 -1.042271 2.091532 0.024910 -0.007358 182893.000000 1 0 0
-2.435013 12.778178 -2.845032 13.315605 -1.382494 1.786118 -0.000520 0.002279 2253670.000000 1 0 0
-5.527513 13.966378 -5.885532 16.132347 -1.193939 1.944244 0.010828 0.000487 2063660.000000 1 0 0
-5.623713 2.480378 7.472468 9.675546 -0.415392 0.688335 0.002433 -0.002870 1564270.000000 1 0 0
-7.437713 5.033378 1.475768 9.101228 -0.594942 1.407927 0.001653 0.001274 1945270.000000 1 0 0
10.727487 -5.632822 -5.071832 13.135111 -0.483512 1.967227 0.015295 -0.008850 2312450.000000 1 0 0
-9.447313 -0.804922 6.826168 11.683158 0.084996 0.946811 -0.000355 -0.002834 1302370.000000 1 0 0
-11.304313 -4.616022 -2.539132 12.471662 0.387677 1.775822 0.008728 -0.005049 1424760.000000 1 0 0
6.520487 -4.245322 13.542468 15.618513 -0.577130 0.521490 0.020819 -0.004994 -1051650.000000 1 0 0
0.143087 10.279278 -11.648732 15.536312 1.556877 2.418518 0.009386 -0.002302 -369070.000000 1 0 0
-11.819713 -3.188022 1.433768 12.325777 0.263452 1.454210 0.006840 -0.005837 1831330.000000 1 0 0
5.160687 6.050578 5.473268 9.653955 0.864607 0.968003 -0.003894 0.004697 -5234610.000000 1 0 0
-7.086313 0.059178 8.152868 10.802249 -0.008351 0.715542 -0.000148 -0.003006 137626.000000 1 0 0
1.829087 2.193378 9.704168 10.115697 0.875716 0.286221 -0.001563 0.000373 3223600.000000 1 0 0
10.506387 -4.895922 -2.113832 11.782296 -0.436075 1.751180 0.009185 -0.007117 1955160.000000 1 0 0
-9.611013 -2.500622 -1.673132 10.070951 0.254539 1.737705 0.009038 -0.006970 -844723.000000 1 0 0
-1.919113 -5.226422 -9.883232 11.343578 1.218886 2.628565 0.012265 -0.003556 1784800.000000 1 0 0
7.646887 -1.602422 6.538368 10.187879 -0.206563 0.873980 0.000556 -0.000626 1816630.000000 1 0 0
1.551987 -11.923722 -2.611732 12.304672 -1.441364 1.784679 0.005584 0.003537 -2999840.000000 1 0 0
-0.782513 -1.452122 4.852868 5.125554 1.076534 0.327658 0.002945 0.001065 1323560.000000 1 0 0
7.636787 1.515078 9.988668 12.664496 0.195849 0.662082 -0.007049 0.003927 1788380.000000 1 0 0
-3.899713 10.756578 -8.044832 13.986817 -1.222992 2.183611 0.006716 -0.001258 2612590.000000 1 0 0
-9.651713 12.534278 6.411068 17.069431 -0.914602 1.185766 0.009115 -0.009054 1959010.000000 1 0 0
-2.520213 -2.486822 -11.040932 11.594738 0.778729 2.831275 0.013588 -0.008206 -2166010.000000 1 0 0
1.251087 -11.985522 11.001168 16.316974 -1.466790 0.830893 -0.006907 0.003856 2605770.000000 1 0 0
1.385987 3.435678 -1.958732 4.190641 1.187354 2.057151 -0.001654 -0.001408 3058730.000000 1 0 0
-1.842813 -9.404822 -12.111432 15.444528 1.377304 2.472185 0.002306 0.001593 1371380.000000 1 0 0
1.309287 -2.730622 1.558768 3.405919 -1.123697 1.095430 0.003107 -0.000463 3114110.000000 1 0 0
-1.083313 -2.225822 -6.529332 6.982838 1.117843 2.779208 0.005304 -0.008657 -1431490.000000 1 0 0
1.826787 5.918178 4.154568 7.458043 1.271401 0.979957 -0.006039 0.006201 -2269390.000000 1 0 0
-11.089613 8.537178 3.608368 14.452793 -0.656075 1.318461 -0.003553 -0.002990 1853880.000000 1 0 0
-16.385713 -1.633122 3.996168 16.944853 0.099339 1.332720 0.037789 -0.013303 267159.000000 1 0 0
-12.248213 0.168078 6.863668 14.041257 -0.013722 1.060058 0.003345 -0.000478 1111570.000000 1 0 0
-5.160213 2.922278 4.656768 7.540092 -0.515279 0.905108 0.002170 0.000642 1400220.000000 1 0 0
5.216987 -6.012222 3.962668 8.891935 -0.856099 1.108899 -0.001971 -0.000481 774834.000000 1 0 0
9.875487 3.569278 6.366168 12.279783 0.346819 1.025786 -0.002218 0.005192 1213450.000000 1 0 0
-12.266313 5.796678 3.150568 13.928029 -0.441463 1.342618 0.001971 -0.001975 1674310.000000 1 0 0
-5.043113 12.302778 -1.298632 13.359558 -1.181770 1.668156 -0.005216 0.005641 613923.000000 1 0 0
-1.732413 -12.163022 10.292468 16.027328 1.429315 0.873454 0.005168 -0.005503 2838920.000000 1 0 0
5.194387 6.596078 13.880968 16.222551 0.903726 0.543974 0.002895 0.000207 452807.000000 1 0 0
12.946187 -3.596322 -6.025532 14.725635 -0.270958 1.992359 0.019731 -0.009450 814432.000000 1 0 0
3.577587 -2.531322 6.410868 7.765690 -0.615775 0.599643 -0.004311 0.001400 568108.000000 1 0 0
7.305087 -11.827522 -0.664532 13.917477 -1.017511 1.618563 0.009427 -0.002167 -895029.000000 1 0 0
-6.084913 -6.565322 -4.120532 9.854360 0.823356 2.002196 0.016154 -0.006733 109338.000000 1 0 0
0.343287 -8.905322 5.049768 10.243181 -1.532267 1.055275 0.007562 -0.000007 2293690.000000 1 0 0
-10.278913 2.374578 -0.380832 10.556501 -0.227032 1.606880 0.003610 -0.001935 -2054620.000000 1 0 0
-1.962713 8.993378 -0.356832 9.211971 -1.355926 1.609542 0.000789 0.001060 1649000.000000 1 0 0
-3.525513 2.257678 -6.679332 7.882882 -0.569585 2.581717 0.008306 -0.010829 554251.000000 1 0 0
-12.701613 2.942778 6.424868 14.535124 -0.227668 1.112943 0.005031 -0.007586 -467272.000000 1 0 0
11.353087 1.748178 7.957168 13.973733 0.152783 0.964975 0.010379 -0.000840 -2080230.000000 1 0 0
6.016987 2.716278 -3.207632 7.339701 0.424047 2.023085 -0.000884 -0.000734 614752.000000 1 0 0
10.496487 -2.306622 6.294568 12.454651 -0.216314 1.040952 0.006888 -0.002748 3236070.000000 1 0 0
-1.027513 11.190078 4.065368 11.949931 -1.479230 1.223667 0.001334 0.002640 1000860.000000 1 0 0
-1.638813 -12.197422 7.421468 14.371534 1.437239 1.028154 0.001090 0.000160 648028.000000 1 0 0
8.118087 8.736978 -7.794732 14.247666 0.822100 2.149678 0.008528 -0.004848 715146.000000 1 0 0
-4.655513 -6.023222 -8.695932 11.557346 0.912782 2.422519 0.014287 -0.004188 700039.000000 1 0 0
-8.588713 -5.439922 -11.605832 15.429002 0.564603 2.422204 0.016730 -0.003038 2769620.000000 1 0 0
6.035587 -0.657522 -9.922732 11.632767 -0.108513 2.592500 0.003026 -0.000197 -50976.500000 1 0 0
-11.223213 -5.530222 -5.303832 13.589500 0.457830 1.971742 0.011213 -0.007935 -599215.000000 1 0 0
3.872587 8.880578 -2.643632 10.042429 1.159584 1.837182 0.008880 -0.004163 40071.800000 1 0 0
11.772387 -10.270922 -4.046732 16.138680 -0.717389 1.824249 0.022999 -0.008713 121819.000000 1 0 0
4.046787 -11.352522 3.990668 12.695734 -1.228373 1.251044 0.004093 -0.002102 816781.000000 1 0 0
-1.046713 0.967778 3.225968 3.526906 -0.746235 0.416097 0.001329 0.000390 -2104940.000000 1 0 0
-10.562413 -5.102822 4.472768 12.554243 0.450046 1.206518 0.003146 -0.003702 2748720.000000 1 0 0
4.636487 -8.673522 2.837768 10.236206 -1.079887 1.289888 0.000984 0.000172 4603950.000000 1 0 0
-3.717513 -5.686322 2.632768 7.285988 0.991780 1.201085 0.004700 -0.001775 412434.000000 1 0 0
9.938087 5.188978 12.309668 16.649894 0.481195 0.738730 0.024298 0.001377 1320620.000000 1 0 0
1.621687 -12.416022 -5.343232 13.613876 -1.440919 1.974127 0.001853 0.002395 1630080.000000 1 0 0
9.940587 -10.710822 -1.784732 14.721489 -0.822678 1.692328 0.008920 -0.005096 593400.000000 1 0 0
9.618987 -4.456322 -9.132932 13.992647 -0.433846 2.281933 0.020126 -0.005300 3274310.000000 1 0 0
-7.474413 -3.170022 -13.033732 15.355588 0.401122 2.584497 0.011336 -0.004611 2645040.000000 1 0 0
0.409887 6.151478 -2.476432 6.643900 1.504262 1.952754 0.003665 -0.001780 3712790.000000 1 0 0
-6.022213 -9.476222 1.008368 11.273094 1.004677 1.481228 0.007224 -0.002518 239288.000000 1 0 0
-9.038613 -4.140922 0.613168 9.960910 0.429600 1.509200 0.004169 -0.005263 3665360.000000 1 0 0
1.986087 3.897078 12.220368 12.979566 1.099471 0.343718 0.000729 -0.002134 738253.000000 1 0 0
6.661687 4.307778 9.704368 12.534344 0.574016 0.685311 -0.007762 0.005947 2484250.000000 1 0 0
-8.333713 9.866678 -3.695232 13.433423 -0.869427 1.849467 -0.002866 0.001814 2258740.000000 1 0 0
16.553187 2.220778 -6.000532 17.746725 0.133364 1.915715 0.068774 -0.007124 195128.000000 1 0 0
-10.894513 2.481278 -5.111032 12.286977 -0.223935 1.999807 0.004252 -0.001152 1363660.000000 1 0 0
-13.811013 3.932678 1.367268 14.424959 -0.277407 1.475869 0.009804 -0.001831 -921547.000000 1 0 0
-17.420713 10.267178 3.347468 20.496383 -0.532564 1.406742 0.035842 -0.019989 73043.300000 1 0 0
-14.319213 2.713678 -1.242732 14.626971 -0.187292 1.655861 0.015771 -0.007118 694625.000000 1 0 0
-14.454913 4.951678 5.120768 16.114772 -0.330032 1.247421 0.003782 -0.003730 649083.000000 1 0 0
-17.486513 7.324378 3.060668 19.203967 -0.396657 1.410737 0.021952 -0.005834 -1542180.000000 1 0 0
-14.932613 12.557778 -3.425432 19.809450 -0.699224 1.744589 0.040173 -0.016668 -465093.000000 1 0 0
-8.650613 12.436078 -9.650832 17.961840 -0.963025 2.138025 0.009918 -0.012836 851188.000000 1 0 0
-12.442413 8.679678 -9.813932 18.068307 -0.609105 2.144989 -0.001953 0.000772 -1509780.000000 1 0 0
-13.855713 -3.483322 -12.225632 18.803734 0.246296 2.278605 0.031847 -0.003970 -1355590.000000 1 0 0
-14.778413 5.522178 -7.547432 17.488844 -0.357600 2.017014 0.018839 0.007267 802127.000000 1 0 0
-11.089613 13.481178 -8.381832 19.364317 -0.882426 2.018448 0.014530 -0.016990 1369880.000000 1 0 0
-10.873413 13.541978 3.945468 17.809632 -0.894264 1.347407 0.005961 -0.002052 -2346310.000000 1 0 0
-15.137213 3.101178 3.054768 15.750687 -0.202075 1.375614 0.010204 -0.004761 1684790.000000 1 0 0
-11.181113 9.242078 -12.473832 19.131905 -0.690739 2.281004 0.010079 -0.011684 -1837860.000000 1 0 0
-13.137613 11.394578 -8.993032 19.578251 -0.714466 2.048046 0.018562 -0.019864 -341193.000000 1 0 0
-8.904313 14.603578 -3.586632 17.476133 -1.023249 1.777495 0.010224 -0.004227 425246.000000 1 0 0
-16.746913 8.112578 -4.041732 19.042285 -0.451108 1.784674 0.035350 -0.003427 747218.000000 1 0 0
-16.864213 6.600878 0.202168 18.111161 -0.373082 1.559634 0.018906 0.002382 424289.000000 1 0 0
-10.442713 2.682878 -12.513232 16.517538 -0.251475 2.430382 0.006118 -0.011170 466394.000000 1 0 0
-16.889113 0.802178 2.373968 17.073996 -0.047461 1.431304 0.036975 -0.014360 1074310.000000 1 0 0
-12.647913 1.066878 -6.992932 14.491688 -0.084153 2.074358 0.006708 -0.004510 2062090.000000 1 0 0
-12.362213 8.938078 -5.365932 16.171171 -0.626007 1.909030 0.007062 0.003249 -627073.000000 1 0 0
-9.598613 13.971178 1.257268 16.997291 -0.968828 1.496760 0.011213 -0.001908 1201000.000000 1 0 0
-12.253113 11.121878 2.723168 16.770527 -0.737041 1.407696 0.005084 -0.003509 287464.000000 1 0 0
-12.626513 6.717078 -3.542732 14.734277 -0.488905 1.813617 -0.001308 0.005845 1024410.000000 1 0 0
-15.887913 3.582478 -9.355532 18.782596 -0.221776 2.092198 0.042369 -0.003888 -1505830.000000 1 0 0
-15.151813 5.703278 -4.579232 16.824809 -0.360005 1.846445 0.015530 0.004367 1194180.000000 1 0 0
-18.049013 5.201278 7.458068 20.209971 -0.280573 1.192832 0.041974 -0.012988 -828362.000000 1 0 0
-15.840013 10.091578 -2.107532 18.899409 -0.567249 1.682542 0.023044 -0.003180 -1319170.000000 1 0 0
-8.880913 9.950878 -8.343632 15.732348 -0.842154 2.129808 -0.003609 0.001060 688925.000000 1 0 0
-17.010113 4.059178 -1.221032 17.530311 -0.234252 1.640505 0.019084 -0.003967 1009490.000000 1 0 0
-10.253313 5.271178 -4.536532 12.389345 -0.474860 1.945680 0.001384 -0.000533 -381531.000000 1 0 0
-18.350313 2.652878 6.037968 19.499456 -0.143574 1.255974 0.064199 -0.019496 -499655.000000 1 0 0
-10.450613 10.114078 -5.717432 15.626865 -0.769035 1.945366 -0.005136 0.000303 324377.000000 1 0 0
-15.368713 0.366578 -5.862932 16.453136 -0.023848 1.935146 0.020355 -0.004655 1625080.000000 1 0 0
-16.372913 -4.259422 -8.905132 19.118482 0.254509 2.055320 0.046458 -0.018049 -1979000.000000 1 0 0
-9.996013 9.560378 -1.154432 13.879979 -0.763126 1.654065 -0.005614 0.004267 3213430.000000 1 0 0
-17.373013 -3.053522 -3.221532 17.931086 0.173985 1.751439 0.040558 -0.012496 -1235270.000000 1 0 0
-11.967913 4.904778 -11.578532 17.359441 -0.388949 2.300955 0.003069 -0.001376 -2445.030000 1 0 0
-16.440913 6.941378 5.806168 18.766937 -0.399498 1.256252 0.021525 -0.007345 761750.000000 1 0 0
-12.119213 5.859478 -8.821432 16.094299 -0.450350 2.150898 0.001981 0.000622 1977370.000000 1 0 0
-14.610913 8.329478 -0.132632 16.818935 -0.518133 1.578682 0.014428 0.000023 1277950.000000 1 0 0
-14.902113 11.749978 3.838068 19.361449 -0.667675 1.371242 0.011191 -0.013958 1919460.000000 1 0 0
-17.404113 3.914778 -4.019132 18.286117 -0.221252 1.792397 0.033254 -0.002799 358196.000000 1 0 0
-13.728213 13.499378 -0.934632 19.276166 -0.776994 1.619302 0.027115 -0.002336 506479.000000 1 0 0
-10.097213 6.682978 -13.138132 17.866909 -0.584670 2.396955 -0.006388 -0.010200 1589000.000000 1 0 0
-15.871413 -1.338022 -8.309732 17.965069 0.084105 2.051665 0.026243 -0.011425 -164611.000000 1 0 0
-11.446113 11.905178 -0.005032 16.515047 -0.805055 1.571101 0.010769 -0.000848 913604.000000 1 0 0
-12.016613 7.344178 -0.887732 14.111131 -0.548591 1.633748 -0.002741 0.007049 965066.000000 1 0 0
-11.470313 0.037378 -11.756132 16.424863 -0.003259 2.368497 0.012923 -0.008410 660134.000000 1 0 0
-19.038813 -1.505022 -4.781032 19.687553 0.078886 1.816094 0.036053 -0.022151 -1891700.000000 1 0 0
-17.992813 1.241378 -5.138032 18.753179 -0.068884 1.848327 0.021602 -0.013098 -622347.000000 1 0 0
-13.398913 -0.192622 -9.522732 16.439295 0.014375 2.188625 0.017778 -0.006100 829282.000000 1 0 0
-6.188813 11.080878 -13.172332 18.292009 -1.061441 2.374763 -0.006520 -0.007181 -147821.000000 1 0 0
16.429587 5.907478 6.884768 18.767782 0.345169 1.195187 0.094755 -0.016814 944783.000000 1 0 0
14.803287 10.202078 -5.563832 18.819562 0.603425 1.870923 0.069379 -0.016512 389941.000000 1 0 0
2.226487 16.933878 4.284468 17.608808 1.440065 1.325015 0.033346 -0.019320 2274620.000000 1 0 0
-3.857413 18.137978 -6.011832 19.493794 -1.361248 1.884304 0.027967 -0.008948 2206620.000000 1 0 0
5.293187 14.580978 5.680268 16.519328 1.222570 1.219776 0.026891 -0.014649 -409831.000000 1 0 0
9.907387 6.044378 15.113668 19.055544 0.547804 0.654853 0.055338 -0.007598 -1274260.000000 1 0 0
4.631487 12.738078 -1.091932 13.597853 1.222063 1.651185 0.006809 -0.008561 1501960.000000 1 0 0
3.284487 13.791178 12.907468 19.172563 1.336993 0.832233 0.026147 -0.015189 -47360.400000 1 0 0
-0.828113 12.385878 9.194468 15.447782 -1.504036 0.933286 0.004067 0.000157 -358855.000000 1 0 0
-7.854113 13.860078 8.342568 17.982972 -1.055244 1.088387 0.017551 -0.014238 1256830.000000 1 0 0
11.417587 12.743078 -4.218532 17.622240 0.840205 1.812531 0.086437 -0.017501 1653950.000000 1 0 0
-5.853113 16.069378 0.782668 17.120059 -1.221492 1.525064 0.001498 0.000784 982022.000000 1 0 0
3.220487 10.701878 6.802268 13.083294 1.278489 1.024039 0.006568 0.000519 1868780.000000 1 0 0
-1.313613 15.639578 2.411668 15.878858 -1.487000 1.418327 0.001452 -0.004294 -2462130.000000 1 0 0
9.888987 8.927178 9.571068 16.404021 0.734327 0.947815 0.016696 -0.003964 1710440.000000 1 0 0
7.211087 12.402278 6.211968 15.633452 1.044141 1.162168 0.018727 -0.008449 333500.000000 1 0 0
11.767087 13.901778 -1.578932 18.281597 0.868370 1.657271 0.080748 -0.015307 -212655.000000 1 0 0
9.624087 15.963178 -1.208632 18.679050 1.028252 1.635547 0.078390 -0.016696 1941990.000000 1 0 0
10.163887 13.666078 3.004868 17.294378 0.931319 1.396162 0.046480 -0.013356 2596080.000000 1 0 0
-6.041613 14.515078 6.277868 16.929270 -1.176377 1.190895 -0.011291 -0.001226 778924.000000 1 0 0
-0.878813 18.183778 -6.218332 19.237717 -1.522504 1.899944 0.032335 -0.001897 2483280.000000 1 0 0
-3.666513 15.780978 5.407868 17.080035 -1.342509 1.248633 -0.005600 -0.001752 748987.000000 1 0 0
7.006887 12.387878 10.545468 17.713353 1.056037 0.933108 0.021262 -0.010011 2215350.000000 1 0 0
1.367287 14.684178 6.217468 16.004732 1.477951 1.171818 0.013105 -0.009808 -586571.000000 1 0 0
17.355187 7.748678 -1.389632 19.057167 0.419920 1.643780 0.027679 -0.000437 -331522.000000 1 0 0
2.115887 16.183278 -3.366932 16.664684 1.440789 1.774237 0.001340 -0.011757 504948.000000 1 0 0
6.691087 11.188878 0.584768 13.050042 1.031840 1.525972 0.015355 -0.007004 2249330.000000 1 0 0
12.701287 9.376278 3.089168 16.086648 0.635916 1.377563 0.035983 -0.004230 -624531.000000 1 0 0
5.996287 14.345978 -3.424532 15.921368 1.174889 1.787581 0.015371 -0.003990 2316380.000000 1 0 0
3.051487 16.461978 1.560468 16.814974 1.387511 1.477860 0.023547 -0.024585 -777199.000000 1 0 0
2.665087 18.883078 -2.405132 19.221290 1.430586 1.696254 0.007491 -0.025541 -592138.000000 1 0 0
3.941787 12.009178 10.608668 16.501572 1.253645 0.872533 0.015404 -0.007727 1567820.000000 1 0 0
8.058987 11.541778 3.348768 14.469767 0.961249 1.337247 0.015423 -0.004329 785263.000000 1 0 0
0.619687 12.573478 0.142468 12.589545 1.521551 1.559480 0.008175 -0.006023 -710901.000000 1 0 0
11.931787 9.818778 -4.640132 16.134025 0.688555 1.862515 0.052313 -0.007490 -411074.000000 1 0 0
-1.322513 16.481678 9.946568 19.295827 -1.490726 1.029231 0.005260 -0.007736 -712910.000000 1 0 0
8.176087 14.828778 -8.047532 18.748435 1.066905 2.014445 0.061681 -0.006640 1617760.000000 1 0 0
14.492987 7.611178 -1.382432 16.428263 0.483575 1.655046 0.027424 -0.003217 -1240080.000000 1 0 0
12.519087 8.472778 5.917568 16.233703 0.594978 1.197675 0.026952 -0.005995 84203.200000 1 0 0
-3.044013 14.255178 10.225168 17.805341 -1.360419 0.959078 0.007352 -0.014174 2218330.000000 1 0 0
-4.594513 17.145678 -3.229032 18.041909 -1.308978 1.750740 0.020560 -0.006809 -700097.000000 1 0 0
-7.093513 16.410878 -1.901532 17.979173 -1.162805 1.676758 0.007558 -0.002277 1034940.000000 1 0 0
8.279587 11.239178 -1.879232 14.085531 0.935880 1.704611 0.019251 -0.007921 -460159.000000 1 0 0
8.517887 12.972278 -4.181232 16.072246 0.989780 1.833976 0.048467 -0.006006 1504480.000000 1 0 0
2.494987 14.819578 -7.309232 16.711365 1.404003 2.023481 0.005633 -0.002595 885714.000000 1 0 0
11.248787 11.515878 9.749368 18.820224 0.797130 1.026255 0.032289 -0.014340 1194430.000000 1 0 0
8.604787 15.743978 1.545268 18.008416 1.070610 1.484883 0.040429 -0.017164 1973670.000000 1 0 0
5.992187 10.067478 7.688968 14.013588 1.033912 0.990012 0.010421 0.003371 2060370.000000 1 0 0
14.497487 11.468278 2.466068 18.648861 0.669261 1.438171 0.055385 -0.007213 1732980.000000 1 0 0
12.120587 12.636378 1.026468 17.539678 0.806229 1.512240 0.058885 -0.007944 2287280.000000 1 0 0
5.289387 15.889378 8.209768 18.650743 1.249446 1.114992 0.037273 -0.013997 451780.000000 1 0 0
11.766787 14.967878 5.080768 19.705554 0.904566 1.310016 0.057092 -0.015107 1320290.000000 1 0 0
5.915687 16.731278 1.738468 17.831245 1.230944 1.473146 0.028473 -0.028713 318697.000000 1 0 0
-0.603513 16.156778 -4.220132 16.709734 -1.533460 1.826117 0.010440 -0.007459 1509180.000000 1 0 0
16.029687 6.492478 2.524868 17.477932 0.384834 1.425829 0.020881 -0.008599 -637265.000000 1 0 0
7.563687 16.792178 -3.141732 18.683069 1.147586 1.739758 0.043459 -0.011270 -377392.000000 1 0 0
14.836987 8.251578 7.408768 18.523352 0.507552 1.159313 0.078181 -0.015311 -188964.000000 1 0 0
1.998687 12.959078 8.575168 15.667353 1.417771 0.991629 0.011097 -0.004359 1514790.000000 1 0 0
15.909887 7.479678 -5.938432 18.556268 0.439465 1.896550 0.034749 -0.004729 -944501.000000 1 0 0
-3.024913 17.002878 0.634768 17.281519 -1.394732 1.534057 -0.002118 -0.008034 -379149.000000 1 0 0
-3.047113 18.617978 4.573568 19.412149 -1.408570 1.332957 -0.000015 -0.005708 642647.000000 1 0 0
-1.038613 19.089278 0.757668 19.132520 -1.516442 1.531185 0.006011 -0.020122 -16527.800000 1 0 0
6.987887 16.769378 -6.104332 19.165215 1.175972 1.894955 0.039507 -0.006031 1495440.000000 1 0 0
10.957487 10.060678 0.698368 14.891994 0.742756 1.523884 0.029679 -0.005158 -2505800.000000 1 0 0
9.185187 8.806478 14.328168 19.162936 0.764352 0.726202 0.046421 -0.008054 148157.000000 1 0 0
6.340687 12.426778 -8.388832 16.278871 1.098987 2.112178 0.033686 -0.010204 1228240.000000 1 0 0
6.412287 9.189978 13.245168 17.349570 0.961583 0.702191 0.017886 -0.009694 561920.000000 1 0 0
16.701987 9.503178 2.748068 19.411817 0.517302 1.428752 0.043069 -0.007740 -731601.000000 1 0 0
2.522087 14.740178 -0.822632 14.976999 1.401334 1.625750 0.007559 -0.012840 1629800.000000 1 0 0
9.070787 13.059578 8.331068 17.951001 0.963724 1.088178 0.023177 -0.011511 1892840.000000 1 0 0
7.180387 9.506878 10.488968 15.873157 0.923922 0.848913 0.012532 -0.004055 691760.000000 1 0 0
4.289587 15.800978 -5.318932 17.215182 1.305709 1.884904 0.019813 -0.005908 1694490.000000 1 0 0
0.241487 16.332178 -8.222732 18.286926 1.556011 2.037171 0.017070 0.000634 595869.000000 1 0 0
-2.414213 15.604978 -1.938332 15.909145 -1.417305 1.692937 -0.003729 -0.005120 2439780.000000 1 0 0
13.289587 10.584778 7.695968 18.651503 0.672586 1.145469 0.057524 -0.017146 2043210.000000 1 0 0
-1.101713 15.964778 7.039668 17.482701 -1.501897 1.156370 0.007746 -0.007843 2700980.000000 1 0 0
13.509987 13.405778 6.757268 20.196418 0.781527 1.229639 0.067391 -0.014105 213049.000000 1 0 0
5.231187 17.399678 4.433668 18.702179 1.278745 1.331451 0.035655 -0.027069 2198260.000000 1 0 0
10.684987 9.452178 -1.955232 14.399151 0.724254 1.707005 0.024320 -0.004161 691556.000000 1 0 0
3.134687 12.775878 4.728868 13.978967 1.330190 1.225703 0.011528 -0.000727 537922.000000 1 0 0
-0.307913 18.112678 3.522468 18.454584 -1.553798 1.378746 0.008644 -0.013392 1798270.000000 1 0 0
-7.770813 15.936078 -5.880232 18.679434 -1.117099 1.891039 0.034967 -0.011020 151382.000000 1 0 0
-12.394613 -9.050222 8.261268 17.429328 0.630691 1.076984 0.024434 -0.012920 -1015640.000000 1 0 0
-13.213713 -11.676722 6.977968 18.964179 0.723726 1.193987 0.039138 -0.006661 -2321930.000000 1 0 0
-6.497413 -12.262922 12.284568 18.533921 1.083561 0.846224 0.030638 -0.014733 -1329600.000000 1 0 0
-1.699413 -10.713922 14.317668 17.963066 1.413490 0.648383 -0.000573 -0.010150 1297530.000000 1 0 0
-8.808513 2.722978 10.996568 14.350227 -0.299812 0.697735 0.001167 -0.006388 36060.000000 1 0 0
0.569387 10.202978 15.191668 18.308788 1.515048 0.592142 0.008469 -0.006578 -755553.000000 1 0 0
0.971787 -6.830622 16.511368 17.894888 -1.429476 0.395806 0.013082 -0.014895 1441080.000000 1 0 0
5.955787 2.279678 17.884868 18.987807 0.365563 0.342514 0.023881 -0.007702 1172010.000000 1 0 0
-5.161613 -2.961722 17.725368 18.697666 0.520930 0.323908 0.029209 -0.009626 817301.000000 1 0 0
-4.446913 8.122478 13.059368 16.009271 -1.069888 0.616793 -0.001395 -0.000295 1578270.000000 1 0 0
0.015387 -4.868622 18.518568 19.147874 -1.567636 0.257088 0.016445 -0.017646 1016950.000000 1 0 0
-11.527513 1.892378 11.222468 16.199025 -0.162711 0.805450 0.009919 -0.009766 516919.000000 1 0 0
-3.374513 -6.113922 14.319168 15.931288 1.066466 0.453754 0.013357 -0.009550 1060360.000000 1 0 0
-7.473713 -2.351322 14.670768 16.631792 0.304808 0.490512 0.024102 -0.006098 1338910.000000 1 0 0
-6.136913 -1.143022 10.629068 12.326608 0.184144 0.531029 0.004627 -0.003964 -258230.000000 1 0 0
-3.987613 2.466978 11.215668 12.156407 -0.554027 0.395994 0.004115 -0.000230 240156.000000 1 0 0
-6.463613 6.027478 13.595568 16.215679 -0.750497 0.576417 -0.012409 -0.002222 -445170.000000 1 0 0
-8.977013 5.323978 12.455868 16.250543 -0.535307 0.697439 -0.010308 -0.008768 292574.000000 1 0 0
-12.368213 -2.418822 15.733668 20.158663 0.193130 0.675345 0.049198 -0.013749 1583180.000000 1 0 0
-3.457313 -7.692722 16.892568 18.880938 1.148419 0.463062 0.028208 -0.016044 -1453570.000000 1 0 0
-0.532013 -5.360722 14.315168 15.295241 1.471877 0.359926 0.004857 -0.002162 2096810.000000 1 0 0
-14.458513 -2.265722 13.637168 20.003860 0.155441 0.820676 0.039597 -0.013577 312582.000000 1 0 0
-6.456813 1.422578 12.203468 13.879437 -0.216857 0.496515 0.005269 -0.005232 1557120.000000 1 0 0
2.169587 -2.241022 14.539668 14.870481 -0.801593 0.211326 -0.000165 0.001288 62168.700000 1 0 0
-12.599613 3.873278 9.284668 16.123200 -0.298243 0.957144 0.008068 -0.007009 -149636.000000 1 0 0
-9.107213 -3.030022 12.610968 15.847992 0.321186 0.650559 0.012557 -0.004553 369374.000000 1 0 0
-7.116113 -7.326722 15.317268 18.410285 0.799979 0.588102 0.033558 -0.013398 -818022.000000 1 0 0
-3.297613 5.984678 19.367368 20.537418 -1.067179 0.339178 0.026634 -0.013747 -1868880.000000 1 0 0
0.671287 5.525078 16.190868 17.120786 1.449891 0.331101 0.003647 -0.006103 675007.000000 1 0 0
3.316387 1.547678 16.817268 17.210875 0.436635 0.214277 0.000114 -0.003552 1249680.000000 1 0 0
-11.823313 11.231778 7.773368 18.065680 -0.759746 1.125989 0.008432 -0.019094 337012.000000 1 0 0
0.672687 -9.504622 15.407668 18.115920 -1.500139 0.553853 -0.009004 -0.001798 -113844.000000 1 0 0
-2.569213 -3.673522 18.922468 19.446218 0.960482 0.232616 0.026003 -0.012825 1276670.000000 1 0 0
-12.894513 2.182578 13.741568 18.970050 -0.167675 0.760658 0.010065 -0.016381 939604.000000 1 0 0
-5.380113 -0.675922 15.832068 16.734899 0.124979 0.329973 0.014310 -0.002901 841054.000000 1 0 0
-4.528813 -5.930022 11.628768 13.816785 0.918579 0.570482 0.007627 -0.002152 1248500.000000 1 0 0
2.457787 1.876878 14.029668 14.366453 0.652177 0.216955 -0.003187 -0.000902 -94181.200000 1 0 0
0.113387 3.387178 14.280268 14.676916 1.537333 0.233015 0.008017 -0.006009 -954303.000000 1 0 0
-12.922213 7.183678 12.262668 19.208379 -0.507375 0.878376 0.007512 -0.004612 1305040.000000 1 0 0
0.816887 1.575378 18.349068 18.434679 1.092432 0.096412 0.004611 0.001073 1287480.000000 1 0 0
-2.049813 6.440678 12.597068 14.295810 -1.262672 0.492461 0.003571 -0.000708 1625330.000000 1 0 0
-13.614513 -2.726322 10.843868 17.617527 0.197637 0.907756 0.036191 -0.012840 140919.000000 1 0 0
-2.543913 3.611378 13.553568 14.255270 -0.957113 0.315066 0.006334 -0.001193 -628342.000000 1 0 0
3.517087 6.225878 16.357868 17.852487 1.056575 0.412106 0.003411 -0.005560 430283.000000 1 0 0
-3.762013 12.442378 12.328768 17.915469 -1.277181 0.811842 0.006001 -0.006491 261138.000000 1 0 0
3.605787 -1.474122 17.057468 17.496626 -0.388088 0.224523 0.020175 -0.004881 843705.000000 1 0 0
-15.870713 0.359378 9.068068 18.282192 -0.022640 1.051804 0.038698 -0.014948 874241.000000 1 0 0
-4.697713 4.448178 15.244368 16.560360 -0.758121 0.401352 0.000442 -0.002465 -441406.000000 1 0 0
-7.960613 -8.158822 10.430168 15.450765 0.797694 0.829753 0.016469 -0.011387 3086270.000000 1 0 0
-2.649613 -0.511722 14.741168 14.986138 0.190782 0.181059 0.011885 -0.001657 2874120.000000 1 0 0
-1.845713 0.967878 17.290368 17.415518 -0.482971 0.119956 0.014814 -0.004876 2294000.000000 1 0 0
-0.684113 -2.479822 14.362668 14.591222 1.301620 0.177228 0.006394 0.000910 -1426370.000000 1 0 0
5.216187 -8.212022 16.565368 19.210865 -1.004904 0.531019 0.022753 -0.000726 494553.000000 1 0 0
-4.566713 9.942278 10.706068 15.307633 -1.140217 0.796247 0.000675 0.000629 -1750700.000000 1 0 0
-6.231213 1.982678 15.218668 16.564023 -0.308056 0.405821 0.007078 -0.001247 -34474.900000 1 0 0
-5.005913 6.838478 17.142668 19.123153 -0.938901 0.459137 0.012225 -0.002699 -429145.000000 1 0 0
-4.327613 9.291778 15.673968 18.728017 -1.134925 0.579154 0.011551 -0.001659 -638868.000000 1 0 0
-4.656613 -10.060922 18.113768 21.237108 1.137315 0.549224 0.057214 -0.024317 -1270080.000000 1 0 0
-6.858913 -4.077922 11.032668 13.615942 0.536398 0.626174 0.011405 -0.001960 347513.000000 1 0 0
-2.356413 -0.851722 19.602968 19.762450 0.346837 0.127129 0.022495 -0.005686 -835805.000000 1 0 0
-5.674813 -4.622422 15.332068 16.989484 0.683550 0.445386 0.021294 -0.009467 1389750.000000 1 0 0
-12.960313 -0.076022 9.707168 16.192733 0.005866 0.927949 0.014428 -0.008098 1173890.000000 1 0 0
-14.430013 8.593878 10.224868 19.662857 -0.537145 1.023935 0.007244 -0.022258 -1653480.000000 1 0 0
-8.456013 10.540678 12.724568 18.561376 -0.894699 0.815451 0.009935 -0.017281 -2047180.000000 1 0 0
-10.482213 7.086078 10.802068 16.636525 -0.594443 0.864135 0.004467 -0.007556 -2019180.000000 1 0 0
-9.874713 -6.595422 14.762768 18.945946 0.588863 0.677401 0.049693 -0.019759 1196110.000000 1 0 0
-0.691813 -13.515522 14.371668 19.740638 1.519654 0.755360 0.002140 -0.015981 202446.000000 1 0 0
3.751087 -5.662122 16.950268 18.260390 -0.985692 0.381107 0.032125 -0.009753 3015850.000000 1 0 0
-7.349813 9.225478 10.375868 15.709482 -0.898079 0.849333 0.002430 -0.007314 86305.700000 1 0 0
-10.343913 -6.681222 11.714268 16.995862 0.573494 0.810354 0.039123 -0.023151 2546000.000000 1 0 0
-10.977213 -3.921722 10.720268 15.836769 0.343128 0.827223 0.018445 -0.007336 -1624820.000000 1 0 0
-10.010813 -10.222322 9.742968 17.310045 0.795851 0.972966 0.028378 -0.016776 1660300.000000 1 0 0
-9.919213 -3.726822 15.248368 18.568594 0.359400 0.607301 0.047707 -0.020261 950027.000000 1 0 0
5.537287 -3.370522 16.134968 17.388477 -0.546789 0.382025 0.029810 -0.006676 902122.000000 1 0 0
-11.365513 0.344278 15.377968 19.125253 -0.030282 0.636693 0.024474 -0.009146 -396315.000000 1 0 0
-3.299813 3.093278 18.790668 19.327346 -0.753103 0.236209 0.028036 -0.011664 -433803.000000 1 0 0
0.485487 7.435378 13.970968 15.833776 1.505595 0.489959 0.006514 -0.007501 1826190.000000 1 0 0
-13.209813 -7.189022 12.234468 19.387197 0.498393 0.887879 0.058408 -0.030120 1604190.000000 1 0 0
-1.555313 -1.057022 12.110068 12.255204 0.596917 0.154054 0.007015 0.000202 10134.000000 1 0 0
1.986087 -4.804022 13.064468 14.060707 -1.178773 0.378697 0.000071 -0.000352 877546.000000 1 0 0
-14.558913 -4.243922 8.592268 17.429856 0.283640 1.055305 0.034439 -0.018893 -1610110.000000 1 0 0
7.970787 0.912378 16.199468 18.077296 0.113969 0.459843 0.053052 -0.012903 815990.000000 1 0 0
-1.333313 11.409578 13.372968 17.629307 -1.454465 0.709689 0.007514 -0.003543 334571.000000 1 0 0
2.881087 -12.194422 -13.712232 18.574981 -1.338788 2.401209 0.023841 -0.001968 -620850.000000 1 0 0
0.829687 -10.717922 -13.975232 17.631488 -1.493539 2.485906 0.015790 0.002943 -2278820.000000 1 0 0
3.228887 -14.382022 -12.374732 19.245838 -1.349950 2.269182 0.031662 -0.003024 1315980.000000 1 0 0
-4.930213 -10.502722 -16.061132 19.813484 1.131909 2.516000 0.024019 -0.013465 -30635.900000 1 0 0
-1.031213 -12.248622 -15.049132 19.431123 1.486804 2.456698 0.028330 -0.007609 218051.000000 1 0 0
5.797287 -14.976622 -12.187632 20.160509 -1.201469 2.219972 0.026961 -0.002975 788448.000000 1 0 0
2.082187 -11.776622 -16.069632 20.031411 -1.395798 2.501804 0.036010 -0.005333 -584389.000000 1 0 0
1.241387 -14.280622 -14.115232 20.117579 -1.484086 2.348488 0.047005 -0.001406 -293727.000000 1 0 0
-0.932713 -10.721022 -15.991532 19.275357 1.484016 2.549252 0.022955 -0.005005 -613905.000000 1 0 0
-5.973013 -5.873922 -15.169532 17.329009 0.777034 2.637025 0.016363 -0.000754 87264.600000 1 0 0
-6.043713 -7.950222 -16.767732 19.516387 0.920803 2.604426 0.011195 0.006368 560484.000000 1 0 0
5.018587 -12.551122 -11.529832 17.766652 -1.190418 2.277012 0.011576 0.002612 441205.000000 1 0 0
-1.855513 -15.609022 -13.224232 20.541782 1.452477 2.270214 0.030066 -0.002759 -211188.000000 1 0 0
15.642387 -7.291122 -8.992332 19.460390 -0.436173 2.051140 0.053244 -0.006371 426804.000000 1 0 0
19.348187 -3.714522 -4.116932 20.127075 -0.189675 1.776797 0.140942 -0.035122 244795.000000 1 0 0
15.055887 -11.597122 -8.659432 20.884414 -0.656349 1.998339 0.061822 -0.021848 767920.000000 1 0 0
18.141887 -3.494522 -6.433332 19.563423 -0.190291 1.905877 0.118920 -0.014586 741809.000000 1 0 0
9.689387 -9.083422 -15.565632 20.461713 -0.753131 2.435218 0.100643 -0.026947 -97144.200000 1 0 0
1.170087 1.998378 -15.290032 15.464401 1.041093 2.991281 0.010049 -0.007383 -177218.000000 1 0 0
4.919287 -4.275722 -13.870732 15.325743 -0.715521 2.702319 0.014230 -0.002787 -690868.000000 1 0 0
13.170287 -5.451522 -8.649932 16.673239 -0.392453 2.116233 0.042078 -0.003308 -1515880.000000 1 0 0
2.963987 1.009478 -12.100432 12.498989 0.328259 2.888381 0.004569 -0.004605 -3027920.000000 1 0 0
0.671687 6.354678 -12.741432 14.254024 1.465488 2.676730 0.012565 -0.009363 251954.000000 1 0 0
3.137087 -1.072922 -16.744232 17.069323 -0.329541 2.946113 0.019618 -0.006593 -257481.000000 1 0 0
13.323987 4.210078 -11.378632 18.020174 0.306050 2.254203 0.048322 -0.016035 560101.000000 1 0 0
-3.920413 9.254778 -16.516032 19.333905 -1.170104 2.594907 -0.002625 -0.004845 255317.000000 1 0 0
-0.220013 -5.070022 -17.740532 18.452101 1.527429 2.862977 0.023220 -0.007607 396457.000000 1 0 0
-0.442313 -8.615722 -17.503832 19.514365 1.519503 2.683667 0.026380 -0.006925 -1371450.000000 1 0 0
5.532387 -10.111622 -12.338232 16.884436 -1.070158 2.390210 0.005939 0.002235 465372.000000 1 0 0
1.787287 -9.813822 -18.081732 20.650776 -1.390651 2.637464 0.057740 -0.012699 -464935.000000 1 0 0
10.776387 9.128378 -14.820932 20.472368 0.702792 2.380305 0.089672 -0.035702 -1371140.000000 1 0 0
10.994687 -3.573922 -12.773832 17.228664 -0.314285 2.405994 0.036674 -0.010870 471678.000000 1 0 0
5.034987 7.446578 -12.307032 15.240265 0.976259 2.510756 0.002944 -0.005770 495105.000000 1 0 0
9.766687 -5.767822 -12.611032 16.961547 -0.533450 2.409096 0.030942 -0.008089 -1061120.000000 1 0 0
-3.184513 0.436178 -15.797932 16.121602 -0.136121 2.940873 0.010338 -0.007223 -1847920.000000 1 0 0
-0.833213 10.745178 -12.847532 16.769382 -1.493408 2.443595 0.007962 -0.002738 -1520970.000000 1 0 0
6.737187 -5.412622 -12.316832 15.046280 -0.676808 2.529760 0.015028 -0.007671 -105784.000000 1 0 0
17.846487 -6.081722 -8.249132 20.579908 -0.328437 1.983224 0.085864 -0.016680 96108.700000 1 0 0
12.996387 4.784878 -13.884232 19.610534 0.352769 2.357457 0.070474 -0.031929 355085.000000 1 0 0
14.350187 0.799278 -11.386432 18.336236 0.055641 2.240788 0.061199 -0.010877 -196834.000000 1 0 0
15.153387 6.052178 -11.192932 19.787262 0.379984 2.172034 0.075651 -0.022396 -165473.000000 1 0 0
8.303587 1.522778 -11.591432 14.339795 0.181373 2.512124 0.002843 -0.001214 520875.000000 1 0 0
9.939387 1.338978 -8.900232 13.408893 0.133908 2.296626 0.008704 -0.005944 267428.000000 1 0 0
-0.046813 -5.732022 -13.048632 14.252196 1.562630 2.727676 0.006720 0.000177 -3166.570000 1 0 0
10.584487 -5.723722 -8.963832 15.004754 -0.495726 2.211051 0.022680 -0.007768 -300330.000000 1 0 0
10.348387 8.568878 -11.175532 17.475907 0.691606 2.264621 0.055671 -0.028881 959246.000000 1 0 0
8.350387 8.339478 -14.431332 18.642404 0.784745 2.456110 0.048620 -0.027008 285503.000000 1 0 0
8.623387 10.599278 -10.674932 17.339599 0.887828 2.233993 0.064735 -0.022196 -107918.000000 1 0 0
7.039987 1.908778 -17.936432 19.362863 0.264768 2.755352 0.028883 -0.004706 -2694860.000000 1 0 0
12.219287 2.537578 -12.821232 17.892297 0.204759 2.369681 0.049518 -0.015213 -1022950.000000 1 0 0
2.734887 -0.892922 -19.339732 19.552549 -0.315582 2.993916 0.042645 -0.019478 -564961.000000 1 0 0
10.275087 -2.101822 -15.589132 18.788723 -0.201772 2.549379 0.053925 -0.011483 -422621.000000 1 0 0
8.371887 -0.866622 -12.874432 15.381500 -0.103148 2.562588 0.013807 -0.005145 702779.000000 1 0 0
0.538487 4.480178 -14.541232 15.225288 1.451177 2.840696 0.009670 -0.008142 217266.000000 1 0 0
4.208387 -7.689122 -15.730332 18.007678 -1.070015 2.633214 0.035183 -0.013538 -373930.000000 1 0 0
11.600487 -5.482822 -14.430132 19.309618 -0.441519 2.414790 0.072482 -0.013465 -816652.000000 1 0 0
-5.837713 4.380878 -16.842132 18.355610 -0.643785 2.732663 0.010541 -0.004098 408558.000000 1 0 0
11.379187 7.920478 -9.029132 16.545244 0.608070 2.148049 0.041039 -0.015897 -1733630.000000 1 0 0
9.603487 6.232378 -13.475232 17.681951 0.575651 2.437331 0.032050 -0.008213 1344070.000000 1 0 0
12.076687 0.653778 -10.117032 15.767947 0.054083 2.267405 0.027278 -0.006615 241821.000000 1 0 0
5.595587 -7.176922 -13.797632 16.528565 -0.908579 2.558520 0.020567 -0.005610 -227326.000000 1 0 0
8.775287 -10.176522 -10.634532 17.136527 -0.859201 2.240275 0.028183 -0.003174 -297044.000000 1 0 0
10.141287 4.506378 -15.776132 19.288325 0.418153 2.528567 0.068228 -0.023469 -587604.000000 1 0 0
9.942087 -0.336022 -10.942032 14.788038 -0.033785 2.403754 0.017203 -0.003326 -577573.000000 1 0 0
-1.727813 5.485178 -13.697332 14.855620 -1.265638 2.744089 0.006730 -0.009327 35873.700000 1 0 0
1.337487 -0.663622 -14.948232 15.022614 -0.460580 3.042040 0.011823 -0.004463 -1799270.000000 1 0 0
11.596787 -10.243522 -14.231732 21.022783 -0.723515 2.314430 0.105302 -0.028171 580394.000000 1 0 0
9.454287 -7.741722 -10.877432 16.359595 -0.686135 2.298151 0.026591 -0.004507 -286483.000000 1 0 0
14.062687 -0.886622 -9.615632 17.058888 -0.062965 2.169622 0.044589 -0.009435 917394.000000 1 0 0
3.922387 11.359778 -12.224632 17.142675 1.238326 2.364722 0.020055 -0.011953 69237.000000 1 0 0
-1.351613 3.021178 -16.613332 16.939811 -1.150124 2.944945 0.008465 -0.011590 -1347500.000000 1 0 0
5.647887 -0.268922 -17.887132 18.759543 -0.047579 2.835423 0.002278 0.001645 -309343.000000 1 0 0
6.548287 -6.570322 -16.075232 18.559695 -0.787078 2.618216 0.041997 -0.009254 -74378.200000 1 0 0
-1.938613 -5.068922 -19.783332 20.514201 1.205510 2.873858 0.036369 -0.015300 -1414960.000000 1 0 0
0.040887 -4.179622 -15.199232 15.763489 -1.561014 2.873224 0.008910 -0.003512 398420.000000 1 0 0
0.601087 0.810778 -12.977932 13.017119 0.932841 3.063979 0.007558 -0.007913 209359.000000 1 0 0
16.025987 0.578178 -13.338532 20.858643 0.036062 2.264609 0.125290 -0.032061 641086.000000 1 0 0
-0.104813 6.975078 -16.222332 17.658617 -1.555771 2.735481 0.013379 -0.007311 -528198.000000 1 0 0
-4.845113 -0.695822 -18.105132 18.755136 0.142638 2.877549 0.006115 -0.009591 -217032.000000 1 0 0
10.488287 -8.170222 -13.298132 18.804176 -0.661795 2.356313 0.036946 -0.011414 475356.000000 1 0 0
4.168587 8.419878 -17.485132 19.849466 1.111085 2.648529 0.036678 -0.022102 -268088.000000 1 0 0
9.135987 1.011778 -16.583832 18.960840 0.110297 2.635481 0.033582 -0.018354 -439129.000000 1 0 0
3.206687 5.011378 -18.609132 19.537056 1.001567 2.832153 0.021921 -0.006304 -341851.000000 1 0 0
1.573687 -8.275022 -15.903232 17.996258 -1.382867 2.654498 0.022214 -0.010467 -38108.100000 1 0 0
4.419487 7.890678 -14.935032 17.459950 1.060240 2.597096 0.011278 -0.008105 507861.000000 1 0 0
-5.594413 -0.466522 -15.150632 16.157251 0.083198 2.786743 0.003935 -0.004637 -580427.000000 1 0 0
2.881687 3.427678 -13.861632 14.567016 0.871720 2.829121 0.006290 -0.005006 -259218.000000 1 0 0
-2.381213 -10.263822 -17.998932 20.856121 1.342829 2.611984 0.032900 -0.007470 -86066.200000 1 0 0
6.436687 -9.045822 -15.443532 19.020003 -0.952351 2.518303 0.039942 -0.011635 -282244.000000 1 0 0
-1.816213 5.450278 -17.444232 18.365876 -1.249136 2.823449 0.010165 -0.003022 318957.000000 1 0 0
10.088087 -12.064422 -11.810932 19.667687 -0.874378 2.214954 0.069774 -0.012044 -95082.600000 1 0 0
10.898687 3.723078 -9.346032 14.832094 0.329179 2.252507 0.011498 -0.007965 -644362.000000 1 0 0
4.882087 -0.406122 -11.001132 12.042617 -0.082995 2.722643 0.001873 -0.004772 175256.000000 1 0 0
6.300187 9.564378 -11.419232 16.173081 0.988320 2.354721 0.023194 -0.016732 611566.000000 1 0 0
10.943187 -9.507322 -9.496432 17.329880 -0.715302 2.150744 0.043411 -0.005591 -915768.000000 1 0 0
3.329587 -2.344322 -14.426532 14.990225 -0.613464 2.866485 0.007235 -0.003046 -37361.000000 1 0 0
9.228887 -4.308122 -14.606732 17.806990 -0.436744 2.532698 0.039733 -0.015592 399848.000000 1 0 0
-3.841313 -6.510922 -16.604532 18.244404 1.037777 2.714361 0.005612 -0.003445 -1625400.000000 1 0 0
6.000287 -7.754822 -11.299132 14.960318 -0.912268 2.426868 0.004486 -0.003549 826061.000000 1 0 0
5.372287 6.228578 -16.777032 18.684899 0.859077 2.685755 0.020764 -0.020980 -1551270.000000 1 0 0
9.191387 1.202178 -19.185432 21.307455 0.130056 2.691506 0.063352 -0.025316 443219.000000 1 0 0
13.185787 5.865378 -9.431632 17.240166 0.418543 2.149660 0.028199 -0.012568 1188180.000000 1 0 0
-1.422813 -0.736522 -17.209332 17.283749 0.477669 3.048763 0.019961 -0.012130 783930.000000 1 0 0
-0.301113 -0.493322 -19.511432 19.519991 1.022781 3.111980 0.041816 -0.021216 -367300.000000 1 0 0
2.816687 6.481778 -16.543132 17.989508 1.160861 2.737855 0.011075 -0.005122 -1191960.000000 1 0 0
7.718687 3.830378 -15.546132 17.774481 0.460641 2.635473 0.021818 -0.004695 -229718.000000 1 0 0
3.189287 -9.825922 -14.630632 17.910212 -1.256945 2.526791 0.026463 -0.009872 316816.000000 1 0 0
9.095187 -10.390222 -13.379632 19.227421 -0.851762 2.340416 0.063414 -0.010764 -501791.000000 1 0 0
3.764787 0.197678 -14.708832 15.184283 0.052459 2.890687 0.006342 -0.003473 -799370.000000 1 0 0
-1.114313 -2.886622 -18.818532 19.071220 1.202394 2.978626 0.042306 -0.015977 -47033.400000 1 0 0
9.345087 10.269478 -12.991532 19.015066 0.832491 2.322964 0.081802 -0.033396 433274.000000 1 0 0
4.717187 2.171878 -10.701232 11.894759 0.431484 2.689785 0.000071 -0.001670 161911.000000 1 0 0
-0.465813 7.164378 -18.811732 20.135207 -1.505870 2.777004 0.021596 -0.005991 151419.000000 1 0 0
0.899987 -1.826122 -17.647932 17.764972 -1.112893 3.026741 0.035128 -0.011400 -2062860.000000 1 0 0
-4.450013 -2.373322 -13.966232 14.848937 0.489954 2.795055 0.009951 -0.008729 -2954280.000000 1 0 0
10.084487 6.065478 -10.385732 15.695552 0.541497 2.293879 0.018521 -0.005057 51904.500000 1 0 0
8.358487 5.870778 -17.149832 19.961140 0.612317 2.604424 0.064870 -0.023604 -643314.000000 1 0 0
11.373887 0.234678 -13.577832 17.713778 0.020630 2.444189 0.039974 -0.000347 419034.000000 1 0 0
6.759887 12.100378 -11.828432 18.221609 1.061336 2.277254 0.057449 -0.027072 -611051.000000 1 0 0
-0.891413 0.520578 -14.922532 14.958195 -0.528566 3.072526 0.011204 -0.005003 -1742820.000000 1 0 0
-4.161113 -3.105822 -18.753832 19.459374 0.641188 2.871488 0.009040 -0.008532 -593912.000000 1 0 0
5.790387 -12.026222 -14.073832 19.396684 -1.122074 2.382672 0.027656 -0.003465 -144821.000000 1 0 0
2.204087 -4.601722 -13.981732 14.883638 -1.124114 2.791681 0.006922 -0.002150 -27996.500000 1 0 0
11.874287 1.967578 -15.369632 19.521671 0.164209 2.477232 0.079932 -0.016555 183047.000000 1 0 0
9.776387 2.249878 -13.751332 17.021717 0.226196 2.511325 0.025860 -0.006511 -135354.000000 1 0 0
-2.175513 -4.085922 -16.468132 17.106344 1.081534 2.867575 0.007533 -0.005903 -1463630.000000 1 0 0
-2.895413 10.003578 -14.314432 17.701920 -1.289058 2.512628 0.009461 -0.007925 386114.000000 1 0 0
3.469387 5.855178 -13.685532 15.284422 1.035885 2.680105 0.007530 -0.006289 -305614.000000 1 0 0
-5.060813 -2.712122 -16.377032 17.354383 0.491958 2.804387 0.004277 -0.005088 212864.000000 1 0 0
-4.329313 6.120778 -13.500332 15.442340 -0.955178 2.634667 0.002367 -0.009613 -544011.000000 1 0 0
5.883187 -1.047522 -13.858032 15.091529 -0.176207 2.734474 0.008154 -0.003392 -1204910.000000 1 0 0
6.850087 -2.973622 -12.625232 14.668422 -0.409553 2.607456 0.011862 -0.005006 863294.000000 1 0 0
3.080187 -3.171722 -18.158232 18.688734 -0.800038 2.902756 0.043019 -0.023478 -100061.000000 1 0 0
7.465387 -11.857622 -12.103132 18.515427 -1.008906 2.283231 0.030451 -0.004103 -1344020.000000 1 0 0
-6.099413 -5.665622 -17.749232 19.604524 0.748544 2.703033 0.032410 0.001015 495501.000000 1 0 0
0.519187 8.765278 -11.884532 14.776392 1.511633 2.505279 0.009869 -0.004055 118015.000000 1 0 0
0.198587 8.416378 -14.259232 16.559003 1.547205 2.608258 0.005938 -0.010377 -582247.000000 1 0 0
7.772287 -2.231122 -15.050932 17.085576 -0.279544 2.648587 0.022897 -0.011716 65289.400000 1 0 0
14.274087 1.588378 -8.867332 16.879043 0.110821 2.123918 0.037570 -0.008811 481860.000000 1 0 0
2.564587 10.973178 -14.485132 18.352297 1.341203 2.480435 0.016608 -0.009053 -369641.000000 1 0 0
6.216687 0.895078 -15.561432 16.781137 0.142997 2.757976 0.016319 -0.003208 167502.000000 1 0 0
16.788087 -5.436922 -10.415432 20.491003 -0.313197 2.103998 0.112607 -0.018307 608003.000000 1 0 0
4.946387 -4.204222 -11.128532 12.883573 -0.704470 2.613514 0.000636 -0.000826 42901.000000 1 0 0
8.708987 -3.574822 -17.071332 19.495030 -0.389504 2.637631 0.039949 -0.020507 12635.200000 1 0 0
13.362987 -9.588622 -8.917332 18.709086 -0.622408 2.067615 0.063677 -0.010275 52153.200000 1 0 0
2.453187 -7.686322 -13.636032 15.844212 -1.261853 2.607305 0.008293 -0.000642 162504.000000 1 0 0
-6.718613 -2.502922 -18.411532 19.758262 0.356608 2.770246 0.005121 -0.006158 -73817.700000 1 0 0
-1.451613 -6.403022 -15.754532 17.067840 1.347857 2.746741 0.010760 -0.003775 -50266.600000 1 0 0
1.667387 -7.258622 -18.296832 19.754540 -1.345002 2.755026 0.049431 -0.015780 88339.200000 1 0 0
5.231987 10.811678 -14.531932 18.853199 1.120095 2.450883 0.052886 -0.036589 1214780.000000 1 0 0
5.610187 -3.369822 -17.305132 18.501284 -0.540906 2.780037 0.038389 -0.017417 -174561.000000 1 0 0
3.961487 13.044178 -14.209932 19.691778 1.275951 2.376932 0.038880 -0.021493 240190.000000 1 0 0
8.724987 10.579378 -15.515332 20.706863 0.881165 2.417777 0.091506 -0.044282 521731.000000 1 0 0
2.507787 3.981578 -16.245932 16.913671 1.008719 2.859664 0.014804 -0.010119 378136.000000 1 0 0
16.670087 2.107178 -11.397432 20.303533 0.125738 2.166815 0.121046 -0.016392 439635.000000 1 0 0
9.959887 -3.591922 -10.422232 14.856789 -0.346121 2.348315 0.027739 -0.005871 382369.000000 1 0 0
14.554787 -2.039322 -11.996332 18.971364 -0.139207 2.255365 0.082754 -0.016603 437032.000000 1 0 0
-2.575513 -8.686422 -15.935832 18.331338 1.282555 2.624625 0.013010 -0.000914 -335054.000000 1 0 0
13.970187 8.319678 -8.886332 18.529708 0.537127 2.070963 0.065084 -0.015637 978045.000000 1 0 0
-8.166013 -0.188922 -16.580032 18.482882 0.023131 2.683840 -0.001058 -0.003909 -602524.000000 1 0 0
-3.517913 4.111078 -15.883332 16.779658 -0.862993 2.813264 0.006011 -0.003886 -804986.000000 1 0 0
15.213787 4.087078 -9.570032 18.432283 0.262447 2.116710 0.047010 -0.014164 621088.000000 1 0 0
5.398187 1.237978 -12.987432 14.119009 0.225434 2.738505 0.003524 -0.002475 334623.000000 1 0 0
8.000787 -7.532022 -13.007832 17.027849 -0.755228 2.440155 0.038074 -0.008310 -3877000.000000 1 0 0
3.266887 -6.032822 -11.886132 13.723980 -1.074488 2.618113 0.002418 0.000489 -909090.000000 1 0 0
-3.223213 3.365778 -18.351432 18.933902 -0.807032 2.892907 0.016705 -0.010285 59567.200000 1 0 0
0.816187 5.171578 -17.759532 18.515193 1.414266 2.854909 0.022005 -0.016581 -1628510.000000 1 0 0
6.296687 7.262278 -10.119732 13.957003 0.856492 2.381925 0.005467 -0.001472 -138301.000000 1 0 0
9.787987 3.760278 -11.744732 15.744304 0.366788 2.412782 0.018677 -0.007100 697823.000000 1 0 0
4.553587 2.066678 -17.225432 17.936606 0.426057 2.859054 0.016419 -0.010764 84273.000000 1 0 0
2.613087 8.126078 -13.217232 15.733931 1.259672 2.568165 0.007697 -0.008182 -1179640.000000 1 0 0
14.438387 -3.484422 -9.917032 17.859332 -0.236803 2.159503 0.065725 -0.004668 -106923.000000 1 0 0
-1.299513 9.245278 -16.193332 18.691921 -1.431152 2.618599 0.008122 -0.003321 -91666.400000 1 0 0
-5.191813 2.088678 -15.662832 16.632553 -0.382489 2.798436 0.007944 -0.006674 368012.000000 1 0 0
4.425887 4.374978 -11.892232 13.422150 0.779614 2.659476 0.008268 -0.005311 493079.000000 1 0 0
8.988987 3.376378 -17.769432 20.197885 0.359308 2.646168 0.042436 -0.006479 657613.000000 1 0 0
-4.616213 14.305078 -13.310732 20.077855 -1.258648 2.295556 0.018797 -0.011052 -141095.000000 1 0 0
15.556387 -4.874122 -7.985932 18.153054 -0.303631 2.026308 0.066137 -0.007054 1287880.000000 1 0 0
1.356387 9.107978 -16.547132 18.936806 1.422960 2.633775 0.019113 -0.012226 -916465.000000 1 0 0
0.519787 -3.179322 -12.756232 13.156737 -1.408740 2.894219 0.005272 -0.001006 -192752.000000 1 0 0
7.575787 3.664978 -13.065532 15.541324 0.450584 2.569364 0.008596 -0.002875 1074720.000000 1 0 0
-2.866013 7.433478 -15.044032 17.023323 -1.202804 2.654571 0.000845 -0.006219 -87727.400000 1 0 0
12.147287 -5.001322 -10.975332 17.118053 -0.390572 2.266799 0.046424 -0.007273 -958003.000000 1 0 0
0.482287 -4.554122 -20.252532 20.763856 -1.465288 2.919208 0.054084 -0.011115 -295364.000000 1 0 0
3.556987 -4.452122 -16.064332 17.045126 -0.896701 2.800707 0.029693 -0.014456 759992.000000 1 0 0
-5.809913 4.140978 -14.354832 16.030097 -0.619228 2.680333 -0.002862 -0.005843 558109.000000 1 0 0
12.322487 -7.387722 -9.862632 17.426808 -0.540075 2.172377 0.035674 -0.004510 115707.000000 1 0 0
-2.013213 -1.888922 -14.997732 15.249690 0.753557 2.959561 0.012657 -0.004975 141819.000000 1 0 0
7.107287 5.997078 -14.237632 17.005548 0.700879 2.563003 0.017744 -0.007093 -93746.600000 1 0 0
4.353487 -5.416222 -18.452132 19.717239 -0.893751 2.781424 0.055927 -0.018845 283035.000000 1 0 0
7.664387 7.421978 -12.162632 16.178944 0.769331 2.421519 0.020223 -0.014003 -958830.000000 1 0 0
12.301687 -2.439322 -10.801232 16.551387 -0.195752 2.281791 0.036342 -0.011595 -1180600.000000 1 0 0
7.464087 -0.808622 -10.558332 12.955495 -0.107914 2.523473 0.002551 -0.003736 -1689700.000000 1 0 0
5.283187 4.055878 -14.390132 15.856801 0.654730 2.708103 0.004516 -0.003915 1744360.000000 1 0 0
14.771487 2.837678 -13.065332 19.923658 0.189793 2.285998 0.082513 -0.027860 -168313.000000 1 0 0
-6.324713 6.803778 -15.916332 18.428864 -0.821872 2.613289 -0.002857 0.001556 402707.000000 1 0 0
-11.162513 3.657378 -16.444732 20.209090 -0.316625 2.521336 0.068334 -0.026315 14589.100000 1 0 0
-5.198613 6.475278 -18.234932 20.036655 -0.894326 2.714270 0.003905 0.020007 295451.000000 1 0 0
-9.980213 1.457978 -15.595632 18.572940 -0.145061 2.567520 0.040267 -0.018222 -642421.000000 1 0 0
-7.813013 5.954478 -17.847532 20.372368 -0.651215 2.638438 0.019388 -0.009387 784688.000000 1 0 0
-8.702313 3.735878 -15.671232 18.310504 -0.405505 2.598008 0.007533 -0.001849 -1728560.000000 1 0 0
8.930787 13.385778 -12.003632 20.075488 0.982435 2.211706 0.121248 -0.042326 -2777550.000000 1 0 0
13.801487 9.055678 -11.361632 20.039287 0.580678 2.173617 0.082896 -0.028535 408353.000000 1 0 0
8.450787 15.970778 -9.144332 20.250935 1.084109 2.039299 0.089684 -0.014448 106549.000000 1 0 0
7.226287 13.485278 -13.952332 20.706026 1.078870 2.310176 0.097801 -0.034467 140201.000000 1 0 0
4.839787 15.816978 -12.881932 20.965317 1.273856 2.232472 0.072844 -0.029782 78163.000000 1 0 0
11.114287 11.069978 -11.248932 19.303116 0.783401 2.192908 0.107693 -0.038115 -378825.000000 1 0 0
15.816687 9.657178 -9.899832 21.010363 0.548155 2.061434 0.124473 -0.010165 -2346090.000000 1 0 0
13.465087 10.849878 -9.411732 19.687791 0.678255 2.069229 0.128656 -0.028253 105706.000000 1 0 0
10.519287 11.931778 -8.024532 17.816168 0.848230 2.038018 0.084796 -0.014009 386063.000000 1 0 0
5.364187 16.264878 -10.261632 19.965517 1.252227 2.110600 0.053070 -0.008855 -120501.000000 1 0 0
6.722687 14.649278 -11.642632 19.883329 1.140558 2.196352 0.068706 -0.011009 -972628.000000 1 0 0
10.868187 13.842978 -9.877932 20.182147 0.905204 2.082243 0.124334 -0.024735 -81954.900000 1 0 0
8.436087 -18.656922 -1.473132 20.528478 -1.146140 1.642618 0.060635 -0.005821 -231965.000000 1 0 0
7.681987 -17.076822 -3.530432 19.055045 -1.148068 1.757149 0.048106 -0.015984 236777.000000 1 0 0
4.784887 -18.116222 5.575968 19.549528 -1.312571 1.281558 0.053380 -0.015577 178695.000000 1 0 0
10.039087 -16.995022 -2.366732 19.880027 -1.037238 1.690130 0.050231 -0.007762 -1838710.000000 1 0 0
-9.706013 -12.214222 -9.981432 18.520877 0.899327 2.139961 0.044476 -0.011088 16808.600000 1 0 0
-5.091613 -6.957622 -12.036232 14.805537 0.939043 2.520005 0.011390 -0.000585 722229.000000 1 0 0
-10.711813 -9.497422 -5.661732 15.394778 0.725379 1.947406 0.023353 -0.007420 -847419.000000 1 0 0
-4.486713 -11.588522 -13.859132 18.614510 1.201400 2.410633 0.014270 -0.009165 471709.000000 1 0 0
-2.698913 -15.370022 7.372468 17.259055 1.396973 1.129441 0.006775 -0.005632 -194018.000000 1 0 0
-4.933513 -12.189622 -11.524432 17.485393 1.186219 2.290403 0.019057 -0.001936 97034.400000 1 0 0
-14.222213 -13.013022 -4.148032 19.718424 0.741029 1.782743 0.065200 -0.017414 -442910.000000 1 0 0
-3.112913 -12.273222 -3.295032 13.083556 1.322400 1.825383 0.012406 -0.001755 603983.000000 1 0 0
-2.332613 -17.370822 -1.608232 17.600368 1.437311 1.662299 0.023826 -0.018676 -599451.000000 1 0 0
-5.721513 -12.207522 3.659468 13.969646 1.132511 1.305745 0.004004 0.001446 1012000.000000 1 0 0
-8.839013 -10.778022 -11.977632 18.378182 0.883921 2.280661 0.027999 -0.004651 284479.000000 1 0 0
-9.831213 -12.058722 -7.478432 17.262459 0.886809 2.018858 0.039333 -0.011766 81346.500000 1 0 0
-10.855413 -14.912622 6.065468 19.416905 0.941567 1.253098 0.061067 -0.024852 -27526.800000 1 0 0
-9.435713 -15.639122 0.723968 18.279468 1.027924 1.531180 0.034109 -0.009063 -1555650.000000 1 0 0
-14.871913 -7.808922 -8.141532 18.666484 0.483509 2.022121 0.035111 -0.013279 311983.000000 1 0 0
-2.253713 -16.543622 5.112368 17.461585 1.435401 1.273665 0.017240 -0.006802 -273675.000000 1 0 0
4.403687 -15.634322 5.968168 17.304436 -1.296242 1.218672 0.036577 -0.016924 -238151.000000 1 0 0
4.254187 -14.640522 -10.082432 18.278360 -1.288008 2.155083 0.016507 -0.004623 449871.000000 1 0 0
-7.476713 -14.019222 -0.198532 15.889595 1.080850 1.583291 0.012939 -0.004145 947690.000000 1 0 0
3.025187 -14.844222 9.626268 17.949031 -1.369754 1.004736 0.025336 -0.015790 -71242.100000 1 0 0
2.518487 -17.316422 10.301268 20.305599 -1.426370 1.038734 0.057957 -0.020942 -270617.000000 1 0 0
-8.150913 -17.334322 -5.382032 19.896793 1.131257 1.844706 0.051183 -0.007295 -57175.100000 1 0 0
-6.320913 -9.275022 -7.605232 13.558006 0.972596 2.166318 0.018664 -0.005262 281897.000000 1 0 0
-5.917013 -13.198722 -4.748832 15.223952 1.149355 1.888022 0.010912 -0.008132 -256280.000000 1 0 0
2.284387 -19.413722 -4.855332 20.141631 -1.453666 1.814254 0.047923 -0.023205 52406.500000 1 0 0
-5.527013 -13.064722 8.240068 16.405290 1.170580 1.044562 0.013261 -0.002294 1060060.000000 1 0 0
2.357187 -17.411022 3.483268 17.911817 -1.436230 1.375082 0.022955 -0.016663 676008.000000 1 0 0
-17.432413 -10.286422 -2.318132 20.373346 0.533089 1.684826 0.043908 -0.014398 513599.000000 1 0 0
-3.453713 -15.565822 2.590968 16.153516 1.352455 1.409704 0.015557 0.000601 -191400.000000 1 0 0
-10.240213 -10.422722 -14.138132 20.331795 0.794231 2.339732 0.044905 -0.021267 -73105.600000 1 0 0
6.134787 -14.672922 -5.592032 16.858264 -1.174782 1.908911 0.009324 -0.009861 385101.000000 1 0 0
-7.333113 -12.417522 -10.669332 17.938898 1.037358 2.207763 0.026313 -0.007698 -2234080.000000 1 0 0
-7.318213 -14.257222 3.802868 16.470775 1.096566 1.337808 0.014798 -0.002894 597418.000000 1 0 0
3.313487 -15.003622 -3.088132 15.672410 -1.353439 1.769137 0.018023 -0.007485 507344.000000 1 0 0
-7.486313 -11.387022 7.729268 15.666867 0.989207 1.054858 0.012402 -0.009159 -821126.000000 1 0 0
-12.694713 -12.338222 -0.974832 17.729573 0.771158 1.625807 0.032679 -0.005837 -2495610.000000 1 0 0
-1.855413 -13.736622 3.889668 14.396766 1.436538 1.297220 0.004331 0.003467 -3347560.000000 1 0 0
-3.091213 -13.973522 5.103168 15.193987 1.353083 1.228270 0.008655 -0.000096 -66682.000000 1 0 0
-14.431313 -10.354422 -4.308232 18.276699 0.622373 1.808758 0.040991 -0.011854 266719.000000 1 0 0
-6.101713 -8.724722 -10.311832 14.821794 0.960501 2.340219 0.017439 -0.001467 288745.000000 1 0 0
1.027687 -19.481922 2.383068 19.654018 -1.518094 1.449246 0.047407 -0.021056 201751.000000 1 0 0
6.444487 -14.009522 -8.239132 17.483747 -1.139651 2.061498 0.020747 -0.006605 -1603940.000000 1 0 0
-3.827413 -16.780822 -5.965132 18.216144 1.346550 1.904415 0.014806 -0.015580 -354969.000000 1 0 0
-3.814113 -13.959522 -13.081332 19.507357 1.304080 2.305793 0.026198 -0.003596 -1362530.000000 1 0 0
-8.104113 -14.738222 -4.410232 17.387984 1.068053 1.827234 0.021706 -0.012333 -388396.000000 1 0 0
-4.489313 -14.403322 10.059568 18.132968 1.268653 0.982714 0.018500 -0.006141 -722407.000000 1 0 0
-0.349513 -12.232822 -9.983432 15.793449 1.542232 2.255089 0.008761 0.001279 -115800.000000 1 0 0
2.533187 -17.185922 6.706168 18.621107 -1.424451 1.202381 0.035959 -0.020478 -817038.000000 1 0 0
-2.667513 -19.149722 -3.420732 19.634890 1.432389 1.745907 0.039218 -0.028886 -889496.000000 1 0 0
0.687387 -15.480222 -3.186132 15.819647 -1.526421 1.773587 0.015233 -0.004057 302564.000000 1 0 0
6.199487 -17.879822 0.546068 18.931980 -1.237037 1.541949 0.035466 -0.013564 -169770.000000 1 0 0
-6.844013 -16.615222 3.777468 18.362336 1.180063 1.363599 0.027652 -0.012389 880739.000000 1 0 0
-5.292813 -13.616322 -9.474632 17.412259 1.200060 2.146155 0.019909 -0.003837 -86392.000000 1 0 0
5.693687 -15.275722 -2.078332 16.434270 -1.214019 1.697599 0.026917 -0.005309 -355121.000000 1 0 0
-8.863113 -10.492622 -0.635532 13.749683 0.869388 1.617034 0.007076 -0.001426 -109003.000000 1 0 0
-7.317513 -18.376122 -2.762532 19.971466 1.191836 1.709565 0.041204 -0.029358 346540.000000 1 0 0
7.998187 -16.003822 -1.134432 17.927082 -1.107335 1.634119 0.024696 -0.007350 -711813.000000 1 0 0
-7.990113 -10.123922 -9.463832 15.996869 0.902656 2.203845 0.028058 -0.006449 -1007680.000000 1 0 0
-9.055013 -15.439222 -6.872432 19.172719 1.040367 1.937402 0.049099 -0.010056 -44001.900000 1 0 0
-11.523813 -10.549922 -11.891632 19.634410 0.741307 2.221382 0.052765 -0.006230 -83404.600000 1 0 0
6.783287 -16.327122 2.450368 17.849151 -1.177033 1.433079 0.038269 -0.009429 702257.000000 1 0 0
-2.265513 -11.228422 -6.132932 12.993186 1.371703 2.062367 0.006790 0.000572 21019.500000 1 0 0
-12.273913 -15.288522 -3.337332 19.887826 0.894339 1.739402 0.053407 -0.022514 -96696.900000 1 0 0
-0.146213 -19.680422 -2.902632 19.893860 1.563367 1.717225 0.064997 -0.031199 166800.000000 1 0 0
-5.787513 -15.722422 -4.605532 17.375293 1.218084 1.839065 0.013826 -0.012528 -2840150.000000 1 0 0
2.014987 -15.972422 -1.015232 16.130999 -1.445305 1.633775 0.020368 -0.012395 180277.000000 1 0 0
-13.176513 -11.950122 5.375968 18.582974 0.736628 1.277306 0.032693 -0.005042 211445.000000 1 0 0
2.120287 -15.307322 -8.913632 17.839915 -1.433158 2.093986 0.023001 0.000075 -1785240.000000 1 0 0
-11.600713 -16.912222 -0.091532 20.508734 0.969571 1.575259 0.077894 -0.024315 320400.000000 1 0 0
-7.679613 -16.567922 -1.051032 18.291451 1.136754 1.628288 0.038411 -0.015034 1166670.000000 1 0 0
-2.850113 -14.512422 -1.816832 14.900819 1.376873 1.693029 0.010516 -0.001967 300921.000000 1 0 0
-1.739013 -10.525722 -13.229832 16.995395 1.407060 2.462967 0.008919 -0.000059 11312.000000 1 0 0
1.716787 -19.566622 4.841368 20.229654 -1.483280 1.329131 0.053145 -0.021553 -72641.200000 1 0 0
-17.405813 -9.329122 2.522868 19.908785 0.492014 1.443733 0.038378 -0.009767 8805.150000 1 0 0
-2.635713 -15.871222 -8.075132 18.001401 1.406230 2.035976 0.018617 -0.001314 -1841330.000000 1 0 0
-10.463713 -12.312222 0.319468 16.161131 0.866381 1.551027 0.014303 0.001191 -190103.000000 1 0 0
-6.795513 -11.531922 -6.464932 14.864709 1.038298 2.020744 0.018911 -0.002338 30264.200000 1 0 0
-2.245913 -13.669922 -6.755132 15.412421 1.407955 2.024493 0.008373 0.000395 97937.300000 1 0 0
-14.278413 -14.505022 -0.896532 20.373328 0.793271 1.614816 0.066189 -0.015780 -98112.300000 1 0 0
-9.546813 -11.288022 -4.306232 15.398205 0.868776 1.854234 0.021804 -0.007789 933271.000000 1 0 0
9.456387 -15.078722 -5.251332 18.557144 -1.010664 1.857698 0.029373 -0.007374 -107874.000000 1 0 0
-5.565313 -11.069722 -9.291332 15.486779 1.104950 2.214238 0.019678 -0.003467 -184788.000000 1 0 0
-10.313513 -16.049222 -4.851532 19.684599 0.999628 1.819826 0.055644 -0.008336 -2171370.000000 1 0 0
2.312187 -17.394222 -3.268632 17.849065 -1.438643 1.754962 0.032461 -0.016505 513890.000000 1 0 0
-0.373813 -14.592522 -8.320832 16.802312 1.545185 2.088884 0.015220 -0.000835 -46787.900000 1 0 0
-0.525413 -18.303922 -7.228332 19.686503 1.542099 1.946763 0.041712 -0.014547 194258.000000 1 0 0
-1.578613 -9.951422 -10.619432 14.638824 1.413475 2.382454 0.004724 0.001511 258895.000000 1 0 0
-4.964213 -17.449622 1.970368 18.248700 1.293631 1.462612 0.031856 -0.011599 -1644650.000000 1 0 0
0.287587 -12.890122 -2.730332 13.179251 -1.548489 1.779477 0.003192 0.000660 -1666800.000000 1 0 0
2.828987 -14.939822 3.055568 15.509286 -1.383653 1.372484 0.018807 -0.008015 -626779.000000 1 0 0
-9.228713 -13.123722 6.824668 17.434945 0.957920 1.168605 0.019432 -0.006311 -736261.000000 1 0 0
-0.825713 -17.860422 -4.684232 18.482925 1.524598 1.827027 0.042176 -0.020789 -496527.000000 1 0 0
-9.757913 -17.561822 -2.444832 20.238865 1.063639 1.691891 0.058330 -0.024836 -1135130.000000 1 0 0
1.443087 -16.204022 1.428768 16.330775 -1.481973 1.483195 0.014077 -0.012195 454821.000000 1 0 0
-0.213213 -18.040322 4.116968 18.505353 1.558978 1.346445 0.033571 -0.014005 231432.000000 1 0 0
-17.327113 -9.240622 -0.076332 19.637305 0.489935 1.574683 0.017637 -0.009047 419902.000000 1 0 0
-14.671713 -7.372222 -10.709732 19.603754 0.465629 2.148749 0.052462 -0.015505 272078.000000 1 0 0
2.825587 -12.730722 -8.949432 15.816054 -1.352387 2.172254 0.004661 0.003682 634933.000000 1 0 0
-11.744213 -15.027222 1.708268 19.148423 0.907420 1.481466 0.046991 -0.003693 -79334.100000 1 0 0
-2.185413 -15.528422 10.641568 18.951277 1.430978 0.974572 0.022234 -0.009889 64899.500000 1 0 0
-6.979513 -15.982222 1.255168 17.484864 1.159054 1.498949 0.029569 -0.010028 -916240.000000 1 0 0
-12.476713 -15.102122 -5.940132 20.470164 0.880309 1.865216 0.060434 -0.014770 122123.000000 1 0 0
0.985487 -13.843822 -5.096432 14.785000 -1.499730 1.922719 0.008361 -0.000694 261146.000000 1 0 0
6.215387 -16.345722 -7.545032 19.045765 -1.207435 1.978119 0.048669 -0.020859 209258.000000 1 0 0
-6.447013 -12.940822 5.850068 15.596543 1.108596 1.186305 0.011600 -0.003102 183791.000000 1 0 0
-2.455213 -13.545722 0.555468 13.777634 1.391489 1.530469 0.009294 0.001442 2005390.000000 1 0 0
-4.072513 -15.544422 0.212268 16.070454 1.314563 1.557587 0.019527 -0.007320 -172672.000000 1 0 0
-17.690413 -7.690122 -2.218732 19.416783 0.410063 1.685315 0.025659 -0.008254 718429.000000 1 0 0
1.139087 -12.828522 -11.949832 17.568921 -1.482235 2.318789 0.023228 -0.000672 -837229.000000 1 0 0
1.354687 -17.102922 -5.742032 18.091878 -1.491753 1.893764 0.040290 -0.017142 -478754.000000 1 0 0
-12.815113 -6.498422 -9.063532 16.988356 0.469304 2.133547 0.032211 -0.007238 -182199.000000 1 0 0
-11.603713 -13.512122 -8.744332 19.841546 0.861237 2.027184 0.063603 -0.016157 438253.000000 1 0 0
-4.220713 -9.904622 3.442368 11.303356 1.167964 1.261337 0.006225 0.001531 -3908680.000000 1 0 0
-7.030313 -14.493422 9.681668 18.794129 1.119165 1.029622 0.024845 -0.006930 -945222.000000 1 0 0
-5.251813 -15.913222 -8.029132 18.581688 1.252023 2.017616 0.017536 -0.011725 -1488470.000000 1 0 0
-0.213413 -13.426422 2.133268 13.596514 1.554903 1.413247 0.006967 -0.002744 651249.000000 1 0 0
-10.880913 -13.472222 -4.746032 17.956054 0.891405 1.838289 0.054541 -0.013958 -379486.000000 1 0 0
-9.758313 -10.563022 6.595068 15.820778 0.824977 1.140807 0.022380 -0.005903 -481064.000000 1 0 0
-15.527313 -8.073822 -4.931532 18.182521 0.479500 1.845461 0.042184 -0.015071 -440962.000000 1 0 0
-14.428913 -7.304522 5.442468 17.063705 0.468629 1.246175 0.020213 -0.010586 345249.000000 1 0 0
-1.514313 -19.367222 -0.149032 19.426905 1.492766 1.578468 0.050952 -0.025579 -408990.000000 1 0 0
-15.232913 -12.217122 -1.442432 19.580100 0.675972 1.644531 0.044054 -0.006184 821331.000000 1 0 0
-4.378913 -12.212122 -6.869832 14.680102 1.226506 2.057788 0.011196 -0.002200 505080.000000 1 0 0
-7.403713 -18.404722 2.105168 19.949448 1.188332 1.465074 0.054276 -0.014870 234304.000000 1 0 0
-2.461413 -11.789922 -8.690132 14.851910 1.364980 2.195823 0.005935 0.001639 208253.000000 1 0 0
-1.036813 -20.435522 -5.152732 21.100621 1.520104 1.817489 0.060989 -0.024913 -343255.000000 1 0 0
-5.204413 -8.970222 -13.845832 17.299072 1.045072 2.498725 0.013127 -0.003157 187842.000000 1 0 0
-8.622513 -19.017122 -0.567432 20.888290 1.145112 1.597965 0.058579 -0.022017 45599.900000 1 0 0
-17.028313 -7.392322 5.611668 19.393315 0.409569 1.277237 0.044904 -0.017794 -931029.000000 1 0 0
-3.488213 -14.652922 -4.394632 15.690397 1.337090 1.854678 0.009868 -0.007220 -3088280.000000 1 0 0
-2.806313 -15.085822 -10.902032 18.823170 1.386875 2.188521 0.016429 -0.001712 -581322.000000 1 0 0
-0.068013 -16.681022 6.226068 17.805197 1.566719 1.213570 0.034970 -0.013807 -1178000.000000 1 0 0
-11.130813 -11.667222 3.777468 16.561652 0.808923 1.340686 0.018464 -0.003873 -266775.000000 1 0 0
-0.159313 -14.701622 -0.139432 14.703146 1.559960 1.580280 0.011022 -0.001517 982791.000000 1 0 0
-7.195413 -9.562222 -2.451332 12.215527 0.925708 1.772842 0.015609 -0.003054 -29239.200000 1 0 0
-11.170313 -14.455922 -0.773532 18.285183 0.912915 1.613113 0.046066 -0.015180 -89794.600000 1 0 0
0.318587 -14.748822 -10.727832 18.240495 -1.549199 2.199544 0.023382 -0.000284 -110275.000000 1 0 0
-1.345313 -14.094122 -3.962332 14.702184 1.475633 1.843677 0.005331 0.000767 -4809260.000000 1 0 0
-11.478613 -8.197122 -7.570532 16.008258 0.620141 2.063392 0.028450 -0.008072 862095.000000 1 0 0
-0.054413 -17.362322 -0.250332 17.364212 1.567662 1.585213 0.022634 -0.016093 426345.000000 1 0 0
-12.777613 -9.568722 4.522668 16.591635 0.642775 1.294715 0.017634 -0.008888 -270915.000000 1 0 0
4.136487 -16.761922 1.592968 17.338111 -1.328852 1.478790 0.029643 -0.018650 2380940.000000 1 0 0
-3.859513 -18.013322 -8.211332 20.169323 1.359729 1.990095 0.036323 -0.018702 206368.000000 1 0 0
-13.342113 -11.205822 2.682568 17.628914 0.698592 1.418034 0.017005 -0.007566 28070.500000 1 0 0
-8.484913 -12.132822 4.161868 15.379215 0.960516 1.296763 0.014740 -0.006650 944173.000000 1 0 0
-8.180113 -9.481022 -5.797232 13.798983 0.858925 2.004374 0.018364 -0.006721 684543.000000 1 0 0
3.934787 -17.416222 -5.353032 18.640341 -1.348600 1.862072 0.020074 -0.007209 -594502.000000 1 0 0
-2.595413 -13.006822 11.333468 17.445947 1.373841 0.863694 0.005824 -0.009066 391499.000000 1 0 0
0.159287 -16.944722 -9.618432 19.484949 -1.561396 2.087060 0.037137 -0.000550 70302.300000 1 0 0
-6.930713 -10.685922 -14.521532 19.315761 0.995418 2.421580 0.024051 -0.003765 -1395100.000000 1 0 0
-4.439513 -18.904222 -1.560232 19.481099 1.340134 1.650972 0.046587 -0.028417 -290362.000000 1 0 0
-2.505013 -17.396522 0.990268 17.603826 1.427784 1.514514 0.033680 -0.016328 -444658.000000 1 0 0
4.114887 -14.571322 -7.471932 16.884475 -1.295567 2.029217 0.021045 -0.008822 1094210.000000 1 0 0
-0.953313 -15.923522 -6.197632 17.113679 1.510999 1.941364 0.022173 -0.005906 -648971.000000 1 0 0
-9.520113 -15.245322 8.263368 19.782205 1.012585 1.139865 0.044254 -0.016469 -394111.000000 1 0 0
-7.117313 -12.164522 -1.769032 14.204268 1.041414 1.695663 0.009560 -0.005056 826792.000000 1 0 0
-7.352913 -15.140222 -9.291932 19.225807 1.118691 2.075223 0.036509 -0.008592 -472389.000000 1 0 0
-4.912513 -13.227822 -0.603032 14.123445 1.215205 1.613507 0.010302 -0.000780 2748280.000000 1 0 0
-6.443113 -13.849622 -7.238832 16.903444 1.135358 2.013347 0.018974 -0.008004 510587.000000 1 0 0
5.923487 -15.279922 0.330168 16.391239 -1.200969 1.550652 0.022767 -0.008410 73324.700000 1 0 0
-14.355513 -12.752422 0.986968 19.227042 0.726330 1.519441 0.018604 -0.009332 908476.000000 1 0 0
0.853687 -15.458022 11.038368 19.013805 -1.515626 0.951399 0.017084 -0.007539 -61484.900000 1 0 0
-9.246813 -11.002822 1.936268 14.502233 0.871900 1.436881 0.007774 0.001993 -260370.000000 1 0 0
-9.422613 -8.834922 -3.487032 13.379121 0.753220 1.834474 0.013169 -0.004083 47514.200000 1 0 0
-12.249313 -7.343822 -12.208132 18.788717 0.540073 2.278063 0.049066 -0.011830 -1418170.000000 1 0 0
-13.183213 -8.579222 -0.646232 15.742229 0.576915 1.611859 0.014730 -0.006851 -555561.000000 1 0 0
-11.097513 -9.759222 0.605168 14.790654 0.721320 1.529869 0.005904 0.000822 448245.000000 1 0 0
-15.839513 -12.069322 2.901668 20.124075 0.651122 1.426103 0.053396 -0.010718 -866916.000000 1 0 0
-10.451513 -12.623122 -2.312432 16.550670 0.879234 1.710973 0.037574 -0.010426 469643.000000 1 0 0
-3.345513 -8.896722 -12.142532 15.420286 1.211115 2.477439 0.007184 0.001511 -967259.000000 1 0 0
-0.251713 -15.625722 3.759868 16.073679 1.554689 1.334694 0.019208 -0.006508 -654633.000000 1 0 0
-15.656113 -7.734722 1.225768 17.505494 0.458867 1.500717 0.006800 -0.007025 718723.000000 1 0 0
-6.333013 -13.442722 -13.298532 19.941534 1.130526 2.300805 0.023617 -0.006664 -328323.000000 1 0 0
-15.240413 -10.284822 1.083468 18.417971 0.593639 1.511936 0.018822 -0.005599 1433900.000000 1 0 0
-9.916513 -8.530222 -12.404832 18.027251 0.710388 2.329685 0.029859 -0.007091 300391.000000 1 0 0
-13.413513 -11.750122 -6.274432 18.903867 0.719391 1.909127 0.060106 -0.010450 114128.000000 1 0 0
-12.228513 -11.464422 -3.914932 17.213257 0.753160 1.800241 0.040621 -0.006544 -784058.000000 1 0 0
-11.739713 -10.927222 -8.886632 18.335683 0.749569 2.076775 0.048181 -0.022568 595662.000000 1 0 0
-13.190113 -8.643822 -5.821532 16.810264 0.580110 1.924429 0.026578 -0.009666 -1496350.000000 1 0 0
-13.534313 -8.095822 -3.321332 16.116799 0.539073 1.778362 0.028319 -0.011316 225050.000000 1 0 0
-4.170213 -17.021922 -3.343632 17.841423 1.330538 1.759319 0.017640 -0.019700 15776.700000 1 0 0
-15.331313 -8.990922 -1.728332 17.857015 0.530391 1.667735 0.028980 -0.010333 -2155440.000000 1 0 0
-9.351813 -15.725722 3.602468 18.647587 1.034296 1.376387 0.035946 -0.009819 -1001500.000000 1 0 0
4.867987 -17.155822 7.999868 19.545266 -1.294312 1.149110 0.061461 -0.033307 249331.000000 1 0 0
-8.256813 -15.483322 5.963668 18.533040 1.080887 1.243181 0.025425 -0.004557 221748.000000 1 0 0
0.952087 -16.097322 8.550668 18.252237 -1.511719 1.083236 0.020665 -0.011920 521279.000000 1 0 0
-10.857513 -7.852322 -10.133132 16.799551 0.626138 2.218277 0.029546 -0.009906 993221.000000 1 0 0
-4.691713 -15.925322 6.033068 17.664257 1.284294 1.222240 0.018373 -0.005578 -998173.000000 1 0 0
-1.409413 -13.309122 -12.174932 18.092765 1.465291 2.308942 0.014589 -0.002935 560876.000000 1 0 0
-6.290313 -14.442822 -2.519432 15.953391 1.160039 1.729385 0.013098 -0.006133 287589.000000 1 0 0
-17.609213 -7.018522 -7.085932 20.237452 0.379274 1.928516 0.051031 -0.016785 42964.900000 1 0 0
-17.228113 -4.201922 -10.274532 20.494634 0.239228 2.095929 0.082434 -0.022451 844746.000000 1 0 0
-15.274213 -5.414922 -9.101432 18.586528 0.340691 2.082518 0.036878 -0.015310 620297.000000 1 0 0
-16.078413 -5.442422 -5.627232 17.882983 0.326387 1.890905 0.025913 -0.011486 -243845.000000 1 0 0
-15.096913 -4.461422 -12.455132 20.073649 0.287341 2.240140 0.069567 -0.016759 -653546.000000 1 0 0
-18.709813 -5.202422 -5.603732 20.211979 0.271207 1.851725 0.044758 -0.019739 -188230.000000 1 0 0
-17.381413 -4.464722 -7.708432 19.531185 0.251432 1.976508 0.040992 -0.018392 589033.000000 1 0 0
12.300987 -7.789522 8.713868 16.968277 -0.564505 1.031493 0.042595 -0.007531 298084.000000 1 0 0
16.073987 -3.269922 1.790768 16.500676 -0.200691 1.462055 0.030823 -0.009766 47997.000000 1 0 0
12.048387 -2.190522 12.528968 17.519619 -0.179846 0.773973 0.059119 -0.006410 472323.000000 1 0 0
9.752187 -10.004822 5.124168 14.881489 -0.798185 1.219270 0.008655 -0.002247 289973.000000 1 0 0
17.047187 -1.924322 7.215668 18.611165 -0.112406 1.172654 0.097211 -0.020115 -279821.000000 1 0 0
5.219887 -12.927322 9.090068 16.643083 -1.187029 0.993003 0.013881 -0.003130 125196.000000 1 0 0
15.094687 -8.904422 -2.170532 17.659262 -0.532963 1.694020 0.035461 -0.011267 -499935.000000 1 0 0
11.147187 -8.505622 6.432568 15.426708 -0.651787 1.140681 0.010624 -0.005198 -1816530.000000 1 0 0
19.840687 -2.974522 3.373968 20.344147 -0.148812 1.404182 0.137333 -0.028925 95260.300000 1 0 0
13.617387 -8.442222 6.602268 17.329001 -0.554966 1.179924 0.035610 -0.010470 -1451260.000000 1 0 0
8.387387 -11.021322 8.827468 16.423824 -0.920283 1.003351 0.019521 -0.005017 -722915.000000 1 0 0
16.834887 0.088278 -0.674032 16.848606 0.005244 1.610812 0.026415 -0.006138 -628608.000000 1 0 0
12.549287 -12.247622 2.238668 17.677683 -0.773233 1.443817 0.016080 -0.003897 -2051480.000000 1 0 0
10.492887 -11.694022 3.538268 16.104973 -0.839482 1.349289 0.017914 -0.001992 110534.000000 1 0 0
16.298687 3.148578 2.385168 16.770503 0.190829 1.428088 0.025376 -0.009814 -1835910.000000 1 0 0
18.316887 -3.076322 0.435868 18.578538 -0.166397 1.547333 0.068910 -0.016421 224878.000000 1 0 0
13.631087 -11.462522 -0.195332 17.811067 -0.699193 1.581763 0.035685 -0.006956 -248664.000000 1 0 0
17.056087 -7.456922 -0.924632 18.637884 -0.412159 1.620427 0.057895 -0.007070 851597.000000 1 0 0
10.148687 -5.693522 9.713268 15.157823 -0.511257 0.875245 0.016229 -0.005167 -224604.000000 1 0 0
11.613387 -13.257722 6.495668 18.783814 -0.851416 1.217692 0.045045 -0.001111 -361106.000000 1 0 0
13.174287 -1.681022 10.285168 16.797986 -0.126913 0.911848 0.052615 -0.004639 1509540.000000 1 0 0
15.543587 -1.967522 -1.346132 15.725340 -0.125911 1.656504 0.022571 -0.009241 43901.200000 1 0 0
10.729887 -12.241122 9.090068 18.644165 -0.851092 1.061508 0.057744 -0.020390 246045.000000 1 0 0
14.522187 1.343378 3.256268 14.943288 0.092243 1.351126 0.014860 -0.003749 741927.000000 1 0 0
14.843887 -5.904022 5.084768 16.764645 -0.378557 1.262639 0.046834 -0.012467 -972725.000000 1 0 0
14.363387 -3.282322 -3.134632 15.063414 -0.224662 1.780424 0.024146 -0.006598 1403760.000000 1 0 0
14.102987 0.713678 9.680968 17.120885 0.050562 0.969820 0.070856 -0.001225 305548.000000 1 0 0
15.390087 -3.408422 4.399268 16.365380 -0.217951 1.298633 0.033636 -0.008141 -423497.000000 1 0 0
18.358287 4.954578 -4.321932 19.500093 0.263602 1.794289 0.032185 -0.004757 613575.000000 1 0 0
18.275087 -5.763722 -5.166032 19.846591 -0.305513 1.834127 0.096551 -0.019103 674385.000000 1 0 0
17.349487 0.099678 5.867168 18.314974 0.005745 1.244699 0.088022 -0.011107 670570.000000 1 0 0
17.040587 -6.514922 3.905968 18.656966 -0.365171 1.359879 0.076612 -0.015048 59526.600000 1 0 0
9.794087 -6.470222 14.152568 18.387036 -0.583808 0.692420 0.055062 -0.006548 -1559090.000000 1 0 0
8.737087 -12.334022 5.140068 15.965121 -0.954473 1.243001 0.016846 -0.007075 -1127740.000000 1 0 0
17.022387 -10.070722 -0.979832 19.802555 -0.534232 1.620297 0.054891 -0.005747 118615.000000 1 0 0
15.134987 -8.698722 0.352268 17.460232 -0.521641 1.550620 0.041565 -0.004514 668090.000000 1 0 0
10.112087 -12.946222 1.427068 16.489254 -0.907696 1.484143 0.023546 -0.008188 975953.000000 1 0 0
17.018887 -8.043122 8.859868 20.804605 -0.441488 1.130883 0.103352 -0.016403 658128.000000 1 0 0
19.121887 0.019578 -1.988332 19.224994 0.001024 1.674406 0.095741 -0.012430 -348371.000000 1 0 0
13.415087 -0.975022 7.777568 15.537239 -0.072553 1.046532 0.025287 -0.006347 102156.000000 1 0 0
12.901087 -9.681922 -3.058632 16.417457 -0.643804 1.758195 0.025155 -0.010256 -3310230.000000 1 0 0
9.080787 -15.269322 1.539968 17.832117 -1.034277 1.484329 0.036296 -0.003357 480771.000000 1 0 0
11.520987 -8.207922 11.166968 18.022328 -0.619021 0.902540 0.061411 -0.010345 318632.000000 1 0 0
13.931787 -3.925722 -0.591632 14.486408 -0.274660 1.611648 0.020059 -0.006794 -517727.000000 1 0 0
7.179987 -13.296322 10.891968 18.627382 -1.075665 0.946251 0.034204 -0.003052 -117819.000000 1 0 0
15.511287 -6.612622 1.769068 16.954539 -0.402980 1.466264 0.030987 -0.006932 -774692.000000 1 0 0
15.825387 -5.935922 -2.577132 17.097358 -0.358848 1.722106 0.060592 -0.008847 172728.000000 1 0 0
11.302887 -8.503922 3.784568 14.642230 -0.645014 1.309359 0.007775 -0.002495 954151.000000 1 0 0
10.687687 -14.450522 -0.513532 17.980766 -0.933981 1.599360 0.034436 -0.010235 549200.000000 1 0 0
13.377187 -12.793022 4.591368 19.070690 -0.763080 1.327652 0.014243 -0.000131 341741.000000 1 0 0
12.935987 -10.967922 6.489168 18.158865 -0.703251 1.205362 0.027566 -0.007916 368627.000000 1 0 0
10.945687 -10.469822 1.383968 15.209885 -0.763181 1.479679 0.011057 -0.002855 305311.000000 1 0 0
13.946187 -7.477322 11.857668 19.773992 -0.492152 0.927720 0.079690 -0.017803 -834188.000000 1 0 0
15.402687 -1.688822 -4.975932 16.274360 -0.109208 1.881525 0.041197 -0.007445 -348224.000000 1 0 0
12.804787 -11.436722 -7.199732 18.617125 -0.729023 1.967875 0.045917 -0.006233 788357.000000 1 0 0
17.805887 -5.214222 1.793468 18.640125 -0.284872 1.474432 0.100261 -0.013243 511538.000000 1 0 0
10.612287 -9.673322 9.166868 17.035999 -0.739144 1.002629 0.031758 -0.009037 -1961330.000000 1 0 0
16.419187 1.836878 9.838668 19.229228 0.111411 1.033690 0.133063 -0.011754 -39812.500000 1 0 0
18.086187 3.733078 0.566768 18.476127 0.203546 1.540116 0.021997 -0.009089 531326.000000 1 0 0
13.253587 -4.078322 5.671468 14.981850 -0.298519 1.182561 0.015886 -0.010347 -1177500.000000 1 0 0
12.043387 -6.166322 6.633968 15.069049 -0.473209 1.114933 0.013511 -0.006339 181103.000000 1 0 0
16.671387 -10.198322 3.418168 19.839980 -0.548997 1.397646 0.042796 -0.002557 -567151.000000 1 0 0
16.395587 -7.993022 -5.623732 19.087432 -0.453606 1.869865 0.072865 -0.012141 -284764.000000 1 0 0
13.945687 -0.230622 5.309968 14.924179 -0.016536 1.207030 0.019448 -0.003330 1173320.000000 1 0 0
18.307187 -4.150122 5.058368 19.441288 -0.222926 1.307581 0.112986 -0.020736 -201749.000000 1 0 0
14.056287 -13.280722 7.142968 20.615013 -0.757035 1.216966 0.072786 -0.014074 48246.800000 1 0 0
15.102987 -13.553322 -1.012932 20.317943 -0.731373 1.620671 0.046948 -0.003975 496545.000000 1 0 0
17.847287 -5.799422 8.032168 20.412610 -0.314184 1.166371 0.112083 -0.020289 496340.000000 1 0 0
14.339787 3.399678 9.324468 17.439409 0.232782 1.006670 0.065353 -0.005816 115358.000000 1 0 0
18.730487 3.764278 3.007668 19.340295 0.198329 1.414650 0.074881 -0.015603 1458550.000000 1 0 0
14.777287 -10.194122 8.162868 19.721074 -0.603882 1.144045 0.043428 -0.021648 -652604.000000 1 0 0
14.747287 -4.791322 10.293268 18.611572 -0.314137 0.984767 0.091228 -0.020082 92312.300000 1 0 0
17.791887 -7.875522 1.946168 19.554096 -0.416722 1.471104 0.105449 -0.014806 -140912.000000 1 0 0
18.405487 -5.705322 -2.049432 19.378153 -0.300587 1.676754 0.067480 -0.016622 -475928.000000 1 0 0
14.388487 -12.830022 -5.485832 20.043263 -0.728203 1.848034 0.057007 -0.014154 -122794.000000 1 0 0
15.466287 -1.395922 9.291668 18.096677 -0.090012 1.031601 0.123505 -0.016049 -1421740.000000 1 0 0
13.023087 -9.887322 10.234568 19.290057 -0.649373 1.011533 0.047961 -0.022424 -1066860.000000 1 0 0
16.402187 2.287778 4.853668 17.257571 0.138586 1.285701 0.058237 -0.011701 -522794.000000 1 0 0
15.025887 2.503678 -0.004632 15.233046 0.165107 1.571100 0.009460 -0.002291 -1212750.000000 1 0 0
14.940987 -9.817622 -6.919832 19.170365 -0.581346 1.940099 0.057046 -0.014413 723785.000000 1 0 0
16.239087 -0.080322 -3.218032 16.555064 -0.004946 1.766425 0.029555 -0.003484 -192936.000000 1 0 0
11.719587 2.733178 13.632368 18.184071 0.229119 0.723207 0.084563 -0.013292 -185056.000000 1 0 0
17.530387 -2.897722 9.587368 20.189821 -0.163816 1.075990 0.113706 -0.023781 150317.000000 1 0 0
8.019087 -18.132722 4.610968 20.355893 -1.154411 1.342296 0.072412 -0.022643 -88090.800000 1 0 0
6.981087 -11.196922 6.661268 14.781039 -1.013289 1.103288 0.012987 -0.006475 112512.000000 1 0 0
17.960187 2.311878 -1.630332 18.181614 0.128018 1.660586 0.022730 -0.004932 180265.000000 1 0 0
17.484087 -2.070222 3.561268 17.962788 -0.117857 1.371216 0.048418 -0.011586 -446510.000000 1 0 0
12.660287 -13.384022 -1.884232 18.519321 -0.813180 1.672717 0.029523 -0.002177 1022910.000000 1 0 0
15.127087 -8.264322 4.224168 17.747433 -0.500018 1.330474 0.033538 -0.003210 -278228.000000 1 0 0
11.498087 -2.792522 15.004568 19.108669 -0.238255 0.667740 0.097533 -0.020663 197910.000000 1 0 0
12.082687 -13.728022 -6.203932 19.311621 -0.849058 1.897850 0.022665 -0.021177 -425861.000000 1 0 0
10.775287 -11.938622 -1.323332 16.136565 -0.836570 1.652897 0.018305 -0.007264 -1352130.000000 1 0 0
13.234187 -7.993222 2.031068 15.593606 -0.543343 1.440175 0.014129 0.000559 -823951.000000 1 0 0
8.719787 -7.782722 10.003868 15.384499 -0.728676 0.862875 0.011108 -0.001823 -1093110.000000 1 0 0
15.597287 -3.710722 8.004568 17.919763 -0.233566 1.107735 0.088437 -0.020162 -824132.000000 1 0 0
10.401187 -16.996822 5.377168 20.639539 -1.021637 1.307228 0.066746 -0.021161 497367.000000 1 0 0
15.196787 -6.315122 8.254468 18.410848 -0.393845 1.105880 0.068605 -0.010144 -1390840.000000 1 0 0
16.634587 -4.829422 -0.352032 17.325032 -0.282556 1.591117 0.037423 -0.009353 -790699.000000 1 0 0
14.127987 -10.478822 3.405768 17.916612 -0.638172 1.379543 0.021881 -0.002008 -660809.000000 1 0 0
15.050087 -9.898522 -4.488332 18.564239 -0.581773 1.814989 0.057989 -0.014826 424388.000000 1 0 0
13.670087 -6.547322 -0.113932 15.157562 -0.446668 1.578313 0.024207 -0.005254 372233.000000 1 0 0
17.914487 -0.813522 -4.910232 18.593038 -0.045380 1.838056 0.097588 -0.011963 34317.200000 1 0 0
14.405787 0.366178 -1.603532 14.499383 0.025413 1.681616 0.015601 -0.005447 -1823970.000000 1 0 0
4.762387 -12.796622 11.668368 17.960642 -1.214518 0.863655 0.005113 -0.003659 -973046.000000 1 0 0
12.136787 -7.351122 13.599768 19.654370 -0.544592 0.806615 0.077231 -0.010542 476777.000000 1 0 0
12.069387 -5.716322 11.542468 17.651487 -0.442323 0.858057 0.049117 -0.009830 1186280.000000 1 0 0
13.246787 -4.574022 8.265968 16.270380 -0.332475 1.037891 0.040908 -0.011135 -1435630.000000 1 0 0
15.212887 -1.147722 3.106368 15.569159 -0.075301 1.369928 0.027484 -0.003869 -569011.000000 1 0 0
15.348687 -10.261922 5.741068 19.335178 -0.589330 1.269327 0.044725 -0.009817 -518197.000000 1 0 0
13.793387 -7.906622 -5.742032 16.903938 -0.520494 1.917379 0.047864 -0.012168 -605809.000000 1 0 0
9.578087 -1.955822 13.491768 16.661116 -0.201428 0.627027 0.023609 -0.008722 -789726.000000 1 0 0
9.988087 -8.959622 13.589468 19.097391 -0.731172 0.779041 0.078365 -0.012626 -419263.000000 1 0 0
20.109287 6.454378 -3.204832 21.361493 0.310578 1.721393 0.125045 -0.005100 -681633.000000 1 0 0
11.345987 -3.537722 10.448868 15.824845 -0.302250 0.849602 0.020774 -0.000822 1243510.000000 1 0 0
10.352387 -13.965722 -3.073732 17.653927 -0.932905 1.745799 0.021993 -0.002109 746211.000000 1 0 0
14.988987 -12.768222 2.562668 19.856095 -0.705561 1.441373 0.028074 0.001807 648049.000000 1 0 0
11.394787 -0.282722 14.247268 18.245705 -0.024806 0.674761 0.087132 -0.017477 289916.000000 1 0 0
19.133087 -1.808522 5.651268 20.032039 -0.094243 1.284802 0.149573 -0.026792 681466.000000 1 0 0
19.009187 -0.254322 7.826168 20.558764 -0.013378 1.180272 0.156388 -0.025173 233687.000000 1 0 0
18.973387 0.923978 0.426868 19.000668 0.048660 1.548329 0.070895 -0.015113 -91970.400000 1 0 0
18.410887 0.856778 3.709968 18.800497 0.046503 1.372159 0.069074 -0.017677 120721.000000 1 0 0
16.757087 -3.870922 -4.129432 17.687177 -0.227020 1.806442 0.059543 -0.014366 32031.900000 1 0 0
11.061887 -8.144422 15.754768 20.902384 -0.634649 0.717076 0.109745 -0.014365 442184.000000 1 0 0
16.587687 -7.414822 6.320568 19.237477 -0.420363 1.236023 0.074244 -0.011502 427481.000000 1 0 0
18.749387 2.260078 5.971268 19.806653 0.119963 1.264554 0.097375 -0.014467 181077.000000 1 0 0
15.167687 1.756778 7.580768 17.047376 0.115310 1.109970 0.063885 -0.006463 -207557.000000 1 0 0
8.828287 -15.647022 3.952368 18.395357 -1.057105 1.354251 0.035973 -0.019004 640150.000000 1 0 0
11.606587 -15.108622 1.851568 19.141881 -0.915743 1.473916 0.043845 -0.006622 -125169.000000 1 0 0
8.078987 -16.151122 6.260168 19.113306 -1.106979 1.237109 0.051721 -0.016602 -315525.000000 1 0 0
14.552587 -11.564522 -2.590032 18.767638 -0.671483 1.709243 0.039765 -0.008808 481076.000000 1 0 0
13.625187 -4.824922 3.088468 14.780535 -0.340339 1.360290 0.014278 -0.002411 -2805500.000000 1 0 0
-1.119913 10.140778 -5.543532 11.611216 -1.460805 2.068523 0.002725 0.003924 -2711820.000000 1 0 0
8.204487 -1.719622 -7.858432 11.490242 -0.206605 2.323922 0.003446 -0.004494 -2109190.000000 1 0 0
3.047687 -10.230722 7.615768 13.113199 -1.281271 0.951121 0.000463 0.001044 980807.000000 1 0 0
-6.275313 1.386778 8.391568 10.569821 -0.217494 0.653571 0.000362 -0.002655 -827613.000000 1 0 0
7.257687 -6.315922 -7.206332 12.020654 -0.716127 2.213667 -0.000108 -0.005195 -357032.000000 1 0 0
-11.479713 -4.537922 -4.074932 12.999293 0.376447 1.889645 0.008773 -0.006632 72570.200000 1 0 0
2.052287 -3.165122 2.909968 4.764220 -0.995542 0.913731 -0.000186 0.000358 2353820.000000 1 0 0
-3.561013 -4.247922 8.823368 10.420051 0.873137 0.560916 0.002254 -0.000487 -2180450.000000 1 0 0
-4.818713 -1.108222 -2.455432 5.520625 0.226052 2.031719 0.005002 -0.003623 -303683.000000 1 0 0
5.089787 -5.200322 -3.671132 8.150245 -0.796140 2.038046 -0.000438 -0.002285 130523.000000 1 0 0
2.657687 14.355978 -8.808632 17.051376 1.387741 2.113664 0.016872 -0.005199 336917.000000 1 0 0
5.525787 -5.464422 13.701768 15.752227 -0.779815 0.515938 0.020532 -0.004459 -654394.000000 1 0 0
-4.747313 -0.931522 9.956668 11.069776 0.193759 0.452296 0.004866 -0.002464 -3908160.000000 1 0 0
-1.135413 11.853378 -2.846232 12.243070 -1.475300 1.805420 -0.003067 -0.000339 454974.000000 1 0 0
3.072587 9.404478 -10.511732 14.435426 1.255014 2.386474 0.008621 -0.005442 -224333.000000 1 0 0
-10.692313 2.552778 1.177968 11.055760 -0.234362 1.464046 0.000220 -0.000832 121355.000000 1 0 0
5.672987 -8.960422 -0.606232 10.622592 -1.006382 1.627897 0.000817 -0.002557 337397.000000 1 0 0
-7.005613 5.382178 9.486368 12.962933 -0.655090 0.749826 -0.005504 -0.002022 324113.000000 1 0 0
-5.617013 -1.868322 5.250668 7.912709 0.321107 0.845210 0.001197 -0.001465 255799.000000 1 0 0
6.602787 -3.738222 -7.192032 10.454493 -0.515164 2.329439 -0.000039 -0.005667 432265.000000 1 0 0
6.080287 4.631278 11.187268 13.548933 0.650939 0.599366 -0.004521 0.003374 579405.000000 1 0 0
3.933287 -9.812822 3.641868 11.181477 -1.189573 1.239039 0.000421 0.000715 698373.000000 1 0 0
-6.691913 6.546578 -5.865432 11.047293 -0.774420 2.130504 -0.002221 0.000575 -375572.000000 1 0 0
-11.107813 8.324678 5.226768 14.832494 -0.643145 1.210677 -0.003643 -0.007151 227112.000000 1 0 0
-9.130713 -5.485222 5.068568 11.796099 0.540966 1.126656 0.002310 -0.002226 -1919960.000000 1 0 0
3.263387 9.827078 -7.986832 13.077104 1.250173 2.227803 0.010209 -0.001760 832006.000000 1 0 0
-8.174813 -8.593922 5.947768 13.268723 0.810386 1.105984 0.004154 -0.000846 -2232850.000000 1 0 0
-7.819913 -5.725722 -7.521532 12.268186 0.632010 2.230765 0.012895 -0.005795 -777295.000000 1 0 0
9.229087 -1.508522 6.869568 11.603562 -0.162020 0.937230 0.002844 -0.002828 1214080.000000 1 0 0
-4.031813 -0.498022 -4.890532 6.357739 0.122901 2.448424 0.007675 -0.009896 -1045730.000000 1 0 0
9.042087 1.228378 -4.441132 10.148493 0.135025 2.023741 0.004590 -0.002419 -3150300.000000 1 0 0
-1.861413 -10.643222 10.692268 15.200909 1.397656 0.790631 -0.003572 -0.004909 286844.000000 1 0 0
-12.882113 0.124778 -2.620632 13.146563 -0.009686 1.771480 0.012406 -0.007275 -1176940.000000 1 0 0
-9.812313 -5.181122 -5.971032 12.600744 0.485813 2.064469 0.012791 -0.008085 -265788.000000 1 0 0
-5.678713 8.324778 -0.151332 10.078324 -0.972154 1.585813 -0.003011 0.004340 259343.000000 1 0 0
6.241887 9.582478 0.501768 11.447131 0.993448 1.526949 0.010856 -0.004461 351086.000000 1 0 0
-0.413313 -12.048922 0.008168 12.056012 1.536507 1.570119 0.008923 0.002422 -597840.000000 1 0 0
6.068287 4.699178 2.401968 8.042128 0.658924 1.267494 -0.004195 0.001562 170973.000000 1 0 0
3.542187 -7.493922 -8.261632 11.703014 -1.129247 2.354547 -0.001593 -0.001270 700322.000000 1 0 0
-6.461213 -9.971322 4.583668 12.735170 0.995843 1.202612 0.005921 -0.000525 -1891000.000000 1 0 0
-0.087913 6.490778 -9.173432 11.237873 -1.557253 2.525766 0.009021 -0.004108 -2631650.000000 1 0 0
-17.378213 -2.846522 4.253968 18.116325 0.162357 1.333769 0.058277 -0.015470 204420.000000 1 0 0
-8.355513 0.755478 -9.178632 12.435137 -0.090172 2.401077 0.004452 -0.008248 309091.000000 1 0 0
-10.106613 -5.958722 -11.796432 16.637482 0.532727 2.358915 0.021921 -0.001468 201504.000000 1 0 0
2.158587 9.504378 6.535868 11.735002 1.347470 0.980081 -0.000673 0.004994 883418.000000 1 0 0
-11.335813 1.578878 -1.235932 11.511778 -0.138392 1.678366 0.006543 -0.004516 -1888390.000000 1 0 0
-5.938213 -5.339022 -3.155332 8.586248 0.732315 1.947102 0.017579 -0.007569 665950.000000 1 0 0
-7.089713 -8.373322 1.329068 11.051831 0.868220 1.450247 0.011527 -0.003347 -373790.000000 1 0 0
-0.106513 11.021378 -7.808732 13.507717 -1.561132 2.187187 0.011417 0.000813 714927.000000 1 0 0
-3.061213 9.242978 -4.333032 10.657337 -1.250973 1.989501 0.002922 0.000128 -19443.000000 1 0 0
3.482887 -4.825922 9.360968 11.092689 -0.945652 0.566310 -0.001294 -0.000746 -1038310.000000 1 0 0
-8.977913 1.493478 -0.405932 9.110334 -0.164841 1.615368 0.003168 -0.002468 -1838920.000000 1 0 0
2.488787 3.519778 -10.339532 11.202180 0.955330 2.746583 0.006789 -0.006489 -1054670.000000 1 0 0
-13.634813 0.436978 1.011668 13.679274 -0.032038 1.496773 0.015174 -0.007698 169233.000000 1 0 0
9.481887 -12.539622 -5.120932 16.533973 -0.923368 1.885697 0.027921 -0.007971 -1560300.000000 1 0 0
-4.849013 9.466178 -8.256232 13.464280 -1.097400 2.230896 0.000398 -0.002757 -785142.000000 1 0 0
-2.367313 7.215178 8.435268 11.349745 -1.253762 0.732938 0.003771 0.001814 -208545.000000 1 0 0
-10.732013 -1.279422 -4.443532 11.685804 0.118655 1.960863 0.008965 -0.006781 -4272210.000000 1 0 0
2.776287 -7.222522 9.653368 12.371746 -1.203816 0.675690 -0.000683 0.000601 -943443.000000 1 0 0
-16.116113 -6.601222 3.427568 17.749745 0.388758 1.376470 0.028888 -0.008404 -758054.000000 1 0 0
-10.766513 -0.086822 6.272668 12.460806 0.008064 1.043277 0.000977 -0.003616 72011.800000 1 0 0
-8.445213 9.660578 9.350368 15.876957 -0.852423 0.941066 0.002169 -0.011489 -2310860.000000 1 0 0
0.341187 -6.150922 -3.713332 7.192989 -1.515384 2.113255 0.001774 -0.000279 655920.000000 1 0 0
4.923087 1.587978 -2.972032 5.965856 0.312021 2.092288 -0.004155 -0.000936 -329256.000000 1 0 0
0.367287 5.377678 3.900868 6.653652 1.502604 0.944344 -0.000580 0.005289 -1825110.000000 1 0 0
6.089987 -11.270922 -1.520432 12.900905 -1.075410 1.688926 0.002321 -0.001173 -3064140.000000 1 0 0
6.411887 -13.439022 5.318468 15.811569 -1.125628 1.227741 0.017309 -0.009504 -421048.000000 1 0 0
8.114987 -8.267722 -5.928332 13.013584 -0.794721 2.043786 -0.001057 -0.004747 620921.000000 1 0 0
-13.144513 -1.536322 -4.585232 14.005815 0.116351 1.904326 0.009963 -0.003778 -1731320.000000 1 0 0
-6.768213 -1.544822 -6.988932 9.850907 0.224403 2.359544 0.012506 -0.009585 -154908.000000 1 0 0
-5.607413 12.921478 -4.662832 14.837442 -1.161360 1.890475 0.001471 0.000695 1700410.000000 1 0 0
-4.438413 6.904278 -6.835432 10.681372 -0.999464 2.265216 0.003284 -0.000921 -2195750.000000 1 0 0
-9.408013 -3.690322 -8.123232 12.965959 0.373810 2.247857 0.010316 -0.004686 588167.000000 1 0 0
-2.155113 -6.319422 9.226168 11.388669 1.242135 0.626443 0.002066 -0.000073 -132526.000000 1 0 0
7.425187 -5.884522 10.032768 13.799182 -0.670156 0.756773 0.004298 -0.002283 1415260.000000 1 0 0
9.584087 -4.817622 12.113268 16.180094 -0.465780 0.724769 0.020609 -0.004678 47107.400000 1 0 0
-6.494913 2.694878 -9.144532 11.535542 -0.393303 2.486066 0.000423 -0.007289 354675.000000 1 0 0
7.444387 5.563678 9.041368 12.966100 0.641813 0.799161 -0.004769 0.005068 -348487.000000 1 0 0
12.642387 3.385478 11.269168 17.270945 0.261649 0.859927 0.061241 0.000080 -20516.700000 1 0 0
-7.497613 -7.230122 -3.834832 11.099316 0.767238 1.923570 0.018022 -0.009401 -857479.000000 1 0 0
2.314787 1.465578 -5.770732 6.388076 0.564429 2.698337 -0.000693 -0.003022 1173.300000 1 0 0
12.705287 6.807978 -7.133132 16.082738 0.491905 2.030327 0.013952 -0.007044 230489.000000 1 0 0
0.836687 -7.832722 1.050968 7.947082 -1.464380 1.438162 0.002433 0.001877 677956.000000 1 0 0
-10.233313 -6.062822 -8.470232 14.602169 0.534856 2.189607 0.015482 -0.006510 699552.000000 1 0 0
-6.603213 0.178578 2.999068 7.254565 -0.027038 1.144607 0.000013 -0.002775 -228903.000000 1 0 0
10.810487 -7.944322 1.260368 13.474695 -0.633749 1.477124 0.005650 -0.002341 -502643.000000 1 0 0
6.245487 1.019478 10.604168 12.348839 0.161807 0.538034 -0.004111 0.002494 -393309.000000 1 0 0
-12.986013 5.222178 1.810468 14.113308 -0.382349 1.442161 0.004906 -0.001779 4540.570000 1 0 0
2.013287 7.484278 3.712268 8.593525 1.308015 1.124105 -0.002566 0.004126 113386.000000 1 0 0
10.287987 -9.507222 -0.821532 14.032279 -0.745976 1.629376 0.005498 -0.002116 808465.000000 1 0 0
6.879987 -11.684822 -9.220932 16.398015 -1.038655 2.167985 0.005658 -0.003452 -283045.000000 1 0 0
10.093587 3.667678 11.869268 16.006620 0.348533 0.735460 0.014113 0.000131 -269790.000000 1 0 0
-11.012613 -3.228022 -1.898832 11.631996 0.285133 1.734772 0.006654 -0.006591 -522093.000000 1 0 0
12.273987 1.142878 6.756568 14.057316 0.092846 1.069407 0.009314 0.000078 -129263.000000 1 0 0
-9.682613 9.126878 2.994168 13.638839 -0.755861 1.349461 -0.001499 -0.000800 781090.000000 1 0 0
-6.718913 7.649978 -8.739532 13.418099 -0.850105 2.280125 -0.002729 -0.004622 -890584.000000 1 0 0
8.395787 5.617578 12.142968 15.795508 0.589682 0.693895 0.013086 0.003591 46879.900000 1 0 0
1.285387 4.819278 -2.785132 5.712672 1.310146 2.080062 0.000819 -0.002255 749543.000000 1 0 0
1.409687 0.616078 9.585168 9.707843 0.412017 0.159144 -0.000975 -0.000172 942808.000000 1 0 0
2.514687 12.617178 -3.873632 13.435842 1.374068 1.863253 0.008311 -0.003848 430343.000000 1 0 0
2.108787 0.695078 13.042268 13.229923 0.318396 0.168629 -0.002309 -0.002925 565873.000000 1 0 0
-12.204413 -1.745922 0.836868 12.357034 0.142093 1.503020 0.008580 -0.004988 198597.000000 1 0 0
3.280487 8.675678 -1.206732 9.353352 1.209289 1.700173 0.006974 -0.002423 190111.000000 1 0 0
3.646687 -2.884022 -5.882132 7.497692 -0.669143 2.472727 -0.004533 -0.001014 -1845330.000000 1 0 0
-7.671213 -7.279422 9.125768 13.968433 0.759199 0.858843 0.008001 -0.003290 -506771.000000 1 0 0
-7.101913 10.913478 -3.692832 13.534333 -0.993896 1.847150 0.001956 0.003550 809508.000000 1 0 0
0.311787 0.505778 2.598668 2.665726 1.018369 0.224775 -0.002150 0.000917 -2236010.000000 1 0 0
-7.078813 4.530778 -2.027432 8.645694 -0.569347 1.807503 0.001312 -0.000150 -756413.000000 1 0 0
-6.936513 -3.945622 -5.878532 9.911624 0.517177 2.205694 0.012428 -0.009346 -355792.000000 1 0 0
2.945887 -6.009122 13.416068 14.992620 -1.114991 0.462713 0.002371 -0.001891 -1623340.000000 1 0 0
-5.492813 -0.566022 -11.426532 12.690824 0.102685 2.691433 0.009893 -0.006715 -864142.000000 1 0 0
11.763587 2.569078 -0.633932 12.057529 0.215016 1.623396 0.002456 -0.003811 -144080.000000 1 0 0
6.170287 -10.957622 10.740768 16.538017 -1.057948 0.863923 0.008934 -0.002726 338776.000000 1 0 0
-8.300813 6.378578 -10.459632 14.798434 -0.655191 2.355770 -0.001556 -0.006466 358078.000000 1 0 0
2.704787 7.958978 11.147168 13.961395 1.243200 0.646117 0.004875 0.000849 670222.000000 1 0 0
-6.236913 -10.206922 -0.360932 11.967064 1.022293 1.600961 0.013962 -0.000881 -827171.000000 1 0 0
11.231487 4.409878 6.084168 13.513342 0.374141 1.103769 0.003940 0.000893 570265.000000 1 0 0
-7.919613 10.559978 1.477868 13.282225 -0.927318 1.459299 -0.008163 0.003341 363131.000000 1 0 0
4.308087 -2.734022 -3.513132 6.194884 -0.565491 2.173780 -0.002532 -0.002396 -5493540.000000 1 0 0
6.414887 6.452078 6.264768 11.046601 0.788289 0.967789 -0.002491 0.004015 -6135860.000000 1 0 0
-0.495913 10.466378 -10.221332 14.637849 -1.523450 2.343790 0.008836 0.000035 -336293.000000 1 0 0
14.172587 6.505678 -2.453532 15.786256 0.430340 1.726851 0.027012 -0.002236 630952.000000 1 0 0
1.340487 9.496578 -6.219132 11.430639 1.430568 2.146083 0.008408 -0.000426 -270705.000000 1 0 0
0.549987 7.434978 7.324168 10.451068 1.496958 0.794270 -0.002163 0.006655 275685.000000 1 0 0
12.270687 6.291278 1.944968 13.925977 0.473762 1.430674 0.011424 -0.002772 -2017050.000000 1 0 0
-6.991713 6.719278 -3.185532 10.206878 -0.765531 1.888195 -0.002493 0.002100 -42572.900000 1 0 0
0.971387 9.964278 11.206168 15.026930 1.473616 0.729153 0.007477 0.000586 688250.000000 1 0 0
-3.749113 13.556178 -10.995132 17.852696 -1.300979 2.234300 0.008824 -0.004581 -160588.000000 1 0 0
-10.098113 -5.658622 -2.337632 11.809167 0.510766 1.770063 0.008760 -0.004303 260425.000000 1 0 0
-4.107913 3.830878 -12.526832 13.728514 -0.750516 2.720073 0.000059 -0.009149 327852.000000 1 0 0
-3.190213 8.394178 2.498568 9.321079 -1.207605 1.299422 -0.001424 0.005309 -1539400.000000 1 0 0
7.008087 9.001978 7.130268 13.453238 0.909300 1.012191 0.008686 0.002305 -735423.000000 1 0 0
-1.425313 -2.303622 -8.081832 8.523744 1.016721 2.818176 0.006940 -0.008531 -785429.000000 1 0 0
0.801587 -1.227622 4.938968 5.151990 -0.992344 0.288568 0.000486 0.001317 -110625.000000 1 0 0
2.835687 -8.916822 -6.131432 11.186836 -1.262895 2.150880 -0.003080 0.000588 391695.000000 1 0 0
5.480987 3.926978 8.676068 10.988017 0.621696 0.660650 -0.008084 0.003351 397174.000000 1 0 0
6.052787 -7.564622 -2.839332 10.095620 -0.895968 1.855887 -0.001019 -0.003892 625104.000000 1 0 0
1.750887 2.236878 -8.220832 8.697776 0.906671 2.808895 0.004242 -0.004759 364456.000000 1 0 0
-5.529913 10.951478 -0.676932 12.287109 -1.103199 1.625917 -0.004847 0.004441 295900.000000 1 0 0
-5.358513 3.253578 -3.436932 7.149261 -0.545682 2.072294 -0.001037 0.000385 -137151.000000 1 0 0
1.929787 13.669578 -6.338032 15.190526 1.430549 2.001198 0.003486 0.001652 790709.000000 1 0 0
-5.206913 -2.539022 2.633868 6.363634 0.453699 1.144069 -0.001131 -0.001715 980900.000000 1 0 0
10.386287 -3.344322 -1.801232 11.059109 -0.311511 1.734398 0.005040 -0.004048 220366.000000 1 0 0
2.390287 -3.303322 7.083568 8.173270 -0.944406 0.522298 -0.002690 -0.000293 -2360560.000000 1 0 0
-2.953513 9.830078 -11.704132 15.567286 -1.278921 2.421647 0.005738 -0.004479 -2531660.000000 1 0 0
0.482087 -1.910922 9.219768 9.428051 -1.323673 0.210588 0.001887 -0.001904 400754.000000 1 0 0
9.468287 2.663778 5.054068 11.058380 0.274248 1.096137 -0.000868 0.002091 349617.000000 1 0 0
13.481787 2.049578 -5.037232 14.537299 0.150870 1.924638 0.021195 -0.004706 -81834.300000 1 0 0
-6.496913 3.830578 7.640568 10.735990 -0.532737 0.778912 0.001524 -0.003769 937688.000000 1 0 0
10.509287 0.201678 1.835268 10.670239 0.019188 1.397938 0.001434 0.001097 2228040.000000 1 0 0
15.348787 6.663578 -4.695932 17.379307 0.409590 1.844400 0.029665 -0.004787 -280391.000000 1 0 0
8.033587 -4.850922 -9.118732 13.085154 -0.543231 2.341829 0.005608 -0.002295 1551800.000000 1 0 0
4.405687 5.689178 -2.071232 7.487779 0.911863 1.851066 -0.000103 -0.001931 -272013.000000 1 0 0
-1.527813 -10.313622 1.404668 10.520366 1.423730 1.436878 0.007847 0.002436 -741749.000000 1 0 0
-2.989913 12.222078 -12.923932 18.037372 -1.330876 2.369581 0.008774 -0.004727 -3817.580000 1 0 0
8.334187 4.355278 -9.678732 13.494628 0.481548 2.370613 0.007326 -0.000835 -820411.000000 1 0 0
4.112787 7.664678 -9.022632 12.532765 1.078307 2.374488 0.009156 -0.002817 -1571120.000000 1 0 0
-1.701313 -5.136822 -2.464332 5.945952 1.250967 1.998141 0.008292 -0.003505 -1939510.000000 1 0 0
-3.283113 -8.929922 7.227668 11.948285 1.218482 0.921140 0.004848 0.001793 -598408.000000 1 0 0
1.048287 7.084378 -1.263632 7.272144 1.423891 1.745446 0.004939 -0.002513 1530000.000000 1 0 0
0.574487 -0.421722 -2.184232 2.297554 -0.633237 2.826208 -0.003038 -0.005278 -499160.000000 1 0 0
4.120487 -6.637422 7.414968 10.771050 -1.015226 0.811493 0.000940 0.001987 -897144.000000 1 0 0
-13.928713 3.776778 6.008968 15.632683 -0.264784 1.176255 0.001820 -0.004838 -1726900.000000 1 0 0
4.301087 6.696778 12.560868 14.870157 0.999880 0.564786 0.003880 -0.001118 -3748300.000000 1 0 0
8.267587 10.165978 -7.135432 14.920271 0.888022 2.069443 0.026149 -0.007668 390771.000000 1 0 0
12.441887 5.377678 9.590568 16.604185 0.407973 0.955011 0.041365 0.001633 -248192.000000 1 0 0
7.564787 4.112478 0.421868 8.620699 0.497943 1.521840 0.001075 0.000159 -2706600.000000 1 0 0
-10.867513 -7.586222 -0.948632 13.287344 0.609426 1.642251 0.007557 -0.004379 -560637.000000 1 0 0
10.559887 6.954778 0.191668 12.645825 0.582400 1.555639 0.003244 -0.003460 -1366890.000000 1 0 0
14.433587 3.662378 4.172268 15.464452 0.248496 1.297614 0.030102 -0.005705 1155370.000000 1 0 0
2.133787 5.749478 8.280468 10.304159 1.215425 0.637469 -0.005945 0.004049 140596.000000 1 0 0
4.306387 0.084678 11.649068 12.419860 0.019661 0.354158 -0.002833 0.000823 -1984430.000000 1 0 0
-1.255313 -1.692822 -0.642932 2.203365 0.932725 1.866900 0.001971 -0.003959 -548196.000000 1 0 0
3.095387 -5.274022 -9.452932 11.258537 -1.040056 2.567386 -0.002981 -0.000497 143299.000000 1 0 0
-3.950213 -5.334022 -1.367332 6.776841 0.933358 1.773956 0.009680 -0.006168 -1399600.000000 1 0 0
-1.168513 -8.660422 8.603068 12.262997 1.436681 0.793230 0.002086 0.000234 -540109.000000 1 0 0
3.790587 8.501178 -5.900232 11.020495 1.151366 2.135762 0.008590 -0.001310 385030.000000 1 0 0
-14.361613 -1.862122 -2.645432 14.721472 0.128940 1.751477 0.013664 -0.008635 -1108400.000000 1 0 0
8.906087 -10.460722 -6.587932 15.236336 -0.865500 2.017930 0.001089 -0.005196 100909.000000 1 0 0
14.784987 6.123278 1.601568 16.082767 0.392649 1.471048 0.012309 -0.003882 -1064320.000000 1 0 0
-5.808913 0.292778 -8.567832 10.355527 -0.050359 2.545202 0.008711 -0.010093 -841949.000000 1 0 0
-8.006213 -4.643422 -12.817432 15.809725 0.525567 2.516196 0.015077 -0.007380 424058.000000 1 0 0
1.000687 -10.753322 11.966468 16.119295 -1.478005 0.734197 -0.004445 -0.000764 -261942.000000 1 0 0
0.217187 11.918078 3.336468 12.378197 1.552575 1.297877 0.002880 -0.000413 -755904.000000 1 0 0
5.225387 -13.205322 -3.695732 14.674592 -1.194000 1.825383 0.012625 -0.004881 460941.000000 1 0 0
-7.368013 1.518078 -7.019932 10.289394 -0.203193 2.321631 0.004775 -0.003581 792475.000000 1 0 0
1.410087 2.817578 4.086568 5.160148 1.106780 0.656804 -0.004486 0.003166 -1942420.000000 1 0 0
17.256187 5.638778 2.021168 18.266278 0.315831 1.459919 0.029988 -0.009975 -391991.000000 1 0 0
2.587887 -8.241722 -3.591932 9.355486 -1.266547 1.964854 -0.003770 0.000561 425901.000000 1 0 0
-0.364913 -9.339722 -0.715932 9.374227 1.531745 1.647243 0.007826 0.001534 -406439.000000 1 0 0
0.776787 11.796778 -5.507332 13.042165 1.505044 2.006746 0.008481 -0.001476 -1367700.000000 1 0 0
6.008387 -4.929322 7.840068 11.039275 -0.687061 0.781017 -0.000138 0.000081 -1117430.000000 1 0 0
-5.997113 -2.134422 -9.328932 11.293808 0.341929 2.542809 0.014315 -0.008017 38790.200000 1 0 0
2.021387 -1.315722 11.301068 11.555573 -0.577008 0.210265 -0.002480 -0.000413 300628.000000 1 0 0
18.148387 2.238878 -5.705432 19.155377 0.122745 1.873236 0.088615 -0.006845 639250.000000 1 0 0
-8.962513 4.729578 7.894568 12.846001 -0.485566 0.908975 -0.000814 -0.007714 -1805090.000000 1 0 0
11.569787 -6.956622 -4.854932 14.346600 -0.541356 1.916016 0.016321 -0.010124 45264.900000 1 0 0
10.816487 0.628578 8.954768 14.056293 0.058048 0.880112 0.004465 0.001268 195468.000000 1 0 0
-8.366613 -7.388022 -1.476132 11.258865 0.723363 1.702283 0.014265 -0.006264 -779072.000000 1 0 0
10.386987 -10.323522 -3.271832 15.005649 -0.782334 1.790602 0.014356 -0.006886 -68688.300000 1 0 0
7.741087 -13.848422 -3.800532 16.314021 -1.061080 1.805918 0.018975 -0.010118 -2597680.000000 1 0 0
1.710987 -1.122422 -11.560832 11.740535 -0.580588 2.966405 0.003567 -0.005254 121813.000000 1 0 0
-11.804713 -2.759522 -6.317332 13.670219 0.229641 2.051185 0.008813 -0.006715 636027.000000 1 0 0
2.766587 -12.091722 -6.437932 13.975361 -1.345868 2.049538 0.002579 0.001836 1299580.000000 1 0 0
-5.507613 1.453678 1.072668 5.796343 -0.258055 1.384664 0.000166 0.000004 528349.000000 1 0 0
0.064787 6.831778 -3.926332 7.879941 1.561313 2.092398 0.007344 -0.003248 1201330.000000 1 0 0
5.572687 -11.808122 3.664068 13.561415 -1.129850 1.297213 0.003251 -0.005079 -1730970.000000 1 0 0
-4.463513 -9.114022 1.071568 10.204734 1.115389 1.465595 0.008304 -0.001703 -211645.000000 1 0 0
7.213387 -6.227122 -4.615932 10.588524 -0.712149 2.021876 0.003698 -0.005409 -828639.000000 1 0 0
-6.900213 -6.006622 2.207868 9.411011 0.716275 1.333984 0.007765 -0.003327 -514480.000000 1 0 0
-6.120813 -0.671322 7.158568 9.442463 0.109242 0.710363 0.002186 -0.002144 -955466.000000 1 0 0
4.234287 -4.947622 3.211768 7.261102 -0.862932 1.112607 -0.002386 0.000894 -175287.000000 1 0 0
-2.534213 10.559178 -8.831632 13.997007 -1.335250 2.253594 0.004769 -0.002027 -1205090.000000 1 0 0
-2.334313 -4.885522 2.798268 6.094887 1.125064 1.093795 0.004015 -0.000159 -738216.000000 1 0 0
15.109487 5.173678 6.246468 17.148816 0.329899 1.197968 0.059558 -0.013503 1230920.000000 1 0 0
6.759987 0.318478 0.133768 6.768807 0.047077 1.551033 -0.002256 0.000207 2749090.000000 1 0 0
-9.619313 9.099778 0.339368 13.245841 -0.757651 1.545173 -0.004098 0.000847 -1551230.000000 1 0 0
7.077687 10.449278 -2.536932 12.873115 0.975443 1.769167 0.006433 -0.004945 -551739.000000 1 0 0
1.661187 -4.297822 -5.352232 7.062380 -1.201966 2.430809 -0.002769 -0.002237 -807562.000000 1 0 0
0.977687 -8.258222 -7.877232 11.454471 -1.452955 2.329112 -0.002562 0.002087 -278653.000000 1 0 0
-10.423313 0.159578 -10.556832 14.836362 -0.015309 2.362500 0.005208 -0.007286 -4153180.000000 1 0 0
5.910287 -2.436522 0.514468 6.413487 -0.391023 1.490494 -0.002361 0.001019 -119169.000000 1 0 0
-3.376613 5.265078 -1.122632 6.354751 -1.000545 1.748389 -0.002385 -0.000163 861632.000000 1 0 0
-0.444213 4.585878 -5.094032 6.868535 -1.474232 2.406320 0.004107 -0.003924 -1396110.000000 1 0 0
4.046887 -9.747322 9.985168 14.528976 -1.177273 0.813088 -0.001250 0.000342 -855138.000000 1 0 0
7.391787 -13.446022 -0.922632 15.371574 -1.068154 1.630854 0.017661 -0.007584 552357.000000 1 0 0
13.016587 0.009778 0.517468 13.026872 0.000751 1.531063 0.006669 -0.004811 258342.000000 1 0 0
9.223787 2.442578 -0.643132 9.563370 0.258871 1.638097 0.003690 0.000380 -150694.000000 1 0 0
-0.696013 -5.704522 4.435368 7.259373 1.449386 0.913492 0.002033 0.002205 -749690.000000 1 0 0
11.417587 -3.671222 3.269268 12.430900 -0.311100 1.304671 0.009354 -0.003709 -2437690.000000 1 0 0
1.789587 -8.202222 11.733268 14.427357 -1.355980 0.621055 -0.008940 -0.000839 193764.000000 1 0 0
9.482987 -5.980422 -5.985732 12.709110 -0.562650 2.061197 0.002814 -0.007867 -849618.000000 1 0 0
3.261287 6.332378 0.054568 7.123060 1.095207 1.563136 -0.000411 0.000154 -1642360.000000 1 0 0
6.425787 -1.370222 11.619968 13.348854 -0.210091 0.514611 -0.005703 0.002830 348248.000000 1 0 0
-4.877013 -7.562522 -3.870432 9.795777 0.998020 1.976986 0.015105 -0.004377 95178.800000 1 0 0
-3.363113 -8.559622 -5.791132 10.868067 1.196422 2.132770 0.012775 -0.000494 -611109.000000 1 0 0
9.663187 5.506678 2.164568 11.330756 0.517964 1.378580 0.004445 -0.001543 115491.000000 1 0 0
8.981187 -1.229622 0.216268 9.067550 -0.136065 1.546943 0.001489 -0.000756 859352.000000 1 0 0
-3.965313 9.510678 9.252068 13.848374 -1.175779 0.839147 -0.001334 -0.000044 18751.900000 1 0 0
-14.378713 -3.597022 -6.031132 16.001891 0.245132 1.957245 0.017638 -0.009694 -966570.000000 1 0 0
10.519387 6.334678 -5.947032 13.643784 0.542029 2.021811 0.005119 -0.006347 -2098550.000000 1 0 0
-1.763513 4.725978 2.567068 5.659919 -1.213646 1.100049 -0.002312 0.004937 232062.000000 1 0 0
6.851987 -3.689922 2.639768 8.217884 -0.493986 1.243776 0.000388 -0.001763 -1985530.000000 1 0 0
8.430487 -11.142322 -1.563732 14.059506 -0.923073 1.682249 0.009379 -0.005422 -1767690.000000 1 0 0
4.506787 0.536878 1.811968 4.886982 0.118568 1.190954 -0.005081 0.001682 138073.000000 1 0 0
-10.791613 2.276278 3.855168 11.683436 -0.207883 1.234526 0.001454 -0.000966 218013.000000 1 0 0
-0.907813 -2.964422 4.345868 5.338397 1.273628 0.619658 0.001953 0.001016 546383.000000 1 0 0
8.814387 -8.616222 -8.458332 14.949117 -0.774030 2.172209 0.006109 -0.001836 -630320.000000 1 0 0
12.064487 -4.777322 0.919368 13.008455 -0.377038 1.500063 0.008232 -0.005420 277032.000000 1 0 0
2.869187 4.891278 3.541568 6.685771 1.040294 1.012529 -0.005883 0.003074 -961994.000000 1 0 0
6.009787 7.440278 2.113168 9.794935 0.891356 1.353346 0.000855 -0.000857 -140306.000000 1 0 0
-1.676113 -1.333522 -10.311732 10.531831 0.672055 2.936792 0.010123 -0.007458 831585.000000 1 0 0
-0.922613 -8.619322 6.007268 10.546620 1.464162 0.964787 0.003327 -0.000552 519372.000000 1 0 0
-4.170613 -0.244922 2.188668 4.716383 0.058658 1.088227 -0.000324 0.001484 270736.000000 1 0 0
-8.566613 6.185578 -7.917132 13.203379 -0.625376 2.213834 -0.003554 -0.002819 -1342480.000000 1 0 0
6.425087 11.138478 -9.363532 15.906702 1.047583 2.200188 0.019281 -0.013245 197431.000000 1 0 0
-11.119613 -5.792022 3.111868 12.918089 0.480214 1.327511 0.005456 -0.003143 695173.000000 1 0 0
1.578087 -6.244722 2.982868 7.098198 -1.323271 1.137099 -0.002429 0.001498 459637.000000 1 0 0
10.063087 2.387078 7.401668 12.718040 0.232906 0.949633 0.001563 0.002370 -2235870.000000 1 0 0
-4.002913 -2.598622 -10.570232 11.597671 0.575800 2.717494 0.011701 -0.007084 -2403530.000000 1 0 0
-8.384113 11.674678 5.899268 15.536821 -0.947996 1.181329 0.004221 -0.007796 364821.000000 1 0 0
6.823887 6.025678 -2.946132 9.568382 0.723358 1.883784 0.003566 -0.001093 -3528990.000000 1 0 0
3.965087 -9.904922 -2.328332 10.920189 -1.190019 1.785659 -0.002343 -0.000623 -465681.000000 1 0 0
8.594587 -12.696222 -7.449532 17.045718 -0.975715 2.023093 0.016213 -0.009314 596739.000000 1 0 0
-1.338313 9.695578 3.617468 10.434624 -1.433630 1.216768 -0.003856 0.005362 50471.100000 1 0 0
0.569987 -13.288822 4.749268 14.123499 -1.527930 1.227846 0.010391 -0.002830 -258923.000000 1 0 0
-11.210213 -7.051322 -5.033332 14.167726 0.561477 1.933997 0.016828 -0.009428 134934.000000 1 0 0
3.535087 10.298778 -3.319732 11.383422 1.240145 1.866725 0.009171 -0.002410 -808373.000000 1 0 0
11.729387 -7.985622 -7.378532 15.993481 -0.597738 2.050308 0.035229 -0.007150 -39416.700000 1 0 0
11.719687 -4.580522 -5.793932 13.852866 -0.372585 2.002312 0.019642 -0.012152 199356.000000 1 0 0
1.391987 -10.333522 -2.777332 10.790407 -1.436896 1.831116 -0.000266 0.002962 -844112.000000 1 0 0
2.387587 -12.203422 -3.940932 13.044349 -1.377588 1.877710 0.003929 0.003587 -2081140.000000 1 0 0
-7.584313 -5.583822 7.214868 11.864029 0.634632 0.917094 0.003086 0.001338 -2785000.000000 1 0 0
-7.239013 -0.716822 9.572168 12.022626 0.098700 0.649842 0.003511 -0.004808 26407.200000 1 0 0
16.272787 2.580578 -7.557232 18.126631 0.157273 2.000843 0.077083 -0.010444 -300325.000000 1 0 0
-2.076913 6.334578 -5.516632 8.652958 -1.253972 2.262101 0.001250 -0.000225 -1807590.000000 1 0 0
7.622587 0.948478 8.511268 11.464952 0.123794 0.734191 -0.002830 0.000152 -336730.000000 1 0 0
7.801487 8.313278 -3.797332 12.016386 0.817147 1.892320 0.005070 -0.001509 -828229.000000 1 0 0
7.934887 0.570778 4.131268 8.964128 0.071809 1.091825 -0.005396 0.003423 -88536.300000 1 0 0
-6.910913 5.771078 5.422868 10.510640 -0.695761 1.028691 0.005852 -0.005926 -609835.000000 1 0 0
-6.034513 -2.120522 -4.563532 7.857340 0.337921 2.190506 0.011960 -0.009084 -1781510.000000 1 0 0
-15.205813 -2.337022 3.150068 15.703546 0.152499 1.368830 0.025113 -0.009130 -573770.000000 1 0 0
1.033187 1.265778 -10.491532 10.618000 0.886227 2.987097 0.008124 -0.010572 600797.000000 1 0 0
1.503387 -9.309622 9.404968 13.318508 -1.410691 0.786739 -0.000634 -0.002902 -3140.320000 1 0 0
-0.127113 -6.680322 -1.112032 6.773439 1.551771 1.735718 0.005315 0.001291 966178.000000 1 0 0
-0.306113 -10.363622 -8.451532 13.376351 1.541268 2.254704 0.001627 0.001273 -547034.000000 1 0 0
-4.404213 6.529978 3.830468 8.758435 -0.977417 1.118151 0.000408 0.003126 -183098.000000 1 0 0
10.710887 -1.143322 -8.556932 13.756867 -0.106341 2.242106 0.026732 -0.005403 315502.000000 1 0 0
3.108487 -0.996522 6.288668 7.085414 -0.310230 0.478794 -0.004876 0.002743 556609.000000 1 0 0
1.739887 -12.239622 6.852568 14.134824 -1.429590 1.064661 0.005907 -0.001992 -731559.000000 1 0 0
2.957387 -4.963022 -1.341032 5.930944 -1.033409 1.798876 0.000614 -0.000210 -823273.000000 1 0 0
-1.049713 9.481878 -1.647932 9.681094 -1.460538 1.741851 0.003416 -0.001365 1052150.000000 1 0 0
4.475287 -2.536922 2.552468 5.742757 -0.515706 1.110217 -0.001698 0.000981 -1389530.000000 1 0 0
17.656787 6.933178 -2.722632 19.163606 0.374166 1.713352 0.016729 0.005975 -171652.000000 1 0 0
-7.072213 3.390978 -5.520532 9.591205 -0.447096 2.184113 0.000136 -0.001507 -577036.000000 1 0 0
-13.823313 -6.022322 2.409868 15.269571 0.410869 1.412312 0.002481 -0.006323 1155410.000000 1 0 0
6.703287 -6.007722 3.383668 9.616444 -0.730731 1.211236 -0.000748 -0.001243 -581716.000000 1 0 0
-4.640313 1.918278 3.529068 6.137313 -0.391999 0.958170 0.002208 -0.001930 464487.000000 1 0 0
6.934387 -12.070922 -5.478232 14.960077 -1.049360 1.945708 0.011766 -0.006099 -685282.000000 1 0 0
3.028687 -12.280322 3.236268 13.055753 -1.328993 1.320304 0.007303 -0.003254 -731674.000000 1 0 0
3.262087 11.267978 -6.019332 13.184874 1.289000 2.044891 0.007297 -0.000537 -456717.000000 1 0 0
-5.699713 -8.354722 6.495568 12.020004 0.972107 0.999888 0.004417 -0.000345 -117512.000000 1 0 0
-4.088313 6.421878 6.369968 9.926294 -1.003883 0.874049 0.001804 0.000841 125080.000000 1 0 0
4.352687 4.473678 -6.903932 9.307199 0.799105 2.406523 0.002537 -0.000458 -574053.000000 1 0 0
-0.313313 -2.876022 1.523968 3.269885 1.462285 1.085962 0.002121 0.000138 -371908.000000 1 0 0
-13.151613 -1.085822 6.607268 14.758046 0.082375 1.106598 0.014696 -0.003428 -200185.000000 1 0 0
-0.431513 -9.305022 -5.970732 11.064325 1.524455 2.140804 0.002366 0.003371 502129.000000 1 0 0
2.087187 -1.720722 -3.902332 4.748203 -0.689456 2.535455 -0.001370 -0.001600 341373.000000 1 0 0
11.415487 -1.844522 1.156768 11.621261 -0.160196 1.471092 0.006809 -0.002882 15499.800000 1 0 0
0.533887 -4.194522 -1.916632 4.642470 -1.444195 1.996375 0.002320 -0.000909 -220847.000000 1 0 0
1.217987 -7.338422 -11.323632 13.548453 -1.406322 2.560362 0.000871 0.001631 -731197.000000 1 0 0
-4.452313 4.073978 -9.996132 11.676603 -0.741054 2.598438 0.000384 -0.006933 -117559.000000 1 0 0
-1.137413 5.821678 -2.097732 6.291750 -1.377851 1.910715 0.002283 -0.001096 -1031200.000000 1 0 0
-11.297313 1.529978 -3.925732 12.057425 -0.134610 1.902428 0.005758 -0.004498 -194667.000000 1 0 0
-1.668413 -11.274822 4.035168 12.090814 1.423886 1.230530 0.014294 0.000586 -83213.500000 1 0 0
-3.481613 -5.452122 -9.626032 11.597748 1.002492 2.549889 0.010028 -0.000097 -439985.000000 1 0 0
-12.934413 -3.789022 -8.304332 15.830909 0.284968 2.123000 0.020517 -0.006186 -79083.400000 1 0 0
11.412987 4.513078 0.573168 12.286280 0.376564 1.524128 0.005807 -0.001508 634034.000000 1 0 0
-8.859113 -2.513922 -3.061632 9.704498 0.276498 1.891765 0.011999 -0.007565 -240771.000000 1 0 0
-2.419513 -6.161722 -6.394932 9.204131 1.196626 2.338923 0.005978 -0.003467 130210.000000 1 0 0
-0.082113 2.758078 -1.872132 3.334459 -1.541033 2.166934 -0.000010 -0.002487 -355693.000000 1 0 0
7.958887 6.094278 -5.194932 11.290325 0.653486 2.048930 0.004549 -0.002990 -416948.000000 1 0 0
-9.736213 -1.038022 -0.986632 9.840974 0.106213 1.671223 0.006285 -0.006016 95436.100000 1 0 0
6.184887 0.545878 -8.856032 10.815735 0.088032 2.530131 0.000410 -0.000932 531139.000000 1 0 0
-4.093913 2.535478 7.878768 9.233837 -0.554511 0.548611 0.000294 -0.000413 -1086030.000000 1 0 0
-10.230413 -3.437022 1.467268 10.891618 0.324114 1.435670 0.004447 -0.003819 202701.000000 1 0 0
-1.723613 -8.187722 -7.858332 11.478808 1.363314 2.324844 0.003253 -0.000014 1071710.000000 1 0 0
-9.480413 -9.798222 4.108068 14.239368 0.801882 1.278136 0.001927 -0.002095 -160432.000000 1 0 0
-1.120613 -10.714922 7.193768 12.954367 1.466591 0.982053 0.007901 -0.002363 -52801.700000 1 0 0
9.426887 3.850778 -3.730432 10.844852 0.387803 1.921951 0.005028 -0.002562 -977657.000000 1 0 0
12.774187 -0.655722 3.031168 13.145258 -0.051287 1.338112 0.006818 -0.002112 -675528.000000 1 0 0
6.457087 12.000878 -6.852332 15.253508 1.077173 2.036700 0.016874 -0.001963 -162134.000000 1 0 0
-11.892113 -0.245322 -6.549432 13.578571 0.020626 2.074116 0.006677 -0.003412 330889.000000 1 0 0
-7.663413 -6.768222 -11.301532 15.240124 0.723448 2.406195 0.018546 -0.005814 461781.000000 1 0 0
4.154687 6.127878 6.700768 9.985620 0.974990 0.835183 -0.006461 0.005435 -2097370.000000 1 0 0
-4.243613 -1.446022 -7.407432 8.658481 0.328413 2.597335 0.008698 -0.011911 -719890.000000 1 0 0
9.584887 9.327978 0.878668 13.403480 0.771815 1.505194 0.018061 -0.003826 -2352590.000000 1 0 0
-8.970813 4.083378 4.947968 11.028683 -0.427157 1.105547 0.000165 -0.002292 2364940.000000 1 0 0
-7.066113 7.805178 -12.127732 16.060282 -0.835055 2.426661 -0.004557 -0.007169 -1292510.000000 1 0 0
11.136287 -3.583222 7.070668 13.669335 -0.311299 1.027144 0.010782 -0.003814 1152190.000000 1 0 0
11.790087 7.092478 6.407668 15.177865 0.541568 1.134957 0.015478 -0.002041 467624.000000 1 0 0
-9.926413 -0.893922 -14.835532 17.872487 0.089813 2.550041 0.014783 -0.004585 163259.000000 1 0 0
1.645687 -13.180722 11.928368 17.852890 -1.446584 0.839080 -0.000590 -0.000803 -248152.000000 1 0 0
3.015187 3.149078 13.193768 13.895451 0.807115 0.319149 -0.005589 0.000921 -542079.000000 1 0 0
-2.598113 -1.379022 10.994968 11.381617 0.487966 0.261402 0.008457 -0.000907 -1213350.000000 1 0 0
2.652087 -10.059622 -8.389632 13.364711 -1.313025 2.249449 -0.002464 0.002030 -1015650.000000 1 0 0
13.987987 3.650078 -7.440732 16.258885 0.255252 2.046137 0.030154 -0.011129 -2383680.000000 1 0 0
7.224787 -1.629322 4.996868 8.934256 -0.221808 0.977264 -0.002048 0.001401 407714.000000 1 0 0
-1.301713 8.746378 10.326268 13.595050 -1.423052 0.708159 0.000778 0.001198 -73009.700000 1 0 0
-12.304613 -4.677122 1.011668 13.202365 0.363244 1.494093 0.007456 -0.005184 188231.000000 1 0 0
-4.915313 4.840578 -5.341832 8.725060 -0.777738 2.229687 0.000634 -0.001615 -318710.000000 1 0 0
-11.221913 0.228678 2.085068 11.416266 -0.020375 1.387125 0.003519 -0.001793 -1819030.000000 1 0 0
-1.401513 2.277178 -4.070332 4.870050 -1.019086 2.560364 0.002294 -0.005950 852349.000000 1 0 0
3.181287 -9.855222 13.175268 16.758092 -1.258554 0.666155 -0.000636 0.003431 -3331790.000000 1 0 0
8.880387 4.817278 -1.436732 10.204491 0.497038 1.712060 0.002553 -0.003260 -1869510.000000 1 0 0
3.979687 2.318978 3.807668 5.976111 0.527604 0.880004 -0.008864 0.005071 -274222.000000 1 0 0
-5.472213 -3.237022 7.548168 9.869056 0.534174 0.700016 0.001753 -0.001654 29386.100000 1 0 0
1.789587 -5.771122 7.746568 9.824346 -1.270105 0.662418 -0.000826 -0.000978 -1148150.000000 1 0 0
-5.845113 -6.203322 -9.680132 12.897733 0.815120 2.419660 0.018322 -0.002728 -949871.000000 1 0 0
-11.679213 -5.785122 5.484368 14.140366 0.459909 1.172496 0.005887 -0.004495 -1540830.000000 1 0 0
10.474287 6.250278 4.384768 12.961591 0.538009 1.225698 0.004922 0.000896 -735922.000000 1 0 0
1.576187 -3.805622 0.485968 4.147685 -1.178132 1.453361 0.002117 0.000437 -905144.000000 1 0 0
8.719287 4.493978 6.969868 12.033323 0.475897 0.953032 -0.001133 0.006025 -299392.000000 1 0 0
-7.924313 12.138178 3.514768 14.915887 -0.992426 1.332920 -0.003897 0.000345 -230357.000000 1 0 0
-6.249813 13.254078 -7.105232 16.285425 -1.130176 2.022272 0.013962 -0.006535 252931.000000 1 0 0
4.506387 -6.976522 -0.923132 8.356528 -0.997283 1.681491 -0.001912 -0.001314 -2172940.000000 1 0 0
-1.891313 -8.194422 11.114868 13.937930 1.343964 0.647731 0.000127 -0.004370 19618.200000 1 0 0
11.601387 8.754178 -5.784932 15.642674 0.646426 1.949609 0.038005 -0.009001 356385.000000 1 0 0
-3.312713 -2.978822 -1.998832 4.882907 0.732378 1.992541 0.009414 -0.004842 -1306700.000000 1 0 0
-2.099813 6.036778 4.746968 7.961508 -1.236050 0.931987 -0.000542 0.004526 819348.000000 1 0 0
0.346087 -11.547022 -5.658832 12.863743 -1.540833 2.026290 0.001429 0.000434 35552.100000 1 0 0
-8.928813 6.113378 -1.519632 10.927322 -0.600370 1.710316 0.000090 0.002536 -1202810.000000 1 0 0
2.872087 0.042078 3.896068 4.840454 0.014650 0.635294 -0.005014 0.003001 -187023.000000 1 0 0
-10.119313 3.840478 -0.930332 10.863484 -0.362727 1.656540 0.004385 -0.001422 112394.000000 1 0 0
6.333987 5.538978 13.671468 16.053308 0.718538 0.551710 0.010321 0.003448 -916908.000000 1 0 0
-8.723913 -1.668822 5.697268 10.552274 0.189009 1.000467 0.000513 -0.003455 -244999.000000 1 0 0
12.913087 -1.691622 -1.517932 13.111580 -0.130259 1.686827 0.014740 -0.005948 -936531.000000 1 0 0
5.226787 -5.493422 5.466268 9.347570 -0.810265 0.946188 -0.002014 -0.000587 433696.000000 1 0 0
-9.024413 -1.182722 3.203868 9.649022 0.130315 1.232330 0.002283 -0.002599 612033.000000 1 0 0
1.958287 5.413578 5.714068 8.111244 1.223705 0.789131 -0.002767 0.004754 -1128300.000000 1 0 0
9.196187 3.089178 -7.455732 12.235229 0.324076 2.226057 0.007788 -0.004286 -65929.400000 1 0 0
2.292787 -2.345722 -1.432332 3.579226 -0.796810 1.982509 0.000597 -0.001656 53643.400000 1 0 0
-6.225613 0.313078 -3.939032 7.373754 -0.050246 2.134353 0.004061 -0.003172 -2216910.000000 1 0 0
-4.085813 4.128778 4.954368 7.634555 -0.790628 0.864606 0.001121 0.000807 987686.000000 1 0 0
-6.450513 1.708778 -12.352032 14.039293 -0.258958 2.646277 0.002727 -0.007647 -915490.000000 1 0 0
-0.128713 3.120378 6.282168 7.015622 -1.529571 0.461346 -0.001921 0.003904 1153820.000000 1 0 0
-8.698213 9.432478 -2.164932 13.012205 -0.825874 1.737951 -0.005253 0.004588 1625530.000000 1 0 0
-1.216213 -3.765222 -5.992332 7.180816 1.258363 2.558006 0.001383 -0.005229 -17308.700000 1 0 0
-3.402513 7.018578 -2.943232 8.336675 -1.119393 1.931621 -0.001057 0.003029 997650.000000 1 0 0
6.942487 -0.294522 -4.209432 8.124296 -0.042398 2.115458 -0.000892 -0.000760 -299560.000000 1 0 0
-5.040913 -10.833022 6.961768 13.828643 1.135269 1.043231 0.001247 -0.000846 1002570.000000 1 0 0
9.587387 8.385178 -1.466632 12.821085 0.718606 1.685440 0.009324 -0.001578 363471.000000 1 0 0
13.718487 4.605978 -4.351332 15.111122 0.323924 1.862888 0.011620 -0.004921 601969.000000 1 0 0
4.667087 1.087678 -6.782832 8.304912 0.228966 2.526509 -0.000816 -0.001422 -689727.000000 1 0 0
8.975387 -4.699522 3.523268 10.726439 -0.482350 1.236118 0.002744 -0.002097 -113647.000000 1 0 0
-8.788913 -3.435822 -0.748532 9.466265 0.372660 1.649953 0.007012 -0.005986 -231864.000000 1 0 0
-8.619813 -4.404422 -10.397032 14.205576 0.472381 2.391899 0.010722 -0.006382 -118735.000000 1 0 0
10.506087 -1.122822 10.647068 14.999955 -0.106469 0.781573 0.014235 -0.000499 1296010.000000 1 0 0
2.312187 -11.707822 9.813368 15.450615 -1.375815 0.882601 -0.000364 -0.002224 293434.000000 1 0 0
-6.454613 -10.508422 2.104768 12.510756 1.019978 1.401756 0.009132 0.000044 -1160580.000000 1 0 0
-3.648113 -1.525422 6.517968 7.623617 0.396046 0.545302 0.003442 -0.001679 -1363840.000000 1 0 0
4.806487 -7.552122 3.947568 9.783668 -1.004011 1.155473 -0.002079 0.002265 185528.000000 1 0 0
11.595587 -9.353422 -5.350332 15.829409 -0.678774 1.915587 0.023442 -0.010954 620040.000000 1 0 0
11.284987 1.268378 11.490168 16.154989 0.111925 0.779527 0.026834 0.001345 -46726.800000 1 0 0
-10.168513 -3.477722 4.381068 11.605471 0.329538 1.183701 0.002547 -0.001561 1892250.000000 1 0 0
1.959987 8.836378 9.056668 12.804154 1.352521 0.785093 -0.000696 0.002658 -51510.200000 1 0 0
6.555287 8.914978 4.185368 11.830719 0.936762 1.209196 0.008616 -0.000091 -28927.800000 1 0 0
-4.240613 3.564278 0.472568 5.559694 -0.698959 1.485695 0.003012 -0.001553 -1507310.000000 1 0 0
4.812687 7.126478 4.405968 9.662360 0.976824 1.097309 -0.000848 0.003285 -1228390.000000 1 0 0
-8.286313 13.024178 1.152968 15.479713 -1.004165 1.496245 -0.005227 0.001521 359092.000000 1 0 0
8.881387 8.172478 -9.112732 15.123172 0.743853 2.217511 0.016904 -0.012681 -1274320.000000 1 0 0
7.122987 1.978178 6.228468 9.666641 0.270891 0.870655 -0.005146 0.004641 -908458.000000 1 0 0
11.553987 -6.222322 3.034268 13.469175 -0.494005 1.343571 0.008438 -0.001911 -112740.000000 1 0 0
11.343987 4.832578 -2.143332 12.515340 0.402720 1.742901 0.005506 -0.002924 498331.000000 1 0 0
-4.013813 14.405678 -6.091832 16.147590 -1.299061 1.957632 0.006673 0.001096 -244703.000000 1 0 0
7.181687 -3.026022 7.060568 10.515943 -0.398777 0.834679 0.000108 -0.001095 -1053130.000000 1 0 0
-7.998613 -0.581022 0.920768 8.072373 0.072513 1.456483 0.004561 -0.003216 443959.000000 1 0 0
-3.279213 1.124978 10.779668 11.323429 -0.330482 0.311160 0.004483 -0.000141 -344558.000000 1 0 0
7.067687 -1.254122 -1.866532 7.416803 -0.175617 1.825194 0.000862 -0.000295 -1825150.000000 1 0 0
-7.642913 5.456678 2.969568 9.849253 -0.620029 1.264529 0.003173 -0.001097 517050.000000 1 0 0
9.448287 -2.115422 2.711868 10.054818 -0.220262 1.297706 0.000368 -0.001167 -1583630.000000 1 0 0
0.214287 3.623078 1.576668 3.957081 1.511720 1.160979 -0.002529 0.001414 -2032140.000000 1 0 0
-7.528313 -3.081522 3.837768 8.994428 0.388519 1.129975 -0.000256 -0.001573 -146879.000000 1 0 0
-2.382913 8.390078 -6.786432 11.051124 -1.294068 2.232034 0.002507 -0.002151 -264233.000000 1 0 0
4.473687 9.793378 7.284968 12.999803 1.142296 0.975939 0.006788 0.004492 65070.000000 1 0 0
-11.766713 -3.255522 6.814368 13.981758 0.269920 1.061715 0.012992 -0.009731 -2395740.000000 1 0 0
-4.752813 2.243278 -5.654832 7.720017 -0.440989 2.392768 0.003478 -0.006148 -319409.000000 1 0 0
-2.773013 2.879578 -1.839032 4.400410 -0.804248 2.001954 0.002277 -0.001670 1107390.000000 1 0 0
2.458487 5.310478 11.654668 13.041342 1.137225 0.465336 0.000201 -0.000686 362778.000000 1 0 0
-0.663313 1.658478 4.570668 4.907294 -1.190331 0.372548 -0.000100 0.001212 -52492.000000 1 0 0
5.077987 1.515078 7.732168 9.373784 0.289953 0.600821 -0.007297 0.005142 911746.000000 1 0 0
3.317287 -8.272622 2.010468 9.136884 -1.189432 1.348942 0.002211 -0.001073 1733020.000000 1 0 0
4.895587 6.403278 -4.580532 9.270923 0.918052 2.087567 0.006951 -0.000917 -2412380.000000 1 0 0
-4.063413 2.877378 -7.994432 9.418152 -0.616154 2.584569 0.007312 -0.012019 104523.000000 1 0 0
-8.800413 -2.280722 -12.919932 15.797899 0.253582 2.528419 0.013055 -0.005353 -410765.000000 1 0 0
-7.855113 8.091078 1.336968 11.355872 -0.800195 1.452789 -0.000310 0.003026 -2700370.000000 1 0 0
7.304687 0.946078 -6.478232 9.809231 0.128800 2.292177 0.000662 -0.001911 497691.000000 1 0 0
8.890587 8.974178 5.523668 13.787288 0.790077 1.158587 0.010142 0.000681 -6497.310000 1 0 0
9.378487 -1.009722 -1.376932 9.532654 -0.107251 1.715747 0.003417 -0.001859 1398150.000000 1 0 0
5.345287 0.150578 4.256668 6.834763 0.028163 0.898484 -0.008200 0.003902 -1719560.000000 1 0 0
-4.111113 -7.268922 -7.935132 11.519757 1.056075 2.330668 0.019154 -0.004047 -705505.000000 1 0 0
-2.326313 7.465778 -0.498132 7.835669 -1.268734 1.634412 -0.001247 0.001535 213480.000000 1 0 0
13.310987 -3.327222 -7.551932 15.661560 -0.244942 2.073955 0.034305 -0.005367 938763.000000 1 0 0
-4.753313 -4.998922 1.611368 7.083764 0.810578 1.341314 0.005516 -0.002451 2499460.000000 1 0 0
-8.917413 1.243378 2.533968 9.353461 -0.138539 1.296456 0.002063 -0.002026 -764378.000000 1 0 0
-1.216813 11.228178 10.184168 15.207560 -1.462846 0.837021 0.000262 -0.001707 572155.000000 1 0 0
-8.473613 0.302978 7.415868 11.264502 -0.035740 0.852186 -0.000476 -0.002643 -665929.000000 1 0 0
-6.270913 12.907278 -2.143232 14.509156 -1.118538 1.719055 -0.001384 0.003513 601429.000000 1 0 0
-13.210013 -0.781422 3.188868 13.611904 0.059085 1.334328 0.007322 -0.004854 280929.000000 1 0 0
-6.736113 12.753878 8.717968 16.853474 -1.084874 1.027127 0.011680 -0.007845 713096.000000 1 0 0
-8.064013 0.837478 -14.070432 16.239050 -0.103483 2.618857 0.002498 -0.007526 -167003.000000 1 0 0
7.142887 2.868378 3.892668 8.625618 0.381860 1.102584 -0.005189 0.004918 130345.000000 1 0 0
-1.661513 0.660578 -1.938132 2.636920 -0.378415 2.396461 0.000426 -0.003922 205139.000000 1 0 0
-6.257713 9.517578 -10.346632 15.388179 -0.989174 2.308209 -0.002855 -0.003436 -145708.000000 1 0 0
-10.123313 13.697678 5.368768 17.858654 -0.934338 1.265448 -0.000688 0.001069 576744.000000 1 0 0
-5.748113 8.244578 2.501868 10.357278 -0.961953 1.326827 -0.003830 0.003123 -1785930.000000 1 0 0
-2.369813 -10.883122 -1.235932 11.206511 1.356392 1.681308 0.009548 0.000129 636342.000000 1 0 0
-2.392513 -12.363622 8.804568 15.365666 1.379647 0.960631 0.002110 -0.000594 671599.000000 1 0 0
-14.672713 -6.503822 -1.523332 16.121686 0.417235 1.665427 0.020606 -0.007949 381618.000000 1 0 0
-2.726313 -9.347722 3.296968 10.280208 1.287013 1.244317 0.007595 0.000886 288973.000000 1 0 0
4.663987 -2.707422 7.541968 9.271687 -0.525954 0.620753 -0.002784 0.001104 -1383310.000000 1 0 0
-15.186913 -1.419522 -0.229832 15.254842 0.093199 1.585863 0.019254 -0.009995 390754.000000 1 0 0
5.439087 8.728378 -2.771932 10.651378 1.013529 1.834069 0.006046 -0.003344 -1454380.000000 1 0 0
-5.641313 -5.681822 8.524168 11.694826 0.788976 0.754106 0.001528 0.000757 -4056820.000000 1 0 0
3.439587 3.671078 7.130768 8.726707 0.817942 0.614399 -0.006705 0.005771 -17532.500000 1 0 0
3.419987 2.488078 9.497368 10.396482 0.628952 0.418948 -0.002005 -0.000179 1084790.000000 1 0 0
9.864587 -2.977822 5.013468 11.459160 -0.293171 1.117971 0.006595 -0.001780 -707334.000000 1 0 0
6.462287 10.041878 -5.064932 12.971276 0.998980 1.971942 0.006824 -0.002635 -8360.650000 1 0 0
-4.604013 12.070878 -8.590832 15.514684 -1.206414 2.157625 0.006249 -0.003561 -284960.000000 1 0 0
-3.408513 -7.195722 2.191568 8.258289 1.128421 1.302200 0.007097 -0.002682 769755.000000 1 0 0
-7.475713 -4.046122 1.122168 8.574185 0.496089 1.439542 0.004521 -0.003703 3663340.000000 1 0 0
-1.907713 -3.982522 -10.911432 11.771118 1.124072 2.757041 0.012603 -0.003686 -747702.000000 1 0 0
-5.352713 8.224378 -4.479532 10.786943 -0.993834 1.999040 -0.000521 0.001459 -2074660.000000 1 0 0
-10.986013 -3.251222 -10.184932 15.329572 0.287730 2.297484 0.012930 -0.002376 -769267.000000 1 0 0
4.767487 -11.489022 -7.920432 14.746519 -1.177460 2.137798 0.003842 0.002604 -2249730.000000 1 0 0
-9.320113 -3.985322 7.240068 12.456560 0.404075 0.950563 0.002127 -0.004888 -1113760.000000 1 0 0
-5.663713 -9.689322 -5.057332 12.310045 1.041828 1.994160 0.016694 -0.004621 -192994.000000 1 0 0
4.833087 4.419978 -9.549032 11.579247 0.740782 2.540411 0.004585 -0.000113 -161655.000000 1 0 0
-3.279513 -7.152522 -14.045232 16.099141 1.140887 2.630931 0.003661 0.000512 73156.300000 1 0 0
0.575387 -0.792322 -8.712932 8.767784 -0.942700 3.029677 0.004446 -0.007761 279014.000000 1 0 0
-7.695213 2.189778 -2.915232 8.515281 -0.277236 1.920216 0.002570 -0.002262 -181273.000000 1 0 0
-2.373413 7.513778 -12.526132 14.798444 -1.264840 2.580077 0.004653 -0.006777 13612.200000 1 0 0
-9.949713 8.748578 7.589768 15.268889 -0.721249 1.050573 0.003956 -0.011703 -649646.000000 1 0 0
-10.694413 -3.251722 -14.467332 18.282447 0.295176 2.483767 0.029428 0.003331 -297022.000000 1 0 0
-3.175713 4.828778 7.980368 9.853350 -0.989052 0.626791 0.002189 -0.000593 -359173.000000 1 0 0
8.719487 -2.206022 -3.619832 9.695317 -0.247799 1.953423 0.002795 -0.002442 -4358610.000000 1 0 0
1.979987 -8.429522 -1.155832 8.735739 -1.340091 1.703496 -0.000727 0.002055 -689021.000000 1 0 0
-13.434413 -2.943622 4.988468 14.629873 0.215702 1.222839 0.023360 -0.010592 427445.000000 1 0 0
7.020487 2.920078 -1.942832 7.847846 0.394169 1.820960 0.000818 -0.002614 139919.000000 1 0 0
-11.155613 4.343978 8.950068 14.947293 -0.371334 0.928825 0.001721 -0.005921 -3092730.000000 1 0 0
-1.709213 -2.529122 7.925968 8.493458 0.976489 0.367621 0.001892 -0.001440 -1424470.000000 1 0 0
3.074887 11.998478 -9.810732 15.800914 1.319922 2.240682 0.009532 -0.007913 413991.000000 1 0 0
3.654887 -5.080722 -7.039932 9.419798 -0.947192 2.414869 -0.006024 -0.001321 155723.000000 1 0 0
8.400087 -13.800822 -9.847132 18.920628 -1.024029 2.118167 0.025004 -0.003174 729726.000000 1 0 0
-6.257213 -5.786422 -0.452932 8.534667 0.746328 1.623891 0.013120 -0.005750 -491565.000000 1 0 0
-1.129713 -4.012622 9.883468 10.726617 1.296360 0.399138 0.001757 -0.000350 1147890.000000 1 0 0
2.748887 3.306778 1.855668 4.683446 0.877266 1.163402 -0.006965 0.002168 -1163990.000000 1 0 0
-9.191913 13.225478 7.771868 17.883133 -0.963423 1.121211 0.009277 -0.018239 -168035.000000 1 0 0
4.145087 -11.085322 -0.036732 11.835010 -1.212968 1.573900 0.002848 -0.000977 166904.000000 1 0 0
-12.563813 -1.492322 -9.061632 15.562442 0.118225 2.192321 0.011477 -0.004633 501462.000000 1 0 0
-4.347313 0.831678 -13.502432 14.209381 -0.189025 2.824827 0.005031 -0.005284 89078.900000 1 0 0
4.032787 -3.030422 4.945668 7.064450 -0.644426 0.795289 -0.004443 0.002850 36383.100000 1 0 0
1.717087 -1.209422 1.130568 2.385220 -0.613636 1.076981 -0.001676 0.000846 694357.000000 1 0 0
8.250787 -8.959222 7.307868 14.203805 -0.826539 1.030371 0.011726 -0.002106 -1573430.000000 1 0 0
-0.150413 2.316578 -6.350832 6.761822 -1.505958 2.791145 0.002036 -0.007540 -1246050.000000 1 0 0
-3.741713 -9.724122 -3.371132 10.950959 1.203473 1.883717 0.012644 -0.000640 1036140.000000 1 0 0
-9.391313 2.185278 -5.514632 11.107807 -0.228623 2.090318 0.005092 -0.001874 -1644220.000000 1 0 0
8.913187 -7.638322 5.198168 12.837827 -0.708526 1.153916 0.006645 -0.002913 2043490.000000 1 0 0
-5.513713 -4.257222 4.638868 8.369233 0.657505 0.983303 0.001500 -0.001622 -687692.000000 1 0 0
-0.141013 -12.452222 10.302468 16.162257 1.559472 0.879625 -0.000179 -0.000266 623172.000000 1 0 0
-14.189613 -8.397822 3.084468 16.774459 0.534390 1.385865 0.004484 -0.008649 -1590230.000000 1 0 0
10.899687 -1.316722 -3.645532 11.568355 -0.120221 1.891390 0.016485 -0.005433 14603.900000 1 0 0
-13.572613 2.913578 2.602568 14.123672 -0.211457 1.385467 0.010845 -0.002968 -72745.400000 1 0 0
-6.354013 6.113578 1.057168 8.880705 -0.766116 1.451472 0.001077 0.001875 336606.000000 1 0 0
7.135587 -6.855122 -0.544432 9.909879 -0.765354 1.625762 0.001294 -0.004151 69366.800000 1 0 0
-6.860613 7.749478 10.104468 14.464532 -0.846162 0.797401 -0.003693 -0.004012 103943.000000 1 0 0
-12.669913 -5.141222 -1.915232 13.806773 0.385481 1.709962 0.006059 -0.005615 -1641880.000000 1 0 0
-9.410013 -5.667522 0.288268 10.988733 0.542099 1.544560 0.006092 -0.005241 -958210.000000 1 0 0
-1.816113 2.032078 2.292268 3.561193 -0.841461 0.871500 0.000667 0.000899 -50679.600000 1 0 0
-7.218113 7.240778 7.563668 12.717668 -0.786966 0.933858 -0.001389 -0.004858 -203098.000000 1 0 0
5.654087 7.089678 -0.320132 9.073848 0.897576 1.606084 0.002865 -0.002232 -2004820.000000 1 0 0
0.036287 -3.970822 7.470868 8.460650 -1.561658 0.488552 0.002232 -0.000455 -993931.000000 1 0 0
6.213187 0.838078 13.157568 14.574898 0.134078 0.444664 -0.002923 -0.000597 341745.000000 1 0 0
5.765187 6.135778 -7.837732 11.502835 0.816528 2.320435 0.002596 -0.000913 -628810.000000 1 0 0
9.980287 5.449378 9.005468 14.505182 0.499778 0.900976 0.005077 0.002921 -633126.000000 1 0 0
-1.187613 -4.937422 -8.460532 9.867582 1.334747 2.601006 0.008599 -0.001550 734321.000000 1 0 0
9.968587 -3.508022 -7.887932 13.187055 -0.338373 2.211996 0.019405 -0.009784 480143.000000 1 0 0
8.354487 -5.465022 1.233568 10.059106 -0.579282 1.447855 0.004292 -0.002808 1364770.000000 1 0 0
15.824087 3.201878 -5.036632 16.912168 0.199646 1.873195 0.029062 -0.003267 -868894.000000 1 0 0
-6.818913 3.605278 1.242968 7.812847 -0.486357 1.411025 0.004117 -0.000465 234474.000000 1 0 0
-1.758913 3.770978 0.244968 4.168220 -1.134360 1.511992 0.001735 -0.002997 -1633650.000000 1 0 0
-2.666213 10.087778 7.003468 12.566643 -1.312404 0.979658 -0.002383 0.007003 880079.000000 1 0 0
5.538487 -5.744722 -8.650932 11.769252 -0.803674 2.396530 -0.001428 -0.004000 -784438.000000 1 0 0
-1.238513 -0.831422 6.240768 6.416569 0.591208 0.234623 0.001377 -0.000008 343132.000000 1 0 0
-5.798713 4.914278 -7.856332 10.931476 -0.703028 2.372712 -0.001196 -0.003906 114916.000000 1 0 0
6.708487 -1.196322 2.525968 7.267427 -0.176475 1.215814 -0.003796 0.003258 -1219090.000000 1 0 0
8.757887 7.691878 3.262868 12.104209 0.720685 1.297855 0.005044 -0.000368 -252593.000000 1 0 0
-5.193613 -4.926722 -7.646432 10.474452 0.759033 2.389130 0.016808 -0.007511 1067980.000000 1 0 0
-2.252413 7.824178 -10.080232 12.957709 -1.290497 2.462166 0.005504 -0.004517 717615.000000 1 0 0
-2.709913 -2.238222 1.586068 3.856018 0.690358 1.146892 -0.000081 0.000107 428230.000000 1 0 0
5.933887 -2.087622 -9.185032 11.132565 -0.338290 2.541104 -0.000921 -0.001686 735002.000000 1 0 0
1.111787 -7.500122 5.128968 9.153918 -1.423632 0.976045 0.002194 0.001189 433978.000000 1 0 0
1.682287 11.877278 1.121768 12.048161 1.430093 1.477554 0.007080 -0.005428 525368.000000 1 0 0
-0.962413 7.206678 2.646568 7.737362 -1.438037 1.221698 -0.001791 0.003715 167984.000000 1 0 0
8.646387 7.901878 -6.636332 13.462563 0.740438 2.086270 0.010924 -0.005875 -36585.400000 1 0 0
3.680887 -11.308522 5.512168 13.107845 -1.256115 1.136773 0.006695 -0.002531 252815.000000 1 0 0
7.952987 -7.027422 12.406468 16.326515 -0.723692 0.707642 0.021464 -0.002795 404018.000000 1 0 0
-8.666413 -0.044522 -3.981632 9.537405 0.005137 2.001462 0.007895 -0.004631 -881865.000000 1 0 0
-3.329913 -5.005122 11.175568 12.689873 0.983740 0.493525 0.004433 -0.001933 -79332.400000 1 0 0
-8.223713 0.004178 -11.581532 14.204273 -0.000508 2.524139 0.005244 -0.008541 -2054880.000000 1 0 0
1.447787 -4.977522 5.372068 7.465315 -1.287741 0.767565 -0.000831 0.000260 -665268.000000 1 0 0
6.688787 3.809678 -7.760732 10.930804 0.517738 2.360277 0.002678 -0.000463 -1078520.000000 1 0 0
16.256787 4.348178 -1.225432 16.872802 0.261351 1.643488 0.016367 0.000579 -1587850.000000 1 0 0
7.901787 7.375078 0.316568 10.813428 0.750934 1.541517 0.003791 -0.002445 -1798280.000000 1 0 0
5.414187 -10.416122 13.846668 18.153215 -1.091443 0.703216 0.009452 -0.003041 56648.000000 1 0 0
-5.155013 -9.237222 9.019868 13.901742 1.061779 0.864750 0.001831 -0.002904 304078.000000 1 0 0
-12.595613 -3.183222 2.839068 13.298221 0.247541 1.355648 0.004476 -0.005382 -2898.740000 1 0 0
-2.092413 -1.293722 -5.824832 6.323020 0.553761 2.741977 0.006429 -0.009968 -1931780.000000 1 0 0
-2.631613 13.057678 -4.405032 14.029706 -1.371923 1.890177 0.004437 0.003661 201761.000000 1 0 0
3.886987 -0.501822 -4.964932 6.325429 -0.128393 2.473357 -0.000934 -0.001052 -623497.000000 1 0 0
-8.830513 3.746678 -7.416832 12.125385 -0.401267 2.228976 0.001006 -0.002323 188701.000000 1 0 0
-4.600513 7.802678 -11.260632 14.451586 -1.038054 2.464180 0.000968 -0.008415 -1979330.000000 1 0 0
-10.056713 -6.483722 7.426068 14.082706 0.572652 1.015355 0.003598 -0.001235 -1821210.000000 1 0 0
7.989887 5.298378 4.091368 10.423550 0.585554 1.167435 -0.001801 0.003114 -969083.000000 1 0 0
-6.622513 -7.609522 3.984168 10.846017 0.854639 1.194650 0.007944 -0.001334 -783305.000000 1 0 0
-4.158713 11.833778 8.133268 14.949356 -1.232851 0.995534 -0.002611 0.001438 -269700.000000 1 0 0
-7.325113 10.003178 -7.947532 14.726986 -0.938734 2.140827 -0.002390 -0.002777 -1114850.000000 1 0 0
13.026887 5.604278 4.709868 14.942910 0.406274 1.250139 0.013316 -0.002094 -1422520.000000 1 0 0
5.258187 4.027878 -3.605232 7.541222 0.653675 2.069252 0.001185 -0.000887 478778.000000 1 0 0
-2.829813 -4.193922 5.188968 7.247221 0.977224 0.772749 0.003431 0.000267 -2194390.000000 1 0 0
12.500087 -2.205822 -5.483432 13.826997 -0.174666 1.978579 0.019743 -0.012945 -1375620.000000 1 0 0
-5.300513 9.746878 6.978568 13.107153 -1.072713 1.009334 -0.001539 0.002576 451669.000000 1 0 0
1.751187 3.828178 -0.468332 4.235674 1.141767 1.681591 -0.004414 -0.000335 378094.000000 1 0 0
-0.174813 9.736578 7.809468 12.482760 -1.552844 0.894870 0.000113 0.001827 -762183.000000 1 0 0
-5.556513 2.043078 5.925068 8.375884 -0.352347 0.784989 0.003051 -0.002275 731657.000000 1 0 0
8.862287 0.905378 10.832268 14.024901 0.101808 0.688249 0.007717 0.003664 -1388320.000000 1 0 0
0.461287 -2.813022 -10.087632 10.482662 -1.408260 2.866190 0.002897 -0.004001 -1635270.000000 1 0 0
1.163587 10.608878 -2.683532 11.004707 1.461552 1.817133 0.007603 -0.001007 -1141550.000000 1 0 0
2.337087 -4.295522 11.636568 12.622329 -1.072513 0.397831 -0.000701 0.001831 -1089540.000000 1 0 0
6.639087 -2.938722 9.469068 11.932175 -0.416716 0.654135 -0.000174 -0.000983 831605.000000 1 0 0
-10.683913 -8.237822 5.573168 14.596846 0.656837 1.179046 0.007733 -0.002689 -1418770.000000 1 0 0
-2.977313 0.806978 -6.955832 7.609153 -0.264683 2.724178 0.007897 -0.009473 721258.000000 1 0 0
11.116787 2.767578 -4.977832 12.490847 0.243995 1.980697 0.012498 -0.006036 -3113850.000000 1 0 0
-2.065513 -4.147422 -0.009732 4.633309 1.108731 1.572897 0.004353 -0.003056 757302.000000 1 0 0
-1.184213 -6.422522 -10.727532 12.559104 1.388460 2.594737 0.007471 0.000709 1757270.000000 1 0 0
0.213687 6.861278 -6.569232 9.501453 1.539662 2.334211 0.009312 -0.002010 -1810360.000000 1 0 0
1.916187 3.871678 -6.140532 7.507849 1.111218 2.528516 0.001875 -0.002629 -2277990.000000 1 0 0
1.603787 -14.736622 6.528268 16.197483 -1.462393 1.155958 0.017061 -0.008996 -670780.000000 1 0 0
-1.756713 5.351678 -10.499732 11.915153 -1.253624 2.649209 0.005944 -0.006509 -365244.000000 1 0 0
13.627287 4.325878 -0.857432 14.323106 0.307381 1.630696 0.008462 -0.004201 -1298600.000000 1 0 0
-2.373013 3.252478 -6.199032 7.391739 -0.940479 2.565584 0.008069 -0.008066 -1088200.000000 1 0 0
5.787787 8.050178 14.157268 17.283867 0.947456 0.610951 0.014938 -0.003996 160182.000000 1 0 0
15.970687 0.757678 -5.690032 16.970957 0.047406 1.912699 0.028724 -0.009202 44022.600000 1 0 0
6.258187 -8.283022 10.628468 14.857243 -0.923757 0.773639 0.001811 0.001970 -4794.840000 1 0 0
0.154887 -5.894622 -6.419832 8.716927 -1.544526 2.398647 0.000226 -0.001392 -357081.000000 1 0 0
8.673287 5.565878 -7.637932 12.827428 0.570537 2.208606 0.004915 -0.003200 -631758.000000 1 0 0
-16.018713 -0.892122 5.398968 16.927608 0.055635 1.246181 0.033511 -0.013011 -209269.000000 1 0 0
-0.316313 4.004478 -12.142632 12.789817 -1.491970 2.822111 0.008755 -0.008721 469532.000000 1 0 0
-11.395913 3.691778 5.882968 13.345612 -0.313288 1.114288 0.002342 -0.005544 -828521.000000 1 0 0
5.274787 -9.660922 -9.747632 14.702827 -1.071035 2.295584 -0.002291 0.001269 -78940.500000 1 0 0
1.428187 11.209178 -11.609232 16.200607 1.444067 2.369701 0.007077 -0.004240 -881981.000000 1 0 0
6.018687 2.374478 1.216368 6.583486 0.375771 1.384968 -0.002080 0.000604 -85807.600000 1 0 0
5.539187 4.634578 4.894568 8.724603 0.696716 0.975194 -0.007751 0.004119 -164386.000000 1 0 0
0.340287 -1.590522 -6.273432 6.480857 -1.360027 2.887908 0.001899 -0.004418 -1085280.000000 1 0 0
12.701387 6.896178 -4.558332 15.154567 0.497412 1.876317 0.017476 -0.006429 -780861.000000 1 0 0
7.318587 3.246278 12.845268 15.136081 0.417491 0.557364 0.005265 0.001915 -254826.000000 1 0 0
-2.551813 -0.184122 8.625068 8.996524 0.072029 0.288361 0.002210 0.000697 942532.000000 1 0 0
2.163287 -15.313822 13.290268 20.391767 -1.430461 0.860911 0.006766 -0.005742 -865555.000000 1 0 0
18.832587 4.769478 -1.712232 19.502461 0.248041 1.658705 0.023468 -0.007658 1498460.000000 1 0 0
-0.468313 -13.310122 7.272068 15.174374 1.535626 1.071015 0.008081 -0.002393 -717487.000000 1 0 0
4.397887 1.633878 -0.557732 4.724620 0.355711 1.689120 -0.003403 -0.000567 400752.000000 1 0 0
2.709487 -0.425022 -7.391132 7.883578 -0.155596 2.786273 -0.002056 -0.003007 879811.000000 1 0 0
7.210987 -11.290222 0.885368 13.425771 -1.002411 1.504803 0.003800 -0.000282 212907.000000 1 0 0
-11.842313 -7.442922 1.284768 14.045928 0.561114 1.479199 0.007445 -0.001786 461813.000000 1 0 0
0.184987 -7.073022 10.071168 12.308139 -1.544648 0.612431 -0.001045 -0.001499 -564710.000000 1 0 0
-4.751313 -7.177722 10.616568 13.667706 0.986064 0.681287 0.007294 -0.001355 -1055000.000000 1 0 0
11.827387 0.800078 -1.686332 11.973760 0.067543 1.712102 0.008349 -0.003933 1891580.000000 1 0 0
6.637287 -9.628622 -7.585432 13.939251 -0.967268 2.146205 -0.002508 -0.001444 -1529290.000000 1 0 0
-10.980113 4.940278 3.534368 12.548346 -0.422795 1.285273 0.001887 -0.003378 36864.100000 1 0 0
6.042987 -9.156222 2.136568 11.176718 -0.987432 1.378450 0.001296 -0.001415 3515230.000000 1 0 0
11.611387 -1.233922 5.853668 13.061864 -0.105871 1.106102 0.008243 -0.003270 -653995.000000 1 0 0
-6.542213 3.502578 4.159168 8.506896 -0.491550 1.059948 0.002130 -0.001727 -612959.000000 1 0 0
9.372987 6.392078 -3.209632 11.790390 0.598521 1.846500 0.004750 -0.003380 -1130680.000000 1 0 0
-2.321513 6.516578 11.015668 13.007695 -1.228567 0.560748 0.003562 -0.000068 127924.000000 1 0 0
1.704387 9.874078 2.943268 10.443427 1.399868 1.285096 0.001172 0.001225 -183295.000000 1 0 0
2.716087 6.059478 -5.470232 8.603362 1.149409 2.259873 0.003003 -0.001816 -2083230.000000 1 0 0
11.719087 0.210478 -5.706432 13.036283 0.017958 2.023874 0.018336 -0.006973 211204.000000 1 0 0
-2.654713 -12.439222 6.183368 14.142694 1.360536 1.118299 0.005951 0.000656 226108.000000 1 0 0
10.785487 1.843278 -2.748732 11.281841 0.169268 1.816916 0.008412 -0.003956 608193.000000 1 0 0
-8.917913 5.223778 0.864868 10.371356 -0.529885 1.487309 -0.000589 0.000237 599142.000000 1 0 0
1.324887 -10.122322 5.460468 11.577281 -1.440649 1.079631 0.002420 0.000748 -599558.000000 1 0 0
9.475087 -5.716922 -1.180032 11.128924 -0.542889 1.677029 0.006649 -0.005182 649672.000000 1 0 0
-7.818213 8.629678 -4.606132 12.522470 -0.834694 1.947470 -0.001682 0.000698 -829504.000000 1 0 0
-7.412813 -0.149022 -1.641632 7.593877 0.020101 1.788695 0.006289 -0.003073 -1703540.000000 1 0 0
4.072087 8.978378 2.713868 10.225372 1.144999 1.302172 0.003962 -0.001861 687388.000000 1 0 0
-1.257313 -10.518222 -3.737132 11.232987 1.451824 1.909954 0.007141 0.001737 -373279.000000 1 0 0
3.128987 7.799378 -3.564332 9.128270 1.189270 1.971940 0.007717 -0.003622 -519200.000000 1 0 0
-4.269013 1.630078 -11.096232 12.000333 -0.364753 2.750939 0.004401 -0.008038 -303698.000000 1 0 0
1.368387 2.959378 11.060468 11.531017 1.137687 0.286663 -0.001849 0.000958 870542.000000 1 0 0
2.095587 5.617878 -7.986832 9.987068 1.213762 2.497621 0.005089 -0.001654 831372.000000 1 0 0
15.532587 6.150878 3.987868 17.175496 0.377052 1.336474 0.033224 -0.010905 -24457.000000 1 0 0
-4.515413 9.100578 4.611368 11.156800 -1.110219 1.144695 -0.000625 0.004252 -657947.000000 1 0 0
-0.830513 -8.190522 -12.484332 14.954363 1.469742 2.558618 0.005715 0.001717 383589.000000 1 0 0
14.307087 -4.007022 -5.302732 15.775549 -0.273076 1.913608 0.039093 -0.010033 357084.000000 1 0 0
-6.068413 -6.271122 -5.670732 10.407200 0.801824 2.147049 0.017350 -0.007044 891867.000000 1 0 0
-8.894813 2.479678 -12.166532 15.273867 -0.271875 2.492378 0.002986 -0.009675 -689672.000000 1 0 0
10.439587 5.395478 13.798268 18.124247 0.477020 0.705457 0.036615 -0.005313 617038.000000 1 0 0
-0.527313 10.908178 5.520768 12.237045 -1.522493 1.102741 -0.001128 0.009025 439143.000000 1 0 0
0.100387 11.365278 -0.649532 11.384266 1.561964 1.627883 0.005231 -0.002794 -6262.150000 1 0 0
-1.454813 -0.453622 3.765268 4.061957 0.302254 0.384572 0.000914 0.000949 43525.100000 1 0 0
-4.906413 6.635078 8.854168 12.103447 -0.934071 0.750217 0.002814 -0.000391 -700838.000000 1 0 0
3.518887 -8.685522 -11.445232 14.792370 -1.185863 2.455497 -0.000845 0.003936 298457.000000 1 0 0
6.690587 -3.838922 12.012068 14.275540 -0.520917 0.570846 0.012763 -0.002001 -1127390.000000 1 0 0
-2.480213 -1.883922 -12.466732 12.849904 0.649605 2.896773 0.009123 -0.007351 913269.000000 1 0 0
-16.027913 -4.943622 5.337868 17.601881 0.299180 1.262689 0.027604 -0.012579 933923.000000 1 0 0
-9.005813 7.088678 5.804768 12.847153 -0.666839 1.101977 -0.001126 -0.004490 -3797920.000000 1 0 0
-12.946813 1.399078 6.091568 14.376529 -0.107646 1.133252 0.004793 -0.004246 534023.000000 1 0 0
-3.575813 3.612278 10.208768 11.404119 -0.790471 0.461956 0.005040 -0.000818 388072.000000 1 0 0
2.097487 -12.287822 -1.191032 12.522323 -1.401729 1.666053 0.009447 0.002519 -2855380.000000 1 0 0
10.202887 -5.146222 -3.653232 11.997025 -0.467152 1.880222 0.016257 -0.006823 434010.000000 1 0 0
3.313687 -13.498822 0.916968 13.929808 -1.330077 1.504921 0.009226 -0.001976 359899.000000 1 0 0
10.024787 -1.624822 -6.106032 11.849896 -0.160683 2.112132 0.015626 -0.004941 -471075.000000 1 0 0
11.960087 -5.432922 -1.674032 13.242459 -0.426386 1.697549 0.017117 -0.006584 322109.000000 1 0 0
1.565987 1.027078 6.017268 6.301961 0.580488 0.301727 -0.002867 0.002705 619120.000000 1 0 0
-10.855213 11.503078 6.562868 17.123892 -0.814367 1.177475 0.005618 -0.012290 -434657.000000 1 0 0
4.890687 -14.099522 3.114668 15.245212 -1.236914 1.365043 0.015718 -0.008101 -4140720.000000 1 0 0
5.255087 -3.353022 -1.750832 6.474883 -0.567930 1.844609 -0.001006 -0.001783 -1667640.000000 1 0 0
2.010087 -2.935722 -7.673132 8.457888 -0.970413 2.707415 -0.003033 -0.001667 167678.000000 1 0 0
-2.902513 14.769578 -8.896432 17.484608 -1.376749 2.104604 0.017093 -0.008090 -1121730.000000 1 0 0
-2.442113 6.050678 -8.116632 10.414141 -1.187182 2.464481 0.006847 -0.004883 62501.000000 1 0 0
2.572387 -3.498522 -11.347032 12.149567 -0.936784 2.776093 -0.001183 0.000584 -1666140.000000 1 0 0
14.692987 2.859878 -2.720532 15.213943 0.192239 1.750582 0.021305 -0.001807 879702.000000 1 0 0
-3.505013 13.131378 2.094468 13.751545 -1.309958 1.417893 -0.009117 0.004654 -1347800.000000 1 0 0
7.867487 -4.908922 14.012768 16.803349 -0.557844 0.584611 0.030083 -0.004338 -1586690.000000 1 0 0
-11.724313 7.276678 2.853168 14.090781 -0.555464 1.366902 -0.005170 0.000815 1012790.000000 1 0 0
-2.366513 12.037878 4.098168 12.934677 -1.376683 1.248405 -0.001401 0.003468 -120110.000000 1 0 0
1.727187 1.502178 0.696068 2.392535 0.715835 1.275594 -0.005032 0.001919 -1029370.000000 1 0 0
-6.930913 8.531678 5.276668 12.193043 -0.888556 1.123244 -0.003025 -0.001628 -652600.000000 1 0 0
-1.225313 9.198078 1.048368 9.338367 -1.438362 1.458295 0.001691 0.003120 499789.000000 1 0 0
4.948187 13.124978 -8.528732 16.416116 1.210269 2.117102 0.025023 -0.011523 -3026100.000000 1 0 0
8.801787 7.043178 7.262268 13.409636 0.674862 0.998492 0.000145 0.002471 -1628590.000000 1 0 0
7.340687 -13.773422 2.892268 15.873187 -1.081129 1.387562 0.022255 -0.009562 560437.000000 1 0 0
4.279287 -13.387322 -1.319232 14.116411 -1.261409 1.664387 0.004424 0.000011 -3231730.000000 1 0 0
12.204187 -11.720622 -4.571832 17.527602 -0.765189 1.834685 0.029267 -0.005849 -697532.000000 1 0 0
3.165787 -0.081022 -2.006932 3.749207 -0.025587 2.135654 -0.001818 -0.000872 341606.000000 1 0 0
-13.597313 -3.165322 -10.671932 17.572602 0.228717 2.223461 0.026775 -0.008451 152642.000000 1 0 0
-6.663413 13.605878 5.070568 15.975971 -1.115386 1.247823 0.000536 -0.002764 355834.000000 1 0 0
7.340587 -4.260322 -0.798532 8.524800 -0.525867 1.664606 -0.001943 -0.000949 -1200840.000000 1 0 0
11.772187 2.227778 -7.237432 13.997422 0.187029 2.114203 0.023052 -0.007319 -862638.000000 1 0 0
-7.501913 -4.595322 9.689668 13.087603 0.549599 0.737176 0.008357 -0.003580 148768.000000 1 0 0
1.100887 3.014278 8.567868 9.149108 1.220624 0.358369 -0.003629 0.002478 -1803660.000000 1 0 0
1.554187 8.036278 -8.696432 11.942579 1.379758 2.386469 0.008031 -0.003045 279458.000000 1 0 0
-8.595013 -2.038522 -5.570632 10.443264 0.232872 2.133434 0.013757 -0.007750 -819860.000000 1 0 0
6.589187 -0.520822 7.070368 9.678778 -0.078878 0.751739 -0.002488 0.001333 414464.000000 1 0 0
-11.014413 6.355678 7.244268 14.635277 -0.523361 1.052977 0.000958 -0.007161 615749.000000 1 0 0
-6.031013 11.031778 4.851268 13.476203 -1.070494 1.202542 -0.005471 0.000917 -210521.000000 1 0 0
5.991587 -1.202122 -6.833632 9.167483 -0.198006 2.411962 -0.002136 -0.001139 -1016090.000000 1 0 0
4.502487 -5.775922 11.435968 13.579949 -0.908664 0.569591 0.005623 -0.003073 -1437330.000000 1 0 0
-8.903913 -7.388822 2.804168 11.905365 0.692673 1.333024 0.005703 -0.003758 -4069920.000000 1 0 0
-1.313413 12.786378 -9.384032 15.914666 -1.468436 2.201418 0.016784 -0.001038 442851.000000 1 0 0
-4.797013 9.254178 -2.356532 10.686645 -1.092567 1.793136 -0.002789 0.001499 1032620.000000 1 0 0
-3.368213 9.748278 -0.247332 10.316732 -1.238119 1.594773 0.000471 0.001314 -560786.000000 1 0 0
-3.520513 10.779178 -6.487832 13.064328 -1.255115 2.090481 0.004057 0.000204 908244.000000 1 0 0
5.002087 -4.857222 0.292868 6.978485 -0.770706 1.528817 -0.000796 -0.000190 -1352990.000000 1 0 0
-2.250713 2.959078 -10.927832 11.542936 -0.920537 2.813665 0.008487 -0.009255 -1871990.000000 1 0 0
-3.791313 12.127878 -2.242932 12.903109 -1.267810 1.745513 -0.001311 0.003771 -351804.000000 1 0 0
-0.287313 0.382478 0.118868 0.492917 -0.926535 1.327245 -0.001239 -0.000915 -884589.000000 1 0 0
-4.815713 -1.768122 0.081868 5.130697 0.351877 1.554839 0.001400 -0.002417 614578.000000 1 0 0
2.542387 2.436478 -2.420332 4.272957 0.764130 2.172964 -0.006470 -0.002318 738704.000000 1 0 0
6.164187 -9.683922 8.507868 14.288434 -1.003943 0.932986 0.007050 0.000363 -1211040.000000 1 0 0
-4.301813 -5.482922 6.565168 9.574417 0.905526 0.815233 0.001016 -0.000845 -64601.000000 1 0 0
-6.403613 5.212778 -12.063232 14.618512 -0.683242 2.541357 -0.003480 -0.008617 277871.000000 1 0 0
-12.999613 3.029278 8.012768 15.568266 -0.228943 1.030155 0.009129 -0.008754 662088.000000 1 0 0
4.764887 -7.507522 -5.017032 10.209684 -1.005265 2.084492 -0.002851 -0.003179 305020.000000 1 0 0
-5.974313 2.508578 -1.045432 6.563407 -0.397538 1.730760 0.000449 -0.000759 -916995.000000 1 0 0
-6.874013 -2.900422 -14.534632 16.337688 0.399276 2.667349 0.009350 -0.003310 280256.000000 1 0 0
2.786387 -6.182222 0.884168 6.838536 -1.147352 1.441141 -0.001202 0.002541 -499.106000 1 0 0
4.830087 -7.884822 13.001868 15.954583 -1.021178 0.618188 0.009638 -0.002642 -135236.000000 1 0 0
-10.000913 -1.683022 8.021068 12.930133 0.166725 0.901621 0.003954 -0.005245 45801.000000 1 0 0
-4.599113 13.271478 -0.119932 14.046293 -1.237206 1.579335 -0.006892 0.005389 704884.000000 1 0 0
6.776687 2.336278 -4.503332 8.465322 0.331992 2.131727 0.000261 -0.001094 -1341130.000000 1 0 0
4.987287 4.459878 0.071468 6.690938 0.729629 1.560115 -0.004570 -0.001746 -214483.000000 1 0 0
-5.859213 12.167878 1.908968 13.639347 -1.122033 1.430375 -0.008319 0.004238 1186940.000000 1 0 0
6.578287 -7.239422 6.582968 11.790613 -0.833209 0.978434 0.001508 0.000946 -1621520.000000 1 0 0
-0.321313 4.987778 7.707568 9.186281 -1.506465 0.575298 0.001034 0.002761 -778661.000000 1 0 0
-5.805913 -3.395722 -1.578232 6.908717 0.529222 1.801272 0.008096 -0.005489 -571265.000000 1 0 0
2.368587 -6.569922 -5.172732 8.690871 -1.224781 2.208300 -0.004257 0.001103 -1460080.000000 1 0 0
-14.489613 -5.003122 -3.713432 15.772435 0.332473 1.808466 0.020039 -0.010368 -454573.000000 1 0 0
-12.393013 -5.210422 -6.275232 14.836233 0.397995 2.007513 0.019338 -0.012942 -1774210.000000 1 0 0
-14.870313 -3.874822 -1.292032 15.421083 0.254906 1.654678 0.017368 -0.008284 255448.000000 1 0 0
11.901987 3.047478 8.730668 15.072126 0.250663 0.952977 0.022581 0.000347 -1419790.000000 1 0 0
8.819687 -6.523122 7.622868 13.358372 -0.636818 0.963507 0.005399 -0.005039 -100036.000000 1 0 0
-8.897513 -1.733722 -9.706532 13.281126 0.192443 2.390365 0.008410 -0.006605 226207.000000 1 0 0
-8.889913 4.940478 -3.826432 10.866483 -0.507239 1.930644 0.000177 -0.002683 -1321780.000000 1 0 0
-3.982213 -6.225622 4.131868 8.466919 1.001732 1.060998 0.008273 -0.000604 -1704780.000000 1 0 0
-0.141113 -9.142222 3.559568 9.811761 1.555362 1.199541 0.006414 -0.000260 531141.000000 1 0 0
8.003187 -10.448122 3.307968 13.570442 -0.917138 1.324553 0.007946 -0.001837 -341357.000000 1 0 0
-0.055713 6.594778 9.700068 11.729685 -1.562348 0.597104 0.000773 0.000070 340540.000000 1 0 0
-0.096213 3.410778 -9.592732 10.181512 -1.542595 2.799849 0.007519 -0.005680 10897.900000 1 0 0
4.527787 -3.099522 10.990068 12.283708 -0.600285 0.463067 0.001255 -0.002113 -1925240.000000 1 0 0
8.590887 -9.139822 1.146668 12.595814 -0.816348 1.479635 0.004464 -0.001880 -795796.000000 1 0 0
-0.301213 -0.411022 11.365768 11.377185 0.938369 0.044804 0.005337 0.000512 -1806370.000000 1 0 0
10.836987 6.160678 11.437568 16.917807 0.516925 0.828385 0.027476 0.002914 20600.800000 1 0 0
-6.334413 -2.981622 -11.877132 13.786991 0.439936 2.608961 0.012494 -0.004930 987689.000000 1 0 0
-1.575413 2.910178 8.623768 9.236906 -1.074622 0.366406 0.006113 -0.002234 403620.000000 1 0 0
-1.796113 13.466078 -6.935632 15.253336 -1.438198 2.042827 0.011513 0.000267 482904.000000 1 0 0
7.753687 3.148578 9.794168 12.882505 0.385732 0.707069 -0.001541 0.003941 282435.000000 1 0 0
6.555287 8.546378 -7.987132 13.409200 0.916488 2.208866 0.008888 -0.004477 -668543.000000 1 0 0
6.633587 -2.965022 -4.010432 8.299362 -0.420332 2.075127 -0.002260 -0.001148 -2084420.000000 1 0 0
2.021687 8.181678 1.071368 8.495581 1.328550 1.444351 0.001897 0.000992 789638.000000 1 0 0
-17.788513 6.254478 6.290968 19.877776 -0.338101 1.248777 0.039067 -0.010015 -144232.000000 1 0 0
-14.694513 2.971278 -10.249932 18.160901 -0.199513 2.170497 0.036719 -0.004256 -736201.000000 1 0 0
-18.344613 -0.142022 -4.383932 18.861704 0.007742 1.805367 0.048365 -0.020076 291971.000000 1 0 0
-13.106913 7.830278 0.095568 15.268057 -0.538517 1.564537 0.001251 0.003335 -1195810.000000 1 0 0
-12.613813 -4.324922 -12.778232 18.468797 0.330311 2.334889 0.033552 -0.000714 -684984.000000 1 0 0
-17.378413 -0.821122 -8.553332 19.386670 0.047214 2.027728 0.061762 -0.021981 -93269.600000 1 0 0
-16.764913 -2.195422 -2.012032 17.027344 0.130212 1.689238 0.038137 -0.014959 -1359190.000000 1 0 0
-15.375413 3.889978 1.634068 15.943821 -0.247800 1.468127 0.015792 -0.004383 -1928090.000000 1 0 0
-13.283813 5.799378 4.404568 15.149016 -0.411634 1.275786 -0.000529 -0.002619 123994.000000 1 0 0
-10.017213 14.225778 2.803368 17.623172 -0.957284 1.411045 0.009777 -0.002209 -200875.000000 1 0 0
-11.846513 2.281578 -6.410732 13.661733 -0.190265 2.059235 0.005684 -0.000087 243583.000000 1 0 0
-15.846413 10.419078 3.708068 19.323968 -0.581632 1.377709 0.008607 -0.013964 1346420.000000 1 0 0
-12.854013 1.025278 -8.580032 15.488505 -0.079595 2.157911 0.009378 -0.003237 838676.000000 1 0 0
-12.223913 14.301978 4.048668 19.244800 -0.863579 1.358836 0.029672 -0.012780 -1795870.000000 1 0 0
-10.529613 11.083278 -1.022632 15.321801 -0.811010 1.637590 -0.001351 0.003027 17820.900000 1 0 0
-17.223313 5.608778 8.794568 20.135673 -0.314820 1.118796 0.047870 -0.017276 -131727.000000 1 0 0
-11.863013 12.304578 -9.146332 19.385281 -0.803667 2.062148 0.011445 -0.017938 -1525050.000000 1 0 0
-17.192813 -0.595322 3.110068 17.481983 0.034612 1.391943 0.043987 -0.012098 623975.000000 1 0 0
-12.873813 14.809378 -1.142532 19.655994 -0.855203 1.628956 0.022397 -0.011798 -373509.000000 1 0 0
-16.605213 4.727378 -10.229932 20.068202 -0.277355 2.105700 0.075662 -0.013124 548737.000000 1 0 0
-11.829013 7.453378 -8.961532 16.606850 -0.562253 2.140792 -0.002707 0.000319 -405605.000000 1 0 0
-14.913913 13.312278 -2.008932 20.091723 -0.728716 1.670952 0.046124 -0.018208 742495.000000 1 0 0
-11.992013 10.506278 -5.464932 16.853953 -0.719456 1.901018 0.012181 -0.004838 746505.000000 1 0 0
-17.612513 2.667778 -0.745132 17.828990 -0.150328 1.612602 0.036567 -0.008258 -352887.000000 1 0 0
-9.358613 15.317078 0.456668 17.955641 -1.022334 1.545360 0.013966 -0.007077 -15771.700000 1 0 0
-8.232713 13.222278 -3.767232 16.024925 -1.013896 1.808103 0.002641 0.001571 -102233.000000 1 0 0
-17.825313 11.368278 2.266368 21.263018 -0.567723 1.464006 0.085315 -0.013723 -385594.000000 1 0 0
-8.075513 15.579178 -7.420732 19.052348 -1.092574 1.970876 0.048322 -0.024929 -318302.000000 1 0 0
-6.321813 15.339178 -5.553332 17.495577 -1.179873 1.893797 0.017395 -0.001077 -473178.000000 1 0 0
-17.310113 5.104678 -0.077132 18.047263 -0.286767 1.575070 0.034454 -0.004398 331301.000000 1 0 0
-5.581113 12.174178 -12.189332 18.109093 -1.140947 2.309196 -0.001247 -0.010189 -47341.900000 1 0 0
-11.127913 3.589078 -11.392532 16.324881 -0.311996 2.343206 0.003350 -0.008377 45152.500000 1 0 0
-11.878013 10.966178 1.196968 16.210397 -0.745504 1.496890 0.002775 -0.001551 202633.000000 1 0 0
-12.932713 0.080878 -11.025932 16.995081 -0.006254 2.276766 0.018707 -0.010654 1401180.000000 1 0 0
-14.042913 -2.118222 -13.072032 19.302028 0.149711 2.314796 0.062903 -0.014968 -73038.800000 1 0 0
-18.812813 -2.587622 -3.672932 19.341876 0.136688 1.761852 0.045472 -0.016428 292013.000000 1 0 0
-18.270613 4.727678 -5.085532 19.545559 -0.253205 1.834014 0.057874 -0.003760 -788520.000000 1 0 0
-8.302513 15.490878 -2.431632 17.742938 -1.078795 1.708277 0.016406 -0.003074 112229.000000 1 0 0
-16.219513 8.857478 -5.334632 19.235015 -0.499844 1.851820 0.041593 -0.006667 287302.000000 1 0 0
-18.239813 1.719578 2.187768 18.450855 -0.093998 1.451944 0.068998 -0.017086 935596.000000 1 0 0
-15.688213 -2.853122 -8.643532 18.137557 0.179898 2.067528 0.021218 -0.010980 -803243.000000 1 0 0
-9.801513 10.496478 -7.114332 16.026835 -0.819623 2.030744 0.000042 -0.004325 527854.000000 1 0 0
-14.039513 11.769178 -7.701132 19.872818 -0.697656 1.968737 0.037392 -0.025619 -392969.000000 1 0 0
-11.073013 6.341478 -3.712732 13.289482 -0.520102 1.853938 0.000679 0.000039 -671495.000000 1 0 0
-13.114713 4.668378 -12.724632 18.860162 -0.341979 2.311332 0.037189 -0.012065 730053.000000 1 0 0
-17.811513 8.850178 2.725468 20.074955 -0.461148 1.434611 0.034375 -0.015403 756087.000000 1 0 0
-13.312313 8.424078 -6.549132 17.060888 -0.564191 1.964778 0.003493 -0.000597 -518656.000000 1 0 0
-15.892313 6.815178 -3.714232 17.686373 -0.405114 1.782377 0.020676 0.004723 -842860.000000 1 0 0
-14.967213 -0.412322 -9.307232 17.629862 0.027541 2.126951 0.036320 -0.012879 102514.000000 1 0 0
-10.047613 5.817778 -6.041032 13.087977 -0.524851 2.050562 -0.000602 0.000005 396129.000000 1 0 0
-12.721813 12.260178 -0.896632 17.690688 -0.766922 1.621502 0.016859 -0.002821 -499093.000000 1 0 0
-10.637713 3.345578 -13.935832 17.848284 -0.304707 2.466732 0.019845 -0.009848 463845.000000 1 0 0
-10.952313 6.054578 -11.950632 17.304008 -0.505000 2.333153 -0.006968 -0.008037 -762459.000000 1 0 0
-5.738513 11.398378 -14.708032 19.472539 -1.104393 2.426941 0.001746 -0.017190 -296348.000000 1 0 0
-15.775813 13.072278 3.468268 20.779548 -0.691955 1.403104 0.031225 -0.020468 238051.000000 1 0 0
-15.157513 10.970078 -3.233432 18.988099 -0.626481 1.741918 0.034743 -0.005386 325438.000000 1 0 0
-18.290313 7.652578 -4.376432 20.303957 -0.396263 1.788047 0.056645 -0.006994 1124120.000000 1 0 0
-4.094213 16.209278 -10.751532 19.877090 -1.323387 2.142304 0.024264 -0.010365 -222847.000000 1 0 0
-15.846813 4.284078 -4.315032 16.973341 -0.264032 1.827842 0.019627 0.002566 816472.000000 1 0 0
-18.576813 -2.097622 -6.198832 19.695774 0.112440 1.890968 0.034269 -0.020271 -5492.530000 1 0 0
-10.828413 8.559578 -5.685732 14.928110 -0.668905 1.961538 -0.004422 0.004576 114253.000000 1 0 0
-11.417113 13.488178 -6.765932 18.922454 -0.868365 1.936451 0.014758 -0.013099 300788.000000 1 0 0
-9.589913 10.476478 -4.452032 14.884341 -0.829551 1.874555 -0.013967 0.003005 -1351430.000000 1 0 0
-11.131313 6.220578 -0.203032 12.753154 -0.509602 1.586717 -0.001377 0.004443 -596805.000000 1 0 0
-14.668913 9.363878 -1.347732 17.454959 -0.568141 1.648085 0.018300 0.000562 -107887.000000 1 0 0
-18.791713 3.446178 4.675368 19.668850 -0.181373 1.330795 0.062160 -0.014868 528931.000000 1 0 0
-14.486813 13.564478 0.507368 19.852462 -0.752530 1.545237 0.013236 0.006280 385038.000000 1 0 0
-16.960713 2.425778 -9.237132 19.464706 -0.142060 2.065258 0.060384 -0.006892 -173150.000000 1 0 0
-9.253613 8.470178 -8.836732 15.344742 -0.741224 2.184477 -0.000268 0.000661 -2037710.000000 1 0 0
-17.774313 4.525878 -2.563232 18.519717 -0.249332 1.709648 0.042071 0.000401 1018930.000000 1 0 0
-13.585613 5.732978 -4.327232 15.367526 -0.399317 1.856240 0.004315 0.005806 -1283880.000000 1 0 0
-12.177513 9.638378 3.386368 15.895208 -0.669530 1.356108 -0.002523 0.001760 -183453.000000 1 0 0
-17.599013 2.351178 -4.028532 18.206657 -0.132811 1.793910 0.036589 -0.004942 934443.000000 1 0 0
-11.368913 1.394078 -12.641932 17.059135 -0.122013 2.405452 0.021626 -0.007198 331100.000000 1 0 0
-11.140313 12.006678 3.466568 16.741684 -0.822810 1.362225 0.004001 -0.006106 301056.000000 1 0 0
-16.113013 13.227278 -4.243432 21.274322 -0.687359 1.771606 0.056035 -0.019239 -247217.000000 1 0 0
-11.078813 3.942178 -4.599132 12.626673 -0.341859 1.943612 0.001495 0.000173 -252799.000000 1 0 0
-11.441913 14.959578 -8.914732 20.836958 -0.917855 2.012890 0.036510 -0.024952 264735.000000 1 0 0
-15.466313 7.028078 -0.411132 16.993226 -0.426517 1.594993 0.017608 0.003198 -1430560.000000 1 0 0
-12.822913 8.249278 -4.022832 15.768984 -0.571667 1.828758 0.001129 0.004525 598790.000000 1 0 0
-19.311313 1.656978 -5.938632 20.271649 -0.085594 1.868110 0.081931 -0.024902 227296.000000 1 0 0
-12.670013 9.916178 -8.896232 18.384852 -0.664071 2.075890 0.007545 -0.007451 460923.000000 1 0 0
-16.778213 10.934078 -1.103732 20.056937 -0.577558 1.625854 0.036101 -0.007984 553645.000000 1 0 0
-10.738713 6.210778 -14.530932 19.106065 -0.524351 2.434941 0.029682 -0.022246 -24638.400000 1 0 0
-13.585813 12.875578 -4.245132 19.193123 -0.758564 1.793820 0.026488 -0.014799 -121576.000000 1 0 0
-18.060013 7.624578 -0.285332 19.605603 -0.399480 1.585350 0.061165 -0.006023 915706.000000 1 0 0
-12.889613 6.617978 -2.015632 14.628825 -0.474338 1.709021 -0.001014 0.005990 244968.000000 1 0 0
-13.766213 8.163078 -10.553132 19.170630 -0.535241 2.153741 0.010907 -0.006710 -746420.000000 1 0 0
-14.977113 1.247678 -1.034832 15.064577 -0.083114 1.639544 0.012876 -0.007058 -733598.000000 1 0 0
-13.321413 2.625078 -2.492032 13.804394 -0.194564 1.752316 0.011344 -0.003789 115228.000000 1 0 0
-11.359913 9.116578 -10.908732 18.197804 -0.676277 2.213614 0.001685 -0.005239 24090.200000 1 0 0
-15.410613 4.088678 -7.945732 17.814010 -0.259341 2.033130 0.020155 0.000962 662116.000000 1 0 0
-18.313613 10.524978 4.655468 21.629539 -0.521615 1.353862 0.073676 -0.038469 273559.000000 1 0 0
-15.371013 5.979178 -6.118632 17.591369 -0.370980 1.926041 0.015330 0.005522 754552.000000 1 0 0
-7.804613 11.026178 -12.997332 18.746179 -0.954837 2.336899 -0.010135 -0.009705 87789.900000 1 0 0
-16.819813 9.122678 -2.830732 19.342761 -0.496972 1.717670 0.035801 -0.007969 174937.000000 1 0 0
-20.598113 -1.217122 -4.923932 21.213410 0.059020 1.805047 0.074376 -0.034024 -495454.000000 1 0 0
-15.457413 4.184578 4.127468 16.537179 -0.264380 1.318542 0.012066 0.000627 -28971.100000 1 0 0
-7.071113 12.541278 -9.545132 17.274080 -1.057399 2.156241 0.007363 -0.008449 -889175.000000 1 0 0
-17.335513 1.490378 5.695568 18.307942 -0.085762 1.254448 0.045682 -0.015188 -168629.000000 1 0 0
-10.404713 14.311778 -3.109832 17.965414 -0.942176 1.744774 0.026249 -0.009305 -504651.000000 1 0 0
-10.059113 8.277878 -13.052532 18.441194 -0.688563 2.357164 -0.007466 -0.007167 -194816.000000 1 0 0
-13.715413 11.746178 2.794268 18.272744 -0.708210 1.417274 0.013865 -0.005321 -1100470.000000 1 0 0
-16.731813 6.697378 1.787468 18.110866 -0.380746 1.471940 0.012686 -0.003250 601498.000000 1 0 0
-9.514013 13.267778 -8.623932 18.464089 -0.948701 2.056765 0.026424 -0.016922 -242062.000000 1 0 0
-5.598113 9.668378 -12.824932 17.008683 -1.045952 2.424961 0.001534 -0.008618 -1177510.000000 1 0 0
-15.826913 1.661278 3.173468 16.227197 -0.104582 1.373963 0.011783 -0.005053 -733423.000000 1 0 0
-18.703413 -5.002522 4.688168 19.920387 0.261348 1.333223 0.072527 -0.011637 214275.000000 1 0 0
-5.375813 14.446878 -9.223632 17.963492 -1.214563 2.110015 0.012267 -0.005546 -1197680.000000 1 0 0
-15.545813 -0.958422 -6.762732 16.980148 0.061574 1.980430 0.028035 -0.006270 853198.000000 1 0 0
-9.127113 10.903278 -9.597132 17.154901 -0.873840 2.164506 -0.003424 -0.005767 507896.000000 1 0 0
-16.751113 1.183578 -6.109532 17.869724 -0.070539 1.919727 0.023652 -0.006609 151312.000000 1 0 0
-11.164313 8.521078 -1.505632 14.125069 -0.651923 1.677592 -0.002888 0.001936 -895144.000000 1 0 0
-10.795413 10.751078 -12.812032 19.906652 -0.783341 2.269996 0.016110 -0.012118 -301481.000000 1 0 0
-14.022013 11.537878 -10.372632 20.912460 -0.688514 2.089785 0.046921 -0.025284 365267.000000 1 0 0
-13.186713 5.600478 -7.673132 16.252130 -0.401622 2.062503 0.004120 0.008222 -614926.000000 1 0 0
-8.924913 15.352878 -4.959232 18.437975 -1.044226 1.843118 0.024210 -0.012338 361994.000000 1 0 0
-8.608613 6.064778 -13.094132 16.803156 -0.613741 2.464290 -0.003025 -0.009090 36191.900000 1 0 0
-16.470413 7.296478 4.296368 18.519500 -0.417022 1.336672 0.017133 -0.002792 213144.000000 1 0 0
-12.620213 5.153978 -10.150532 16.996075 -0.387719 2.210837 0.004823 -0.000513 208091.000000 1 0 0
-12.497913 8.962478 -13.261832 20.307635 -0.622122 2.282397 0.047264 -0.023579 -2185560.000000 1 0 0
-10.822613 4.966178 -8.406832 14.576238 -0.430206 2.185540 -0.000892 -0.000716 -718650.000000 1 0 0
-17.716913 -4.497022 -2.545232 18.455092 0.248577 1.709152 0.032188 -0.014721 409709.000000 1 0 0
-9.118713 13.005078 -11.058432 19.353860 -0.959289 2.178984 0.029169 -0.018294 276634.000000 1 0 0
-15.178013 5.955278 6.047068 17.389780 -0.373905 1.215640 0.016364 -0.008808 -482447.000000 1 0 0
-16.350813 -3.232522 -4.434632 17.247152 0.195181 1.830840 0.021870 -0.010530 -988863.000000 1 0 0
-11.168713 -1.285022 -12.615132 16.897722 0.114552 2.413670 0.015147 -0.003846 163492.000000 1 0 0
-15.443713 6.679278 -8.465632 18.835816 -0.408199 2.036938 0.013496 0.004429 365687.000000 1 0 0
-15.096613 9.113678 1.177868 17.673546 -0.543128 1.504101 0.018193 -0.005548 -546579.000000 1 0 0
-19.588413 5.253778 7.867068 21.753134 -0.262041 1.200757 0.094669 -0.029973 -747070.000000 1 0 0
-16.322313 0.601678 0.945168 16.360723 -0.036846 1.512994 0.032464 -0.013830 -50592.300000 1 0 0
-17.619613 3.722178 6.985968 19.316033 -0.208191 1.200741 0.036818 -0.014041 804407.000000 1 0 0
-15.423313 3.845478 -1.494832 15.965613 -0.244347 1.664562 0.013044 -0.004899 -164491.000000 1 0 0
-10.767213 13.297578 0.390868 17.114650 -0.890161 1.547956 0.010554 -0.004647 -933498.000000 1 0 0
-13.470313 3.297178 -0.023732 13.867995 -0.240054 1.572508 0.014439 -0.003332 -494930.000000 1 0 0
-15.081713 0.109478 -4.278532 15.677241 -0.007259 1.847217 0.020225 -0.007333 35179.800000 1 0 0
-18.888413 6.618478 3.316468 20.287320 -0.337030 1.406584 0.040381 -0.007358 163293.000000 1 0 0
-14.152813 1.241278 -6.405332 15.584324 -0.087482 1.994359 0.013013 -0.001919 476876.000000 1 0 0
-14.321013 11.997878 5.283168 19.415261 -0.697358 1.295207 0.012730 -0.011989 152319.000000 1 0 0
17.739287 5.726078 5.984668 19.577705 0.312232 1.260135 0.094694 -0.018204 -220601.000000 1 0 0
18.468487 7.433178 -0.288932 19.910315 0.382642 1.585309 0.044826 -0.007719 -3991.330000 1 0 0
16.717787 5.239478 8.275368 19.375713 0.303711 1.129513 0.116951 -0.017810 507331.000000 1 0 0
11.488887 12.637078 10.851968 20.235006 0.832954 1.004753 0.034088 -0.016845 404028.000000 1 0 0
-2.309613 16.175178 -0.470732 16.346017 -1.428968 1.599598 -0.002496 -0.007712 -925430.000000 1 0 0
15.146087 12.695578 3.216868 20.023234 0.697608 1.409440 0.079793 -0.012761 342762.000000 1 0 0
13.737487 11.828678 6.808368 19.364660 0.710875 1.211530 0.066718 -0.008151 863798.000000 1 0 0
-0.760313 15.981178 8.558268 18.144422 -1.523257 1.079607 0.007093 -0.003816 -223081.000000 1 0 0
0.661987 12.822178 9.422268 15.925627 1.519214 0.937702 0.003865 -0.004913 -1833250.000000 1 0 0
0.825487 15.455278 -3.981832 15.981303 1.517436 1.822605 0.004165 -0.009573 -7907.860000 1 0 0
5.520187 10.491778 13.435568 17.918268 1.086453 0.722999 0.021674 -0.013433 -127758.000000 1 0 0
-1.269113 16.365978 -2.790532 16.650614 -1.493405 1.739184 0.006886 -0.008372 256470.000000 1 0 0
8.514287 10.040778 3.225268 13.554064 0.867481 1.330536 0.014514 -0.004310 98944.900000 1 0 0
12.643487 13.516878 -4.955432 19.160377 0.818772 1.832399 0.116234 -0.029053 1058550.000000 1 0 0
2.391187 11.636878 7.791968 14.207373 1.368134 0.990292 0.010068 0.000179 266278.000000 1 0 0
-0.326213 14.934178 -8.747132 17.310356 -1.548956 2.100540 0.019194 -0.001087 -1019450.000000 1 0 0
2.353487 16.002878 0.189268 16.176119 1.424777 1.559096 0.012010 -0.014960 -337443.000000 1 0 0
1.817187 13.480678 5.267868 14.587024 1.436805 1.201313 0.009498 -0.002015 -189710.000000 1 0 0
17.405387 9.344878 -1.756732 19.833314 0.492727 1.659487 0.020513 -0.000495 288825.000000 1 0 0
-7.252913 14.900578 7.243968 18.086101 -1.117802 1.158705 0.006670 -0.010705 -543203.000000 1 0 0
8.552087 15.966578 -0.034832 18.112731 1.079057 1.572719 0.050896 -0.020097 -522165.000000 1 0 0
15.708887 10.523578 1.975268 19.010958 0.590246 1.466707 0.058108 -0.006506 663721.000000 1 0 0
14.118387 7.369478 8.575168 18.087884 0.481074 1.076873 0.073193 -0.015930 -901371.000000 1 0 0
3.965087 18.305478 -1.683632 18.805506 1.357485 1.660445 0.015036 -0.030756 -831066.000000 1 0 0
-0.408813 17.615878 -4.786832 18.259246 -1.547593 1.836055 0.014481 -0.002973 183117.000000 1 0 0
1.255687 13.740678 -0.769132 13.819354 1.479665 1.626481 0.005748 -0.008897 503675.000000 1 0 0
10.451387 14.727178 4.169168 18.533840 0.953612 1.343906 0.046551 -0.019013 510709.000000 1 0 0
-1.610613 15.320378 -5.155932 16.244744 -1.466052 1.893773 0.008082 -0.004286 469937.000000 1 0 0
15.029387 8.786978 -6.212832 18.484933 0.529059 1.913572 0.051417 -0.012025 66613.400000 1 0 0
-2.517913 18.491178 0.805268 18.679186 -1.435460 1.527673 0.009476 -0.016961 -633235.000000 1 0 0
-3.940013 19.422578 3.483768 20.122049 -1.370655 1.396788 0.017163 -0.015966 116643.000000 1 0 0
1.726187 17.641578 -2.763432 17.939943 1.473259 1.725450 0.000365 -0.015010 -1117490.000000 1 0 0
2.843887 12.207978 3.252668 12.949991 1.341925 1.316906 0.009831 -0.002241 167825.000000 1 0 0
-2.665813 16.228578 1.936368 16.559674 -1.407984 1.453595 -0.002789 -0.005283 -2252130.000000 1 0 0
11.783287 12.721278 -2.641932 17.540142 0.823658 1.721994 0.064185 -0.007274 207462.000000 1 0 0
7.227387 11.705778 4.737468 14.550050 1.017666 1.239152 0.011145 -0.005778 136962.000000 1 0 0
7.059487 15.669978 2.017968 17.304819 1.147518 1.453917 0.027956 -0.021426 -223658.000000 1 0 0
5.450587 12.268878 10.177368 16.846753 1.152725 0.922142 0.016254 -0.003202 -733501.000000 1 0 0
-1.395613 14.274478 3.161768 14.686907 -1.473336 1.353820 -0.002446 0.000772 -207580.000000 1 0 0
4.563287 15.973878 1.483868 16.679036 1.292536 1.481713 0.023402 -0.026401 -2191100.000000 1 0 0
7.182687 13.257678 11.886368 19.200072 1.074289 0.903226 0.028863 -0.013493 235898.000000 1 0 0
0.717087 17.193878 -9.490032 19.652083 1.529115 2.074762 0.028351 -0.003821 275803.000000 1 0 0
9.725087 9.809078 15.469068 20.738548 0.789698 0.728898 0.053629 -0.013428 -20832.600000 1 0 0
13.472687 7.489078 -0.171832 15.415223 0.507340 1.581943 0.014254 -0.001593 -420725.000000 1 0 0
12.370287 13.651278 -0.138432 18.422827 0.834587 1.578311 0.074227 -0.012712 485898.000000 1 0 0
9.395787 12.382178 3.477968 15.927818 0.921677 1.350665 0.023585 -0.006776 -521940.000000 1 0 0
-0.783913 12.970878 0.777868 13.017806 -1.510433 1.511007 0.001058 -0.003134 -643787.000000 1 0 0
15.927087 7.398178 -0.820632 17.580631 0.434849 1.617492 0.026591 -0.001239 -3403910.000000 1 0 0
-4.214113 18.456578 -2.381032 19.080706 -1.346319 1.695910 0.025755 -0.010156 158378.000000 1 0 0
11.490187 9.111578 -3.266932 15.023918 0.670451 1.789996 0.031636 -0.005303 -74878.700000 1 0 0
14.685687 9.746278 7.910668 19.319368 0.585917 1.148925 0.067679 -0.016393 1239970.000000 1 0 0
4.332687 13.793778 4.628668 15.181075 1.266450 1.260966 0.023535 -0.006515 -472199.000000 1 0 0
2.051187 16.010178 5.612868 17.089103 1.443373 1.236137 0.023224 -0.011802 265004.000000 1 0 0
6.030387 18.470678 5.339368 20.150443 1.255222 1.302618 0.051972 -0.028240 278067.000000 1 0 0
10.767287 17.100878 -1.002232 20.233116 1.008872 1.620351 0.114325 -0.032520 -390810.000000 1 0 0
10.007187 13.526278 -4.427832 17.398554 0.933834 1.828121 0.086594 -0.017191 997141.000000 1 0 0
16.419187 8.039178 2.251568 18.419762 0.455310 1.448253 0.013876 -0.005003 -876462.000000 1 0 0
3.934387 14.011878 -0.504832 14.562520 1.297056 1.605470 0.008867 -0.010738 854311.000000 1 0 0
5.516287 13.204978 -2.367232 14.505332 1.175088 1.734727 0.007167 -0.005719 56930.000000 1 0 0
-6.113713 16.843578 -3.097032 18.184477 -1.222614 1.741942 0.020634 -0.005820 -2721220.000000 1 0 0
18.236687 9.891878 2.450468 20.890926 0.497002 1.453227 0.079194 -0.016972 234256.000000 1 0 0
7.824287 13.104178 9.382968 17.915888 1.032524 1.019581 0.027676 -0.011526 1022800.000000 1 0 0
-2.661913 15.752978 6.648768 17.304572 -1.403399 1.176433 0.000443 -0.006132 460491.000000 1 0 0
11.412387 16.087678 6.202368 20.676685 0.953798 1.266136 0.053642 -0.017730 198188.000000 1 0 0
13.558187 11.953578 1.256168 18.118786 0.722584 1.501411 0.057105 -0.008576 172572.000000 1 0 0
17.413087 7.927778 -5.620632 19.941333 0.427234 1.856527 0.041574 0.007732 -540675.000000 1 0 0
9.478687 9.294178 8.064468 15.532639 0.775570 1.024888 0.012264 -0.002596 -199525.000000 1 0 0
-2.061513 14.067378 -1.958032 14.351824 -1.425286 1.707654 -0.003481 -0.000665 724586.000000 1 0 0
10.928787 11.636578 0.678668 15.978389 0.816754 1.528309 0.038282 -0.002480 -82220.800000 1 0 0
11.633487 9.800078 -0.725032 15.228435 0.700067 1.618425 0.029329 -0.001970 -1497100.000000 1 0 0
-0.230413 16.293278 11.108968 19.721388 -1.556656 0.972428 0.016750 -0.006619 -50227.600000 1 0 0
1.957587 20.028278 -1.500332 20.179570 1.473365 1.645214 0.016796 -0.029784 -404364.000000 1 0 0
9.292587 14.379378 1.921168 17.228162 0.997066 1.459051 0.040374 -0.016711 -992970.000000 1 0 0
8.365387 11.708478 -5.096132 15.265606 0.950423 1.911161 0.033097 -0.005484 -389480.000000 1 0 0
10.481387 10.216678 10.300668 17.898149 0.772610 0.957562 0.014576 -0.008189 35574.000000 1 0 0
-5.196113 15.801278 5.789368 17.612403 -1.253094 1.235859 -0.012496 -0.002289 -835187.000000 1 0 0
14.329487 9.042178 -2.091232 17.072447 0.562916 1.693596 0.037163 -0.006243 -613841.000000 1 0 0
12.210287 9.753178 6.861168 17.067255 0.673989 1.157088 0.030977 -0.008161 -990780.000000 1 0 0
3.139387 13.078278 9.708268 16.587573 1.335208 0.945579 0.012729 -0.007542 -93801.200000 1 0 0
8.463687 12.609178 -2.609532 15.408927 0.979640 1.740968 0.035596 -0.008837 -442042.000000 1 0 0
9.345387 16.997978 2.200468 19.522028 1.068111 1.457839 0.039184 -0.022975 -556319.000000 1 0 0
9.586087 14.256278 -7.571232 18.773867 0.978827 1.985901 0.100214 -0.018823 -816288.000000 1 0 0
6.301287 11.560678 7.227968 15.019954 1.071752 1.068745 0.012267 -0.001827 -686846.000000 1 0 0
5.453087 16.861678 -5.584832 18.580708 1.258011 1.876088 0.042631 -0.005225 -439867.000000 1 0 0
-4.109613 17.209378 -4.742032 18.317709 -1.336386 1.832656 0.023578 -0.005015 266975.000000 1 0 0
-0.241913 18.393778 -0.451332 18.400905 -1.557645 1.595327 0.006418 -0.026576 -740783.000000 1 0 0
6.417987 15.719978 -2.729232 17.197586 1.183181 1.730169 0.030430 -0.006604 724451.000000 1 0 0
-1.029013 20.656178 0.494868 20.687712 -1.521021 1.546873 0.010899 -0.023028 -348778.000000 1 0 0
-1.488313 18.899678 4.322168 19.444640 -1.492210 1.346643 0.006354 -0.011512 212482.000000 1 0 0
7.269287 13.887578 -4.331832 16.262599 1.088575 1.840419 0.032812 -0.001313 -553506.000000 1 0 0
-0.968713 12.005578 7.671268 14.280079 -1.490282 1.003682 -0.001503 0.004117 378395.000000 1 0 0
7.701687 10.979178 10.827268 17.236242 0.959077 0.891599 0.018153 -0.007932 -45866.900000 1 0 0
1.480687 16.070078 -7.239632 17.687626 1.478916 1.992488 0.010307 -0.002776 -242474.000000 1 0 0
8.991187 7.357078 14.938968 18.924608 0.685773 0.660975 0.043500 0.001895 562433.000000 1 0 0
11.306787 11.284378 -4.891432 16.706488 0.784406 1.867936 0.074518 -0.010919 -297689.000000 1 0 0
-3.443913 17.094978 4.509768 18.012130 -1.372000 1.317730 -0.006449 -0.000952 -618459.000000 1 0 0
3.946987 15.277578 -6.757232 17.165176 1.317973 1.975405 0.024765 -0.008840 450314.000000 1 0 0
-4.447413 14.061778 9.463468 17.523421 -1.264474 1.000304 0.012833 -0.011906 84437.300000 1 0 0
6.214987 17.640378 0.464568 18.708950 1.232060 1.545962 0.030165 -0.032362 -632164.000000 1 0 0
9.722687 10.671078 -2.228132 14.607091 0.831869 1.723932 0.042045 -0.005781 -951601.000000 1 0 0
7.122387 18.227978 -2.534432 19.733498 1.198299 1.699585 0.043666 -0.008586 62838.900000 1 0 0
3.529687 10.451078 10.457768 15.200284 1.245090 0.812069 0.008699 -0.001399 1054090.000000 1 0 0
-0.199313 18.716778 2.036468 18.828295 -1.560148 1.462424 0.010675 -0.018545 44677.000000 1 0 0
-0.881013 17.063478 -7.347132 18.598893 -1.519211 1.976898 0.028191 -0.004435 -161217.000000 1 0 0
10.241587 8.904478 13.143568 18.892676 0.715674 0.801407 0.046796 -0.005817 -470519.000000 1 0 0
3.641187 11.550278 5.553068 13.323052 1.265411 1.140873 0.009703 0.000262 450116.000000 1 0 0
13.100187 13.999678 8.199368 20.852710 0.818578 1.166683 0.060109 -0.024769 -325949.000000 1 0 0
-0.774113 17.513678 6.781468 18.796714 -1.526625 1.201693 0.017373 -0.007148 -485288.000000 1 0 0
12.367687 13.625378 5.649368 19.249051 0.833746 1.272923 0.053821 -0.014076 -236481.000000 1 0 0
4.822887 14.543378 -4.534032 15.978972 1.250588 1.858499 0.013258 -0.006160 6857.510000 1 0 0
3.627387 17.708778 4.550168 18.640353 1.368756 1.324202 0.034393 -0.019985 1348120.000000 1 0 0
7.130387 11.766778 2.041868 13.909303 1.025994 1.423465 0.019623 -0.005080 723723.000000 1 0 0
6.384187 8.798778 11.663568 15.944126 0.943110 0.750237 0.011845 -0.004864 294814.000000 1 0 0
-5.491413 14.826978 1.724368 15.904978 -1.216094 1.462166 -0.003613 0.003850 79215.400000 1 0 0
6.678787 13.881778 5.970968 16.521574 1.122367 1.201023 0.023262 -0.009380 -645008.000000 1 0 0
5.734887 15.956178 4.921868 17.655405 1.225759 1.288279 0.026061 -0.021318 910296.000000 1 0 0
1.080187 18.048278 4.251068 18.573603 1.511018 1.339873 0.030957 -0.018686 -1518820.000000 1 0 0
7.188087 18.020178 -7.076632 20.651250 1.191246 1.920557 0.048575 -0.007217 -5693.010000 1 0 0
-2.368813 18.780578 -6.069632 19.878678 -1.445328 1.881085 0.033637 -0.002210 305346.000000 1 0 0
13.465287 10.091778 -4.674632 17.464539 0.643159 1.841764 0.046395 -0.006975 -2357660.000000 1 0 0
-1.519613 18.062578 9.988468 20.696266 -1.486864 1.067151 0.017665 -0.009727 -172394.000000 1 0 0
3.414287 11.768178 -1.492532 12.344028 1.288420 1.692004 0.009030 -0.006854 558636.000000 1 0 0
4.306387 13.986978 -10.878732 18.235332 1.272121 2.210022 0.027553 -0.020544 219972.000000 1 0 0
11.596887 13.387378 2.316268 17.862664 0.856941 1.440759 0.059098 -0.014238 345136.000000 1 0 0
15.921587 6.555578 -7.284332 18.695829 0.390587 1.971019 0.039150 -0.007532 173650.000000 1 0 0
2.309587 16.062878 2.930068 16.490468 1.427991 1.392165 0.020904 -0.017937 -186585.000000 1 0 0
13.589187 10.629578 3.451868 17.594582 0.663798 1.373326 0.048785 -0.002998 -831284.000000 1 0 0
-4.900513 19.403778 -5.941432 20.876356 -1.323415 1.859387 0.033827 -0.010859 580769.000000 1 0 0
5.448987 12.078878 0.112568 13.251544 1.147014 1.562302 0.010745 -0.007297 7166.570000 1 0 0
4.904787 15.355678 9.645268 18.785233 1.261627 1.031597 0.034966 -0.010835 -275647.000000 1 0 0
7.858887 9.511678 13.832868 18.535974 0.880262 0.728353 0.029802 -0.012353 -1717610.000000 1 0 0
-5.038713 13.546178 7.047268 16.079538 -1.214689 1.117117 -0.006939 0.001567 -991276.000000 1 0 0
-4.583213 16.994478 0.474068 17.608034 -1.307375 1.543870 0.006039 -0.009802 -2129100.000000 1 0 0
-0.808613 16.645778 3.541868 17.037623 -1.522257 1.361384 0.008674 -0.008399 -2141940.000000 1 0 0
7.802487 16.888478 -4.728532 19.195273 1.138008 1.819697 0.055518 -0.011032 434035.000000 1 0 0
3.049787 16.473478 -4.598132 17.372953 1.387736 1.838660 -0.000167 -0.005285 -1051430.000000 1 0 0
9.689487 14.514578 8.192168 19.278764 0.982169 1.131909 0.040027 -0.014334 235413.000000 1 0 0
12.655087 11.018578 9.107668 19.092142 0.716380 1.073515 0.043194 -0.020289 806216.000000 1 0 0
3.730787 12.442278 12.139668 17.779218 1.279479 0.819207 0.023180 -0.008799 505255.000000 1 0 0
-3.515613 19.173378 6.003668 20.396617 -1.389452 1.272025 0.015256 -0.012037 -88052.400000 1 0 0
-2.704913 15.787478 10.311468 19.049603 -1.401111 0.998819 0.010881 -0.012032 -590914.000000 1 0 0
1.899987 14.272578 7.680568 16.318932 1.438453 1.080765 0.018036 -0.008468 35922.400000 1 0 0
4.516687 17.272978 7.824168 19.492917 1.315034 1.157768 0.046944 -0.017661 447989.000000 1 0 0
-1.920513 13.503378 9.369768 16.547572 -1.429519 0.968869 0.002262 -0.006732 -923617.000000 1 0 0
5.727287 17.720778 2.970468 18.858724 1.258197 1.412626 0.026559 -0.030539 203220.000000 1 0 0
7.330987 15.407078 -6.817232 18.373788 1.126680 1.950915 0.039162 -0.004340 -139640.000000 1 0 0
11.001687 7.785778 9.574968 16.532860 0.615868 0.953114 0.012131 0.000908 217738.000000 1 0 0
8.967787 16.317478 -2.623032 18.803233 1.068274 1.710752 0.076928 -0.018251 -998086.000000 1 0 0
14.556087 11.297378 -6.701432 19.606622 0.660014 1.919622 0.098312 -0.015991 517516.000000 1 0 0
11.194487 6.414478 15.935368 20.503610 0.520332 0.680595 0.107648 -0.035405 -943007.000000 1 0 0
8.495587 8.594078 10.335868 15.901677 0.791161 0.863230 0.013659 0.000699 470968.000000 1 0 0
16.597387 9.661178 4.345168 19.689898 0.527146 1.348285 0.075344 -0.015084 -16329.500000 1 0 0
-3.474313 14.388578 4.559268 15.488349 -1.333868 1.272003 -0.008796 0.004685 -1571050.000000 1 0 0
4.181187 15.047878 12.433268 19.962643 1.299774 0.898446 0.019883 -0.008573 -329292.000000 1 0 0
15.969187 10.688178 -4.612432 19.761746 0.589824 1.806371 0.065835 -0.016424 -393418.000000 1 0 0
14.892287 13.986078 6.170068 21.341516 0.754028 1.277498 0.090192 -0.013301 -253637.000000 1 0 0
6.182687 9.646378 9.250168 14.725618 1.000821 0.891599 0.007514 0.000338 533373.000000 1 0 0
10.344087 12.155378 8.624968 18.142310 0.865729 1.075371 0.029553 -0.015724 78279.500000 1 0 0
8.003587 11.434478 -0.334432 13.961251 0.960102 1.594753 0.014342 -0.008563 463903.000000 1 0 0
7.481987 13.533378 -8.728932 17.757441 1.065764 2.084682 0.052118 -0.012032 -243099.000000 1 0 0
2.772287 15.236578 -2.259032 15.650626 1.390816 1.715644 0.004942 -0.013692 342629.000000 1 0 0
12.190587 13.987378 -7.750732 20.107984 0.853928 1.966498 0.125224 -0.022988 380826.000000 1 0 0
-8.154913 14.565978 9.747168 19.330742 -1.060414 1.042305 0.039237 -0.024789 152777.000000 1 0 0
11.526087 9.778578 2.120268 15.263250 0.703557 1.431432 0.035052 -0.002023 -1965620.000000 1 0 0
12.046087 8.826278 4.430368 15.576892 0.632343 1.282396 0.027263 -0.002718 560030.000000 1 0 0
14.078687 8.148178 6.024568 17.346402 0.524655 1.216096 0.037916 -0.009801 -1832360.000000 1 0 0
16.228187 7.521078 7.160768 19.266480 0.433989 1.189989 0.103081 -0.018978 -285698.000000 1 0 0
13.643087 8.309378 2.369768 16.149160 0.547050 1.423522 0.032678 -0.003133 -2608510.000000 1 0 0
-4.149813 17.164678 -7.288332 19.104107 -1.333583 1.962221 0.030408 -0.014138 147986.000000 1 0 0
3.198387 19.632978 -3.716232 20.235955 1.409306 1.755490 0.022594 -0.011436 427623.000000 1 0 0
-0.185013 14.905878 6.255568 16.166371 -1.558385 1.173475 0.005996 -0.005444 -1628230.000000 1 0 0
6.914487 15.965878 8.177268 19.224648 1.162103 1.131444 0.050697 -0.025162 360547.000000 1 0 0
12.746487 15.047078 -2.090732 19.830750 0.867984 1.676421 0.122591 -0.028407 -509332.000000 1 0 0
12.843287 15.687978 4.094668 20.684027 0.884774 1.371517 0.072766 -0.018428 140068.000000 1 0 0
3.005687 18.096278 1.391168 18.396869 1.406205 1.495104 0.026992 -0.028592 -642040.000000 1 0 0
10.344287 14.540878 -1.271532 17.890170 0.952465 1.641931 0.076320 -0.007658 -1087010.000000 1 0 0
-6.485813 15.683378 -0.617032 16.982781 -1.178666 1.607137 0.002638 0.000151 -518561.000000 1 0 0
-3.910813 15.862578 -2.545632 16.534693 -1.329074 1.725368 0.009359 -0.004496 624111.000000 1 0 0
-6.818913 17.047978 1.649668 18.435090 -1.190304 1.481191 0.003973 -0.002079 6529.550000 1 0 0
0.218387 19.283978 -6.680932 20.409663 1.559472 1.904285 0.037919 -0.006938 383841.000000 1 0 0
4.699687 14.901478 7.101568 17.163140 1.265286 1.144207 0.032018 -0.013051 -475102.000000 1 0 0
8.639687 12.635678 6.855268 16.771978 0.971058 1.149731 0.021369 -0.008039 -729411.000000 1 0 0
-7.758613 17.510978 -5.569132 19.946069 -1.153719 1.853767 0.051388 -0.016902 318990.000000 1 0 0
-7.805713 17.780678 -1.446832 19.472416 -1.157128 1.645167 0.039131 -0.007795 554461.000000 1 0 0
-13.684113 -8.992322 9.189168 18.776517 0.581375 1.059398 0.045213 -0.024531 -548438.000000 1 0 0
-12.540513 -12.895622 7.757268 19.589199 0.799358 1.163643 0.052246 -0.014085 157022.000000 1 0 0
-3.835013 -14.971922 12.542968 19.904568 1.320041 0.889043 0.020409 -0.022022 -72125.900000 1 0 0
-2.072213 -14.143922 14.876868 20.631669 1.425322 0.765452 0.037027 -0.015997 -1156190.000000 1 0 0
-6.949313 -13.703722 12.849868 20.030079 1.101476 0.874307 0.035096 -0.016141 35541.500000 1 0 0
-9.775113 -11.532622 8.933168 17.560059 0.867694 1.037098 0.028419 -0.013385 484946.000000 1 0 0
-10.563513 -10.577622 11.213068 18.687075 0.786066 0.927240 0.064398 -0.027330 347309.000000 1 0 0
-5.996013 -12.323322 10.770068 17.430169 1.117960 0.904730 0.022806 -0.008801 656224.000000 1 0 0
-12.448213 -10.311722 7.296868 17.735103 0.691802 1.146767 0.022281 -0.011001 -658957.000000 1 0 0
-7.681613 -11.223722 12.504368 18.475344 0.970611 0.827371 0.037351 -0.020075 -576167.000000 1 0 0
-14.718713 -11.504022 7.401168 20.093788 0.663415 1.193583 0.047687 -0.005457 -1334270.000000 1 0 0
-11.068113 -9.195422 9.101368 17.026268 0.693243 1.006823 0.024171 -0.014047 -496956.000000 1 0 0
-5.273313 -11.852722 13.223768 18.524656 1.152189 0.775820 0.030258 -0.022683 -799503.000000 1 0 0
3.680287 -12.491322 14.482668 19.476275 -1.284276 0.732349 -0.000915 -0.002385 511422.000000 1 0 0
6.269287 -12.887122 14.188968 20.167019 -1.118026 0.790383 0.020033 -0.000269 149380.000000 1 0 0
6.701187 -8.231922 15.958268 19.166031 -0.887548 0.586952 0.029946 -0.011728 -422552.000000 1 0 0
0.677787 -1.722522 14.446168 14.564279 -1.195919 0.127442 0.003321 0.000335 -3273590.000000 1 0 0
-0.076913 -6.458622 15.356568 16.659648 1.558888 0.398144 0.006249 -0.010539 -97907.000000 1 0 0
-1.587713 -4.815322 18.407468 19.093010 1.252300 0.268784 0.019410 -0.014914 -943420.000000 1 0 0
-5.198913 12.867078 12.897168 18.945377 -1.186805 0.822003 0.019520 -0.006742 -29157.200000 1 0 0
-4.175613 8.757878 11.653868 15.164063 -1.125894 0.694273 -0.002104 0.001709 -347293.000000 1 0 0
-0.592013 -3.916122 15.020168 15.533574 1.420759 0.257818 0.006219 -0.001243 -480690.000000 1 0 0
-4.689913 9.250778 14.114268 17.515271 -1.101584 0.633727 0.007724 -0.004039 570919.000000 1 0 0
-13.615713 -2.633222 16.761968 21.755116 0.191037 0.691196 0.054398 -0.010396 681495.000000 1 0 0
-0.241613 0.782378 17.453068 17.472265 -1.271269 0.046882 0.005456 -0.001010 388552.000000 1 0 0
-3.255713 -7.268322 15.377268 17.317290 1.149664 0.477880 0.017622 -0.013854 423403.000000 1 0 0
-7.384913 5.253578 12.575368 15.500867 -0.618332 0.624478 -0.015328 -0.004352 -877422.000000 1 0 0
-9.912113 10.204578 13.243768 19.436583 -0.799936 0.821145 0.014884 -0.014223 -606815.000000 1 0 0
-5.551813 2.206278 11.168868 12.666250 -0.378261 0.491170 0.005339 -0.003117 -1980030.000000 1 0 0
-7.046213 -7.491922 16.921768 19.802127 0.816046 0.546126 0.035718 -0.018584 -85964.100000 1 0 0
-4.889313 2.848578 18.740668 19.576322 -0.527537 0.293238 0.015744 -0.005010 -299398.000000 1 0 0
1.003387 -8.427422 16.517768 18.570538 -1.452292 0.474632 0.009334 -0.009024 513813.000000 1 0 0
-15.409813 -3.542922 13.780668 20.974304 0.225986 0.853929 0.073728 -0.026550 -299347.000000 1 0 0
-14.378613 2.137378 13.033568 19.524005 -0.147569 0.839861 0.028851 -0.014451 1020370.000000 1 0 0
-5.485713 0.877578 16.133868 17.063554 -0.158631 0.331620 0.015080 -0.004738 464450.000000 1 0 0
4.492087 5.923478 15.157068 16.882036 0.921971 0.455997 0.005532 0.000214 -618469.000000 1 0 0
-0.970913 -12.049922 13.788368 18.337458 1.490396 0.719821 -0.004761 -0.010302 -72044.200000 1 0 0
-5.848813 -4.074122 16.817068 18.265291 0.608422 0.400896 0.027995 -0.013877 -49673.200000 1 0 0
-13.093713 -1.638322 9.773268 16.420907 0.124476 0.933316 0.020577 -0.007645 -605492.000000 1 0 0
-14.663813 10.167378 10.045268 20.477070 -0.606259 1.058062 0.023564 -0.022153 146104.000000 1 0 0
-3.601313 -3.327122 17.797168 18.460183 0.745844 0.268824 0.021544 -0.009021 -1545500.000000 1 0 0
-7.997313 9.325678 11.830268 17.055220 -0.861931 0.804259 -0.000401 -0.006854 64206.300000 1 0 0
-4.713813 10.730578 16.253768 20.038720 -1.156886 0.624735 0.021533 -0.003862 -17432.200000 1 0 0
-12.629013 12.512478 8.272568 19.608402 -0.780763 1.135269 0.024816 -0.020532 -134937.000000 1 0 0
-12.514913 2.966878 10.574068 16.650415 -0.232770 0.882706 0.006699 -0.007237 437039.000000 1 0 0
-10.149313 -3.546422 13.680668 17.399607 0.336162 0.666059 0.031768 -0.012898 -1148050.000000 1 0 0
-4.135813 -6.612522 17.835568 19.466326 1.011872 0.412237 0.040049 -0.015299 -646518.000000 1 0 0
0.681287 -3.636122 17.745268 18.126777 -1.385577 0.205529 0.017688 -0.016563 -813330.000000 1 0 0
-5.936013 1.799378 13.674168 15.015221 -0.294325 0.425852 0.004039 -0.001681 -723947.000000 1 0 0
-10.628913 8.597178 10.229868 17.074409 -0.680113 0.928377 0.005411 -0.011705 -223686.000000 1 0 0
4.447287 2.504378 17.388968 18.122540 0.512864 0.285498 0.009471 -0.006640 -1070090.000000 1 0 0
0.497687 -5.378222 13.072668 14.144525 -1.478522 0.391806 0.000561 -0.000676 -298035.000000 1 0 0
-3.989713 5.760878 20.783668 21.933225 -0.965086 0.325195 0.039942 -0.010061 -393986.000000 1 0 0
-10.851713 10.746378 8.920268 17.686591 -0.780521 1.042165 0.009011 -0.015232 286436.000000 1 0 0
0.713587 4.290678 13.118868 13.821136 1.405994 0.320148 0.008937 -0.003808 -1533490.000000 1 0 0
-3.222413 7.162178 13.448268 15.573588 -1.148008 0.528567 -0.000033 0.002135 175786.000000 1 0 0
0.716687 8.989078 14.073068 16.714317 1.491236 0.569859 0.007634 -0.004838 254629.000000 1 0 0
-4.194013 -6.615322 13.032168 15.204921 1.005762 0.541179 0.012774 -0.008158 22789.300000 1 0 0
-5.201613 8.184878 16.346668 19.006908 -1.004671 0.535452 0.011013 -0.003719 -311638.000000 1 0 0
1.533087 -10.829522 15.814068 19.227939 -1.430165 0.605087 -0.004837 -0.001475 -297031.000000 1 0 0
-15.157613 -1.011622 14.350568 20.897737 0.066641 0.813851 0.028007 -0.003805 45832.200000 1 0 0
-13.399613 -5.344322 8.423968 16.705527 0.379507 1.042269 0.031820 -0.018112 -800930.000000 1 0 0
-14.366913 -1.997822 12.062668 18.865509 0.138171 0.877074 0.040531 -0.017452 489111.000000 1 0 0
9.295487 1.342678 17.052768 19.468070 0.143452 0.503425 0.095176 -0.020246 413340.000000 1 0 0
4.950487 -6.734222 17.076168 19.011906 -0.936884 0.455178 0.035052 -0.004522 440521.000000 1 0 0
-6.114513 -2.668422 11.050268 12.907988 0.411493 0.543160 0.006748 -0.002043 295766.000000 1 0 0
0.464487 -6.312622 17.935668 19.019809 -1.497348 0.339265 0.024048 -0.021570 -366807.000000 1 0 0
-8.678713 11.886778 11.876468 18.912060 -0.940144 0.891837 0.021145 -0.021402 543111.000000 1 0 0
-6.616913 -5.854822 14.917668 17.337799 0.724369 0.534717 0.028032 -0.011254 -497556.000000 1 0 0
-4.259513 -9.089322 16.978768 19.724040 1.132560 0.533926 0.038299 -0.020743 111276.000000 1 0 0
2.420187 -6.200722 16.222868 17.535327 -1.198674 0.389357 0.017816 -0.011935 -238790.000000 1 0 0
2.235787 5.336678 16.016068 17.029189 1.174063 0.346678 0.005759 -0.006020 -2050170.000000 1 0 0
0.953387 -9.007222 13.900368 16.590938 -1.465342 0.577502 -0.006478 -0.001518 -1270000.000000 1 0 0
-10.020413 -2.821822 11.324868 15.382587 0.274499 0.743338 0.009625 -0.005951 -285437.000000 1 0 0
-1.351613 10.130578 12.446168 16.104737 -1.438160 0.687513 -0.000476 -0.001095 -185257.000000 1 0 0
-12.418113 -3.646422 11.311768 17.189008 0.285609 0.852528 0.029412 -0.012722 -1878840.000000 1 0 0
-1.906413 6.594578 19.672668 20.835948 -1.289380 0.335732 0.032211 -0.023874 -2398220.000000 1 0 0
0.367387 -13.538722 15.569868 20.636200 -1.543667 0.715915 -0.001310 -0.015181 -779888.000000 1 0 0
4.195687 -8.754522 15.464768 18.259367 -1.123878 0.560574 0.013754 -0.000398 -513603.000000 1 0 0
4.343587 -4.427722 16.130568 17.281976 -0.794990 0.367091 0.028595 -0.005805 -1053490.000000 1 0 0
8.026987 1.679678 14.783468 16.905761 0.206277 0.506468 0.015454 0.000773 33185.700000 1 0 0
-6.354513 -0.159222 11.902568 13.493565 0.025051 0.490511 0.007531 -0.004087 361977.000000 1 0 0
-3.507013 -11.162022 18.186268 21.624759 1.266371 0.571681 0.064469 -0.025089 -374853.000000 1 0 0
3.170487 -1.484422 13.534768 13.980180 -0.437886 0.253104 -0.002348 -0.000357 541449.000000 1 0 0
-2.777113 8.887878 15.897668 18.423967 -1.267947 0.529856 0.006752 0.000968 -304060.000000 1 0 0
-3.295413 3.929278 14.928568 15.784838 -0.872910 0.330890 0.008409 -0.001066 -2368770.000000 1 0 0
-4.744413 -9.279622 19.544568 22.149740 1.098172 0.489892 0.069162 -0.023629 32983.200000 1 0 0
-5.866113 -3.008722 19.169768 20.271746 0.473913 0.331240 0.040115 -0.015750 -961310.000000 1 0 0
-6.637313 -8.665322 11.170168 15.617758 0.917157 0.773854 0.019555 -0.010292 -285778.000000 1 0 0
-11.683513 2.271578 12.741168 17.435650 -0.192030 0.751371 0.007690 -0.013516 -457399.000000 1 0 0
-11.739113 -7.461822 11.562668 18.088141 0.566212 0.877286 0.044742 -0.024454 1328690.000000 1 0 0
-11.194913 -7.280722 15.421168 20.399691 0.576628 0.713691 0.081824 -0.039599 619608.000000 1 0 0
0.241587 5.696378 17.705268 18.600634 1.528411 0.311537 0.006929 -0.010102 -334792.000000 1 0 0
-2.280813 -0.170322 13.223068 13.419413 0.074538 0.171273 0.006426 0.000256 499.967000 1 0 0
-6.065913 -10.758022 17.848168 21.704548 1.057382 0.605313 0.080669 -0.030868 -363429.000000 1 0 0
0.135387 2.768378 19.169568 19.368907 1.521930 0.143593 0.012534 -0.009521 -925053.000000 1 0 0
-0.733113 11.059778 14.835468 18.518835 -1.504607 0.641663 0.013608 -0.001773 -116747.000000 1 0 0
-12.997613 -2.508222 14.278368 19.470514 0.190632 0.747585 0.044978 -0.014684 404760.000000 1 0 0
-13.679213 8.457778 11.634168 19.849653 -0.553763 0.944542 0.012848 -0.020529 196313.000000 1 0 0
-18.037013 -0.667022 6.974668 19.350058 0.036964 1.202049 0.076457 -0.027798 -685533.000000 1 0 0
-1.983113 -7.898722 17.441168 19.248815 1.324813 0.436846 0.019894 -0.019853 -2321150.000000 1 0 0
5.717087 2.802378 14.818868 16.128771 0.455757 0.405806 0.004758 -0.003993 -2503750.000000 1 0 0
-14.276013 -6.758322 11.116668 19.314755 0.442145 0.957516 0.065248 -0.026253 246536.000000 1 0 0
3.095687 7.789578 16.561068 18.561513 1.192521 0.468545 0.012516 -0.010373 -110204.000000 1 0 0
1.005487 2.137878 14.598868 14.788795 1.131173 0.160438 0.004134 -0.004404 -2174480.000000 1 0 0
-14.401413 0.573278 9.680268 17.361939 -0.039786 0.979357 0.026106 -0.010566 -1270210.000000 1 0 0
-9.565613 -5.250922 15.632468 19.064291 0.502027 0.609408 0.047826 -0.013057 158941.000000 1 0 0
-2.574913 -0.185222 18.181268 18.363632 0.071810 0.141048 0.019281 -0.004958 408767.000000 1 0 0
6.678087 3.663678 17.531768 19.114975 0.501777 0.409865 0.032418 -0.011842 -348705.000000 1 0 0
-4.192313 -1.027222 14.834668 15.449855 0.240291 0.283145 0.014866 -0.001963 219664.000000 1 0 0
5.104487 -9.231522 17.801468 20.692246 -1.065698 0.534945 0.032539 0.002194 -114000.000000 1 0 0
1.981287 7.014078 13.559268 15.394042 1.295496 0.493220 0.013088 -0.001877 -680744.000000 1 0 0
-3.732313 -0.990322 20.381668 20.744235 0.259361 0.187238 0.035293 -0.008422 -1386580.000000 1 0 0
-10.871713 1.457378 16.426568 19.752220 -0.133258 0.588757 0.026039 -0.009679 -255105.000000 1 0 0
-4.039613 7.052678 18.380768 20.097546 -1.050634 0.416334 0.018596 -0.003984 -158837.000000 1 0 0
-12.678113 0.887978 14.633868 19.382289 -0.069926 0.715123 0.026484 -0.016635 253729.000000 1 0 0
-15.934913 -5.007322 8.434468 18.711894 0.304466 1.103186 0.055565 -0.026587 -1665060.000000 1 0 0
-2.367513 0.718278 15.779668 15.972443 -0.294563 0.155523 0.014310 -0.003817 277608.000000 1 0 0
-13.739813 -8.523322 12.992568 20.742138 0.555240 0.893889 0.078830 -0.042231 656076.000000 1 0 0
6.077287 -3.142622 14.651868 16.170551 -0.477241 0.436863 0.022110 -0.004292 837392.000000 1 0 0
-15.773313 0.456678 7.479068 17.462600 -0.028944 1.128196 0.037327 -0.017169 329120.000000 1 0 0
-13.964013 6.000678 12.623268 19.757244 -0.405865 0.877705 0.027012 -0.010128 -27411.700000 1 0 0
0.436187 9.615278 16.687768 19.264616 1.525463 0.523171 0.008185 -0.009160 -417448.000000 1 0 0
-10.395513 -5.398222 10.790368 15.926064 0.478955 0.826399 0.026264 -0.016348 76467.600000 1 0 0
-3.171913 -11.083022 14.933468 18.865388 1.292052 0.657406 0.024226 -0.016628 137852.000000 1 0 0
-3.422813 2.665778 12.705568 13.425851 -0.661696 0.329046 0.005692 -0.000109 -1499660.000000 1 0 0
-12.299313 -7.685422 7.413668 16.288072 0.558503 1.098245 0.024630 -0.012883 -87770.200000 1 0 0
-8.162713 -1.953622 13.314468 15.739173 0.234916 0.562462 0.020421 -0.005096 -481139.000000 1 0 0
-9.816213 6.327678 9.599368 15.117718 -0.572580 0.882821 -0.003204 -0.007688 -859649.000000 1 0 0
-17.833113 -3.649222 6.596668 19.361115 0.201845 1.223117 0.069700 -0.024675 587074.000000 1 0 0
-1.308813 -0.087222 20.578668 20.620431 0.066544 0.063655 0.024446 -0.001831 -364254.000000 1 0 0
-2.837013 2.656078 20.252768 20.622269 -0.752471 0.189586 0.032915 -0.008091 -503421.000000 1 0 0
-4.006813 11.383978 11.160368 16.437862 -1.232368 0.824475 0.005702 -0.003466 -273595.000000 1 0 0
-4.148213 -4.909822 14.964768 16.286752 0.869282 0.405689 0.016096 -0.008988 -477827.000000 1 0 0
-0.249413 -14.463622 13.170568 19.563293 1.553554 0.832230 0.008124 -0.014338 -1104550.000000 1 0 0
-12.115913 0.313078 8.441768 14.770132 -0.025834 0.962411 0.003512 -0.004604 -597006.000000 1 0 0
-7.820413 1.939178 15.444268 17.419663 -0.243061 0.480855 0.008347 -0.002742 -308250.000000 1 0 0
3.239287 -2.238022 18.405168 18.821581 -0.604592 0.210743 0.030535 -0.009148 -281323.000000 1 0 0
-2.199513 4.880678 12.684868 13.768251 -1.147396 0.399353 0.003342 0.001067 -327738.000000 1 0 0
-10.147913 -6.216222 13.235868 17.799150 0.549605 0.732323 0.026155 -0.021853 58787.000000 1 0 0
2.278187 -3.767022 14.266668 14.930452 -1.026876 0.299305 0.002268 -0.000598 -1180310.000000 1 0 0
6.640087 1.121078 17.036568 18.319176 0.167257 0.376423 0.028524 -0.006079 -1087850.000000 1 0 0
-1.976513 -5.654022 13.743268 14.991730 1.234499 0.410996 0.004806 -0.005137 -2235880.000000 1 0 0
-12.761713 3.488778 14.695368 19.773384 -0.266858 0.732972 0.003019 -0.013400 57961.800000 1 0 0
-13.142313 -5.985922 13.302068 19.634069 0.427393 0.826439 0.051389 -0.043441 -572335.000000 1 0 0
-9.418013 6.794678 11.925968 16.646180 -0.624981 0.772112 -0.008145 -0.008374 -517450.000000 1 0 0
-1.094613 -2.449422 12.801868 13.079972 1.150535 0.206580 0.003461 0.003671 485147.000000 1 0 0
0.128887 6.803278 15.422268 16.856676 1.551854 0.415522 0.006948 -0.005821 312016.000000 1 0 0
-16.527913 -1.066522 9.511168 19.098997 0.064439 1.049513 0.056002 -0.019865 67348.200000 1 0 0
-1.244713 2.776278 13.862668 14.192624 -1.149325 0.216051 0.007957 -0.001162 -3191820.000000 1 0 0
-11.218113 -3.450522 16.050868 19.884228 0.298401 0.631376 0.050386 -0.022428 -1630240.000000 1 0 0
-5.230813 -1.439422 17.244068 18.077367 0.268535 0.304811 0.030361 -0.001666 232795.000000 1 0 0
-11.880413 6.537178 11.221468 17.601143 -0.503034 0.879493 0.008461 -0.008087 -2072450.000000 1 0 0
-2.972413 4.626078 18.631768 19.426235 -0.999687 0.286979 0.025525 -0.009387 276666.000000 1 0 0
5.071187 -1.937922 16.575668 17.442054 -0.365019 0.316509 0.028696 -0.005701 1979.160000 1 0 0
-8.080513 -4.062322 12.045068 15.062563 0.465830 0.644052 0.021065 -0.009313 -2383660.000000 1 0 0
-11.759813 -1.003422 16.111468 19.971966 0.085120 0.632243 0.050850 -0.015960 502076.000000 1 0 0
1.966587 2.158278 17.406068 17.649272 0.831837 0.166203 -0.000688 -0.006053 -1099490.000000 1 0 0
-8.997113 -7.544322 11.513068 16.444317 0.697796 0.795225 0.028003 -0.018957 1077420.000000 1 0 0
-7.279713 6.484278 14.884268 17.792737 -0.727671 0.579866 -0.007414 -0.005535 -1175060.000000 1 0 0
-5.700813 3.316078 15.793868 17.115545 -0.526844 0.395565 0.001627 -0.003723 340164.000000 1 0 0
-9.360113 4.145778 11.505568 15.400561 -0.416950 0.727127 -0.003891 -0.009508 -344279.000000 1 0 0
-10.249213 0.006478 14.299068 17.592889 -0.000632 0.621896 0.019205 -0.008093 -777602.000000 1 0 0
8.053687 -0.642122 15.828068 17.770816 -0.079562 0.471963 0.047194 -0.011604 191853.000000 1 0 0
-8.603113 -7.564722 14.871968 18.772693 0.721261 0.656370 0.050650 -0.015180 -1698960.000000 1 0 0
-0.037813 4.207778 15.642268 16.198375 -1.561810 0.262790 0.005440 -0.008263 86781.000000 1 0 0
-8.085213 2.962878 9.620368 12.911266 -0.351259 0.730090 -0.005332 -0.002099 -1204170.000000 1 0 0
-1.964613 -9.676522 13.157268 16.450182 1.370490 0.643793 -0.000482 -0.007320 474699.000000 1 0 0
-6.083913 10.165178 10.381768 15.752014 -1.031477 0.851207 0.010042 -0.007493 -3032830.000000 1 0 0
-8.634813 -2.833722 15.665068 18.110337 0.317100 0.525687 0.033770 -0.014718 588312.000000 1 0 0
4.099887 5.650078 17.716268 19.042022 0.943073 0.375355 0.011244 -0.015013 -255669.000000 1 0 0
-6.801613 -1.068722 15.282468 16.761799 0.155853 0.423287 0.015958 -0.003427 -992021.000000 1 0 0
-0.851013 -9.975022 15.434168 18.396707 1.485688 0.575420 -0.010251 -0.006842 -1025830.000000 1 0 0
-4.310513 5.649078 16.247768 17.733656 -0.918997 0.412277 0.003983 -0.003537 773971.000000 1 0 0
3.649087 0.094078 17.379768 17.758970 0.025776 0.207022 0.013266 -0.004951 -582562.000000 1 0 0
1.464387 0.516078 19.385368 19.447448 0.338828 0.079924 0.005063 0.003084 -227454.000000 1 0 0
-6.459213 6.358278 17.635368 19.828145 -0.777524 0.474742 0.011915 -0.005972 -566670.000000 1 0 0
-12.158413 0.456578 10.974168 16.384988 -0.037535 0.836898 0.016196 -0.009144 -79397.100000 1 0 0
-5.363813 5.015578 13.916368 15.735050 -0.751860 0.485550 -0.005124 -0.001126 -2471710.000000 1 0 0
-8.590613 -9.539122 9.976668 16.258148 0.837668 0.910133 0.022324 -0.011607 -493100.000000 1 0 0
6.788087 -3.808922 17.098468 18.786793 -0.511339 0.427193 0.049879 -0.006408 472149.000000 1 0 0
-16.764313 1.541478 9.610668 19.385130 -0.091692 1.052069 0.055203 -0.019347 -237488.000000 1 0 0
-4.130813 -9.602322 11.456868 15.508966 1.164539 0.739619 0.007262 -0.010376 744965.000000 1 0 0
-11.079013 -3.845022 9.177568 14.891490 0.334048 0.906766 0.010885 -0.006239 -501417.000000 1 0 0
3.458187 -5.194722 18.482468 19.507583 -0.983455 0.325627 0.026653 -0.014820 -493095.000000 1 0 0
2.462087 -1.773822 16.001368 16.286561 -0.624322 0.187416 0.004139 -0.001678 -473229.000000 1 0 0
-3.278513 -4.179522 20.286268 20.970210 0.905626 0.256101 0.035166 -0.015123 -877907.000000 1 0 0
-6.336713 -3.479022 14.406868 16.118789 0.502095 0.465063 0.020574 -0.004811 842313.000000 1 0 0
-9.780813 5.015178 13.797168 17.640242 -0.473801 0.672701 0.007783 -0.011252 181501.000000 1 0 0
-5.948013 -5.142022 11.803568 14.182505 0.712849 0.587620 0.011652 -0.001469 866405.000000 1 0 0
5.947487 1.866978 19.468768 20.442385 0.304169 0.309872 0.065600 -0.020734 341690.000000 1 0 0
-2.806313 11.922378 13.541968 18.259337 -1.339622 0.735275 0.003958 -0.010457 -1362960.000000 1 0 0
3.369287 1.433878 15.220468 15.654735 0.402356 0.236091 -0.001655 -0.001173 -1265560.000000 1 0 0
-5.826513 7.293178 12.908568 15.930154 -0.896727 0.626094 -0.010951 -0.004432 442004.000000 1 0 0
-1.724513 -1.694322 15.238068 15.428654 0.776568 0.157342 0.011716 -0.001012 -881191.000000 1 0 0
-7.455513 10.836078 13.918768 19.150388 -0.968151 0.757125 0.034462 -0.014586 -124690.000000 1 0 0
-10.065513 1.869678 10.621368 14.752074 -0.183658 0.767006 0.001500 -0.004555 -2132920.000000 1 0 0
-13.775913 5.001278 9.407368 17.415141 -0.348249 1.000141 0.016761 -0.007420 1177520.000000 1 0 0
0.421687 -4.792122 20.083368 20.651487 -1.483027 0.235104 0.032208 -0.022451 -205591.000000 1 0 0
-14.408613 -3.185522 7.427868 16.520560 0.217585 1.104464 0.032827 -0.011999 1202790.000000 1 0 0
-2.424813 2.314578 17.743668 18.057539 -0.762143 0.186721 0.015587 -0.007075 -666415.000000 1 0 0
-6.263113 -8.550022 14.673668 18.100994 0.938573 0.625526 0.021975 -0.007728 76677.400000 1 0 0
-7.984313 1.903078 12.057268 14.585906 -0.233986 0.597689 0.000030 -0.004700 -247266.000000 1 0 0
-14.653113 -3.623522 10.046268 18.132047 0.242423 0.983561 0.039373 -0.016517 197963.000000 1 0 0
-0.593413 7.011378 12.893868 14.688886 -1.486362 0.499552 0.006577 -0.002544 -819366.000000 1 0 0
-1.850613 -2.339222 19.317368 19.546289 0.901492 0.153197 0.022024 -0.010267 -642001.000000 1 0 0
-12.848913 10.024778 7.306168 17.859754 -0.662553 1.149345 0.003000 -0.020611 467989.000000 1 0 0
-19.657613 2.046878 6.778568 20.894029 -0.103753 1.240391 0.104218 -0.030065 665907.000000 1 0 0
-16.307013 8.347978 6.551068 19.455691 -0.473143 1.227368 0.026462 -0.009647 351867.000000 1 0 0
-12.107613 7.592578 13.590868 19.721897 -0.560102 0.810514 0.004452 -0.011502 154445.000000 1 0 0
-15.775013 7.753578 10.350268 20.398457 -0.456833 1.038626 0.033633 -0.028731 -1156750.000000 1 0 0
1.824587 11.132278 15.074268 18.827912 1.408340 0.642444 0.016179 -0.014366 -1696950.000000 1 0 0
1.801887 14.195378 12.438968 18.960049 1.444537 0.855207 0.018520 -0.021112 -1239230.000000 1 0 0
-3.158613 13.741578 11.705668 18.325677 -1.344863 0.877914 -0.001229 -0.012493 -267214.000000 1 0 0
9.017087 4.970478 15.949968 18.984598 0.503786 0.573231 0.057236 -0.002213 544408.000000 1 0 0
-0.471913 12.639378 12.739568 17.951968 -1.533477 0.781799 0.009761 -0.011533 -959762.000000 1 0 0
3.414087 13.545278 14.484468 20.122881 1.323889 0.767281 0.021545 -0.010097 -149966.000000 1 0 0
-2.828713 -4.110622 -13.704932 14.585061 0.968070 2.792418 0.004774 -0.005693 -105208.000000 1 0 0
5.497387 -11.673322 16.173068 20.689510 -1.130669 0.673403 0.011647 -0.003187 324327.000000 1 0 0
8.016187 -13.515422 7.400968 17.369520 -1.035455 1.130631 0.013896 -0.008829 -145070.000000 1 0 0
-0.166213 15.708778 1.307668 15.763988 -1.560216 1.487748 0.004717 -0.009484 -2679750.000000 1 0 0
-13.584613 8.026778 9.013668 18.171876 -0.533681 1.051784 -0.004673 -0.008607 -136080.000000 1 0 0
-15.334913 -9.724522 5.011568 18.837242 0.565147 1.301508 0.023819 -0.010523 -1166220.000000 1 0 0
9.714487 -11.094922 11.145668 18.484979 -0.851638 0.923592 0.051301 -0.011797 -33902.100000 1 0 0
-5.642313 -10.413122 -16.683432 20.459856 1.074235 2.524255 0.035901 -0.009494 29006.100000 1 0 0
-1.915813 -12.590222 -14.992032 19.670919 1.419788 2.437411 0.026603 -0.009013 103403.000000 1 0 0
5.425387 -15.780422 -12.531232 20.868357 -1.239651 2.214910 0.041155 -0.010640 273121.000000 1 0 0
1.289987 -12.267222 -16.254832 20.405107 -1.466024 2.492456 0.049575 -0.011560 227324.000000 1 0 0
0.368787 -13.907322 -14.156532 19.848351 -1.544285 2.364899 0.049566 -0.007358 24674.000000 1 0 0
-6.851613 -6.205422 -15.025532 17.641386 0.735949 2.590057 0.027722 0.007574 -151917.000000 1 0 0
-5.582713 -8.394222 -17.469832 20.169896 0.983903 2.618211 0.007665 -0.002773 -38442.400000 1 0 0
-2.327013 -16.431622 -13.283332 21.257002 1.430114 2.245790 0.030672 -0.006715 256154.000000 1 0 0
16.175487 -7.960622 -8.579932 19.965799 -0.457341 2.014992 0.083771 -0.024999 61222.200000 1 0 0
18.994287 -3.274222 -3.353132 19.563920 -0.170702 1.743040 0.133782 -0.037654 154390.000000 1 0 0
15.064387 -12.510422 -8.398232 21.306730 -0.693042 1.975949 0.025607 0.002891 103313.000000 1 0 0
18.847987 -2.860722 -6.479632 20.134944 -0.150629 1.898437 0.207458 -0.011589 -285024.000000 1 0 0
9.245087 -9.789722 -16.019732 20.927067 -0.814003 2.442619 0.097817 -0.013029 156579.000000 1 0 0
-4.762613 9.373078 -16.092732 19.222724 -1.100677 2.562889 -0.000079 -0.008293 452151.000000 1 0 0
2.684387 -9.569122 -18.276132 20.803631 -1.297300 2.643524 0.071270 -0.012796 322541.000000 1 0 0
11.470787 9.322378 -14.202332 20.498584 0.682441 2.336223 0.128946 -0.061430 367663.000000 1 0 0
18.391487 -5.335522 -8.469732 20.939221 -0.282357 1.987219 0.091258 -0.025181 57600.400000 1 0 0
12.075287 4.988678 -13.772132 18.983443 0.391775 2.382530 0.067328 -0.031724 187630.000000 1 0 0
16.019687 6.116378 -10.808132 20.269588 0.364722 2.133198 0.076494 -0.028671 129413.000000 1 0 0
3.269987 -0.118822 -19.210132 19.486819 -0.036321 2.972878 0.047278 -0.014488 164594.000000 1 0 0
10.268487 -1.349022 -15.009732 18.236056 -0.130627 2.537609 0.040027 -0.001490 113075.000000 1 0 0
12.414087 -5.527622 -13.941632 19.468777 -0.418914 2.368998 0.070279 -0.015353 600417.000000 1 0 0
10.160687 6.431278 -12.732032 17.513011 0.564301 2.384745 0.048951 -0.017377 412083.000000 1 0 0
10.755187 5.147478 -16.114632 20.046245 0.446385 2.504574 0.088546 -0.042144 538010.000000 1 0 0
12.265487 -9.666822 -14.582032 21.366453 -0.667462 2.321937 0.130447 -0.034720 436092.000000 1 0 0
-1.145113 2.250078 -17.128332 17.313403 -1.100037 2.995247 0.013832 -0.017374 336257.000000 1 0 0
6.247387 -0.950722 -17.607632 18.707283 -0.151020 2.797015 0.023784 0.013477 75807.200000 1 0 0
6.765387 -5.716722 -15.719332 18.042971 -0.701582 2.628471 0.025801 -0.013656 308639.000000 1 0 0
-2.385213 -4.454722 -20.354032 20.971896 1.079204 2.898252 0.048236 -0.020674 313849.000000 1 0 0
16.435387 -0.125122 -12.848432 20.861923 -0.007613 2.234298 0.117289 -0.031440 153250.000000 1 0 0
-4.088013 -0.481622 -18.637532 19.086682 0.117273 2.924222 0.012812 -0.007132 258976.000000 1 0 0
3.503887 9.095178 -17.416432 19.958247 1.203073 2.631386 0.042173 -0.036280 -462085.000000 1 0 0
9.700487 0.272078 -16.775832 19.380455 0.028041 2.617155 0.058736 -0.030543 57469.100000 1 0 0
4.130087 4.814478 -18.504132 19.561179 0.861764 2.811345 0.025494 -0.002177 391076.000000 1 0 0
-2.941913 -10.999522 -17.782532 21.115464 1.309455 2.572067 0.045438 -0.026043 328677.000000 1 0 0
6.738787 -9.245322 -16.321832 19.932121 -0.940946 2.530237 0.058352 -0.013486 243224.000000 1 0 0
10.066587 -12.532422 -10.984432 19.469349 -0.894081 2.170249 0.040075 0.006188 158459.000000 1 0 0
6.150187 6.726278 -16.999732 19.288819 0.830108 2.649457 0.046649 -0.028023 140106.000000 1 0 0
8.830287 1.550278 -19.992232 21.910424 0.173793 2.720036 0.076525 -0.026991 188003.000000 1 0 0
-0.713613 -0.712822 -20.338632 20.363628 0.784844 3.092041 0.044736 -0.013996 53148.400000 1 0 0
-0.802813 6.857678 -19.645332 20.823336 -1.454259 2.803620 0.021267 -0.005228 -42028.200000 1 0 0
8.687187 6.152878 -17.995332 20.908303 0.616255 2.607398 0.090838 -0.033065 27227.100000 1 0 0
11.844187 -0.063822 -12.808232 17.445333 -0.005388 2.395273 0.020726 -0.009709 21082.700000 1 0 0
-4.262013 -3.005122 -19.693132 20.371916 0.614137 2.882725 0.008540 -0.011437 389645.000000 1 0 0
6.022087 -11.351922 -14.701532 19.526052 -1.083055 2.423282 0.036598 -0.008193 -33359.800000 1 0 0
11.551987 2.630578 -15.968832 19.883962 0.223899 2.503278 0.073327 -0.008965 -160420.000000 1 0 0
-2.871413 -4.396522 -17.035332 17.826300 0.992238 2.842585 0.009279 -0.008141 164294.000000 1 0 0
-6.746313 -5.039322 -17.446232 19.372107 0.641562 2.691910 0.020318 -0.007553 73076.300000 1 0 0
2.520887 10.860078 -15.427332 19.034147 1.342711 2.515816 0.011893 -0.014690 163421.000000 1 0 0
17.532387 -5.909722 -10.769032 21.407510 -0.325114 2.097920 0.134577 -0.024616 74273.400000 1 0 0
9.448587 -3.502822 -17.663132 20.335482 -0.355017 2.623140 0.035622 -0.025786 192333.000000 1 0 0
-7.030813 -1.927622 -19.100032 20.444053 0.267592 2.776971 0.000513 0.006404 575476.000000 1 0 0
1.836487 -7.602222 -19.166332 20.700598 -1.333765 2.754162 0.071244 -0.021515 269416.000000 1 0 0
5.717987 10.115178 -14.106432 18.275766 1.056292 2.452566 0.044639 -0.032862 453505.000000 1 0 0
6.278387 -3.957922 -17.637032 19.134999 -0.562476 2.743278 0.052474 -0.030651 315976.000000 1 0 0
4.705287 13.297878 -14.743732 20.404679 1.230707 2.378304 0.053093 -0.028946 -23955.000000 1 0 0
9.419287 11.211778 -15.658732 21.438816 0.872064 2.389692 0.122868 -0.042325 155145.000000 1 0 0
16.978487 2.966278 -11.660832 20.809681 0.172962 2.165612 0.128174 0.003576 24767.900000 1 0 0
14.964387 -2.811022 -12.369532 19.617341 -0.185684 2.253046 0.098978 -0.018551 114522.000000 1 0 0
-8.283413 0.351778 -17.352332 19.231280 -0.042442 2.695865 0.008084 -0.015671 450631.000000 1 0 0
-3.657513 4.011078 -18.896832 19.661038 -0.831471 2.861866 0.032231 -0.014277 -9196.060000 1 0 0
4.468887 2.669178 -16.495832 17.297628 0.538417 2.835928 0.020312 -0.021069 129115.000000 1 0 0
-5.333113 14.266378 -13.932932 20.642147 -1.213057 2.311727 0.018586 -0.011370 187717.000000 1 0 0
1.214887 9.299178 -17.466832 19.825259 1.440888 2.648851 0.026300 -0.018253 348812.000000 1 0 0
1.226587 -5.051722 -19.934932 20.601601 -1.332600 2.886500 0.056014 -0.009683 492015.000000 1 0 0
4.190687 -6.271122 -18.071332 19.582183 -0.981697 2.746201 0.059013 -0.022903 129957.000000 1 0 0
-6.660613 7.680778 -16.059832 19.007271 -0.856413 2.577233 -0.001124 0.000167 -189228.000000 1 0 0
-11.868613 3.077378 -16.704632 20.721462 -0.253700 2.508415 0.097651 -0.035300 375466.000000 1 0 0
-4.485113 6.959978 -17.836932 19.665037 -0.998357 2.706991 -0.000253 0.026823 446129.000000 1 0 0
-8.437813 5.463978 -17.326532 20.031487 -0.574657 2.615877 0.028594 -0.020726 460376.000000 1 0 0
-8.422213 4.312278 -14.969932 17.709554 -0.473211 2.577928 -0.004803 -0.022748 489008.000000 1 0 0
9.541687 13.766878 -12.623332 20.974252 0.964723 2.216611 0.130203 -0.050292 422125.000000 1 0 0
14.529787 8.622178 -11.790732 20.602865 0.535563 2.180087 0.151456 -0.045906 51322.600000 1 0 0
8.587787 15.507378 -9.962232 20.334083 1.065050 2.082803 0.102971 -0.026214 -6301.190000 1 0 0
6.927787 12.671378 -14.340832 20.352335 1.070469 2.352696 0.141260 -0.060137 -76257.300000 1 0 0
4.273087 15.353978 -13.487732 20.878765 1.299360 2.273132 0.058017 -0.021622 134732.000000 1 0 0
10.890287 11.966778 -11.467932 19.832186 0.832460 2.187377 0.108488 -0.029697 143655.000000 1 0 0
16.181787 10.286778 -9.289332 21.306331 0.566257 2.021934 0.141252 -0.048593 461706.000000 1 0 0
12.800387 10.689078 -8.752432 18.833783 0.695756 2.054115 0.111327 -0.045976 219787.000000 1 0 0
10.968987 11.586978 -7.262132 17.530411 0.812789 1.997925 0.095683 -0.020816 91388.600000 1 0 0
6.199387 16.717178 -10.245032 20.563490 1.215678 2.092335 0.079352 -0.011195 -146520.000000 1 0 0
11.703187 14.204578 -10.150732 21.018373 0.881650 2.074812 0.170047 -0.036928 -66439.800000 1 0 0
9.124487 -19.258722 -1.730932 21.381084 -1.128340 1.651841 0.069213 -0.009688 310015.000000 1 0 0
7.799187 -17.828522 -4.099332 19.886881 -1.158423 1.778417 0.047471 0.007211 37680.000000 1 0 0
4.102287 -18.644422 5.178968 19.780418 -1.354220 1.305886 0.065631 -0.033127 134437.000000 1 0 0
10.510587 -16.989322 -1.542032 20.037150 -1.016770 1.647831 0.052026 -0.041788 362123.000000 1 0 0
-3.320313 -15.017122 7.998468 17.335337 1.353195 1.091227 0.027981 -0.025982 42721.100000 1 0 0
-15.155413 -12.883222 -4.026332 20.294711 0.704537 1.770515 0.066090 -0.022998 48647.500000 1 0 0
-9.655313 -12.866522 -7.010432 17.547610 0.927026 1.981778 0.045547 -0.010544 228809.000000 1 0 0
-11.415613 -15.439622 6.622968 20.311619 0.934132 1.238655 0.062512 -0.014806 270140.000000 1 0 0
-14.196513 -8.469622 -8.043232 18.383935 0.537915 2.023629 0.028876 -0.018308 -144649.000000 1 0 0
3.908687 -15.607522 5.157768 16.896010 -1.325407 1.260579 0.026507 -0.020927 41256.200000 1 0 0
2.816887 -14.283322 8.888368 17.057292 -1.376080 1.022670 0.014575 -0.008101 453401.000000 1 0 0
3.238687 -17.680322 9.799968 20.472475 -1.389625 1.071634 0.047248 -0.015868 267665.000000 1 0 0
-8.650513 -18.072822 -5.054332 20.664088 1.124376 1.817898 0.055391 -0.005773 -79659.600000 1 0 0
2.294087 -19.829022 -4.000932 20.358301 -1.455615 1.768610 0.066148 -0.027122 91392.000000 1 0 0
-17.772113 -11.002422 -1.794132 20.979042 0.554333 1.656421 0.009496 -0.007507 72188.500000 1 0 0
-4.167513 -14.962922 2.762568 15.776216 1.299158 1.394779 0.014402 0.001531 110951.000000 1 0 0
-10.783213 -9.874722 -14.692532 20.728201 0.741449 2.358618 0.052883 -0.016260 237385.000000 1 0 0
0.991687 -20.422022 2.515268 20.600218 -1.522275 1.448392 0.058044 -0.019917 174502.000000 1 0 0
7.051087 -18.148222 0.870568 19.489322 -1.200219 1.526113 0.053916 -0.016937 255129.000000 1 0 0
-6.626213 -17.757222 -2.966132 19.183941 1.213643 1.726034 -0.007531 -0.057736 98660.600000 1 0 0
-9.168313 -16.125622 -7.519332 20.015844 1.053819 1.955915 0.063350 -0.004047 76137.100000 1 0 0
-11.869013 -11.400522 -12.135932 20.448135 0.765268 2.206195 0.050919 -0.007544 363244.000000 1 0 0
-13.210513 -15.138622 -3.391132 20.376342 0.853307 1.737999 0.066368 -0.021312 101054.000000 1 0 0
-0.354213 -20.502922 -2.475132 20.654819 1.553522 1.690918 0.070423 -0.035564 308349.000000 1 0 0
-11.952213 -16.846122 -0.971632 20.678281 0.953727 1.617802 0.073040 -0.020593 98424.100000 1 0 0
1.065387 -20.111622 5.267068 20.817166 -1.517872 1.315000 0.074606 -0.029339 -25373.100000 1 0 0
-18.160913 -8.760222 2.429768 20.309210 0.449442 1.450870 0.061438 -0.006466 -122566.000000 1 0 0
-15.155113 -14.868822 -0.935932 21.251713 0.775863 1.614851 0.092700 -0.020862 -3124.380000 1 0 0
10.089987 -15.687922 -4.890732 19.283101 -0.999238 1.827225 0.024660 -0.002643 169509.000000 1 0 0
-0.114613 -19.142122 -7.051632 20.399988 1.564809 1.923747 0.056549 -0.018998 164706.000000 1 0 0
-10.149213 -18.403022 -2.649232 21.182450 1.066804 1.696192 0.059827 0.027807 312560.000000 1 0 0
-14.694513 -6.763322 -11.438532 19.811897 0.431355 2.186284 0.057746 -0.014316 -46551.800000 1 0 0
-12.007213 -15.704822 2.319968 19.904694 0.918044 1.453977 0.062901 -0.014305 255832.000000 1 0 0
-2.588313 -16.079122 9.980468 19.100975 1.411192 1.021003 0.032418 -0.026730 307767.000000 1 0 0
-12.445513 -14.300522 -6.449132 20.024661 0.854644 1.898700 0.061469 -0.016403 188859.000000 1 0 0
7.137087 -16.486722 -7.363532 19.415757 -1.162254 1.959788 0.073001 -0.023862 143334.000000 1 0 0
-18.148413 -7.896222 -3.025032 20.021639 0.410387 1.722465 0.053680 -0.011716 23876.100000 1 0 0
-12.034813 -13.748522 -9.557232 20.620361 0.851766 2.052721 0.062119 -0.021440 175859.000000 1 0 0
-7.897013 -14.127022 9.812468 18.926703 1.061069 1.025764 0.043349 -0.006917 473042.000000 1 0 0
-15.933913 -8.326922 -5.751932 18.876227 0.481557 1.880439 0.058222 -0.010497 188534.000000 1 0 0
-0.658213 -19.770522 -0.064732 19.781582 1.537516 1.574069 0.049676 -0.020327 50227.400000 1 0 0
-14.980613 -11.385122 -1.825132 18.904256 0.649864 1.667493 0.036670 -0.008669 25563.900000 1 0 0
-6.944713 -19.236422 2.097468 20.558899 1.224339 1.468596 0.059165 -0.022708 153230.000000 1 0 0
-1.272813 -21.262022 -4.748232 21.822909 1.511004 1.790131 0.046505 -0.021934 -228356.000000 1 0 0
-9.540613 -19.246722 -0.484832 21.487081 1.110594 1.593362 0.080927 -0.041411 151991.000000 1 0 0
-17.726213 -7.625522 5.010868 19.936800 0.406253 1.316734 0.058375 -0.014916 -149189.000000 1 0 0
-2.509613 -15.987022 -10.855432 19.486494 1.415089 2.161655 0.018915 0.004039 141816.000000 1 0 0
-3.010913 -18.412422 -8.059132 20.323201 1.408705 1.978550 0.025359 -0.008247 198270.000000 1 0 0
4.304587 -18.058922 -5.946832 19.494075 -1.336799 1.880796 0.030426 0.021194 502901.000000 1 0 0
0.870987 -17.506722 -9.335432 19.859361 -1.521086 2.060175 0.047538 -0.003180 158199.000000 1 0 0
-7.488513 -10.110822 -14.011032 18.831239 0.933310 2.409880 0.014645 -0.033138 286172.000000 1 0 0
-4.871613 -19.607522 -2.030432 20.305423 1.327271 1.670958 0.051296 -0.029486 401989.000000 1 0 0
-10.399613 -15.179222 8.616368 20.317542 0.970126 1.132845 0.061867 -0.039083 219200.000000 1 0 0
-7.376613 -15.045522 -10.236932 19.636113 1.114950 2.119207 0.035827 -0.011473 236923.000000 1 0 0
-12.623613 -8.193122 -12.410632 19.506580 0.575694 2.260396 0.053434 -0.012465 255630.000000 1 0 0
-15.696213 -12.971622 3.162168 20.606634 0.690643 1.416734 0.063096 -0.010787 135458.000000 1 0 0
-6.555913 -14.327922 -13.035332 20.449676 1.141672 2.261961 0.025403 -0.001590 460209.000000 1 0 0
-14.263513 -11.789722 -6.696832 19.679759 0.690731 1.918022 0.075327 -0.017538 274439.000000 1 0 0
-11.990513 -10.576922 -8.039932 17.896486 0.722841 2.036718 0.047391 -0.010879 240863.000000 1 0 0
-9.707313 -14.868522 3.398968 18.079211 0.992401 1.381667 0.021539 -0.006554 427671.000000 1 0 0
5.529487 -17.833422 8.076068 20.342788 -1.270133 1.162551 0.080491 -0.039466 185926.000000 1 0 0
-4.965913 -16.834122 5.993968 18.546579 1.283941 1.241704 0.026868 0.018232 594755.000000 1 0 0
-18.507913 -7.135022 -7.370932 21.160861 0.367955 1.926584 0.063107 -0.016330 21279.300000 1 0 0
-17.032613 -4.951722 -10.824132 20.779589 0.282921 2.118704 0.098353 -0.014279 -144679.000000 1 0 0
-15.559313 -4.235022 -13.253532 20.873039 0.265748 2.258752 0.085800 -0.022890 294636.000000 1 0 0
-19.465713 -4.990022 -6.138532 21.011803 0.250945 1.867267 0.062101 -0.021180 -95567.900000 1 0 0
5.482887 -13.806022 8.842468 17.287496 -1.192760 1.033873 0.032960 -0.007659 366637.000000 1 0 0
19.936087 -2.203522 2.827268 20.255777 -0.110082 1.430761 0.111638 -0.023775 3693.200000 1 0 0
18.025687 -2.174022 0.495468 18.163074 -0.120027 1.543514 0.052072 -0.024622 294543.000000 1 0 0
14.362187 -11.301722 0.389668 18.279857 -0.666707 1.549478 0.034587 -0.001144 74735.200000 1 0 0
11.424087 -13.967822 5.893668 18.982759 -0.885244 1.255104 0.044384 0.007668 458429.000000 1 0 0
10.286287 -12.600922 8.330968 18.275556 -0.886188 1.097466 0.053838 -0.032085 101786.000000 1 0 0
18.347887 4.019878 -4.152532 19.236629 0.215684 1.788375 0.061515 -0.010853 -63148.200000 1 0 0
19.124487 -6.132022 -4.953132 20.685290 -0.310281 1.812598 0.112663 -0.021284 -12390.000000 1 0 0
17.808087 -9.989722 -0.451932 20.423681 -0.511223 1.592926 0.066604 -0.006625 339055.000000 1 0 0
17.305987 -8.836322 8.423068 21.178429 -0.472086 1.161767 0.117563 -0.024223 32213.100000 1 0 0
19.998887 0.362978 -2.112732 20.113450 0.018148 1.676031 0.140698 -0.017559 -59161.100000 1 0 0
7.325087 -13.343522 11.829568 19.278100 -1.068750 0.910150 0.035592 -0.005974 339535.000000 1 0 0
16.054287 -6.395922 -3.376132 17.608129 -0.379121 1.763728 0.057698 -0.008688 371876.000000 1 0 0
14.302787 -7.058122 11.083268 19.422297 -0.458417 0.963503 0.098830 -0.049170 399299.000000 1 0 0
16.467387 1.362278 10.660268 19.663976 0.082538 0.997836 0.157548 -0.024224 335916.000000 1 0 0
16.681687 -9.959122 2.498868 19.588444 -0.538218 1.442879 0.028495 -0.005385 258869.000000 1 0 0
16.385087 -7.267122 -6.236532 18.978316 -0.417453 1.905632 0.077919 -0.004542 278084.000000 1 0 0
17.843087 -4.093222 5.885368 19.229347 -0.225499 1.259743 0.100397 -0.023632 46695.100000 1 0 0
13.592787 -13.310322 7.971668 20.627070 -0.774899 1.173999 0.068416 -0.020515 343796.000000 1 0 0
15.241287 -14.256222 -1.636932 20.933615 -0.752016 1.649073 0.046386 -0.007408 139027.000000 1 0 0
18.669487 -6.273922 8.066868 21.283472 -0.324196 1.182059 0.163536 -0.027574 231733.000000 1 0 0
19.578487 3.614278 2.606668 20.079215 0.182549 1.440610 0.097276 -0.014912 322282.000000 1 0 0
15.715687 -10.294222 8.271568 20.527364 -0.579902 1.156055 0.078566 -0.032319 254537.000000 1 0 0
14.102587 -4.233522 10.712568 18.208920 -0.291635 0.941824 0.082474 -0.015362 -167841.000000 1 0 0
18.690587 -7.621222 1.772168 20.262321 -0.387176 1.483223 0.114357 -0.019352 69294.700000 1 0 0
19.059987 -5.290422 -1.500032 19.837383 -0.270751 1.646485 0.091177 -0.022421 351886.000000 1 0 0
14.881487 -13.200322 -6.208632 20.838769 -0.725603 1.873327 0.076753 -0.023544 531465.000000 1 0 0
13.828387 -9.397222 10.352168 19.664675 -0.596876 1.016395 0.055447 -0.020162 305867.000000 1 0 0
14.200187 2.205878 0.358668 14.374973 0.154110 1.545843 0.001541 -0.005877 -197119.000000 1 0 0
12.512387 2.362778 14.002168 18.926258 0.186637 0.737982 0.060482 -0.013586 85309.300000 1 0 0
18.387487 -3.173622 9.284368 20.841570 -0.170913 1.109093 0.148075 -0.028427 299991.000000 1 0 0
7.091087 -18.009122 4.771868 19.934460 -1.195690 1.329071 0.061820 -0.038019 95025.400000 1 0 0
12.389587 -2.741022 15.328568 19.899248 -0.217729 0.691471 0.100886 -0.002931 221580.000000 1 0 0
11.401787 -13.591122 -6.852032 19.017615 -0.872773 1.939385 0.028157 -0.018437 86001.300000 1 0 0
10.945387 -17.586322 4.868368 21.278657 -1.014083 1.339961 0.055228 -0.011050 653513.000000 1 0 0
18.457387 -0.274222 -5.473132 19.253714 -0.014856 1.859035 0.129509 -0.018156 171823.000000 1 0 0
4.446987 -13.672822 11.480468 18.398992 -1.256345 0.896980 0.015982 -0.009069 335914.000000 1 0 0
9.048987 -2.550022 14.010768 16.872711 -0.274679 0.591006 0.026493 -0.011176 394362.000000 1 0 0
9.056687 -9.020222 13.766468 18.785729 -0.783381 0.748346 0.059085 -0.019680 376003.000000 1 0 0
20.855087 5.884178 -3.059532 21.884217 0.274998 1.711061 0.165162 -0.007383 439591.000000 1 0 0
14.613187 -13.468122 2.041768 19.977597 -0.744644 1.468415 0.022909 -0.003127 212245.000000 1 0 0
10.982187 0.018878 15.048068 18.629362 0.001719 0.630453 0.078747 -0.020591 11526.400000 1 0 0
19.633787 0.361678 7.461568 21.006937 0.018419 1.207673 0.181655 -0.031154 167061.000000 1 0 0
19.874487 1.196478 0.298868 19.912712 0.060129 1.555787 0.103430 -0.017107 121977.000000 1 0 0
17.767087 0.603178 3.058968 18.038583 0.033936 1.400394 0.059768 -0.013549 -15595.900000 1 0 0
10.337987 -8.526522 16.236868 21.052587 -0.689667 0.689989 0.088191 -0.003331 126711.000000 1 0 0
18.746087 3.204378 5.867568 19.902567 0.169300 1.271535 0.076511 -0.006733 77754.600000 1 0 0
15.716587 2.470478 7.277968 17.495233 0.155913 1.141757 0.083526 -0.007661 61233.000000 1 0 0
11.673187 -16.025322 2.091768 19.936141 -0.941249 1.465679 0.030620 0.002098 201879.000000 1 0 0
8.146487 -16.514822 7.135168 19.748803 -1.112536 1.201139 0.040571 -0.004166 381037.000000 1 0 0
6.262087 6.816278 7.128768 11.683095 0.827747 0.914511 -0.001545 0.003877 -1143730.000000 1 0 0
18.611287 2.476878 -6.500032 19.868703 0.132307 1.904082 0.109340 -0.008485 305386.000000 1 0 0
14.149287 4.568078 -7.257132 16.544958 0.312285 2.024871 0.026323 -0.010763 331503.000000 1 0 0
-10.482913 -4.022222 -13.953532 17.910075 0.366370 2.464007 0.023284 -0.002076 -154760.000000 1 0 0
7.861087 -13.818722 -10.629232 19.124182 -1.053579 2.160122 0.026536 -0.008697 112516.000000 1 0 0
2.046987 -16.138522 13.747268 21.298578 -1.444631 0.869178 0.013248 -0.015849 306583.000000 1 0 0
-9.331313 -7.805222 2.064968 12.339327 0.696578 1.402657 0.005854 0.002123 203654.000000 1 0 0
-13.939313 2.692678 -9.745432 17.220000 -0.190821 2.172365 0.027948 -0.002500 218234.000000 1 0 0
-12.865013 -5.213822 -13.000132 19.018305 0.385042 2.323424 0.041512 -0.008195 -6310.790000 1 0 0
-17.896713 -1.493222 -8.980132 20.078965 0.083243 2.034474 0.090147 -0.030877 369944.000000 1 0 0
-12.701213 14.373078 4.866968 19.788723 -0.847071 1.322300 0.041940 -0.029584 433952.000000 1 0 0
-16.289313 5.466578 8.695168 19.256976 -0.323783 1.102313 -0.017306 -0.040248 302271.000000 1 0 0
-12.904213 15.491678 -0.482232 20.167879 -0.876268 1.594710 0.037957 -0.017921 241157.000000 1 0 0
-16.012013 5.187978 -10.811732 20.004830 -0.313332 2.141775 0.049015 -0.006003 46606.500000 1 0 0
-18.314513 2.761178 -0.111832 18.521825 -0.149638 1.576834 0.075011 -0.011689 -163254.000000 1 0 0
-9.795513 15.241178 -0.383432 18.121606 -0.999570 1.591957 0.018027 -0.011331 -22498.500000 1 0 0
-18.693513 11.731778 2.395368 22.199546 -0.560456 1.462684 0.148544 -0.038383 -148834.000000 1 0 0
-8.651813 16.286678 -7.684832 19.979149 -1.082486 1.965617 0.067399 -0.030580 109770.000000 1 0 0
-14.924813 -1.777922 -13.167132 19.982103 0.118567 2.290213 0.082198 -0.028511 167609.000000 1 0 0
-19.170213 4.824278 -4.795732 20.341332 -0.246536 1.808800 0.100881 -0.007327 95346.700000 1 0 0
-16.854713 9.479978 -5.668532 20.151516 -0.512353 1.855940 0.051425 0.007855 46826.900000 1 0 0
-19.050813 1.255278 2.016768 19.198348 -0.065796 1.465553 0.089022 -0.022718 364149.000000 1 0 0
-14.604513 11.014478 -7.584332 19.802339 -0.646173 1.963840 0.042791 -0.023343 -52279.900000 1 0 0
-12.917713 4.010578 -13.381132 19.026475 -0.301036 2.350811 0.062445 -0.031932 -392519.000000 1 0 0
-14.075713 8.959278 -6.731632 17.991921 -0.566831 1.954274 0.018366 -0.007450 307677.000000 1 0 0
-6.317513 11.068878 -15.385232 19.978398 -1.052165 2.449784 0.004710 -0.035650 169683.000000 1 0 0
-15.191813 13.704278 3.065768 20.688097 -0.733965 1.422059 0.047325 -0.027095 242484.000000 1 0 0
-18.825313 8.287978 -4.837432 21.130162 -0.414722 1.801780 0.097506 -0.012799 375247.000000 1 0 0
-4.825713 16.471378 -11.298032 20.548463 -1.285796 2.152950 0.025921 -0.002357 10450.100000 1 0 0
-19.275313 -2.403922 -6.765232 20.569028 0.124074 1.905939 0.049053 -0.027810 -79462.200000 1 0 0
-10.658313 13.237478 -6.252432 18.108655 -0.892916 1.923326 0.018312 -0.032323 178381.000000 1 0 0
-19.503413 3.038178 4.196168 20.179729 -0.154535 1.361328 0.094417 -0.020401 42497.500000 1 0 0
-15.036113 12.793378 0.585068 19.750886 -0.704984 1.541170 0.015598 -0.001814 148424.000000 1 0 0
-17.264113 2.330978 -8.341932 19.315043 -0.134207 2.017381 0.038753 -0.017544 190731.000000 1 0 0
-15.841413 14.133778 -4.326832 21.666461 -0.728491 1.771850 0.027509 0.023107 235018.000000 1 0 0
-10.876013 15.651278 -8.592632 20.906542 -0.963504 1.994349 0.040728 -0.024148 140299.000000 1 0 0
-19.357413 1.386478 -6.848132 20.579812 -0.071503 1.910025 0.090179 -0.032073 261231.000000 1 0 0
-17.284413 10.403478 -0.499832 20.180018 -0.541815 1.595568 0.047659 -0.006092 168800.000000 1 0 0
-11.562213 5.756778 -14.665632 19.542416 -0.461963 2.419541 0.038867 -0.031328 293058.000000 1 0 0
-13.566413 12.489678 -5.112932 19.135875 -0.744098 1.841273 0.036630 -0.014484 426780.000000 1 0 0
-18.709213 7.168478 -0.807732 20.051787 -0.365899 1.611090 0.067834 -0.007063 30578.200000 1 0 0
-14.282013 8.879778 -10.903532 20.042788 -0.556256 2.146008 0.010255 0.009472 397031.000000 1 0 0
-18.447813 11.439978 4.873168 22.247307 -0.555087 1.349960 0.076630 -0.038005 64933.700000 1 0 0
-8.217713 11.824178 -13.305632 19.605658 -0.963439 2.316737 -0.004377 -0.014187 521709.000000 1 0 0
-21.027213 -1.455722 -5.737232 21.844419 0.069120 1.836554 0.082811 -0.034780 239735.000000 1 0 0
-10.989513 13.930478 -3.754132 18.136183 -0.902871 1.779301 0.019852 0.015975 599381.000000 1 0 0
-18.947513 -4.956322 3.771268 19.944820 0.255849 1.380566 0.079783 -0.016467 64153.000000 1 0 0
-11.515513 11.364478 -12.724832 20.583483 -0.778797 2.237255 0.039101 -0.019605 152443.000000 1 0 0
-14.959213 11.570378 -10.220832 21.496909 -0.658348 2.066279 0.042248 -0.008486 284873.000000 1 0 0
-12.693713 9.523378 -14.003132 21.163950 -0.643657 2.293814 0.067929 -0.026309 363641.000000 1 0 0
-18.224613 -5.019422 -3.155032 19.164690 0.268757 1.736177 0.020825 -0.014740 -210835.000000 1 0 0
-9.506513 12.258478 -11.499632 19.310246 -0.911171 2.208709 0.022114 -0.018721 -83135.500000 1 0 0
-15.234513 7.587178 -8.280032 18.926558 -0.462067 2.023593 0.000308 0.006133 -134442.000000 1 0 0
-14.633413 8.833178 1.958368 17.204564 -0.543085 1.456721 0.014225 -0.003593 50932.500000 1 0 0
-19.765413 6.171378 8.037668 22.211744 -0.302640 1.200528 0.093598 -0.025786 221275.000000 1 0 0
-18.808513 5.675178 3.237968 19.911108 -0.293047 1.407450 0.036915 -0.010504 272837.000000 1 0 0
-14.921613 12.524878 5.797068 20.325676 -0.698295 1.281572 0.038808 -0.019671 35035.900000 1 0 0
18.302187 6.467778 5.796168 20.258276 0.339690 1.280628 0.103331 -0.021683 239373.000000 1 0 0
18.236187 7.646778 0.607068 19.783838 0.397049 1.540106 0.050625 -0.005463 -59848.300000 1 0 0
15.933487 5.319178 8.805568 18.965961 0.322203 1.087972 0.085897 -0.001497 71645.000000 1 0 0
11.932387 13.419978 10.547068 20.825905 0.844008 1.039745 0.049265 -0.022926 106502.000000 1 0 0
15.430687 12.571178 4.114568 20.324131 0.683632 1.366940 0.079434 -0.010921 242140.000000 1 0 0
4.940587 10.459978 14.187568 18.305945 1.129527 0.684041 0.025451 -0.014324 173276.000000 1 0 0
12.443787 14.445578 -4.946632 19.697506 0.859707 1.824644 0.087482 0.011577 379980.000000 1 0 0
17.878287 9.530078 -2.559632 20.420755 0.489739 1.696472 0.035530 -0.005372 -901.110000 1 0 0
14.299887 7.743778 9.429268 18.797977 0.496315 1.045337 0.084826 -0.015283 133720.000000 1 0 0
4.646187 18.918978 -1.434232 19.533863 1.329979 1.644285 0.016107 -0.028003 596043.000000 1 0 0
-4.640013 18.905378 3.102968 19.712216 -1.330120 1.412725 0.007219 -0.027296 347706.000000 1 0 0
8.060787 13.415278 12.213068 19.852078 1.029740 0.908152 0.070385 -0.002863 -68635.700000 1 0 0
0.366087 16.806378 -10.283132 19.706120 1.549017 2.119784 0.027559 -0.003605 73020.700000 1 0 0
10.549887 9.549178 15.862368 21.309660 0.735650 0.731199 0.070948 -0.013785 172320.000000 1 0 0
-1.535313 12.823478 0.215568 12.916859 -1.451637 1.554107 -0.004113 0.003109 374116.000000 1 0 0
-4.552913 19.224578 -2.825932 19.957437 -1.338253 1.712872 0.033840 -0.004912 113063.000000 1 0 0
5.657787 18.568378 6.207768 20.379686 1.275033 1.261272 0.053202 -0.020751 173079.000000 1 0 0
11.226487 17.318378 -1.804932 20.717577 0.995658 1.658028 0.118682 -0.029405 583589.000000 1 0 0
18.456887 10.630778 3.005468 21.510531 0.522570 1.430617 0.078014 -0.019247 349995.000000 1 0 0
11.570587 16.972478 5.894868 21.370376 0.972440 1.291330 0.055272 -0.013248 -128153.000000 1 0 0
18.009887 7.218278 -5.413132 20.143524 0.381192 1.842869 0.051814 0.005358 472099.000000 1 0 0
-0.462413 15.728078 11.836468 19.689800 -1.541404 0.925860 0.014641 0.028283 222233.000000 1 0 0
1.063087 20.206878 -1.765632 20.311709 1.518235 1.657833 0.013040 -0.020857 251422.000000 1 0 0
14.076887 9.696978 -1.451032 17.155047 0.603209 1.655481 0.036017 -0.012973 -62604.000000 1 0 0
10.274287 16.985678 2.001468 19.951945 1.026797 1.470313 0.076283 -0.039030 358730.000000 1 0 0
0.333487 17.687478 -0.181932 17.691557 1.551944 1.581080 0.001635 -0.012112 59234.200000 1 0 0
-0.197413 20.871078 0.088968 20.872201 -1.561338 1.566534 0.023053 -0.024647 201929.000000 1 0 0
6.074887 17.155378 -0.340232 18.202390 1.230465 1.589489 0.030299 -0.037024 58151.700000 1 0 0
6.223287 18.383878 -2.798632 19.609401 1.244386 1.714004 0.033188 -0.024862 -18033.900000 1 0 0
10.564387 9.794078 13.060368 19.444882 0.747579 0.834348 0.052379 -0.001470 199807.000000 1 0 0
12.268587 14.453378 8.270668 20.683866 0.866977 1.159431 0.063190 -0.030263 181661.000000 1 0 0
0.066087 17.765178 7.146768 19.148948 1.567076 1.188319 0.020393 -0.008399 173549.000000 1 0 0
7.697587 17.837278 -7.857232 20.956083 1.163395 1.955126 0.068918 -0.010282 106946.000000 1 0 0
-1.669413 18.507878 9.162768 20.719189 -1.480840 1.112706 0.061709 -0.022765 219629.000000 1 0 0
16.135087 7.054578 -8.064032 19.368447 0.412175 2.000222 0.075335 -0.005199 -183626.000000 1 0 0
-5.219613 19.587378 -6.817132 21.386515 -1.310370 1.895216 0.043603 -0.015580 289269.000000 1 0 0
3.997087 15.584678 9.806768 18.842282 1.319732 1.023400 0.035443 -0.012807 73779.900000 1 0 0
9.302487 15.009678 7.479768 19.177425 1.015970 1.170132 0.038683 -0.010611 201872.000000 1 0 0
-2.823313 19.532578 6.546068 20.792876 -1.427247 1.250527 0.022260 -0.008298 51129.000000 1 0 0
4.985087 18.034478 8.145268 20.406834 1.301111 1.160213 0.053116 -0.019656 99681.100000 1 0 0
14.514687 12.163578 -6.313632 19.962232 0.697497 1.892601 0.068626 -0.016043 58801.800000 1 0 0
11.882787 6.832678 15.431468 20.640162 0.521839 0.726291 0.124947 -0.035729 339740.000000 1 0 0
17.348887 9.347278 4.834168 20.291000 0.494190 1.330241 0.103208 -0.023232 134353.000000 1 0 0
5.093287 14.855478 12.249968 19.917040 1.240500 0.908347 0.022869 -0.024306 259315.000000 1 0 0
15.788687 10.711678 -3.680032 19.431040 0.596109 1.761337 0.064130 -0.022194 177714.000000 1 0 0
15.689887 13.722678 6.613768 21.868387 0.718614 1.263550 0.106021 -0.012895 547779.000000 1 0 0
13.001187 13.663078 -8.125232 20.536065 0.810216 1.977579 0.194270 -0.049183 544530.000000 1 0 0
-8.590513 15.391178 9.568768 20.056086 -1.061721 1.073444 0.047048 -0.022435 149819.000000 1 0 0
-3.970213 17.647978 -8.086232 19.814158 -1.349513 1.991172 0.015802 0.036714 -3173.300000 1 0 0
2.622787 20.327578 -4.014132 20.885466 1.442479 1.764197 0.022504 -0.005877 141999.000000 1 0 0
7.140987 16.513978 8.919368 20.081342 1.162657 1.110558 0.049457 -0.021954 444220.000000 1 0 0
13.670187 15.032678 -1.869132 20.404634 0.832831 1.662528 0.148551 -0.038685 428621.000000 1 0 0
13.295287 16.489978 4.329368 21.620071 0.892247 1.369186 0.102609 -0.032756 398572.000000 1 0 0
2.244487 18.430778 0.931668 18.590301 1.449614 1.520660 0.010894 -0.028454 -71580.700000 1 0 0
-7.542413 17.426678 1.164468 19.024539 -1.162331 1.509549 0.012027 0.003677 287727.000000 1 0 0
0.784887 19.632378 -6.002532 20.544505 1.530838 1.867294 0.035216 -0.009060 397247.000000 1 0 0
-7.536113 18.071878 -6.302832 20.569673 -1.175715 1.882220 0.066834 -0.019766 123102.000000 1 0 0
-7.184613 18.497978 -1.492932 19.900319 -1.200330 1.645887 0.040066 -0.012770 138504.000000 1 0 0
-14.397713 -9.558622 8.919868 19.448019 0.586084 1.094319 0.052948 -0.011784 416862.000000 1 0 0
-13.046313 -13.696522 7.684168 20.416842 0.809707 1.184928 0.050892 -0.009626 102529.000000 1 0 0
-3.720313 -15.913722 12.493568 20.571254 1.341141 0.918099 0.041909 -0.017088 170771.000000 1 0 0
-2.050613 -15.080922 15.032068 21.391640 1.435651 0.791600 0.038828 -0.019978 450492.000000 1 0 0
-7.710813 -13.702422 13.417868 20.670079 1.058229 0.864337 0.047000 -0.017985 247216.000000 1 0 0
-9.953213 -11.209422 11.574768 18.939188 0.844688 0.913278 0.060844 -0.023980 -13058.100000 1 0 0
-7.509113 -10.501322 13.096768 18.389939 0.950032 0.778211 0.042231 -0.016259 401237.000000 1 0 0
-14.945813 -11.965222 8.199968 20.827466 0.675091 1.166133 0.047104 0.008556 373316.000000 1 0 0
-4.556413 -12.470822 13.304468 18.796041 1.220499 0.784370 0.027455 -0.021243 481356.000000 1 0 0
3.490687 -12.964622 13.681068 19.168671 -1.307786 0.776001 0.000984 0.005475 360287.000000 1 0 0
6.543187 -13.487222 14.872668 21.116692 -1.119107 0.789348 0.035146 -0.001329 316286.000000 1 0 0
7.426887 -8.662822 16.394268 19.974362 -0.862063 0.608047 0.062935 -0.014485 714239.000000 1 0 0
-5.096413 13.598178 13.495168 19.824314 -1.212213 0.822026 0.014021 -0.005564 487200.000000 1 0 0
-13.876213 -1.925422 17.339568 22.291638 0.137877 0.679558 0.065216 -0.018800 421822.000000 1 0 0
-10.218213 9.334178 13.017568 18.999890 -0.740215 0.816002 0.004946 -0.014761 313739.000000 1 0 0
-7.356313 -8.333022 17.236368 20.509680 0.847571 0.572773 0.055631 -0.018472 110073.000000 1 0 0
-5.158513 2.002878 18.401668 19.215700 -0.370351 0.292114 0.026921 -0.007154 603187.000000 1 0 0
-16.100613 -3.419322 14.421068 21.883526 0.209263 0.851319 0.081814 -0.028454 297682.000000 1 0 0
-14.422313 2.724078 12.287668 19.141852 -0.186680 0.873788 0.032015 -0.014769 242757.000000 1 0 0
-13.942513 10.737778 10.283568 20.382475 -0.656271 1.041959 -0.030242 0.016364 -260.083000 1 0 0
-5.056213 11.241278 15.529468 19.826648 -1.148117 0.670900 0.032775 -0.009629 288125.000000 1 0 0
-13.454013 12.670778 7.828868 20.071130 -0.755427 1.170104 0.027166 -0.038638 182370.000000 1 0 0
-3.707113 -6.489122 18.674368 20.114258 1.051761 0.380674 0.039474 -0.016853 263009.000000 1 0 0
0.508987 -2.844522 18.241368 18.468835 -1.393734 0.157109 0.006350 -0.006191 223681.000000 1 0 0
-3.950613 6.524778 21.346868 22.668675 -1.026358 0.343178 0.034187 -0.001525 214987.000000 1 0 0
2.323487 -10.565322 16.269968 19.538077 -1.354326 0.586774 0.008384 -0.010751 214947.000000 1 0 0
-15.374413 -0.263722 13.806368 20.665379 0.017152 0.839155 0.037411 -0.015143 47459.300000 1 0 0
-13.630013 -6.155622 8.861168 17.383591 0.424202 1.035910 0.028650 -0.007179 266641.000000 1 0 0
9.659587 2.187078 16.813968 19.514109 0.222661 0.532321 0.082449 -0.012213 436931.000000 1 0 0
-7.813213 12.260578 11.759668 18.699140 -1.003427 0.890674 0.026344 -0.018273 281220.000000 1 0 0
-1.835513 7.471278 19.313668 20.789585 -1.329892 0.379076 0.038350 -0.037927 381644.000000 1 0 0
1.233787 -13.355922 15.225768 20.291054 -1.478680 0.722177 -0.009599 -0.020743 435232.000000 1 0 0
-3.363213 -11.637622 17.376568 21.182317 1.289466 0.608802 0.059087 -0.036527 324662.000000 1 0 0
-2.517813 8.795178 16.806868 19.135447 -1.291981 0.498479 0.013965 -0.009625 557791.000000 1 0 0
-5.491213 -9.574222 20.052668 22.889487 1.050059 0.503157 0.120026 -0.035143 204529.000000 1 0 0
-6.698613 -2.554022 19.117768 20.417725 0.364262 0.358763 0.042813 -0.020837 262841.000000 1 0 0
-11.083013 -8.072922 15.933468 21.020957 0.629536 0.710585 0.107791 -0.035205 232199.000000 1 0 0
-0.159413 6.542678 17.864668 19.025730 -1.546436 0.351161 0.009093 -0.009583 99172.100000 1 0 0
-6.094013 -11.677922 18.083868 22.372687 1.089829 0.629535 0.103311 -0.050138 372567.000000 1 0 0
0.255987 3.595378 18.717868 19.061764 1.499717 0.190240 0.011984 -0.010388 99165.300000 1 0 0
-18.756813 -0.166122 7.339968 20.142511 0.008856 1.197806 0.088589 -0.029763 228413.000000 1 0 0
-1.589213 -8.755522 17.325968 19.477523 1.391241 0.474467 0.016999 -0.017086 308893.000000 1 0 0
5.417487 3.612178 14.422668 15.824359 0.588069 0.424070 0.007722 -0.007003 -182472.000000 1 0 0
-14.710913 -7.511822 10.735068 19.699749 0.472115 0.994486 0.092885 0.000030 189226.000000 1 0 0
3.611187 8.230478 17.226168 19.429933 1.157331 0.480900 0.023335 -0.005164 254851.000000 1 0 0
6.259387 4.215678 16.881868 18.491872 0.592716 0.420379 0.046387 -0.052233 228980.000000 1 0 0
4.316387 -9.757822 17.733768 20.696203 -1.154321 0.541647 -0.004989 -0.007460 383725.000000 1 0 0
-4.430413 -0.380622 20.173268 20.657545 0.085701 0.216958 0.033024 -0.003874 732041.000000 1 0 0
-11.456413 2.171078 16.652968 20.329395 -0.187287 0.610856 0.051168 -0.019399 121556.000000 1 0 0
-16.622013 -4.413922 8.714568 19.279982 0.259557 1.101789 0.050749 -0.027318 60235.000000 1 0 0
-13.241613 -8.543422 13.801168 20.947616 0.572990 0.851518 0.087022 -0.050481 218849.000000 1 0 0
-14.859913 6.267478 12.792468 20.585080 -0.399132 0.900212 0.049019 -0.028409 508438.000000 1 0 0
1.186187 9.631378 17.270568 19.810174 1.448255 0.511925 0.010686 -0.009328 128021.000000 1 0 0
-3.740013 -10.321922 14.911468 18.517063 1.223174 0.634644 0.031658 -0.022745 637862.000000 1 0 0
-17.224813 -2.988822 6.907068 18.797202 0.171808 1.194529 0.039330 -0.024110 58310.100000 1 0 0
-0.632713 -0.668722 20.905868 20.926127 0.813060 0.044007 0.029950 -0.012260 436107.000000 1 0 0
-1.889513 2.628078 20.314768 20.571019 -0.947451 0.158006 0.021805 -0.012028 -239892.000000 1 0 0
-8.015813 1.625278 16.319368 18.254220 -0.200047 0.464590 0.003609 0.005324 533619.000000 1 0 0
2.992987 -1.714222 19.158468 19.466469 -0.520139 0.178124 0.023921 0.005300 155910.000000 1 0 0
-12.550313 4.313378 14.273568 19.489749 -0.331040 0.749011 0.012111 -0.015025 263662.000000 1 0 0
-13.697013 -5.225522 13.173168 19.709048 0.364464 0.838765 0.076182 -0.030258 1683.980000 1 0 0
-17.468213 -0.969122 9.605168 19.958379 0.055422 1.068705 0.073702 -0.035031 287420.000000 1 0 0
-7.608213 7.374478 14.930468 18.308104 -0.769799 0.617184 0.004637 -0.009701 114749.000000 1 0 0
-9.588513 0.674578 14.159068 17.113557 -0.070237 0.596406 0.022249 -0.008380 272989.000000 1 0 0
7.953887 -0.740922 14.888468 16.896146 -0.092884 0.492454 0.042656 -0.009835 64466.500000 1 0 0
4.190487 6.243978 18.452168 19.925610 0.979714 0.386980 0.020427 -0.009637 -168532.000000 1 0 0
2.015787 1.011478 19.979568 20.106457 0.465069 0.112406 0.022243 -0.004181 216859.000000 1 0 0
-7.140313 7.010278 17.519368 20.175636 -0.776209 0.518945 0.011828 -0.004005 558423.000000 1 0 0
7.518287 -3.262522 16.832268 18.721483 -0.409423 0.453114 0.045693 -0.000538 303111.000000 1 0 0
-16.455013 2.402178 9.353968 19.079691 -0.144961 1.058411 0.042785 -0.015230 327543.000000 1 0 0
3.633487 -5.841422 19.155968 20.353760 -1.014342 0.344776 0.038336 -0.020378 197899.000000 1 0 0
-4.050713 -3.710222 20.579368 21.299868 0.741554 0.260841 0.040195 -0.016276 365199.000000 1 0 0
-10.006913 5.754878 14.348768 18.415864 -0.521902 0.677484 0.005746 -0.010143 87328.200000 1 0 0
5.744087 2.649378 19.967768 20.945775 0.432158 0.306791 0.086512 -0.024278 -102446.000000 1 0 0
-7.429713 11.779878 14.024068 19.764631 -1.008100 0.781932 0.038795 -0.021743 185893.000000 1 0 0
-14.117513 5.220678 10.266168 18.219601 -0.354205 0.972218 0.010388 -0.004039 350500.000000 1 0 0
0.506887 -5.614122 20.552068 21.311095 -1.480753 0.267694 0.035369 -0.016959 268088.000000 1 0 0
-5.908813 -8.465122 13.796268 17.231058 0.961401 0.642396 0.013800 -0.005529 325418.000000 1 0 0
-12.942113 9.962678 6.362768 17.528207 -0.656045 1.199309 -0.007202 -0.020497 252180.000000 1 0 0
-19.978513 2.601278 7.480068 21.490906 -0.129475 1.215298 0.107797 -0.033857 -26338.000000 1 0 0
-16.597513 9.062078 5.995968 19.838103 -0.499759 1.263749 0.041942 -0.014869 112294.000000 1 0 0
-12.622613 8.136078 14.175568 20.651219 -0.572544 0.814231 0.018208 -0.011183 179272.000000 1 0 0
-16.547413 8.288478 10.491368 21.274034 -0.464361 1.055085 0.060667 -0.043206 321265.000000 1 0 0
2.632387 10.722378 14.787868 18.454806 1.330054 0.641328 0.026532 -0.041134 425366.000000 1 0 0
1.641387 14.299578 11.508468 18.428698 1.456511 0.896323 0.024183 -0.060120 497194.000000 1 0 0
8.991287 5.205678 16.869968 19.812575 0.524812 0.551999 0.072920 -0.011851 167219.000000 1 0 0
-0.382313 13.335078 13.380168 18.894426 -1.542134 0.783916 0.008409 0.001125 212127.000000 1 0 0
3.084087 14.309278 14.942668 20.917704 1.358513 0.775094 0.005924 0.019298 189463.000000 1 0 0
-3.633113 -4.518822 -14.002832 15.155810 0.893624 2.749013 0.004747 -0.005969 90525.300000 1 0 0
5.090687 -12.331122 16.724768 21.393679 -1.179277 0.673310 -0.010032 0.014943 122703.000000 1 0 0
8.767887 -14.025722 7.123068 18.009298 -1.012104 1.164161 0.024064 -0.005112 283674.000000 1 0 0
-0.354313 15.358878 0.444768 15.369401 -1.547731 1.541854 0.001307 -0.008148 -591905.000000 1 0 0
-14.072513 7.919078 8.205668 18.112990 -0.512567 1.100639 -0.002992 -0.008600 86939.200000 1 0 0
-15.975213 -9.913122 4.335668 19.294440 0.555380 1.344150 0.032873 -0.013580 176324.000000 1 0 0
9.083687 -10.481222 11.503368 18.019347 -0.856708 0.878392 0.027585 -0.003021 210821.000000 1 0 0
-26.814213 5.731278 30.718873 41.176434 -0.210572 0.728715 0.071300 -0.034346 862995.000000 0 0 1
-25.543403 5.066678 30.488513 40.095961 -0.195814 0.706885 0.070788 -0.033340 712203.000000 0 0 1
-24.707013 5.249278 31.577098 40.436425 -0.209348 0.674679 0.060171 -0.023796 -785112.000000 0 0 1
-23.294913 4.767478 31.235803 39.256301 -0.201870 0.650652 0.067357 -0.028930 -673527.000000 0 0 1
-23.054813 3.390378 31.469348 39.157871 -0.146011 0.637388 0.044142 -0.028192 264065.000000 0 0 1
-21.873213 2.847578 30.889803 37.956897 -0.129458 0.620113 0.068018 -0.024233 371574.000000 0 0 1
-21.372313 1.533778 31.531184 38.122746 -0.071642 0.596875 0.058036 -0.025192 -254282.000000 0 0 1
-22.311413 0.509478 31.403535 38.525845 -0.022831 0.617844 0.048851 -0.021991 -92995.700000 0 0 1
-22.124613 -0.537722 32.326457 39.176364 0.024299 0.600325 0.047530 -0.021665 -27885.800000 0 0 1
-23.111613 -1.705722 32.038280 39.541213 0.073670 0.626217 0.058607 -0.036050 -173940.000000 0 0 1
-22.670113 -2.505222 30.941233 38.439173 0.110061 0.635222 0.117597 -0.041036 113892.000000 0 0 1
-22.755213 -3.897322 31.108303 38.739067 0.169626 0.638448 0.108734 -0.040088 -44896.900000 0 0 1
-24.146013 -4.591622 30.980333 39.546099 0.187917 0.670682 0.064529 -0.030477 917775.000000 0 0 1
-25.221993 -4.213522 31.861631 40.854207 0.165529 0.676312 0.034906 -0.022720 544658.000000 0 0 1
-25.061733 -4.612622 33.165465 41.824811 0.182013 0.655142 0.033180 -0.029594 -626647.000000 0 0 1
-26.162633 -4.194922 -33.219382 42.492448 0.158987 2.468298 0.039912 -0.022499 -24622.900000 0 0 1
-26.051863 -4.564322 -31.881102 41.423873 0.173441 2.449060 0.053454 -0.032554 165400.000000 0 0 1
-27.269323 -4.286222 -31.215092 41.669769 0.155906 2.417509 0.068895 -0.026626 73129.900000 0 0 1
-27.253113 -4.869922 -29.825252 40.693906 0.176826 2.393396 0.065033 -0.028834 -523252.000000 0 0 1
-27.720183 -6.192522 -29.732912 41.119362 0.219785 2.379059 0.062451 -0.018981 566930.000000 0 0 1
-27.297123 -6.838522 -28.523952 40.068868 0.245470 2.362958 0.053193 -0.015643 -71865.900000 0 0 1
-27.419403 -8.330122 -28.790532 40.621538 0.294943 2.358522 0.058758 -0.011124 -95035.000000 0 0 1
-28.758153 -8.710322 -28.576922 41.467355 0.294099 2.331102 0.066469 -0.013429 -177084.000000 0 0 1
-28.870753 -10.117222 -28.510362 41.817692 0.337059 2.320986 0.078150 -0.005242 65194.800000 0 0 1
-30.257413 -10.647222 -28.116342 42.654462 0.338356 2.290505 0.118896 -0.004478 44809.900000 0 0 1
-30.354283 -10.732422 -26.707702 41.831433 0.339853 2.263292 0.140291 -0.008088 -496791.000000 0 0 1
-31.715773 -10.880522 -26.424302 42.690980 0.330482 2.238223 0.138507 -0.016108 -181218.000000 0 0 1
-31.910593 -11.632422 -25.063432 42.211075 0.349562 2.206525 0.159736 -0.013692 191059.000000 0 0 1
-31.257613 -10.972222 -23.968332 40.888984 0.337588 2.197133 0.157445 -0.013997 291593.000000 0 0 1
-31.250303 -11.770922 -22.710732 40.384569 0.360230 2.168035 0.169802 -0.021239 12054.600000 0 0 1
-30.520063 -10.988422 -21.559432 38.949054 0.345590 2.157392 0.188076 -0.034080 134122.000000 0 0 1
-30.524493 -11.617022 -20.249432 38.428367 0.363654 2.125792 0.191917 -0.031146 178405.000000 0 0 1
-29.565133 -12.643122 -20.022832 37.879539 0.404101 2.127738 0.181457 -0.034778 -59368.700000 0 0 1
-29.301843 -12.889722 -18.549132 36.997476 0.414419 2.095969 0.161260 -0.040896 115799.000000 0 0 1
-28.608663 -11.818922 -17.935732 35.774754 0.391769 2.095957 0.151293 -0.041623 29596.900000 0 0 1
-28.215363 -12.086422 -16.641432 34.915979 0.404716 2.067595 0.143643 -0.047943 -206801.000000 0 0 1
-27.779333 -10.806422 -15.954532 33.808537 0.370996 2.062250 0.136618 -0.038079 -556186.000000 0 0 1
-26.481793 -10.374622 -16.254732 32.758731 0.373387 2.090007 0.121515 -0.037702 -231296.000000 0 0 1
-26.158333 -9.161022 -15.635232 31.822055 0.336866 2.084416 0.118425 -0.041420 133765.000000 0 0 1
-24.683313 -8.725022 -15.868332 30.613656 0.339770 2.115707 0.112815 -0.040945 290405.000000 0 0 1
-23.753113 -9.360122 -15.027332 29.625040 0.375374 2.102788 0.118430 -0.042461 -267914.000000 0 0 1
-22.487813 -8.755122 -15.143832 28.490166 0.371272 2.131221 0.141122 -0.064305 -283845.000000 0 0 1
-21.594913 -8.955922 -13.907832 27.202511 0.393134 2.107458 0.118114 -0.035967 210445.000000 0 0 1
-20.680513 -10.043322 -14.190532 27.017090 0.452095 2.123797 0.105027 -0.028169 429955.000000 0 0 1
-19.560913 -10.038722 -13.329332 25.711405 0.474154 2.115800 0.129470 -0.030851 276513.000000 0 0 1
-18.363713 -10.852622 -13.891832 25.455616 0.533762 2.148054 0.129774 -0.023266 336581.000000 0 0 1
-17.809513 -10.391422 -15.134132 25.577380 0.528181 2.203962 0.136987 -0.044644 366152.000000 0 0 1
-18.594713 -10.822122 -16.224532 26.946561 0.527079 2.216925 0.120393 -0.049179 25827.600000 0 0 1
-17.958613 -10.414322 -17.603532 27.218638 0.525514 2.274106 0.137265 -0.048111 212467.000000 0 0 1
-18.821413 -10.881222 -18.627732 28.629338 0.524183 2.279239 0.099529 -0.039926 669638.000000 0 0 1
-18.459613 -10.284022 -19.871532 29.006831 0.508285 2.325488 0.109505 -0.045172 -2761.430000 0 0 1
-19.502813 -10.700522 -20.932032 30.545227 0.501818 2.325784 0.122319 -0.036136 -1340.680000 0 0 1
-20.734813 -10.034022 -20.856132 31.073982 0.450702 2.306591 0.094090 -0.039431 748929.000000 0 0 1
-21.740313 -10.630122 -21.739532 32.530724 0.454776 2.302686 0.099148 -0.019945 1285200.000000 0 0 1
-22.702613 -9.587322 -22.377532 33.287826 0.399582 2.308032 0.075730 -0.017076 16006.700000 0 0 1
-21.973913 -8.823822 -23.284032 33.209319 0.381850 2.347777 0.078676 -0.030707 778297.000000 0 0 1
-22.850913 -8.165922 -24.233532 34.294469 0.343213 2.355522 0.072924 -0.026925 454488.000000 0 0 1
-22.000213 -7.415422 -25.285282 34.327006 0.325102 2.398826 0.080610 -0.029295 99864.000000 0 0 1
-21.330613 -8.305122 -26.171012 34.769124 0.371294 2.422963 0.089530 -0.037711 117740.000000 0 0 1
-20.728813 -7.624922 -27.243772 35.072015 0.352480 2.460357 0.094614 -0.052758 -146085.000000 0 0 1
-19.592513 -8.466722 -27.851082 35.088955 0.407903 2.487710 0.112316 -0.056335 -16269.100000 0 0 1
-20.110113 -9.563722 -28.640112 36.278609 0.443912 2.480707 0.107876 -0.054275 580706.000000 0 0 1
-19.091613 -10.333322 -29.257252 36.431498 0.496100 2.503235 0.089104 -0.052094 -76382.100000 0 0 1
-19.635613 -11.307122 -30.273602 37.814009 0.522471 2.499079 0.082175 -0.038104 -344153.000000 0 0 1
-20.447813 -10.757922 -31.265602 38.876520 0.484321 2.505172 0.093552 -0.034190 140895.000000 0 0 1
-20.784413 -11.784722 -32.207192 40.102054 0.515800 2.503328 0.065430 -0.030009 22813.100000 0 0 1
-21.379713 -11.237822 -33.522652 41.317660 0.483941 2.517236 0.066039 -0.031210 -48613.600000 0 0 1
-20.457813 -10.445222 33.156387 40.335725 0.472071 0.605864 0.062500 -0.030187 -56271.100000 0 0 1
-20.704113 -10.553122 31.761337 39.354938 0.471386 0.631660 0.074224 -0.033184 160325.000000 0 0 1
-20.002013 -11.733622 30.908753 38.640774 0.530525 0.643668 0.075982 -0.031585 1032580.000000 0 0 1
-18.559313 -11.660122 30.959033 37.932417 0.560942 0.616057 0.075452 -0.027653 979157.000000 0 0 1
-17.924813 -12.556522 30.094273 37.210622 0.611069 0.628764 0.075859 -0.025702 -115880.000000 0 0 1
-18.044513 -14.088722 30.342413 38.009979 0.662909 0.646371 0.067224 -0.018383 -1831890.000000 0 0 1
-19.318613 -14.566822 30.125783 38.638891 0.646076 0.676649 0.060030 -0.023427 -881045.000000 0 0 1
-19.579413 -15.930722 30.538013 39.619585 0.683007 0.690731 0.062827 -0.022672 -173720.000000 0 0 1
-19.934213 -16.080622 32.027697 41.008933 0.678804 0.674542 0.038886 -0.034364 493416.000000 0 0 1
-18.825913 -15.677922 32.876803 41.001175 0.694414 0.640411 0.069120 -0.029452 932130.000000 0 0 1
-19.258713 -15.350422 -33.180042 41.321286 0.672948 2.503070 0.060390 -0.026956 -290531.000000 0 0 1
-18.090413 -14.915922 -32.322462 39.931058 0.689515 2.514023 0.080794 -0.024593 -735022.000000 0 0 1
-17.678113 -13.593422 -32.586632 39.486522 0.655513 2.541458 0.076572 -0.022601 83300.300000 0 0 1
-16.350213 -13.344522 -32.141912 38.451375 0.684522 2.560586 0.083965 -0.022962 474089.000000 0 0 1
-16.176013 -13.069922 -30.678502 37.062876 0.679589 2.545868 0.097486 -0.032050 -486805.000000 0 0 1
-16.532413 -14.207622 -29.946812 37.040367 0.709914 2.512380 0.096149 -0.035237 -322357.000000 0 0 1
-16.820413 -13.886622 -28.628442 35.991003 0.690146 2.490519 0.074245 -0.029245 -241637.000000 0 0 1
-16.982113 -15.193122 -27.858442 35.990498 0.729854 2.456009 0.082051 -0.029343 -604596.000000 0 0 1
-15.817513 -15.739822 -27.380382 35.321680 0.782936 2.457784 0.110452 -0.050935 -699030.000000 0 0 1
-14.946713 -16.385322 -28.311302 35.964049 0.831281 2.477070 0.118506 -0.051672 -481576.000000 0 0 1
-13.623713 -16.858622 -27.733032 35.198576 0.891126 2.478191 0.160195 -0.049307 -334586.000000 0 0 1
-12.636313 -15.870422 -27.470802 34.149549 0.898366 2.505506 0.140867 -0.044197 -49064.300000 0 0 1
-11.555313 -16.461422 -26.748482 33.466177 0.958754 2.496874 0.172932 -0.048009 1505340.000000 0 0 1
-10.167913 -16.040422 -27.416222 33.351624 1.005828 2.535773 0.142236 -0.050455 1139280.000000 0 0 1
-9.847313 -14.700722 -27.140352 32.398758 0.980592 2.563849 0.143079 -0.048168 -84996.100000 0 0 1
-8.503113 -14.408222 -27.480362 32.172506 1.037646 2.594723 0.164032 -0.057256 309990.000000 0 0 1
-8.212513 -12.941422 -27.854562 31.793119 1.005330 2.638549 0.136973 -0.058786 18152.900000 0 0 1
-9.096213 -12.509422 -28.896252 32.775298 0.942081 2.650138 0.166675 -0.054023 302140.000000 0 0 1
-8.800113 -11.264022 -29.530282 32.807892 0.907588 2.690788 0.142300 -0.056889 -922621.000000 0 0 1
-7.587613 -11.178722 -30.416862 33.282446 0.974472 2.723589 0.136850 -0.041720 -485665.000000 0 0 1
-6.343513 -11.396922 -29.703362 32.441019 1.062901 2.727822 0.117083 -0.040166 1085340.000000 0 0 1
-5.213413 -11.106122 -30.513392 32.887577 1.131912 2.759293 0.116049 -0.035317 90357.700000 0 0 1
-4.957313 -9.607022 -30.885012 32.722375 1.094423 2.804892 0.104046 -0.030294 -544127.000000 0 0 1
-3.685913 -9.400122 -31.523002 33.100573 1.197107 2.831614 0.134787 -0.042723 793090.000000 0 0 1
-3.644913 -8.029822 -31.905582 33.101807 1.144686 2.871935 0.142598 -0.039717 -418984.000000 0 0 1
-2.286913 -7.508522 -32.342762 33.281559 1.275147 2.903511 0.142893 -0.041457 -579715.000000 0 0 1
-1.820213 -7.911322 -33.589652 34.556721 1.344655 2.904458 0.152397 -0.049402 356657.000000 0 0 1
-0.510413 -7.426722 33.480573 34.298184 1.502178 0.218786 0.167506 -0.038840 726292.000000 0 0 1
0.016387 -8.015422 32.148030 33.132206 -1.568752 0.244347 0.149336 -0.040875 -101041.000000 0 0 1
-0.626813 -7.586622 30.966563 31.888520 1.488363 0.241049 0.137119 -0.038719 -12691.600000 0 0 1
-0.034613 -8.258122 29.859733 30.980662 1.566605 0.269822 0.108321 -0.037691 249517.000000 0 0 1
-0.412313 -7.516322 28.558733 29.534155 1.515996 0.257722 0.089669 -0.035727 184767.000000 0 0 1
0.312987 -6.314822 28.368443 29.064471 -1.521273 0.219289 0.108690 -0.039159 -151081.000000 0 0 1
0.123787 -5.734822 27.121863 27.721813 -1.549215 0.208424 0.102662 -0.034279 -544122.000000 0 0 1
-1.062213 -4.823822 26.866603 27.316879 1.354054 0.181818 0.070053 -0.019860 -817819.000000 0 0 1
-2.308413 -5.395022 26.939213 27.570930 1.166490 0.214478 0.037840 -0.006151 -1869320.000000 0 0 1
-3.362713 -4.569722 26.593303 27.191799 0.936401 0.210197 0.032802 -0.008642 -94205.700000 0 0 1
-4.690213 -5.208722 27.086323 27.978523 0.837731 0.253218 0.032159 0.000445 69174.900000 0 0 1
-5.019613 -6.408322 26.435973 27.660870 0.906324 0.298709 0.035179 0.003604 698123.000000 0 0 1
-6.358513 -6.803122 26.847843 28.416893 0.819166 0.333860 0.036706 -0.004498 1605210.000000 0 0 1
-6.634213 -8.295122 26.627543 28.667889 0.896194 0.379559 0.049036 -0.012242 55524.800000 0 0 1
-5.956413 -9.067222 27.571673 29.629217 0.989574 0.374865 0.050930 -0.019809 -265521.000000 0 0 1
-6.259113 -10.477722 27.480323 30.068709 1.032310 0.417963 0.054262 -0.023599 -158368.000000 0 0 1
-5.597513 -11.345322 28.548033 31.225609 1.112462 0.417142 0.052129 -0.017353 -146403.000000 0 0 1
-5.733813 -12.719922 28.349163 31.596646 1.147299 0.457362 0.082135 -0.025191 -16197.300000 0 0 1
-5.164113 -13.423722 29.419333 32.746931 1.203548 0.454719 0.095240 -0.026358 8310.770000 0 0 1
-5.292613 -14.863122 29.179203 33.171524 1.228706 0.495679 0.145875 -0.062257 448244.000000 0 0 1
-6.633813 -15.350922 29.194853 33.645173 1.162890 0.520184 0.168269 -0.059441 165016.000000 0 0 1
-6.788113 -16.742722 29.232773 34.364985 1.185612 0.553565 0.192999 -0.060484 106154.000000 0 0 1
-6.867113 -17.317922 30.623213 35.844788 1.193283 0.546539 0.205316 -0.054779 844485.000000 0 0 1
-8.140813 -17.062022 31.240123 36.514801 1.125611 0.544190 0.197146 -0.056756 367571.000000 0 0 1
-8.163913 -17.614222 32.544090 37.894961 1.136786 0.537879 0.205460 -0.052932 690310.000000 0 0 1
-9.615213 -17.568622 33.175978 38.752475 1.070033 0.543122 0.198181 -0.037579 1268860.000000 0 0 1
-10.468313 -18.508622 32.537651 38.869697 1.056062 0.578844 0.220589 -0.050569 348312.000000 0 0 1
-11.234513 -18.043022 31.405838 37.922178 1.013888 0.594970 0.204400 -0.056713 -272322.000000 0 0 1
-12.018113 -19.162922 30.732223 38.159168 1.010649 0.634498 0.191086 -0.051219 -233846.000000 0 0 1
-13.117113 -19.519522 31.550937 39.351391 0.979111 0.640538 0.171595 -0.047355 -22230.200000 0 0 1
-13.432813 -20.896422 31.771305 40.330097 0.999479 0.663597 0.168970 -0.048590 -302157.000000 0 0 1
-12.498213 -21.668222 32.725644 41.190835 1.047611 0.652632 0.184682 -0.050954 273838.000000 0 0 1
-11.166413 -21.780322 32.206524 40.451593 1.097053 0.649850 0.201879 -0.062697 820892.000000 0 0 1
-10.187013 -22.300722 33.129059 41.214463 1.142300 0.637105 0.222282 -0.070418 534982.000000 0 0 1
-10.311313 -23.734822 33.617633 42.424170 1.160959 0.656035 0.195943 -0.050489 -505479.000000 0 0 1
-9.982713 -24.635122 32.604717 42.066749 1.185796 0.683969 0.204232 -0.056646 -125624.000000 0 0 1
-10.114813 -25.886762 33.128547 43.242739 1.198304 0.698035 0.199970 -0.058179 -697582.000000 0 0 1
-9.479913 -27.016952 32.278811 43.147493 1.233331 0.725596 0.167926 -0.047733 -297284.000000 0 0 1
-8.118813 -26.824312 32.031415 42.561372 1.276895 0.718804 0.200665 -0.062023 -549340.000000 0 0 1
-7.302413 -27.420852 33.015722 43.534656 1.310528 0.709975 0.193979 -0.055623 812921.000000 0 0 1
-5.743513 -27.160202 32.929644 43.070012 1.362399 0.700437 0.194084 -0.072571 1352540.000000 0 0 1
-5.332613 -25.861112 33.319563 42.513846 1.367444 0.670141 0.202022 -0.067465 639866.000000 0 0 1
-4.122713 -25.413502 32.667868 41.593658 1.409972 0.667446 0.262590 -0.059603 1028860.000000 0 0 1
-3.462313 -24.106822 33.219957 41.190921 1.428148 0.632610 0.246029 -0.062024 40514.100000 0 0 1
-2.782413 -24.244722 -32.937192 40.992768 1.456533 2.503927 0.194810 -0.067888 196821.000000 0 0 1
-2.140913 -23.080822 -32.463272 39.889496 1.478304 2.521509 0.184402 -0.065170 35818.100000 0 0 1
36.173581 -16.012922 1.923068 39.606058 -0.416741 1.522222 0.239938 -0.075310 346615.000000 0 0 1
37.174841 -15.833122 2.926268 40.511968 -0.402641 1.498501 0.190141 -0.064341 929661.000000 0 0 1
36.587221 -16.177122 4.205068 40.224453 -0.416309 1.466065 0.177192 -0.050324 438090.000000 0 0 1
37.645341 -15.956122 5.329668 41.233177 -0.400899 1.441177 0.155753 -0.032851 37950.200000 0 0 1
-37.650293 -17.037122 5.326368 41.667473 0.424939 1.442615 0.153363 -0.033545 -329362.000000 0 0 1
-36.913893 -16.971422 6.513368 41.147158 0.430938 1.411833 0.144276 -0.024306 59588.300000 0 0 1
-35.724978 -17.979522 6.587568 40.533114 0.466265 1.407549 0.106081 -0.032208 -120154.000000 0 0 1
-36.104673 -19.340522 6.603168 41.487408 0.491782 1.410956 0.103370 -0.033554 -361988.000000 0 0 1
-35.109255 -20.226222 6.995668 41.118113 0.522656 1.399829 0.070150 -0.020364 -507063.000000 0 0 1
-35.525569 -21.739022 6.879968 42.213565 0.549143 1.407086 0.072451 -0.013782 -504143.000000 0 0 1
-35.146090 -22.417422 5.702868 42.075066 0.567776 1.434838 0.090996 -0.013172 292127.000000 0 0 1
-35.354857 -23.807122 5.800468 43.016164 0.592633 1.435540 0.096629 -0.015675 99025.600000 0 0 1
-34.780771 -24.538822 4.567868 42.810294 0.614427 1.463893 0.098295 -0.018093 341291.000000 0 0 1
-35.588851 -24.278322 3.404368 43.215656 0.598672 1.491938 0.086939 -0.011618 402647.000000 0 0 1
-34.933172 -24.676722 2.236068 42.828345 0.615007 1.518563 0.081651 -0.011715 -18323.900000 0 0 1
-35.637812 -24.120522 0.957468 43.043815 0.595002 1.548550 0.071978 -0.010709 -690878.000000 0 0 1
-36.849233 -24.780422 0.712868 44.412200 0.592017 1.554744 0.064309 -0.004119 -443044.000000 0 0 1
-37.507673 -24.199322 -0.353832 44.638077 0.572982 1.578723 0.074153 -0.007431 -512685.000000 0 0 1
37.619821 -23.175322 0.111268 44.185505 -0.552130 1.568278 0.104094 -0.013630 -1921120.000000 0 0 1
36.351991 -23.677422 -0.022132 43.383038 -0.577315 1.571306 0.070769 -0.003332 -1129220.000000 0 0 1
35.484071 -22.761422 0.698068 42.162648 -0.570344 1.554239 0.104724 -0.013026 907764.000000 0 0 1
33.998631 -22.945422 0.238568 41.017755 -0.593676 1.564980 0.071800 -0.003090 443418.000000 0 0 1
33.737561 -22.576922 -1.079832 40.609192 -0.589749 1.597390 0.079529 -0.011287 -877049.000000 0 0 1
32.373461 -22.605922 -1.301032 39.506472 -0.609574 1.603734 0.085572 -0.005542 -764026.000000 0 0 1
32.007531 -22.479222 -2.794332 39.212316 -0.612275 1.642118 0.091899 0.002311 -38767.800000 0 0 1
32.106031 -21.190622 -3.403832 38.618982 -0.583387 1.659050 0.116085 -0.015789 93415.700000 0 0 1
31.578371 -21.114422 -4.714432 38.278430 -0.589364 1.694271 0.122716 -0.044734 72619.000000 0 0 1
31.561811 -19.641922 -5.147832 37.529364 -0.556678 1.708398 0.140624 -0.050668 117489.000000 0 0 1
30.615801 -18.892522 -4.413532 36.245467 -0.552887 1.692867 0.173874 -0.050110 90326.000000 0 0 1
30.795401 -17.478422 -4.506532 35.695389 -0.516229 1.697384 0.189216 -0.054852 -109702.000000 0 0 1
30.188801 -16.808522 -3.236532 34.703966 -0.508034 1.664193 0.216136 -0.040451 -256333.000000 0 0 1
30.967601 -16.861422 -2.071132 35.321232 -0.498600 1.629467 0.221519 -0.036819 -165225.000000 0 0 1
31.416071 -18.091622 -1.535332 36.285445 -0.522489 1.613122 0.189909 -0.020271 -202619.000000 0 0 1
30.366301 -19.155122 -1.151432 35.921535 -0.562761 1.602856 0.161063 -0.015677 -280796.000000 0 0 1
29.507701 -18.753822 -0.115432 34.963174 -0.566155 1.574098 0.147865 0.000889 -3827.630000 0 0 1
28.525501 -19.747422 0.039468 34.693896 -0.605521 1.569659 0.131539 -0.000344 -6686.290000 0 0 1
27.373001 -19.536522 1.072368 33.646795 -0.619872 1.538920 0.121224 0.005772 86368.000000 0 0 1
26.443301 -20.606422 1.029668 33.540021 -0.661971 1.540092 0.107121 -0.000674 240957.000000 0 0 1
25.661901 -20.542222 2.258568 32.948705 -0.675043 1.502195 0.108266 0.000680 1648370.000000 0 0 1
24.135401 -20.183322 1.930168 31.521574 -0.696459 1.509525 0.082850 -0.002114 1190450.000000 0 0 1
23.941401 -18.860222 1.470668 30.513300 -0.667237 1.522580 0.131371 -0.021831 330567.000000 0 0 1
23.797301 -17.924822 2.535168 29.900465 -0.645565 1.485908 0.169362 -0.028569 -280607.000000 0 0 1
23.435001 -16.449622 2.130368 28.711109 -0.612017 1.496528 0.142966 -0.006889 932537.000000 0 0 1
22.107201 -16.273222 1.593168 27.496986 -0.634549 1.512824 0.123150 -0.021251 790326.000000 0 0 1
21.995201 -14.916822 1.168968 26.602010 -0.595935 1.526839 0.136587 -0.028430 815932.000000 0 0 1
20.515901 -14.678122 0.699968 25.235677 -0.621021 1.543056 0.084752 -0.015326 747488.000000 0 0 1
19.517901 -14.752922 1.748168 24.528621 -0.647245 1.499465 0.071112 -0.013563 646028.000000 0 1 0
18.467901 -13.869622 1.388668 23.137808 -0.644149 1.510743 0.075223 -0.013731 -271146.000000 0 1 0
18.692401 -12.388422 1.796368 22.496795 -0.585287 1.490861 0.086225 -0.019872 -580118.000000 0 1 0
19.641101 -11.674522 1.040768 22.872483 -0.536286 1.525278 0.104795 -0.021693 357599.000000 0 1 0
20.107301 -10.504522 1.674668 22.747594 -0.481425 1.497110 0.138866 -0.015765 -483759.000000 0 1 0
21.010501 -9.649422 0.817868 23.134852 -0.430533 1.535437 0.142199 -0.023634 -370098.000000 0 1 0
20.423001 -9.159422 -0.416232 22.386764 -0.421594 1.589390 0.148557 -0.021128 237211.000000 0 1 0
21.324901 -8.484322 -1.210932 22.982634 -0.378660 1.623510 0.140212 -0.018261 -603853.000000 0 1 0
20.726301 -8.151322 -2.661832 22.430090 -0.374703 1.689749 0.134170 -0.016687 -107165.000000 0 1 0
21.562501 -7.518422 -3.607132 23.118813 -0.335499 1.727462 0.168493 -0.032570 -128752.000000 0 1 0
22.657201 -8.248422 -4.070232 24.453057 -0.349139 1.738026 0.167779 -0.038766 -990221.000000 0 1 0
22.336001 -9.409322 -5.066732 24.760938 -0.398701 1.776878 0.147632 -0.038981 -517854.000000 0 1 0
21.755901 -9.164022 -6.290432 24.430883 -0.398665 1.831208 0.141445 -0.045722 445495.000000 0 1 0
20.408501 -8.691322 -6.281932 23.054471 -0.402605 1.846768 0.136490 -0.029984 210240.000000 0 1 0
19.845101 -8.578522 -7.762632 22.971232 -0.408016 1.915511 0.144199 -0.028987 -317193.000000 0 1 0
19.740601 -9.810922 -8.470132 23.615432 -0.461238 1.937638 0.132332 -0.033357 574843.000000 0 1 0
20.953801 -10.254522 -9.054232 25.023911 -0.455121 1.941019 0.131712 -0.039992 -129675.000000 0 0 1
20.899101 -11.742422 -9.522032 25.793914 -0.511905 1.948899 0.106131 -0.038292 -146156.000000 0 0 1
19.933001 -12.026222 -10.511932 25.543204 -0.542866 1.994934 0.136224 -0.043178 -48203.400000 0 0 1
19.823701 -13.375122 -10.934532 26.295190 -0.593546 1.999660 0.135665 -0.035459 443280.000000 0 0 1
18.545001 -13.767222 -11.766232 25.920989 -0.638599 2.041964 0.139037 -0.031439 509672.000000 0 0 1
18.553801 -15.116222 -12.145732 26.837707 -0.683655 2.040433 0.132614 -0.042682 415344.000000 0 0 1
17.612401 -15.317122 -13.206732 26.818439 -0.715808 2.085699 0.128936 -0.039026 -122037.000000 0 0 1
17.409601 -16.782122 -13.589732 27.738324 -0.767048 2.082801 0.104303 -0.045049 -383768.000000 0 0 1
16.606201 -17.496922 -12.689532 27.256787 -0.811511 2.055058 0.098000 -0.044427 28569.000000 0 0 1
16.703701 -18.880722 -12.911232 28.323051 -0.846501 2.044130 0.087487 -0.039432 -182204.000000 0 0 1
15.636301 -19.675822 -12.150432 27.915316 -0.899298 2.021124 0.077297 -0.038154 781139.000000 0 0 1
14.295301 -19.300622 -12.492132 27.072551 -0.933296 2.050405 0.081899 -0.040681 385534.000000 0 0 1
13.309601 -20.118622 -11.882232 26.890368 -0.986340 2.028486 0.080378 -0.034032 -504003.000000 0 0 1
11.918301 -19.744122 -12.384532 26.177335 -1.027706 2.063604 0.079879 -0.038820 -320320.000000 0 0 1
11.058801 -20.639822 -11.675132 26.165016 -1.078921 2.033324 0.086825 -0.041091 -1256780.000000 0 0 1
9.715501 -20.463022 -11.884632 25.580671 -1.127525 2.053973 0.060389 -0.036804 -790169.000000 0 0 1
8.779801 -21.081422 -10.815732 25.268386 -1.176172 2.013113 0.057420 -0.031039 116610.000000 0 0 1
8.899601 -22.464222 -10.670632 26.414136 -1.193598 1.986654 0.080059 -0.035578 -122822.000000 0 0 1
8.050801 -22.874822 -9.621932 26.089355 -1.232385 1.948521 0.079207 -0.034769 70778.000000 0 0 1
8.268301 -24.329322 -9.361632 27.348142 -1.243193 1.920174 0.081408 -0.033627 99149.400000 0 0 1
9.600601 -24.650122 -9.061032 27.962517 -1.199396 1.900795 0.075743 -0.024540 -613621.000000 0 0 1
9.765101 -26.030782 -9.238332 29.296853 -1.211906 1.891606 0.066759 -0.025813 127636.000000 0 0 1
11.240501 -26.444032 -9.062832 30.129232 -1.168868 1.876326 0.055409 -0.019769 -13230.200000 0 0 1
11.671601 -26.440982 -7.750032 29.923482 -1.155100 1.832778 0.068491 -0.033236 -425762.000000 0 0 1
13.002501 -26.908372 -7.712632 30.864384 -1.120668 1.823361 0.080070 -0.024212 -69712.100000 0 0 1
13.394801 -27.459912 -6.275332 31.190499 -1.116961 1.773373 0.069487 -0.025586 93518.200000 0 0 1
12.943101 -28.793282 -6.028832 32.139131 -1.148343 1.759500 0.078521 -0.030280 1149770.000000 0 0 1
11.522701 -29.034512 -5.962032 31.801279 -1.192998 1.759390 0.089059 -0.030185 716561.000000 0 0 1
10.906101 -30.004632 -4.963132 32.308724 -1.222163 1.725023 0.098131 -0.027716 98341.800000 0 0 1
11.121601 -31.369712 -5.167432 33.681615 -1.230089 1.724825 0.102708 -0.031878 -78493.200000 0 0 1
10.231501 -31.894582 -6.143532 34.054236 -1.260376 1.752194 0.101483 -0.039927 173263.000000 0 0 1
10.345501 -33.413552 -6.277632 35.537354 -1.270537 1.748377 0.101372 -0.032753 -374106.000000 0 0 1
9.698501 33.401847 -5.232032 35.172695 1.288209 1.720103 0.104132 -0.031849 -377925.000000 0 0 1
10.162901 32.106886 -5.042832 34.052413 1.264241 1.719433 0.102241 -0.028974 -217084.000000 0 0 1
9.459101 31.320939 -3.954932 32.956294 1.277501 1.691092 0.075737 -0.026422 -364709.000000 0 0 1
8.209701 30.848429 -4.338232 32.215602 1.310695 1.705869 0.074749 -0.023098 -1037320.000000 0 0 1
7.618901 29.952379 -3.453532 31.098546 1.321712 1.682077 0.059624 -0.022242 279636.000000 0 0 1
6.229401 29.424659 -3.907632 30.329616 1.362170 1.699994 0.070160 -0.027275 162628.000000 0 0 1
6.240001 28.666499 -5.092632 29.776512 1.356464 1.742670 0.083377 -0.036090 -113438.000000 0 0 1
5.994501 29.528129 -6.224532 30.766691 1.370508 1.774517 0.068890 -0.034356 -142120.000000 0 0 1
5.926701 28.741529 -7.555132 30.303157 1.367440 1.822773 0.071487 -0.030107 179190.000000 0 0 1
4.900701 27.763589 -7.615032 29.203124 1.396081 1.834607 0.068331 -0.034495 -46989.400000 0 0 1
5.372901 26.473999 -7.274832 27.976131 1.370566 1.833857 0.080796 -0.032722 -589099.000000 0 0 1
4.438201 25.366359 -7.751232 26.892962 1.397586 1.863169 0.076035 -0.036281 -1419770.000000 0 0 1
3.196101 25.446869 -7.136132 26.621093 1.445852 1.842178 0.071698 -0.031486 -604647.000000 0 0 1
2.203001 26.007549 -8.018132 27.304510 1.486292 1.868846 0.079568 -0.036026 288278.000000 0 0 1
1.760201 25.340329 -9.341632 27.064676 1.501445 1.923205 0.106458 -0.035537 -432192.000000 0 0 1
2.846801 25.278189 -10.269732 27.432800 1.458650 1.954502 0.095357 -0.032377 181170.000000 0 0 1
2.603401 24.448029 -11.431532 27.113904 1.464709 2.006018 0.110749 -0.033529 -280810.000000 0 0 1
2.441501 22.893389 -11.239032 25.619993 1.464551 2.024928 0.115408 -0.028788 -104225.000000 0 0 1
1.307401 22.595649 -10.468232 24.937052 1.513000 2.004006 0.116680 -0.023395 -334708.000000 0 1 0
1.124601 21.180349 -10.296732 23.577418 1.517750 2.022746 0.080231 -0.017379 -623081.000000 0 1 0
-0.057899 20.799449 -9.415832 22.831521 -1.568013 1.995889 0.078293 -0.009716 1609120.000000 0 1 0
-1.398499 21.010149 -9.993132 23.307614 -1.504331 2.013905 0.083618 -0.017485 1459120.000000 0 1 0
-2.354799 20.219149 -9.341432 22.396907 -1.454855 2.001033 0.071170 -0.018118 -440330.000000 0 1 0
-3.721599 20.169849 -9.986732 22.812452 -1.388335 2.023919 0.067653 -0.027657 -140903.000000 0 1 0
-4.774699 19.532449 -9.285132 22.147867 -1.331048 2.003397 0.065566 -0.028421 -264837.000000 0 1 0
-5.712599 18.984049 -10.143032 22.269015 -1.278500 2.043705 0.063557 -0.031522 -1032040.000000 0 1 0
-6.629299 18.004649 -9.384932 21.358651 -1.218001 2.025724 0.058200 -0.029353 -287110.000000 0 1 0
-7.746399 18.557349 -8.715632 21.916755 -1.175355 1.979772 0.081629 -0.021837 -287356.000000 0 1 0
-8.896899 18.599449 -9.511832 22.706151 -1.124625 2.003041 0.082876 -0.027085 -390995.000000 0 1 0
-10.126099 18.972049 -8.634732 23.174019 -1.080524 1.952610 0.098815 -0.032211 61250.600000 0 1 0
-10.471199 17.957449 -7.741232 22.182035 -1.042887 1.927286 0.085247 -0.026465 -696697.000000 0 1 0
-11.403999 18.305049 -6.774232 22.605669 -1.013638 1.875143 0.101689 -0.026690 -636033.000000 0 1 0
-11.967999 17.112649 -6.063532 21.744935 -0.960496 1.853391 0.072237 -0.028819 -296514.000000 0 1 0
-12.866499 17.442949 -5.022632 22.249272 -0.935257 1.798503 0.081157 -0.028263 -56122.500000 0 1 0
-13.192899 16.247549 -4.363532 21.379333 -0.888785 1.776341 0.058355 -0.024870 60740.900000 0 1 0
-14.329099 16.535149 -3.336532 22.132932 -0.856753 1.722123 0.054815 -0.030028 -128090.000000 0 1 0
-15.615999 16.486549 -3.896532 23.040154 -0.812509 1.740732 0.124729 -0.055536 -544370.000000 0 1 0
-16.561799 16.702349 -2.895932 23.699116 -0.789623 1.693298 0.138653 -0.056166 -1989490.000000 0 1 0
-17.922399 17.013949 -3.365432 24.940189 -0.759401 1.706149 0.166524 -0.061247 -1727660.000000 0 1 0
-18.055299 18.075549 -4.260532 25.901186 -0.785959 1.736039 0.142402 -0.060977 -63083.800000 0 0 1
-19.418399 18.209549 -4.592532 27.013946 -0.753283 1.741632 0.136946 -0.062497 60909.600000 0 0 1
-19.663699 19.048149 -5.934132 28.012622 -0.769499 1.784251 0.131590 -0.042211 31436.500000 0 0 1
-19.311599 20.397549 -5.759532 28.673509 -0.812739 1.773038 0.140582 -0.059379 362966.000000 0 0 1
-19.752399 21.149349 -6.895432 29.748937 -0.819539 1.804711 0.127768 -0.035425 104145.000000 0 0 1
-19.596699 22.675199 -6.567632 30.681087 -0.858096 1.786527 0.135261 -0.032829 1870010.000000 0 0 1
-18.183199 23.051549 -6.423132 30.054273 -0.902918 1.786175 0.137806 -0.036936 1836680.000000 0 0 1
-17.880999 23.692739 -5.222132 30.138791 -0.924292 1.744945 0.157622 -0.048186 786473.000000 0 0 1
-16.375299 24.138399 -5.098732 29.610975 -0.974720 1.743849 0.127416 -0.049506 551768.000000 0 0 1
-16.046799 24.711579 -3.830932 29.712589 -0.994869 1.700089 0.127391 -0.049654 -254153.000000 0 0 1
-14.820899 25.370649 -3.701732 29.614721 -1.042094 1.696120 0.159364 -0.061326 -216251.000000 0 0 1
-14.433999 26.585779 -4.609632 30.600534 -1.073404 1.722011 0.160209 -0.051172 209454.000000 0 0 1
-15.251699 27.741179 -4.340632 31.953536 -1.068118 1.707060 0.190471 -0.048955 589181.000000 0 0 1
-14.804799 28.797649 -5.172232 32.790832 -1.095934 1.729192 0.148628 -0.055898 -230394.000000 0 0 1
-15.611099 29.993539 -4.818832 34.154648 -1.090898 1.712357 0.143795 -0.042579 -531964.000000 0 0 1
-16.977399 29.862229 -5.105532 34.728249 -1.053842 1.718345 0.157814 -0.043691 -632678.000000 0 0 1
-17.600099 31.040269 -4.753032 35.997960 -1.054989 1.703219 0.172263 -0.034064 -249005.000000 0 0 1
13.276587 -8.808922 18.445233 24.373992 -0.585802 0.712456 0.170737 -0.016577 288857.000000 0 1 0
13.966887 -9.882122 19.104933 25.646222 -0.615768 0.730349 0.157363 -0.026140 39037.800000 0 0 1
14.363687 -10.924222 18.268733 25.678799 -0.650215 0.779262 0.168184 -0.024236 94477.000000 0 0 1
15.076087 -12.084322 18.990733 27.091828 -0.675689 0.794031 0.202952 -0.049727 -779345.000000 0 0 1
16.443187 -11.903922 19.250333 27.976009 -0.626615 0.811927 0.184187 -0.052288 17720.100000 0 0 1
17.016087 -13.023522 19.929333 29.263247 -0.653263 0.821619 0.184153 -0.053464 177609.000000 0 0 1
17.392987 -14.222122 18.950333 29.392173 -0.685437 0.870112 0.174765 -0.059815 -1007650.000000 0 0 1
16.247087 -14.804322 18.438733 28.690114 -0.738968 0.872797 0.199578 -0.068970 -332802.000000 0 0 1
16.579787 -15.898222 17.673833 28.982877 -0.764416 0.914985 0.205465 -0.068636 148317.000000 0 0 1
15.847087 -15.870722 16.287033 27.717818 -0.786143 0.942705 0.193219 -0.067785 451069.000000 0 0 1
14.425087 -15.922322 16.374833 27.013675 -0.834695 0.919562 0.242802 -0.069635 476525.000000 0 0 1
13.730087 -15.645322 15.181133 25.763505 -0.850505 0.940667 0.258136 -0.068734 -14200.900000 0 0 1
13.375887 -16.908622 14.389633 25.920598 -0.901525 0.982262 0.201092 -0.052480 238646.000000 0 0 1
14.551687 -17.483622 13.811533 26.611784 -0.876666 1.025115 0.183957 -0.044768 791658.000000 0 0 1
14.110587 -18.719122 13.331133 26.967263 -0.924864 1.053715 0.155513 -0.035166 395830.000000 0 0 1
15.244787 -19.646522 12.785133 27.961562 -0.910891 1.095908 0.140578 -0.033136 329747.000000 0 0 1
15.984287 -20.343622 13.790733 29.317993 -0.904827 1.081070 0.114135 -0.026422 152826.000000 0 0 1
16.291587 -21.637822 13.269433 30.161051 -0.925428 1.115250 0.075073 -0.016636 351401.000000 0 0 1
17.088087 -22.591322 14.287633 31.725494 -0.923211 1.103637 0.067951 -0.023023 770898.000000 0 0 1
18.422287 -22.143522 14.485033 32.241780 -0.876875 1.104856 0.061614 -0.018613 211190.000000 0 0 1
19.105187 -23.088622 15.301933 33.648801 -0.879527 1.098700 0.069526 -0.029438 236037.000000 0 0 1
20.521987 -22.676422 15.769833 34.410168 -0.835230 1.094726 0.053390 -0.009091 -502214.000000 0 0 1
21.528487 -22.803322 14.856033 34.701138 -0.814147 1.128392 0.034461 -0.017852 -1801420.000000 0 0 1
22.694387 -22.334022 15.374833 35.358581 -0.777395 1.120951 0.030627 -0.008192 -763184.000000 0 0 1
24.059587 -22.777622 14.809733 36.290660 -0.758034 1.150439 0.024277 -0.011910 174484.000000 0 0 1
24.304987 -24.130422 15.004233 37.391666 -0.781794 1.157891 0.035270 -0.012960 525633.000000 0 0 1
25.610887 -24.494822 14.563833 38.314737 -0.763128 1.180881 0.046501 -0.015220 519784.000000 0 0 1
26.351587 -25.741482 15.117133 39.819062 -0.773687 1.181383 0.060210 -0.012662 -31439.600000 0 0 1
26.737687 -25.572822 16.508833 40.514376 -0.763134 1.151103 0.061194 -0.008887 386147.000000 0 0 1
27.208587 -26.792202 17.156133 41.862420 -0.777688 1.148538 0.098106 -0.007761 240032.000000 0 0 1
27.600187 -26.501642 18.623433 42.555136 -0.765096 1.117834 0.082381 -0.002965 929550.000000 0 0 1
26.450687 -26.291292 19.473133 42.072245 -0.782376 1.089589 0.089871 -0.002182 847524.000000 0 0 1
26.885987 -25.778542 20.743033 42.634058 -0.764373 1.062675 0.088868 -0.000136 330661.000000 0 0 1
25.713487 -25.529342 21.734133 42.252849 -0.781805 1.030509 0.086797 -0.002175 282920.000000 0 0 1
25.122087 -26.787362 22.053833 42.837525 -0.817468 1.029993 0.095692 0.002645 -202345.000000 0 0 1
24.022587 -26.673532 22.915493 42.587343 -0.837641 1.002636 0.103634 0.000172 -131169.000000 0 0 1
23.250587 -27.991402 23.033403 43.065601 -0.877654 1.006473 0.129045 -0.006270 -181089.000000 0 0 1
24.056787 -28.971832 23.660723 44.473878 -0.877821 1.009819 0.119527 -0.015894 330534.000000 0 0 1
23.853887 -30.341092 23.211743 45.037482 -0.904533 1.029337 0.133864 -0.017932 -110927.000000 0 0 1
24.981787 -31.329342 23.636963 46.522289 -0.897647 1.037844 0.115636 -0.011528 -36611.800000 0 0 1
25.166487 -31.345162 25.018613 47.347674 -0.894300 1.014079 0.108965 -0.016877 -60040.800000 0 0 1
26.281387 -32.070522 25.435673 48.643634 -0.884285 1.020549 0.099659 -0.017235 -1163470.000000 0 0 1
26.125887 -32.306422 26.975783 49.537458 -0.890779 0.994940 0.091864 -0.029136 90175.600000 0 0 1
25.329487 -33.369932 27.440533 50.081115 -0.921528 0.990918 0.081732 -0.019209 338108.000000 0 0 1
23.990287 -33.447632 26.985463 49.218829 -0.948587 0.990496 0.101282 -0.016859 -537819.000000 0 0 1
23.232487 32.754980 27.456543 48.646674 0.953869 0.971081 0.136237 -0.036455 -199198.000000 0 0 1
22.774387 32.937447 28.774913 49.310686 0.965836 0.947711 0.123795 -0.034626 19454.900000 0 0 1
22.347087 31.702572 29.260623 48.586309 0.956791 0.924492 0.128649 -0.043989 47630.800000 0 0 1
21.800687 31.821743 30.714263 49.307801 0.970149 0.898341 0.117590 -0.048541 559660.000000 0 0 1
22.880587 32.154742 31.599717 50.556808 0.952343 0.895621 0.104128 -0.040390 565564.000000 0 0 1
22.478187 32.528161 32.859030 51.410758 0.966111 0.877408 0.095142 -0.036157 -91140.700000 0 0 1
23.691787 32.507933 -33.594342 52.408457 0.941002 2.266610 0.079798 -0.033923 -104995.000000 0 0 1
24.246387 31.268539 -33.358172 51.753034 0.911221 2.271250 0.075290 -0.028932 -452569.000000 0 0 1
25.534087 31.338129 -32.817792 52.067989 0.887100 2.252720 0.069761 -0.023969 -501401.000000 0 0 1
26.054687 29.938089 -32.709872 51.430260 0.854643 2.260106 0.075416 -0.013859 -399372.000000 0 0 1
26.214987 29.282699 33.395233 51.574641 0.840618 0.866480 0.075861 -0.021763 306641.000000 0 0 1
25.777687 27.926289 33.492743 50.656989 0.825385 0.848423 0.076149 -0.029047 -87251.300000 0 0 1
26.034187 27.205619 32.211686 49.553177 0.807398 0.863156 0.094106 -0.033018 -242524.000000 0 0 1
27.360587 26.750939 32.267710 50.054167 0.774132 0.870223 0.073115 -0.030037 -29427.200000 0 0 1
27.660687 25.935039 31.144953 49.068808 0.753212 0.883150 0.094858 -0.038434 -546466.000000 0 0 1
28.966887 25.183029 31.345416 49.556035 0.715634 0.885988 0.056547 -0.023671 -699066.000000 0 0 1
28.818687 24.156069 32.261434 49.546266 0.697609 0.861714 0.073945 -0.020751 421285.000000 0 0 1
29.874487 24.205009 33.208904 50.805499 0.680944 0.858402 0.088737 -0.030293 -790025.000000 0 0 1
29.620387 23.319139 -32.940212 50.062033 0.666928 2.288940 0.088473 -0.028699 -726202.000000 0 0 1
28.554887 23.790249 -32.148632 49.141552 0.694625 2.283927 0.089639 -0.025717 839890.000000 0 0 1
27.222187 23.509689 -32.594542 48.540263 0.712350 2.307021 0.072514 -0.019133 103416.000000 0 0 1
26.792787 22.040249 -32.579252 47.592370 0.688382 2.324780 0.047128 -0.016513 -1081610.000000 0 0 1
26.455687 21.468049 -31.354052 46.301805 0.681697 2.314702 0.025116 -0.026301 203512.000000 0 0 1
26.307987 20.067249 -31.377112 45.599648 0.651631 2.329663 0.027224 -0.019382 -55040.500000 0 0 1
26.320087 19.238549 -30.061772 44.346126 0.631194 2.315684 0.036825 -0.019637 842819.000000 0 0 1
25.061687 19.452549 -29.366012 43.230227 0.660051 2.317596 0.030134 -0.013501 1253430.000000 0 0 1
24.825287 18.690649 -28.201542 41.963821 0.645347 2.307762 0.045412 -0.009227 -220898.000000 0 0 1
23.404687 18.906049 -27.632432 40.850574 0.679472 2.313697 0.042107 -0.008367 -23448.200000 0 0 1
23.134587 18.293349 -26.383342 39.571916 0.669067 2.300594 0.052456 -0.014408 -203034.000000 0 0 1
23.777687 18.865749 -25.314342 39.523548 0.670717 2.265929 0.070181 -0.010838 -565383.000000 0 0 1
23.786687 17.845649 -24.161432 38.315121 0.643653 2.253120 0.105306 -0.015356 -19450.500000 0 0 1
24.644687 16.740949 -24.333732 38.467525 0.596693 2.255674 0.103274 -0.028276 42933.200000 0 0 1
24.622787 15.809549 -23.265332 37.383140 0.570780 2.242536 0.142058 -0.038479 -403201.000000 0 0 1
25.621887 14.664949 -23.341932 37.634926 0.519848 2.239819 0.151823 -0.037273 722427.000000 0 0 1
26.999987 15.009349 -23.036932 38.535440 0.507363 2.211565 0.177975 -0.049371 1144580.000000 0 0 1
27.843887 13.890549 -22.873332 38.618891 0.462745 2.204686 0.177715 -0.052764 44898.500000 0 0 1
27.707887 13.031349 -21.579032 37.459281 0.439616 2.184704 0.163443 -0.045221 -3043.580000 0 0 1
26.539487 12.210949 -21.703132 36.393373 0.431225 2.209741 0.151809 -0.038026 427583.000000 0 0 1
26.201987 11.822149 -20.353632 35.221835 0.423845 2.186912 0.124787 -0.040330 241587.000000 0 0 1
24.693987 11.500149 -20.113632 33.861551 0.435838 2.206814 0.121237 -0.028164 247948.000000 0 0 1
23.925987 12.668149 -20.285132 33.829299 0.486947 2.213838 0.155761 -0.031437 -437849.000000 0 0 1
22.648687 12.294149 -20.745432 33.082958 0.497314 2.248586 0.129931 -0.034503 149765.000000 0 0 1
21.557087 13.413749 -20.670732 32.740126 0.556614 2.254099 0.134479 -0.036216 -112020.000000 0 0 1
21.857187 14.475249 -21.559532 33.942347 0.584949 2.259039 0.123279 -0.030648 67219.900000 0 0 1
20.860887 15.443049 -21.576432 33.752138 0.637256 2.264333 0.106385 -0.030762 981115.000000 0 0 1
19.530387 15.185949 -22.439132 33.400056 0.660904 2.307472 0.077772 -0.008022 654598.000000 0 0 1
18.530787 14.546549 -21.720032 32.042971 0.665523 2.315618 0.063751 -0.019635 -1017930.000000 0 0 1
17.417787 14.435449 -22.523632 31.922962 0.692043 2.354012 0.067831 -0.024888 -831236.000000 0 0 1
16.307187 13.510649 -21.981932 30.523226 0.691884 2.374845 0.043734 -0.019368 422743.000000 0 0 1
15.104787 13.824049 -22.670732 30.548667 0.741155 2.407022 0.069598 -0.024668 417276.000000 0 0 1
13.948387 13.063249 -22.291832 29.362081 0.752641 2.432887 0.092631 -0.028553 790621.000000 0 0 1
12.730387 13.414949 -23.191332 29.662460 0.811575 2.468410 0.102931 -0.028643 -270111.000000 0 0 1
12.271787 14.705949 -23.028632 29.952957 0.875383 2.447801 0.089421 -0.023518 -76305.900000 0 0 1
11.711487 15.165649 -24.245232 30.902866 0.913214 2.472787 0.106874 -0.035458 -582170.000000 0 0 1
11.791487 16.766549 -24.396232 31.864283 0.957876 2.442816 0.110151 -0.033424 1075950.000000 0 0 1
13.092387 17.408449 -24.309032 32.640370 0.925971 2.410962 0.095590 -0.029337 1081690.000000 0 0 1
14.162987 17.044349 -25.167952 33.533951 0.877467 2.419647 0.110151 -0.043220 -40692.800000 0 0 1
14.006387 16.977149 -26.683772 34.589394 0.880988 2.451903 0.156216 -0.044125 -966902.000000 0 0 1
15.214887 16.776749 -27.348872 35.509336 0.834180 2.449933 0.143888 -0.044792 -484272.000000 0 0 1
14.999387 16.816649 -28.726522 36.510196 0.842454 2.476417 0.200822 -0.048701 -59375.500000 0 0 1
16.166187 17.279549 -29.626602 37.916540 0.818674 2.467644 0.168940 -0.055301 480680.000000 0 0 1
17.350187 16.499649 -29.591772 38.064950 0.760277 2.461321 0.112683 -0.046434 521130.000000 0 0 1
18.469287 17.160649 -30.149362 39.301228 0.748686 2.445160 0.094171 -0.036193 343328.000000 0 0 1
19.632887 16.197549 -30.497052 39.722551 0.689813 2.446121 0.096815 -0.033072 -334506.000000 0 0 1
20.794787 16.780249 -31.000042 40.926795 0.678961 2.430196 0.078608 -0.031826 -584896.000000 0 0 1
21.826587 15.842549 -30.964692 41.063347 0.627857 2.425035 0.076595 -0.026283 -286561.000000 0 0 1
23.181387 16.442749 -31.412452 42.361337 0.616946 2.406153 0.075629 -0.017571 -56150.400000 0 0 1
23.270087 16.659049 -32.771162 43.508275 0.621317 2.423735 0.090451 -0.026662 -497552.000000 0 0 1
24.440187 17.309049 -33.135222 44.663955 0.616222 2.406664 0.076253 -0.032594 -554719.000000 0 0 1
24.346287 17.878249 32.810275 44.596946 0.633398 0.744087 0.044726 -0.027149 78066.200000 0 0 1
25.463987 18.703549 32.550154 45.362428 0.633513 0.770507 0.044933 -0.021045 103434.000000 0 0 1
25.474287 19.244949 31.250533 44.675532 0.646990 0.796099 0.071780 -0.022162 -638487.000000 0 0 1
26.464587 20.386049 31.012943 45.582540 0.656376 0.822530 0.088891 -0.021842 164842.000000 0 0 1
27.805587 19.901749 31.059683 46.194525 0.621216 0.833394 0.047579 -0.012915 62213.800000 0 0 1
28.684087 21.001649 31.176123 47.284212 0.631992 0.850863 0.039417 -0.020922 45559.600000 0 0 1
30.122987 20.535349 31.493026 48.175778 0.598350 0.858319 0.085824 -0.016706 -28584.900000 0 0 1
30.182387 20.166249 32.877084 48.975062 0.589026 0.834832 0.057862 -0.026039 926314.000000 0 0 1
31.531787 19.932649 33.313263 50.013374 0.563721 0.841846 0.063731 -0.024882 800901.000000 0 0 1
31.453787 19.413849 -32.596092 49.282284 0.552984 2.293502 0.060234 -0.003094 -362435.000000 0 0 1
30.984987 20.423449 -31.756252 48.843078 0.582774 2.278603 0.050341 -0.019382 36956.500000 0 0 1
30.736487 19.964349 -30.484722 47.672059 0.576047 2.264602 0.072853 -0.030180 -668116.000000 0 0 1
31.901087 20.147049 -29.523372 47.908376 0.563294 2.234764 0.095785 -0.038521 -1140330.000000 0 0 1
32.955887 19.328449 -29.896392 48.512614 0.530430 2.234781 0.100677 -0.038635 -1125470.000000 0 0 1
33.752587 19.263149 -28.759332 48.346719 0.518609 2.207883 0.121691 -0.046988 -69950.300000 0 0 1
35.174187 18.625949 -28.918212 49.197687 0.486995 2.199128 0.110635 -0.036189 798755.000000 0 0 1
36.038387 19.370849 -29.770272 50.599054 0.493200 2.199821 0.109855 -0.034775 -203589.000000 0 0 1
37.205387 19.764249 -29.115432 51.211081 0.488311 2.175524 0.093547 -0.022348 -338079.000000 0 0 1
38.095587 20.763149 -29.928582 52.707705 0.499018 2.174654 0.086119 -0.025551 -171587.000000 0 0 1
-37.328727 19.992049 -30.765452 52.341465 -0.491695 2.199113 0.069743 -0.022994 190855.000000 0 0 1
-36.193127 20.718549 -31.257002 52.117184 -0.519911 2.213978 0.064549 -0.025081 929036.000000 0 0 1
-35.295027 19.998449 -32.353282 51.888455 -0.515505 2.244028 0.074283 -0.029511 435587.000000 0 0 1
-34.511827 18.947949 -31.800062 50.609633 -0.502096 2.250214 0.089891 -0.023106 500556.000000 0 0 1
-33.606427 18.532449 -32.839062 50.509876 -0.503960 2.278580 0.087563 -0.026001 408144.000000 0 0 1
-32.637727 17.384349 -32.385302 49.155311 -0.489422 2.290067 0.076935 -0.010627 316465.000000 0 0 1
-33.438927 16.267049 -32.101522 49.125212 -0.452765 2.282947 0.074128 -0.007274 689243.000000 0 0 1
-32.766827 15.038349 -32.434592 48.495563 -0.430272 2.303411 0.075173 -0.000086 343024.000000 0 0 1
-33.851827 13.986349 -32.764772 49.143610 -0.391803 2.300589 0.082532 -0.002166 458140.000000 0 0 1
-33.325227 12.726249 -33.111692 48.671473 -0.364789 2.318982 0.094417 -0.005856 293307.000000 0 0 1
-34.456427 11.917849 -33.288862 49.370323 -0.333001 2.310770 0.107151 -0.013522 35598.300000 0 0 1
-34.099527 10.383849 -33.339542 48.807040 -0.295595 2.322780 0.114772 -0.017676 -87196.300000 0 0 1
-33.516227 10.095749 32.815754 47.980572 -0.292575 0.817649 0.104105 -0.017843 83551.300000 0 0 1
-33.620927 8.688049 32.599060 47.629272 -0.252880 0.816970 0.136978 -0.031217 -163084.000000 0 0 1
-32.587727 8.235749 31.526748 46.083872 -0.247542 0.817404 0.132920 -0.025796 903015.000000 0 0 1
-31.283327 8.322349 32.146538 45.621353 -0.260009 0.788884 0.095298 -0.012858 120493.000000 0 0 1
-30.363427 7.644949 31.374848 44.325658 -0.246655 0.784381 0.081809 -0.018547 -578033.000000 0 0 1
22.343287 -3.846922 -31.757642 39.020112 -0.170502 2.521593 0.100533 -0.052665 -74276.800000 0 0 1
23.636087 -3.867122 -32.333432 40.237670 -0.162174 2.504051 0.074367 -0.051791 -107160.000000 0 0 1
24.573487 -2.998422 -31.795872 40.296703 -0.121418 2.480048 0.063111 -0.040934 -287962.000000 0 0 1
24.410887 -1.472922 -32.187502 40.423956 -0.060266 2.491864 0.069746 -0.033780 -956127.000000 0 0 1
25.362587 -0.681722 -31.571572 40.502960 -0.026873 2.464644 0.070693 -0.023348 -157336.000000 0 0 1
25.190587 0.688078 -32.014582 40.742762 0.027308 2.474742 0.071400 -0.029615 791024.000000 0 0 1
26.305387 1.649178 -31.394152 40.991292 0.062612 2.443195 0.055112 -0.015563 457945.000000 0 0 1
27.527787 1.689278 -32.059272 42.289829 0.061289 2.431168 0.054432 -0.015481 -1079330.000000 0 0 1
28.502587 2.255778 -31.215832 42.331008 0.078978 2.400042 0.066617 -0.016187 504723.000000 0 0 1
29.890487 1.923578 -31.896722 43.755483 0.064266 2.387622 0.064048 -0.014952 381001.000000 0 0 1
30.189387 2.567978 -33.096902 44.870910 0.084858 2.400309 0.067559 -0.018344 -142491.000000 0 0 1
30.252387 1.645378 33.215695 44.957720 0.054335 0.739478 0.054092 -0.013395 -147521.000000 0 0 1
30.777987 2.260578 31.852422 44.350552 0.073316 0.769589 0.065899 -0.021309 190551.000000 0 0 1
30.020587 3.294278 31.169663 43.400873 0.109297 0.769612 0.059914 -0.009596 444380.000000 0 0 1
30.133987 4.552178 31.798054 44.044247 0.149931 0.764170 0.069549 -0.016042 33992.900000 0 0 1
29.219287 5.616278 31.146453 43.074480 0.189895 0.762540 0.068357 -0.015565 176166.000000 0 0 1
29.591887 6.890378 31.670209 43.888030 0.228771 0.764666 0.109097 -0.035766 394976.000000 0 0 1
28.873987 7.884178 30.944593 43.051541 0.266557 0.768750 0.110397 -0.044754 -109074.000000 0 0 1
29.397087 9.292578 31.190423 43.856393 0.306166 0.779601 0.120076 -0.046943 1246770.000000 0 0 1
30.776187 9.316078 30.720453 44.471443 0.293936 0.808214 0.110835 -0.044618 1100280.000000 0 0 1
31.329287 10.594378 30.945743 45.292428 0.326090 0.818601 0.099940 -0.041126 469699.000000 0 0 1
32.692887 10.863378 30.231053 45.833987 0.320807 0.850540 0.114094 -0.042922 1362380.000000 0 0 1
33.872687 10.336978 30.910183 47.006930 0.296194 0.853212 0.106883 -0.039726 1109890.000000 0 0 1
35.097887 10.737678 30.343163 47.622126 0.296893 0.879982 0.115129 -0.043873 195944.000000 0 0 1
35.689287 12.174778 30.458503 48.473403 0.328753 0.891360 0.108636 -0.035401 -517856.000000 0 0 1
36.030087 12.444978 31.813519 49.650223 0.332576 0.875318 0.113970 -0.028408 213529.000000 0 0 1
36.524087 13.788478 32.019196 50.491187 0.360976 0.883882 0.116950 -0.015995 97900.200000 0 0 1
35.485987 14.919778 31.855059 49.965986 0.398003 0.879502 0.111661 -0.022795 -804942.000000 0 0 1
35.158087 15.132178 30.453093 48.912828 0.406439 0.898736 0.111713 -0.029046 -154409.000000 0 0 1
34.264887 16.184278 30.295933 48.516563 0.441266 0.896375 0.105077 -0.031967 -816625.000000 0 0 1
32.809187 15.893978 30.621543 47.610295 0.451120 0.872165 0.095510 -0.025796 -1342070.000000 0 0 1
32.140587 15.021578 29.766563 46.311050 0.437205 0.872710 0.122434 -0.029374 -416158.000000 0 0 1
30.873387 14.632578 30.218983 45.612118 0.442595 0.846617 0.108856 -0.030811 -111469.000000 0 0 1
29.938487 14.156378 29.064743 44.062175 0.441692 0.850470 0.107814 -0.031215 33390.700000 0 0 1
30.077987 12.801878 28.727873 43.518548 0.402398 0.849805 0.126968 -0.029878 -404318.000000 0 0 1
29.260087 12.453278 27.687233 42.164199 0.402384 0.854425 0.130489 -0.042027 -360538.000000 0 0 1
29.171887 10.912778 27.575983 41.599550 0.357969 0.846122 0.132638 -0.032936 837722.000000 0 0 1
30.430387 10.394778 27.114533 42.062546 0.329165 0.870265 0.135760 -0.031182 896535.000000 0 0 1
30.242487 9.028478 26.902483 41.471255 0.290113 0.864919 0.146958 -0.030199 -90844.500000 0 0 1
31.458887 8.301578 26.318223 41.847660 0.258005 0.890652 0.116227 -0.038827 -401355.000000 0 0 1
31.645087 8.615278 24.960293 41.214691 0.265805 0.920256 0.136275 -0.036504 -43172.500000 0 0 1
32.487387 7.606978 24.453973 41.367780 0.230008 0.938330 0.137898 -0.034864 -171830.000000 0 0 1
33.055287 7.980678 23.069843 41.092102 0.236901 0.974698 0.129541 -0.036805 -361893.000000 0 0 1
33.770487 9.183878 23.077493 41.920879 0.265528 0.987832 0.127073 -0.042801 112861.000000 0 0 1
33.033787 10.401478 22.867653 41.501221 0.305046 0.987220 0.145810 -0.042326 -13278.000000 0 0 1
32.387687 10.511478 21.471133 40.254974 0.313826 1.008207 0.136344 -0.016857 65570.600000 0 0 1
33.425487 10.575478 20.519333 40.622000 0.306425 1.041265 0.151513 -0.031442 86066.600000 0 0 1
32.968887 10.241778 19.224233 39.514714 0.301198 1.062708 0.162066 -0.042155 -982090.000000 0 0 1
33.918887 10.626378 18.077133 39.877231 0.303603 1.100310 0.194646 -0.066067 248819.000000 0 0 1
35.177887 9.985078 17.945133 40.733442 0.276571 1.114585 0.182480 -0.054795 89723.400000 0 0 1
36.116987 10.351878 18.947033 42.078358 0.279138 1.103718 0.173495 -0.043111 -1060560.000000 0 0 1
37.509787 10.032578 18.375933 42.957091 0.261348 1.128768 0.179559 -0.040567 -496261.000000 0 0 1
37.597187 8.651678 18.121833 42.623947 0.226178 1.131662 0.142788 -0.026022 91424.200000 0 0 1
-37.500327 8.358378 17.290433 42.131888 -0.219303 1.147917 0.152218 -0.030125 -186507.000000 0 0 1
-37.325327 6.853278 16.916333 41.548884 -0.181587 1.151473 0.149069 -0.032812 632088.000000 0 0 1
37.691287 6.382878 16.214333 41.524437 0.167755 1.169647 0.133228 -0.037279 861671.000000 0 0 1
37.841787 5.115178 15.688133 41.282967 0.134358 1.180984 0.161023 -0.038422 -651333.000000 0 0 1
36.655087 4.174778 15.859133 40.156398 0.113405 1.164800 0.138224 -0.036788 -626437.000000 0 0 1
36.575287 3.459878 17.090133 40.519070 0.094315 1.135389 0.135321 -0.028459 864811.000000 0 0 1
35.411787 2.591978 17.084133 39.402799 0.073065 1.122338 0.113812 -0.026225 785465.000000 0 0 1
35.438687 1.560378 18.296033 39.913408 0.044002 1.094610 0.120070 -0.040212 -472971.000000 0 0 1
36.146787 0.420278 18.076533 40.416926 0.011626 1.107106 0.143609 -0.033842 -369669.000000 0 0 1
35.893987 -0.429422 19.176333 40.697597 -0.011963 1.080156 0.127227 -0.022523 -3615.010000 0 0 1
36.530987 -1.857022 19.154333 41.289829 -0.050790 1.088404 0.128783 -0.015766 121848.000000 0 0 1
36.131987 -2.514522 20.348233 41.543879 -0.069481 1.058935 0.158511 -0.015858 151213.000000 0 0 1
36.661987 -3.804722 20.420633 42.137625 -0.103408 1.064870 0.120754 -0.019403 -433639.000000 0 0 1
36.081687 -4.628022 21.593833 42.303668 -0.127569 1.035090 0.119562 -0.018795 -9706.760000 0 0 1
36.429187 -4.137122 22.872313 43.212777 -0.113082 1.013027 0.128902 -0.025789 276462.000000 0 0 1
35.801987 -4.928022 23.864833 43.308174 -0.136787 0.987178 0.119806 -0.024332 87039.800000 0 0 1
35.789587 -4.126022 25.175093 43.951153 -0.114779 0.960882 0.123723 -0.028979 197779.000000 0 0 1
34.986787 -4.599122 26.240253 43.974743 -0.130704 0.931399 0.126018 -0.031098 61456.500000 0 0 1
35.200387 -3.740422 27.342473 44.728836 -0.105864 0.913102 0.133218 -0.033581 119919.000000 0 0 1
34.189487 -3.956622 28.505203 44.689176 -0.115214 0.879087 0.122799 -0.031984 118457.000000 0 0 1
34.280687 -5.257622 29.047353 45.238886 -0.152184 0.873577 0.130264 -0.035322 61981.600000 0 0 1
33.347187 -5.505322 30.081753 45.246605 -0.163615 0.843517 0.128209 -0.039861 -8407.900000 0 0 1
33.389787 -6.974522 30.547033 45.789115 -0.205921 0.840454 0.141261 -0.030532 -418858.000000 0 0 1
34.508687 -7.316922 31.297391 47.158387 -0.208937 0.845088 0.139673 -0.034152 -560042.000000 0 0 1
34.987687 -8.607222 30.930843 47.486204 -0.241217 0.861415 0.134152 -0.027958 591513.000000 0 0 1
36.475487 -8.784022 31.376241 48.908984 -0.236320 0.874314 0.129189 -0.030869 562413.000000 0 0 1
36.591187 -9.166422 32.741546 49.949445 -0.245458 0.855960 0.123826 -0.038948 -154947.000000 0 0 1
37.929287 -9.222022 33.157840 51.216392 -0.238509 0.866619 0.087573 -0.034541 -119780.000000 0 0 1
38.045487 -9.558522 -32.721152 51.083248 -0.246145 2.266005 0.110254 -0.042961 347479.000000 0 0 1
37.401287 -8.535022 -31.898202 49.891865 -0.224359 2.264445 0.099639 -0.046031 966953.000000 0 0 1
-37.916927 -7.428222 -31.696652 49.975490 0.193458 2.257827 0.114057 -0.041815 287143.000000 0 0 1
37.549487 -6.270822 -31.021542 49.108281 -0.165474 2.254536 0.115993 -0.043865 -242115.000000 0 0 1
37.864087 -6.289022 -29.636712 48.493047 -0.164592 2.228314 0.097339 -0.031131 344480.000000 0 0 1
37.234187 -5.207122 -28.960392 47.457382 -0.138947 2.227160 0.110167 -0.032073 36493.600000 0 0 1
37.844187 -5.057622 -27.546132 47.080266 -0.132856 2.195786 0.118994 -0.033310 331564.000000 0 0 1
-36.962127 -4.793622 -27.461722 46.296045 0.128970 2.205795 0.133457 -0.030592 63518.900000 0 0 1
-36.626227 -4.518222 -26.125372 45.215372 0.122740 2.186825 0.136098 -0.023346 567236.000000 0 0 1
-35.088027 -4.366022 -25.895792 43.827204 0.123794 2.202922 0.155430 -0.023674 -503865.000000 0 0 1
-34.729727 -3.674122 -24.699932 42.775457 0.105400 2.186377 0.165667 -0.027421 454728.000000 0 0 1
-33.332127 -3.763322 -24.500932 41.539005 0.112428 2.201644 0.171549 -0.025066 285867.000000 0 0 1
-32.372227 -2.939622 -25.385952 41.243775 0.090559 2.233829 0.165970 -0.021589 -805618.000000 0 0 1
-32.282327 -3.465122 -26.722302 42.050412 0.106929 2.259430 0.158035 -0.010827 135021.000000 0 0 1
-31.301827 -2.784622 -27.505662 41.762662 0.088727 2.289778 0.159636 -0.007273 433385.000000 0 0 1
-30.969727 -3.556422 -28.840892 42.468449 0.114335 2.317350 0.132533 -0.017507 -112624.000000 0 0 1
-32.062527 -3.548922 -29.713262 43.857479 0.110239 2.315149 0.151050 -0.022546 -470385.000000 0 0 1
-31.834727 -4.502522 -30.715072 44.465022 0.140502 2.333349 0.106789 -0.012219 -1026280.000000 0 0 1
-33.021527 -4.651022 -31.711672 46.018294 0.139928 2.331057 0.109510 -0.024695 67646.200000 0 0 1
-34.153827 -5.279222 -31.147722 46.524560 0.153358 2.304318 0.124388 -0.026831 577451.000000 0 0 1
-34.819427 -4.614322 -30.018772 46.204016 0.131754 2.277987 0.148835 -0.028022 -430430.000000 0 0 1
-35.934827 -3.547522 -30.433982 47.224188 0.098402 2.271110 0.177866 -0.030868 308744.000000 0 0 1
-35.440027 -2.340922 -31.005612 47.146828 0.065957 2.288477 0.193197 -0.025657 44785.000000 0 0 1
-35.076727 -1.336022 -30.087622 46.232313 0.038070 2.279424 0.195055 -0.022039 -96042.700000 0 0 1
-34.859327 -0.000222 -30.834062 46.539360 0.000006 2.294997 0.187042 -0.025094 -335966.000000 0 0 1
-35.968827 0.601578 -31.449642 47.782825 -0.016723 2.289193 0.221981 -0.022100 -278086.000000 0 0 1
-35.731727 1.940278 -31.855542 47.909253 -0.054248 2.298175 0.235213 -0.015918 -410620.000000 0 0 1
-37.010427 2.686078 -32.220542 49.144176 -0.072449 2.285817 0.208113 -0.017417 -411810.000000 0 0 1
-37.593727 2.265378 -33.413092 50.347343 -0.060187 2.296486 0.197515 -0.018232 -759679.000000 0 0 1
37.338587 2.768678 -33.637522 50.332083 0.074015 2.302733 0.160004 -0.019428 -750210.000000 0 0 1
36.602187 2.287978 32.451500 48.969937 0.062428 0.846402 0.124890 -0.012930 314840.000000 0 0 1
37.244387 2.522578 31.168543 48.631120 0.067627 0.875103 0.150876 -0.027799 616678.000000 0 0 1
-37.911027 1.590578 30.871493 48.916510 -0.041931 0.887818 0.155677 -0.026552 51659.400000 0 0 1
-37.420227 1.719378 29.401373 47.620062 -0.045916 0.905343 0.172527 -0.030901 93557.100000 0 0 1
-36.595027 2.827178 29.068173 46.820375 -0.077103 0.900977 0.173733 -0.039806 361430.000000 0 0 1
-36.289627 2.905478 27.629673 45.703146 -0.079893 0.921600 0.155465 -0.045084 27039.800000 0 0 1
-35.443727 4.187278 27.462383 45.033027 -0.117594 0.914953 0.131385 -0.041426 -449667.000000 0 0 1
-34.772227 4.198378 26.233413 43.759868 -0.120158 0.927938 0.127323 -0.029331 274615.000000 0 0 1
-34.346727 5.517378 25.931053 43.388461 -0.159277 0.930231 0.115781 -0.030414 -437140.000000 0 0 1
-33.458527 5.797678 24.703773 41.992409 -0.171576 0.941852 0.089223 -0.020279 227331.000000 0 0 1
-32.213727 5.083578 24.769663 40.952450 -0.156517 0.921232 0.075746 -0.023468 1131390.000000 0 0 1
-31.341727 5.265678 23.615583 39.594531 -0.166454 0.931743 0.080372 -0.020176 579107.000000 0 0 1
-31.864327 4.867778 22.203433 39.141065 -0.151594 0.967613 0.105252 -0.026584 -349613.000000 0 0 1
-32.164327 3.505078 22.085333 39.173861 -0.108546 0.971844 0.085798 -0.027915 -192504.000000 0 0 1
-32.823727 3.273278 20.860433 39.029079 -0.099394 1.006899 0.118169 -0.031137 -765064.000000 0 0 1
-32.855727 1.789078 20.349233 38.688381 -0.054399 1.016932 0.101610 -0.026743 -514837.000000 0 0 1
-31.669727 1.216278 19.874933 37.409409 -0.038386 1.010684 0.105892 -0.029227 -261078.000000 0 0 1
-31.489427 1.665378 18.551033 36.585493 -0.052838 1.039026 0.122679 -0.036839 -484791.000000 0 0 1
-30.161927 1.264878 17.901933 35.097306 -0.041912 1.035535 0.133880 -0.044065 -594888.000000 0 0 1
-29.983727 -0.133922 17.710833 34.824063 0.004466 1.037261 0.155805 -0.031708 -34168.600000 0 0 1
-28.853427 -0.561822 16.991733 33.489623 0.019469 1.038663 0.176525 -0.039708 -485875.000000 0 0 1
-28.772927 -0.260822 15.489133 32.678166 0.009065 1.076979 0.193042 -0.036384 -290435.000000 0 0 1
-28.526127 1.135878 15.271133 32.376498 -0.039798 1.079609 0.196643 -0.044400 288516.000000 0 0 1
-28.733827 1.483578 13.876133 31.943401 -0.051586 1.121427 0.226697 -0.043618 -42212.600000 0 0 1
-27.988827 2.774478 13.492033 31.194664 -0.098805 1.123521 0.219349 -0.051298 -59982.100000 0 0 1
-26.595127 2.606978 13.317633 29.857268 -0.097712 1.108457 0.198573 -0.063026 -167880.000000 0 0 1
-26.106727 3.887978 13.097533 29.465622 -0.147840 1.110178 0.197299 -0.061974 -725480.000000 0 0 1
-24.620927 3.907478 12.744333 27.997793 -0.157393 1.098210 0.194685 -0.064744 -673077.000000 0 0 1
-23.824127 3.614578 13.849133 27.793032 -0.150571 1.049165 0.157306 -0.058718 -337531.000000 0 0 1
-22.472627 3.887078 13.573533 26.539953 -0.171275 1.033939 0.162060 -0.052135 230819.000000 0 0 1
-21.622727 4.411578 14.794133 26.568227 -0.201263 0.980225 0.126220 -0.052639 165085.000000 0 0 1
-21.762827 5.802778 14.966233 27.042207 -0.260575 0.984308 0.118962 -0.040705 255056.000000 0 0 1
-21.084627 6.271778 16.087433 27.252562 -0.289122 0.939355 0.095273 -0.024437 -422628.000000 0 0 1
-21.270027 7.809978 16.258133 27.887930 -0.351899 0.948404 0.089955 -0.029465 -326660.000000 0 0 1
-20.515527 8.651178 15.395433 27.069338 -0.399063 0.965822 0.091268 -0.032236 588454.000000 0 0 1
-20.729527 10.046678 15.504733 27.767710 -0.451297 0.978373 0.084264 -0.022312 -575822.000000 0 0 1
-20.439127 10.828178 16.840433 28.611318 -0.487184 0.941479 0.092529 -0.018826 -508918.000000 0 0 1
-21.263027 10.540478 17.921933 29.739093 -0.460217 0.923993 0.113418 -0.024763 183952.000000 0 0 1
-20.715627 11.065678 19.110533 30.278687 -0.490609 0.887755 0.128044 -0.014267 -361928.000000 0 0 1
-13.196413 -32.938693 -20.145832 40.803890 1.189742 2.087162 0.153843 -0.056902 301469.000000 0 0 1
-14.208013 -33.643393 -19.419832 41.362730 1.171205 2.059522 0.173871 -0.049614 -237352.000000 0 0 1
-15.172113 -32.772993 -18.930632 40.775372 1.137229 2.053602 0.146359 -0.062912 146778.000000 0 0 1
-16.391413 -33.520193 -18.277932 41.549544 1.115986 2.026291 0.134918 -0.048195 -354701.000000 0 0 1
-17.166713 33.237678 -19.225632 42.060245 -1.094049 2.045525 0.132226 -0.049663 144691.000000 0 0 1
-18.153013 32.360978 -18.700132 41.550689 -1.059582 2.037624 0.153178 -0.042298 1551770.000000 0 0 1
-19.445813 33.046778 -18.023432 42.368305 -1.038925 2.010199 0.135476 -0.037888 351015.000000 0 0 1
-19.237413 -33.566393 -16.887332 42.213302 1.050380 1.982365 0.143338 -0.036076 64242.000000 0 0 1
-20.470913 -33.226493 -16.283632 42.287289 1.018621 1.966082 0.121348 -0.033066 -16246.900000 0 0 1
-20.673313 33.611578 -14.890932 42.176580 -1.019373 1.931638 0.116256 -0.026272 -230486.000000 0 0 1
-20.682413 32.186178 -14.877032 41.049219 -0.999650 1.941659 0.117165 -0.031897 357840.000000 0 0 1
-21.122613 31.645878 -13.603332 40.406398 -0.982239 1.914167 0.111432 -0.020488 -202039.000000 0 0 1
-21.282513 30.133478 -13.502132 39.284595 -0.955872 1.921651 0.101321 -0.021244 6789.830000 0 0 1
-20.097213 29.434578 -13.186832 38.002433 -0.971724 1.925166 0.122642 -0.036850 127753.000000 0 0 1
-20.318613 28.033578 -13.324232 37.098015 -0.943622 1.938167 0.120554 -0.041345 -159120.000000 0 0 1
-19.162013 27.122078 -12.845632 35.606181 -0.955715 1.939889 0.109548 -0.038253 357325.000000 0 0 1
-17.992813 27.377278 -13.616732 35.477769 -0.989364 1.964715 0.162803 -0.042872 384207.000000 0 0 1
-16.938313 26.448278 -13.398332 34.145763 -1.001177 1.974021 0.184055 -0.057792 212039.000000 0 0 1
-15.602213 26.822878 -14.043332 34.060402 -1.043960 1.995781 0.143894 -0.054033 -242921.000000 0 0 1
-15.479613 26.793178 -15.454432 34.588037 -1.046902 2.033998 0.138024 -0.051376 -512327.000000 0 0 1
-14.152613 26.992078 -15.870332 34.361842 -1.087879 2.050887 0.180162 -0.049276 -91638.700000 0 0 1
-14.006013 27.340078 -17.361432 35.285515 -1.097366 2.085213 0.205897 -0.065476 132764.000000 0 0 1
-14.446313 26.235878 -18.175832 35.033957 -1.067468 2.116250 0.181931 -0.061181 136690.000000 0 0 1
-14.541613 26.540778 -19.554732 36.031361 -1.069569 2.144462 0.176708 -0.058224 -25924.300000 0 0 1
-13.598413 25.769278 -20.494232 35.622831 -1.085236 2.183782 0.162891 -0.042768 842963.000000 0 0 1
-12.213113 26.171978 -20.506032 35.420756 -1.134184 2.188208 0.125464 -0.031855 644629.000000 0 0 1
-11.582013 25.089378 -21.159132 34.804149 -1.138313 2.224271 0.113291 -0.030607 461271.000000 0 0 1
-10.352713 25.496178 -22.052932 35.264225 -1.185086 2.246393 0.130910 -0.032025 557043.000000 0 0 1
-10.662313 26.089578 -23.271432 36.550110 -1.182829 2.261007 0.105988 -0.025221 -95045.400000 0 0 1
-9.450113 26.419978 -23.896132 36.855732 -1.227289 2.276237 0.107812 -0.028564 -62751.600000 0 0 1
-9.722013 27.043778 -25.219032 38.234579 -1.225691 2.291066 0.095045 -0.023882 -313260.000000 0 0 1
-10.149413 26.258378 -26.242142 38.485881 -1.201964 2.321104 0.091422 -0.020497 -294202.000000 0 0 1
-10.564113 27.017478 -27.297542 39.833408 -1.198064 2.325802 0.083078 -0.019701 203576.000000 0 0 1
-11.493013 26.278078 -28.313882 40.302638 -1.158502 2.349745 0.050644 -0.005303 362501.000000 0 0 1
-12.036413 27.027478 -29.400512 41.710310 -1.151825 2.353042 0.049774 -0.001974 175425.000000 0 0 1
-13.366613 26.566678 -29.629752 41.980674 -1.104644 2.354341 0.055809 0.003400 466206.000000 0 0 1
-13.858513 26.994878 -31.053952 43.418081 -1.096506 2.367751 0.061745 -0.004194 -26234.100000 0 0 1
-13.143613 26.493578 -32.180092 43.706093 -1.110269 2.398358 0.075854 -0.008631 -9485.950000 0 0 1
-13.057213 25.114978 -32.296932 42.945835 -1.091358 2.421946 0.079140 -0.007933 26764.100000 0 0 1
-12.350013 24.662178 -33.624772 43.489897 -1.106535 2.454610 0.068833 -0.015741 -68978.400000 0 0 1
-13.029813 24.803178 32.542556 42.941723 -1.087092 0.710815 0.066956 -0.016003 -183783.000000 0 0 1
-12.485713 23.935778 31.527792 41.506820 -1.089992 0.708128 0.062886 -0.021216 -524721.000000 0 0 1
-13.358013 23.713878 30.282963 40.716610 -1.057800 0.732134 0.070818 -0.012632 -516643.000000 0 0 1
-14.401113 22.796078 30.373223 40.615094 -1.007367 0.726008 0.092990 -0.026273 -360662.000000 0 0 1
-15.009813 22.582178 29.124573 39.793089 -0.984174 0.749690 0.111471 -0.026011 -7699.010000 0 0 1
-16.225113 21.637678 29.163153 39.773520 -0.927388 0.747736 0.104626 -0.030811 122359.000000 0 0 1
-15.830513 20.290278 29.252783 38.961851 -0.908245 0.721515 0.097678 -0.031511 166325.000000 0 0 1
-16.881013 19.522978 29.767123 39.397930 -0.857845 0.714302 0.086869 -0.028275 111755.000000 0 0 1
-16.251513 18.152978 29.994393 38.643316 -0.840610 0.682203 0.072496 -0.034524 91908.100000 0 0 1
-15.808613 17.577678 28.790923 37.253244 -0.838336 0.687487 0.100063 -0.044332 89886.300000 0 0 1
-15.201613 16.334378 28.943473 36.546211 -0.821302 0.656769 0.096187 -0.056151 -147018.000000 0 0 1
-14.677513 15.694078 27.639713 35.009815 -0.818857 0.660827 0.112673 -0.050295 78588.700000 0 0 1
-13.526413 16.356878 27.156593 34.467257 -0.879834 0.663413 0.077074 -0.040824 189303.000000 0 0 1
-12.873613 15.600878 26.112103 33.029672 -0.880886 0.659065 0.049319 -0.027564 -24532.800000 0 0 1
-11.968713 16.525478 25.277103 32.484972 -0.943975 0.679134 0.062778 -0.020132 -147452.000000 0 0 1
-12.579813 17.438478 24.382103 32.509062 -0.945863 0.722720 0.059715 -0.018872 -233222.000000 0 0 1
-13.264413 18.548278 24.945243 33.797165 -0.949989 0.740566 0.051645 -0.019341 335029.000000 0 0 1
-12.362913 19.674678 25.578933 34.557436 -1.009780 0.737449 0.050538 -0.023406 245276.000000 0 0 1
-11.887913 19.390378 26.881373 35.212461 -1.020812 0.702228 0.060356 -0.028430 -48084.200000 0 0 1
-12.830713 19.662978 27.905553 36.468888 -0.992644 0.699463 0.092954 -0.036939 -84021.400000 0 0 1
-12.310713 19.493878 29.370283 37.338699 -1.007524 0.665528 0.096498 -0.042509 298791.000000 0 0 1
-11.244913 20.381178 29.723363 37.753394 -1.066626 0.664374 0.065451 -0.043277 232018.000000 0 0 1
-11.203213 20.506978 31.130733 38.925193 -1.070789 0.643904 0.064942 -0.039398 -477691.000000 0 0 1
-9.935013 21.140478 31.694264 39.371952 -1.131475 0.635128 0.046009 -0.027667 859561.000000 0 0 1
-8.735913 20.286578 31.638112 38.585380 -1.164171 0.609471 0.061670 -0.029649 1453360.000000 0 0 1
-7.676113 21.069078 32.209432 39.246354 -1.221412 0.608163 0.073799 -0.022228 398471.000000 0 0 1
-6.592013 20.174278 32.887237 39.141109 -1.254979 0.573103 0.068757 -0.012736 -336323.000000 0 0 1
-7.007913 19.391778 -33.389502 39.242971 -1.224014 2.588379 0.065417 -0.024002 145080.000000 0 0 1
-6.037913 18.638678 -32.651892 38.078902 -1.257519 2.601148 0.048683 -0.024417 380388.000000 0 0 1
-5.117113 17.592678 -33.378192 38.076120 -1.287740 2.639583 0.030937 -0.016169 55387.800000 0 0 1
-5.702713 16.358078 -33.559682 37.767181 -1.235354 2.665067 0.033556 -0.017823 -220772.000000 0 0 1
-5.128313 15.799078 32.662804 36.643815 -1.256930 0.470461 0.046077 -0.015450 56204.900000 0 0 1
-5.660213 14.423778 32.342737 35.862738 -1.196839 0.446769 0.055182 -0.022613 -368229.000000 0 0 1
-5.039913 13.407778 33.097997 36.064478 -1.211241 0.408431 0.063760 -0.023823 -131280.000000 0 0 1
-5.587313 12.137478 32.886109 35.496937 -1.139381 0.385929 0.076049 -0.024848 -265873.000000 0 0 1
-4.716513 11.021278 33.485563 35.566796 -1.166433 0.343790 0.090032 -0.034948 -216773.000000 0 0 1
-4.733713 10.649178 -32.547652 34.571125 -1.152514 2.797759 0.096617 -0.040382 -656937.000000 0 0 1
-3.883313 9.612978 -32.225452 33.852168 -1.186876 2.830326 0.128779 -0.043167 -225937.000000 0 0 1
-3.731613 9.255078 -30.726192 32.306041 -1.187538 2.827566 0.140830 -0.044779 -571710.000000 0 0 1
-4.832213 8.487878 -30.435692 31.964445 -1.053251 2.831068 0.140874 -0.040883 -843312.000000 0 0 1
-5.314313 8.797578 -29.175232 30.932725 -1.027393 2.802881 0.181159 -0.047417 683304.000000 0 0 1
-6.485513 7.777478 -28.782012 30.511560 -0.875733 2.803277 0.168271 -0.044256 745446.000000 0 0 1
-6.091413 6.485578 -28.291262 29.657437 -0.816728 2.836885 0.182216 -0.034393 210794.000000 0 0 1
-7.197213 5.670378 -27.906042 29.371760 -0.667293 2.824345 0.184545 -0.053751 -93279.200000 0 0 1
-7.064013 5.145578 -26.418902 27.826887 -0.629547 2.822123 0.178243 -0.052201 -223261.000000 0 0 1
-7.038613 6.092478 -25.379812 27.033225 -0.713469 2.790036 0.136479 -0.032504 -412125.000000 0 0 1
-5.920013 6.908878 -25.320352 26.905379 -0.862327 2.796632 0.133201 -0.037311 -701952.000000 0 0 1
-5.918013 7.937478 -24.173832 26.122799 -0.930131 2.752865 0.082595 -0.019412 90914.900000 0 0 1
-6.016413 7.556078 -22.847532 24.805267 -0.898355 2.741631 0.060213 -0.011483 201603.000000 0 1 0
-7.360613 7.449978 -22.394532 24.722376 -0.791432 2.704156 0.072010 -0.016060 222211.000000 0 1 0
-7.465613 7.659778 -20.872832 23.453842 -0.798234 2.668040 0.051597 -0.016357 -113632.000000 0 1 0
-7.277913 9.048778 -20.534632 23.590666 -0.893440 2.626924 0.035949 -0.004174 77218.500000 0 1 0
-7.016113 9.309478 -19.146632 22.416194 -0.924962 2.594697 0.023640 0.000966 -764505.000000 0 1 0
-8.202913 9.223278 -18.225532 22.011967 -0.843885 2.546297 0.032104 -0.009747 -1241720.000000 0 1 0
-7.869513 9.310378 -16.887632 20.827974 -0.869072 2.516339 0.012289 -0.004276 -877153.000000 0 1 0
-8.907913 9.621578 -16.046232 20.722144 -0.823894 2.456487 0.015311 -0.010653 -411358.000000 0 1 0
-9.599313 11.030078 -16.163132 21.795786 -0.854643 2.406206 0.049603 -0.022090 -157737.000000 0 1 0
-8.637413 12.017778 -15.885732 21.711480 -0.947617 2.391571 0.024190 -0.018565 184218.000000 0 1 0
-9.128513 13.365578 -16.069732 22.807997 -0.971580 2.352607 0.054235 -0.023021 389958.000000 0 1 0
-8.031413 14.462678 -15.845432 22.907431 -1.063878 2.334659 0.059169 -0.019076 236977.000000 0 1 0
-7.530613 14.681978 -14.537132 21.990881 -1.096870 2.293017 0.055527 -0.017852 177434.000000 0 1 0
-8.454113 15.336978 -13.702332 22.236205 -1.067014 2.234727 0.054504 -0.025361 -604085.000000 0 1 0
-7.684313 16.120378 -12.586532 21.848022 -1.125976 2.184739 0.038616 -0.024302 486895.000000 0 1 0
-7.134413 17.426778 -12.816932 22.778635 -1.182218 2.168413 0.048781 -0.023477 134620.000000 0 1 0
-6.189513 17.438278 -13.862532 23.120844 -1.229729 2.213758 0.061434 -0.018453 -582237.000000 0 1 0
-5.976213 18.808078 -14.497032 24.487198 -1.263138 2.204365 0.091180 -0.015098 -102810.000000 0 1 0
-5.328413 19.655378 -13.602132 24.489669 -1.306067 2.159668 0.087798 -0.027794 -287130.000000 0 1 0
-5.362213 21.036378 -13.887732 25.771140 -1.321209 2.139912 0.104507 -0.026461 -108064.000000 0 0 1
-4.654813 21.938878 -12.854132 25.849765 -1.361725 2.091238 0.104804 -0.029821 -729150.000000 0 0 1
-4.729513 23.316278 -13.088632 27.153810 -1.370670 2.073753 0.106833 -0.032718 497434.000000 0 0 1
-5.980013 24.030478 -13.067232 27.999589 -1.326899 2.056345 0.103856 -0.028111 870958.000000 0 0 1
-6.772613 24.041578 -11.702132 27.582706 -1.296208 2.008937 0.095002 -0.025080 1104.700000 0 0 1
-7.210313 22.741878 -11.357732 26.423090 -1.263772 2.015113 0.089698 -0.021436 -277333.000000 0 0 1
-8.074013 22.665378 -10.238032 26.148162 -1.228585 1.973100 0.097425 -0.020303 60885.200000 0 0 1
-7.530813 23.002978 -8.834332 25.766171 -1.254409 1.920762 0.104088 -0.017378 -18683.500000 0 0 1
-7.434613 24.389178 -8.721632 26.947585 -1.274912 1.900383 0.102671 -0.016790 -579159.000000 0 0 1
-6.663413 24.709678 -7.627532 26.704841 -1.307394 1.860453 0.101444 -0.015426 -141803.000000 0 0 1
-6.482213 26.273378 -7.436432 28.064390 -1.328905 1.838977 0.098852 -0.025731 591898.000000 0 0 1
-5.551213 26.959278 -8.324532 28.756155 -1.367724 1.864487 0.104851 -0.030652 118360.000000 0 0 1
-5.764113 26.846878 -9.712032 29.125649 -1.359304 1.910760 0.102630 -0.027056 -614875.000000 0 0 1
-5.420513 28.212878 -10.364332 30.541248 -1.380980 1.917028 0.104930 -0.033523 139811.000000 0 0 1
-6.317613 29.275778 -10.137432 31.618838 -1.358259 1.897174 0.101141 -0.033963 -272365.000000 0 0 1
-7.415613 29.293778 -11.020432 32.164681 -1.322859 1.920506 0.107835 -0.034015 -139579.000000 0 0 1
-8.467213 30.358678 -10.724732 33.292085 -1.298803 1.898786 0.113588 -0.038575 -415478.000000 0 0 1
-9.478613 30.003678 -9.845632 32.969702 -1.264803 1.874050 0.113972 -0.041105 169994.000000 0 0 1
-10.532713 30.984378 -9.789532 34.158523 -1.243115 1.861463 0.101096 -0.045024 1356060.000000 0 0 1
-11.808313 30.615778 -8.950032 34.012721 -1.202683 1.837070 0.134968 -0.051332 908981.000000 0 0 1
-12.654413 29.600678 -9.494732 33.563138 -1.166807 1.857604 0.143126 -0.054995 -356786.000000 0 0 1
-13.754413 29.421978 -8.661732 33.613424 -1.133495 1.831424 0.154393 -0.047647 122036.000000 0 0 1
-14.789013 28.312378 -9.061932 33.202775 -1.089428 1.847231 0.148273 -0.048762 350677.000000 0 0 1
-14.418213 26.972278 -8.803132 31.825835 -1.079887 1.851054 0.156779 -0.044066 73605.400000 0 0 1
-15.383513 26.171078 -9.460632 31.797506 -1.039391 1.872898 0.154856 -0.045771 89820.700000 0 0 1
-15.455413 24.743178 -8.997432 30.529468 -1.012461 1.869952 0.158062 -0.037635 304509.000000 0 0 1
-14.375313 23.896078 -9.392132 29.425912 -1.029219 1.895659 0.162802 -0.034899 234219.000000 0 0 1
-14.515713 22.622778 -8.805332 28.284800 -1.000319 1.887367 0.136753 -0.031177 -26744.100000 0 0 1
-13.470513 21.584878 -9.260132 27.076036 -1.012865 1.919846 0.135761 -0.027937 -114352.000000 0 0 1
-13.556513 21.167378 -10.641932 27.296294 -1.001168 1.971284 0.133623 -0.018830 144103.000000 0 0 1
-13.133513 19.810578 -10.813632 26.112886 -0.985368 1.997762 0.125361 -0.019861 -185558.000000 0 0 1
-13.314413 19.442978 -12.268432 26.567225 -0.970350 2.050807 0.129566 -0.020816 -198276.000000 0 0 1
-14.641013 19.122678 -12.587432 27.174980 -0.917363 2.052398 0.139864 -0.019550 -439324.000000 0 0 1
-14.723313 18.845678 -13.936132 27.679438 -0.907589 2.098422 0.133716 -0.013490 -721551.000000 0 0 1
-16.168113 18.634378 -14.299532 28.515339 -0.856145 2.096091 0.123222 -0.011018 -728022.000000 0 0 1
-16.945913 19.787278 -14.475032 29.803136 -0.862596 2.077947 0.132196 -0.015116 394064.000000 0 0 1
-18.325613 19.485778 -14.726632 30.535182 -0.816071 2.074057 0.122018 -0.013601 741339.000000 0 0 1
-19.055213 20.677678 -15.411132 32.065098 -0.826210 2.072158 0.122562 -0.021934 17313.200000 0 0 1
-19.575413 21.682878 -14.504032 32.614582 -0.836434 2.031647 0.118379 -0.036305 673286.000000 0 0 1
-20.234513 22.709878 -15.284732 34.041109 -0.842976 2.036451 0.109995 -0.031658 245254.000000 0 0 1
-20.825213 23.830678 -14.393532 34.767290 -0.852600 1.997636 0.112513 -0.021315 271853.000000 0 0 1
-21.920313 23.466178 -13.564932 34.859275 -0.819445 1.970488 0.128525 -0.023996 367683.000000 0 0 1
-22.491213 24.577078 -12.915432 35.730880 -0.829685 1.940634 0.130775 -0.037222 -20827.200000 0 0 1
-26.627853 -0.247822 3.439368 26.850200 0.009307 1.442349 0.248013 -0.069388 250764.000000 0 0 1
-27.305753 0.054178 4.686768 27.705105 -0.001984 1.400813 0.271069 -0.066439 -69012.400000 0 0 1
-28.699133 0.021078 4.602068 29.065782 -0.000734 1.411794 0.267415 -0.061305 -321188.000000 0 0 1
-29.326763 0.688078 5.863068 29.915014 -0.023458 1.373529 0.256976 -0.037765 -95512.800000 0 0 1
-29.197433 2.111878 5.871568 29.856748 -0.072205 1.372848 0.285795 -0.048604 182609.000000 0 0 1
-29.869543 2.651878 6.982568 30.789256 -0.088550 1.342020 0.291525 -0.043236 256222.000000 0 0 1
-28.913263 3.093678 8.148668 30.198483 -0.106593 1.297573 0.315987 -0.043946 338854.000000 0 0 1
-28.076823 2.059278 8.632268 29.445962 -0.073213 1.273270 0.280365 -0.053803 302867.000000 0 0 1
-26.967583 2.579978 9.300568 28.642754 -0.095379 1.240092 0.272976 -0.066935 -456331.000000 0 0 1
-25.960333 1.659978 9.994768 27.867361 -0.063856 1.203970 0.243539 -0.062118 59583.700000 0 0 1
-24.931183 1.174078 9.121768 26.573464 -0.047058 1.220404 0.256210 -0.067765 425078.000000 0 0 1
-25.195193 -0.082722 8.474368 26.582315 0.003283 1.246336 0.224047 -0.059227 136146.000000 0 0 1
-23.939413 -0.701822 7.777368 25.180856 0.029308 1.256802 0.199650 -0.061750 787354.000000 0 0 1
-22.851613 -1.005022 8.652368 24.455465 0.043952 1.209164 0.207437 -0.085880 238154.000000 0 1 0
-21.800213 -1.692822 8.026268 23.292400 0.077496 1.218997 0.211844 -0.067144 -421065.000000 0 1 0
-20.609613 -1.936222 8.931768 22.545101 0.093673 1.163451 0.151580 -0.050794 -262103.000000 0 1 0
-19.902913 -0.838022 9.498368 22.069146 0.042081 1.125870 0.127586 -0.048242 963028.000000 0 1 0
-20.634713 -0.298022 10.622268 23.210187 0.014442 1.095440 0.159000 -0.055511 -346879.000000 0 1 0
-20.366813 1.174778 10.921068 23.139941 -0.057617 1.079287 0.126407 -0.041836 -208861.000000 0 1 0
-20.662613 2.204178 10.005168 23.063073 -0.106273 1.122071 0.142695 -0.032657 603889.000000 0 1 0
-22.040713 2.338678 9.663768 24.179554 -0.105712 1.159643 0.176189 -0.050824 29316.900000 0 1 0
-22.349513 3.795878 9.104268 24.429431 -0.168236 1.188905 0.162996 -0.056650 -284823.000000 0 1 0
-22.481513 4.758278 10.166968 25.128209 -0.208575 1.154251 0.150292 -0.053614 426619.000000 0 0 1
-22.355813 6.103378 9.713268 25.127299 -0.266516 1.173895 0.107270 -0.044737 -271616.000000 0 0 1
-22.539013 7.147778 10.826068 26.005799 -0.307097 1.141430 0.117747 -0.051044 -363512.000000 0 0 1
-23.805613 7.149978 11.406668 27.348518 -0.291776 1.140560 0.146820 -0.053055 -254288.000000 0 0 1
-23.767213 7.975978 12.586968 28.052244 -0.323778 1.105489 0.150279 -0.053028 340539.000000 0 0 1
-24.642013 7.466178 13.795868 29.211275 -0.294194 1.078922 0.168638 -0.056200 -854514.000000 0 0 1
-25.995313 7.578178 13.633668 30.316035 -0.283660 1.104347 0.166012 -0.056463 -734695.000000 0 0 1
-26.765903 7.046678 14.728168 31.352642 -0.257429 1.081779 0.157050 -0.052658 1495480.000000 0 0 1
-28.320413 6.909578 14.473268 32.546329 -0.239304 1.109960 0.157662 -0.052207 933032.000000 0 0 1
-28.790033 5.994778 13.527068 32.369506 -0.205291 1.139669 0.193072 -0.038538 156450.000000 0 0 1
-30.167633 6.209978 13.290668 33.545369 -0.203013 1.163422 0.227553 -0.035691 -206541.000000 0 0 1
-30.666903 5.323978 12.175568 33.422270 -0.171893 1.197921 0.260592 -0.037255 -295917.000000 0 0 1
-31.256523 4.110578 12.604168 33.951909 -0.130761 1.190457 0.224955 -0.040460 444874.000000 0 0 1
-31.878993 3.335578 11.591768 34.084679 -0.104253 1.223787 0.216118 -0.020148 296103.000000 0 0 1
-32.967063 2.323978 12.109068 35.197409 -0.070378 1.219588 0.178529 -0.009832 380201.000000 0 0 1
-32.566413 1.093778 12.681868 34.965660 -0.033573 1.199638 0.168492 -0.010777 -333869.000000 0 0 1
-33.723253 0.503778 13.209568 36.221599 -0.014937 1.197499 0.145746 -0.006258 -49604.400000 0 0 1
-33.618373 -0.629922 14.287368 36.533829 0.018735 1.169000 0.136193 -0.018958 -129764.000000 0 0 1
-33.363973 -1.931422 13.764968 36.143594 0.057825 1.180091 0.164330 -0.020488 -7713.100000 0 0 1
-33.991756 -2.882222 14.549568 37.086879 0.084589 1.167654 0.165497 -0.019487 -253683.000000 0 0 1
-33.893503 -4.313822 14.077568 36.953437 0.126595 1.179968 0.177349 -0.027836 -100253.000000 0 0 1
-34.759740 -4.736222 13.035268 37.424451 0.135422 1.215030 0.148438 -0.034822 -80766.700000 0 0 1
-34.761364 -6.089622 12.644168 37.487477 0.173424 1.226759 0.165618 -0.032608 -825354.000000 0 0 1
-35.934793 -6.409422 11.671868 38.322611 0.176506 1.261311 0.161299 -0.029328 21691.500000 0 0 1
-37.220153 -6.424322 12.230968 39.701489 0.170919 1.257629 0.144469 -0.029193 -323767.000000 0 0 1
-37.747613 -5.189622 12.550668 40.116502 0.136626 1.252598 0.154747 -0.037503 -1976350.000000 0 0 1
36.958171 -5.192822 12.283868 39.290777 -0.139592 1.252825 0.162568 -0.039845 -1133040.000000 0 0 1
36.136491 -5.881622 13.163868 38.906643 -0.161346 1.225639 0.140217 -0.032350 944904.000000 0 0 1
34.758531 -5.544722 12.834768 37.465059 -0.158188 1.221135 0.156332 -0.032960 1024710.000000 0 0 1
33.702391 -6.579322 13.174468 36.779141 -0.192794 1.204452 0.144310 -0.020560 -248351.000000 0 0 1
33.283251 -6.669722 14.530868 36.924329 -0.197773 1.166327 0.144118 -0.019555 308606.000000 0 0 1
32.331521 -7.723122 14.735868 36.360963 -0.234479 1.153526 0.125936 -0.018026 162904.000000 0 0 1
31.773821 -7.625122 16.177368 36.461286 -0.235527 1.111089 0.128205 -0.019352 -294939.000000 0 0 1
32.600911 -8.135122 17.191068 37.742978 -0.244543 1.097888 0.109391 -0.017487 -477884.000000 0 0 1
32.269071 -7.761022 18.521268 38.007417 -0.236027 1.061794 0.098273 -0.025042 -522138.000000 0 0 1
33.259211 -8.094122 19.663868 39.476038 -0.238724 1.049365 0.111018 -0.034301 170174.000000 0 0 1
34.465621 -7.348422 19.633168 40.340297 -0.210065 1.062501 0.111149 -0.021498 253080.000000 0 0 1
35.539421 -8.159122 19.162168 41.192358 -0.225669 1.086950 0.062556 -0.002101 -872776.000000 0 0 1
36.883131 -7.785022 19.704768 42.535277 -0.208019 1.089129 0.046373 -0.009816 -934868.000000 0 0 1
36.899341 -8.226522 21.073368 43.281911 -0.219358 1.062275 0.048981 -0.019376 602101.000000 0 0 1
-38.035843 -8.067222 21.745968 44.549888 0.208998 1.060855 0.056407 -0.024066 600746.000000 0 0 1
-38.081263 -8.569222 23.220468 45.418105 0.221338 1.034146 0.057830 -0.019318 -198333.000000 0 0 1
37.585351 -7.729122 24.209568 45.370707 -0.202815 1.007951 0.075510 -0.015215 85447.400000 0 0 1
37.406391 -8.367622 25.474568 46.024002 -0.220072 0.984228 0.084635 -0.026431 30074.400000 0 0 1
37.201541 -7.435122 26.715268 46.399797 -0.197262 0.957260 0.110038 -0.022629 715844.000000 0 0 1
-37.788123 -6.988322 27.352668 47.169347 0.182868 0.952212 0.091341 -0.039338 343906.000000 0 0 1
-38.074033 -6.059022 28.398068 47.883128 0.157815 0.935929 0.101805 -0.051059 301332.000000 0 0 1
-36.891513 -5.777822 29.361668 47.502363 0.155355 0.904461 0.117953 -0.041980 291129.000000 0 0 1
-36.476873 -6.817622 30.196068 47.841872 0.184771 0.887743 0.109513 -0.036766 1133100.000000 0 0 1
-35.067855 -6.633422 30.497168 46.945010 0.186951 0.863691 0.104519 -0.056980 1290250.000000 0 0 1
-34.645575 -7.469922 31.771468 47.597707 0.212359 0.839950 0.088821 -0.043167 -763.582000 0 0 1
-34.650173 -8.879422 31.509568 47.668978 0.250861 0.848635 0.077546 -0.037674 384004.000000 0 0 1
-33.901413 -9.576422 32.486868 47.920875 0.275306 0.825857 0.067001 -0.032637 -5285.140000 0 0 1
-34.198405 -11.108122 32.275868 48.318246 0.314064 0.839298 0.076638 -0.025676 431391.000000 0 0 1
-35.576608 -11.396522 32.519568 49.528760 0.310009 0.854522 0.065352 -0.028451 466994.000000 0 0 1
-35.893600 -12.722922 32.304068 49.937722 0.340644 0.867301 0.064635 -0.030335 -729191.000000 0 0 1
-37.371653 -12.901522 32.582768 51.232084 0.332412 0.881514 0.063320 -0.025789 -772615.000000 0 0 1
-37.707743 -14.248922 32.738568 51.929948 0.361291 0.888680 0.054989 -0.034049 -47755.800000 0 0 1
37.141681 -14.387422 33.143568 51.816970 -0.369568 0.876783 0.037115 -0.022947 -10112.600000 0 0 1
36.767971 -15.904422 33.300868 52.093974 -0.408258 0.877279 0.029819 -0.007437 64146.500000 0 0 1
37.388191 -16.546622 -32.958197 52.515810 -0.416652 2.249245 0.036507 -0.018476 386915.000000 0 0 1
37.037681 -17.922322 -33.028897 52.762747 -0.450680 2.247195 0.037413 -0.028322 -414342.000000 0 0 1
37.511011 -18.743322 -31.817197 52.637649 -0.463388 2.219880 0.059041 -0.030111 111611.000000 0 0 1
36.823291 -18.611222 -30.556397 51.342241 -0.467974 2.208250 0.066820 -0.027572 -109452.000000 0 0 1
37.265891 -19.592522 -29.647597 51.493626 -0.484034 2.184321 0.066520 -0.024902 -657708.000000 0 0 1
36.258141 -19.637822 -28.439097 50.090709 -0.496380 2.174569 0.084775 -0.023122 314919.000000 0 0 1
35.029481 -20.204222 -28.816397 49.655411 -0.523169 2.189927 0.080180 -0.018009 -179879.000000 0 0 1
34.136781 -19.259722 -29.395297 48.993267 -0.513674 2.214281 0.076079 -0.013162 -1502220.000000 0 0 1
32.747251 -19.824022 -29.592497 48.384814 -0.544355 2.228887 0.081892 -0.007087 -1214580.000000 0 0 1
31.793461 -19.195422 -30.343997 47.958801 -0.543175 2.255844 0.070118 0.002081 -472116.000000 0 0 1
30.590801 -19.923222 -30.232797 47.399936 -0.577276 2.262465 0.065177 0.001309 411499.000000 0 0 1
29.456601 -19.454022 -31.210797 47.119679 -0.583672 2.294778 0.053633 0.008811 709647.000000 0 0 1
29.753901 -19.789022 -32.558797 48.342272 -0.586910 2.309738 0.043023 0.005301 -103546.000000 0 0 1
28.684701 -19.287822 -33.303297 47.999393 -0.591967 2.337587 0.065776 0.001754 35653.800000 0 0 1
28.908101 -19.570622 32.545568 47.727366 -0.595119 0.820431 0.057139 -0.004834 -357092.000000 0 0 1
30.046601 -18.936622 32.042468 47.834230 -0.562360 0.836770 0.041060 -0.001916 -410832.000000 0 0 1
30.207301 -18.961422 30.632868 47.014775 -0.560546 0.861160 0.042749 -0.009979 -407001.000000 0 0 1
29.119001 -18.348922 29.737668 45.485470 -0.562284 0.858222 0.030839 -0.004637 -260732.000000 0 0 1
28.998401 -16.942922 29.978668 45.018778 -0.528774 0.842077 0.042415 -0.017576 433307.000000 0 0 1
28.102501 -16.304722 29.057668 43.588330 -0.525724 0.841106 0.042024 -0.013910 245235.000000 0 0 1
27.593501 -14.918622 29.501668 43.061757 -0.495642 0.816054 0.061749 -0.014868 49085.700000 0 0 1
28.549301 -13.881222 29.390368 43.261352 -0.452562 0.823896 0.068531 -0.018015 -29940.700000 0 0 1
27.980901 -12.587922 29.558568 42.603938 -0.422750 0.804045 0.083023 -0.007899 8358.330000 0 0 1
28.952001 -11.395222 29.747168 43.046061 -0.374968 0.807850 0.088258 -0.020383 -5731.160000 0 0 1
29.882801 -11.164622 28.735368 42.934274 -0.357555 0.837547 0.106949 -0.018691 -643373.000000 0 0 1
31.058601 -10.628322 29.235668 43.958186 -0.329711 0.843197 0.131757 -0.022699 -400523.000000 0 0 1
32.095061 -10.134422 28.225668 43.925935 -0.305854 0.872943 0.151368 -0.030636 34025.200000 0 0 1
31.786221 -8.772522 27.985468 43.249362 -0.269282 0.867058 0.138218 -0.027125 221647.000000 0 0 1
32.400341 -8.308722 26.811168 42.867886 -0.251030 0.895105 0.162374 -0.033227 -983.418000 0 0 1
32.201001 -6.767322 26.560268 42.286510 -0.207144 0.891684 0.157681 -0.033036 601644.000000 0 0 1
30.894401 -6.383522 26.132068 40.964598 -0.203757 0.879004 0.151600 -0.028818 171001.000000 0 0 1
30.858701 -4.960022 25.962668 40.631531 -0.159370 0.877627 0.145152 -0.031471 602520.000000 0 0 1
29.471101 -4.297722 25.673568 39.321092 -0.144808 0.859362 0.112151 -0.015814 374979.000000 0 0 1
28.926201 -4.741222 24.456268 38.174773 -0.162463 0.875465 0.140642 -0.021392 -1104720.000000 0 0 1
27.613101 -4.313122 24.394568 37.096917 -0.154946 0.853181 0.115848 -0.011999 -719115.000000 0 0 1
26.900801 -4.839922 23.121068 35.800303 -0.178013 0.868681 0.126728 -0.016179 206575.000000 0 0 1
27.377801 -4.153022 21.941568 35.330213 -0.150545 0.900724 0.154308 -0.009964 257257.000000 0 0 1
26.552101 -4.450122 20.828568 34.038902 -0.166056 0.912330 0.148749 -0.007571 323998.000000 0 0 1
26.928001 -3.654522 19.561668 33.483303 -0.134890 0.946876 0.160891 -0.005873 150802.000000 0 0 1
26.405301 -2.364922 19.669768 33.011097 -0.089324 0.932469 0.131881 0.006465 -195966.000000 0 0 1
26.680901 -1.639622 18.479968 32.497200 -0.061376 0.965916 0.143184 0.001341 -174437.000000 0 0 1
25.538201 -0.676022 18.119968 31.320759 -0.026465 0.953872 0.109103 -0.001047 -545900.000000 0 0 1
24.434801 -1.419622 17.689068 30.198972 -0.058033 0.944990 0.120418 -0.002390 -668745.000000 0 0 1
23.501101 -0.498922 17.129468 29.085552 -0.021227 0.941057 0.149203 -0.008719 169744.000000 0 0 1
22.318901 -1.243822 16.461768 27.760948 -0.055672 0.936038 0.143007 -0.022125 -300888.000000 0 0 1
22.635001 -1.946422 15.278068 27.377932 -0.085781 0.978771 0.199869 -0.049831 358810.000000 0 0 1
21.542701 -2.731522 14.785868 26.271107 -0.126123 0.973005 0.208517 -0.054306 240064.000000 0 0 1
21.743001 -3.201722 13.348568 25.713680 -0.146202 1.024972 0.231015 -0.069549 93770.000000 0 0 1
20.722601 -4.124822 12.961668 24.788004 -0.196481 1.020546 0.248997 -0.064853 740411.000000 0 1 0
20.794801 -4.480622 11.564768 24.212467 -0.212224 1.072833 0.234065 -0.062582 70075.600000 0 1 0
19.621801 -5.464322 11.269268 23.278107 -0.271601 1.065446 0.226526 -0.060267 348746.000000 0 1 0
19.823501 -6.676322 12.001568 24.116013 -0.324857 1.049898 0.227989 -0.059913 64724.700000 0 1 0
18.640701 -7.412422 11.970468 23.360475 -0.378476 1.032791 0.215843 -0.040532 -423652.000000 0 1 0
18.740301 -8.828622 12.489768 24.189620 -0.440264 1.028239 0.218518 -0.052000 -96141.500000 0 1 0
19.447001 -9.714222 11.605268 24.642122 -0.463266 1.080426 0.206475 -0.052575 682817.000000 0 1 0
18.935901 -11.065922 11.613668 24.817337 -0.528861 1.083809 0.199455 -0.050462 -2468.370000 0 1 0
19.292501 -11.703422 10.292568 24.801363 -0.545281 1.142853 0.170444 -0.051076 206531.000000 0 1 0
18.638001 -11.172222 9.115968 23.564687 -0.540002 1.173585 0.155089 -0.040547 797509.000000 0 1 0
19.279601 -11.713722 7.981268 23.929373 -0.545968 1.230746 0.171174 -0.046158 157567.000000 0 1 0
18.581001 -11.150322 6.739168 22.693604 -0.540488 1.269285 0.134194 -0.026780 -40231.900000 0 1 0
18.757801 -9.754022 6.651568 22.163921 -0.479518 1.265991 0.111534 -0.021813 737260.000000 0 1 0
19.540701 -9.387122 5.512868 22.368477 -0.447835 1.321774 0.116813 -0.021300 24344.200000 0 1 0
19.810101 -7.887722 5.403268 21.996626 -0.378925 1.322616 0.117804 -0.017815 -497664.000000 0 1 0
20.763501 -7.571822 4.397468 22.534267 -0.349683 1.374390 0.157853 -0.018737 704204.000000 0 1 0
20.819501 -6.173722 4.216968 22.121240 -0.288275 1.378993 0.146983 -0.027791 -616438.000000 0 1 0
21.822101 -5.795322 3.156068 22.798039 -0.259579 1.431914 0.200388 -0.041660 -382736.000000 0 1 0
21.378101 -6.177622 1.858768 22.330276 -0.281307 1.487460 0.179618 -0.044624 922638.000000 0 1 0
22.163601 -5.492822 0.863868 22.850439 -0.242936 1.532982 0.214529 -0.042926 455319.000000 0 1 0
-25.041923 -14.318122 -0.729732 28.855485 0.519401 1.596088 0.154938 -0.033134 -460902.000000 0 0 1
-23.768613 -13.747422 -0.945632 27.474221 0.524375 1.605222 0.106816 -0.018078 152850.000000 0 0 1
-22.738613 -14.393722 -0.229732 26.912386 0.564337 1.579333 0.129972 -0.014899 760.642000 0 0 1
-22.578813 -14.054422 1.275668 26.626245 0.556771 1.522868 0.160854 -0.035880 -34892.500000 0 0 1
-23.629613 -14.626322 2.091868 27.868689 0.554261 1.495664 0.159883 -0.010131 557126.000000 0 0 1
-23.318613 -14.517222 3.495568 27.689826 0.556842 1.444218 0.147548 0.001962 113686.000000 0 0 1
-24.313613 -15.135322 4.511968 28.992889 0.556802 1.414538 0.177535 0.002457 -136434.000000 0 0 1
-24.290013 -16.517222 4.345468 29.693542 0.597177 1.423925 0.227108 -0.028139 270172.000000 0 0 1
-24.727713 -17.301822 5.458968 30.669417 0.610520 1.391849 0.225870 -0.029576 20053.900000 0 0 1
-24.779113 -18.865622 5.150468 31.566493 0.650727 1.406901 0.175291 -0.019021 143820.000000 0 0 1
-25.383613 -19.547922 6.232468 32.638822 0.656242 1.378664 0.177759 -0.032887 133633.000000 0 0 1
-25.778733 -20.838822 5.899468 33.669026 0.679825 1.394668 0.169255 -0.040439 -141288.000000 0 0 1
-26.139243 -21.680022 7.169068 34.708485 0.692416 1.362748 0.147906 -0.031046 -128407.000000 0 0 1
-25.115583 -21.901822 8.106268 34.295683 0.717152 1.332174 0.141150 -0.026256 -206163.000000 0 0 1
-25.429443 -22.950022 8.976768 35.411050 0.734194 1.314498 0.119357 -0.022063 304815.000000 0 0 1
-24.385913 -22.955522 10.118568 34.985914 0.755193 1.277386 0.128427 -0.033594 66679.200000 0 0 1
-24.590613 -21.960022 11.093068 34.785011 0.728948 1.246224 0.118128 -0.034886 -12208.500000 0 0 1
-23.638413 -21.839822 12.150768 34.400488 0.745870 1.209791 0.128323 -0.039720 -115767.000000 0 0 1
-24.057813 -21.061522 13.406368 34.671267 0.719087 1.173777 0.099102 -0.022777 -322190.000000 0 0 1
-25.046933 -21.749622 14.137068 36.059002 0.715054 1.167933 0.089827 -0.018832 -189393.000000 0 0 1
-25.384823 -20.845322 15.184768 36.186929 0.687518 1.137769 0.088882 -0.010071 -26566.500000 0 0 1
-26.779313 -21.083622 15.852368 37.589204 0.666955 1.135448 0.080093 -0.010682 -122629.000000 0 0 1
-27.917373 -20.942722 15.063768 38.011767 0.643609 1.163321 0.092960 -0.015057 -222903.000000 0 0 1
-28.206323 -21.908622 14.091768 38.394821 0.660388 1.194990 0.076227 -0.014181 -521052.000000 0 0 1
-29.313543 -22.920022 14.471268 39.925290 0.663601 1.199892 0.063891 -0.015506 14666.400000 0 0 1
-28.894223 -23.761322 15.571068 40.520793 0.688224 1.176376 0.046420 -0.006513 -103103.000000 0 0 1
-29.806673 -24.756322 15.953468 41.902582 0.693101 1.180213 0.052542 -0.008431 -234339.000000 0 0 1
-29.721583 -26.030732 15.061968 42.282791 0.719294 1.206577 0.059703 -0.010363 107010.000000 0 0 1
-30.347433 -26.074002 13.794268 42.321414 0.709801 1.238790 0.073906 -0.022864 -135437.000000 0 0 1
-31.688083 -26.520982 13.810068 43.568510 0.696862 1.248259 0.119662 -0.043120 -55361.500000 0 0 1
-32.250283 -26.657142 12.382368 43.634929 0.690734 1.283071 0.150215 -0.050951 -382701.000000 0 0 1
-31.837563 -27.794072 11.706768 43.854182 0.717694 1.300572 0.121136 -0.050522 -412036.000000 0 0 1
-32.500153 -28.116132 10.523768 44.243943 0.713200 1.330637 0.107036 -0.035080 -257514.000000 0 0 1
-31.998783 -29.375962 9.789168 44.527487 0.742690 1.349140 0.098581 -0.030987 -20871.900000 0 0 1
-32.178973 -30.564972 10.499068 45.606296 0.759680 1.338502 0.103209 -0.022370 248132.000000 0 0 1
-31.682213 -31.672342 9.754568 45.848135 0.785242 1.356399 0.114848 -0.032185 -93377.900000 0 0 1
-31.664643 -33.022332 10.536368 46.948260 0.806384 1.344443 0.122012 -0.031896 -503061.000000 0 0 1
-32.953253 -33.519652 10.778868 48.225180 0.793919 1.345381 0.106031 -0.020450 13010.400000 0 0 1
-32.895913 32.792630 11.625968 47.881738 -0.783826 1.325539 0.132210 -0.027993 385312.000000 0 0 1
-34.323791 32.361093 12.120368 48.705916 -0.755974 1.319306 0.124337 -0.020990 995789.000000 0 0 1
-35.277077 31.976441 11.134968 48.897367 -0.736360 1.341060 0.084025 -0.023200 210165.000000 0 0 1
-36.052323 33.048260 10.680768 50.060327 -0.741952 1.355786 0.106551 -0.021272 -1405120.000000 0 0 1
-37.518313 32.758886 10.474468 50.896787 -0.717778 1.363517 0.109819 -0.008757 -937565.000000 0 0 1
-37.783633 32.159267 9.210668 50.464421 -0.705157 1.387249 0.090182 -0.006237 278555.000000 0 0 1
37.027531 31.893527 9.082168 49.706346 0.711044 1.387048 0.075042 -0.007445 -148266.000000 0 0 1
36.621681 31.483534 7.665768 48.899125 0.710097 1.413380 0.072619 -0.012754 -203384.000000 0 0 1
36.954701 30.091619 7.455868 48.236349 0.683390 1.415605 0.103573 -0.023250 276265.000000 0 0 1
36.756781 29.719359 6.102168 47.660651 0.679927 1.442410 0.116556 -0.027570 -121641.000000 0 0 1
36.839171 28.166349 5.829768 46.738142 0.652765 1.445738 0.133296 -0.024455 373305.000000 0 0 1
35.777981 27.368009 6.367168 45.492996 0.652994 1.430376 0.128670 -0.026656 379318.000000 0 0 1
36.000481 26.938959 7.669668 45.613221 0.642409 1.401848 0.128981 -0.030711 226704.000000 0 0 1
34.889621 25.961929 8.117168 44.240206 0.639725 1.386272 0.122779 -0.023135 -98920.000000 0 0 1
35.139511 24.724639 7.547268 43.624010 0.613147 1.396914 0.123229 -0.035373 79093.500000 0 0 1
34.089611 23.789799 7.646868 42.267371 0.609289 1.388878 0.126448 -0.038761 -589983.000000 0 0 1
34.458711 22.409649 7.035168 41.702382 0.576610 1.401286 0.112270 -0.038513 782865.000000 0 0 1
35.540301 21.676949 7.641668 42.324912 0.547686 1.389253 0.115641 -0.031296 310749.000000 0 0 1
36.849061 22.094449 7.346468 43.588858 0.540120 1.401448 0.099213 -0.026208 -586706.000000 0 0 1
37.784411 20.908849 7.072468 43.759130 0.505429 1.408462 0.075118 -0.019907 -412530.000000 0 0 1
37.598841 20.119549 5.922368 43.052799 0.491340 1.432798 0.104982 -0.032433 -67179.600000 0 0 1
-37.889523 18.886049 6.033868 42.763376 -0.462407 1.429225 0.122246 -0.036251 -144645.000000 0 0 1
37.679581 17.778249 5.212868 41.987986 0.440856 1.446324 0.126671 -0.033615 -324396.000000 0 0 1
-38.000483 17.727649 3.901668 42.113291 -0.436499 1.478016 0.145655 -0.031281 143793.000000 0 0 1
37.636021 16.651149 3.136868 41.274335 0.416537 1.494723 0.147429 -0.029088 -291877.000000 0 0 1
-37.746903 16.268149 1.832568 41.144133 -0.406925 1.526241 0.183681 -0.026853 -30372.300000 0 0 1
-36.657343 15.439049 2.082768 39.830428 -0.398624 1.518482 0.185545 -0.043345 -219450.000000 0 0 1
-35.441159 16.164049 2.191068 39.014779 -0.427900 1.514607 0.204556 -0.051547 110601.000000 0 0 1
-34.197596 15.220149 2.142568 37.492921 -0.418742 1.513619 0.220943 -0.049238 262703.000000 0 0 1
-33.921593 14.570949 3.408468 37.075662 -0.405716 1.478734 0.243095 -0.055985 -5579.240000 0 0 1
-32.599543 14.099249 3.494168 35.689329 -0.408205 1.472734 0.232892 -0.067363 -133634.000000 0 0 1
-32.388613 13.254349 4.803468 35.323835 -0.388437 1.434390 0.257506 -0.053156 -152853.000000 0 0 1
-32.777283 11.926849 4.714468 35.196963 -0.348982 1.436447 0.283783 -0.057054 154838.000000 0 0 1
-32.348133 11.222349 5.853568 34.736250 -0.333932 1.401474 0.238543 -0.039921 41326.900000 0 0 1
-32.638733 9.679549 5.740768 34.524440 -0.288304 1.403739 0.276952 -0.050504 914965.000000 0 0 1
-34.027999 9.355649 5.918568 35.783548 -0.268310 1.404634 0.268290 -0.025025 753129.000000 0 0 1
-34.213128 7.920849 5.797068 35.593314 -0.227507 1.407198 0.304649 -0.038631 181259.000000 0 0 1
-35.655284 7.361749 5.952068 36.890673 -0.203609 1.408745 0.252022 -0.024431 466030.000000 0 0 1
-36.178223 7.359349 7.325568 37.638913 -0.200681 1.374919 0.224335 -0.020861 70683.400000 0 0 1
-37.335433 6.559649 7.362568 38.615683 -0.173920 1.378959 0.161520 -0.023007 113220.000000 0 0 1
-37.888423 6.000149 8.722868 39.339837 -0.157059 1.347207 0.145956 -0.032825 376147.000000 0 0 1
37.646691 6.920049 9.625268 39.469053 0.181786 1.324443 0.148194 -0.034191 548272.000000 0 0 1
-37.653893 7.570549 10.521268 39.822430 -0.198411 1.303417 0.173454 -0.038809 -79557.900000 0 0 1
37.866201 8.614349 11.451768 40.487024 0.223687 1.284032 0.137115 -0.033969 -586308.000000 0 0 1
37.225371 7.974349 12.511968 40.073280 0.211029 1.253260 0.121598 -0.037583 245560.000000 0 0 1
36.737471 8.937049 13.397268 40.112334 0.238633 1.230259 0.144485 -0.044610 -468801.000000 0 0 1
35.966591 8.290749 14.560668 39.678019 0.226555 1.195046 0.164477 -0.051237 -651204.000000 0 0 1
34.848761 7.496349 14.282468 38.400784 0.211882 1.189707 0.170705 -0.058368 -149654.000000 0 0 1
34.300371 6.956749 15.446668 38.255866 0.200104 1.155160 0.155392 -0.047573 173955.000000 0 0 1
32.759221 7.123149 15.514668 36.940637 0.214107 1.137363 0.158453 -0.037923 54112.300000 0 0 1
32.223381 8.426149 15.878268 36.898044 0.255765 1.125940 0.146304 -0.044314 788321.000000 0 0 1
30.825701 8.451149 16.155368 35.813987 0.267584 1.102809 0.144928 -0.039953 602049.000000 0 0 1
30.181301 7.702449 17.346168 35.652884 0.249872 1.062684 0.142359 -0.052693 -360923.000000 0 0 1
30.299201 8.539449 18.504768 36.515615 0.274712 1.039370 0.172962 -0.056527 2450.350000 0 0 1
29.568001 8.058949 19.605868 36.381360 0.266093 1.001667 0.164116 -0.044305 -325763.000000 0 0 1
30.027801 6.775849 20.369168 36.911840 0.221935 0.986236 0.153102 -0.036900 160836.000000 0 0 1
29.228001 6.567449 21.548168 36.901639 0.221026 0.947228 0.120851 -0.031905 251866.000000 0 0 1
29.490801 5.359749 22.343768 37.385534 0.179781 0.930219 0.126638 -0.027501 -695865.000000 0 0 1
28.560601 5.272149 23.567668 37.402385 0.182540 0.889100 0.119980 -0.021872 782312.000000 0 0 1
27.156001 5.071049 23.408068 36.209136 0.184611 0.867850 0.100268 -0.007962 164229.000000 0 0 1
26.458401 6.251049 23.203668 35.742590 0.232005 0.864280 0.116703 -0.008284 -555264.000000 0 0 1
24.998301 5.927049 22.825568 34.366430 0.232799 0.844397 0.110215 -0.014532 -266675.000000 0 0 1
24.928001 5.663249 21.433768 33.359916 0.223392 0.873039 0.118901 -0.003395 319627.000000 0 0 1
23.591501 5.422249 21.046668 32.076813 0.225916 0.855113 0.132465 -0.006756 -563118.000000 0 0 1
22.913101 4.053549 21.364268 31.589134 0.175098 0.828045 0.129891 -0.014507 1355060.000000 0 0 1
21.587001 3.936049 20.751568 30.201302 0.180353 0.813295 0.133021 -0.027914 1818880.000000 0 0 1
20.531901 4.536149 21.491668 30.067048 0.217439 0.774471 0.158307 -0.029628 -571594.000000 0 0 1
19.209001 4.558449 20.710168 28.612518 0.232998 0.761481 0.218484 -0.045740 -603252.000000 0 0 1
18.516201 3.368449 20.737468 28.004262 0.179951 0.736966 0.207956 -0.043257 -269995.000000 0 0 1
17.495501 3.285849 19.760268 26.596194 0.185648 0.733294 0.260154 -0.057425 -590922.000000 0 0 1
16.339401 2.422949 20.190268 26.086272 0.147216 0.685693 0.297210 -0.062233 -972218.000000 0 0 1
16.597601 1.012449 20.243068 26.197083 0.060924 0.687678 0.210217 -0.041291 204273.000000 0 0 1
15.574301 0.204149 20.827568 26.007462 0.013107 0.642116 0.259405 -0.049933 105474.000000 0 0 1
15.966101 -1.275051 20.887968 26.322031 -0.079691 0.654168 0.193620 -0.029578 -154172.000000 0 0 1
15.514701 -1.839051 19.691768 25.136701 -0.117985 0.670699 0.220952 -0.024120 17775.000000 0 0 1
15.641001 -3.256251 19.732368 25.389179 -0.205255 0.680599 0.161902 -0.016525 -358955.000000 0 0 1
14.960601 -4.060351 18.616868 24.225891 -0.265019 0.694350 0.156824 -0.013480 166890.000000 0 1 0
13.560501 -4.235451 18.744168 23.519567 -0.302737 0.648550 0.167606 -0.013340 -36218.900000 0 1 0
13.198601 -5.234451 17.794568 22.765087 -0.377564 0.673473 0.165754 -0.011237 561939.000000 0 1 0
11.694401 -5.185851 17.386168 21.585432 -0.417391 0.634348 0.145327 -0.008249 990439.000000 0 1 0
10.830901 -5.795751 18.364468 22.094180 -0.491341 0.589551 0.134833 -0.000891 -1293810.000000 0 1 0
9.512001 -5.717551 18.027968 21.170171 -0.541219 0.551816 0.115928 -0.017346 -1000790.000000 0 1 0
8.585801 -6.632451 18.849368 21.748656 -0.657740 0.522266 0.124788 -0.025724 58044.000000 0 1 0
8.560601 -7.986151 18.395568 21.805031 -0.750695 0.566772 0.120853 -0.035956 53308.500000 0 1 0
9.460201 -8.842951 19.102568 23.078155 -0.751687 0.595740 0.144070 -0.035372 314451.000000 0 1 0
9.330301 -10.310151 18.741068 23.336266 -0.835246 0.638337 0.150147 -0.039282 79371.100000 0 1 0
9.706901 -10.510351 17.390668 22.519474 -0.825118 0.688421 0.137061 -0.030232 -48318.100000 0 1 0
9.651001 -11.838151 16.995868 22.850452 -0.886828 0.732078 0.130589 -0.039323 257898.000000 0 1 0
9.727901 -11.900151 15.480868 21.815199 -0.885499 0.781814 0.129072 -0.037666 185908.000000 0 1 0
10.127901 -13.161051 15.038068 22.403819 -0.914909 0.834932 0.105792 -0.034485 -113260.000000 0 1 0
9.846001 -13.430551 13.689268 21.557353 -0.938196 0.882767 0.091534 -0.027770 545294.000000 0 1 0
10.961101 -14.355151 13.039268 22.276413 -0.918670 0.945497 0.140584 -0.043335 1399080.000000 0 1 0
12.309201 -13.889551 12.951068 22.631089 -0.845647 0.961526 0.112481 -0.045158 498924.000000 0 1 0
12.502001 -13.289951 11.704568 21.677632 -0.815939 1.000433 0.069461 -0.036191 -177825.000000 0 1 0
13.947301 -12.911551 11.280468 22.101681 -0.746855 1.035159 0.104378 -0.039412 14512.300000 0 1 0
14.664601 -14.005151 10.804068 22.976567 -0.762401 1.081255 0.109476 -0.034884 401806.000000 0 1 0
15.867101 -13.569851 10.125468 23.204112 -0.707516 1.119241 0.110712 -0.046698 373648.000000 0 1 0
16.790301 -14.713151 9.788568 24.376363 -0.719559 1.157577 0.089610 -0.046964 -190189.000000 0 1 0
17.600001 -15.269651 10.830168 25.694645 -0.714620 1.135703 0.091981 -0.033835 300811.000000 0 0 1
16.913201 -16.091051 11.755768 26.137642 -0.760493 1.104295 0.147721 -0.030397 -214000.000000 0 0 1
17.838101 -16.548551 12.910268 27.545006 -0.747914 1.082981 0.134690 -0.028305 -554360.000000 0 0 1
18.847301 -17.334251 12.381468 28.442885 -0.743604 1.120414 0.152238 -0.038276 -549981.000000 0 0 1
18.976201 -18.571051 13.006068 29.565823 -0.774608 1.115307 0.115660 -0.029570 -719375.000000 0 0 1
20.203601 -19.378751 12.579668 30.691521 -0.764562 1.148480 0.066987 -0.025120 464732.000000 0 0 1
21.382201 -18.591051 12.879068 31.123882 -0.715686 1.144172 0.065632 -0.028173 772270.000000 0 0 1
22.596401 -19.212451 12.460568 32.171126 -0.704636 1.173072 0.056336 -0.026741 870666.000000 0 0 1
23.402001 -18.484651 11.318868 31.897534 -0.668536 1.208042 0.096130 -0.029521 -174723.000000 0 0 1
23.030001 -18.727151 9.958068 31.308948 -0.682716 1.247116 0.094216 -0.027230 933671.000000 0 0 1
21.833401 -18.064851 9.455368 29.873737 -0.691224 1.248747 0.103831 -0.030002 881702.000000 0 0 1
21.769601 -16.499051 9.529268 28.929935 -0.648534 1.235138 0.160780 -0.054899 -401385.000000 0 0 1
22.674901 -15.807651 8.711368 28.981388 -0.608806 1.265490 0.149290 -0.037126 -162497.000000 0 0 1
22.411401 -14.421751 8.740368 28.047314 -0.571793 1.253889 0.175779 -0.038528 -49928.000000 0 0 1
-36.594603 24.729778 7.841868 44.857795 -0.594283 1.395077 0.132317 -0.025676 -40956.500000 0 0 1
-35.651348 23.975278 8.550468 43.805742 -0.592025 1.374345 0.141864 -0.028614 -70375.400000 0 0 1
-34.581377 24.768778 9.015568 43.481541 -0.621546 1.361939 0.174163 -0.032267 312074.000000 0 0 1
-33.469403 23.868878 9.700068 42.237609 -0.619500 1.339073 0.198666 -0.042965 86531.200000 0 0 1
-32.705153 23.190978 8.729668 41.032372 -0.616802 1.356407 0.207193 -0.034502 -174110.000000 0 0 1
-31.733573 22.394878 9.363168 39.952711 -0.614552 1.334240 0.201757 -0.036851 -161283.000000 0 0 1
-31.109203 21.415078 8.314768 38.671998 -0.602887 1.354097 0.181521 -0.044523 -510328.000000 0 0 1
-31.968233 20.508978 7.708468 38.755729 -0.570407 1.370562 0.193419 -0.044819 -457712.000000 0 0 1
-31.346853 19.699078 6.763268 37.635364 -0.561057 1.390110 0.202926 -0.050179 197530.000000 0 0 1
-32.387083 18.905178 5.889268 37.960669 -0.528367 1.415026 0.193862 -0.044419 228883.000000 0 0 1
-33.054443 17.851578 6.516668 38.127969 -0.495184 1.399037 0.208311 -0.054548 -336051.000000 0 0 1
-34.025858 17.397978 5.634468 38.628951 -0.472660 1.424413 0.161421 -0.049784 -587286.000000 0 0 1
-34.832428 16.181078 6.045168 38.880192 -0.434880 1.414681 0.147803 -0.027589 -455219.000000 0 0 1
-35.715634 16.331378 7.112468 39.911247 -0.428876 1.391632 0.096928 -0.016131 -138056.000000 0 0 1
-36.346513 15.122878 7.474868 40.070489 -0.394287 1.383154 0.103271 -0.013639 6786.420000 0 0 1
-37.272753 15.388378 8.702868 41.252881 -0.391542 1.358235 0.090612 -0.006443 238680.000000 0 0 1
37.854521 16.255178 8.315068 42.027799 0.405602 1.371635 0.119072 -0.019692 -245575.000000 0 0 1
37.368091 16.737078 9.520468 42.037403 0.421104 1.342338 0.111274 -0.014911 -362326.000000 0 0 1
36.439741 17.916878 9.206168 41.636795 0.456974 1.347847 0.071727 -0.011316 -116324.000000 0 0 1
35.072071 17.606078 9.085568 40.281158 0.465244 1.343285 0.110354 -0.020177 -109983.000000 0 0 1
34.262251 18.752778 9.351368 40.162378 0.500791 1.335800 0.108983 -0.018930 735485.000000 0 0 1
32.737831 18.561278 9.097268 38.717527 0.515777 1.333614 0.125823 -0.027220 276075.000000 0 0 1
32.063871 19.810578 9.015968 38.753561 0.553439 1.335996 0.124038 -0.026606 421684.000000 0 0 1
30.683701 19.734678 8.657668 37.495362 0.571555 1.337794 0.094486 -0.030261 548635.000000 0 0 1
30.347101 19.617578 7.124068 36.831348 0.573868 1.376145 0.076559 -0.026823 -487492.000000 0 0 1
30.586301 18.318178 6.604068 36.258670 0.539611 1.387636 0.086510 -0.032104 135260.000000 0 0 1
30.444801 18.046678 5.227168 35.775575 0.535084 1.424161 0.072940 -0.034287 559835.000000 0 0 1
28.988801 18.277278 4.653368 34.584148 0.562541 1.435835 0.110761 -0.027731 663152.000000 0 0 1
28.008501 17.397578 5.259068 33.388765 0.555829 1.412628 0.090938 -0.029131 1546390.000000 0 0 1
26.622201 17.636178 4.940768 32.313890 0.585086 1.417295 0.136248 -0.025151 1419050.000000 0 0 1
26.008101 19.006278 5.469468 32.673766 0.631088 1.402608 0.152332 -0.012742 -584031.000000 0 0 1
26.519601 20.103378 4.746068 33.614880 0.648638 1.429133 0.131345 -0.025118 149490.000000 0 0 1
25.992001 21.348078 5.150668 34.027252 0.687614 1.418843 0.149552 -0.018183 66294.800000 0 0 1
27.026401 22.419778 4.714168 35.430159 0.692502 1.437345 0.108841 -0.012244 357219.000000 0 0 1
28.143301 22.434978 5.602568 36.424749 0.673013 1.416371 0.106537 -0.029595 -436780.000000 0 0 1
28.935101 23.527178 5.338968 37.673236 0.682679 1.428600 0.074241 -0.015060 -1595670.000000 0 0 1
30.268701 23.255078 6.040568 38.645586 0.655103 1.413846 0.074474 -0.022852 -552900.000000 0 0 1
31.175101 22.331778 5.447968 38.733391 0.621604 1.429675 0.068985 -0.017054 447235.000000 0 0 1
31.607461 22.473078 4.086768 38.997083 0.618074 1.465807 0.062959 -0.024031 -633449.000000 0 0 1
32.473381 23.702178 3.680268 40.371501 0.630510 1.479510 0.082110 -0.029003 -195297.000000 0 0 1
31.800271 24.958278 3.744568 40.597963 0.665431 1.478430 0.072962 -0.025963 201462.000000 0 0 1
32.532301 25.820178 2.898568 41.634527 0.670874 1.501121 0.116774 -0.026321 -314566.000000 0 0 1
31.863731 27.229978 2.833868 42.009521 0.707145 1.503287 0.100544 -0.015687 981136.000000 0 0 1
30.627501 27.433778 2.156068 41.174077 0.730447 1.518408 0.116399 -0.014451 269751.000000 0 0 1
29.477701 26.931378 2.774368 40.024131 0.740288 1.501423 0.091378 -0.011893 -758990.000000 0 0 1
28.124601 27.404478 2.260468 39.333297 0.772431 1.513295 0.043551 0.000453 -430038.000000 0 0 1
27.886301 28.775478 2.502068 40.148901 0.801090 1.508436 0.037877 0.005505 458584.000000 0 0 1
26.523601 29.026278 2.152168 39.378395 0.830421 1.516116 0.025953 0.004719 501276.000000 0 0 1
26.105901 30.464278 2.535068 40.199712 0.862290 1.507693 0.043674 -0.006261 -90546.500000 0 0 1
25.882601 30.669478 3.943368 40.324633 0.869842 1.472849 0.022484 -0.006021 -36531.100000 0 0 1
27.074801 30.826378 4.679768 41.294196 0.850100 1.457225 0.035269 -0.014527 -148568.000000 0 0 1
26.841901 30.853978 6.188368 41.361232 0.854825 1.420615 0.030632 -0.020514 50591.100000 0 0 1
26.294101 29.668078 6.779168 40.218549 0.845616 1.401430 0.035824 -0.025852 156578.000000 0 0 1
27.159301 28.544378 6.759468 39.976237 0.810258 1.400893 0.074242 -0.033820 -166363.000000 0 0 1
26.527001 27.206578 7.211968 38.676765 0.798045 1.383231 0.096190 -0.040649 252862.000000 0 0 1
25.572601 26.784578 6.212668 37.549551 0.808542 1.404579 0.061356 -0.031545 514663.000000 0 0 1
25.146001 25.440878 6.450268 36.347841 0.791227 1.392392 0.075366 -0.035261 -101469.000000 0 0 1
23.874801 25.080378 5.639368 35.083243 0.810019 1.409353 0.085865 -0.015258 -103026.000000 0 0 1
23.971001 24.870378 4.198468 34.796145 0.803810 1.449843 0.083310 -0.023096 132121.000000 0 0 1
24.191301 26.135778 3.489168 35.783686 0.824016 1.473134 0.065829 -0.018807 -164097.000000 0 0 1
24.431901 25.902578 1.996568 35.662972 0.814608 1.514783 0.074355 -0.009522 1177100.000000 0 0 1
25.731501 25.305878 1.694868 36.129907 0.777059 1.523869 0.045854 0.005686 1232560.000000 0 0 1
25.878601 25.175078 0.300768 36.105082 0.771619 1.562466 0.056342 -0.008255 298936.000000 0 0 1
27.126101 24.419078 -0.239232 36.498958 0.732929 1.577351 0.078594 -0.017575 -324712.000000 0 0 1
28.372101 25.078678 -0.216032 37.867702 0.723860 1.576501 0.097791 -0.013158 870138.000000 0 0 1
29.566001 24.366878 -0.562632 38.317224 0.689295 1.585480 0.096238 -0.007677 795316.000000 0 0 1
29.973701 23.370078 0.503468 38.011008 0.662231 1.557551 0.069684 -0.008302 -821858.000000 0 0 1
29.039701 22.282978 0.650568 36.609542 0.654499 1.553025 0.053155 -0.010326 204368.000000 0 0 1
29.392801 21.254478 1.519668 36.304255 0.626074 1.528925 0.055359 -0.007876 -426564.000000 0 0 1
28.183301 20.369478 1.873268 34.824175 0.625832 1.516978 0.066980 -0.017507 -205589.000000 0 0 1
27.819601 19.457278 0.896268 33.960553 0.610329 1.544402 0.081326 -0.027232 445986.000000 0 0 1
26.433401 19.229678 1.122768 32.707274 0.628930 1.536462 0.095199 -0.035742 159646.000000 0 0 1
25.935401 17.933178 0.417068 31.534391 0.604968 1.557570 0.091195 -0.025566 -742855.000000 0 0 1
24.581301 17.617878 0.475068 30.246581 0.621859 1.555089 0.111859 -0.027472 -509898.000000 0 0 1
24.225501 16.600378 -0.401332 29.370197 0.600754 1.584461 0.121690 -0.051836 420422.000000 0 0 1
22.670401 16.519678 -0.342532 28.052881 0.629722 1.583007 0.117494 -0.035131 -305728.000000 0 0 1
22.114301 15.496078 -1.163132 27.028200 0.611213 1.613844 0.126475 -0.040153 441045.000000 0 0 1
20.710901 15.342578 -1.036832 25.795564 0.637585 1.611001 0.142185 -0.039024 734821.000000 0 0 1
19.707901 16.474978 -1.511932 25.731541 0.696285 1.629588 0.162826 -0.041478 -43606.200000 0 0 1
19.711001 17.672378 -0.742232 26.483719 0.730919 1.598826 0.136314 -0.038556 630941.000000 0 0 1
18.656601 18.454578 -1.351232 26.276720 0.779955 1.622242 0.126694 -0.048807 570443.000000 0 0 1
18.517701 19.857178 -0.695632 27.160572 0.820289 1.596411 0.131862 -0.042446 -70843.400000 0 0 1
17.817201 19.733778 0.549768 26.592797 0.836393 1.550121 0.128589 -0.037176 100691.000000 0 0 1
17.873601 20.871378 1.426668 27.515730 0.862616 1.518924 0.144587 -0.039144 54937.200000 0 0 1
17.018701 22.115278 0.988068 27.923072 0.914903 1.535404 0.119162 -0.048165 153539.000000 0 0 1
15.654101 21.880878 1.228968 26.932026 0.949794 1.525148 0.097424 -0.045107 -552807.000000 0 0 1
14.785501 22.888478 0.811868 27.260825 0.997252 1.541010 0.084968 -0.041638 456116.000000 0 0 1
13.357101 22.602078 1.379668 26.290104 1.037045 1.518294 0.083481 -0.044981 463832.000000 0 0 1
13.203401 23.077078 2.688368 26.722811 1.051111 1.470024 0.066097 -0.025145 226713.000000 0 0 1
11.845401 22.988478 3.098568 26.045820 1.095003 1.451548 0.057196 -0.030394 413447.000000 0 0 1
11.462201 23.330378 4.543068 26.388028 1.114133 1.397770 0.083440 -0.034142 -21861.600000 0 0 1
12.142401 22.503678 5.458268 26.146627 1.075993 1.360493 0.078682 -0.046228 148398.000000 0 0 1
11.433801 22.450278 6.683168 26.065523 1.099741 1.311502 0.073792 -0.035473 -565974.000000 0 0 1
11.968101 21.320478 7.663268 25.622722 1.059286 1.267067 0.076789 -0.035164 1009450.000000 0 0 1
13.249001 21.600878 8.265768 26.654397 1.020615 1.255489 0.094783 -0.036013 511794.000000 0 0 1
14.327701 21.477778 7.392968 26.855799 0.982498 1.291911 0.087259 -0.029176 -1710530.000000 0 0 1
15.700701 21.373878 8.015168 27.705551 0.937241 1.277303 0.096272 -0.035013 -893466.000000 0 0 1
15.881601 20.196478 8.752368 27.142713 0.904431 1.242472 0.103062 -0.035348 -495127.000000 0 0 1
17.168801 20.089378 9.280868 28.008665 0.863626 1.233055 0.099161 -0.040748 -427746.000000 0 0 1
17.446401 20.914078 10.578868 29.217939 0.875550 1.200311 0.074545 -0.039356 -754676.000000 0 0 1
16.838101 20.491978 11.772768 29.017940 0.882968 1.153045 0.083442 -0.049306 -90871.300000 0 0 1
17.023501 21.318778 12.886568 30.172065 0.896958 1.129510 0.089582 -0.049612 148433.000000 0 0 1
18.092201 20.849378 13.945868 30.927520 0.856083 1.102999 0.106176 -0.029220 1520770.000000 0 0 1
19.466701 20.929278 13.504968 31.612834 0.821588 1.129404 0.110678 -0.033334 674790.000000 0 0 1
20.320401 20.442178 14.521768 32.275115 0.788386 1.104102 0.109364 -0.035688 -291544.000000 0 0 1
21.713301 21.069078 14.451168 33.529237 0.770341 1.125193 0.127695 -0.047193 -282215.000000 0 0 1
22.510701 20.443078 13.440868 33.246173 0.737299 1.154601 0.142453 -0.051116 389390.000000 0 0 1
23.746401 21.163278 13.324368 34.486441 0.727943 1.174109 0.172290 -0.048139 503348.000000 0 0 1
24.685101 20.500578 12.282768 34.358322 0.693054 1.205217 0.175806 -0.048887 174288.000000 0 0 1
24.263501 20.687778 10.910268 33.700676 0.706019 1.241116 0.188959 -0.041504 708723.000000 0 0 1
25.274001 20.141178 10.057568 33.846666 0.672856 1.269089 0.189699 -0.057890 182673.000000 0 0 1
25.251501 20.941478 8.723568 33.945315 0.692363 1.310891 0.171813 -0.048891 119029.000000 0 0 1
25.628901 22.293178 8.892268 35.112658 0.715903 1.314758 0.138213 -0.037348 -153370.000000 0 0 1
27.019601 22.506578 8.834268 36.258091 0.694525 1.324669 0.123962 -0.045745 -432675.000000 0 0 1
27.493601 23.856778 9.434468 37.603897 0.714693 1.317196 0.147631 -0.047807 -478701.000000 0 0 1
28.758501 24.261978 8.985068 38.683671 0.700793 1.336385 0.135058 -0.040888 63215.800000 0 0 1
29.167301 25.494078 9.620468 39.915321 0.718299 1.327378 0.141309 -0.043496 -158551.000000 0 0 1
30.471001 26.073578 9.082968 41.119504 0.707785 1.348067 0.136532 -0.049691 -246432.000000 0 0 1
30.276201 26.951178 8.000468 41.316120 0.727361 1.375925 0.129685 -0.049640 269819.000000 0 0 1
31.499351 27.434778 7.505468 42.440643 0.716539 1.393015 0.146270 -0.038585 -45315.000000 0 0 1
31.117001 28.220278 6.248068 42.469874 0.736619 1.423143 0.180770 -0.025421 162406.000000 0 0 1
31.121101 29.613778 6.468868 43.443584 0.760585 1.421338 0.161975 -0.025636 97008.900000 0 0 1
30.941301 30.295978 5.274068 43.623688 0.774860 1.449601 0.172925 -0.020818 -98657.700000 0 0 1
31.224901 31.801878 5.334768 44.886675 0.794552 1.451665 0.114073 -0.015104 220669.000000 0 0 1
30.418001 32.410578 6.339068 44.898598 0.817102 1.429137 0.109880 -0.030758 320056.000000 0 0 1
30.549101 -33.645293 6.166468 45.861516 -0.833592 1.435929 0.088916 -0.019893 1091450.000000 0 0 1
29.212101 -32.903893 6.631068 44.497012 -0.844762 1.421216 0.098204 -0.030108 1339150.000000 0 0 1
28.104901 -33.229693 5.828368 43.909769 -0.868759 1.437668 0.077617 -0.021633 -329698.000000 0 0 1
26.942301 -32.503793 6.108368 42.657898 -0.878682 1.427108 0.064681 -0.026201 -229962.000000 0 0 1
25.790901 -32.694093 5.128668 41.956853 -0.902888 1.448253 0.056723 -0.015352 -309968.000000 0 0 1
25.946601 -31.846193 3.995068 41.271863 -0.887128 1.473846 0.047418 0.003089 -123120.000000 0 0 1
24.905701 -32.043993 3.087968 40.701928 -0.910092 1.494856 0.054880 -0.003881 -446051.000000 0 0 1
25.131201 -31.367093 1.720568 40.229742 -0.895326 1.528015 0.058947 0.010485 -94195.500000 0 0 1
25.188801 -29.968393 1.801468 39.189610 -0.871836 1.524812 0.071716 0.009318 123515.000000 0 0 1
25.721601 -29.405293 0.622168 39.072485 -0.852121 1.554872 0.060272 0.009931 -338643.000000 0 0 1
26.035201 -27.882193 0.735968 38.154817 -0.819641 1.551506 0.095114 -0.003217 55557.200000 0 0 1
24.968401 -26.948493 0.796068 36.746103 -0.823519 1.549131 0.086770 -0.000983 -214454.000000 0 0 1
24.291301 -26.761793 -0.409332 36.144549 -0.833751 1.582121 0.087667 -0.002694 157910.000000 0 0 1
23.082301 -25.787093 -0.313732 34.610190 -0.840689 1.579861 0.077476 0.004795 91182.200000 0 0 1
23.453901 -24.432993 -0.150432 33.868558 -0.805841 1.575238 0.108049 -0.011514 -138744.000000 0 0 1
23.594601 -23.950493 1.196668 33.641690 -0.792883 1.535218 0.098709 -0.003610 1188150.000000 0 0 1
22.258101 -23.828993 2.074968 32.673375 -0.819470 1.507247 0.084296 -0.008448 1034510.000000 0 0 1
22.431401 -23.123993 3.268368 32.381616 -0.800600 1.469691 0.085172 -0.011275 321883.000000 0 0 1
21.204201 -22.965993 3.977368 31.509910 -0.825263 1.444233 0.062698 -0.010413 203433.000000 0 0 1
21.225301 -22.076393 5.245368 31.070797 -0.805051 1.401164 0.050813 -0.011563 -270195.000000 0 0 1
21.519501 -20.678293 5.130568 30.282065 -0.765466 1.400549 0.089132 -0.013938 487919.000000 0 0 1
20.399001 -19.950293 4.647768 28.909085 -0.774278 1.409324 0.051549 -0.004848 -551946.000000 0 0 1
20.316901 -18.472493 5.120968 27.932665 -0.737885 1.386421 0.062099 -0.002877 53509.100000 0 0 1
19.787201 -18.180393 6.415768 27.626474 -0.743103 1.336424 0.079855 -0.013210 233982.000000 0 0 1
18.403001 -18.486693 6.452068 26.871127 -0.787667 1.328316 0.050628 -0.005872 -302620.000000 0 0 1
20.038587 -25.712962 -11.412532 34.539069 -0.908794 1.907549 0.112002 -0.041563 -190221.000000 0 0 1
20.220987 -24.544522 -12.124432 34.034156 -0.881681 1.935040 0.121520 -0.043077 -120014.000000 0 0 1
19.072987 -24.115822 -12.850832 33.324099 -0.901634 1.966689 0.098348 -0.040320 325524.000000 0 0 1
19.243587 -22.615722 -13.390132 32.574256 -0.865783 1.994418 0.089975 -0.042893 104668.000000 0 0 1
19.196887 -21.531822 -12.469932 31.426725 -0.842664 1.978818 0.100297 -0.048513 439429.000000 0 0 1
20.355187 -21.319422 -11.630032 31.687680 -0.808531 1.946600 0.097395 -0.049136 101242.000000 0 0 1
20.278787 -22.047522 -10.276032 31.668901 -0.827162 1.901262 0.095300 -0.036981 535313.000000 0 0 1
19.252887 -21.735922 -9.305632 30.491290 -0.845903 1.880934 0.098334 -0.045634 1361190.000000 0 0 1
17.887687 -21.987622 -9.679332 29.951867 -0.887857 1.899866 0.094280 -0.029340 212139.000000 0 0 1
16.863787 -21.324522 -8.777132 28.568525 -0.901680 1.883078 0.083980 -0.032054 -925077.000000 0 0 1
16.808487 -19.892822 -8.853032 27.506832 -0.869240 1.898478 0.071968 -0.034261 316491.000000 0 0 1
15.868687 -19.274322 -7.980132 26.210632 -0.882004 1.880170 0.081889 -0.039030 1092680.000000 0 0 1
14.352187 -19.344322 -8.386232 25.505234 -0.932478 1.905834 0.075065 -0.027509 263989.000000 0 0 1
13.766187 -20.549022 -8.133632 26.037016 -0.980545 1.888501 0.073022 -0.028496 -614862.000000 0 0 1
12.375987 -20.511722 -8.393832 25.384094 -1.027909 1.907813 0.062315 -0.029992 272443.000000 0 0 1
11.676187 -21.883622 -8.119632 26.098940 -1.080664 1.887157 0.072202 -0.027385 75995.200000 0 0 1
11.966487 -22.252422 -6.805932 26.166540 -1.077398 1.833923 0.071832 -0.029356 63786.500000 0 0 1
11.145887 -23.318822 -6.409432 26.628539 -1.124921 1.813881 0.056867 -0.027936 -50950.800000 0 0 1
11.660787 -24.051322 -5.167032 27.223855 -1.119359 1.761753 0.072351 -0.025142 478917.000000 0 0 1
10.741087 -25.034802 -4.625332 27.631612 -1.165503 1.738981 0.081518 -0.021353 582703.000000 0 0 1
11.429887 -25.751382 -3.594632 28.402419 -1.153064 1.697697 0.069816 -0.024539 549296.000000 0 0 1
10.493587 -26.740212 -2.801832 28.861819 -1.196835 1.668027 0.082805 -0.029157 778464.000000 0 0 1
9.662087 -26.050432 -1.841432 27.845499 -1.215626 1.636975 0.067677 -0.017733 -76908.500000 0 0 1
8.920787 -26.990222 -1.105932 28.447770 -1.251581 1.609682 0.063280 -0.019003 25648.900000 0 0 1
8.269087 -26.343372 0.139568 27.611058 -1.266640 1.565742 0.076145 -0.015792 708491.000000 0 0 1
6.994587 -25.701992 -0.040332 26.636784 -1.305089 1.572310 0.068739 -0.024603 524940.000000 0 0 1
6.593287 -25.273092 1.240268 26.148401 -1.315603 1.523347 0.058077 -0.020589 997464.000000 0 0 1
5.103587 -24.706922 1.292468 25.261613 -1.367096 1.519611 0.076951 -0.028818 1592530.000000 0 0 1
4.133887 -25.667062 0.894768 26.013222 -1.411110 1.536393 0.084083 -0.033330 -51885.400000 0 0 1
2.832587 -25.151622 0.910168 25.326983 -1.458648 1.534852 0.094466 -0.038081 41766.700000 0 0 1
1.646087 -26.034082 0.448568 26.089926 -1.507652 1.553602 0.109182 -0.040523 348217.000000 0 0 1
1.150587 -27.054002 1.321168 27.110669 -1.528293 1.522045 0.109232 -0.038448 21015.600000 0 0 1
1.810387 -28.261712 1.135468 28.342392 -1.506826 1.530723 0.090233 -0.041154 -663722.000000 0 0 1
1.322387 -29.302522 2.154268 29.411348 -1.525698 1.497485 0.130370 -0.044265 -58787.000000 0 0 1
1.758187 -29.177772 3.486168 29.437849 -1.510611 1.452093 0.099304 -0.037470 -156401.000000 0 0 1
1.107587 -30.070302 4.302868 30.396784 -1.533980 1.428763 0.139301 -0.040528 -283873.000000 0 0 1
1.375087 -29.767942 5.772068 30.353550 -1.524636 1.379470 0.152844 -0.052364 -1375140.000000 0 0 1
2.649087 -30.181892 6.148068 30.915417 -1.483250 1.370594 0.079459 -0.024824 -634652.000000 0 0 1
2.924487 -29.842142 7.525768 30.915097 -1.473110 1.324892 0.094513 -0.025336 1410970.000000 0 0 1
4.453487 -30.211922 7.756868 31.508138 -1.424442 1.322053 0.089059 -0.031061 1256780.000000 0 0 1
4.662787 -31.571322 7.769268 32.845875 -1.424166 1.331996 0.108230 -0.024250 -60369.000000 0 0 1
6.022487 -31.924912 7.972268 33.451867 -1.384342 1.330160 0.070719 -0.018441 347310.000000 0 0 1
6.151787 -33.439722 7.878868 34.901806 -1.388864 1.343090 0.075368 -0.009380 48330.700000 0 0 1
5.919187 33.454531 6.574768 34.604480 1.395676 1.379637 0.060591 0.000548 -19415.700000 0 0 1
5.824187 32.053143 6.570368 33.233942 1.391053 1.371785 0.055089 -0.001504 -61287.300000 0 0 1
5.918187 31.401889 5.126368 32.363301 1.384515 1.411726 0.056568 -0.008577 -265177.000000 0 0 1
7.238487 31.466039 4.687368 32.626350 1.344689 1.426629 0.058895 -0.011076 -586039.000000 0 0 1
7.788187 30.217679 4.353468 31.507407 1.318550 1.432180 0.058207 -0.014985 -18270.300000 0 0 1
9.114787 30.384979 3.589868 31.925123 1.279361 1.458112 0.051483 -0.018496 370509.000000 0 0 1
10.267687 30.517259 4.415668 32.499640 1.246239 1.434507 0.058230 -0.013191 -98359.100000 0 0 1
11.437187 30.784599 3.687768 33.046943 1.215077 1.458972 0.043097 -0.022738 970464.000000 0 0 1
12.633087 31.305619 4.627968 34.074254 1.187241 1.434555 0.059766 -0.034704 872373.000000 0 0 1
13.300387 30.355989 5.429268 33.583676 1.157843 1.408420 0.068893 -0.032272 33617.000000 0 0 1
14.395887 30.986579 6.078668 34.703888 1.135880 1.394730 0.095035 -0.035905 450338.000000 0 0 1
15.275487 29.976979 6.900268 34.344919 1.099519 1.368509 0.076248 -0.027524 247216.000000 0 0 1
14.633087 29.489959 8.085368 33.899235 1.110189 1.329963 0.078143 -0.018184 221583.000000 0 0 1
15.471087 28.598019 8.790668 33.681999 1.074901 1.306749 0.063702 -0.019687 127836.000000 0 0 1
15.345987 28.724759 10.326768 34.165088 1.080131 1.263733 0.043464 0.001397 126370.000000 0 0 1
15.975687 29.869559 10.899868 35.583989 1.079660 1.259478 0.023953 -0.007705 197647.000000 0 0 1
15.378387 30.194969 12.141568 35.995119 1.099734 1.226737 0.021456 -0.002226 24686.000000 0 0 1
16.221287 31.184829 13.004368 37.479825 1.091146 1.216458 0.006510 0.001971 -52793.700000 0 0 1
17.318787 30.603199 13.645768 37.718738 1.055817 1.200623 -0.002463 0.000784 154228.000000 0 0 1
18.051387 31.594440 14.405368 39.135353 1.051712 1.193841 0.012401 0.001192 1657790.000000 0 0 1
19.257387 31.171849 15.394168 39.743069 1.017405 1.173049 0.020276 -0.001816 1366110.000000 0 0 1
20.419487 30.545839 14.899768 39.648541 0.981535 1.185541 0.013084 -0.001463 -78694.400000 0 0 1
20.395787 29.164249 14.801668 38.543883 0.960512 1.176649 0.004573 -0.002129 409052.000000 0 0 1
21.658587 28.552959 14.087068 38.507290 0.921851 1.196273 0.036883 -0.017932 1925900.000000 0 0 1
22.871887 28.606549 14.895468 39.539004 0.896340 1.184534 0.074825 -0.027460 643853.000000 0 0 1
24.059887 28.584429 14.166868 39.958077 0.871133 1.208371 0.101967 -0.034686 -246082.000000 0 0 1
25.334887 28.927909 14.948168 41.256856 0.851517 1.200041 0.152687 -0.046491 -168186.000000 0 0 1
25.499487 27.976519 15.944068 41.074600 0.831686 1.172148 0.138463 -0.032537 600654.000000 0 0 1
26.596487 28.345569 16.821568 42.353389 0.817222 1.162363 0.119876 -0.037107 554664.000000 0 0 1
27.563387 27.186289 17.121468 42.331776 0.778511 1.154409 0.088275 -0.017721 -335094.000000 0 0 1
26.990387 26.022529 17.750868 41.481879 0.767143 1.128608 0.095644 -0.019336 118588.000000 0 0 1
26.724887 26.126629 19.173768 42.005401 0.774079 1.096784 0.109644 -0.021306 24737.000000 0 0 1
26.224887 24.761919 19.647068 41.071944 0.756713 1.072013 0.103341 -0.022868 115841.000000 0 0 1
27.244987 23.790449 19.519368 41.100858 0.717812 1.075930 0.098926 -0.024689 399197.000000 0 0 1
26.668387 22.547099 19.977568 40.232795 0.701853 1.051177 0.089619 -0.015311 659055.000000 0 0 1
27.569887 21.258649 19.908468 40.104562 0.656858 1.051333 0.065505 -0.017722 594104.000000 0 0 1
26.798587 20.077149 20.203668 39.108111 0.642980 1.027909 0.045280 0.001293 680649.000000 0 0 1
27.590387 18.889349 19.999868 38.961926 0.600339 1.031749 0.057644 -0.012948 632285.000000 0 0 1
28.320187 18.338349 21.260168 39.878851 0.574641 1.008514 0.107401 -0.001960 659448.000000 0 0 1
27.363287 18.031049 22.282468 39.627977 0.582642 0.973642 0.065674 0.012927 504346.000000 0 0 1
28.042587 17.719849 23.459368 40.629074 0.563539 0.955251 0.119327 0.015353 149203.000000 0 0 1
27.090187 17.068249 24.507668 40.321572 0.562225 0.917502 0.097623 0.016393 174003.000000 0 0 1
26.585487 15.872449 24.005068 39.178643 0.538236 0.911314 0.096748 0.000175 -30059.400000 0 0 1
25.640487 15.255649 24.850168 38.829116 0.536722 0.876314 0.102169 -0.001710 9050.290000 0 0 1
24.874587 14.172249 24.047068 37.387955 0.517878 0.872156 0.109487 -0.008905 -98343.400000 0 0 1
23.865387 13.399349 24.661068 36.841112 0.511596 0.837409 0.093094 -0.010424 108646.000000 0 0 1
23.476687 12.335949 23.767668 35.612252 0.483804 0.840082 0.107526 -0.011037 -7383.020000 0 0 1
22.157887 11.755549 24.324368 34.940517 0.487777 0.800755 0.114078 -0.016185 419326.000000 0 0 1
20.987487 12.557649 24.119968 34.350284 0.539198 0.792346 0.116353 -0.015160 611505.000000 0 0 1
19.862487 11.766649 24.468268 33.640282 0.534817 0.756343 0.117648 -0.018255 -314708.000000 0 0 1
18.512887 12.450849 24.591868 33.204075 0.592065 0.736792 0.098843 -0.020491 -471418.000000 0 0 1
18.408887 13.217549 25.769568 34.317071 0.622703 0.721334 0.112558 -0.020232 594070.000000 0 0 1
17.105787 13.794449 25.848468 33.926952 0.678643 0.704576 0.122877 -0.019023 442160.000000 0 0 1
16.699687 14.210249 27.288468 35.006731 0.705033 0.676896 0.111509 -0.014532 -142571.000000 0 0 1
16.406587 13.099349 28.076668 35.058071 0.673777 0.642063 0.119917 -0.021379 108767.000000 0 0 1
16.354987 13.393149 29.488968 36.283071 0.686161 0.621944 0.109398 -0.021955 523845.000000 0 0 1
17.706987 13.082649 30.245768 37.409886 0.636321 0.629203 0.112338 -0.026668 1242260.000000 0 0 1
18.680087 14.103749 29.920668 37.988258 0.646703 0.663844 0.134942 -0.035406 784254.000000 0 0 1
20.025287 13.663749 29.818968 38.430209 0.598765 0.682616 0.117707 -0.031856 110918.000000 0 0 1
21.023087 14.813849 29.544068 39.169787 0.613838 0.716275 0.131352 -0.031293 -176296.000000 0 0 1
20.955487 15.356049 28.208868 38.349458 0.632398 0.744283 0.141268 -0.034390 368065.000000 0 0 1
21.383087 14.452949 27.178968 37.480934 0.594372 0.759557 0.124208 -0.015075 -235435.000000 0 0 1
21.268587 15.205549 25.824868 36.748950 0.620676 0.791558 0.105587 -0.011366 -33719.200000 0 0 1
22.273987 16.167449 25.558368 37.559913 0.627861 0.822393 0.095313 -0.002724 248647.000000 0 0 1
22.009587 16.807949 24.347768 36.874691 0.652189 0.849600 0.071113 0.005600 -31702.500000 0 0 1
23.058187 17.887549 24.018868 37.796169 0.659783 0.882161 0.068036 0.002745 -297458.000000 0 0 1
22.829987 18.209349 22.677368 36.973662 0.673280 0.910516 0.070070 -0.007190 246226.000000 0 0 1
23.974287 18.794549 22.062668 37.613333 0.664875 0.943985 0.078640 -0.007400 230177.000000 0 0 1
24.420987 20.219749 22.535368 38.898145 0.691562 0.952874 0.080282 -0.014257 -448506.000000 0 0 1
23.527087 21.281749 22.331968 38.796307 0.735331 0.957433 0.083639 -0.011800 -309586.000000 0 0 1
24.080087 22.428149 22.871368 40.074580 0.749894 0.963414 0.103072 -0.020066 255426.000000 0 0 1
23.174287 23.688419 22.690068 40.162519 0.796369 0.970416 0.088714 -0.028024 101903.000000 0 0 1
23.221287 24.153709 21.325068 39.716349 0.805077 1.003997 0.102107 -0.028631 -525291.000000 0 0 1
22.433487 25.219979 21.067068 39.788567 0.843806 1.012814 0.110285 -0.032971 -855535.000000 0 0 1
22.807587 26.033289 19.830768 39.889567 0.851348 1.050495 0.117466 -0.036487 -466559.000000 0 0 1
22.477587 25.394379 18.584068 38.671488 0.846252 1.069500 0.110537 -0.035240 130506.000000 0 0 1
22.909587 26.153099 17.418468 38.887489 0.851412 1.106359 0.105682 -0.043699 -95537.200000 0 0 1
22.663187 25.433089 16.094668 37.676258 0.842925 1.129421 0.074060 -0.025416 -505394.000000 0 0 1
21.293487 25.418019 15.811868 36.735588 0.873468 1.125834 0.059371 -0.021366 -551039.000000 0 0 1
21.149987 25.019759 14.481968 35.819515 0.869019 1.154579 0.074212 -0.018414 261801.000000 0 0 1
19.660387 24.911669 14.057668 34.709366 0.902673 1.153806 0.053333 -0.016844 -391979.000000 0 0 1
18.986487 26.134529 13.989868 35.202510 0.942512 1.162102 0.025095 -0.013454 -212727.000000 0 0 1
17.844587 26.176219 14.816468 34.973582 0.972451 1.133328 0.039677 -0.002120 -283003.000000 0 0 1
16.549987 25.649039 14.175568 33.655936 0.997769 1.136039 0.036347 -0.010965 -1284480.000000 0 0 1
16.307987 24.233539 14.200568 32.478777 0.978456 1.118284 0.038079 -0.013262 77828.000000 0 0 1
16.143787 23.546099 15.433768 32.453687 0.969784 1.075193 0.055729 -0.013991 -40761.300000 0 0 1
15.047387 24.121939 16.387668 32.815354 1.013057 1.047901 0.102107 -0.029471 -114156.000000 0 0 1
15.432787 25.259429 17.123068 34.196624 1.022349 1.046361 0.081788 -0.027114 -262192.000000 0 0 1
14.340687 25.806079 17.789868 34.468659 1.063580 1.028485 0.084848 -0.033770 -297448.000000 0 0 1
14.777287 27.083869 18.523168 35.986274 1.071328 1.030105 0.081671 -0.041026 48042.800000 0 0 1
15.197187 28.139859 17.593068 36.500989 1.075617 1.067873 0.063488 -0.028479 269445.000000 0 0 1
15.970087 29.107939 18.272068 37.897022 1.068990 1.067689 0.028811 -0.016987 -299404.000000 0 0 1
16.056787 30.486739 17.635268 38.707420 1.086032 1.097745 0.010306 -0.014289 -6578.810000 0 0 1
14.775287 31.077629 17.530468 38.619237 1.126996 1.099624 0.041316 -0.014813 166962.000000 0 0 1
14.751087 32.248258 16.693868 39.194769 1.141787 1.130817 0.030542 -0.007399 -3718.950000 0 0 1
13.405787 33.018841 16.721368 39.364491 1.185125 1.132074 0.054863 -0.015766 73478.700000 0 0 1
13.315587 -33.211972 16.007468 39.199221 -1.189491 1.150138 0.079086 -0.025465 -118109.000000 0 0 1
13.906687 -32.046592 16.609168 38.681319 -1.161368 1.126985 0.064346 -0.022967 -122623.000000 0 0 1
13.623987 -31.710802 18.039668 38.943775 -1.165009 1.089167 0.065653 -0.024308 -392961.000000 0 0 1
14.167887 -32.603272 18.991568 40.303623 -1.160861 1.080131 0.062322 -0.023064 101828.000000 0 0 1
13.670087 -32.508082 20.300168 40.690828 -1.172732 1.048481 0.072808 -0.026178 -553459.000000 0 0 1
14.736087 -32.919922 21.336268 41.905964 -1.149911 1.036604 0.092413 -0.023743 -1329050.000000 0 0 1
15.889587 -32.218872 21.137368 41.681207 -1.112622 1.038957 0.100484 -0.024334 -1976660.000000 0 0 1
16.714487 -32.580702 22.173568 42.808216 -1.096789 1.026315 0.091553 -0.019897 -430608.000000 0 0 1
18.191887 -32.223522 21.832468 42.964599 -1.056849 1.037761 0.127875 -0.022188 225628.000000 0 0 1
18.319087 -30.812282 21.849168 41.980612 -1.034402 1.023408 0.138980 -0.022123 -205895.000000 0 0 1
19.557987 -30.446852 21.309368 41.995414 -0.999807 1.038607 0.124792 -0.014536 -253506.000000 0 0 1
-4.443613 13.236178 18.338233 23.048490 -1.246902 0.650738 0.024200 -0.000041 -532099.000000 0 1 0
-4.293213 14.406278 17.561333 23.116508 -1.281166 0.707963 0.029695 -0.011469 553332.000000 0 1 0
-5.598213 14.894478 17.215133 23.442403 -1.211273 0.746075 0.033290 -0.015761 656998.000000 0 1 0
-5.575713 16.421878 17.168633 24.403455 -1.243480 0.790440 0.061856 -0.034610 -69946.100000 0 1 0
-5.309513 17.032678 18.430833 25.651484 -1.268618 0.769140 0.063431 -0.023354 141686.000000 0 0 1
-5.024013 18.370578 18.169533 26.322058 -1.303842 0.808923 0.080953 -0.025432 -540093.000000 0 0 1
-4.532113 18.992078 19.487733 27.586424 -1.336545 0.786362 0.089763 -0.029770 -449194.000000 0 0 1
-5.404313 19.161478 20.564833 28.623088 -1.295896 0.769196 0.066028 -0.021483 -279830.000000 0 0 1
-4.703713 19.871478 21.554433 29.691651 -1.338368 0.758392 0.066733 -0.023657 -53511.200000 0 0 1
-5.576413 20.293478 22.749333 30.991188 -1.302627 0.746518 0.047192 -0.015335 27954.600000 0 0 1
-5.996913 19.152878 23.493513 30.898881 -1.267358 0.706967 0.036727 -0.016020 435043.000000 0 0 1
-6.809313 19.339078 24.684943 32.089142 -1.232251 0.693112 0.021966 -0.014735 671441.000000 0 0 1
-6.053913 19.998078 25.880853 33.262464 -1.276842 0.679193 0.025048 -0.007437 -725071.000000 0 0 1
-5.648813 21.326978 25.607723 33.800955 -1.311875 0.711163 0.033019 -0.014003 -475598.000000 0 0 1
-4.609713 21.762578 26.415213 34.534370 -1.362063 0.699916 0.049667 -0.015245 -428378.000000 0 0 1
-3.221213 21.343878 25.891053 33.708811 -1.421007 0.694959 0.075348 -0.013833 -877689.000000 0 0 1
-2.855913 20.062178 26.235533 33.150421 -1.429393 0.657686 0.082263 -0.009618 -516388.000000 0 0 1
-1.519813 19.792878 25.923543 32.651155 -1.494161 0.653510 0.091609 -0.018037 -70480.000000 0 0 1
-0.766513 18.603978 26.563083 32.439064 -1.529618 0.611373 0.098600 -0.014009 -188802.000000 0 0 1
-1.084113 17.367278 25.933653 31.230626 -1.508454 0.590986 0.096545 -0.015228 -336027.000000 0 0 1
-0.353213 16.290878 26.436513 31.054897 -1.549118 0.552370 0.095939 -0.013657 379742.000000 0 0 1
1.141987 16.150578 25.982923 30.614663 1.500205 0.557258 0.108862 -0.016563 106961.000000 0 0 1
1.307487 15.801178 24.578103 29.248417 1.488238 0.572918 0.093964 -0.021549 -214312.000000 0 0 1
0.946187 14.483378 24.208553 28.226185 1.505560 0.540089 0.096603 -0.018220 -186152.000000 0 0 1
1.090687 14.303478 22.661263 26.819991 1.494690 0.564345 0.097936 -0.032567 269549.000000 0 0 1
2.466487 14.325978 22.308483 26.626783 1.400299 0.577516 0.081302 -0.030168 71100.400000 0 0 1
2.724387 13.598078 21.152633 25.293554 1.373063 0.580323 0.063097 -0.031208 408972.000000 0 0 1
4.213987 13.591178 20.700933 25.119841 1.270142 0.602208 0.052241 -0.027082 337611.000000 0 0 1
4.619587 14.730278 20.051433 25.305763 1.266899 0.656118 0.051715 -0.021834 -205532.000000 0 0 1
6.021387 14.652878 19.889933 25.427807 1.180899 0.672588 0.060861 -0.026902 -54856.700000 0 0 1
6.581387 15.690878 18.925533 25.449835 1.173644 0.732297 0.076825 -0.025034 -134121.000000 0 0 1
6.257787 15.388578 17.561933 24.174154 1.184569 0.757617 0.067422 -0.031749 347440.000000 0 1 0
6.920787 16.302178 16.695433 24.339182 1.169323 0.814890 0.075992 -0.029318 -43573.200000 0 1 0
6.926387 15.926578 15.170133 23.060001 1.160575 0.852829 0.071248 -0.031262 36519.900000 0 1 0
7.855187 15.035278 14.567533 22.360155 1.089350 0.861243 0.061478 -0.035028 -10074.400000 0 1 0
8.022787 13.778878 15.212633 22.037395 1.043529 0.808879 0.058612 -0.030893 -368966.000000 0 1 0
9.216987 12.979078 14.692233 21.662664 0.953296 0.825447 0.069084 -0.035213 -424853.000000 0 1 0
10.464187 13.494378 15.078433 22.780618 0.911206 0.847449 0.075866 -0.034711 39620.500000 0 1 0
11.427087 13.073278 14.098133 22.366186 0.852488 0.888815 0.087180 -0.030241 772773.000000 0 1 0
12.813387 13.782178 14.020533 23.467140 0.821809 0.930474 0.088964 -0.020715 100599.000000 0 1 0
13.507387 13.535678 15.185833 24.418714 0.786444 0.899638 0.089648 -0.031734 1132810.000000 0 1 0
14.915187 13.885878 15.212133 25.430088 0.749675 0.929551 0.095183 -0.032844 2176350.000000 0 0 1
16.000287 12.978078 14.484233 25.183977 0.681482 0.958025 0.102080 -0.035066 -282618.000000 0 0 1
17.267287 13.554078 14.487233 26.301181 0.665501 0.987449 0.116260 -0.043926 -256816.000000 0 0 1
18.080187 12.877878 13.527233 25.994594 0.618910 1.023493 0.132777 -0.046422 -709406.000000 0 0 1
19.482787 13.480078 13.529733 27.282690 0.605267 1.051915 0.129316 -0.052203 -691192.000000 0 0 1
20.234287 13.017878 14.641033 28.164718 0.571691 1.024137 0.103182 -0.044902 -357042.000000 0 0 1
21.539887 13.474478 14.411333 29.209841 0.559001 1.054834 0.139967 -0.057261 -579267.000000 0 0 1
22.516387 13.394278 15.569833 30.476451 0.536637 1.034587 0.149139 -0.041196 -97543.200000 0 0 1
23.031187 12.075878 15.868233 30.464130 0.482919 1.022912 0.153875 -0.040081 584465.000000 0 0 1
23.956787 12.032378 16.947033 31.716048 0.465449 1.007074 0.127876 -0.038075 58162.300000 0 0 1
24.487987 10.616678 17.117433 31.707757 0.409087 1.000537 0.151065 -0.031576 -239969.000000 0 0 1
23.401087 9.877678 17.622233 30.914761 0.399415 0.964258 0.119183 -0.013251 628150.000000 0 0 1
23.466287 8.605578 17.107533 30.288451 0.351493 0.970581 0.099663 -0.014079 283192.000000 0 0 1
22.282687 7.722678 17.617933 29.437212 0.333623 0.929179 0.145212 -0.018225 258018.000000 0 0 1
22.348687 6.487678 16.990433 28.813687 0.282528 0.940152 0.164893 -0.031842 827607.000000 0 0 1
21.351687 5.664878 17.632133 28.264421 0.259338 0.897165 0.172892 -0.030432 229765.000000 0 0 1
21.202887 4.210678 17.120133 27.575191 0.196039 0.900966 0.223534 -0.026802 -300852.000000 0 0 1
20.388087 4.225378 15.959133 26.233982 0.204354 0.916831 0.234804 -0.039089 537294.000000 0 0 1
20.510487 2.957478 15.308733 25.764007 0.143206 0.934537 0.205124 -0.039260 275592.000000 0 0 1
19.530587 1.781978 15.683833 25.111788 0.090988 0.896228 0.235139 -0.050878 80647.700000 0 0 1
19.900287 1.267378 16.924233 26.154489 0.063601 0.867039 0.232354 -0.054618 326485.000000 0 0 1
18.879387 0.430478 17.419833 25.691772 0.022798 0.825715 0.217039 -0.048924 -33838.100000 0 0 1
19.212087 -0.270422 18.763633 26.856123 -0.014075 0.797256 0.201370 -0.039199 -47765.400000 0 0 1
19.924587 -1.492522 18.544733 27.260299 -0.074769 0.822647 0.200363 -0.030895 -29355.300000 0 0 1
19.248587 -2.567622 19.128033 27.257704 -0.132610 0.792949 0.123373 -0.008787 -167028.000000 0 0 1
19.289287 -3.832022 18.273233 26.845335 -0.196107 0.822098 0.119797 -0.007734 -217066.000000 0 0 1
18.438287 -3.678422 17.184633 25.471804 -0.196914 0.830302 0.150254 -0.028406 -71592.200000 0 0 1
18.357987 -4.809722 16.377633 25.067428 -0.256237 0.858804 0.165614 -0.032716 -283268.000000 0 0 1
17.709987 -4.636622 15.004333 23.670063 -0.256061 0.884217 0.143054 -0.040734 -35868.200000 0 1 0
16.317887 -4.376122 15.146833 22.690315 -0.262014 0.839888 0.142660 -0.038061 289477.000000 0 1 0
15.615187 -4.347322 13.939833 21.378779 -0.271528 0.860524 0.132091 -0.041149 170576.000000 0 1 0
15.939487 -3.108022 13.039733 20.826946 -0.192573 0.894256 0.129586 -0.039035 -412599.000000 0 1 0
15.214387 -1.973122 13.491933 20.430444 -0.128968 0.849467 0.130784 -0.026253 214887.000000 0 1 0
15.533987 -0.720422 12.904033 20.207370 -0.046344 0.878144 0.140462 -0.029746 -410219.000000 0 1 0
14.514887 0.381778 13.197033 19.621146 0.026296 0.833090 0.144894 -0.019647 -794781.000000 0 1 0
14.841387 1.727878 12.895633 19.737013 0.115901 0.858765 0.148559 -0.014962 566364.000000 0 1 0
15.934887 2.288078 13.639233 21.099398 0.142614 0.867903 0.181403 -0.029630 549400.000000 0 1 0
16.403587 3.642278 13.017433 21.255526 0.218497 0.911671 0.179042 -0.029097 171012.000000 0 1 0
15.439187 4.661078 13.253933 20.874886 0.293198 0.882888 0.154332 -0.019088 388604.000000 0 1 0
15.585887 5.833378 12.494033 20.809830 0.358133 0.926807 0.175884 -0.026249 621986.000000 0 1 0
14.311987 6.755378 12.600033 20.229407 0.441005 0.898407 0.129163 -0.023748 645850.000000 0 1 0
14.506987 7.896878 11.793333 20.295222 0.498495 0.950730 0.109299 -0.032327 456830.000000 0 1 0
13.521987 8.886378 12.063833 20.182862 0.581406 0.930134 0.078284 -0.022073 -130344.000000 0 1 0
13.732887 9.714478 13.391733 21.501204 0.615667 0.898433 0.076654 -0.027821 -164801.000000 0 1 0
13.387687 8.966578 14.512633 21.685161 0.590143 0.837607 0.096325 -0.036784 385674.000000 0 1 0
13.776487 9.725678 15.660233 23.013546 0.614716 0.822380 0.121916 -0.040940 9074.440000 0 1 0
13.484987 9.105178 17.053333 23.570433 0.593893 0.761930 0.126270 -0.045413 88875.100000 0 1 0
12.154087 9.222778 17.524733 23.235699 0.649123 0.716337 0.096425 -0.047654 58035.700000 0 1 0
11.933587 8.579578 18.784833 23.851406 0.623327 0.663928 0.145177 -0.042119 -145550.000000 0 1 0
12.663687 9.114678 20.054033 25.408867 0.623858 0.661204 0.168950 -0.036070 -1497320.000000 0 0 1
14.008087 8.896078 19.953733 25.952228 0.565806 0.693734 0.195071 -0.050877 -1623130.000000 0 0 1
14.682387 8.863378 21.190233 27.260923 0.543117 0.680415 0.173497 -0.038334 -2042730.000000 0 0 1
16.087087 8.546078 20.914333 27.735160 0.488325 0.716555 0.169121 -0.040342 -2127310.000000 0 0 1
16.733887 9.605278 20.228133 27.954636 0.521084 0.761784 0.172761 -0.036808 -117095.000000 0 0 1
17.692387 9.026078 19.362333 27.737890 0.471748 0.798131 0.142034 -0.028221 -183126.000000 0 0 1
18.503887 10.111678 18.641433 28.145033 0.500123 0.846866 0.156212 -0.034477 -526181.000000 0 0 1
19.275887 10.917378 19.459733 29.486101 0.515328 0.850027 0.143908 -0.034088 454163.000000 0 0 1
20.144287 11.705978 18.582133 29.801306 0.526411 0.897541 0.132214 -0.027416 620317.000000 0 0 1
21.222587 12.508478 19.353233 31.327429 0.532585 0.904889 0.117601 -0.019370 -479887.000000 0 0 1
20.682587 13.575778 20.103833 31.878445 0.580852 0.888418 0.101018 -0.018245 605533.000000 0 0 1
21.571287 14.142578 21.102433 33.326350 0.580316 0.885108 0.089719 -0.006515 827629.000000 0 0 1
22.734587 15.032778 20.538233 34.127186 0.584229 0.925025 0.067078 -0.001256 751334.000000 0 0 1
23.852087 14.407678 19.907633 34.246417 0.543387 0.950464 0.044915 -0.000789 865192.000000 0 0 1
25.092487 14.958578 20.366633 35.611679 0.537575 0.961965 0.036226 -0.006349 1136420.000000 0 0 1
26.247187 13.912878 20.562933 36.129174 0.487414 0.965324 0.046897 -0.013001 486642.000000 0 0 1
26.566287 13.322078 19.309933 35.441767 0.464819 0.994603 0.083203 -0.032101 -349493.000000 0 0 1
27.813787 12.712578 19.424033 36.228572 0.428710 1.004924 0.127644 -0.042350 -294764.000000 0 0 1
28.280987 11.804778 18.239233 35.662818 0.395425 1.033942 0.172418 -0.044339 -116963.000000 0 0 1
28.778287 12.511078 17.146033 35.758961 0.410092 1.070724 0.178614 -0.059201 -18300.200000 0 0 1
28.821687 11.729078 15.938533 34.961375 0.386486 1.097425 0.213781 -0.069900 -325611.000000 0 0 1
27.567587 11.546178 15.065833 33.470366 0.396634 1.103892 0.190722 -0.071598 -355185.000000 0 0 1
27.386287 12.718678 14.293633 33.407805 0.434779 1.128680 0.225848 -0.071703 -530995.000000 0 0 1
26.356487 12.557678 13.391933 32.120142 0.444635 1.140728 0.224622 -0.067677 -584163.000000 0 0 1
26.153687 13.842578 12.553633 32.143833 0.486795 1.169572 0.210698 -0.069920 -355403.000000 0 0 1
25.448587 14.761578 13.292933 32.283693 0.525625 1.146419 0.189890 -0.068928 -190083.000000 0 0 1
25.167887 15.858078 12.494333 32.264679 0.562252 1.173155 0.175251 -0.059416 565799.000000 0 0 1
23.962387 16.659078 13.139233 32.005629 0.607509 1.147762 0.164952 -0.054203 835426.000000 0 0 1
22.666787 16.055778 13.017133 30.676000 0.616301 1.132561 0.181205 -0.061458 186721.000000 0 0 1
21.681187 16.991078 13.242133 30.563453 0.664709 1.122682 0.153011 -0.051353 -1520720.000000 0 0 1
21.109387 17.750578 12.025133 30.088088 0.699179 1.159646 0.173808 -0.050044 -1028900.000000 0 0 1
20.010487 17.219978 11.374333 28.745829 0.710586 1.163981 0.146247 -0.055039 -718280.000000 0 0 1
18.832387 17.476678 12.091733 28.395476 0.748077 1.130914 0.124306 -0.047182 -392989.000000 0 0 1
17.464687 17.064978 11.450933 26.969476 0.773823 1.132289 0.112912 -0.036858 548184.000000 0 0 1
17.288087 15.692878 11.287933 25.933796 0.737068 1.120470 0.121260 -0.038756 565767.000000 0 0 1
15.939687 15.374478 10.950833 24.705646 0.767350 1.111573 0.112682 -0.031506 434301.000000 0 1 0
15.588987 14.046378 10.231233 23.345136 0.733392 1.117135 0.112771 -0.035858 -223737.000000 0 1 0
15.856387 12.875878 11.058633 23.227281 0.682034 1.074576 0.098161 -0.028620 575981.000000 0 1 0
16.244187 11.767578 10.208633 22.507014 0.626926 1.100023 0.107226 -0.021931 -173958.000000 0 1 0
16.726387 10.558478 10.997633 22.631867 0.563079 1.063363 0.135872 -0.033578 -686643.000000 0 1 0
17.398687 9.720178 10.033333 22.312865 0.509478 1.104405 0.137190 -0.037742 654555.000000 0 1 0
18.031287 8.590378 10.623333 22.622491 0.444602 1.081968 0.144772 -0.037373 546337.000000 0 1 0
19.396287 8.846878 11.333733 24.144082 0.427925 1.082162 0.162395 -0.043790 -222224.000000 0 1 0
19.226687 9.316578 12.699933 24.854625 0.451223 1.034485 0.160246 -0.045488 248318.000000 0 1 0
20.411087 9.355178 13.468133 26.182483 0.429766 1.030495 0.170172 -0.050610 -599960.000000 0 0 1
20.074387 9.414278 14.962833 26.748757 0.438517 0.977154 0.137575 -0.032069 111414.000000 0 0 1
19.454287 8.335678 15.649633 26.322306 0.404810 0.934104 0.142487 -0.036940 638117.000000 0 0 1
18.142187 7.996278 15.227833 24.999326 0.415140 0.915834 0.159278 -0.042106 -155168.000000 0 1 0
17.687787 6.689378 15.923133 24.721483 0.361566 0.870949 0.191507 -0.044409 -440835.000000 0 1 0
16.787687 6.894778 16.959133 24.839013 0.389700 0.819260 0.211407 -0.048017 -215248.000000 0 1 0
16.255087 5.658178 17.353733 24.441662 0.334969 0.781289 0.207232 -0.028821 -837526.000000 0 1 0
14.858187 5.721778 18.038633 24.060273 0.367589 0.723147 0.193112 -0.038469 278543.000000 0 1 0
14.202887 4.464678 18.212633 23.523506 0.304569 0.685297 0.196900 -0.036435 493905.000000 0 1 0
13.805287 3.927378 16.996933 22.246482 0.277161 0.701263 0.186035 -0.036418 -1378450.000000 0 1 0
13.444187 2.489078 17.035733 21.843943 0.183069 0.676317 0.173035 -0.030021 -927811.000000 0 1 0
14.519487 1.629878 17.138533 22.521130 0.111787 0.705946 0.182621 -0.028846 -553841.000000 0 1 0
14.255187 0.258178 16.932333 22.135512 0.018109 0.699849 0.170925 -0.022870 -467733.000000 0 1 0
13.360387 -0.635422 17.814333 22.276762 -0.047524 0.644030 0.162605 -0.028608 -1377030.000000 0 1 0
12.087487 -0.170022 17.634333 21.380036 -0.014065 0.600941 0.159179 -0.021545 -2037670.000000 0 1 0
11.167787 -1.144822 18.012333 21.224378 -0.102154 0.557345 0.149007 -0.031184 -239307.000000 0 1 0
-26.911873 14.528878 28.472713 41.785554 -0.495032 0.821121 0.055547 -0.008279 24917.800000 0 0 1
-25.763663 14.173878 29.248553 41.474606 -0.502958 0.788069 0.057260 -0.007156 726882.000000 0 0 1
-25.456413 12.793978 29.174103 40.777973 -0.465712 0.773546 0.062365 -0.005498 -48277.300000 0 0 1
-24.187213 12.579178 30.027953 40.557797 -0.479579 0.737169 0.057888 -0.013647 -55293.100000 0 0 1
-24.472913 12.608778 31.453225 41.799642 -0.475744 0.718983 0.057696 -0.017709 443662.000000 0 0 1
-23.312713 12.668778 32.267095 41.774944 -0.497783 0.688180 0.052298 -0.014481 -122866.000000 0 0 1
-23.692513 12.907978 -33.620082 43.107552 -0.498852 2.465321 0.059427 -0.002736 14243.200000 0 0 1
-24.274113 11.842878 -32.902302 42.568155 -0.453905 2.454246 0.042397 -0.004201 43266.000000 0 0 1
-24.794313 12.323478 -31.693652 42.084601 -0.461268 2.423548 0.028536 -0.003967 -207399.000000 0 0 1
-25.519273 11.254578 -30.872942 41.605738 -0.415363 2.406898 0.028126 -0.007587 -3537.980000 0 0 1
-24.707313 10.213878 -30.297692 40.406989 -0.392000 2.418576 0.038787 -0.017356 298924.000000 0 0 1
-24.375813 9.185878 -31.207432 40.650516 -0.360386 2.446042 0.038305 -0.019516 -115625.000000 0 0 1
-23.630013 8.041578 -30.446892 39.370773 -0.328018 2.454885 0.056147 -0.012789 -284728.000000 0 0 1
-24.422513 7.238878 -29.599102 39.050830 -0.288152 2.430982 0.046632 -0.014316 -146379.000000 0 0 1
-23.691313 6.556278 -28.633702 37.737939 -0.269981 2.432190 0.051067 -0.006146 -449682.000000 0 0 1
-24.545013 5.866378 -27.521072 37.340079 -0.234604 2.399474 0.049789 -0.005542 120140.000000 0 0 1
-25.366243 4.825578 -28.042062 38.119414 -0.187990 2.397403 0.068161 -0.019748 294037.000000 0 0 1
-25.625153 3.925478 -27.032562 37.454202 -0.152007 2.377123 0.093852 -0.013306 -653005.000000 0 0 1
-26.419663 2.714278 -27.628612 38.323702 -0.102378 2.375936 0.112481 -0.015719 873532.000000 0 0 1
-27.820483 2.773278 -27.899742 39.497670 -0.099357 2.355145 0.142919 -0.027338 754608.000000 0 0 1
-28.119103 3.612378 -28.998112 40.553961 -0.127767 2.367492 0.143367 -0.028826 -55783.400000 0 0 1
-29.578883 3.538278 -29.562982 41.969032 -0.119056 2.352374 0.167252 -0.035743 -31443.500000 0 0 1
-30.648153 3.949778 -28.770832 42.221687 -0.128168 2.320502 0.151023 -0.029969 330966.000000 0 0 1
-31.827883 4.106578 -29.570392 43.638128 -0.128316 2.315328 0.151979 -0.031208 416789.000000 0 0 1
-32.029133 5.510978 -30.235652 44.389536 -0.170393 2.320120 0.156152 -0.046073 -352898.000000 0 0 1
-31.055693 5.792178 -31.276892 44.455027 -0.184391 2.351195 0.163811 -0.045659 974107.000000 0 0 1
-31.123303 7.074978 -31.799132 45.054413 -0.223522 2.354340 0.153140 -0.042771 -549719.000000 0 0 1
-30.829833 8.235878 -30.828132 44.369833 -0.261044 2.338937 0.121133 -0.035503 -524023.000000 0 0 1
-29.485303 8.427178 -30.450902 43.216408 -0.278388 2.352676 0.057574 -0.037706 199261.000000 0 0 1
-28.949373 7.562678 -29.459392 41.989476 -0.255527 2.348423 0.051116 -0.027374 -640219.000000 0 0 1
-29.145633 8.175178 -28.037002 41.259847 -0.273467 2.317908 0.038781 -0.015060 4151.590000 0 0 1
-30.512993 8.362278 -27.724552 42.066866 -0.267489 2.290363 0.061574 -0.019684 311204.000000 0 0 1
-31.092443 7.234478 -27.072772 41.857051 -0.228609 2.274166 0.067565 -0.016065 326786.000000 0 0 1
-32.458523 7.587178 -26.363932 42.499152 -0.229627 2.239973 0.071302 -0.018944 606440.000000 0 0 1
-32.387673 8.491878 -25.266012 41.945736 -0.256423 2.217238 0.045369 -0.011333 3705.440000 0 0 1
-32.198163 7.846278 -24.049432 40.947051 -0.239028 2.198552 0.056202 -0.012523 -222194.000000 0 0 1
-31.734633 8.649778 -22.792232 40.017389 -0.266102 2.176765 0.040380 -0.004472 -374226.000000 0 0 1
-32.621893 9.635478 -22.227132 40.633431 -0.287202 2.149592 0.049258 -0.001706 549731.000000 0 0 1
-31.935353 10.705978 -21.592032 40.008757 -0.323465 2.140856 0.059460 -0.006268 40905.100000 0 0 1
-32.884763 11.629378 -20.768732 40.595447 -0.339914 2.107845 0.055739 -0.003375 237899.000000 0 0 1
-33.594333 10.911378 -19.759132 40.472962 -0.314049 2.080829 0.072847 -0.018634 379029.000000 0 0 1
-34.309760 11.749978 -18.837532 40.866542 -0.329949 2.049864 0.062111 -0.012048 318859.000000 0 0 1
-33.492293 12.533378 -17.712932 39.906982 -0.358084 2.030693 0.069570 -0.012299 -129023.000000 0 0 1
-32.945263 11.948178 -16.581232 38.769661 -0.347915 2.012727 0.130793 -0.018658 360545.000000 0 0 1
-33.907663 11.595278 -15.597132 39.082613 -0.329500 1.981311 0.134926 -0.026348 100271.000000 0 0 1
-34.529294 12.807378 -14.801532 39.691138 -0.355183 1.952948 0.103801 -0.024261 412007.000000 0 0 1
-35.194119 13.794378 -15.668832 40.919716 -0.373549 1.963748 0.072459 -0.016374 348903.000000 0 0 1
-35.851273 14.773678 -14.919332 41.547104 -0.390879 1.938094 0.049466 -0.008475 35593.500000 0 0 1
-36.536723 15.886278 -15.737232 42.836508 -0.410145 1.946986 0.032762 -0.008985 230913.000000 0 0 1
-37.601893 15.459878 -16.568732 43.902541 -0.390078 1.957781 0.031256 -0.013988 190882.000000 0 0 1
37.835731 16.536478 -17.020632 44.662059 0.412041 1.961780 0.027806 -0.013528 -906173.000000 0 0 1
37.450111 16.253578 -18.562332 44.846959 0.409474 1.997535 0.040203 -0.015416 388300.000000 0 0 1
36.456171 15.232278 -18.707232 43.715389 0.395777 2.013000 0.070791 -0.021975 636828.000000 0 0 1
35.142931 15.622578 -18.362132 42.617583 0.418307 2.016240 0.122552 -0.038333 -961325.000000 0 0 1
34.104471 14.535478 -18.510932 41.437298 0.402890 2.033894 0.153308 -0.043679 -726796.000000 0 0 1
33.631541 14.471078 -19.803432 41.625336 0.406337 2.066618 0.157512 -0.043334 -179907.000000 0 0 1
32.779531 13.380178 -20.044532 40.685502 0.387544 2.085952 0.138526 -0.036297 -130430.000000 0 0 1
33.312581 11.900478 -19.865232 40.570640 0.343107 2.082479 0.128160 -0.013891 -146006.000000 0 0 1
33.528041 11.602178 -18.477432 40.001944 0.333146 2.050948 0.134986 -0.017407 72582.300000 0 0 1
34.003021 10.288178 -18.259132 39.943059 0.293810 2.045561 0.108872 -0.009078 -9108.420000 0 0 1
34.248311 10.076878 -16.774032 39.444371 0.286155 2.010043 0.078408 0.001847 -67164.500000 0 0 1
33.041871 9.983778 -16.045632 38.064463 0.293433 2.005937 0.104153 -0.002678 146354.000000 0 0 1
33.297471 9.685578 -14.684232 37.658447 0.283069 1.971354 0.078389 -0.006648 -521395.000000 0 0 1
32.649771 10.616078 -13.681832 36.958100 0.314368 1.950019 0.090774 -0.011477 386213.000000 0 0 1
31.217101 10.577378 -13.694432 35.692097 0.326692 1.964577 0.088003 -0.007033 708226.000000 0 0 1
30.696001 11.646378 -12.935232 35.287431 0.362632 1.946114 0.088047 -0.010075 -197470.000000 0 0 1
29.164801 11.718278 -13.058532 34.035700 0.382053 1.964565 0.125666 -0.007207 -782291.000000 0 0 1
28.533901 10.740378 -12.271032 32.865140 0.360004 1.953441 0.126644 -0.014747 120238.000000 0 0 1
27.134101 10.584978 -12.425832 31.665478 0.371942 1.974046 0.150903 -0.009500 239551.000000 0 0 1
26.641701 10.039678 -13.770432 31.625941 0.360383 2.021296 0.125328 -0.026612 -1021070.000000 0 0 1
26.854101 8.637478 -13.925532 31.459008 0.311194 2.029355 0.124113 -0.023196 1103160.000000 0 0 1
28.128401 8.231878 -14.473032 32.686991 0.284703 2.029489 0.122411 -0.027050 885381.000000 0 0 1
29.015101 7.322778 -13.548432 32.849036 0.247216 1.995933 0.113096 -0.026644 -22475.900000 0 0 1
28.585501 5.987778 -13.264232 32.076848 0.206484 1.997107 0.120908 -0.036056 316379.000000 0 0 1
27.393601 5.833678 -12.520232 30.678940 0.209823 1.991174 0.159599 -0.034712 -176208.000000 0 0 1
27.169801 4.294078 -12.321432 30.140585 0.156749 1.991934 0.169974 -0.035347 -135388.000000 0 0 1
26.367701 3.821978 -11.245132 28.919131 0.143947 1.970177 0.209175 -0.034041 658238.000000 0 0 1
25.943501 2.488078 -11.412032 28.451542 0.095611 1.983518 0.226519 -0.044460 -118852.000000 0 0 1
25.676001 1.800878 -10.067532 27.637934 0.070024 1.943640 0.263226 -0.049955 -664602.000000 0 0 1
26.829601 1.363178 -9.421732 28.468487 0.050765 1.908110 0.290291 -0.038020 -97123.900000 0 0 1
26.613201 0.709878 -8.199432 27.856724 0.026668 1.869564 0.332222 -0.025004 320261.000000 0 0 1
27.935301 0.051378 -7.657732 28.965920 0.001839 1.838347 0.402700 -0.013816 -47800.900000 0 0 1
27.816501 -0.894222 -6.611132 28.605321 -0.032136 1.804020 0.347078 -0.030539 112861.000000 0 0 1
27.351201 -2.191822 -6.883332 28.289088 -0.079965 1.816585 0.251864 -0.027597 -373436.000000 0 0 1
27.734401 -3.212022 -5.796132 28.515070 -0.115300 1.775488 0.211251 -0.032227 -295497.000000 0 0 1
29.123401 -3.409222 -5.717432 29.874476 -0.116531 1.763366 0.207936 -0.040626 -8193.720000 0 0 1
29.447501 -4.501522 -4.879532 30.186567 -0.151692 1.733155 0.223994 -0.069574 -613933.000000 0 0 1
30.943901 -4.792922 -4.800732 31.678764 -0.153670 1.722927 0.211293 -0.060511 -545667.000000 0 0 1
31.467911 -5.052922 -6.076832 32.445174 -0.159215 1.759204 0.160252 -0.042908 682140.000000 0 0 1
32.842041 -5.441622 -6.114532 33.846689 -0.164199 1.752447 0.182572 -0.036707 687222.000000 0 0 1
33.495041 -5.789722 -7.469232 34.802702 -0.171162 1.787095 0.196926 -0.056301 -226365.000000 0 0 1
32.993331 -6.968422 -8.067732 34.672858 -0.208148 1.805630 0.215601 -0.066700 -243975.000000 0 0 1
33.422531 -7.267922 -9.382432 35.467144 -0.214122 1.838522 0.212447 -0.042344 -485306.000000 0 0 1
32.262491 -7.944922 -10.204832 34.758146 -0.241454 1.868782 0.177771 -0.045217 850909.000000 0 0 1
31.054901 -7.220322 -10.396032 33.535316 -0.228443 1.885992 0.143761 -0.062439 -27764.700000 0 0 1
30.289601 -7.263922 -9.253332 32.493824 -0.235371 1.859565 0.164740 -0.051409 -1842800.000000 0 0 1
29.247201 -6.115622 -9.379332 31.317271 -0.206131 1.874959 0.156022 -0.054207 -266202.000000 0 0 1
27.958001 -6.477722 -9.756032 30.311563 -0.227677 1.898488 0.139565 -0.047887 -184908.000000 0 0 1
26.980601 -5.467822 -9.696932 29.186990 -0.199950 1.909468 0.177033 -0.049893 1182830.000000 0 0 1
25.481001 -5.950122 -9.819132 27.948179 -0.229401 1.929791 0.215260 -0.052900 305278.000000 0 0 1
25.204201 -6.695822 -8.636932 27.471483 -0.259665 1.890617 0.210368 -0.061154 1533220.000000 0 0 1
23.835801 -7.152022 -8.510332 26.300619 -0.291506 1.900306 0.194545 -0.056974 953773.000000 0 0 1
22.814301 -6.129022 -7.976332 24.933494 -0.262452 1.896425 0.194379 -0.043723 -601430.000000 0 1 0
22.699501 -5.024422 -8.857832 24.879175 -0.217833 1.934817 0.231480 -0.041452 169944.000000 0 1 0
22.303701 -3.881222 -8.210232 24.081671 -0.172292 1.918705 0.231695 -0.044500 -388264.000000 0 1 0
22.486801 -2.727222 -9.219632 24.455992 -0.120692 1.957339 0.257561 -0.037161 -99202.800000 0 1 0
23.845001 -2.671422 -9.591632 25.840278 -0.111568 1.951086 0.245039 -0.040135 388631.000000 0 0 1
24.003401 -2.069022 -10.845132 26.420844 -0.085985 1.993773 0.263918 -0.037223 361982.000000 0 0 1
25.456101 -2.226522 -11.395332 27.978993 -0.087243 1.990272 0.204837 -0.036394 77134.200000 0 0 1
26.400001 -1.327822 -10.907932 28.595561 -0.050254 1.962167 0.202718 -0.034964 -572892.000000 0 0 1
27.626301 -1.631022 -11.468832 29.956749 -0.058970 1.963672 0.164470 -0.030656 -533905.000000 0 0 1
28.757801 -0.572122 -11.338732 30.917718 -0.019892 1.946298 0.130174 -0.016836 593329.000000 0 0 1
30.057201 -1.063022 -11.761432 32.293910 -0.035352 1.943570 0.103027 -0.020392 1723050.000000 0 0 1
31.134501 -0.156922 -11.451532 33.174076 -0.005040 1.923243 0.106402 -0.012296 567531.000000 0 0 1
31.106401 1.144978 -12.321232 33.477334 0.036792 1.947704 0.100391 -0.013389 -799301.000000 0 0 1
31.448701 1.007278 -13.682232 34.310915 0.032018 1.980974 0.104164 -0.020457 379587.000000 0 0 1
31.511221 2.277078 -14.322732 34.688367 0.072137 1.996429 0.114443 -0.024253 -117549.000000 0 0 1
31.647001 2.180678 -15.829532 35.452251 0.068798 2.033649 0.121220 -0.026862 499851.000000 0 0 1
30.441401 1.691778 -16.443232 34.639874 0.055518 2.065409 0.117357 -0.018870 626344.000000 0 0 1
30.540301 1.729178 -17.852732 35.417793 0.056559 2.099091 0.093512 -0.018636 -548973.000000 0 0 1
29.420201 1.036278 -18.591232 34.817467 0.035209 2.134077 0.068422 -0.016499 -685047.000000 0 0 1
29.527201 -0.370122 -18.452132 34.820594 -0.012534 2.129303 0.091857 -0.022448 163251.000000 0 0 1
29.261901 -0.940022 -19.729932 35.304571 -0.032113 2.163794 0.074665 -0.024516 -29053.500000 0 0 1
28.953501 -2.469622 -19.782732 35.153389 -0.085090 2.168511 0.080576 -0.028894 576772.000000 0 0 1
27.601801 -2.842022 -19.461132 33.892066 -0.102604 2.182434 0.083598 -0.025715 698237.000000 0 0 1
27.324401 -4.245222 -19.321832 33.733929 -0.154132 2.180679 0.086700 -0.031819 -52663.500000 0 0 1
28.126401 -5.024922 -18.220332 33.886941 -0.176790 2.138479 0.080595 -0.025897 167219.000000 0 0 1
29.509401 -5.153022 -18.511232 35.213976 -0.172880 2.124309 0.091118 -0.022912 1001.840000 0 0 1
30.133901 -5.427522 -17.269932 35.153386 -0.178203 2.084348 0.085436 -0.024437 262106.000000 0 0 1
31.671431 -5.189522 -17.343032 36.480014 -0.162412 2.066228 0.116772 -0.020260 318203.000000 0 0 1
32.412231 -6.160422 -18.065232 37.614573 -0.187824 2.071761 0.093742 -0.020927 -226423.000000 0 0 1
33.683341 -5.623922 -18.329232 38.757666 -0.165438 2.063397 0.111899 -0.021635 -488259.000000 0 0 1
34.562281 -6.613222 -19.098832 40.038124 -0.189057 2.068053 0.112731 -0.021285 -226180.000000 0 0 1
35.077461 -7.653222 -18.260632 40.279657 -0.214814 2.041312 0.124055 -0.035575 -108599.000000 0 0 1
35.772941 -8.617822 -18.957932 41.392914 -0.236399 2.046540 0.116053 -0.034620 -537468.000000 0 0 1
36.690531 -9.441322 -18.043932 41.963283 -0.251859 2.015282 0.125121 -0.035541 -790513.000000 0 0 1
35.994451 -10.236322 -17.107532 41.146694 -0.277071 1.999585 0.117693 -0.037149 179118.000000 0 0 1
36.798461 -11.037922 -16.257432 41.716502 -0.291417 1.971115 0.131244 -0.044829 87021.200000 0 0 1
37.966111 -10.359622 -15.435632 42.272995 -0.266380 1.944581 0.144728 -0.045425 266269.000000 0 0 1
-37.472773 -11.127222 -14.534532 41.704633 0.288648 1.926779 0.135747 -0.045900 331130.000000 0 0 1
-36.896693 -12.351622 -14.893732 41.662355 0.323036 1.936372 0.115097 -0.037689 -178943.000000 0 0 1
-35.403359 -12.218322 -15.317832 40.463826 0.332319 1.959032 0.124728 -0.041094 212147.000000 0 0 1
-35.257577 -11.730122 -16.670832 40.726026 0.321179 1.992528 0.144122 -0.037663 -490864.000000 0 0 1
-33.937493 -11.818822 -17.102832 39.798805 0.335117 2.014993 0.171980 -0.040373 -383623.000000 0 0 1
-33.631873 -10.915122 -18.330232 39.827631 0.313822 2.049061 0.208218 -0.043312 22051.200000 0 0 1
-34.034788 -9.602722 -18.040032 39.699141 0.274996 2.042516 0.203271 -0.040380 -83705.400000 0 0 1
-35.030230 -9.151122 -18.903032 40.843417 0.255525 2.051967 0.189733 -0.039329 -45144.700000 0 0 1
-35.699413 -7.821622 -18.335032 40.887642 0.215689 2.035799 0.206807 -0.047400 88263.200000 0 0 1
-36.971473 -7.511822 -18.850132 42.173982 0.200450 2.034162 0.194053 -0.038701 23122.500000 0 0 1
-37.476523 -6.319522 -18.308032 42.185426 0.167055 2.019713 0.176966 -0.039296 -212064.000000 0 0 1
26.045587 27.146878 -26.034442 45.750604 0.806099 2.176148 0.081598 0.000016 111990.000000 0 0 1
26.750587 26.306778 -25.132072 45.158184 0.777034 2.161005 0.099475 -0.018512 328464.000000 0 0 1
27.719287 25.528678 -25.847232 45.696298 0.744282 2.171994 0.101516 -0.017348 6792.100000 0 0 1
28.411787 24.517278 -24.939232 45.058760 0.711951 2.157336 0.101809 -0.032334 -403416.000000 0 0 1
29.164687 25.139378 -23.912732 45.325336 0.711408 2.126545 0.108369 -0.026738 194640.000000 0 0 1
29.351787 24.211578 -22.822032 44.368605 0.689726 2.111073 0.106797 -0.025458 -26502.700000 0 0 1
30.069287 24.888578 -21.684932 44.652431 0.691409 2.077890 0.098704 -0.020620 -100660.000000 0 0 1
29.241787 25.876978 -21.126232 44.396146 0.724427 2.066735 0.111985 -0.024122 -50914.800000 0 0 1
29.859587 26.545478 -20.060732 44.706715 0.726710 2.036127 0.097060 -0.023138 173969.000000 0 0 1
28.926487 27.623278 -19.399732 44.453760 0.762357 2.022393 0.111114 -0.013798 215177.000000 0 0 1
27.995587 27.013078 -18.517632 43.085519 0.767539 2.015054 0.127868 -0.015491 -266288.000000 0 0 1
27.074187 27.992078 -18.127732 42.955590 0.802065 2.006459 0.119553 -0.018918 -49986.300000 0 0 1
26.005487 27.488878 -17.120032 41.533351 0.813121 1.995663 0.106419 -0.014781 -252678.000000 0 0 1
25.075587 26.593978 -17.622132 40.577879 0.814776 2.020034 0.117309 -0.014705 -246098.000000 0 0 1
23.958987 26.592578 -16.748532 39.518497 0.837448 2.008450 0.092389 -0.001709 -7992.980000 0 0 1
22.849787 25.598278 -17.118532 38.346170 0.842068 2.033558 0.110621 -0.010617 -242210.000000 0 0 1
22.040587 25.990278 -18.195332 38.630974 0.867446 2.061225 0.093356 -0.014860 -222062.000000 0 0 1
21.197787 24.907778 -18.591632 37.621701 0.865692 2.087680 0.097293 -0.008831 446471.000000 0 0 1
20.457387 25.308478 -19.894832 38.142209 0.891002 2.119517 0.089361 -0.006653 595435.000000 0 0 1
19.334287 26.149878 -19.692132 38.018559 0.934137 2.115262 0.069569 -0.002113 27703.300000 0 0 1
18.486287 26.302378 -20.834032 38.309461 0.958169 2.145797 0.076991 -0.009605 186928.000000 0 0 1
17.530387 27.486278 -20.595932 38.561670 1.003055 2.134244 0.075897 -0.006890 -471569.000000 0 0 1
16.563787 27.120978 -19.661832 37.369695 1.022519 2.124856 0.088774 -0.000458 -362975.000000 0 0 1
15.549487 28.116078 -19.542032 37.605736 1.065617 2.117244 0.082414 -0.014325 270278.000000 0 0 1
14.888887 28.077978 -18.163932 36.605741 1.083228 2.090018 0.077117 -0.010356 -78231.900000 0 0 1
14.141587 26.900578 -17.943732 35.293103 1.086802 2.104146 0.080896 -0.013199 -117528.000000 0 0 1
13.491087 26.931778 -16.682132 34.432886 1.106400 2.076568 0.095366 -0.019429 323678.000000 0 0 1
12.647687 25.650178 -16.300632 32.918175 1.112697 2.088846 0.101406 -0.019842 473659.000000 0 0 1
13.424287 24.493078 -16.204632 32.291059 1.069425 2.096510 0.094465 -0.016503 -297087.000000 0 0 1
12.571387 23.395678 -15.959132 30.985342 1.077726 2.111867 0.112838 -0.019191 528847.000000 0 0 1
13.296587 21.999078 -16.117632 30.340348 1.027136 2.130845 0.103416 -0.025869 231635.000000 0 0 1
13.741187 21.892378 -17.438132 31.179880 1.010279 2.164308 0.089561 -0.018135 -779555.000000 0 0 1
14.523987 20.764478 -17.691932 30.904922 0.960431 2.180303 0.096383 -0.015437 -437150.000000 0 0 1
13.835087 19.414878 -17.740232 29.716375 0.951662 2.210534 0.094415 -0.027155 -155116.000000 0 0 1
13.492187 18.904978 -16.445032 28.458327 0.950945 2.186905 0.110654 -0.033504 -88988.700000 0 0 1
13.025687 17.551078 -16.456732 27.359329 0.932332 2.216178 0.099304 -0.034503 343742.000000 0 0 1
14.165287 16.476178 -16.608132 27.348672 0.860673 2.223421 0.132880 -0.033975 567847.000000 0 0 1
14.908487 16.295978 -15.385732 26.917330 0.829833 2.179241 0.154641 -0.041326 -173381.000000 0 0 1
15.904887 15.366378 -15.610932 27.070135 0.768179 2.185461 0.154458 -0.037444 -1344470.000000 0 0 1
16.542587 14.824278 -14.311932 26.424379 0.730672 2.143158 0.238207 -0.045030 -702312.000000 0 0 1
17.428187 15.729378 -13.641032 27.152031 0.734208 2.097162 0.201581 -0.036419 1038330.000000 0 0 1
18.690287 16.070478 -14.206632 28.450228 0.710174 2.093645 0.158849 -0.032022 6125.850000 0 0 1
19.604087 14.881978 -14.675632 28.656024 0.649316 2.108460 0.151470 -0.035483 -1082560.000000 0 0 1
20.179187 14.015978 -13.746532 28.153408 0.607076 2.080905 0.200148 -0.043548 394571.000000 0 0 1
21.218287 14.566578 -12.934832 28.804701 0.601615 2.036501 0.187527 -0.040450 -475808.000000 0 0 1
21.969887 13.347178 -12.377832 28.531278 0.545932 2.019540 0.207632 -0.050478 -449312.000000 0 0 1
21.251787 12.694778 -11.330132 27.224396 0.538469 2.000032 0.279885 -0.053489 767235.000000 0 0 1
21.923787 11.540478 -10.719632 26.995288 0.484537 1.979143 0.295252 -0.025478 21295.700000 0 0 1
21.964287 10.288578 -11.650132 26.907440 0.438068 2.018582 0.250619 -0.024764 -689725.000000 0 0 1
23.072987 10.131178 -12.491932 28.125644 0.413746 2.031019 0.219307 -0.020039 88326.000000 0 0 1
23.128387 8.910078 -13.275132 28.116559 0.367722 2.062520 0.191659 -0.026631 -237996.000000 0 0 1
23.355787 7.568478 -12.454632 27.529848 0.313374 2.040256 0.218468 -0.007757 1028690.000000 0 0 1
22.153487 7.271478 -11.639432 26.060080 0.317152 2.033801 0.224841 -0.029303 1908380.000000 0 0 1
22.255287 6.275478 -10.623732 25.446868 0.274841 2.001474 0.229398 -0.020714 -565984.000000 0 0 1
22.383387 4.852778 -11.207432 25.498471 0.213499 2.025876 0.249897 -0.032689 -694281.000000 0 0 1
21.253487 4.321578 -11.821332 24.700823 0.200600 2.069834 0.210211 -0.046181 62074.700000 0 1 0
21.060887 4.784778 -13.156732 25.289418 0.223396 2.117936 0.184214 -0.051182 -334878.000000 0 0 1
20.045287 3.912378 -13.949132 24.732540 0.192754 2.170017 0.171448 -0.050806 161335.000000 0 1 0
20.610587 2.627178 -14.267632 25.204438 0.126784 2.172535 0.185860 -0.064773 536075.000000 0 0 1
20.184387 1.556078 -13.412032 24.284017 0.076941 2.155916 0.204500 -0.066253 7208.190000 0 1 0
20.978187 0.204178 -13.593532 24.998203 0.009733 2.145732 0.203225 -0.064024 -292752.000000 0 1 0
22.303387 0.109578 -13.088632 25.860498 0.004913 2.101482 0.252410 -0.050697 597750.000000 0 0 1
23.265187 0.148578 -14.140732 27.225931 0.006386 2.116927 0.190802 -0.052051 24086.100000 0 0 1
23.571487 -1.000022 -15.106932 28.014897 -0.042400 2.140338 0.158190 -0.032818 -344487.000000 0 0 1
22.446187 -1.382622 -15.897032 27.540127 -0.061519 2.186131 0.153055 -0.036889 338240.000000 0 0 1
22.791187 -2.304422 -16.927532 28.483152 -0.100768 2.207191 0.122220 -0.031809 -662896.000000 0 0 1
21.610587 -2.908522 -17.650132 28.053594 -0.133784 2.251265 0.109496 -0.040174 -581035.000000 0 0 1
20.839087 -3.785822 -16.841632 27.059944 -0.179709 2.242579 0.142594 -0.042909 116978.000000 0 0 1
19.882587 -4.424922 -17.644932 26.948856 -0.218984 2.284656 0.105120 -0.032475 -321020.000000 0 0 1
19.317787 -5.651922 -16.874232 26.265202 -0.284632 2.268495 0.110943 -0.040402 130468.000000 0 0 1
20.327387 -6.614022 -16.549532 27.033960 -0.314571 2.229605 0.116039 -0.035106 670839.000000 0 0 1
19.829187 -7.521922 -15.656932 26.361250 -0.362567 2.206741 0.128650 -0.030411 -357213.000000 0 0 1
20.953287 -8.411822 -15.125232 27.176675 -0.381761 2.161026 0.177542 -0.029428 -195154.000000 0 0 1
21.526087 -9.238222 -16.123432 28.437339 -0.405392 2.173633 0.143457 -0.031724 -267554.000000 0 0 1
22.410487 -10.110622 -15.541332 29.085866 -0.423815 2.134506 0.124535 -0.030642 -994484.000000 0 0 1
23.044887 -11.047022 -16.593632 30.470513 -0.447008 2.146685 0.103636 -0.022774 -429641.000000 0 0 1
24.038887 -10.466822 -17.399832 31.467072 -0.410657 2.156701 0.089216 -0.012961 -120796.000000 0 0 1
24.393787 -11.223222 -18.554332 32.638640 -0.431209 2.175450 0.080453 -0.001640 -125599.000000 0 0 1
23.416287 -11.120622 -19.772632 32.602879 -0.443375 2.222408 0.084404 0.001403 48647.900000 0 0 1
22.132887 -11.649722 -19.623832 31.791123 -0.484507 2.236069 0.098781 -0.014951 -351542.000000 0 0 1
21.960987 -13.056922 -19.564332 32.179672 -0.536403 2.224300 0.081935 -0.005505 -110099.000000 0 0 1
20.476887 -13.522622 -19.595332 31.402886 -0.583641 2.244645 0.079347 -0.009303 430499.000000 0 0 1
19.842587 -13.197022 -20.809732 31.637551 -0.586907 2.288630 0.077838 0.000516 -236531.000000 0 0 1
18.439387 -13.276122 -20.692632 30.731929 -0.624015 2.309496 0.097958 -0.002234 156637.000000 0 0 1
17.643187 -12.734922 -21.896832 30.869590 -0.625210 2.359348 0.092710 -0.005437 -32513.000000 0 0 1
17.899087 -13.475822 -23.090632 32.173784 -0.645340 2.371268 0.076073 0.003585 620737.000000 0 0 1
17.019787 -12.980922 -24.100932 32.234026 -0.651577 2.415367 0.092064 -0.015206 168983.000000 0 0 1
17.038687 -13.881722 -25.366962 33.563400 -0.683651 2.427660 0.081178 -0.022772 -197344.000000 0 0 1
16.498787 -15.182522 -25.174362 33.711533 -0.743875 2.413971 0.090036 -0.021421 250650.000000 0 0 1
16.249187 -15.758622 -26.412062 34.784584 -0.770073 2.433039 0.107510 -0.021387 131565.000000 0 0 1
17.252887 -16.882922 -26.789202 36.060457 -0.774561 2.408184 0.105675 -0.019973 988519.000000 0 0 1
18.652187 -16.561922 -26.801682 36.613270 -0.726109 2.392080 0.087874 -0.012600 482073.000000 0 0 1
19.399287 -17.706122 -27.048512 37.702269 -0.739799 2.370894 0.097754 -0.011401 -107044.000000 0 0 1
20.921387 -17.523622 -27.206492 38.535373 -0.697247 2.354650 0.072642 -0.003659 99729.500000 0 0 1
21.447187 -17.098122 -25.979822 37.779343 -0.673043 2.329075 0.071433 -0.005884 -359704.000000 0 0 1
22.861887 -17.020422 -26.047422 38.611253 -0.639965 2.311229 0.074722 -0.000849 -48375.600000 0 0 1
23.321787 -16.424322 -24.707632 37.737663 -0.613571 2.284609 0.086525 -0.000822 -239839.000000 0 0 1
23.146687 -15.045822 -24.422732 36.859405 -0.576390 2.295070 0.098147 -0.012386 -485757.000000 0 0 1
21.852687 -14.505622 -24.520632 35.905632 -0.586009 2.322547 0.096267 -0.011236 -166988.000000 0 0 1
21.618787 -13.164322 -23.789932 34.736612 -0.546960 2.325216 0.092365 0.006104 548376.000000 0 0 1
22.309187 -12.015822 -24.353732 35.145186 -0.494052 2.336364 0.096170 -0.011767 522195.000000 0 0 1
21.728587 -10.916022 -23.702132 33.957063 -0.465550 2.343401 0.104180 -0.018755 12025.900000 0 0 1
22.212287 -9.584122 -24.256632 34.258215 -0.407345 2.357534 0.098024 -0.020515 -363735.000000 0 0 1
21.597687 -8.503522 -23.663032 33.146781 -0.375084 2.365829 0.106129 -0.020769 -130796.000000 0 0 1
21.639687 -7.346122 -24.493732 33.499022 -0.327267 2.390843 0.080511 -0.023151 -494058.000000 0 0 1
21.034887 -6.125922 -23.871332 32.401141 -0.283389 2.399038 0.082777 -0.029674 1071100.000000 0 0 1
19.611987 -6.301822 -23.598532 31.324651 -0.310904 2.423943 0.099539 -0.032636 1450450.000000 0 0 1
18.993887 -5.244822 -22.869732 30.187755 -0.269418 2.430399 0.094115 -0.032088 106658.000000 0 0 1
19.435587 -5.184622 -21.357732 29.338969 -0.260689 2.386145 0.082637 -0.029467 -261343.000000 0 0 1
19.024487 -6.217122 -20.450932 28.615107 -0.315855 2.366977 0.090047 -0.037908 246404.000000 0 0 1
19.641387 -7.438522 -20.723632 29.505671 -0.362025 2.349505 0.088119 -0.028084 -286353.000000 0 0 1
19.315087 -8.533022 -19.627232 28.829036 -0.415997 2.319671 0.096609 -0.027232 347307.000000 0 0 1
18.035887 -9.127122 -19.803032 28.297662 -0.468479 2.345930 0.115438 -0.030932 223933.000000 0 0 1
17.968887 -10.141022 -18.846832 27.945023 -0.513806 2.310982 0.132370 -0.028334 -487941.000000 0 0 1
16.564087 -10.496022 -18.351932 26.857567 -0.564803 2.323077 0.151879 -0.034657 -392865.000000 0 0 1
16.046887 -9.402422 -17.549232 25.571149 -0.530013 2.327173 0.165722 -0.030147 793132.000000 0 0 1
14.629387 -9.327022 -17.736532 24.811225 -0.567576 2.367219 0.138860 -0.047458 516041.000000 0 1 0
14.015787 -7.906222 -17.579632 23.832627 -0.513600 2.400348 0.167561 -0.027164 -202949.000000 0 1 0
12.612787 -8.015622 -17.658932 23.133752 -0.566125 2.439265 0.146849 -0.045573 -373337.000000 0 1 0
12.108387 -6.812722 -17.176732 22.092224 -0.512500 2.461479 0.146188 -0.045481 692765.000000 0 1 0
10.571387 -6.581822 -17.413032 21.407669 -0.556877 2.520772 0.135443 -0.041577 738269.000000 0 1 0
10.231287 -6.230422 -18.715332 22.220735 -0.546980 2.572233 0.120133 -0.052971 60151.100000 0 1 0
8.811587 -6.210522 -18.676532 21.564497 -0.613949 2.618099 0.109602 -0.060436 479926.000000 0 1 0
8.134887 -5.629622 -19.974132 22.289796 -0.605360 2.681725 0.111078 -0.071979 103666.000000 0 1 0
8.289387 -6.501722 -21.070332 23.557276 -0.665121 2.677951 0.111027 -0.059010 468945.000000 0 1 0
7.473887 -6.151722 -22.220332 24.237282 -0.688666 2.730746 0.116248 -0.057240 289113.000000 0 1 0
7.542387 -7.184322 -23.404532 25.617850 -0.761089 2.722854 0.108044 -0.048441 -192691.000000 0 0 1
7.099187 -8.488822 -23.090632 25.605387 -0.874311 2.694685 0.118589 -0.046749 98226.200000 0 0 1
6.849387 -9.153222 -24.318832 26.871941 -0.928382 2.702152 0.100700 -0.031823 164045.000000 0 0 1
5.948787 -10.441122 -24.263132 27.075906 -1.052920 2.681734 0.100531 -0.030143 397234.000000 0 0 1
6.569487 -11.521922 -23.552832 27.030515 -1.052597 2.628728 0.089466 -0.037081 -72482.700000 0 0 1
5.857187 -12.689922 -23.744232 27.552302 -1.138369 2.609580 0.120100 -0.048577 -575864.000000 0 0 1
6.451287 -13.871522 -22.905232 27.544290 -1.135478 2.552740 0.126421 -0.037139 322649.000000 0 0 1
7.623587 -14.631222 -23.235532 28.497047 -1.090451 2.524158 0.096148 -0.027267 549848.000000 0 0 1
8.865087 -13.948122 -23.158832 28.451211 -1.004628 2.521774 0.105821 -0.029505 348407.000000 0 0 1
9.336687 -13.382122 -21.769232 27.205779 -0.961617 2.498374 0.110948 -0.024425 -578998.000000 0 0 1
9.834587 -14.290122 -20.767332 27.059357 -0.968028 2.445687 0.101852 -0.018838 196237.000000 0 0 1
8.833887 -15.145222 -20.239732 26.778015 -1.042763 2.427723 0.107349 -0.019079 59548.600000 0 0 1
9.052687 -15.724322 -18.831232 26.149967 -1.048427 2.374778 0.114099 -0.011618 302022.000000 0 0 1
10.006687 -16.792722 -18.822532 27.137005 -1.033401 2.337287 0.114365 -0.011454 -80710.200000 0 0 1
10.477587 -17.160822 -17.528832 26.674587 -1.022654 2.287809 0.117899 -0.012892 -583029.000000 0 0 1
9.573787 -17.940122 -16.546332 26.216150 -1.080591 2.253832 0.088036 -0.021456 -1000120.000000 0 0 1
9.410887 -19.302522 -16.944132 27.354264 -1.117161 2.238817 0.103681 -0.027711 126919.000000 0 0 1
8.587087 -19.700022 -18.038532 28.057398 -1.159736 2.269095 0.111878 -0.016892 594567.000000 0 0 1
7.060487 -19.381222 -17.846332 27.275884 -1.221444 2.284039 0.124138 -0.016818 118164.000000 0 0 1
6.759887 -18.018022 -17.795632 26.211252 -1.211873 2.317102 0.129045 -0.021478 -996859.000000 0 0 1
5.369987 -17.982922 -17.685232 25.787394 -1.280610 2.326511 0.120308 -0.016892 -395432.000000 0 0 1
4.757787 -16.564322 -17.624732 24.650446 -1.291095 2.367401 0.094422 -0.001521 -134319.000000 0 1 0
4.970387 -15.902522 -16.396432 23.376012 -1.267863 2.348186 0.052830 -0.008223 48640.800000 0 1 0
4.281687 -14.675722 -16.238032 22.302093 -1.286923 2.386334 0.031889 0.004492 123341.000000 0 1 0
11.147187 29.085478 -18.099932 36.025440 1.204807 2.097193 0.091765 -0.031844 -852723.000000 0 0 1
10.198687 28.512178 -18.913032 35.702385 1.227282 2.129092 0.123588 -0.040520 -1463170.000000 0 0 1
9.047987 28.268578 -18.206832 34.820501 1.261028 2.121019 0.105025 -0.036260 -669660.000000 0 0 1
7.846187 27.792678 -19.057132 34.600143 1.295646 2.154097 0.118298 -0.033961 133798.000000 0 0 1
7.107287 28.862578 -19.644032 35.629341 1.329354 2.154771 0.114813 -0.037985 -41432.700000 0 0 1
6.518187 28.413178 -20.876632 35.855672 1.345291 2.192278 0.105351 -0.038534 519342.000000 0 0 1
5.453487 29.462678 -21.390832 36.815182 1.387770 2.190794 0.086577 -0.037555 542127.000000 0 0 1
4.209687 29.354178 -20.702932 36.166291 1.428357 2.180272 0.094098 -0.033774 79686.100000 0 0 1
3.408787 30.384678 -21.274432 37.248489 1.459076 2.178701 0.108252 -0.057631 -901931.000000 0 0 1
1.983787 30.457378 -20.721932 36.891541 1.505755 2.167234 0.124652 -0.056338 -200019.000000 0 0 1
1.103887 29.366878 -20.870632 36.044630 1.533224 2.188325 0.133759 -0.061812 285101.000000 0 0 1
0.740887 29.049178 -22.258632 36.603967 1.545297 2.224453 0.181561 -0.080079 -473866.000000 0 0 1
-0.002613 27.682578 -22.407632 35.614984 -1.570702 2.251272 0.160376 -0.070010 939696.000000 0 0 1
-1.349013 27.671278 -21.913932 35.323362 -1.522084 2.240024 0.181229 -0.061231 584772.000000 0 0 1
-1.817313 26.356578 -21.923832 34.331127 -1.501954 2.263473 0.183005 -0.064312 907804.000000 0 0 1
-2.978313 25.990378 -20.885532 33.474999 -1.456701 2.244538 0.162448 -0.057712 249241.000000 0 0 1
-4.154513 26.705578 -21.005332 34.229693 -1.416466 2.231482 0.159761 -0.053753 -975373.000000 0 0 1
-5.044313 26.233878 -20.053432 33.403617 -1.380832 2.214719 0.156961 -0.049975 -672355.000000 0 0 1
-6.343113 27.051978 -20.023532 34.248890 -1.340478 2.195242 0.161838 -0.063716 22432.400000 0 0 1
-7.381613 26.313078 -19.376432 33.500932 -1.297296 2.187544 0.148803 -0.045053 81294.800000 0 0 1
-8.232913 27.209278 -18.665832 34.007925 -1.276977 2.151805 0.144111 -0.058686 -577001.000000 0 0 1
-9.470513 26.528278 -18.150632 33.509485 -1.227902 2.143203 0.186447 -0.048455 -632879.000000 0 0 1
-9.196413 25.634078 -17.127232 32.171759 -1.226341 2.132192 0.180386 -0.059974 351470.000000 0 0 1
-10.452513 25.145578 -16.649932 31.918261 -1.176846 2.119572 0.159276 -0.048185 640651.000000 0 0 1
-10.335713 24.313578 -15.319432 30.539516 -1.168841 2.096274 0.144035 -0.035586 27419.400000 0 0 1
-9.803413 23.022578 -15.396332 29.380147 -1.168234 2.122382 0.158897 -0.035181 -347225.000000 0 0 1
-9.785313 22.416978 -14.115132 28.240223 -1.159214 2.094192 0.149439 -0.028035 79577.500000 0 0 1
-9.195213 20.977478 -14.002432 26.845384 -1.157683 2.119516 0.126055 -0.010635 548357.000000 0 0 1
-10.042213 19.899878 -14.497332 26.589920 -1.103446 2.147447 0.121226 -0.007257 140370.000000 0 0 1
-10.493213 19.898578 -15.845432 27.516153 -1.085521 2.184451 0.141327 -0.001695 552778.000000 0 0 1
-9.400013 19.783978 -16.969732 27.708083 -1.127240 2.229949 0.149903 -0.013837 744524.000000 0 0 1
-8.636313 18.570378 -16.968132 26.596285 -1.135491 2.262680 0.130812 -0.010528 146569.000000 0 0 1
-7.646213 18.537378 -17.970332 26.926415 -1.179582 2.301491 0.124408 -0.016824 483355.000000 0 0 1
-6.911813 17.160978 -18.105432 25.885884 -1.187910 2.345400 0.091004 -0.013264 424557.000000 0 0 1
-7.809813 16.197278 -18.654332 25.910019 -1.121516 2.374550 0.093868 -0.022960 242877.000000 0 0 1
-7.360013 15.459578 -19.797032 26.174240 -1.126466 2.428520 0.077923 -0.025716 381847.000000 0 0 1
-6.168913 14.452978 -19.731532 25.224540 -1.167380 2.469043 0.050051 -0.016662 234731.000000 0 0 1
-6.496613 13.337978 -18.916632 24.040520 -1.117541 2.476508 0.041166 -0.015570 463263.000000 0 1 0
-5.379513 12.661278 -18.324732 22.913815 -1.169028 2.497632 0.042458 -0.011926 762460.000000 0 1 0
-4.675313 13.393078 -17.122832 22.235658 -1.234938 2.449734 0.024944 0.003790 156376.000000 0 1 0
-3.952513 14.571678 -17.410332 23.045083 -1.305923 2.427198 0.032331 -0.006547 -317311.000000 0 1 0
-3.619013 15.245878 -16.219032 22.551964 -1.337733 2.373425 0.032465 0.000526 101495.000000 0 1 0
-2.727813 16.504778 -16.284632 23.346047 -1.407003 2.342745 0.062371 -0.006624 116977.000000 0 1 0
-3.401413 17.673878 -16.731932 24.574237 -1.380667 2.319750 0.058785 -0.011100 -426179.000000 0 1 0
-2.605013 18.798278 -16.651432 25.247407 -1.433096 2.290990 0.077159 -0.021874 -160229.000000 0 0 1
-3.116013 19.994978 -17.520532 26.767102 -1.416200 2.284390 0.085546 -0.018866 334846.000000 0 0 1
-3.010213 19.820778 -18.917932 27.564702 -1.420076 2.327200 0.095010 -0.011725 -283756.000000 0 0 1
-3.503713 20.990278 -19.581632 28.918992 -1.405400 2.314638 0.123866 -0.018132 -10138.000000 0 0 1
-2.615213 22.262378 -19.653932 29.811573 -1.453860 2.290646 0.104277 -0.032429 -590372.000000 0 0 1
-1.534413 22.009178 -20.538032 30.142480 -1.501192 2.320422 0.138337 -0.028758 407988.000000 0 0 1
-0.375713 22.763678 -20.143732 30.398950 -1.554293 2.295142 0.135677 -0.038151 707565.000000 0 0 1
0.523487 22.164878 -19.044932 29.227817 1.547183 2.280492 0.126964 -0.036934 -374444.000000 0 0 1
0.004887 22.254678 -17.728032 28.452660 1.570577 2.243459 0.116635 -0.036129 -169964.000000 0 0 1
1.019887 21.792278 -16.889132 27.589606 1.524030 2.229580 0.124031 -0.038977 67202.900000 0 0 1
0.534887 21.873978 -15.392132 26.752098 1.546348 2.183843 0.116549 -0.041608 63313.400000 0 0 1
-0.483713 20.984578 -15.013532 25.806833 -1.547750 2.191694 0.094000 -0.028403 -221173.000000 0 0 1
-0.690213 21.078778 -13.660032 25.127430 -1.538064 2.145553 0.117531 -0.024457 -21531.500000 0 0 1
-1.596813 19.947478 -13.170632 23.956570 -1.490916 2.152887 0.076312 -0.018694 -275366.000000 0 1 0
-1.011713 18.671678 -13.312632 22.953895 -1.516665 2.189492 0.063526 -0.016303 361095.000000 0 1 0
-1.911613 17.640178 -12.874532 21.922220 -1.462851 2.198493 0.050982 -0.013767 284041.000000 0 1 0
-1.385013 16.234278 -13.165832 20.947773 -1.485688 2.250429 0.030216 -0.005713 90216.800000 0 1 0
-0.449613 15.708678 -12.163432 19.872438 -1.542182 2.229479 0.026983 -0.011966 897369.000000 0 1 0
-0.132713 14.329778 -12.293532 18.880972 -1.561535 2.279838 0.021145 -0.005296 748071.000000 0 1 0
0.763387 13.965778 -13.555732 19.477772 1.516189 2.340551 0.022663 -0.004549 -157288.000000 0 1 0
-0.081613 13.853578 -14.648932 20.162329 -1.564905 2.384083 0.024132 -0.007058 123880.000000 0 1 0
0.519287 13.024178 -15.622632 20.346142 1.530946 2.446263 0.025191 -0.007037 -554752.000000 0 1 0
-0.310713 12.819078 -16.901132 21.214938 -1.546563 2.492548 0.022179 -0.001223 -163247.000000 0 1 0
-0.291413 14.013378 -17.648632 22.537389 -1.550004 2.470403 0.034282 -0.003163 154810.000000 0 1 0
-0.749713 13.805578 -18.986632 23.487194 -1.516545 2.512195 0.033982 -0.010166 65613.000000 0 1 0
-1.321913 15.063878 -19.657232 24.800699 -1.483267 2.485871 0.037010 -0.006975 1007930.000000 0 1 0
-0.287213 16.086078 -19.818432 25.526744 -1.552943 2.459697 0.061772 -0.015403 981927.000000 0 0 1
-0.906913 17.302078 -20.163032 26.584437 -1.518428 2.431732 0.089466 -0.026667 -210545.000000 0 0 1
0.034087 18.483078 -20.375232 27.509552 1.568952 2.404849 0.112119 -0.030024 54838.500000 0 0 1
0.741087 18.296678 -21.631332 28.341351 1.530315 2.439114 0.148416 -0.042040 530510.000000 0 0 1
1.849287 19.184278 -21.767332 29.073582 1.474697 2.416892 0.149884 -0.037337 294134.000000 0 0 1
2.568787 19.056378 -23.099232 30.055262 1.436805 2.447382 0.157654 -0.053762 -303282.000000 0 0 1
3.426687 17.958178 -23.171232 29.515155 1.382248 2.473593 0.151837 -0.046326 -496976.000000 0 0 1
3.850887 17.804678 -24.513532 30.540942 1.357792 2.502513 0.146788 -0.055697 227290.000000 0 0 1
4.989887 16.781178 -24.696232 30.272278 1.281772 2.524914 0.126679 -0.050814 -783119.000000 0 0 1
6.236287 17.086278 -24.146332 30.230408 1.220832 2.496000 0.117548 -0.037089 -94302.800000 0 0 1
7.136987 15.971578 -24.294432 29.937390 1.150560 2.517525 0.110772 -0.037041 449848.000000 0 0 1
7.838187 15.851478 -25.697002 31.193629 1.111577 2.538861 0.110115 -0.045735 -1561310.000000 0 0 1
8.826087 16.776578 -25.985142 32.164903 1.086491 2.511330 0.106247 -0.038838 -316406.000000 0 0 1
9.141587 16.862978 -27.377512 33.428384 1.074031 2.530445 0.119990 -0.048553 304226.000000 0 0 1
9.727387 15.540178 -28.049942 33.509976 1.011514 2.562688 0.140984 -0.057566 -1407320.000000 0 0 1
10.965287 15.197678 -27.551032 33.320659 0.945779 2.544272 0.135761 -0.052726 -867808.000000 0 0 1
11.257587 13.886378 -27.983692 33.206201 0.889569 2.573121 0.118483 -0.050110 -158724.000000 0 0 1
10.708287 12.811478 -27.056282 31.793770 0.874583 2.588670 0.109976 -0.042120 761125.000000 0 0 1
9.274087 12.736678 -27.058942 31.311628 0.941433 2.614319 0.119218 -0.044281 799692.000000 0 0 1
8.706087 11.747978 -26.121482 29.935644 0.933034 2.631272 0.115681 -0.040865 2322430.000000 0 0 1
7.103587 11.837678 -26.200782 29.615411 1.030316 2.656648 0.105477 -0.047733 1369130.000000 0 0 1
6.511987 12.891878 -25.553732 29.353019 1.103059 2.627147 0.131143 -0.044830 816814.000000 0 0 1
5.073187 12.689278 -25.540102 28.966391 1.190461 2.650281 0.132298 -0.053572 995142.000000 0 0 1
4.327987 13.604878 -26.453112 30.059796 1.262799 2.646693 0.154086 -0.047697 -864529.000000 0 0 1
4.535487 13.260778 -27.814872 31.146204 1.241246 2.674858 0.157789 -0.062702 209848.000000 0 0 1
3.777887 14.024478 -28.708402 32.173448 1.307664 2.673213 0.153015 -0.077167 -160745.000000 0 0 1
4.017087 13.438278 -30.106022 33.212902 1.280323 2.705610 0.194365 -0.072681 -926292.000000 0 0 1
5.201087 13.793978 -30.705502 34.061019 1.210225 2.693985 0.172943 -0.066361 -672305.000000 0 0 1
5.357887 13.207178 -31.974422 35.007145 1.185403 2.722279 0.169665 -0.066894 -729908.000000 0 0 1
6.332487 12.005278 -32.151852 34.899408 1.085411 2.742135 0.174860 -0.059057 769238.000000 0 0 1
7.732387 12.350478 -32.103192 35.255341 1.011421 2.715508 0.187660 -0.056552 1069800.000000 0 0 1
8.306587 12.511478 -30.836842 34.299378 0.984700 2.688390 0.173202 -0.057557 -518942.000000 0 0 1
8.552487 11.244578 -29.964612 33.127988 0.920553 2.701027 0.156010 -0.051245 -840088.000000 0 0 1
9.634387 10.438278 -30.303342 33.467471 0.825426 2.703251 0.118450 -0.047900 -547663.000000 0 0 1
9.689487 9.111478 -29.755072 32.592477 0.754664 2.721235 0.108083 -0.043829 34427.600000 0 0 1
10.928387 8.228878 -30.062942 33.029148 0.645407 2.714549 0.078357 -0.028979 -371662.000000 0 0 1
12.020687 8.386078 -29.231122 32.699874 0.609138 2.676816 0.076069 -0.027307 -608700.000000 0 0 1
12.825587 7.229578 -29.243282 32.740373 0.513288 2.675180 0.043228 -0.015318 -518779.000000 0 0 1
14.043887 7.296678 -28.304012 32.428219 0.479175 2.631748 0.045009 0.001134 405825.000000 0 0 1
14.885787 6.153678 -28.172252 32.451968 0.391998 2.622202 0.033599 -0.003285 692181.000000 0 0 1
15.686987 5.725478 -29.280772 33.707956 0.349960 2.623289 0.037404 -0.003752 -896341.000000 0 0 1
16.540787 4.526178 -28.969762 33.664983 0.267099 2.607108 0.051456 -0.010499 -439382.000000 0 0 1
17.470487 4.762278 -27.950802 33.303822 0.266124 2.566730 0.028764 -0.004130 237564.000000 0 0 1
18.199487 3.612578 -27.496302 33.171052 0.195952 2.547979 0.042994 -0.012031 207898.000000 0 0 1
18.833787 3.894678 -26.125592 32.441126 0.203918 2.507017 0.047250 -0.003649 316518.000000 0 0 1
19.966687 4.764978 -26.089822 33.197175 0.234265 2.474955 0.075131 -0.011350 509949.000000 0 0 1
20.344287 5.042678 -24.741932 32.426561 0.242970 2.438760 0.085633 -0.017745 590153.000000 0 0 1
21.487387 6.144078 -24.728232 33.330811 0.278507 2.406701 0.087404 -0.017122 339207.000000 0 0 1
21.026287 7.431378 -25.145392 33.609833 0.339730 2.416075 0.088479 -0.012143 -229962.000000 0 0 1
21.865687 8.213578 -25.945962 34.910802 0.359330 2.408648 0.086756 -0.028796 -976118.000000 0 0 1
21.772787 7.832878 -27.422502 35.880383 0.345339 2.440714 0.149176 -0.038412 -90098.700000 0 0 1
20.730987 8.340078 -28.241842 36.012948 0.382488 2.472224 0.112176 -0.022279 422056.000000 0 0 1
19.573787 7.511678 -28.107542 35.065544 0.366430 2.500715 0.108522 -0.016759 -107157.000000 0 0 1
18.317187 7.945278 -28.894362 35.121659 0.409268 2.536929 0.080258 -0.007998 -403709.000000 0 0 1
18.416787 8.005978 -30.325272 36.371636 0.410067 2.556682 0.074280 -0.007762 58657.300000 0 0 1
17.378487 8.823878 -30.799632 36.448457 0.469826 2.577397 0.049660 -0.002097 -361660.000000 0 0 1
16.961087 8.506278 -32.253502 37.420899 0.464861 2.609824 0.029870 -0.000056 16218.900000 0 0 1
16.109187 7.380378 -32.413242 36.940414 0.429608 2.641309 0.036149 -0.001652 417128.000000 0 0 1
14.798387 7.762878 -32.791982 36.804465 0.483115 2.670292 0.039320 -0.009698 -214436.000000 0 0 1
13.906787 6.584478 -33.114042 36.514297 0.442201 2.706613 0.048862 -0.019264 -332330.000000 0 0 1
13.703287 5.723978 -32.042242 35.316417 0.395678 2.707591 0.046316 -0.012751 200781.000000 0 0 1
12.900587 4.619178 -32.444952 35.219837 0.343837 2.741982 0.041933 -0.021301 112471.000000 0 0 1
12.740787 3.486878 -31.402362 34.067497 0.267137 2.743415 0.059079 -0.020343 346182.000000 0 0 1
13.936987 2.757278 -31.077822 34.171234 0.195317 2.712812 0.062262 -0.024771 559323.000000 0 0 1
13.791487 1.714678 -30.124482 33.175739 0.123694 2.709347 0.079336 -0.020471 158998.000000 0 0 1
13.050687 0.347678 -30.500762 33.177369 0.026634 2.737156 0.092251 -0.024774 170586.000000 0 0 1
13.745787 -0.485522 -31.382762 34.264561 -0.035307 2.728530 0.096075 -0.028272 194700.000000 0 0 1
14.770487 -1.220722 -30.704132 34.094005 -0.082459 2.691882 0.111126 -0.029543 343922.000000 0 0 1
15.101087 -2.571522 -31.412402 34.948456 -0.168669 2.687868 0.116067 -0.030676 -185211.000000 0 0 1
14.135487 -3.583922 -31.261622 34.495587 -0.248308 2.705123 0.114442 -0.028356 -144290.000000 0 0 1
14.392687 -4.768822 -31.982482 35.394495 -0.319952 2.698898 0.145823 -0.027302 -402695.000000 0 0 1
13.509887 -5.995822 -31.733152 35.006569 -0.417694 2.705695 0.132334 -0.025971 -317726.000000 0 0 1
13.676087 -6.573122 -30.409572 33.985047 -0.448031 2.678763 0.149707 -0.016286 -22818.400000 0 0 1
13.117187 -7.798322 -30.250562 33.881720 -0.536374 2.674383 0.168428 -0.026269 -207969.000000 0 0 1
13.673987 -8.469422 -28.949142 33.117395 -0.554549 2.634453 0.133222 -0.021792 -1099780.000000 0 0 1
14.997887 -8.832022 -28.956122 33.784586 -0.532206 2.600373 0.138710 -0.022062 -882450.000000 0 0 1
15.327287 -9.411722 -27.657102 32.991235 -0.550686 2.564985 0.139332 -0.031866 -44923.400000 0 0 1
14.997587 -10.914122 -27.440272 33.121205 -0.629092 2.547185 0.122084 -0.024126 305106.000000 0 0 1
13.638987 -11.331622 -27.557942 32.769922 -0.693257 2.569837 0.102393 -0.028075 432073.000000 0 0 1
13.563887 -12.452122 -28.381882 33.831430 -0.742690 2.566093 0.090656 -0.028967 135637.000000 0 0 1
-9.779413 -3.221822 -17.808032 20.570442 0.318251 2.617363 0.023615 -0.008049 -78330.800000 0 1 0
-10.609713 -2.793222 -18.852632 21.812608 0.257429 2.614553 0.045352 -0.019191 -79878.800000 0 1 0
-11.651413 -3.692422 -19.200832 22.760962 0.306895 2.574723 0.061389 -0.025290 73860.500000 0 1 0
-12.621713 -3.087222 -20.239632 24.051638 0.239886 2.570864 0.091826 -0.045488 -291577.000000 0 1 0
-13.532113 -2.137822 -19.697232 23.993110 0.156686 2.533876 0.108175 -0.043236 259922.000000 0 1 0
-14.512213 -1.944022 -20.754632 25.399573 0.133165 2.527203 0.109953 -0.033123 280174.000000 0 0 1
-15.443413 -0.809422 -20.317432 25.533355 0.052364 2.490994 0.126369 -0.028719 23257.400000 0 0 1
-14.831913 0.466978 -20.506732 25.312641 -0.031474 2.515184 0.127095 -0.034007 30040.600000 0 0 1
-15.631813 1.452078 -19.914932 25.358759 -0.092627 2.474021 0.129070 -0.034976 -233508.000000 0 0 1
-15.480413 2.806878 -20.540232 25.873208 -0.179369 2.487960 0.170551 -0.040215 -174672.000000 0 0 1
-14.226813 3.400578 -20.346432 25.058800 -0.234624 2.518277 0.171606 -0.039587 -205416.000000 0 0 1
-14.147013 4.652778 -21.049732 25.785220 -0.317744 2.525857 0.188550 -0.044941 134255.000000 0 0 1
-12.789213 5.400678 -20.990932 25.166457 -0.399568 2.557266 0.164683 -0.034914 -13639.700000 0 0 1
-12.662813 5.953378 -19.661732 24.132411 -0.439481 2.523084 0.160800 -0.042018 -110580.000000 0 1 0
-11.323513 6.182978 -19.339032 23.247566 -0.499790 2.553271 0.113257 -0.024680 -546685.000000 0 1 0
-11.153213 6.689178 -17.885032 22.113653 -0.540238 2.512867 0.105034 -0.034781 -187604.000000 0 1 0
-11.630713 8.024578 -17.763132 22.697934 -0.603947 2.469609 0.113103 -0.041534 -439429.000000 0 1 0
-12.895713 8.043378 -17.177132 22.935763 -0.557682 2.417232 0.144680 -0.033992 -402515.000000 0 1 0
-13.523713 9.499478 -17.039032 23.737302 -0.612356 2.371458 0.159030 -0.037200 421616.000000 0 1 0
-12.833213 10.386778 -16.116832 23.072252 -0.680426 2.344148 0.100372 -0.032107 287934.000000 0 1 0
-13.623813 11.553678 -15.976132 23.965237 -0.703361 2.300485 0.118343 -0.038264 -255158.000000 0 1 0
-12.959513 12.884978 -15.524132 23.978539 -0.782514 2.274988 0.115391 -0.026692 -358915.000000 0 1 0
-12.764413 12.929578 -14.146332 23.026570 -0.791826 2.232356 0.124816 -0.027517 -59024.600000 0 1 0
-12.416013 14.194578 -13.718832 23.320587 -0.852136 2.199716 0.099812 -0.026689 -937888.000000 0 1 0
-12.910113 14.493478 -12.254732 22.954529 -0.843113 2.133967 0.078005 -0.029975 631122.000000 0 1 0
-14.260713 14.902878 -12.108832 23.918351 -0.807414 2.101635 0.073629 -0.029723 88055.200000 0 1 0
-15.262713 13.992378 -12.459532 24.165616 -0.742003 2.112492 0.076217 -0.028529 -1226550.000000 0 1 0
-16.517113 14.265478 -11.631632 24.730826 -0.712382 2.060460 0.036879 -0.019744 16554.700000 0 1 0
-17.640913 13.439478 -11.917032 25.176120 -0.651033 2.063882 0.039619 -0.020752 537777.000000 0 0 1
-18.793013 13.744778 -11.153832 25.816743 -0.631475 2.017548 0.135660 -0.028197 -105928.000000 0 0 1
-20.055813 13.003878 -11.578332 26.559259 -0.575239 2.021883 0.112136 -0.036603 -502651.000000 0 0 1
-20.199413 11.666778 -11.178932 25.866939 -0.523771 2.017695 0.125237 -0.040937 -206878.000000 0 0 1
-21.333113 11.129878 -11.787332 26.793975 -0.480871 2.026311 0.168672 -0.037748 -493099.000000 0 0 1
-21.761013 9.825578 -11.131132 26.343610 -0.424119 2.007038 0.154186 -0.036057 -287216.000000 0 0 1
-21.072113 8.768178 -11.777832 25.683306 -0.394311 2.047192 0.123418 -0.040249 684366.000000 0 0 1
-21.275913 7.560778 -11.001932 25.117172 -0.341449 2.024196 0.101875 -0.032748 -585044.000000 0 0 1
-20.217413 6.557178 -11.477632 24.155256 -0.313629 2.065943 0.110306 -0.030122 -253532.000000 0 1 0
-20.496013 5.842778 -12.660532 24.789387 -0.277703 2.106823 0.134817 -0.033903 -164110.000000 0 1 0
-19.552013 4.880278 -12.933832 23.945403 -0.244607 2.141398 0.151490 -0.034976 -617601.000000 0 1 0
-20.184613 3.788578 -13.824632 24.756663 -0.185538 2.163277 0.193068 -0.053245 -80213.200000 0 1 0
-21.074713 2.996878 -13.073432 24.980781 -0.141255 2.121562 0.196583 -0.056844 461594.000000 0 1 0
-21.863513 2.203378 -13.974332 26.041314 -0.100440 2.137225 0.193058 -0.057377 -152605.000000 0 0 1
-22.878113 1.257878 -13.333632 26.509924 -0.054926 2.097825 0.262219 -0.056964 51946.700000 0 0 1
-23.837513 0.814678 -14.310432 27.815089 -0.034163 2.111203 0.170769 -0.043502 412309.000000 0 0 1
-24.252113 -0.472322 -14.050932 28.032424 0.019473 2.095826 0.165127 -0.053123 -350804.000000 0 0 1
-25.548083 -0.884422 -14.782132 29.529615 0.034604 2.095073 0.129781 -0.032799 71126.400000 0 0 1
-26.717843 -0.352322 -14.188332 30.253529 0.013186 2.058933 0.154745 -0.044477 -946061.000000 0 0 1
-27.860103 -0.859222 -14.738532 31.530112 0.030831 2.057193 0.130680 -0.019460 107877.000000 0 0 1
-29.133123 -0.188822 -14.037432 32.339202 0.006481 2.019800 0.133950 -0.022705 708798.000000 0 0 1
-29.242323 -0.551022 -12.667032 31.872728 0.018841 1.979506 0.151574 -0.023445 206191.000000 0 0 1
-30.508503 -0.278022 -12.098132 32.820891 0.009113 1.948310 0.181387 -0.028766 135014.000000 0 0 1
-30.719823 -1.009422 -10.736732 32.557701 0.032847 1.906862 0.190100 -0.044414 -233018.000000 0 0 1
-30.925033 -2.460022 -10.726432 32.824773 0.079381 1.903689 0.218544 -0.036169 1042550.000000 0 0 1
-30.031223 -3.282122 -11.563432 32.347483 0.108858 1.936360 0.206177 -0.038939 465896.000000 0 0 1
-30.164753 -4.752322 -11.102132 32.492372 0.156261 1.919505 0.221209 -0.040724 -532536.000000 0 0 1
-31.260433 -5.459222 -11.579432 33.780187 0.172893 1.920679 0.209630 -0.040143 -415013.000000 0 0 1
-31.375753 -6.845622 -11.167632 34.000242 0.214815 1.905466 0.210269 -0.036763 131882.000000 0 0 1
-30.393003 -7.850222 -11.852632 33.553621 0.252766 1.931833 0.209387 -0.045206 2308500.000000 0 0 1
-28.982073 -7.679322 -11.465532 32.099704 0.259016 1.936049 0.161763 -0.041933 2079040.000000 0 0 1
-28.097903 -8.672822 -11.960332 31.745229 0.299387 1.957092 0.148655 -0.045064 197109.000000 0 0 1
-26.715483 -8.691622 -11.279832 30.273684 0.314540 1.952600 0.151635 -0.051836 73871.900000 0 0 1
-25.814623 -7.663822 -11.718332 29.367469 0.288591 1.981249 0.133815 -0.041950 1321580.000000 0 0 1
-24.494213 -7.717122 -11.140932 27.993585 0.305214 1.980112 0.138652 -0.047995 838842.000000 0 0 1
-24.294313 -7.398922 -9.609832 27.153390 0.295629 1.932544 0.135385 -0.046994 -612337.000000 0 0 1
-24.530513 -6.049222 -9.152232 26.871965 0.241776 1.918337 0.139474 -0.044016 833966.000000 0 0 1
-25.883763 -5.658522 -8.935332 27.961191 0.215227 1.896063 0.152326 -0.049526 95058.100000 0 0 1
-26.129973 -4.383222 -8.108632 27.708086 0.166200 1.867788 0.159758 -0.060558 -155229.000000 0 0 1
-25.747923 -4.518422 -6.737632 26.995692 0.173718 1.823045 0.158888 -0.055974 451293.000000 0 0 1
-26.195063 -3.358922 -6.099432 27.104737 0.127531 1.797772 0.221537 -0.063230 -175981.000000 0 0 1
-25.689193 -3.175922 -4.667232 26.302171 0.123005 1.749188 0.201167 -0.052921 -559171.000000 0 0 1
-24.335513 -2.885422 -4.521232 24.919558 0.118017 1.753240 0.132527 -0.051040 -400661.000000 0 1 0
-23.926213 -2.330122 -3.291432 24.263690 0.097082 1.706868 0.086904 -0.040653 822956.000000 0 1 0
-22.524613 -2.856522 -2.808232 22.878026 0.126144 1.693855 0.068883 -0.030187 588342.000000 0 1 0
-22.661313 -4.212022 -2.470132 23.181410 0.183771 1.677556 0.097266 -0.021230 705192.000000 0 1 0
-21.401913 -4.844022 -2.303032 22.063780 0.222586 1.675367 0.077281 -0.018724 167505.000000 0 1 0
-21.630813 -6.334822 -2.572332 22.685655 0.284894 1.684431 0.100531 -0.015613 204560.000000 0 1 0
-22.215713 -6.982622 -1.435832 23.331449 0.304533 1.632376 0.110335 -0.010702 550949.000000 0 1 0
-22.601713 -8.308022 -1.730732 24.142413 0.352253 1.642546 0.100432 -0.010267 114687.000000 0 1 0
-22.950313 -9.119122 -0.481432 24.700345 0.378213 1.590288 0.113364 -0.016864 -680986.000000 0 1 0
-21.758413 -9.519322 0.084368 23.749803 0.412411 1.567244 0.079089 -0.009753 -382332.000000 0 1 0
-21.898713 -10.217022 1.305868 24.200133 0.436538 1.516809 0.055524 -0.010646 154531.000000 0 1 0
-20.534313 -10.862922 1.681468 23.291381 0.486588 1.498541 0.064171 -0.006799 242738.000000 0 1 0
-20.017813 -11.850822 0.818168 23.277118 0.534527 1.535640 0.067162 -0.005579 -380055.000000 0 1 0
-18.890113 -12.429622 1.372368 22.654255 0.581976 1.510180 0.045423 -0.018231 -822879.000000 0 1 0
-18.492413 -13.586022 0.491368 22.951923 0.633625 1.549386 0.062689 -0.014826 79862.800000 0 1 0
-19.353413 -14.704322 0.778168 24.318249 0.649731 1.538792 0.089227 -0.011505 641952.000000 0 1 0
-18.962213 -15.921422 0.125668 24.760311 0.698448 1.565721 0.094601 -0.023145 -54186.100000 0 1 0
-17.876913 -16.746922 0.876168 24.511448 0.752774 1.535043 0.098364 -0.015465 -314514.000000 0 1 0
-16.626113 -16.097422 0.823768 23.156710 0.769243 1.535215 0.107038 -0.013136 -114134.000000 0 1 0
-15.662313 -16.765322 1.636968 23.001386 0.819400 1.499568 0.112721 -0.014187 298142.000000 0 1 0
-15.739513 -16.434722 3.138768 22.971378 0.807002 1.433729 0.135020 -0.027676 -266993.000000 0 1 0
-15.106713 -15.200522 3.525868 21.718665 0.788493 1.407732 0.084105 -0.018992 152195.000000 0 1 0
-14.369213 -15.232322 4.727468 21.467344 0.814547 1.348760 0.068370 -0.016346 -17806.000000 0 1 0
-15.118013 -15.506922 6.073868 22.492461 0.798097 1.297362 0.111591 -0.018151 -857540.000000 0 1 0
-15.965513 -14.497922 6.503168 22.525065 0.737260 1.277919 0.101539 -0.017719 -59495.700000 0 1 0
-16.385513 -14.605322 7.904868 23.329968 0.728019 1.225124 0.120003 -0.020040 161895.000000 0 1 0
-17.266513 -15.774722 8.457468 24.869722 0.740279 1.223804 0.101071 -0.009131 -230422.000000 0 1 0
-16.703713 -17.053522 8.290468 25.269913 0.795760 1.236530 0.109190 -0.011861 -337667.000000 0 0 1
-17.373213 -18.053022 8.975968 26.614059 0.804585 1.226787 0.125909 -0.028330 -273964.000000 0 0 1
-16.914913 -18.404122 10.437568 27.088167 0.827538 1.175244 0.135214 -0.021813 -484127.000000 0 0 1
-15.592413 -18.850922 10.528068 26.633077 0.879722 1.164401 0.094454 -0.019549 -345625.000000 0 0 1
-15.313713 -19.439422 11.734168 27.387801 0.903560 1.128025 0.104729 -0.028062 -457157.000000 0 0 1
-13.992113 -20.190022 11.826768 27.263321 0.964770 1.122093 0.097815 -0.021637 268200.000000 0 0 1
-12.832913 -19.357622 11.695568 26.003605 0.985379 1.104292 0.094518 -0.021501 456872.000000 0 0 1
-11.644313 -20.130922 11.571968 25.976037 1.046389 1.109079 0.102805 -0.023029 197584.000000 0 0 1
-10.365913 -19.392222 11.934068 25.018641 1.079900 1.073550 0.104054 -0.024502 -621194.000000 0 0 1
-9.634713 -18.697122 10.991868 23.732493 1.094980 1.089242 0.088673 -0.025157 -1081610.000000 0 1 0
-8.634913 -18.079722 11.704368 23.204101 1.125227 1.042098 0.075904 -0.020097 -299269.000000 0 1 0
-7.525413 -17.422922 10.811168 21.841964 1.163074 1.052993 0.054214 -0.016088 979907.000000 0 1 0
-6.585513 -18.369422 10.214468 22.025894 1.226566 1.088575 0.052175 -0.017049 116400.000000 0 1 0
-5.826913 -17.609622 9.334468 20.764970 1.251243 1.104558 0.044018 -0.005502 -762587.000000 0 1 0
-4.738013 -18.371322 8.592568 20.827541 1.318394 1.145536 0.044325 -0.011844 -27541.100000 0 1 0
-3.542213 -18.436222 9.350768 20.973278 1.380976 1.108682 0.050154 -0.015653 -425586.000000 0 1 0
-2.501213 -18.922622 8.565368 20.920975 1.439377 1.148983 0.058834 -0.016618 227828.000000 0 1 0
-1.132613 -19.154922 9.259868 21.305844 1.511736 1.121184 0.063007 -0.021066 926966.000000 0 1 0
-0.075813 -19.651622 8.429568 21.383396 1.566938 1.165587 0.067382 -0.018347 382157.000000 0 1 0
1.097287 -19.881322 9.185868 21.928319 -1.515660 1.138558 0.084397 -0.028371 445104.000000 0 1 0
2.338687 -20.371222 8.368768 22.147063 -1.456493 1.183299 0.083572 -0.042650 433509.000000 0 1 0
2.334387 -21.668022 7.898768 23.180662 -1.463476 1.223084 0.106599 -0.038284 -95512.000000 0 1 0
2.913687 -22.567322 8.860868 24.419021 -1.442396 1.199453 0.126429 -0.046063 60269.000000 0 1 0
2.673187 -24.067422 8.514068 25.668582 -1.460179 1.232700 0.144142 -0.049152 45137.900000 0 0 1
2.749187 -24.948122 9.623568 26.880846 -1.461043 1.204662 0.145683 -0.057210 17878.800000 0 0 1
2.429487 -26.289652 9.229668 27.968464 -1.478646 1.234490 0.154232 -0.055152 -810980.000000 0 0 1
2.113087 -27.270602 10.382968 29.256741 -1.493465 1.207998 0.178543 -0.067053 1114400.000000 0 0 1
0.871687 -27.025562 11.084368 29.223348 -1.538553 1.181758 0.189024 -0.071184 1138440.000000 0 0 1
-0.313413 -27.318782 10.327968 29.207550 1.559324 1.209373 0.174995 -0.061743 9324.470000 0 0 1
-1.545513 -27.452882 11.232868 29.702301 1.514559 1.182965 0.166513 -0.062414 194461.000000 0 0 1
-1.250913 -28.513222 12.171968 31.027817 1.526953 1.167674 0.188806 -0.072907 21599.100000 0 0 1
-1.775513 -28.145192 13.455668 31.246748 1.507796 1.125610 0.152378 -0.067740 138814.000000 0 0 1
-1.397813 -29.211282 14.516468 32.649360 1.522981 1.110049 0.138243 -0.058854 217444.000000 0 0 1
-1.533413 -28.717232 15.829468 32.826861 1.517450 1.067620 0.137399 -0.057623 -199694.000000 0 0 1
-1.233513 -29.748562 16.704168 34.139826 1.529355 1.059524 0.152282 -0.059239 3438.810000 0 0 1
-1.613913 -29.406842 18.185268 34.613163 1.515969 1.017628 0.145039 -0.053865 -571203.000000 0 0 1
-2.984013 -29.314282 18.421368 34.750227 1.469352 1.012069 0.139144 -0.051087 -690859.000000 0 0 1
-3.176213 -29.225632 19.823768 35.457124 1.462542 0.977507 0.134544 -0.049277 282779.000000 0 0 1
-4.660213 -29.242892 20.267968 35.883908 1.412763 0.970581 0.137767 -0.046545 201184.000000 0 0 1
-5.422813 -28.087212 19.924768 34.861078 1.380073 0.962406 0.112614 -0.042859 182882.000000 0 0 1
-6.585813 -27.919882 20.708968 35.380137 1.339148 0.945512 0.113492 -0.047593 130810.000000 0 0 1
-6.349613 -26.928712 21.863368 35.263011 1.339233 0.902043 0.167607 -0.059194 -325538.000000 0 0 1
-5.261313 -27.393652 22.630868 35.920047 1.381044 0.889199 0.196665 -0.059667 10249.900000 0 0 1
-4.987713 -26.541682 23.703068 35.932904 1.385043 0.850446 0.218335 -0.065914 53358.900000 0 0 1
-3.957613 -27.036992 24.739668 36.860722 1.425451 0.835016 0.259238 -0.060088 250805.000000 0 0 1
-4.495713 -28.182782 25.444168 38.234622 1.412609 0.842667 0.238064 -0.055875 426779.000000 0 0 1
-4.011513 -29.444852 24.972368 38.816371 1.435392 0.871935 0.229007 -0.049222 101578.000000 0 0 1
-4.238313 -30.569522 25.997168 40.352344 1.433030 0.870749 0.214431 -0.036695 -78245.500000 0 0 1
-3.518513 -30.330712 27.171068 40.872961 1.455308 0.843612 0.214570 -0.055686 898.197000 0 0 1
-3.826213 -31.323922 28.100768 42.254954 1.449249 0.843264 0.194192 -0.060177 -326941.000000 0 0 1
-3.032913 -31.072742 29.357968 42.855619 1.473498 0.816133 0.220668 -0.056055 264751.000000 0 0 1
-1.651013 -31.387762 29.237168 42.927024 1.518244 0.821546 0.215427 -0.055253 521960.000000 0 0 1
-0.871613 -30.942782 30.330668 43.337799 1.542635 0.795586 0.214581 -0.065313 -99238.200000 0 0 1
-29.680233 2.887278 -9.322832 31.243684 -0.096974 1.873803 0.203105 -0.035679 -337671.000000 0 0 1
-30.494113 2.522378 -10.377032 32.310000 -0.082529 1.897762 0.178577 -0.034040 -173751.000000 0 0 1
-31.044763 3.673478 -10.974732 33.131805 -0.117781 1.908419 0.166244 -0.033216 142646.000000 0 0 1
-31.788123 3.439178 -12.331732 34.269291 -0.107771 1.938901 0.172778 -0.034023 1398140.000000 0 0 1
-33.037933 2.696778 -12.144132 35.302374 -0.081446 1.921973 0.183216 -0.035075 1481700.000000 0 0 1
-33.718293 2.601778 -13.402732 36.377545 -0.077010 1.948121 0.182908 -0.025890 -575580.000000 0 0 1
-34.988427 1.790578 -13.253532 37.457340 -0.051132 1.932459 0.168570 -0.028462 -830583.000000 0 0 1
-34.896254 0.375578 -13.344132 37.362488 -0.010762 1.936015 0.176752 -0.021949 -360329.000000 0 0 1
-35.997033 -0.260322 -12.785832 38.201200 0.007232 1.912080 0.175732 -0.027859 -326118.000000 0 0 1
-35.610905 -1.689022 -12.346232 37.728223 0.047394 1.904179 0.182231 -0.032422 116725.000000 0 0 1
-35.697772 -2.585122 -13.421932 38.225149 0.072291 1.929572 0.181622 -0.029596 103679.000000 0 0 1
-35.340248 -3.798722 -12.900932 37.812663 0.107079 1.918968 0.194050 -0.036680 -95145.300000 0 0 1
-35.465097 -4.926922 -13.928732 38.419491 0.138040 1.941792 0.194302 -0.041189 -237121.000000 0 0 1
-35.207503 -6.142022 -13.328432 38.143673 0.172714 1.927756 0.203508 -0.045447 187661.000000 0 0 1
-35.441049 -7.218922 -14.199332 38.856169 0.200939 1.944894 0.197042 -0.039883 -473751.000000 0 0 1
-35.182453 -8.680322 -13.668032 38.729422 0.241892 1.931477 0.180316 -0.043823 1056590.000000 0 0 1
-33.792733 -9.007722 -13.434132 37.464167 0.260501 1.937549 0.178212 -0.047103 1371870.000000 0 0 1
-32.963233 -9.271322 -14.540732 37.201681 0.274179 1.972365 0.178497 -0.046500 -382666.000000 0 0 1
-31.805873 -10.183222 -14.113932 36.256236 0.309855 1.970649 0.157817 -0.041948 -250175.000000 0 0 1
-32.233613 -11.512622 -13.899432 36.942394 0.343041 1.956538 0.129469 -0.039104 344976.000000 0 0 1
-31.133293 -12.340722 -13.576732 36.137280 0.377385 1.955947 0.129161 -0.040529 3434.970000 0 0 1
-31.333283 -13.744622 -14.212132 37.049615 0.413383 1.964485 0.123068 -0.032639 -4441.010000 0 0 1
-31.342143 -13.817022 -15.634232 37.651949 0.415214 1.998992 0.135006 -0.043615 74245.200000 0 0 1
-31.669313 -15.002022 -16.336732 38.663870 0.442394 2.007034 0.142393 -0.048246 -476421.000000 0 0 1
-30.791033 -16.190522 -16.032232 38.304741 0.484089 2.002638 0.120573 -0.031803 -50444.100000 0 0 1
-29.425743 -15.909922 -16.297432 37.210298 0.495660 2.024149 0.138272 -0.041977 -198365.000000 0 0 1
-28.648723 -17.102422 -16.247532 37.110975 0.538188 2.023957 0.136769 -0.039390 605391.000000 0 0 1
-27.143713 -16.785822 -16.487532 35.921911 0.553843 2.047646 0.150702 -0.057905 470985.000000 0 0 1
-26.920713 -16.250822 -17.822632 36.144989 0.543103 2.086431 0.147957 -0.049311 879833.000000 0 0 1
-25.489283 -16.216322 -18.025032 35.179176 0.566614 2.108748 0.106004 -0.035031 930811.000000 0 0 1
-25.090303 -15.591122 -19.415532 35.349247 0.556007 2.152261 0.121316 -0.029498 48979.100000 0 0 1
-25.688053 -16.285622 -20.464332 36.659057 0.565028 2.163052 0.122877 -0.040116 -764002.000000 0 0 1
-27.017593 -16.052622 -20.762932 37.666117 0.536110 2.154642 0.135774 -0.045999 -982131.000000 0 0 1
-27.611153 -17.331522 -21.418432 39.006495 0.560539 2.152082 0.156226 -0.048831 -302390.000000 0 0 1
-27.230763 -17.542622 -22.780432 39.600583 0.572302 2.183712 0.147997 -0.028661 111820.000000 0 0 1
-27.811123 -18.674122 -23.377732 40.849722 0.591315 2.180087 0.153131 -0.029153 164947.000000 0 0 1
-27.059893 -18.887422 -24.753632 41.251847 0.609373 2.214374 0.130924 -0.029134 1380070.000000 0 0 1
-25.718213 -19.403722 -24.742832 40.621899 0.646358 2.225723 0.112802 -0.029513 504807.000000 0 0 1
-25.519903 -20.735622 -24.255232 40.860100 0.682333 2.206342 0.105783 -0.027888 -1128630.000000 0 0 1
-24.037513 -21.024422 -24.306032 40.132425 0.718632 2.221373 0.093209 -0.010091 -552745.000000 0 0 1
-23.401913 -20.948122 -25.567002 40.498703 0.730127 2.254030 0.097474 -0.021191 -987191.000000 0 0 1
-22.030713 -21.151022 -25.419842 39.735204 0.765029 2.264945 0.069403 -0.023350 -508075.000000 0 0 1
-21.322013 -21.039422 -26.781322 40.181149 0.778727 2.300320 0.056194 -0.025663 -442865.000000 0 0 1
-21.693913 -22.098222 -27.662212 41.522949 0.794630 2.299886 0.091577 -0.017993 93302.300000 0 0 1
-22.363113 -21.603322 -28.820332 42.396036 0.768119 2.318270 0.113521 -0.020647 156180.000000 0 0 1
-21.501613 -21.765622 -30.097682 42.917737 0.791500 2.347999 0.101964 -0.029250 207756.000000 0 0 1
-21.163313 -23.099722 -30.506092 43.727619 0.829118 2.342893 0.099339 -0.031633 -18891.000000 0 0 1
-20.474713 -23.044722 -31.721292 44.232494 0.844384 2.370499 0.101297 -0.028866 -122867.000000 0 0 1
-19.746813 -24.362422 -32.077412 44.860056 0.889659 2.367499 0.120416 -0.028717 -258142.000000 0 0 1
-19.218213 -24.356322 -33.385662 45.576009 0.902772 2.392823 0.112157 -0.025975 -33460.800000 0 0 1
-20.138813 -24.390322 32.916879 45.650635 0.880587 0.765464 0.113292 -0.021114 -138729.000000 0 0 1
-19.474113 -24.248822 31.539736 44.294485 0.894171 0.778388 0.103589 -0.021625 -1461.980000 0 0 1
-18.753413 -23.048922 31.308156 43.164151 0.887796 0.759286 0.094347 -0.022807 121127.000000 0 0 1
-18.089513 -23.009422 30.056493 41.953030 0.904540 0.772122 0.088179 -0.021035 638524.000000 0 0 1
-17.116913 -21.833622 29.697413 40.640276 0.905906 0.751393 0.052287 -0.018154 575245.000000 0 0 1
-17.912013 -20.678322 29.427583 40.179794 0.856960 0.748960 0.053604 -0.018635 149790.000000 0 0 1
-17.194513 -19.476322 29.250683 39.122638 0.847542 0.726255 0.058082 -0.023482 -129915.000000 0 0 1
-16.596813 -18.833622 30.560673 39.548884 0.848447 0.687663 0.067185 -0.030668 276019.000000 0 0 1
-16.104913 -17.551322 30.353373 38.584250 0.828348 0.665387 0.076321 -0.035654 -322371.000000 0 0 1
-15.481713 -17.071122 31.509116 39.037559 0.834185 0.631490 0.081405 -0.037826 4049.430000 0 0 1
-14.914613 -15.640322 31.385362 38.106512 0.809145 0.603028 0.094438 -0.031750 364855.000000 0 0 1
-13.735913 -15.609722 30.568233 36.969657 0.849165 0.597319 0.122648 -0.042422 413140.000000 0 0 1
-13.463613 -14.281722 30.098243 35.932446 0.814876 0.577859 0.098758 -0.037495 423747.000000 0 0 1
-11.973113 -14.181422 29.651943 34.981507 0.869632 0.559263 0.120873 -0.045818 577080.000000 0 0 1
-11.508013 -12.835622 29.714693 34.353319 0.839880 0.525700 0.126744 -0.051356 -613414.000000 0 0 1
-10.117213 -12.781122 29.823073 33.987214 0.901214 0.500216 0.128546 -0.045437 -318116.000000 0 0 1
-9.651413 -11.291122 29.776393 33.275708 0.863534 0.462727 0.108559 -0.031138 -278525.000000 0 0 1
-10.128513 -10.532822 30.856163 34.141322 0.804964 0.442281 0.104871 -0.023482 -8227.410000 0 0 1
-9.809113 -9.143522 30.744743 33.541942 0.750294 0.411290 0.069879 -0.010876 182443.000000 0 0 1
-10.651113 -8.290122 31.756714 34.505959 0.661390 0.401885 0.064310 -0.016275 82156.900000 0 0 1
-11.912913 -7.954622 31.230803 34.359228 0.588739 0.430039 0.086066 -0.025511 -108495.000000 0 0 1
-12.900113 -7.452422 32.117851 35.404913 0.523863 0.434316 0.074614 -0.024050 293782.000000 0 0 1
-12.639113 -6.085522 32.790802 35.665353 0.448725 0.404239 0.055641 -0.015323 -395778.000000 0 0 1
-12.495913 -5.049822 31.840110 34.575152 0.384051 0.400424 0.073271 -0.023647 160594.000000 0 0 1
-12.529213 -3.792022 32.469160 35.008669 0.293890 0.383233 0.071495 -0.031913 -315832.000000 0 0 1
-12.222713 -2.614822 31.584231 33.967567 0.210755 0.376832 0.077107 -0.026978 2127680.000000 0 0 1
-10.775713 -2.536622 31.283293 33.184256 0.231193 0.340119 0.078020 -0.023510 2096010.000000 0 0 1
-10.469513 -1.331822 30.694813 32.458527 0.126530 0.331170 0.078741 -0.017435 320532.000000 0 0 1
-8.957413 -0.941822 30.705613 31.999327 0.104760 0.285324 0.084908 -0.020629 570652.000000 0 0 1
-8.520013 -0.799522 32.089139 33.210581 0.093566 0.260612 0.094187 -0.039837 -37161.900000 0 0 1
-7.205613 -0.293922 32.096367 32.896565 0.040768 0.221016 0.121429 -0.040287 -156820.000000 0 0 1
-6.804113 0.338078 33.431033 34.118092 -0.049646 0.201026 0.144591 -0.054454 -650688.000000 0 0 1
-7.459413 1.547878 -33.660672 34.512022 -0.204603 2.919016 0.144096 -0.046037 127089.000000 0 0 1
-6.845913 2.737378 33.198487 34.007341 -0.380382 0.218539 0.164663 -0.048072 373251.000000 0 0 1
-7.709813 4.033378 33.417113 34.531330 -0.481995 0.254723 0.167342 -0.051322 41018.300000 0 0 1
-8.925013 4.011378 32.715577 34.147562 -0.422399 0.290626 0.113314 -0.033122 -246104.000000 0 0 1
-9.584313 5.246778 32.903566 34.670338 -0.500871 0.320618 0.098782 -0.012530 121078.000000 0 0 1
-10.960513 5.285278 32.181975 34.405617 -0.449315 0.361493 0.082235 0.001200 -74980.300000 0 0 1
-11.799313 6.322778 32.579133 35.222169 -0.491922 0.389863 0.079604 0.003574 150658.000000 0 0 1
-12.928313 6.329278 31.704580 34.819268 -0.455267 0.426191 0.051793 0.006928 890000.000000 0 0 1
-13.953613 7.524478 31.887393 35.610769 -0.494552 0.461372 0.075075 -0.007525 607162.000000 0 0 1
-14.629013 7.611878 33.142991 37.019002 -0.479777 0.461700 0.068675 -0.012758 244624.000000 0 0 1
-15.358413 8.843778 33.125122 37.568164 -0.522455 0.491271 0.080015 -0.003724 232609.000000 0 0 1
-16.022513 9.229378 -32.923642 37.760675 -0.522605 2.629871 0.062871 0.003126 275652.000000 0 0 1
-15.045813 9.421178 -31.916332 36.521054 -0.559437 2.633998 0.063649 -0.003904 495294.000000 0 0 1
-15.701313 9.776978 -30.648302 35.797192 -0.556933 2.598598 0.064626 -0.007349 -100586.000000 0 0 1
-14.716613 10.094978 -29.503492 34.481058 -0.601239 2.597589 0.076116 -0.017913 -1244.120000 0 0 1
-13.907013 11.222078 -29.634102 34.605203 -0.678956 2.598952 0.106442 -0.020321 -746379.000000 0 0 1
-12.715913 11.101678 -30.316222 34.698920 -0.717727 2.633540 0.098886 -0.031210 -984484.000000 0 0 1
-12.032213 12.461478 -30.528532 35.100625 -0.802922 2.625478 0.103206 -0.028045 84854.100000 0 0 1
-12.843713 13.262778 -31.381702 36.409799 -0.801449 2.609806 0.100269 -0.024866 392620.000000 0 0 1
-12.182713 14.450778 -31.771882 36.968852 -0.870352 2.604936 0.089250 -0.029935 11160.800000 0 0 1
-12.412813 15.627978 -30.816862 36.714992 -0.899560 2.566889 0.103848 -0.032953 1290020.000000 0 0 1
-13.782813 16.115478 -30.884532 37.463701 -0.863260 2.539912 0.108447 -0.026930 1389820.000000 0 0 1
-14.013513 17.276578 -30.108082 37.434681 -0.889307 2.505264 0.095978 -0.020824 -417493.000000 0 0 1
-15.490513 17.648578 -30.024132 38.116621 -0.850428 2.477849 0.083976 -0.030405 -551846.000000 0 0 1
-15.994613 18.357078 -31.173102 39.554674 -0.854063 2.478515 0.093098 -0.030680 -49018.900000 0 0 1
-17.339913 18.752878 -31.078182 40.226812 -0.824526 2.453681 0.083310 -0.029869 -0.547390 0 0 1
-17.555513 20.019978 -30.171352 40.240602 -0.850891 2.418517 0.045862 -0.022963 -786057.000000 0 0 1
-16.926113 21.161778 -30.676202 40.930961 -0.896151 2.418046 0.051518 -0.018474 -3236.870000 0 0 1
-17.355413 22.416578 -30.141462 41.378993 -0.911972 2.386816 0.032580 -0.013744 -61988.200000 0 0 1
-18.759813 22.871578 -30.605062 42.564181 -0.883845 2.373207 0.033759 -0.010931 -188587.000000 0 0 1
-19.812413 22.267778 -29.896302 42.215809 -0.843682 2.357710 0.034839 -0.021396 35468.300000 0 0 1
-20.870213 22.018978 -30.826042 43.250966 -0.812176 2.364172 0.065132 -0.024476 -811188.000000 0 0 1
-22.168613 21.456478 -30.227242 43.191597 -0.769076 2.345971 0.076463 -0.034234 -41816.000000 0 0 1
-23.026013 22.419178 -29.565632 43.668563 -0.772046 2.314538 0.128359 -0.033478 449032.000000 0 0 1
-23.698213 23.289078 -30.436632 45.059683 -0.776691 2.312403 0.132065 -0.029041 -1000560.000000 0 0 1
-25.051123 22.813878 -31.004882 45.927492 -0.738691 2.311874 0.144041 -0.041738 -359494.000000 0 0 1
-24.935743 21.739778 -31.911542 45.964723 -0.717033 2.338190 0.128490 -0.041014 87449.500000 0 0 1
-26.199613 21.574078 -32.512782 46.999379 -0.688877 2.334734 0.140294 -0.037995 -86054.700000 0 0 1
-26.180283 20.709978 33.623633 47.379944 -0.669261 0.781781 0.120890 -0.023471 -115772.000000 0 0 1
-25.864433 19.345678 -33.569852 46.584967 -0.642197 2.375486 0.115690 -0.024579 46529.600000 0 0 1
-25.591813 18.820078 32.540254 45.475316 -0.634088 0.773373 0.099694 -0.032014 -229977.000000 0 0 1
-25.606333 17.287078 32.345917 44.730143 -0.593825 0.762466 0.075679 -0.005420 588653.000000 0 0 1
-26.803003 16.613778 32.788323 45.491677 -0.554886 0.765906 0.073966 -0.003945 813112.000000 0 0 1
-26.816263 15.269078 32.355525 44.711706 -0.517613 0.761723 0.071099 -0.009091 -431924.000000 0 0 1
-27.658753 14.215878 33.085264 45.406304 -0.474764 0.754449 0.050414 -0.002662 -1180270.000000 0 0 1
-29.031773 14.436578 32.922260 46.207508 -0.461460 0.777760 0.057921 0.002308 -210353.000000 0 0 1
-29.684483 13.177878 32.558024 45.987497 -0.417796 0.784169 0.058851 0.012237 173066.000000 0 0 1
-29.694953 11.997678 33.557703 46.388079 -0.383976 0.762064 0.063602 0.007955 43859.600000 0 0 1
-28.438893 11.345578 -33.609902 45.465573 -0.379597 2.402735 0.053884 -0.003163 335014.000000 0 0 1
-28.748733 9.981578 -33.312912 45.120635 -0.334179 2.401354 0.076554 -0.000625 -479149.000000 0 0 1
-27.585273 8.955778 -33.247362 44.119614 -0.313922 2.424277 0.066951 -0.011335 295877.000000 0 0 1
-26.903083 8.707178 32.875244 43.363262 -0.313010 0.710347 0.057612 -0.010074 576539.000000 0 0 1
-26.096903 9.764578 32.371878 42.712221 -0.358039 0.710698 0.053951 -0.007237 -513523.000000 0 0 1
-24.840713 9.236078 31.626358 41.262485 -0.355973 0.697473 0.051747 -0.010968 99321.400000 0 0 1
-25.061693 8.906678 30.264343 40.290790 -0.341469 0.720997 0.053515 -0.013729 115213.000000 0 0 1
-23.801713 8.672578 29.685623 39.025265 -0.349417 0.706441 0.072316 -0.018128 144474.000000 0 0 1
-23.783813 8.797478 28.156153 37.892404 -0.354286 0.733172 0.102981 -0.024865 -76521.900000 0 0 1
-24.210913 10.075278 27.722613 38.160487 -0.394348 0.757619 0.067053 -0.015869 277080.000000 0 0 1
-24.276913 10.062378 26.342693 37.209641 -0.392929 0.784200 0.072233 -0.018731 -580931.000000 0 0 1
-24.575713 11.478978 25.804743 37.438180 -0.436972 0.810325 0.064535 -0.019969 1706760.000000 0 0 1
-25.917853 11.969978 26.094213 38.677169 -0.432659 0.830283 0.061669 -0.011774 1700120.000000 0 0 1
-26.999183 11.528478 25.292523 38.750140 -0.403558 0.859643 0.072123 -0.013018 -930599.000000 0 0 1
-28.302213 12.204878 25.521033 40.016214 -0.407139 0.879200 0.070006 -0.011851 -1169830.000000 0 0 1
-28.283343 13.540478 25.047273 40.133003 -0.446499 0.896809 0.078024 -0.012138 514562.000000 0 0 1
-29.508683 14.244578 25.258763 41.372400 -0.449732 0.914077 0.069213 -0.017314 452530.000000 0 0 1
-29.397943 15.636578 24.547033 41.367843 -0.488836 0.935539 0.081691 -0.020744 -66852.900000 0 0 1
-28.630153 16.606578 25.215723 41.608854 -0.525612 0.919751 0.084360 -0.025892 123660.000000 0 0 1
-28.604403 17.761778 24.402363 41.583265 -0.555678 0.943656 0.070872 -0.027089 -40571.300000 0 0 1
-24.024913 -8.966622 31.104463 40.312335 0.357211 0.689465 0.084679 -0.034686 105305.000000 0 0 1
-22.896613 -8.614822 30.326553 38.963699 0.359865 0.678797 0.091676 -0.032166 -203875.000000 0 0 1
-23.130613 -8.827422 28.913433 38.064882 0.364574 0.708125 0.083669 -0.028394 313799.000000 0 0 1
-21.907013 -8.493222 28.023203 36.569823 0.369853 0.697745 0.126755 -0.034725 -630948.000000 0 0 1
-21.653513 -7.119622 27.765913 35.923663 0.317663 0.687375 0.132786 -0.036833 -56192.000000 0 0 1
-20.349413 -6.674722 28.045703 35.287561 0.316948 0.652158 0.127091 -0.045499 724310.000000 0 0 1
-19.070513 -7.281122 27.328493 34.110786 0.364719 0.641551 0.122970 -0.035740 142592.000000 0 0 1
-18.644813 -8.607222 27.626083 34.422576 0.432493 0.639227 0.120741 -0.029630 173586.000000 0 0 1
-18.124513 -8.819522 28.951833 35.277338 0.452876 0.608175 0.110665 -0.033032 -624967.000000 0 0 1
-16.680013 -8.379222 29.215803 34.669833 0.465527 0.568543 0.102865 -0.029774 -851206.000000 0 0 1
-15.714513 -9.203222 28.668353 33.963505 0.529802 0.565925 0.088903 -0.026659 -330460.000000 0 0 1
-14.418013 -8.783622 29.104433 33.646680 0.547165 0.525643 0.096207 -0.038499 1401320.000000 0 0 1
-13.262913 -9.805722 28.690263 33.093628 0.636640 0.521762 0.096695 -0.030971 684088.000000 0 0 1
-12.753413 -9.443822 27.381123 31.647452 0.637389 0.525263 0.103876 -0.030325 740975.000000 0 0 1
-11.730013 -10.472322 27.117763 31.347022 0.728812 0.525481 0.125199 -0.035856 515433.000000 0 0 1
-11.258313 -10.390222 25.701983 29.921535 0.745320 0.537523 0.109387 -0.032071 -538739.000000 0 0 1
-12.183113 -10.792122 24.751953 29.623594 0.724929 0.581666 0.090123 -0.033334 -434347.000000 0 0 1
-11.759113 -10.444722 23.441613 28.229030 0.726271 0.590957 0.097767 -0.034222 29533.600000 0 0 1
-12.854413 -10.853222 22.456333 28.059138 0.701187 0.642965 0.118183 -0.045691 -1091800.000000 0 0 1
-12.901213 -12.266922 22.339323 28.565084 0.760201 0.672848 0.103707 -0.041794 511230.000000 0 0 1
-14.063413 -12.720222 21.634333 28.768524 0.735290 0.719684 0.108092 -0.039592 1003460.000000 0 0 1
-15.406713 -12.488722 22.409873 29.925530 0.681173 0.724464 0.104732 -0.039338 -623054.000000 0 0 1
-16.542313 -13.194822 21.962433 30.497539 0.673301 0.766795 0.074106 -0.027771 -1126340.000000 0 0 1
-17.627013 -12.697122 22.610353 31.355327 0.624235 0.765406 0.064903 -0.017191 -1530260.000000 0 0 1
-18.882413 -13.503022 22.305913 32.193646 0.620796 0.805339 0.084323 -0.022641 -706465.000000 0 0 1
-18.851913 -14.833522 22.823403 33.110960 0.666668 0.810273 0.078702 -0.027655 529109.000000 0 0 1
-20.093213 -15.528522 22.639463 34.020839 0.657949 0.842688 0.076927 -0.019979 843334.000000 0 0 1
-21.048713 -15.465222 23.867503 35.381903 0.633660 0.830417 0.075348 -0.019858 -96270.000000 0 0 1
-20.515613 -16.163722 24.917233 36.097434 0.667303 0.808924 0.068158 -0.019627 -290089.000000 0 0 1
-21.419013 -16.144822 25.977523 37.339805 0.645904 0.801394 0.061923 -0.022701 -378295.000000 0 0 1
-20.983513 -16.929022 27.256383 38.338101 0.678860 0.779952 0.059573 -0.021621 -216011.000000 0 0 1
-21.016913 -18.328522 27.059333 38.856825 0.717176 0.800448 0.060363 -0.013441 -8728.720000 0 0 1
-20.637913 -19.118122 28.125463 39.780242 0.747189 0.785520 0.056140 -0.021556 -437497.000000 0 0 1
-20.746313 -20.636822 27.833033 40.385215 0.782752 0.810428 0.060319 -0.011666 -288609.000000 0 0 1
-22.048313 -21.101222 27.580513 41.134831 0.763453 0.835927 0.064782 -0.012126 -509515.000000 0 0 1
-22.041013 -22.456722 27.108103 41.532636 0.794740 0.859661 0.077897 -0.006997 783218.000000 0 0 1
-23.444113 -23.065022 26.755413 42.396625 0.777247 0.887859 0.083621 -0.001241 389515.000000 0 0 1
-24.277313 -23.441422 27.797633 43.721809 0.767883 0.881772 0.075790 -0.002153 -410301.000000 0 0 1
-25.459093 -23.966722 27.219153 44.310850 0.755213 0.909326 0.056554 0.001027 33309.900000 0 0 1
-26.243213 -24.885422 28.186963 45.852975 0.758848 0.908759 0.038879 -0.002435 -175258.000000 0 0 1
-26.804823 -24.210422 29.279243 46.496420 0.734587 0.889617 0.030563 0.005180 44823.200000 0 0 1
-27.377143 -25.138162 30.196683 47.888149 0.742789 0.888513 0.017923 0.008891 304626.000000 0 0 1
-28.558673 -24.559822 31.035563 48.805623 0.710258 0.881620 0.038256 0.002620 -180766.000000 0 0 1
-29.647683 -24.218922 30.235043 48.782160 0.684956 0.902312 0.044872 -0.002296 -639629.000000 0 0 1
-30.624403 -23.617622 31.048913 49.595172 0.656933 0.894323 0.063000 -0.020027 -290344.000000 0 0 1
-31.868643 -23.209922 30.205863 49.665934 0.629468 0.917030 0.076089 -0.025783 -371879.000000 0 0 1
-32.528173 -24.395822 29.823253 50.424841 0.643495 0.937953 0.065674 -0.031077 631314.000000 0 0 1
-33.666983 -24.051322 28.991143 50.521463 0.620318 0.959612 0.065278 -0.031569 1066860.000000 0 0 1
-35.036426 -24.456722 29.596553 51.977287 0.609407 0.965004 0.065936 -0.028900 -30110.900000 0 0 1
-35.329002 -25.850402 29.545833 52.814183 0.631689 0.977098 0.075937 -0.031364 429288.000000 0 0 1
-36.539783 -26.160912 30.240863 54.166953 0.621355 0.978473 0.071188 -0.025382 410225.000000 0 0 1
-36.621543 -27.707662 30.542173 55.151394 0.647708 0.983890 0.073482 -0.036199 -38807.700000 0 0 1
-35.594041 -28.201722 31.370585 55.194080 0.670038 0.966275 0.057746 -0.032038 -83272.400000 0 0 1
-35.615798 -29.574912 31.397621 55.937206 0.692997 0.974839 0.069706 -0.037169 392410.000000 0 0 1
-34.434345 -30.036902 32.304453 55.959961 0.717296 0.955405 0.070129 -0.031011 344016.000000 0 0 1
-34.760112 -29.843952 33.653093 56.845910 0.709448 0.937251 0.065219 -0.031230 -201023.000000 0 0 1
-33.658993 -30.133912 -32.899382 55.886938 0.730196 2.200218 0.053585 -0.030715 67289.200000 0 0 1
-33.910023 -29.789422 -31.402492 54.985597 0.720800 2.178646 0.051410 -0.039872 47798.200000 0 0 1
-33.973730 -28.427342 -31.087832 54.118217 0.696748 2.182720 0.045703 -0.028838 95315.600000 0 0 1
-32.700423 -28.010782 -30.615092 52.831860 0.708306 2.188889 0.053768 -0.026230 -168658.000000 0 0 1
-32.682673 -26.431092 -30.568522 51.973015 0.680035 2.199580 0.045048 -0.023539 6460.630000 0 0 1
-33.563623 -25.826842 -29.622352 51.681973 0.655858 2.181161 0.035176 -0.027557 36076.700000 0 0 1
-33.497103 -24.416022 -29.714112 51.001240 0.629859 2.192739 0.042210 -0.015339 302825.000000 0 0 1
-32.434063 -23.699822 -28.807162 49.431798 0.631039 2.192924 0.061316 -0.020562 329026.000000 0 0 1
-32.298783 -22.258222 -28.966732 48.761782 0.603397 2.206875 0.060955 -0.012733 338358.000000 0 0 1
-31.272983 -21.697122 -28.151472 47.342053 0.606551 2.207614 0.091468 -0.011559 276369.000000 0 0 1
-31.171833 -20.197822 -28.346202 46.724109 0.574933 2.222664 0.107893 -0.019167 9478.030000 0 0 1
-30.620363 -19.872922 -29.623632 47.011693 0.575679 2.252521 0.112650 -0.007687 420502.000000 0 0 1
-30.230833 -18.536422 -29.843662 46.348100 0.550042 2.270384 0.097766 -0.014125 -130674.000000 0 0 1
-29.694873 -18.136622 -31.282262 46.789983 0.548298 2.303077 0.115479 -0.012503 263092.000000 0 0 1
-30.611383 -17.951522 -32.355412 48.022772 0.530384 2.310070 0.104293 -0.017701 504032.000000 0 0 1
-31.554223 -16.885222 -32.098682 48.073955 0.491345 2.301903 0.080365 -0.014147 -413540.000000 0 0 1
-32.256203 -16.299022 -33.344362 49.172831 0.467878 2.315978 0.080542 -0.028976 -1197.740000 0 0 1
-33.262223 -17.162722 33.549053 50.264037 0.476352 0.840009 0.095055 -0.034420 123794.000000 0 0 1
-34.528221 -16.795322 -33.315142 50.834827 0.452727 2.285456 0.088600 -0.031827 -526225.000000 0 0 1
-35.697840 -17.407122 33.308553 51.834384 0.453698 0.872915 0.100905 -0.035432 -699045.000000 0 0 1
-35.780119 -18.790022 33.328373 52.383798 0.483567 0.881189 0.066134 -0.034235 -136220.000000 0 0 1
-36.388453 -19.282922 32.186026 52.267493 0.487295 0.907403 0.071067 -0.027011 -411663.000000 0 0 1
-36.716643 -20.801622 32.383562 53.193181 0.515457 0.916260 0.058967 -0.029494 354500.000000 0 0 1
-35.577297 -21.655422 32.284944 52.697429 0.546782 0.911390 0.076531 -0.040360 432491.000000 0 0 1
-35.906472 -22.966022 32.732777 53.741488 0.569034 0.915898 0.074602 -0.041843 -179239.000000 0 0 1
-34.600280 -23.703622 33.081726 53.417615 0.600636 0.902941 0.061069 -0.036296 -130520.000000 0 0 1
-33.810243 -23.364922 -33.235982 52.855299 0.604701 2.250819 0.037204 -0.035975 -421878.000000 0 0 1
-33.013403 -22.235022 -33.457422 51.996924 0.592729 2.269793 0.050889 -0.037530 -1046390.000000 0 0 1
-31.660643 -22.235122 -32.725612 50.673096 0.612265 2.272891 0.058688 -0.022154 -300895.000000 0 0 1
-30.753323 -23.195522 -33.239452 50.878879 0.646212 2.282739 0.059479 -0.020744 192356.000000 0 0 1
-29.465833 -23.130422 -32.644302 49.688049 0.665522 2.287609 0.067040 -0.016749 361864.000000 0 0 1
-29.114583 -23.701222 -31.268632 48.858308 0.683260 2.265276 0.071764 -0.007774 -605955.000000 0 0 1
-29.079763 -25.047342 -31.120212 49.411229 0.711036 2.252119 0.069996 -0.012786 6427.350000 0 0 1
-28.865503 -25.351412 -29.756682 48.593945 0.720673 2.229831 0.065168 -0.014921 -38469.100000 0 0 1
-28.457493 -26.790282 -29.435062 48.928223 0.755230 2.216295 0.073695 -0.012486 -80249.800000 0 0 1
-29.505303 -27.674572 -29.710932 50.191477 0.753392 2.204275 0.058229 -0.005529 61708.500000 0 0 1
-29.143163 -28.910402 -29.203832 50.378558 0.781389 2.189142 0.072676 -0.015072 -267918.000000 0 0 1
-30.044343 -30.034422 -29.671942 51.818464 0.785233 2.180486 0.071345 -0.005785 -625670.000000 0 0 1
-29.796013 -30.383402 -31.021542 52.662032 0.795158 2.200702 0.079618 -0.025298 258050.000000 0 0 1
-30.248163 -31.667472 -31.309142 53.833471 0.808317 2.191481 0.109077 -0.017544 -126929.000000 0 0 1
-29.677773 -32.067272 -32.706072 54.578085 0.824078 2.213364 0.087212 -0.033528 599154.000000 0 0 1
-28.258363 -32.199252 -32.636712 53.856122 0.850490 2.221816 0.102700 -0.032822 249397.000000 0 0 1
-27.731263 -32.781662 33.563913 54.499510 0.868665 0.907323 0.108307 -0.037156 339058.000000 0 0 1
-26.193493 -32.797802 33.350493 53.610169 0.896888 0.899384 0.121740 -0.032708 347336.000000 0 0 1
-25.870933 -33.482852 32.154639 53.144401 0.912948 0.920977 0.114913 -0.026020 159186.000000 0 0 1
-24.800413 33.048566 32.328414 52.463269 -0.927024 0.906874 0.111474 -0.022410 149206.000000 0 0 1
-24.623413 32.071454 31.120283 51.023158 -0.916021 0.914831 0.108355 -0.025973 457183.000000 0 0 1
-25.793023 31.242489 30.998603 51.012611 -0.880654 0.917679 0.148538 -0.046385 590882.000000 0 0 1
-25.803533 30.438919 29.840573 49.827802 -0.867630 0.928702 0.137472 -0.035117 78432.500000 0 0 1
-27.246513 29.995329 29.478563 50.110657 -0.833382 0.941879 0.142653 -0.029973 132537.000000 0 0 1
-27.819693 29.168519 30.446583 50.514673 -0.809062 0.923881 0.150356 -0.034403 759663.000000 0 0 1
-28.969833 28.434439 29.942353 50.441184 -0.776072 0.935260 0.139310 -0.032926 797191.000000 0 0 1
-29.375373 27.308209 30.874863 50.615294 -0.748946 0.914747 0.122603 -0.052902 -410692.000000 0 0 1
-28.442333 26.256759 30.930543 49.548786 -0.745463 0.896633 0.128781 -0.050473 -484983.000000 0 0 1
-28.863793 24.967519 31.140923 49.257006 -0.713145 0.886390 0.129026 -0.044988 211167.000000 0 0 1
-29.852473 24.195229 30.190603 48.867696 -0.681107 0.904851 0.134465 -0.041357 661458.000000 0 0 1
-29.285043 23.899219 28.911063 47.588191 -0.684475 0.917854 0.114918 -0.034863 -63814.200000 0 0 1
-30.187313 23.286579 27.991463 47.297575 -0.657059 0.937486 0.127209 -0.023852 128534.000000 0 0 1
-29.722433 23.310469 26.517113 46.151471 -0.665077 0.958721 0.125349 -0.036049 -495988.000000 0 0 1
-28.499713 22.640669 26.456093 44.997315 -0.671328 0.942276 0.118684 -0.038669 -186919.000000 0 0 1
-27.885913 22.514319 25.170003 43.795522 -0.679220 0.958539 0.097023 -0.029934 155299.000000 0 0 1
-26.540013 21.757449 25.214573 42.585603 -0.686697 0.937145 0.078451 -0.033345 -346506.000000 0 0 1
-26.657143 20.531649 25.832453 42.420131 -0.656312 0.916039 0.098880 -0.044276 4348.430000 0 0 1
-25.393773 20.143049 26.284773 41.730989 -0.670598 0.889421 0.075884 -0.034826 -546115.000000 0 0 1
-25.469963 18.960849 27.210463 41.816768 -0.639933 0.862281 0.087492 -0.034456 897156.000000 0 0 1
-24.206713 18.369049 27.604633 41.053656 -0.649135 0.833345 0.086265 -0.020895 1328510.000000 0 0 1
-24.539913 17.378949 28.543083 41.460135 -0.616202 0.811451 0.081125 -0.018178 -183539.000000 0 0 1
-23.381613 16.408349 28.764083 40.537713 -0.611908 0.781918 0.088428 -0.025190 62557.600000 0 0 1
-22.243513 17.006949 29.393743 40.595594 -0.652767 0.761122 0.104252 -0.031326 492948.000000 0 0 1
-21.177813 16.070849 29.426423 39.657109 -0.649143 0.734716 0.095825 -0.030479 865907.000000 0 0 1
-19.959213 16.541949 30.312633 39.885611 -0.692050 0.707500 0.090599 -0.036005 685113.000000 0 0 1
-20.285213 16.376449 31.675477 41.024551 -0.679182 0.688641 0.077198 -0.033218 462839.000000 0 0 1
-19.096913 16.535849 32.405498 41.088230 -0.713648 0.662136 0.079071 -0.033552 -536957.000000 0 0 1
-19.356913 16.165949 -33.473282 41.910484 -0.695810 2.495903 0.076927 -0.034347 243720.000000 0 0 1
-20.337013 16.862849 -32.720722 42.054672 -0.692276 2.462355 0.072116 -0.029144 -17601.200000 0 0 1
-21.643213 16.425049 -32.969172 42.722093 -0.649173 2.452326 0.074251 -0.017329 -1056980.000000 0 0 1
-22.756813 17.201749 -32.304332 43.096898 -0.647263 2.418215 0.085954 -0.028626 -397582.000000 0 0 1
-22.751913 16.833149 -30.968622 41.953069 -0.636978 2.401154 0.082962 -0.027657 -20297.200000 0 0 1
-23.397513 17.785649 -30.197192 42.138384 -0.649966 2.369740 0.083142 -0.020603 -712343.000000 0 0 1
-23.553113 17.470449 -28.676712 41.016089 -0.638198 2.345015 0.088245 -0.022937 415898.000000 0 0 1
-24.320213 16.300849 -28.322912 40.735461 -0.590486 2.339618 0.072029 -0.019186 -392208.000000 0 0 1
-25.686033 16.378649 -28.584722 41.774619 -0.567643 2.324385 0.082421 -0.017554 -835148.000000 0 0 1
-26.560333 15.405649 -27.772392 41.401583 -0.525602 2.306090 0.075946 -0.010022 5583.480000 0 0 1
-26.341293 14.023049 -27.984012 40.909835 -0.489199 2.324085 0.049941 -0.003505 430800.000000 0 0 1
-27.176043 13.279849 -27.054222 40.581063 -0.454535 2.300530 0.028197 -0.000626 386464.000000 0 0 1
-26.972043 11.777049 -27.149662 40.041156 -0.411688 2.315894 0.039907 -0.005967 -207043.000000 0 0 1
-25.878243 11.317849 -26.397172 38.659900 -0.412285 2.322391 0.039498 -0.003675 -118976.000000 0 0 1
-25.278283 10.225249 -27.099272 38.443698 -0.384386 2.353090 0.032802 -0.001230 -73254.700000 0 0 1
-24.136613 9.562349 -26.314912 36.966055 -0.377206 2.362949 0.079642 -0.002896 -87313.400000 0 0 1
-24.597513 8.844649 -25.181202 36.295433 -0.345179 2.337527 0.050523 -0.002489 1133370.000000 0 0 1
-23.452013 8.150249 -24.623832 34.967937 -0.334472 2.352068 0.105506 0.000253 882049.000000 0 0 1
-23.875913 7.173449 -23.536632 34.285429 -0.291867 2.327448 0.087819 0.005622 65514.700000 0 0 1
-24.792013 6.213549 -24.001632 35.061809 -0.245569 2.324785 0.089875 -0.017799 157013.000000 0 0 1
-24.995553 5.172249 -23.043132 34.387727 -0.204047 2.305137 0.087177 -0.007051 -177153.000000 0 0 1
37.405521 25.106278 -10.315432 46.215866 0.591129 1.795894 0.046385 -0.012075 -25329.300000 0 0 1
38.089061 24.273678 -9.418532 46.137802 0.567386 1.776381 0.076975 -0.010704 -352255.000000 0 0 1
-37.418813 23.264278 -10.052432 45.193424 -0.556242 1.795104 0.100137 -0.019551 -247792.000000 0 0 1
-36.504883 22.473378 -9.089732 43.821027 -0.551830 1.779742 0.114430 -0.021357 -261651.000000 0 0 1
-37.200123 21.562278 -8.239932 43.779875 -0.525306 1.760138 0.092159 -0.012593 383870.000000 0 0 1
-36.301033 21.112578 -7.232832 42.612437 -0.526778 1.741357 0.127624 -0.011421 207206.000000 0 0 1
-36.910713 20.174378 -6.108032 42.505462 -0.500208 1.714995 0.114202 0.001165 -160430.000000 0 0 1
-37.299893 18.934478 -6.540232 42.338766 -0.469732 1.725891 0.096841 0.007414 152148.000000 0 0 1
-37.787773 18.199578 -5.490632 42.299970 -0.448841 1.700966 0.103570 0.000312 -196510.000000 0 0 1
37.563121 16.929578 -5.841832 41.614008 0.423433 1.711643 0.102271 0.013092 1430270.000000 0 0 1
36.232151 17.245278 -6.346632 40.625707 0.444236 1.727661 0.094656 0.009824 1232020.000000 0 0 1
35.771491 16.202378 -7.155832 39.916444 0.425297 1.751041 0.105905 0.005729 304605.000000 0 0 1
34.540471 16.556578 -8.045232 39.139368 0.446982 1.777826 0.080144 0.001918 382055.000000 0 0 1
34.095621 15.426078 -8.797032 38.442984 0.424878 1.801675 0.090146 -0.001451 136435.000000 0 0 1
33.460921 15.829278 -9.989332 38.340397 0.441871 1.834381 0.058807 0.000004 -378352.000000 0 0 1
33.003631 14.626478 -10.916432 37.713949 0.417166 1.864452 0.052736 0.001697 1264300.000000 0 0 1
31.874891 13.775078 -10.460532 36.265468 0.407920 1.863397 0.053732 -0.000135 1593430.000000 0 0 1
31.925201 13.213878 -9.159732 35.745289 0.392432 1.829937 0.059773 -0.003807 -440978.000000 0 0 1
30.801001 12.167378 -8.923332 34.298288 0.376216 1.833993 0.080361 0.003061 -44028.700000 0 0 1
31.155201 10.959678 -9.534832 34.375487 0.338257 1.851855 0.087199 -0.005661 106507.000000 0 0 1
30.215601 9.919678 -9.505532 33.192434 0.317211 1.861239 0.144040 -0.010263 -584006.000000 0 0 1
30.917701 8.552978 -9.579832 33.478812 0.269887 1.860999 0.143575 -0.007078 143569.000000 0 0 1
31.876661 8.352578 -8.514132 34.034945 0.256267 1.823640 0.132863 -0.014984 587923.000000 0 0 1
32.119711 6.943878 -8.464032 33.934247 0.212911 1.822882 0.147287 -0.018759 -714277.000000 0 0 1
33.330581 6.599378 -7.600732 34.817388 0.195470 1.790871 0.164086 -0.020291 -209283.000000 0 0 1
34.527271 7.053778 -8.212832 36.184787 0.201523 1.799761 0.126253 -0.021478 28499.800000 0 0 1
35.663331 6.582478 -7.540632 37.041373 0.182519 1.775803 0.125536 -0.013853 148919.000000 0 0 1
37.048011 6.840578 -8.202032 38.556737 0.182585 1.785161 0.143998 -0.013733 445137.000000 0 0 1
37.269571 5.997278 -9.335232 38.886177 0.159548 1.813230 0.160351 -0.018871 284946.000000 0 0 1
-37.540853 5.885978 -9.604332 39.194433 -0.155522 1.818361 0.165830 -0.019365 -190067.000000 0 0 1
-37.178393 5.457678 -11.010632 39.156777 -0.145756 1.855834 0.178142 -0.022791 202459.000000 0 0 1
-35.804507 5.357278 -11.393332 37.953540 -0.148524 1.875690 0.190345 -0.034932 810473.000000 0 0 1
-35.370560 6.533278 -12.134832 37.960695 -0.182651 1.896176 0.177981 -0.034147 -1398.870000 0 0 1
-34.604874 7.597478 -11.234332 37.167583 -0.216120 1.877861 0.174906 -0.018357 -466203.000000 0 0 1
-35.303232 8.207978 -10.157532 37.641261 -0.228441 1.844035 0.189691 -0.023708 177767.000000 0 0 1
-36.207383 9.243578 -10.491832 38.813617 -0.249956 1.844515 0.171122 -0.029386 76788.900000 0 0 1
-36.920953 9.926178 -9.295232 39.345738 -0.262639 1.809296 0.138669 -0.020957 225341.000000 0 0 1
-36.049343 10.589378 -8.395532 38.499026 -0.285710 1.790634 0.153256 -0.020039 291951.000000 0 0 1
-36.805173 11.365478 -7.508032 39.244941 -0.299512 1.763295 0.133209 -0.019718 222181.000000 0 0 1
-35.846983 12.305678 -6.750932 38.496896 -0.330679 1.747071 0.164989 -0.023728 494171.000000 0 0 1
-35.145826 13.164778 -7.649032 38.302065 -0.358399 1.771851 0.160572 -0.030104 101892.000000 0 0 1
-34.128033 13.889478 -6.992732 37.503847 -0.386510 1.758348 0.191109 -0.026450 104888.000000 0 0 1
-33.249463 14.818278 -7.846732 37.238144 -0.419247 1.783105 0.150363 -0.022733 248530.000000 0 0 1
-34.115565 15.698678 -8.556332 38.516634 -0.431272 1.794812 0.126189 -0.015742 310301.000000 0 0 1
-33.664313 17.017578 -8.523532 38.672142 -0.468044 1.793026 0.101403 -0.001614 295615.000000 0 0 1
-34.431332 17.858478 -9.601432 39.957845 -0.478471 1.813460 0.067582 -0.007253 595701.000000 0 0 1
-33.944027 17.602478 -10.921132 39.765756 -0.478396 1.849008 0.054467 -0.006661 198544.000000 0 0 1
-34.870870 18.238278 -11.755732 41.070788 -0.481896 1.861087 0.054449 -0.007331 -32583.300000 0 0 1
-34.286086 18.432178 -13.150932 41.088051 -0.493273 1.896597 0.025843 -0.004879 217867.000000 0 0 1
-33.443883 19.605278 -13.221632 40.959392 -0.530221 1.899481 0.032928 -0.016650 469945.000000 0 0 1
-33.130543 19.921978 -14.587032 41.319482 -0.541388 1.931604 0.013091 -0.014064 -745386.000000 0 0 1
-32.204543 21.078178 -14.743732 41.216499 -0.579539 1.936615 0.010599 -0.013986 -627151.000000 0 0 1
-30.880513 20.848078 -14.271332 39.898864 -0.593833 1.936587 0.017163 -0.009474 699433.000000 0 0 1
-30.027383 21.977578 -14.209632 39.831788 -0.631828 1.935573 0.032705 -0.009401 103779.000000 0 0 1
-29.408323 22.448078 -15.555832 40.134145 -0.651974 1.968819 0.019483 -0.012048 -1245320.000000 0 0 1
-30.240213 23.098878 -16.492632 41.473312 -0.652304 1.979771 0.037393 0.000821 -217901.000000 0 0 1
-29.589793 23.581878 -17.651832 41.752222 -0.672884 2.007303 0.043429 0.000055 -370356.000000 0 0 1
-29.069033 25.071278 -17.552832 42.209946 -0.711691 1.999669 0.050952 0.000639 34799.900000 0 0 1
-30.094893 25.983378 -17.200932 43.321018 -0.712212 1.979105 0.067987 -0.008073 232892.000000 0 0 1
-29.628733 27.359478 -17.338832 43.898041 -0.745599 1.976842 0.067357 -0.006294 300736.000000 0 0 1
-30.498063 28.481978 -16.665632 44.934377 -0.751229 1.950762 0.087555 -0.012279 -43386.300000 0 0 1
-30.410293 28.733778 -15.261732 44.534665 -0.757059 1.920579 0.086918 -0.018173 346225.000000 0 0 1
-29.241863 29.446478 -14.881532 44.086751 -0.788885 1.915110 0.081234 -0.017590 63641.800000 0 0 1
-29.254003 30.026478 -13.410132 44.013836 -0.798428 1.880399 0.110839 -0.021143 571533.000000 0 0 1
-30.311003 30.992478 -13.175232 45.308689 -0.796514 1.865847 0.104339 -0.025861 797215.000000 0 0 1
-30.189673 31.704578 -11.994632 45.392376 -0.809869 1.838216 0.106330 -0.036380 -60634.600000 0 0 1
-29.135913 32.823278 -11.839832 45.458230 -0.844841 1.834290 0.091514 -0.037043 69759.100000 0 0 1
-29.454973 -33.533493 -12.617032 46.381894 0.850058 1.846293 0.080245 -0.040043 354798.000000 0 0 1
-28.302073 -32.705293 -12.834432 45.115033 0.857448 1.859263 0.100341 -0.042472 630525.000000 0 0 1
-28.500303 -31.800393 -14.028432 44.948072 0.840071 1.888202 0.087831 -0.032517 47521.000000 0 0 1
-28.420643 -32.606393 -15.193032 45.844717 0.853879 1.908586 0.072256 -0.023504 -241636.000000 0 0 1
-28.554243 -31.850993 -16.367132 45.800803 0.839921 1.936230 0.063672 -0.011183 68770.600000 0 0 1
-27.677433 -32.353693 -17.558532 46.055443 0.863138 1.961942 0.064674 -0.010113 83830.900000 0 0 1
-28.048083 -33.525893 -18.246032 47.366636 0.874128 1.966230 0.065287 0.001301 -120851.000000 0 0 1
-27.796033 32.670578 -17.567032 46.352850 -0.865840 1.959495 0.061363 -0.017922 -419013.000000 0 0 1
-28.001033 31.448078 -18.577232 46.023396 -0.843316 1.986296 0.076274 -0.016279 -130047.000000 0 0 1
-29.317503 31.025578 -18.784832 46.636599 -0.813697 1.985361 0.078602 -0.009265 -171919.000000 0 0 1
-30.040283 31.739078 -19.788432 47.972593 -0.812889 1.995987 0.075238 -0.001762 -639752.000000 0 0 1
-31.501943 31.349878 -19.896732 48.693606 -0.782979 1.991728 0.068310 -0.007970 -658716.000000 0 0 1
-31.676853 30.133278 -20.553832 48.310428 -0.760431 2.010259 0.072826 -0.024799 555252.000000 0 0 1
-33.047083 29.757078 -20.460632 48.951311 -0.733061 2.002016 0.089936 -0.029064 269510.000000 0 0 1
-33.354113 28.469278 -21.148432 48.685242 -0.706549 2.020158 0.083256 -0.030439 -673191.000000 0 0 1
-34.717151 28.195878 -21.268632 49.524164 -0.682112 2.014691 0.093924 -0.030316 -264184.000000 0 0 1
-34.925696 26.863778 -21.734732 49.131104 -0.655657 2.029050 0.094615 -0.034828 -955238.000000 0 0 1
-36.264943 26.238378 -21.434032 49.628785 -0.626337 2.017380 0.096907 -0.024515 -73581.000000 0 0 1
-37.382753 26.795078 -22.143432 51.046822 -0.621897 2.019488 0.101968 -0.023731 379808.000000 0 0 1
38.025341 25.794078 -22.753832 51.273754 0.596040 2.030599 0.098260 -0.029152 101256.000000 0 0 1
37.096371 26.436178 -23.837532 51.412451 0.619156 2.052910 0.101275 -0.040899 -87190.000000 0 0 1
37.717591 26.821578 -25.051232 52.626780 0.618147 2.066916 0.114074 -0.036730 275772.000000 0 0 1
36.728671 27.194878 -26.018502 52.588203 0.637346 2.088354 0.113762 -0.038136 302232.000000 0 0 1
37.378511 27.530878 -27.373662 53.892668 0.634833 2.103575 0.098462 -0.037984 92340.200000 0 0 1
-38.077633 26.429778 -27.851082 54.075152 -0.606757 2.111855 0.085986 -0.027641 228560.000000 0 0 1
-37.347783 26.804978 -29.034442 54.372443 -0.622515 2.134111 0.057928 -0.021493 -1064810.000000 0 0 1
-36.934673 25.691478 -30.033562 54.094704 -0.607762 2.159404 0.052255 -0.018897 516994.000000 0 0 1
-35.907584 24.833178 -29.539792 52.712813 -0.605057 2.165654 0.061086 -0.018902 1668720.000000 0 0 1
-34.615246 25.498678 -29.353692 52.058017 -0.634890 2.169855 0.056422 -0.009841 1121490.000000 0 0 1
-33.560413 24.683678 -28.490752 50.470865 -0.634156 2.170622 0.070552 -0.021516 521115.000000 0 0 1
-33.145763 23.395178 -29.024532 49.883859 -0.614626 2.191788 0.088837 -0.018138 353331.000000 0 0 1
-33.607683 22.304478 -28.251822 49.245625 -0.585927 2.181803 0.058544 -0.006160 85166.700000 0 0 1
-33.110173 20.988378 -28.916112 48.712802 -0.564970 2.206326 0.068393 -0.011059 1103060.000000 0 0 1
-31.693003 20.737378 -28.793482 47.576779 -0.579406 2.220814 0.111594 -0.012024 980930.000000 0 0 1
-31.421283 19.438178 -29.158712 47.067720 -0.554006 2.238909 0.087425 -0.009692 29254.500000 0 0 1
-29.902433 19.115778 -29.090912 45.889537 -0.568796 2.257425 0.106855 -0.009559 130418.000000 0 0 1
-29.321643 19.572178 -30.311572 46.493229 -0.588579 2.280958 0.121007 -0.020415 -117027.000000 0 0 1
-28.087033 19.032578 -30.718972 45.768720 -0.595553 2.306594 0.113863 -0.021530 -54257.400000 0 0 1
-28.175373 17.550878 -31.298462 45.623226 -0.557099 2.326802 0.092683 -0.018493 -214385.000000 0 0 1
-28.469783 16.505878 -30.358732 44.773041 -0.525410 2.315914 0.063652 -0.005594 104930.000000 0 0 1
-28.746273 15.362678 -31.168982 45.098399 -0.490806 2.333852 0.033615 0.005855 -131879.000000 0 0 1
-29.176693 14.079578 -30.463112 44.469261 -0.449601 2.325452 0.049560 0.008246 676973.000000 0 0 1
-30.587883 13.964378 -30.204752 45.198999 -0.428273 2.302666 0.048080 0.002488 811310.000000 0 0 1
-31.006383 12.624778 -30.059912 44.993101 -0.386670 2.302449 0.059417 0.005097 -13780.900000 0 0 1
-30.523893 11.843678 -28.793672 43.601105 -0.370131 2.292132 0.039852 -0.010554 -292575.000000 0 0 1
-31.095913 12.264378 -27.554142 43.319759 -0.375674 2.260183 0.033799 0.000650 262750.000000 0 0 1
-30.916073 11.339078 -26.560942 42.306760 -0.351536 2.249543 0.037108 -0.003992 -188445.000000 0 0 1
-30.905053 11.992978 -25.171542 41.624036 -0.370170 2.220230 0.024313 0.000605 624038.000000 0 0 1
-29.641333 12.545278 -24.750432 40.602666 -0.400376 2.226323 0.018111 0.002098 598506.000000 0 0 1
-29.694493 13.302978 -23.576332 40.181782 -0.421185 2.197826 0.015533 0.012798 326405.000000 0 0 1
-28.257863 13.696578 -23.114432 38.992051 -0.451333 2.205326 0.032986 0.017673 -747744.000000 0 0 1
-27.574603 14.555978 -24.036032 39.369609 -0.485699 2.227516 0.044705 0.006924 820979.000000 0 0 1
-26.174653 14.654578 -23.734732 38.251884 -0.510394 2.240158 0.054106 -0.001039 807670.000000 0 0 1
-25.860083 15.246778 -22.365532 37.435614 -0.532728 2.211101 0.068191 -0.001299 -1625650.000000 0 0 1
-26.218003 16.614478 -22.264832 38.198787 -0.564835 2.193050 0.095224 -0.007836 172269.000000 0 0 1
-26.376953 16.999678 -20.890132 37.697882 -0.572492 2.158133 0.098490 -0.006248 757044.000000 0 0 1
-27.869633 17.229978 -20.444732 38.620923 -0.553720 2.128653 0.081510 -0.004232 790997.000000 0 0 1
-28.640463 16.033978 -20.443732 38.669248 -0.510364 2.127843 0.074201 0.002519 -433735.000000 0 0 1
-29.905173 16.312478 -19.931432 39.467433 -0.499361 2.100189 0.064223 0.003793 -1930600.000000 0 0 1
-30.738323 15.003778 -19.846832 39.545602 -0.454093 2.096558 0.036388 -0.001204 -139769.000000 0 0 1
-31.459333 14.709378 -21.013032 40.590676 -0.437367 2.114935 0.028670 0.005405 545318.000000 0 0 1
-32.523943 15.646278 -21.250232 41.882995 -0.448389 2.102928 0.028127 -0.002659 -829790.000000 0 0 1
-32.798023 15.640978 -22.784632 42.889276 -0.444988 2.130864 0.018186 0.013583 -196275.000000 0 0 1
-33.766633 14.735178 -23.280732 43.580999 -0.411472 2.134351 0.035490 0.001416 315801.000000 0 0 1
-33.766553 14.760978 -24.686532 44.356414 -0.412115 2.161023 0.053283 0.000007 -828951.000000 0 0 1
-35.009033 14.161078 -25.321852 45.468283 -0.384378 2.161460 0.042397 -0.007032 -479277.000000 0 0 1
-35.131481 12.722778 -25.397822 45.178971 -0.347455 2.167792 0.062029 -0.008241 57236.500000 0 0 1
-35.388205 12.055478 -24.203432 44.536117 -0.328333 2.145345 0.057857 -0.011910 -386462.000000 0 0 1
-35.717249 10.584278 -24.316032 44.486158 -0.288091 2.149092 0.062030 -0.015986 526461.000000 0 0 1
-36.849883 10.260778 -25.144712 45.776129 -0.271569 2.152320 0.079925 -0.023848 388410.000000 0 0 1
-36.701423 9.007578 -25.805452 45.760816 -0.240672 2.169922 0.083111 -0.017461 -85132.200000 0 0 1
-37.968103 8.296778 -26.338732 46.948293 -0.215138 2.166409 0.114531 -0.020085 -202763.000000 0 0 1
37.367531 7.806178 -25.350902 45.825070 0.205941 2.157009 0.098915 -0.011452 -341234.000000 0 0 1
36.236711 7.225178 -25.941772 45.147292 0.196807 2.182915 0.117471 -0.017597 -206019.000000 0 0 1
35.291271 6.530678 -24.936932 43.703251 0.182981 2.178029 0.126530 -0.020000 -95407.000000 0 0 1
35.958241 5.448178 -24.350832 43.768033 0.150370 2.160796 0.111910 -0.024113 462485.000000 0 0 1
35.122431 4.636678 -23.501932 42.513818 0.131256 2.156525 0.110164 -0.016764 349975.000000 0 0 1
35.936191 3.723178 -22.558832 42.593107 0.103237 2.128967 0.094770 -0.010498 221879.000000 0 0 1
36.523741 2.623678 -23.238432 43.369252 0.071712 2.136284 0.109177 -0.021873 189947.000000 0 0 1
37.692821 2.127978 -22.622332 44.011895 0.056396 2.110644 0.140230 -0.016979 227702.000000 0 0 1
-37.836463 0.950878 -23.407332 44.501745 -0.025126 2.124671 0.153703 -0.019309 766586.000000 0 0 1
37.503861 -0.205022 -23.478032 44.247029 -0.005467 2.130119 0.135256 -0.020052 292843.000000 0 0 1
-37.907743 -1.169622 -24.043132 44.904757 0.030845 2.135807 0.146765 -0.023294 89676.000000 0 0 1
-24.019413 28.889678 27.017803 46.276423 -0.877189 0.947352 0.101029 -0.022305 318331.000000 0 0 1
-25.333083 29.417478 26.697893 47.116139 -0.859860 0.968374 0.086664 -0.020688 1440440.000000 0 0 1
-25.884143 29.004578 25.474963 46.478254 -0.842187 0.990699 0.080037 -0.023776 -115464.000000 0 0 1
-26.206423 27.531578 25.256763 45.636262 -0.810053 0.984312 0.078216 -0.022764 -306039.000000 0 0 1
-27.407173 27.107678 25.904553 46.443785 -0.779904 0.979110 0.100570 -0.020076 565871.000000 0 0 1
-27.310053 26.668178 27.254523 46.902449 -0.773507 0.950730 0.111952 -0.020112 -519140.000000 0 0 1
-26.496833 25.351578 27.583833 45.887389 -0.763313 0.925894 0.096361 -0.019602 402390.000000 0 0 1
-25.098553 25.490678 27.699473 45.243484 -0.793149 0.911917 0.087881 -0.019169 -91966.300000 0 0 1
-24.673213 25.930978 28.992253 46.062281 -0.810248 0.889997 0.081244 -0.019568 -468337.000000 0 0 1
-23.207013 25.702378 29.382643 45.414946 -0.836374 0.867177 0.063264 -0.013682 -889483.000000 0 0 1
-22.335513 26.498278 28.610173 44.939691 -0.870436 0.880670 0.079296 -0.019635 709308.000000 0 0 1
-20.973713 26.394278 29.065323 44.512330 -0.899338 0.859294 0.110385 -0.029298 1166610.000000 0 0 1
-20.155013 25.052278 28.875933 43.216440 -0.893306 0.839050 0.099726 -0.022788 -535690.000000 0 0 1
-19.698013 24.793078 27.566193 41.983370 -0.899420 0.854497 0.099523 -0.021239 -22663.800000 0 0 1
-20.441413 23.884078 26.747133 41.276018 -0.862910 0.865832 0.089285 -0.021040 48241.200000 0 0 1
-20.305613 22.368978 27.023403 40.533361 -0.833712 0.841030 0.082353 -0.014057 -97289.100000 0 0 1
-20.858013 22.071278 28.259703 41.482633 -0.813653 0.821339 0.068899 -0.012721 -65097.800000 0 0 1
-21.019913 20.648478 28.332553 40.877010 -0.776484 0.804992 0.080381 -0.010711 -45705.000000 0 0 1
-21.579013 20.166478 29.644613 41.846669 -0.751574 0.783553 0.081287 -0.017275 -105648.000000 0 0 1
-20.629813 20.288578 30.697303 42.184594 -0.777059 0.755848 0.082467 -0.023104 269048.000000 0 0 1
-21.127113 19.806678 31.887153 43.074933 -0.753152 0.737322 0.073815 -0.017531 -199799.000000 0 0 1
-20.216713 20.235278 33.077185 43.729648 -0.785857 0.713002 0.080369 -0.020828 73502.600000 0 0 1
-20.242013 21.632578 33.460513 44.691313 -0.818594 0.724693 0.059462 -0.012120 459962.000000 0 0 1
-19.474513 22.532978 32.604649 44.159425 -0.858078 0.740191 0.081406 -0.010148 524304.000000 0 0 1
-17.971213 22.728978 32.924252 43.858605 -0.901768 0.721689 0.084501 -0.007673 731178.000000 0 0 1
-17.153913 21.532778 32.807531 42.828160 -0.898106 0.698159 0.095084 -0.029611 701275.000000 0 0 1
-15.848913 21.738078 33.325943 42.829318 -0.940816 0.679144 0.087454 -0.028406 664231.000000 0 0 1
-14.709013 20.724478 33.000978 41.652414 -0.953563 0.656236 0.087290 -0.039184 624674.000000 0 0 1
-13.386213 20.956978 33.440013 41.672774 -1.002372 0.639419 0.076799 -0.035248 277442.000000 0 0 1
-13.143613 20.507078 -32.608902 40.701785 -1.000823 2.500038 0.086400 -0.036535 1224810.000000 0 0 1
-11.607513 20.384078 -32.210312 39.846571 -1.053150 2.512155 0.076478 -0.029496 1506930.000000 0 0 1
-10.927313 21.630078 -32.089612 40.212059 -1.103005 2.494782 0.077315 -0.029952 1080820.000000 0 0 1
-9.577413 21.413878 -31.588582 39.346150 -1.150229 2.502836 0.071522 -0.031136 1172710.000000 0 0 1
-8.667613 22.657878 -31.780322 39.981194 -1.205429 2.489609 0.079827 -0.027876 79653.100000 0 0 1
-8.583213 23.577078 -30.723422 39.667100 -1.221661 2.456771 0.080729 -0.027806 -215094.000000 0 0 1
-7.884913 23.163878 -29.583382 38.391583 -1.242702 2.450531 0.059025 -0.024908 -364190.000000 0 0 1
-7.482313 24.302878 -28.627402 38.290248 -1.272128 2.415301 0.083160 -0.027446 288010.000000 0 0 1
-6.479613 25.116078 -29.231312 39.080332 -1.318315 2.415810 0.089011 -0.023974 111171.000000 0 0 1
-6.010113 26.099278 -28.318372 38.977224 -1.344463 2.384064 0.123727 -0.021484 114285.000000 0 0 1
-4.660613 26.716678 -28.760432 39.530554 -1.398088 2.385540 0.114040 -0.027480 57399.800000 0 0 1
-3.552513 25.843078 -28.497402 38.634013 -1.434188 2.400342 0.114895 -0.011818 1128810.000000 0 0 1
-2.293513 26.091078 -29.145912 39.185313 -1.483118 2.409529 0.137065 -0.014436 1247720.000000 0 0 1
-1.583013 27.452678 -28.826662 39.838824 -1.513197 2.379774 0.146884 -0.032189 -641422.000000 0 0 1
-0.844913 27.491278 -27.638932 38.992241 -1.540072 2.358637 0.153990 -0.047033 498068.000000 0 0 1
-0.021213 28.672578 -27.518832 39.741707 -1.570056 2.335665 0.155782 -0.048998 -790411.000000 0 0 1
0.560887 28.822778 -26.093792 38.883841 1.551339 2.306448 0.165621 -0.062336 341123.000000 0 0 1
1.682787 28.062978 -25.646772 38.054165 1.510903 2.310345 0.194212 -0.066117 -102803.000000 0 0 1
2.798287 28.195078 -26.446992 38.758692 1.471873 2.321769 0.170091 -0.063123 -1050650.000000 0 0 1
4.175287 28.089478 -25.711842 38.308623 1.423234 2.306591 0.156042 -0.067548 487288.000000 0 0 1
4.562787 26.828978 -25.147862 37.054393 1.402339 2.316752 0.152172 -0.056705 -770494.000000 0 0 1
5.772887 26.966678 -24.511932 36.896650 1.359905 2.297407 0.113190 -0.049946 -876779.000000 0 0 1
6.362787 25.742678 -23.781832 35.619462 1.328484 2.301863 0.123527 -0.046805 389782.000000 0 0 1
7.561987 25.989478 -23.039632 35.545200 1.287650 2.275986 0.118423 -0.047197 60493.100000 0 0 1
8.106787 24.843478 -22.458932 34.457540 1.255376 2.280733 0.126196 -0.043288 -1363270.000000 0 0 1
9.557587 24.975878 -22.192632 34.751329 1.205316 2.263490 0.119312 -0.019141 -1980100.000000 0 0 1
9.763187 25.724278 -20.976132 34.598503 1.208058 2.222162 0.119599 -0.024204 1621400.000000 0 0 1
11.164387 25.996478 -20.640232 35.021131 1.165156 2.201069 0.120823 -0.027009 2129920.000000 0 0 1
12.049787 24.785678 -20.143832 34.136508 1.118282 2.201975 0.094544 -0.012264 119801.000000 0 0 1
12.235487 23.746678 -21.074732 34.025817 1.095023 2.238742 0.086720 -0.016541 -73422.300000 0 0 1
12.908487 22.625478 -20.535432 33.169945 1.052329 2.238389 0.074175 -0.010277 -45579.800000 0 0 1
12.796487 21.267778 -21.389432 32.765474 1.029139 2.282076 0.086181 -0.015418 58857.600000 0 0 1
11.485287 20.718878 -21.403532 31.926399 1.064628 2.305547 0.097720 -0.025066 63467.000000 0 0 1
11.395887 19.880878 -22.559232 32.156407 1.050309 2.348362 0.130110 -0.026071 -3107.830000 0 0 1
10.846587 20.562278 -23.848432 33.304706 1.085392 2.368949 0.137357 -0.028576 -533535.000000 0 0 1
9.452387 20.523278 -23.946532 32.923988 1.139188 2.385217 0.120248 -0.029463 -705135.000000 0 0 1
8.984787 20.698178 -25.246772 33.860604 1.161255 2.412245 0.125790 -0.039473 -860834.000000 0 0 1
7.534787 20.212678 -25.284922 33.236316 1.213978 2.435283 0.115419 -0.046738 -474021.000000 0 0 1
6.507587 21.061778 -24.854132 33.221606 1.271125 2.416038 0.127998 -0.046198 -142895.000000 0 0 1
6.474387 21.421178 -23.516032 32.462106 1.277284 2.380982 0.127545 -0.042782 -413683.000000 0 0 1
5.080087 21.896478 -22.990832 32.153404 1.342825 2.367472 0.142158 -0.043223 426717.000000 0 0 1
4.694787 23.157678 -23.410932 33.262454 1.370776 2.351563 0.138708 -0.048135 1248990.000000 0 0 1
3.238987 23.180178 -23.432332 33.119268 1.431964 2.356770 0.156202 -0.040341 1485530.000000 0 0 1
2.573687 24.359578 -24.230932 34.455058 1.465533 2.350772 0.143982 -0.030503 -239145.000000 0 0 1
1.178087 24.183578 -24.206132 34.236971 1.522120 2.356068 0.175872 -0.054359 -329448.000000 0 0 1
0.591787 25.052278 -25.142882 35.498329 1.547179 2.357860 0.167676 -0.036876 -523742.000000 0 0 1
-0.887313 24.811178 -25.397252 35.516226 -1.535049 2.367547 0.181497 -0.037736 -503767.000000 0 0 1
-1.230713 23.681278 -26.132022 35.287394 -1.518873 2.404682 0.175320 -0.042928 -1304360.000000 0 0 1
-2.565813 23.575278 -26.420932 35.502715 -1.462388 2.410125 0.171076 -0.031671 -891797.000000 0 0 1
-3.072413 22.158178 -26.919662 35.001326 -1.433017 2.448235 0.165870 -0.038067 -78830.500000 0 0 1
-2.677213 21.800978 -28.228962 35.767645 -1.448606 2.480353 0.192834 -0.051583 -145613.000000 0 0 1
-3.365913 20.627578 -28.593382 35.417621 -1.409046 2.510394 0.144460 -0.047463 728765.000000 0 0 1
-4.543413 20.957578 -29.616782 36.565236 -1.357309 2.514899 0.118553 -0.040547 669399.000000 0 0 1
-4.192213 21.132778 -31.015962 37.764519 -1.374964 2.534481 0.120970 -0.040887 22243.600000 0 0 1
-3.505213 22.362678 -31.239742 38.578458 -1.415318 2.514559 0.140423 -0.038882 21784.600000 0 0 1
-2.990313 22.411778 -32.665142 39.727085 -1.438154 2.536130 0.109858 -0.027753 -180065.000000 0 0 1
-2.011213 21.451478 -33.013552 39.422145 -1.477313 2.563373 0.102365 -0.023600 145560.000000 0 0 1
-1.598513 21.731478 33.044144 39.581913 -1.497371 0.582974 0.104541 -0.008980 74129.000000 0 0 1
-0.311113 20.958578 32.667830 38.814248 -1.555953 0.570474 0.126015 -0.009590 -72588.200000 0 0 1
-0.524813 19.573578 32.591611 38.021224 -1.543990 0.540998 0.102492 0.004471 100632.000000 0 0 1
0.446087 18.881978 31.840435 37.020823 1.547176 0.535393 0.109991 -0.013621 -349618.000000 0 0 1
-0.165213 17.598078 31.483631 36.068527 -1.561408 0.509715 0.101803 -0.012011 -510011.000000 0 0 1
-1.190513 17.677078 30.559393 35.323829 -1.503550 0.525404 0.085706 -0.005417 -431334.000000 0 0 1
-1.487513 16.367378 30.086123 34.282335 -1.480163 0.499967 0.076503 -0.007123 -557326.000000 0 0 1
-2.657713 16.202978 29.124453 33.434020 -1.408218 0.513354 0.073357 -0.001663 -186697.000000 0 0 1
-3.942813 16.548178 29.602403 34.142206 -1.336895 0.521581 0.043250 -0.004970 243835.000000 0 0 1
-4.285313 17.918178 29.287973 34.600727 -1.336046 0.561504 0.049849 -0.005679 -63403.300000 0 0 1
-5.753613 18.334678 29.548203 35.247138 -1.266718 0.576611 0.037507 -0.012514 434158.000000 0 0 1
-6.640913 17.962678 28.515653 34.349701 -1.216675 0.591407 0.021142 -0.000709 -424132.000000 0 0 1
-7.962213 18.336578 28.775723 35.038110 -1.161137 0.607164 0.026342 -0.016818 -290508.000000 0 0 1
-9.082113 17.754978 27.894953 34.290704 -1.097971 0.620678 0.030465 -0.021023 51528.900000 0 0 1
-9.342213 16.362278 28.032373 33.775953 -1.052003 0.591777 0.048071 -0.027540 -188825.000000 0 0 1
-10.265813 16.003678 29.018623 34.692724 -1.000444 0.580029 0.052974 -0.033068 -712689.000000 0 0 1
-10.650713 14.517378 28.983223 34.120656 -0.937840 0.555886 0.056378 -0.025494 974628.000000 0 0 1
-9.574813 13.517278 29.196453 33.568239 -0.954496 0.516072 0.053913 -0.015957 1259450.000000 0 0 1
-8.890913 13.520478 30.465543 34.496390 -0.989105 0.488257 0.045549 -0.019516 -336867.000000 0 0 1
-9.585913 13.202478 31.799695 35.740953 -0.942788 0.474049 0.079844 -0.027615 -554502.000000 0 0 1
-9.996113 11.863078 31.893038 35.465768 -0.870600 0.452716 0.085283 -0.018595 320003.000000 0 0 1
-10.532813 11.584278 33.188988 36.696656 -0.832903 0.440791 0.082660 -0.014363 -59614.600000 0 0 1
-11.125413 10.170678 33.187560 36.450399 -0.740597 0.426340 0.092249 -0.017919 -696433.000000 0 0 1
-10.193613 9.172978 33.445223 36.147423 -0.732746 0.389115 0.098281 -0.019467 -247659.000000 0 0 1
-10.346113 8.476278 -32.704262 35.333527 -0.686382 2.753380 0.145928 -0.034031 -484078.000000 0 0 1
-9.363013 8.910278 -31.619282 34.159012 -0.760627 2.753546 0.117163 -0.040146 -392827.000000 0 0 1
-9.678113 10.134378 -30.969442 33.992321 -0.808423 2.716673 0.112950 -0.037558 661618.000000 0 0 1
-8.584613 10.712678 -30.206862 33.179988 -0.895232 2.715032 0.109024 -0.038830 830116.000000 0 0 1
-7.672513 11.701878 -30.976692 33.990541 -0.990449 2.717306 0.071305 -0.033620 103800.000000 0 0 1
-8.435213 12.828878 -31.340422 34.899212 -0.989154 2.686060 0.065889 -0.029639 27400.300000 0 0 1
-7.608113 13.829778 -31.861652 35.557152 -1.067857 2.681629 0.040609 -0.024507 -254541.000000 0 0 1
-8.221813 15.232078 -31.992672 36.375067 -1.075841 2.645653 0.050452 -0.019944 -545963.000000 0 0 1
-8.819513 15.477678 -33.208292 37.684652 -1.052863 2.649223 0.065114 -0.027492 -268682.000000 0 0 1
-9.305113 16.781778 -33.275902 38.412223 -1.064522 2.618512 0.095572 -0.031649 -768939.000000 0 0 1
-9.848113 17.199778 32.673415 38.214784 -1.050789 0.545257 0.077844 -0.034732 996206.000000 0 0 1
-11.139313 16.742878 32.244226 38.001295 -0.983729 0.557646 0.074543 -0.039064 1753860.000000 0 0 1
-12.252413 17.323178 33.018719 39.248565 -0.955198 0.571165 0.079411 -0.050773 1111700.000000 0 0 1
-13.648713 16.926478 32.438278 39.051695 -0.892194 0.590523 0.097888 -0.053840 243034.000000 0 0 1
-13.886613 15.560078 32.719240 38.800808 -0.842167 0.567473 0.094057 -0.049970 34258.400000 0 0 1
-15.236813 15.188778 32.824969 39.247140 -0.783819 0.580177 0.100346 -0.036446 -302952.000000 0 0 1
-15.393513 13.623078 32.674619 38.602839 -0.724459 0.561551 0.093893 -0.026172 -148571.000000 0 0 1
-15.229913 13.064678 31.400282 37.264108 -0.709022 0.568626 0.077907 -0.032596 117880.000000 0 0 1
-13.942313 12.515778 31.223483 36.413440 -0.731534 0.540461 0.070978 -0.013209 -90185.400000 0 0 1
-13.642413 11.836978 29.795273 34.842327 -0.714658 0.544964 0.081889 -0.012446 102425.000000 0 0 1
-14.382513 10.662378 29.475393 34.486834 -0.637938 0.545852 0.073604 -0.004297 170476.000000 0 0 1
-13.887813 10.094278 28.276513 33.080613 -0.628516 0.545677 0.063493 -0.005735 118361.000000 0 0 1
-14.694213 8.906178 27.714623 32.608898 -0.544893 0.554982 0.083930 0.000033 230293.000000 0 0 1
-14.279413 7.788978 28.459793 32.780018 -0.499358 0.519222 0.055065 0.002883 -166794.000000 0 0 1
-15.036813 6.683478 28.079073 32.545490 -0.418249 0.530085 0.072254 0.010842 100041.000000 0 0 1
-14.357313 5.249478 28.043713 31.939619 -0.350532 0.499081 0.074427 0.005021 175148.000000 0 0 1
-13.513913 4.843578 26.993393 30.573343 -0.344151 0.488780 0.071675 -0.004988 86154.700000 0 0 1
-14.216113 4.595378 25.766093 29.784340 -0.312650 0.525469 0.074604 -0.004221 35789.800000 0 0 1
-13.244413 4.313578 24.613773 28.281783 -0.314856 0.514975 0.071511 0.001024 -145954.000000 0 0 1
-12.525113 3.108978 24.842233 27.994298 -0.243302 0.479115 0.056611 -0.007506 -43186.200000 0 0 1
-11.951413 2.702478 23.622703 26.611496 -0.222382 0.478497 0.051495 -0.008982 -611689.000000 0 0 1
-10.911913 1.610478 23.720633 26.159738 -0.146531 0.435258 0.044282 -0.009701 -255407.000000 0 0 1
-9.603213 2.042978 24.074163 25.999245 -0.209614 0.387236 0.042681 -0.019528 -78090.100000 0 0 1
-8.908813 0.916578 24.495703 26.081536 -0.102524 0.350512 0.046977 -0.008809 -977271.000000 0 0 1
-7.419913 1.226278 24.578583 25.703416 -0.163788 0.296934 0.077229 -0.015232 -959119.000000 0 0 1
-6.848613 1.223678 23.263403 24.281408 -0.176810 0.290591 0.070536 -0.014354 669970.000000 0 1 0
-5.424413 1.173278 23.153783 23.809630 -0.213014 0.235257 0.062685 -0.011300 732016.000000 0 1 0
-4.731413 2.544878 23.359913 23.969735 -0.493482 0.226053 0.079946 -0.017848 -553081.000000 0 1 0
-4.811113 3.051678 24.690753 25.339550 -0.565257 0.226778 0.085361 -0.018480 -292484.000000 0 0 1
-4.144013 4.226478 24.863413 25.558271 -0.795250 0.233715 0.077902 -0.026285 -302209.000000 0 0 1
5.649687 -23.686722 13.044768 27.625092 -1.336654 1.079003 0.168509 -0.047240 13036.700000 0 0 1
4.917487 -24.874022 13.292468 28.628453 -1.375617 1.087941 0.203200 -0.063223 -1777330.000000 0 0 1
3.610587 -24.651222 12.961368 28.084090 -1.425364 1.091089 0.206137 -0.062836 -1415910.000000 0 0 1
2.719087 -25.747562 13.541668 29.218267 -1.465581 1.088894 0.183674 -0.066358 -265090.000000 0 0 1
2.626787 -25.786612 14.951168 29.923014 -1.469280 1.047597 0.205264 -0.061507 -252457.000000 0 0 1
2.161187 -27.032952 15.418068 31.195641 -1.491020 1.053838 0.201079 -0.061223 264163.000000 0 0 1
1.617387 -27.103862 16.891168 31.977286 -1.511193 1.014289 0.194646 -0.066864 -281229.000000 0 0 1
2.641187 -27.016642 17.815268 32.469348 -1.473345 0.990012 0.218255 -0.055463 -504490.000000 0 0 1
2.305787 -26.142352 18.873068 32.325406 -1.482823 0.947338 0.203122 -0.061383 783514.000000 0 0 1
3.546587 -25.745932 19.760568 32.648297 -1.433905 0.920709 0.163710 -0.055985 757642.000000 0 0 1
3.207087 -24.695122 20.688368 32.375037 -1.441652 0.877570 0.159440 -0.046327 36688.200000 0 0 1
4.361187 -24.118522 21.230368 32.426094 -1.391906 0.856970 0.126516 -0.042872 -118247.000000 0 0 1
3.923687 -22.950222 22.105468 32.105447 -1.401468 0.811340 0.130278 -0.046914 -14952.300000 0 0 1
3.290087 -21.846622 21.460868 30.800461 -1.421320 0.799910 0.154157 -0.049663 264589.000000 0 0 1
4.081687 -21.089922 20.545568 29.724827 -1.379623 0.807659 0.138353 -0.035151 82718.200000 0 0 1
3.189387 -20.120622 19.750368 28.374084 -1.413591 0.800886 0.094116 -0.035290 145435.000000 0 0 1
2.827287 -18.935522 20.548268 28.085207 -1.422580 0.750071 0.060781 -0.037149 472916.000000 0 0 1
2.024987 -18.018522 19.751068 26.811796 -1.458882 0.742684 0.050532 -0.042031 375485.000000 0 0 1
1.713087 -16.741922 20.549568 26.561464 -1.468828 0.686197 0.070192 -0.040367 275780.000000 0 0 1
2.833187 -15.934722 20.788768 26.346066 -1.394836 0.661510 0.019097 -0.008105 -45357.800000 0 0 1
2.209487 -14.729122 21.087268 25.816695 -1.421898 0.614941 0.041821 -0.009323 706563.000000 0 0 1
3.209087 -13.557422 20.936468 25.148312 -1.338371 0.587156 -0.013196 0.016196 28316.200000 0 0 1
3.634087 -13.148022 19.573668 23.858029 -1.301131 0.608646 -0.034957 0.011181 997.502000 0 1 0
2.623887 -12.676022 18.691968 22.736666 -1.366683 0.605695 -0.013669 0.004489 300768.000000 0 1 0
1.696487 -11.527322 19.125668 22.395276 -1.424674 0.547162 -0.003392 -0.003615 -889006.000000 0 1 0
2.318887 -10.278822 19.177968 21.882090 -1.348912 0.502413 0.004959 0.010501 -664058.000000 0 1 0
1.824287 -9.364422 20.115868 22.263615 -1.378396 0.442857 0.023701 -0.004692 376131.000000 0 1 0
0.348387 -8.893322 19.919668 21.817555 -1.531642 0.420191 0.032656 -0.020508 484033.000000 0 1 0
-0.253913 -8.218122 20.988268 22.541282 1.539909 0.373370 0.039600 -0.028133 -345761.000000 0 1 0
-1.659413 -8.176322 20.825868 22.434854 1.370563 0.381031 0.039932 -0.024768 197554.000000 0 1 0
-2.204513 -7.375722 22.043268 23.348807 1.280360 0.335987 0.037512 -0.018079 -107415.000000 0 1 0
-2.348713 -8.271222 23.156868 24.701621 1.294117 0.355526 0.037433 -0.011846 -25106.100000 0 1 0
-2.581213 -7.654122 24.357268 25.661737 1.245541 0.320218 0.037066 -0.008528 -97972.300000 0 0 1
-2.921313 -8.717922 25.427768 27.039001 1.247463 0.346960 0.038118 -0.014114 -458000.000000 0 0 1
-1.836013 -9.502422 25.798768 27.554371 1.379933 0.358894 0.039783 -0.016670 -328128.000000 0 0 1
-2.203913 -10.464122 26.773868 28.830454 1.363214 0.379996 0.060725 -0.034490 195097.000000 0 0 1
-0.976313 -11.390722 26.967368 29.290624 1.485294 0.400971 0.064785 -0.041539 225565.000000 0 0 1
0.194087 -10.784122 27.460368 29.502657 -1.552801 0.374266 0.066651 -0.037973 -511572.000000 0 0 1
1.101087 -11.810322 27.773668 30.200542 -1.477834 0.403630 0.094587 -0.050803 -547296.000000 0 0 1
2.415287 -11.320922 28.364468 30.635599 -1.360600 0.387475 0.130628 -0.062559 -360760.000000 0 0 1
2.219287 -10.649822 29.609168 31.544362 -1.365349 0.352097 0.133658 -0.073807 811655.000000 0 0 1
3.486887 -10.626522 30.299168 32.297382 -1.253736 0.353604 0.176096 -0.060958 789944.000000 0 0 1
3.234787 -10.035322 31.708668 33.415732 -1.258972 0.321019 0.175089 -0.065440 178998.000000 0 0 1
2.358687 -10.797822 32.563068 34.387639 -1.355734 0.327215 0.183242 -0.067051 287127.000000 0 0 1
2.268287 -10.349522 -33.515097 35.149957 -1.355039 2.835403 0.166646 -0.070067 170261.000000 0 0 1
3.395287 -10.762822 -32.490997 34.395221 -1.265213 2.807283 0.139728 -0.039926 604922.000000 0 0 1
4.572287 -9.951422 -32.583597 34.374808 -1.140103 2.817348 0.132224 -0.051858 602784.000000 0 0 1
5.017587 -9.323522 -31.379997 33.118099 -1.077085 2.816177 0.138323 -0.045243 103358.000000 0 0 1
4.118287 -8.138022 -30.910897 32.228423 -1.102316 2.854669 0.137157 -0.034774 -10015.900000 0 0 1
4.111987 -7.040522 -31.805297 32.833738 -1.042190 2.890644 0.157830 -0.042670 147098.000000 0 0 1
3.334287 -5.988822 -31.282697 32.024844 -1.062784 2.925888 0.145892 -0.024936 -44697.000000 0 0 1
3.476087 -4.706322 -32.125397 32.653848 -0.934632 2.961441 0.149481 -0.030738 35351.300000 0 0 1
2.783287 -4.747722 -33.341197 33.792351 -1.040559 2.978004 0.156225 -0.043149 -122694.000000 0 0 1
2.911887 -3.590822 33.309068 33.628367 -0.889429 0.137913 0.155993 -0.020585 331874.000000 0 0 1
2.105787 -3.626922 31.964168 32.238128 -1.044764 0.130461 0.172339 -0.025463 54018.500000 0 0 1
0.710787 -3.554422 32.039168 32.243564 -1.373427 0.112657 0.168869 -0.029017 -744196.000000 0 0 1
0.300987 -4.162122 30.843468 31.124481 -1.498606 0.134479 0.152939 -0.031293 435371.000000 0 0 1
-1.236013 -4.269622 30.638868 30.959612 1.289009 0.144070 0.129660 -0.028144 444444.000000 0 0 1
-2.010713 -3.172222 30.260668 30.492851 1.005858 0.123483 0.119894 -0.029338 173737.000000 0 0 1
-3.396413 -3.513122 30.356968 30.747734 0.802288 0.159598 0.083291 -0.023749 774484.000000 0 0 1
-4.336113 -2.314422 29.903868 30.305110 0.490286 0.162908 0.065152 -0.014307 277189.000000 0 0 1
-4.315913 -2.162222 28.520068 28.925708 0.464438 0.167669 0.067335 -0.021984 450604.000000 0 0 1
-5.389413 -1.413122 27.890668 28.441730 0.256431 0.197170 0.055254 -0.022920 812238.000000 0 0 1
-5.484213 0.118278 28.119468 28.649521 -0.021564 0.192658 0.086917 -0.026616 -541306.000000 0 0 1
-6.662913 0.482278 28.763068 29.528648 -0.072256 0.228208 0.077999 -0.024834 -682072.000000 0 0 1
-6.825013 1.889778 28.812268 29.669830 -0.270122 0.241014 0.092503 -0.025088 14714.200000 0 0 1
-8.221713 2.319478 29.303668 30.523458 -0.274970 0.283660 0.076130 -0.023854 -116017.000000 0 0 1
-9.271913 1.981178 28.439168 29.977987 -0.210510 0.321798 0.069172 -0.016222 908565.000000 0 0 1
-10.511913 2.629878 28.857168 30.824547 -0.245149 0.359210 0.071149 -0.010433 1799300.000000 0 0 1
-11.771713 2.090178 28.055268 30.496559 -0.175728 0.402847 0.073683 -0.004652 660809.000000 0 0 1
-12.089913 0.741578 28.377568 30.854534 -0.061262 0.403427 0.070682 -0.004162 29180.500000 0 0 1
-12.480713 0.002278 27.224268 29.948772 -0.000183 0.429851 0.069122 0.000890 -535643.000000 0 0 1
-12.504513 -1.543122 27.475668 30.226749 0.122784 0.429953 0.074169 -0.007046 626485.000000 0 0 1
-11.278513 -2.209422 27.846068 30.124573 0.193447 0.391431 0.071082 -0.009318 987600.000000 0 0 1
-10.179913 -2.188022 26.942068 28.884132 0.211714 0.368792 0.052373 -0.004215 -86692.400000 0 0 1
-10.288313 -2.928122 25.564168 27.711910 0.277275 0.396295 0.055422 -0.006200 -427287.000000 0 0 1
-11.187613 -2.241522 24.680768 27.190575 0.197739 0.433037 0.044388 -0.006926 421982.000000 0 0 1
-11.048913 -2.567222 23.297168 25.911911 0.228300 0.453108 0.039272 -0.004485 -80422.300000 0 0 1
-9.770513 -2.138522 22.529468 24.649809 0.215477 0.417806 0.040388 -0.010777 199332.000000 0 1 0
-8.582413 -2.708722 23.033268 24.729060 0.305718 0.372487 0.051674 -0.008401 -300505.000000 0 1 0
-7.519413 -2.205222 22.243468 23.583393 0.285272 0.338712 0.043112 -0.010014 -92914.400000 0 1 0
-6.065413 -2.501222 22.655868 23.586727 0.391128 0.281878 0.044327 -0.008453 156089.000000 0 1 0
-5.631513 -3.869822 22.598968 23.609379 0.602065 0.293618 0.047575 -0.009316 -55487.500000 0 1 0
-6.261413 -4.777222 23.521368 24.804876 0.651746 0.323100 0.050042 -0.007464 -52933.400000 0 1 0
-5.904013 -6.259822 23.209368 24.753131 0.814641 0.355037 0.064572 -0.006839 -77566.800000 0 1 0
-6.473113 -6.889022 22.064768 24.004453 0.816514 0.404766 0.052383 -0.012399 13305.700000 0 1 0
-6.038713 -6.280522 20.859968 22.606399 0.805024 0.395650 0.047307 -0.015518 -60420.300000 0 1 0
-7.160313 -6.206922 19.784968 21.937204 0.714196 0.446669 0.045910 -0.018531 -635725.000000 0 1 0
-8.042213 -5.238622 20.106568 22.279910 0.577352 0.445367 0.045071 -0.013241 -1258430.000000 0 1 0
-9.034813 -5.118422 19.118868 21.756773 0.515440 0.497550 0.052941 -0.014001 396827.000000 0 1 0
-9.923913 -3.868322 19.355668 22.092755 0.371681 0.503064 0.054949 -0.011970 152032.000000 0 1 0
-9.144713 -2.743722 18.999068 21.263075 0.291488 0.465663 0.048630 -0.013615 431183.000000 0 1 0
-9.838513 -1.509022 18.880568 21.343601 0.152193 0.485159 0.048226 -0.019034 509156.000000 0 1 0
-8.753513 -0.497422 18.369968 20.355027 0.056764 0.445308 0.033511 -0.012832 661453.000000 0 1 0
-7.647213 -0.215722 19.197568 20.665745 0.028202 0.379214 0.034259 -0.002624 225767.000000 0 1 0
-7.949813 0.624878 20.325068 21.833423 -0.078442 0.373885 0.050035 -0.003504 -359583.000000 0 1 0
-7.855113 2.106778 20.024668 21.613159 -0.262038 0.385784 0.042089 -0.016216 -696350.000000 0 1 0
-8.732413 2.623778 19.103668 21.168121 -0.291883 0.445319 0.032742 -0.023869 -460132.000000 0 1 0
-8.348913 3.909478 18.668868 20.821023 -0.437936 0.458685 0.020859 -0.022660 -384063.000000 0 1 0
-9.196313 4.432078 17.534668 20.289900 -0.449096 0.527225 0.017366 -0.012336 -936165.000000 0 1 0
-10.481513 4.777378 17.934468 21.315032 -0.427659 0.570928 0.026729 -0.006162 -725670.000000 0 1 0
-11.239513 5.420578 16.938868 21.038882 -0.449370 0.634915 0.026761 0.004762 -76270.900000 0 1 0
-11.181313 7.017678 16.894068 21.440128 -0.560485 0.663300 0.026443 0.006758 -476597.000000 0 1 0
-9.914813 7.482978 16.504768 20.656859 -0.646520 0.645171 0.006486 -0.000861 103118.000000 0 1 0
-9.911213 8.903778 16.490668 21.200272 -0.731905 0.679556 0.007196 -0.004922 205714.000000 0 1 0
-8.489313 9.486778 16.681768 20.984489 -0.840830 0.651860 0.003427 -0.002656 47500.500000 0 1 0
-8.159313 9.865178 18.011568 22.097798 -0.879759 0.617922 0.010142 0.013521 115999.000000 0 1 0
-7.529113 11.152678 18.123168 22.572527 -0.976982 0.638675 0.027996 0.004319 -239018.000000 0 1 0
-8.429913 12.351278 17.848268 23.284719 -0.971903 0.697387 0.043053 -0.002845 -141363.000000 0 1 0
-8.401713 12.594978 16.465768 22.368365 -0.982516 0.743479 0.043157 -0.014743 -101053.000000 0 1 0
-9.436113 13.438578 16.000968 22.927420 -0.958618 0.798340 0.070434 -0.031061 -69279.600000 0 1 0
-9.178713 14.217778 14.687368 22.407872 -0.997535 0.856010 0.069848 -0.028790 431409.000000 0 1 0
-8.031113 15.068778 14.761868 22.571654 -1.081127 0.857936 0.069217 -0.018799 365053.000000 0 1 0
-7.766913 15.719378 13.515568 22.138075 -1.111881 0.914089 0.052241 -0.017814 664794.000000 0 1 0
-6.655113 16.849978 13.536668 22.615341 -1.194640 0.929092 0.020134 -0.011422 148531.000000 0 1 0
-5.349713 16.375378 13.513768 21.895076 -1.255034 0.905610 0.022131 -0.020095 -1134580.000000 0 1 0
-4.466113 17.471378 13.579268 22.574138 -1.320531 0.925368 0.025418 -0.021847 -554160.000000 0 1 0
-3.004313 17.111178 13.361768 21.917006 -1.396992 0.915174 0.028127 -0.026690 -612141.000000 0 1 0
-2.218713 16.595478 14.469268 22.128992 -1.437891 0.858121 0.032200 -0.030297 146189.000000 0 1 0
-2.596013 15.414778 15.061468 21.707198 -1.403951 0.803979 0.026025 -0.018312 -974913.000000 0 1 0
-1.570513 14.973978 16.094668 22.039166 -1.466296 0.752071 0.025347 -0.008194 184710.000000 0 1 0
-0.307813 14.502578 15.589068 21.294096 -1.549575 0.749420 0.027985 -0.020771 306598.000000 0 1 0
0.488087 13.987078 16.612168 21.721894 1.535915 0.700118 0.031759 -0.004184 435067.000000 0 1 0
1.540787 14.958778 17.238768 22.876061 1.468156 0.717317 0.031614 -0.012314 221999.000000 0 1 0
0.835487 15.908378 18.010868 24.045080 1.518326 0.724176 0.029747 -0.021287 -491470.000000 0 1 0
1.674687 16.900878 18.456468 25.081576 1.472030 0.743864 0.048682 -0.025152 -803668.000000 0 0 1
0.963687 18.130678 19.082468 26.339908 1.517694 0.760531 0.065341 -0.029538 32299.700000 0 0 1
0.398787 19.086278 18.218868 26.388865 1.549905 0.808755 0.055175 -0.029016 956299.000000 0 0 1
-0.824113 18.645678 17.570368 25.633148 -1.526626 0.815568 0.061015 -0.031282 684174.000000 0 0 1
-1.683113 19.675278 16.756468 25.898429 -1.485460 0.867144 0.058542 -0.022016 514306.000000 0 0 1
-2.405613 20.572878 17.623868 27.196158 -1.454394 0.865804 0.062605 -0.026946 419326.000000 0 0 1
-2.980413 21.719778 16.985868 27.733577 -1.434427 0.911620 0.077131 -0.029220 266812.000000 0 0 1
-3.888513 22.677778 17.864868 29.129978 -1.400980 0.910588 0.073290 -0.022845 -53744.100000 0 0 1
-5.122213 22.133478 18.184468 29.099876 -1.343376 0.895795 0.093760 -0.023681 -716869.000000 0 0 1
-5.793413 22.755478 19.234968 30.353902 -1.321498 0.884482 0.094891 -0.013122 -177182.000000 0 0 1
-7.053513 22.044178 19.718368 30.405786 -1.261119 0.865175 0.077181 -0.025982 -72564.800000 0 0 1
-8.304413 22.335178 19.110268 30.545471 -1.214826 0.894853 0.073825 -0.025542 302300.000000 0 0 1
-9.314713 21.968178 20.031868 31.155103 -1.169765 0.872424 0.036338 -0.019188 -780484.000000 0 0 1
-10.740613 22.324578 19.713468 31.660201 -1.122373 0.898662 0.050207 -0.018367 -910636.000000 0 0 1
-10.872213 23.737678 19.785368 32.758863 -1.141297 0.922324 0.066995 -0.019493 607769.000000 0 0 1
-11.993913 24.189578 18.997568 33.013591 -1.110490 0.957646 0.056676 -0.019566 551673.000000 0 0 1
-12.548713 25.539278 19.424068 34.453147 -1.114093 0.971838 0.070832 -0.020977 -181049.000000 0 0 1
-13.242413 25.552378 20.653968 35.424171 -1.092659 0.948322 0.075245 -0.025839 98759.100000 0 0 1
-13.758113 26.875978 20.792768 36.659829 -1.097665 0.967717 0.080762 -0.028471 12878.800000 0 0 1
-14.830713 26.973278 21.932268 37.795927 -1.068084 0.951722 0.101855 -0.043117 -289818.000000 0 0 1
-16.100513 26.511978 21.623568 37.811244 -1.025032 0.961998 0.087233 -0.039937 -627151.000000 0 0 1
-17.025413 26.671178 22.666868 38.923043 -1.002658 0.949179 0.072180 -0.033303 -243381.000000 0 0 1
-18.410413 26.116478 22.363968 39.002061 -0.956766 0.960141 0.088757 -0.027510 -498218.000000 0 0 1
-18.459713 24.677178 22.491168 38.152021 -0.928546 0.940339 0.103809 -0.027210 131904.000000 0 0 1
-19.808113 24.254078 22.658968 38.652949 -0.885960 0.944416 0.099106 -0.016617 367248.000000 0 0 1
29.198087 24.615378 23.537203 44.860283 0.700444 1.018460 0.095210 -0.022133 33146.500000 0 0 1
29.070887 23.565678 24.473923 44.714992 0.681188 0.991624 0.093717 -0.027852 52802.700000 0 0 1
28.437387 22.457678 23.860493 43.386120 0.668443 0.988484 0.098397 -0.022824 -95997.800000 0 0 1
27.968987 21.429278 24.886873 43.137392 0.653776 0.955842 0.113354 -0.021652 -69773.300000 0 0 1
26.875987 21.879378 25.650413 43.115769 0.683271 0.933631 0.103628 -0.023270 -75979.800000 0 0 1
26.810087 21.055278 26.804593 43.365789 0.665743 0.904467 0.107102 -0.024413 218034.000000 0 0 1
25.520687 21.314078 27.624413 43.228504 0.695820 0.877557 0.125691 -0.028021 122260.000000 0 0 1
25.477987 22.494778 28.408573 44.296612 0.723293 0.874571 0.125984 -0.037891 -513993.000000 0 0 1
24.211387 22.683678 28.959663 44.038648 0.752832 0.853172 0.150817 -0.037039 -580989.000000 0 0 1
23.929387 24.089678 29.495573 44.976849 0.788736 0.855562 0.150240 -0.039288 -323641.000000 0 0 1
23.445187 25.037778 28.550923 44.628716 0.818235 0.876632 0.162347 -0.050883 85783.700000 0 0 1
23.145287 26.243078 29.240933 45.600829 0.848039 0.874687 0.156084 -0.051811 321411.000000 0 0 1
21.800487 26.434878 30.034613 45.564701 0.881183 0.851090 0.182008 -0.046108 463125.000000 0 0 1
20.647887 26.591578 29.155493 44.536390 0.910561 0.857084 0.174538 -0.052337 897098.000000 0 0 1
19.483487 26.900078 29.898223 44.689195 0.943953 0.837899 0.164522 -0.047718 153759.000000 0 0 1
18.733887 25.724578 30.528493 44.098767 0.941362 0.806159 0.170339 -0.033209 -846590.000000 0 0 1
19.254787 25.258678 31.711715 44.881850 0.919467 0.786171 0.145465 -0.038522 -499908.000000 0 0 1
18.365887 24.370478 32.318595 44.449045 0.924987 0.756718 0.174981 -0.041371 -33998.800000 0 0 1
18.689487 24.050078 -33.612972 45.360061 0.910171 2.405393 0.185263 -0.045799 -15576.400000 0 0 1
18.323987 25.123378 -32.717942 45.137749 0.940636 2.381608 0.144139 -0.039658 425236.000000 0 0 1
18.909487 24.802578 -31.443192 44.287819 0.919406 2.360257 0.108455 -0.021974 128546.000000 0 0 1
19.113687 26.010378 -30.492572 44.403488 0.937063 2.327758 0.069015 -0.008686 88529.200000 0 0 1
17.914487 26.640078 -30.036812 43.963993 0.978791 2.322951 0.106297 -0.027963 637153.000000 0 0 1
18.179587 27.833178 -29.341352 44.340705 0.992201 2.293914 0.088103 -0.026686 188706.000000 0 0 1
17.493187 27.776778 -27.910422 43.087732 1.008769 2.275434 0.099244 -0.026807 44572.500000 0 0 1
18.130487 26.941878 -26.957752 42.205447 0.978458 2.263639 0.069031 -0.008501 236353.000000 0 0 1
17.845587 27.434378 -25.633232 41.571296 0.994082 2.235224 0.082860 -0.013602 208043.000000 0 0 1
18.742787 26.701978 -24.550432 40.829051 0.958780 2.215921 0.085261 -0.022909 420252.000000 0 0 1
20.094787 27.095278 -24.685232 41.800900 0.932671 2.202528 0.068360 -0.008845 -139019.000000 0 0 1
20.887187 26.350378 -23.737332 41.159178 0.900540 2.185505 0.068893 -0.009819 862250.000000 0 0 1
22.406587 26.708678 -23.704332 42.158083 0.872767 2.167928 0.075203 -0.010534 463217.000000 0 0 1
23.085987 26.162678 -22.631832 41.589041 0.847790 2.146205 0.082210 -0.011525 -312114.000000 0 0 1
24.394987 25.736078 -22.961232 42.245465 0.812143 2.145421 0.105608 -0.011779 39249.900000 0 0 1
25.218887 25.538378 -21.668832 41.925402 0.791693 2.113955 0.125212 -0.018547 -54127.600000 0 0 1
24.989487 24.342578 -20.988732 40.713173 0.772286 2.112419 0.135017 -0.019976 -147133.000000 0 0 1
25.628787 24.408078 -19.775832 40.542232 0.761007 2.080345 0.140240 -0.028185 -461871.000000 0 0 1
25.194387 23.261978 -18.858532 39.134652 0.745540 2.073605 0.133457 -0.022866 -658858.000000 0 0 1
25.393187 21.903378 -19.236832 38.660414 0.711746 2.091608 0.141762 -0.023361 128993.000000 0 0 1
25.181287 20.914478 -18.256432 37.480794 0.693097 2.079548 0.158892 -0.023841 -972641.000000 0 0 1
25.235987 19.478478 -18.940932 37.081330 0.657341 2.106905 0.177896 -0.037111 468601.000000 0 0 1
24.120787 19.087678 -19.740832 36.549313 0.669436 2.141370 0.141743 -0.036215 548933.000000 0 0 1
22.851587 19.165078 -19.094632 35.413278 0.697883 2.140276 0.145968 -0.045873 -472080.000000 0 0 1
21.699887 18.999278 -20.113332 35.162534 0.719140 2.179751 0.118374 -0.024944 -104807.000000 0 0 1
21.482487 19.884178 -21.209932 36.148845 0.746780 2.197822 0.107819 -0.020951 -53936.100000 0 0 1
21.444187 21.253878 -20.906932 36.724383 0.780941 2.176442 0.106533 -0.021718 -115199.000000 0 0 1
21.141687 22.051278 -22.208932 37.768591 0.806454 2.199413 0.095307 -0.014638 551118.000000 0 0 1
19.776887 21.992578 -22.604832 37.226028 0.838394 2.223368 0.104146 -0.015963 130233.000000 0 0 1
19.636187 22.390778 -24.007632 38.253015 0.850848 2.249264 0.100578 -0.011601 -755673.000000 0 0 1
18.161787 22.467078 -24.337932 37.775059 0.890970 2.270885 0.097517 -0.019410 -497768.000000 0 0 1
17.458787 23.488478 -23.591232 37.590745 0.931602 2.249238 0.103525 -0.026841 -464346.000000 0 0 1
16.098187 23.485078 -23.854932 37.145098 0.969892 2.268174 0.108845 -0.029356 -609140.000000 0 0 1
15.315287 24.607478 -23.135832 37.085748 1.014081 2.244452 0.099533 -0.028267 187277.000000 0 0 1
15.641587 25.922778 -23.556132 38.360670 1.027887 2.232003 0.091077 -0.023852 -53101.100000 0 0 1
14.585987 26.707378 -23.089832 38.199155 1.070921 2.219883 0.119623 -0.025994 72570.900000 0 0 1
14.407587 28.068978 -23.777132 39.506938 1.096572 2.216608 0.115779 -0.029107 93371.500000 0 0 1
14.300787 27.974678 -25.199482 40.275415 1.098225 2.246798 0.117777 -0.043039 -275422.000000 0 0 1
13.855187 29.155778 -25.829222 41.342162 1.127175 2.245630 0.134321 -0.045764 55868.500000 0 0 1
14.769787 30.410178 -25.905292 42.591193 1.118666 2.224627 0.124209 -0.042493 -734889.000000 0 0 1
15.933187 30.387978 -26.636612 43.437366 1.087878 2.230925 0.107207 -0.031297 -1009050.000000 0 0 1
16.564087 31.608778 -26.522742 44.462790 1.088107 2.209949 0.107868 -0.038562 -182253.000000 0 0 1
18.048287 31.628278 -26.941152 45.298061 1.052247 2.207755 0.107790 -0.022626 -73009.700000 0 0 1
18.944887 30.962078 -26.065122 44.687242 1.021692 2.193556 0.071050 -0.022080 -672653.000000 0 0 1
20.193487 31.050678 -26.647762 45.629210 0.994182 2.194452 0.084216 -0.017905 -856786.000000 0 0 1
21.370187 30.309878 -25.945422 45.260784 0.956685 2.181254 0.051906 -0.008578 -746108.000000 0 0 1
21.792487 30.791778 -24.671732 45.074832 0.954896 2.149991 0.065976 -0.019030 279948.000000 0 0 1
22.647187 31.940678 -24.715532 46.302911 0.954030 2.133860 0.076009 -0.027219 652129.000000 0 0 1
24.102787 31.740778 -25.267802 47.189863 0.921329 2.135837 0.072976 -0.022319 63329.200000 0 0 1
24.062987 31.299478 -26.633422 47.623774 0.915372 2.164273 0.060366 -0.014892 -796913.000000 0 0 1
25.313687 31.451278 -27.218422 48.690945 0.893103 2.163980 0.060836 -0.010504 -943794.000000 0 0 1
25.340587 30.945478 -28.678372 49.216024 0.884650 2.192848 0.055339 -0.003939 311014.000000 0 0 1
24.451687 31.602178 -29.606492 49.730544 0.912278 2.208483 0.080547 -0.018945 735393.000000 0 0 1
23.139887 31.057678 -29.533792 48.706043 0.930463 2.222282 0.072969 -0.017711 317170.000000 0 0 1
22.049387 31.677178 -30.474812 49.176552 0.962716 2.239159 0.077871 -0.015427 -255877.000000 0 0 1
21.665387 32.965078 -30.080872 49.607905 0.989361 2.222287 0.100010 -0.028919 -25200.800000 0 0 1
20.685887 33.543278 -30.917182 50.089216 1.018193 2.236029 0.117620 -0.038731 -152496.000000 0 0 1
19.215387 33.358478 -30.472732 49.097928 1.048191 2.240370 0.113850 -0.041961 -223821.000000 0 0 1
18.803487 31.961878 -30.558282 48.051445 1.039017 2.260034 0.111185 -0.034517 54292.500000 0 0 1
18.755187 31.275178 -31.844402 48.414458 1.030610 2.288618 0.116818 -0.033833 -586130.000000 0 0 1
17.966487 31.896678 -33.036882 49.311543 1.057821 2.304955 0.122824 -0.040971 -352109.000000 0 0 1
18.577287 33.092878 -33.531612 50.642109 1.059267 2.294453 0.125550 -0.036184 31142.900000 0 0 1
18.392987 33.350178 32.450554 50.035735 1.066794 0.865122 0.107082 -0.035278 -435398.000000 0 0 1
16.972787 33.651078 31.990971 49.435744 1.103654 0.866993 0.112668 -0.037939 -1839530.000000 0 0 1
15.991187 32.692378 32.330239 48.680119 1.115873 0.844458 0.111761 -0.029036 -231431.000000 0 0 1
14.690187 33.247578 32.342730 48.654447 1.154747 0.843646 0.086269 -0.030297 297902.000000 0 0 1
14.102687 -33.607093 31.031663 47.867385 -1.173479 0.865468 0.088209 -0.032036 -1712180.000000 0 0 1
14.621387 -32.310393 30.789663 46.965411 -1.145841 0.855844 0.108115 -0.019565 225827.000000 0 0 1
14.092887 -31.785693 29.596453 45.660593 -1.153468 0.865600 0.096070 -0.026790 -273706.000000 0 0 1
14.721487 -30.420093 29.278253 44.713760 -1.120079 0.856888 0.101879 -0.024125 -58860.500000 0 0 1
14.335987 -29.509693 30.251003 44.625841 -1.118568 0.825920 0.109105 -0.023063 368867.000000 0 0 1
14.925687 -28.232093 29.997873 43.814377 -1.084470 0.816662 0.129974 -0.035060 -267511.000000 0 0 1
14.400487 -27.060193 30.893433 43.520481 -1.081749 0.781497 0.114746 -0.034108 -636244.000000 0 0 1
13.098287 -26.756893 30.521423 42.650366 -1.115560 0.773286 0.097192 -0.028055 -703058.000000 0 0 1
12.929887 -25.712093 29.583743 41.273376 -1.104854 0.771629 0.100171 -0.025132 -486168.000000 0 0 1
13.029087 -24.218093 30.024143 40.715136 -1.077221 0.741554 0.116154 -0.025576 430162.000000 0 0 1
12.066487 -23.750093 31.008733 40.880418 -1.100721 0.709753 0.102392 -0.025348 494950.000000 0 0 1
12.299087 -22.445593 31.510671 40.595499 -1.069528 0.682163 0.109130 -0.023355 -90280.900000 0 0 1
11.247087 -21.964993 32.519251 40.822292 -1.097558 0.649138 0.101292 -0.022063 -389662.000000 0 0 1
11.167487 -22.713093 -33.623442 42.084834 -1.113830 2.496334 0.101428 -0.025759 648447.000000 0 0 1
12.366087 -22.998293 -32.871012 41.980294 -1.077449 2.470288 0.114650 -0.025202 752802.000000 0 0 1
12.993987 -21.828393 -32.061082 40.905201 -1.033855 2.471541 0.119137 -0.024072 107217.000000 0 0 1
13.508987 -20.787693 -32.902462 41.197002 -0.994523 2.495864 0.101522 -0.025426 467984.000000 0 0 1
14.574587 -20.065293 -32.273502 40.701518 -0.942599 2.486401 0.117935 -0.035457 226236.000000 0 0 1
15.007387 -18.873693 -33.215042 41.044817 -0.899021 2.513651 0.104494 -0.029100 -118493.000000 0 0 1
15.824487 -19.228193 33.065872 41.394319 -0.882197 0.645495 0.133738 -0.021792 205258.000000 0 0 1
15.765787 -18.151693 32.109911 40.113469 -0.855627 0.642706 0.115433 -0.019223 425770.000000 0 0 1
16.920987 -17.090593 32.038190 40.060626 -0.790385 0.643930 0.115718 -0.015128 28520.400000 0 0 1
16.884287 -16.244993 33.148724 40.593310 -0.766104 0.615291 0.109795 -0.016978 144683.000000 0 0 1
17.533887 -15.024093 32.952807 40.237396 -0.708463 0.611200 0.112770 -0.012992 -339251.000000 0 0 1
18.983287 -14.870893 33.442293 41.229790 -0.664517 0.624732 0.106001 -0.011351 -135917.000000 0 0 1
19.833387 -15.638893 32.608929 41.246581 -0.667698 0.659033 0.108643 -0.006649 33082.500000 0 0 1
21.202287 -15.398793 32.931713 42.085122 -0.628147 0.672121 0.102224 -0.006627 443495.000000 0 0 1
22.146087 -16.045993 31.902076 42.019823 -0.627015 0.708690 0.100454 -0.012273 -441772.000000 0 0 1
22.455587 -15.309493 30.775053 41.057738 -0.598384 0.723406 0.087971 -0.008145 200323.000000 0 0 1
23.228687 -16.055893 29.841823 41.084036 -0.604802 0.757784 0.074720 -0.015148 -73902.800000 0 0 1
23.269087 -15.401493 28.443683 39.845947 -0.584686 0.775828 0.060618 -0.006778 237187.000000 0 0 1
24.124387 -14.250093 28.422923 39.911323 -0.533548 0.778238 0.029211 -0.005922 463874.000000 0 0 1
23.953287 -13.547293 27.209203 38.699222 -0.514720 0.791057 0.037351 -0.011836 133643.000000 0 0 1
24.663687 -12.168993 27.174913 38.663390 -0.458351 0.791388 0.027601 -0.009400 251627.000000 0 0 1
24.038887 -11.216393 28.037573 38.597682 -0.436567 0.757719 0.039746 -0.016743 404568.000000 0 0 1
24.738787 -10.001293 27.959483 38.649271 -0.384187 0.762060 0.045869 -0.016646 -313578.000000 0 0 1
23.775387 -8.815693 27.933233 37.725998 -0.355075 0.737095 0.062559 -0.014337 -612523.000000 0 0 1
22.883487 -8.905593 28.987693 37.990129 -0.371136 0.702805 0.065741 -0.020461 -452163.000000 0 0 1
22.122087 -7.674893 28.896893 37.193025 -0.333940 0.680999 0.084435 -0.019496 14335.500000 0 0 1
20.967487 -7.655993 29.919353 37.328507 -0.350095 0.640972 0.066391 -0.004012 -215159.000000 0 0 1
21.301787 -7.342493 31.253303 38.528525 -0.331936 0.624641 0.090531 -0.017530 99679.300000 0 0 1
21.528887 -8.438093 32.115385 39.573884 -0.373541 0.624031 0.102480 -0.019752 -208653.000000 0 0 1
21.642487 -8.102793 33.602933 40.782467 -0.358238 0.602440 0.121067 -0.027987 -952703.000000 0 0 1
20.436887 -7.718593 -33.237262 39.773844 -0.361118 2.560123 0.107457 -0.031277 -550715.000000 0 0 1
20.598887 -7.147893 -31.961012 38.689958 -0.334003 2.542913 0.120077 -0.042043 -126041.000000 0 0 1
19.218287 -6.746293 -31.401402 37.428640 -0.337597 2.566179 0.132052 -0.041333 43540.500000 0 0 1
19.338287 -5.974893 -30.220852 36.372636 -0.299663 2.551462 0.122094 -0.042331 1550970.000000 0 0 1
18.055287 -5.451793 -29.740782 35.216893 -0.293245 2.576433 0.131289 -0.032337 1340370.000000 0 0 1
18.170187 -4.472093 -28.548582 34.134687 -0.241326 2.561389 0.120056 -0.029038 -422974.000000 0 0 1
18.726187 -4.946793 -27.334272 33.500795 -0.258265 2.525131 0.108070 -0.029203 -14241.800000 0 0 1
18.110787 -6.026893 -26.648592 32.779133 -0.321252 2.520038 0.106466 -0.033662 229106.000000 0 0 1
16.669887 -5.846693 -26.081632 31.501119 -0.337328 2.546255 0.116739 -0.037976 352234.000000 0 0 1
16.558287 -4.824593 -25.109242 30.461905 -0.283521 2.539732 0.101799 -0.038373 -68303.900000 0 0 1
15.224587 -4.719193 -24.646132 29.351162 -0.300580 2.567525 0.117303 -0.041013 258045.000000 0 0 1
14.893287 -3.688993 -23.538232 28.097456 -0.242808 2.563919 0.122325 -0.036113 82975.400000 0 0 1
15.108387 -2.363093 -23.963232 28.426820 -0.155152 2.573595 0.109355 -0.040962 190486.000000 0 0 1
14.619987 -1.491093 -22.971232 27.269853 -0.101639 2.572457 0.113596 -0.035977 -72278.600000 0 0 1
14.967887 -0.016093 -23.307032 27.699380 -0.001075 2.570717 0.089893 -0.038994 124191.000000 0 0 1
14.242987 0.556907 -24.385732 28.246005 0.039080 2.612636 0.103604 -0.037205 254385.000000 0 0 1
14.790687 1.822907 -24.730432 28.873547 0.122629 2.599262 0.086123 -0.014120 68744.700000 0 0 1
14.217787 2.470907 -26.041582 29.772720 0.172071 2.635570 0.068326 -0.005831 895256.000000 0 0 1
12.917487 3.093907 -25.988372 29.186114 0.235084 2.669099 0.080879 -0.029007 916960.000000 0 0 1
12.559487 3.515907 -27.264142 30.223100 0.272953 2.695399 0.080918 -0.029540 495.281000 0 0 1
11.127187 4.099907 -27.265752 29.732891 0.353023 2.731348 0.092703 -0.034646 -113228.000000 0 0 1
11.056087 5.459907 -26.829662 29.527588 0.458705 2.710789 0.067493 -0.031296 -294081.000000 0 0 1
9.772187 5.990907 -27.008832 29.340478 0.549965 2.740235 0.085985 -0.040945 -368065.000000 0 0 1
8.905687 5.419978 -31.224102 32.918566 0.546717 2.819344 0.079117 -0.039012 -151758.000000 0 0 1
9.004087 4.411878 -30.244662 31.863425 0.455604 2.821470 0.082627 -0.017686 292774.000000 0 0 1
8.603587 3.161678 -30.740632 32.078098 0.352165 2.851810 0.071387 -0.014605 -315059.000000 0 0 1
8.367087 2.211478 -29.558532 30.799442 0.258398 2.856765 0.080934 -0.020438 831367.000000 0 0 1
9.536587 1.897178 -28.741992 30.342180 0.196373 2.815377 0.095536 -0.028375 1272550.000000 0 0 1
9.239387 0.749178 -27.930112 29.428196 0.080908 2.821142 0.110807 -0.033426 512795.000000 0 0 1
10.466187 0.278678 -27.087362 29.040385 0.026620 2.772758 0.108357 -0.040118 783350.000000 0 0 1
11.521587 -0.391922 -27.776562 30.073876 -0.034003 2.748192 0.106367 -0.029705 389988.000000 0 0 1
12.521887 -0.878722 -26.924792 29.707142 -0.070060 2.705338 0.112355 -0.032563 223551.000000 0 0 1
13.155687 -2.211022 -27.444572 30.515001 -0.166510 2.689145 0.115037 -0.034047 -153131.000000 0 0 1
12.152787 -3.172522 -27.380952 30.124271 -0.255354 2.711515 0.125107 -0.031015 34796.800000 0 0 1
12.576087 -4.470822 -27.787512 30.826808 -0.341568 2.693805 0.136774 -0.031719 21852.900000 0 0 1
11.746687 -5.544122 -27.041352 29.999278 -0.440976 2.693789 0.100580 -0.031617 62736.200000 0 0 1
11.956387 -5.463622 -25.671012 28.841069 -0.428629 2.668329 0.126770 -0.030024 297566.000000 0 0 1
11.250687 -6.457722 -24.895032 28.072100 -0.521071 2.661224 0.121836 -0.035073 75706.800000 0 0 1
11.416687 -6.315322 -23.403232 26.794315 -0.505271 2.633020 0.124556 -0.040347 700014.000000 0 0 1
12.756587 -6.334722 -22.852732 26.927803 -0.460911 2.584256 0.117749 -0.044142 842777.000000 0 0 1
12.752287 -6.550922 -21.436732 25.788930 -0.474552 2.552127 0.136359 -0.055913 -863938.000000 0 0 1
14.068887 -6.297622 -20.772032 25.866406 -0.420879 2.503193 0.143148 -0.050336 -750193.000000 0 0 1
14.559187 -4.999222 -20.615732 25.728789 -0.330758 2.500213 0.124758 -0.051333 -239080.000000 0 0 1
15.627287 -4.967422 -19.698532 25.630442 -0.307768 2.447384 0.123078 -0.046750 34675.100000 0 0 1
16.196587 -3.577122 -19.329232 25.470463 -0.217367 2.432400 0.133423 -0.039846 191550.000000 0 0 1
17.097287 -3.060022 -20.319732 26.731489 -0.177102 2.434328 0.113731 -0.036517 519540.000000 0 0 1
17.523087 -1.747922 -19.929832 26.595339 -0.099421 2.417911 0.122084 -0.026614 -437770.000000 0 0 1
18.598787 -1.152022 -20.810832 27.934437 -0.061862 2.411314 0.074940 -0.025467 -937313.000000 0 0 1
19.847087 -1.704022 -20.590932 28.649556 -0.085648 2.372752 0.098540 -0.037547 -803424.000000 0 0 1
20.802487 -1.297822 -21.532132 29.967658 -0.062307 2.372457 0.098936 -0.028973 -159231.000000 0 0 1
22.137587 -2.040722 -21.500232 30.927291 -0.091924 2.339476 0.074284 -0.025130 -906227.000000 0 0 1
23.014587 -1.664822 -20.456432 30.836804 -0.072212 2.296119 0.078891 -0.029576 251499.000000 0 0 1
24.311587 -2.208522 -20.561132 31.916939 -0.090594 2.270783 0.059965 -0.027675 307345.000000 0 0 1
25.334887 -1.633022 -21.550232 33.300687 -0.064368 2.274624 0.068149 -0.024872 -1152400.000000 0 0 1
24.831987 -1.723922 -22.893932 33.819102 -0.069312 2.314411 0.070214 -0.028286 -286988.000000 0 0 1
25.584387 -1.065522 -23.832832 34.981425 -0.041623 2.320333 0.077502 -0.025124 -142460.000000 0 0 1
26.896587 -1.802722 -24.275932 36.276674 -0.066924 2.303912 0.079585 -0.025264 -728956.000000 0 0 1
27.849587 -1.709022 -23.216332 36.297636 -0.061289 2.264787 0.082193 -0.021793 806211.000000 0 0 1
29.086887 -2.396922 -23.560032 37.508231 -0.082220 2.249944 0.072805 -0.017361 927951.000000 0 0 1
29.996887 -1.593422 -24.488932 38.756419 -0.053070 2.254757 0.080710 -0.020062 -1433850.000000 0 0 1
29.585787 -1.463422 -25.863342 39.323948 -0.049423 2.288557 0.070260 -0.018945 -104245.000000 0 0 1
30.327987 -0.529622 -26.555962 40.314841 -0.017461 2.289905 0.073402 -0.021846 -570609.000000 0 0 1
29.703987 -0.243022 -27.991102 40.815288 -0.008181 2.326498 0.055817 -0.023780 247558.000000 0 0 1
28.365887 0.198378 -27.957242 39.828009 0.006993 2.348927 0.058696 -0.012730 23315.800000 0 0 1
28.092887 1.525178 -27.491702 39.336118 0.054237 2.344644 0.066577 -0.015591 -990346.000000 0 0 1
26.608587 1.852478 -27.613522 38.392124 0.069507 2.373518 0.071570 -0.021224 -729411.000000 0 0 1
25.823487 1.308878 -26.598822 37.095323 0.050642 2.370342 0.064598 -0.017157 539943.000000 0 0 1
24.445987 1.441978 -26.973572 36.431569 0.058918 2.404447 0.065469 -0.019080 468358.000000 0 0 1
23.359887 1.048978 -25.977222 34.951406 0.044875 2.408694 0.071798 -0.016778 -206264.000000 0 0 1
23.370587 1.929078 -24.872232 34.183821 0.082356 2.385617 0.084661 -0.024700 773776.000000 0 0 1
22.409787 1.522978 -23.874732 32.779885 0.067856 2.386685 0.076992 -0.012088 205680.000000 0 0 1
22.568987 2.179378 -22.494532 31.939206 0.096267 2.352222 0.085630 -0.015742 -389395.000000 0 0 1
22.408587 3.597878 -22.511432 31.966453 0.159199 2.352121 0.087516 -0.025881 520435.000000 0 0 1
22.695487 4.105078 -21.178532 31.312410 0.178942 2.313609 0.089410 -0.032433 -74181.400000 0 0 1
22.169787 5.542978 -20.884032 30.957501 0.245001 2.311223 0.106212 -0.029010 -59832.100000 0 0 1
23.018887 6.541978 -21.440932 32.130674 0.276900 2.301380 0.088086 -0.020243 399921.000000 0 0 1
22.757587 7.865278 -20.945532 31.913723 0.332760 2.286724 0.087505 -0.013988 -506088.000000 0 0 1
23.195387 8.179578 -19.501632 31.388615 0.339023 2.241192 0.101748 -0.027844 -1786660.000000 0 0 1
24.509687 8.059778 -19.156432 32.134929 0.317702 2.209462 0.082996 -0.019120 -1017660.000000 0 0 1
24.796987 8.242078 -17.805132 31.620328 0.320894 2.168918 0.100633 -0.035729 -303167.000000 0 0 1
24.498687 9.609978 -17.126432 31.398281 0.373821 2.147731 0.115071 -0.045682 -1261130.000000 0 0 1
23.156787 9.882178 -16.969132 30.361912 0.403353 2.163849 0.114184 -0.053598 -891529.000000 0 0 1
22.855387 11.187278 -16.643732 30.406212 0.455197 2.150026 0.092843 -0.052831 -316820.000000 0 0 1
21.327987 11.417378 -16.515932 29.291903 0.491506 2.169824 0.104711 -0.053469 109149.000000 0 0 1
20.678287 11.406778 -17.765432 29.551933 0.504094 2.215748 0.105171 -0.058539 -9162.820000 0 0 1
20.037487 10.170178 -17.908432 28.734045 0.469675 2.243685 0.104292 -0.058014 -505909.000000 0 0 1
19.263287 9.981578 -19.278932 29.023841 0.478074 2.297279 0.101230 -0.041106 -186451.000000 0 0 1
20.071587 9.919278 -20.414932 30.299012 0.458993 2.310112 0.094074 -0.043062 -420389.000000 0 0 1
19.391987 9.745878 -21.591632 30.614211 0.465703 2.353616 0.079252 -0.036233 -681383.000000 0 0 1
20.286687 9.917278 -22.829232 32.110371 0.454693 2.361661 0.091814 -0.025007 -315933.000000 0 0 1
20.710387 11.238578 -23.030232 32.948708 0.497186 2.344756 0.075852 -0.027033 -84364.400000 0 0 1
21.444687 11.380678 -24.206932 34.283670 0.487904 2.354740 0.092083 -0.021481 -171064.000000 0 0 1
21.745387 12.868978 -24.464632 35.170878 0.534370 2.340042 0.105892 -0.024509 -168946.000000 0 0 1
22.385287 13.112778 -25.690822 36.511154 0.529895 2.351308 0.114570 -0.022010 74757.100000 0 0 1
22.409687 14.489778 -26.072752 37.308661 0.573971 2.344570 0.113628 -0.015109 421786.000000 0 0 1
21.109987 14.958378 -26.809902 37.257959 0.616469 2.373987 0.082292 -0.016039 1453070.000000 0 0 1
19.901087 14.914178 -26.017912 35.991912 0.643127 2.378761 0.088748 -0.020031 431873.000000 0 0 1
18.776587 15.333078 -26.750282 36.100431 0.684785 2.405349 0.102013 -0.025665 -736424.000000 0 0 1
17.472887 15.046178 -26.060792 34.797330 0.710912 2.417243 0.109744 -0.036204 -963465.000000 0 0 1
17.131987 13.666278 -26.000592 34.004455 0.673340 2.441253 0.104007 -0.024447 -877988.000000 0 0 1
15.806787 13.391678 -25.746342 33.046417 0.702872 2.464019 0.078854 -0.029855 -1000970.000000 0 0 1
15.629887 11.839478 -25.822052 32.422909 0.648277 2.492138 0.064292 -0.025066 109725.000000 0 0 1
14.292687 11.478978 -25.529522 31.429355 0.676650 2.518852 0.067944 -0.028057 74579.100000 0 0 1
14.164887 10.112078 -25.461732 30.841497 0.619983 2.542003 0.065317 -0.030238 -201718.000000 0 0 1
12.713687 9.607278 -25.534932 30.099342 0.647116 2.583667 0.091170 -0.036824 154074.000000 0 0 1
11.966487 9.958578 -24.362432 28.911904 0.694072 2.572970 0.113612 -0.045738 -526331.000000 0 0 1
10.784787 9.244878 -24.239132 28.094749 0.708668 2.611507 0.114318 -0.045228 -198230.000000 0 0 1
9.920887 9.739678 -22.997632 26.873340 0.776182 2.597851 0.112903 -0.047013 337126.000000 0 0 1
9.305787 10.997078 -23.226632 27.331481 0.868509 2.586426 0.115874 -0.050040 -246113.000000 0 0 1
8.797687 11.727178 -22.148032 26.560522 0.927170 2.556879 0.116674 -0.044382 -295965.000000 0 0 1
9.741387 12.559278 -21.280432 26.561003 0.911091 2.500079 0.112165 -0.047138 -465229.000000 0 0 1
10.460787 11.767078 -20.355832 25.734259 0.844099 2.483240 0.141332 -0.056695 -41894.000000 0 0 1
11.154687 12.509178 -19.368332 25.613256 0.842575 2.428258 0.169244 -0.061638 278989.000000 0 0 1
12.214787 11.598878 -18.611832 25.102496 0.759540 2.406001 0.173406 -0.065953 673321.000000 0 0 1
13.356187 11.144278 -19.338132 26.010498 0.695362 2.409047 0.149651 -0.062277 316709.000000 0 0 1
13.190287 10.222278 -20.396032 26.352927 0.659301 2.455863 0.140573 -0.058475 -833657.000000 0 0 1
14.458687 9.538178 -20.943932 27.178646 0.583154 2.450582 0.161702 -0.054792 2678.720000 0 0 1
15.016387 8.646178 -19.948332 26.423176 0.522422 2.426383 0.184847 -0.070999 153533.000000 0 0 1
15.832687 7.704178 -20.563532 27.071890 0.452870 2.433479 0.138502 -0.063450 -474239.000000 0 0 1
16.524087 6.698478 -19.656432 26.538470 0.385133 2.404874 0.209937 -0.071931 -251770.000000 0 0 1
17.653687 7.168278 -18.964532 26.882901 0.385711 2.353854 0.154875 -0.056115 -61678.100000 0 0 1
17.773587 6.508678 -17.749432 25.948134 0.351033 2.324076 0.157761 -0.071684 -896107.000000 0 0 1
18.936187 6.912678 -16.857332 26.278013 0.350020 2.267248 0.220596 -0.055319 -70643.500000 0 0 1
20.099387 6.230078 -17.358832 27.278715 0.300572 2.260555 0.161261 -0.066390 137624.000000 0 0 1
21.244087 6.636678 -16.667432 27.805755 0.302795 2.213577 0.160251 -0.071426 -7474.000000 0 0 1
22.334587 5.507578 -16.571432 28.351006 0.241771 2.195072 0.152639 -0.059997 443762.000000 0 0 1
23.464387 5.697178 -15.712432 28.808260 0.238192 2.147679 0.122622 -0.054563 1150250.000000 0 0 1
24.084387 4.564478 -15.107832 28.794770 0.187299 2.123127 0.194779 -0.069380 19165.200000 0 0 1
25.227487 3.873878 -15.905532 30.073560 0.152368 2.128086 0.079269 -0.007784 -126453.000000 0 0 1
25.829387 2.858578 -15.110432 30.060836 0.110223 2.097471 0.093470 -0.019085 -118808.000000 0 0 1
26.881687 2.306178 -15.846732 31.289974 0.085580 2.101856 0.075067 -0.024114 -328141.000000 0 0 1
27.503087 1.022278 -15.208732 31.444720 0.037152 2.075634 0.100433 -0.039463 233040.000000 0 0 1
26.833887 -0.224722 -15.481532 30.980411 -0.008374 2.094072 0.112524 -0.039212 455023.000000 0 0 1
27.714687 -1.306322 -15.233732 31.652440 -0.047100 2.072912 0.116043 -0.033197 -21752.200000 0 0 1
27.074887 -2.603322 -15.647432 31.379435 -0.095858 2.092840 0.101106 -0.031889 -153206.000000 0 0 1
26.322587 -3.172722 -14.595332 30.264971 -0.119954 2.074020 0.108731 -0.034337 287913.000000 0 0 1
26.074087 -4.520822 -14.905032 30.371958 -0.171677 2.083746 0.103236 -0.033217 -1236390.000000 0 0 1
25.481287 -5.367422 -13.777232 29.460437 -0.207607 2.057429 0.122227 -0.042394 1829290.000000 0 0 1
24.102687 -5.143922 -13.341232 28.024774 -0.210263 2.066956 0.162681 -0.039007 2124410.000000 0 0 1
23.085887 -5.112522 -14.355832 27.661995 -0.217939 2.116446 0.169857 -0.047781 -473664.000000 0 0 1
21.720287 -4.651022 -13.796232 26.148402 -0.210947 2.126584 0.178304 -0.047026 20022.400000 0 0 1
20.920587 -5.656722 -13.181032 25.365510 -0.264076 2.117230 0.188392 -0.043538 646290.000000 0 0 1
21.276687 -5.793622 -11.808332 25.014000 -0.265853 2.062433 0.221735 -0.041844 -223111.000000 0 0 1
20.800187 -7.188422 -11.376732 24.774003 -0.332744 2.047914 0.187650 -0.038107 106320.000000 0 1 0
19.393387 -7.315022 -11.344532 23.628615 -0.360691 2.071586 0.168854 -0.025592 270413.000000 0 1 0
19.099687 -8.666322 -11.618132 23.976743 -0.425961 2.076655 0.159946 -0.040634 -815163.000000 0 1 0
17.650387 -9.066622 -11.370132 22.869624 -0.474530 2.091132 0.151427 -0.046520 -686362.000000 0 1 0
16.764587 -8.281822 -12.085232 22.264160 -0.458842 2.144577 0.133567 -0.028093 -547916.000000 0 1 0
15.402487 -8.626022 -12.022132 21.358290 -0.510519 2.168661 0.131046 -0.030058 -211936.000000 0 1 0
14.575687 -7.459522 -12.524532 20.614535 -0.473026 2.223779 0.106814 -0.021396 -498693.000000 0 1 0
14.688687 -7.131822 -13.899032 21.443030 -0.452006 2.275994 0.105468 -0.016579 647305.000000 0 1 0
15.900787 -6.457222 -14.229432 22.293665 -0.385749 2.263048 0.116662 -0.005585 355401.000000 0 1 0
15.563987 -5.252522 -15.127232 22.330693 -0.325477 2.315044 0.099153 -0.016035 178792.000000 0 1 0
14.573087 -4.460022 -14.492932 21.031209 -0.296994 2.331064 0.101478 -0.015393 128845.000000 0 1 0
14.258587 -3.238622 -15.228932 21.111996 -0.223345 2.376532 0.101152 -0.024159 177500.000000 0 1 0
15.265587 -2.030822 -15.363832 21.753384 -0.132256 2.355016 0.119802 -0.031919 -883158.000000 0 1 0
16.335387 -2.341422 -16.182932 23.113079 -0.142365 2.346423 0.123851 -0.029125 -213140.000000 0 1 0
17.401387 -1.399222 -16.089232 23.740882 -0.080236 2.315429 0.154475 -0.037631 -174913.000000 0 1 0
18.507887 -1.761622 -15.145232 23.979643 -0.094896 2.254395 0.169999 -0.037926 -1472680.000000 0 1 0
18.053087 -1.797922 -13.810232 22.800636 -0.099264 2.221435 0.154076 -0.027988 -279023.000000 0 1 0
18.868887 -2.538122 -12.977732 23.041235 -0.133711 2.169097 0.163492 -0.031264 -742812.000000 0 1 0
18.375387 -2.662022 -11.514232 21.847626 -0.143868 2.125892 0.162982 -0.026723 -83099.500000 0 1 0
18.528887 -1.556422 -10.662932 21.434557 -0.083803 2.091470 0.179651 -0.026529 587944.000000 0 1 0
17.819787 -1.782322 -9.457932 20.252752 -0.099688 2.056686 0.154952 -0.023908 -582242.000000 0 1 0
17.706787 -0.515022 -8.581032 19.683233 -0.029078 2.021897 0.137136 -0.021030 1118350.000000 0 1 0
18.895787 0.034078 -7.894232 20.478546 0.001803 1.966533 0.165469 -0.024712 2691850.000000 0 1 0
20.010987 0.536278 -8.681932 21.819788 0.026793 1.980015 0.189440 -0.020088 699684.000000 0 1 0
19.728587 1.818978 -9.506832 21.975115 0.091940 2.018191 0.199754 -0.023493 -416106.000000 0 1 0
19.520887 2.978178 -8.705232 21.580446 0.151396 1.986010 0.169182 -0.012926 644114.000000 0 1 0
18.760587 3.897278 -9.493132 21.383825 0.204824 2.030787 0.154933 -0.025863 -444087.000000 0 1 0
18.875287 5.332678 -9.054632 21.603247 0.275346 2.003286 0.155391 -0.007663 -506483.000000 0 1 0
18.143987 6.195278 -9.888632 21.572454 0.329038 2.046981 0.121312 -0.012571 382543.000000 0 1 0
18.427987 7.586278 -9.656132 22.144598 0.390527 2.022000 0.140090 -0.005865 -235683.000000 0 1 0
-28.242713 -29.215752 5.898868 41.061023 0.802331 1.426637 0.120638 -0.016405 69518.100000 0 0 1
-28.220163 -27.913892 6.448268 40.213718 0.779942 1.409751 0.092800 -0.014780 -393141.000000 0 0 1
-27.476933 -26.951402 5.784768 38.920733 0.775743 1.421614 0.136501 -0.029238 -1139550.000000 0 0 1
-27.245293 -25.581812 6.429668 37.921969 0.753919 1.400423 0.099570 -0.027013 756773.000000 0 0 1
-28.371073 -24.655222 6.488168 38.143074 0.715437 1.399864 0.086505 -0.034384 1078310.000000 0 0 1
-29.567863 -25.127462 7.094668 39.445940 0.704392 1.389954 0.075886 -0.028560 -129914.000000 0 0 1
-29.651653 -25.167322 8.663368 39.845559 0.703777 1.351622 0.099275 -0.021729 -882907.000000 0 0 1
-28.743193 -25.970032 9.315968 39.842201 0.734756 1.334790 0.082045 -0.021032 -722468.000000 0 0 1
-28.874493 -26.071682 10.723668 40.354256 0.734432 1.301827 0.074777 -0.024927 -619706.000000 0 0 1
-27.699623 -26.839932 11.330368 40.199854 0.769637 1.285074 0.046974 -0.019291 615013.000000 0 0 1
-26.535533 -26.082502 11.685468 38.999764 0.776789 1.266492 0.035912 -0.002554 338649.000000 0 0 1
-26.657983 -25.489342 12.890168 39.070590 0.762992 1.234578 0.062825 -0.005888 -188795.000000 0 0 1
-25.335053 -24.953722 13.535768 38.049575 0.777815 1.207090 0.068602 -0.012161 546520.000000 0 0 1
-24.517613 -26.046922 13.953368 38.395989 0.815634 1.198874 0.054131 -0.008154 623783.000000 0 0 1
-23.406813 -25.597572 14.779468 37.703412 0.830074 1.168000 0.060798 -0.013829 799351.000000 0 0 1
-22.736213 -26.836362 15.407768 38.399544 0.867920 1.157917 0.053275 -0.016746 410132.000000 0 0 1
-23.699113 -27.583802 16.199568 39.811306 0.861004 1.151729 0.047651 -0.010139 810822.000000 0 0 1
-23.070013 -28.711722 16.741868 40.458357 0.893922 1.144167 0.044938 -0.007877 -371781.000000 0 0 1
-23.970213 -29.615342 17.567568 41.955441 0.890359 1.138761 0.070549 -0.016351 -129827.000000 0 0 1
-24.883613 -30.387582 16.786568 42.712857 0.884652 1.166894 0.045729 -0.016462 297755.000000 0 0 1
-25.656473 -31.286152 17.520768 44.091441 0.883944 1.162144 0.070928 -0.019796 -432812.000000 0 0 1
-26.510423 -32.213472 16.695468 44.936054 0.882211 1.190131 0.064752 -0.022396 -275348.000000 0 0 1
-25.717103 -33.168172 16.040168 44.930880 0.911265 1.205746 0.065031 -0.024023 -66048.600000 0 0 1
-26.490003 33.344470 15.337768 45.263905 -0.899458 1.225100 0.063689 -0.032030 -829892.000000 0 0 1
-25.807133 32.638655 14.118768 43.938930 -0.901757 1.243666 0.078035 -0.039339 367657.000000 0 0 1
-24.614413 31.917642 14.381168 42.795130 -0.913874 1.228080 0.066906 -0.033934 936548.000000 0 0 1
-23.447013 32.756365 14.498168 42.812834 -0.949545 1.225324 0.067018 -0.035197 487940.000000 0 0 1
-22.087113 31.985008 14.514868 41.491718 -0.966444 1.213411 0.054615 -0.042843 265792.000000 0 0 1
-21.741513 31.492038 13.281768 40.507372 -0.966555 1.236732 0.034145 -0.031023 -208900.000000 0 0 1
-20.636413 30.623789 13.280968 39.243625 -0.977824 1.225555 0.038888 -0.032851 4808.600000 0 0 1
-20.618913 29.819889 11.931668 38.167133 -0.965833 1.252850 0.035387 -0.035582 310469.000000 0 0 1
-20.191813 30.595999 10.809368 38.218672 -0.987459 1.284054 0.028401 -0.022887 52318.600000 0 0 1
-20.806313 30.029329 9.675368 37.792539 -0.964874 1.311901 0.048377 -0.032827 7989.020000 0 0 1
-20.409613 30.698309 8.383168 37.804973 -0.984056 1.347190 0.044070 -0.029567 -199329.000000 0 0 1
-19.132913 30.321219 7.936668 36.721048 -1.007889 1.352943 0.044117 -0.033717 -408249.000000 0 0 1
-18.868113 30.952269 6.723968 36.868149 -1.023357 1.387391 0.075207 -0.030360 76860.100000 0 0 1
-17.953213 30.081569 5.826268 35.512872 -1.032720 1.405991 0.086078 -0.035864 -45409.400000 0 0 1
-18.503513 28.836109 5.365168 34.679767 -1.000293 1.415466 0.072295 -0.019358 -43829.600000 0 0 1
-18.518813 27.779479 6.356368 33.986016 -0.982815 1.382660 0.051038 -0.013576 355862.000000 0 0 1
-19.644013 26.679569 6.226168 33.711301 -0.936125 1.385039 0.037308 -0.004085 528402.000000 0 0 1
-19.433913 25.951589 5.071568 32.815892 -0.928030 1.415628 0.045186 -0.010668 1022790.000000 0 0 1
-20.602013 25.166289 4.756568 32.869591 -0.884795 1.425576 0.037391 -0.008359 180262.000000 0 0 1
-20.463413 24.584219 3.320068 32.158326 -0.876621 1.467371 0.064865 -0.023498 -1314200.000000 0 0 1
-20.362313 25.629739 2.335668 32.817109 -0.899430 1.499564 0.088979 -0.026681 719470.000000 0 0 1
-19.070313 26.137659 1.940468 32.413261 -0.940473 1.510894 0.100006 -0.027768 1153350.000000 0 0 1
-17.769913 25.246709 1.983568 30.937044 -0.957491 1.506636 0.098361 -0.036205 -433911.000000 0 0 1
-17.637913 24.183529 1.062968 29.951110 -0.940652 1.535299 0.153205 -0.050636 160786.000000 0 0 1
-17.419113 24.592099 -0.298232 30.137780 -0.954507 1.580692 0.142529 -0.049661 -349937.000000 0 0 1
-16.926813 23.411569 -1.146632 28.912512 -0.944793 1.610465 0.150420 -0.058228 -27072.300000 0 0 1
-17.908913 22.380849 -1.228132 28.690415 -0.895940 1.613616 0.163759 -0.070676 523675.000000 0 0 1
-17.513513 21.253349 -2.048132 27.615627 -0.881570 1.645030 0.171149 -0.062397 -157333.000000 0 0 1
-16.322713 20.422749 -1.532032 26.189058 -0.896518 1.629329 0.157165 -0.059018 -155106.000000 0 0 1
-16.628413 19.523549 -0.484032 25.649705 -0.865310 1.589668 0.168023 -0.063467 -89435.800000 0 0 1
-15.513513 18.773749 -0.070232 24.354213 -0.880199 1.573680 0.156079 -0.057058 -160169.000000 0 1 0
-15.862413 17.716949 0.999568 23.801378 -0.840571 1.528788 0.117200 -0.044729 472346.000000 0 1 0
-16.598213 16.613449 0.392468 23.487473 -0.785857 1.554086 0.108080 -0.044987 443754.000000 0 1 0
-17.227513 15.775949 1.302668 23.395827 -0.741444 1.515088 0.136933 -0.062710 -122882.000000 0 1 0
-17.791313 14.468449 0.755568 22.944231 -0.682757 1.537860 0.125013 -0.057387 -230663.000000 0 1 0
-18.995113 14.663949 0.052968 23.996844 -0.657424 1.568589 0.200875 -0.072766 194388.000000 0 1 0
-19.605713 13.416149 -0.299832 23.758513 -0.600110 1.583417 0.207226 -0.066332 -195271.000000 0 1 0
-20.792713 13.616649 -1.300932 24.888601 -0.579795 1.623090 0.204374 -0.065343 779162.000000 0 1 0
-21.682713 12.469649 -1.450432 25.054659 -0.521907 1.628719 0.212275 -0.070417 1208650.000000 0 0 1
-22.466413 12.118549 -0.312532 25.528349 -0.494674 1.583039 0.218703 -0.069221 483460.000000 0 0 1
-23.947313 12.696249 -0.386232 27.107521 -0.487495 1.585045 0.264403 -0.071339 983444.000000 0 0 1
-23.992413 14.101249 -0.067132 27.829582 -0.531354 1.573209 0.280934 -0.077146 -906540.000000 0 0 1
-25.295403 14.383049 0.240168 29.099608 -0.517014 1.562543 0.258981 -0.065713 -1247600.000000 0 0 1
-25.578483 15.805049 0.725868 30.076324 -0.553480 1.546660 0.251044 -0.068144 -426703.000000 0 0 1
-25.376083 15.977249 2.126668 30.062282 -0.561914 1.499995 0.243263 -0.064993 -24190.200000 0 0 1
-25.367143 17.332549 2.581868 30.831400 -0.599408 1.486957 0.205571 -0.055372 861972.000000 0 0 1
-26.784333 18.014749 2.460068 32.372575 -0.592089 1.494731 0.236906 -0.047091 -78970.900000 0 0 1
-27.668893 17.674949 3.442268 33.012432 -0.568463 1.466335 0.241283 -0.057797 109933.000000 0 0 1
-28.903023 18.409549 3.485368 34.444797 -0.567141 1.469436 0.226628 -0.054768 546166.000000 0 0 1
-30.062463 17.984049 2.581168 35.126061 -0.539112 1.497247 0.190956 -0.059187 -132244.000000 0 0 1
-31.200603 18.826349 2.821768 36.549575 -0.542914 1.493516 0.167766 -0.052274 914109.000000 0 0 1
-32.097913 18.929149 1.715668 37.303247 -0.532835 1.524788 0.133714 -0.041161 291990.000000 0 0 1
-33.374863 19.770149 1.823068 38.833798 -0.534788 1.523834 0.136247 -0.042620 -437601.000000 0 0 1
-34.608451 19.104549 1.977268 39.580782 -0.504393 1.520820 0.141654 -0.036614 11990.200000 0 0 1
-35.650301 20.038149 2.175768 40.953698 -0.512067 1.517644 0.158622 -0.033956 -84470.800000 0 0 1
-35.876729 20.624349 3.623368 41.540730 -0.521734 1.483461 0.138032 -0.042594 -949827.000000 0 0 1
-34.825584 21.431849 4.065168 41.093443 -0.551670 1.471709 0.148581 -0.044626 -61811.900000 0 0 1
-35.057100 21.938449 5.332268 41.698068 -0.559169 1.442567 0.142931 -0.037949 -229017.000000 0 0 1
-33.906043 22.860929 5.760968 41.296859 -0.593230 1.430839 0.166873 -0.047072 -267636.000000 0 0 1
-33.770153 23.980909 5.002868 41.719731 -0.617487 1.450591 0.156463 -0.042877 273340.000000 0 0 1
-32.716973 24.797589 5.484068 41.417336 -0.648565 1.437996 0.163819 -0.048138 63198.000000 0 0 1
-33.076353 26.304519 5.461568 42.612223 -0.671848 1.442274 0.172626 -0.045558 -201898.000000 0 0 1
-34.021564 26.731069 6.400268 43.737630 -0.665966 1.423936 0.169327 -0.031468 -213552.000000 0 0 1
-34.581577 27.942439 6.065268 44.871515 -0.679609 1.435212 0.149510 -0.030773 12125.700000 0 0 1
-35.554731 28.427179 7.194368 46.086900 -0.674456 1.414051 0.140600 -0.023339 -473131.000000 0 0 1
-34.923478 28.583769 8.446568 45.913241 -0.685901 1.385774 0.147458 -0.023936 -14075.200000 0 0 1
-35.641792 29.177819 9.510668 47.033342 -0.686004 1.367181 0.158214 -0.018344 175945.000000 0 0 1
-36.943133 28.470219 10.037268 47.708439 -0.656587 1.358825 0.144458 -0.018147 303969.000000 0 0 1
-36.747263 27.187049 10.528768 46.907909 -0.636966 1.344411 0.149391 -0.029821 -550974.000000 0 0 1
-37.834793 26.660539 11.211368 47.623006 -0.613844 1.333147 0.155283 -0.030280 -426736.000000 0 0 1
-37.481093 25.419719 12.052668 46.864285 -0.595946 1.310691 0.157666 -0.021600 258420.000000 0 0 1
-36.450663 25.726659 12.988968 46.467463 -0.614604 1.287494 0.183544 -0.032966 185287.000000 0 0 1
-36.031683 24.681449 13.856768 45.819931 -0.600583 1.263568 0.173153 -0.029472 18238.000000 0 0 1
-34.716591 24.997449 14.612468 45.206619 -0.624052 1.241648 0.182439 -0.028533 105291.000000 0 0 1
-34.819078 26.214049 15.315868 46.196541 -0.645332 1.232864 0.170853 -0.030305 543513.000000 0 0 1
-33.613463 26.518689 16.034668 45.718884 -0.667955 1.212453 0.194043 -0.023889 692850.000000 0 0 1
-33.871903 27.631729 17.104068 46.940040 -0.684284 1.197828 0.192648 -0.030251 -25714.600000 0 0 1
-33.679983 28.878799 16.382768 47.293989 -0.708802 1.217063 0.201808 -0.031727 166757.000000 0 0 1
-33.772513 29.982439 17.273968 48.352035 -0.726021 1.205470 0.170353 -0.025179 -78419.500000 0 0 1
-33.522613 31.266099 16.505268 48.721232 -0.750583 1.225188 0.143684 -0.030753 553538.000000 0 0 1
-32.150423 31.277739 16.090468 47.653434 -0.771640 1.226371 0.123251 -0.021849 500946.000000 0 0 1
-31.790483 32.527081 15.514068 48.055511 -0.796850 1.242072 0.097742 -0.010536 822750.000000 0 0 1
-30.309523 32.578273 14.947168 46.940695 -0.821459 1.246727 0.124591 -0.017328 1065220.000000 0 0 1
-30.093223 31.718328 13.779368 45.842397 -0.811683 1.265494 0.113897 -0.018161 100722.000000 0 0 1
-29.856623 30.320289 14.064868 44.816943 -0.793103 1.251573 0.133570 -0.022243 589713.000000 0 0 1
-30.999473 29.312899 13.593768 44.777270 -0.757441 1.262342 0.170832 -0.023184 849640.000000 0 0 1
-30.994903 29.095099 12.200868 44.227480 -0.753793 1.291306 0.180850 -0.034132 -99257.000000 0 0 1
-31.864433 28.052649 11.817668 44.067567 -0.721866 1.299302 0.173908 -0.027917 -41593.500000 0 0 1
-31.933013 27.813269 10.313368 43.585099 -0.716553 1.331905 0.172657 -0.018620 1036990.000000 0 0 1
-30.718643 27.252009 9.746668 42.205504 -0.725669 1.337759 0.159316 -0.014448 873550.000000 0 0 1
-30.757633 27.396459 8.360468 42.029696 -0.727665 1.370542 0.160700 -0.021926 355706.000000 0 0 1
-29.569033 26.691319 7.660868 40.564062 -0.734293 1.380797 0.190572 -0.029768 293127.000000 0 0 1
-29.334103 27.079139 6.313168 40.418133 -0.745447 1.413958 0.194274 -0.046468 905691.000000 0 0 1
-28.179513 26.353969 5.775368 39.012453 -0.751935 1.422211 0.165503 -0.034311 1123140.000000 0 0 1
-27.825103 26.798159 4.315768 38.871629 -0.766600 1.459541 0.161882 -0.030224 -441606.000000 0 0 1
-27.163803 28.034389 4.305268 39.272567 -0.801169 1.460950 0.125627 -0.028166 193.505000 0 0 1
-26.860393 28.371419 2.970568 39.182170 -0.812749 1.494909 0.116553 -0.024614 -244918.000000 0 0 1
-25.878483 29.573249 2.836268 39.399459 -0.851930 1.498747 0.092946 -0.020566 -370321.000000 0 0 1
-24.587513 29.081859 3.006968 38.201337 -0.868945 1.492001 0.057805 -0.010238 -747108.000000 0 0 1
-23.583213 30.002499 2.622868 38.251762 -0.904625 1.502174 0.051498 -0.000883 1484470.000000 0 0 1
-22.088513 29.542769 2.878568 36.999510 -0.928782 1.492917 0.037600 -0.004415 1420560.000000 0 0 1
-21.130413 30.355159 2.220268 37.052121 -0.962688 1.510838 0.061732 -0.007061 -297287.000000 0 0 1
-19.843213 29.926269 2.588968 36.000520 -0.985288 1.498819 0.084768 -0.024819 93272.900000 0 0 1
-18.654213 30.875339 2.338968 36.148817 -1.027310 1.506047 0.105100 -0.025745 212636.000000 0 0 1
-18.740913 31.995488 3.249268 37.222182 -1.040931 1.483391 0.121019 -0.025484 161009.000000 0 0 1
-17.751413 32.961399 2.941268 37.552864 -1.076785 1.492393 0.146719 -0.033020 -24067.000000 0 0 1
-17.540913 -33.348992 3.981668 37.890534 1.086581 1.465519 0.155454 -0.033833 -592866.000000 0 0 1
-18.660413 -32.548642 4.095368 37.741186 1.050234 1.462070 0.164695 -0.035221 -665950.000000 0 0 1
-18.402813 -31.475392 4.991368 36.800511 1.041723 1.434744 0.148257 -0.059601 202340.000000 0 0 1
-19.497013 -30.361922 5.013268 36.429558 0.999957 1.432743 0.168970 -0.048809 183461.000000 0 0 1
-19.520613 -29.509772 3.878468 35.593869 0.986382 1.461615 0.201347 -0.046140 168815.000000 0 0 1
-20.253713 -28.358472 4.255168 35.107297 0.950601 1.449293 0.208354 -0.053033 -218829.000000 0 0 1
-20.652913 -27.406802 3.086868 34.455832 0.925015 1.481087 0.183445 -0.063107 134946.000000 0 0 1
-19.684213 -26.417402 2.716268 33.056399 0.930424 1.488533 0.204537 -0.068777 75813.700000 0 0 1
-20.055413 -25.603612 1.639668 32.564598 0.906319 1.520424 0.172645 -0.059687 -154483.000000 0 0 1
-19.016413 -24.475222 1.480168 31.029846 0.910259 1.523077 0.133435 -0.040636 370859.000000 0 0 1
-17.765313 -25.079232 1.199468 30.757324 0.954477 1.531789 0.191746 -0.045985 -253218.000000 0 0 1
-16.727113 -24.100322 1.208868 29.361253 0.964067 1.529612 0.162668 -0.041158 393913.000000 0 0 1
-15.482513 -24.524422 0.388768 29.005286 1.007672 1.557393 0.128897 -0.032998 -239701.000000 0 0 1
-15.591713 -24.537822 -1.044332 29.091182 1.004742 1.606703 0.109643 -0.026157 86263.100000 0 0 1
-15.568913 -23.270822 -1.721932 28.051511 0.981158 1.632220 0.110302 -0.029861 -176904.000000 0 0 1
-15.539213 -23.333422 -3.230932 28.219756 0.983281 1.685540 0.061775 -0.011241 739894.000000 0 0 1
-14.343913 -23.963622 -3.736432 28.177366 1.031429 1.703792 0.095696 -0.012219 687002.000000 0 0 1
-14.320413 -23.717222 -5.134032 28.176926 1.027589 1.754027 0.079405 -0.008995 154411.000000 0 0 1
-13.163313 -24.360322 -5.925032 28.316146 1.075385 1.781600 0.105123 -0.019671 98328.800000 0 0 1
-13.266513 -25.770032 -6.003132 29.599536 1.095376 1.775025 0.086475 -0.019723 -412907.000000 0 0 1
-12.231713 -26.325552 -6.754932 29.804003 1.135841 1.799428 0.112158 -0.020808 -178046.000000 0 0 1
25.292587 12.923178 27.507883 39.539943 0.472367 0.801404 0.099705 -0.021386 -103703.000000 0 0 1
25.715387 11.633978 27.880713 39.673224 0.424859 0.791528 0.117273 -0.029079 359151.000000 0 0 1
24.919387 10.986078 28.889713 39.702459 0.415231 0.755899 0.115443 -0.029947 117344.000000 0 0 1
24.949187 11.531378 30.342853 40.940485 0.432949 0.736021 0.134981 -0.050252 -616109.000000 0 0 1
24.043387 12.515478 30.580123 40.863988 0.479942 0.725242 0.113986 -0.041824 -582092.000000 0 0 1
24.078587 12.815478 31.928054 41.993040 0.489102 0.706994 0.116766 -0.046356 -839896.000000 0 0 1
23.034287 13.819178 32.371695 42.065124 0.540375 0.692642 0.096350 -0.041438 -522269.000000 0 0 1
21.732287 13.299878 32.521852 41.314040 0.549187 0.664563 0.094808 -0.034747 -59348.600000 0 0 1
21.052587 14.025578 33.539393 42.009750 0.587691 0.646210 0.094477 -0.025309 54668.900000 0 0 1
19.913987 13.214778 -33.164262 40.878669 0.585872 2.517143 0.094783 -0.018465 -255461.000000 0 0 1
18.764687 13.113478 33.433213 40.519828 0.609946 0.600404 0.088885 -0.010074 -115698.000000 0 0 1
17.765987 12.443678 -33.204082 39.660894 0.611009 2.562939 0.073897 -0.015244 -357358.000000 0 0 1
16.388287 12.445178 33.524983 39.336788 0.649487 0.550515 0.066090 -0.012940 -234366.000000 0 0 1
16.291087 11.433978 32.554019 38.156251 0.611970 0.548751 0.061686 -0.011508 -1583830.000000 0 0 1
15.009987 11.095978 32.251035 37.263248 0.636579 0.524665 0.072641 -0.011483 -1601820.000000 0 0 1
14.881087 10.084978 31.076683 35.901445 0.595605 0.524427 0.077362 -0.013887 12205.200000 0 0 1
15.347687 8.771278 31.404839 36.038184 0.519204 0.512681 0.058363 -0.016243 148549.000000 0 0 1
16.115987 8.238278 30.347483 35.335025 0.472557 0.537776 0.073886 -0.028074 146131.000000 0 0 1
16.518687 6.752778 30.630213 35.449640 0.388066 0.527539 0.091196 -0.032696 -83907.700000 0 0 1
15.384587 5.927378 30.657653 34.809639 0.367753 0.493410 0.085799 -0.027689 -81885.800000 0 0 1
15.651187 4.735078 31.372287 35.377973 0.293784 0.480477 0.102011 -0.041246 -66050.400000 0 0 1
14.417487 3.805478 31.581731 34.924938 0.258063 0.441119 0.087087 -0.032344 307489.000000 0 0 1
14.813787 2.559478 32.113246 35.457859 0.171088 0.437831 0.089729 -0.036035 -195780.000000 0 0 1
13.688387 1.744478 32.265742 35.092638 0.126759 0.404130 0.085966 -0.033626 -514990.000000 0 0 1
14.035387 0.292778 32.774705 35.654720 0.020857 0.404689 0.053973 -0.037350 -233474.000000 0 0 1
14.623887 -0.555222 31.797257 35.003312 -0.037949 0.431338 0.053176 -0.032284 209030.000000 0 0 1
14.898487 -1.873722 32.291110 35.611677 -0.125109 0.435270 0.117968 -0.033783 -421313.000000 0 0 1
15.474987 -2.889122 31.303009 35.038559 -0.184571 0.465967 0.130094 -0.032694 -791817.000000 0 0 1
15.734387 -4.211422 31.768011 35.700329 -0.261527 0.473776 0.139065 -0.033338 806915.000000 0 0 1
16.867887 -4.406622 32.667192 37.028223 -0.255532 0.490231 0.103579 -0.024591 1202840.000000 0 0 1
18.262487 -4.225222 31.977848 37.066881 -0.227360 0.530198 0.117199 -0.034303 -143051.000000 0 0 1
18.609587 -2.896422 31.628178 36.810971 -0.154403 0.537082 0.122802 -0.033825 -126757.000000 0 0 1
19.740787 -2.840822 30.792923 36.687505 -0.142925 0.574747 0.154155 -0.044103 -76472.200000 0 0 1
20.092987 -1.396422 30.467723 36.523420 -0.069386 0.584122 0.147476 -0.047143 -293994.000000 0 0 1
20.416687 -0.616422 31.601760 37.628344 -0.030183 0.573809 0.134411 -0.047533 133596.000000 0 0 1
20.165287 0.726678 31.497781 37.406912 0.036020 0.569759 0.127162 -0.043498 332215.000000 0 0 1
21.446787 1.554578 31.135263 37.838948 0.072359 0.604412 0.133000 -0.032884 408701.000000 0 0 1
21.739987 1.526578 29.735173 36.866488 0.070105 0.632480 0.132813 -0.035199 -370643.000000 0 0 1
22.593387 2.500178 29.218103 37.019043 0.110211 0.661173 0.097858 -0.022970 -496594.000000 0 0 1
22.235887 4.003778 29.124033 36.860198 0.178150 0.659789 0.097257 -0.017373 -268632.000000 0 0 1
22.047787 4.577078 30.415043 37.843485 0.204691 0.637298 0.101400 -0.024969 190073.000000 0 0 1
21.214787 5.709978 30.406303 37.512855 0.262920 0.625694 0.115983 -0.029359 -255056.000000 0 0 1
20.780387 5.965878 31.883207 38.522137 0.279573 0.595872 0.119441 -0.028481 335775.000000 0 0 1
19.549887 5.318378 32.235104 38.073418 0.265614 0.561126 0.112135 -0.020219 656921.000000 0 0 1
19.064887 5.700578 33.505773 38.969261 0.290548 0.535918 0.099683 -0.022909 -195179.000000 0 0 1
17.880587 4.837778 -33.420272 38.210393 0.264234 2.635486 0.103879 -0.025579 -451532.000000 0 0 1
18.163087 3.446678 -33.403342 38.178012 0.187533 2.636101 0.112468 -0.020988 323009.000000 0 0 1
17.057587 2.711978 -32.874932 37.135930 0.157670 2.657848 0.096280 -0.019719 327184.000000 0 0 1
17.197187 1.209978 -33.105642 37.325472 0.070243 2.661485 0.088169 -0.038367 -27002.000000 0 0 1
18.261187 0.634678 -32.338182 37.143395 0.034742 2.627279 0.093650 -0.038034 457173.000000 0 0 1
18.468687 -0.742622 -32.608872 37.483096 -0.040188 2.625922 0.107686 -0.035714 -173565.000000 0 0 1
19.698687 -1.281922 -31.841142 37.463849 -0.064985 2.586623 0.115469 -0.036490 -271949.000000 0 0 1
19.562687 -1.398622 -30.428132 36.201189 -0.071373 2.569054 0.102557 -0.031512 307884.000000 0 0 1
19.590987 -0.134122 -29.706742 35.585324 -0.006846 2.558572 0.084874 -0.019681 -349124.000000 0 0 1
19.250587 -0.220122 -28.197782 34.143059 -0.011434 2.542543 0.072281 -0.016294 640226.000000 0 0 1
17.890087 -0.667722 -28.044142 33.271234 -0.037306 2.573437 0.086700 -0.023993 913720.000000 0 0 1
17.431187 -0.849322 -26.686642 31.886432 -0.048686 2.562442 0.081424 -0.025969 323166.000000 0 0 1
18.197987 -1.881822 -25.731002 31.572020 -0.103042 2.523515 0.086229 -0.023752 420430.000000 0 0 1
19.478187 -1.401022 -25.247062 31.918283 -0.071804 2.483223 0.076158 -0.022457 625812.000000 0 0 1
20.349487 -2.486822 -25.106532 32.413329 -0.121603 2.456838 0.053919 -0.017928 170441.000000 0 0 1
21.070287 -3.016222 -26.408342 33.918360 -0.142185 2.463205 0.074298 -0.029295 -816675.000000 0 0 1
21.980887 -2.085522 -26.914672 34.812475 -0.094596 2.454562 0.075607 -0.017634 -498746.000000 0 0 1
22.463587 -2.532622 -28.125382 36.084125 -0.112269 2.464567 0.079271 -0.025786 -548496.000000 0 0 1
23.845987 -2.000322 -28.496752 37.211521 -0.083689 2.443088 0.056408 -0.027518 -130752.000000 0 0 1
24.891087 -2.886722 -28.161452 37.695713 -0.115458 2.414444 0.052222 -0.031775 -653707.000000 0 0 1
26.162587 -2.321922 -28.233512 38.561684 -0.088518 2.392291 0.045054 -0.025606 -416191.000000 0 0 1
27.262687 -3.289922 -27.792182 39.070233 -0.120094 2.362198 0.069077 -0.021176 -462104.000000 0 0 1
27.531587 -4.345622 -28.722452 40.023143 -0.156550 2.371213 0.100731 -0.035243 169439.000000 0 0 1
28.797187 -4.938822 -28.539732 40.843436 -0.169851 2.344458 0.111258 -0.038962 -242762.000000 0 0 1
28.978087 -6.012722 -27.441312 40.359732 -0.204589 2.318447 0.112504 -0.032487 -315350.000000 0 0 1
28.763787 -5.551722 -26.122522 39.250009 -0.190666 2.299016 0.091198 -0.015490 304025.000000 0 0 1
28.770487 -6.619022 -25.194142 38.811045 -0.226128 2.277261 0.066944 -0.013448 -134397.000000 0 0 1
28.971487 -6.269622 -23.703632 37.954149 -0.213120 2.245330 0.052073 -0.000673 -298138.000000 0 0 1
30.305087 -6.164222 -23.294532 38.717324 -0.200668 2.216370 0.057118 -0.002564 -138001.000000 0 0 1
30.346787 -5.767022 -21.969532 37.905757 -0.187798 2.189013 0.058860 -0.009917 11000.100000 0 0 1
31.756987 -5.309922 -21.527432 38.731536 -0.165672 2.160135 0.076207 -0.012226 -25601.300000 0 0 1
32.171287 -4.115122 -22.142832 39.271249 -0.127222 2.169828 0.097708 -0.015567 -475835.000000 0 0 1
33.468987 -3.722422 -21.847332 40.141443 -0.110765 2.146302 0.119115 -0.012984 -431455.000000 0 0 1
33.958787 -2.370422 -22.436732 40.770395 -0.069690 2.153543 0.125281 -0.018035 10027.400000 0 0 1
33.414187 -1.244122 -21.794832 39.913287 -0.037216 2.148444 0.110266 -0.017627 105061.000000 0 0 1
33.873987 -0.029422 -22.333132 40.573596 -0.000869 2.153682 0.103528 -0.013081 -27199.400000 0 0 1
32.853887 1.109278 -22.037232 39.575851 0.033751 2.161367 0.093220 -0.014099 -224284.000000 0 0 1
31.722787 0.873478 -22.841132 39.100071 0.027528 2.194655 0.089142 -0.013762 -613569.000000 0 0 1
30.741487 1.799378 -22.457932 38.113456 0.058466 2.200913 0.085720 -0.013437 -88888.200000 0 0 1
29.471287 1.622478 -23.344232 37.631667 0.054997 2.239966 0.067792 -0.013303 550263.000000 0 0 1
28.413387 2.545778 -23.049432 36.675303 0.089359 2.250385 0.064187 -0.008396 539526.000000 0 0 1
27.408887 2.548478 -24.069332 36.566031 0.092713 2.289279 0.091251 -0.018044 223543.000000 0 0 1
26.242487 3.453178 -23.604432 35.464938 0.130836 2.299055 0.085394 -0.017052 -382688.000000 0 0 1
26.616087 4.839178 -23.439932 35.794751 0.179849 2.284771 0.080964 -0.007836 359739.000000 0 0 1
25.550287 5.749678 -23.226932 35.005233 0.221347 2.296320 0.087879 -0.014742 -255472.000000 0 0 1
26.084287 7.072078 -22.757432 35.331361 0.264759 2.270661 0.106239 -0.010285 -265152.000000 0 0 1
26.869887 7.795278 -23.664432 36.643725 0.282361 2.272864 0.110354 -0.011813 126630.000000 0 0 1
27.245887 9.063678 -23.103032 36.854290 0.321146 2.248332 0.130811 -0.017464 -531722.000000 0 0 1
28.218787 9.806578 -23.970532 38.302158 0.334463 2.246988 0.161535 -0.017258 -671457.000000 0 0 1
27.747787 10.008878 -25.275312 38.845318 0.346183 2.279257 0.169121 -0.031185 404153.000000 0 0 1
26.777187 11.035978 -25.446632 38.553102 0.390929 2.291670 0.168862 -0.031655 186435.000000 0 0 1
26.635687 11.537878 -26.913452 39.584295 0.408773 2.318426 0.158547 -0.021039 -262502.000000 0 0 1
26.142587 10.558678 -27.816142 39.606291 0.383854 2.349442 0.138127 -0.023571 624571.000000 0 0 1
27.152687 9.735378 -28.405792 40.483763 0.344264 2.348519 0.143400 -0.033265 784813.000000 0 0 1
28.137887 10.383778 -29.468362 42.046973 0.353528 2.347376 0.149032 -0.032272 -188612.000000 0 0 1
29.131987 11.282778 -28.939912 42.585118 0.369509 2.317984 0.148732 -0.025562 1386370.000000 0 0 1
30.135487 11.676178 -29.892372 44.023115 0.369646 2.317217 0.161993 -0.028649 769458.000000 0 0 1
31.042387 10.601678 -30.560312 44.832556 0.329103 2.320818 0.128862 -0.034711 -562817.000000 0 0 1
30.373387 9.789878 -31.564282 44.885279 0.311804 2.350715 0.116759 -0.038182 575332.000000 0 0 1
30.915287 8.450878 -31.562282 44.981663 0.266837 2.348535 0.104351 -0.033491 -427176.000000 0 0 1
30.071887 7.582078 -32.441062 44.880161 0.246984 2.378696 0.108317 -0.044560 800887.000000 0 0 1
28.869587 7.235078 -31.683582 43.470091 0.245555 2.387451 0.118915 -0.045165 1153810.000000 0 0 1
27.884787 6.607678 -32.518712 43.343851 0.232672 2.419236 0.092440 -0.036035 169359.000000 0 0 1
26.598287 6.306278 -31.724922 41.877306 0.232795 2.430376 0.104721 -0.027537 -604095.000000 0 0 1
25.857687 7.472878 -31.504872 41.436951 0.281335 2.434584 0.139752 -0.032168 -27032.100000 0 0 1
24.806987 7.439978 -30.568842 40.064872 0.291378 2.438713 0.140934 -0.034751 262047.000000 0 0 1
23.393387 7.166178 -31.133502 39.596712 0.297257 2.475537 0.140951 -0.035801 -136407.000000 0 0 1
22.939487 8.139878 -32.020252 40.221564 0.340981 2.491614 0.129855 -0.032302 1112920.000000 0 0 1
21.498387 8.093178 -32.179612 39.537421 0.360046 2.521634 0.115059 -0.025388 1353170.000000 0 0 1
21.010887 9.168978 -33.205832 40.350401 0.411480 2.537357 0.117356 -0.026712 -89775.900000 0 0 1
21.486887 8.837378 32.881753 40.261585 0.390203 0.615122 0.109349 -0.036169 42237.900000 0 0 1
21.423387 9.920078 32.002076 39.768107 0.433652 0.635598 0.099174 -0.034601 7614.250000 0 0 1
20.109787 10.139178 31.208783 38.486291 0.466995 0.625097 0.091123 -0.030251 44419.000000 0 0 1
19.816787 9.242478 30.118813 37.219233 0.436405 0.627961 0.089346 -0.030733 -190617.000000 0 0 1
20.734087 9.173678 29.058473 36.857205 0.416553 0.662581 0.105061 -0.027442 -1068490.000000 0 0 1
20.527287 10.084478 27.797263 35.996583 0.456641 0.688469 0.088857 -0.021305 -146118.000000 0 0 1
19.436287 9.760178 26.994013 34.665646 0.465376 0.678211 0.109126 -0.018603 -233648.000000 0 0 1
18.164587 10.068178 27.487203 34.450932 0.506119 0.647051 0.109692 -0.033370 -858975.000000 0 0 1
16.961987 9.377478 26.838853 33.105439 0.505031 0.625435 0.119573 -0.029127 -583741.000000 0 0 1
16.844187 9.756678 25.467563 32.054893 0.525008 0.652615 0.129389 -0.025251 988137.000000 0 0 1
15.741187 9.143878 24.739193 30.715194 0.526249 0.634382 0.144162 -0.026670 802150.000000 0 0 1
15.788087 7.622478 24.523343 30.145650 0.449793 0.620659 0.149583 -0.033910 -142012.000000 0 0 1
15.636287 6.841378 25.707823 30.857577 0.412437 0.586086 0.138048 -0.034715 156201.000000 0 0 1
15.506687 5.406378 25.521543 30.348565 0.335470 0.571765 0.151894 -0.041364 -27484.500000 0 0 1
15.893987 4.684178 26.866813 31.565582 0.286600 0.552638 0.111654 -0.034164 200296.000000 0 0 1
17.292187 4.828078 27.124743 32.528168 0.272272 0.584687 0.114723 -0.030271 678507.000000 0 0 1
17.567287 4.201778 28.366863 33.629502 0.234771 0.567009 0.105188 -0.029391 -150233.000000 0 0 1
17.999287 2.714178 28.296343 33.645566 0.149666 0.571644 0.115759 -0.027548 -424298.000000 0 0 1
16.879087 1.921078 28.007413 32.756820 0.113326 0.545226 0.102063 -0.035933 188271.000000 0 0 1
16.250787 1.294178 29.079333 33.337225 0.079470 0.510955 0.099011 -0.038661 -76366.500000 0 0 1
16.719487 -0.189622 29.170753 33.623058 -0.011341 0.520478 0.107622 -0.037260 -201889.000000 0 0 1
16.236087 -1.020522 28.083133 32.454804 -0.062773 0.525048 0.105416 -0.030062 315118.000000 0 0 1
16.829587 -0.925822 26.792753 31.653495 -0.054956 0.561535 0.127378 -0.021078 -1108640.000000 0 0 1
18.084087 -1.709922 26.525543 32.149066 -0.094274 0.600453 0.107907 -0.020669 256004.000000 0 0 1
19.301987 -1.398422 27.224863 33.402327 -0.072323 0.617966 0.121333 -0.026165 772759.000000 0 0 1
20.082187 -0.320222 26.692413 33.404815 -0.015944 0.645068 0.122734 -0.018011 447523.000000 0 0 1
21.580887 -0.510822 27.115303 34.658841 -0.023666 0.672368 0.095818 -0.009476 449230.000000 0 0 1
22.271487 -1.409422 26.270483 34.469463 -0.063199 0.704187 0.082828 -0.012206 -2002170.000000 0 0 1
23.592587 -1.297122 26.557563 35.547107 -0.054925 0.727094 0.078692 -0.014222 -2004920.000000 0 0 1
24.357187 -1.805922 25.340003 35.194455 -0.074008 0.766994 0.076746 -0.006271 -463341.000000 0 0 1
24.210187 -0.878422 24.224803 34.259974 -0.036267 0.785425 0.096818 0.009027 153881.000000 0 0 1
24.362187 -1.581922 22.983243 33.529809 -0.064842 0.815565 0.094743 0.013781 16398.000000 0 0 1
24.090487 -0.693022 21.716933 32.441594 -0.028760 0.837373 0.101303 0.000004 -644989.000000 0 0 1
22.775987 -0.277122 21.617933 31.403143 -0.012167 0.811515 0.070731 0.008321 -906154.000000 0 0 1
22.399087 0.486578 20.524933 30.384679 0.021720 0.829150 0.080005 0.011041 -55218.700000 0 0 1
-31.706173 -26.869993 -9.550532 42.643764 0.703023 1.796673 0.088806 -0.009017 -45609.900000 0 0 1
-31.735853 -25.625893 -8.857432 41.740926 0.679282 1.784622 0.087130 -0.002177 -306043.000000 0 0 1
-32.282943 -25.724793 -7.569032 41.967174 0.672820 1.752145 0.116189 -0.014491 -611559.000000 0 0 1
-32.377323 -24.380093 -6.875032 41.108954 0.645418 1.738825 0.148142 -0.024767 43387.900000 0 0 1
-31.191353 -23.718493 -6.514732 39.722905 0.650136 1.735545 0.146936 -0.024597 -545767.000000 0 0 1
-30.333323 -24.451593 -5.655332 39.369705 0.678447 1.714942 0.150133 -0.033586 338612.000000 0 0 1
-29.051353 -23.639593 -5.228032 37.817242 0.683049 1.709485 0.127832 -0.038407 181423.000000 0 0 1
-29.230453 -22.733493 -4.192032 37.266664 0.661015 1.683522 0.142284 -0.026752 505598.000000 0 0 1
-30.121183 -21.612693 -4.380932 37.330775 0.622391 1.688422 0.153932 -0.026674 217643.000000 0 0 1
-30.001313 -20.500293 -3.275132 36.483795 0.599439 1.660687 0.149065 -0.032630 321612.000000 0 0 1
-28.831033 -19.667293 -3.299232 35.055896 0.598650 1.665049 0.164443 -0.039327 775339.000000 0 0 1
-28.943263 -18.502193 -2.487732 34.441725 0.568786 1.643089 0.176927 -0.026869 -422166.000000 0 0 1
-27.833923 -17.503393 -2.807132 32.999637 0.561364 1.655965 0.174344 -0.024234 -190846.000000 0 0 1
-27.989463 -16.843293 -4.092732 32.921984 0.541722 1.695435 0.161184 -0.033817 -308251.000000 0 0 1
-27.026923 -15.858393 -4.183032 31.613936 0.530629 1.703502 0.135250 -0.032273 -460835.000000 0 0 1
-27.307233 -14.879193 -5.338632 31.552755 0.498905 1.740811 0.142983 -0.035281 32649.500000 0 0 1
-28.509263 -14.221593 -4.986432 32.247423 0.462720 1.726050 0.118891 -0.015525 11286.600000 0 0 1
-28.784833 -13.285993 -5.985532 32.263150 0.432427 1.757400 0.137931 -0.036643 -70562.100000 0 0 1
-30.195533 -12.643693 -5.893932 33.262165 0.396546 1.748933 0.124133 -0.031411 -139374.000000 0 0 1
-31.150473 -13.443493 -6.511232 34.546717 0.407419 1.760407 0.111051 -0.024947 -148523.000000 0 0 1
-32.389363 -12.752693 -6.688332 35.446238 0.375090 1.760624 0.127768 -0.024125 428178.000000 0 0 1
-33.365553 -13.701493 -7.442132 36.829016 0.389652 1.774270 0.086455 -0.023852 -510884.000000 0 0 1
-34.090214 -14.625993 -6.715832 37.698339 0.405286 1.749899 0.075957 -0.013364 79339.100000 0 0 1
-34.791367 -15.439393 -7.602032 38.815010 0.417662 1.767923 0.075813 -0.010075 -769483.000000 0 0 1
-35.690629 -16.529893 -6.940432 39.940305 0.433730 1.745453 0.085311 -0.019916 197640.000000 0 0 1
-37.076933 -16.290093 -6.803432 41.065226 0.413970 1.737238 0.109192 -0.029889 288514.000000 0 0 1
-37.344053 -15.500193 -5.683332 40.830559 0.393425 1.710443 0.130030 -0.027905 -448560.000000 0 0 1
37.348411 -15.166193 -5.579432 40.694561 -0.385731 1.708335 0.210068 -0.039905 -281530.000000 0 0 1
36.787631 -14.278793 -6.580832 40.006513 -0.370242 1.736041 0.212006 -0.044675 240667.000000 0 0 1
35.416641 -14.329893 -6.854932 38.815904 -0.384473 1.748329 0.233361 -0.037181 -76851.300000 0 0 1
34.432571 -13.784593 -5.802332 37.540431 -0.380796 1.725981 0.258470 -0.050490 -486973.000000 0 0 1
34.320081 -14.607593 -4.649832 37.588172 -0.402403 1.694819 0.248633 -0.058819 635120.000000 0 0 1
33.459021 -14.020193 -3.660132 36.461877 -0.396800 1.671348 0.298635 -0.054951 -520519.000000 0 0 1
33.304791 -14.784593 -2.306632 36.511831 -0.417785 1.634013 0.287164 -0.053239 -821530.000000 0 0 1
34.399831 -14.745593 -1.415432 37.453762 -0.404961 1.608597 0.296578 -0.046007 196742.000000 0 0 1
35.576221 -15.401693 -1.854632 38.811329 -0.408561 1.618600 0.248290 -0.044828 -591241.000000 0 0 1
35.502871 -16.930593 -2.126932 39.390642 -0.444981 1.624818 0.208447 -0.043348 -1320740.000000 0 0 1
35.363391 -17.670593 -0.939832 39.543679 -0.463396 1.594566 0.184654 -0.038259 230786.000000 0 0 1
35.449661 -19.107793 -1.180932 40.288718 -0.494368 1.600112 0.145020 -0.028961 700702.000000 0 0 1
36.701811 -19.730893 -1.937432 41.714322 -0.493273 1.617258 0.113182 -0.044888 481892.000000 0 0 1
36.767481 -19.295893 -3.253732 41.650521 -0.483297 1.648996 0.089044 -0.042891 -521230.000000 0 0 1
37.631681 -20.007093 -4.049532 42.811516 -0.488650 1.665528 0.110938 -0.034819 -366909.000000 0 0 1
38.001451 -19.489893 -5.460632 43.055600 -0.473892 1.697966 0.152153 -0.040115 839264.000000 0 0 1
36.821511 -19.570093 -6.299232 42.172177 -0.488517 1.720727 0.122880 -0.050044 1152560.000000 0 0 1
36.811561 -18.479593 -7.182932 41.811253 -0.465250 1.743447 0.148513 -0.049559 -227042.000000 0 0 1
35.514611 -18.515993 -8.018632 40.846396 -0.480591 1.768392 0.164690 -0.054148 -67969.100000 0 0 1
35.362341 -19.598093 -8.983732 41.416034 -0.506068 1.789449 0.170036 -0.055620 661504.000000 0 0 1
34.068271 -19.598293 -9.581932 40.454340 -0.522034 1.809927 0.163571 -0.066101 199001.000000 0 0 1
33.889251 -20.691293 -10.697732 41.122408 -0.548145 1.833967 0.143446 -0.050102 -125976.000000 0 0 1
33.842431 -21.991693 -10.095432 41.603635 -0.576253 1.815901 0.122663 -0.054915 300820.000000 0 0 1
33.376271 -23.042493 -11.001132 42.023289 -0.604244 1.835669 0.098789 -0.049456 -258789.000000 0 0 1
32.855691 -24.222993 -10.166932 42.066808 -0.635294 1.814899 0.098865 -0.037746 -310950.000000 0 0 1
31.548981 -23.896093 -9.765532 40.764287 -0.648238 1.812710 0.101857 -0.043088 -324732.000000 0 0 1
30.899701 -25.053893 -9.246132 40.840911 -0.681300 1.799170 0.050283 -0.021934 -379365.000000 0 0 1
29.514901 -24.699793 -8.700932 39.457767 -0.696815 1.793136 0.033853 -0.021874 -54914.400000 0 0 1
28.634701 -24.314693 -9.749932 38.809942 -0.703991 1.824739 0.043526 -0.025147 350763.000000 0 0 1
27.314301 -24.004093 -9.320132 37.538412 -0.720984 1.821703 0.067336 -0.037094 545778.000000 0 0 1
26.391101 -23.457993 -10.437832 36.820049 -0.726626 1.858220 0.146530 -0.050472 34584.100000 0 0 1
25.800401 -24.453193 -11.327132 37.308488 -0.758596 1.879273 0.111841 -0.037717 383606.000000 0 0 1
25.139501 -23.770893 -12.377832 36.745892 -0.757424 1.914365 0.127165 -0.029377 26517.200000 0 0 1
24.213601 -24.776793 -13.093532 37.035504 -0.796894 1.932149 0.126620 -0.041685 154526.000000 0 0 1
24.978601 -25.740893 -13.790232 38.427784 -0.800427 1.937844 0.141299 -0.035588 98013.800000 0 0 1
24.182801 -26.853093 -13.955832 38.738375 -0.837672 1.939341 0.141726 -0.023818 -164195.000000 0 0 1
24.934301 -28.083793 -14.566432 40.281506 -0.844733 1.940797 0.135693 -0.031805 34728.700000 0 0 1
25.210701 -28.082593 -15.949432 40.970671 -0.839235 1.970656 0.152692 -0.024475 370688.000000 0 0 1
25.486501 -29.431293 -16.327432 42.217861 -0.857106 1.967893 0.139487 -0.025277 -206202.000000 0 0 1
25.333901 -29.511493 -17.882032 42.807731 -0.861422 2.001741 0.140735 -0.027606 -685562.000000 0 0 1
24.022501 -29.381293 -18.309532 42.137631 -0.885408 2.020299 0.147595 -0.029438 -686492.000000 0 0 1
23.851601 -29.861693 -19.589332 42.946030 -0.896827 2.044447 0.139323 -0.020613 504171.000000 0 0 1
22.475401 -29.426593 -20.197432 42.178245 -0.918535 2.070151 0.119012 -0.016864 541911.000000 0 0 1
22.300701 -29.891593 -21.531332 43.063057 -0.929826 2.094390 0.091644 -0.015113 -531168.000000 0 0 1
20.959801 -29.706093 -21.860132 42.422053 -0.956340 2.112155 0.094178 -0.024804 -786239.000000 0 0 1
20.708801 -29.854993 -23.386632 43.210064 -0.964347 2.142697 0.092993 -0.023361 -379754.000000 0 0 1
21.189501 -28.761693 -24.122732 43.106104 -0.935845 2.164715 0.095957 -0.026251 379412.000000 0 0 1
21.153101 -28.988393 -25.510882 44.029374 -0.940408 2.188796 0.102665 -0.023627 -445990.000000 0 0 1
21.810101 -27.857493 -26.319652 44.095856 -0.906559 2.210395 0.110436 -0.031642 318856.000000 0 0 1
21.010001 -26.698593 -26.647332 43.177718 -0.904074 2.235918 0.117267 -0.041312 780925.000000 0 0 1
19.881501 -26.944193 -27.502382 43.331797 -0.935099 2.258407 0.117356 -0.040883 108106.000000 0 0 1
19.075901 -25.685993 -27.853512 42.420259 -0.932011 2.287110 0.108458 -0.037598 -472565.000000 0 0 1
18.087801 -25.459193 -26.888592 41.210866 -0.953083 2.281627 0.083126 -0.021759 -252441.000000 0 0 1
17.562901 -24.114693 -27.141602 40.331632 -0.941324 2.309001 0.076370 -0.013911 856587.000000 0 0 1
16.358101 -23.809693 -26.178302 38.984516 -0.968825 2.307034 0.072670 -0.005244 1123790.000000 0 0 1
15.160401 -24.585993 -26.309592 39.070494 -1.018240 2.309578 0.112933 -0.024958 905812.000000 0 0 1
14.044601 -24.267093 -25.466962 37.877550 -1.046148 2.308175 0.087871 -0.018002 785039.000000 0 0 1
14.204501 -24.573693 -23.932932 37.127072 -1.046683 2.271325 0.074671 -0.014003 -88265.600000 0 0 1
15.161201 -23.691993 -23.353332 36.558866 -1.001533 2.263717 0.046375 -0.002521 -136877.000000 0 0 1
15.455401 -24.099193 -22.021232 36.118904 -1.000544 2.226462 0.052604 -0.018575 5771.610000 0 0 1
16.715401 -23.347593 -21.571332 35.914302 -0.949454 2.215090 0.054640 -0.024608 -138415.000000 0 0 1
16.501201 -22.063493 -21.010032 34.648360 -0.928643 2.222295 0.042324 -0.024139 -479622.000000 0 0 1
17.725101 -21.472593 -20.685032 34.686049 -0.880713 2.209743 0.046130 -0.021601 -599180.000000 0 0 1
17.560501 -20.021593 -20.117032 33.375596 -0.850791 2.217735 0.059830 -0.011591 279274.000000 0 0 1
16.904101 -20.030793 -18.832332 32.274418 -0.869851 2.193836 0.058562 -0.010512 -87343.800000 0 0 1
15.523501 -19.887193 -19.016932 31.593089 -0.908011 2.216716 0.068549 -0.015801 -405215.000000 0 0 1
14.586701 -19.548093 -17.809532 30.200650 -0.929735 2.201492 0.069504 -0.019254 338168.000000 0 0 1
14.606701 -18.234693 -17.212832 29.019672 -0.895422 2.205754 0.098735 -0.026936 -242706.000000 0 0 1
13.732201 -18.338093 -16.135132 28.021447 -0.928041 2.184395 0.104231 -0.037790 -403162.000000 0 0 1
13.675001 -17.070893 -15.314032 26.700948 -0.895403 2.181616 0.112544 -0.037279 -138023.000000 0 0 1
12.366601 -16.629993 -15.023632 25.596856 -0.931383 2.198061 0.111883 -0.047060 -1032.140000 0 0 1
12.440001 -15.398593 -14.359832 24.455574 -0.891277 2.198367 0.094790 -0.045427 -183346.000000 0 1 0
11.083001 -14.750993 -14.022432 23.174411 -0.926439 2.220666 0.104723 -0.035787 -565842.000000 0 1 0
10.338301 -14.507893 -15.152632 23.387212 -0.951665 2.275624 0.138069 -0.027883 -916046.000000 0 1 0
9.213101 -13.779093 -14.768932 22.200586 -0.981436 2.298625 0.137091 -0.030675 -267145.000000 0 1 0
8.414701 -13.144193 -15.953932 22.318265 -1.001353 2.367188 0.113535 -0.021404 146947.000000 0 1 0
8.915801 -11.974293 -16.605932 22.330074 -0.930774 2.409321 0.103007 -0.014780 492696.000000 0 1 0
10.022001 -12.217593 -17.504432 23.582096 -0.883804 2.407257 0.129876 -0.018399 616000.000000 0 1 0
10.536901 -11.125693 -18.417732 23.958719 -0.812572 2.447646 0.130002 -0.019977 -388650.000000 0 1 0
9.942301 -11.058693 -19.638832 24.633875 -0.838507 2.493487 0.139259 -0.023617 -105436.000000 0 1 0
10.190101 -9.792293 -20.241932 24.687304 -0.765493 2.532090 0.125559 -0.037418 53153.400000 0 1 0
10.018301 -9.693993 -21.781732 25.860853 -0.768948 2.572271 0.124026 -0.034795 215073.000000 0 0 1
11.104701 -10.279593 -22.483532 27.101543 -0.746833 2.549193 0.097679 -0.031457 -40407.700000 0 0 1
10.943801 -10.211593 -23.863932 28.169677 -0.750801 2.581394 0.090593 -0.024147 -466215.000000 0 0 1
12.029801 -11.039693 -24.485032 29.429709 -0.742506 2.553470 0.126432 -0.023101 -613793.000000 0 0 1
11.862301 -12.420493 -24.323432 29.776034 -0.808381 2.526777 0.109898 -0.025705 77519.900000 0 0 1
12.978001 -13.203393 -24.697832 30.866503 -0.794007 2.498342 0.086923 -0.027011 -36256.400000 0 0 1
12.747301 -14.621993 -24.141932 30.969812 -0.853788 2.464713 0.078342 -0.026517 322493.000000 0 0 1
11.738301 -15.327093 -24.856232 31.472842 -0.917226 2.481226 0.080668 -0.029538 -11438.800000 0 0 1
11.572301 -16.664193 -24.423132 31.750636 -0.963811 2.448411 0.070735 -0.029526 269622.000000 0 0 1
10.316901 -17.364693 -24.988432 32.130869 -1.034704 2.461808 0.082672 -0.029554 133403.000000 0 0 1
10.532601 -17.771193 -26.321602 33.460092 -1.035778 2.476171 0.078337 -0.037720 -484436.000000 0 0 1
9.499001 -18.544993 -26.857472 33.992229 -1.097426 2.481779 0.091891 -0.039141 -582927.000000 0 0 1
9.739901 -19.488893 -28.102402 35.558792 -1.107335 2.482108 0.090514 -0.040659 -139869.000000 0 0 1
10.766701 -20.437793 -27.856822 36.188780 -1.085937 2.449268 0.080534 -0.038706 105409.000000 0 0 1
10.603401 -21.498793 -28.723622 37.412253 -1.112596 2.446134 0.087013 -0.039406 1113300.000000 0 0 1
11.821401 -22.525993 -28.536202 38.229318 -1.087515 2.413505 0.066267 -0.026766 1047150.000000 0 0 1
11.846601 -23.458193 -29.585282 39.571678 -1.103149 2.415294 0.073068 -0.025748 212677.000000 0 0 1
12.496201 -24.720193 -29.323052 40.337134 -1.102754 2.384665 0.097464 -0.025367 522781.000000 0 0 1
11.591401 -25.711393 -28.497522 40.094203 -1.147255 2.361380 0.086047 -0.025560 408047.000000 0 0 1
11.277001 -25.120593 -27.299892 38.774980 -1.148845 2.351894 0.092414 -0.027895 -736542.000000 0 0 1
10.552001 -25.864993 -26.367492 38.413373 -1.183443 2.327343 0.084149 -0.026620 -213088.000000 0 0 1
9.720701 -24.981993 -25.434262 36.952588 -1.199714 2.329932 0.070814 -0.021315 -566566.000000 0 0 1
10.439501 -24.047393 -24.696832 36.016577 -1.161225 2.326371 0.077054 -0.016045 -268314.000000 0 0 1
9.781201 -22.757793 -24.620132 34.924776 -1.164871 2.353145 0.075580 -0.014843 177249.000000 0 0 1
10.807201 -21.581893 -24.583432 34.451689 -1.106546 2.365366 0.092444 -0.011752 333699.000000 0 0 1
11.592301 -21.494993 -23.425032 33.840040 -1.076203 2.335368 0.085215 -0.012583 -346306.000000 0 0 1
12.474601 -20.417693 -23.466432 33.513748 -1.022350 2.346478 0.083078 -0.019638 -1055050.000000 0 0 1
13.222401 -20.281393 -22.175832 32.831910 -0.993053 2.312351 0.066140 -0.014941 -486531.000000 0 0 1
12.568801 -19.873093 -20.975032 31.509785 -1.006855 2.299184 0.054618 -0.011332 39538.300000 0 0 1
11.928701 -18.557793 -21.017232 30.469815 -0.999509 2.331971 0.061598 -0.012085 211503.000000 0 0 1
12.867601 -17.434793 -20.556432 29.868279 -0.934993 2.329851 0.076420 -0.014462 -39339.900000 0 0 1
13.934901 -17.339093 -21.474132 30.918667 -0.893822 2.338571 0.066512 -0.005555 -392846.000000 0 0 1
14.874201 -16.351493 -21.083032 30.546807 -0.832673 2.332545 0.078480 -0.018562 174639.000000 0 0 1
16.057701 -16.186893 -22.059332 31.725060 -0.789405 2.339673 0.059752 -0.007046 -509245.000000 0 0 1
16.946501 -17.246393 -21.985532 32.680049 -0.794169 2.308717 0.048467 0.000032 404005.000000 0 0 1
18.038401 -17.083093 -22.925132 33.804995 -0.758205 2.316050 0.054686 0.004268 905520.000000 0 0 1
19.466501 -17.255593 -22.370832 34.309682 -0.725264 2.281051 0.049838 0.003102 89834.400000 0 0 1
19.906701 -18.526893 -21.950432 34.947732 -0.749513 2.249897 0.053936 -0.010535 -49204.900000 0 0 1
21.269801 -18.497793 -21.564032 35.490566 -0.715806 2.223830 0.040110 -0.014615 242548.000000 0 0 1
21.809801 -19.925393 -21.435332 36.498797 -0.740277 2.198501 0.070092 -0.032647 -198343.000000 0 0 1
21.286501 -20.602393 -20.328032 35.927742 -0.769068 2.172203 0.066345 -0.033079 -1177.140000 0 0 1
21.650401 -21.984193 -20.255732 36.909881 -0.793048 2.151711 0.100390 -0.038413 -116432.000000 0 0 1
-17.478313 13.243978 28.585593 36.028190 -0.648435 0.654384 0.111206 -0.041043 -281517.000000 0 0 1
-18.828813 13.491478 28.281023 36.556264 -0.621736 0.686246 0.103052 -0.050608 -153931.000000 0 0 1
-18.957813 13.222078 26.896783 35.463487 -0.609011 0.709886 0.112230 -0.051902 1835.630000 0 0 1
-20.151613 13.918178 26.225623 35.882955 -0.604439 0.751207 0.143160 -0.046172 -85065.800000 0 0 1
-19.973113 15.295878 26.211953 36.331193 -0.653551 0.764870 0.134308 -0.042490 316566.000000 0 0 1
-21.046513 15.996378 25.578333 36.784384 -0.649901 0.801878 0.132971 -0.041628 -272904.000000 0 0 1
-21.082913 17.545778 25.748123 37.620597 -0.694085 0.816995 0.118394 -0.026293 603177.000000 0 0 1
-19.942913 18.353078 25.367053 37.121996 -0.743908 0.818465 0.107326 -0.025350 1729880.000000 0 0 1
-18.828313 18.337278 26.319373 37.195033 -0.772187 0.784694 0.102586 -0.019378 1121250.000000 0 0 1
-17.549713 19.074178 25.847993 36.605128 -0.826999 0.786778 0.097052 -0.018501 143966.000000 0 0 1
-17.609113 20.486478 25.923043 37.440363 -0.860785 0.806011 0.104544 -0.017124 294377.000000 0 0 1
-16.593713 21.087078 25.120863 36.756957 -0.904086 0.818343 0.115909 -0.024517 274249.000000 0 0 1
-16.689213 22.628678 25.079723 37.677306 -0.935327 0.842438 0.117509 -0.022084 -142823.000000 0 0 1
-16.271713 23.370278 26.210793 38.703284 -0.962587 0.826813 0.112254 -0.023764 57570.700000 0 0 1
-16.488713 24.732378 25.905373 39.429133 -0.982781 0.853949 0.105902 -0.028685 -79891.900000 0 0 1
-15.908313 25.713978 26.963093 40.512855 -1.016766 0.842574 0.091783 -0.017425 154770.000000 0 0 1
-14.502513 25.790478 26.889983 39.981781 -1.058543 0.833139 0.097254 -0.028948 44682.100000 0 0 1
-13.853113 26.660578 27.824743 40.950109 -1.091584 0.823744 0.109369 -0.020214 506772.000000 0 0 1
-12.314913 26.573278 27.952583 40.486332 -1.136828 0.808727 0.115314 -0.028540 432091.000000 0 0 1
-11.617013 27.186378 26.869953 39.950576 -1.166971 0.833107 0.103543 -0.024519 -1194870.000000 0 0 1
-10.284613 27.264778 27.175213 39.845120 -1.210087 0.820274 0.090193 -0.010665 -1403440.000000 0 0 1
-9.365513 27.529978 26.003373 39.010100 -1.242885 0.841184 0.098128 -0.017606 460496.000000 0 0 1
-7.958113 27.702278 26.218383 38.963462 -1.291056 0.832679 0.085741 -0.021907 1245950.000000 0 0 1
-7.311213 28.300678 25.059333 38.501329 -1.317983 0.862067 0.111097 -0.028427 155609.000000 0 0 1
-5.777413 28.223578 25.138383 38.234633 -1.368884 0.853331 0.093956 -0.025058 -750513.000000 0 0 1
-5.226613 29.285978 25.910093 39.450208 -1.394188 0.854256 0.106908 -0.023684 287025.000000 0 0 1
-3.822413 29.103378 26.032983 39.234342 -1.440205 0.845275 0.115016 -0.022339 620839.000000 0 0 1
-2.927013 29.756378 24.932373 38.931127 -1.472746 0.875748 0.125225 -0.014117 -191569.000000 0 0 1
-3.176913 29.189778 23.665403 37.711897 -1.462387 0.892418 0.132538 -0.010260 -87368.100000 0 0 1
-2.484713 29.920178 22.645643 37.606063 -1.487942 0.924567 0.133249 -0.023664 -358357.000000 0 0 1
-2.896413 29.409678 21.216833 36.379559 -1.472628 0.948125 0.143105 -0.013740 835070.000000 0 0 1
-4.238513 29.694678 20.790133 36.496144 -1.429018 0.964713 0.142349 -0.010315 275340.000000 0 0 1
-5.135313 28.812978 21.397333 36.254723 -1.394419 0.939497 0.141664 -0.009614 -1116480.000000 0 0 1
-6.593113 29.037978 20.934933 36.399790 -1.347530 0.958022 0.117217 -0.022404 -65137.600000 0 0 1
-6.869913 28.688278 19.570033 35.400553 -1.335755 0.985055 0.102019 -0.014082 -181639.000000 0 0 1
-7.605013 27.546578 19.378933 34.528151 -1.301428 0.974901 0.073143 -0.018181 -958080.000000 0 0 1
-6.744413 26.264078 19.275433 33.269073 -1.319435 0.952829 0.060048 -0.015187 101730.000000 0 0 1
-5.995313 26.104178 18.097533 32.324798 -1.345043 0.976573 0.073251 -0.016305 635992.000000 0 0 1
-4.689413 26.695178 18.170533 32.631141 -1.396905 0.980212 0.096283 -0.012501 68919.800000 0 0 1
-3.984813 26.887878 16.858033 31.984840 -1.423666 1.015655 0.091365 -0.015784 17354.300000 0 0 1
-3.384513 25.679478 16.351033 30.630814 -1.439753 1.007697 0.097578 -0.018576 441925.000000 0 0 1
-2.591713 25.887778 15.144433 30.103951 -1.471015 1.043648 0.100787 -0.025089 817949.000000 0 0 1
-1.920713 24.531778 14.642633 28.633965 -1.492661 1.034015 0.096601 -0.025909 364723.000000 0 0 1
-0.802613 24.114478 15.409033 28.628491 -1.537525 1.002448 0.097237 -0.029397 -77148.500000 0 0 1
-0.172813 23.010578 14.865033 27.394995 -1.563286 0.997245 0.086960 -0.036445 -192413.000000 0 0 1
1.173987 22.653178 15.524533 27.487376 1.519018 0.970620 0.073907 -0.036357 712936.000000 0 0 1
2.202587 23.654578 15.378633 28.300049 1.477949 0.996298 0.073701 -0.037109 757179.000000 0 0 1
3.444887 23.190978 15.899433 28.328090 1.423330 0.974889 0.078702 -0.037818 630505.000000 0 0 1
4.581387 24.275178 15.853633 29.353212 1.384263 1.000242 0.104324 -0.050183 918247.000000 0 0 1
5.844987 23.620578 15.933633 29.085670 1.328216 0.991043 0.100472 -0.046798 994061.000000 0 0 1
6.987087 24.453378 15.596733 29.833624 1.292481 1.020675 0.121535 -0.050773 610274.000000 0 0 1
8.365387 23.785878 15.732733 29.719801 1.232612 1.012940 0.144598 -0.052262 163218.000000 0 0 1
8.844287 22.859078 14.722933 28.592370 1.201630 1.029876 0.120534 -0.043844 98541.100000 0 0 1
8.953087 23.489678 13.462133 28.515816 1.206645 1.079132 0.128700 -0.050183 -642920.000000 0 0 1
9.499187 22.526578 12.369033 27.398435 1.171734 1.102406 0.095510 -0.041134 12169.700000 0 0 1
10.829187 22.098478 12.588033 27.641863 1.115147 1.097978 0.085534 -0.030815 82131.700000 0 0 1
11.288287 21.306478 11.486833 26.708402 1.083590 1.126211 0.074614 -0.034134 719481.000000 0 0 1
12.718587 20.738278 11.774933 27.027535 1.020662 1.120020 0.106279 -0.040268 704142.000000 0 0 1
12.744587 19.708078 12.789333 26.728260 0.996767 1.071857 0.101128 -0.036476 -739954.000000 0 0 1
14.053287 19.262778 12.900233 27.110247 0.940508 1.074874 0.089085 -0.036451 -1042990.000000 0 0 1
14.366587 18.439078 14.090733 27.293720 0.908906 1.028315 0.112670 -0.038633 -626691.000000 0 0 1
15.731087 18.217278 14.281933 27.987674 0.858502 1.035270 0.105915 -0.041508 -261568.000000 0 0 1
16.035687 17.709678 15.571833 28.517677 0.834964 0.993165 0.114552 -0.041543 -845363.000000 0 0 1
17.476387 17.274578 15.637833 29.126911 0.779591 1.004055 0.101259 -0.037919 -993740.000000 0 0 1
17.939187 16.749778 16.858033 29.775204 0.751124 0.968936 0.100912 -0.038077 587427.000000 0 0 1
19.183387 16.061578 16.638933 30.047141 0.697054 0.983922 0.106055 -0.035463 972187.000000 0 0 1
19.891287 15.749278 18.043933 31.133367 0.669701 0.952597 0.108462 -0.031232 -314661.000000 0 0 1
20.493587 16.751178 18.809933 32.471567 0.685253 0.952959 0.114858 -0.022045 147626.000000 0 0 1
19.681887 17.733778 19.468133 32.876614 0.733378 0.937063 0.099813 -0.010715 -99988.500000 0 0 1
20.433487 18.552878 20.494133 34.376535 0.737198 0.932079 0.072072 -0.008800 373648.000000 0 0 1
19.486087 19.445678 21.074333 34.669431 0.784360 0.917427 0.114261 -0.016938 1176040.000000 0 0 1
20.278787 20.324378 21.884033 36.100144 0.786521 0.919518 0.098301 -0.011267 514013.000000 0 0 1
19.412287 21.510678 22.360863 36.599922 0.836630 0.913531 0.131532 -0.018611 401916.000000 0 0 1
18.480187 21.089778 23.344303 36.486333 0.851252 0.876546 0.139027 -0.019343 137903.000000 0 0 1
17.800187 22.148878 23.963053 37.170517 0.893827 0.870193 0.127488 -0.028764 -26046.300000 0 0 1
17.087687 21.776878 25.286353 37.491614 0.905472 0.830572 0.162086 -0.030502 64988.400000 0 0 1
16.038787 20.851378 25.076093 36.343267 0.915123 0.809336 0.160772 -0.029036 -256282.000000 0 0 1
15.339487 20.728378 26.299913 36.832742 0.933711 0.775550 0.157871 -0.026014 231587.000000 0 0 1
14.177487 19.693678 26.324753 35.802719 0.946839 0.744728 0.179289 -0.021654 158851.000000 0 0 1
14.534587 18.344578 26.258843 35.175340 0.900762 0.727991 0.151070 -0.021545 -281121.000000 0 0 1
14.828787 17.740778 25.005603 34.057426 0.874569 0.746281 0.162657 -0.028602 -196743.000000 0 0 1
13.713987 17.640978 23.948833 32.753994 0.909992 0.750757 0.181767 -0.022204 -536332.000000 0 0 1
13.355087 18.762578 23.182763 32.677717 0.952199 0.782098 0.179516 -0.021593 -314609.000000 0 0 1
14.320087 19.411178 22.378563 32.903781 0.935198 0.822868 0.172184 -0.021714 -392156.000000 0 0 1
14.821287 18.521878 21.227233 31.832780 0.895931 0.840842 0.172346 -0.025261 103582.000000 0 0 1
13.854187 18.140578 20.247333 30.511859 0.918577 0.845190 0.147468 -0.022218 245286.000000 0 0 1
14.395787 17.085578 19.439533 29.615048 0.870632 0.854750 0.119949 -0.023406 38294.100000 0 0 1
13.384687 16.280378 18.608133 28.115176 0.882703 0.847507 0.123556 -0.020915 -54946.800000 0 0 1
12.831687 17.048278 17.526533 27.612956 0.925590 0.883148 0.137710 -0.028418 684183.000000 0 0 1
11.763187 16.232678 16.984933 26.274709 0.943710 0.867892 0.105913 -0.026719 710077.000000 0 0 1
11.130487 16.728778 15.651333 25.469667 0.983706 0.909033 0.097274 -0.029784 362802.000000 0 0 1
10.345787 17.938578 15.818633 26.058723 1.047660 0.918468 0.102923 -0.034658 221266.000000 0 0 1
9.961987 18.370378 14.568833 25.474749 1.073895 0.961985 0.087814 -0.021106 -213703.000000 0 0 1
8.968487 19.544078 14.663633 26.027425 1.140578 0.972311 0.090304 -0.025777 -141908.000000 0 0 1
7.663887 19.157378 15.021633 25.522338 1.190248 0.941510 0.072697 -0.022082 -594507.000000 0 0 1
6.850787 20.300778 14.943233 26.121927 1.245333 0.961785 0.077796 -0.022633 634266.000000 0 0 1
5.446087 20.179878 15.642033 26.106714 1.307199 0.928348 0.067032 -0.026129 1040850.000000 0 0 1
4.424587 19.548978 14.871433 24.957945 1.348213 0.932461 0.056504 -0.027208 -345766.000000 0 1 0
3.335087 19.222978 15.675733 25.027470 1.399011 0.893946 0.047005 -0.026403 -198235.000000 0 0 1
2.114687 18.545878 15.039333 23.970878 1.457262 0.892586 0.039234 -0.025020 -256609.000000 0 1 0
1.323687 19.449378 14.343433 24.202572 1.502843 0.936463 0.047332 -0.030194 -672484.000000 0 1 0
0.462687 18.712478 13.523233 23.092179 1.546075 0.945152 0.038955 -0.035213 104511.000000 0 1 0
-0.628913 19.519678 12.775433 23.337203 -1.538588 0.991509 0.045185 -0.043606 520290.000000 0 1 0
-1.681413 20.197778 13.460733 24.330407 -1.487740 0.984539 0.054414 -0.044502 463945.000000 0 1 0
-2.651913 20.739778 12.583433 24.403152 -1.443620 1.029033 0.046851 -0.037628 273245.000000 0 1 0
-3.767213 21.554178 13.270933 25.590860 -1.397765 1.025606 0.052784 -0.032506 -107901.000000 0 0 1
-4.736713 20.707578 13.853233 25.360447 -1.345922 0.992911 0.067985 -0.037150 -125270.000000 0 0 1
-5.708113 21.607078 14.398433 26.585019 -1.312519 0.998458 0.072441 -0.025447 -15570.400000 0 0 1
-6.629013 20.993378 15.454233 26.897937 -1.264938 0.958741 0.068925 -0.027578 -390446.000000 0 0 1
-7.659313 20.125378 14.994033 26.239606 -1.207143 0.962552 0.063668 -0.026331 361294.000000 0 0 1
-8.425813 19.598878 16.074633 26.711498 -1.164772 0.925060 0.048005 -0.010768 -204556.000000 0 0 1
-9.538213 20.444078 16.690133 28.062401 -1.134264 0.933841 0.046934 -0.003660 -760166.000000 0 0 1
-10.668013 20.556478 15.846933 28.062440 -1.092095 0.970723 0.031779 -0.010196 -60435.100000 0 0 1
-11.795613 20.063378 16.563933 28.566405 -1.039308 0.952265 0.019184 0.001487 10670.100000 0 0 1
-13.033713 19.834878 15.670533 28.440563 -0.989439 0.987243 0.022245 -0.011297 41657.300000 0 0 1
-13.549213 20.998878 15.030933 29.162698 -0.997778 1.029303 0.013301 0.002473 182594.000000 0 0 1
-14.486713 20.629678 14.013033 28.841178 -0.958577 1.063439 0.014879 -0.001148 -451603.000000 0 0 1
-15.578613 21.686678 13.849433 30.080092 -0.947861 1.092330 0.016858 -0.005015 -1173030.000000 0 0 1
-16.579413 21.421278 14.766733 30.851329 -0.912130 1.071689 0.013394 -0.011111 -1044900.000000 0 0 1
-17.568713 22.389878 14.491133 31.936801 -0.905472 1.099834 0.048155 -0.023144 385323.000000 0 0 1
-18.836213 22.278578 15.403333 32.990917 -0.868929 1.085019 0.109382 -0.025214 863389.000000 0 0 1
-19.810613 21.231378 15.086333 32.723527 -0.820002 1.091647 0.098839 -0.020836 1134090.000000 0 0 1
-20.975113 21.277978 15.893233 33.842319 -0.792566 1.081929 0.116928 -0.024719 435333.000000 0 0 1
-22.064813 22.353078 15.712433 35.119747 -0.791888 1.106945 0.126299 -0.027345 -363327.000000 0 0 1
-22.866113 22.160178 14.546233 35.007506 -0.769721 1.142285 0.145582 -0.027487 641018.000000 0 0 1
-23.806213 23.208178 14.283933 36.185439 -0.772679 1.165009 0.170667 -0.038661 660073.000000 0 0 1
-23.150013 24.456678 13.548333 36.298891 -0.812838 1.188293 0.146713 -0.034642 -126005.000000 0 0 1
-22.162213 25.116278 14.285433 36.415171 -0.847799 1.167673 0.100248 -0.034167 -208222.000000 0 0 1
-21.667913 26.259078 13.632733 36.672729 -0.880902 1.189913 0.075165 -0.030276 -1655360.000000 0 0 1
-20.302113 26.613878 14.092033 36.318861 -0.919129 1.172326 0.052686 -0.023565 -1646920.000000 0 0 1
-19.318613 25.814078 13.515633 34.960660 -0.928336 1.173859 0.047693 -0.013634 -195587.000000 0 0 1
-18.029613 26.415478 13.613133 34.758622 -0.971885 1.168375 0.013163 -0.017585 203489.000000 0 0 1
-17.021313 25.674878 12.706033 33.322181 -0.985367 1.179585 0.022178 -0.015889 -82707.700000 0 0 1
-15.740313 26.275478 12.742733 33.174319 -1.031076 1.176548 0.023060 -0.009905 134373.000000 0 0 1
-14.875713 25.786378 11.738233 32.000160 -1.047548 1.195210 0.025839 -0.003216 526191.000000 0 0 1
-13.438713 26.383878 11.755333 31.857430 -1.099694 1.192865 0.044110 -0.000662 553208.000000 0 0 1
-12.362413 25.553278 11.295333 30.551331 -1.120201 1.192092 0.052426 -0.003082 1004810.000000 0 0 1
-11.043113 26.031578 11.537833 30.540383 -1.169587 1.183389 0.071565 -0.009000 624424.000000 0 0 1
-10.571013 27.303278 10.824233 31.215049 -1.201399 1.216678 0.095396 -0.015987 -655457.000000 0 0 1
-9.372713 27.815378 11.369533 31.477123 -1.245784 1.201242 0.111588 -0.019286 129851.000000 0 0 1
-8.904313 29.045178 10.785133 32.237063 -1.273325 1.229661 0.116012 -0.026223 196394.000000 0 0 1
-7.703913 29.530378 11.643833 32.664542 -1.315603 1.206313 0.104502 -0.027170 102938.000000 0 0 1
-6.499213 28.932378 11.250533 31.715875 -1.349830 1.208172 0.102950 -0.022483 -275621.000000 0 0 1
-5.362213 29.506878 11.869133 32.253457 -1.391031 1.193944 0.151392 -0.030580 824362.000000 0 0 1
-3.948013 29.048078 11.397733 31.452916 -1.435711 1.199982 0.152809 -0.037820 525914.000000 0 0 1
-3.668313 29.514978 10.088733 31.406575 -1.447144 1.243768 0.135511 -0.040417 1761490.000000 0 0 1
-2.234913 29.533078 9.778733 31.190081 -1.495265 1.251898 0.132778 -0.039372 1955100.000000 0 0 1
-1.915513 30.390678 8.504633 31.616313 -1.507850 1.298447 0.138078 -0.042773 217764.000000 0 0 1
-2.434313 29.778178 7.328633 30.763202 -1.489229 1.330256 0.136827 -0.030029 151286.000000 0 0 1
-2.141813 30.644678 6.251933 31.349168 -1.501018 1.370021 0.150619 -0.022134 227707.000000 0 0 1
11.619387 -33.655593 -26.062902 44.124642 -1.238365 2.202680 0.158067 -0.048816 -495532.000000 0 0 1
12.313087 -33.449293 -24.866832 43.460634 -1.218078 2.179945 0.137622 -0.044252 638154.000000 0 0 1
13.529487 -32.713293 -25.023032 43.351571 -1.178640 2.186106 0.133543 -0.041592 548826.000000 0 0 1
14.449187 -32.611193 -23.774832 42.866206 -1.153717 2.158713 0.110269 -0.036960 -378779.000000 0 0 1
14.033787 -31.708393 -22.797132 41.497935 -1.154122 2.152389 0.114541 -0.040016 222246.000000 0 0 1
14.534987 -31.874793 -21.474532 41.090435 -1.142962 2.120713 0.092411 -0.033498 927585.000000 0 0 1
16.054287 -31.551193 -21.167732 41.246707 -1.100107 2.109703 0.067094 -0.029660 918076.000000 0 0 1
16.962487 -32.516693 -21.614732 42.570623 -1.089975 2.103354 0.085267 -0.027433 -703486.000000 0 0 1
18.274287 -32.119493 -21.349232 42.677877 -1.053523 2.094674 0.070841 -0.030036 24140.500000 0 0 1
19.286187 -33.344093 -21.493732 44.110839 -1.046411 2.079753 0.050255 -0.021052 177491.000000 0 0 1
20.643887 -33.045893 -21.283232 44.397941 -1.012410 2.070738 0.061678 -0.018009 -31886.700000 0 0 1
21.382987 33.245078 -21.140632 44.826261 0.999222 2.061915 0.054394 -0.014620 -1268390.000000 0 0 1
22.798387 33.338278 -20.664332 45.367630 0.970992 2.043715 0.095449 -0.015035 -1123840.000000 0 0 1
23.722687 -33.716293 -21.649232 46.564403 -0.957660 2.054353 0.091006 -0.019485 402053.000000 0 0 1
25.055387 33.685278 -21.121932 46.995813 0.931270 2.036938 0.099127 -0.018283 200273.000000 0 0 1
26.037687 -33.177293 -22.105932 47.616869 -0.905390 2.053579 0.124372 -0.020664 -626778.000000 0 0 1
25.958387 -31.795393 -22.338532 46.731092 -0.886123 2.069199 0.135258 -0.015325 -15990.400000 0 0 1
24.974687 -31.385693 -23.278332 46.375398 -0.898662 2.096653 0.110116 -0.015769 35920.500000 0 0 1
24.784287 -29.855993 -23.442232 45.334088 -0.877953 2.114255 0.117337 -0.025987 -501141.000000 0 0 1
25.876687 -29.086593 -23.869332 45.665938 -0.843733 2.120805 0.122772 -0.031895 -312904.000000 0 0 1
25.639987 -27.678193 -23.723932 44.568109 -0.823607 2.132120 0.134053 -0.032763 168990.000000 0 0 1
26.415387 -26.828593 -24.750332 45.056909 -0.793159 2.152338 0.117187 -0.039539 333271.000000 0 0 1
25.749887 -26.619493 -26.003522 45.253036 -0.802002 2.182942 0.114623 -0.034430 12749.600000 0 0 1
26.508487 -25.759893 -26.856302 45.689528 -0.771077 2.199133 0.096729 -0.028825 287570.000000 0 0 1
25.654887 -25.283093 -28.115592 45.693485 -0.778099 2.233574 0.094885 -0.022067 595675.000000 0 0 1
24.760287 -24.219493 -27.918412 44.487003 -0.774357 2.249216 0.105812 -0.025977 615813.000000 0 0 1
23.447187 -24.653593 -27.489552 43.740665 -0.810474 2.250377 0.089098 -0.023383 770853.000000 0 0 1
22.479587 -23.469493 -27.233542 42.400646 -0.806938 2.268280 0.082421 -0.022622 -14524.700000 0 0 1
22.105087 -22.757393 -28.459822 42.620363 -0.799937 2.301981 0.101887 -0.031798 -197833.000000 0 0 1
21.208487 -21.743993 -28.191422 41.441012 -0.797865 2.318939 0.085110 -0.020738 -319488.000000 0 0 1
20.446687 -21.145293 -29.410962 41.595615 -0.802193 2.356141 0.120825 -0.035060 -175723.000000 0 0 1
19.329687 -21.925993 -29.731012 41.693154 -0.848247 2.364694 0.113105 -0.042989 -565303.000000 0 0 1
18.509487 -21.214193 -30.633112 41.605657 -0.853381 2.398342 0.102090 -0.049878 291650.000000 0 0 1
17.115587 -21.931093 -30.649702 41.392275 -0.908105 2.404564 0.112711 -0.050850 -40323.200000 0 0 1
17.215587 -23.127993 -31.233302 42.506467 -0.930914 2.396153 0.101649 -0.030847 -459443.000000 0 0 1
16.241287 -24.050093 -30.872162 42.370707 -0.976833 2.387102 0.101432 -0.037097 -470928.000000 0 0 1
16.660387 -25.546893 -30.985702 43.477880 -0.992912 2.364104 0.115209 -0.036485 85042.500000 0 0 1
15.708887 -26.400593 -30.362152 43.192832 -1.034046 2.350325 0.114522 -0.030418 232016.000000 0 0 1
15.929587 -27.789093 -30.652252 44.334479 -1.050292 2.334202 0.140579 -0.038925 -56568.700000 0 0 1
14.886387 -28.649693 -29.907392 44.009790 -1.091592 2.317962 0.140233 -0.044776 -44097.800000 0 0 1
15.123887 -28.955093 -28.534892 43.374756 -1.089451 2.288782 0.161978 -0.053258 -145528.000000 0 0 1
15.168187 -27.802493 -27.653642 42.044934 -1.071361 2.288579 0.129607 -0.045209 -339568.000000 0 0 1
16.057287 -28.064493 -26.428782 41.760421 -1.051102 2.256047 0.108737 -0.029953 -352318.000000 0 0 1
15.702387 -29.122293 -25.562462 41.810434 -1.076292 2.228612 0.105764 -0.029196 22565.800000 0 0 1
16.482787 -29.256893 -24.378632 41.496576 -1.057738 2.198744 0.105522 -0.036178 -819634.000000 0 0 1
16.173187 -28.176093 -23.217732 39.931533 -1.049711 2.191292 0.092320 -0.031603 750106.000000 0 0 1
14.992887 -28.347293 -22.454132 39.147717 -1.084297 2.181659 0.095732 -0.034483 1118690.000000 0 0 1
13.724087 -28.511893 -23.118732 39.188703 -1.122183 2.201773 0.093281 -0.028332 652982.000000 0 0 1
12.451487 -28.331293 -22.238832 38.108626 -1.156712 2.193907 0.060890 -0.016139 400112.000000 0 0 1
12.266687 -26.972793 -21.828132 36.803133 -1.143974 2.205707 0.047689 -0.020597 -688988.000000 0 0 1
11.075187 -26.735993 -21.175832 35.859294 -1.178072 2.202506 0.049978 -0.018887 -1101700.000000 0 0 1
10.665187 -25.283893 -21.157532 34.650580 -1.171624 2.227610 0.064081 -0.019367 -287090.000000 0 0 1
11.327287 -24.489693 -20.187932 33.698741 -1.137569 2.213136 0.065014 -0.019501 -100542.000000 0 0 1
11.090887 -23.102093 -20.203932 32.633011 -1.123210 2.238425 0.074496 -0.024781 -275218.000000 0 0 1
11.649487 -22.380793 -18.934732 31.545753 -1.090874 2.214586 0.076848 -0.028923 395055.000000 0 0 1
10.876287 -22.526093 -17.711632 30.649966 -1.120978 2.186910 0.091752 -0.034193 527038.000000 0 0 1
11.460487 -21.872493 -16.618532 29.764481 -1.088159 2.163173 0.090474 -0.033558 373939.000000 0 0 1
10.579187 -22.212093 -15.336432 28.991420 -1.126304 2.128217 0.071653 -0.027363 562084.000000 0 0 1
10.807187 -23.532493 -14.833532 29.843043 -1.140281 2.090994 0.073496 -0.021840 -202496.000000 0 0 1
10.111087 -23.737293 -13.664932 29.196294 -1.168115 2.057864 0.069169 -0.020739 -260147.000000 0 0 1
10.225787 -25.215193 -13.134232 30.213917 -1.185523 2.020510 0.078956 -0.020696 731167.000000 0 0 1
11.563987 -25.609493 -12.807132 30.880327 -1.146654 1.998447 0.065762 -0.022757 317704.000000 0 0 1
11.846687 -26.996793 -13.032732 32.233879 -1.157280 1.987029 0.062836 -0.026599 -423938.000000 0 0 1
13.195887 -27.521193 -12.470332 32.970543 -1.123698 1.958676 0.058478 -0.030530 622258.000000 0 0 1
14.440087 -27.212193 -13.084032 33.469561 -1.082932 1.972431 0.071258 -0.027811 315392.000000 0 0 1
14.500487 -27.406793 -14.480032 34.220868 -1.084153 2.007698 0.075295 -0.026810 -795424.000000 0 0 1
15.885987 -26.986693 -15.047732 34.743063 -1.038757 2.018742 0.067884 -0.024911 790287.000000 0 0 1
16.997987 -27.787193 -14.625632 35.706705 -1.021804 1.992817 0.093473 -0.030723 12575.400000 0 0 1
18.134687 -27.304793 -15.280132 36.164915 -0.984533 2.007012 0.113929 -0.034552 -738574.000000 0 0 1
19.431687 -28.008293 -14.935932 37.217429 -0.964255 1.983749 0.118327 -0.036542 -417162.000000 0 0 1
19.664087 -29.088093 -15.801732 38.503094 -0.976347 1.993691 0.103443 -0.031539 -418559.000000 0 0 1
21.014187 -29.434293 -15.664432 39.412538 -0.950779 1.979530 0.119024 -0.027913 -237227.000000 0 0 1
21.439387 -30.539793 -16.629532 40.851777 -0.958719 1.990040 0.100130 -0.031214 -174565.000000 0 0 1
21.020187 -31.857193 -16.321332 41.510420 -0.987545 1.974891 0.082745 -0.021319 211805.000000 0 0 1
21.581787 -32.657193 -17.366732 42.823699 -0.986825 1.988366 0.072357 -0.024036 282161.000000 0 0 1
21.473287 33.336778 -16.966632 43.131305 0.998557 1.975092 0.060371 -0.011757 -175017.000000 0 0 1
22.274287 33.020878 -15.872332 42.877187 0.977355 1.950000 0.071374 -0.020170 -260108.000000 0 0 1
22.024087 31.666978 -15.469132 41.559018 0.963103 1.952197 0.066486 -0.019153 -836169.000000 0 0 1
22.990087 31.130678 -14.379832 41.284898 0.934694 1.926561 0.058826 -0.027626 -1516760.000000 0 0 1
24.232187 30.828778 -14.871632 41.937786 0.904635 1.933295 0.070363 -0.025563 -364581.000000 0 0 1
25.221587 30.441578 -13.879932 41.898337 0.878903 1.908452 0.076077 -0.022205 837650.000000 0 0 1
24.965387 29.101278 -13.154032 40.536200 0.861746 1.901280 0.074076 -0.021455 -1125620.000000 0 0 1
24.941987 27.885178 -13.865832 39.899213 0.841054 1.925723 0.090225 -0.013959 33638.000000 0 0 1
24.785987 26.755878 -13.024932 38.728168 0.823599 1.913799 0.059595 -0.011710 301082.000000 0 0 1
23.289587 26.486178 -12.726032 37.494991 0.849530 1.917082 0.058494 -0.011469 -238406.000000 0 0 1
22.512787 25.958378 -13.789932 37.024657 0.856364 1.952447 0.079034 -0.010884 729776.000000 0 0 1
21.095087 25.866078 -13.670432 36.068510 0.886645 1.959526 0.084784 -0.015001 1254020.000000 0 0 1
20.261187 27.228378 -13.407932 36.492094 0.931069 1.947030 0.071847 -0.016678 49416.200000 0 0 1
20.177687 28.181678 -14.485832 37.565747 0.949422 1.966668 0.072668 -0.011071 -5900.850000 0 0 1
19.595087 27.742178 -15.701832 37.418490 0.955836 2.003831 0.069992 -0.003299 -366565.000000 0 0 1
19.826087 28.688178 -16.925332 38.762768 0.966076 2.022656 0.065815 -0.007488 -290189.000000 0 0 1
18.920187 29.747178 -16.944932 39.115199 1.004302 2.018843 0.063179 -0.015813 -146603.000000 0 0 1
18.982187 30.371478 -18.232232 40.189108 1.012197 2.041665 0.062866 -0.010007 -166499.000000 0 0 1
17.962087 31.503078 -18.496732 40.708839 1.052600 2.042457 0.056706 -0.003854 -7139.870000 0 0 1
18.130987 32.702078 -17.825632 41.423565 1.064559 2.015650 0.065439 -0.023773 -685016.000000 0 0 1
17.218687 33.549978 -18.348932 41.937662 1.096625 2.023645 0.061625 -0.023273 -768439.000000 0 0 1
16.863487 -32.688493 -17.486432 40.727020 -1.094522 2.014577 0.075843 -0.028937 478335.000000 0 0 1
15.711987 -31.979593 -17.949432 39.896655 -1.114123 2.037448 0.065873 -0.030914 281141.000000 0 0 1
15.242687 -31.187093 -16.904832 38.610202 -1.116189 2.023984 0.068959 -0.032063 -14572.800000 0 0 1
14.213287 -30.115893 -17.395932 37.571306 -1.129837 2.052186 0.059572 -0.028068 -481139.000000 0 0 1
12.970087 -30.713593 -17.519332 37.662647 -1.171222 2.054617 0.059054 -0.023820 -553799.000000 0 0 1
11.923687 -29.715593 -17.497932 36.487922 -1.189204 2.070943 0.035063 -0.013938 179456.000000 0 0 1
10.569987 -30.294193 -17.888432 36.734981 -1.235092 2.079401 0.047767 -0.021725 -2123930.000000 0 0 1
10.014887 -31.009793 -16.826932 36.674936 -1.258412 2.047455 0.058115 -0.019153 -16490.100000 0 0 1
8.983387 -31.884293 -17.286032 37.364640 -1.296166 2.051757 0.077616 -0.015342 426409.000000 0 0 1
7.672687 -31.253893 -17.823432 36.787916 -1.330062 2.076578 0.074175 -0.008637 -1012590.000000 0 0 1
7.757687 -30.730593 -19.104732 37.007322 -1.323521 2.113253 0.061587 -0.003599 -206244.000000 0 0 1
7.345487 -31.580693 -20.171632 38.186269 -1.342265 2.127326 0.070116 -0.016172 -867205.000000 0 0 1
7.617787 -30.946193 -21.568632 38.482509 -1.329433 2.165760 0.063554 -0.007259 1115590.000000 0 0 1
9.004587 -30.689893 -21.907632 38.767209 -1.285400 2.171360 0.062800 -0.013654 1814150.000000 0 0 1
9.981787 -31.748593 -21.919532 39.850661 -1.266181 2.153211 0.077822 -0.020661 206766.000000 0 0 1
9.810887 -32.744993 -23.075732 41.242909 -1.279693 2.164588 0.101666 -0.034167 -300324.000000 0 0 1
8.732887 -33.640693 -22.823132 41.579502 -1.316810 2.151848 0.105795 -0.041331 21733.900000 0 0 1
8.461387 32.998778 -23.898432 41.613093 1.319789 2.182546 0.116549 -0.046053 -1147170.000000 0 0 1
7.346687 31.998378 -23.657132 40.466405 1.345112 2.195198 0.116753 -0.051783 760482.000000 0 0 1
5.980487 32.450078 -23.718332 40.636598 1.388543 2.194037 0.112328 -0.053129 849062.000000 0 0 1
5.635987 33.275178 -22.620432 40.628633 1.403014 2.161278 0.081699 -0.045296 -1336740.000000 0 0 1
4.324987 -33.424793 -22.839632 40.713280 -1.442117 2.166374 0.087767 -0.047414 2313.870000 0 0 1
3.161487 33.263778 -22.513732 40.290719 1.476038 2.163713 0.095909 -0.056762 -619596.000000 0 0 1
2.060887 -33.457593 -22.847732 40.566941 -1.509277 2.169062 0.109714 -0.055656 -1423150.000000 0 0 1
0.717887 33.474278 -22.353732 40.258316 1.549354 2.159469 0.100134 -0.065564 -495706.000000 0 0 1
0.487487 33.640178 -20.961732 39.639544 1.556306 2.127993 0.094876 -0.063119 -156700.000000 0 0 1
-0.718813 33.087278 -20.476132 38.917305 -1.549075 2.124857 0.119886 -0.073080 -120064.000000 0 0 1
-0.903813 33.182478 -18.938032 38.217048 -1.543565 2.089251 0.139134 -0.063240 39510.800000 0 0 1
0.007387 32.419678 -18.165632 37.162155 1.570568 2.081534 0.137414 -0.067647 -214354.000000 0 0 1
-0.441913 32.144878 -16.834832 36.289117 -1.557050 2.053199 0.115978 -0.050922 -91694.500000 0 0 1
0.567787 31.334778 -16.030832 35.201964 1.552678 2.043613 0.059397 -0.041757 -431637.000000 0 0 1
1.561187 32.110878 -15.439532 35.664057 1.522216 2.018521 0.077254 -0.032819 -580778.000000 0 0 1
2.374487 31.181978 -14.724232 34.565257 1.494794 2.010845 0.095265 -0.021188 -476947.000000 0 0 1
3.465087 31.821478 -13.919832 34.905229 1.462332 1.980993 0.118871 -0.033842 131243.000000 0 0 1
4.464187 32.549878 -14.696432 35.991786 1.434498 1.991417 0.099057 -0.037476 1019720.000000 0 0 1
5.513787 33.013678 -13.850632 36.223539 1.405309 1.963151 0.112376 -0.046903 -338842.000000 0 0 1
6.846987 33.285378 -14.499932 36.946524 1.367921 1.974098 0.090042 -0.055848 -620639.000000 0 0 1
7.629287 32.122078 -14.593032 36.096960 1.337608 1.986980 0.084806 -0.042551 145601.000000 0 0 1
8.931487 32.427278 -15.111132 36.873380 1.302029 1.993044 0.074453 -0.023606 566229.000000 0 0 1
9.839287 31.191978 -15.237732 36.082399 1.265233 2.006782 0.065089 -0.034779 -82048.300000 0 0 1
10.475987 31.020778 -13.996132 35.607958 1.245113 1.974756 0.069748 -0.039303 -643194.000000 0 0 1
11.393687 29.976178 -13.918232 34.958612 1.207569 1.980279 0.090603 -0.032335 -54534.600000 0 0 1
10.825587 28.569978 -13.606632 33.445140 1.208598 1.989782 0.089673 -0.032660 -135033.000000 0 0 1
10.018287 27.937478 -14.577532 33.066194 1.226484 2.027352 0.105708 -0.032674 -69145.900000 0 0 1
9.387687 26.814478 -14.060032 31.699044 1.234034 2.030349 0.091782 -0.028691 -883898.000000 0 0 1
8.557187 26.069578 -15.057332 31.298109 1.253633 2.072699 0.097490 -0.027175 -481590.000000 0 0 1
9.276687 25.349078 -16.013932 31.385964 1.219977 2.106244 0.102025 -0.031578 -28741.000000 0 0 1
8.372487 24.572278 -16.773832 30.907230 1.242405 2.144463 0.095245 -0.026642 374621.000000 0 0 1
9.165687 23.780678 -17.850632 31.115519 1.202917 2.181799 0.106404 -0.025443 -240222.000000 0 0 1
8.457587 22.882078 -18.653932 30.709762 1.216754 2.223614 0.118005 -0.031653 -554193.000000 0 0 1
9.234387 22.134978 -19.564132 30.951356 1.175563 2.255047 0.118227 -0.033581 -365951.000000 0 0 1
8.495887 20.962778 -20.223432 30.341479 1.185743 2.300337 0.103534 -0.035542 -109661.000000 0 0 1
8.028587 19.850278 -19.496532 28.958704 1.186453 2.309396 0.116025 -0.045354 -75322.400000 0 0 1
7.506887 18.850078 -20.312532 28.710238 1.191807 2.356753 0.114985 -0.051847 -70189.400000 0 0 1
26.496887 -12.615522 -9.626932 30.885502 -0.444356 1.887775 0.153394 -0.036384 -94429.100000 0 0 1
26.635087 -11.976222 -8.364232 30.377922 -0.422555 1.849739 0.173967 -0.049844 644401.000000 0 0 1
25.348787 -11.556322 -7.928832 28.965082 -0.427743 1.848073 0.148475 -0.040637 -386388.000000 0 0 1
25.368187 -10.939122 -6.541332 28.390110 -0.407122 1.803294 0.127898 -0.050599 -306304.000000 0 0 1
25.843887 -9.616622 -6.302832 28.286244 -0.356230 1.795506 0.169085 -0.065465 -166832.000000 0 0 1
27.093587 -9.287722 -6.805032 29.438626 -0.330248 1.804066 0.146055 -0.066664 -1624000.000000 0 0 1
27.465587 -7.919122 -6.192032 29.247431 -0.280715 1.784123 0.194419 -0.064137 -20001.600000 0 0 1
27.922187 -7.879122 -4.817332 29.409791 -0.275030 1.735338 0.206348 -0.079896 790240.000000 0 0 1
29.048187 -8.674122 -4.457932 30.641650 -0.290182 1.716801 0.196114 -0.082478 -324506.000000 0 0 1
29.556387 -8.444422 -3.055932 30.890565 -0.278292 1.669886 0.203739 -0.088026 -712051.000000 0 0 1
30.270787 -7.280422 -2.912932 31.269958 -0.236027 1.664086 0.219164 -0.068944 49028.800000 0 0 1
30.912287 -7.235022 -1.654232 31.790746 -0.229912 1.622855 0.239805 -0.065673 49696.800000 0 0 1
31.831087 -6.001822 -1.421932 32.423169 -0.186364 1.614666 0.218319 -0.071476 -297673.000000 0 0 1
31.072487 -4.791422 -1.288332 31.466124 -0.152996 1.611751 0.273514 -0.065875 653015.000000 0 0 1
31.855787 -3.659222 -0.852032 32.076581 -0.114367 1.597362 0.252098 -0.041606 95550.300000 0 0 1
32.590087 -3.781922 0.499568 32.812593 -0.115528 1.555571 0.209813 -0.047754 -9264.850000 0 0 1
31.708987 -3.627522 1.593768 31.955577 -0.113905 1.520901 0.283543 -0.082070 444011.000000 0 0 1
32.441487 -3.514622 2.830968 32.753886 -0.107916 1.484257 0.183475 -0.063717 -81206.900000 0 0 1
31.614787 -3.772022 4.145268 32.107727 -0.118751 1.441330 0.213241 -0.065478 -80165.800000 0 0 1
31.267387 -5.129622 4.201268 31.962684 -0.162608 1.438972 0.191774 -0.060961 -21011.100000 0 0 1
31.347887 -5.742722 5.496768 32.340120 -0.181184 1.400000 0.175188 -0.055201 -272259.000000 0 0 1
32.112887 -7.036822 5.441768 33.322173 -0.215718 1.406754 0.137683 -0.051098 943299.000000 0 0 1
33.553687 -6.950022 5.532968 34.709746 -0.204243 1.410707 0.140602 -0.066528 898588.000000 0 0 1
34.027487 -8.267222 5.379868 35.428235 -0.238339 1.418354 0.137450 -0.066371 -63411.500000 0 0 1
35.520687 -8.525122 5.667368 36.966417 -0.235549 1.416878 0.203579 -0.078748 -87923.500000 0 0 1
36.371187 -8.172722 4.598868 37.560700 -0.221032 1.448050 0.204469 -0.078926 -241984.000000 0 0 1
37.702787 -8.220422 5.062168 38.919160 -0.214673 1.440358 0.220875 -0.074554 101301.000000 0 0 1
-37.383327 -8.013922 4.004068 38.441756 0.211175 1.466448 0.232602 -0.065654 77127.400000 0 0 1
-37.240627 -9.129222 3.114468 38.469558 0.240401 1.489748 0.296324 -0.079795 70481.800000 0 0 1
-36.416627 -8.791922 2.024668 37.517567 0.236893 1.516804 0.334172 -0.083193 -221932.000000 0 0 1
-35.803427 -9.966322 1.260968 37.186059 0.271489 1.536880 0.318560 -0.066958 132680.000000 0 0 1
-34.766227 -10.659922 1.970368 36.417122 0.297516 1.516664 0.309818 -0.067565 338591.000000 0 0 1
-34.310227 -11.673622 1.116568 36.258955 0.327951 1.539997 0.307776 -0.064133 -549749.000000 0 0 1
-33.580727 -12.856422 1.832468 36.004315 0.365636 1.519879 0.201422 -0.061628 975214.000000 0 0 1
-32.287927 -12.605022 2.409168 34.744796 0.372198 1.501402 0.222583 -0.047580 677698.000000 0 0 1
-31.251227 -12.580722 1.482068 33.721065 0.382718 1.526831 0.236718 -0.035655 -939592.000000 0 0 1
-29.873727 -13.027422 1.998568 32.651915 0.411220 1.509550 0.236241 -0.034920 59165.300000 0 0 1
-29.122627 -12.067122 2.735568 31.642158 0.392820 1.484235 0.238721 -0.039751 915273.000000 0 0 1
-27.790927 -12.514122 3.017268 30.627484 0.423099 1.472121 0.227158 -0.020577 689409.000000 0 0 1
-26.986927 -11.546422 3.889268 29.609804 0.404284 1.439065 0.222668 -0.021282 -462915.000000 0 0 1
-25.729527 -12.010522 4.272568 28.714387 0.436736 1.421446 0.194813 -0.012162 -126629.000000 0 0 1
-25.020727 -10.967922 4.976968 27.768728 0.413127 1.390593 0.184892 -0.002795 1725130.000000 0 0 1
-23.495927 -11.182322 5.373168 26.570168 0.444204 1.367166 0.158166 0.005875 1429600.000000 0 0 1
-23.349127 -12.109522 6.444968 27.080617 0.478439 1.330499 0.160569 -0.008341 384387.000000 0 0 1
-21.995127 -12.447722 6.766868 26.163369 0.514992 1.309183 0.113827 0.000329 623406.000000 0 0 1
-21.596927 -11.924322 8.189268 25.993861 0.504477 1.250291 0.136971 -0.016329 -446760.000000 0 0 1
-21.514527 -10.493422 8.303468 25.336423 0.453789 1.236898 0.120188 -0.006335 771089.000000 0 0 1
-22.772327 -9.847822 8.527768 26.235115 0.408161 1.239730 0.160091 -0.020867 342167.000000 0 0 1
-23.457827 -9.971822 9.956968 27.365088 0.401952 1.198391 0.139244 -0.009148 -622221.000000 0 0 1
-23.961827 -11.262222 10.201568 28.373910 0.439366 1.203021 0.125265 -0.023738 425924.000000 0 0 1
-25.323427 -11.402322 9.819568 29.456965 0.423077 1.230939 0.134653 -0.028172 369626.000000 0 0 1
-26.414327 -10.820022 10.763468 30.506422 0.388778 1.210206 0.143188 -0.033181 -586127.000000 0 0 1
-26.476427 -11.494422 11.962068 31.244423 0.409585 1.177912 0.119567 -0.032600 59076.000000 0 0 1
-27.633227 -11.105122 12.666668 32.362994 0.382122 1.168651 0.120798 -0.037919 -91967.800000 0 0 1
-27.835927 -11.772322 14.008468 33.311613 0.400106 1.136769 0.112441 -0.032414 -98601.900000 0 0 1
-28.313727 -13.130922 13.904468 34.167564 0.434242 1.151684 0.110996 -0.031222 402090.000000 0 0 1
-28.258627 -13.743222 15.176468 34.896293 0.452658 1.120867 0.097382 -0.027505 -258467.000000 0 0 1
-27.964827 -15.245222 15.012168 35.210985 0.499117 1.130344 0.100275 -0.014239 -233616.000000 0 0 1
-29.146727 -15.985722 15.066368 36.497540 0.501658 1.145265 0.111886 -0.017742 -237318.000000 0 0 1
-28.769727 -17.371222 15.112868 36.849088 0.543210 1.148201 0.093533 -0.014398 39863.400000 0 0 1
-29.742727 -18.325622 15.843868 38.359958 0.552201 1.145016 0.070745 -0.004733 -106383.000000 0 0 1
-30.028627 -18.099822 17.234168 39.068382 0.542441 1.113941 0.074464 0.001122 167774.000000 0 0 1
-30.568727 -19.205922 18.004868 40.342158 0.560959 1.108165 0.080000 0.006618 -419797.000000 0 0 1
-29.672727 -20.417422 18.075968 40.299906 0.602686 1.105669 0.054043 0.008559 -1165720.000000 0 0 1
-28.521327 -20.165522 18.794768 39.665572 0.615431 1.077161 0.065372 0.003612 -719136.000000 0 0 1
-28.010127 -21.335122 19.354268 40.178879 0.650943 1.068200 0.055888 0.007624 789955.000000 0 0 1
-26.523427 -21.127522 19.846368 39.290491 0.672640 1.041277 0.072592 0.003390 1241610.000000 0 0 1
-25.513727 -20.833822 18.907168 37.979986 0.684765 1.049714 0.071855 -0.007709 450945.000000 0 0 1
-24.198327 -20.837422 19.439068 37.384950 0.710909 1.023980 0.079513 -0.008742 881149.000000 0 0 1
-23.066527 -20.454922 18.437068 35.922054 0.725463 1.031827 0.092018 -0.023300 394157.000000 0 0 1
-22.697327 -21.398222 17.455968 35.745816 0.755946 1.060614 0.087249 -0.025595 1093450.000000 0 0 1
-21.368627 -21.236922 16.906468 34.546399 0.782307 1.059413 0.094454 -0.019737 1258030.000000 0 0 1
-20.960927 -22.174622 15.697268 34.314407 0.813528 1.095666 0.086566 -0.012466 -68405.600000 0 0 1
-21.138527 -23.624822 15.938968 35.482675 0.840884 1.104922 0.074708 -0.021258 569113.000000 0 0 1
-20.035427 -24.286522 16.587968 35.586713 0.881020 1.085887 0.093895 -0.030955 1070740.000000 0 0 1
-18.705627 -24.506722 15.776268 34.631929 0.918847 1.097816 0.099467 -0.036403 865597.000000 0 0 1
-17.867827 -23.328322 15.757968 33.343416 0.917179 1.078562 0.110484 -0.041855 532516.000000 0 0 1
-16.583427 -23.660522 15.225768 32.659674 0.959473 1.085812 0.122230 -0.035312 679200.000000 0 0 1
-15.553127 -22.495922 15.310768 31.343035 0.965882 1.060438 0.121260 -0.033771 21611.400000 0 0 1
-15.825827 -21.419522 14.405668 30.278309 0.934469 1.074951 0.124770 -0.030663 -11443.100000 0 0 1
-16.928427 -20.593822 14.774868 30.479072 0.882775 1.064714 0.107107 -0.028975 41402.600000 0 0 1
-16.734327 -19.405222 15.782968 30.094890 0.859169 1.018739 0.117631 -0.028210 -670181.000000 0 0 1
-15.932127 -18.436322 15.192968 28.715099 0.858133 1.013265 0.118863 -0.033796 -244283.000000 0 0 1
-15.919527 -17.274622 15.971168 28.406374 0.826199 0.973706 0.109228 -0.033039 -444600.000000 0 0 1
-15.331727 -16.010822 15.348668 26.962749 0.807062 0.965197 0.108260 -0.032809 144174.000000 0 0 1
-16.215827 -15.203922 14.577568 26.582283 0.753203 0.990354 0.106090 -0.032772 196376.000000 0 0 1
-16.269327 -15.586222 13.212068 26.118576 0.763958 1.040430 0.126725 -0.035271 -308000.000000 0 0 1
-17.143427 -14.781922 12.224268 25.726154 0.711563 1.075640 0.108639 -0.026253 -359024.000000 0 0 1
-18.491727 -14.980722 12.555968 26.907588 0.680888 1.085316 0.094421 -0.026322 -323749.000000 0 0 1
-19.346927 -14.191022 11.741268 26.712283 0.632859 1.115704 0.128720 -0.032849 -257941.000000 0 0 1
-20.853827 -14.462122 11.943368 28.047800 0.606350 1.130926 0.108673 -0.034473 53251.000000 0 0 1
-21.390927 -15.654522 11.364568 28.840756 0.631771 1.165767 0.134195 -0.038498 156254.000000 0 0 1
-21.397227 -15.651122 9.930068 28.309100 0.631527 1.212400 0.162229 -0.037572 -557054.000000 0 0 1
-22.260427 -16.799022 9.386368 29.425119 0.646476 1.246131 0.163240 -0.026507 11865.700000 0 0 1
-21.583727 -18.033622 9.291068 29.620816 0.696027 1.251744 0.162724 -0.009596 99430.700000 0 0 1
-22.415727 -19.061222 8.717468 30.688585 0.704697 1.282768 0.162026 -0.021284 573882.000000 0 0 1
-21.792127 -20.512022 8.631468 31.147104 0.755148 1.290002 0.167328 -0.019407 510540.000000 0 0 1
-20.575227 -20.606022 7.907168 30.174018 0.786146 1.305648 0.185044 -0.021089 -105922.000000 0 0 1
-20.137627 -21.922022 7.883268 30.793586 0.827798 1.311911 0.173943 -0.026384 -517119.000000 0 0 1
-18.831827 -22.038922 7.103868 29.846553 0.863707 1.330477 0.167754 -0.043879 -322900.000000 0 0 1
-17.707527 -21.523822 7.785668 28.938694 0.882370 1.298400 0.130033 -0.039706 -883143.000000 0 0 1
-16.581827 -21.693422 7.002368 28.188556 0.918161 1.319756 0.151017 -0.048064 -565050.000000 0 0 1
-15.275427 -21.399122 7.782668 27.419537 0.950846 1.283003 0.107235 -0.033752 821905.000000 0 0 1
-14.035427 -21.722222 7.130268 26.827017 0.997145 1.301776 0.126126 -0.030071 349058.000000 0 0 1
-12.953127 -21.491122 7.969768 26.328103 1.028379 1.263262 0.111009 -0.023814 974023.000000 0 0 1
-11.545327 -22.006822 7.433468 25.939376 1.087643 1.280151 0.107648 -0.021730 1256650.000000 0 0 1
-11.402127 -23.415422 7.642368 27.142149 1.117644 1.285368 0.100376 -0.015792 384739.000000 0 0 1
-10.159427 -23.966622 7.176468 27.002122 1.169859 1.301789 0.129492 -0.031157 717393.000000 0 0 1
-10.082427 -25.494272 7.101668 28.320433 1.194194 1.317330 0.137151 -0.025445 630786.000000 0 0 1
-10.934427 -26.086382 6.055668 28.926322 1.173881 1.359888 0.144057 -0.030476 580692.000000 0 0 1
-10.771427 -27.494472 5.988368 30.130220 1.197407 1.370714 0.160306 -0.024693 -347540.000000 0 0 1
-9.526427 -28.120832 5.359668 30.170516 1.244163 1.392203 0.180613 -0.034953 -663893.000000 0 0 1
-8.291427 -27.754842 5.918168 29.565245 1.280498 1.369262 0.186721 -0.035749 -319841.000000 0 0 1
-7.184427 -28.511992 5.501168 29.913417 1.323956 1.385841 0.202762 -0.038281 73534.900000 0 0 1
-7.081427 -29.965692 6.076668 31.384952 1.338736 1.375949 0.224807 -0.050699 -571539.000000 0 0 1
-7.135427 -29.955232 7.462268 31.684628 1.336951 1.333046 0.211948 -0.042870 99444.500000 0 0 1
-7.197427 -31.243462 8.012968 33.047912 1.344381 1.325890 0.245328 -0.048124 42841.600000 0 0 1
-7.781427 -31.226922 9.469768 33.546203 1.326580 1.284616 0.181642 -0.048927 -153524.000000 0 0 1
-6.913427 -30.497112 10.313568 32.927784 1.347873 1.252217 0.187425 -0.049924 221960.000000 0 0 1
-7.107427 -30.823922 11.702168 33.727888 1.344176 1.216470 0.158727 -0.035248 -471305.000000 0 0 1
-6.088427 -30.196002 12.636568 33.294899 1.371834 1.181503 0.130948 -0.033021 -240489.000000 0 0 1
-6.434427 -28.870262 12.837168 32.244174 1.351507 1.161326 0.133670 -0.029754 175769.000000 0 0 1
-5.521427 -28.245322 13.731268 31.887805 1.377750 1.125626 0.124593 -0.036439 89471.700000 0 0 1
-6.182427 -27.547742 14.975768 31.958944 1.350028 1.083098 0.107842 -0.030403 60962.700000 0 0 1
-6.904427 -28.297872 15.914568 33.192079 1.331481 1.070747 0.093515 -0.027138 -124686.000000 0 0 1
-6.166427 -29.344152 16.486968 34.218769 1.363669 1.068076 0.076539 -0.035258 -463973.000000 0 0 1
-7.037427 -30.528622 16.891868 35.592939 1.344235 1.076304 0.070825 -0.025099 5499.500000 0 0 1
-7.767427 -30.891122 15.691768 35.508110 1.324458 1.113058 0.093855 -0.023243 44207.200000 0 0 1
-8.237427 -32.200922 15.616368 36.723637 1.320354 1.131569 0.095736 -0.025110 -181054.000000 0 0 1
-7.184427 -33.344332 15.489368 37.461727 1.358579 1.144533 0.110861 -0.033995 -57980.800000 0 0 1
-6.514427 -33.371502 14.267968 36.873701 1.378011 1.173484 0.112033 -0.032749 -742202.000000 0 0 1
-5.426427 33.232063 14.371768 36.610980 -1.408936 1.167390 0.146565 -0.045103 -444993.000000 0 0 1
-4.323427 33.555709 13.314368 36.358631 -1.442659 1.195879 0.176942 -0.054055 183318.000000 0 0 1
-4.768427 33.431806 11.951168 35.822534 -1.429120 1.230654 0.175839 -0.054000 -392083.000000 0 0 1
-3.889427 -33.322632 11.165568 35.358102 1.454602 1.249512 0.200704 -0.061598 -736993.000000 0 0 1
-4.463427 -32.851442 9.810568 34.574364 1.435756 1.283091 0.201737 -0.061664 -945343.000000 0 0 1
-4.495427 33.662799 8.711968 35.061251 -1.438039 1.319687 0.200679 -0.058662 263789.000000 0 0 1
-5.229427 32.443977 8.825968 34.027287 -1.410988 1.308417 0.212627 -0.063431 -140248.000000 0 0 1
-6.723427 32.466303 9.205368 34.409360 -1.366593 1.299973 0.205723 -0.052220 -438.741000 0 0 1
-7.492427 33.029279 8.135068 34.831725 -1.347729 1.335066 0.197322 -0.046567 171146.000000 0 0 1
-8.903427 32.918606 8.293268 35.095355 -1.306648 1.332233 0.157920 -0.048862 262265.000000 0 0 1
-9.703427 33.197518 7.074468 35.302688 -1.286424 1.369036 0.168878 -0.059795 -482646.000000 0 0 1
-9.968427 -32.955772 6.607468 35.058680 1.277067 1.381194 0.187154 -0.056888 94762.400000 0 0 1
-10.787427 -33.046452 5.458468 35.188513 1.255270 1.415047 0.177900 -0.052392 98046.800000 0 0 1
-11.281627 -31.721172 4.862868 34.016986 1.229097 1.427351 0.171039 -0.047013 346658.000000 0 0 1
-12.246727 -31.098872 5.697268 33.905472 1.195646 1.401961 0.167306 -0.049162 402549.000000 0 0 1
-13.097227 -30.190752 4.990268 33.285457 1.161482 1.420306 0.168104 -0.046271 757239.000000 0 0 1
-14.175727 -29.427832 5.863668 33.186309 1.121886 1.393174 0.149624 -0.047444 631558.000000 0 0 1
-15.232627 -30.237502 6.352268 34.448378 1.104140 1.385335 0.147990 -0.045408 -97826.400000 0 0 1
-16.008627 -29.577182 7.277768 34.410053 1.074696 1.357686 0.133879 -0.049312 -484758.000000 0 0 1
35.510031 -12.224222 -13.090832 39.771394 -0.331541 1.906202 0.169859 -0.043713 28819.200000 0 0 1
34.531211 -12.371822 -12.061732 38.612846 -0.344032 1.888490 0.201835 -0.051463 219035.000000 0 0 1
34.470401 -13.704122 -11.613632 38.870142 -0.378403 1.874211 0.202156 -0.054540 28847.900000 0 0 1
35.523481 -14.263422 -10.609632 39.723132 -0.381817 1.841168 0.180766 -0.044786 22617.100000 0 0 1
36.754931 -14.542222 -11.222632 41.089520 -0.376754 1.847438 0.190426 -0.047647 -96642.500000 0 0 1
37.702801 -14.946022 -10.252832 41.833065 -0.377414 1.818408 0.148802 -0.037356 182446.000000 0 0 1
-37.061233 -15.318922 -10.698732 41.505027 0.391954 1.831509 0.099467 -0.040388 -67491.700000 0 0 1
-36.334133 -14.233322 -11.172032 40.590282 0.373360 1.849635 0.098887 -0.045882 1277120.000000 0 0 1
-34.911128 -14.497522 -11.235832 39.436138 0.393600 1.859711 0.081105 -0.037547 1289510.000000 0 0 1
-33.992549 -13.273322 -11.420532 38.237456 0.372270 1.874099 0.087958 -0.045128 -334668.000000 0 0 1
-34.161597 -12.253522 -10.448732 37.766910 0.344398 1.851117 0.103831 -0.035381 340312.000000 0 0 1
-33.388633 -11.143922 -10.785832 36.814698 0.322138 1.868135 0.122749 -0.036504 -274182.000000 0 0 1
-33.862143 -9.866922 -9.989732 36.657818 0.283535 1.846800 0.143350 -0.037530 -95257.700000 0 0 1
-33.606313 -9.852222 -8.654932 36.074346 0.285175 1.813079 0.163071 -0.034658 236619.000000 0 0 1
-34.176991 -8.671222 -8.102332 36.178787 0.248472 1.796665 0.219975 -0.048960 41820.700000 0 0 1
-33.714493 -8.303322 -6.638232 35.350790 0.241478 1.759700 0.210723 -0.048609 551815.000000 0 0 1
-32.339843 -7.888222 -6.523832 33.921231 0.239245 1.764325 0.198508 -0.053815 1128310.000000 0 0 1
-31.977993 -7.422622 -5.225932 33.241506 0.228078 1.728662 0.216425 -0.045470 234019.000000 0 0 1
-31.368863 -8.504822 -4.256832 32.778929 0.264758 1.701029 0.186051 -0.036706 326170.000000 0 0 1
-32.351893 -9.505822 -3.982132 33.953836 0.285783 1.688348 0.190464 -0.036587 584219.000000 0 0 1
-32.162683 -10.017222 -2.654832 33.790991 0.301932 1.649444 0.202973 -0.040779 197418.000000 0 0 1
-32.910113 -11.348022 -2.264832 34.885278 0.332052 1.635764 0.201663 -0.036989 327553.000000 0 0 1
-34.315584 -11.347822 -2.432432 36.224979 0.319370 1.637995 0.215313 -0.049886 506664.000000 0 0 1
-34.875452 -12.637922 -2.335232 37.168098 0.347655 1.633667 0.211320 -0.057633 1296520.000000 0 0 1
-36.458453 -12.762822 -2.453332 38.705649 0.336733 1.634223 0.208315 -0.047189 1345650.000000 0 0 1
-37.145233 -12.223122 -1.339832 39.127589 0.317902 1.605046 0.248009 -0.057847 25374.400000 0 0 1
37.655481 -12.349422 -1.422732 39.654352 -0.316905 1.606682 0.302586 -0.066590 -45091.100000 0 0 1
36.904241 -11.725122 -0.195932 38.722601 -0.307631 1.575856 0.281844 -0.082329 61365.000000 0 0 1
37.252951 -12.363722 0.995068 39.263649 -0.320447 1.545450 0.299567 -0.072365 143102.000000 0 0 1
36.773621 -11.655122 2.099968 38.633546 -0.306927 1.516413 0.288893 -0.072445 62945.600000 0 0 1
37.156561 -12.219222 3.472268 39.268003 -0.317717 1.482256 0.273122 -0.079653 -53238.500000 0 0 1
36.202661 -11.718022 4.375568 38.302614 -0.313036 1.456310 0.241719 -0.078832 -37564.100000 0 0 1
36.348691 -12.219122 5.685068 38.766664 -0.324296 1.423617 0.229122 -0.071742 486603.000000 0 0 1
35.029861 -12.324622 6.548568 37.707707 -0.338306 1.396245 0.191391 -0.060386 773710.000000 0 0 1
34.352581 -11.156222 6.917468 36.775161 -0.314012 1.381567 0.174192 -0.053663 -283230.000000 0 0 1
33.607661 -11.376822 8.096968 36.393239 -0.326410 1.346433 0.159241 -0.047133 66911.600000 0 0 1
32.882331 -10.110322 8.564568 35.451630 -0.298296 1.326798 0.146294 -0.046136 -167007.000000 0 0 1
31.791251 -9.623622 7.806568 34.120964 -0.293944 1.339961 0.151518 -0.041064 -160156.000000 0 0 1
30.982301 -8.909122 8.730268 33.398997 -0.280001 1.306331 0.160276 -0.028291 568738.000000 0 0 1
29.467601 -9.026122 8.339568 31.927398 -0.297233 1.306527 0.136705 -0.013442 591467.000000 0 0 1
29.077001 -8.273522 7.202168 31.077232 -0.277212 1.336919 0.167355 -0.025789 291566.000000 0 0 1
28.374401 -8.982822 6.142368 30.389577 -0.306599 1.367273 0.188133 -0.036631 238652.000000 0 0 1
27.705401 -7.989722 5.201168 29.299779 -0.280764 1.392335 0.198240 -0.037336 -483415.000000 0 0 1
26.579701 -7.360722 5.761768 28.175498 -0.270160 1.364848 0.225542 -0.041837 43633.200000 0 0 1
25.802201 -6.659622 4.761568 27.069848 -0.252590 1.393977 0.281111 -0.042102 54900.700000 0 0 1
26.380201 -5.449622 4.015668 27.234885 -0.203714 1.422811 0.291795 -0.055239 -521061.000000 0 0 1
27.251001 -5.903022 3.022668 28.046376 -0.213321 1.462813 0.283177 -0.056399 415692.000000 0 0 1
28.195801 -4.912922 2.541868 28.733275 -0.172511 1.482216 0.298125 -0.069546 787216.000000 0 0 1
28.587001 -5.177722 1.085668 29.072394 -0.179179 1.533444 0.288559 -0.083892 26182.300000 0 0 1
27.441501 -5.018822 0.274068 27.898022 -0.180892 1.560972 0.303941 -0.087412 250566.000000 0 0 1
27.776601 -5.026522 -1.097632 28.249075 -0.179025 1.609662 0.293876 -0.089802 490786.000000 0 0 1
26.592301 -5.593222 -1.982832 27.246398 -0.207311 1.643635 0.280737 -0.074769 591263.000000 0 0 1
25.512901 -4.704722 -2.115932 26.029208 -0.182357 1.652177 0.321346 -0.071004 -154095.000000 0 0 1
24.538901 -5.158222 -3.014332 25.255714 -0.207189 1.690434 0.288560 -0.067096 -233539.000000 0 0 1
23.141801 -4.522222 -2.833732 23.749178 -0.192982 1.690400 0.231499 -0.054322 -49658.900000 0 1 0
23.064401 -3.123222 -3.140532 23.485826 -0.134594 1.704918 0.247864 -0.058731 128567.000000 0 1 0
23.136801 -2.803122 -4.514732 23.739247 -0.120567 1.762142 0.248279 -0.052185 -437841.000000 0 1 0
22.027301 -1.897422 -5.046132 22.677426 -0.085927 1.795193 0.196850 -0.039274 -230139.000000 0 1 0
22.299401 -0.585422 -4.590632 22.774545 -0.026247 1.773755 0.226591 -0.023465 409826.000000 0 1 0
21.420701 0.277878 -5.258532 22.058463 0.012972 1.811505 0.223067 -0.013049 -776515.000000 0 1 0
21.459601 1.680278 -4.681432 22.028473 0.078140 1.784947 0.208463 -0.002644 597187.000000 0 1 0
22.625601 2.492778 -5.021732 23.309859 0.109733 1.787932 0.269671 -0.004532 902263.000000 0 1 0
23.527601 2.275078 -3.969832 23.968386 0.096399 1.737191 0.293375 -0.002499 -158841.000000 0 1 0
24.576201 3.474578 -3.872532 25.120884 0.140449 1.725569 0.313430 -0.018299 762031.000000 0 0 1
23.962501 4.696978 -3.444032 24.660178 0.193560 1.710914 0.260297 -0.011229 847732.000000 0 1 0
24.968801 5.642378 -3.183432 25.795575 0.222244 1.694522 0.259954 -0.015069 41539.600000 0 0 1
24.400001 7.067378 -3.355032 25.623507 0.281931 1.702109 0.225839 -0.016130 -293063.000000 0 0 1
23.412501 7.380478 -2.411932 24.666456 0.305376 1.668735 0.245652 -0.028220 172270.000000 0 1 0
22.810101 8.594278 -2.763032 24.531544 0.360326 1.683668 0.217981 -0.021146 -203142.000000 0 1 0
21.680301 9.045578 -1.798932 23.560434 0.395267 1.647225 0.162098 -0.022457 -133829.000000 0 1 0
22.127401 9.296178 -0.472732 24.005505 0.397731 1.590490 0.130808 -0.028689 655941.000000 0 1 0
21.100101 9.867178 0.320768 23.295457 0.437423 1.557026 0.086510 -0.025353 111061.000000 0 1 0
21.644101 10.257778 1.748068 24.015512 0.442575 1.497943 0.104028 -0.033758 -218466.000000 0 1 0
22.490901 11.404578 1.738768 25.277031 0.469292 1.501954 0.115332 -0.038436 205938.000000 0 0 1
22.018101 12.662078 1.355068 25.435432 0.521891 1.517496 0.122248 -0.026221 -658015.000000 0 0 1
21.078201 13.325578 2.383368 25.050789 0.563758 1.475511 0.116313 -0.016487 -104481.000000 0 0 1
19.800201 12.733978 2.478068 23.671564 0.571526 1.465919 0.138910 -0.021635 182255.000000 0 1 0
18.869501 13.407478 3.307968 23.382925 0.617763 1.428851 0.136174 -0.027947 111477.000000 0 1 0
18.949201 13.304378 4.835968 23.653018 0.612139 1.364890 0.141198 -0.028316 -378341.000000 0 1 0
18.455201 12.056078 5.280168 22.667678 0.578665 1.335698 0.118166 -0.024241 374630.000000 0 1 0
18.670301 11.910778 6.704768 23.138726 0.567860 1.276816 0.129481 -0.034688 -5201.150000 0 1 0
18.853101 10.458678 7.152468 22.715218 0.506479 1.250471 0.127991 -0.037651 -136885.000000 0 1 0
20.014401 9.818878 6.698568 23.277831 0.456092 1.278903 0.124784 -0.046262 58357.400000 0 1 0
20.064101 8.529678 7.273368 22.983155 0.401973 1.248796 0.143535 -0.040319 615516.000000 0 1 0
21.029701 7.565578 6.498168 23.274717 0.345340 1.287841 0.156304 -0.043310 363837.000000 0 1 0
20.428001 7.316478 5.276068 22.330941 0.343925 1.332274 0.122712 -0.041844 644630.000000 0 1 0
21.349801 6.691678 4.419568 22.806252 0.303732 1.375775 0.135371 -0.041991 125969.000000 0 1 0
20.710001 6.501678 3.044668 21.919077 0.304195 1.431441 0.114380 -0.028610 -111476.000000 0 1 0
21.643201 5.809578 2.289168 22.525976 0.262243 1.468997 0.124399 -0.033874 590913.000000 0 1 0
21.080601 5.681678 0.985068 21.855058 0.263266 1.525708 0.106041 -0.017890 156894.000000 0 1 0
21.932201 4.746978 0.055968 22.440106 0.213151 1.568302 0.186046 -0.027114 187155.000000 0 1 0
21.871901 3.405978 0.451868 22.140120 0.154483 1.550385 0.160970 -0.027384 1085630.000000 0 1 0
23.003801 2.697578 -0.079332 23.161564 0.116733 1.574222 0.222492 -0.029956 516150.000000 0 1 0
22.993901 1.241678 0.233368 23.028584 0.053948 1.560662 0.269748 -0.035259 -912543.000000 0 1 0
22.011001 0.597078 -0.478932 22.024305 0.027120 1.592544 0.174144 -0.035484 -183540.000000 0 1 0
22.373001 -0.637722 -1.104632 22.409330 -0.028496 1.620110 0.244364 -0.047506 -1169250.000000 0 1 0
22.315901 -1.899622 -0.205732 22.397551 -0.084919 1.579982 0.270881 -0.040857 541197.000000 0 1 0
23.371401 -2.104922 0.721268 23.477080 -0.089822 1.540069 0.278116 -0.041260 2140720.000000 0 1 0
24.763201 -2.185822 0.282168 24.861085 -0.088041 1.559446 0.306784 -0.065603 1251090.000000 0 1 0
25.844901 -1.947222 1.346668 25.953113 -0.075201 1.518885 0.308803 -0.059647 -212267.000000 0 0 1
25.852201 -0.665422 1.928268 25.932552 -0.025734 1.496371 0.293515 -0.054146 99438.900000 0 0 1
26.723201 -0.636722 3.006568 26.899337 -0.023822 1.458791 0.282312 -0.054442 -1041390.000000 0 0 1
26.673001 0.764178 3.685468 26.937253 0.028642 1.433549 0.264543 -0.047422 115550.000000 0 0 1
27.187601 1.845278 2.937568 27.408028 0.067768 1.463411 0.304950 -0.035689 -203413.000000 0 0 1
28.507501 1.671078 2.500468 28.665701 0.058552 1.483457 0.270822 -0.035347 -707824.000000 0 0 1
29.003301 2.804678 1.559068 29.180273 0.096402 1.517342 0.300374 -0.040444 -10002.600000 0 0 1
28.540301 2.583378 0.231768 28.657919 0.090271 1.562709 0.346454 -0.031536 239543.000000 0 0 1
28.947301 3.630878 -0.694832 29.182397 0.124779 1.594609 0.334867 -0.025968 1376370.000000 0 0 1
30.430401 3.631378 -1.285732 30.673267 0.118772 1.612726 0.288372 -0.026377 1330560.000000 0 0 1
31.445321 3.860878 -0.307332 31.682945 0.122169 1.580497 0.230552 -0.021814 609820.000000 0 0 1
32.725851 3.868178 -0.971032 32.967969 0.117654 1.600254 0.168127 -0.015089 939877.000000 0 0 1
33.820341 4.277378 0.076968 34.089842 0.125806 1.568539 0.088676 -0.002767 51342.100000 0 0 1
34.023481 3.393278 1.163968 34.212080 0.099405 1.536768 0.110913 -0.010119 -69041.100000 0 0 1
33.242171 3.615778 2.310468 33.517966 0.108345 1.501809 0.119487 -0.005403 -174975.000000 0 0 1
33.504861 2.606178 3.470368 33.784779 0.077629 1.467895 0.150985 -0.014803 -99848.500000 0 0 1
32.850141 1.342278 3.321268 33.044883 0.040838 1.470119 0.188463 -0.021084 251652.000000 0 0 1
33.113011 0.447278 4.416968 33.409297 0.013507 1.438200 0.168076 -0.026279 -66591.300000 0 0 1
34.308711 -0.503522 4.189168 34.567185 -0.014675 1.449309 0.158639 -0.029327 -681973.000000 0 0 1
35.487651 0.210378 4.190768 35.734859 0.005928 1.453252 0.149905 -0.024399 -792531.000000 0 0 1
36.655931 -0.598222 4.219768 36.902866 -0.016318 1.456198 0.116348 -0.025092 -726370.000000 0 0 1
37.843251 0.301478 4.509368 38.112162 0.007966 1.452200 0.163582 -0.039943 -549496.000000 0 0 1
-37.744833 1.076278 3.482668 37.920440 -0.028507 1.478825 0.144750 -0.031380 -29578.300000 0 0 1
-36.913453 0.339478 2.647468 37.009828 -0.009196 1.499201 0.159633 -0.031554 -665023.000000 0 0 1
-36.382993 1.240678 1.500768 36.435062 -0.034087 1.529594 0.164731 -0.035445 423866.000000 0 0 1
-35.333546 2.132378 1.903868 35.448995 -0.060277 1.517063 0.203239 -0.061643 463199.000000 0 0 1
-34.808132 2.834878 0.803368 34.932621 -0.081264 1.547797 0.263257 -0.043322 -706088.000000 0 0 1
-33.767083 3.833078 1.241868 34.006626 -0.113031 1.534270 0.296346 -0.057299 -799838.000000 0 0 1
-32.655873 3.159978 1.807068 32.858134 -0.096466 1.515773 0.294542 -0.068560 202892.000000 0 0 1
-32.005753 4.053478 2.763968 32.379599 -0.125978 1.485331 0.311718 -0.057142 -212038.000000 0 0 1
-32.440463 3.952178 4.198668 32.948933 -0.121231 1.443019 0.313527 -0.055158 643516.000000 0 0 1
-33.787983 4.429978 4.464268 34.368331 -0.130367 1.440533 0.301565 -0.030642 1158270.000000 0 0 1
-34.790225 3.479678 4.667168 35.273933 -0.099687 1.438095 0.273595 -0.032647 -211324.000000 0 0 1
-34.676088 2.769278 6.004868 35.300969 -0.079692 1.399860 0.217126 -0.021383 -819411.000000 0 0 1
-34.888993 3.594378 7.167868 35.798599 -0.102661 1.369206 0.214147 -0.021541 269783.000000 0 0 1
-34.813779 2.974578 8.430068 35.943196 -0.085236 1.334052 0.171854 -0.019152 -819552.000000 0 0 1
-35.936393 2.098378 8.899768 37.081443 -0.058325 1.328424 0.161626 -0.013554 -895836.000000 0 0 1
-35.867294 0.848578 8.207768 36.804216 -0.023654 1.345894 0.164676 -0.017378 929710.000000 0 0 1
-36.883913 -0.129122 8.566068 37.865779 0.003501 1.342599 0.162085 -0.022692 791683.000000 0 0 1
-36.353453 -1.029622 9.745268 37.651081 0.028315 1.308985 0.178045 -0.023584 457490.000000 0 0 1
-35.304247 -1.905722 9.330468 36.566094 0.053928 1.312776 0.168418 -0.030337 91040.300000 0 0 1
-35.034964 -2.923922 10.241768 36.618190 0.083264 1.287324 0.155330 -0.015338 -340958.000000 0 0 1
-33.711093 -3.632822 9.922368 35.328297 0.107349 1.286104 0.177921 -0.011586 -289073.000000 0 0 1
-33.674123 -4.379322 8.696968 35.053705 0.129324 1.320074 0.197538 -0.049904 -355284.000000 0 0 1
-32.621403 -5.297522 8.733068 34.183127 0.160989 1.312453 0.214299 -0.069386 -235034.000000 0 0 1
-32.905703 -6.633422 8.048768 34.519129 0.198923 1.335462 0.232688 -0.052304 94797.400000 0 0 1
-33.975284 -7.367822 8.615368 35.816606 0.213552 1.327873 0.228371 -0.062421 255931.000000 0 0 1
-34.620313 -8.035522 7.495268 36.322372 0.228066 1.362949 0.234724 -0.072648 476167.000000 0 0 1
-35.708276 -9.093222 7.791968 37.662746 0.249353 1.362403 0.237594 -0.078547 -770845.000000 0 0 1
-36.942243 -8.647822 8.190868 38.815003 0.229950 1.358175 0.211964 -0.081733 -1020920.000000 0 0 1
-37.689653 -9.760322 8.615968 39.874913 0.253399 1.353004 0.211766 -0.079592 -154933.000000 0 0 1
8.847287 -23.858822 10.731668 27.616781 -1.215697 1.171693 0.152989 -0.048202 -108499.000000 0 0 1
8.266187 -24.457622 9.586368 27.539128 -1.244870 1.215253 0.143594 -0.047760 -150756.000000 0 0 1
7.003887 -25.003102 9.932168 27.800315 -1.297676 1.205455 0.146400 -0.053369 314378.000000 0 0 1
6.418387 -25.823912 8.789868 28.023774 -1.327188 1.251754 0.124970 -0.044889 -186100.000000 0 0 1
5.816487 -25.109722 7.731968 26.909348 -1.343168 1.279354 0.113046 -0.039897 -183939.000000 0 0 1
5.925487 -25.896272 6.602768 27.373798 -1.345853 1.327186 0.087332 -0.035309 -503149.000000 0 0 1
5.113187 -25.386322 5.375568 26.448190 -1.372041 1.366121 0.073144 -0.030865 293299.000000 0 0 1
3.704487 -25.331502 5.453768 26.175405 -1.425585 1.360904 0.096756 -0.040871 -55561.300000 0 0 1
3.097587 -26.604972 5.332268 27.310303 -1.454889 1.374287 0.098097 -0.036487 -153032.000000 0 0 1
1.547087 -26.522942 5.239568 27.079753 -1.512532 1.376082 0.123054 -0.046667 264735.000000 0 0 1
0.859487 -26.176222 6.458868 26.974994 -1.537973 1.329008 0.133903 -0.052723 784981.000000 0 0 1
-0.565213 -26.103592 6.501168 26.906917 1.549147 1.326764 0.161295 -0.050237 1337180.000000 0 0 1
-1.364513 -27.453082 6.306368 28.201133 1.521134 1.345268 0.188543 -0.047593 -229830.000000 0 0 1
-1.249413 -28.223702 7.478568 29.224431 1.526557 1.312016 0.176935 -0.053052 -124930.000000 0 0 1
-1.679213 -29.535492 7.266968 30.462663 1.514003 1.329921 0.204530 -0.053194 -586267.000000 0 0 1
-1.577813 -30.398192 8.521268 31.609359 1.518938 1.297839 0.197721 -0.058593 36886.100000 0 0 1
-0.258313 -30.524162 8.991768 31.822053 1.562334 1.284330 0.188929 -0.047618 -123208.000000 0 0 1
-0.317213 -31.056372 10.322268 32.728399 1.560583 1.249927 0.186279 -0.042056 -247355.000000 0 0 1
1.051387 -31.040322 11.007768 32.951145 -1.536938 1.230185 0.164920 -0.049378 -775842.000000 0 0 1
1.862987 -32.104042 10.566168 33.849433 -1.512832 1.253339 0.163032 -0.042134 -57976.400000 0 0 1
3.138187 -31.876252 11.170068 33.922177 -1.472663 1.235250 0.153950 -0.037792 276335.000000 0 0 1
3.441687 -32.639232 12.505568 35.121986 -1.465738 1.206747 0.175708 -0.036177 327712.000000 0 0 1
2.657287 -32.235062 13.693668 35.123737 -1.488548 1.170307 0.183041 -0.053209 517400.000000 0 0 1
3.315787 -32.649032 14.839968 36.016363 -1.469585 1.146111 0.180056 -0.055019 -428122.000000 0 0 1
3.053787 -31.529452 15.912168 35.448964 -1.474242 1.105290 0.210987 -0.069389 247357.000000 0 0 1
3.696387 -30.304402 15.605468 34.286305 -1.449421 1.098254 0.218665 -0.068641 1010700.000000 0 0 1
5.090987 -30.224412 15.952968 34.553298 -1.403923 1.090895 0.190302 -0.059058 1335510.000000 0 0 1
5.894987 -28.943652 15.467968 33.342824 -1.369873 1.088396 0.196761 -0.048506 576695.000000 0 0 1
6.364487 -28.785832 14.152268 32.701949 -1.353199 1.123238 0.172399 -0.042330 -443767.000000 0 0 1
5.318987 -28.887222 13.246468 32.221610 -1.388706 1.147130 0.167901 -0.043096 -890676.000000 0 0 1
5.706387 -28.912702 11.712068 31.712454 -1.375935 1.192518 0.136649 -0.035905 -90399.200000 0 0 1
6.235087 -30.042352 11.122968 32.636477 -1.366158 1.223014 0.122432 -0.033353 808379.000000 0 0 1
7.575987 -30.347242 11.551568 33.343506 -1.326153 1.217022 0.124199 -0.021709 562289.000000 0 0 1
8.092687 -31.759282 11.173568 34.626467 -1.321293 1.242228 0.123031 -0.018471 293314.000000 0 0 1
7.387687 -32.666652 12.040668 35.590248 -1.348384 1.225672 0.113487 -0.040342 590013.000000 0 0 1
7.646287 33.445709 11.596868 36.215584 1.346041 1.244837 0.118269 -0.030115 153989.000000 0 0 1
7.011987 32.306812 12.510468 35.346993 1.357068 1.209023 0.111996 -0.027648 -861222.000000 0 0 1
5.698187 31.988890 12.202368 34.708158 1.394515 1.211548 0.153151 -0.033465 -692148.000000 0 0 1
5.221587 30.943879 13.047568 33.985698 1.403627 1.176765 0.160203 -0.028242 -126037.000000 0 0 1
4.544887 31.387259 14.341068 34.806354 1.426995 1.146122 0.174338 -0.053346 -831400.000000 0 0 1
5.299487 31.670524 15.485568 35.649817 1.405001 1.121446 0.147209 -0.051510 -396085.000000 0 0 1
4.504287 31.703177 16.620868 36.078155 1.429664 1.092023 0.180667 -0.055333 -365310.000000 0 0 1
5.224087 32.361631 17.795668 37.299491 1.410749 1.073442 0.214842 -0.048085 -62000.100000 0 0 1
5.237587 -33.696992 17.784568 38.460505 -1.416598 1.090084 0.253912 -0.052234 -50568.100000 0 0 1
5.523387 -33.206782 19.094068 38.701183 -1.405972 1.054835 0.210983 -0.045092 -196536.000000 0 0 1
5.087487 -31.755702 19.316368 37.515719 -1.411939 1.029920 0.198496 -0.060747 796024.000000 0 0 1
3.666187 -31.612662 19.215168 37.175583 -1.455340 1.027599 0.218334 -0.064214 499555.000000 0 0 1
3.198387 -30.500262 19.959368 36.590600 -1.466314 0.993837 0.183546 -0.051681 -340942.000000 0 0 1
1.734087 -30.175192 19.580568 36.013163 -1.513392 0.995950 0.195774 -0.046793 447756.000000 0 0 1
0.707587 -31.114902 19.909068 36.946025 -1.548059 1.001702 0.217905 -0.050747 298976.000000 0 0 1
0.389787 -31.260992 21.277668 37.817201 -1.558328 0.973214 0.177381 -0.042916 -587247.000000 0 0 1
-0.723613 -32.298902 21.515068 38.815471 1.548396 0.983285 0.202015 -0.043574 -668665.000000 0 0 1
-2.052813 -31.879642 21.439568 38.473116 1.506493 0.979713 0.190616 -0.036427 -386443.000000 0 0 1
-2.878113 -33.014282 21.754368 39.641883 1.483838 0.989901 0.185028 -0.027344 893266.000000 0 0 1
-4.225113 -32.632062 22.458668 39.838358 1.442035 0.971884 0.185739 -0.022086 198402.000000 0 0 1
-5.236513 -32.187852 21.636168 39.135695 1.409523 0.985016 0.170271 -0.026197 -1687590.000000 0 0 1
-6.353713 -31.895802 22.370468 39.473405 1.374168 0.968274 0.155757 -0.021740 -803881.000000 0 0 1
-7.560913 -31.518212 21.475368 38.881313 1.335355 0.985638 0.107284 -0.025004 213690.000000 0 0 1
-8.314113 -32.679812 21.072868 39.763807 1.321670 1.012254 0.085962 -0.016834 -187698.000000 0 0 1
-9.462613 -32.319842 20.374768 39.360442 1.285976 1.026699 0.079942 -0.022158 76410.300000 0 0 1
-10.570513 -33.440972 20.367968 40.557225 1.264640 1.044652 0.082159 -0.019341 583670.000000 0 0 1
-11.110613 -33.656462 21.664768 41.539924 1.251942 1.022140 0.078933 -0.024250 -1678940.000000 0 0 1
-12.423613 33.452470 21.582568 41.703970 -1.215202 1.026848 0.083257 -0.025777 -1143280.000000 0 0 1
-13.120313 33.564919 23.025568 42.765911 -1.198165 1.002248 0.093451 -0.033825 170340.000000 0 0 1
-13.238613 -32.658882 23.693168 42.464451 1.185678 0.978879 0.103398 -0.037073 1302610.000000 0 0 1
-11.927713 -32.139702 24.042168 41.871907 1.215431 0.959190 0.098546 -0.034010 1055790.000000 0 0 1
-12.035013 -30.882592 24.956068 41.489533 1.199199 0.925415 0.107608 -0.048872 43840.600000 0 0 1
-12.766813 -31.114232 26.147568 42.600261 1.181425 0.909945 0.110680 -0.050480 297360.000000 0 0 1
-13.991913 -30.394502 26.075468 42.420860 1.139374 0.908810 0.129952 -0.053829 -137300.000000 0 0 1
-14.636913 -30.279932 27.445368 43.409235 1.120528 0.886346 0.134494 -0.051752 101824.000000 0 0 1
-13.792113 -29.623752 28.421468 43.307839 1.135065 0.854937 0.119480 -0.045771 711072.000000 0 0 1
-14.536413 -29.356102 29.563568 44.125872 1.111016 0.836611 0.128674 -0.040070 155973.000000 0 0 1
-13.627513 -28.674762 30.616968 44.106120 1.127149 0.803536 0.102264 -0.033932 249851.000000 0 0 1
-14.402113 -28.416422 31.794268 45.008770 1.101705 0.786395 0.095202 -0.030312 339745.000000 0 0 1
-13.763013 -27.823272 32.879468 45.217412 1.111431 0.756647 0.085049 -0.024644 -297962.000000 0 0 1
-13.085613 -28.870122 -33.506297 46.123629 1.145236 2.383932 0.091942 -0.022730 1444640.000000 0 0 1
-11.828013 -29.349972 33.296168 45.934274 1.187707 0.759957 0.101916 -0.030358 1263160.000000 0 0 1
-11.349613 -30.423662 -33.311297 46.519410 1.213734 2.368957 0.099210 -0.024645 -247607.000000 0 0 1
-9.868513 -30.817672 -33.471997 46.556322 1.260892 2.373097 0.106135 -0.030459 261751.000000 0 0 1
-9.030813 -29.948502 -32.658497 45.222183 1.277923 2.377743 0.139596 -0.036480 645640.000000 0 0 1
-7.753513 -30.572802 -32.478997 45.273596 1.322425 2.370850 0.163922 -0.049252 629467.000000 0 0 1
-6.880713 -29.817712 -31.410597 43.852774 1.344007 2.369244 0.188780 -0.046451 224444.000000 0 0 1
-7.336913 -29.904702 -30.035897 43.014842 1.330205 2.343772 0.198613 -0.061311 11541.700000 0 0 1
-6.389113 -29.408382 -29.113097 41.871782 1.356866 2.339622 0.197014 -0.062312 66865.200000 0 0 1
-6.807213 -29.483412 -27.654197 40.992248 1.343890 2.311246 0.200100 -0.063259 -96624.100000 0 0 1
-6.578213 -30.816652 -27.188997 41.619473 1.360490 2.282699 0.191549 -0.065086 211207.000000 0 0 1
-7.412813 -31.210352 -26.086097 41.346346 1.337606 2.253530 0.197306 -0.068355 346419.000000 0 0 1
-6.682213 -32.104182 -25.093597 41.291877 1.365585 2.223974 0.187328 -0.075753 19654.500000 0 0 1
-5.707513 -31.429252 -24.336897 40.157915 1.391155 2.221856 0.189307 -0.079270 -39487.500000 0 0 1
-4.922313 -32.413802 -23.676197 40.440649 1.420089 2.196238 0.189711 -0.086942 -22439.400000 0 0 1
-4.092813 -31.889052 -22.478997 39.229684 1.443149 2.180970 0.211634 -0.104236 254384.000000 0 0 1
-4.857213 -31.594792 -21.305697 38.415572 1.418256 2.158692 0.217294 -0.087883 188884.000000 0 0 1
-5.094513 -30.204872 -21.082797 37.185652 1.403704 2.173608 0.194461 -0.069473 -602046.000000 0 0 1
-5.985313 -30.082052 -19.774197 36.493461 1.374395 2.143440 0.219436 -0.078276 311061.000000 0 0 1
-7.374013 -30.279282 -19.917797 36.985533 1.331913 2.139487 0.242178 -0.084151 555377.000000 0 0 1
-8.220713 -29.244822 -20.468597 36.630632 1.296768 2.163715 0.229939 -0.070772 278077.000000 0 0 1
-8.087113 -28.847802 -21.953197 37.142159 1.297475 2.203167 0.246450 -0.079344 -993845.000000 0 0 1
-6.926813 -28.135332 -22.328597 36.580649 1.329401 2.227354 0.248081 -0.055507 -292739.000000 0 0 1
-6.786413 -28.025542 -23.770497 37.370081 1.333218 2.260208 0.285340 -0.055917 -421779.000000 0 0 1
-5.399913 -27.847942 -24.447997 37.448251 1.379266 2.282134 0.279006 -0.058067 137544.000000 0 0 1
-4.652013 -26.668042 -24.179097 36.296755 1.398093 2.299832 0.251614 -0.062725 267175.000000 0 0 1
-4.040813 -26.728882 -22.867497 35.407397 1.420755 2.272919 0.181574 -0.051076 -675031.000000 0 0 1
-2.490313 -26.746572 -22.902497 35.300215 1.477956 2.276792 0.162601 -0.045600 313448.000000 0 0 1
-1.854613 -25.488702 -23.215197 34.526206 1.498162 2.308234 0.159525 -0.041153 318666.000000 0 0 1
-1.800413 -24.611922 -22.148197 33.159174 1.497774 2.302228 0.159018 -0.051329 -624765.000000 0 0 1
-1.374613 -23.176122 -22.631397 32.422251 1.511554 2.343426 0.154840 -0.045723 -37787.200000 0 0 1
-2.224213 -22.551922 -23.550797 32.682968 1.472488 2.375439 0.198666 -0.056139 -505950.000000 0 0 1
-3.440813 -22.052422 -23.065497 32.096194 1.416016 2.372636 0.206385 -0.061955 -386582.000000 0 0 1
-4.465813 -21.712522 -24.142397 32.775486 1.367946 2.398825 0.180808 -0.064899 -140239.000000 0 0 1
-3.945613 -20.695822 -24.972097 32.672474 1.382409 2.440776 0.176202 -0.044998 184453.000000 0 0 1
-4.632313 -20.666022 -26.234097 33.716030 1.350290 2.462415 0.237083 -0.050100 445215.000000 0 0 1
-4.092213 -21.588122 -27.398597 35.120882 1.383460 2.465658 0.189201 -0.038428 433710.000000 0 0 1
-4.981213 -21.393722 -28.492897 35.977063 1.342037 2.484832 0.198306 -0.038767 307020.000000 0 0 1
-4.430413 -22.060922 -29.591797 37.175090 1.372606 2.491473 0.209153 -0.036948 -49820.200000 0 0 1
-5.412213 -22.396022 -30.724297 38.403858 1.333683 2.498144 0.240274 -0.061964 -486537.000000 0 0 1
-5.606213 -21.432222 -31.715397 38.686383 1.314950 2.531872 0.264407 -0.066548 149112.000000 0 0 1
-6.381213 -22.032422 -32.784197 40.011887 1.288882 2.531093 0.263156 -0.065798 340201.000000 0 0 1
-6.317413 -21.213822 33.305968 39.990292 1.281362 0.586557 0.234043 -0.054870 71659.700000 0 0 1
-5.131813 -21.530522 32.611168 39.413033 1.336811 0.596297 0.240512 -0.067953 -259161.000000 0 0 1
-5.043313 -21.025022 31.299268 38.041171 1.335372 0.604523 0.241795 -0.068413 459247.000000 0 0 1
-3.582913 -21.016822 30.756368 37.423231 1.401941 0.606142 0.189848 -0.072260 -575583.000000 0 0 1
-3.052013 -22.324322 30.614968 38.012713 1.434926 0.634467 0.250515 -0.072596 203163.000000 0 0 1
-1.736013 -22.449322 30.117868 37.604145 1.493620 0.641968 0.223941 -0.062853 -205639.000000 0 0 1
-0.574313 -21.875822 30.896668 37.861398 1.544549 0.616259 0.159345 -0.061939 -1450030.000000 0 0 1
-0.340413 -20.506022 30.638868 36.869405 1.554197 0.589874 0.128666 -0.060140 -433747.000000 0 0 1
0.214387 -19.773622 31.693868 37.356972 -1.559955 0.557830 0.129431 -0.059992 -168163.000000 0 0 1
-0.689413 -19.530422 32.932668 38.294559 1.535512 0.535560 0.128075 -0.059869 61617.300000 0 0 1
-1.723313 -18.595822 32.707268 37.663507 1.478388 0.518815 0.137697 -0.058947 -703498.000000 0 0 1
-2.633513 -18.750322 -33.653597 38.614435 1.431257 2.629108 0.153293 -0.062232 -294282.000000 0 0 1
-3.833613 -17.792522 -33.659297 38.265111 1.358579 2.645889 0.193434 -0.056816 -5104.550000 0 0 1
-3.347013 -16.485222 33.682568 37.649441 1.370488 0.463179 0.146572 -0.042568 85220.900000 0 0 1
-4.316413 -15.493422 -33.381897 37.054401 1.299090 2.692609 0.193165 -0.050968 257327.000000 0 0 1
-3.739413 -14.080222 -33.620997 36.641607 1.311210 2.732704 0.164831 -0.051787 48091.900000 0 0 1
-2.638913 -13.696222 -32.807697 35.649620 1.380454 2.739597 0.160179 -0.052856 190162.000000 0 0 1
-2.452913 -12.294522 -32.854297 35.164996 1.373869 2.777058 0.150675 -0.049262 68135.900000 0 0 1
-1.787513 -11.672322 33.261268 35.295187 1.418836 0.341140 0.144211 -0.048386 -274467.000000 0 0 1
-2.616013 -11.800622 32.100368 34.300609 1.352640 0.360121 0.138822 -0.039425 -16837.500000 0 0 1
-2.012013 -11.501222 30.890868 33.023810 1.397610 0.361374 0.133541 -0.031457 -632595.000000 0 0 1
-0.979913 -12.549522 30.520768 33.014663 1.492871 0.391177 0.114647 -0.044110 -567258.000000 0 0 1
-1.512413 -13.685022 29.895468 32.913617 1.460727 0.431592 0.135357 -0.060539 643627.000000 0 0 1
-0.497413 -14.714222 29.757468 33.200341 1.537004 0.459442 0.117685 -0.061050 781627.000000 0 0 1
-0.990313 -16.168922 30.130068 34.208708 1.509625 0.493307 0.110968 -0.060759 454774.000000 0 0 1
-1.722513 -16.776422 29.044668 33.585832 1.468480 0.526066 0.129260 -0.060161 419544.000000 0 0 1
-1.752213 -18.117422 29.207368 34.414845 1.474382 0.557302 0.160071 -0.052346 -482399.000000 0 0 1
-2.341613 -18.903522 27.962868 33.834129 1.447552 0.597989 0.172224 -0.060204 -1143970.000000 0 0 1
-3.716913 -18.992922 28.041168 34.071302 1.377539 0.604099 0.194203 -0.064428 -1049540.000000 0 0 1
-4.456413 -19.827922 27.211268 33.962615 1.349716 0.641478 0.204731 -0.070605 286407.000000 0 0 1
-4.235913 -19.618922 25.654268 32.572788 1.358151 0.663895 0.188175 -0.073505 -465937.000000 0 0 1
-5.229113 -20.248222 24.870368 32.494143 1.318068 0.699165 0.223044 -0.070670 -189516.000000 0 0 1
-4.775613 -21.506922 24.382468 32.861207 1.352291 0.734772 0.235629 -0.074085 157553.000000 0 0 1
-31.817613 -32.790193 -0.771932 45.696315 0.800451 1.587690 0.091854 -0.015672 12538.700000 0 0 1
-30.965073 -31.720593 -0.424532 44.330712 0.797450 1.580373 0.095294 -0.022202 -16099.200000 0 0 1
-31.182543 -31.348193 0.857568 44.224378 0.788047 1.551404 0.061146 0.000776 88509.800000 0 0 1
-30.566043 -29.992893 1.284968 42.842826 0.775934 1.540799 0.076645 -0.009711 -641893.000000 0 0 1
-29.181863 -29.925193 1.276568 41.817795 0.797974 1.540265 0.112488 -0.019337 -1090400.000000 0 0 1
-28.901193 -28.630093 1.651068 40.714705 0.780686 1.530233 0.118854 -0.024078 34541.600000 0 0 1
-27.403653 -28.262693 1.551668 39.397306 0.800829 1.531401 0.154738 -0.031382 93968.800000 0 0 1
-26.607133 -28.852193 2.574968 39.332163 0.825857 1.505282 0.126117 -0.014676 -450339.000000 0 0 1
-25.350173 -28.261293 2.589668 38.053099 0.839645 1.502690 0.151901 -0.019539 -822167.000000 0 0 1
-24.291413 -28.929193 3.447968 37.932301 0.872321 1.479773 0.137779 -0.032958 -309205.000000 0 0 1
-24.644713 -29.022493 4.816968 38.377991 0.866791 1.444951 0.107084 -0.016937 42530.900000 0 0 1
-23.666013 -29.764993 5.499068 38.422321 0.899053 1.427181 0.099348 -0.024502 75503.000000 0 0 1
-23.962213 -29.814393 6.999068 38.885378 0.893796 1.389818 0.085971 -0.011557 -8256.010000 0 0 1
-23.691113 -28.643793 7.687668 37.958345 0.879752 1.366857 0.096897 -0.036589 38272.900000 0 0 1
-24.208413 -28.670093 9.013968 38.591102 0.869575 1.335042 0.052432 -0.027254 -149966.000000 0 0 1
-23.818713 -27.457993 9.853668 37.661217 0.856253 1.306076 0.073689 -0.029113 -298913.000000 0 0 1
-22.493813 -27.536493 10.294268 37.016240 0.885851 1.288979 0.073606 -0.046441 -679184.000000 0 0 1
-22.255013 -26.456593 11.187568 36.337289 0.871439 1.257831 0.092095 -0.038829 1113640.000000 0 0 1
-20.814713 -26.335093 11.833068 35.592287 0.901949 1.231884 0.083072 -0.041266 918655.000000 0 0 1
-20.533413 -27.417593 12.671168 36.522650 0.927991 1.216490 0.065452 -0.021049 -35174.400000 0 0 1
-19.306413 -27.267893 13.379368 35.990041 0.954703 1.189901 0.082362 -0.033994 350447.000000 0 0 1
-19.124313 -28.257893 14.573568 37.103056 0.975826 1.167137 0.088733 -0.027160 31639.800000 0 0 1
-19.003413 -29.602793 14.128368 37.908651 1.000103 1.188885 0.081952 -0.024515 -56311.000000 0 0 1
-18.990413 -30.562293 15.148468 39.040564 1.014813 1.172315 0.083438 -0.020125 148637.000000 0 0 1
-18.587913 -31.918593 14.516168 39.686600 1.043453 1.196336 0.074112 -0.027047 90763.200000 0 0 1
-18.570813 -32.965893 15.416968 40.857167 1.057773 1.183876 0.085307 -0.020726 68943.500000 0 0 1
-18.481613 33.264778 14.836868 40.844193 -1.063671 1.199037 0.062874 -0.020676 -233052.000000 0 0 1
-18.108413 32.188178 15.876368 40.200155 -1.058346 1.164801 0.070956 -0.023204 688632.000000 0 0 1
-19.194313 31.862278 16.789168 40.810569 -1.028603 1.146815 0.079176 -0.041069 726342.000000 0 0 1
-19.035613 30.637178 17.486468 40.084508 -1.014845 1.119380 0.042417 -0.026827 120129.000000 0 0 1
-19.799013 30.660778 18.851968 41.078959 -0.997419 1.094017 0.051522 -0.038020 329845.000000 0 0 1
-19.243713 31.484578 19.882068 41.915340 -1.022174 1.076584 0.057391 -0.035786 92886.200000 0 0 1
-20.193513 31.627578 20.908868 42.956517 -1.002564 1.062437 0.069253 -0.020709 171292.000000 0 0 1
-19.725113 32.735778 21.919068 44.058561 -1.028500 1.050084 0.070341 -0.023218 681266.000000 0 0 1
-18.530413 32.339478 22.608168 43.592973 -1.050469 1.025561 0.055445 -0.029329 378299.000000 0 0 1
-18.267513 33.191778 23.682768 44.679633 -1.067675 1.012128 0.061700 -0.031638 293087.000000 0 0 1
-19.167213 32.885878 24.950468 45.512513 -1.043090 0.990572 0.065989 -0.031629 1991170.000000 0 0 1
-20.612413 33.075478 24.901268 46.248588 -1.013497 1.002233 0.066968 -0.034402 1154190.000000 0 0 1
-21.268413 31.885378 25.115468 45.823678 -0.982544 0.990718 0.072815 -0.024208 -51476.000000 0 0 1
-22.771213 32.044478 24.759768 46.458829 -0.952983 1.008725 0.119325 -0.039090 262288.000000 0 0 1
-22.929213 31.877978 23.350268 45.685767 -0.947247 1.034325 0.110465 -0.019902 167005.000000 0 0 1
-24.304813 31.979778 23.023268 46.297959 -0.920922 1.050330 0.106561 -0.025714 207036.000000 0 0 1
-24.614413 31.473878 21.587168 45.414536 -0.907091 1.075450 0.094339 -0.027734 9340.750000 0 0 1
-24.039813 32.364778 20.649168 45.296574 -0.931934 1.097451 0.087716 -0.026371 198705.000000 0 0 1
-24.162913 31.884478 19.365468 44.446458 -0.922305 1.119977 0.054611 -0.011098 -178857.000000 0 0 1
-23.560313 32.891778 18.356268 44.428706 -0.949216 1.144872 0.051574 -0.009373 837246.000000 0 0 1
-22.139313 32.984278 18.578768 43.855243 -0.979656 1.133338 0.043804 -0.010124 649839.000000 0 0 1
-21.586213 -33.529293 17.637268 43.603341 0.998791 1.154371 0.063563 -0.009181 -107262.000000 0 0 1
-20.483413 -32.666093 18.227268 42.648296 1.010721 1.129197 0.070321 -0.014689 -257216.000000 0 0 1
-20.956313 -31.648593 19.062368 42.475574 0.985923 1.105392 0.069807 -0.022624 622223.000000 0 0 1
-19.837113 -30.988693 19.652768 41.713804 1.001384 1.080221 0.059701 -0.026662 338021.000000 0 0 1
-20.261413 -30.007793 20.751668 41.732772 0.976906 1.050369 0.055777 -0.021289 -175373.000000 0 0 1
-20.752713 -28.782293 20.185168 40.823235 0.946099 1.053591 0.070087 -0.020889 439036.000000 0 0 1
-21.281713 -27.942393 21.219268 41.035911 0.919895 1.027348 0.082961 -0.013975 548619.000000 0 0 1
-22.141013 -26.696493 20.726768 40.404531 0.878407 1.032142 0.072760 -0.024315 384410.000000 0 0 1
-21.276713 -25.672893 20.191868 38.980861 0.878762 1.026292 0.070116 -0.014945 481229.000000 0 0 1
-21.914513 -24.463593 19.916968 38.410921 0.840306 1.025673 0.061376 -0.002289 -179331.000000 0 0 1
-22.995913 -24.414493 18.770368 38.434440 0.815311 1.060571 0.056449 -0.009029 71741.500000 0 0 1
-24.265113 -24.770793 19.282368 39.676159 0.795710 1.063296 0.050853 -0.005358 -208634.000000 0 0 1
-25.217403 -24.665393 18.247468 39.714848 0.774332 1.093407 0.041827 0.001483 -267817.000000 0 0 1
-26.647483 -25.089193 18.615768 41.062182 0.755288 1.100270 0.048032 -0.005558 -169886.000000 0 0 1
-26.937493 -26.421393 19.033768 42.261127 0.775726 1.103600 0.031627 -0.006776 -50394.900000 0 0 1
-26.884793 -27.461893 18.073068 42.468617 0.796017 1.131213 0.036189 -0.011359 -756618.000000 0 0 1
-27.991413 -28.475093 18.342868 43.940994 0.793964 1.140167 0.063799 -0.019626 147799.000000 0 0 1
-29.268443 -27.913093 18.022468 44.278571 0.761700 1.151602 0.058457 -0.028784 -180134.000000 0 0 1
-30.107683 -28.865193 17.470868 45.220606 0.764332 1.174128 0.057060 -0.016965 484845.000000 0 0 1
-31.643983 -28.609293 17.700568 46.185966 0.735075 1.177489 0.057034 -0.019982 813971.000000 0 0 1
-32.068163 -27.437493 17.122268 45.545089 0.707736 1.185384 0.069682 -0.019919 -710994.000000 0 0 1
-33.418693 -27.209793 17.400468 46.475350 0.683345 1.187044 0.096641 -0.011509 -195754.000000 0 0 1
-34.058270 -25.902693 16.818568 45.975858 0.650213 1.196290 0.117802 -0.027815 29896.200000 0 0 1
-34.639748 -26.061693 15.545568 46.052021 0.645012 1.226467 0.131041 -0.044984 30217.100000 0 0 1
-35.284615 -24.929693 15.005068 45.734513 0.615096 1.236515 0.125621 -0.035599 -56102.500000 0 0 1
-34.469882 -23.629993 14.570968 44.259038 0.600946 1.235319 0.124230 -0.034951 311248.000000 0 0 1
-33.757103 -22.978293 15.639268 43.727916 0.597652 1.205047 0.111240 -0.022685 523004.000000 0 0 1
-33.462963 -21.574893 15.335568 42.666445 0.572668 1.203140 0.102430 -0.009134 386975.000000 0 0 1
-34.670527 -20.630493 15.667968 43.279879 0.536768 1.200368 0.112608 -0.017125 358821.000000 0 0 1
-34.831197 -20.441493 17.054768 43.839845 0.530711 1.171224 0.116163 -0.013791 719887.000000 0 0 1
-35.576988 -19.210493 17.303168 43.979140 0.495110 1.166426 0.120425 -0.012790 257824.000000 0 0 1
-35.955023 -18.896393 18.833668 44.772139 0.483883 1.136628 0.088387 -0.008711 494193.000000 0 0 1
-36.993933 -19.788593 19.298068 46.179594 0.491188 1.139673 0.095298 -0.001692 772963.000000 0 0 1
-37.269733 -19.486293 20.633268 46.845281 0.481756 1.114690 0.095389 0.001361 897944.000000 0 0 1
37.423951 -19.747893 21.139668 47.301342 -0.485546 1.107483 0.106291 0.001948 1673680.000000 0 0 1
36.926911 -21.115993 21.263768 47.556595 -0.519450 1.107247 0.114107 -0.009258 1098500.000000 0 0 1
37.777451 -21.974493 22.114368 48.980194 -0.526842 1.102355 0.089232 0.004756 401852.000000 0 0 1
36.971641 -23.227493 22.450068 49.096071 -0.560934 1.095875 0.098217 0.010393 372970.000000 0 0 1
35.887191 -22.849893 23.300868 48.507097 -0.566979 1.069731 0.109250 -0.004641 289715.000000 0 0 1
35.723511 -23.852793 24.278968 49.341597 -0.588722 1.056343 0.103371 -0.016070 -527376.000000 0 0 1
34.644571 -23.621393 25.376168 49.011900 -0.598421 1.026571 0.111651 -0.018596 -400507.000000 0 0 1
33.377761 -23.700793 24.796068 47.860709 -0.617457 1.026182 0.110332 -0.018242 -310136.000000 0 0 1
32.452681 -24.092493 25.836768 47.970442 -0.638612 1.002024 0.071613 -0.015424 658671.000000 0 0 1
31.136501 -24.696193 25.238468 47.078274 -0.670556 1.004991 0.071211 -0.023289 550945.000000 0 0 1
30.288901 -23.747293 24.567568 45.660889 -0.664925 1.002681 0.087449 -0.022552 1115020.000000 0 0 1
28.998701 -24.386293 24.381468 45.056319 -0.699213 0.999012 0.084659 -0.019367 813996.000000 0 0 1
27.818301 -23.436193 24.175768 43.675860 -0.700109 0.984203 0.086965 -0.018632 -495918.000000 0 0 1
27.644701 -22.526093 23.064468 42.469095 -0.683726 0.996686 0.079273 -0.014943 -143268.000000 0 0 1
28.778201 -21.741993 22.757268 42.647302 -0.647013 1.007926 0.082525 -0.010361 146455.000000 0 0 1
28.503801 -21.097393 21.360668 41.398608 -0.637174 1.028650 0.079048 -0.013616 546027.000000 0 0 1
27.708501 -19.910693 21.449868 40.302525 -0.623085 1.009574 0.066617 -0.018965 148123.000000 0 0 1
27.370701 -19.340693 20.159068 39.110174 -0.615155 1.029272 0.036760 -0.016977 250617.000000 0 0 1
26.512701 -18.017193 20.435968 38.015409 -0.596881 1.003243 0.041964 -0.009383 -32857.100000 0 0 1
27.023201 -16.827593 21.011968 38.143467 -0.556950 0.987394 0.062502 -0.022397 -263101.000000 0 0 1
27.415101 -16.923193 22.378668 39.227375 -0.553039 0.963699 0.064532 -0.020826 -130676.000000 0 0 1
27.208701 -15.544593 23.056168 38.904172 -0.519056 0.936464 0.078789 -0.014452 -429303.000000 0 0 1
25.866701 -15.172193 23.199668 37.914459 -0.530473 0.912342 0.035166 -0.020158 -688827.000000 0 0 1
25.736301 -13.803693 23.583068 37.537451 -0.492304 0.891489 0.036313 -0.028063 176262.000000 0 0 1
24.390801 -13.207393 23.119368 36.108885 -0.496287 0.875949 0.024464 -0.030288 134182.000000 0 0 1
23.292301 -13.562993 23.914968 36.033481 -0.527299 0.845059 0.044042 -0.023010 -706711.000000 0 0 1
22.164901 -12.785393 23.705168 34.880999 -0.523209 0.823578 0.061529 -0.023958 406504.000000 0 0 1
20.792601 -13.484893 24.021868 34.514123 -0.575350 0.800983 0.077156 -0.022935 687941.000000 0 0 1
20.415901 -14.554393 23.178868 34.145267 -0.619328 0.824627 0.095632 -0.031222 -90450.400000 0 0 1
19.124101 -15.086593 23.345568 33.739473 -0.667923 0.806629 0.124016 -0.034392 122990.000000 0 0 1
18.703601 -16.257693 22.474668 33.455163 -0.715552 0.834181 0.133537 -0.041945 -315705.000000 0 0 1
19.318601 -17.406993 22.899568 34.649703 -0.733394 0.848795 0.120791 -0.029994 -173707.000000 0 0 1
19.248401 -18.496593 21.990368 34.586141 -0.765483 0.881733 0.137516 -0.031259 -117451.000000 0 0 1
19.696201 -19.793293 22.738768 36.010642 -0.787857 0.887380 0.109442 -0.024359 -173889.000000 0 0 1
18.931501 -20.180393 23.870568 36.543864 -0.817319 0.858989 0.130402 -0.025829 111506.000000 0 0 1
19.068301 -21.583293 24.150368 37.585621 -0.847186 0.872984 0.126666 -0.026342 -339086.000000 0 0 1
18.532801 -22.612893 23.106568 37.265549 -0.884237 0.901988 0.119656 -0.027142 227170.000000 0 0 1
19.424301 -22.841093 22.017168 37.199122 -0.866064 0.937415 0.107687 -0.018864 664307.000000 0 0 1
20.531101 -23.716693 22.278568 38.475216 -0.857269 0.953249 0.098307 -0.014414 518931.000000 0 0 1
21.604601 -23.798693 21.172568 38.489144 -0.833685 0.988322 0.079242 -0.001329 -117024.000000 0 0 1
21.144701 -24.474393 20.019768 38.037947 -0.858258 1.016541 0.081871 -0.014953 499769.000000 0 0 1
22.169701 -25.154393 19.276668 38.675949 -0.848384 1.049027 0.076294 -0.017310 277052.000000 0 0 1
21.640301 -25.730993 17.976368 38.125273 -0.871538 1.079796 0.085018 -0.023570 -25584.700000 0 0 1
20.892901 -26.881793 18.243068 38.625816 -0.910105 1.078895 0.101795 -0.031077 -262514.000000 0 0 1
20.152701 -27.349793 17.147168 38.054801 -0.935764 1.103369 0.099110 -0.036737 -99467.100000 0 0 1
19.135301 -28.422193 17.580568 38.510481 -0.978248 1.096723 0.104591 -0.033403 -503574.000000 0 0 1
17.956701 -27.985893 18.186168 37.899736 -1.000325 1.070313 0.112577 -0.034106 -160014.000000 0 0 1
17.224901 -29.115893 18.676068 38.642308 -1.036578 1.066369 0.120637 -0.031416 937150.000000 0 0 1
15.818501 -28.794193 19.317568 38.111664 -1.068441 1.039249 0.104840 -0.024792 713622.000000 0 0 1
14.904201 -28.289493 18.370768 36.877035 -1.085903 1.049318 0.099127 -0.035248 753716.000000 0 0 1
13.667201 -27.933693 19.069668 36.479252 -1.115767 1.020718 0.071353 -0.031362 872850.000000 0 0 1
12.578201 -27.623793 18.039768 35.308898 -1.143511 1.034550 0.092919 -0.038685 -376638.000000 0 0 1
12.283401 -28.728093 17.169968 35.650990 -1.166747 1.068302 0.091050 -0.039334 -347835.000000 0 0 1
11.485601 -28.304993 16.140768 34.548749 -1.185317 1.084688 0.137424 -0.042059 -512031.000000 0 0 1
11.242201 -29.427893 15.109368 34.938245 -1.205881 1.123578 0.130667 -0.039513 -179543.000000 0 0 1
10.346901 -30.407793 15.547268 35.684868 -1.242815 1.120000 0.158016 -0.048850 -244875.000000 0 0 1
9.890201 -31.224793 14.476868 35.810382 -1.264052 1.154622 0.130787 -0.032431 327070.000000 0 0 1
8.844901 -32.280893 14.944068 36.655334 -1.303362 1.150872 0.145640 -0.036400 274950.000000 0 0 1
9.418401 -33.355793 15.676968 38.040538 -1.295599 1.146025 0.149968 -0.038115 -144082.000000 0 0 1
8.601301 32.936278 15.678368 37.477887 1.315352 1.139183 0.150658 -0.030290 -73440.200000 0 0 1
9.133301 31.861878 16.571568 37.056893 1.291629 1.107172 0.162624 -0.036705 -29619.900000 0 0 1
10.366701 31.308578 16.171868 36.731796 1.251045 1.114898 0.126368 -0.034688 -238436.000000 0 0 1
10.619801 30.207678 16.998568 36.252383 1.232733 1.082757 0.157544 -0.036309 -294606.000000 0 0 1
11.882301 29.403978 16.663168 35.825189 1.186756 1.087021 0.068755 -0.046994 -124467.000000 0 0 1
11.758201 28.669278 15.479268 34.637992 1.181586 1.107514 0.133041 -0.033026 953567.000000 0 0 1
13.029701 28.053878 15.127768 34.433160 1.135989 1.115936 0.095891 -0.045019 1056760.000000 0 0 1
12.974101 26.970278 13.981468 33.033386 1.122422 1.133764 0.082239 -0.038870 51028.800000 0 0 1
12.293601 25.726478 14.247468 31.874357 1.125019 1.107400 0.110982 -0.036657 343507.000000 0 0 1
12.609101 24.752678 13.304468 30.800866 1.099654 1.124141 0.096315 -0.034755 -147397.000000 0 0 1
-9.641113 -9.172022 18.937033 23.144940 0.760469 0.612535 0.104330 -0.040129 93426.900000 0 1 0
-9.669613 -9.298522 17.530533 22.074499 0.765837 0.653184 0.098204 -0.045251 51891.100000 0 1 0
-9.454713 -10.613122 17.122033 22.252954 0.843059 0.692852 0.108258 -0.053653 43012.800000 0 1 0
-9.738013 -10.798522 15.590133 21.318752 0.836992 0.750589 0.098025 -0.051763 1263810.000000 0 1 0
-11.146013 -10.665022 15.245233 21.688555 0.763349 0.791307 0.114522 -0.053792 1369960.000000 0 1 0
-11.579113 -11.309822 14.047233 21.431581 0.773634 0.856024 0.118626 -0.056538 78346.900000 0 1 0
-11.648013 -12.858322 14.129033 22.375035 0.834746 0.887356 0.098677 -0.042735 -211479.000000 0 1 0
-10.367113 -13.448522 13.948433 21.974953 0.914069 0.883121 0.100042 -0.035368 332286.000000 0 1 0
-10.323313 -14.856722 14.219933 23.010855 0.963530 0.904643 0.112151 -0.035518 39814.200000 0 1 0
-10.149713 -15.263922 15.743533 24.163253 0.983985 0.861172 0.127520 -0.038778 97925.300000 0 1 0
-11.353813 -15.175122 16.482933 25.117334 0.928457 0.854975 0.154087 -0.043291 -40249.900000 0 0 1
-11.110313 -14.760922 17.771633 25.635031 0.925580 0.804799 0.170385 -0.043779 186581.000000 0 0 1
-12.401613 -14.247622 18.466133 26.415768 0.854558 0.796718 0.126725 -0.045089 17279.800000 0 0 1
-12.823413 -12.936522 18.010133 25.615589 0.789789 0.791059 0.136940 -0.042475 948474.000000 0 0 1
-13.999913 -12.926622 17.164833 25.646181 0.745559 0.837538 0.150210 -0.060458 1889160.000000 0 0 1
-15.421913 -13.107522 17.836133 26.977216 0.704453 0.848439 0.099891 -0.047050 514602.000000 0 0 1
-15.664213 -14.419222 18.314933 28.084129 0.744037 0.860385 0.109300 -0.035932 -203072.000000 0 0 1
-16.869713 -14.425022 19.038033 29.242352 0.707438 0.861838 0.101981 -0.034342 -399455.000000 0 0 1
-17.266213 -15.783722 19.499433 30.454488 0.740572 0.875932 0.093657 -0.029342 -108591.000000 0 0 1
-18.246213 -16.330522 18.631733 30.769330 0.730051 0.920365 0.083094 -0.022790 -105860.000000 0 0 1
-18.720713 -17.521922 19.208633 32.038327 0.752333 0.927856 0.087778 -0.025660 -170745.000000 0 0 1
-19.908513 -18.086022 18.408933 32.593586 0.737468 0.970603 0.087937 -0.025050 -193515.000000 0 0 1
-19.558913 -18.406822 17.086133 31.832344 0.755062 1.004211 0.097601 -0.027014 28330.500000 0 0 1
-19.969713 -17.332622 16.213033 31.017280 0.714821 1.020770 0.093241 -0.031078 -291834.000000 0 0 1
-19.532513 -17.381822 14.765933 30.027980 0.727202 1.056710 0.103981 -0.043006 -658847.000000 0 0 1
-20.013513 -18.477722 14.075533 30.660847 0.745520 1.093846 0.107465 -0.040082 -46892.100000 0 0 1
-19.784313 -18.410422 12.703233 29.861929 0.749443 1.131394 0.126882 -0.041286 -97021.500000 0 0 1
-20.212113 -19.710322 12.044133 30.693443 0.772830 1.167556 0.151266 -0.043183 -39239.000000 0 0 1
-19.222313 -20.700822 12.258333 30.794286 0.822415 1.161383 0.143297 -0.037560 192608.000000 0 0 1
-19.465913 -21.941822 11.595733 31.540868 0.845120 1.194325 0.119977 -0.032724 175848.000000 0 0 1
-18.320213 -22.948722 11.956233 31.705292 0.897086 1.184128 0.106911 -0.030160 371936.000000 0 0 1
-18.386013 -24.247722 11.406833 32.497897 0.922031 1.212155 0.124649 -0.056333 -53303.900000 0 0 1
-17.831413 -24.253822 10.082233 31.746789 0.936835 1.247617 0.119418 -0.047160 -231107.000000 0 0 1
-18.472613 -25.331642 9.216533 32.678341 0.940721 1.284879 0.136628 -0.053831 5738.030000 0 0 1
-19.785713 -25.098312 8.755733 33.137027 0.903213 1.303393 0.115339 -0.054078 -550887.000000 0 0 1
-20.144513 -26.155292 7.938433 33.954667 0.914499 1.334817 0.140547 -0.056760 680071.000000 0 0 1
-21.585613 -25.893132 7.382433 34.509322 0.875876 1.355204 0.143600 -0.057946 475516.000000 0 0 1
-21.597913 -24.714522 6.655233 33.489843 0.852592 1.370741 0.169298 -0.062785 -279880.000000 0 0 1
-22.718713 -24.531122 5.834933 33.940570 0.823737 1.398022 0.180364 -0.055177 -264027.000000 0 0 1
-22.395313 -23.425522 4.825833 32.765741 0.807878 1.422976 0.180383 -0.054357 434941.000000 0 0 1
-23.312613 -23.320822 3.725333 33.184586 0.785574 1.458298 0.187792 -0.056661 597552.000000 0 0 1
-22.995313 -22.124822 3.012233 32.052546 0.766108 1.476679 0.177568 -0.038380 312248.000000 0 0 1
-23.481813 -22.142022 1.519833 32.310595 0.756041 1.523741 0.156687 -0.036432 481432.000000 0 0 1
-22.588213 -22.881622 0.677433 32.159834 0.791851 1.549730 0.163303 -0.045150 409810.000000 0 0 1
-23.019513 -22.834422 -0.630967 32.430031 0.781362 1.590254 0.156327 -0.048391 136850.000000 0 0 1
-22.149213 -23.673922 -1.669067 32.462717 0.818660 1.622234 0.178205 -0.047483 1259800.000000 0 0 1
-20.771413 -23.215922 -1.743467 31.200486 0.840914 1.626705 0.172255 -0.045719 1503550.000000 0 0 1
-19.971513 -23.875222 -2.768167 31.249805 0.874195 1.659494 0.151729 -0.039447 735133.000000 0 0 1
-19.646013 -25.404402 -2.661667 32.224741 0.912530 1.653488 0.163535 -0.032946 -236337.000000 0 0 1
-20.759013 -26.140052 -3.119967 33.525709 0.899635 1.663993 0.226100 -0.048864 -190261.000000 0 0 1
-20.373413 -27.471772 -3.450967 34.375622 0.932685 1.671356 0.213137 -0.039410 -334705.000000 0 0 1
-21.472913 -28.460892 -3.853667 35.860272 0.924440 1.678468 0.211545 -0.046349 -497072.000000 0 0 1
-22.169313 -27.998332 -4.949967 36.053949 0.901070 1.708525 0.188544 -0.039081 -270513.000000 0 0 1
-22.954013 -29.016542 -5.561267 37.413555 0.901526 1.719992 0.198725 -0.064890 44905.800000 0 0 1
-23.438413 -28.487302 -6.908767 37.531542 0.882326 1.755931 0.176827 -0.021142 884561.000000 0 0 1
-22.322713 -28.177632 -7.792267 36.783174 0.900821 1.784257 0.196074 -0.015063 1216930.000000 0 0 1
-22.759713 -28.104122 -9.165467 37.307533 0.890087 1.819011 0.180156 -0.011821 548472.000000 0 0 1
-23.632213 -26.869232 -9.699067 37.074372 0.849408 1.835487 0.155778 -0.003682 362171.000000 0 0 1
-23.018813 -25.634302 -10.067167 35.893329 0.839104 1.855085 0.162043 -0.003949 95176.400000 0 0 1
-22.898513 -24.689622 -9.004767 34.856924 0.823018 1.832095 0.156308 -0.005216 -203437.000000 0 0 1
-22.716113 -23.264222 -9.504967 33.876101 0.797318 1.855195 0.144590 -0.015375 590698.000000 0 0 1
-23.899213 -22.559122 -9.928967 34.331775 0.756561 1.864194 0.145099 -0.009322 582585.000000 0 0 1
-23.726613 -21.181622 -9.903667 33.312099 0.728788 1.872659 0.147283 -0.009825 209251.000000 0 0 1
-25.001073 -20.428522 -10.355567 33.905987 0.685085 1.881176 0.171020 -0.008886 -63646.100000 0 0 1
-25.454793 -20.698222 -11.712167 34.835869 0.682700 1.913686 0.146539 0.001754 435029.000000 0 0 1
-26.703973 -20.091722 -12.017667 35.513431 0.645027 1.916010 0.129613 -0.000598 103935.000000 0 0 1
-26.758053 -18.546622 -12.090567 34.729705 0.606096 1.926375 0.131156 -0.015728 -1255920.000000 0 0 1
-26.039203 -18.007122 -13.156067 34.283796 0.605025 1.964639 0.146111 -0.007391 131857.000000 0 0 1
-25.967653 -16.583522 -13.123867 33.489821 0.568335 1.973466 0.151938 -0.025569 -245378.000000 0 0 1
-25.185233 -15.941922 -11.959667 32.116576 0.564322 1.952372 0.151395 -0.019653 -621834.000000 0 0 1
-25.743633 -16.056422 -10.637967 32.151356 0.557667 1.908023 0.167441 -0.023499 -423099.000000 0 0 1
-24.802013 -16.158822 -9.657967 31.137176 0.577438 1.886173 0.176267 -0.026687 -451891.000000 0 0 1
-25.480883 -16.592722 -8.300367 31.519675 0.577207 1.837278 0.159995 -0.035246 559496.000000 0 0 1
-26.073423 -17.910422 -8.412267 32.731832 0.601895 1.830719 0.150694 -0.025917 -231551.000000 0 0 1
-26.987843 -18.085522 -7.394567 33.318304 0.590401 1.794597 0.151002 -0.029447 -263284.000000 0 0 1
-27.433503 -19.581022 -7.260467 34.477934 0.619903 1.782968 0.147337 -0.029631 182744.000000 0 0 1
-28.029983 -20.169822 -8.415167 35.543167 0.623747 1.809825 0.132856 -0.027211 121361.000000 0 0 1
-28.425063 -21.518722 -8.277067 36.599856 0.647987 1.798920 0.129223 -0.013594 95958.900000 0 0 1
-27.292003 -22.590122 -8.239767 36.373903 0.691416 1.799310 0.111772 0.004128 -153262.000000 0 0 1
-27.743783 -23.866822 -8.004067 37.462085 0.710420 1.786114 0.132118 -0.003609 -263494.000000 0 0 1
-26.779483 -24.790022 -8.462767 37.460704 0.746839 1.798674 0.115493 0.007419 -53399.300000 0 0 1
-27.181273 -26.237562 -8.220967 38.662845 0.767734 1.785064 0.134585 -0.024669 -7913.690000 0 0 1
-27.046993 -26.523272 -6.888767 38.502973 0.775622 1.750680 0.165035 -0.049293 284483.000000 0 0 1
-27.625943 -27.810962 -6.772467 39.780757 0.788736 1.741874 0.163109 -0.050667 -32292.300000 0 0 1
-27.801153 -28.260872 -5.354767 40.003182 0.793598 1.705058 0.190855 -0.063021 283661.000000 0 0 1
-28.725893 -27.547252 -4.493267 40.052684 0.764456 1.683217 0.166752 -0.060309 598463.000000 0 0 1
-28.971483 -28.004852 -3.184167 40.419766 0.768434 1.649656 0.165559 -0.060431 -134510.000000 0 0 1
-29.521753 -29.400922 -2.868067 41.763308 0.783347 1.639525 0.132897 -0.036276 -333380.000000 0 0 1
-28.699923 -30.484082 -3.348867 42.002140 0.815535 1.650612 0.199506 -0.066332 296440.000000 0 0 1
-28.200643 -31.436912 -2.435467 42.302331 0.839611 1.628401 0.186565 -0.065286 -20527.100000 0 0 1
-27.294143 -30.928212 -1.302267 41.270091 0.847734 1.602356 0.199195 -0.065643 -418209.000000 0 0 1
-26.008923 -30.513142 -1.709867 40.130282 0.864920 1.613417 0.214306 -0.077180 254682.000000 0 0 1
-25.136483 -30.372472 -0.571967 39.429139 0.879447 1.585303 0.270683 -0.056412 434015.000000 0 0 1
-23.967213 -29.392602 -0.820667 37.934494 0.886726 1.592432 0.274713 -0.044819 64358.400000 0 0 1
-24.324313 -28.012052 -0.788167 37.107526 0.855744 1.592038 0.232038 -0.064354 -284071.000000 0 0 1
-24.887313 -27.598102 -1.996267 37.215839 0.837001 1.624462 0.270058 -0.079106 -155955.000000 0 0 1
-25.558493 -26.207542 -1.868567 36.654650 0.797936 1.621796 0.163223 -0.054197 532226.000000 0 0 1
-26.805083 -26.336742 -1.168867 37.596578 0.776585 1.601891 0.186600 -0.057970 260401.000000 0 0 1
-27.349603 -25.060412 -0.840367 37.104329 0.741747 1.593447 0.177093 -0.075792 13280.000000 0 0 1
-26.755523 -24.281022 0.393333 36.132821 0.736951 1.559910 0.185599 -0.054091 -70694.400000 0 0 1
-27.037473 -24.935722 1.633533 36.816893 0.744981 1.526413 0.155246 -0.057713 -84759.900000 0 0 1
-26.608573 -24.170222 2.780433 36.054772 0.737416 1.493603 0.167411 -0.048239 30941.400000 0 0 1
-27.475103 -22.968222 3.242633 35.957408 0.696289 1.480494 0.167924 -0.051234 -90438.500000 0 0 1
-27.463153 -21.890722 2.302933 35.195624 0.672967 1.505317 0.162323 -0.044217 380057.000000 0 0 1
-28.294243 -20.764422 2.691133 35.198972 0.633101 1.494267 0.135740 -0.040018 435367.000000 0 0 1
-27.948493 -19.488022 1.904633 34.125194 0.608900 1.514954 0.144061 -0.029673 32061.600000 0 0 1
-26.654903 -19.008622 2.179133 32.810977 0.619489 1.504333 0.143111 -0.028394 -278570.000000 0 0 1
-26.209323 -18.032922 1.284133 31.839659 0.602650 1.530454 0.116296 -0.030879 -583515.000000 0 0 1
-24.775713 -17.574822 1.452433 30.410851 0.616978 1.523018 0.143183 -0.029068 -1365320.000000 0 0 1
-23.772513 -18.383522 0.942233 30.066161 0.658253 1.539453 0.149053 -0.035407 -1896930.000000 0 0 1
-22.627813 -17.774922 1.346233 28.805869 0.665858 1.524045 0.143748 -0.023543 -1693500.000000 0 0 1
-21.404013 -18.690722 1.268533 28.444403 0.717829 1.526185 0.124763 -0.034542 -307378.000000 0 0 1
-20.839613 -18.802222 -0.056667 28.068064 0.734048 1.572815 0.078506 -0.030841 383874.000000 0 0 1
-20.023013 -19.953822 -0.156867 28.268369 0.783667 1.576346 0.121937 -0.029830 -132239.000000 0 0 1
-19.565813 -20.375322 -1.521767 28.289407 0.805663 1.624615 0.122577 -0.031945 7019.790000 0 0 1
-18.598613 -19.459422 -2.005767 26.992603 0.808013 1.645173 0.118148 -0.037937 74832.600000 0 0 1
-18.339613 -19.856722 -3.366967 27.239076 0.825096 1.694721 0.130850 -0.034642 158751.000000 0 0 1
-17.489813 -18.916422 -4.271967 26.114637 0.824564 1.735120 0.134828 -0.026047 59235.500000 0 0 1
-16.112813 -18.900722 -3.976467 25.152979 0.864854 1.729554 0.155338 -0.035554 -245403.000000 0 0 1
-15.464313 -18.259522 -5.038967 24.452941 0.868094 1.778351 0.143285 -0.027779 1366720.000000 0 1 0
-13.873413 -18.156122 -4.988267 23.388013 0.918321 1.785730 0.140038 -0.030879 1709500.000000 0 1 0
-13.174513 -19.345122 -5.318567 24.001848 0.972919 1.794241 0.108874 -0.025899 464409.000000 0 1 0
-11.848913 -19.124122 -5.769767 23.225396 1.016104 1.821850 0.105966 -0.029062 1031570.000000 0 1 0
-10.813413 -20.308622 -5.967067 23.769222 1.081524 1.824553 0.103608 -0.033180 795169.000000 0 1 0
-11.073313 -21.136722 -7.083267 24.890801 1.088220 1.859358 0.101190 -0.033535 -14586.000000 0 1 0
-10.017713 -22.077322 -7.145467 25.274897 1.144823 1.857415 0.109489 -0.033563 75201.100000 0 0 1
-10.160013 -23.165422 -8.224267 26.598895 1.157475 1.885144 0.117472 -0.024680 -197851.000000 0 0 1
-9.988913 -22.762322 -9.572667 26.637148 1.157266 1.938392 0.113205 -0.024405 54550.900000 0 0 1
-9.899913 -23.872322 -10.407467 27.860571 1.177680 1.953635 0.159563 -0.026332 91914.200000 0 0 1
-10.797713 -23.617022 -11.657067 28.464742 1.141971 1.992731 0.197616 -0.043205 281238.000000 0 0 1
-10.255313 -22.619622 -12.478067 27.794260 1.145134 2.036380 0.165254 -0.032130 405730.000000 0 0 1
-11.232913 -22.290522 -13.468567 28.362793 1.104008 2.065610 0.171327 -0.039452 294093.000000 0 0 1
-10.888713 -20.954522 -14.162667 27.536107 1.091564 2.111023 0.133362 -0.022265 -62923.300000 0 0 1
-11.078813 -19.816422 -13.357867 26.341285 1.061015 2.102622 0.132496 -0.027687 7237.050000 0 0 1
-10.731213 -18.688222 -14.136367 25.772960 1.049546 2.151361 0.111274 -0.009064 -94594.400000 0 0 1
-10.480213 -17.389922 -13.293367 24.268454 1.028423 2.150485 0.104986 -0.011304 -448632.000000 0 1 0
-11.634513 -16.756222 -12.796367 24.080695 0.963879 2.131043 0.133056 -0.016701 -27889.700000 0 1 0
-11.280213 -15.674822 -11.928767 22.698871 0.947011 2.124125 0.124404 -0.016449 181863.000000 0 1 0
-10.966113 -14.242622 -12.505067 21.897137 0.914649 2.178620 0.129149 -0.009652 -122675.000000 0 1 0
-12.053113 -13.537722 -13.045067 22.332067 0.843347 2.194617 0.118151 -0.011742 -254399.000000 0 1 0
-12.115313 -13.625322 -14.440867 23.258737 0.843993 2.240660 0.128981 -0.013839 -775227.000000 0 1 0
-13.317513 -12.842522 -14.906767 23.759172 0.767243 2.249020 0.131308 -0.013785 -766590.000000 0 1 0
-13.319513 -11.488922 -14.591067 22.853971 0.711743 2.263276 0.108055 -0.014182 -255430.000000 0 1 0
-14.232513 -10.734822 -15.337967 23.517102 0.646213 2.281286 0.104998 -0.023837 -303573.000000 0 1 0
-14.494613 -9.407122 -14.628367 22.640161 0.575678 2.273292 0.094611 -0.028509 -98757.300000 0 1 0
-13.444313 -8.466322 -14.630567 21.598187 0.561995 2.315016 0.084552 -0.026844 16062.300000 0 1 0
-13.292013 -7.781022 -15.857067 22.105848 0.529608 2.370751 0.089064 -0.025084 113369.000000 0 1 0
-12.026513 -6.885722 -15.880067 21.076687 0.519987 2.424078 0.059907 -0.013871 -186543.000000 0 1 0
-10.799713 -7.559122 -15.916567 20.666670 0.610684 2.449883 0.054454 -0.017525 517271.000000 0 1 0
-9.751313 -6.647322 -15.478967 19.464671 0.598328 2.490190 0.031167 -0.007487 748705.000000 0 1 0
11.976187 21.738278 15.825833 29.435332 1.067242 1.003152 0.136102 -0.038201 69592.800000 0 0 1
12.959887 21.774078 16.846433 30.428135 1.033915 0.984060 0.149480 -0.044114 -172709.000000 0 0 1
13.456287 20.517678 17.106533 29.911206 0.990328 0.961963 0.145249 -0.038947 674751.000000 0 0 1
14.711687 20.496978 18.062833 31.029434 0.948257 0.949464 0.158157 -0.039259 397740.000000 0 0 1
15.963687 20.702478 17.502833 31.460786 0.913927 0.980824 0.138677 -0.028590 -285174.000000 0 0 1
17.029987 20.597278 18.436833 32.468217 0.879922 0.966914 0.139910 -0.036815 395347.000000 0 0 1
18.413987 21.062678 17.972533 33.252417 0.852393 0.999779 0.102251 -0.025818 -1021110.000000 0 0 1
18.406887 22.451678 17.980633 34.149590 0.884072 1.016288 0.105688 -0.029412 1439410.000000 0 0 1
19.599887 23.087678 17.393633 34.924703 0.866922 1.049468 0.096110 -0.026068 1777970.000000 0 0 1
20.989687 22.830478 18.042033 35.879139 0.827381 1.043897 0.085879 -0.029083 -283596.000000 0 0 1
21.497287 21.504578 17.913633 35.291337 0.785568 1.038408 0.104333 -0.021799 173682.000000 0 0 1
22.882087 21.457078 18.216033 36.274232 0.753270 1.044684 0.112912 -0.027802 241932.000000 0 0 1
23.464287 20.036278 18.131933 35.788157 0.706757 1.039506 0.107801 -0.029618 -165214.000000 0 0 1
23.550987 19.443478 16.849733 34.879956 0.690151 1.066630 0.106273 -0.032333 210646.000000 0 0 1
23.279487 18.061878 16.700533 33.868477 0.659854 1.055147 0.099239 -0.021612 394995.000000 0 0 1
24.468087 17.194678 17.242933 34.520472 0.612562 1.047776 0.099624 -0.035663 546620.000000 0 0 1
25.650787 17.245778 16.472933 35.024809 0.591913 1.081141 0.134911 -0.052245 457876.000000 0 0 1
26.366887 15.994478 16.595733 35.020771 0.545267 1.077102 0.114369 -0.034649 117260.000000 0 0 1
27.682687 15.814478 15.782233 35.573976 0.519032 1.111134 0.237996 -0.061621 371265.000000 0 0 1
28.761887 16.669678 16.164133 36.964895 0.525266 1.118221 0.206510 -0.053957 436272.000000 0 0 1
29.590187 16.243978 17.213033 37.891087 0.502048 1.099236 0.209695 -0.060482 -1230050.000000 0 0 1
30.680187 15.274778 16.827933 38.180781 0.461943 1.114369 0.189608 -0.065507 -894266.000000 0 0 1
31.705987 16.045778 16.132933 39.025737 0.468500 1.144620 0.239629 -0.054779 451676.000000 0 0 1
32.572787 15.233178 15.390133 39.113838 0.437447 1.166393 0.232742 -0.058261 283850.000000 0 0 1
31.916787 14.746678 14.021533 37.851673 0.432817 1.191321 0.221236 -0.059345 -4655.260000 0 0 1
31.924087 15.742478 12.969833 37.883895 0.458130 1.221372 0.215118 -0.043342 129047.000000 0 0 1
31.070787 15.356178 11.886633 36.640115 0.459023 1.240402 0.213023 -0.050286 499315.000000 0 0 1
29.751587 16.176978 11.899933 35.895124 0.498020 1.232883 0.205234 -0.060295 -29738.100000 0 0 1
29.939887 17.526778 11.532033 36.559165 0.529614 1.249882 0.212220 -0.052963 75482.700000 0 0 1
30.496987 18.443378 12.437633 37.748101 0.543913 1.235033 0.239516 -0.054570 -414837.000000 0 0 1
29.661687 18.679978 13.672533 37.625728 0.562021 1.198900 0.240609 -0.056354 -753553.000000 0 0 1
28.501787 19.421078 13.486833 37.032753 0.598132 1.198037 0.253971 -0.055374 68270.000000 0 0 1
27.567687 19.366578 14.581333 36.710448 0.612409 1.162334 0.207064 -0.054278 288377.000000 0 0 1
27.858587 20.171778 15.875933 37.882011 0.626703 1.138355 0.182889 -0.046365 -436927.000000 0 0 1
27.837487 21.551278 15.713033 38.552337 0.658799 1.150998 0.156455 -0.036867 1077000.000000 0 0 1
26.549787 22.131878 16.041533 38.105669 0.694895 1.136276 0.138177 -0.037982 908375.000000 0 0 1
26.392387 23.644778 15.628733 38.728425 0.730542 1.155406 0.133309 -0.025561 -83175.100000 0 0 1
26.174187 23.809378 14.218733 38.133278 0.738122 1.188697 0.167680 -0.042123 77617.400000 0 0 1
25.902687 25.116178 13.903533 38.666262 0.769983 1.202981 0.155926 -0.050413 -167555.000000 0 0 1
25.598687 25.237378 12.351833 38.010338 0.778291 1.239827 0.150577 -0.044847 -17492.700000 0 0 1
24.380187 24.583178 12.086633 36.671690 0.789544 1.234927 0.134087 -0.029844 -9940.290000 0 0 1
24.135987 24.872478 10.733233 36.282066 0.800425 1.270475 0.114097 -0.038014 -100266.000000 0 0 1
23.157487 23.826478 10.136633 34.737898 0.799636 1.274685 0.120698 -0.043892 -366996.000000 0 0 1
21.830487 23.882878 10.626533 34.057088 0.830265 1.253477 0.103471 -0.032344 269157.000000 0 0 1
21.160787 22.628978 10.855533 32.828222 0.818914 1.233776 0.132205 -0.037529 371796.000000 0 0 1
20.905487 21.752778 9.612433 31.664201 0.805258 1.262355 0.150052 -0.045366 -70320.000000 0 0 1
19.770187 22.157178 8.824633 30.978621 0.842268 1.281934 0.122376 -0.036552 931298.000000 0 0 1
20.233787 22.992678 7.749433 31.593086 0.849136 1.322979 0.111936 -0.028868 522264.000000 0 0 1
19.087387 23.167878 6.702633 30.757181 0.881667 1.351113 0.108261 -0.027118 -281197.000000 0 0 1
18.838387 21.983178 5.941233 29.554072 0.862284 1.368388 0.109811 -0.020848 226648.000000 0 0 1
18.180987 22.280778 4.700233 29.138866 0.886379 1.408784 0.137876 -0.038137 -252536.000000 0 0 1
16.696687 22.669378 4.738033 28.550464 0.935972 1.404072 0.091946 -0.023820 -696627.000000 0 0 1
16.552187 24.049978 4.947533 29.611728 0.968006 1.402929 0.104250 -0.024447 -1124090.000000 0 0 1
15.235387 24.422778 5.002433 29.216664 1.013047 1.398730 0.110106 -0.028014 -1224770.000000 0 0 1
15.121487 25.947878 4.995933 30.445214 1.043147 1.405955 0.107768 -0.031910 -92535.000000 0 0 1
15.257687 26.395478 3.653733 30.706156 1.046679 1.451524 0.092118 -0.033274 266502.000000 0 0 1
14.939087 27.759278 3.618233 31.730828 1.077084 1.456519 0.091520 -0.035778 218914.000000 0 0 1
14.108687 28.228178 2.352733 31.645228 1.107302 1.496381 0.097574 -0.034866 -153177.000000 0 0 1
14.779587 28.077378 1.148833 31.750514 1.086262 1.534605 0.124476 -0.035885 -223574.000000 0 0 1
14.689187 26.752678 0.639733 30.526828 1.068665 1.549838 0.096824 -0.031129 -266760.000000 0 0 1
15.811387 26.327378 -0.307267 30.711972 1.029959 1.580801 0.100631 -0.033074 -171090.000000 0 0 1
15.814987 27.016878 -1.529067 31.342679 1.041200 1.619601 0.097038 -0.018815 304027.000000 0 0 1
16.978787 26.663478 -2.293567 31.693544 1.003770 1.643227 0.101263 -0.015973 621760.000000 0 0 1
16.978187 27.183278 -3.750267 32.268467 1.012498 1.687280 0.121262 -0.029952 -141073.000000 0 0 1
15.940087 26.680178 -4.589567 31.416276 1.032254 1.717410 0.146669 -0.031817 -291746.000000 0 0 1
16.140387 26.969978 -5.962767 31.991349 1.031512 1.758280 0.135875 -0.025255 -386039.000000 0 0 1
14.943687 26.774478 -6.887467 31.426480 1.061731 1.791751 0.150371 -0.043431 -93111.200000 0 0 1
14.579087 25.469778 -7.233367 30.225502 1.050913 1.812455 0.142394 -0.040645 -14877.300000 0 0 1
13.277087 25.479878 -7.797767 29.770966 1.090426 1.835813 0.121023 -0.051156 525191.000000 0 0 1
12.812587 24.036278 -8.194567 28.443909 1.081058 1.863034 0.147666 -0.034997 552035.000000 0 0 1
13.613687 23.517278 -9.270767 28.711356 1.046051 1.899584 0.135425 -0.037693 389946.000000 0 0 1
13.052287 22.292378 -9.675167 27.584800 1.041103 1.929160 0.142299 -0.020764 170278.000000 0 0 1
13.539587 21.698678 -11.048667 27.860834 1.012929 1.978570 0.136038 -0.024153 332844.000000 0 0 1
12.630187 20.728878 -11.600567 26.903181 1.023564 2.016615 0.154682 -0.023907 209166.000000 0 0 1
12.969387 20.288278 -12.930267 27.331503 1.002012 2.063591 0.140126 -0.028890 -79978.500000 0 0 1
14.203287 19.389678 -13.075067 27.361476 0.938578 2.069018 0.156771 -0.026555 626883.000000 0 0 1
15.492187 19.965778 -12.874867 28.361988 0.910901 2.041988 0.121410 -0.022906 641360.000000 0 0 1
16.517687 19.306478 -13.647267 28.841324 0.863088 2.063698 0.116691 -0.023819 435817.000000 0 0 1
17.906587 19.877278 -13.306767 29.880129 0.837508 2.032348 0.136998 -0.017350 -480092.000000 0 0 1
18.202987 21.184378 -13.842167 31.172619 0.860948 2.030909 0.119665 -0.020948 61974.000000 0 0 1
17.330987 22.270878 -13.610167 31.330365 0.909496 2.020177 0.107110 -0.020554 -318863.000000 0 0 1
17.904187 23.582478 -14.257967 32.863092 0.921423 2.019568 0.117603 -0.022654 265398.000000 0 0 1
17.989087 23.565478 -15.644067 33.521275 0.918796 2.056342 0.106948 -0.016973 -349179.000000 0 0 1
16.773487 23.976078 -16.208467 33.450211 0.960344 2.076651 0.096937 -0.012358 21242.200000 0 0 1
16.893087 24.051478 -17.757667 34.339259 0.958480 2.114284 0.095171 -0.003896 281567.000000 0 0 1
17.084787 22.785178 -18.376767 33.893360 0.927410 2.143842 0.111095 -0.005784 -263523.000000 0 0 1
17.099587 22.908878 -19.800467 34.774575 0.929592 2.176566 0.104127 -0.006165 -45049.300000 0 0 1
17.379187 21.594178 -20.527267 34.492222 0.893130 2.208221 0.105172 -0.007872 -178582.000000 0 0 1
16.312587 20.681878 -20.480167 33.365818 0.902960 2.231670 0.091886 -0.007752 -15333.100000 0 0 1
16.705887 19.540678 -21.258667 33.359492 0.863448 2.261734 0.101051 -0.008678 -296060.000000 0 0 1
15.644287 18.469278 -21.343967 32.271084 0.868021 2.293475 0.084401 -0.012946 -899702.000000 0 0 1
15.452087 17.676878 -20.161567 30.947178 0.852453 2.280334 0.084104 -0.020555 -310984.000000 0 0 1
14.761787 16.512578 -20.439667 30.138938 0.841321 2.316081 0.069504 -0.027110 -92157.600000 0 0 1
13.236387 16.514678 -20.714467 29.614620 0.895146 2.345449 0.083701 -0.029025 185053.000000 0 0 1
12.383987 16.590578 -19.561867 28.482926 0.929573 2.327864 0.070242 -0.026793 163641.000000 0 0 1
11.027587 16.688578 -19.933567 28.239395 0.986876 2.354458 0.092422 -0.027151 161714.000000 0 0 1
10.038787 16.525478 -18.750967 26.934503 1.024900 2.340843 0.116908 -0.043612 -288449.000000 0 0 1
9.799287 15.159978 -18.497767 25.846051 0.996962 2.368408 0.135444 -0.065366 -142795.000000 0 0 1
8.466587 14.810178 -18.227967 24.965642 1.051466 2.389297 0.160323 -0.057114 10261.000000 0 1 0
7.795087 15.126078 -16.875767 23.965666 1.094951 2.352042 0.149377 -0.064917 -120514.000000 0 1 0
7.593587 16.529778 -16.718167 24.706138 1.140163 2.314041 0.155979 -0.058702 -345428.000000 0 1 0
6.643687 16.797478 -15.730067 23.952638 1.194161 2.287251 0.135739 -0.056909 -476166.000000 0 1 0
6.613387 18.270678 -15.513967 24.864387 1.223500 2.244575 0.121406 -0.043835 242018.000000 0 1 0
7.818787 18.987878 -15.227167 25.564420 1.180178 2.208857 0.118321 -0.036725 228008.000000 0 0 1
8.473887 19.575778 -16.371267 26.889333 1.162273 2.225392 0.130569 -0.035913 -25602.000000 0 0 1
9.833387 20.129478 -15.912067 27.478815 1.116385 2.188380 0.124545 -0.024881 -229529.000000 0 0 1
9.835987 21.349178 -15.151067 27.965852 1.139064 2.143338 0.118850 -0.034788 -119614.000000 0 0 1
9.501787 21.161878 -13.772867 26.977786 1.148770 2.106593 0.132303 -0.037437 -371893.000000 0 0 1
8.990687 22.368978 -13.001167 27.390399 1.188630 2.065376 0.118790 -0.032628 254439.000000 0 0 1
7.681087 22.857978 -13.327767 27.552053 1.246616 2.075708 0.111726 -0.032026 399310.000000 0 0 1
7.350787 23.945478 -12.500767 27.994449 1.272948 2.033696 0.097175 -0.034502 25244.100000 0 0 1
6.782387 23.670978 -11.112267 27.014782 1.291745 1.994720 0.064078 -0.025786 -625647.000000 0 0 1
7.750387 23.398878 -10.165467 26.662946 1.250941 1.961953 0.071655 -0.023832 -450295.000000 0 0 1
7.123587 22.867578 -9.023567 25.594851 1.268809 1.931095 0.067936 -0.027298 96033.700000 0 0 1
7.977587 22.942678 -7.755367 25.498119 1.236156 1.879847 0.076731 -0.025319 -92205.100000 0 0 1
8.030787 24.230178 -7.204867 26.523672 1.250753 1.845892 0.067793 -0.028546 38017.400000 0 0 1
8.744287 24.307578 -5.998267 26.519806 1.225475 1.798951 0.087577 -0.036062 -59340.600000 0 0 1
8.866087 25.746178 -5.451167 27.770279 1.239150 1.768374 0.068697 -0.035034 -261628.000000 0 0 1
9.611587 26.447878 -6.369667 28.852132 1.222220 1.793400 0.098348 -0.042367 -379445.000000 0 0 1
9.851587 27.720578 -5.819967 29.989269 1.229329 1.766104 0.080489 -0.041261 154210.000000 0 0 1
10.371687 28.792378 -6.812867 31.352641 1.225043 1.789842 0.083634 -0.033221 351766.000000 0 0 1
11.679587 28.523378 -7.287067 31.671710 1.182149 1.802958 0.099804 -0.040123 -127580.000000 0 0 1
11.904787 29.475078 -8.278667 32.848752 1.186938 1.825567 0.103486 -0.036947 -110221.000000 0 0 1
13.295587 29.445278 -8.917167 33.515860 1.146666 1.840098 0.116751 -0.039616 -195384.000000 0 0 1
14.414087 29.656978 -8.116967 33.958613 1.118390 1.812158 0.100160 -0.026493 -318953.000000 0 0 1
15.478887 30.287978 -8.830967 35.141763 1.098342 1.824815 0.090608 -0.023882 -361047.000000 0 0 1
16.632587 30.702278 -7.988467 35.820224 1.074319 1.795703 0.081947 -0.017101 -425938.000000 0 0 1
17.468087 29.567378 -7.667567 35.187434 1.037177 1.790465 0.081004 -0.012006 1083680.000000 0 0 1
18.692787 29.964178 -6.979467 35.999795 1.013033 1.765907 0.067571 -0.005922 1130140.000000 0 0 1
19.636187 28.758278 -6.818567 35.483958 0.971707 1.764158 0.069066 -0.008757 -412013.000000 0 0 1
19.241387 27.779078 -5.855367 34.295677 0.965015 1.742369 0.090093 -0.017626 -604895.000000 0 0 1
20.240087 26.928378 -5.363867 34.111138 0.926255 1.728698 0.082884 -0.018155 -534236.000000 0 0 1
20.608187 25.700478 -6.240367 33.528408 0.894922 1.758010 0.093677 -0.023643 167574.000000 0 0 1
21.385187 26.031278 -7.416067 34.495677 0.883071 1.787473 0.069097 -0.013621 654268.000000 0 0 1
21.498087 24.833378 -8.165867 33.845913 0.857262 1.814466 0.076519 -0.028617 -777775.000000 0 0 1
22.178187 25.120578 -9.542167 34.842049 0.847527 1.848210 0.080606 -0.022854 867221.000000 0 0 1
23.587187 25.363278 -9.501467 35.915584 0.821666 1.838534 0.069698 -0.015598 860111.000000 0 0 1
24.390087 24.189678 -9.355467 35.602551 0.781273 1.836694 0.085666 -0.015070 554857.000000 0 0 1
25.936987 24.450878 -9.282367 36.833885 0.755913 1.825549 0.030338 -0.008533 868386.000000 0 0 1
26.547987 24.918878 -10.488567 37.891373 0.753755 1.851265 0.048904 -0.007430 1128260.000000 0 0 1
27.969287 25.053478 -10.305167 38.937825 0.730462 1.838645 0.047042 -0.000062 1617600.000000 0 0 1
28.979187 25.095878 -11.524667 40.030168 0.713708 1.862829 0.066011 -0.002429 -29623.200000 0 0 1
28.861087 26.272878 -12.324167 40.928127 0.738489 1.876660 0.055381 0.000969 37859.400000 0 0 1
29.708987 26.244278 -13.456867 41.862553 0.723556 1.898060 0.069246 -0.000567 61377.300000 0 0 1
29.441287 27.346278 -14.500567 42.718553 0.748523 1.917122 0.083197 -0.016458 43256.600000 0 0 1
29.665987 28.626378 -13.946467 43.520619 0.767566 1.897008 0.067883 -0.022319 104238.000000 0 0 1
29.732887 29.520978 -15.028867 44.512915 0.781822 1.915194 0.090321 -0.014790 -160906.000000 0 0 1
29.998487 30.999878 -14.711567 45.577756 0.801813 1.899461 0.081638 -0.022022 552244.000000 0 0 1
31.293787 31.136678 -14.116867 46.347381 0.782882 1.880302 0.079761 -0.030862 570603.000000 0 0 1
31.692287 32.469378 -13.959267 47.471283 0.797509 1.869265 0.075600 -0.032234 -364347.000000 0 0 1
16.725387 -31.847993 -27.688332 45.394680 -1.087222 2.226790 0.103218 -0.048471 107030.000000 0 0 1
17.824787 -32.605793 -27.206782 46.055074 -1.070509 2.202778 0.096120 -0.039815 55467.500000 0 0 1
18.113087 -32.107093 -25.935922 45.073512 -1.057157 2.183906 0.095905 -0.046436 -318076.000000 0 0 1
19.466587 -32.666193 -25.415452 45.738096 -1.033379 2.159969 0.043379 -0.038345 620650.000000 0 0 1
20.660987 -32.170793 -26.021492 46.248831 -0.999904 2.168373 0.096063 -0.044645 641965.000000 0 0 1
20.970887 -32.705893 -27.290802 47.478853 -1.000635 2.183155 0.105475 -0.039672 -1437170.000000 0 0 1
22.460587 -32.589193 -27.545642 48.221322 -0.967353 2.178804 0.116662 -0.038877 -891711.000000 0 0 1
22.958787 -31.303593 -27.727762 47.705866 -0.937989 2.191028 0.115640 -0.041440 445537.000000 0 0 1
24.370087 -31.341293 -27.525922 48.309981 -0.909882 2.177031 0.087662 -0.033493 375896.000000 0 0 1
25.023487 -29.948293 -27.762862 47.894172 -0.874748 2.189121 0.071321 -0.023836 -26326.800000 0 0 1
25.262287 -29.756293 -29.109772 48.692905 -0.866899 2.211580 0.075432 -0.026726 -156809.000000 0 0 1
26.111487 -28.681393 -29.428002 48.687159 -0.832266 2.219847 0.068831 -0.025846 192644.000000 0 0 1
26.461387 -28.626193 -30.936272 49.766624 -0.824675 2.241614 0.075573 -0.039166 106415.000000 0 0 1
27.381987 -29.568693 -31.429642 51.106783 -0.823776 2.233157 0.078945 -0.037394 -256725.000000 0 0 1
27.611087 -29.443893 -32.829722 52.029854 -0.817511 2.253610 0.076845 -0.042602 531616.000000 0 0 1
28.633187 -30.438593 -33.522972 53.573847 -0.815952 2.246868 0.060220 -0.035335 1388850.000000 0 0 1
29.997487 -30.041593 -33.345352 53.983878 -0.786133 2.236599 0.054344 -0.036636 637232.000000 0 0 1
30.925887 -30.861993 33.298603 54.933324 -0.784364 0.919568 0.054832 -0.028011 1148680.000000 0 0 1
32.369387 -30.266793 33.322043 55.445600 -0.751842 0.926062 0.059542 -0.041449 406593.000000 0 0 1
32.576787 -29.213393 32.390523 54.440935 -0.731019 0.933573 0.071581 -0.038115 -689897.000000 0 0 1
33.847787 -28.665293 32.402179 54.929709 -0.702685 0.939881 0.065042 -0.046324 -792820.000000 0 0 1
34.017687 -27.767993 31.198683 53.866708 -0.684590 0.953070 0.062758 -0.041274 -574330.000000 0 0 1
35.288787 -27.176293 31.073063 54.308237 -0.656249 0.961658 0.058625 -0.046624 103406.000000 0 0 1
35.414987 -26.256893 29.999363 53.325487 -0.637978 0.973304 0.071571 -0.039970 -249747.000000 0 0 1
36.112287 -26.756093 28.737303 53.346212 -0.637661 1.001910 0.074373 -0.034541 -388117.000000 0 0 1
35.276687 -27.658893 28.035893 52.872207 -0.664943 1.011892 0.052212 -0.030561 317866.000000 0 0 1
34.397087 -27.018793 27.158393 51.485465 -0.665835 1.015146 0.061818 -0.025348 65999.200000 0 0 1
33.420687 -28.055293 26.478253 51.040569 -0.698342 1.025386 0.047661 -0.019813 1059880.000000 0 0 1
32.208587 -27.629593 25.835473 49.681578 -0.709024 1.023921 0.054761 -0.012133 1069280.000000 0 0 1
31.598687 -28.606093 24.983833 49.406250 -0.735732 1.040624 0.055691 -0.007512 -66735.800000 0 0 1
30.249687 -28.230993 24.351593 48.010755 -0.750893 1.038851 0.053599 -0.002422 101714.000000 0 0 1
29.266487 -28.145793 25.374513 47.880882 -0.765881 1.012254 0.065390 -0.011748 773392.000000 0 0 1
27.941587 -27.900793 24.858743 46.659872 -0.784668 1.008932 0.076316 -0.001829 1415910.000000 0 0 1
26.816187 -27.891493 25.932343 46.578210 -0.805051 0.980330 0.101142 -0.006587 310919.000000 0 0 1
26.770287 -26.622293 26.558543 46.160058 -0.782626 0.957755 0.092863 -0.022588 471676.000000 0 0 1
25.521687 -26.505593 27.241033 45.781840 -0.804307 0.933508 0.105106 -0.027807 374276.000000 0 0 1
25.385187 -25.268893 28.176893 45.572601 -0.783102 0.904237 0.104769 -0.022369 -437109.000000 0 0 1
24.216887 -25.263893 28.968483 45.430110 -0.806555 0.879353 0.114638 -0.020796 60950.200000 0 0 1
24.112987 -24.201693 29.902053 45.401441 -0.787234 0.851820 0.112392 -0.022800 -95367.200000 0 0 1
23.551587 -22.830193 29.363803 44.024174 -0.769846 0.840631 0.106008 -0.023066 29141.900000 0 0 1
24.374287 -22.286893 28.303133 43.495733 -0.740693 0.862276 0.114345 -0.025200 476184.000000 0 0 1
24.216587 -20.888193 28.005883 42.509871 -0.711739 0.851562 0.119296 -0.018435 -251191.000000 0 0 1
24.982887 -19.920793 28.921203 43.097780 -0.673140 0.835159 0.102375 -0.014079 -188578.000000 0 0 1
24.481387 -19.813593 30.190863 43.628030 -0.680406 0.806532 0.099121 -0.013437 232027.000000 0 0 1
25.437487 -19.076893 30.943363 44.367615 -0.643470 0.798989 0.077531 -0.015139 196150.000000 0 0 1
25.032787 -18.833493 32.419098 45.081468 -0.645005 0.768258 0.106383 -0.007061 -96361.400000 0 0 1
24.854787 -20.019093 33.176413 46.034757 -0.678051 0.766011 0.086933 -0.008725 215826.000000 0 0 1
24.407687 -19.609593 -32.920012 45.431251 -0.676822 2.381267 0.100590 -0.012498 54248.300000 0 0 1
24.228687 -20.677193 -31.847862 45.042890 -0.706475 2.356123 0.075868 -0.002683 -17531.200000 0 0 1
25.492287 -21.064793 -31.362002 45.575843 -0.690585 2.329702 0.063497 -0.001117 -178811.000000 0 0 1
25.366287 -22.063593 -30.375242 45.309006 -0.715877 2.305547 0.065691 -0.012449 1090200.000000 0 0 1
26.715187 -22.405493 -29.625562 45.753484 -0.697885 2.275101 0.062034 -0.001638 1019140.000000 0 0 1
27.753787 -23.070793 -30.306032 47.127379 -0.693517 2.269292 0.068661 0.004645 -430375.000000 0 0 1
28.788387 -23.444093 -29.433202 47.378372 -0.683436 2.241117 0.082857 -0.014397 -380105.000000 0 0 1
29.874287 -24.246793 -30.136272 48.873049 -0.681791 2.235243 0.075230 -0.019313 -790024.000000 0 0 1
30.786887 -23.491893 -30.878242 49.529459 -0.651800 2.243921 0.071161 -0.013575 -348077.000000 0 0 1
30.620987 -23.391193 -32.288092 50.272395 -0.652334 2.268243 0.061549 -0.009605 2284.490000 0 0 1
31.020987 -24.643793 -33.143032 51.653449 -0.671331 2.267434 0.062614 -0.013032 -26590.600000 0 0 1
30.272587 -25.776293 -32.759982 51.517602 -0.705349 2.259969 0.084596 -0.018494 -79102.200000 0 0 1
30.458587 -26.890193 -33.656232 52.759359 -0.723256 2.262590 0.076883 -0.025846 -102658.000000 0 0 1
29.894787 -26.953393 32.289992 51.602590 -0.733703 0.894712 0.073192 -0.031298 -575565.000000 0 0 1
30.663287 -26.301193 31.347201 51.133521 -0.708972 0.910886 0.054239 -0.033188 -520372.000000 0 0 1
30.260487 -26.400593 29.991263 50.121495 -0.717381 0.929330 0.060724 -0.027837 -591510.000000 0 0 1
31.175187 -25.676393 28.980043 49.709278 -0.688976 0.948392 0.060773 -0.027243 -221480.000000 0 0 1
31.297187 -24.272993 29.041593 49.113198 -0.659663 0.938102 0.049926 -0.030574 204912.000000 0 0 1
31.595387 -23.696493 30.308743 49.783654 -0.643500 0.916238 0.046906 -0.021537 -1464910.000000 0 0 1
32.131687 -22.244993 30.369503 49.493350 -0.605544 0.910175 0.042034 -0.009299 1503720.000000 0 0 1
33.518387 -22.011793 30.009803 50.085822 -0.581076 0.928335 0.055226 -0.017472 867854.000000 0 0 1
34.462487 -22.620393 30.834643 51.479320 -0.580845 0.928580 0.051945 -0.023520 -1314800.000000 0 0 1
35.852387 -22.011393 30.620263 52.033600 -0.550610 0.941630 0.061655 -0.033686 -246364.000000 0 0 1
36.416487 -22.319493 29.329193 51.812372 -0.549847 0.969071 0.074552 -0.031699 890090.000000 0 0 1
37.791687 -21.909493 29.279933 52.588515 -0.525392 0.980299 0.070996 -0.032898 584019.000000 0 0 1
-37.947727 -21.913493 27.844733 51.918785 0.523685 1.004733 0.100801 -0.033680 -247858.000000 0 0 1
-37.761127 -23.264793 27.446583 52.158108 0.552177 1.016648 0.101434 -0.030754 302247.000000 0 0 1
-37.262927 -23.431193 26.109743 51.178757 0.561332 1.035417 0.085476 -0.010844 -124479.000000 0 0 1
-37.113327 -24.884293 25.724313 51.559357 0.590648 1.048437 0.080135 -0.017469 432676.000000 0 0 1
37.867587 -25.655393 25.795103 52.512291 -0.595467 1.057306 0.080492 -0.010955 680237.000000 0 0 1
38.051287 -27.042193 25.493593 53.189322 -0.617856 1.070940 0.069806 -0.004857 245845.000000 0 0 1
-37.112227 -27.823793 26.383903 53.362826 0.643322 1.053623 0.064365 -0.014555 -516377.000000 0 0 1
-36.945727 -29.196593 26.122983 53.850144 0.668771 1.064313 0.064151 -0.015239 543051.000000 0 0 1
-35.697327 -29.742993 26.515543 53.497839 0.694659 1.052227 0.063107 -0.028576 1255470.000000 0 0 1
-34.344227 -29.146493 25.959773 51.989939 0.703714 1.047979 0.073523 -0.029334 -131631.000000 0 0 1
-33.969427 -29.386793 24.600503 51.212208 0.713193 1.069727 0.075785 -0.025039 122684.000000 0 0 1
-32.807527 -28.654693 24.257073 49.858107 0.717933 1.062692 0.054507 -0.017880 20808.500000 0 0 1
-32.331727 -28.956893 22.862463 49.056441 0.730389 1.085982 0.060441 -0.022119 -301125.000000 0 0 1
-31.887427 -30.224493 22.462993 49.344848 0.758631 1.098172 0.071971 -0.022528 371918.000000 0 0 1
-31.460127 -30.227393 21.082233 48.455086 0.765417 1.120660 0.063983 -0.021621 -561610.000000 0 0 1
-31.331627 -31.675593 20.519433 49.051617 0.790857 1.139198 0.084412 -0.020374 528826.000000 0 0 1
-30.217627 -32.467393 20.997333 49.072646 0.821273 1.128648 0.091433 -0.032413 1341980.000000 0 0 1
-28.952027 -32.041993 20.444333 47.779493 0.836015 1.128640 0.112347 -0.029539 59924.300000 0 0 1
-27.984527 -33.183093 20.191233 47.874182 0.870183 1.135415 0.111336 -0.017651 -642432.000000 0 0 1
-28.342727 33.258778 19.282333 47.762588 -0.865033 1.155226 0.096885 -0.012479 8981.260000 0 0 1
-29.346127 32.364278 19.782433 47.958172 -0.834268 1.145607 0.111312 -0.012926 113476.000000 0 0 1
-29.074627 31.436078 20.964133 47.676574 -0.824404 1.115514 0.116178 -0.007737 55024.500000 0 0 1
-28.068627 30.439078 20.741233 46.309653 -0.825891 1.106402 0.104214 -0.008242 318366.000000 0 0 1
-28.164627 29.295178 21.571033 46.008294 -0.805071 1.082807 0.112229 -0.011895 347000.000000 0 0 1
-27.134027 28.205378 21.133033 44.479251 -0.804755 1.075695 0.098145 -0.006146 234215.000000 0 0 1
-25.776727 28.395778 21.457933 43.945451 -0.833707 1.060672 0.090807 -0.007920 53052.100000 0 0 1
-25.041727 27.537078 20.571433 42.527198 -0.832822 1.065891 0.080050 -0.008574 724979.000000 0 0 1
-23.512227 27.888778 20.522433 41.854259 -0.870339 1.058327 0.062158 -0.004675 851527.000000 0 0 1
-22.815427 27.632678 21.766133 41.926997 -0.880599 1.024948 0.073145 -0.011486 113786.000000 0 0 1
-21.662927 28.394178 21.932633 41.911241 -0.919068 1.020064 0.069133 -0.020287 -474671.000000 0 0 1
-21.360827 28.462478 23.431983 42.608161 -0.926981 0.988503 0.074483 -0.016595 -399981.000000 0 0 1
-20.948027 27.222078 24.001463 41.903837 -0.914917 0.960909 0.071719 -0.031672 217028.000000 0 0 1
-20.754327 27.325278 25.397133 42.689896 -0.921225 0.933628 0.082233 -0.027413 -231480.000000 0 0 1
-19.324627 27.660378 25.850083 42.506052 -0.960984 0.917068 0.104798 -0.024888 -590911.000000 0 0 1
-19.043027 29.058478 25.507163 43.100433 -0.990680 0.937497 0.077832 -0.024232 543015.000000 0 0 1
-17.813227 29.576478 26.031213 43.240064 -1.028704 0.924773 0.093416 -0.022840 453577.000000 0 0 1
-17.697727 29.759778 27.590763 44.273063 -1.034293 0.897975 0.087749 -0.017738 -258427.000000 0 0 1
-17.490227 28.525178 28.270723 43.804424 -1.020763 0.869269 0.092433 -0.014996 221011.000000 0 0 1
-17.761227 28.721778 29.649173 44.938571 -1.016965 0.850282 0.089863 -0.010909 -131189.000000 0 0 1
-17.569027 27.465378 30.466523 44.623163 -1.001711 0.819275 0.084151 -0.004674 -505417.000000 0 0 1
-16.223227 27.224678 30.774213 44.174974 -1.033396 0.800088 0.083157 -0.000502 -93606.600000 0 0 1
-15.906527 26.017178 31.502292 43.844105 -1.022047 0.769143 0.094315 -0.010063 -261719.000000 0 0 1
-16.179227 26.046578 33.040629 45.076321 -1.014959 0.748085 0.087214 -0.000615 491655.000000 0 0 1
-17.522627 25.750578 33.447183 45.703925 -0.973295 0.749803 0.077724 0.002091 64065.300000 0 0 1
-18.011927 26.817878 -33.203442 46.325983 -0.979359 2.369905 0.074165 0.002409 -157794.000000 0 0 1
-19.366327 26.449378 -32.573072 46.212869 -0.938783 2.353006 0.060343 0.000696 64549.300000 0 0 1
-20.421127 26.298178 -33.514232 47.242146 -0.910536 2.359463 0.062276 -0.003072 -39281.300000 0 0 1
-21.552627 25.766678 -32.866172 46.995986 -0.874219 2.345270 0.075056 -0.010882 712112.000000 0 0 1
-22.919127 25.867478 -33.660722 48.243725 -0.845758 2.343009 0.112532 -0.032911 877079.000000 0 0 1
-23.126827 24.960378 32.615317 47.134164 -0.823509 0.806585 0.101060 -0.030778 -93482.900000 0 0 1
-23.341027 23.567478 33.001768 46.790450 -0.790226 0.787936 0.086286 -0.024803 -225143.000000 0 0 1
-23.461827 22.673378 31.792841 45.555725 -0.768310 0.798351 0.076850 -0.023638 -401845.000000 0 0 1
-24.720327 22.767678 31.195183 45.854129 -0.744303 0.822606 0.100461 -0.034428 -547264.000000 0 0 1
-24.756927 22.083878 29.943223 44.690040 -0.728393 0.836561 0.097284 -0.031125 694974.000000 0 0 1
-26.246827 21.830178 29.527943 45.137035 -0.693789 0.857693 0.099199 -0.036553 657053.000000 0 0 1
-26.964027 20.878878 30.277783 45.604061 -0.658887 0.844738 0.106416 -0.043786 -270194.000000 0 0 1
-28.021827 20.405278 29.488503 45.510108 -0.629397 0.865900 0.111768 -0.046941 -572793.000000 0 0 1
-28.646127 19.118378 30.022743 45.688927 -0.588509 0.853815 0.124164 -0.045015 -792641.000000 0 0 1
-29.347927 19.342078 31.193553 46.994196 -0.582719 0.844942 0.131048 -0.041016 -144632.000000 0 0 1
-29.599627 18.126678 31.989276 47.201992 -0.549484 0.826152 0.099707 -0.025563 -192661.000000 0 0 1
-30.347127 16.911278 31.380596 46.815395 -0.508401 0.836177 0.087735 -0.020764 261529.000000 0 0 1
-31.749127 17.184578 31.351675 47.814687 -0.496109 0.855698 0.078744 -0.027297 537743.000000 0 0 1
-32.544327 16.017078 31.196413 47.842409 -0.457357 0.860490 0.077676 -0.019510 220183.000000 0 0 1
-34.058427 16.253078 31.013063 48.846177 -0.445251 0.882901 0.089755 -0.019359 118695.000000 0 0 1
-34.684227 16.551178 32.265475 50.179657 -0.445239 0.872388 0.090617 -0.019697 -120695.000000 0 0 1
-36.073627 16.642678 32.188216 51.130876 -0.432255 0.889853 0.112381 -0.027085 -840951.000000 0 0 1
-36.688227 16.824078 33.578183 52.503047 -0.429957 0.876887 0.111659 -0.022049 -777742.000000 0 0 1
-38.027627 17.228878 33.480883 53.515457 -0.425397 0.894857 0.097701 -0.024038 -388571.000000 0 0 1
37.637987 17.399878 -32.616322 52.756026 0.433032 2.237308 0.100580 -0.029687 -69267.000000 0 0 1
36.119787 17.663278 -32.681442 51.814159 0.454825 2.253307 0.098773 -0.028346 -73020.000000 0 0 1
35.310887 16.516978 -32.938332 51.035312 0.437524 2.272347 0.102984 -0.012515 615.140000 0 0 1
34.101387 16.821478 -32.265622 49.869200 0.458256 2.274446 0.099914 -0.011687 -171285.000000 0 0 1
33.122687 15.605878 -32.159462 48.732811 0.440305 2.291501 0.109191 -0.008443 350612.000000 0 0 1
32.466287 15.476778 -33.445862 49.114317 0.444837 2.319896 0.103471 -0.021220 152576.000000 0 0 1
31.656387 14.329878 -33.647672 48.369806 0.425072 2.340098 0.103902 -0.027399 -90759.200000 0 0 1
32.362887 13.023578 33.424913 48.313506 0.382594 0.806771 0.106329 -0.023937 225572.000000 0 0 1
33.240387 12.587578 -32.912732 48.441908 0.361996 2.317778 0.101583 -0.017477 203138.000000 0 0 1
33.985087 11.459378 -33.185262 48.862717 0.325216 2.317404 0.102432 -0.018381 -290404.000000 0 0 1
18.716487 -21.001522 9.462768 29.680209 -0.842866 1.246308 0.040176 -0.009648 -83978.800000 0 0 1
18.561487 -22.103222 10.326968 30.654975 -0.872275 1.227198 0.032526 -0.013343 -192633.000000 0 0 1
19.762387 -22.799922 10.466368 31.936394 -0.856644 1.236901 0.031161 -0.014935 -720394.000000 0 0 1
19.637987 -24.084222 11.318768 33.072871 -0.886743 1.221499 0.045119 -0.015401 321417.000000 0 0 1
18.866587 -25.206372 10.845968 33.300815 -0.928266 1.239048 0.036559 -0.020001 1750260.000000 0 0 1
17.428387 -25.080292 11.053568 32.480010 -0.963499 1.223540 0.044877 -0.020235 1424520.000000 0 0 1
16.578287 -26.072252 10.233968 32.547443 -1.004426 1.250938 0.062946 -0.022906 -1319.530000 0 0 1
16.304987 -25.658232 8.886268 31.672752 -1.004705 1.286414 0.059464 -0.028956 115362.000000 0 0 1
15.484287 -26.577762 8.187768 31.830490 -1.043267 1.310641 0.074095 -0.020739 -220705.000000 0 0 1
15.054387 -26.013522 6.863668 30.829334 -1.046175 1.346281 0.071343 -0.022797 -362286.000000 0 0 1
14.239387 -24.877522 7.034668 29.515044 -1.050934 1.330138 0.070417 -0.029899 136664.000000 0 0 1
13.993387 -24.269322 5.774568 28.603505 -1.047770 1.367516 0.084609 -0.010615 -69259.200000 0 0 1
13.487687 -22.834922 5.923068 27.174144 -1.037272 1.351065 0.111491 -0.017531 74005.600000 0 0 1
12.759687 -22.264022 4.830168 26.111814 -1.050385 1.384745 0.103130 -0.011698 178258.000000 0 0 1
11.909987 -21.242122 5.240968 24.910706 -1.059792 1.358822 0.117910 -0.015444 -38541.500000 0 1 0
11.025287 -20.631422 4.098068 23.748825 -1.080014 1.397370 0.106180 -0.018163 376569.000000 0 1 0
11.681887 -19.800422 3.113868 23.199555 -1.037776 1.436169 0.085875 -0.015142 120906.000000 0 1 0
10.810487 -19.523222 2.021668 22.407810 -1.065098 1.480452 0.068693 -0.002704 93173.500000 0 1 0
11.442987 -19.148222 0.648668 22.316297 -1.032143 1.541725 0.052340 0.003347 -10129.900000 0 1 0
12.083287 -17.891122 0.791768 21.603818 -0.976786 1.534139 0.044911 -0.003545 143391.000000 0 1 0
12.917587 -17.674622 -0.334832 21.894484 -0.939661 1.586090 0.053680 -0.009241 -1451160.000000 0 1 0
14.016387 -16.697022 -0.138532 21.800662 -0.872457 1.577151 0.039015 0.000766 -1279020.000000 0 1 0
15.035187 -17.323022 0.603468 22.945765 -0.855984 1.544494 0.047207 -0.007198 -501011.000000 0 1 0
16.244287 -16.646922 0.353668 23.262028 -0.797639 1.555592 0.066576 -0.018763 -667550.000000 0 1 0
17.415987 -17.233122 1.114468 24.526295 -0.780121 1.525341 0.052843 -0.014598 -667293.000000 0 1 0
18.039987 -18.371422 0.502868 25.752731 -0.794500 1.551268 0.067739 -0.019789 1096150.000000 0 0 1
19.305387 -18.610622 1.175368 26.840915 -0.767076 1.526992 0.076670 -0.018652 1001550.000000 0 0 1
19.779187 -19.997422 0.714268 28.135801 -0.790885 1.545407 0.057823 -0.020901 196434.000000 0 0 1
18.945287 -21.060822 1.209068 28.353906 -0.838229 1.528141 0.048120 -0.010961 458591.000000 0 0 1
19.109087 -22.171122 0.425068 29.272795 -0.859439 1.556275 0.059004 -0.016664 40364.100000 0 0 1
17.991787 -23.225022 0.637568 29.385584 -0.911691 1.549098 0.056720 -0.011657 -184067.000000 0 0 1
18.141087 -24.024122 1.778168 30.156581 -0.924027 1.511798 0.042139 -0.002809 -25255.100000 0 0 1
17.031987 -24.869322 1.971668 30.206940 -0.970304 1.505478 0.029585 -0.001704 -488005.000000 0 0 1
17.216387 -25.744112 3.263368 31.141818 -0.981352 1.465813 0.031744 -0.008039 877604.000000 0 0 1
18.319987 -26.667172 3.219468 32.513458 -0.968858 1.471614 0.034856 -0.008956 653347.000000 0 0 1
19.585387 -26.141942 3.512068 32.853054 -0.927811 1.463689 0.035261 -0.001520 -366151.000000 0 0 1
20.835687 -27.048572 3.552168 34.327380 -0.914425 1.467132 0.052805 0.002410 171260.000000 0 0 1
21.213687 -27.532562 2.263168 34.830797 -0.914307 1.505774 0.061629 0.003531 405002.000000 0 0 1
22.118087 -28.686062 2.360868 36.299774 -0.913965 1.505712 0.087555 0.000361 455706.000000 0 0 1
21.569187 -30.075642 2.776668 37.114471 -0.948643 1.495913 0.072395 -0.001096 -206997.000000 0 0 1
21.360287 -30.178042 4.206468 37.211160 -0.954849 1.457511 0.090237 -0.009843 15429.700000 0 0 1
20.917087 -31.494202 4.490268 38.073243 -0.984533 1.452584 0.064351 -0.019233 -183068.000000 0 0 1
20.798487 -31.753372 6.055668 38.438585 -0.990914 1.412596 0.077379 -0.029062 360317.000000 0 0 1
21.953787 -32.425912 6.545068 39.701970 -0.975643 1.405185 0.056110 -0.033713 724748.000000 0 0 1
21.520087 -33.071732 7.746268 40.210176 -0.993923 1.376940 0.049523 -0.033482 278236.000000 0 0 1
22.640987 33.537979 8.389268 41.325418 0.976988 1.366370 0.062281 -0.040927 -219973.000000 0 0 1
23.674787 -33.173272 8.966368 41.729573 -0.950954 1.354239 0.063350 -0.035995 -634002.000000 0 0 1
24.701387 33.383130 9.266368 42.549471 0.933767 1.351258 0.095707 -0.046246 -389086.000000 0 0 1
25.783987 -33.469462 10.200468 43.463415 -0.914383 1.333896 0.101663 -0.042700 -113762.000000 0 0 1
26.588387 -32.562182 9.496368 43.097784 -0.886050 1.348629 0.079335 -0.030611 5749.220000 0 0 1
27.530787 -31.880732 10.315268 43.367385 -0.858485 1.330637 0.091102 -0.029981 199453.000000 0 0 1
28.310887 -30.835292 9.512168 42.927880 -0.828053 1.347357 0.096993 -0.026634 -51253.800000 0 0 1
27.537587 -29.653932 9.279068 41.518375 -0.822386 1.345400 0.071832 -0.028906 485542.000000 0 0 1
28.136187 -29.008272 8.173268 41.230173 -0.800658 1.371239 0.100841 -0.026773 78388.100000 0 0 1
27.557087 -27.582072 7.911768 39.783914 -0.785851 1.370593 0.096445 -0.025810 -189901.000000 0 0 1
27.882387 -26.679962 8.948068 39.614591 -0.763364 1.342952 0.072090 -0.028350 1785.790000 0 0 1
27.406387 -25.392082 8.741068 38.370225 -0.747266 1.340970 0.078389 -0.024110 -116764.000000 0 0 1
28.070287 -24.413722 9.737168 38.454951 -0.715840 1.314800 0.094632 -0.039558 -17156.700000 0 0 1
29.404587 -24.114922 9.441568 39.182935 -0.686882 1.327440 0.100951 -0.032211 -683031.000000 0 0 1
30.072287 -23.291122 10.374868 39.426599 -0.659000 1.304517 0.080676 -0.036334 -1007050.000000 0 0 1
31.535187 -23.224622 10.052868 40.434036 -0.634784 1.319537 0.085659 -0.033574 -987060.000000 0 0 1
31.635787 -22.460122 8.906668 39.807145 -0.617379 1.345141 0.097942 -0.031738 681305.000000 0 0 1
33.034187 -22.234822 8.645468 40.747870 -0.592433 1.357002 0.103653 -0.033434 966264.000000 0 0 1
33.269587 -21.430522 7.395268 40.259442 -0.572250 1.386057 0.100888 -0.009577 -76402.100000 0 0 1
32.645187 -20.147022 7.429868 39.074463 -0.552935 1.379485 0.110539 -0.006348 198211.000000 0 0 1
32.815887 -19.485122 6.178568 38.661701 -0.535827 1.410297 0.099529 -0.007064 -62333.500000 0 0 1
32.502487 -17.976122 6.314868 37.675326 -0.505196 1.402389 0.122295 -0.008512 -458825.000000 0 0 1
33.370087 -17.215322 7.060068 38.206996 -0.476279 1.384944 0.130098 -0.011825 -118380.000000 0 0 1
32.833987 -15.890222 7.186968 37.178251 -0.450731 1.376261 0.139640 -0.014813 44659.000000 0 0 1
33.350987 -15.229422 8.441168 37.622825 -0.428363 1.344507 0.134144 -0.049043 -1007810.000000 0 0 1
34.725787 -15.107222 8.447168 38.800297 -0.410347 1.351330 0.125246 -0.044177 -1159280.000000 0 0 1
35.097887 -14.537922 9.629168 39.190990 -0.392697 1.322556 0.109023 -0.047788 -134535.000000 0 0 1
36.621887 -14.661022 9.827568 40.653281 -0.380795 1.326637 0.097028 -0.053440 284756.000000 0 0 1
37.411787 -13.864722 8.922468 40.883771 -0.354906 1.350786 0.143224 -0.052929 -723246.000000 0 0 1
-37.494027 -14.326222 8.794168 41.089902 0.364975 1.355105 0.116171 -0.055401 -751538.000000 0 0 1
-36.572027 -13.341222 8.041668 39.751349 0.349792 1.367091 0.142226 -0.069006 -279033.000000 0 0 1
-36.894227 -13.133022 6.647568 39.722165 0.341978 1.402654 0.205908 -0.080581 577560.000000 0 0 1
-35.929627 -12.347722 5.897468 38.447164 0.331019 1.416797 0.222993 -0.068652 398172.000000 0 0 1
-34.714127 -13.102422 5.355168 37.488957 0.360906 1.427459 0.199535 -0.058229 -287886.000000 0 0 1
-33.886627 -13.650522 6.327768 37.076689 0.382943 1.399290 0.189155 -0.049621 89426.700000 0 0 1
-32.814727 -14.477122 5.880468 36.345196 0.415493 1.408287 0.183525 -0.024372 424001.000000 0 0 1
-32.124627 -15.200522 7.025968 36.227223 0.441957 1.375618 0.145570 -0.032011 617743.000000 0 0 1
-33.022427 -16.242622 7.484268 37.554197 0.457120 1.370161 0.118795 -0.041097 671297.000000 0 0 1
-32.658527 -16.526422 8.810868 37.647488 0.468466 1.334569 0.108326 -0.041518 -508239.000000 0 0 1
-33.744327 -17.225922 9.570568 39.076946 0.471999 1.323363 0.055215 -0.033188 -1262910.000000 0 0 1
-34.947827 -16.479222 9.724668 39.843249 0.440620 1.324232 0.070462 -0.033085 1352610.000000 0 0 1
-35.909127 -17.006622 10.698068 41.147773 0.442307 1.307783 0.078180 -0.027505 817064.000000 0 0 1
-36.498527 -18.413222 10.347968 42.169534 0.467235 1.322875 0.079803 -0.025160 -629956.000000 0 0 1
-35.616927 -19.565422 10.513568 41.975068 0.502328 1.317629 0.093466 -0.019382 344031.000000 0 0 1
-35.468627 -19.979622 11.866668 42.403143 0.513000 1.287155 0.104914 -0.037087 -22281.600000 0 0 1
-36.691627 -20.742122 12.404168 43.936027 0.514521 1.284581 0.103010 -0.052345 -8310.780000 0 0 1
-36.958327 -22.027822 11.870568 44.632423 0.537486 1.301594 0.129110 -0.058476 1423170.000000 0 0 1
37.836087 -22.426022 11.942168 45.575337 -0.535046 1.305670 0.135151 -0.047848 1369420.000000 0 0 1
37.659887 -23.961422 11.669068 46.136580 -0.566654 1.315095 0.134358 -0.048076 -432914.000000 0 0 1
-37.983927 -24.829622 12.661968 47.112782 0.578963 1.298692 0.137126 -0.043304 150323.000000 0 0 1
37.631887 -26.105322 12.747668 47.541033 -0.606487 1.299334 0.126971 -0.045884 490899.000000 0 0 1
36.192887 -26.145752 13.364268 46.606106 -0.625602 1.279964 0.120112 -0.050660 263378.000000 0 0 1
35.135787 -25.682642 12.554968 45.296234 -0.631200 1.289944 0.119395 -0.041627 259892.000000 0 0 1
33.989187 -25.287082 13.312968 44.406491 -0.639634 1.266316 0.105211 -0.018673 344210.000000 0 0 1
33.949487 -23.761022 13.619468 43.619305 -0.610654 1.253252 0.117236 -0.024663 -341623.000000 0 0 1
35.036787 -23.383622 14.436668 44.528503 -0.588512 1.240618 0.127411 -0.034772 19223.400000 0 0 1
35.096287 -22.048722 14.658568 43.963270 -0.560922 1.230859 0.123982 -0.040196 611065.000000 0 0 1
36.438887 -21.741422 15.418968 45.146722 -0.537956 1.222252 0.107972 -0.028900 473281.000000 0 0 1
36.531187 -20.376622 15.857868 44.734845 -0.508802 1.208432 0.120506 -0.009736 616579.000000 0 0 1
35.770387 -20.166222 17.095468 44.479794 -0.513353 1.176301 0.124834 -0.015409 506467.000000 0 0 1
36.129287 -18.868722 17.845668 44.495190 -0.481293 1.158112 0.107310 -0.000266 -200134.000000 0 0 1
35.719787 -17.752222 17.062568 43.384050 -0.461233 1.166588 0.095336 -0.015079 282300.000000 0 0 1
35.557587 -16.529022 17.810868 43.067129 -0.435136 1.144435 0.092177 -0.006927 560301.000000 0 0 1
36.866787 -15.679022 18.034168 43.934302 -0.402115 1.147816 0.085210 -0.017352 640895.000000 0 0 1
37.667287 -16.098922 19.117968 45.205049 -0.403900 1.134135 0.096456 -0.005687 235215.000000 0 0 1
-37.398427 -15.278022 19.285468 44.765942 0.387830 1.125410 0.082559 -0.010083 143134.000000 0 0 1
-36.700227 -15.337422 20.712268 44.845749 0.395851 1.090710 0.080031 -0.006552 -126054.000000 0 0 1
-35.971627 -16.462722 20.980568 44.779050 0.429204 1.083164 0.090783 -0.000201 -283718.000000 0 0 1
-35.531627 -16.438822 22.311868 45.061633 0.433326 1.052799 0.085538 -0.004634 182883.000000 0 0 1
-34.575127 -17.603722 22.722468 44.962662 0.470936 1.040994 0.089719 -0.000356 -455451.000000 0 0 1
-35.191127 -18.893822 22.618268 45.901829 0.492724 1.055546 0.089131 -0.003035 94767.900000 0 0 1
-34.496627 -19.998822 23.187868 46.126428 0.525384 1.044074 0.071068 0.008851 711043.000000 0 0 1
-33.123427 -20.411622 22.535968 44.962935 0.552267 1.045797 0.061756 0.010682 1404470.000000 0 0 1
-31.970727 -19.563422 22.687468 43.812966 0.549136 1.026489 0.065776 0.017951 280645.000000 0 0 1
-30.874527 -20.111022 22.028168 42.929358 0.577344 1.031974 0.062136 0.012756 -918795.000000 0 0 1
-29.728927 -19.133322 21.889168 41.581591 0.571858 1.016418 0.070207 0.010855 -267019.000000 0 0 1
-29.022627 -18.953322 23.161668 41.689376 0.578519 0.981739 0.054648 0.004824 667608.000000 0 0 1
-28.005327 -17.968422 23.058468 40.482779 0.570453 0.964793 0.070047 0.000733 60326.500000 0 0 1
-27.525527 -17.474722 24.456168 40.756897 0.565655 0.927233 0.064496 -0.014153 -825989.000000 0 0 1
-26.668927 -16.365022 24.369968 39.660319 0.550386 0.909086 0.073708 -0.019788 38827.900000 0 0 1
-26.108327 -15.955422 25.613768 39.903450 0.548559 0.873831 0.076947 -0.030780 280122.000000 0 0 1
-25.013027 -16.753522 26.341068 40.002298 0.590163 0.851987 0.056089 -0.021166 -674163.000000 0 0 1
-25.441527 -18.047922 26.765068 41.101917 0.616999 0.861648 0.072185 -0.027141 277954.000000 0 0 1
-24.465827 -18.672822 27.641468 41.367882 0.651909 0.839028 0.056978 -0.024018 507605.000000 0 0 1
-24.998927 -19.999022 28.243968 42.692258 0.674738 0.847884 0.043832 -0.012381 277382.000000 0 0 1
-26.203627 -19.837922 28.999968 43.831168 0.648009 0.847807 0.048061 -0.021893 315987.000000 0 0 1
-26.369627 -20.963022 29.816668 44.987100 0.671665 0.846268 0.039743 -0.016174 271222.000000 0 0 1
-27.711727 -20.987822 30.621768 46.326246 0.648196 0.848642 0.065925 -0.019206 160360.000000 0 0 1
-27.696127 -20.196122 31.798868 46.756034 0.630058 0.822895 0.072803 -0.027714 -320115.000000 0 0 1
-28.848027 -20.251522 32.574868 47.994320 0.612072 0.824773 0.086554 -0.030333 283638.000000 0 0 1
-30.021827 -19.259722 32.195868 48.050191 0.570394 0.836525 0.076218 -0.035971 448481.000000 0 0 1
-30.842727 -19.610422 31.117168 48.001256 0.566342 0.865503 0.090339 -0.038496 578028.000000 0 0 1
-32.153127 -19.043522 31.239768 48.707313 0.534721 0.874504 0.104802 -0.049243 567717.000000 0 0 1
-33.108227 -19.797522 30.274668 49.037252 0.538921 0.905387 0.103290 -0.025018 -279492.000000 0 0 1
-33.204427 -19.227322 28.960168 48.071979 0.524879 0.924250 0.092626 -0.035249 -238510.000000 0 0 1
-34.175127 -19.852222 28.188768 48.545408 0.526255 0.951247 0.096663 -0.030209 -117564.000000 0 0 1
-35.032127 -18.813822 27.426168 48.305325 0.492842 0.967006 0.093019 -0.019919 412969.000000 0 0 1
-36.141627 -19.270322 26.664568 48.872913 0.489845 0.993703 0.085927 -0.020352 239889.000000 0 0 1
-36.823927 -18.185822 26.078568 48.649947 0.458723 1.005051 0.098731 -0.016479 11776.000000 0 0 1
-37.978027 -18.639722 25.140768 49.212071 0.456263 1.034605 0.092279 -0.017733 625035.000000 0 0 1
37.077487 -19.040122 25.916368 49.080795 -0.474407 1.014512 0.088157 -0.019642 726107.000000 0 0 1
36.064687 -19.688322 25.124668 48.161609 -0.499703 1.021984 0.118786 -0.017880 905214.000000 0 0 1
34.876387 -20.194022 26.013568 47.967349 -0.524848 0.997602 0.095692 -0.016464 194536.000000 0 0 1
34.046687 -19.179422 26.512268 47.222108 -0.513018 0.974674 0.090060 -0.026868 -104480.000000 0 0 1
33.006387 -19.768022 27.256868 47.150113 -0.539621 0.954414 0.072188 -0.016552 -145790.000000 0 0 1
-29.989043 -5.029322 33.105213 44.950994 0.166159 0.742954 0.073400 -0.031177 -563620.000000 0 0 1
-31.205073 -5.036822 32.427070 45.284004 0.160030 0.772623 0.092146 -0.033102 -134340.000000 0 0 1
-31.306553 -3.951122 31.530686 44.608248 0.125544 0.785782 0.094687 -0.034825 -171669.000000 0 0 1
-32.211373 -4.301022 30.343903 44.461486 0.132740 0.819651 0.089764 -0.039635 -224227.000000 0 0 1
-31.719113 -5.240222 29.406123 43.569279 0.163728 0.829929 0.082246 -0.037606 1361070.000000 0 0 1
-30.539353 -4.762522 28.652683 42.146292 0.154701 0.823254 0.074136 -0.031533 1085240.000000 0 0 1
-30.277793 -5.641622 27.464583 41.265917 0.184216 0.842564 0.071217 -0.031229 -699296.000000 0 0 1
-31.096103 -5.447922 26.334103 41.111220 0.173436 0.875572 0.082821 -0.028106 -314922.000000 0 0 1
-30.833253 -6.413422 25.380303 40.447265 0.205079 0.892469 0.100668 -0.028496 383069.000000 0 0 1
-31.567283 -6.117122 24.013343 40.131698 0.191408 0.929339 0.109031 -0.028414 499187.000000 0 0 1
-30.947813 -5.021722 23.367973 39.103030 0.160862 0.930292 0.117035 -0.028458 256377.000000 0 0 1
-31.559473 -4.771422 22.103833 38.824557 0.150052 0.965110 0.113581 -0.024699 198870.000000 0 0 1
-30.995473 -3.455422 21.499533 37.879931 0.111023 0.967244 0.115021 -0.025719 127551.000000 0 0 1
-29.679583 -3.672322 21.033333 36.561793 0.123107 0.957848 0.143397 -0.028793 -137931.000000 0 0 1
-29.235263 -2.435822 20.524533 35.803495 0.083126 0.960323 0.154765 -0.029975 -30927.700000 0 0 1
-27.776123 -2.354222 20.034133 34.328149 0.084555 0.947633 0.161842 -0.033828 -204183.000000 0 0 1
-27.558353 -3.143722 18.886633 33.556679 0.113584 0.972993 0.184789 -0.035038 375439.000000 0 0 1
-26.315273 -2.759522 18.285233 32.162996 0.104482 0.966093 0.171092 -0.033384 273202.000000 0 0 1
-26.041703 -3.414722 16.873633 31.217785 0.130381 0.999749 0.171156 -0.039401 -455621.000000 0 0 1
-26.989303 -3.046022 15.939633 31.492421 0.112385 1.040091 0.179466 -0.033915 -470521.000000 0 0 1
-26.650023 -3.489922 14.684233 30.627275 0.130213 1.070769 0.175902 -0.037216 17409.100000 0 0 1
-27.859953 -3.734722 13.742233 31.288562 0.133259 1.116078 0.197598 -0.036851 388505.000000 0 0 1
-28.581533 -2.568322 13.348233 31.649259 0.089619 1.135416 0.201310 -0.038079 -1020180.000000 0 0 1
-29.803643 -2.878322 12.827233 32.574219 0.096278 1.166051 0.201046 -0.036860 -1137550.000000 0 0 1
-30.353543 -1.716422 12.007133 32.687228 0.056488 1.194655 0.204854 -0.030802 3753.660000 0 0 1
-29.685713 -1.512222 10.723733 31.599475 0.050897 1.224555 0.234363 -0.039507 319334.000000 0 0 1
-29.983353 -0.300522 10.068833 31.630257 0.010023 1.246830 0.224101 -0.030351 789563.000000 0 0 1
-31.377873 -0.162922 9.335533 32.737587 0.005192 1.281620 0.222801 -0.019270 936137.000000 0 0 1
-31.509203 -0.894822 8.147833 32.557914 0.028391 1.317851 0.225882 -0.033336 -689842.000000 0 0 1
-32.822123 -0.977922 7.697933 33.726937 0.029786 1.340524 0.215477 -0.039520 -712234.000000 0 0 1
-32.923553 -1.876222 6.466533 33.605008 0.056926 1.377161 0.255037 -0.051984 -33990.700000 0 0 1
-32.325043 -1.476722 5.233133 32.779182 0.045652 1.410462 0.260684 -0.065674 306085.000000 0 0 1
-33.170503 -0.657522 4.479533 33.478065 0.019820 1.436589 0.236162 -0.046630 -259310.000000 0 0 1
-32.514533 -0.314122 3.154533 32.668710 0.009661 1.474084 0.240149 -0.044793 -190834.000000 0 0 1
-32.548753 -1.366922 2.229833 32.653667 0.041971 1.502456 0.211561 -0.062350 161972.000000 0 0 1
-32.221663 -0.965622 0.945233 32.249984 0.029959 1.541483 0.222107 -0.074245 -154572.000000 0 0 1
-33.101163 -1.689322 -0.133067 33.144509 0.050991 1.574811 0.199929 -0.069996 -306470.000000 0 0 1
-34.421408 -1.252622 0.014733 34.444196 0.036375 1.570369 0.206030 -0.058534 -438816.000000 0 0 1
-35.179176 -1.858722 -1.036067 35.243477 0.052787 1.600198 0.209050 -0.061245 -274428.000000 0 0 1
-36.691643 -1.632122 -0.939567 36.739941 0.044453 1.596373 0.187496 -0.049347 -468040.000000 0 0 1
-37.379553 -2.412122 -0.017967 37.457304 0.064441 1.571276 0.180438 -0.052976 520008.000000 0 0 1
37.446581 -2.014822 0.110233 37.500907 -0.053753 1.567857 0.138342 -0.037567 287568.000000 0 0 1
36.528901 -3.039022 0.755433 36.662882 -0.083004 1.550190 0.165548 -0.047934 -619711.000000 0 0 1
36.695481 -3.218622 2.139533 36.898447 -0.087488 1.512779 0.166082 -0.055247 -65695.400000 0 0 1
35.971251 -4.349022 2.542533 36.322298 -0.120319 1.500740 0.154067 -0.050535 -511519.000000 0 0 1
35.840801 -4.629822 4.023933 36.361934 -0.128466 1.459906 0.139694 -0.044293 56135.200000 0 0 1
35.143181 -3.570222 4.659233 35.630016 -0.101243 1.439654 0.154107 -0.042363 19801.200000 0 0 1
34.941761 -3.832522 6.003033 35.660220 -0.109246 1.401651 0.150361 -0.050898 -306222.000000 0 0 1
34.281461 -2.779122 6.898933 35.079016 -0.080891 1.372838 0.162816 -0.045247 243647.000000 0 0 1
32.865221 -2.768522 6.749933 33.665250 -0.084040 1.368927 0.181262 -0.051976 -84173.000000 0 0 1
32.384991 -1.818822 7.657433 33.327646 -0.056104 1.338963 0.187486 -0.043605 609664.000000 0 0 1
30.823901 -1.738322 7.780933 31.838303 -0.056336 1.323907 0.190165 -0.053405 -254029.000000 0 0 1
30.172801 -1.121522 6.687933 30.925461 -0.037153 1.352814 0.232290 -0.054030 732351.000000 0 0 1
28.868101 -0.645722 7.043533 29.721971 -0.022364 1.331540 0.216361 -0.041978 345378.000000 0 0 1
27.727601 -1.657222 7.043733 28.656245 -0.059697 1.322450 0.264016 -0.061121 -1257820.000000 0 0 1
27.982201 -2.765122 7.837733 29.190401 -0.098497 1.298957 0.221194 -0.065376 -84724.600000 0 0 1
27.359101 -3.986222 7.527533 28.654391 -0.144682 1.304976 0.231011 -0.070521 -333715.000000 0 0 1
27.619701 -5.100322 8.576233 29.366868 -0.182605 1.274440 0.197157 -0.037180 -241008.000000 0 0 1
26.910301 -4.924322 9.764433 29.047502 -0.180988 1.227966 0.193461 -0.036565 444350.000000 0 0 1
27.342601 -5.882322 10.707233 29.947694 -0.211904 1.205173 0.168242 -0.030314 65857.800000 0 0 1
26.328901 -5.848622 11.874233 29.468878 -0.218588 1.156068 0.149824 -0.020917 707764.000000 0 0 1
25.168901 -6.630522 11.600033 28.495581 -0.257589 1.151539 0.187771 -0.027021 199897.000000 0 0 1
24.073001 -6.277122 12.416433 27.804306 -0.255074 1.107874 0.202351 -0.037550 208014.000000 0 0 1
23.013201 -7.388622 12.620233 27.266635 -0.310664 1.089594 0.196319 -0.038510 -65177.700000 0 0 1
23.489801 -8.593822 13.247133 28.303905 -0.350728 1.083734 0.174307 -0.037355 -86109.100000 0 0 1
22.569301 -9.675422 13.260033 27.907268 -0.404999 1.075666 0.235665 -0.066428 -152819.000000 0 0 1
23.000501 -10.900222 14.074233 29.084736 -0.442561 1.065686 0.172572 -0.056327 -190367.000000 0 0 1
23.040601 -10.558122 15.427533 29.670726 -0.429685 1.023994 0.138422 -0.045310 316103.000000 0 0 1
23.571401 -11.673522 16.143833 30.862686 -0.459833 1.020329 0.125152 -0.048818 -62932.500000 0 0 1
23.375901 -11.659822 17.679033 31.542549 -0.462685 0.975829 0.130072 -0.054076 895151.000000 0 0 1
21.985701 -11.805022 18.052833 30.799908 -0.492762 0.944519 0.124792 -0.048284 972149.000000 0 0 1
21.724501 -12.149922 19.410033 31.564599 -0.509935 0.908499 0.141226 -0.043058 79291.900000 0 0 1
22.029101 -11.100922 20.522133 32.088466 -0.466779 0.876885 0.120722 -0.045920 -16203.300000 0 0 1
21.086201 -10.047422 20.686033 31.200809 -0.444666 0.845982 0.106719 -0.047176 82917.400000 0 0 1
21.022901 -9.041622 19.670033 30.176538 -0.406169 0.860799 0.121397 -0.040164 -579409.000000 0 0 1
21.917801 -7.767222 19.990533 30.664982 -0.340571 0.860708 0.118955 -0.027237 1226650.000000 0 0 1
23.300401 -8.074222 20.211033 31.883970 -0.333578 0.884220 0.150590 -0.033979 336211.000000 0 0 1
24.036101 -8.192722 19.038833 31.738494 -0.328501 0.927463 0.163295 -0.036561 -314291.000000 0 0 1
25.518301 -8.618922 19.291833 33.130715 -0.325724 0.949248 0.186651 -0.041062 534938.000000 0 0 1
25.609101 -9.902822 19.794633 33.848477 -0.368981 0.946161 0.145569 -0.049397 -475340.000000 0 0 1
26.914001 -10.356522 19.570733 34.851608 -0.367335 0.974545 0.135922 -0.049267 -269600.000000 0 0 1
27.103201 -11.840722 19.898333 35.647298 -0.411886 0.978581 0.102016 -0.044846 242473.000000 0 0 1
26.279401 -12.689622 19.096233 34.875486 -0.449853 0.991357 0.116818 -0.048150 175466.000000 0 0 1
26.335401 -14.031422 19.521333 35.658331 -0.489540 0.991476 0.082418 -0.041670 60744.900000 0 0 1
25.342901 -14.897522 18.647233 34.812613 -0.531429 1.005524 0.097196 -0.038216 186720.000000 0 0 1
25.656201 -14.832922 17.281633 34.306137 -0.524192 1.042865 0.103435 -0.039536 130801.000000 0 0 1
24.691201 -15.333822 16.370833 33.358442 -0.555735 1.057840 0.082790 -0.033141 -14657.400000 0 0 1
24.450301 -16.889422 16.405233 33.944093 -0.604501 1.066374 0.051419 -0.023374 627103.000000 0 0 1
25.626001 -17.640522 16.027033 34.996367 -0.602887 1.095094 0.074648 -0.025606 734819.000000 0 0 1
25.389301 -19.041922 16.301733 35.678535 -0.643500 1.096283 0.051033 -0.007990 -24136.000000 0 0 1
26.565101 -19.921222 15.833133 36.786516 -0.643438 1.125854 0.057145 -0.001815 44477.900000 0 0 1
26.821101 -19.928522 14.438133 36.400235 -0.639017 1.162932 0.070287 -0.012392 -314351.000000 0 0 1
27.746601 -20.936522 14.174733 37.538445 -0.646414 1.183587 0.083193 -0.017547 -392389.000000 0 0 1
28.066401 -20.893622 12.636433 37.201421 -0.639930 1.224224 0.078461 -0.036367 -890022.000000 0 0 1
26.914101 -20.946922 11.867333 36.110607 -0.661361 1.235935 0.084000 -0.030517 -570518.000000 0 0 1
27.146501 -20.721922 10.486133 35.725195 -0.651982 1.272887 0.113160 -0.028469 -121087.000000 0 0 1
25.967701 -20.789522 9.470533 34.586366 -0.675102 1.293431 0.074834 -0.028728 -55788.100000 0 0 1
25.459501 -22.063122 9.208033 34.924997 -0.714051 1.303990 0.063204 -0.029410 952332.000000 0 0 1
24.041801 -22.000522 9.498133 33.944744 -0.741092 1.287198 0.047548 -0.012736 653319.000000 0 0 1
23.242101 -22.934622 8.618233 33.770787 -0.778740 1.312744 0.052236 -0.014145 -628485.000000 0 0 1
23.541601 -24.307322 8.754933 34.952850 -0.801400 1.317622 0.046608 -0.013713 74359.700000 0 0 1
23.464401 -25.083252 7.581633 35.174263 -0.818731 1.353547 0.044347 -0.002594 781479.000000 0 0 1
22.025101 -25.716892 7.501933 34.680579 -0.862573 1.352758 0.049082 -0.004118 1376110.000000 0 0 1
20.978401 -24.831722 7.082833 33.269719 -0.869316 1.356263 0.041236 -0.008414 -35551.700000 0 0 1
19.713601 -25.433612 7.174033 32.969098 -0.911424 1.351443 0.044738 -0.026987 -10342.700000 0 0 1
18.588001 -24.380422 7.262033 31.506442 -0.919397 1.338211 0.048257 -0.022802 -437844.000000 0 0 1
18.454001 -23.592022 6.165733 30.580221 -0.906995 1.367780 0.052006 -0.014649 -114880.000000 0 0 1
17.496101 -22.580322 6.312733 29.254659 -0.911587 1.353300 0.062371 -0.006892 -414283.000000 0 0 1
17.243201 -21.907122 4.968133 28.318409 -0.903968 1.394445 0.072750 0.001219 -829915.000000 0 0 1
16.432701 -20.806522 5.005433 26.981463 -0.902315 1.384202 0.109521 0.000145 -406143.000000 0 0 1
16.104201 -20.361422 3.681033 26.219893 -0.901618 1.429940 0.111392 -0.004163 179698.000000 0 0 1
15.160301 -19.125022 3.833133 24.704131 -0.900526 1.415005 0.106597 -0.002712 -3206.900000 0 1 0
15.786701 -17.956322 4.280033 24.289259 -0.849608 1.393661 0.085292 -0.000879 -69796.800000 0 1 0
15.009001 -16.804122 4.097033 22.900530 -0.841765 1.390922 0.054934 0.001414 -205795.000000 0 1 0
15.895801 -15.574622 4.229433 22.652449 -0.775193 1.382984 0.054881 -0.006558 -568565.000000 0 1 0
16.166701 -15.260122 5.576533 22.920106 -0.756559 1.325027 0.067565 -0.019261 386136.000000 0 1 0
17.230701 -14.326122 5.665433 23.113458 -0.693614 1.323159 0.069536 -0.019382 274797.000000 0 1 0
18.667501 -14.892922 5.634233 24.536081 -0.673398 1.339098 0.093828 -0.033415 -729155.000000 0 1 0
19.622401 -13.909922 5.425433 24.656842 -0.616661 1.348943 0.141881 -0.028603 -36228.000000 0 1 0
20.912601 -14.444522 5.162233 25.935106 -0.604463 1.370414 0.172309 -0.028410 643641.000000 0 0 1
21.942701 -13.302022 4.837933 26.111903 -0.544978 1.384443 0.159242 -0.025132 108100.000000 0 0 1
22.142601 -12.450122 6.014033 26.104959 -0.512215 1.338329 0.180431 -0.029824 751257.000000 0 0 1
23.276901 -11.614222 5.779433 26.647816 -0.462815 1.352177 0.191901 -0.029696 330516.000000 0 0 1
23.890301 -10.912822 7.032033 27.189807 -0.428485 1.309195 0.217502 -0.031194 633647.000000 0 0 1
24.645101 -11.767822 7.969633 28.449563 -0.445479 1.286865 0.214209 -0.013904 885292.000000 0 0 1
24.789501 -11.045222 9.180033 28.649420 -0.419156 1.244617 0.241372 -0.044635 -16866.500000 0 0 1
25.323901 -11.896022 10.347033 29.830796 -0.439160 1.216578 0.200738 -0.033006 -781761.000000 0 0 1
24.376001 -12.659122 10.973633 29.578090 -0.478990 1.190705 0.208833 -0.036964 -565892.000000 0 0 1
24.863401 -13.623722 11.885933 30.741989 -0.501262 1.173816 0.205476 -0.044858 365143.000000 0 0 1
23.720001 -14.594022 12.351733 30.466198 -0.551566 1.153354 0.155203 -0.053119 787575.000000 0 0 1
22.694301 -14.037822 13.163333 29.755084 -0.553956 1.112535 0.146840 -0.054971 176907.000000 0 0 1
21.708401 -15.012722 13.486833 29.640026 -0.605041 1.098401 0.114418 -0.054845 1103300.000000 0 0 1
20.411801 -14.373022 14.156433 28.698954 -0.613507 1.054947 0.108508 -0.055474 -47124.500000 0 0 1
20.486401 -13.972722 15.516833 29.252379 -0.598576 1.011669 0.115001 -0.052325 378655.000000 0 0 1
19.770601 -12.747322 15.736833 28.302275 -0.572684 0.981198 0.151924 -0.066388 320530.000000 0 0 1
18.223501 -12.739422 15.752633 27.249482 -0.610099 0.954411 0.184042 -0.066626 -332682.000000 0 0 1
17.747601 -12.877722 14.401133 26.233674 -0.627704 0.989682 0.198190 -0.079151 1257930.000000 0 0 1
16.287701 -12.865322 14.418333 25.272396 -0.668539 0.963661 0.242527 -0.078716 1486090.000000 0 0 1
15.642001 -11.519022 14.058733 23.979325 -0.634751 0.944330 0.195349 -0.070886 -476235.000000 0 1 0
15.943901 -10.562122 15.008633 24.311015 -0.585081 0.905415 0.162400 -0.054296 38985.500000 0 1 0
15.612501 -9.227422 14.672533 23.327638 -0.533796 0.890561 0.152881 -0.041268 -746777.000000 0 1 0
15.975001 -8.196622 15.697433 23.849416 -0.474065 0.852385 0.163840 -0.036746 230226.000000 0 1 0
17.371301 -7.934422 15.716733 24.733233 -0.428457 0.882205 0.160898 -0.045936 207795.000000 0 1 0
18.015201 -8.735222 16.665233 26.049598 -0.451479 0.876623 0.164296 -0.045402 -1282000.000000 0 0 1
19.520001 -8.865022 16.537833 27.076169 -0.426300 0.913739 0.130383 -0.038204 -757433.000000 0 0 1
20.198001 -7.660522 16.729233 27.322336 -0.362510 0.911841 0.110871 -0.042605 213334.000000 0 0 1
21.398901 -7.640322 15.951733 27.762299 -0.342935 0.958702 0.114253 -0.030869 572607.000000 0 0 1
22.182001 -6.277222 16.066033 28.099147 -0.275777 0.962144 0.094738 -0.020899 271338.000000 0 0 1
22.614301 -5.907222 17.398633 29.137850 -0.255507 0.930897 0.135433 -0.029283 793055.000000 0 0 1
23.274701 -4.585322 17.371833 29.402677 -0.194518 0.938715 0.140341 -0.018675 379676.000000 0 0 1
-5.548313 -33.029793 -6.337732 34.086917 1.404371 1.757813 0.083602 -0.032446 -508226.000000 0 0 1
-6.121913 -31.807793 -6.484732 33.034305 1.380656 1.768382 0.076432 -0.029119 -199571.000000 0 0 1
-5.705513 -30.870493 -5.513932 31.873872 1.388038 1.744663 0.095880 -0.036076 -917087.000000 0 0 1
-6.291713 -29.437193 -5.767532 30.649608 1.360231 1.760101 0.091833 -0.034903 548798.000000 0 0 1
-7.665313 -29.276493 -5.461232 30.752157 1.314720 1.749332 0.080048 -0.035194 523835.000000 0 0 1
-8.593813 -29.971193 -6.321032 31.813229 1.291553 1.770819 0.080798 -0.025655 -245827.000000 0 0 1
-10.033013 -29.592793 -5.863332 31.792663 1.243922 1.756282 0.138669 -0.019501 480619.000000 0 0 1
-11.023513 -30.160093 -6.729932 32.809161 1.220380 1.777386 0.108892 -0.022837 -20640.600000 0 0 1
-12.317613 -29.917093 -6.221232 32.946317 1.180223 1.760766 0.103797 -0.021641 279855.000000 0 0 1
-13.462913 -30.396793 -7.153732 34.005749 1.153858 1.782748 0.118722 -0.029939 177989.000000 0 0 1
-13.562913 -29.692593 -8.388532 33.704157 1.142320 1.822327 0.149681 -0.041798 268244.000000 0 0 1
-14.729513 -30.166693 -9.045132 34.767835 1.116576 1.833982 0.140364 -0.035639 380109.000000 0 0 1
-15.051313 -29.329893 -10.339032 34.549678 1.096666 1.874704 0.177715 -0.026128 -133135.000000 0 0 1
-15.624913 -28.024393 -10.095332 33.636591 1.062177 1.875625 0.192238 -0.029380 577177.000000 0 0 1
-14.670713 -27.039393 -9.673632 32.248066 1.073677 1.875463 0.172998 -0.028113 96857.700000 0 0 1
-15.215913 -25.627793 -9.466232 31.271670 1.035002 1.878331 0.163335 -0.020492 -243900.000000 0 0 1
-15.674413 -25.035393 -10.645432 31.397187 1.011413 1.916711 0.185413 -0.034966 182744.000000 0 0 1
-16.143713 -23.733793 -10.309832 30.499263 0.973483 1.915625 0.131695 -0.009375 -290342.000000 0 0 1
-16.748713 -23.021993 -11.507132 30.707420 0.941845 1.954907 0.162380 -0.014664 416465.000000 0 0 1
-18.079913 -23.418393 -11.877432 31.880681 0.913339 1.952561 0.174492 -0.024163 384430.000000 0 0 1
-18.578213 -22.730493 -13.020432 32.114747 0.885580 1.988251 0.197265 -0.033822 -751868.000000 0 0 1
-20.028813 -23.161093 -13.197332 33.343053 0.857795 1.977740 0.166519 -0.018996 -575488.000000 0 0 1
-20.254713 -24.532793 -13.581332 34.591385 0.880629 1.974277 0.196788 -0.020570 15655.300000 0 0 1
-20.182913 -25.351693 -12.434032 34.708263 0.898428 1.937183 0.208461 -0.026146 -1578630.000000 0 0 1
-20.249913 -26.858293 -12.622932 35.927223 0.924770 1.929806 0.206426 -0.031930 -238349.000000 0 0 1
-19.300213 -27.473493 -13.431032 36.161909 0.958392 1.951328 0.193957 -0.041334 339273.000000 0 0 1
-17.933613 -27.259993 -13.052632 35.143889 0.988906 1.951319 0.211798 -0.041423 -351684.000000 0 0 1
-16.974613 -28.330193 -13.532032 35.691081 1.030987 1.959667 0.182353 -0.033466 -425404.000000 0 0 1
-16.887413 -28.539693 -14.963732 36.381480 1.036490 1.994677 0.182104 -0.050633 -273400.000000 0 0 1
-16.142613 -29.658793 -15.396632 37.111781 1.072357 1.998598 0.184057 -0.047052 -122937.000000 0 0 1
-16.726213 -31.079793 -15.274632 38.458213 1.077081 1.979233 0.171506 -0.044564 -252081.000000 0 0 1
-16.815713 -31.368493 -13.915432 38.215047 1.078711 1.943500 0.172772 -0.039250 144896.000000 0 0 1
-17.321913 -32.670293 -13.673132 39.425262 1.083279 1.924966 0.149396 -0.036334 -719927.000000 0 0 1
-17.643813 -32.962993 -12.241832 39.341143 1.079339 1.887222 0.180580 -0.041609 815423.000000 0 0 1
-18.965413 -32.575893 -11.800832 39.498549 1.043574 1.874196 0.211418 -0.038574 1040750.000000 0 0 1
-19.316713 -31.187293 -11.788132 38.532360 1.016250 1.881709 0.213661 -0.044314 -456196.000000 0 0 1
-18.712413 -30.311993 -10.636832 37.176788 1.017734 1.860966 0.221270 -0.038692 -321636.000000 0 0 1
-19.112713 -30.594093 -9.311432 37.255833 1.012399 1.823407 0.230015 -0.046798 -5806.940000 0 0 1
-18.826013 -29.584993 -8.441932 36.068779 1.004086 1.807039 0.214282 -0.032581 41456.000000 0 0 1
-19.226613 -29.919793 -6.953332 36.238178 0.999637 1.763872 0.234901 -0.044134 515412.000000 0 0 1
-18.384713 -30.957193 -6.406532 36.570332 1.034892 1.746889 0.227407 -0.042173 411868.000000 0 0 1
-18.576413 -31.090793 -5.037032 36.566272 1.032225 1.708987 0.245674 -0.059887 -78279.500000 0 0 1
-17.856213 -32.309793 -4.313332 37.166812 1.065916 1.687112 0.223342 -0.048278 1144050.000000 0 0 1
-16.462713 -32.126093 -4.024732 36.322242 1.097246 1.681831 0.204776 -0.041419 600302.000000 0 0 1
-16.278113 -31.493993 -2.763432 35.559600 1.093749 1.648587 0.191132 -0.042228 -854618.000000 0 0 1
-14.944113 -30.820193 -2.602432 34.350888 1.119317 1.646629 0.177130 -0.038052 -104457.000000 0 0 1
-13.758913 -31.594993 -2.836432 34.577401 1.160085 1.652920 0.123888 -0.035779 214992.000000 0 0 1
-12.642413 -30.769893 -2.688432 33.374311 1.180955 1.651438 0.119276 -0.026889 -15656.200000 0 0 1
-11.259213 -31.463293 -2.632532 33.520724 1.227143 1.649412 0.126734 -0.038644 131629.000000 0 0 1
-11.292413 -32.216993 -1.455132 34.169733 1.233666 1.613395 0.136344 -0.032473 184056.000000 0 0 1
-10.154213 -33.023793 -1.224732 34.571360 1.272490 1.606230 0.153682 -0.038854 404500.000000 0 0 1
-8.931613 -32.443993 -0.475532 33.654310 1.302157 1.584927 0.169844 -0.051890 -150842.000000 0 0 1
-9.199813 -32.237493 0.889168 33.536296 1.292809 1.544280 0.182024 -0.048119 -104866.000000 0 0 1
-8.055613 -31.997293 1.684268 33.038711 1.324163 1.519796 0.190458 -0.049863 279605.000000 0 0 1
-7.273713 -33.214593 2.206168 34.073205 1.355208 1.506003 0.193541 -0.057610 -318009.000000 0 0 1
-7.944713 33.548078 3.201868 34.624326 -1.338264 1.478190 0.208275 -0.063264 111789.000000 0 0 1
-7.094413 32.606278 3.874968 33.593384 -1.356557 1.455190 0.188160 -0.055576 630637.000000 0 0 1
-6.162813 33.072078 5.036768 34.016344 -1.386564 1.422181 0.193033 -0.049756 1031610.000000 0 0 1
-4.974413 33.695478 4.519668 34.359241 -1.424226 1.438872 0.197423 -0.050310 538709.000000 0 0 1
-4.092113 -33.277393 5.533768 33.981655 1.448441 1.407222 0.187176 -0.045996 998482.000000 0 0 1
-2.836113 -32.529493 4.942068 33.024771 1.483830 1.420585 0.216887 -0.047076 633712.000000 0 0 1
-3.057313 -31.207593 4.465568 31.673370 1.473141 1.429337 0.222906 -0.048827 -155552.000000 0 0 1
-3.723513 -31.148693 3.238468 31.537174 1.451821 1.467928 0.208116 -0.056566 -192288.000000 0 0 1
-3.615113 -29.825393 2.396068 30.139082 1.450176 1.491212 0.204785 -0.051729 -223721.000000 0 0 1
-2.314613 -29.505593 1.967968 29.661598 1.492510 1.504400 0.163867 -0.053326 -247377.000000 0 0 1
-2.192413 -28.173393 1.384668 28.292474 1.493134 1.521836 0.159701 -0.046716 -6930.140000 0 0 1
-2.425613 -26.887093 2.236368 27.088757 1.480825 1.488145 0.166387 -0.044391 -258960.000000 0 0 1
-2.668213 -25.674093 1.528468 25.857584 1.467242 1.511651 0.165471 -0.055171 -91944.700000 0 0 1
-2.978213 -24.589793 2.330268 24.878863 1.450268 1.476994 0.148801 -0.047254 59595.900000 0 1 0
-4.369513 -24.525293 3.008168 25.092464 1.394483 1.450624 0.143456 -0.034401 -578586.000000 0 0 1
-4.501813 -25.230693 4.225368 25.975141 1.394228 1.407401 0.182582 -0.037354 220566.000000 0 0 1
-5.191513 -24.358893 5.112068 25.425199 1.360812 1.368353 0.146145 -0.034142 -227915.000000 0 0 1
-5.915913 -25.158293 6.183168 26.573846 1.339844 1.335965 0.170866 -0.036112 -175612.000000 0 0 1
-5.069913 -25.677793 7.179368 27.140310 1.375860 1.303082 0.159882 -0.038880 -194335.000000 0 0 1
-5.861613 -26.446793 8.038968 28.256263 1.352684 1.282309 0.161539 -0.038778 -6804.620000 0 0 1
-5.243813 -27.118293 9.296568 29.143191 1.379786 1.246126 0.152446 -0.038869 -115522.000000 0 0 1
-4.810413 -26.289093 10.373968 28.668375 1.389817 1.200533 0.135949 -0.049412 -1783.500000 0 0 1
-5.821213 -25.633193 11.137768 28.548152 1.347487 1.170013 0.128436 -0.044002 -250666.000000 0 0 1
-5.394413 -24.528193 12.094468 27.874865 1.354316 1.121997 0.111069 -0.043279 -119988.000000 0 0 1
-4.512313 -24.961993 13.107768 28.553032 1.391960 1.093851 0.106975 -0.047770 -649066.000000 0 0 1
-3.646813 -23.973593 13.507868 27.757790 1.419836 1.062564 0.090587 -0.047474 -309542.000000 0 0 1
-2.614613 -24.458493 14.547568 28.577716 1.464301 1.036712 0.100719 -0.051544 -94032.500000 0 0 1
-3.188513 -24.742593 15.833368 29.547556 1.442635 1.005270 0.093292 -0.051999 28889.500000 0 0 1
-2.570213 -25.831193 16.456168 30.735354 1.471622 1.005797 0.122355 -0.043267 69678.200000 0 0 1
-3.109213 -25.963093 17.911968 31.695236 1.451609 0.970204 0.143141 -0.043531 -20894.900000 0 0 1
-2.823913 -24.870693 18.762768 31.282061 1.457737 0.927554 0.137199 -0.033853 -47762.800000 0 0 1
-3.359413 -25.070893 20.061768 32.284824 1.437593 0.900269 0.165283 -0.044218 -247437.000000 0 0 1
-2.784013 -24.132393 21.128268 32.195137 1.455940 0.854950 0.144083 -0.049772 -487076.000000 0 0 1
-1.572113 -24.639093 21.693568 32.865899 1.507077 0.849894 0.102613 -0.065459 216955.000000 0 0 1
-0.944513 -23.770693 22.609568 32.819667 1.531083 0.810822 0.126854 -0.067957 310259.000000 0 0 1
-0.313713 -22.523693 21.936168 31.442179 1.556869 0.798661 0.117275 -0.070837 -207182.000000 0 0 1
-1.291213 -21.512993 21.571468 30.492693 1.510848 0.784940 0.153470 -0.065257 397940.000000 0 0 1
-0.736813 -20.410093 20.889468 29.214460 1.534712 0.774117 0.171738 -0.059255 193220.000000 0 0 1
-1.888213 -19.488093 20.395668 28.272502 1.474207 0.764980 0.144275 -0.037974 -268430.000000 0 0 1
-2.331113 -18.547893 21.360568 28.385424 1.445771 0.718918 0.151063 -0.062018 216707.000000 0 0 1
-3.586313 -18.827693 21.966468 29.152519 1.382570 0.717424 0.184410 -0.073994 1132420.000000 0 0 1
-4.871013 -18.526193 21.054468 28.464666 1.313690 0.738216 0.161762 -0.070246 636276.000000 0 0 1
-5.131813 -19.406693 20.001068 28.337219 1.312278 0.787212 0.156442 -0.069511 -318159.000000 0 0 1
-5.569013 -20.718393 20.261468 29.509199 1.308207 0.813973 0.164437 -0.066323 -136472.000000 0 0 1
-5.628613 -21.544093 18.981568 29.259685 1.315248 0.864885 0.119048 -0.062586 38646.000000 0 0 1
-6.181313 -22.827793 19.108568 30.404837 1.306358 0.891210 0.108636 -0.063420 -173580.000000 0 0 1
-6.234013 -23.493193 17.830068 30.144724 1.311420 0.937900 0.089884 -0.055920 -165963.000000 0 0 1
-6.770813 -24.878193 17.978868 31.432596 1.305074 0.961877 0.079544 -0.047109 429333.000000 0 0 1
-8.170913 -24.809993 18.256368 31.868394 1.252644 0.960796 0.110402 -0.053270 -163525.000000 0 0 1
-8.754413 -26.081693 18.226168 33.001328 1.246959 0.985693 0.125854 -0.044788 599716.000000 0 0 1
-10.307813 -25.975493 18.192468 33.345811 1.193027 0.993727 0.107416 -0.047695 -410454.000000 0 0 1
-10.922713 -25.586093 16.969768 32.587219 1.167317 1.023068 0.115675 -0.047987 1655730.000000 0 0 1
-12.378713 -25.719393 16.919268 33.181039 1.122221 1.035719 0.118503 -0.044682 2148890.000000 0 0 1
-13.188213 -24.902193 17.982268 33.427685 1.083750 1.002798 0.128770 -0.050927 -960266.000000 0 0 1
-13.296613 -23.560593 17.601068 32.275363 1.056996 0.994001 0.122253 -0.045677 -118284.000000 0 0 1
-13.330313 -22.625493 18.706468 32.241931 1.038376 0.951834 0.124575 -0.047292 146072.000000 0 0 1
-11.956013 -22.212293 19.294968 31.758904 1.077010 0.917830 0.131348 -0.048193 150694.000000 0 0 1
-11.283713 -23.153793 20.094368 32.668087 1.117330 0.908275 0.140371 -0.057990 -253481.000000 0 0 1
-9.946813 -22.737093 20.206168 32.003183 1.158410 0.887465 0.145695 -0.067980 526419.000000 0 0 1
-8.954013 -23.627393 21.061568 32.894037 1.208552 0.875927 0.152316 -0.074802 735179.000000 0 0 1
-9.334713 -23.656193 22.452768 33.924609 1.194955 0.847522 0.167210 -0.073827 148597.000000 0 0 1
-8.309613 -24.228693 23.221868 34.573608 1.240402 0.834343 0.184884 -0.081372 -70847.100000 0 0 1
-8.331313 -23.778793 24.753068 35.320761 1.233794 0.794267 0.216293 -0.084111 662582.000000 0 0 1
-7.110313 -24.294593 25.289168 35.781641 1.286077 0.785883 0.236309 -0.076364 396395.000000 0 0 1
-6.834613 -23.741793 26.598368 36.302312 1.290502 0.748529 0.248213 -0.077656 -450563.000000 0 0 1
-5.512213 -24.075293 27.284368 36.802730 1.345719 0.735690 0.257554 -0.077003 284638.000000 0 0 1
-4.383313 -23.691793 26.458968 35.785353 1.387851 0.738648 0.254401 -0.065354 494565.000000 0 0 1
-3.212013 -24.030393 27.196168 36.433616 1.437919 0.728073 0.227696 -0.057408 613508.000000 0 0 1
-1.878213 -23.669193 26.460568 35.551653 1.491610 0.731332 0.184326 -0.051219 390389.000000 0 0 1
-1.732113 -22.252293 26.308668 34.500881 1.493113 0.703550 0.192573 -0.061261 -312079.000000 0 0 1
-0.518513 -21.837693 25.731168 33.752729 1.547057 0.703870 0.165920 -0.067134 609966.000000 0 0 1
0.590387 -21.446693 26.777368 34.312339 -1.543275 0.675490 0.116791 -0.039997 226288.000000 0 0 1
1.227187 -22.499893 27.429168 35.498034 -1.516308 0.687720 0.101537 -0.043185 36179.600000 0 0 1
2.097587 -22.005693 28.440468 36.020975 -1.475763 0.660716 0.083283 -0.055189 -101186.000000 0 0 1
2.605287 -23.168193 29.375768 37.503179 -1.458816 0.670860 0.087548 -0.052021 -824452.000000 0 0 1
3.388687 -24.029793 28.608868 37.515083 -1.430700 0.703479 0.073688 -0.049476 -40035.600000 0 0 1
3.832587 -25.164693 29.343168 38.845489 -1.419658 0.714560 0.091999 -0.034724 -246526.000000 0 0 1
5.035387 -24.947993 30.366868 39.622016 -1.371637 0.697557 0.059396 -0.034738 155219.000000 0 0 1
6.240787 -24.541393 29.791668 39.099500 -1.321778 0.704485 0.075461 -0.033704 -295207.000000 0 0 1
6.887087 -25.430693 28.926868 39.126919 -1.306322 0.738753 0.058843 -0.032022 -1565980.000000 0 0 1
8.310687 -25.126493 28.496368 38.890245 -1.251369 0.748459 0.062740 -0.027861 -422468.000000 0 0 1
8.399587 -24.051593 27.565368 37.535073 -1.234806 0.746029 0.062135 -0.042603 64759.800000 0 0 1
9.481887 -24.274093 26.668368 37.287258 -1.198404 0.773866 0.075476 -0.026200 12088.000000 0 0 1
9.645487 -23.297893 25.477368 35.845830 -1.178274 0.780235 0.087728 -0.025787 -10198.200000 0 0 1
8.711387 -23.353293 24.415868 34.891248 -1.213757 0.795720 0.078267 -0.026542 -195904.000000 0 0 1
8.613287 -22.123593 23.746768 33.579027 -1.199526 0.785280 0.083578 -0.031788 60884.400000 0 0 1
8.050587 -22.172693 22.346568 32.493220 -1.222512 0.812439 0.084928 -0.023007 674724.000000 0 0 1
9.007987 -22.727493 21.401668 32.491755 -1.193443 0.851733 0.090631 -0.019613 615706.000000 0 0 1
8.423487 -22.873093 20.111068 31.600452 -1.217938 0.880952 0.112782 -0.016193 -11582.000000 0 0 1
9.265387 -23.673393 19.119168 31.809111 -1.197740 0.925970 0.145736 -0.030511 -1046660.000000 0 0 1
10.428087 -23.092593 18.690768 31.485833 -1.146632 0.935241 0.134710 -0.024106 -1209200.000000 0 0 1
11.124287 -24.035293 17.917468 31.976253 -1.137323 0.976004 0.151272 -0.031068 -13265.500000 0 0 1
12.441287 -23.442093 17.361468 31.713371 -1.082873 0.991483 0.139103 -0.029293 60059.300000 0 0 1
12.255087 -22.457693 16.321968 30.347023 -1.071263 1.002919 0.136522 -0.017837 212705.000000 0 0 1
13.505987 -21.952093 15.878168 30.272468 -1.019240 1.018659 0.134636 -0.027727 294422.000000 0 0 1
-12.806213 22.375878 11.197368 28.108007 -1.050977 1.161058 0.037272 -0.003009 -114985.000000 0 0 1
-13.767413 21.393678 10.826768 27.648689 -0.998985 1.168445 0.020140 -0.010851 -9746.140000 0 0 1
-13.286613 20.191578 10.177868 26.226378 -0.988799 1.172252 0.052860 -0.019729 -125211.000000 0 0 1
-14.212613 19.542078 9.112668 25.825024 -0.941994 1.210168 0.063697 -0.024668 -355124.000000 0 0 1
-14.468513 20.470178 8.033068 26.322922 -0.955515 1.260675 0.073044 -0.024816 -59205.800000 0 0 1
-15.318513 19.980978 7.033368 26.141243 -0.916721 1.298387 0.082425 -0.023064 383592.000000 0 0 1
-16.846213 19.934778 7.308768 27.103659 -0.869173 1.297757 0.069811 -0.022772 -170424.000000 0 0 1
-17.271313 18.999278 8.231168 26.963363 -0.833003 1.260572 0.059142 -0.023659 -25650.500000 0 0 1
-18.671013 19.048478 8.442168 27.977159 -0.795405 1.264266 0.082172 -0.020257 117776.000000 0 0 1
-19.241113 17.873678 9.274568 27.851506 -0.748571 1.231312 0.079885 -0.023475 -64886.300000 0 0 1
-19.382013 16.592978 8.657668 26.943358 -0.708026 1.243664 0.092730 -0.031290 17103.700000 0 0 1
-19.719213 15.538078 9.600968 26.878575 -0.667360 1.205530 0.102284 -0.036456 -703329.000000 0 0 1
-18.637313 15.079478 10.550968 26.192804 -0.680266 1.156201 0.088309 -0.027594 -506692.000000 0 0 1
-17.668013 14.259978 9.916968 24.776035 -0.679060 1.158991 0.057733 -0.014929 722792.000000 0 1 0
-16.735213 13.606478 10.827668 24.133835 -0.682645 1.105541 0.059225 -0.021678 496588.000000 0 1 0
-17.339013 12.529178 11.701068 24.383122 -0.625734 1.070274 0.063967 -0.022032 -559498.000000 0 1 0
-18.179513 11.643878 11.013968 24.235966 -0.569664 1.099045 0.050375 -0.024405 -601423.000000 0 1 0
-18.834313 10.892078 11.932768 24.814505 -0.524319 1.069140 0.075752 -0.027675 -991661.000000 0 1 0
-19.846813 9.973878 11.287968 24.915707 -0.465680 1.100617 0.079286 -0.033862 -682214.000000 0 1 0
-19.330713 8.923678 10.490768 23.735305 -0.432485 1.112980 0.060363 -0.029870 303412.000000 0 1 0
-18.839413 9.239978 9.194268 22.909283 -0.455986 1.157824 0.067333 -0.025678 -301130.000000 0 1 0
-19.968213 9.469678 8.163568 23.559460 -0.442826 1.216949 0.074244 -0.026116 85244.800000 0 1 0
-20.511913 8.291878 7.618668 23.399528 -0.384162 1.239160 0.058891 -0.027590 347530.000000 0 1 0
-21.383913 8.631578 6.544368 23.970912 -0.383647 1.294273 0.090459 -0.028371 -12805.500000 0 1 0
-21.650513 7.461978 5.541868 23.561369 -0.331906 1.333362 0.110880 -0.032802 -272549.000000 0 1 0
-22.586613 6.503678 5.931768 24.241262 -0.280360 1.323589 0.159218 -0.042406 149822.000000 0 1 0
-22.296013 5.218778 5.292368 23.502276 -0.229928 1.343663 0.157745 -0.038449 53391.800000 0 1 0
-23.375313 4.148078 5.603268 24.392794 -0.175627 1.339017 0.179330 -0.040967 167658.000000 0 1 0
-24.590113 4.404278 4.924168 25.462104 -0.177228 1.376178 0.232156 -0.043686 698957.000000 0 0 1
-25.486373 3.267478 5.003168 26.177534 -0.127509 1.378489 0.248362 -0.049187 472364.000000 0 0 1
-26.840273 3.439078 4.292068 27.397981 -0.127437 1.413492 0.270533 -0.052762 -179136.000000 0 0 1
-26.681253 3.370578 2.888168 27.047949 -0.125662 1.463813 0.283525 -0.050009 453642.000000 0 0 1
-27.968343 3.293978 2.320368 28.257081 -0.117235 1.488587 0.295694 -0.049322 20434.300000 0 0 1
-27.838473 3.196478 0.807468 28.033017 -0.114322 1.541988 0.319584 -0.062827 -94447.300000 0 0 1
-27.210463 4.334278 0.257168 27.554698 -0.157960 1.561463 0.315527 -0.064576 25424.400000 0 0 1
-27.338563 4.486978 -1.129632 27.727352 -0.162676 1.611548 0.355023 -0.060592 220666.000000 0 0 1
-28.714543 4.870978 -1.748432 29.177190 -0.168035 1.630757 0.327911 -0.062764 378214.000000 0 0 1
-29.661803 3.831078 -1.845532 29.965075 -0.128448 1.632425 0.288332 -0.069596 -83598.800000 0 0 1
-30.959963 4.336478 -2.015332 31.327080 -0.139162 1.635173 0.247935 -0.040108 -73092.700000 0 0 1
-32.063653 3.242978 -2.124932 32.297215 -0.100799 1.636637 0.198901 -0.033244 -128094.000000 0 0 1
-32.133253 2.510478 -3.326832 32.402411 -0.077969 1.673650 0.183193 -0.045034 219194.000000 0 0 1
-32.990463 1.401178 -3.290732 33.183774 -0.042447 1.670126 0.176109 -0.044653 -175203.000000 0 0 1
-33.167203 0.980378 -4.730032 33.517125 -0.029550 1.712392 0.189115 -0.059829 795972.000000 0 0 1
-31.898043 0.469478 -5.220732 32.325866 -0.014717 1.733010 0.217176 -0.060008 1203250.000000 0 0 1
-31.891793 -0.197322 -6.473532 32.542772 0.006187 1.771056 0.231187 -0.058718 -329593.000000 0 0 1
-32.356653 0.563078 -7.717432 33.269037 -0.017400 1.804899 0.203447 -0.045461 300536.000000 0 0 1
-33.760563 0.746978 -7.916432 34.684341 -0.022122 1.801068 0.214167 -0.041110 732450.000000 0 0 1
-33.993309 1.473978 -9.113932 35.224728 -0.043334 1.832511 0.205555 -0.032169 -1040390.000000 0 0 1
-35.475200 1.736778 -9.232932 36.698137 -0.048918 1.825120 0.215738 -0.028622 -955236.000000 0 0 1
-35.929083 2.387278 -8.075832 36.902807 -0.066347 1.791422 0.175076 -0.022742 -1250200.000000 0 0 1
-37.293953 2.322578 -7.987832 38.210454 -0.062197 1.781398 0.159147 -0.020832 -1432700.000000 0 0 1
-37.790123 2.885478 -6.693632 38.486674 -0.076207 1.745606 0.169096 -0.015232 -74603.600000 0 0 1
37.004051 2.984378 -6.546332 37.696959 0.080476 1.745338 0.165340 -0.017995 291728.000000 0 0 1
36.558251 3.514078 -5.297332 37.106821 0.095828 1.714045 0.162001 -0.022077 -446874.000000 0 0 1
35.090241 3.157978 -5.089832 35.597812 0.089754 1.714270 0.174434 -0.024518 -628173.000000 0 0 1
34.861331 1.893178 -4.622932 35.217439 0.054253 1.702445 0.157954 -0.023667 216888.000000 0 0 1
33.512221 1.563778 -4.331032 33.827092 0.046629 1.699183 0.176375 -0.025627 163203.000000 0 0 1
33.558261 0.370378 -3.332832 33.725388 0.011036 1.669781 0.237650 -0.027260 -95820.300000 0 0 1
34.196861 -0.783322 -3.803432 34.416638 -0.022902 1.681534 0.135993 -0.026490 118261.000000 0 0 1
34.150121 -1.713522 -2.773932 34.305416 -0.050134 1.651745 0.168451 -0.035709 -101186.000000 0 0 1
34.864171 -3.021422 -3.172832 35.138387 -0.086447 1.661215 0.124474 -0.024560 18130.300000 0 0 1
35.026961 -4.013822 -2.171232 35.322981 -0.114095 1.632303 0.119720 -0.035737 134565.000000 0 0 1
35.544791 -5.261722 -2.707432 36.033985 -0.146963 1.646003 0.179062 -0.042990 26418.000000 0 0 1
35.362761 -6.565822 -1.830532 36.013688 -0.183580 1.621647 0.209414 -0.056623 -466592.000000 0 0 1
35.990171 -6.597422 -0.562432 36.594189 -0.181299 1.586166 0.185210 -0.066846 -298926.000000 0 0 1
35.828571 -7.876522 0.117868 36.684329 -0.216397 1.567583 0.225773 -0.076347 -314780.000000 0 0 1
34.819781 -7.768222 1.282468 35.698839 -0.219503 1.534864 0.214752 -0.062425 819769.000000 0 0 1
33.453931 -7.688422 0.827668 34.336021 -0.225899 1.546689 0.184409 -0.063911 641626.000000 0 0 1
32.526341 -7.671322 1.877768 33.471451 -0.231617 1.514666 0.234468 -0.086824 -173679.000000 0 0 1
31.936461 -9.073122 2.316768 33.281023 -0.276806 1.501128 0.216714 -0.069918 193787.000000 0 0 1
30.791701 -9.510722 1.619868 32.267734 -0.299577 1.520574 0.212431 -0.070427 1945330.000000 0 0 1
29.446701 -9.088022 2.042568 30.884825 -0.299352 1.504613 0.231644 -0.066613 1132830.000000 0 0 1
28.322701 -9.641922 1.167368 29.941690 -0.328125 1.531798 0.203770 -0.059651 -939360.000000 0 0 1
27.033501 -9.538622 1.730168 28.719139 -0.339207 1.510515 0.192264 -0.063297 431418.000000 0 0 1
26.301801 -8.452622 1.166468 27.651260 -0.310946 1.528599 0.213669 -0.067084 176110.000000 0 0 1
25.487501 -8.758322 -0.152532 26.950773 -0.330991 1.576456 0.173571 -0.055026 48150.100000 0 0 1
26.431901 -8.987622 -1.206232 27.944189 -0.327765 1.613976 0.183508 -0.073801 995082.000000 0 0 1
25.849401 -9.387622 -2.460332 27.611088 -0.348355 1.660021 0.175824 -0.075455 -589623.000000 0 0 1
25.195801 -10.769822 -2.503132 27.515143 -0.403940 1.661895 0.149179 -0.050737 -1187040.000000 0 0 1
23.939301 -10.791122 -1.952232 26.331533 -0.423494 1.645005 0.133689 -0.027622 -1110100.000000 0 0 1
23.492701 -12.113322 -2.082832 26.513727 -0.476066 1.649434 0.122866 -0.022225 -1032630.000000 0 0 1
22.052101 -12.381722 -1.714332 25.348395 -0.511611 1.638479 0.115710 -0.015285 -885381.000000 0 0 1
21.163401 -11.978222 -2.725132 24.470261 -0.515035 1.682393 0.116615 -0.013767 -1078550.000000 0 1 0
19.855201 -12.090922 -2.336732 23.364069 -0.546978 1.670978 0.119648 -0.018750 -1042010.000000 0 1 0
18.810501 -11.685822 -3.406332 22.405278 -0.555890 1.723421 0.095867 -0.010934 60095.000000 0 1 0
18.856201 -12.370722 -4.635732 23.023490 -0.580621 1.773530 0.104442 -0.015371 392909.000000 0 1 0
17.839501 -11.826522 -5.453532 22.087449 -0.585418 1.820283 0.083267 -0.017289 -54465.400000 0 1 0
17.797101 -12.517922 -6.884432 22.821713 -0.612983 1.877231 0.102407 -0.024479 -392234.000000 0 1 0
17.281301 -13.815522 -6.882032 23.170550 -0.674405 1.872363 0.087377 -0.027199 655253.000000 0 1 0
17.933701 -14.530022 -7.917932 24.401492 -0.680934 1.901264 0.113672 -0.035227 119783.000000 0 1 0
16.977901 -15.583222 -8.580932 24.591021 -0.742592 1.927242 0.104187 -0.034151 -48796.200000 0 1 0
16.017901 -14.952122 -9.385032 23.837322 -0.750999 1.975462 0.121190 -0.021818 47544.800000 0 1 0
15.301801 -15.943922 -10.077632 24.288113 -0.805946 1.998652 0.108658 -0.023108 7386.040000 0 1 0
14.516301 -15.487022 -11.334332 24.063207 -0.817741 2.061247 0.112951 -0.046515 -42820.700000 0 1 0
13.350701 -14.676722 -11.270232 22.818096 -0.832674 2.087385 0.097106 -0.043388 335920.000000 0 1 0
13.547901 -13.291322 -11.027732 21.950302 -0.775839 2.097163 0.088064 -0.031997 -128054.000000 0 1 0
13.899001 -12.411622 -12.261132 22.306186 -0.728927 2.152770 0.113419 -0.024569 -616065.000000 0 1 0
15.165201 -12.535222 -12.798632 23.471687 -0.690738 2.147519 0.139289 -0.031586 -773204.000000 0 1 0
15.294701 -11.956722 -14.087532 23.986447 -0.663517 2.198530 0.161970 -0.028260 181784.000000 0 1 0
16.705801 -11.455622 -14.473732 24.895863 -0.601083 2.191209 0.174218 -0.047796 -110771.000000 0 1 0
17.623701 -12.389622 -14.941232 26.217132 -0.612743 2.177185 0.171982 -0.043611 11102.600000 0 0 1
18.815201 -11.771522 -15.405432 27.016807 -0.559059 2.177566 0.166783 -0.036116 -152881.000000 0 0 1
19.925801 -12.784722 -15.708332 28.411940 -0.570459 2.156610 0.155762 -0.020673 -485738.000000 0 0 1
20.406801 -13.399822 -14.501032 28.394941 -0.581026 2.106784 0.120409 -0.043397 94961.200000 0 0 1
21.390801 -14.397522 -14.707532 29.684449 -0.592423 2.089164 0.082876 -0.022644 484160.000000 0 0 1
22.558901 -14.224722 -13.666732 29.967087 -0.562587 2.044357 0.073426 -0.027363 164464.000000 0 0 1
23.363101 -13.122222 -13.961832 30.215227 -0.511754 2.051135 0.111242 -0.032874 246864.000000 0 0 1
24.442201 -12.937122 -13.031132 30.571240 -0.486808 2.011145 0.111473 -0.033214 774037.000000 0 0 1
25.243001 -11.614822 -13.269732 30.792840 -0.431238 2.016326 0.113923 -0.036367 -11140.500000 0 0 1
24.535801 -10.564722 -12.620232 29.544697 -0.406591 2.012143 0.129893 -0.038026 565126.000000 0 0 1
25.231401 -9.333922 -12.508832 29.668444 -0.354321 2.006028 0.150796 -0.050124 -328890.000000 0 0 1
26.454101 -9.181522 -11.633332 30.322503 -0.334065 1.964546 0.173428 -0.044666 -165101.000000 0 0 1
27.598901 -9.957922 -11.938232 31.676189 -0.346271 1.957226 0.153180 -0.045057 183102.000000 0 0 1
28.642701 -9.807822 -11.020532 32.218780 -0.329906 1.919897 0.174486 -0.047732 177049.000000 0 0 1
29.926101 -10.650822 -11.347932 33.731100 -0.341925 1.913913 0.182237 -0.048316 577708.000000 0 0 1
30.586901 -10.155022 -12.513432 34.572662 -0.320555 1.941151 0.156729 -0.046432 -579380.000000 0 0 1
31.727081 -10.858522 -12.844032 35.909390 -0.329752 1.936578 0.162540 -0.045255 -449228.000000 0 0 1
32.512821 -10.149522 -14.002432 36.826138 -0.302584 1.960842 0.126296 -0.039659 351190.000000 0 0 1
31.806691 -10.354622 -15.262332 36.767140 -0.314728 1.998858 0.111678 -0.035288 818593.000000 0 0 1
32.405111 -9.613022 -16.348432 37.546939 -0.288382 2.021294 0.087890 -0.030972 -129306.000000 0 0 1
32.138171 -10.122322 -17.826432 38.119616 -0.305127 2.057420 0.061062 -0.018223 -197806.000000 0 0 1
30.893601 -10.110822 -18.469732 37.386820 -0.316292 2.087500 0.060280 -0.006816 -149140.000000 0 0 1
30.403101 -8.822822 -18.818032 36.828102 -0.282437 2.107108 0.044612 -0.004242 -538107.000000 0 0 1
28.955601 -8.673122 -19.276032 35.849899 -0.291027 2.138488 0.032375 -0.005769 -522965.000000 0 0 1
28.581001 -9.386722 -20.424732 36.361433 -0.317327 2.167253 0.032888 0.003420 -331072.000000 0 0 1
27.205201 -9.209022 -20.617932 35.355737 -0.326395 2.193405 0.053359 0.008146 -374875.000000 0 0 1
26.857101 -9.626722 -22.041532 36.052833 -0.344176 2.228584 0.074683 -0.008250 -82966.800000 0 0 1
26.758801 -10.986922 -22.331532 36.543716 -0.389603 2.228234 0.077251 -0.006146 129275.000000 0 0 1
26.418201 -11.252622 -23.717432 37.243247 -0.402668 2.261170 0.093952 -0.019054 -714361.000000 0 0 1
26.627601 -12.677322 -24.329332 38.231663 -0.444343 2.260574 0.096810 -0.008483 -48966.000000 0 0 1
27.834201 -13.125822 -24.890832 39.580089 -0.440647 2.250899 0.088278 -0.009116 -447721.000000 0 0 1
28.925001 -13.122222 -24.013832 39.818495 -0.425896 2.218156 0.066711 -0.005008 -1084600.000000 0 0 1
30.228801 -13.707222 -24.493232 41.250294 -0.425718 2.206534 0.072941 -0.003673 -726832.000000 0 0 1
30.921501 -12.975222 -25.449912 42.097430 -0.397303 2.219994 0.092759 -0.024803 248938.000000 0 0 1
32.277321 -13.398022 -25.535092 43.282483 -0.393448 2.201810 0.068891 -0.024781 314274.000000 0 0 1
33.006421 -12.816922 -26.770062 44.388439 -0.370394 2.218161 0.094962 -0.027129 -111877.000000 0 0 1
32.610151 -13.336822 -28.008092 45.008288 -0.388222 2.242458 0.095722 -0.033379 -449528.000000 0 0 1
33.450811 -12.961822 -29.031522 46.149701 -0.369675 2.251156 0.099652 -0.034098 -397150.000000 0 0 1
33.427651 -13.752722 -30.356042 47.202060 -0.390310 2.269347 0.089715 -0.036219 18776.600000 0 0 1
34.042281 -15.041322 -30.252912 47.962037 -0.416049 2.253339 0.113077 -0.032922 -162958.000000 0 0 1
34.020691 -15.846122 -31.435882 48.956324 -0.435898 2.268058 0.069908 -0.028249 -693049.000000 0 0 1
32.707651 -16.367122 -31.987232 48.588642 -0.463973 2.289391 0.067161 -0.022855 -687714.000000 0 0 1
31.968861 -15.427122 -32.699452 48.262390 -0.449604 2.315202 0.078093 -0.028442 -119637.000000 0 0 1
30.864201 -16.018822 -33.349562 48.180856 -0.478740 2.335294 0.067373 -0.013004 255030.000000 0 0 1
30.054101 -15.103922 33.071525 47.170999 -0.465692 0.793859 0.076507 -0.010867 -220007.000000 0 0 1
29.223601 -14.097722 33.587353 46.699838 -0.449476 0.768121 0.083000 -0.013018 -104788.000000 0 0 1
29.823001 -12.832222 -33.546802 46.684743 -0.406334 2.372557 0.115967 -0.021848 -612624.000000 0 0 1
28.823401 -11.811222 -33.048932 45.415034 -0.388908 2.385772 0.122603 -0.021891 188563.000000 0 0 1
27.776401 -11.594622 33.389253 44.953374 -0.395439 0.733624 0.093816 -0.022490 252017.000000 0 0 1
26.818201 -10.625022 -33.645932 44.318797 -0.377215 2.432848 0.052466 -0.028374 16723.400000 0 0 1
21.872687 -29.189893 9.183068 37.613735 -0.927728 1.324162 0.044097 -0.022048 -93491.600000 0 0 1
22.270487 -28.886493 7.822668 37.304131 -0.914012 1.359528 0.046740 -0.024954 474741.000000 0 0 1
23.484087 -29.610793 7.652768 38.559905 -0.900282 1.371005 0.061867 -0.022272 289041.000000 0 0 1
24.254787 -29.301093 6.329468 38.560484 -0.879346 1.405906 0.065036 -0.016659 114519.000000 0 0 1
24.772287 -27.999993 6.233068 37.901411 -0.846485 1.405591 0.081331 -0.017646 336817.000000 0 0 1
25.313487 -27.684193 4.915168 37.833134 -0.830101 1.440511 0.080485 -0.007190 160135.000000 0 0 1
25.249287 -26.188893 4.495568 36.655078 -0.803663 1.447842 0.094203 -0.013477 227370.000000 0 0 1
26.215587 -25.377793 5.156468 36.849404 -0.769161 1.430402 0.095107 -0.007847 371815.000000 0 0 1
26.135987 -24.063793 4.707468 35.837358 -0.744143 1.439059 0.090351 -0.005673 2631.340000 0 0 1
26.938787 -23.093793 5.588568 35.920101 -0.708699 1.414578 0.091529 -0.007975 215773.000000 0 0 1
28.343687 -23.157593 5.356768 36.990995 -0.685038 1.425473 0.092720 -0.004384 479415.000000 0 0 1
29.177887 -22.530693 6.312168 37.400865 -0.657548 1.401214 0.095048 -0.008441 149208.000000 0 0 1
28.994687 -21.015493 6.636468 36.419576 -0.627180 1.387550 0.095079 -0.005351 -471573.000000 0 0 1
29.088887 -20.145393 5.535868 35.814048 -0.605706 1.415602 0.098207 0.010656 154044.000000 0 0 1
28.673687 -18.884093 5.934268 34.842572 -0.582388 1.399645 0.125087 -0.008736 -105321.000000 0 0 1
28.501087 -17.826493 4.826468 33.961605 -0.558935 1.428198 0.133604 0.000605 921119.000000 0 0 1
29.699287 -17.104293 4.440168 34.558929 -0.522522 1.441959 0.152892 0.012101 837572.000000 0 0 1
29.539587 -16.277893 3.313668 33.890078 -0.503652 1.472863 0.159128 0.025968 471162.000000 0 0 1
30.658187 -15.199693 3.240068 34.372273 -0.460265 1.476392 0.178598 -0.008753 375764.000000 0 0 1
30.208187 -14.098993 4.023368 33.578321 -0.436677 1.450687 0.180655 -0.017638 438665.000000 0 0 1
31.178887 -13.079693 4.262468 34.078879 -0.397207 1.445391 0.188722 -0.037956 -167408.000000 0 0 1
30.676787 -11.913793 5.163368 33.311621 -0.370436 1.415167 0.188418 -0.038522 45984.400000 0 0 1
30.464187 -12.094793 6.578368 33.430908 -0.377932 1.372729 0.168105 -0.044133 -142672.000000 0 0 1
29.685387 -13.201693 6.956668 33.225023 -0.418455 1.359855 0.167263 -0.033419 -592956.000000 0 0 1
29.225387 -13.265893 8.450068 33.189017 -0.426106 1.313358 0.159848 -0.036693 -1080510.000000 0 0 1
30.117087 -13.341593 9.449368 34.268464 -0.417010 1.291431 0.106861 -0.013944 -1178960.000000 0 0 1
29.531787 -13.699593 10.658268 34.254985 -0.434347 1.254399 0.156843 -0.012131 -94542.000000 0 0 1
30.383387 -14.737193 11.393368 35.639078 -0.451609 1.245397 0.144030 -0.022667 -281959.000000 0 0 1
31.589587 -14.319893 11.968868 36.690805 -0.425604 1.238506 0.115966 -0.015816 233509.000000 0 0 1
32.260487 -15.432393 12.659568 37.936295 -0.446193 1.230564 0.125454 -0.016545 657084.000000 0 0 1
33.266487 -14.915293 13.727968 38.956158 -0.421488 1.210667 0.114830 -0.020759 527398.000000 0 0 1
34.551687 -14.591293 13.212368 39.765457 -0.399584 1.232100 0.091265 -0.021881 220613.000000 0 0 1
35.435587 -14.165893 14.217068 40.724420 -0.380303 1.214181 0.065783 -0.021198 281988.000000 0 0 1
36.909887 -13.980193 13.768568 41.801424 -0.362068 1.235149 0.091082 -0.014280 182364.000000 0 0 1
37.153187 -12.825493 12.999168 41.398441 -0.332397 1.251392 0.104782 -0.021554 -24423.600000 0 0 1
-37.692727 -12.700493 12.630668 41.732217 0.325000 1.263314 0.115954 -0.020455 -339583.000000 0 0 1
-37.285927 -11.298293 12.222168 40.832256 0.294223 1.266810 0.126479 -0.029147 -374706.000000 0 0 1
-35.991427 -11.320393 11.675468 39.494944 0.304733 1.270693 0.137324 -0.032834 -103820.000000 0 0 1
-35.293327 -10.112293 11.925968 38.601892 0.279046 1.256710 0.141441 -0.046332 -112955.000000 0 0 1
-33.961127 -9.883593 11.158768 37.088565 0.283204 1.265193 0.166101 -0.040042 179324.000000 0 0 1
-33.095627 -10.954793 11.454068 36.695009 0.319653 1.253349 0.152291 -0.043070 -32870.200000 0 0 1
-33.171427 -12.031193 10.531868 36.824087 0.347942 1.280741 0.141951 -0.039059 -809448.000000 0 0 1
-32.520227 -13.306793 10.983568 36.814055 0.388399 1.267830 0.110318 -0.040527 -960940.000000 0 0 1
-31.141727 -13.284993 11.028768 35.608031 0.403223 1.255890 0.142225 -0.042548 -1157070.000000 0 0 1
-30.659627 -14.562193 11.351168 35.789931 0.443418 1.248062 0.132798 -0.032754 -476096.000000 0 0 1
-29.200527 -14.734693 10.942768 34.489507 0.467324 1.247938 0.147858 -0.020236 -549286.000000 0 0 1
-29.034527 -14.595893 9.555568 33.872595 0.465812 1.284811 0.142422 -0.033294 629006.000000 0 0 1
-27.659227 -14.692393 9.196568 32.641631 0.488290 1.285186 0.133484 -0.027566 321793.000000 0 0 1
-27.581827 -14.565793 7.635068 32.112517 0.485869 1.330737 0.189169 -0.020368 -251444.000000 0 0 1
-28.267527 -15.484093 6.878568 32.956409 0.501129 1.360533 0.192619 -0.009470 -85764.300000 0 0 1
-28.126127 -15.191793 5.501368 32.436625 0.495235 1.400369 0.209589 -0.010745 35251.900000 0 0 1
-28.833827 -16.194693 4.533568 33.379798 0.511748 1.434558 0.180405 -0.010359 486981.000000 0 0 1
-30.247827 -16.223393 4.593068 34.629839 0.492302 1.437771 0.122232 -0.021789 264134.000000 0 0 1
-30.828627 -17.334793 3.902368 35.582689 0.512234 1.460905 0.117193 -0.019025 19512.300000 0 0 1
-32.348627 -17.571293 3.993668 37.028818 0.497596 1.462733 0.129963 -0.031400 -62569.200000 0 0 1
-33.047627 -16.609493 3.225468 37.127140 0.465720 1.483810 0.178647 -0.036676 35358.800000 0 0 1
-34.429527 -16.802193 3.431268 38.464004 0.454015 1.481470 0.173429 -0.033925 121035.000000 0 0 1
-35.519927 -15.943493 2.772468 39.032637 0.421906 1.499707 0.151558 -0.042473 130650.000000 0 0 1
-35.661627 -16.304393 1.387668 39.236596 0.428823 1.535422 0.150534 -0.039803 469838.000000 0 0 1
-36.492427 -15.383293 0.631768 39.607348 0.398943 1.554845 0.196455 -0.041476 339642.000000 0 0 1
-36.962627 -16.000393 -0.678532 40.282859 0.408526 1.587641 0.148207 -0.035182 1216680.000000 0 0 1
-35.776227 -16.124293 -1.545032 39.272361 0.423435 1.610148 0.157852 -0.034115 1918660.000000 0 0 1
-36.079727 -17.040393 -2.588232 39.985255 0.441242 1.635571 0.130868 -0.022742 -241026.000000 0 0 1
-34.861127 -17.690893 -3.268232 39.229417 0.469604 1.654204 0.107020 -0.014383 -338106.000000 0 0 1
-35.126727 -18.818893 -4.113832 40.061968 0.491831 1.673664 0.112029 -0.018859 -280003.000000 0 0 1
-33.954627 -19.385993 -4.602232 39.368946 0.518776 1.687964 0.102848 -0.020113 -637115.000000 0 0 1
-34.282827 -20.424693 -5.685732 40.308905 0.537304 1.712322 0.094291 -0.025697 147195.000000 0 0 1
-35.169527 -21.451493 -5.231932 41.526320 0.547700 1.697123 0.111683 -0.033006 349177.000000 0 0 1
-35.475427 -22.316593 -6.285632 42.379776 0.561522 1.719662 0.127938 -0.030993 117147.000000 0 0 1
-36.482527 -23.425593 -5.878432 43.752590 0.570805 1.705560 0.137734 -0.028308 95541.300000 0 0 1
-35.872727 -24.371293 -5.080632 43.664920 0.596754 1.687415 0.167015 -0.032583 201378.000000 0 0 1
-36.709527 -25.515893 -4.920132 44.976192 0.607413 1.680410 0.137403 -0.022638 132734.000000 0 0 1
-35.876227 -26.620193 -4.287732 44.878981 0.638362 1.666482 0.109469 -0.022609 -1187930.000000 0 0 1
-34.841127 -26.924493 -5.134432 44.330518 0.657921 1.686878 0.097842 -0.025443 -341142.000000 0 0 1
-34.041727 -28.078093 -4.851232 44.393163 0.689689 1.680294 0.083723 -0.023340 -284532.000000 0 0 1
-33.032027 -27.971193 -3.756832 43.446706 0.702628 1.657374 0.096018 -0.041804 -1246850.000000 0 0 1
-33.615227 -27.857593 -2.463532 43.727542 0.692009 1.627164 0.059833 -0.027036 274959.000000 0 0 1
-32.645227 -27.516093 -1.489132 42.720765 0.700348 1.605661 0.089585 -0.031755 214906.000000 0 0 1
-33.360427 -27.372293 -0.115732 43.152913 0.687118 1.573478 0.057194 -0.018776 295444.000000 0 0 1
-33.579327 -28.633993 0.450468 44.132524 0.706075 1.560589 0.056581 -0.006486 -208810.000000 0 0 1
-34.322127 -28.488793 1.613568 44.634329 0.692792 1.534638 0.054792 -0.001546 -352590.000000 0 0 1
-34.825927 -29.780193 2.232268 45.876880 0.707456 1.522119 0.048765 0.005313 -634935.000000 0 0 1
-35.883227 -29.540693 3.128268 46.583737 0.688755 1.503592 0.031017 0.004011 -196830.000000 0 0 1
-36.346527 -30.679793 3.778068 47.713662 0.701054 1.491531 0.039908 0.013828 -755455.000000 0 0 1
-37.533327 -31.334693 3.098768 48.991999 0.695633 1.507504 0.025050 0.009820 -877723.000000 0 0 1
-38.053027 -32.477793 3.758368 50.169365 0.706515 1.495812 0.057717 0.001248 147229.000000 0 0 1
37.284787 -33.175093 2.871268 49.989862 -0.727137 1.513328 0.067387 -0.001967 -18312.500000 0 0 1
36.059587 33.512978 3.527868 49.354426 0.748811 1.499255 0.072681 -0.006257 913898.000000 0 0 1
35.130987 -33.225193 4.376968 48.551597 -0.757525 1.480523 0.069787 -0.006776 945635.000000 0 0 1
34.482887 -32.137193 3.721868 47.283411 -0.750203 1.492001 0.070592 -0.003213 -546832.000000 0 0 1
33.313887 -32.378693 2.743768 46.537330 -0.771163 1.511804 0.087131 -0.004066 -272503.000000 0 0 1
33.774087 -32.966793 1.581968 47.222887 -0.773303 1.537290 0.082254 0.003495 434226.000000 0 0 1
32.781687 -32.752693 0.564268 46.343245 -0.784956 1.558620 0.084930 0.004223 -353100.000000 0 0 1
33.175787 -33.366393 -0.855332 47.060394 -0.788263 1.588973 0.073941 0.004832 524038.000000 0 0 1
34.271187 -32.820293 -1.573232 47.478005 -0.763776 1.603938 0.062217 0.010239 1136940.000000 0 0 1
35.542987 -32.742493 -0.891032 48.333930 -0.744410 1.589232 0.052006 0.010432 939168.000000 0 0 1
36.803587 -32.443493 -1.793932 49.094831 -0.722517 1.607345 0.037986 0.014301 637176.000000 0 0 1
37.294787 -33.614493 -2.406032 50.265538 -0.733543 1.618681 0.047820 0.003870 27956.200000 0 0 1
-38.009427 -33.322693 -3.442732 50.665282 0.719789 1.638799 0.045034 0.006823 -415458.000000 0 0 1
-37.332027 32.880178 -4.073632 49.913733 -0.722077 1.652501 0.041687 -0.001882 -38409.700000 0 0 1
-36.161427 32.518978 -3.372332 48.749414 -0.732413 1.640029 0.064461 -0.004308 -9679.730000 0 0 1
-35.529927 31.483178 -4.099932 47.648459 -0.725084 1.656948 0.094024 -0.013090 323839.000000 0 0 1
-34.209027 30.896278 -3.502132 46.228805 -0.734559 1.646625 0.113665 -0.028346 420560.000000 0 0 1
-33.097127 31.788378 -3.627632 46.033471 -0.765231 1.649682 0.101469 -0.029136 508548.000000 0 0 1
-31.828627 31.285878 -3.248232 44.748393 -0.776799 1.643449 0.145104 -0.038769 463603.000000 0 0 1
-31.547027 31.165878 -1.774432 44.381026 -0.779321 1.610789 0.138489 -0.028598 -304008.000000 0 0 1
-32.441227 30.319678 -1.040632 44.416202 -0.751607 1.594228 0.112929 -0.028982 57129.600000 0 0 1
-32.094827 30.312178 0.349068 44.147796 -0.756841 1.562889 0.124854 -0.033765 -89721.800000 0 0 1
-33.143427 29.589878 1.218268 44.446955 -0.728813 1.543383 0.123247 -0.043498 -186755.000000 0 0 1
-33.452827 28.266578 0.905368 43.805373 -0.701566 1.550127 0.135367 -0.051862 306088.000000 0 0 1
-34.515027 28.148578 -0.064332 44.538002 -0.684148 1.572241 0.112384 -0.040147 112618.000000 0 0 1
-34.612527 26.770678 -0.850632 43.765509 -0.658334 1.590234 0.117785 -0.036053 45531.900000 0 0 1
-35.087727 25.744078 -0.044632 43.519054 -0.632991 1.571822 0.109947 -0.044318 -355331.000000 0 0 1
-35.462527 24.689478 -0.846932 43.218959 -0.608180 1.590394 0.113641 -0.030578 -197577.000000 0 0 1
-35.467927 23.326978 -0.059232 42.451445 -0.581764 1.572192 0.117222 -0.032426 -198311.000000 0 0 1
-34.209927 22.861978 0.351868 41.147453 -0.589122 1.562245 0.149780 -0.040282 -374815.000000 0 0 1
-33.802927 23.444978 1.571568 41.167641 -0.606403 1.532612 0.153667 -0.045953 -295149.000000 0 0 1
-32.263227 23.281978 1.782468 39.826417 -0.625093 1.526025 0.139528 -0.053282 931138.000000 0 0 1
-31.467627 24.237778 1.032268 39.733449 -0.656332 1.544814 0.157031 -0.044995 182539.000000 0 0 1
-31.429227 25.543678 1.654468 40.534097 -0.682459 1.529968 0.151295 -0.047660 -148674.000000 0 0 1
-30.655527 26.640678 0.827568 40.622308 -0.715441 1.550423 0.143666 -0.044481 1118870.000000 0 0 1
-29.249327 26.394178 0.713468 39.404121 -0.734132 1.552689 0.138906 -0.036590 436680.000000 0 0 1
-28.588827 27.257978 -0.154832 39.501169 -0.761572 1.574716 0.116889 -0.026915 323966.000000 0 0 1
-27.357227 26.749778 -0.947732 38.273576 -0.774172 1.595561 0.108169 -0.024995 103467.000000 0 0 1
-27.675327 25.904678 -2.042032 37.962428 -0.752363 1.624613 0.124710 -0.027317 665696.000000 0 0 1
-26.505527 25.305078 -2.650832 36.741214 -0.762232 1.643008 0.122097 -0.005063 1690430.000000 0 0 1
-25.610227 24.266878 -1.831632 35.328741 -0.758472 1.622665 0.107958 -0.013867 894558.000000 0 0 1
-26.319827 23.052678 -1.552532 35.022415 -0.719321 1.615141 0.091607 -0.015899 -142215.000000 0 0 1
-25.403327 22.105278 -1.114632 33.692948 -0.716089 1.603884 0.111857 -0.034565 -338742.000000 0 0 1
-26.109127 20.795978 -0.728732 33.386977 -0.672605 1.592625 0.153434 -0.045701 -307593.000000 0 0 1
-26.949327 20.743678 0.428668 34.011030 -0.656009 1.558192 0.144641 -0.046758 1009910.000000 0 0 1
-28.256827 21.345278 0.348068 35.414549 -0.646950 1.560968 0.148677 -0.051063 1060160.000000 0 0 1
-29.220227 20.740478 -0.742432 35.840484 -0.617272 1.591513 0.152355 -0.055215 -906478.000000 0 0 1
-29.511927 19.354178 -0.452132 35.295077 -0.580448 1.583607 0.180869 -0.064700 132406.000000 0 0 1
-30.013927 18.714178 -1.609632 35.406880 -0.557532 1.616273 0.170268 -0.054318 -122944.000000 0 0 1
-30.172827 17.175278 -1.457432 34.749298 -0.517487 1.612750 0.170248 -0.046887 153833.000000 0 0 1
-31.104227 16.736578 -0.476532 35.324397 -0.493646 1.584287 0.176842 -0.045837 329379.000000 0 0 1
-31.295827 15.335178 -0.370332 34.853028 -0.455621 1.581422 0.185562 -0.048264 -537708.000000 0 0 1
-30.122927 14.579378 0.233568 33.466454 -0.450763 1.563817 0.253320 -0.054480 -743912.000000 0 0 1
-29.949927 14.965478 1.573768 33.517762 -0.463394 1.523826 0.277432 -0.051274 657908.000000 0 0 1
-28.693827 14.444878 2.039868 32.189303 -0.466375 1.507383 0.310630 -0.065552 298803.000000 0 0 1
-28.505427 12.895778 2.267068 31.368775 -0.424846 1.498462 0.332844 -0.069847 -439770.000000 0 0 1
-28.382227 12.179778 1.025468 30.902255 -0.405367 1.537606 0.325052 -0.072479 234402.000000 0 0 1
-28.130427 10.845878 1.337268 30.178506 -0.367994 1.526470 0.377756 -0.074307 -51035.800000 0 0 1
-27.941227 10.005178 0.045868 29.678575 -0.343854 1.569251 0.358273 -0.063052 20569.300000 0 0 1
-29.188227 9.585078 -0.479832 30.725503 -0.317294 1.586414 0.347352 -0.060715 247504.000000 0 0 1
-29.119727 8.727478 -1.550232 30.438965 -0.291191 1.621748 0.347101 -0.055557 -629841.000000 0 0 1
-30.397127 8.686978 -2.363032 31.702252 -0.278363 1.645404 0.314079 -0.054270 -545364.000000 0 0 1
-30.461427 7.636878 -3.353332 31.582673 -0.245644 1.677173 0.336374 -0.048370 1082790.000000 0 0 1
-31.760227 7.692878 -3.993132 32.921687 -0.237641 1.692388 0.304181 -0.040487 825471.000000 0 0 1
-11.771713 17.788478 -20.512632 29.593433 -0.986198 2.336644 0.168765 -0.019830 456398.000000 0 0 1
-12.092913 16.704278 -21.418732 29.732702 -0.944183 2.375141 0.159788 -0.042920 77711.900000 0 0 1
-10.916213 15.933978 -21.539032 28.930698 -0.970147 2.410589 0.162551 -0.045725 113532.000000 0 0 1
-11.080613 14.621478 -22.366232 28.927771 -0.922302 2.454629 0.149747 -0.030072 407353.000000 0 0 1
-9.821213 13.945278 -22.367132 28.128555 -0.957212 2.490093 0.182651 -0.053866 511020.000000 0 0 1
-9.836013 12.708978 -23.023332 28.077377 -0.912148 2.532200 0.170250 -0.053045 353683.000000 0 0 1
-8.677013 11.745078 -22.544232 26.860377 -0.934516 2.566813 0.154884 -0.047697 1064160.000000 0 0 1
-7.356413 12.217878 -22.831132 26.919398 -1.028832 2.583241 0.097816 -0.036825 96805.200000 0 0 1
-6.439813 11.341878 -22.234932 25.777929 -1.054397 2.611098 0.086192 -0.032988 608829.000000 0 0 1
-4.938213 11.629078 -22.593532 25.886079 -1.169228 2.631719 0.041932 -0.022318 854477.000000 0 0 1
-4.568813 11.116378 -23.855632 26.712153 -1.180845 2.674904 0.038730 -0.029249 -996364.000000 0 0 1
-3.232213 11.435878 -24.072332 26.845925 -1.295343 2.683019 0.033288 -0.017809 -613685.000000 0 0 1
-2.636013 10.881578 -25.399822 27.758031 -1.333129 2.726414 0.070588 -0.035248 -312933.000000 0 0 1
-2.637713 9.481478 -25.455222 27.291469 -1.299461 2.772672 0.074293 -0.037658 170380.000000 0 0 1
-2.180013 9.094878 -26.746052 28.334089 -1.335538 2.805205 0.093322 -0.039587 -192697.000000 0 0 1
-1.838813 7.550778 -26.828252 27.931176 -1.331920 2.859636 0.105869 -0.017305 161877.000000 0 0 1
-0.691513 7.047678 -26.148412 27.090357 -1.472990 2.877116 0.102238 -0.024159 358534.000000 0 0 1
-0.866713 7.098478 -24.748532 25.761006 -1.449299 2.860300 0.113455 -0.042621 -510734.000000 0 0 1
-0.081013 6.108878 -23.889532 24.658360 -1.557536 2.891223 0.042792 -0.032755 -2380980.000000 0 1 0
1.245487 6.352178 -23.977332 24.835738 1.377180 2.877910 0.060478 -0.010713 -2072810.000000 0 1 0
1.981287 5.654478 -23.042132 23.808370 1.233772 2.887201 0.044766 -0.005324 -157606.000000 0 1 0
2.040287 6.252578 -21.572032 22.552385 1.255379 2.845658 0.044160 -0.015591 -302360.000000 0 1 0
2.730987 7.493078 -21.579532 23.006102 1.221291 2.787587 0.053696 -0.026168 344951.000000 0 1 0
2.373487 8.264778 -20.430532 22.166341 1.291141 2.743215 0.059976 -0.026308 44436.200000 0 1 0
2.982587 9.672778 -20.460632 22.827526 1.271698 2.682182 0.050940 -0.029759 -433358.000000 0 1 0
2.656987 10.421578 -19.314932 22.107363 1.321164 2.633528 0.067158 -0.034115 -71129.200000 0 1 0
3.296187 11.665678 -19.256832 22.754746 1.295421 2.579755 0.075069 -0.034532 539384.000000 0 1 0
4.704787 11.657278 -18.594832 22.445377 1.187197 2.547128 0.088244 -0.046155 200373.000000 0 1 0
5.721387 10.867878 -19.127432 22.731118 1.086214 2.570785 0.088710 -0.042576 -326665.000000 0 1 0
6.806887 10.716278 -18.253632 22.234375 1.004902 2.533895 0.089630 -0.031700 445645.000000 0 1 0
7.930787 9.740178 -18.736632 22.557257 0.887436 2.551026 0.120510 -0.041857 548521.000000 0 1 0
7.454387 8.395178 -18.770532 21.871895 0.844686 2.602555 0.102635 -0.043703 156711.000000 0 1 0
6.872987 8.060978 -20.008232 22.639494 0.864781 2.654667 0.081227 -0.030479 91517.000000 0 1 0
6.611687 6.518378 -20.084532 22.126728 0.778292 2.708577 0.090979 -0.031458 52783.200000 0 1 0
7.830787 5.808878 -20.147832 22.383017 0.638232 2.690885 0.090342 -0.024558 177191.000000 0 1 0
7.615387 4.506978 -20.566332 22.389306 0.534387 2.735265 0.075392 -0.015699 -170166.000000 0 1 0
7.834087 4.161878 -22.028932 23.748011 0.488336 2.758764 0.094495 -0.030490 -90984.300000 0 1 0
6.830887 4.685878 -22.883732 24.336879 0.601257 2.794279 0.088786 -0.025075 109607.000000 0 1 0
7.245387 4.578378 -24.212632 25.684796 0.563547 2.801379 0.090275 -0.022925 -1166.210000 0 0 1
6.566787 5.609578 -25.151432 26.592943 0.706947 2.810826 0.080603 -0.019247 -83376.300000 0 0 1
6.880287 7.040778 -25.048132 26.913191 0.796926 2.767121 0.058405 -0.032992 290028.000000 0 0 1
6.364387 7.628878 -23.850532 25.837049 0.875518 2.746897 0.101449 -0.040879 -504602.000000 0 0 1
5.999187 9.126478 -24.012332 26.379442 0.989279 2.714725 0.113218 -0.051420 13432.900000 0 0 1
4.884087 9.496378 -24.795132 26.996927 1.095766 2.734922 0.103506 -0.050848 -631983.000000 0 0 1
3.702487 9.427178 -24.066832 26.111157 1.196559 2.743254 0.103819 -0.047908 -206279.000000 0 0 1
2.440687 9.654378 -25.000232 26.910511 1.323178 2.762535 0.121593 -0.034889 513516.000000 0 0 1
2.240787 10.993078 -25.378402 27.747652 1.369715 2.725350 0.138020 -0.051606 316980.000000 0 0 1
1.128287 11.075578 -26.269472 28.531152 1.469275 2.740742 0.150889 -0.055646 301795.000000 0 0 1
0.686687 12.508078 -26.722462 29.512939 1.515952 2.703233 0.126174 -0.058091 -114699.000000 0 0 1
0.083687 13.302378 -25.743472 28.977347 1.564505 2.664644 0.112541 -0.052089 -9263.380000 0 0 1
-0.656113 14.336578 -26.345762 30.001119 -1.525063 2.642797 0.108363 -0.053079 -49132.100000 0 0 1
-1.137413 15.340778 -25.237242 29.555906 -1.496789 2.594194 0.110195 -0.055161 -541935.000000 0 0 1
-2.153413 14.725978 -24.524632 28.687091 -1.425593 2.596157 0.089336 -0.036129 -655194.000000 0 0 1
-2.398913 15.539278 -23.421432 28.209705 -1.417628 2.550373 0.079094 -0.036250 -620191.000000 0 0 1
-3.605313 15.107378 -22.578932 27.405097 -1.336532 2.539047 0.069917 -0.036081 248109.000000 0 0 1
-4.921213 15.472478 -22.944032 28.107731 -1.262852 2.525754 0.064939 -0.030870 -28565.600000 0 0 1
-5.446113 14.846578 -24.072532 28.802219 -1.219211 2.560362 0.076938 -0.042555 -999205.000000 0 0 1
-6.953413 15.033378 -24.223432 29.344967 -1.137570 2.541833 0.067621 -0.041105 -442976.000000 0 0 1
-7.402113 16.302078 -24.665732 30.478638 -1.144572 2.513721 0.075817 -0.036437 -367748.000000 0 0 1
-8.803913 16.183178 -24.745832 30.850614 -1.072559 2.501630 0.103851 -0.036458 80751.400000 0 0 1
-9.571013 17.473778 -25.243192 32.158296 -1.069693 2.473439 0.120262 -0.036005 99412.100000 0 0 1
-9.575213 18.572578 -24.311432 32.057310 -1.094781 2.431611 0.127256 -0.037874 -189783.000000 0 0 1
-10.860813 19.157278 -24.225532 32.738891 -1.055049 2.403810 0.115372 -0.024000 291882.000000 0 0 1
-10.911613 20.416278 -23.353932 32.883033 -1.079965 2.360596 0.099771 -0.026123 -210476.000000 0 0 1
-10.182113 21.534678 -23.789832 33.665619 -1.129125 2.355550 0.138949 -0.017626 -177377.000000 0 0 1
-10.997813 22.649778 -24.100732 34.854119 -1.118768 2.334324 0.115923 -0.022201 -48503.100000 0 0 1
-10.981013 23.088678 -25.584232 36.169361 -1.126857 2.356532 0.093793 -0.015533 -248949.000000 0 0 1
-11.772713 22.257578 -26.374452 36.463794 -1.084273 2.379373 0.108336 -0.015966 -196480.000000 0 0 1
-11.818813 22.657178 -27.706972 37.692285 -1.089990 2.396586 0.095625 -0.012904 -70197.000000 0 0 1
-12.596713 21.642178 -28.556752 37.980905 -1.043684 2.421692 0.099781 -0.011867 430812.000000 0 0 1
-11.869713 20.426878 -28.976562 37.387011 -1.044402 2.457580 0.111553 -0.023711 433432.000000 0 0 1
-11.297713 19.621378 -27.917972 35.945097 -1.048372 2.460180 0.098241 -0.017795 -124175.000000 0 0 1
-10.274813 18.635478 -28.450732 35.528819 -1.066911 2.499391 0.078166 -0.025103 -651242.000000 0 0 1
-9.000813 19.220578 -28.697652 35.693144 -1.132837 2.504805 0.071259 -0.030709 818357.000000 0 0 1
-7.989113 18.371778 -29.296142 35.491015 -1.160606 2.541799 0.062959 -0.030827 1145960.000000 0 0 1
-7.594513 17.058178 -28.554362 34.117586 -1.151931 2.562464 0.078589 -0.043439 -1057610.000000 0 0 1
-8.624713 16.124078 -28.763792 34.084121 -1.079623 2.575319 0.051195 -0.028002 10102.400000 0 0 1
-8.365613 14.872078 -28.241392 32.996037 -1.058403 2.598090 0.058557 -0.037235 -880022.000000 0 0 1
-9.642713 14.072978 -28.208032 32.965493 -0.970077 2.597667 0.062821 -0.023986 -774361.000000 0 0 1
-10.487513 14.520178 -27.173872 32.546011 -0.945279 2.558815 0.091405 -0.029873 26715.300000 0 0 1
-11.672813 13.711178 -27.126012 32.558739 -0.865527 2.555559 0.144165 -0.039833 458037.000000 0 0 1
-12.508513 14.087778 -25.901722 32.028544 -0.844708 2.512748 0.150620 -0.040002 -178436.000000 0 0 1
-13.091913 15.355578 -25.990992 32.904766 -0.864804 2.481418 0.128998 -0.037875 -372525.000000 0 0 1
-14.084513 15.540078 -24.999532 32.631950 -0.834492 2.443557 0.131028 -0.036210 745587.000000 0 0 1
-15.158413 16.607478 -25.454162 33.963218 -0.830984 2.418046 0.108446 -0.029782 496114.000000 0 0 1
-14.677413 17.949378 -25.615422 34.550781 -0.885349 2.405928 0.104732 -0.022802 -549355.000000 0 0 1
-15.656413 18.812578 -26.096612 35.778059 -0.876709 2.388245 0.081257 -0.015665 -464386.000000 0 0 1
-15.244013 20.279378 -26.267172 36.518454 -0.926208 2.373569 0.082709 -0.020361 -507620.000000 0 0 1
-16.309613 21.120578 -26.606622 37.682816 -0.913229 2.354726 0.043455 -0.004247 -296266.000000 0 0 1
-16.021213 22.497578 -26.838942 38.511675 -0.951975 2.341868 0.058442 -0.006338 -184226.000000 0 0 1
-15.504413 23.300978 -25.642352 37.958565 -0.983673 2.312487 0.030179 -0.007068 51367.100000 0 0 1
-14.799313 24.453078 -26.087972 38.698256 -1.026553 2.310594 0.052878 -0.011685 148719.000000 0 0 1
-14.413013 25.233778 -24.968232 38.313067 -1.051838 2.280606 0.054787 -0.015591 51723.300000 0 0 1
-14.111513 26.768378 -25.220182 39.392112 -1.085649 2.265600 0.064444 -0.020573 537684.000000 0 0 1
-15.215913 27.675678 -25.300872 40.467287 -1.068112 2.246207 0.085461 -0.018545 83309.000000 0 0 1
-15.624813 28.238478 -24.105932 40.282036 -1.065411 2.212335 0.086390 -0.025313 -477057.000000 0 0 1
-16.872213 29.102478 -24.181732 41.429241 -1.045398 2.194059 0.074424 -0.020334 -633645.000000 0 0 1
-18.031413 28.386078 -24.452132 41.578938 -1.004881 2.199491 0.053786 -0.019673 -1094110.000000 0 0 1
-19.175213 29.160378 -24.655532 42.730688 -0.989113 2.185845 0.048151 -0.014922 -549529.000000 0 0 1
-20.335513 28.213278 -24.943232 42.798212 -0.946261 2.192979 0.049403 -0.004823 -514442.000000 0 0 1
-20.868613 27.525278 -23.836732 41.968199 -0.922092 2.174835 0.048749 -0.012177 373023.000000 0 0 1
-21.977813 26.702978 -24.243232 42.235147 -0.882159 2.182186 0.044018 -0.024414 201279.000000 0 0 1
-22.721813 26.131978 -23.016832 41.580472 -0.855089 2.157416 0.041570 -0.023156 -437327.000000 0 0 1
-23.482313 27.118978 -22.371132 42.276773 -0.857144 2.128405 0.050276 -0.018818 -155021.000000 0 0 1
-23.700113 26.845478 -21.013332 41.520298 -0.847546 2.101451 0.039383 -0.007615 -295511.000000 0 0 1
-24.666013 27.752378 -20.222832 42.279660 -0.844210 2.069527 0.027714 0.002319 279349.000000 0 0 1
-26.021373 27.334478 -20.327932 42.866191 -0.810004 2.064872 0.051369 -0.006018 112115.000000 0 0 1
-26.843333 28.443078 -20.627432 44.216108 -0.814326 2.056142 0.048891 -0.004318 51512.300000 0 0 1
-28.329673 28.053078 -20.794332 44.966096 -0.780493 2.051547 0.052965 -0.007265 83300.800000 0 0 1
-28.598153 27.254778 -21.940232 45.189059 -0.761351 2.077755 0.063014 -0.015747 -327096.000000 0 0 1
-29.967423 26.949578 -22.019932 45.926067 -0.732426 2.070841 0.079548 -0.018114 -275732.000000 0 0 1
-30.439393 26.732978 -23.455232 46.811929 -0.720660 2.095611 0.079394 -0.027959 -117673.000000 0 0 1
-30.276183 25.399778 -23.861832 46.164738 -0.698036 2.114004 0.087178 -0.015337 -95185.600000 0 0 1
-30.587833 25.278578 -25.238222 47.027544 -0.690648 2.137281 0.104492 -0.021733 91367.700000 0 0 1
-30.763833 23.833878 -25.709732 46.641800 -0.659146 2.154618 0.099801 -0.020663 589032.000000 0 0 1
-29.571723 23.066478 -25.488322 45.345383 -0.662438 2.167711 0.125949 -0.034147 338171.000000 0 0 1
-29.784223 21.744078 -25.983952 45.111757 -0.630613 2.184612 0.122609 -0.025031 -9588.020000 0 0 1
-28.634923 20.702278 -25.892792 43.806162 -0.625978 2.203189 0.130377 -0.026509 3323.950000 0 0 1
-28.282453 20.302078 -24.595532 42.626421 -0.622594 2.185850 0.119744 -0.015335 265228.000000 0 0 1
-27.591663 19.040778 -24.616732 41.591280 -0.604045 2.204176 0.099278 -0.014767 22053.700000 0 0 1
-28.557113 17.849378 -24.538232 41.668139 -0.558629 2.200489 0.083823 -0.004321 217781.000000 0 0 1
-29.314493 17.715878 -25.758092 42.856402 -0.543603 2.215589 0.075609 -0.005632 762448.000000 0 0 1
-30.128063 16.523978 -25.770402 42.951783 -0.501659 2.214278 0.050881 0.001298 380889.000000 0 0 1
-30.858473 16.051778 -27.051652 44.064689 -0.479656 2.231798 0.049587 0.001667 660500.000000 0 0 1
-32.108063 16.727878 -27.246082 45.311131 -0.480296 2.215937 0.048414 -0.003866 859791.000000 0 0 1
-32.797123 16.237778 -28.409542 46.329459 -0.459718 2.230910 0.055318 -0.001419 722312.000000 0 0 1
-34.232685 16.644678 -28.852812 47.764074 -0.452564 2.219394 0.064401 -0.003294 972661.000000 0 0 1
-35.293480 16.153178 -28.010332 47.865787 -0.429224 2.195904 0.049535 -0.003059 1057170.000000 0 0 1
-36.545613 16.544378 -28.569322 49.249411 -0.425101 2.189641 0.073458 -0.008708 294117.000000 0 0 1
-37.828633 16.263178 -27.784322 49.673585 -0.406028 2.164383 0.080822 -0.008521 -139263.000000 0 0 1
38.019921 17.197378 -26.779222 49.582163 0.424786 2.141350 0.079176 -0.018764 591738.000000 0 0 1
36.853301 16.700278 -26.108312 48.152975 0.425475 2.143844 0.095667 -0.019525 422696.000000 0 0 1
36.153591 17.694878 -25.175312 47.476175 0.455161 2.129718 0.104577 -0.018898 -58553.300000 0 0 1
35.453521 18.761378 -25.791512 47.687981 0.486720 2.142230 0.106139 -0.034668 184591.000000 0 0 1
34.768901 19.470178 -24.761632 46.915911 0.510479 2.126790 0.129964 -0.032055 -35333.100000 0 0 1
34.014201 20.699178 -25.319312 47.185691 0.546679 2.137186 0.131969 -0.049355 -161954.000000 0 0 1
32.771241 20.449878 -25.921362 46.519552 0.557894 2.161824 0.140039 -0.052385 -23784.500000 0 0 1
31.788071 21.286578 -25.294112 45.862751 0.590059 2.154979 0.134253 -0.043289 15373.300000 0 0 1
30.364901 21.147978 -25.828642 45.126300 0.608347 2.180181 0.106975 -0.039021 -164228.000000 0 0 1
29.818101 19.860278 -25.730002 44.108761 0.587574 2.193620 0.132907 -0.055928 -781417.000000 0 0 1
28.483501 19.785478 -26.113362 43.412932 0.607112 2.216188 0.124015 -0.048662 -882835.000000 0 0 1
27.984601 18.371478 -26.170132 42.491469 0.580921 2.234313 0.131768 -0.034427 -536912.000000 0 0 1
28.687701 17.478178 -27.030092 43.117244 0.547198 2.248361 0.128322 -0.028221 -259822.000000 0 0 1
29.663401 16.869278 -26.233462 43.042821 0.517079 2.226193 0.147317 -0.031803 -577708.000000 0 0 1
30.760201 16.163478 -27.046892 44.033877 0.483813 2.232205 0.122360 -0.017199 -245546.000000 0 0 1
30.430601 14.871178 -27.594712 43.688002 0.454560 2.254452 0.130883 -0.022376 154056.000000 0 0 1
29.966201 13.844278 -26.725442 42.472185 0.432785 2.251379 0.143860 -0.018911 102593.000000 0 0 1
31.061901 13.217578 -25.807662 42.492134 0.402314 2.223519 0.142530 -0.016595 92822.500000 0 0 1
31.561211 14.075178 -24.821932 42.548196 0.419493 2.193685 0.132054 -0.033870 50745.300000 0 0 1
32.311111 13.252178 -23.937332 42.339390 0.389220 2.171676 0.121568 -0.032770 -17443.900000 0 0 1
-15.107013 -31.000193 -24.083432 42.062401 1.117344 2.180427 0.114027 -0.024825 130504.000000 0 0 1
-14.479813 -29.794193 -24.505032 41.205043 1.118416 2.207701 0.112780 -0.027117 33607.400000 0 0 1
-14.924813 -29.461893 -25.799222 41.908866 1.101898 2.233947 0.084964 -0.021949 184612.000000 0 0 1
-14.304213 -28.132193 -26.285512 41.072606 1.100400 2.265264 0.107720 -0.022427 -79593.700000 0 0 1
-14.754913 -27.062893 -25.580132 40.055597 1.071639 2.263494 0.104402 -0.017407 15986.000000 0 0 1
-14.213013 -25.949493 -26.252172 39.554551 1.069707 2.296545 0.109605 -0.016537 -220633.000000 0 0 1
-14.787513 -24.608993 -25.795332 38.596273 1.029716 2.302768 0.057871 -0.013323 -305264.000000 0 0 1
-14.453713 -24.222993 -24.471932 37.343523 1.032811 2.285402 0.103771 -0.028330 281362.000000 0 0 1
-14.817013 -22.853493 -24.244032 36.463669 0.995583 2.298132 0.072283 -0.027405 -267866.000000 0 0 1
-14.285113 -22.336693 -22.891532 35.028768 1.001813 2.283004 0.102005 -0.020313 608661.000000 0 0 1
-12.875513 -22.107793 -22.930132 34.355849 1.043421 2.301549 0.137861 -0.038638 503075.000000 0 0 1
-12.313613 -21.815393 -21.632532 33.098382 1.056930 2.283105 0.106531 -0.039201 721918.000000 0 0 1
-10.773813 -21.634093 -21.610932 32.421312 1.108749 2.300388 0.119557 -0.050151 303722.000000 0 0 1
-10.275913 -20.610793 -22.413232 32.136462 1.108294 2.342614 0.136646 -0.054482 48390.600000 0 0 1
-8.861913 -20.500493 -22.447332 31.665225 1.162777 2.358727 0.171417 -0.057441 53323.000000 0 0 1
-8.268013 -19.360293 -23.295632 31.398527 1.167182 2.406747 0.197122 -0.058092 -121298.000000 0 0 1
-8.398813 -18.085293 -22.654032 30.179846 1.136032 2.419818 0.138069 -0.053736 -436555.000000 0 0 1
-8.285013 -16.967193 -23.473332 30.125146 1.116556 2.464175 0.131245 -0.048324 473409.000000 0 0 1
-6.947513 -16.576993 -24.209332 30.152221 1.173929 2.502947 0.167359 -0.062188 655132.000000 0 0 1
-6.765113 -17.341993 -25.390392 31.483067 1.198853 2.508967 0.184624 -0.056213 -688613.000000 0 0 1
-5.901113 -16.669793 -26.224902 31.629901 1.230562 2.548324 0.159999 -0.060259 -592076.000000 0 0 1
-5.567713 -17.317393 -27.576412 33.035588 1.259724 2.558472 0.154119 -0.038096 -398981.000000 0 0 1
-6.589713 -17.417693 -28.501722 34.046271 1.209106 2.562842 0.184277 -0.035965 -470742.000000 0 0 1
-6.099213 -18.171693 -29.581982 35.249178 1.246968 2.566652 0.182889 -0.039475 -387454.000000 0 0 1
-7.089913 -18.157893 -30.716162 36.379370 1.198542 2.576108 0.200283 -0.041879 -316707.000000 0 0 1
-7.100613 -16.975593 -31.541922 36.516878 1.174628 2.613486 0.175240 -0.035588 -239152.000000 0 0 1
-7.493513 -15.749293 -30.939122 35.516507 1.126696 2.628274 0.142758 -0.023544 -250260.000000 0 0 1
-8.109713 -14.700593 -31.907312 36.054840 1.066680 2.657218 0.124207 -0.029591 -234888.000000 0 0 1
-7.333413 -14.347293 -33.006102 36.729097 1.098280 2.687447 0.151570 -0.041268 -395198.000000 0 0 1
-8.063013 -13.693693 33.344173 36.937288 1.038644 0.444737 0.145072 -0.033930 -208487.000000 0 0 1
-8.471713 -12.186493 33.569293 36.703923 0.963318 0.416286 0.103192 -0.027538 246913.000000 0 0 1
-7.457713 -11.192393 33.621043 36.211347 0.983034 0.380532 0.093677 -0.029711 240023.000000 0 0 1
-6.542013 -11.130393 32.518444 34.987609 1.039425 0.377938 0.092489 -0.029902 755088.000000 0 0 1
-5.456013 -10.007593 32.664478 34.596071 1.071656 0.335738 0.107208 -0.035731 429227.000000 0 0 1
-5.351413 -9.170593 31.494498 33.236137 1.042567 0.325165 0.070196 -0.022769 -33420.800000 0 0 1
-4.239713 -8.290793 31.580348 32.924623 1.098089 0.286739 0.075024 -0.031802 -798377.000000 0 0 1
-4.190013 -7.198193 30.458093 31.576346 1.043648 0.266928 0.057698 -0.022607 -439522.000000 0 0 1
-5.153813 -6.237293 30.545353 31.598800 0.880229 0.258941 0.044381 -0.013063 -413879.000000 0 0 1
-6.499013 -6.691493 30.410193 31.808695 0.799989 0.297631 0.046749 -0.013462 -953017.000000 0 0 1
-7.539413 -5.607593 30.234613 31.661011 0.639502 0.301313 0.045579 -0.010208 45596.800000 0 0 1
-8.714713 -6.245793 29.729893 31.604156 0.621843 0.346121 0.071398 -0.008209 -695479.000000 0 0 1
-9.787413 -5.389693 29.619343 31.656717 0.503362 0.360724 0.061210 -0.009993 -1056680.000000 0 0 1
-10.918213 -5.868893 28.760383 31.317900 0.493221 0.406938 0.076009 -0.007695 -609015.000000 0 0 1
-10.568813 -5.957693 27.364963 29.933845 0.513304 0.417313 0.070384 -0.011888 589801.000000 0 0 1
-11.567913 -6.656893 26.607493 29.767255 0.522181 0.464934 0.068934 -0.015619 373926.000000 0 0 1
-11.279213 -6.486793 25.132083 28.300543 0.521917 0.477727 0.045688 -0.011820 375250.000000 0 0 1
-10.137013 -7.203793 24.645123 27.604995 0.617833 0.467323 0.040179 -0.005887 190232.000000 0 0 1
-9.741313 -6.836393 23.315183 26.176845 0.611929 0.471958 0.041480 -0.010275 200280.000000 0 0 1
-10.790813 -6.930393 22.139433 25.585669 0.570907 0.525036 0.061274 -0.014682 748643.000000 0 0 1
-11.716813 -5.823893 22.125333 25.704703 0.461288 0.534054 0.044159 -0.012153 -149518.000000 0 0 1
-12.484713 -5.898893 20.966933 25.105323 0.441398 0.582375 0.053517 -0.019633 -567112.000000 0 0 1
-13.593713 -4.826893 20.925533 25.415858 0.341196 0.603550 0.051578 -0.012737 -110776.000000 0 0 1
-13.135313 -3.496093 20.790733 24.839760 0.260129 0.579030 0.034935 -0.012528 -612508.000000 0 1 0
-14.230213 -2.640493 20.747733 25.297027 0.183469 0.609097 0.052034 -0.011667 -162673.000000 0 0 1
-13.950313 -1.220093 20.224833 24.599669 0.087238 0.605603 0.032620 -0.013673 -31228.400000 0 1 0
-13.097213 -0.418093 21.024033 24.773408 0.031911 0.557362 0.032853 -0.005109 16818.500000 0 1 0
-13.230513 0.940907 20.627233 24.523754 -0.070997 0.571460 0.044993 -0.017447 -253347.000000 0 1 0
-12.846913 1.505907 19.189833 23.142182 -0.116687 0.593096 0.054326 -0.024723 -305227.000000 0 1 0
-13.594713 1.116907 18.099233 22.663758 -0.081973 0.645834 0.058069 -0.019852 401997.000000 0 1 0
-14.938513 1.658907 18.060733 23.496834 -0.110596 0.694076 0.048099 -0.016795 987331.000000 0 1 0
-15.883613 0.834907 17.157933 23.396172 -0.052516 0.747538 0.079190 -0.019693 -40910.900000 0 1 0
-16.247913 -0.400093 17.788733 24.095513 0.024619 0.740311 0.058629 -0.021575 269759.000000 0 1 0
-17.099513 -1.201093 16.994033 24.137794 0.070126 0.789722 0.077248 -0.020962 -93616.500000 0 1 0
-17.118113 -2.727993 17.259233 24.461252 0.158034 0.787563 0.062582 -0.011520 70050.600000 0 1 0
-17.778413 -3.082393 18.477733 25.826338 0.171672 0.773513 0.083787 -0.011334 213713.000000 0 0 1
-17.962913 -4.447693 18.717133 26.320700 0.242723 0.779709 0.102738 -0.009034 124919.000000 0 0 1
-18.667213 -4.694493 20.090133 27.822950 0.246374 0.764006 0.108145 -0.008417 62247.500000 0 0 1
-17.835013 -4.418593 21.182333 28.041092 0.242858 0.714527 0.099900 -0.004449 165054.000000 0 0 1
-18.536913 -4.607193 22.407663 29.443959 0.243606 0.705901 0.100410 -0.012631 -466550.000000 0 0 1
-18.467113 -6.028493 23.054433 30.147701 0.315538 0.700196 0.127426 -0.005387 -172525.000000 0 0 1
-17.254313 -6.547993 23.493723 29.875450 0.362709 0.665855 0.059129 -0.016678 -72243.500000 0 0 1
-16.139213 -6.681393 22.630623 28.587765 0.392504 0.657342 0.091912 -0.013290 -220207.000000 0 0 1
-14.920713 -7.349093 23.305673 28.631996 0.457664 0.619837 0.104516 -0.014659 -194344.000000 0 0 1
-15.070513 -8.678593 23.531513 29.260390 0.522485 0.636450 0.101431 -0.022166 -42296.900000 0 0 1
-15.036913 -9.012193 24.879543 30.435506 0.539933 0.613824 0.107650 -0.019424 467159.000000 0 0 1
-16.327113 -9.704593 25.456913 31.761740 0.536281 0.641003 0.073553 -0.016590 477317.000000 0 0 1
-16.441613 -11.112293 25.363833 32.204560 0.594343 0.663916 0.074851 -0.027894 221056.000000 0 0 1
-15.502813 -11.864293 26.147053 32.630768 0.653221 0.641330 0.074162 -0.024371 349672.000000 0 0 1
-15.861713 -13.351493 25.975063 33.234924 0.699681 0.673635 0.046820 -0.030633 -400286.000000 0 0 1
-16.880513 -13.677393 26.846833 34.536578 0.680958 0.680362 0.055874 -0.035538 -449282.000000 0 0 1
-17.328113 -15.025893 26.717483 35.211715 0.714361 0.709378 0.072524 -0.028249 443011.000000 0 0 1
-16.353913 -16.100393 27.356473 35.707838 0.777587 0.698015 0.060422 -0.026060 149624.000000 0 0 1
-15.125613 -16.190393 26.703243 34.698360 0.819386 0.692610 0.087288 -0.038502 -363237.000000 0 0 1
-14.163213 -16.847993 27.499473 35.223181 0.871757 0.674978 0.101420 -0.038432 270280.000000 0 0 1
-12.776613 -17.061193 26.839003 34.273287 0.928019 0.671180 0.108702 -0.049111 -28741.200000 0 0 1
-11.899013 -17.842893 27.606273 34.957998 0.982648 0.660479 0.157135 -0.056147 -591797.000000 0 0 1
-10.817113 -18.190693 26.788183 34.139683 1.034319 0.668642 0.156989 -0.061559 -119589.000000 0 0 1
-9.647713 -18.878793 27.537963 34.753800 1.098360 0.656108 0.220896 -0.075652 86255.100000 0 0 1
-10.066013 -20.079293 28.151913 36.014342 1.106099 0.673431 0.223723 -0.064421 503977.000000 0 0 1
-8.973613 -20.781193 28.743293 36.586344 1.163168 0.667084 0.241172 -0.065506 407530.000000 0 0 1
-9.502313 -22.067293 29.368383 37.944186 1.164187 0.685679 0.220799 -0.072238 20216.800000 0 0 1
-9.644513 -23.146793 28.483853 37.948920 1.176005 0.721851 0.268421 -0.075960 174858.000000 0 0 1
-9.860413 -24.284193 29.304763 39.315632 1.185092 0.729704 0.206128 -0.069382 -210241.000000 0 0 1
-9.859213 -25.544293 28.425743 39.468188 1.202447 0.766678 0.204799 -0.060984 1034360.000000 0 0 1
-11.182713 -25.673893 27.849023 39.493923 1.160009 0.788166 0.174999 -0.059798 1179290.000000 0 0 1
-11.415513 -26.954593 27.181243 39.946013 1.170189 0.822421 0.160785 -0.059525 -552352.000000 0 0 1
-12.688213 -27.115393 26.350553 39.882163 1.133129 0.849032 0.142371 -0.056280 -438201.000000 0 0 1
-12.710213 -26.375593 25.146343 38.594818 1.121739 0.861174 0.153178 -0.070033 157072.000000 0 0 1
-12.916213 -24.974893 25.281083 37.811466 1.093509 0.838460 0.126790 -0.048588 -527603.000000 0 0 1
-13.018913 -24.251993 23.939713 36.479599 1.078130 0.854959 0.115660 -0.069263 374065.000000 0 0 1
-14.262313 -24.489293 23.288653 36.681063 1.043426 0.882923 0.094683 -0.056990 352183.000000 0 0 1
-14.138213 -24.300693 21.895433 35.634572 1.043865 0.909116 0.104743 -0.056831 457480.000000 0 0 1
-15.516413 -24.189593 21.158433 35.687179 1.000455 0.936158 0.102281 -0.058443 -123344.000000 0 0 1
-16.277413 -25.336293 21.268333 36.867654 0.999744 0.955888 0.115086 -0.054098 -974568.000000 0 0 1
-17.213513 -25.301493 20.268933 36.705588 0.973390 0.985792 0.110743 -0.046958 -872681.000000 0 0 1
-17.602213 -26.679493 19.778933 37.587757 0.987587 1.016663 0.101173 -0.038432 -224189.000000 0 0 1
-16.684813 -27.269693 18.899033 37.137482 1.021713 1.036897 0.097777 -0.037583 -116400.000000 0 0 1
-16.947713 -28.593593 18.551633 38.065491 1.035754 1.061731 0.104731 -0.028306 -50733.300000 0 0 1
-15.942513 -29.013793 17.465733 37.430145 1.068352 1.085329 0.112266 -0.028230 232438.000000 0 0 1
-16.160113 -28.398793 16.240533 36.488294 1.053451 1.109523 0.111046 -0.035683 341338.000000 0 0 1
-14.909013 -28.303893 15.572633 35.579431 1.085980 1.117772 0.109426 -0.037783 339338.000000 0 0 1
-15.050913 -27.912693 14.078233 34.696471 1.076272 1.152993 0.117047 -0.032507 -229656.000000 0 0 1
-15.521013 -26.608093 13.942433 33.812482 1.042732 1.145769 0.118806 -0.043854 -180150.000000 0 0 1
-15.698713 -26.213193 12.641433 33.066402 1.031196 1.178507 0.133439 -0.048434 22109.800000 0 0 1
-14.484413 -26.205093 11.659933 32.131903 1.065857 1.199443 0.116073 -0.048811 341957.000000 0 0 1
-14.794713 -25.622393 10.420033 31.368259 1.047150 1.232178 0.110410 -0.042648 -352411.000000 0 0 1
-13.859813 -26.046593 9.479533 30.990014 1.081787 1.259923 0.121624 -0.036904 -134892.000000 0 0 1
-14.165413 -25.436293 8.070133 30.212431 1.062673 1.300400 0.141676 -0.041588 110853.000000 0 0 1
-15.451413 -25.755093 7.589633 30.978598 1.030424 1.323281 0.126556 -0.052456 -43473.900000 0 0 1
-15.651413 -25.108393 6.373333 30.265781 1.013382 1.358629 0.121837 -0.049529 410676.000000 0 0 1
-16.567713 -25.786693 5.278133 31.101469 0.999718 1.400264 0.123930 -0.057237 724493.000000 0 0 1
-15.895513 -26.886793 4.670333 31.581308 1.036871 1.422369 0.127865 -0.045836 652709.000000 0 0 1
-16.680413 -27.262793 3.530033 32.155205 1.021718 1.460794 0.177169 -0.044195 -19419.400000 0 0 1
-16.114513 -28.538793 2.829233 32.895970 1.056773 1.484684 0.174806 -0.040337 1025370.000000 0 0 1
-14.864713 -28.307193 2.121233 32.043042 1.087254 1.504548 0.130134 -0.025661 947359.000000 0 0 1
-14.585213 -29.399693 1.268533 32.843258 1.110273 1.532163 0.122424 -0.030004 -255091.000000 0 0 1
-13.176313 -29.361793 0.648833 32.189301 1.148976 1.550638 0.101147 -0.024835 -50413.900000 0 0 1
-12.993413 -28.469193 -0.451767 31.297410 1.142631 1.585231 0.114342 -0.020715 65479.200000 0 0 1
-12.822813 -27.123693 -0.164367 30.002438 1.129183 1.576275 0.098731 -0.027640 -314090.000000 0 0 1
-12.385013 -26.289093 -1.397067 29.093930 1.130528 1.618834 0.099560 -0.025622 90678.500000 0 0 1
-11.210613 -26.758393 -2.017467 29.081947 1.174055 1.640224 0.113705 -0.030472 -347957.000000 0 0 1
-10.853513 -25.984993 -3.112667 28.332090 1.175139 1.680882 0.120131 -0.029649 -97376.700000 0 0 1
-9.494813 -26.343093 -3.720267 28.248016 1.224861 1.702880 0.113524 -0.035898 -19973.100000 0 0 1
-8.938313 -25.234393 -4.482667 27.143367 1.230375 1.736704 0.107404 -0.042081 127505.000000 0 0 1
-7.609813 -25.625093 -4.785167 27.156077 1.282124 1.747931 0.117258 -0.033853 288036.000000 0 0 1
-6.801513 -24.674493 -5.720567 26.226248 1.301826 1.790688 0.076382 -0.031188 -5994.120000 0 0 1
-7.151913 -24.585593 -7.055367 26.558981 1.287710 1.839673 0.087827 -0.031137 -39606.500000 0 0 1
-6.449613 -23.452693 -7.577467 25.476349 1.302425 1.872798 0.076501 -0.029847 -240663.000000 0 0 1
-6.213513 -23.408993 -9.116467 25.878537 1.311346 1.930802 0.079245 -0.028090 -321616.000000 0 0 1
-5.321613 -24.372493 -9.599867 26.730048 1.355825 1.938144 0.051792 -0.030262 -161306.000000 0 0 1
-5.157713 -24.491193 -10.998767 27.338498 1.363235 1.984844 0.036008 -0.009747 -159548.000000 0 0 1
-6.418913 -25.084393 -11.652467 28.393824 1.320279 1.993675 0.083021 -0.018425 1991.080000 0 0 1
-6.502313 -24.803493 -13.000067 28.748828 1.314413 2.040021 0.110330 -0.021739 -599699.000000 0 0 1
-7.643313 -25.408593 -13.495867 29.768361 1.278591 2.041331 0.167284 -0.031395 -753051.000000 0 0 1
-7.959513 -25.034893 -14.999167 30.250203 1.262966 2.089595 0.165998 -0.035349 543640.000000 0 0 1
-6.959113 -25.467893 -15.934367 30.837427 1.304057 2.113814 0.141374 -0.049226 980123.000000 0 0 1
-5.742313 -24.741493 -16.091067 30.067226 1.342742 2.135505 0.139838 -0.040862 -526743.000000 0 0 1
-4.742913 -25.497893 -16.893067 30.951794 1.386886 2.148124 0.133478 -0.023443 -959112.000000 0 0 1
-5.211713 -25.855393 -18.209867 32.050938 1.371890 2.175057 0.204422 -0.041219 612181.000000 0 0 1
-4.162113 -26.476393 -18.953067 32.825925 1.414871 2.186314 0.183349 -0.044360 497780.000000 0 0 1
-26.638643 14.419878 -3.899432 30.541050 -0.496150 1.698824 0.212412 -0.063772 -167694.000000 0 0 1
-26.200243 13.085378 -3.773732 29.528307 -0.463197 1.698947 0.214568 -0.062411 722269.000000 0 0 1
-24.862413 12.979878 -4.287132 28.372457 -0.481146 1.722479 0.250017 -0.058820 449892.000000 0 0 1
-24.395413 11.504478 -4.121332 27.285061 -0.440657 1.722424 0.243701 -0.061171 -168699.000000 0 0 1
-24.864313 10.541878 -5.048232 27.474532 -0.401003 1.755589 0.231204 -0.039933 257327.000000 0 0 1
-26.236763 10.234778 -4.829832 28.573514 -0.371937 1.740644 0.222627 -0.042812 122961.000000 0 0 1
-26.845393 9.671878 -6.128232 29.185195 -0.345804 1.782348 0.240353 -0.034057 -160382.000000 0 0 1
-26.745163 10.519978 -7.219932 29.632771 -0.374753 1.816921 0.285254 -0.033496 19809.800000 0 0 1
-26.977473 9.799978 -8.397432 29.905526 -0.348443 1.855423 0.248453 -0.034064 -383266.000000 0 0 1
-27.256983 10.719878 -9.654132 30.839280 -0.374708 1.889196 0.236727 -0.038086 585027.000000 0 0 1
-26.140033 11.539178 -10.071332 30.296628 -0.415710 1.909669 0.211498 -0.034752 757045.000000 0 0 1
-26.375563 12.188978 -11.288132 31.171516 -0.432897 1.941348 0.209668 -0.047780 -334835.000000 0 0 1
-25.306173 13.168978 -11.800932 30.872097 -0.479823 1.963029 0.155389 -0.029869 -224467.000000 0 0 1
-25.272093 14.337678 -11.023832 31.076882 -0.516053 1.933419 0.152192 -0.032473 185640.000000 0 0 1
-24.653413 15.361878 -11.781032 31.345985 -0.557242 1.956098 0.130240 -0.023265 -104299.000000 0 0 1
-24.672713 16.736878 -10.982832 31.772448 -0.596051 1.923751 0.143846 -0.030320 -203406.000000 0 0 1
-23.699313 16.848978 -9.976332 30.742035 -0.618036 1.901298 0.132623 -0.022218 50716.500000 0 0 1
-23.860813 18.129778 -9.376132 31.399667 -0.649752 1.874028 0.095681 -0.010512 442985.000000 0 0 1
-22.884713 18.402578 -8.147932 30.475462 -0.677262 1.841449 0.107919 -0.016535 343723.000000 0 0 1
-23.067613 17.559878 -7.001732 29.824291 -0.650653 1.807774 0.142335 -0.034882 201935.000000 0 0 1
-24.170813 17.882578 -6.175932 30.694575 -0.636968 1.773385 0.144614 -0.035375 -211700.000000 0 0 1
-24.279013 17.140278 -4.819932 30.107995 -0.614722 1.731576 0.154566 -0.021478 419001.000000 0 0 1
-23.200413 17.438978 -3.924632 29.287879 -0.644567 1.705203 0.156305 -0.045257 1110290.000000 0 0 1
-23.587413 16.897278 -2.672432 29.138050 -0.621627 1.662642 0.156383 -0.047873 -75819.900000 0 0 1
-22.273213 16.751278 -1.913432 27.934970 -0.644832 1.639346 0.175645 -0.064695 -494044.000000 0 0 1
-21.660813 17.957178 -1.603732 28.181963 -0.692185 1.627733 0.168535 -0.056767 529918.000000 0 0 1
-20.512013 17.714678 -0.770732 27.113585 -0.712351 1.599226 0.233933 -0.080126 623460.000000 0 0 1
-19.989313 19.069278 -0.198832 27.626971 -0.761847 1.577993 0.175821 -0.061382 643231.000000 0 0 1
-20.964913 19.558578 0.762568 28.681824 -0.750708 1.544206 0.154349 -0.050302 982684.000000 0 0 1
-20.838013 20.961978 0.812168 29.568343 -0.788364 1.543325 0.166665 -0.049391 -157291.000000 0 0 1
-21.833113 21.476478 1.836668 30.680568 -0.777164 1.510896 0.124648 -0.036290 -236581.000000 0 0 1
-21.699413 20.970078 3.155468 30.340825 -0.768307 1.466607 0.132209 -0.035582 7133.530000 0 0 1
-22.874313 21.153878 3.900068 31.399543 -0.746342 1.446267 0.115264 -0.011649 -176275.000000 0 0 1
-22.643013 20.942778 5.404068 31.313095 -0.746409 1.397346 0.126200 -0.013380 -540866.000000 0 0 1
-21.981213 22.020378 5.972068 31.681799 -0.786288 1.381160 0.105855 -0.004312 426963.000000 0 0 1
-21.072813 21.646478 7.045968 31.020624 -0.798826 1.341658 0.088981 -0.008361 318791.000000 0 0 1
-21.647813 21.512878 8.437468 31.664216 -0.782272 1.301071 0.101247 -0.027915 -481620.000000 0 0 1
-22.664813 20.531878 8.557868 31.756714 -0.736061 1.297941 0.126344 -0.028842 767804.000000 0 0 1
-23.364513 20.363178 9.786568 32.501329 -0.716869 1.264937 0.159892 -0.031281 552134.000000 0 0 1
-24.213213 21.504678 10.457168 34.030622 -0.726223 1.258456 0.175160 -0.024891 352377.000000 0 0 1
-25.477443 21.845378 9.883868 34.985875 -0.708798 1.284386 0.204133 -0.021424 660298.000000 0 0 1
-26.196813 22.625878 10.822068 36.267348 -0.712387 1.267784 0.207980 -0.021162 668362.000000 0 0 1
-27.709903 22.872378 10.476368 37.426443 -0.690051 1.287087 0.207810 -0.027543 834742.000000 0 0 1
-28.485963 23.608178 11.419568 38.719539 -0.692036 1.271414 0.196302 -0.027207 297514.000000 0 0 1
-28.279843 25.036878 11.453668 39.468738 -0.724648 1.276365 0.181444 -0.024986 -39573.000000 0 0 1
-28.804903 25.727678 12.704968 40.657743 -0.729029 1.252988 0.175537 -0.019711 629564.000000 0 0 1
-27.826453 25.470078 13.737668 40.146729 -0.741214 1.221553 0.147558 -0.021517 695350.000000 0 0 1
-28.152473 26.101078 14.956068 41.200873 -0.747605 1.199307 0.136434 -0.015641 -22321.800000 0 0 1
-26.980683 26.032078 15.950968 40.743830 -0.767506 1.168542 0.117084 -0.025984 64597.200000 0 0 1
-26.672313 24.757878 16.524068 39.967607 -0.748191 1.144571 0.124919 -0.024565 9426.570000 0 0 1
-25.625823 24.841178 17.461268 39.732390 -0.769852 1.115786 0.105087 -0.023305 -137225.000000 0 0 1
-25.389883 23.502878 18.172968 39.080534 -0.746823 1.087147 0.100943 -0.016299 -433684.000000 0 0 1
-24.221113 23.453278 18.927768 38.664958 -0.769294 1.059242 0.092398 -0.026798 -115963.000000 0 0 1
-23.715013 22.186478 19.277568 37.765940 -0.752110 1.035090 0.101231 -0.025359 -408198.000000 0 0 1
-22.315613 22.292678 19.868668 37.278868 -0.784884 1.008685 0.097918 -0.026262 10667.400000 0 0 1
-21.303613 22.864778 18.998068 36.572784 -0.820729 1.024578 0.110375 -0.033559 1413720.000000 0 0 1
-19.929713 22.739578 19.352768 35.900021 -0.851155 1.001459 0.093299 -0.038264 981207.000000 0 0 1
-19.233213 21.338778 19.238168 34.574080 -0.837249 0.980709 0.095903 -0.024815 -511614.000000 0 0 1
-19.645613 20.332378 20.155268 34.721614 -0.802575 0.951476 0.104402 -0.023942 -42917.100000 0 0 1
-19.147313 20.494778 21.483468 35.329802 -0.819376 0.917152 0.106276 -0.017851 282404.000000 0 0 1
-20.188113 20.099278 22.620568 36.376242 -0.783193 0.899693 0.106950 -0.022022 924345.000000 0 0 1
-21.266513 21.045578 22.708568 37.561416 -0.780177 0.921568 0.089118 -0.027590 597680.000000 0 0 1
-21.946013 20.920078 23.980968 38.657004 -0.761469 0.901604 0.088190 -0.024988 -33744.000000 0 0 1
-23.083813 21.918378 24.135468 39.947447 -0.759507 0.922059 0.082188 -0.023959 -1166260.000000 0 0 1
-22.601313 23.224178 23.988268 40.318963 -0.798989 0.933577 0.081371 -0.026020 -20318.000000 0 0 1
-23.485613 24.319878 24.151668 41.549170 -0.802848 0.950496 0.076141 -0.028642 128816.000000 0 0 1
-24.484313 24.652278 22.998768 41.667250 -0.788816 0.986080 0.079568 -0.029649 -64122.100000 0 0 1
-25.533393 23.783078 22.790268 41.677155 -0.749922 0.992224 0.076458 -0.030130 -638009.000000 0 0 1
-26.306223 24.117878 21.659068 41.746911 -0.742027 1.025328 0.074001 -0.025928 -273629.000000 0 0 1
-27.297893 23.026378 21.305468 41.584997 -0.700721 1.032894 0.082240 -0.022477 -433713.000000 0 0 1
-28.488203 23.041678 22.043568 42.759975 -0.680093 1.029183 0.087101 -0.023697 -140262.000000 0 0 1
-29.446973 22.142978 21.543368 42.679648 -0.644755 1.041682 0.097282 -0.026522 990677.000000 0 0 1
-30.919953 22.178478 22.102368 44.005034 -0.622234 1.044575 0.109323 -0.023604 535119.000000 0 0 1
-31.609093 23.301478 21.603968 44.819918 -0.635243 1.067841 0.137487 -0.022845 1616320.000000 0 0 1
-32.982213 23.474678 22.088668 46.117200 -0.618560 1.071318 0.136953 -0.026314 889066.000000 0 0 1
-34.029110 22.879078 21.197468 46.160212 -0.591919 1.093685 0.150752 -0.032708 -1306440.000000 0 0 1
-33.892653 21.455278 21.075068 45.312243 -0.564357 1.087040 0.134751 -0.032208 781487.000000 0 0 1
-34.778394 20.960678 20.049968 45.286730 -0.542397 1.112151 0.128564 -0.025718 81122.500000 0 0 1
-36.254283 20.715178 20.369168 46.458526 -0.519114 1.116937 0.163143 -0.020490 -539123.000000 0 0 1
-36.906093 20.053178 19.310568 46.228645 -0.497729 1.139863 0.147959 -0.018599 -743858.000000 0 0 1
37.920271 19.978778 19.567968 47.116917 0.484906 1.142516 0.183342 -0.033721 -568851.000000 0 0 1
37.233411 19.241678 18.421468 45.781213 0.476985 1.156681 0.184651 -0.033204 -53816.200000 0 0 1
37.736081 17.908378 18.394668 45.640832 0.443097 1.155970 0.188787 -0.036803 432730.000000 0 0 1
36.884861 17.112578 17.589168 44.302506 0.434391 1.162524 0.210473 -0.050660 193688.000000 0 0 1
37.087431 15.620578 17.722568 43.972370 0.398633 1.155962 0.219383 -0.068695 -164400.000000 0 0 1
36.283831 14.947578 16.788868 42.682696 0.390776 1.166533 0.253334 -0.064184 -29838.400000 0 0 1
36.717961 13.624378 16.592468 42.534013 0.355307 1.170057 0.222779 -0.056657 267489.000000 0 0 1
35.776961 12.680178 15.756568 41.098020 0.340610 1.177332 0.216107 -0.070888 90825.800000 0 0 1
35.815261 13.003578 14.407068 40.735605 0.348274 1.209302 0.202688 -0.061707 208725.000000 0 0 1
35.043421 12.140178 13.609968 39.505145 0.333493 1.219078 0.199379 -0.048210 -296475.000000 0 0 1
35.106481 12.524978 12.091168 39.185921 0.342694 1.257119 0.219458 -0.049063 -119339.000000 0 0 1
36.313931 12.240678 11.411568 39.984492 0.325118 1.281373 0.183943 -0.036414 166406.000000 0 0 1
36.173671 12.239878 9.972068 39.468863 0.326272 1.315371 0.165806 -0.034595 -808127.000000 0 0 1
37.470751 12.126078 9.194268 40.442966 0.312978 1.341452 0.114054 -0.006368 -925456.000000 0 0 1
38.045151 10.837778 9.314168 40.640431 0.277515 1.339556 0.156344 -0.024388 860755.000000 0 0 1
-36.826763 10.708378 8.765868 39.341076 -0.282974 1.346093 0.196869 -0.027408 891657.000000 0 0 1
-36.664023 10.707778 7.201168 38.868546 -0.284149 1.384450 0.156191 -0.032093 -351799.000000 0 0 1
-37.142083 11.928278 6.647068 39.572739 -0.310748 1.402025 0.157330 -0.048651 -41993.400000 0 0 1
-36.980003 11.963178 5.248868 39.219751 -0.312878 1.436561 0.192500 -0.061494 -300421.000000 0 0 1
-37.775673 13.086878 4.563168 40.237922 -0.333497 1.457147 0.193019 -0.073481 715196.000000 0 0 1
37.064461 12.560278 4.474068 39.389746 0.326731 1.456966 0.179048 -0.068215 1518830.000000 0 0 1
36.018891 13.509078 4.161168 38.693294 0.358819 1.463046 0.152739 -0.051567 805281.000000 0 0 1
35.563811 14.158178 5.495968 38.670975 0.378873 1.428192 0.138328 -0.031387 -925030.000000 0 0 1
34.627261 15.219378 5.367068 38.203168 0.414105 1.429843 0.120592 -0.022182 372027.000000 0 0 1
34.080251 15.726678 6.628368 38.114658 0.432343 1.396002 0.114815 -0.016450 1084160.000000 0 0 1
32.945861 14.862178 7.305868 36.873971 0.423776 1.371346 0.172659 -0.028605 437594.000000 0 0 1
33.490621 13.687578 7.893168 37.030711 0.387983 1.355996 0.202726 -0.039110 -535041.000000 0 0 1
32.509711 12.789678 8.202468 35.885061 0.374813 1.340182 0.208993 -0.046915 -708754.000000 0 0 1
32.366491 11.622978 7.188368 35.133402 0.344763 1.364739 0.196757 -0.044885 -22514.200000 0 0 1
31.913931 11.979778 5.911068 34.597034 0.359102 1.399099 0.167924 -0.049126 123333.000000 0 0 1
31.944171 10.818478 5.127368 34.113918 0.326544 1.419923 0.174715 -0.054415 -139375.000000 0 0 1
31.289221 11.063778 3.711368 33.394562 0.339876 1.459429 0.148562 -0.061328 377623.000000 0 0 1
29.949101 10.620978 3.564368 31.975905 0.340797 1.459094 0.136210 -0.047421 307828.000000 0 0 1
29.431501 10.994978 2.291168 31.501622 0.357524 1.498000 0.162812 -0.051515 -762779.000000 0 0 1
28.006501 10.558978 2.040568 30.000333 0.360539 1.502726 0.178114 -0.037216 -749722.000000 0 0 1
27.895501 9.268278 1.565668 29.436563 0.320775 1.517583 0.183297 -0.046028 -286682.000000 0 0 1
26.564101 8.839778 1.595668 28.041742 0.321245 1.513862 0.190542 -0.044194 -698183.000000 0 0 1
26.475301 7.284878 1.422168 27.496064 0.268513 1.519051 0.217234 -0.045648 92231.000000 0 0 1
26.977601 6.495378 2.493768 27.860362 0.236272 1.481167 0.230276 -0.031495 40357.700000 0 0 1
28.367301 6.590778 2.675668 29.245535 0.228287 1.479178 0.249493 -0.042563 -921282.000000 0 0 1
28.906901 5.866478 3.884268 29.750832 0.200225 1.439863 0.240577 -0.051968 -317610.000000 0 0 1
30.283201 6.119878 4.069168 31.162209 0.199403 1.439842 0.256834 -0.047261 220012.000000 0 0 1
30.677201 5.508878 5.282968 31.612468 0.177682 1.402892 0.233753 -0.035568 731590.000000 0 0 1
32.222171 5.479378 5.577468 33.157201 0.168439 1.401780 0.191403 -0.035973 682432.000000 0 0 1
32.724091 6.700678 6.024668 33.942036 0.201971 1.392352 0.191549 -0.045568 -441752.000000 0 0 1
34.094531 6.570978 6.291068 35.287282 0.190394 1.391557 0.170128 -0.035779 -340866.000000 0 0 1
34.689061 7.722878 7.153968 36.251249 0.219059 1.372148 0.138447 -0.036203 143088.000000 0 0 1
34.154701 7.762978 8.474568 36.036450 0.223492 1.333406 0.157184 -0.039887 412917.000000 0 0 1
34.686871 8.918378 9.154068 36.966382 0.251660 1.320561 0.177422 -0.046044 118232.000000 0 0 1
34.260191 8.976278 10.637968 36.979732 0.256243 1.279003 0.192572 -0.051029 -868529.000000 0 0 1
32.907221 9.194078 10.882068 35.858550 0.272447 1.262462 0.211433 -0.052729 -493135.000000 0 0 1
32.623191 9.052978 12.253068 36.005092 0.270690 1.223545 0.204987 -0.053290 298936.000000 0 0 1
31.172401 9.528278 12.632268 34.958273 0.296645 1.201078 0.178443 -0.056414 404582.000000 0 0 1
30.904701 10.922678 12.617468 35.122726 0.339728 1.203344 0.242806 -0.076990 302274.000000 0 0 1
30.816901 11.470378 11.317768 34.775606 0.356323 1.239307 0.229582 -0.076408 -451223.000000 0 0 1
29.372301 11.506978 10.760168 33.330523 0.373385 1.242076 0.195451 -0.065250 -124676.000000 0 0 1
29.201101 12.357678 9.685968 33.154705 0.400338 1.274328 0.177110 -0.043795 -227241.000000 0 0 1
28.084001 11.901978 8.983368 31.797312 0.400853 1.284377 0.161254 -0.043931 -778440.000000 0 0 1
27.476701 13.012078 8.039568 31.447065 0.442279 1.312272 0.155271 -0.040434 31224.500000 0 0 1
26.907001 14.108378 8.743768 31.614656 0.482928 1.290570 0.149376 -0.035760 64357.600000 0 0 1
27.379101 15.352278 8.268468 32.460363 0.511044 1.313233 0.134826 -0.037552 -943922.000000 0 0 1
26.840701 16.627778 8.966168 32.822224 0.554634 1.294106 0.165681 -0.042437 957455.000000 0 0 1
25.540901 17.070878 8.550968 31.888423 0.589184 1.299321 0.188259 -0.045118 469553.000000 0 0 1
24.435701 16.261078 8.840468 30.654200 0.587169 1.278248 0.205110 -0.042849 -996526.000000 0 0 1
23.114001 17.031678 8.776068 30.022565 0.635035 1.274149 0.198549 -0.054066 -392893.000000 0 0 1
22.677801 17.589078 7.548768 29.675616 0.659690 1.313594 0.190783 -0.050337 342681.000000 0 0 1
21.561401 18.455878 7.653968 29.395521 0.707949 1.307382 0.200344 -0.052579 91452.600000 0 0 1
21.116101 19.183678 6.336368 29.224181 0.737484 1.352241 0.181098 -0.044552 -148303.000000 0 0 1
21.887201 20.272078 5.880468 30.407015 0.747107 1.376178 0.147379 -0.027935 -183885.000000 0 0 1
21.638301 20.694478 4.582668 30.289904 0.763107 1.418920 0.161630 -0.032923 -195507.000000 0 0 1
20.179887 17.555178 32.749201 42.283830 0.715954 0.684858 0.122016 -0.038088 -127016.000000 0 0 1
19.033887 18.190078 32.240939 41.625064 0.762734 0.684784 0.139115 -0.038354 594131.000000 0 0 1
18.271387 17.281578 31.397008 40.227709 0.757565 0.675360 0.152624 -0.044838 486256.000000 0 0 1
17.506487 17.825178 30.199023 39.194324 0.794418 0.691179 0.163797 -0.044556 -493366.000000 0 0 1
18.391287 18.264578 29.222473 39.061325 0.781941 0.725575 0.169183 -0.035954 -278368.000000 0 0 1
17.978387 18.273378 27.857953 37.857684 0.793535 0.743861 0.174513 -0.030246 267896.000000 0 0 1
19.185387 18.572278 26.906633 37.907459 0.769162 0.781585 0.155687 -0.023877 443039.000000 0 0 1
19.810687 19.859578 26.984913 38.923665 0.786631 0.804769 0.173858 -0.033033 -164741.000000 0 0 1
20.684487 19.978978 25.930253 38.721900 0.768050 0.837054 0.128670 -0.023928 -1157990.000000 0 0 1
21.432487 21.285778 25.859783 39.763855 0.781964 0.862772 0.126793 -0.021530 -435825.000000 0 0 1
20.649387 22.455378 25.715163 39.898756 0.827271 0.870414 0.139858 -0.030912 92537.300000 0 0 1
21.079487 23.489978 26.553773 41.245929 0.839429 0.871354 0.132216 -0.033299 -321382.000000 0 0 1
20.309787 24.746378 26.225053 41.383862 0.883550 0.884466 0.157515 -0.042516 -125988.000000 0 0 1
20.552087 25.384178 24.999273 41.130383 0.890204 0.917502 0.158629 -0.041544 -112872.000000 0 0 1
19.556387 26.332978 24.772723 41.104328 0.932011 0.923942 0.167675 -0.052112 -224340.000000 0 0 1
19.606187 26.913378 23.380623 40.686435 0.941203 0.958615 0.137782 -0.050306 78983.800000 0 0 1
20.744887 27.708178 23.122583 41.626281 0.928133 0.981856 0.138963 -0.050208 19526.900000 0 0 1
20.592287 28.441178 21.909633 41.388101 0.944124 1.012938 0.125758 -0.051721 589338.000000 0 0 1
21.792687 29.433378 21.593333 42.514903 0.933463 1.038051 0.130871 -0.043786 337833.000000 0 0 1
23.057087 28.766778 21.571233 42.713872 0.895131 1.041395 0.131938 -0.038348 -382577.000000 0 0 1
23.993687 29.592978 20.984333 43.494638 0.889511 1.067338 0.139275 -0.051319 -734724.000000 0 0 1
24.076487 29.761778 19.443233 42.935765 0.890608 1.100843 0.139388 -0.049413 -1007540.000000 0 0 1
23.059687 30.535178 18.893433 42.674443 0.923986 1.112151 0.113691 -0.035975 -419765.000000 0 0 1
23.174887 30.724578 17.435733 42.250205 0.924563 1.145404 0.115503 -0.023833 -355121.000000 0 0 1
22.648587 32.089878 16.924633 42.768703 0.956198 1.163939 0.143699 -0.029067 -476009.000000 0 0 1
23.552987 33.144378 17.170633 44.137553 0.952980 1.171223 0.149901 -0.032055 144809.000000 0 0 1
23.800787 -33.394293 16.096133 44.053851 -0.951584 1.196762 0.133371 -0.031320 260097.000000 0 0 1
24.822887 33.573378 14.982033 44.359990 0.934138 1.226284 0.107880 -0.033706 157435.000000 0 0 1
24.439187 32.483778 14.204133 43.060737 0.925793 1.234638 0.139005 -0.045164 260982.000000 0 0 1
23.391287 32.677478 13.249733 42.314599 0.949530 1.252315 0.092436 -0.040430 78010.800000 0 0 1
22.936587 31.484078 12.321633 40.855316 0.941189 1.264434 0.073636 -0.043893 -165710.000000 0 0 1
23.900887 30.883878 11.449733 40.695979 0.912177 1.285598 0.102129 -0.051865 32681.200000 0 0 1
23.409487 29.712278 10.815633 39.342108 0.903494 1.292298 0.084037 -0.043421 -1225900.000000 0 0 1
24.398587 29.120478 9.773033 39.227611 0.873398 1.319008 0.095891 -0.044210 1360390.000000 0 0 1
25.621287 28.462778 10.227833 39.638222 0.837888 1.309814 0.126125 -0.049480 1049730.000000 0 0 1
26.511687 29.444978 10.694333 41.039554 0.837771 1.307167 0.121815 -0.056792 -288357.000000 0 0 1
28.005287 28.989278 10.947633 41.767511 0.802661 1.305590 0.148373 -0.066345 1123990.000000 0 0 1
28.114887 28.182078 12.045533 41.590519 0.786592 1.276964 0.155523 -0.049740 416053.000000 0 0 1
29.361087 28.283278 12.746433 42.714035 0.766703 1.267767 0.130464 -0.036690 530156.000000 0 0 1
29.588787 27.056178 13.667833 42.359683 0.740718 1.242256 0.119389 -0.045604 133920.000000 0 0 1
30.858587 27.203278 14.270433 43.542117 0.722526 1.236887 0.102695 -0.053377 188666.000000 0 0 1
31.122687 26.231878 15.290633 43.480300 0.700331 1.211444 0.119750 -0.045682 -2161.080000 0 0 1
32.335187 26.507378 16.196933 44.839113 0.686679 1.201217 0.115617 -0.058264 844683.000000 0 0 1
33.651787 26.353978 15.649033 45.517767 0.664374 1.219835 0.137089 -0.041590 726292.000000 0 0 1
34.630887 26.443678 16.662033 46.649649 0.652140 1.205556 0.106140 -0.037859 959929.000000 0 0 1
36.125787 26.300678 16.194833 47.529683 0.629292 1.223102 0.127964 -0.044303 791354.000000 0 0 1
36.582187 27.418478 15.503833 48.274198 0.643183 1.243840 0.148775 -0.041454 -1128300.000000 0 0 1
37.961587 27.508278 15.543333 49.390107 0.627069 1.250650 0.170181 -0.038617 -719486.000000 0 0 1
-37.810727 28.725878 14.734733 49.718603 -0.649698 1.269914 0.142046 -0.037296 103228.000000 0 0 1
37.794087 29.934478 15.246633 50.566054 0.669869 1.264511 0.144882 -0.041772 113901.000000 0 0 1
37.942487 31.016478 14.335933 51.060486 0.685297 1.286207 0.109789 -0.020722 62291.600000 0 0 1
36.835087 32.074678 14.498733 50.949208 0.716426 1.282236 0.099100 -0.028812 -1516910.000000 0 0 1
37.060587 33.122878 13.670433 51.550877 0.729351 1.302402 0.056072 -0.034490 41584.700000 0 0 1
36.067887 -33.337993 13.633533 50.972419 -0.746086 1.300031 0.049234 -0.025200 708823.000000 0 0 1
34.663587 33.621078 13.105533 50.036948 0.770132 1.305788 0.105591 -0.029268 223011.000000 0 0 1
33.988287 32.627578 13.870133 49.113573 0.764975 1.284492 0.103751 -0.046040 -27476.400000 0 0 1
32.933987 32.022978 13.129233 47.775468 0.771374 1.292403 0.133250 -0.044425 -190654.000000 0 0 1
32.373387 30.789878 13.875033 46.782147 0.760333 1.269678 0.157740 -0.053877 -409628.000000 0 0 1
31.440687 31.158978 14.852533 46.690432 0.780898 1.247065 0.148908 -0.039173 -20743.200000 0 0 1
31.054787 30.070578 15.631733 45.967277 0.769298 1.223813 0.141383 -0.043625 396528.000000 0 0 1
29.845387 30.384678 16.600433 45.711597 0.794352 1.199144 0.128239 -0.041765 551151.000000 0 0 1
29.631687 29.406478 17.661033 45.328687 0.781584 1.170576 0.112664 -0.038633 227148.000000 0 0 1
30.640887 29.507678 18.661533 46.452339 0.766560 1.157386 0.109912 -0.035553 234682.000000 0 0 1
30.369987 28.419778 19.805533 46.068200 0.752238 1.126395 0.105097 -0.033700 559904.000000 0 0 1
29.097587 28.585778 20.432733 45.621408 0.776526 1.106408 0.110744 -0.041178 364606.000000 0 0 1
29.123587 27.992778 21.736133 45.871978 0.765602 1.077146 0.075337 -0.031211 -95990.900000 0 0 1
27.844687 28.203778 22.573103 45.610576 0.791805 1.053066 0.084559 -0.026945 -496481.000000 0 0 1
26.901787 27.257778 22.267633 44.300565 0.791971 1.044136 0.124466 -0.036496 -530364.000000 0 0 1
25.710387 27.274978 23.033143 43.994023 0.814918 1.019782 0.130168 -0.043808 302082.000000 0 0 1
25.524087 26.034878 23.950533 43.622493 0.795305 0.989580 0.116481 -0.042796 -891289.000000 0 0 1
26.366887 26.094378 25.026253 44.748660 0.780204 0.977300 0.077634 -0.036020 -358507.000000 0 0 1
26.027787 25.202378 26.135993 44.673210 0.769288 0.945857 0.101217 -0.032839 356574.000000 0 0 1
27.251187 25.114678 27.113293 45.918459 0.744621 0.939160 0.081733 -0.027271 644224.000000 0 0 1
27.600387 26.373178 27.741473 47.190202 0.762665 0.942379 0.094286 -0.039124 411050.000000 0 0 1
28.731787 26.990978 27.130673 47.855009 0.754168 0.968016 0.066039 -0.022825 -244701.000000 0 0 1
29.044987 28.327278 27.913643 49.246496 0.772889 0.968162 0.037453 -0.020755 -936352.000000 0 0 1
29.759487 27.965878 29.031203 50.105171 0.754337 0.952797 0.047438 -0.016405 -427980.000000 0 0 1
30.075287 29.030878 29.881853 51.383265 0.767730 0.950166 0.056439 -0.020984 -91317.000000 0 0 1
31.595987 29.183578 29.990553 52.434920 0.745728 0.961906 0.034390 -0.021077 67456.800000 0 0 1
32.263587 29.529678 28.749283 52.339872 0.741184 0.989293 0.011009 -0.019018 670494.000000 0 0 1
33.687287 29.525078 28.898193 53.307308 0.719648 0.997855 0.032049 -0.026765 945274.000000 0 0 1
34.539787 29.734278 27.629203 53.296313 0.710771 1.025809 0.029895 -0.021236 -355463.000000 0 0 1
34.433487 31.095178 27.252763 53.807882 0.734498 1.039696 0.015635 -0.020820 85246.800000 0 0 1
34.626887 31.380978 25.904923 53.430816 0.736263 1.064626 0.032796 -0.027986 -343882.000000 0 0 1
34.206587 32.779478 25.570763 53.837242 0.764097 1.075873 0.027957 -0.034826 214510.000000 0 0 1
35.161987 33.696478 26.113673 55.260672 0.764118 1.078609 0.046461 -0.032083 387048.000000 0 0 1
34.703987 -32.463693 25.955883 54.147631 -0.752057 1.070878 0.045291 -0.025435 -276905.000000 0 0 1
35.586087 -31.322193 26.545043 54.333127 -0.721757 1.060357 0.038268 -0.021605 -89941.400000 0 0 1
35.610287 -31.439393 27.969303 55.125401 -0.723272 1.038659 0.041499 -0.033161 576156.000000 0 0 1
36.572587 -30.516993 28.482813 55.498753 -0.695381 1.031869 0.045793 -0.037345 50214.800000 0 0 1
36.427987 -30.181493 29.971423 56.001848 -0.691894 1.006068 0.051647 -0.039417 -312049.000000 0 0 1
36.536587 -31.263793 30.860703 57.137815 -0.707785 1.000229 0.051382 -0.039645 823380.000000 0 0 1
35.315887 -31.999793 30.954933 56.827867 -0.736176 0.994748 0.049005 -0.044040 11979.200000 0 0 1
35.391487 -32.915493 32.155064 58.051143 -0.749166 0.983744 0.055671 -0.043978 -290689.000000 0 0 1
35.479087 -32.208593 33.381213 58.399182 -0.737118 0.962337 0.042768 -0.047623 138117.000000 0 0 1
35.667687 -32.958593 -32.817122 58.612425 -0.745943 2.165062 0.048527 -0.045359 -4904.460000 0 0 1
34.736187 33.301778 -32.418862 58.022356 0.764319 2.163651 0.063211 -0.038888 262708.000000 0 0 1
35.067087 32.214378 -33.243312 58.073958 0.743024 2.180263 0.062296 -0.043881 353716.000000 0 0 1
34.006187 31.268378 -33.251192 56.919013 0.743480 2.194671 0.088516 -0.033380 377186.000000 0 0 1
34.293687 30.218078 33.037912 56.397631 0.722306 0.944926 0.063111 -0.031947 -131091.000000 0 0 1
35.567987 29.654778 33.145106 56.948095 0.694984 0.949582 0.045530 -0.033741 -322621.000000 0 0 1
35.872787 28.891278 32.005420 56.088409 0.678014 0.963530 0.039661 -0.036986 -94899.700000 0 0 1
37.129387 28.001678 32.062153 56.485989 0.646161 0.967193 0.040536 -0.029585 18875.400000 0 0 1
36.984287 26.940878 33.002219 56.416264 0.629560 0.945945 0.038648 -0.025490 343042.000000 0 0 1
-37.936327 26.399578 33.263479 56.943495 -0.607963 0.946965 0.043276 -0.024528 82114.500000 0 0 1
38.073387 25.004078 -33.407402 56.487532 0.581094 2.203605 0.035755 -0.024306 82657.800000 0 0 1
37.794887 23.976778 33.073421 55.652408 0.565325 0.934419 0.050427 -0.020961 161212.000000 0 0 1
37.566087 22.699878 33.694563 55.333705 0.543550 0.916081 0.051829 -0.031226 121764.000000 0 0 1
37.019787 21.562578 32.758571 53.930820 0.527423 0.917990 0.046319 -0.037435 -908725.000000 0 0 1
38.037087 21.140978 31.966186 53.996277 0.507285 0.937249 0.067106 -0.032104 -534057.000000 0 0 1
37.671887 20.138278 31.077173 52.825297 0.490920 0.941840 0.072849 -0.027719 475934.000000 0 0 1
-37.220827 19.554178 30.445763 51.910502 -0.483726 0.944060 0.093085 -0.043899 505312.000000 0 0 1
-36.401027 20.434278 29.696903 51.229879 -0.511527 0.952461 0.096894 -0.033386 761074.000000 0 0 1
-35.218327 19.864078 29.105323 49.819995 -0.513548 0.946890 0.103680 -0.038812 646136.000000 0 0 1
-35.471927 18.912978 27.881433 48.921699 -0.489839 0.964388 0.104861 -0.033001 -513409.000000 0 0 1
-36.214027 17.776378 28.232113 49.239288 -0.456317 0.960188 0.087276 -0.028886 182486.000000 0 0 1
-36.407227 16.793378 27.205723 48.452606 -0.432182 0.974609 0.090538 -0.039574 190422.000000 0 0 1
-37.207727 15.599178 27.772783 48.980371 -0.396987 0.967914 0.098609 -0.040136 -245101.000000 0 0 1
-36.297627 14.757278 28.414633 48.401305 -0.386151 0.943370 0.077843 -0.029441 230702.000000 0 0 1
-36.886627 13.601778 28.912523 48.801286 -0.353276 0.936695 0.082983 -0.034758 -322457.000000 0 0 1
-35.847627 12.531278 29.286903 47.956313 -0.336292 0.913853 0.079623 -0.025494 -71595.700000 0 0 1
-34.974827 12.991378 30.325443 48.079589 -0.355654 0.888297 0.081902 -0.015236 85486.500000 0 0 1
-33.987627 12.050378 30.550243 47.261905 -0.340724 0.867936 0.090257 -0.010447 32082.700000 0 0 1
-32.548327 12.467978 30.101423 46.053661 -0.365819 0.858443 0.091166 -0.006770 -588394.000000 0 0 1
-32.175327 12.147878 28.792373 44.853353 -0.361007 0.873794 0.072813 -0.003962 1206490.000000 0 0 1
-30.777227 12.324078 28.499573 43.718946 -0.380876 0.860733 0.050806 0.002601 1399500.000000 0 0 1
-29.740927 11.345178 29.186473 43.186641 -0.364428 0.828717 0.053334 0.000624 -6374.080000 0 0 1
-29.453427 10.185478 28.371293 42.144733 -0.332943 0.832286 0.048020 -0.009107 -37374.900000 0 0 1
-28.394227 9.447678 28.931053 41.623269 -0.321210 0.802280 0.048626 -0.008319 -193260.000000 0 0 1
-28.044827 8.186578 28.044383 40.497157 -0.284019 0.805844 0.046108 -0.016806 340610.000000 0 0 1
-28.949027 7.085378 28.166333 41.007207 -0.240035 0.813632 0.054453 -0.019955 476022.000000 0 0 1
-30.168527 7.264378 27.449903 41.429559 -0.236295 0.846554 0.063904 -0.012835 -274909.000000 0 0 1
-31.094927 6.072778 27.545613 41.982542 -0.192870 0.855130 0.075080 -0.027524 -737966.000000 0 0 1
-31.553027 5.984378 28.915773 43.214907 -0.187435 0.837778 0.084988 -0.026884 153575.000000 0 0 1
-32.036427 4.675178 29.105483 43.535262 -0.144910 0.838540 0.107693 -0.034699 -588811.000000 0 0 1
-32.852727 4.398878 30.338043 44.933825 -0.133105 0.829599 0.123022 -0.031137 -157073.000000 0 0 1
-34.048827 5.159178 30.408343 45.941343 -0.150379 0.847452 0.137935 -0.031718 213653.000000 0 0 1
-34.831527 4.742278 31.524471 47.217758 -0.135317 0.839762 0.163575 -0.034885 1193610.000000 0 0 1
-36.362827 5.115778 31.404663 48.318518 -0.139770 0.863277 0.168630 -0.033933 942302.000000 0 0 1
-36.592227 6.460978 31.608600 48.783592 -0.174766 0.865926 0.160417 -0.031644 -220280.000000 0 0 1
-37.981827 6.638778 31.718683 49.927621 -0.173040 0.882408 0.152801 -0.030671 -163861.000000 0 0 1
37.808887 8.050478 32.093898 50.242814 0.209793 0.877890 0.133609 -0.033122 -211928.000000 0 0 1
37.900687 8.289878 33.491243 51.252780 0.215335 0.858660 0.131193 -0.031095 39364.900000 0 0 1
37.437487 9.518578 -33.575912 51.181155 0.248977 2.286331 0.129234 -0.026030 -406945.000000 0 0 1
37.633087 9.802978 -32.071272 50.407481 0.254825 2.260411 0.119618 -0.022543 -274474.000000 0 0 1
36.558887 9.302578 -31.323842 49.033389 0.249167 2.263769 0.113335 -0.020965 -45053.200000 0 0 1
36.820687 9.266978 -29.904312 48.331230 0.246558 2.237930 0.115706 -0.009068 104817.000000 0 0 1
35.550487 8.797278 -29.176052 46.823832 0.242585 2.243500 0.107522 -0.013517 -148288.000000 0 0 1
35.327487 7.361978 -29.284202 46.473590 0.205452 2.252511 0.098617 -0.024055 1778920.000000 0 0 1
33.983787 6.889078 -28.912322 45.147310 0.200006 2.265815 0.114916 -0.025544 1517020.000000 0 0 1
36.943801 5.879078 -19.081832 41.994336 0.157812 2.042484 0.115919 -0.027317 -325099.000000 0 0 1
37.026861 6.808878 -18.017032 41.736826 0.181859 2.017153 0.114643 -0.013169 336174.000000 0 0 1
37.454501 8.070878 -18.488232 42.541667 0.212240 2.020381 0.083333 -0.015026 -1633290.000000 0 0 1
-37.268333 8.287178 -18.279032 42.328820 -0.218805 2.017322 0.109946 -0.023018 -1477090.000000 0 0 1
-36.512453 7.525978 -19.207332 41.937110 -0.203274 2.046544 0.123441 -0.040327 -23184.200000 0 0 1
-36.070783 8.308078 -20.309932 42.221072 -0.226379 2.072634 0.111030 -0.026832 -563032.000000 0 0 1
-35.160043 7.520278 -21.268132 41.774593 -0.210712 2.104954 0.103221 -0.024908 -112680.000000 0 0 1
-35.768553 6.425378 -21.990732 42.476666 -0.177742 2.114972 0.098102 -0.020802 502711.000000 0 0 1
-36.573793 6.742278 -23.117032 43.789243 -0.182301 2.126941 0.088027 -0.015273 227785.000000 0 0 1
-36.523343 5.528778 -24.030932 44.068216 -0.150236 2.147558 0.110063 -0.019113 351781.000000 0 0 1
-35.168413 5.384778 -24.421332 43.153384 -0.151934 2.172344 0.121989 -0.020845 330951.000000 0 0 1
-34.951274 4.209778 -25.085632 43.227338 -0.119870 2.189916 0.129758 -0.024580 -72041.300000 0 0 1
-33.565043 4.035178 -25.742982 42.492304 -0.119645 2.221601 0.133743 -0.023949 449075.000000 0 0 1
-32.452323 4.143678 -24.856832 41.087534 -0.126998 2.220528 0.120279 -0.021233 71566.000000 0 0 1
-31.276113 3.786678 -25.534622 40.553065 -0.120486 2.251911 0.124106 -0.022673 752828.000000 0 0 1
-29.917703 4.181478 -24.828832 39.102745 -0.138866 2.258758 0.108552 -0.024884 699681.000000 0 0 1
-29.714453 5.581278 -24.791032 39.098525 -0.185667 2.257596 0.081176 -0.013127 117186.000000 0 0 1
-28.487593 5.936978 -24.184132 37.837322 -0.205465 2.264203 0.075754 -0.009233 -40340.100000 0 0 1
-28.131723 7.419178 -24.374032 37.954334 -0.257859 2.268153 0.050252 -0.008299 -371740.000000 0 0 1
-28.841493 8.336078 -23.618732 38.199037 -0.281363 2.237383 0.053464 -0.001999 -590041.000000 0 0 1
-28.290363 9.618378 -23.852132 38.233258 -0.327728 2.244466 0.027659 0.000852 914437.000000 0 0 1
-26.889363 10.011178 -23.239332 36.923273 -0.356410 2.251571 0.053957 0.009345 663115.000000 0 0 1
-26.912013 10.138278 -21.854332 36.119980 -0.360277 2.220623 0.043267 0.009561 833700.000000 0 0 1
-25.584293 10.466678 -21.415632 34.967652 -0.388331 2.229941 0.081778 -0.003060 436950.000000 0 0 1
-25.559513 10.786078 -19.919232 34.152657 -0.399326 2.193509 0.108748 -0.015872 -671739.000000 0 0 1
-26.008473 12.060778 -19.491532 34.667317 -0.434209 2.167895 0.105917 -0.017697 1582470.000000 0 0 1
-27.438563 12.304978 -19.479832 35.829472 -0.421569 2.145614 0.096415 -0.000771 1184790.000000 0 0 1
-28.214363 11.535178 -18.324432 35.565368 -0.388104 2.112075 0.091878 -0.015224 -462246.000000 0 0 1
-27.779103 11.723578 -17.010332 34.618958 -0.399351 2.084446 0.115487 -0.030371 149487.000000 0 0 1
-28.585663 10.964078 -16.129832 34.605240 -0.366247 2.055685 0.130530 -0.036921 -992850.000000 0 0 1
-28.034253 10.735678 -14.691032 33.421558 -0.365721 2.025913 0.165620 -0.048649 160873.000000 0 0 1
-27.014573 9.756978 -14.595132 32.218064 -0.346595 2.040936 0.178017 -0.045158 296781.000000 0 0 1
-25.760033 10.096078 -15.139032 31.538871 -0.373528 2.071465 0.148162 -0.035010 -921733.000000 0 0 1
-24.910613 8.750978 -15.062832 30.397486 -0.337828 2.089240 0.100715 -0.027544 -398284.000000 0 0 1
-23.541513 9.052978 -15.119832 29.406948 -0.367120 2.110823 0.091230 -0.016321 -305121.000000 0 0 1
-22.839113 7.843678 -14.991532 28.423483 -0.330811 2.126375 0.097083 -0.021319 -135705.000000 0 0 1
-21.309213 7.952878 -14.834032 27.154730 -0.357203 2.148711 0.168139 -0.041582 -292843.000000 0 0 1
-20.653713 8.291678 -16.011232 27.416917 -0.381766 2.194433 0.178476 -0.048762 300467.000000 0 0 1
-19.251713 8.362978 -15.782532 26.261306 -0.409807 2.215524 0.195139 -0.045084 56483.900000 0 0 1
-18.422113 8.961378 -16.917132 26.568212 -0.452746 2.261064 0.142626 -0.037755 -174902.000000 0 0 1
-18.386013 8.235678 -18.175832 27.133609 -0.421133 2.304822 0.210172 -0.053371 187843.000000 0 0 1
-17.449313 7.170778 -18.189132 26.205784 -0.389909 2.337949 0.234602 -0.057181 -492630.000000 0 0 1
-17.164313 6.498678 -19.498932 26.777879 -0.361937 2.386449 0.204662 -0.048966 56433.300000 0 0 1
-18.119713 5.674478 -20.169732 27.700935 -0.303491 2.386378 0.203823 -0.040744 1041710.000000 0 0 1
-19.180113 6.476278 -20.810532 29.032691 -0.325636 2.369994 0.174687 -0.035815 548618.000000 0 0 1
-20.180813 5.707478 -21.671332 30.157705 -0.275619 2.372584 0.140977 -0.014132 13114.100000 0 0 1
-21.187913 5.133978 -20.831032 30.153230 -0.237725 2.333445 0.112827 -0.014303 473513.000000 0 0 1
-21.604613 3.888278 -21.420732 30.671253 -0.178068 2.343953 0.098511 0.002305 17041.200000 0 0 1
-22.454213 2.997378 -20.476332 30.536145 -0.132704 2.305760 0.101752 -0.006050 44808.300000 0 0 1
-22.953313 1.782078 -21.024932 31.178168 -0.077484 2.310878 0.111459 -0.001722 461261.000000 0 0 1
-23.622713 1.073578 -19.997032 30.968798 -0.045416 2.272756 0.110008 -0.008351 -185538.000000 0 0 1
-24.274813 -0.251122 -20.359332 31.683308 0.010345 2.268668 0.119460 0.005590 -13825.300000 0 0 1
-23.397713 -1.365122 -20.387532 31.063934 0.058278 2.286712 0.111206 -0.010992 296677.000000 0 0 1
-24.062313 -2.553922 -20.821732 31.922750 0.105742 2.281350 0.130649 -0.020249 -171344.000000 0 0 1
-24.541813 -2.580222 -22.322932 33.275688 0.104751 2.306148 0.125913 -0.017993 519895.000000 0 0 1
-23.520713 -2.450322 -23.322932 33.214262 0.103803 2.349274 0.100547 -0.014019 173191.000000 0 0 1
-22.617613 -3.500522 -23.460532 32.775092 0.153551 2.368571 0.094339 -0.023305 -603585.000000 0 0 1
-21.779013 -3.388222 -24.688132 33.095458 0.154336 2.412783 0.101412 -0.028681 -563969.000000 0 0 1
-22.500713 -3.625622 -25.848842 34.461426 0.159760 2.418980 0.100485 -0.034666 -159198.000000 0 0 1
-21.629113 -3.771122 -26.928862 34.744834 0.172619 2.457585 0.106991 -0.031487 -273776.000000 0 0 1
-22.327713 -4.131222 -28.241712 36.237937 0.182958 2.464410 0.104018 -0.031829 283.737000 0 0 1
-23.016013 -5.383222 -28.162142 36.767135 0.229760 2.443329 0.101945 -0.041187 110713.000000 0 0 1
-23.752113 -5.615222 -29.314342 38.144780 0.232147 2.447293 0.064083 -0.034847 -742855.000000 0 0 1
-23.239213 -6.830322 -30.131592 38.660408 0.285864 2.464490 0.076349 -0.039814 -297419.000000 0 0 1
-21.989613 -6.525322 -30.687672 38.312611 0.288468 2.499728 0.074413 -0.045547 -155789.000000 0 0 1
-21.226513 -7.625422 -31.133392 38.444766 0.344883 2.514644 0.080164 -0.045227 27571.700000 0 0 1
-19.843013 -7.214622 -31.707022 38.093716 0.348726 2.554117 0.104638 -0.040894 71.943400 0 0 1
-19.890513 -6.505322 -32.951782 39.035518 0.316091 2.575772 0.112269 -0.047170 216747.000000 0 0 1
-20.139113 -7.391122 33.361863 39.663918 0.351742 0.571457 0.106319 -0.044449 -729102.000000 0 0 1
-20.202813 -6.759322 31.952501 38.403182 0.322866 0.588044 0.109255 -0.037267 -611805.000000 0 0 1
-19.001313 -6.471822 31.317953 37.198770 0.328275 0.569986 0.129096 -0.042904 -632325.000000 0 0 1
-18.299613 -5.376122 31.900575 37.167529 0.285744 0.538865 0.133321 -0.041512 -176926.000000 0 0 1
-16.821513 -5.391222 31.436671 36.059573 0.310153 0.511935 0.122077 -0.037322 46694.500000 0 0 1
-16.765813 -5.300922 30.002453 34.775558 0.306229 0.530122 0.120705 -0.037737 538491.000000 0 0 1
-15.625213 -4.485822 29.672503 33.833819 0.279570 0.501199 0.096178 -0.018515 608293.000000 0 0 1
-15.428513 -4.287922 28.189543 32.420296 0.271081 0.516601 0.088277 -0.018926 208838.000000 0 0 1
-16.496213 -3.639022 27.511913 32.284251 0.217120 0.550664 0.093206 -0.031137 -70173.600000 0 0 1
-16.560413 -3.946722 26.099063 31.160632 0.233958 0.577985 0.093378 -0.027075 603262.000000 0 0 1
-15.460313 -3.349922 25.134003 29.697834 0.213380 0.561750 0.096712 -0.019991 716923.000000 0 0 1
-15.681113 -1.985422 24.948973 29.534563 0.125942 0.564721 0.084632 -0.013905 741922.000000 0 0 1
-14.625213 -1.383922 24.152123 28.269013 0.094345 0.546464 0.075531 -0.017937 724109.000000 0 0 1
-14.751213 0.166978 24.081933 28.241205 -0.011319 0.549620 0.061107 -0.000081 -174715.000000 0 0 1
-15.857513 0.576478 23.316703 28.203930 -0.036338 0.597547 0.055460 -0.008604 -171237.000000 0 0 1
-16.126413 1.896478 23.629563 28.670787 -0.117063 0.602064 0.048571 -0.009491 11694.200000 0 0 1
-16.772513 2.676078 22.498553 28.189776 -0.158218 0.646644 0.057494 -0.012089 -623991.000000 0 0 1
-15.737013 3.224978 21.762933 27.049571 -0.202131 0.635867 0.062355 -0.008404 -76141.600000 0 0 1
-16.155513 4.033278 20.706333 26.571039 -0.244652 0.677277 0.070937 -0.014138 308362.000000 0 0 1
-14.923313 4.710578 20.040133 25.426398 -0.305754 0.662979 0.078276 -0.009613 655263.000000 0 0 1
-14.095313 5.594478 20.812433 25.751376 -0.377834 0.629696 0.064308 -0.006556 -52512.500000 0 0 1
-12.946513 5.788078 20.036633 24.547519 -0.420420 0.615926 0.055348 -0.008589 -58212.500000 0 1 0
-12.062313 7.034278 20.424133 24.741173 -0.527946 0.599688 0.066724 -0.006264 627356.000000 0 1 0
-12.645413 8.323878 20.089333 25.155013 -0.582155 0.645795 0.082669 -0.006827 121262.000000 0 0 1
-11.740913 9.332078 20.439133 25.351427 -0.671583 0.633041 0.069576 -0.002101 -262974.000000 0 0 1
-12.274913 10.753778 20.494833 26.198385 -0.719440 0.672457 0.067627 0.003865 -144759.000000 0 0 1
-12.718513 11.228378 19.218633 25.635773 -0.723252 0.723218 0.077687 -0.003284 151323.000000 0 0 1
-13.424413 12.418278 19.317933 26.600959 -0.746485 0.758001 0.065892 -0.006065 -187624.000000 0 0 1
-13.778813 13.076278 17.891033 26.094708 -0.759244 0.815342 0.068297 -0.004540 399573.000000 0 0 1
-12.669713 13.743278 17.273433 25.451342 -0.826021 0.824826 0.061007 -0.010258 639334.000000 0 0 1
-12.337113 15.080978 17.755333 26.360806 -0.885141 0.831795 0.071729 -0.017224 47848.900000 0 0 1
-13.398813 16.088278 17.223433 27.111022 -0.876355 0.882409 0.062830 -0.013635 290280.000000 0 0 1
-13.491713 16.443478 15.840333 26.520377 -0.883686 0.930680 0.041034 -0.026074 23096.700000 0 0 1
-14.060013 15.466478 14.947633 25.696841 -0.832996 0.949990 0.070412 -0.024232 129488.000000 0 0 1
-14.520813 16.016578 13.535733 25.506878 -0.834340 1.011406 0.054032 -0.026148 -12904.700000 0 0 1
-15.683913 16.814178 13.614633 26.721900 -0.820164 1.036200 0.047162 -0.017701 -183923.000000 0 0 1
-15.945513 17.520778 12.393633 26.736476 -0.832434 1.088801 0.039330 -0.010798 -121011.000000 0 0 1
-17.202213 18.348078 12.657333 28.156281 -0.817619 1.104548 0.057209 -0.016576 -904013.000000 0 0 1
-18.370513 17.655778 12.892933 28.555734 -0.765562 1.102350 0.074005 -0.022173 -250186.000000 0 0 1
-19.475113 18.542178 13.147533 29.932424 -0.760863 1.116043 0.101453 -0.024547 1257820.000000 0 0 1
-20.886113 17.896278 13.327433 30.563490 -0.708458 1.119584 0.117715 -0.020587 538339.000000 0 0 1
-21.367213 17.268478 12.184133 30.053472 -0.679707 1.153363 0.125950 -0.027261 -377141.000000 0 0 1
-22.656713 16.774178 12.456833 30.819999 -0.637304 1.154714 0.172964 -0.043371 -377123.000000 0 0 1
-23.385613 16.178778 11.284133 30.593650 -0.605219 1.193037 0.171089 -0.029400 -331374.000000 0 0 1
-22.868013 14.929778 10.738133 29.345388 -0.578388 1.196173 0.136473 -0.033029 10445.600000 0 0 1
-23.640813 14.373078 9.702133 29.319017 -0.546265 1.233522 0.165260 -0.034299 48606.900000 0 0 1
-22.955613 13.097178 9.098233 27.951280 -0.518479 1.239252 0.161988 -0.036771 -314932.000000 0 0 1
-23.098213 11.864578 9.780933 27.748194 -0.474514 1.210567 0.161855 -0.039816 -282078.000000 0 0 1
-24.374213 11.308678 9.941033 28.649827 -0.434403 1.216443 0.206144 -0.040323 -337520.000000 0 0 1
-25.100273 10.784078 8.710033 28.673763 -0.405794 1.262156 0.232565 -0.040646 -343113.000000 0 0 1
-25.527113 11.868378 7.870433 29.230730 -0.435202 1.298180 0.239184 -0.044294 676215.000000 0 0 1
-26.601353 11.411478 7.018033 29.784335 -0.405238 1.332931 0.311983 -0.058220 202657.000000 0 0 1
-26.908583 12.393978 5.806933 30.189452 -0.431630 1.377240 0.296840 -0.063386 -188933.000000 0 0 1
-25.978483 12.383778 4.738433 29.166629 -0.444829 1.407612 0.289244 -0.065915 1601820.000000 0 0 1
-24.644313 12.927978 4.922033 28.261302 -0.483120 1.395742 0.274217 -0.065296 742127.000000 0 0 1
-24.507613 14.444978 5.333633 28.943533 -0.532595 1.385460 0.248879 -0.058457 268455.000000 0 0 1
-23.167013 14.943578 5.561133 28.123784 -0.572878 1.371747 0.183741 -0.058358 1105870.000000 0 0 1
-23.188413 16.257778 6.163733 28.982916 -0.611475 1.356492 0.184147 -0.056310 -263625.000000 0 0 1
-21.783013 16.825278 6.383033 28.254783 -0.657686 1.342919 0.144721 -0.042069 -261364.000000 0 0 1
-21.265913 17.421678 5.207533 27.979855 -0.686357 1.383588 0.150614 -0.053223 307931.000000 0 0 1
-19.964613 17.944378 5.338533 27.369443 -0.732157 1.374483 0.138118 -0.035700 -54239.300000 0 0 1
-19.368713 18.713878 4.139133 27.248646 -0.768205 1.418304 0.131576 -0.027821 486074.000000 0 0 1
-17.962913 18.979778 4.194233 26.466768 -0.812917 1.411654 0.113749 -0.030692 784293.000000 0 0 1
-17.543013 20.028878 3.280333 26.826737 -0.851465 1.448211 0.125523 -0.027992 210750.000000 0 0 1
-17.951013 21.439778 3.691233 28.205108 -0.873736 1.439549 0.112203 -0.036637 -342670.000000 0 0 1
-17.178713 21.841578 4.777833 28.195574 -0.904333 1.400521 0.097368 -0.033357 -126289.000000 0 0 1
-17.358813 23.243678 5.127633 29.459965 -0.929334 1.395851 0.070382 -0.029975 -82075.900000 0 0 1
-16.566013 23.736378 6.378633 29.640097 -0.961470 1.353897 0.058373 -0.016485 243321.000000 0 0 1
-17.120613 23.338878 7.634733 29.935059 -0.937896 1.312904 0.060422 -0.021523 356765.000000 0 0 1
-16.230813 23.644978 8.695733 29.968985 -0.969230 1.276405 0.057597 -0.020895 42246.100000 0 0 1
-16.719813 22.997178 9.965733 30.128693 -0.942154 1.233675 0.038517 -0.009720 -131933.000000 0 0 1
-17.884513 23.635178 10.415633 31.415965 -0.923027 1.232861 0.040600 -0.019341 -464259.000000 0 0 1
-18.805013 22.692878 10.894533 31.421109 -0.878814 1.216717 0.040970 -0.013326 663877.000000 0 0 1
-20.158413 23.256078 11.481033 32.848453 -0.856628 1.213743 0.073661 -0.024927 728345.000000 0 0 1
-21.070513 23.925678 10.635533 33.608319 -0.848767 1.248806 0.106207 -0.021715 254406.000000 0 0 1
-20.691313 25.244278 10.164533 34.186572 -0.884192 1.268906 0.045323 -0.020124 -126274.000000 0 0 1
-21.897113 25.984878 9.550033 35.297317 -0.870563 1.296822 0.066629 -0.020658 481214.000000 0 0 1
-22.913513 26.369778 10.469033 36.469095 -0.855414 1.279634 0.104493 -0.033395 -490240.000000 0 0 1
-23.942113 27.049578 9.851333 37.442665 -0.846264 1.304558 0.118324 -0.029498 -690005.000000 0 0 1
-24.821413 27.577078 11.001333 38.699187 -0.837940 1.282543 0.127996 -0.037596 -264375.000000 0 0 1
-24.127713 28.555278 11.751533 39.187357 -0.869243 1.266229 0.124111 -0.038771 501798.000000 0 0 1
-25.028823 29.483978 12.316833 40.588808 -0.866944 1.262481 0.117623 -0.040980 110364.000000 0 0 1
10.486787 -31.954293 27.255953 43.288988 -1.253690 0.889722 0.062982 -0.046559 -932089.000000 0 0 1
11.871287 -32.115693 27.168183 43.708756 -1.216732 0.900047 0.064086 -0.044617 -154367.000000 0 0 1
12.197587 -31.945593 25.796213 42.833943 -1.206057 0.924495 0.072604 -0.037251 -1194440.000000 0 0 1
13.673687 -32.149893 25.613423 43.320120 -1.168663 0.938177 0.021842 -0.022767 -1284890.000000 0 0 1
14.023087 -33.525493 25.705213 44.512511 -1.174630 0.955154 0.054031 -0.036141 472357.000000 0 0 1
15.424387 -33.689193 25.520963 44.991032 -1.141439 0.967639 0.077793 -0.025489 422966.000000 0 0 1
15.926487 32.303878 25.264333 43.994091 1.112748 0.959088 0.114490 -0.024247 30289.000000 0 0 1
15.696887 31.872178 23.939303 42.840614 1.113171 0.977859 0.089794 -0.031819 491543.000000 0 0 1
16.779587 31.017178 23.598313 42.432302 1.074907 0.981062 0.114893 -0.036247 114443.000000 0 0 1
16.711787 30.533578 22.134533 41.249494 1.070009 1.004392 0.111025 -0.050102 -238172.000000 0 0 1
15.674887 29.628978 21.814733 39.993262 1.084188 0.993858 0.095655 -0.036823 -174650.000000 0 0 1
15.792887 28.265278 22.117733 39.211418 1.061269 0.971498 0.104591 -0.036980 -285892.000000 0 0 1
15.292187 27.872478 23.525603 39.549715 1.068991 0.933734 0.143112 -0.052250 -228919.000000 0 0 1
16.197787 28.202378 24.560773 40.755048 1.049457 0.923987 0.141828 -0.047145 201807.000000 0 0 1
15.718687 27.716078 25.755333 40.970663 1.054895 0.891008 0.144066 -0.046830 -506361.000000 0 0 1
16.686087 28.008278 26.875233 42.251240 1.033504 0.881387 0.150950 -0.047602 -193514.000000 0 0 1
16.845687 29.426278 27.056723 43.379134 1.050865 0.897295 0.147564 -0.045940 251978.000000 0 0 1
17.984187 29.658078 27.874273 44.497277 1.025696 0.893836 0.162518 -0.046572 235052.000000 0 0 1
18.145887 31.097078 28.401253 45.857743 1.042580 0.902902 0.149977 -0.049075 35357.900000 0 0 1
18.601287 31.994478 27.404243 46.050483 1.044173 0.933417 0.134341 -0.039780 -146521.000000 0 0 1
18.405687 33.321678 27.850003 47.167003 1.066140 0.939174 0.131675 -0.028826 -797181.000000 0 0 1
19.231287 -33.043293 27.298893 46.977986 -1.043715 0.950717 0.111205 -0.016257 -1200720.000000 0 0 1
19.165387 -32.988993 25.853453 46.086731 -1.044492 0.975235 0.115191 -0.016541 133039.000000 0 0 1
19.527087 -31.773493 25.194193 45.006770 -1.019731 0.976668 0.131324 -0.014483 -235817.000000 0 0 1
20.935187 -31.188093 25.394423 45.341547 -0.979623 0.976327 0.138373 -0.013268 -507926.000000 0 0 1
21.029687 -30.499293 26.663743 45.644384 -0.967143 0.946948 0.119193 -0.012275 -58572.100000 0 0 1
21.998987 -29.483993 26.680933 45.443740 -0.929775 0.943300 0.125251 -0.010088 -219632.000000 0 0 1
21.991787 -28.696093 27.962133 45.705419 -0.916901 0.912474 0.114001 -0.012992 1100200.000000 0 0 1
20.739287 -27.972393 28.182923 44.797879 -0.932809 0.890385 0.124707 -0.018587 1342760.000000 0 0 1
20.852087 -27.054893 29.255373 44.973922 -0.914158 0.862559 0.125985 -0.022794 102807.000000 0 0 1
19.435187 -26.515593 29.545783 44.201317 -0.938283 0.838691 0.144202 -0.026493 -253101.000000 0 0 1
18.925687 -25.763493 28.537233 42.852221 -0.937229 0.842036 0.136119 -0.027774 -87046.900000 0 0 1
17.737187 -25.148193 29.035923 42.309860 -0.956518 0.814450 0.138095 -0.022722 55074.700000 0 0 1
16.805387 -24.780393 27.845683 40.888519 -0.974870 0.821649 0.138320 -0.030212 -727459.000000 0 0 1
16.086487 -25.834893 27.324743 40.900591 -1.013878 0.839175 0.129133 -0.022471 -14041.200000 0 0 1
15.503987 -25.476093 26.053503 39.600378 -1.024099 0.852756 0.138075 -0.041728 -1921410.000000 0 0 1
14.142287 -24.877593 25.934163 38.619681 -1.053880 0.834529 0.094520 -0.030270 -1495530.000000 0 0 1
13.072087 -25.683793 26.314213 39.025306 -1.100004 0.830799 0.084519 -0.029333 -81056.100000 0 0 1
12.826587 -26.744193 25.389493 39.043560 -1.123599 0.862835 0.067047 -0.029724 -1477790.000000 0 0 1
11.852587 -27.824893 25.859573 39.792286 -1.168104 0.863391 0.077322 -0.026608 -1006240.000000 0 0 1
10.544687 -27.395693 25.862613 39.122745 -1.203372 0.848561 0.061835 -0.037483 -1324070.000000 0 0 1
9.692987 -28.397793 26.299973 39.900842 -1.241867 0.851131 0.043589 -0.040055 -936853.000000 0 0 1
8.235487 -28.012693 26.483953 39.419969 -1.284861 0.834105 0.053916 -0.049354 -541520.000000 0 0 1
7.434987 -27.993193 25.314293 38.467016 -1.311190 0.852533 0.085975 -0.046937 -76750.600000 0 0 1
7.532987 -26.776693 24.495263 37.064202 -1.296558 0.848796 0.091626 -0.040597 506625.000000 0 0 1
6.315587 -26.564793 23.473073 36.007777 -1.337387 0.860724 0.102666 -0.031023 155288.000000 0 0 1
6.207987 -27.483393 22.390463 35.989010 -1.348643 0.899314 0.109649 -0.031676 -380976.000000 0 0 1
5.627287 -28.747193 22.606723 37.001776 -1.377490 0.913520 0.117928 -0.035178 106422.000000 0 0 1
4.225187 -28.738293 23.281363 37.225845 -1.424819 0.895141 0.147527 -0.041005 -613370.000000 0 0 1
3.090587 -28.735393 22.403083 36.567372 -1.463655 0.911384 0.165211 -0.035604 2079950.000000 0 0 1
1.863187 -28.338693 23.145413 36.636909 -1.505144 0.886986 0.185187 -0.030801 1738700.000000 0 0 1
1.779687 -26.819293 23.374813 35.620551 -1.504535 0.855002 0.165454 -0.036892 -740592.000000 0 0 1
2.637987 -26.357193 24.390313 36.007610 -1.471042 0.826621 0.118173 -0.035793 25325.400000 0 0 1
2.303087 -25.084693 24.767823 35.326917 -1.479241 0.793853 0.097212 -0.032214 -115967.000000 0 0 1
3.449287 -24.502993 25.635473 35.629647 -1.430945 0.767717 0.085561 -0.028746 -444682.000000 0 0 1
4.602687 -24.237893 24.854713 35.020236 -1.383134 0.781690 0.090963 -0.035604 -365742.000000 0 0 1
5.584187 -23.669293 25.681523 35.368902 -1.339108 0.758157 0.073886 -0.033226 -282815.000000 0 0 1
5.303687 -22.184293 26.103403 34.664962 -1.336127 0.718157 0.057684 -0.023121 -768214.000000 0 0 1
5.090087 -21.350393 24.999733 33.267626 -1.336758 0.720504 0.069484 -0.026672 417372.000000 0 0 1
4.214887 -20.258293 25.295073 32.680337 -1.365665 0.685638 0.078221 -0.043459 -5509.590000 0 0 1
4.336587 -19.294193 24.091283 31.168282 -1.349709 0.687331 0.088815 -0.045577 142118.000000 0 0 1
5.510787 -18.523993 23.951353 30.776199 -1.281640 0.678934 0.068469 -0.025163 -212456.000000 0 0 1
5.460287 -17.958293 22.683463 29.442393 -1.275625 0.691272 0.081550 -0.024209 -434777.000000 0 0 1
6.731187 -17.327793 22.161133 28.925371 -1.200276 0.697970 0.073484 -0.018668 174316.000000 0 0 1
7.685287 -18.291193 21.589733 29.321459 -1.173030 0.743193 0.081975 -0.017803 1604950.000000 0 0 1
8.875687 -17.629593 21.041733 28.850215 -1.104389 0.753434 0.079794 -0.017120 924404.000000 0 0 1
10.078787 -17.755493 21.960933 29.985364 -1.054508 0.748973 0.106047 -0.017590 -714408.000000 0 0 1
10.026087 -16.922593 23.074803 30.320671 -1.035934 0.705904 0.120334 -0.011054 -150726.000000 0 0 1
11.283587 -16.863893 23.702553 31.201302 -0.981113 0.707998 0.133069 -0.013985 -86512.900000 0 0 1
11.341887 -16.006393 25.016983 31.791390 -0.954332 0.665010 0.161213 -0.033806 -191231.000000 0 0 1
11.256287 -14.601293 24.772783 30.880293 -0.914046 0.639792 0.193716 -0.039433 115841.000000 0 0 1
11.231387 -13.819193 25.962863 31.483081 -0.888336 0.601194 0.185469 -0.040504 -260966.000000 0 0 1
11.301587 -12.277993 25.850863 30.769174 -0.826784 0.573228 0.183858 -0.045501 454118.000000 0 0 1
10.175987 -11.610493 25.286703 29.627210 -0.851147 0.548139 0.203079 -0.041330 472187.000000 0 0 1
10.516587 -10.231593 25.117393 29.088959 -0.771663 0.528691 0.187588 -0.043052 684217.000000 0 0 1
9.295887 -9.511593 24.442433 27.826542 -0.796867 0.498323 0.184182 -0.036015 907708.000000 0 0 1
8.173387 -9.311993 25.285853 28.158335 -0.850424 0.455620 0.162913 -0.044160 121028.000000 0 0 1
7.148487 -8.653293 24.569803 27.012137 -0.880342 0.428515 0.151013 -0.043089 76157.200000 0 0 1
5.691787 -8.923893 24.984593 27.134152 -1.003035 0.400720 0.113815 -0.040073 -1178650.000000 0 0 1
5.324287 -8.243893 26.168073 27.947770 -0.997347 0.358795 0.122226 -0.039851 -133442.000000 0 0 1
4.049987 -8.519493 26.717363 28.333754 -1.127039 0.339409 0.106581 -0.042642 866612.000000 0 0 1
2.800487 -8.488693 25.778083 27.283881 -1.252132 0.333782 0.083056 -0.041157 -648211.000000 0 0 1
2.569487 -7.242793 25.145763 26.293910 -1.229883 0.296606 0.095806 -0.040436 143473.000000 0 0 1
1.495487 -7.305093 24.198153 25.320969 -1.368868 0.298915 0.071907 -0.028791 632841.000000 0 0 1
1.507887 -5.953193 23.375223 24.168477 -1.322723 0.256916 0.057747 -0.028243 205233.000000 0 1 0
1.214087 -4.790493 24.137303 24.638024 -1.322586 0.201952 0.058951 -0.024369 -127474.000000 0 1 0
1.929587 -3.669993 23.654893 24.015539 -1.086743 0.173522 0.072065 -0.017396 -411330.000000 0 1 0
1.146387 -2.843093 22.549043 22.756465 -1.187519 0.135120 0.047184 -0.016731 989555.000000 0 1 0
0.115387 -2.012093 23.126753 23.214403 -1.513512 0.086926 0.044965 -0.014199 469561.000000 0 1 0
-1.097513 -2.698293 23.418693 23.599163 1.184490 0.123750 0.039604 -0.018246 -525256.000000 0 1 0
-2.042813 -1.623093 23.993593 24.135037 0.671402 0.108317 0.050859 -0.019780 -186664.000000 0 1 0
-1.635313 -1.064093 25.267183 25.342396 0.576865 0.077063 0.070238 -0.017301 -132939.000000 0 0 1
-2.331913 0.099907 25.464513 25.571257 -0.042817 0.091404 0.062693 -0.016848 -449080.000000 0 0 1
-1.904613 0.921907 26.715623 26.799290 -0.450797 0.079040 0.109704 -0.028254 -204098.000000 0 0 1
-2.119013 0.376907 28.025493 28.108015 -0.176028 0.076646 0.135524 -0.030648 197048.000000 0 0 1
-1.270413 -0.718093 28.322633 28.360203 0.514472 0.051479 0.133293 -0.030358 -196108.000000 0 0 1
0.156687 -0.518093 28.910593 28.915659 -1.277112 0.018720 0.150585 -0.026275 593781.000000 0 0 1
1.190287 -0.084093 28.020043 28.045439 -0.070533 0.042560 0.110579 -0.025067 299494.000000 0 0 1
1.584687 -0.955093 26.957053 27.020476 -0.542404 0.068530 0.092948 -0.025153 -489774.000000 0 0 1
2.703387 -1.954093 27.286043 27.489178 -0.625885 0.121645 0.114560 -0.030713 -448141.000000 0 0 1
2.274187 -2.972793 28.073443 28.321857 -0.917764 0.132544 0.131070 -0.036158 -511509.000000 0 0 1
3.272887 -3.905793 28.384113 28.837907 -0.873336 0.177637 0.161081 -0.041509 99395.800000 0 0 1
3.896287 -4.828993 27.248183 27.945727 -0.891891 0.223898 0.148945 -0.042835 440328.000000 0 0 1
4.985987 -4.207093 26.595023 27.383479 -0.700874 0.240551 0.142061 -0.037800 -168806.000000 0 0 1
5.613787 -5.079593 25.667503 26.760747 -0.735484 0.286823 0.137617 -0.041012 -269296.000000 0 0 1
6.790087 -4.427693 24.917123 26.202533 -0.577837 0.314526 0.140403 -0.044008 525934.000000 0 0 1
8.011687 -4.184493 25.676473 27.220918 -0.481327 0.338474 0.148943 -0.041276 1341690.000000 0 0 1
8.874187 -5.351693 25.799603 27.803081 -0.542669 0.381948 0.178919 -0.033598 -114370.000000 0 0 1
9.753987 -5.576893 24.592733 27.037835 -0.519392 0.428554 0.150112 -0.031935 -841123.000000 0 0 1
9.029087 -5.986893 23.436533 25.819341 -0.585507 0.432997 0.157345 -0.031702 -352071.000000 0 0 1
9.672887 -5.739993 22.237933 24.920632 -0.535560 0.468270 0.156178 -0.027982 -104933.000000 0 1 0
9.521987 -4.259393 21.733633 24.107290 -0.420625 0.447486 0.160132 -0.024932 -37642.400000 0 1 0
8.234987 -4.022593 21.241933 23.134735 -0.454386 0.407326 0.139324 -0.024171 -578934.000000 0 1 0
8.158487 -2.813493 20.448733 22.195209 -0.332084 0.399353 0.121613 -0.023146 809525.000000 0 1 0
6.723487 -2.178093 20.314733 21.509015 -0.313285 0.334802 0.117413 -0.011775 696651.000000 0 1 0
6.272687 -1.630093 21.537133 22.491151 -0.254248 0.292304 0.126282 -0.011918 681854.000000 0 1 0
5.049487 -0.922093 21.237733 21.849230 -0.180621 0.237144 0.055707 -0.007865 732382.000000 0 1 0
4.405287 -0.389093 22.567933 22.997163 -0.088096 0.193509 0.051396 -0.015364 -595823.000000 0 1 0
3.224187 0.301907 22.361793 22.595050 0.093366 0.143814 0.049972 -0.014880 -834471.000000 0 1 0
2.634787 0.570907 23.631113 23.784396 0.213382 0.113593 0.072831 -0.016302 134014.000000 0 1 0
1.185187 1.096907 23.567303 23.622566 0.746733 0.068416 0.069734 -0.021682 -55299.900000 0 1 0
1.086287 2.510907 23.247063 23.407490 1.162483 0.117145 0.065776 -0.013644 -532111.000000 0 1 0
-0.195013 2.800907 22.804763 22.976952 -1.501284 0.122502 0.030607 -0.022246 -604362.000000 0 1 0
-0.508913 4.250907 22.451353 22.855906 -1.451645 0.188428 0.034447 -0.015570 -35460.300000 0 1 0
-0.495013 5.232907 23.494873 24.075660 -1.476481 0.220096 0.051166 -0.015372 -153247.000000 0 1 0
-1.324613 6.313907 23.113733 23.997180 -1.364002 0.272187 0.051753 -0.017946 12513.000000 0 1 0
-1.197913 7.691907 23.864143 25.101747 -1.416301 0.315322 0.064977 -0.021145 63470.200000 0 0 1
-0.011313 8.378907 23.548903 24.995140 -1.569446 0.341841 0.047942 -0.017105 -110008.000000 0 1 0
-0.065613 9.649907 24.161743 26.017586 -1.563997 0.379987 0.079691 -0.024553 -67389.600000 0 0 1
0.730487 10.718907 23.268713 25.629310 1.502752 0.432562 0.082913 -0.029745 1024000.000000 0 0 1
2.151587 10.772907 23.269123 25.732021 1.373668 0.441091 0.066135 -0.031271 -10066.800000 0 0 1
2.718887 11.099907 24.502453 27.036465 1.330579 0.436412 0.099166 -0.033455 -1721360.000000 0 0 1
4.072087 11.744907 24.406913 27.390183 1.237055 0.471072 0.094032 -0.034330 140659.000000 0 0 1
5.224987 11.016907 23.897563 26.828459 1.127944 0.471794 0.084901 -0.026442 1120610.000000 0 0 1
5.091387 10.474907 22.568013 25.396084 1.118366 0.476422 0.074865 -0.031463 -1130900.000000 0 0 1
6.424387 9.905907 22.032433 24.996556 0.995447 0.491939 0.092084 -0.034048 -228081.000000 0 1 0
7.379387 10.863907 21.728133 25.388808 0.974128 0.543671 0.077558 -0.033224 -349834.000000 0 0 1
8.579387 10.268907 21.267633 25.127048 0.874797 0.561600 0.091597 -0.039817 339351.000000 0 0 1
9.510987 11.341907 20.650633 25.407604 0.872975 0.621899 0.071092 -0.030688 -346039.000000 0 0 1
8.890887 11.977907 19.520433 24.567568 0.932258 0.652512 0.071497 -0.035375 175493.000000 0 1 0
9.540887 13.098907 18.928433 24.917773 0.941281 0.708043 0.089041 -0.035929 721760.000000 0 1 0
10.950387 12.806907 18.273933 24.856879 0.863385 0.744885 0.090970 -0.037128 1184070.000000 0 1 0
12.038187 12.629907 19.192233 25.937893 0.809381 0.737830 0.103108 -0.036086 572995.000000 0 0 1
13.253687 12.567907 18.441833 25.955995 0.758846 0.780582 0.105330 -0.038694 536494.000000 0 0 1
14.504287 12.322907 19.323233 27.122236 0.704264 0.777813 0.133388 -0.029832 232678.000000 0 0 1
15.028987 13.515907 19.992733 28.429906 0.732441 0.790867 0.141020 -0.031059 6801.750000 0 0 1
16.146887 13.069907 20.727733 29.345925 0.680469 0.786505 0.141217 -0.029262 -17690.100000 0 0 1
17.004887 14.239907 21.294633 30.747398 0.697134 0.805755 0.129424 -0.023847 309905.000000 0 0 1
16.455787 15.042907 22.350223 31.569200 0.740573 0.784169 0.148722 -0.020559 -410381.000000 0 0 1
17.471287 15.841907 22.791863 32.797574 0.736526 0.802480 0.143777 -0.012956 -550153.000000 0 0 1
-22.456713 12.556778 -24.511132 35.535507 -0.509845 2.331960 0.089971 -0.003560 135265.000000 0 0 1
-22.020713 12.566578 -25.849782 36.208313 -0.518575 2.365875 0.096945 -0.010519 766817.000000 0 0 1
-22.985613 13.221578 -26.736232 37.656004 -0.521993 2.360312 0.067775 -0.008966 725608.000000 0 0 1
-22.527813 13.223878 -28.217652 38.452688 -0.530808 2.394736 0.086055 -0.010106 -262677.000000 0 0 1
-21.299713 13.868178 -28.378302 38.096354 -0.577146 2.411194 0.100252 -0.012223 -611543.000000 0 0 1
-21.043513 14.082778 -29.790632 39.097773 -0.589769 2.437118 0.100839 -0.023429 -372134.000000 0 0 1
-19.631113 14.654178 -29.972642 38.710268 -0.641243 2.456375 0.098093 -0.027717 -557136.000000 0 0 1
-18.723013 13.585378 -29.950152 37.843432 -0.627700 2.483929 0.095725 -0.030806 41981.600000 0 0 1
-17.384613 14.103378 -29.926952 37.373152 -0.681567 2.499360 0.095126 -0.021262 1452690.000000 0 0 1
-16.469213 13.831978 -28.656212 35.829277 -0.698583 2.497756 0.130458 -0.023757 519847.000000 0 0 1
-17.089813 14.287178 -27.483062 35.376601 -0.696313 2.460478 0.134061 -0.024634 103498.000000 0 0 1
-17.680513 13.148278 -26.771572 34.672682 -0.639431 2.452971 0.154092 -0.021209 727161.000000 0 0 1
-18.493713 13.489278 -25.500392 34.267303 -0.630185 2.410074 0.153392 -0.023256 311443.000000 0 0 1
-17.560813 13.889978 -24.550432 33.227058 -0.669207 2.402186 0.212680 -0.038728 597128.000000 0 0 1
-18.312813 14.390078 -23.436432 33.040881 -0.666018 2.359324 0.180423 -0.035721 230244.000000 0 0 1
-17.380813 14.838878 -22.341732 31.959943 -0.706667 2.344870 0.200317 -0.036018 -78414.300000 0 0 1
-16.712413 16.077078 -22.562432 32.354915 -0.766024 2.342478 0.163888 -0.034326 86926.500000 0 0 1
-15.939613 16.586678 -21.489232 31.479775 -0.805289 2.322160 0.157271 -0.034036 -276429.000000 0 0 1
-15.598113 18.068078 -21.640332 32.218947 -0.858633 2.307250 0.136691 -0.031242 605193.000000 0 0 1
-16.691113 19.016778 -21.737532 33.357929 -0.850437 2.280548 0.092739 -0.023559 910005.000000 0 0 1
-17.522813 18.977478 -22.903732 34.522089 -0.825231 2.296219 0.070757 -0.023331 146029.000000 0 0 1
-18.893713 19.648078 -22.699832 35.472549 -0.804968 2.265199 0.054906 -0.022879 -529.389000 0 0 1
-18.815813 21.089178 -22.696532 36.248046 -0.842306 2.247395 0.045423 -0.019315 -626925.000000 0 0 1
-20.131713 21.534378 -22.782132 37.256420 -0.819050 2.228746 0.056143 -0.035382 -741202.000000 0 0 1
-20.285113 22.965878 -23.349632 38.524313 -0.847301 2.221946 0.044020 -0.031233 58739.900000 0 0 1
-19.562813 23.870778 -22.518432 38.204679 -0.884260 2.201132 0.044616 -0.027714 33676.600000 0 0 1
-18.731713 24.786178 -23.208932 38.779972 -0.923637 2.212395 0.050824 -0.019029 -1168500.000000 0 0 1
-17.621713 25.299478 -22.322232 38.064030 -0.962407 2.197452 0.072150 -0.025821 -123474.000000 0 0 1
-16.522613 24.381078 -22.120332 36.833990 -0.975207 2.214974 0.091386 -0.035152 539656.000000 0 0 1
-16.807713 23.074578 -21.649432 35.827828 -0.941258 2.219637 0.088392 -0.023446 -1531320.000000 0 0 1
-15.538613 22.202678 -21.479732 34.580143 -0.960169 2.241016 0.132360 -0.020189 382671.000000 0 0 1
-14.785513 22.510378 -20.307232 33.729990 -0.989634 2.216866 0.162713 -0.035508 -102587.000000 0 0 1
-13.741013 21.569078 -20.166532 32.568844 -1.003564 2.238516 0.157973 -0.031695 266034.000000 0 0 1
-12.764613 21.891378 -18.959232 31.648385 -1.042904 2.213121 0.150960 -0.032258 333109.000000 0 0 1
-13.199613 21.764278 -17.627732 30.962082 -1.025625 2.176491 0.157191 -0.028423 -197351.000000 0 0 1
-14.147113 22.732878 -17.202932 31.825547 -1.014127 2.141873 0.160237 -0.032413 163063.000000 0 0 1
-14.533913 22.720178 -15.700532 31.208137 -1.001702 2.097968 0.165824 -0.035534 286840.000000 0 0 1
-13.521713 23.146078 -14.792832 30.617079 -1.042083 2.075052 0.161135 -0.043029 121054.000000 0 0 1
-13.971013 23.098778 -13.423732 30.148621 -1.026827 2.032252 0.167908 -0.033163 -313771.000000 0 0 1
-13.044413 23.774078 -12.448632 29.838431 -1.068965 2.001160 0.209664 -0.037677 -505363.000000 0 0 1
-12.997213 25.224878 -12.666032 31.074916 -1.095020 1.990617 0.185466 -0.051848 99539.800000 0 0 1
-12.327013 25.789478 -11.566532 30.835646 -1.124914 1.955304 0.149507 -0.044324 -369310.000000 0 0 1
-12.104113 27.317678 -11.744032 32.104320 -1.153706 1.945298 0.152825 -0.039760 245603.000000 0 0 1
-11.175913 27.619578 -12.787432 32.423148 -1.186299 1.976203 0.149969 -0.034054 124551.000000 0 0 1
-11.379513 28.925478 -13.299532 33.809084 -1.195986 1.975092 0.134753 -0.035447 -388427.000000 0 0 1
-10.548313 29.092278 -14.600132 34.216829 -1.222958 2.011631 0.159291 -0.053935 1885580.000000 0 0 1
-9.092713 29.104578 -14.511232 33.768769 -1.267989 2.014983 0.159639 -0.056732 1441540.000000 0 0 1
-8.576413 27.809278 -14.295832 32.423473 -1.271650 2.027409 0.158838 -0.049126 -934496.000000 0 0 1
-7.166013 27.515678 -14.827032 32.067198 -1.316022 2.051467 0.175971 -0.060410 -111234.000000 0 0 1
-6.135213 28.146978 -14.107732 32.076803 -1.356183 2.026185 0.159145 -0.054030 501000.000000 0 0 1
-4.898113 28.011578 -14.874532 32.091926 -1.397686 2.052735 0.146946 -0.052488 725930.000000 0 0 1
-3.728313 28.810678 -14.379732 32.414999 -1.442104 2.030423 0.140189 -0.045287 -611004.000000 0 0 1
-3.777213 30.274878 -14.528432 33.792172 -1.446674 2.015217 0.132132 -0.043362 1054020.000000 0 0 1
-4.866113 30.906978 -13.751832 34.176501 -1.414634 1.984908 0.135295 -0.045804 1321950.000000 0 0 1
-4.702613 32.443578 -13.844832 35.586229 -1.426851 1.970397 0.123175 -0.052907 458746.000000 0 0 1
-3.554713 32.935078 -13.160432 35.644808 -1.463282 1.948956 0.101863 -0.050458 221398.000000 0 0 1
-3.216213 -33.191993 -13.472032 35.965930 1.474201 1.954738 0.102695 -0.044373 241865.000000 0 0 1
-2.377313 -32.427693 -12.427632 34.808806 1.497616 1.935878 0.095550 -0.047721 -3217.510000 0 0 1
-3.095913 -32.220593 -11.208032 34.254508 1.475005 1.904134 0.089804 -0.044224 354611.000000 0 0 1
-2.213813 -31.677893 -10.242532 33.366141 1.501025 1.882808 0.074579 -0.039494 -261263.000000 0 0 1
-2.694813 -31.743593 -8.836132 33.060475 1.486106 1.841357 0.064365 -0.034375 -526089.000000 0 0 1
-1.935813 -30.880893 -8.037832 31.968480 1.508192 1.824954 0.094384 -0.039389 -153375.000000 0 0 1
-1.996613 -31.222493 -6.654432 31.986122 1.506935 1.780368 0.079737 -0.039031 422472.000000 0 0 1
-0.927113 -30.393993 -5.823232 30.960691 1.540303 1.760008 0.099016 -0.037107 737702.000000 0 0 1
-0.887813 -30.723493 -4.442832 31.055757 1.541907 1.714349 0.095295 -0.047881 -377323.000000 0 0 1
0.033487 -29.932393 -3.768532 30.168711 -1.569678 1.696039 0.093446 -0.042197 -537079.000000 0 0 1
0.033287 -30.115393 -2.230432 30.197895 -1.569691 1.644724 0.107328 -0.036810 -103373.000000 0 0 1
0.382087 -31.467593 -1.693732 31.515459 -1.558655 1.624565 0.109166 -0.038233 1030650.000000 0 0 1
1.639187 -32.019993 -2.135232 32.132945 -1.519648 1.637295 0.094855 -0.035424 1159070.000000 0 0 1
2.979587 -31.407293 -1.609432 31.589338 -1.476210 1.621767 0.092855 -0.031315 -735773.000000 0 0 1
3.294387 -31.952993 -0.318932 32.123955 -1.468058 1.580725 0.081589 -0.023752 -381972.000000 0 0 1
4.596887 -31.710393 0.120368 32.042080 -1.426834 1.567040 0.074401 -0.013492 -285539.000000 0 0 1
4.911687 -30.215893 0.436568 30.615608 -1.409653 1.556536 0.059695 -0.022902 -753278.000000 0 0 1
5.117387 -29.498193 -0.770932 29.948713 -1.399025 1.596541 0.076628 -0.026513 105601.000000 0 0 1
4.875287 -28.108493 -0.626132 28.535029 -1.399060 1.592741 0.075185 -0.027509 -526210.000000 0 0 1
4.349687 -27.333493 -1.900332 27.742583 -1.412986 1.639349 0.087080 -0.027024 212913.000000 0 0 1
3.087987 -27.782493 -2.381032 28.054802 -1.460102 1.655769 0.089779 -0.030742 647920.000000 0 0 1
2.413687 -26.931293 -3.327132 27.243169 -1.481411 1.693229 0.097729 -0.036475 251329.000000 0 0 1
3.010187 -26.904793 -4.759732 27.487892 -1.459377 1.744831 0.093867 -0.033079 -58361.000000 0 0 1
2.868987 -28.219793 -5.393132 28.873408 -1.469479 1.758685 0.091306 -0.037420 381621.000000 0 0 1
3.394687 -28.178993 -6.746832 29.173607 -1.450905 1.804174 0.103078 -0.048379 -33639.800000 0 0 1
2.514587 -28.936093 -7.756532 30.063008 -1.484113 1.831757 0.093773 -0.040383 -652699.000000 0 0 1
1.367387 -28.243493 -8.103332 29.414770 -1.522420 1.849891 0.093888 -0.036777 -1012720.000000 0 0 1
0.877887 -28.629993 -9.342132 30.128436 -1.540143 1.886070 0.097392 -0.031005 184261.000000 0 0 1
-0.585113 -28.176793 -9.546832 29.755942 1.550034 1.897410 0.075266 -0.027458 -461497.000000 0 0 1
-0.572113 -26.759193 -9.522732 28.408875 1.549420 1.912617 0.078510 -0.031213 639482.000000 0 0 1
-1.849513 -26.081693 -9.475532 27.811169 1.500003 1.918468 0.078602 -0.025211 1186380.000000 0 0 1
-2.840813 -26.394393 -8.311732 27.817605 1.463580 1.874225 0.077376 -0.026503 -262317.000000 0 0 1
-2.534713 -26.006093 -6.949232 27.037631 1.473637 1.830734 0.100568 -0.036629 -885563.000000 0 0 1
-1.570313 -26.795593 -6.368332 27.586688 1.512260 1.803745 0.102175 -0.036928 -393733.000000 0 0 1
-1.264413 -26.399093 -4.959632 26.890683 1.522937 1.756295 0.117143 -0.039019 -126281.000000 0 0 1
-2.365013 -26.605493 -4.112932 27.025206 1.482137 1.723579 0.131442 -0.043962 53533.100000 0 0 1
-2.001513 -26.389393 -2.791732 26.612026 1.495096 1.675895 0.142714 -0.047093 136505.000000 0 0 1
-3.229013 -26.662693 -1.879832 26.923215 1.450277 1.640675 0.147283 -0.045577 -147773.000000 0 0 1
-4.227313 -25.728993 -2.134132 26.161151 1.407950 1.652463 0.140637 -0.046217 -928868.000000 0 0 1
-5.367413 -26.077393 -1.401532 26.660905 1.367805 1.623389 0.168252 -0.046981 -78605.200000 0 0 1
-6.376013 -24.913393 -1.197032 25.744195 1.320247 1.617310 0.147911 -0.042704 -82066.000000 0 0 1
-5.834713 -23.807993 -0.535932 24.518394 1.330460 1.592656 0.129711 -0.038848 -575420.000000 0 1 0
-6.722813 -23.142693 0.292168 24.101158 1.288083 1.558673 0.135942 -0.038644 -298526.000000 0 1 0
-6.137013 -21.763993 0.735068 22.624647 1.295952 1.538301 0.101839 -0.036140 431233.000000 0 1 0
-5.067413 -21.840393 1.653068 22.481417 1.342810 1.497200 0.097284 -0.033314 -20776.400000 0 1 0
-4.303513 -20.653193 1.679268 21.163520 1.365365 1.491366 0.060341 -0.025663 584000.000000 0 1 0
-3.156413 -20.525493 2.735868 20.946212 1.418212 1.439808 0.061082 -0.015382 199918.000000 0 1 0
-3.653713 -20.464993 4.068368 21.182946 1.394123 1.377537 0.043653 -0.001794 104069.000000 0 1 0
-2.718413 -20.243293 5.113468 21.055362 1.437308 1.325485 0.054715 -0.006165 719293.000000 0 1 0
-1.670113 -21.402193 5.444868 22.147003 1.492919 1.322399 0.076330 -0.023056 1120640.000000 0 1 0
-0.736713 -21.632593 4.372268 22.082313 1.536754 1.371481 0.096952 -0.025501 -120994.000000 0 1 0
-0.165713 -22.869793 4.538768 23.316417 1.563551 1.374886 0.111846 -0.029457 -956207.000000 0 1 0
0.733387 -23.217493 3.308568 23.463514 -1.539219 1.429316 0.112674 -0.040029 656259.000000 0 1 0
1.894387 -22.394593 3.203968 22.701804 -1.486406 1.429191 0.076418 -0.034744 102000.000000 0 1 0
2.945287 -22.798893 4.020568 23.337293 -1.442322 1.397652 0.093381 -0.035955 -1109870.000000 0 1 0
4.122387 -21.841493 4.273768 22.634266 -1.384250 1.380837 0.095298 -0.031902 504284.000000 0 1 0
4.951787 -21.538393 3.136268 22.321711 -1.344818 1.429827 0.066499 -0.026356 -583767.000000 0 1 0
6.127787 -20.944193 3.544968 22.108275 -1.286164 1.409755 0.075062 -0.021700 -522227.000000 0 1 0
7.045187 -20.605293 2.367268 21.904719 -1.241345 1.462514 0.082606 -0.018387 -178767.000000 0 1 0
7.675987 -21.664993 1.718668 23.048786 -1.230293 1.496161 0.081587 -0.014588 -207949.000000 0 1 0
7.496887 -21.554193 0.330368 22.823140 -1.236069 1.556321 0.077418 -0.024550 -280919.000000 0 1 0
8.456687 -22.384593 -0.498632 23.933955 -1.209581 1.591632 0.076395 -0.014703 43418.200000 0 1 0
9.735387 -21.804093 -0.702332 23.889109 -1.150862 1.600200 0.070288 -0.006175 -219879.000000 0 1 0
10.445587 -22.573993 -1.626432 24.926708 -1.137410 1.636091 0.066374 -0.008004 1126740.000000 0 1 0
11.892087 -22.155493 -2.132332 25.235579 -1.078178 1.655394 0.060363 -0.000580 1321920.000000 0 0 1
11.881887 -20.987593 -2.950932 24.297455 -1.055647 1.692547 0.059406 -0.000851 -17628.700000 0 1 0
13.165887 -20.739793 -3.486832 24.812046 -1.005172 1.711793 0.061313 -0.006638 -133887.000000 0 1 0
13.185287 -19.516193 -4.462432 23.971794 -0.976629 1.758042 0.059050 -0.017112 -145970.000000 0 1 0
13.332587 -18.276493 -3.808132 22.941011 -0.940549 1.737565 0.082522 -0.018060 75305.600000 0 1 0
13.192687 -17.120993 -4.636132 22.105862 -0.914269 1.782089 0.070123 -0.027608 -781547.000000 0 1 0
13.595087 -15.848593 -3.857932 21.234122 -0.861785 1.753497 0.075958 -0.023807 1651680.000000 0 1 0
14.976787 -15.764093 -3.371832 22.004092 -0.811004 1.724639 0.075921 -0.022491 1709550.000000 0 1 0
15.901487 -15.542793 -4.431732 22.673244 -0.773991 1.767524 0.077978 -0.024792 1065200.000000 0 1 0
17.401187 -15.277093 -3.944032 23.489280 -0.720489 1.739503 0.092571 -0.021873 1527230.000000 0 1 0
18.106787 -16.283793 -3.276732 24.571419 -0.732439 1.704550 0.104077 -0.026933 -32912.200000 0 1 0
19.485087 -16.015793 -3.290732 25.436257 -0.687983 1.700532 0.081492 -0.011448 156328.000000 0 0 1
20.367587 -16.928193 -2.344032 26.587531 -0.693439 1.659074 0.092407 -0.027920 549425.000000 0 0 1
21.740587 -16.591093 -2.455732 27.458116 -0.651857 1.660352 0.103855 -0.023189 303379.000000 0 0 1
22.510287 -17.333293 -1.527232 28.451512 -0.656189 1.624501 0.099301 -0.017259 974190.000000 0 0 1
24.072487 -17.325593 -1.657532 29.705357 -0.623843 1.626624 0.111997 -0.018225 891315.000000 0 0 1
24.824087 -16.167393 -1.354232 29.655587 -0.577273 1.616478 0.122799 -0.017780 105163.000000 0 0 1
26.092987 -16.465693 -0.834732 30.865188 -0.562930 1.597844 0.167638 -0.014135 -187994.000000 0 0 1
26.775587 -15.219893 -0.168032 30.799439 -0.516878 1.576252 0.162772 -0.016280 -122764.000000 0 0 1
26.011587 -14.580393 0.802868 29.830104 -0.510895 1.543878 0.147721 -0.018233 -107591.000000 0 0 1
26.637387 -13.416093 1.226968 29.850417 -0.466569 1.529681 0.137686 -0.018973 -56025.300000 0 0 1
25.790587 -12.602793 2.229968 28.791623 -0.454533 1.493267 0.141688 -0.024964 -93918.600000 0 0 1
25.358187 -13.357593 3.378368 28.859597 -0.484823 1.453465 0.159266 -0.016278 1245100.000000 0 0 1
26.389487 -13.690993 4.354768 30.046836 -0.478578 1.425351 0.157529 -0.006525 687091.000000 0 0 1
25.722887 -14.449193 5.490968 30.009946 -0.511801 1.386788 0.140792 -0.004688 -123122.000000 0 0 1
25.302987 -15.753393 5.218768 30.259645 -0.556865 1.397463 0.167208 -0.022105 428064.000000 0 0 1
24.524187 -16.222593 6.325168 30.076835 -0.584413 1.358914 0.156268 -0.025673 -160548.000000 0 0 1
24.017787 -17.672993 6.332768 30.484303 -0.634370 1.361534 0.144115 -0.024021 305189.000000 0 0 1
25.084787 -18.619193 6.113768 31.832359 -0.638523 1.377534 0.134874 -0.022180 598400.000000 0 0 1
24.620387 -19.939893 6.042068 32.253207 -0.680745 1.382351 0.093791 -0.015781 -51834.100000 0 0 1
2.079087 24.174778 -2.726432 24.416714 1.485005 1.682692 0.038319 -0.019473 -319779.000000 0 1 0
3.269387 24.866478 -2.515532 25.206319 1.440068 1.670760 0.050937 -0.029925 -208090.000000 0 0 1
4.015887 24.873778 -3.773432 25.476871 1.410727 1.719455 0.071750 -0.036253 1171910.000000 0 0 1
5.374987 25.673678 -3.716332 26.492251 1.364419 1.711541 0.064512 -0.028446 640701.000000 0 0 1
6.404987 25.098678 -2.973332 26.073132 1.320937 1.685083 0.041015 -0.038516 -361411.000000 0 0 1
6.817487 25.861378 -1.844232 26.808398 1.313044 1.639644 0.044758 -0.029545 -127362.000000 0 0 1
7.884587 25.110378 -1.030832 26.339332 1.266548 1.609943 0.030283 -0.033698 516697.000000 0 0 1
9.140687 25.118578 -1.714432 26.784966 1.221791 1.634847 0.038090 -0.038857 383003.000000 0 0 1
10.077987 24.187678 -1.192432 26.230354 1.176013 1.616272 0.042580 -0.036534 26367.000000 0 0 1
11.269387 23.926278 -2.094232 26.530203 1.130613 1.649816 0.077519 -0.037608 -1285770.000000 0 0 1
12.217987 24.966778 -2.212132 27.883915 1.115689 1.650213 0.082151 -0.034574 -193604.000000 0 0 1
13.138787 24.808778 -3.264832 28.262383 1.083748 1.686573 0.107657 -0.038644 674779.000000 0 0 1
13.996887 23.468978 -3.406732 27.537458 1.033028 1.694827 0.113354 -0.040472 -830838.000000 0 0 1
13.322687 22.296178 -3.701832 26.235798 1.032193 1.712367 0.127175 -0.038115 -560278.000000 0 0 1
12.868987 22.118378 -5.040132 26.081342 1.043849 1.765266 0.161682 -0.046626 -38112.700000 0 0 1
11.867687 20.975278 -5.301932 24.676198 1.055908 1.787345 0.165857 -0.039317 -519694.000000 0 1 0
10.586887 21.322978 -4.896032 24.304788 1.109952 1.773627 0.120313 -0.035677 -856200.000000 0 1 0
9.688687 20.244878 -5.115132 23.019347 1.124435 1.794877 0.095232 -0.023394 295531.000000 0 1 0
8.201087 20.635978 -4.978032 22.757026 1.192519 1.791327 0.075338 -0.014417 114167.000000 0 1 0
7.750687 20.979478 -3.687432 22.667351 1.216908 1.734198 0.064043 -0.022987 46496.200000 0 1 0
6.388087 21.352178 -3.661532 22.586057 1.280094 1.733630 0.049886 -0.017703 251622.000000 0 1 0
5.913987 22.013978 -2.346732 22.915009 1.308346 1.673386 0.033842 -0.025425 67775.100000 0 1 0
5.618087 21.150978 -1.277532 21.921653 1.311173 1.629107 0.026387 -0.034067 -48313.500000 0 1 0
5.113987 21.880578 -0.154332 22.470789 1.341195 1.577665 0.039232 -0.029300 240568.000000 0 1 0
4.562787 20.964578 0.958668 21.476769 1.356496 1.526144 0.027333 -0.037184 123231.000000 0 1 0
3.878887 21.670778 2.001668 22.105996 1.393680 1.480124 0.041847 -0.035615 175121.000000 0 1 0
3.675487 20.854078 3.165468 21.410791 1.396340 1.422408 0.053807 -0.028834 -215771.000000 0 1 0
2.534087 21.411178 4.002268 21.928937 1.452991 1.387257 0.042503 -0.028646 -258533.000000 0 1 0
1.243587 21.477178 3.433468 21.785417 1.512958 1.412533 0.026595 -0.025885 -474584.000000 0 1 0
0.399987 22.058878 4.384468 22.493947 1.552666 1.374623 0.032715 -0.025907 -600645.000000 0 1 0
-1.042513 22.107078 3.907468 22.473941 -1.523674 1.396042 0.030163 -0.023903 -357757.000000 0 1 0
-2.057413 22.238378 4.887668 22.861927 -1.478543 1.355343 0.045529 -0.028590 -576713.000000 0 1 0
-3.265913 22.439678 4.221268 23.065655 -1.426269 1.386748 0.062251 -0.026884 -730604.000000 0 1 0
-4.544313 22.561978 5.025068 23.557269 -1.372041 1.355832 0.067515 -0.038350 -520980.000000 0 1 0
-4.700413 23.728978 5.773268 24.869437 -1.375240 1.336516 0.106023 -0.027264 899682.000000 0 1 0
-6.074613 23.998878 6.151268 25.508531 -1.322883 1.327250 0.116446 -0.026385 1348680.000000 0 0 1
-6.348713 25.478978 6.587568 27.071766 -1.326595 1.324991 0.142649 -0.034553 -43906.200000 0 0 1
-5.986913 25.722378 7.936468 27.576645 -1.342117 1.278871 0.112687 -0.038640 -306057.000000 0 0 1
-6.547513 26.815878 8.557268 28.899620 -1.331316 1.270186 0.157988 -0.025467 -131293.000000 0 0 1
-6.401813 28.187178 7.791868 29.936824 -1.347467 1.307487 0.182298 -0.024975 -162766.000000 0 0 1
-7.485513 28.278978 6.934868 30.063697 -1.312029 1.338028 0.170592 -0.044158 -680573.000000 0 0 1
-7.399513 29.482178 6.176868 31.017822 -1.324893 1.370317 0.185271 -0.050797 1227180.000000 0 0 1
-8.738813 29.727278 5.304668 31.435925 -1.284884 1.401240 0.171614 -0.059326 2108240.000000 0 0 1
-9.844013 30.263478 6.031468 32.390759 -1.256314 1.383494 0.164358 -0.049121 170030.000000 0 0 1
-10.664713 29.281078 6.623568 31.858896 -1.221511 1.361365 0.146039 -0.040472 78474.200000 0 0 1
-11.881413 29.826078 7.433168 32.954740 -1.191708 1.343282 0.113351 -0.039273 -2449.830000 0 0 1
-11.491013 30.558478 8.588868 33.758445 -1.211120 1.313547 0.118944 -0.028127 1225150.000000 0 0 1
-12.663113 30.946878 9.378768 34.727870 -1.182394 1.297336 0.140684 -0.013728 1203020.000000 0 0 1
-12.242813 31.428178 10.766268 35.405216 -1.199332 1.261816 0.111951 -0.023450 -97863.800000 0 0 1
-11.649113 32.702978 10.721468 36.333682 -1.228600 1.271253 0.102658 -0.022216 344423.000000 0 0 1
-10.881013 32.898478 11.913468 36.642011 -1.251377 1.239646 0.096091 -0.031521 456101.000000 0 0 1
-10.408313 -33.057193 12.014768 36.680590 1.265765 1.237086 0.096143 -0.024852 452273.000000 0 0 1
-11.410113 -32.426093 12.799568 36.680664 1.232447 1.214350 0.092226 -0.016650 440892.000000 0 0 1
-11.128513 -31.060493 12.964568 35.449655 1.226760 1.196392 0.080058 -0.016100 268241.000000 0 0 1
-12.052313 -30.243493 13.952468 35.420312 1.191576 1.165913 0.080055 -0.014376 135301.000000 0 0 1
-11.906913 -30.463793 15.345368 36.128902 1.198199 1.132122 0.074192 -0.016186 289902.000000 0 0 1
-10.902113 -29.708793 16.040168 35.478944 1.219088 1.101674 0.096250 -0.015395 251755.000000 0 0 1
-10.920213 -29.887793 17.573568 36.350537 1.220492 1.066208 0.092542 -0.025994 272298.000000 0 0 1
-11.778413 -29.027293 18.330868 36.295116 1.185325 1.041356 0.106454 -0.040131 404816.000000 0 0 1
-12.349213 -29.626693 19.475768 37.543968 1.175868 1.025413 0.099485 -0.050235 133445.000000 0 0 1
-12.517313 -28.613893 20.644268 37.438267 1.158423 0.986729 0.126297 -0.065280 708920.000000 0 0 1
-11.258513 -28.343093 21.283668 37.189778 1.192687 0.961490 0.127349 -0.063158 776737.000000 0 0 1
-11.356113 -27.493593 22.381768 37.226368 1.179094 0.925752 0.140306 -0.064638 -367144.000000 0 0 1
-10.040813 -27.467993 23.151968 37.300431 1.220340 0.901175 0.166644 -0.073627 -315737.000000 0 0 1
-9.762413 -28.637693 23.951468 38.588794 1.242257 0.901181 0.147719 -0.059994 243797.000000 0 0 1
-8.449413 -28.530593 24.485068 38.534476 1.282873 0.882261 0.171016 -0.056560 379466.000000 0 0 1
-8.179413 -29.661693 25.492268 39.957159 1.301727 0.878911 0.166282 -0.053421 -126313.000000 0 0 1
-8.171913 -30.965193 25.037868 40.651177 1.312773 0.907243 0.152936 -0.029801 299752.000000 0 0 1
-7.818713 -31.895293 26.063868 41.925734 1.330400 0.899927 0.148379 -0.026208 -203713.000000 0 0 1
-8.094613 -33.426793 25.720068 42.946422 1.333211 0.928685 0.126088 -0.019719 -532893.000000 0 0 1
-7.134713 33.546678 24.828468 42.340720 -1.361239 0.944193 0.139816 -0.019206 32498.300000 0 0 1
-7.380313 32.231778 24.377968 41.080918 -1.345700 0.935503 0.113607 -0.016938 45543.100000 0 0 1
-8.544613 32.111278 23.363068 40.619915 -1.310729 0.957993 0.100134 -0.011800 79277.200000 0 0 1
-9.011013 30.808078 23.249068 39.634015 -1.286245 0.943950 0.104644 -0.017638 183018.000000 0 0 1
-9.931113 30.557778 22.198368 39.053455 -1.256569 0.966225 0.092456 -0.022070 54390.100000 0 0 1
-10.623313 29.165378 22.313668 38.227919 -1.221489 0.947517 0.098027 -0.029938 400625.000000 0 0 1
-9.698813 28.105478 22.133068 37.065584 -1.238506 0.930875 0.086617 -0.022970 705999.000000 0 0 1
-10.407213 26.918878 22.471368 36.577294 -1.201883 0.909231 0.081783 -0.025702 244355.000000 0 0 1
-9.531113 25.651878 22.229468 35.256350 -1.215048 0.888587 0.079122 -0.026627 603390.000000 0 0 1
-8.385913 25.635678 23.094668 35.508804 -1.254649 0.862695 0.068367 -0.038705 194681.000000 0 0 1
-7.806713 24.371878 23.026268 34.425894 -1.260806 0.838116 0.068982 -0.036223 -193610.000000 0 0 1
-6.421613 24.314178 23.696668 34.553559 -1.312583 0.815100 0.066202 -0.035495 -3432.420000 0 0 1
-5.385613 24.873978 22.921768 34.250942 -1.357572 0.837624 0.076398 -0.029392 -160247.000000 0 0 1
-4.137313 24.747578 23.581068 34.432931 -1.405148 0.816411 0.099193 -0.031782 154021.000000 0 0 1
-3.029513 25.567878 22.897968 34.455932 -1.452857 0.843894 0.112806 -0.016318 -168431.000000 0 0 1
-2.573113 24.862078 21.747568 33.131564 -1.467668 0.854759 0.097594 -0.021567 439635.000000 0 0 1
-1.586713 25.542978 20.941968 33.068526 -1.508757 0.884999 0.107431 -0.009336 760969.000000 0 0 1
-1.061913 24.660778 19.734368 31.602641 -1.527762 0.896365 0.089745 -0.017034 3461.520000 0 0 1
-0.228813 23.633078 20.236668 31.114264 -1.561115 0.862688 0.091508 -0.030163 -77871.500000 0 0 1
0.148687 22.704478 19.218868 29.746938 1.564248 0.868360 0.087870 -0.028863 -906686.000000 0 0 1
1.221287 21.698078 19.486468 29.189391 1.514570 0.839833 0.080812 -0.022780 -443867.000000 0 0 1
2.506487 22.331878 19.436168 29.711275 1.459026 0.857714 0.075997 -0.029115 201257.000000 0 0 1
3.490187 21.284578 19.398968 29.009216 1.408265 0.838314 0.078331 -0.027342 442499.000000 0 0 1
4.887887 21.882478 19.072868 29.436517 1.351034 0.865930 0.064564 -0.024200 -410319.000000 0 0 1
5.806087 20.886578 18.804068 28.697609 1.299660 0.856285 0.073775 -0.019674 -808812.000000 0 0 1
7.078387 21.503378 18.756568 29.399110 1.252792 0.878901 0.105097 -0.026760 -240247.000000 0 0 1
8.181687 20.509578 18.372268 28.724954 1.191221 0.876828 0.104288 -0.014021 -260427.000000 0 0 1
8.542687 19.538678 19.397168 28.826855 1.158622 0.832694 0.113582 -0.018469 -248444.000000 0 0 1
9.594887 18.692278 19.050968 28.361990 1.096559 0.834285 0.109449 -0.018859 -140984.000000 0 0 1
10.188887 17.891678 20.216068 28.855068 1.053123 0.794548 0.138992 -0.013972 135149.000000 0 0 1
9.309387 16.869478 20.677868 28.263372 1.066535 0.750110 0.115586 -0.016344 679403.000000 0 0 1
9.969487 16.188278 21.787468 28.916168 1.018807 0.717472 0.110555 -0.021888 551437.000000 0 0 1
9.072287 15.062578 22.332268 28.423895 1.028683 0.666991 0.093486 -0.018489 337589.000000 0 0 1
8.018187 15.475378 23.195868 29.014254 1.092754 0.644393 0.101851 -0.007801 -96956.800000 0 0 1
7.090487 14.518178 23.580868 28.585133 1.116482 0.600710 0.103663 -0.013743 -247298.000000 0 0 1
7.546787 13.424378 24.557168 28.986590 1.058657 0.560121 0.115774 -0.021654 -624283.000000 0 0 1
7.995387 14.010278 25.736268 30.373830 1.052215 0.559883 0.136675 -0.032253 -288575.000000 0 0 1
8.336287 13.070478 26.687768 30.863701 1.003049 0.526248 0.155300 -0.038532 -677134.000000 0 0 1
9.164487 13.839278 27.766068 32.349157 0.985887 0.538801 0.126195 -0.034285 -424443.000000 0 0 1
10.506387 14.090178 27.498668 32.635778 0.930083 0.568717 0.152747 -0.029020 -436988.000000 0 0 1
10.763187 15.017278 26.499668 32.304755 0.948937 0.608857 0.136701 -0.021203 -704647.000000 0 0 1
12.047787 14.796678 25.654568 31.972608 0.887443 0.639504 0.152251 -0.024981 190271.000000 0 0 1
11.904987 13.767278 24.691668 30.674828 0.857812 0.635207 0.145830 -0.031642 -1341880.000000 0 0 1
13.013587 13.572678 23.956468 30.454612 0.806424 0.665467 0.171678 -0.028277 -1510940.000000 0 0 1
12.809187 12.458678 22.855068 29.011171 0.771527 0.663564 0.131533 -0.029736 -67771.300000 0 0 1
12.713887 11.131978 23.416668 28.877399 0.719156 0.625109 0.124362 -0.025076 344717.000000 0 0 1
11.522987 10.740478 24.086468 28.780115 0.750265 0.579177 0.134359 -0.032229 -22929.200000 0 0 1
11.640887 9.277378 24.546768 28.707556 0.672888 0.545124 0.114280 -0.028858 -124541.000000 0 0 1
11.561187 8.344078 23.471668 27.462772 0.625163 0.545877 0.137040 -0.024719 235721.000000 0 0 1
11.528487 7.045978 24.007368 27.548240 0.548599 0.512612 0.154538 -0.028308 -53009.700000 0 0 1
11.656987 5.835078 23.030168 26.463599 0.464099 0.515070 0.179026 -0.051690 -773617.000000 0 0 1
12.879587 5.747478 22.385668 26.458182 0.419729 0.562213 0.196079 -0.052954 -417548.000000 0 0 1
13.083287 4.501178 21.676668 25.715966 0.331356 0.568097 0.225242 -0.057826 -158218.000000 0 0 1
12.979687 3.127278 22.444368 26.115164 0.236430 0.536627 0.214662 -0.061049 -661625.000000 0 0 1
14.136987 2.985878 23.192368 27.325003 0.208151 0.557161 0.204884 -0.053569 -337831.000000 0 0 1
14.028787 1.897378 24.108668 27.957732 0.134433 0.530952 0.207330 -0.043184 -321422.000000 0 0 1
15.368187 1.660278 24.822768 29.242221 0.107616 0.556957 0.160204 -0.021524 303983.000000 0 0 1
16.329487 1.079078 23.912068 28.975913 0.065986 0.600170 0.167473 -0.032126 1116020.000000 0 0 1
17.645587 1.639878 24.128468 29.937249 0.092668 0.633487 0.142414 -0.023477 560756.000000 0 0 1
18.651187 0.901278 23.232968 29.806876 0.048285 0.677009 0.123157 -0.025182 -381300.000000 0 0 1
18.749587 -0.400722 23.653468 30.185992 -0.021369 0.670372 0.101927 -0.017971 -53511.300000 0 0 1
19.532687 -1.115422 22.711468 29.976337 -0.057043 0.711097 0.091437 -0.001058 90266.200000 0 0 1
19.709887 -2.586622 23.081968 30.462230 -0.130489 0.710978 0.066286 0.002916 129369.000000 0 0 1
18.605487 -3.451422 22.848068 29.666659 -0.183421 0.691705 0.064109 0.009111 -37065.900000 0 0 1
18.870787 -4.819922 23.023468 30.156563 -0.250071 0.702136 0.079032 0.002295 -269718.000000 0 0 1
17.656887 -5.686522 22.682368 29.301740 -0.311568 0.685510 0.092154 -0.008616 -128621.000000 0 0 1
17.429487 -5.747122 21.268868 28.092368 -0.318509 0.711926 0.092305 -0.006064 -43008.900000 0 0 1
16.580387 -6.833022 20.894568 27.535112 -0.390906 0.709276 0.106916 -0.018764 303631.000000 0 0 1
17.212987 -8.317922 20.838268 28.279111 -0.450146 0.742355 0.119021 -0.028840 322988.000000 0 0 1
17.127487 -8.876722 22.081568 29.321368 -0.478159 0.718053 0.100067 -0.025362 -34717.300000 0 0 1
18.011987 -9.965022 22.096368 30.199053 -0.505330 0.749997 0.089062 -0.034251 -148953.000000 0 0 1
17.810487 -11.022022 23.206868 31.261112 -0.554165 0.734217 0.115291 -0.042455 326983.000000 0 0 1
16.563187 -11.705622 23.059468 30.709930 -0.615225 0.721403 0.143202 -0.049367 379328.000000 0 0 1
16.224987 -12.433722 24.261368 31.724779 -0.653872 0.700151 0.163869 -0.041507 -69726.600000 0 0 1
15.049987 -13.377122 23.962468 31.299351 -0.726618 0.698839 0.192699 -0.048430 -249392.000000 0 0 1
15.329987 -14.508322 23.141568 31.321431 -0.757868 0.739447 0.198245 -0.062531 928489.000000 0 0 1
14.178887 -14.893122 22.361468 30.378959 -0.809961 0.743530 0.209526 -0.058194 586297.000000 0 0 1
14.642587 -15.871922 21.293268 30.326993 -0.825663 0.792422 0.190081 -0.063309 -7477.740000 0 0 1
15.180087 -17.089122 21.789868 31.579605 -0.844489 0.809310 0.216087 -0.060148 199474.000000 0 0 1
15.669987 -17.888922 20.760168 31.568126 -0.851423 0.853127 0.177340 -0.042610 -234554.000000 0 0 1
-25.390023 -32.041093 25.154693 48.000453 0.900694 1.019196 0.095376 -0.036789 -436042.000000 0 0 1
-26.041153 -33.289293 24.934263 49.071745 0.906961 1.037797 0.103059 -0.026522 849547.000000 0 0 1
-27.208913 -33.471993 25.773053 50.248876 0.888247 1.032227 0.091091 -0.039736 763778.000000 0 0 1
-26.948573 -33.700293 27.280673 51.050666 0.896266 1.007017 0.091255 -0.034961 -1269930.000000 0 0 1
-28.080813 -33.443793 27.992853 51.871179 0.872346 1.000762 0.117818 -0.036691 -718153.000000 0 0 1
-27.804103 -33.405693 29.357413 52.448700 0.876659 0.976729 0.107664 -0.033759 560760.000000 0 0 1
-29.041533 -32.850693 30.152993 53.214487 0.846866 0.968385 0.088059 -0.039919 555190.000000 0 0 1
-29.315593 -31.507193 29.886513 52.395714 0.821415 0.963804 0.066447 -0.032972 271723.000000 0 0 1
-30.241793 -30.967293 30.826013 53.139273 0.797250 0.951947 0.053907 -0.010869 14470.800000 0 0 1
-30.549903 -29.484493 30.679133 52.381687 0.767653 0.945072 0.041244 -0.024370 -261081.000000 0 0 1
-31.123933 -29.202293 29.447133 51.851777 0.753555 0.966832 0.033572 -0.004081 89450.100000 0 0 1
-31.270993 -27.789393 29.294383 51.071384 0.726516 0.959906 0.036951 -0.007491 83454.300000 0 0 1
-31.991463 -27.348193 27.943833 50.519651 0.707308 0.984682 0.028292 -0.015140 -3208.810000 0 0 1
-31.191193 -27.182093 26.785403 49.287062 0.716825 0.996246 0.046653 -0.009959 -43667.500000 0 0 1
-30.391903 -26.017793 26.819843 48.165312 0.708011 0.980233 0.044563 -0.012324 -29626.800000 0 0 1
-29.336193 -26.042893 25.682563 46.887509 0.726000 0.991126 0.028219 0.004478 52765.800000 0 0 1
-29.915363 -26.172193 24.386063 46.632528 0.718759 1.020499 0.026232 -0.003745 820922.000000 0 0 1
-28.875063 -26.214893 23.396663 45.479597 0.737148 1.030438 0.035464 0.012029 382578.000000 0 0 1
-29.446753 -26.382193 21.979533 45.235288 0.730561 1.063411 0.030911 0.011365 204632.000000 0 0 1
-30.195833 -25.267193 21.458733 44.840792 0.696767 1.071789 0.036965 -0.001929 475566.000000 0 0 1
-30.510183 -25.340993 20.067233 44.449196 0.693108 1.102390 0.043496 0.003636 -13122.200000 0 0 1
-31.222383 -24.122093 19.487333 44.005326 0.657803 1.112032 0.054596 -0.007434 115351.000000 0 0 1
-32.598813 -23.932193 19.720333 44.992488 0.633275 1.117087 0.094460 -0.009372 204103.000000 0 0 1
-33.193593 -22.810993 19.065833 44.560768 0.602091 1.128671 0.102281 -0.007125 -112095.000000 0 0 1
-34.693357 -22.572893 19.219933 45.635188 0.576825 1.136067 0.109820 0.000284 -257141.000000 0 0 1
-35.574514 -23.497493 18.615833 46.521258 0.583732 1.159108 0.097177 -0.015956 -443476.000000 0 0 1
-36.854043 -22.974493 18.492133 47.201767 0.557442 1.168244 0.096116 -0.019308 -528357.000000 0 0 1
-37.748693 -23.826393 17.565733 47.970989 0.563034 1.195902 0.106440 -0.016764 -74465.600000 0 0 1
37.757861 -24.907793 18.167433 48.745357 -0.583144 1.188879 0.090697 -0.015640 145164.000000 0 0 1
37.027161 -25.670893 17.202233 48.227816 -0.606214 1.206077 0.095888 -0.014630 294634.000000 0 0 1
36.530431 -27.050793 17.702733 48.781190 -0.637394 1.199417 0.091433 0.001254 231536.000000 0 0 1
35.465651 -27.181293 18.635433 48.413990 -0.653922 1.175677 0.081280 -0.006426 223781.000000 0 0 1
35.811621 -26.639693 19.865433 48.854691 -0.639575 1.152042 0.094395 -0.002820 -770085.000000 0 0 1
34.660271 -26.511493 20.857033 48.365374 -0.652966 1.124931 0.080639 -0.001010 -415121.000000 0 0 1
33.691681 -25.664593 20.278833 46.957766 -0.650978 1.124251 0.080976 -0.008534 -305139.000000 0 0 1
32.605751 -25.445593 21.152333 46.454649 -0.662676 1.098050 0.095920 -0.011461 -60039.500000 0 0 1
31.572191 -24.400793 20.676533 44.941305 -0.657970 1.092713 0.103538 -0.004784 -115545.000000 0 0 1
32.000171 -23.044893 20.404333 44.400617 -0.624121 1.093307 0.091469 0.000082 202068.000000 0 0 1
32.651821 -22.419693 21.557933 45.094662 -0.601696 1.072352 0.113074 -0.006267 364270.000000 0 0 1
33.485551 -21.161093 21.294033 44.972323 -0.563579 1.077545 0.117051 -0.012348 -149512.000000 0 0 1
32.714241 -20.040693 20.957733 43.715872 -0.549632 1.070816 0.107469 -0.016635 -236628.000000 0 0 1
33.502251 -18.978493 20.527533 43.634431 -0.515411 1.081003 0.110567 -0.010641 -332753.000000 0 0 1
32.630921 -17.671993 20.501533 42.395627 -0.496350 1.066060 0.096782 -0.002353 409475.000000 0 0 1
32.253311 -17.158193 21.745133 42.515061 -0.488905 1.033903 0.116377 -0.022174 565946.000000 0 0 1
31.220401 -17.876193 22.451973 42.407108 -0.520014 1.012857 0.111480 -0.026664 3359.890000 0 0 1
31.200901 -17.513193 23.932173 43.045987 -0.511481 0.981270 0.099188 -0.020063 -191921.000000 0 0 1
30.680101 -16.244893 24.107923 42.265318 -0.486963 0.963810 0.106734 -0.028094 -81023.400000 0 0 1
30.476801 -16.106593 25.525033 42.892715 -0.486177 0.933419 0.107012 -0.026604 -46689.600000 0 0 1
30.031201 -14.723193 26.088673 42.417735 -0.455828 0.908358 0.085345 -0.031130 -120601.000000 0 0 1
28.800401 -14.252893 25.585213 41.075676 -0.459547 0.898378 0.108289 -0.032236 -69231.900000 0 0 1
28.516501 -12.933793 26.057353 40.736463 -0.425806 0.876745 0.096826 -0.032751 3181.240000 0 0 1
29.386601 -11.873993 25.346883 40.583599 -0.384003 0.896229 0.122335 -0.036137 84317.800000 0 0 1
28.969301 -11.573893 23.992543 39.355019 -0.380095 0.915185 0.127978 -0.042050 -300642.000000 0 0 1
29.948401 -10.835693 23.353573 39.493142 -0.347159 0.938086 0.142756 -0.043252 281791.000000 0 0 1
31.009901 -11.686893 22.545193 40.080957 -0.360415 0.973400 0.139846 -0.046499 319212.000000 0 0 1
30.456001 -12.398693 21.438833 39.254543 -0.386614 0.993036 0.131070 -0.040340 129972.000000 0 0 1
30.392801 -13.787093 21.675133 39.794694 -0.425869 0.994796 0.129046 -0.035478 -85667.700000 0 0 1
29.645901 -14.541493 20.531633 38.882932 -0.456024 1.014509 0.111821 -0.025833 -629864.000000 0 0 1
30.280401 -14.542193 19.280133 38.731145 -0.447724 1.049743 0.104032 -0.024541 -216491.000000 0 0 1
29.814301 -15.598793 18.479033 38.388664 -0.482034 1.068583 0.112943 -0.027151 -136665.000000 0 0 1
30.399701 -15.626293 17.033533 38.189843 -0.474807 1.108480 0.125021 -0.027901 -3148.350000 0 0 1
29.882101 -16.676993 16.174633 37.850770 -0.509035 1.129263 0.116236 -0.033604 592449.000000 0 0 1
28.538901 -16.402993 15.760033 36.495283 -0.521653 1.124267 0.105651 -0.035814 -28664.900000 0 0 1
28.409501 -15.419493 14.559733 35.452028 -0.497266 1.147588 0.138708 -0.036725 -443297.000000 0 0 1
28.347701 -15.989293 13.283233 35.152438 -0.513560 1.183296 0.135774 -0.038309 192738.000000 0 0 1
27.161501 -16.729293 13.008733 34.450595 -0.552043 1.183587 0.134109 -0.045510 17817.600000 0 0 1
27.084101 -17.283693 11.588833 34.155169 -0.567999 1.224624 0.141430 -0.038143 -639132.000000 0 0 1
26.876401 -16.344793 10.628733 33.203360 -0.546388 1.244951 0.156976 -0.034362 -484.386000 0 0 1
27.107701 -16.769393 9.264633 33.194479 -0.553999 1.287938 0.131269 -0.044688 62132.000000 0 0 1
28.591801 -17.008093 8.927633 34.445158 -0.536631 1.308619 0.128404 -0.033614 -198751.000000 0 0 1
29.161201 -18.130693 9.537833 35.638012 -0.556252 1.299863 0.122097 -0.031779 -251781.000000 0 0 1
30.566801 -18.203293 9.429633 36.804988 -0.537123 1.311702 0.132933 -0.015585 129255.000000 0 0 1
31.302581 -19.195193 10.354133 38.151213 -0.550079 1.295952 0.127179 -0.035679 19653.900000 0 0 1
31.257601 -18.716893 11.679833 38.259354 -0.539533 1.260563 0.114487 -0.042475 58686.300000 0 0 1
31.588131 -19.685893 12.648733 39.310747 -0.557308 1.243206 0.090456 -0.033554 -94821.200000 0 0 1
31.437981 -19.173193 14.157133 39.451012 -0.547648 1.203757 0.105519 -0.020545 64583.700000 0 0 1
31.413441 -20.194693 15.078833 40.274075 -0.571345 1.187041 0.108612 -0.022683 55578.600000 0 0 1
31.276331 -19.621193 16.348333 40.379055 -0.560287 1.153958 0.119367 -0.032080 69542.800000 0 0 1
31.013301 -20.779993 17.389133 41.182701 -0.590331 1.134877 0.112660 -0.024113 -96245.900000 0 0 1
29.726601 -21.319493 17.258233 40.447969 -0.622167 1.129981 0.050323 -0.008806 -327882.000000 0 0 1
29.398301 -22.309693 18.207433 41.152073 -0.649158 1.112476 0.076703 -0.016177 -223225.000000 0 0 1
28.031601 -22.977093 18.034133 40.483915 -0.686630 1.109104 0.064237 -0.003871 -575204.000000 0 0 1
26.996401 -22.232793 18.612933 39.617471 -0.688935 1.081714 0.069779 0.000373 -175885.000000 0 0 1
25.783401 -22.904893 18.245433 39.016839 -0.726346 1.084189 0.081922 -0.013102 719849.000000 0 0 1
24.512101 -22.213593 18.856533 38.076970 -0.736246 1.052707 0.057151 -0.006173 168860.000000 0 0 1
24.229301 -20.941593 18.377733 36.923575 -0.712743 1.049824 0.053524 -0.009804 -321746.000000 0 0 1
23.138801 -20.376493 19.074833 36.255411 -0.722004 1.016760 0.065937 -0.010684 40367.400000 0 0 1
23.352201 -19.925293 20.585033 36.960603 -0.706379 0.980093 0.041296 -0.012642 -349361.000000 0 0 1
23.500501 -21.067893 21.446233 38.158493 -0.730871 0.973958 0.061142 -0.016146 -227474.000000 0 0 1
23.868201 -20.694493 22.737903 38.922555 -0.714299 0.946923 0.056240 -0.015387 158605.000000 0 0 1
24.377101 -21.861393 23.615533 40.371487 -0.731045 0.945971 0.069440 -0.017562 129735.000000 0 0 1
23.313001 -22.673693 24.084653 40.468047 -0.771497 0.933341 0.091783 -0.023519 345770.000000 0 0 1
23.765301 -23.600693 25.038473 41.817548 -0.781923 0.928850 0.099038 -0.015791 -107227.000000 0 0 1
22.575401 -24.073793 25.888393 41.945263 -0.817508 0.905624 0.103618 -0.020899 58538.700000 0 0 1
21.729501 -24.972993 25.206993 41.607861 -0.854737 0.919997 0.119773 -0.014162 433844.000000 0 0 1
20.626001 -25.453093 25.980393 41.812351 -0.889774 0.900323 0.126964 -0.017397 690090.000000 0 0 1
19.737001 -26.492893 25.180963 41.539180 -0.930508 0.919525 0.129194 -0.017804 173072.000000 0 0 1
18.997901 -25.904993 24.145663 40.187087 -0.938025 0.926256 0.128839 -0.021955 415605.000000 0 0 1
18.374701 -26.899293 23.279723 40.039319 -0.971508 0.950322 0.117775 -0.023991 476685.000000 0 0 1
17.461801 -26.366893 22.120833 38.593507 -0.985849 0.960421 0.113668 -0.026266 1352630.000000 0 0 1
16.206201 -25.791593 22.549413 37.898855 -1.009790 0.933544 0.101052 -0.025130 868418.000000 0 0 1
15.444601 -25.197793 21.540233 36.571110 -1.020920 0.940981 0.080251 -0.027253 1098170.000000 0 0 1
14.040301 -24.538693 21.873633 35.745396 -1.051092 0.912299 0.078060 -0.025599 1028580.000000 0 0 1
12.998801 -25.481893 21.984533 36.077907 -1.099086 0.915540 0.064696 -0.023485 -203114.000000 0 0 1
11.773301 -24.759793 21.876433 35.074724 -1.126939 0.897317 0.078590 -0.024041 650299.000000 0 0 1
10.562901 -25.719093 22.185533 35.570275 -1.181098 0.897316 0.079373 -0.024519 243195.000000 0 0 1
10.231901 -26.423393 21.025033 35.283700 -1.201348 0.932429 0.109352 -0.037856 159724.000000 0 0 1
9.036601 -27.173993 21.143833 35.597018 -1.249755 0.934802 0.116152 -0.044587 -194830.000000 0 0 1
8.532201 -27.939293 19.925833 35.361580 -1.274408 0.972194 0.151464 -0.043690 34861.500000 0 0 1
9.370601 -29.061493 19.681333 36.328135 -1.258881 0.998260 0.140782 -0.046705 116712.000000 0 0 1
9.024601 -29.853693 18.581833 36.303869 -1.277236 1.033469 0.153386 -0.048944 62212.900000 0 0 1
9.768001 -31.216293 18.416433 37.537126 -1.267535 1.057996 0.134130 -0.035511 324788.000000 0 0 1
9.152301 -32.169293 19.290533 38.610267 -1.293616 1.047634 0.132074 -0.042088 503006.000000 0 0 1
9.975001 -33.307993 19.381933 39.806813 -1.279819 1.062259 0.108902 -0.037541 70446.300000 0 0 1
9.396401 33.102678 20.381133 39.993377 1.294215 1.036062 0.119347 -0.052167 151355.000000 0 0 1
8.420301 32.183378 19.946233 38.788187 1.314897 1.030681 0.124311 -0.056687 -92033.000000 0 0 1
8.367401 31.054278 20.760633 38.280353 1.307602 0.997587 0.128580 -0.056874 211306.000000 0 0 1
7.211201 30.055578 20.458633 37.066087 1.335319 0.986095 0.132863 -0.050663 598528.000000 0 0 1
5.928101 30.476378 20.917933 37.436772 1.378681 0.977914 0.167453 -0.059842 935667.000000 0 0 1
4.939401 29.536578 20.373633 36.220050 1.405100 0.973395 0.183079 -0.040276 1932350.000000 0 0 1
3.437501 29.589678 20.833633 36.351144 1.455142 0.960486 0.181321 -0.032647 896153.000000 0 0 1
3.146601 29.146478 22.159933 36.748890 1.463255 0.923528 0.140838 -0.035930 162383.000000 0 0 1
1.801401 28.715278 22.273433 36.385684 1.508145 0.912022 0.134229 -0.024762 180646.000000 0 0 1
1.398801 28.056878 23.598593 36.688399 1.520982 0.872104 0.129641 -0.016572 -78308.100000 0 0 1
1.092501 28.951078 24.652803 38.041019 1.533078 0.865764 0.137928 -0.032858 111569.000000 0 0 1
0.841101 28.416978 25.974743 38.508692 1.541206 0.830487 0.139134 -0.034931 57021.000000 0 0 1
2.017201 27.700378 26.693823 38.521944 1.498103 0.805222 0.119246 -0.022062 82095.500000 0 0 1
2.447001 26.465078 26.127773 37.269943 1.478597 0.793940 0.116622 -0.026348 147188.000000 0 0 1
3.498001 25.876978 26.874933 37.471536 1.436433 0.771007 0.093871 -0.007556 21973.100000 0 0 1
4.029401 24.570678 26.268773 36.193959 1.408251 0.758632 0.092528 -0.004151 84624.100000 0 0 1
3.016501 23.616678 25.999223 35.253458 1.443757 0.741444 0.102550 -0.011051 -41213.100000 0 0 1
3.589201 22.310078 25.873623 34.352093 1.411285 0.717899 0.101484 -0.007034 -206762.000000 0 0 1
2.587201 21.154078 25.942623 33.573923 1.449098 0.687710 0.098375 -0.011497 -416701.000000 0 0 1
2.966401 19.841878 26.234783 33.026708 1.422393 0.652859 0.119006 -0.013964 178273.000000 0 0 1
3.824701 19.216278 25.236853 31.949842 1.374329 0.660167 0.117385 -0.013075 171378.000000 0 0 1
4.208201 17.758778 25.559823 31.406809 1.338123 0.620082 0.112889 -0.021464 -308610.000000 0 0 1
5.298901 17.547478 26.407603 32.145821 1.277529 0.606770 0.114397 -0.017933 -20517.800000 0 0 1
6.574401 17.517878 25.800363 31.870951 1.211766 0.627452 0.119982 -0.006023 -247416.000000 0 0 1
7.796901 17.505378 26.746133 32.902667 1.151774 0.621705 0.101342 -0.020627 1695.640000 0 0 1
8.287101 18.709278 27.306903 34.123013 1.153828 0.643086 0.108667 -0.019554 -140091.000000 0 0 1
9.050101 19.463978 26.409893 34.032825 1.135566 0.682478 0.091820 -0.019574 -517620.000000 0 0 1
9.718701 20.685278 27.058243 35.418672 1.131569 0.701377 0.088468 -0.017385 -16096.300000 0 0 1
10.781801 20.379578 27.929473 36.216431 1.084180 0.690100 0.109106 -0.038037 -45668.800000 0 0 1
10.860201 21.465378 28.855563 37.567937 1.102408 0.694943 0.154680 -0.042294 78414.100000 0 0 1
11.795001 21.206178 30.093333 38.657893 1.063201 0.678600 0.192964 -0.051402 76513.600000 0 0 1
13.116501 21.047878 29.638303 38.645630 1.013511 0.696761 0.190797 -0.051663 -552382.000000 0 0 1
13.994201 20.858278 30.763823 39.715465 0.979856 0.684705 0.190296 -0.032003 288224.000000 0 0 1
15.429601 20.898878 30.195943 39.832532 0.934827 0.710444 0.147205 -0.039015 -45783.700000 0 0 1
15.857901 22.181278 29.696943 40.316132 0.950125 0.742764 0.112299 -0.058917 684098.000000 0 0 1
17.256501 22.190778 29.386163 40.666497 0.909837 0.763221 0.219984 -0.042830 870976.000000 0 0 1
-8.601613 16.827278 4.263468 19.373234 -1.098252 1.348910 0.027402 -0.016192 71133.600000 0 1 0
-8.588613 18.159478 4.675968 20.625120 -1.129018 1.342096 0.039683 -0.020533 -264505.000000 0 1 0
-7.270313 18.417378 5.080368 20.441805 -1.194821 1.319636 0.036084 -0.015578 -229670.000000 0 1 0
-7.137513 19.851078 5.695568 21.850604 -1.225637 1.307091 0.045295 -0.013835 568.697000 0 1 0
-7.172613 20.998178 4.821968 22.707294 -1.241640 1.356814 0.056541 -0.022390 -368147.000000 0 1 0
-8.489513 21.208478 4.358568 23.256579 -1.190041 1.382269 0.061885 -0.027667 37463.000000 0 1 0
-8.681813 22.172678 3.196568 24.025394 -1.197592 1.437351 0.125034 -0.043485 -66847.100000 0 1 0
-7.955113 21.881978 2.038368 23.372200 -1.222105 1.483472 0.093480 -0.044427 -41210.100000 0 1 0
-8.538613 20.856278 1.222568 22.569601 -1.182211 1.516601 0.109533 -0.042660 -237062.000000 0 1 0
-7.987613 20.945178 -0.253032 22.417994 -1.206463 1.582084 0.078258 -0.030572 476351.000000 0 1 0
-6.665113 20.546578 -0.522532 21.606912 -1.257116 1.594982 0.057982 -0.022993 72320.500000 0 1 0
-5.649113 21.455478 -0.118632 22.187025 -1.313345 1.576143 0.060171 -0.028332 287555.000000 0 1 0
-4.206313 21.127978 -0.592432 21.550766 -1.374278 1.598290 0.056449 -0.027995 163128.000000 0 1 0
-3.972513 21.393478 -1.954732 21.846801 -1.387199 1.660391 0.054157 -0.029086 -421893.000000 0 1 0
-2.593513 21.413678 -2.203432 21.682413 -1.450269 1.672595 0.040432 -0.019638 -527499.000000 0 1 0
-2.283713 21.830178 -3.613532 22.244766 -1.466563 1.733964 0.050861 -0.008832 -296180.000000 0 1 0
-0.933713 21.982678 -3.955032 22.355139 -1.528347 1.748651 0.051123 -0.020373 -253267.000000 0 1 0
-0.883013 22.435878 -5.295732 23.069311 -1.531459 1.802419 0.064112 -0.024283 -828120.000000 0 1 0
0.462387 22.861478 -5.803532 23.591142 1.550573 1.819352 0.065421 -0.030454 -1112150.000000 0 1 0
1.454887 21.875778 -5.712832 22.656187 1.504387 1.825701 0.050736 -0.026895 -69935.700000 0 1 0
2.619887 22.378378 -6.382232 23.417696 1.454255 1.846827 0.044016 -0.013867 405557.000000 0 1 0
3.675787 21.271378 -6.551932 22.559050 1.399682 1.865477 0.053920 -0.012004 -53634.300000 0 1 0
3.216587 20.462378 -7.589632 22.060323 1.414877 1.922012 0.049663 -0.015510 -142236.000000 0 1 0
4.114987 19.456178 -7.940132 21.413119 1.362368 1.950674 0.042248 -0.009288 -109545.000000 0 1 0
3.656387 18.678778 -9.168832 21.126604 1.377490 2.019718 0.038652 -0.008573 -357846.000000 0 1 0
4.025687 19.268778 -10.410732 22.268258 1.364836 2.057273 0.047102 -0.011236 398202.000000 0 1 0
3.218287 18.818778 -11.510832 22.293565 1.401420 2.113356 0.056834 -0.012383 251710.000000 0 1 0
3.876887 19.321778 -12.843532 23.522706 1.372777 2.148385 0.061750 -0.014931 395928.000000 0 1 0
3.962287 20.708978 -13.076532 24.810425 1.381749 2.125931 0.099825 -0.024386 -257078.000000 0 1 0
4.456387 20.918978 -14.376432 25.771008 1.360903 2.162593 0.123777 -0.036816 77749.300000 0 0 1
4.679387 22.348578 -14.803032 27.211861 1.364396 2.145984 0.115920 -0.038496 -237544.000000 0 0 1
3.528787 23.110778 -14.985432 27.769112 1.419277 2.140810 0.129245 -0.040444 -543670.000000 0 0 1
3.875287 24.417178 -15.429432 29.142474 1.413398 2.128746 0.120851 -0.033251 1373690.000000 0 0 1
2.547887 25.263278 -15.740532 29.874559 1.470283 2.125731 0.121605 -0.034032 1368740.000000 0 0 1
1.849187 25.659078 -14.574332 29.567194 1.498853 2.086242 0.141930 -0.038906 -374291.000000 0 0 1
1.953087 27.026578 -14.333932 30.654724 1.498656 2.057362 0.127636 -0.034297 -861649.000000 0 0 1
1.117587 27.382378 -13.083332 30.368029 1.530005 2.016204 0.130702 -0.039135 1497390.000000 0 0 1
-0.336713 27.352778 -13.228132 30.385380 -1.558487 2.021218 0.126660 -0.042570 1645750.000000 0 0 1
-0.907713 26.075478 -13.492932 29.373691 -1.535999 2.048065 0.111488 -0.046502 -1020970.000000 0 0 1
-0.904213 25.044278 -12.339732 27.933894 -1.534707 2.028342 0.129934 -0.044109 -121234.000000 0 0 1
-1.800413 25.276078 -11.228732 27.716530 -1.499687 1.987915 0.110991 -0.036033 408168.000000 0 0 1
-2.128013 24.070178 -10.570332 26.374871 -1.482617 1.983157 0.120454 -0.031672 150391.000000 0 0 1
-3.220913 24.045378 -9.467032 26.041874 -1.437638 1.942852 0.101458 -0.025789 85701.300000 0 0 1
-2.922213 24.547678 -8.146732 26.028774 -1.452312 1.889135 0.115537 -0.025939 -151748.000000 0 0 1
-2.662613 25.930378 -8.016032 27.271428 -1.468472 1.869138 0.114063 -0.034846 -554985.000000 0 0 1
-2.420013 26.290978 -6.562532 27.205492 -1.479008 1.814420 0.099397 -0.037829 782432.000000 0 0 1
-1.210613 25.777478 -5.966132 26.486576 -1.523867 1.797997 0.096842 -0.036474 533500.000000 0 0 1
-0.978513 26.377478 -4.744132 26.818569 -1.533717 1.748629 0.096694 -0.041286 -212383.000000 0 0 1
-1.735013 25.820278 -3.506532 26.114992 -1.503701 1.705476 0.089393 -0.034076 891125.000000 0 0 1
-3.167313 25.902378 -3.643332 26.348414 -1.449122 1.709516 0.097072 -0.034954 672486.000000 0 0 1
-3.777313 25.402978 -2.474132 25.801177 -1.423182 1.666836 0.092432 -0.031614 579306.000000 0 0 1
-5.009713 24.465378 -2.854432 25.135627 -1.368821 1.684603 0.095229 -0.030616 39841.200000 0 0 1
-6.131413 25.223178 -3.148932 26.148015 -1.332335 1.691517 0.103108 -0.027367 -1237030.000000 0 0 1
-7.112313 24.382978 -3.682132 25.664620 -1.286979 1.714764 0.074986 -0.025142 -148830.000000 0 0 1
-8.461713 25.095478 -3.931232 26.773834 -1.245587 1.718160 0.075170 -0.018908 -260956.000000 0 0 1
-9.026013 25.412178 -2.708132 27.103167 -1.229510 1.670883 0.122117 -0.038612 -451465.000000 0 0 1
-10.142213 26.283078 -2.879332 28.318814 -1.202518 1.672648 0.142953 -0.041061 412220.000000 0 0 1
-10.995413 26.331478 -1.541932 28.576623 -1.175230 1.624780 0.150461 -0.045823 -56797.000000 0 0 1
-11.710313 25.244578 -1.036332 27.847695 -1.136465 1.608019 0.148713 -0.044662 -502980.000000 0 0 1
-10.996013 24.083078 -0.793732 26.486543 -1.142478 1.600768 0.175163 -0.049368 -785356.000000 0 0 1
-11.791713 22.808878 -0.518132 25.681859 -1.093658 1.590973 0.146239 -0.042299 -57132.800000 0 0 1
-12.586113 22.842378 0.670668 26.088968 -1.067187 1.545087 0.158618 -0.051227 14974.000000 0 0 1
-13.343613 21.665178 0.762268 25.456099 -1.018767 1.540847 0.147994 -0.044852 -720865.000000 0 0 1
-14.315313 21.699078 1.928168 26.067144 -0.987618 1.496759 0.152794 -0.048067 -538485.000000 0 0 1
-13.817813 21.603078 3.222368 25.845862 -1.001751 1.445795 0.133826 -0.043069 -10444.300000 0 0 1
-13.040313 22.726378 3.684268 26.459627 -1.049867 1.431101 0.152495 -0.054285 357189.000000 0 0 1
-12.756013 22.812478 5.233268 26.655433 -1.060941 1.373182 0.138437 -0.045825 315645.000000 0 0 1
-11.525213 22.253878 5.667768 25.694147 -1.092934 1.348381 0.123645 -0.036038 111827.000000 0 0 1
-11.675713 21.974778 7.072568 25.869564 -1.082405 1.293877 0.090459 -0.030360 -733870.000000 0 0 1
-10.507913 21.425478 7.856868 25.123648 -1.114826 1.252733 0.071090 -0.023817 -489914.000000 0 0 1
-9.506113 22.458078 7.994368 25.664009 -1.170381 1.254024 0.084201 -0.025303 317409.000000 0 0 1
-8.404713 22.075378 8.798168 25.206532 -1.207013 1.214246 0.088582 -0.028227 20547.100000 0 0 1
-8.654313 22.095278 10.330168 25.880703 -1.197482 1.160212 0.083198 -0.035869 -670476.000000 0 0 1
-9.406513 21.021278 10.764868 25.421624 -1.150044 1.133543 0.083067 -0.026982 -504718.000000 0 0 1
-9.212313 20.632978 12.112368 25.637783 -1.150869 1.078737 0.064159 -0.017852 263462.000000 0 0 1
-10.243713 19.568778 12.636068 25.446825 -1.088548 1.051157 0.055407 -0.016862 409709.000000 0 0 1
-10.109113 18.297078 11.953868 24.080535 -1.066037 1.051336 0.072389 -0.033814 -717025.000000 0 1 0
-11.200713 17.485878 12.179868 24.074075 -1.001088 1.040333 0.077284 -0.031787 -717922.000000 0 1 0
-11.090513 16.104078 11.534068 22.701884 -0.967710 1.037858 0.072796 -0.039792 -74870.500000 0 1 0
-11.762813 15.130978 12.326168 22.786941 -0.909989 0.999252 0.073348 -0.029274 30913.900000 0 1 0
-11.795113 13.899378 11.592168 21.603142 -0.867111 1.004398 0.054899 -0.015666 59579.500000 0 1 0
-12.200613 12.686878 12.466568 21.569125 -0.804934 0.954543 0.040804 -0.023157 -56727.500000 0 1 0
-13.553313 12.655478 12.847668 22.559166 -0.751155 0.964887 0.080333 -0.022437 -146695.000000 0 1 0
-13.902813 11.496578 13.569568 22.574159 -0.690944 0.925906 0.053508 -0.010613 293813.000000 0 1 0
-14.832013 11.733578 14.788468 24.007587 -0.669289 0.907152 0.079385 -0.019200 1514220.000000 0 1 0
-16.089313 12.418978 14.513368 24.974684 -0.657356 0.950688 0.099538 -0.028368 1503910.000000 0 1 0
-16.955913 12.586078 15.651468 26.284611 -0.638544 0.932957 0.091950 -0.021674 937026.000000 0 0 1
-18.182613 13.512278 15.355068 27.367265 -0.639098 0.975113 0.080172 -0.023474 264667.000000 0 0 1
-19.225213 12.975978 14.599468 27.406738 -0.593712 1.009013 0.111281 -0.031592 -138238.000000 0 0 1
-20.129213 13.981178 14.167668 28.308680 -0.607073 1.046654 0.146195 -0.038870 374812.000000 0 0 1
-21.350913 13.421878 13.363168 28.540892 -0.561207 1.083531 0.122664 -0.041366 579985.000000 0 0 1
-22.214613 12.636178 14.195068 29.234602 -0.517180 1.063796 0.130104 -0.033665 24480.800000 0 0 1
-23.265913 12.060278 13.466668 29.463607 -0.478233 1.096108 0.112896 -0.035673 -83417.900000 0 0 1
-24.162113 11.150178 14.374768 30.245134 -0.432354 1.075519 0.136877 -0.039358 390023.000000 0 0 1
-25.160443 11.928278 15.054968 31.654127 -0.442704 1.075141 0.115994 -0.031515 466163.000000 0 0 1
-25.804193 11.165678 16.028668 32.364285 -0.408381 1.052665 0.109277 -0.027120 -188347.000000 0 0 1
-26.722963 11.933278 16.997768 33.844408 -0.419986 1.044618 0.089023 -0.025479 -427606.000000 0 0 1
-27.699453 12.649278 16.318968 34.548120 -0.428380 1.078836 0.093904 -0.012769 -399304.000000 0 0 1
-28.623513 13.173478 17.231668 35.913457 -0.431331 1.070357 0.080840 -0.003393 -538676.000000 0 0 1
-29.564513 14.193478 16.665168 36.786452 -0.447589 1.100641 0.077176 0.000272 -410170.000000 0 0 1
-29.109153 15.532278 16.717968 36.987631 -0.490155 1.101804 0.090320 -0.000071 -535961.000000 0 0 1
-30.081013 16.429178 16.329068 37.966086 -0.499894 1.126197 0.089922 0.007808 -480013.000000 0 0 1
-29.562993 17.897778 16.280968 38.201713 -0.544389 1.130526 0.094549 0.008524 -8854.910000 0 0 1
-29.111223 18.315578 17.606568 38.638257 -0.561584 1.097664 0.096738 0.004733 67555.200000 0 0 1
-30.117133 18.589378 18.555568 39.961428 -0.552997 1.087911 0.093826 -0.010530 -494386.000000 0 0 1
-29.524603 18.800178 20.031868 40.328955 -0.567013 1.050990 0.076788 -0.017693 535020.000000 0 0 1
-29.021323 17.685778 20.761368 39.825348 -0.547307 1.022411 0.075248 -0.016389 -315942.000000 0 0 1
-27.866493 17.053778 20.299368 38.463451 -0.549183 1.014838 0.086106 -0.004278 -721599.000000 0 0 1
-27.395473 15.922378 21.194968 38.121657 -0.526485 0.981252 0.073623 -0.012487 -199056.000000 0 0 1
-28.401163 14.952078 21.362868 38.555970 -0.484591 0.983546 0.053307 -0.002057 322815.000000 0 0 1
-27.829213 13.629778 21.361368 37.637003 -0.455426 0.967254 0.049674 0.000441 -188254.000000 0 0 1
-28.910123 12.586378 21.585068 38.211612 -0.410615 0.970506 0.068041 -0.008519 -109884.000000 0 0 1
-29.767853 12.437978 20.454868 38.199869 -0.395784 1.005733 0.083782 -0.010689 184638.000000 0 0 1
-30.729153 11.407678 20.610668 38.719705 -0.355464 1.009476 0.109016 -0.015283 -285357.000000 0 0 1
-31.655883 11.461278 19.384868 38.848795 -0.347377 1.048372 0.119962 -0.023201 -696083.000000 0 0 1
-31.158153 10.906378 18.182068 37.687759 -0.336704 1.067359 0.145767 -0.030623 340715.000000 0 0 1
-30.756783 9.537478 18.244468 37.010860 -0.300691 1.055320 0.164671 -0.035403 -253158.000000 0 0 1
-30.055153 8.988478 16.986268 35.674056 -0.290600 1.074523 0.167176 -0.049708 -713016.000000 0 0 1
-30.790593 8.689378 15.857268 35.707406 -0.275056 1.110639 0.177995 -0.042158 -343272.000000 0 0 1
-31.275073 9.811178 15.104868 36.090808 -0.303983 1.138977 0.171636 -0.036525 -300192.000000 0 0 1
-30.311283 10.856978 14.493168 35.308636 -0.343946 1.147826 0.147602 -0.023473 -204492.000000 0 0 1
-29.558083 10.446778 13.387268 34.088625 -0.339729 1.167210 0.162818 -0.040811 341179.000000 0 0 1
-28.513943 11.399078 13.140968 33.401631 -0.380310 1.166445 0.131149 -0.029028 453655.000000 0 0 1
-28.031233 11.404678 11.657968 32.430308 -0.386403 1.203088 0.191051 -0.032322 -405817.000000 0 0 1
-27.379313 10.201478 11.278968 31.319515 -0.356663 1.202394 0.212350 -0.037618 375713.000000 0 0 1
-28.080763 8.926378 11.189868 31.518607 -0.307781 1.207856 0.218954 -0.032994 137047.000000 0 0 1
-27.177163 7.761078 10.635268 30.198368 -0.278170 1.210897 0.248987 -0.039688 129955.000000 0 0 1
-27.138333 7.929778 9.223568 29.739615 -0.284284 1.255452 0.262767 -0.035422 253037.000000 0 0 1
-26.573163 6.815078 8.523568 28.726808 -0.251054 1.269549 0.281942 -0.051685 -114175.000000 0 0 1
-25.771033 7.144278 7.225468 27.701881 -0.270430 1.306915 0.283682 -0.043448 -375841.000000 0 0 1
-26.351163 7.931678 6.250768 28.219982 -0.292373 1.347442 0.291111 -0.045131 135148.000000 0 0 1
-25.407313 8.269178 5.229868 27.226134 -0.314652 1.377505 0.275886 -0.049013 305604.000000 0 0 1
-26.137633 8.928378 3.973768 27.904885 -0.329164 1.427907 0.272639 -0.053373 354359.000000 0 0 1
-27.149933 8.221578 3.271068 28.555439 -0.294043 1.455993 0.331398 -0.058803 356723.000000 0 0 1
-26.779333 6.961578 2.669568 27.797893 -0.254331 1.474613 0.323098 -0.055572 311271.000000 0 0 1
-25.785793 7.077578 1.408268 26.776528 -0.267879 1.518179 0.314986 -0.048716 1349090.000000 0 0 1
-24.483013 7.546578 1.805468 25.683233 -0.298997 1.500441 0.258281 -0.046321 726214.000000 0 0 1
-23.681913 7.782578 0.671868 24.936979 -0.317511 1.543850 0.255750 -0.028920 -431597.000000 0 1 0
-22.249713 8.200078 1.028168 23.734956 -0.353102 1.527464 0.163636 -0.034090 -362134.000000 0 1 0
-22.161413 9.504578 1.527668 24.161933 -0.405152 1.507528 0.161028 -0.048952 305890.000000 0 1 0
-21.321213 9.705078 2.649268 23.575438 -0.427157 1.458184 0.136492 -0.048204 -318636.000000 0 1 0
-21.367613 11.044378 3.403568 24.292745 -0.477056 1.430228 0.119762 -0.064754 -716653.000000 0 1 0
-20.923313 12.167478 2.667868 24.350566 -0.526726 1.461015 0.175805 -0.054171 524709.000000 0 1 0
-21.366113 13.423678 3.217168 25.437297 -0.560947 1.443982 0.186419 -0.062172 -349315.000000 0 0 1
-20.230513 14.060878 4.023568 24.963394 -0.607385 1.408911 0.146710 -0.050957 -279480.000000 0 1 0
-19.903213 13.358278 5.185068 24.524812 -0.591108 1.357767 0.139164 -0.050236 -688885.000000 0 1 0
-18.945213 14.035978 5.884068 24.301276 -0.637634 1.326236 0.114097 -0.045440 -654282.000000 0 1 0
-18.288513 13.206678 7.036068 23.630326 -0.625424 1.268455 0.074195 -0.040847 -149875.000000 0 1 0
-17.330613 12.294078 6.573568 22.241994 -0.616997 1.270768 0.064812 -0.031387 -127486.000000 0 1 0
-16.737013 11.639378 7.655468 21.776338 -0.607651 1.211570 0.047717 -0.025746 -434008.000000 0 1 0
11.534787 -32.263693 -14.483032 37.198864 -1.227441 1.970712 0.051728 -0.025915 -318101.000000 0 0 1
12.694687 -32.259193 -13.687832 37.271536 -1.195887 1.946843 0.047558 -0.026409 276.520000 0 0 1
13.362387 -31.005893 -13.797432 36.473113 -1.163886 1.958745 0.046498 -0.034396 1122890.000000 0 0 1
14.722687 -30.849093 -12.975432 36.562083 -1.125515 1.933590 0.069815 -0.032148 1785550.000000 0 0 1
15.841787 -31.422593 -13.681632 37.756174 -1.103832 1.941604 0.074843 -0.035435 -302618.000000 0 0 1
17.049187 -30.848593 -13.329732 37.682785 -1.065903 1.932358 0.087283 -0.032862 -64221.600000 0 0 1
18.270187 -31.674993 -13.874232 39.110092 -1.047609 1.933441 0.094969 -0.033935 496806.000000 0 0 1
18.427887 -32.892293 -13.172732 39.937587 -1.060118 1.906923 0.094654 -0.042575 -432242.000000 0 0 1
19.380387 -33.637293 -13.902432 41.235234 -1.048092 1.914684 0.081459 -0.026040 958.387000 0 0 1
19.485787 32.340978 -13.480832 40.091989 1.028533 1.913726 0.077065 -0.031413 -794100.000000 0 0 1
20.050987 32.174378 -12.206532 39.827530 1.013494 1.882294 0.059826 -0.029738 -51927.600000 0 0 1
19.872787 30.831878 -11.755132 38.519028 0.998260 1.880921 0.049598 -0.024749 161223.000000 0 0 1
20.684887 30.470178 -10.474932 38.288647 0.974402 1.847907 0.046917 -0.026041 281174.000000 0 0 1
21.962387 29.912078 -10.681132 38.615611 0.937464 1.851052 0.051910 -0.030054 102813.000000 0 0 1
22.572087 29.608078 -9.435432 38.407874 0.919430 1.819001 0.039412 -0.021480 1257230.000000 0 0 1
23.858187 28.659578 -9.434032 38.465380 0.876569 1.818585 0.046615 -0.015547 1459610.000000 0 0 1
24.963587 29.139078 -10.186832 39.699346 0.862423 1.830299 0.051036 -0.018151 -685525.000000 0 0 1
26.129787 28.503578 -9.853832 39.903856 0.828820 1.820317 0.051683 -0.013514 -949157.000000 0 0 1
27.332487 28.954278 -10.697432 41.229239 0.814203 1.833262 0.031998 -0.013211 -455926.000000 0 0 1
27.736787 30.310978 -10.437832 42.391427 0.829715 1.819580 0.045632 -0.025298 42772.000000 0 0 1
28.802787 30.577978 -11.337132 43.510273 0.815284 1.834401 0.046136 -0.021623 232148.000000 0 0 1
29.505187 31.926378 -11.062632 44.857903 0.824791 1.819982 0.041298 -0.026088 -239293.000000 0 0 1
28.864187 32.943878 -11.807432 45.363596 0.851308 1.834113 0.058327 -0.021777 255235.000000 0 0 1
29.380887 -33.255693 -11.370232 45.808950 -0.847181 1.821628 0.053289 -0.017023 170731.000000 0 0 1
28.549587 -32.010893 -11.848632 44.499060 -0.842491 1.840314 0.055273 -0.012938 1986090.000000 0 0 1
27.164887 -32.071893 -11.339232 43.532926 -0.868047 1.834310 0.071237 -0.023982 1557100.000000 0 0 1
26.289187 -31.027493 -11.682632 42.312062 -0.867879 1.850537 0.078359 -0.028169 140886.000000 0 0 1
26.610587 -29.602793 -11.095932 41.322735 -0.838577 1.842651 0.060878 -0.014320 -559864.000000 0 0 1
27.656387 -28.942993 -11.743432 41.719070 -0.808126 1.856141 0.055597 -0.006784 -394061.000000 0 0 1
27.919987 -27.661393 -11.298232 40.894112 -0.780746 1.850718 0.042517 -0.007468 49313.400000 0 0 1
28.798187 -26.837793 -12.329732 41.250758 -0.750177 1.874333 0.083657 -0.017230 1411830.000000 0 0 1
30.149087 -27.284793 -12.549032 42.554737 -0.735568 1.870138 0.054351 -0.000327 720765.000000 0 0 1
30.234087 -28.416693 -13.405432 43.604061 -0.754421 1.883293 0.084175 -0.009561 -720014.000000 0 0 1
31.640087 -28.897493 -13.773432 45.009640 -0.740125 1.881796 0.075299 -0.005194 -338383.000000 0 0 1
32.189887 -29.806393 -12.878332 45.721563 -0.746971 1.856329 0.083639 -0.007983 44955.700000 0 0 1
33.287787 -30.489293 -13.467832 47.106860 -0.741547 1.860741 0.074954 -0.009936 39802.100000 0 0 1
33.675187 -31.709293 -12.580232 47.934953 -0.755341 1.836350 0.066935 -0.012172 -120190.000000 0 0 1
34.620987 -32.560993 -13.178132 49.320323 -0.754745 1.841277 0.069211 -0.023151 106454.000000 0 0 1
35.256887 -33.482893 -12.280132 50.149316 -0.759597 1.818183 0.080428 -0.020606 -111645.000000 0 0 1
34.341887 32.920878 -11.634732 48.974651 0.764275 1.810656 0.081187 -0.025836 -379902.000000 0 0 1
33.743087 33.324078 -10.423132 48.556480 0.779151 1.787140 0.063817 -0.027691 60677.600000 0 0 1
33.075487 32.207278 -9.811732 47.197105 0.772100 1.780212 0.055785 -0.022352 75266.300000 0 0 1
32.232587 32.595878 -8.573632 46.636232 0.791002 1.755689 0.042829 -0.015173 -32839.000000 0 0 1
31.053487 33.349078 -8.729732 46.397072 0.821027 1.760077 0.025613 -0.018852 -217254.000000 0 0 1
30.468787 33.659178 -7.468232 46.011539 0.835108 1.733830 0.015702 -0.009534 114041.000000 0 0 1
29.485187 -32.624593 -7.643732 44.633698 -0.835901 1.742899 0.010993 -0.009834 -352061.000000 0 0 1
30.093987 -31.365993 -7.909232 44.181779 -0.806092 1.750782 -0.006299 -0.008941 62074.600000 0 0 1
29.217387 -30.324093 -8.341132 42.927623 -0.803983 1.766347 -0.005446 0.004118 335149.000000 0 0 1
28.180787 -29.763793 -7.315932 41.636078 -0.812711 1.747425 0.002524 0.000463 123832.000000 0 0 1
27.345387 -28.823493 -7.864432 40.502016 -0.811707 1.766212 0.009863 -0.011657 -445094.000000 0 0 1
26.349087 -28.291793 -6.996532 39.289330 -0.820937 1.749828 0.025209 -0.021080 371633.000000 0 0 1
25.424387 -27.362393 -7.843632 38.165725 -0.822096 1.777786 0.090136 -0.032433 -67351.400000 0 0 1
24.478487 -28.055093 -8.650232 38.224483 -0.853376 1.799075 0.115058 -0.034530 378648.000000 0 0 1
23.846687 -27.147793 -9.555232 37.376057 -0.850043 1.829318 0.137693 -0.042001 -61719.800000 0 0 1
22.585187 -27.763593 -10.192232 37.212759 -0.887888 1.848233 0.121270 -0.038222 -572272.000000 0 0 1
22.822187 -28.521393 -11.386832 38.262018 -0.895947 1.872976 0.128186 -0.035529 565463.000000 0 0 1
21.740287 -29.353593 -11.870332 38.408050 -0.933316 1.884999 0.116251 -0.039289 799416.000000 0 0 1
21.363087 -30.589093 -10.954632 38.885448 -0.961152 1.856378 0.107682 -0.047758 -77844.400000 0 0 1
22.308387 -31.606393 -11.126332 40.254484 -0.956176 1.850842 0.090393 -0.038414 -408415.000000 0 0 1
21.910087 -32.855393 -10.704232 40.915882 -0.982657 1.835492 0.074936 -0.037355 759575.000000 0 0 1
23.090787 33.530178 -10.751132 42.107531 0.967724 1.828981 0.062256 -0.031809 1036030.000000 0 0 1
24.090987 -33.712093 -9.764332 42.570214 -0.950332 1.802227 0.059217 -0.022768 -395632.000000 0 0 1
25.199287 32.952978 -10.105932 42.696987 0.917951 1.809754 0.057848 -0.025657 -177928.000000 0 0 1
26.396687 33.131378 -9.143032 43.336686 0.898054 1.783370 0.053180 -0.018341 -404159.000000 0 0 1
26.226987 32.644178 -7.828432 42.600253 0.893973 1.755612 0.033113 -0.011148 139521.000000 0 0 1
26.865487 31.391178 -7.612932 42.013298 0.862928 1.753006 0.046158 -0.014550 -157123.000000 0 0 1
26.697087 30.788178 -6.168532 41.215254 0.856446 1.721027 0.045242 -0.008324 -227271.000000 0 0 1
27.520187 31.371478 -5.188932 42.053006 0.850701 1.694502 0.040032 0.000834 -132635.000000 0 0 1
28.681887 30.670678 -4.827632 42.268749 0.818894 1.685259 0.050323 -0.004235 -119106.000000 0 0 1
28.522187 29.588178 -3.758632 41.268665 0.803740 1.662000 0.061994 -0.001550 -934275.000000 0 0 1
28.209587 30.052978 -2.459432 41.291780 0.817027 1.630394 0.054878 0.001173 175119.000000 0 0 1
27.958887 28.944778 -1.565832 40.273457 0.802722 1.609686 0.053009 0.007093 764903.000000 0 0 1
26.574287 28.231478 -1.844832 38.815106 0.815626 1.618343 0.060406 0.007429 130306.000000 0 0 1
25.505887 28.792478 -1.147832 38.482133 0.845853 1.600628 0.063066 -0.001056 -831046.000000 0 0 1
24.279387 28.411478 -1.696032 37.410924 0.863659 1.616147 0.072440 -0.000621 255393.000000 0 0 1
23.003087 29.068378 -1.075032 37.084610 0.901356 1.599789 0.086107 -0.003579 568522.000000 0 0 1
22.674187 28.523878 0.210068 36.438640 0.899161 1.565031 0.087813 -0.013462 -430579.000000 0 0 1
21.585887 29.245078 0.702768 36.355453 0.934953 1.551465 0.078746 -0.020967 -710285.000000 0 0 1
20.933387 28.594578 1.904568 35.489209 0.938866 1.517104 0.084209 -0.032080 -287318.000000 0 0 1
20.331487 27.353378 1.506968 34.115211 0.931604 1.526609 0.105607 -0.028630 24629.700000 0 0 1
19.660287 26.707378 2.543368 33.260782 0.936227 1.494254 0.132261 -0.033483 -257141.000000 0 0 1
19.067387 25.411778 1.973368 31.831084 0.927080 1.508762 0.145942 -0.028669 288701.000000 0 0 1
20.032487 24.441478 1.527968 31.638917 0.884212 1.522484 0.162130 -0.030786 288177.000000 0 0 1
20.735987 23.777578 2.535268 31.650939 0.853622 1.490610 0.139374 -0.013788 -440878.000000 0 0 1
21.912087 23.004178 1.920268 31.827962 0.809707 1.510427 0.149338 -0.024247 -236968.000000 0 0 1
21.470387 21.887678 1.144768 30.681565 0.795022 1.533476 0.160060 -0.028225 618817.000000 0 0 1
22.549287 21.010578 0.841668 30.832177 0.750089 1.543495 0.110643 -0.030298 234290.000000 0 0 1
22.216687 20.071878 -0.336532 29.942858 0.734723 1.582036 0.131709 -0.027175 -241962.000000 0 0 1
22.160887 20.669778 -1.654832 30.349351 0.750598 1.625350 0.104110 -0.016640 285623.000000 0 0 1
22.497887 19.789778 -2.742532 30.088398 0.721445 1.662072 0.125165 -0.012905 61822.600000 0 0 1
22.573287 20.683778 -4.043632 30.882405 0.741745 1.702110 0.107130 -0.032312 8636.340000 0 0 1
23.735387 21.484978 -4.130932 32.280605 0.735674 1.699118 0.107962 -0.025800 190498.000000 0 0 1
23.676887 22.200678 -5.347232 32.894650 0.753232 1.734077 0.083076 -0.024093 370343.000000 0 0 1
24.770387 23.331278 -5.561332 34.479690 0.755489 1.732797 0.077109 -0.015840 468362.000000 0 0 1
24.711287 24.458878 -4.696532 35.084781 0.780265 1.705062 0.057656 -0.009896 -35230.600000 0 0 1
24.882787 24.366578 -3.290032 34.981531 0.774917 1.664986 0.073661 -0.016249 715935.000000 0 0 1
23.572887 24.168678 -2.395632 33.845902 0.797877 1.641636 0.081223 -0.019046 115554.000000 0 0 1
22.627487 25.213778 -2.436532 33.965784 0.839405 1.642593 0.104152 -0.023988 701016.000000 0 0 1
21.553987 25.078978 -1.496232 33.102390 0.860845 1.616012 0.129326 -0.020026 419883.000000 0 0 1
20.496687 23.993678 -1.793332 31.607385 0.863838 1.627565 0.154873 -0.036955 -1451830.000000 0 0 1
19.654287 24.346778 -2.808432 31.415663 0.891642 1.660312 0.123327 -0.027817 -243403.000000 0 0 1
18.950187 23.258378 -3.418632 30.195178 0.887115 1.684257 0.137628 -0.038570 285228.000000 0 0 1
18.130287 23.664678 -4.665132 30.174290 0.917050 1.726025 0.130701 -0.041304 -193383.000000 0 0 1
17.474087 22.515978 -5.170932 28.966386 0.910815 1.750273 0.148749 -0.051112 88304.600000 0 0 1
16.826487 22.915278 -6.372232 29.134961 0.937425 1.791293 0.148706 -0.053407 -365030.000000 0 0 1
16.177287 21.793078 -7.109232 28.056800 0.932233 1.826976 0.159707 -0.046818 -539130.000000 0 0 1
17.052787 20.896978 -7.795632 28.075846 0.886351 1.852157 0.167425 -0.050666 220088.000000 0 0 1
16.430787 19.986878 -8.695832 27.295852 0.882737 1.895024 0.218874 -0.054992 -84247.800000 0 0 1
17.230787 18.651378 -8.869332 26.896821 0.824968 1.906839 0.206735 -0.050854 1187030.000000 0 0 1
18.486087 18.775678 -9.594932 28.041473 0.793170 1.920021 0.179291 -0.051838 1275830.000000 0 0 1
18.713087 17.543778 -10.226132 27.614083 0.753159 1.950153 0.181949 -0.047718 242366.000000 0 0 1
20.222387 17.184478 -10.352232 28.485434 0.704363 1.942735 0.155207 -0.045871 460978.000000 0 0 1
20.874887 17.878878 -11.415832 29.761324 0.708243 1.964465 0.168608 -0.045851 1728610.000000 0 0 1
22.314787 17.712278 -11.516632 30.729584 0.670916 1.954949 0.166105 -0.034561 1438060.000000 0 0 1
22.956187 18.134878 -12.865732 31.959152 0.668600 1.985117 0.160446 -0.040324 -175361.000000 0 0 1
22.809987 17.244478 -13.937732 31.810814 0.647334 2.024330 0.146500 -0.036113 313450.000000 0 0 1
23.347087 17.810278 -15.134732 33.035626 0.651673 2.046691 0.154371 -0.042023 129452.000000 0 0 1
23.102287 16.877578 -16.389732 32.972589 0.630942 2.091017 0.133673 -0.036946 92997.700000 0 0 1
23.975187 15.756578 -16.345332 33.018922 0.581423 2.088665 0.155384 -0.037771 230705.000000 0 0 1
24.072087 14.911078 -17.553832 33.315802 0.554587 2.125736 0.159784 -0.045348 -552097.000000 0 0 1
24.748187 15.508778 -18.792432 34.729677 0.559794 2.142548 0.165666 -0.042896 -831142.000000 0 0 1
26.104487 15.693078 -18.529732 35.652040 0.541275 2.117341 0.179251 -0.039053 -581967.000000 0 0 1
26.822087 15.998378 -19.713932 36.932527 0.537815 2.133864 0.182839 -0.042398 -181727.000000 0 0 1
28.311987 16.258078 -19.448032 38.001575 0.521268 2.108039 0.161075 -0.045716 -122717.000000 0 0 1
28.650087 17.405778 -18.671032 38.371813 0.545938 2.078969 0.149161 -0.042431 -134042.000000 0 0 1
30.025487 17.437878 -18.365232 39.279654 0.526159 2.057314 0.105825 -0.044485 -85763.100000 0 0 1
30.427787 18.574378 -17.374432 39.657643 0.548062 2.024292 0.106550 -0.038371 -32356.100000 0 0 1
29.814687 18.448878 -16.128532 38.592826 0.554118 2.001946 0.101866 -0.039915 -709391.000000 0 0 1
28.595387 19.099078 -16.068132 37.955972 0.588861 2.007921 0.122809 -0.033144 -1106220.000000 0 0 1
27.783987 18.717278 -14.841132 36.640765 0.592836 1.987824 0.121395 -0.028766 -575640.000000 0 0 1
28.318587 19.067378 -13.623532 36.757420 0.592592 1.950487 0.095671 -0.030315 -209934.000000 0 0 1
27.334187 19.014878 -12.625132 35.610635 0.607797 1.933211 0.105333 -0.029939 -329173.000000 0 0 1
27.713987 19.317778 -11.163232 35.578918 0.608737 1.889946 0.081870 -0.022240 -366681.000000 0 0 1
27.777787 20.701378 -11.050632 36.363017 0.640454 1.879577 0.091700 -0.018309 75108.900000 0 0 1
28.225487 21.158078 -9.795432 36.610011 0.643251 1.841658 0.075959 -0.013196 101387.000000 0 0 1
27.173787 21.069878 -8.659932 35.459116 0.659544 1.817515 0.088600 -0.019889 -283038.000000 0 0 1
27.271187 19.890678 -7.871732 34.660076 0.630164 1.799908 0.093461 -0.026636 585758.000000 0 0 1
26.211187 19.703278 -6.919732 33.513105 0.644596 1.778771 0.101605 -0.034093 1115250.000000 0 0 1
24.828387 19.185278 -7.472932 32.254742 0.657881 1.804606 0.145775 -0.039177 293726.000000 0 0 1
23.985887 20.233478 -7.828032 32.341838 0.700742 1.815265 0.116971 -0.033505 317918.000000 0 0 1
22.701687 19.754578 -8.244332 31.202227 0.716094 1.838194 0.098796 -0.038166 469605.000000 0 0 1
21.662187 20.875678 -8.402232 31.235265 0.766911 1.843149 0.126374 -0.041812 -650757.000000 0 0 1
22.001587 21.851978 -9.431032 32.411775 0.781987 1.866043 0.136957 -0.038361 180701.000000 0 0 1
21.326187 21.684978 -10.687832 32.237777 0.793740 1.908723 0.158241 -0.032245 392723.000000 0 0 1
19.782687 21.851678 -10.637932 31.337137 0.835052 1.917147 0.144947 -0.032491 -279327.000000 0 0 1
19.476187 23.109778 -10.058332 31.852060 0.870516 1.892078 0.124663 -0.037641 420082.000000 0 0 1
18.116387 23.545378 -10.088032 31.374459 0.914979 1.898148 0.114279 -0.034005 547456.000000 0 0 1
17.863087 24.952478 -9.483432 32.119333 0.949489 1.870520 0.103020 -0.038586 222244.000000 0 0 1
18.503887 25.862178 -10.395532 33.456138 0.949756 1.886748 0.131693 -0.030670 339679.000000 0 0 1
18.450387 27.131478 -9.806932 34.244851 0.973595 1.861239 0.135910 -0.040768 128118.000000 0 0 1
21.134387 28.644478 33.205061 48.680021 0.935138 0.820154 0.091250 -0.010440 -144118.000000 0 0 1
19.795087 29.035578 33.078603 48.260794 0.972422 0.815625 0.117043 -0.024564 -474757.000000 0 0 1
18.949787 27.948978 33.432203 47.517912 0.974979 0.790387 0.117005 -0.026053 187495.000000 0 0 1
17.448787 28.284578 33.317353 47.058724 1.018042 0.784141 0.143647 -0.036093 164633.000000 0 0 1
16.863287 28.281778 32.007157 45.920447 1.033132 0.799573 0.157538 -0.038383 -10967.500000 0 0 1
15.613487 28.944978 32.004832 45.890107 1.076113 0.799001 0.164021 -0.040873 -11039.800000 0 0 1
14.979687 28.920178 30.580213 44.675688 1.092879 0.816888 0.168695 -0.042676 -104483.000000 0 0 1
14.383487 27.708378 30.245583 43.467622 1.091984 0.801237 0.164070 -0.048513 -165370.000000 0 0 1
12.979187 27.739678 30.360623 43.124430 1.133163 0.789749 0.153545 -0.031601 -707560.000000 0 0 1
12.290287 26.406678 30.418343 42.114598 1.135191 0.763709 0.138594 -0.036459 -269187.000000 0 0 1
12.359287 25.499478 29.285793 40.750865 1.119473 0.768931 0.139430 -0.033629 1080940.000000 0 0 1
13.639287 24.827078 29.139813 40.639176 1.068436 0.771254 0.123558 -0.032812 1047930.000000 0 0 1
13.659987 24.007878 27.785393 39.179095 1.053498 0.782449 0.156841 -0.037559 -361021.000000 0 0 1
13.564587 24.832278 26.689663 38.897020 1.070838 0.814596 0.133038 -0.037572 223858.000000 0 0 1
13.557087 24.207378 25.400733 37.616339 1.060278 0.829482 0.135186 -0.037483 159258.000000 0 0 1
12.292287 23.352478 25.107193 36.425399 1.086268 0.810306 0.137927 -0.028508 -82362.600000 0 0 1
12.263887 23.022278 23.746723 35.275133 1.081335 0.832288 0.157068 -0.031953 -642788.000000 0 0 1
11.370087 22.054778 23.392073 34.101043 1.094795 0.814869 0.154266 -0.029498 -596077.000000 0 0 1
11.400587 21.847078 21.868433 32.946874 1.089833 0.844977 0.178441 -0.041916 -34639.700000 0 0 1
10.792287 22.875078 21.128233 32.956712 1.129968 0.874878 0.171958 -0.044859 14717.100000 0 0 1
10.980787 22.752378 19.727833 32.053639 1.121148 0.907823 0.176241 -0.040515 -288643.000000 0 0 1
10.649787 24.067878 18.885433 32.393522 1.154206 0.948380 0.141770 -0.040914 1107820.000000 0 0 1
9.231887 24.323078 18.799333 32.097582 1.208040 0.945061 0.141601 -0.047855 705188.000000 0 0 1
8.845787 25.200078 19.862833 33.283990 1.233211 0.931329 0.138566 -0.050318 42414.900000 0 0 1
7.450187 25.835478 19.589233 33.267330 1.290043 0.941170 0.133852 -0.050637 516623.000000 0 0 1
7.462087 26.753778 18.520233 33.383325 1.298792 0.982704 0.125895 -0.048542 -873341.000000 0 0 1
6.143287 26.843678 18.122233 32.965714 1.345816 0.988756 0.122746 -0.055212 -956785.000000 0 0 1
5.846987 27.770078 16.942533 33.051685 1.363278 1.032578 0.143370 -0.055885 -372172.000000 0 0 1
6.597987 27.501678 15.778633 32.385814 1.335334 1.061906 0.129260 -0.048176 -19089.500000 0 0 1
7.594687 28.508078 15.591333 33.368839 1.310438 1.084627 0.141221 -0.052374 -363317.000000 0 0 1
8.584787 28.212078 14.507633 32.864743 1.275404 1.113600 0.114413 -0.042657 -560798.000000 0 0 1
8.092187 28.264278 13.147833 32.205875 1.291951 1.150267 0.140776 -0.044705 -195166.000000 0 0 1
7.556687 27.014478 12.738533 30.808371 1.298041 1.144528 0.127046 -0.044489 86158.400000 0 0 1
6.793587 27.150478 11.395933 30.218679 1.325611 1.184116 0.113622 -0.046275 -799971.000000 0 0 1
7.516087 27.456878 10.277833 30.265584 1.303601 1.224317 0.094899 -0.038335 -529552.000000 0 0 1
7.858087 28.820878 10.072333 31.525298 1.304614 1.245595 0.112373 -0.041592 -139864.000000 0 0 1
7.727887 29.333078 8.601033 31.529787 1.313197 1.294504 0.098668 -0.027863 -308255.000000 0 0 1
6.410087 29.321878 8.126533 31.095052 1.355571 1.306381 0.087646 -0.020565 -535339.000000 0 0 1
6.227587 28.230778 7.270233 29.809662 1.353678 1.324423 0.078246 -0.016460 117810.000000 0 0 1
4.729087 27.911878 7.041133 29.172157 1.402961 1.327024 0.095036 -0.025305 209058.000000 0 0 1
4.025687 28.814778 6.233433 29.754886 1.431986 1.359740 0.099568 -0.014940 -431477.000000 0 0 1
2.647387 28.795578 6.507633 29.640230 1.479117 1.349439 0.090405 -0.003945 120398.000000 0 0 1
1.783587 29.652078 5.503233 30.211132 1.510718 1.387614 0.104776 -0.006993 118409.000000 0 0 1
1.510787 29.046478 4.289533 29.400348 1.518830 1.424373 0.108812 -0.009684 -196010.000000 0 0 1
1.099987 29.984078 3.400133 30.196288 1.534127 1.457956 0.100770 -0.015155 -35931.100000 0 0 1
0.176887 29.335878 2.320133 29.428014 1.564767 1.491873 0.107297 -0.026162 272208.000000 0 0 1
0.902487 28.529778 1.409933 28.578849 1.539174 1.521441 0.106227 -0.027413 332484.000000 0 0 1
0.084287 27.485178 0.861533 27.498806 1.567730 1.539461 0.106811 -0.035042 177890.000000 0 0 1
-0.275513 27.685478 -0.596067 27.693264 -1.560845 1.592322 0.100992 -0.041278 -103909.000000 0 0 1
-1.235613 28.702678 -0.789967 28.740120 -1.527774 1.598286 0.114417 -0.040985 -33634.300000 0 0 1
-1.079013 29.265478 -2.091367 29.359944 -1.533943 1.642089 0.101960 -0.036240 -124176.000000 0 0 1
-2.130813 30.367478 -2.444367 30.540121 -1.500744 1.650920 0.126584 -0.032990 1337400.000000 0 0 1
-3.475213 29.986478 -2.826367 30.319207 -1.455418 1.664152 0.122663 -0.035113 1077960.000000 0 0 1
-3.678413 29.039478 -3.858267 29.524705 -1.444798 1.701850 0.088552 -0.038817 -998303.000000 0 0 1
-5.130313 28.801278 -4.298567 29.568757 -1.394517 1.716689 0.102960 -0.029374 -241565.000000 0 0 1
-5.642913 29.884978 -5.015967 30.823924 -1.384172 1.734253 0.108632 -0.034756 96505.000000 0 0 1
-6.647613 29.486078 -5.939867 30.804246 -1.349054 1.764838 0.100713 -0.035935 77409.400000 0 0 1
-7.233813 30.592178 -6.857567 32.175078 -1.338602 1.785577 0.104938 -0.033418 248924.000000 0 0 1
-8.214213 31.278878 -6.069367 32.904084 -1.313983 1.756315 0.095287 -0.026403 -50392.100000 0 0 1
-8.594213 32.435978 -6.793067 34.235930 -1.311789 1.770541 0.090182 -0.038184 99456.900000 0 0 1
-9.709513 33.336978 -6.196167 35.270685 -1.287383 1.747387 0.099273 -0.035147 720240.000000 0 0 1
-11.050913 32.881278 -6.313067 35.258417 -1.246571 1.750818 0.111197 -0.037095 275048.000000 0 0 1
-11.912713 -33.666093 -5.610167 36.149586 1.230697 1.726619 0.119622 -0.036526 288544.000000 0 0 1
-13.402213 33.411278 -5.550967 36.424525 -1.189318 1.723789 0.147298 -0.039937 293783.000000 0 0 1
-14.069713 33.621678 -6.800067 37.075800 -1.174468 1.755250 0.136370 -0.038168 896740.000000 0 0 1
-15.456513 33.255878 -6.810867 37.299398 -1.135723 1.754427 0.154124 -0.048432 541048.000000 0 0 1
-16.106613 33.023378 -8.194167 37.644533 -1.117010 1.790225 0.181620 -0.049940 1126950.000000 0 0 1
-17.517513 32.736078 -8.199567 38.022979 -1.079454 1.788151 0.222331 -0.042970 1107900.000000 0 0 1
-18.343213 -33.588593 -8.437167 39.189959 1.070941 1.787784 0.231863 -0.046528 -719962.000000 0 0 1
-19.807113 33.470678 -8.744867 39.863275 -1.036447 1.791967 0.220977 -0.048557 -51147.900000 0 0 1
-20.531113 32.845778 -7.706667 39.493853 -1.012142 1.767192 0.207023 -0.051570 22557.900000 0 0 1
-20.852513 -33.726193 -6.632067 40.202832 1.017038 1.736519 0.188229 -0.051169 -828714.000000 0 0 1
-21.490113 33.160778 -5.409167 39.883847 -0.995787 1.706839 0.187475 -0.047921 -444831.000000 0 0 1
-21.335313 -33.441593 -4.288267 39.898935 1.002912 1.678483 0.179473 -0.052280 458316.000000 0 0 1
-22.304513 -33.502693 -3.216767 40.376594 0.983427 1.650550 0.185328 -0.044611 618234.000000 0 0 1
-23.582913 -32.662393 -3.458467 40.434474 0.945444 1.656434 0.221241 -0.063675 -161746.000000 0 0 1
-24.273713 -33.009293 -4.594767 41.230310 0.936731 1.682470 0.228640 -0.071605 512855.000000 0 0 1
-25.413403 -32.116293 -4.816367 41.237056 0.901387 1.687861 0.231736 -0.085126 1586390.000000 0 0 1
-26.222673 -32.395493 -6.163667 42.131786 0.890317 1.717618 0.269584 -0.074241 1196690.000000 0 0 1
-25.265253 -32.226293 -7.261967 41.588498 0.905891 1.746311 0.274844 -0.058757 943273.000000 0 0 1
-25.567863 -32.959993 -8.484067 42.568253 0.911034 1.771445 0.215504 -0.055606 -480088.000000 0 0 1
-26.772133 -32.461193 -9.267767 43.085586 0.881149 1.787592 0.175880 -0.038797 -1124720.000000 0 0 1
-28.009993 -32.647793 -8.668767 43.881496 0.861708 1.769654 0.205575 -0.034238 -846544.000000 0 0 1
-29.087903 -31.994093 -9.261967 44.221173 0.832941 1.781805 0.112096 -0.031064 -353654.000000 0 0 1
-29.182523 -30.457093 -8.865767 43.102854 0.806766 1.777964 0.099096 -0.011766 -153861.000000 0 0 1
-28.303523 -29.522093 -9.545167 41.997067 0.806468 1.800082 0.111725 -0.012034 337899.000000 0 0 1
-28.662973 -29.301393 -10.900267 42.414072 0.796412 1.830709 0.101553 -0.001532 -204791.000000 0 0 1
-27.786363 -28.279793 -11.663567 41.326353 0.794199 1.856915 0.141678 -0.002725 -808595.000000 0 0 1
-26.559033 -28.837593 -11.962367 40.988868 0.826507 1.866951 0.130926 -0.014994 -812038.000000 0 0 1
-25.771463 -27.923193 -12.729967 40.073995 0.825450 1.894059 0.119101 -0.018734 1227230.000000 0 0 1
-24.313013 -28.441693 -13.108667 39.647064 0.863501 1.907772 0.136094 -0.025863 1204210.000000 0 0 1
-24.269613 -29.544093 -14.003667 40.718181 0.883100 1.921881 0.154273 -0.038322 -190784.000000 0 0 1
-24.439013 -30.801993 -13.351467 41.524569 0.900079 1.898143 0.146592 -0.042257 -83755.100000 0 0 1
-24.476813 -32.052093 -14.322967 42.797178 0.918612 1.912052 0.156239 -0.036310 40101.700000 0 0 1
-24.871613 -33.206893 -13.566467 43.650246 0.927942 1.886830 0.140254 -0.045032 122992.000000 0 0 1
-24.720013 32.978778 -14.193467 43.590519 -0.927568 1.902452 0.143551 -0.039054 -326762.000000 0 0 1
-24.956673 31.880078 -13.161667 42.572343 -0.906613 1.885106 0.115898 -0.045113 94920.900000 0 0 1
-24.041413 31.635478 -12.077867 41.529121 -0.920957 1.865889 0.109021 -0.043810 378112.000000 0 0 1
-23.726113 32.645978 -11.144767 41.867579 -0.942329 1.840235 0.166202 -0.048515 65396.500000 0 0 1
-23.001713 32.028778 -9.933067 40.664324 -0.947988 1.817563 0.157404 -0.045805 -515988.000000 0 0 1
-23.942713 31.279978 -9.268467 40.467209 -0.917491 1.801884 0.152773 -0.047476 -416154.000000 0 0 1
-23.429713 30.684978 -8.155067 39.459149 -0.918675 1.778968 0.147944 -0.045807 210973.000000 0 0 1
-24.450213 29.711078 -7.455467 39.193686 -0.882228 1.762184 0.139610 -0.039329 388339.000000 0 0 1
-24.963373 28.621078 -8.197567 38.852750 -0.853553 1.783385 0.131445 -0.006628 253937.000000 0 0 1
-25.649773 27.622478 -7.413967 38.417171 -0.822412 1.765001 0.128969 -0.001354 -735722.000000 0 0 1
-24.884113 26.345178 -7.129867 36.934029 -0.813911 1.765059 0.127128 -0.009634 -229986.000000 0 0 1
-23.822113 26.778078 -6.275067 36.385918 -0.843750 1.744122 0.142930 -0.011609 -22540.200000 0 0 1
-23.143513 25.779578 -5.561567 35.087603 -0.839228 1.729973 0.119873 -0.023691 -466582.000000 0 0 1
-21.814613 26.396778 -5.084867 34.619692 -0.880157 1.718208 0.102166 -0.039322 -312340.000000 0 0 1
-20.849213 26.424078 -6.107167 34.208465 -0.902784 1.750287 0.107495 -0.038414 148864.000000 0 0 1
-19.720713 27.235278 -5.815967 34.124659 -0.944087 1.742065 0.130449 -0.042638 419483.000000 0 0 1
-18.562813 27.280078 -6.836367 33.697427 -0.973310 1.775089 0.142786 -0.042148 -40514.700000 0 0 1
-18.830013 27.806278 -8.146467 34.556091 -0.975547 1.808783 0.136317 -0.047695 -14225.400000 0 0 1
-18.793013 29.221978 -8.106267 35.676503 -0.999278 1.800014 0.156708 -0.046934 -128555.000000 0 0 1
-18.654213 29.889078 -9.482767 36.486429 -1.012834 1.833713 0.154693 -0.039293 -406155.000000 0 0 1
-17.337813 29.940978 -9.947667 36.000250 -1.045911 1.850761 0.143769 -0.045963 -358119.000000 0 0 1
-17.336513 30.695178 -11.146667 36.972920 -1.056664 1.877043 0.143034 -0.039891 247489.000000 0 0 1
-15.901913 30.838378 -11.729067 36.625775 -1.094705 1.896780 0.138075 -0.043247 332985.000000 0 0 1
-15.706413 31.503478 -12.953067 37.509232 -1.108300 1.923387 0.136137 -0.037049 -188383.000000 0 0 1
-16.062013 30.665878 -14.076167 37.370079 -1.088310 1.956995 0.132487 -0.041698 82087.900000 0 0 1
-15.604713 31.292978 -15.406767 38.211595 -1.108217 1.985803 0.163406 -0.047021 1332180.000000 0 0 1
-14.167313 31.414878 -15.515467 37.793347 -1.147132 1.993836 0.175075 -0.061211 834292.000000 0 0 1
-13.873113 31.444778 -16.890767 38.295370 -1.155293 2.027582 0.161063 -0.064876 -977011.000000 0 0 1
-12.481513 31.912178 -17.238867 38.358230 -1.197968 2.036910 0.177670 -0.069130 -1034900.000000 0 0 1
-11.556713 30.859378 -17.083367 37.117385 -1.212468 2.049076 0.190308 -0.076300 -315712.000000 0 0 1
-10.265313 31.059878 -17.606167 37.149291 -1.251597 2.064545 0.189403 -0.070745 144303.000000 0 0 1
-10.103213 30.917978 -19.141967 37.741372 -1.254960 2.102715 0.183091 -0.077253 -592132.000000 0 0 1
-10.207413 29.603378 -19.578667 36.930685 -1.238756 2.129569 0.176704 -0.066860 -13835.500000 0 0 1
-10.309313 29.413778 -20.951867 37.555732 -1.233683 2.162634 0.174240 -0.071310 229625.000000 0 0 1
-11.771613 29.221978 -21.456767 38.116764 -1.187849 2.168713 0.153791 -0.055869 -12167.200000 0 0 1
-12.494013 30.367378 -21.187767 39.079400 -1.180477 2.143817 0.150712 -0.049277 -1606240.000000 0 0 1
-13.829913 30.091878 -20.975567 39.201557 -1.139996 2.135387 0.136378 -0.048849 -890329.000000 0 0 1
-14.648613 31.390678 -21.127567 40.575000 -1.134179 2.118472 0.164961 -0.054889 -75608.100000 0 0 1
-15.144813 31.584378 -22.463667 41.611953 -1.123680 2.141040 0.118285 -0.042931 -35903.200000 0 0 1
-15.858613 32.789278 -22.591967 42.860580 -1.120312 2.125985 0.101718 -0.046009 -251907.000000 0 0 1
-16.651213 32.905078 -23.865567 43.926898 -1.102330 2.145161 0.083774 -0.027088 -456767.000000 0 0 1
-15.793513 32.863178 -24.981867 44.198611 -1.122802 2.171494 0.095888 -0.035170 -372431.000000 0 0 1
-16.361313 32.778678 -26.248967 45.068199 -1.107833 2.192508 0.098707 -0.024549 -103265.000000 0 0 1
-16.904313 -33.382393 -26.920767 46.096287 1.102054 2.194458 0.084461 -0.020097 509729.000000 0 0 1
-18.115413 -32.875993 -26.382567 45.880704 1.067168 2.183431 0.090125 -0.022762 80244.900000 0 0 1
-18.629313 -31.818393 -27.203667 45.820312 1.041115 2.206449 0.085669 -0.010384 268541.000000 0 0 1
-20.021413 -31.310493 -26.730367 45.778997 1.001875 2.194321 0.097971 -0.022377 175101.000000 0 0 1
-20.977313 -32.286393 -27.041367 47.049914 0.994614 2.183080 0.107771 -0.021553 -401264.000000 0 0 1
-22.308913 -31.826993 -26.804367 47.213549 0.959438 2.174537 0.094231 -0.025480 1019300.000000 0 0 1
-23.379713 -32.945493 -27.007867 48.594665 0.953624 2.160095 0.074760 -0.016919 326735.000000 0 0 1
-23.409813 33.501878 -25.996167 48.437546 -0.960902 2.137311 0.100692 -0.024754 -528593.000000 0 0 1
-24.468713 32.590178 -26.154167 48.423941 -0.926783 2.141362 0.071884 -0.015444 88439.000000 0 0 1
-24.213713 31.330178 -27.004267 47.928221 -0.912827 2.169330 0.075508 -0.015594 161639.000000 0 0 1
-23.369013 30.363678 -26.373867 46.514993 -0.914845 2.173652 0.079549 -0.035707 131061.000000 0 0 1
-24.082913 29.277678 -25.776967 45.843442 -0.882444 2.167940 0.063395 -0.026992 -11338.500000 0 0 1
33.437401 9.652778 -26.552502 43.775236 0.281041 2.222529 0.091180 -0.021621 -320404.000000 0 0 1
32.902051 8.369278 -26.307422 42.949624 0.249087 2.230039 0.076143 -0.015214 719245.000000 0 0 1
31.470171 8.379078 -26.227022 41.814319 0.260218 2.248783 0.096130 -0.021971 896656.000000 0 0 1
30.901001 7.000378 -25.758282 40.833396 0.222782 2.253398 0.084177 -0.019707 40194.400000 0 0 1
30.937901 6.859378 -24.358932 39.969518 0.218185 2.226148 0.069335 0.000996 138622.000000 0 0 1
30.277101 5.647678 -24.016732 39.056402 0.184414 2.233086 0.078021 -0.001850 195390.000000 0 0 1
30.235801 5.352578 -22.498932 38.066464 0.175213 2.203148 0.081751 -0.002179 -126827.000000 0 0 1
31.502651 5.058578 -21.966932 38.736963 0.159217 2.173752 0.099976 -0.008865 -3201.400000 0 0 1
31.404401 4.842878 -20.571332 37.853264 0.153005 2.145337 0.090566 -0.008634 80655.700000 0 0 1
32.745631 4.633778 -19.796432 38.544091 0.140575 2.110177 0.089664 -0.012272 717309.000000 0 0 1
33.501081 3.419278 -19.978732 39.155633 0.101712 2.106259 0.103223 -0.009360 689342.000000 0 0 1
34.263341 3.052078 -18.844232 39.222402 0.088843 2.071959 0.111746 -0.014669 101418.000000 0 0 1
34.810951 1.605478 -18.769432 39.581201 0.046087 2.064852 0.121159 -0.023670 88316.400000 0 0 1
33.766211 0.683178 -18.554832 38.534472 0.020230 2.073176 0.109025 -0.019298 236515.000000 0 0 1
34.280461 -0.628522 -18.660832 39.035518 -0.018333 2.069227 0.117701 -0.017370 255864.000000 0 0 1
33.228081 -1.731722 -18.346132 37.995852 -0.052069 2.074698 0.118779 -0.017813 226271.000000 0 0 1
33.158711 -1.983022 -16.960632 37.297393 -0.059733 2.042877 0.133039 -0.020952 321880.000000 0 0 1
31.922371 -1.576322 -16.392432 35.919833 -0.049340 2.044698 0.124423 -0.029385 100031.000000 0 0 1
31.894411 -2.063922 -14.919232 35.271755 -0.064621 2.007527 0.131561 -0.026035 51410.300000 0 0 1
31.633041 -3.464322 -14.683332 35.046413 -0.109081 2.003105 0.127445 -0.033880 744748.000000 0 0 1
30.694901 -3.725622 -13.616232 33.785485 -0.120785 1.985611 0.121496 -0.031919 352915.000000 0 0 1
30.503601 -5.215722 -13.255832 33.665866 -0.169349 1.975501 0.122846 -0.033381 227127.000000 0 0 1
29.811201 -5.995522 -14.268732 33.589443 -0.198469 2.009535 0.102352 -0.039321 622633.000000 0 0 1
29.504701 -7.298222 -13.797032 33.378878 -0.242490 1.996922 0.109241 -0.040729 -312605.000000 0 0 1
28.819001 -8.111322 -14.874632 33.430271 -0.274360 2.031909 0.085121 -0.032590 91480.000000 0 0 1
27.545101 -7.618122 -15.266832 32.401304 -0.269824 2.061424 0.102141 -0.033974 -14455.900000 0 0 1
26.896701 -8.470522 -16.149232 32.495845 -0.305095 2.090892 0.091786 -0.025684 -84698.800000 0 0 1
25.482001 -7.942722 -16.452732 31.354610 -0.302155 2.123195 0.078979 -0.026804 -282447.000000 0 0 1
25.546101 -6.783622 -17.231032 31.552009 -0.259554 2.148516 0.065933 -0.024878 885047.000000 0 0 1
24.230901 -6.300922 -17.600032 30.603910 -0.254402 2.183512 0.096340 -0.030391 1298330.000000 0 0 1
23.722201 -6.729122 -19.019732 31.141196 -0.276403 2.227814 0.057047 -0.015201 249267.000000 0 0 1
24.438601 -5.899422 -19.910532 32.069887 -0.236866 2.240621 0.054133 -0.026329 352535.000000 0 0 1
24.189001 -6.358122 -21.244032 32.815277 -0.257037 2.274941 0.073003 -0.018107 200929.000000 0 0 1
24.806801 -5.429222 -22.355232 33.832089 -0.215463 2.292641 0.069384 -0.019039 88130.700000 0 0 1
24.620001 -5.950822 -23.652032 34.655091 -0.237158 2.321971 0.083355 -0.027909 196081.000000 0 0 1
24.946101 -5.028022 -24.660932 35.436571 -0.198891 2.340493 0.067769 -0.029495 -190141.000000 0 0 1
24.873101 -5.601422 -26.088992 36.478522 -0.221505 2.367689 0.078107 -0.034541 390788.000000 0 0 1
23.522001 -5.810622 -26.492392 35.901180 -0.242181 2.400787 0.083983 -0.035461 278372.000000 0 0 1
23.469401 -6.047222 -27.889012 36.948324 -0.252179 2.426163 0.085521 -0.039717 -169306.000000 0 0 1
22.132501 -6.555722 -28.418122 36.611675 -0.287970 2.459419 0.087069 -0.041926 -371298.000000 0 0 1
22.144501 -7.983522 -28.209762 36.741070 -0.346015 2.446195 0.080841 -0.038415 1139590.000000 0 0 1
20.835401 -8.589122 -28.252992 36.140262 -0.391011 2.468279 0.094861 -0.040703 492471.000000 0 0 1
20.921701 -10.106622 -27.902522 36.309945 -0.450011 2.447218 0.109732 -0.029796 214191.000000 0 0 1
19.692301 -10.712022 -27.459752 35.448161 -0.498202 2.456950 0.120103 -0.032922 1026850.000000 0 0 1
19.857201 -12.039122 -26.974932 35.593481 -0.545028 2.430826 0.118486 -0.032234 -432240.000000 0 0 1
19.972401 -13.180022 -28.002282 36.833919 -0.583312 2.434465 0.107970 -0.023031 -500268.000000 0 0 1
18.791801 -13.552822 -28.641332 36.839336 -0.624819 2.461423 0.094244 -0.022801 -183199.000000 0 0 1
19.017801 -14.613322 -29.530042 38.042730 -0.655175 2.459466 0.087840 -0.023668 -155461.000000 0 0 1
17.818101 -14.885622 -30.460772 38.300458 -0.695969 2.490317 0.093925 -0.022827 58761.800000 0 0 1
16.714801 -15.447222 -29.762292 37.467256 -0.746006 2.488741 0.109477 -0.027489 421994.000000 0 0 1
15.663801 -15.728022 -30.686302 37.873137 -0.787444 2.515357 0.104258 -0.032126 364728.000000 0 0 1
14.359201 -16.191622 -29.976062 36.971876 -0.845306 2.516280 0.111478 -0.041008 285504.000000 0 0 1
14.560001 -17.463522 -29.463022 37.216098 -0.875819 2.484341 0.103923 -0.038045 -353553.000000 0 0 1
13.508201 -17.827022 -28.636762 36.336461 -0.922362 2.478512 0.098513 -0.034025 -330753.000000 0 0 1
13.766701 -19.181822 -27.969472 36.602674 -0.948293 2.440499 0.090499 -0.030863 656914.000000 0 0 1
14.815101 -19.171722 -26.969762 36.254796 -0.912889 2.409676 0.101283 -0.028543 463307.000000 0 0 1
14.979301 -20.407522 -26.309822 36.511001 -0.937608 2.375463 0.073913 -0.023957 152064.000000 0 0 1
16.022901 -20.398422 -25.136872 36.120511 -0.904961 2.340492 0.064445 -0.013841 -440498.000000 0 0 1
17.325101 -20.358022 -25.632372 37.035479 -0.865710 2.335195 0.079749 -0.019473 -399356.000000 0 0 1
18.190401 -20.326422 -24.494532 36.661100 -0.840798 2.302495 0.077382 -0.011914 -212806.000000 0 0 1
19.695801 -20.576322 -24.699032 37.700820 -0.807259 2.285154 0.052175 -0.005990 88016.400000 0 0 1
20.160401 -21.910322 -24.914432 38.823098 -0.826969 2.267565 0.079223 -0.018272 260923.000000 0 0 1
19.772601 -22.823022 -23.897932 38.509184 -0.856890 2.240275 0.078811 -0.024630 -743185.000000 0 0 1
20.371001 -24.235922 -24.085232 39.780096 -0.871826 2.221139 0.085138 -0.029888 -682464.000000 0 0 1
21.718601 -24.221522 -23.710332 40.256175 -0.839827 2.200600 0.102859 -0.034822 -436847.000000 0 0 1
22.136401 -25.455132 -23.250332 40.970257 -0.855019 2.174254 0.117818 -0.044441 -297969.000000 0 0 1
21.964201 -25.666962 -21.767732 40.187725 -0.862980 2.143197 0.130457 -0.043929 -138935.000000 0 0 1
20.636101 -25.923092 -21.332232 39.407100 -0.898468 2.142814 0.103399 -0.035003 262955.000000 0 0 1
20.606401 -26.115872 -19.961432 38.795893 -0.902776 2.111249 0.103201 -0.038683 -10326.100000 0 0 1
19.253101 -26.608922 -19.411632 38.151384 -0.944434 2.104593 0.091772 -0.029996 -644301.000000 0 0 1
18.960101 -27.955472 -19.738732 39.123029 -0.974834 2.099634 0.092947 -0.034649 -232225.000000 0 0 1
17.924601 -28.520552 -18.980232 38.664744 -1.009698 2.083910 0.087299 -0.028560 636941.000000 0 0 1
16.485701 -28.123542 -19.473632 37.972810 -1.040594 2.109275 0.077028 -0.025987 164156.000000 0 0 1
15.991601 -26.897892 -18.863732 36.538586 -1.034409 2.113285 0.076720 -0.024388 181601.000000 0 0 1
14.660501 -26.739152 -19.343632 36.112168 -1.069276 2.136079 0.060926 -0.012575 280886.000000 0 0 1
13.706301 -25.839102 -18.558432 34.640111 -1.083088 2.136192 0.047853 -0.019139 -322985.000000 0 0 1
13.032901 -26.585232 -17.537332 34.412049 -1.114995 2.105548 0.049693 -0.018129 -127459.000000 0 0 1
12.216401 -25.734752 -16.740932 33.042045 -1.127589 2.102097 0.063530 -0.023900 649698.000000 0 0 1
10.698001 -25.860202 -17.102032 32.797512 -1.178548 2.119337 0.070439 -0.018798 16487.800000 0 0 1
10.037701 -26.897402 -16.366832 33.046919 -1.213618 2.088931 0.067407 -0.012559 -282314.000000 0 0 1
8.647001 -26.686692 -16.439232 32.514589 -1.257452 2.100868 0.064073 -0.006722 278956.000000 0 0 1
7.925801 -27.497902 -17.563832 33.577390 -1.290170 2.121263 0.064905 0.000333 -241680.000000 0 0 1
8.028001 -26.880622 -18.846732 33.796686 -1.280575 2.162349 0.076307 -0.000655 -144150.000000 0 0 1
7.408301 -27.686652 -19.821432 34.847135 -1.309345 2.175856 0.073614 0.002220 -122560.000000 0 0 1
7.408301 -27.135312 -21.290232 35.277218 -1.304278 2.218695 0.069434 -0.006204 -265504.000000 0 0 1
6.594001 -25.973882 -21.414032 34.302831 -1.322178 2.244986 0.090628 -0.007349 197149.000000 0 0 1
6.612401 -25.318242 -22.697432 34.639727 -1.315331 2.285300 0.082592 -0.008133 -444519.000000 0 0 1
5.304901 -24.549022 -22.939632 34.015044 -1.357975 2.310944 0.063901 -0.008566 -217269.000000 0 0 1
4.279201 -25.470562 -23.263732 34.760068 -1.404345 2.304017 0.060126 -0.002890 243324.000000 0 0 1
3.137401 -24.793622 -23.799832 34.510853 -1.444925 2.331779 0.070298 -0.005655 34075.200000 0 0 1
2.104301 -25.650892 -24.460632 35.506603 -1.488943 2.330772 0.045541 -0.008448 -488537.000000 0 0 1
2.585901 -26.310542 -25.613702 36.810233 -1.472827 2.340373 0.053935 -0.010786 199130.000000 0 0 1
1.564801 -27.046412 -26.269392 37.736428 -1.513005 2.340787 0.076910 -0.023643 296388.000000 0 0 1
2.177101 -27.985142 -27.324912 39.173445 -1.493158 2.342750 0.073255 -0.027779 -338920.000000 0 0 1
2.635001 -27.380672 -28.571342 39.660636 -1.474856 2.375169 0.064293 -0.025648 441062.000000 0 0 1
3.244101 -28.387262 -29.445382 41.029153 -1.457010 2.371247 0.088233 -0.034378 -148042.000000 0 0 1
4.663601 -28.791592 -29.078122 41.185460 -1.410213 2.354671 0.094146 -0.035119 -1069100.000000 0 0 1
4.802401 -29.726692 -27.972722 41.100030 -1.410628 2.319379 0.075508 -0.043412 -832265.000000 0 0 1
5.928601 -30.511732 -28.119062 41.914148 -1.378882 2.306181 0.091226 -0.042842 -703925.000000 0 0 1
6.082101 -31.769612 -27.179482 42.249550 -1.381641 2.269608 0.108030 -0.055414 323835.000000 0 0 1
5.007201 -32.718442 -27.285002 42.895686 -1.418935 2.260201 0.094134 -0.063349 584112.000000 0 0 1
5.424501 33.441630 -26.892772 43.254931 1.409989 2.241742 0.097757 -0.061102 -13069.800000 0 0 1
4.237901 32.505320 -26.525132 42.167977 1.441152 2.251108 0.124406 -0.054362 292867.000000 0 0 1
3.499701 32.170960 -27.708912 42.602845 1.462438 2.278908 0.111982 -0.059948 -490390.000000 0 0 1
2.142101 32.160875 -27.438482 42.329432 1.504289 2.276031 0.067278 -0.059861 -948331.000000 0 0 1
1.186301 32.384628 -28.604852 43.225097 1.534181 2.293967 0.100658 -0.057708 -259319.000000 0 0 1
0.810301 31.322049 -29.402612 42.967906 1.544932 2.324429 0.130781 -0.054736 -349522.000000 0 0 1
-0.021099 31.794086 -30.407602 43.994166 -1.570133 2.333908 0.136866 -0.047251 -114786.000000 0 0 1
-0.262999 30.710049 -31.522662 44.009710 -1.562233 2.369233 0.121704 -0.045363 -450147.000000 0 0 1
0.874001 30.622069 -32.310102 44.524350 1.542263 2.382808 0.136566 -0.037330 -408557.000000 0 0 1
0.871001 29.449129 -33.114992 44.323950 1.541229 2.414504 0.153031 -0.035109 338226.000000 0 0 1
2.206101 29.185309 33.493433 44.479874 1.495350 0.718184 0.143645 -0.025878 393073.000000 0 0 1
2.445901 30.188739 32.558558 44.467989 1.489953 0.749280 0.136760 -0.021771 -446324.000000 0 0 1
3.488501 29.776869 31.706740 43.636555 1.454173 0.757422 0.131636 -0.022580 -200696.000000 0 0 1
3.210201 28.715289 30.603413 42.088503 1.459464 0.756678 0.131591 -0.012857 -130279.000000 0 0 1
2.946301 27.393239 31.106603 41.553471 1.463652 0.724860 0.135671 -0.010136 334764.000000 0 0 1
4.075301 26.530399 30.905293 40.934182 1.418379 0.715143 0.126947 -0.010386 456579.000000 0 0 1
3.772901 24.992399 31.096983 40.073397 1.420966 0.682496 0.128127 -0.019134 221466.000000 0 0 1
2.851401 24.472479 30.141703 38.930129 1.454805 0.685265 0.124180 -0.004974 164715.000000 0 0 1
2.774301 23.063939 30.146443 38.058508 1.451084 0.656542 0.110456 0.000731 585495.000000 0 0 1
1.677401 22.452449 29.183293 36.859066 1.496226 0.657122 0.108158 0.001815 1119710.000000 0 0 1
0.326301 22.627109 29.609173 37.266549 1.556377 0.652573 0.088708 0.004119 563365.000000 0 0 1
-0.584599 21.859249 28.830273 36.184985 -1.544059 0.648904 0.111064 0.000979 127723.000000 0 0 1
-1.944999 21.624649 29.498953 36.627813 -1.481094 0.634496 0.104075 0.002369 -471216.000000 0 0 1
-2.699299 22.772169 29.750763 37.562824 -1.452812 0.656675 0.109908 -0.001076 801698.000000 0 0 1
-4.066899 22.349249 29.943633 37.585233 -1.390796 0.649004 0.078323 -0.006780 1214530.000000 0 0 1
-5.029799 23.465919 30.475533 38.790544 -1.359646 0.667061 0.056284 -0.017609 236932.000000 0 0 1
-4.894999 23.725069 31.854940 40.019709 -1.367330 0.650169 0.065181 -0.008414 -104129.000000 0 0 1
-5.718799 24.798639 32.154608 41.007267 -1.344149 0.669520 0.057162 -0.016151 -289392.000000 0 0 1
-5.867999 25.059539 33.674783 42.384017 -1.340778 0.652586 0.091584 -0.009239 -334480.000000 0 0 1
-6.910999 25.939149 -33.434022 42.876978 -1.310414 2.465089 0.075241 -0.003269 -354835.000000 0 0 1
-7.149199 26.227839 -32.081222 42.050154 -1.304681 2.438626 0.079119 -0.003637 815708.000000 0 0 1
-8.600099 26.788879 -31.832482 42.484264 -1.260157 2.417766 0.101229 -0.002138 693963.000000 0 0 1
-8.873899 28.058779 -32.389392 43.762015 -1.264489 2.404054 0.096304 -0.014026 -82731.300000 0 0 1
-10.114599 28.642039 -32.025932 44.139913 -1.231328 2.382637 0.077942 -0.013420 175943.000000 0 0 1
-10.196299 29.165819 -30.565932 43.461313 -1.234480 2.350812 0.072389 -0.009436 -357653.000000 0 0 1
-9.393299 30.278509 -30.222152 43.799551 -1.269981 2.332300 0.093915 -0.013243 133068.000000 0 0 1
-9.538699 30.530299 -28.834862 43.064315 -1.267972 2.304435 0.107390 -0.020182 -148916.000000 0 0 1
-8.671599 31.782339 -28.492552 43.556162 -1.304436 2.283863 0.093856 -0.031859 -274961.000000 0 0 1
-7.308599 31.490004 -28.598192 43.161240 -1.342741 2.295067 0.099778 -0.038251 -571586.000000 0 0 1
-6.606399 32.605092 -28.052332 43.516318 -1.370884 2.271348 0.127134 -0.037907 -998073.000000 0 0 1
-5.107299 32.531136 -27.959892 43.198552 -1.415070 2.274756 0.145396 -0.045491 -1159890.000000 0 0 1
-4.349199 33.679429 -27.635922 43.783144 -1.442372 2.253896 0.171946 -0.053876 135217.000000 0 0 1
-4.084399 -32.863402 -28.698812 43.821312 1.447146 2.284854 0.177937 -0.059780 -352116.000000 0 0 1
-2.961899 -33.266782 -29.662862 44.669196 1.481996 2.297027 0.158354 -0.050845 -619658.000000 0 0 1
-3.308299 33.170871 -30.606442 45.254899 -1.471390 2.313541 0.140852 -0.044020 528548.000000 0 0 1
-4.415299 33.375608 -31.501542 46.106109 -1.439269 2.322987 0.148216 -0.035527 445901.000000 0 0 1
-4.125099 -33.086262 -32.659152 46.672662 1.446759 2.345843 0.114608 -0.041512 -283930.000000 0 0 1
-3.951799 -31.777342 -32.189802 45.404841 1.447072 2.358806 0.123231 -0.056236 293153.000000 0 0 1
-3.319799 -30.857972 -33.076682 45.357496 1.463625 2.388013 0.106542 -0.069327 88769.400000 0 0 1
35.080311 17.565278 12.820633 41.273912 0.464220 1.254948 0.110345 -0.035651 336194.000000 0 0 1
36.456691 17.229478 12.849633 42.320896 0.441489 1.262303 0.102160 -0.045173 102308.000000 0 0 1
36.791881 16.214578 13.768333 42.498494 0.415102 1.240871 0.131272 -0.014888 -311465.000000 0 0 1
-37.902703 15.977678 13.954433 43.435323 -0.398940 1.243727 0.085034 -0.029822 -268618.000000 0 0 1
-37.145383 15.249778 12.998033 42.205261 -0.389562 1.257736 0.084703 -0.005792 -167855.000000 0 0 1
-37.446403 13.898378 12.666833 41.902824 -0.355394 1.263701 0.131385 -0.019216 -911292.000000 0 0 1
-36.250283 13.122778 12.107133 40.408823 -0.347329 1.266506 0.153475 -0.012775 292769.000000 0 0 1
-35.358774 12.545378 13.069033 39.729448 -0.340947 1.235604 0.115389 -0.014039 -36143.500000 0 0 1
-35.865774 11.341378 13.625133 40.007810 -0.306268 1.223282 0.116490 -0.021025 -267988.000000 0 0 1
-35.267537 10.904878 14.964933 39.832960 -0.299880 1.185653 0.143307 -0.042195 -79889.100000 0 0 1
-35.531681 11.794178 16.029233 40.725168 -0.320491 1.166257 0.144239 -0.024107 83572.500000 0 0 1
-34.803703 11.446778 17.169533 40.461331 -0.317751 1.132559 0.136519 -0.019427 -124420.000000 0 0 1
-35.139673 12.423478 18.357233 41.546689 -0.339830 1.113141 0.145648 -0.020784 1288340.000000 0 0 1
-36.497973 12.426078 18.884333 42.931660 -0.328150 1.115343 0.171396 -0.032960 1235730.000000 0 0 1
-36.601803 13.321878 19.992533 43.782026 -0.349064 1.096584 0.184897 -0.031334 -582890.000000 0 0 1
-38.006353 13.355078 20.569033 45.231914 -0.337913 1.098709 0.208175 -0.050572 -600410.000000 0 0 1
37.879471 12.156478 21.220433 45.088147 0.310542 1.080777 0.176444 -0.040257 276551.000000 0 0 1
37.004871 12.295578 22.346063 44.943166 0.320793 1.050419 0.202336 -0.053306 213825.000000 0 0 1
37.019041 10.969778 23.181513 45.034741 0.288085 1.030083 0.158155 -0.049180 -553476.000000 0 0 1
-37.974803 10.702378 23.832853 46.093724 -0.274703 1.027393 0.145519 -0.031729 -464378.000000 0 0 1
-38.026453 10.854978 25.221963 46.904041 -0.278063 1.003048 0.149117 -0.028627 -838045.000000 0 0 1
-36.596113 11.055578 25.734943 46.084580 -0.293380 0.978306 0.125414 -0.032010 -493684.000000 0 0 1
-36.010413 12.278778 25.362063 45.724747 -0.328615 0.982832 0.106658 -0.032680 673224.000000 0 0 1
-35.238599 12.235178 24.084603 44.401875 -0.334187 0.997478 0.107628 -0.034530 441831.000000 0 0 1
-34.372082 13.521978 23.837973 43.960583 -0.374804 0.997674 0.109326 -0.028139 1624210.000000 0 0 1
-33.284363 13.874478 24.759543 43.742255 -0.394945 0.969111 0.066931 -0.031616 1718320.000000 0 0 1
-33.879553 14.278378 26.007223 45.034118 -0.398856 0.955133 0.061706 -0.028359 170539.000000 0 0 1
-32.820793 14.918478 26.978683 45.029043 -0.426626 0.928370 0.065196 -0.019336 206244.000000 0 0 1
-32.314103 16.154078 26.508973 44.809386 -0.463574 0.937762 0.081365 -0.027046 14563.800000 0 0 1
-31.742543 16.913278 27.555003 45.309228 -0.489563 0.917063 0.078087 -0.029301 -304099.000000 0 0 1
-31.180593 18.248878 27.102263 45.163963 -0.529514 0.927188 0.088579 -0.031417 -67640.000000 0 0 1
-32.144033 19.105978 26.495723 45.829036 -0.536282 0.954346 0.094974 -0.051250 422701.000000 0 0 1
-31.560473 20.315878 26.112003 45.723463 -0.571943 0.962969 0.101155 -0.053963 -421898.000000 0 0 1
-32.517673 21.178778 25.292683 46.321264 -0.577289 0.993181 0.113988 -0.037256 -213540.000000 0 0 1
-33.446393 21.820178 26.160983 47.740741 -0.578055 0.990849 0.124492 -0.043663 635155.000000 0 0 1
-34.519979 22.431978 25.466743 48.408445 -0.576253 1.016811 0.129571 -0.037574 -95987.500000 0 0 1
-34.519781 23.996078 25.504993 49.172469 -0.607457 1.025485 0.131655 -0.033887 122640.000000 0 0 1
-35.678624 24.489378 24.842223 49.898195 -0.601532 1.049669 0.134446 -0.028041 356296.000000 0 0 1
-35.720426 25.903078 24.752193 50.592384 -0.627414 1.059570 0.128957 -0.031475 206267.000000 0 0 1
-36.804503 26.402078 23.764393 51.150635 -0.622282 1.087618 0.124567 -0.029926 47893.800000 0 0 1
-36.500363 26.091878 22.412233 50.153472 -0.620616 1.107529 0.140002 -0.030372 277485.000000 0 0 1
-37.436453 26.579278 21.446633 50.674491 -0.617395 1.133796 0.144664 -0.035319 202970.000000 0 0 1
-36.964623 26.339478 19.988533 49.595291 -0.619105 1.155968 0.171767 -0.049758 105653.000000 0 0 1
-37.059613 25.008478 19.592333 48.812891 -0.593624 1.157777 0.168104 -0.046960 21437.700000 0 0 1
-36.523873 24.910678 18.317533 47.854646 -0.598569 1.177999 0.176543 -0.052130 -210754.000000 0 0 1
-36.848123 23.613678 17.561133 47.157007 -0.569907 1.189206 0.177386 -0.039921 451345.000000 0 0 1
-38.018523 23.562278 16.741233 47.758328 -0.554821 1.212648 0.169164 -0.041227 259867.000000 0 0 1
-38.092673 22.365978 15.944533 46.962930 -0.530915 1.224397 0.141481 -0.031535 748226.000000 0 0 1
36.749661 22.234078 15.114033 45.533787 0.544098 1.232447 0.135197 -0.018368 356756.000000 0 0 1
35.823221 21.612378 15.920533 44.764510 0.542847 1.207186 0.143091 -0.030421 -729557.000000 0 0 1
34.635791 21.418478 15.166933 43.456013 0.553833 1.214273 0.123872 -0.028022 -603251.000000 0 0 1
33.569441 20.536278 15.830533 42.417588 0.549018 1.188333 0.135923 -0.036572 186014.000000 0 0 1
32.789991 21.107978 16.891233 42.497576 0.571957 1.162045 0.132946 -0.033406 102031.000000 0 0 1
31.736951 21.898978 16.374933 41.891976 0.603993 1.169204 0.134841 -0.027106 -310910.000000 0 0 1
30.827801 22.518178 17.479733 41.987649 0.630871 1.141417 0.116154 -0.026444 237742.000000 0 0 1
31.553651 23.322778 18.373533 43.326338 0.636519 1.132858 0.064101 -0.014257 135047.000000 0 0 1
30.655601 24.014778 19.218733 43.426203 0.664520 1.112344 0.058317 -0.008437 430805.000000 0 0 1
31.462611 24.586278 20.397033 44.837706 0.663324 1.098527 0.063460 -0.012989 449755.000000 0 0 1
32.230421 25.734378 20.031133 45.850894 0.673795 1.118674 0.081091 -0.024913 -563739.000000 0 0 1
33.198251 25.946178 20.988333 47.072689 0.663391 1.108650 0.079521 -0.030089 -149772.000000 0 0 1
34.357741 26.895178 20.493733 48.205788 0.664164 1.131691 0.099817 -0.037779 602136.000000 0 0 1
35.389461 27.342278 21.351233 49.556929 0.657816 1.125370 0.095443 -0.030977 141490.000000 0 0 1
34.965291 28.247378 22.365493 50.206585 0.679521 1.109098 0.050889 -0.015208 -823190.000000 0 0 1
35.945811 28.534278 23.483123 51.553500 0.670957 1.097852 0.051087 -0.025583 -115812.000000 0 0 1
37.086571 29.327678 23.153793 52.646220 0.669100 1.115421 0.090345 -0.032145 110703.000000 0 0 1
37.648201 29.705478 24.370143 53.793181 0.668015 1.100631 0.084742 -0.026983 556050.000000 0 0 1
-37.198643 30.524078 24.240503 53.880055 -0.687158 1.104146 0.079636 -0.035970 1669490.000000 0 0 1
-35.984083 29.792778 24.059003 52.548068 -0.691549 1.095224 0.101931 -0.033181 258742.000000 0 0 1
-34.836446 30.573578 24.032723 52.210089 -0.720319 1.092454 0.105298 -0.026047 115242.000000 0 0 1
-33.505423 29.868178 23.664233 50.741672 -0.728067 1.085617 0.141947 -0.031213 67239.700000 0 0 1
-33.100673 29.832978 22.295853 49.827364 -0.733522 1.106871 0.131651 -0.020597 114189.000000 0 0 1
-33.331763 28.655078 21.566933 48.961745 -0.710094 1.114657 0.137550 -0.018329 -181300.000000 0 0 1
-32.854773 27.219178 22.053533 48.027888 -0.691861 1.093722 0.134329 -0.019100 -718985.000000 0 0 1
-31.471623 27.063878 21.893233 46.927925 -0.710240 1.085434 0.120870 -0.019580 -244488.000000 0 0 1
-30.930513 26.096678 22.733373 46.417017 -0.700837 1.058978 0.126265 -0.020992 -402448.000000 0 0 1
-30.701783 26.530878 24.198043 47.244388 -0.712650 1.033065 0.146060 -0.019308 -498106.000000 0 0 1
-31.836513 26.633878 25.019053 48.465245 -0.696653 1.028357 0.126399 -0.021766 -80736.200000 0 0 1
-31.359113 27.026778 26.290233 49.040973 -0.711332 1.005001 0.140309 -0.033455 7435.590000 0 0 1
-32.415073 27.481178 27.322923 50.522215 -0.703210 0.999396 0.132466 -0.030831 -388733.000000 0 0 1
-33.298463 26.438878 27.634593 50.709689 -0.671070 0.994459 0.121712 -0.030326 -2762.030000 0 0 1
-33.943519 26.772378 28.861373 51.979818 -0.667833 0.982143 0.114260 -0.019553 -226284.000000 0 0 1
-34.769609 25.628678 29.385883 52.242559 -0.635194 0.973403 0.106875 -0.026629 -107113.000000 0 0 1
-34.014495 24.773978 30.184473 51.786468 -0.629491 0.948547 0.117353 -0.039405 365139.000000 0 0 1
-34.884783 23.728878 30.524953 52.074759 -0.597318 0.944466 0.105672 -0.042196 315411.000000 0 0 1
-34.112262 22.704678 31.404752 51.627582 -0.587255 0.916887 0.126205 -0.054792 1091530.000000 0 0 1
-33.032483 22.059378 30.617503 50.151695 -0.588793 0.914107 0.130590 -0.047525 1469490.000000 0 0 1
-32.271453 21.049378 31.276633 49.626109 -0.577962 0.888927 0.123557 -0.047305 513192.000000 0 0 1
-31.344063 21.492778 32.464461 49.983307 -0.601067 0.863862 0.125425 -0.050503 -667301.000000 0 0 1
-32.041113 21.769878 33.653213 51.313733 -0.596791 0.855511 0.154841 -0.048299 158788.000000 0 0 1
-31.332733 21.591178 -32.513802 50.050639 -0.603368 2.277878 0.140591 -0.042701 -588036.000000 0 0 1
-30.248423 22.562478 -32.093232 49.537946 -0.640876 2.275557 0.146920 -0.039942 -456485.000000 0 0 1
-30.609513 23.783378 -31.531882 49.968500 -0.660554 2.253683 0.131942 -0.042340 205592.000000 0 0 1
-29.770743 23.955478 -30.382162 48.818417 -0.677579 2.242538 0.163210 -0.032913 226751.000000 0 0 1
-30.047083 25.210978 -29.555332 49.111488 -0.698102 2.216550 0.132951 -0.030995 -286354.000000 0 0 1
-29.770503 26.413178 -30.256892 49.994183 -0.725713 2.220824 0.137940 -0.031530 -167251.000000 0 0 1
-30.859583 26.937878 -30.969952 51.352713 -0.717649 2.218157 0.118828 -0.030489 -464585.000000 0 0 1
-30.652043 28.306678 -31.610922 52.345641 -0.745639 2.219167 0.129282 -0.028976 3326.740000 0 0 1
-30.813613 29.370278 -30.688182 52.477200 -0.761421 2.195418 0.101501 -0.039568 109575.000000 0 0 1
-30.359593 30.584378 -31.255942 53.235730 -0.789087 2.198297 0.116721 -0.053641 -393652.000000 0 0 1
-30.439963 31.792278 -30.322802 53.449159 -0.807125 2.174045 0.106035 -0.041133 8069.630000 0 0 1
-29.703963 31.802378 -29.120272 52.361311 -0.819502 2.160532 0.092086 -0.030133 -211354.000000 0 0 1
-30.155823 32.741978 -28.196312 52.691962 -0.826492 2.135441 0.066337 -0.022926 -523541.000000 0 0 1
-29.150643 32.888778 -27.034012 51.597185 -0.845580 2.122271 0.051263 -0.013948 -212256.000000 0 0 1
-27.899543 33.445378 -27.287802 51.396517 -0.875557 2.130491 0.055171 -0.015870 -550660.000000 0 0 1
-27.789473 -32.613593 -27.552852 50.941741 0.865094 2.142267 0.058286 -0.005912 -493511.000000 0 0 1
-28.166973 -31.618593 -26.420462 49.911468 0.843067 2.128626 0.055054 -0.001378 741170.000000 0 0 1
-29.567303 -31.379093 -26.231702 50.467565 0.815117 2.117382 0.038940 -0.006181 413329.000000 0 0 1
-29.760233 -30.262593 -25.387532 49.457283 0.793767 2.109848 0.034574 -0.002523 -482320.000000 0 0 1
-31.237903 -29.935793 -25.258172 50.099237 0.764116 2.099209 0.015840 -0.003041 -654765.000000 0 0 1
-31.767913 -29.174693 -26.299432 50.517553 0.742872 2.118350 0.027214 -0.013488 633172.000000 0 0 1
-33.180253 -29.064493 -26.054102 51.229779 0.719372 2.104323 0.031565 -0.016948 662924.000000 0 0 1
-33.866413 -28.127693 -27.095332 51.693888 0.693092 2.122513 0.037071 -0.029218 1342240.000000 0 0 1
-35.311308 -28.337393 -27.119362 52.776474 0.676265 2.110467 0.046035 -0.031070 1250810.000000 0 0 1
-35.785488 -27.783793 -28.308842 53.422195 0.660183 2.129288 0.050049 -0.040457 -1311990.000000 0 0 1
-37.184973 -28.255893 -28.570922 54.748656 0.649791 2.119822 0.045984 -0.040539 -1168940.000000 0 0 1
-38.081743 -27.789693 -27.602872 54.629706 0.630407 2.100494 0.056384 -0.031006 -666761.000000 0 0 1
36.796271 -28.101593 -28.000452 54.108136 -0.652216 2.114712 0.066718 -0.038455 401347.000000 0 0 1
35.732371 -27.269693 -27.141332 52.508003 -0.651874 2.114021 0.078128 -0.026589 419170.000000 0 0 1
35.491061 -27.902393 -25.914772 52.055109 -0.666258 2.091895 0.068928 -0.035807 257465.000000 0 0 1
34.680701 -27.082593 -25.092832 50.654399 -0.662993 2.089061 0.080915 -0.019592 64116.900000 0 0 1
34.426921 -27.642693 -23.655932 50.089265 -0.676530 2.062667 0.063678 -0.012579 390632.000000 0 0 1
33.731201 -28.910393 -23.619832 50.314026 -0.708591 2.059462 0.090555 -0.023158 217522.000000 0 0 1
33.121581 -29.257893 -22.396632 49.544652 -0.723539 2.039858 0.104461 -0.012994 -317654.000000 0 0 1
33.980661 -29.388593 -21.126032 49.645584 -0.713059 2.010352 0.086682 -0.009239 -451256.000000 0 0 1
35.020091 -30.361193 -21.157132 50.949319 -0.714261 1.999023 0.061456 -0.010190 520858.000000 0 0 1
35.883511 -30.304293 -20.023732 51.058069 -0.701303 1.973792 0.026312 0.008801 1566750.000000 0 0 1
37.062721 -29.220693 -20.047932 51.277810 -0.667635 1.972478 0.027976 0.005060 801588.000000 0 0 1
36.455321 -27.938993 -19.870732 50.044218 -0.653908 1.979111 0.028529 0.015291 292698.000000 0 0 1
37.246391 -26.858393 -20.352632 50.228444 -0.624747 1.987995 0.014596 0.011440 -99820.100000 0 0 1
36.479431 -25.525093 -20.340132 48.948955 -0.610533 1.999330 0.018965 0.013383 -81930.900000 0 0 1
35.409391 -25.482293 -21.262132 48.530923 -0.623791 2.024297 0.038993 0.003191 -135154.000000 0 0 1
34.308871 -24.994493 -20.523732 47.149198 -0.629608 2.021160 0.066840 -0.003168 -12123.900000 0 0 1
32.930771 -24.819193 -21.201832 46.367507 -0.645851 2.045704 0.086422 -0.016339 575822.000000 0 0 1
32.168481 -25.996193 -21.401432 46.568600 -0.679676 2.048305 0.111428 -0.026565 -414010.000000 0 0 1
30.855901 -25.808593 -21.811332 45.759199 -0.696559 2.067642 0.122586 -0.036474 -346237.000000 0 0 1
30.053001 -27.058393 -22.170332 46.117926 -0.733012 2.072285 0.141291 -0.037978 -154142.000000 0 0 1
29.728501 -27.915293 -21.103632 45.917433 -0.753953 2.048341 0.147168 -0.035957 257880.000000 0 0 1
29.017501 -29.060293 -21.629632 46.415051 -0.786135 2.055566 0.146172 -0.028370 111578.000000 0 0 1
28.383901 -30.007393 -20.576732 46.146413 -0.813195 2.032977 0.151594 -0.024957 58903.200000 0 0 1
29.239201 -30.478293 -19.545932 46.539238 -0.806144 2.004229 0.152601 -0.022111 64341.200000 0 0 1
30.158301 -31.509093 -19.936832 47.956474 -0.807299 1.999539 0.156866 -0.015404 323515.000000 0 0 1
31.126901 -31.912293 -18.808432 48.384249 -0.797856 1.970050 0.127547 -0.015685 90225.200000 0 0 1
30.489001 -32.411493 -17.599232 47.852033 -0.815953 1.947422 0.131381 -0.016799 -246777.000000 0 0 1
29.674701 -31.573593 -16.889932 46.505370 -0.816391 1.942478 0.104574 -0.018573 -369845.000000 0 0 1
29.066301 -32.218093 -15.609132 46.113993 -0.836782 1.916108 0.094792 -0.014585 629831.000000 0 0 1
27.859901 -32.931393 -15.922632 45.980224 -0.868630 1.924413 0.126939 -0.026361 245447.000000 0 0 1
27.249401 -33.562393 -14.843132 45.708672 -0.888840 1.901526 0.108002 -0.020725 -230466.000000 0 0 1
25.722901 -33.539093 -15.088332 44.879797 -0.916533 1.913669 0.109748 -0.023139 -35347.100000 0 0 1
25.223801 -32.242093 -14.792132 43.527002 -0.906926 1.917541 0.097304 -0.020494 -632849.000000 0 0 1
23.891701 -32.318393 -14.394532 42.690684 -0.934204 1.914718 0.096881 -0.030304 -759838.000000 0 0 1
0.133387 -7.002722 -28.819112 29.658003 -1.551751 2.903182 0.153340 -0.036135 119986.000000 0 0 1
0.531287 -8.324922 -28.748462 29.934273 -1.507064 2.859181 0.151837 -0.034957 -57023.800000 0 0 1
0.096887 -8.903222 -29.960162 31.255209 -1.559915 2.852719 0.169182 -0.049044 -59350.100000 0 0 1
0.465787 -10.383422 -29.883412 31.639386 -1.525968 2.806867 0.195879 -0.040716 -283816.000000 0 0 1
1.809387 -10.659822 -29.613472 31.525600 -1.402660 2.791517 0.111205 -0.043470 -494489.000000 0 0 1
2.002487 -11.946722 -29.060682 31.484240 -1.404722 2.746662 0.136090 -0.046061 -1298290.000000 0 0 1
3.400887 -12.182522 -28.603212 31.274968 -1.298566 2.725245 0.107054 -0.035022 -2242930.000000 0 0 1
4.324287 -12.194122 -29.658132 32.357393 -1.230011 2.730237 0.115497 -0.038663 127423.000000 0 0 1
5.653387 -12.346322 -29.155822 32.162936 -1.141392 2.705724 0.103926 -0.042418 543664.000000 0 0 1
6.086687 -13.738122 -28.681152 32.378886 -1.153736 2.659007 0.105911 -0.045391 -1146710.000000 0 0 1
5.520187 -14.190922 -27.447622 31.388321 -1.199814 2.635104 0.109675 -0.036162 -52661.100000 0 0 1
6.194287 -15.312522 -26.849102 31.523274 -1.186396 2.590061 0.118735 -0.035959 20429.900000 0 0 1
5.892187 -16.734722 -27.391942 32.635675 -1.232258 2.566837 0.089682 -0.038716 -135334.000000 0 0 1
6.369287 -16.907722 -28.700982 33.914382 -1.210528 2.579755 0.103157 -0.052541 90959.800000 0 0 1
6.045587 -18.258622 -29.082292 34.866978 -1.251049 2.557282 0.092232 -0.048479 -92052.400000 0 0 1
6.470387 -18.645922 -30.559502 36.378833 -1.236785 2.568145 0.095198 -0.057918 585636.000000 0 0 1
7.871587 -18.909022 -30.688562 36.895811 -1.176328 2.553072 0.087638 -0.051832 529272.000000 0 0 1
8.149887 -19.730322 -31.814972 38.313167 -1.179079 2.550608 0.090044 -0.048332 68435.400000 0 0 1
9.610087 -19.723222 -32.316402 39.060327 -1.117403 2.545162 0.093252 -0.040016 66014.700000 0 0 1
9.857287 -18.534522 -33.047182 39.151129 -1.082007 2.575667 0.109850 -0.047222 383634.000000 0 0 1
11.160987 -18.510422 -33.627652 39.975272 -1.028205 2.570316 0.106624 -0.044033 170319.000000 0 0 1
11.509287 -17.127222 33.208702 39.097612 -0.979119 0.555988 0.115263 -0.035424 -174092.000000 0 0 1
10.632087 -16.705122 32.177577 37.782255 -1.004001 0.551655 0.126455 -0.036020 -28371.100000 0 0 1
10.756687 -15.280322 31.937794 37.002935 -0.957420 0.529390 0.126463 -0.033420 -155392.000000 0 0 1
9.642587 -14.663722 31.082863 35.695218 -0.989110 0.514000 0.169030 -0.050129 -7694.610000 0 0 1
9.723687 -15.188622 29.779033 34.814295 -1.001344 0.544536 0.175500 -0.049467 364078.000000 0 0 1
8.474687 -15.164522 29.088973 33.881431 -1.061184 0.538357 0.163050 -0.049146 341223.000000 0 0 1
8.607687 -15.852322 27.665163 33.026499 -1.073349 0.577801 0.132771 -0.029995 -541901.000000 0 0 1
8.451387 -17.240922 27.702403 33.706059 -1.115025 0.606089 0.114171 -0.038809 169844.000000 0 0 1
8.488687 -17.851322 26.435773 33.008750 -1.126923 0.642047 0.093387 -0.032328 -346583.000000 0 0 1
7.996987 -19.304422 26.497503 33.745076 -1.178060 0.667736 0.099261 -0.039363 128275.000000 0 0 1
8.690987 -19.880722 27.595983 35.104339 -1.158674 0.666301 0.109338 -0.038153 280976.000000 0 0 1
7.937587 -20.861822 28.247973 36.002345 -1.207227 0.668722 0.095576 -0.043344 -166894.000000 0 0 1
8.497787 -21.151522 29.726453 37.460129 -1.188776 0.654177 0.093257 -0.039862 149356.000000 0 0 1
8.263187 -20.295522 30.867243 37.854658 -1.184147 0.617351 0.112663 -0.045023 131151.000000 0 0 1
8.445587 -18.919022 30.632133 36.980872 -1.150934 0.594687 0.116144 -0.042686 -280848.000000 0 0 1
7.814587 -18.148622 31.805524 37.443712 -1.164202 0.555907 0.112564 -0.038132 687051.000000 0 0 1
6.398987 -18.253122 32.018207 37.407072 -1.233614 0.543430 0.127336 -0.050049 391697.000000 0 0 1
5.893087 -17.385122 33.020230 37.779710 -1.243979 0.507381 0.148052 -0.046091 780658.000000 0 0 1
4.384287 -17.475322 33.414493 37.962312 -1.324985 0.494509 0.155843 -0.054053 727413.000000 0 0 1
4.111687 -18.572622 -33.077632 38.157280 -1.352926 2.619698 0.123229 -0.056345 -183859.000000 0 0 1
2.977987 -18.302922 -32.284042 37.230697 -1.409504 2.620217 0.129519 -0.070473 -205119.000000 0 0 1
2.522987 -19.406222 -31.355512 36.961265 -1.441512 2.583628 0.097153 -0.039631 -746591.000000 0 0 1
1.542487 -20.229622 -31.943982 37.842237 -1.494695 2.575747 0.081192 -0.036929 -182249.000000 0 0 1
0.878587 -21.000022 -30.999632 37.453305 -1.528983 2.545771 0.087209 -0.040638 420120.000000 0 0 1
-0.135513 -20.343922 -29.984422 36.234778 1.564135 2.545444 0.101797 -0.040317 283596.000000 0 0 1
-1.346313 -19.881122 -30.590782 36.508459 1.503181 2.564238 0.115487 -0.043800 518531.000000 0 0 1
-2.096513 -18.909922 -29.831682 35.382337 1.460379 2.573862 0.149260 -0.034582 426692.000000 0 0 1
-1.540713 -17.441822 -29.773102 34.540246 1.482691 2.609965 0.136812 -0.032454 -103281.000000 0 0 1
-2.489813 -16.507722 -29.322822 33.742139 1.421098 2.624028 0.160548 -0.032031 158515.000000 0 0 1
-1.970713 -15.178322 -29.497242 33.231799 1.441681 2.662950 0.176127 -0.038578 645519.000000 0 0 1
-3.087413 -14.150422 -29.127712 32.529836 1.355978 2.680159 0.155669 -0.029817 526917.000000 0 0 1
-3.227513 -13.993022 -27.718482 31.217556 1.344109 2.663585 0.139070 -0.033742 -12250.400000 0 0 1
-4.222613 -13.017122 -27.521182 30.735833 1.257117 2.680148 0.130298 -0.040465 -144791.000000 0 0 1
-4.332913 -12.734222 -26.004232 29.277204 1.242827 2.664225 0.132210 -0.036782 -461716.000000 0 0 1
-4.743713 -13.784522 -25.192022 29.105908 1.239358 2.617003 0.134364 -0.038641 114903.000000 0 0 1
-4.912513 -13.526422 -23.802332 27.814527 1.222429 2.597799 0.107053 -0.037382 65353.500000 0 0 1
-6.137013 -12.649122 -23.433532 27.327526 1.119080 2.601200 0.094818 -0.031646 1371200.000000 0 0 1
-7.443813 -13.279322 -23.516432 28.013806 1.059884 2.567083 0.091671 -0.033689 1054310.000000 0 0 1
-8.501513 -12.346322 -23.625132 27.979533 0.967771 2.576188 0.085740 -0.029647 630524.000000 0 0 1
-9.897313 -12.948322 -23.928432 28.951437 0.918161 2.543662 0.125338 -0.041395 574278.000000 0 0 1
-10.607313 -13.577922 -22.866232 28.631096 0.907613 2.495845 0.100061 -0.038724 269949.000000 0 0 1
-11.862113 -14.111822 -23.274132 29.690714 0.871797 2.471696 0.088542 -0.028918 266478.000000 0 0 1
-12.198713 -15.334722 -22.425932 29.780610 0.898808 2.423464 0.088402 -0.031152 162385.000000 0 0 1
-11.348813 -16.449322 -22.713432 30.253525 0.966864 2.420023 0.082946 -0.032900 -67272.500000 0 0 1
-11.811013 -17.751622 -22.228032 30.801064 0.983707 2.377000 0.090876 -0.036596 542280.000000 0 0 1
-12.873913 -18.506622 -23.121132 32.292715 0.963004 2.368832 0.086719 -0.024603 217806.000000 0 0 1
-14.103113 -17.876322 -23.232532 32.530159 0.902844 2.366255 0.072884 -0.018682 -1117130.000000 0 0 1
-14.869313 -18.484822 -24.222632 33.904587 0.893374 2.366613 0.049314 -0.022931 879241.000000 0 0 1
-16.015113 -17.578422 -24.834232 34.383483 0.831901 2.377878 0.067366 -0.032513 1296960.000000 0 0 1
-17.150913 -17.218122 -24.051832 34.192224 0.787354 2.351008 0.069165 -0.025789 1139650.000000 0 0 1
-18.237213 -16.717922 -24.867732 35.078326 0.741961 2.358762 0.052284 -0.024701 919747.000000 0 0 1
-18.991613 -15.473722 -24.360532 34.547836 0.683680 2.353395 0.068498 -0.023228 69569.900000 0 0 1
-19.723013 -15.711122 -23.188132 34.256767 0.672657 2.314328 0.059301 -0.015504 171566.000000 0 0 1
-20.638013 -14.685122 -22.848032 34.111772 0.618440 2.304734 0.070918 -0.018304 319433.000000 0 0 1
-21.253513 -14.670522 -21.454532 33.574291 0.604161 2.264016 0.061381 -0.022900 -460643.000000 0 0 1
-20.322613 -14.370422 -20.466332 32.224034 0.615485 2.258968 0.080701 -0.017789 -477072.000000 0 0 1
-20.717213 -14.435122 -19.112932 31.668278 0.608555 2.218724 0.082865 -0.024284 69504.700000 0 0 1
-21.450813 -13.116522 -18.610832 31.281682 0.548810 2.207992 0.079311 -0.030241 423634.000000 0 0 1
-22.646013 -12.671822 -19.218532 32.291933 0.510154 2.208248 0.079287 -0.033498 -102509.000000 0 0 1
-23.226413 -11.636522 -18.500632 31.892763 0.464450 2.189634 0.087566 -0.028144 219806.000000 0 0 1
-24.675413 -11.314022 -18.957832 33.110157 0.429912 2.180432 0.104460 -0.027792 264710.000000 0 0 1
-24.853413 -10.837122 -20.290632 33.865102 0.411186 2.213249 0.082057 -0.027441 582291.000000 0 0 1
-26.249533 -10.616022 -20.554632 34.989010 0.384317 2.198712 0.097514 -0.029673 674416.000000 0 0 1
-26.646903 -9.673822 -21.618832 35.651286 0.348242 2.222318 0.091120 -0.021728 -183736.000000 0 0 1
-26.503293 -10.130822 -22.910432 36.468425 0.365110 2.250068 0.074624 -0.018918 145375.000000 0 0 1
-27.158963 -9.159822 -23.691332 37.185896 0.325287 2.261533 0.058288 -0.023046 -213466.000000 0 0 1
-27.315883 -9.665522 -25.146412 38.365634 0.340094 2.285563 0.059394 -0.013242 210515.000000 0 0 1
-26.223023 -9.516022 -26.025342 38.151279 0.348110 2.321511 0.046457 -0.022265 -333016.000000 0 0 1
-25.190003 -10.472922 -25.963942 37.660917 0.394016 2.331475 0.041539 -0.007384 517210.000000 0 0 1
-24.249413 -10.267422 -27.249832 37.894688 0.400522 2.373294 0.054062 -0.025780 534435.000000 0 0 1
-24.883413 -10.530822 -28.487222 39.263269 0.400351 2.382621 0.057089 -0.013771 369144.000000 0 0 1
-23.930113 -10.631222 -29.550702 39.483126 0.418071 2.416501 0.065355 -0.014749 715759.000000 0 0 1
-24.696513 -11.241622 -30.761742 41.019223 0.427162 2.418760 0.063832 -0.019797 591564.000000 0 0 1
-25.627653 -10.332222 -31.353112 41.791734 0.383234 2.419195 0.057543 -0.024459 200402.000000 0 0 1
-25.019473 -9.189022 -32.013782 41.656865 0.351981 2.447308 0.049495 -0.027597 -711919.000000 0 0 1
-25.927773 -8.044022 -32.519502 42.361229 0.300831 2.445996 0.045426 -0.026327 -712928.000000 0 0 1
-26.773503 -8.344922 -33.616272 43.777985 0.302143 2.446323 0.054274 -0.024597 830155.000000 0 0 1
-28.022443 -8.965522 -33.367412 44.486201 0.309649 2.418952 0.050734 -0.027084 636135.000000 0 0 1
-29.068593 -8.383022 -32.349822 44.291863 0.280769 2.389672 0.058744 -0.013125 -477150.000000 0 0 1
-30.400143 -8.794822 -32.443032 45.321826 0.281613 2.368618 0.069981 -0.013060 -4589.390000 0 0 1
-31.233903 -8.302622 -31.426232 45.078801 0.259813 2.342197 0.075966 -0.013770 540748.000000 0 0 1
-32.711463 -8.786622 -31.490242 46.248026 0.262416 2.319786 0.073848 -0.018258 416903.000000 0 0 1
-32.975323 -10.193822 -31.248732 46.559309 0.299816 2.306568 0.065691 -0.014454 679310.000000 0 0 1
-34.332386 -10.451122 -30.876212 47.342150 0.295498 2.281270 0.059711 -0.011250 571594.000000 0 0 1
-34.813846 -11.953522 -31.061002 48.163019 0.330743 2.271707 0.068126 -0.012804 299295.000000 0 0 1
-36.216333 -12.069722 -30.799622 49.050155 0.321691 2.249675 0.047935 -0.006809 614385.000000 0 0 1
-36.681413 -13.376622 -31.034512 49.875856 0.349684 2.242391 0.044292 -0.013016 705572.000000 0 0 1
-38.063373 -13.697022 -30.360762 50.578698 0.345421 2.214632 0.055830 -0.019261 705589.000000 0 0 1
-38.001193 -13.975522 -28.986982 49.796095 0.352413 2.192122 0.070325 -0.019048 56281.500000 0 0 1
-38.067623 -15.364322 -28.674792 50.074445 0.383611 2.180523 0.068665 -0.025494 -106078.000000 0 0 1
-37.907273 -15.839822 -27.182862 49.262250 0.395805 2.155316 0.100120 -0.025672 583077.000000 0 0 1
-36.528403 -15.709622 -26.820032 47.962804 0.406154 2.164198 0.083943 -0.026075 696392.000000 0 0 1
-36.337983 -15.884022 -25.411902 47.101125 0.412091 2.140661 0.125522 -0.026161 631289.000000 0 0 1
-34.959673 -15.334922 -24.898832 45.577302 0.413372 2.148735 0.143230 -0.028862 376712.000000 0 0 1
-33.846023 -16.044122 -25.321062 45.211982 0.442659 2.165245 0.137234 -0.025451 106305.000000 0 0 1
-32.607863 -15.483322 -24.831132 43.813139 0.443313 2.173353 0.146009 -0.019061 1037210.000000 0 0 1
-31.378973 -16.377722 -25.078932 43.379979 0.481040 2.187222 0.126706 -0.021938 -114218.000000 0 0 1
-31.408293 -17.604222 -24.351532 43.467075 0.510866 2.165459 0.146987 -0.035531 -95557.300000 0 0 1
-32.328423 -18.602822 -24.740332 44.757971 0.522159 2.156467 0.135781 -0.034899 -228745.000000 0 0 1
-32.137223 -19.939422 -24.019732 44.803228 0.555318 2.136626 0.137334 -0.037580 388012.000000 0 0 1
-30.837083 -20.500422 -24.170432 44.219937 0.586708 2.149090 0.137146 -0.028546 198183.000000 0 0 1
-30.751333 -21.797522 -23.549232 44.444829 0.616629 2.129224 0.131602 -0.031281 -338558.000000 0 0 1
-29.384923 -22.529822 -23.672632 43.948380 0.654112 2.139626 0.120988 -0.035263 636975.000000 0 0 1
-28.272843 -21.897922 -23.023132 42.531603 0.659011 2.142800 0.124776 -0.035183 190401.000000 0 0 1
-28.280793 -21.767722 -21.601832 41.716617 0.655990 2.115101 0.139579 -0.042954 -673314.000000 0 0 1
-28.159753 -23.079422 -20.756432 41.910153 0.686572 2.088931 0.113790 -0.034833 -103849.000000 0 0 1
-28.074343 -22.797322 -19.389032 41.034391 0.682036 2.062929 0.109574 -0.031544 19830.200000 0 0 1
-28.051703 -23.979422 -18.647132 41.347627 0.707291 2.038664 0.096318 0.000431 -117427.000000 0 0 1
-28.360563 -23.822822 -17.165332 40.822751 0.698659 2.004776 0.087731 -0.000099 1565420.000000 0 0 1
-29.677583 -23.214122 -16.961432 41.320026 0.663799 1.993787 0.097356 -0.001810 1212020.000000 0 0 1
-29.586633 -22.215822 -15.986032 40.304650 0.644060 1.978639 0.088123 -0.014546 911101.000000 0 0 1
-30.909143 -21.445722 -15.555332 40.709489 0.606574 1.962870 0.093684 0.006072 801374.000000 0 0 1
-31.377583 -20.509522 -16.494432 40.954359 0.578927 1.985317 0.118968 -0.010720 -95232.700000 0 0 1
-32.381863 -19.730922 -15.875032 41.108527 0.547244 1.967276 0.115983 -0.011141 59879.600000 0 0 1
-33.284453 -18.965122 -16.894432 41.868276 0.517909 1.986150 0.141989 -0.038610 -323728.000000 0 0 1
-34.236560 -19.751822 -17.536032 43.241056 0.523277 1.988367 0.097974 -0.028837 -319154.000000 0 0 1
-34.790507 -19.038022 -18.664632 43.831429 0.500705 2.010673 0.096934 -0.023600 305453.000000 0 0 1
-36.073653 -19.656622 -19.372532 45.420108 0.498921 2.011437 0.074295 -0.023876 1128930.000000 0 0 1
-37.207333 -19.651022 -18.515032 45.971238 0.485913 1.985318 0.068661 -0.017402 -2680.350000 0 0 1
-37.231553 -20.432622 -17.312332 45.862811 0.501920 1.957871 0.087533 -0.022712 -943610.000000 0 0 1
-37.729413 -21.931822 -17.427332 46.991758 0.526550 1.950731 0.070468 0.005561 -21895.500000 0 0 1
37.070441 -22.005822 -17.619432 46.571646 -0.535716 1.958787 0.059845 -0.016968 -115443.000000 0 0 1
36.660251 -23.329722 -17.432032 46.820142 -0.566738 1.952303 0.052084 -0.012849 -325870.000000 0 0 1
35.384671 -23.442022 -16.567532 45.564092 -0.585106 1.942936 0.044876 -0.013647 -608998.000000 0 0 1
34.248911 -23.358322 -17.378932 44.951378 -0.598554 1.967756 0.062535 -0.015086 -1682940.000000 0 0 1
33.167741 -23.619122 -16.596832 43.970636 -0.618808 1.957840 0.086375 -0.012730 -1531180.000000 0 0 1
31.858881 -23.689922 -17.385632 43.341215 -0.639386 1.983551 0.098972 -0.031158 -226803.000000 0 0 1
31.329431 -22.426622 -17.818432 42.449772 -0.621273 2.003970 0.070781 -0.028807 798621.000000 0 0 1
30.197501 -22.613422 -18.691832 42.102737 -0.642765 2.030807 0.121096 -0.038852 426017.000000 0 0 1
36.888881 28.686678 -17.555032 49.918876 0.660964 1.930152 0.081061 -0.024589 62210.100000 0 0 1
36.029221 29.086478 -18.603032 49.901911 0.679178 1.952812 0.093707 -0.028984 178865.000000 0 0 1
36.552331 28.594878 -19.838932 50.471013 0.663855 1.974771 0.097600 -0.032820 -143074.000000 0 0 1
35.718661 28.796178 -21.105432 50.502296 0.678507 2.001940 0.112077 -0.036140 -746891.000000 0 0 1
34.626191 27.929978 -21.262832 49.306843 0.678761 2.016657 0.105319 -0.030222 145189.000000 0 0 1
33.880111 28.041478 -22.485632 49.394231 0.691385 2.043424 0.108230 -0.024944 351281.000000 0 0 1
32.750121 29.094378 -22.460632 49.229394 0.726355 2.044566 0.111761 -0.024344 -340762.000000 0 0 1
33.189781 30.434978 -22.339332 50.268232 0.742128 2.031304 0.105395 -0.028409 27477.900000 0 0 1
32.062901 31.266278 -22.528032 50.131048 0.772820 2.036871 0.123543 -0.024559 -623732.000000 0 0 1
32.248931 32.789378 -22.189132 51.063631 0.793708 2.020323 0.125590 -0.024530 -27077.500000 0 0 1
32.619291 33.103278 -20.838332 50.932124 0.792762 1.992307 0.125940 -0.021206 -626252.000000 0 0 1
33.974471 32.913078 -20.621532 51.602160 0.769531 1.981904 0.116113 -0.012655 -1160610.000000 0 0 1
34.429661 32.993778 -19.152032 51.388630 0.764105 1.952703 0.095275 -0.019583 -392660.000000 0 0 1
34.257141 -33.161893 -18.633032 51.190358 -0.769154 1.943350 0.094099 -0.012810 242447.000000 0 0 1
34.396361 -33.183493 -17.221832 50.802021 -0.767453 1.916649 0.067862 -0.019838 -622195.000000 0 0 1
34.427821 -31.766093 -16.522032 49.672297 -0.745209 1.909877 0.070757 0.001649 271896.000000 0 0 1
35.597911 -30.963993 -16.615332 50.020490 -0.715892 1.909400 0.065151 -0.001319 823877.000000 0 0 1
36.755621 -31.482993 -15.929432 50.949989 -0.708284 1.888776 0.065919 -0.011106 -179657.000000 0 0 1
38.024451 -30.684293 -16.013332 51.418008 -0.678972 1.887498 0.058028 0.003127 -248286.000000 0 0 1
-37.378293 -30.922693 -17.207432 51.472765 0.691161 1.911661 0.060678 -0.001603 440022.000000 0 0 1
-36.066783 -30.389993 -17.005932 50.135479 0.700184 1.916862 0.058298 0.008345 698443.000000 0 0 1
-35.054163 -30.991993 -18.021732 50.140611 0.723971 1.938447 0.058252 0.005214 -394366.000000 0 0 1
-34.595407 -32.273593 -17.599532 50.479407 0.750690 1.926924 0.067753 -0.006269 296425.000000 0 0 1
-33.695893 -32.956393 -18.463732 50.620613 0.774304 1.944158 0.070149 0.000346 317941.000000 0 0 1
-32.251833 -32.457793 -18.658132 49.414724 0.788581 1.957980 0.065560 -0.006279 -876047.000000 0 0 1
-32.201343 -31.330493 -19.533732 48.990744 0.771692 1.980920 0.066854 0.001632 120005.000000 0 0 1
-30.927103 -30.828793 -19.931932 48.001897 0.783806 1.998994 0.062183 0.003864 573020.000000 0 0 1
-30.087293 -31.783193 -20.830732 48.469949 0.812802 2.015030 0.060520 0.009350 30221.600000 0 0 1
-30.800333 -32.176993 -22.037832 49.695930 0.807254 2.030244 0.053383 0.013897 -13402.700000 0 0 1
-30.050863 -33.031393 -22.813432 50.145588 0.832611 2.043106 0.053602 0.013963 -464888.000000 0 0 1
-30.898323 -33.704593 -23.896632 51.592199 0.828810 2.052380 0.048718 0.001594 -1059100.000000 0 0 1
-31.604793 32.677678 -23.439432 51.147831 -0.802087 2.046842 0.062406 -0.009945 -404886.000000 0 0 1
-32.309843 31.905178 -24.371232 51.534681 -0.779097 2.063386 0.051338 -0.012232 403799.000000 0 0 1
-33.385133 32.510078 -25.306552 53.027294 -0.772119 2.068303 0.060557 -0.024621 -569209.000000 0 0 1
-32.849993 33.180078 -26.419402 53.647222 -0.790397 2.085717 0.046225 -0.024355 -535158.000000 0 0 1
-33.662333 -33.274893 -26.976762 54.480427 0.779610 2.088820 0.052002 -0.025565 -50645.900000 0 0 1
-33.032623 -32.651593 -28.286072 54.381823 0.779597 2.117809 0.039413 -0.031588 -10118.300000 0 0 1
-33.055363 -33.300193 -29.546922 55.448900 0.789088 2.132782 0.050922 -0.033144 427431.000000 0 0 1
-34.371379 -33.471093 -30.075732 56.623807 0.772129 2.130754 0.060440 -0.033299 442316.000000 0 0 1
-34.351146 33.178278 -31.414882 57.163749 -0.768032 2.152633 0.082375 -0.037007 -847.492000 0 0 1
-33.561023 -33.661293 -32.412342 57.532468 0.786890 2.169261 0.088987 -0.043158 -48017.900000 0 0 1
-33.582983 33.045478 -33.621582 57.881181 -0.777331 2.190596 0.072853 -0.049462 -41407.500000 0 0 1
-32.488373 33.514778 32.758873 57.025244 -0.800948 0.958849 0.096457 -0.050838 -247173.000000 0 0 1
-31.200333 33.031578 32.898007 56.096566 -0.813900 0.944123 0.107600 -0.047030 -745626.000000 0 0 1
-30.960563 31.754278 32.318896 54.876239 -0.798053 0.941048 0.125902 -0.053316 524184.000000 0 0 1
-29.447793 31.336178 32.326569 53.797171 -0.816455 0.926173 0.133320 -0.048555 776287.000000 0 0 1
-28.920153 31.051478 33.620003 54.137548 -0.820922 0.900765 0.138720 -0.055268 -348070.000000 0 0 1
-27.538303 30.854978 -33.661262 53.324182 -0.842136 2.253969 0.146814 -0.050298 -366614.000000 0 0 1
-26.978993 29.394778 33.493673 52.093619 -0.828225 0.872451 0.169447 -0.053611 -174227.000000 0 0 1
-26.931563 28.609178 -32.718222 51.129993 -0.815594 2.265168 0.157211 -0.052059 240445.000000 0 0 1
-26.621043 27.219578 -32.940062 50.345139 -0.796514 2.284033 0.153317 -0.042743 -199536.000000 0 0 1
-26.536073 26.348378 -31.652242 48.992496 -0.781849 2.273212 0.163100 -0.043166 464573.000000 0 0 1
-25.310343 26.419978 -30.921562 47.903776 -0.806845 2.272465 0.152014 -0.042878 334008.000000 0 0 1
-25.131283 27.667978 -30.213882 48.062221 -0.833405 2.250601 0.125624 -0.047039 536420.000000 0 0 1
-23.783713 27.667778 -29.387932 46.848922 -0.860745 2.248867 0.143842 -0.043027 829473.000000 0 0 1
-22.669313 27.835778 -30.281062 46.964572 -0.887339 2.271511 0.142222 -0.034445 318739.000000 0 0 1
-21.398313 27.808478 -29.667122 45.949292 -0.914939 2.272669 0.095646 -0.028406 331668.000000 0 0 1
-20.989213 29.023478 -28.789072 45.953455 -0.944682 2.247829 0.072245 -0.016987 -848196.000000 0 0 1
-20.969413 30.264978 -29.476972 47.165422 -0.964878 2.245889 0.070075 -0.010067 53874.800000 0 0 1
-20.549913 31.241978 -28.518142 47.028125 -0.988981 2.222329 0.089600 -0.021545 11608.700000 0 0 1
-20.259113 32.577378 -29.224882 48.226662 -1.014446 2.221806 0.109760 -0.017122 -243071.000000 0 0 1
-19.071213 32.491478 -29.957822 48.133963 -1.040020 2.242582 0.090784 -0.015327 -538834.000000 0 0 1
-18.743613 33.703678 -30.527012 49.184951 -1.063259 2.240377 0.094301 -0.010845 110438.000000 0 0 1
-17.282213 -33.548193 -31.019542 48.850468 1.095106 2.258791 0.073325 -0.008245 -157674.000000 0 0 1
-16.393813 -33.174193 -29.992772 47.632453 1.111821 2.251926 0.078679 -0.024689 760225.000000 0 0 1
-15.104713 -32.704393 -30.487802 47.193599 1.138127 2.273149 0.107547 -0.027160 1364800.000000 0 0 1
-14.119313 33.564978 -30.616272 47.574351 -1.172611 2.269918 0.109407 -0.029401 -794567.000000 0 0 1
-13.917413 32.926078 -29.396272 46.281333 -1.170887 2.259018 0.099144 -0.028748 -141062.000000 0 0 1
-13.299013 31.675478 -29.603552 45.349421 -1.173294 2.282055 0.086501 -0.023897 -170962.000000 0 0 1
-13.271113 30.873678 -28.286372 43.925224 -1.164823 2.270468 0.057684 -0.023221 -140842.000000 0 0 1
-12.406513 31.408078 -27.322292 43.438423 -1.194599 2.251048 0.084514 -0.027656 -102700.000000 0 0 1
-12.630413 30.607878 -26.174152 42.207295 -1.179431 2.239709 0.061334 -0.033519 338776.000000 0 0 1
-11.573113 30.910178 -25.066832 41.445411 -1.212542 2.220331 0.098417 -0.035264 -411755.000000 0 0 1
-10.298213 30.487178 -25.433342 41.016778 -1.245042 2.239630 0.115771 -0.028137 -1331810.000000 0 0 1
-9.486313 31.008578 -24.417332 40.592218 -1.273912 2.216208 0.130801 -0.034623 -858858.000000 0 0 1
-8.031313 30.670378 -24.734632 40.211642 -1.314688 2.233323 0.139325 -0.046341 -538187.000000 0 0 1
-7.570413 29.337878 -24.461932 38.941088 -1.318263 2.250006 0.119751 -0.058150 628784.000000 0 0 1
-6.304313 29.084478 -25.077532 38.917012 -1.357340 2.271015 0.099703 -0.068630 334973.000000 0 0 1
-5.525113 27.868978 -24.576032 37.565785 -1.375081 2.283938 0.126719 -0.030380 -72974.300000 0 0 1
-6.118413 26.583578 -24.804332 36.869723 -1.344578 2.308724 0.145639 -0.029180 664599.000000 0 0 1
-5.259813 25.561878 -24.237932 35.616746 -1.367861 2.319269 0.138351 -0.037554 510723.000000 0 0 1
-5.937113 24.168978 -24.131932 34.666107 -1.329916 2.340782 0.143169 -0.038271 -4035.800000 0 0 1
-6.292613 23.511778 -25.298372 35.105674 -1.309289 2.375514 0.126723 -0.036600 -13847.100000 0 0 1
-7.171813 22.456078 -25.064932 34.408737 -1.261664 2.386848 0.118366 -0.043206 -438740.000000 0 0 1
-7.217113 21.456178 -26.200422 34.625373 -1.246320 2.429021 0.085831 -0.029994 952548.000000 0 0 1
-6.047713 20.643678 -26.506002 34.136556 -1.285813 2.459840 0.102749 -0.050366 460178.000000 0 0 1
-6.154913 19.377878 -25.871392 32.904621 -1.263249 2.475519 0.092303 -0.043872 -204526.000000 0 0 1
-4.937613 18.447878 -25.900412 32.179739 -1.309274 2.506248 0.094975 -0.055150 -316393.000000 0 0 1
-4.739313 18.089778 -27.246802 33.046776 -1.314567 2.540100 0.104872 -0.067324 -14615.200000 0 0 1
-3.907813 16.913078 -27.332632 32.378944 -1.343728 2.575771 0.098695 -0.059719 138981.000000 0 0 1
-3.594113 16.532278 -28.807422 33.408105 -1.356728 2.610568 0.101837 -0.053084 -51338.600000 0 0 1
-2.680013 17.468578 -29.331912 34.244631 -1.418564 2.599325 0.114289 -0.059181 55794.300000 0 0 1
-2.572513 17.370978 -30.726512 35.390497 -1.423772 2.622387 0.112488 -0.058975 -224325.000000 0 0 1
-1.604513 18.436078 -31.268472 36.334292 -1.483984 2.607199 0.122454 -0.041682 1212880.000000 0 0 1
-0.227113 18.305878 -30.787052 35.818980 -1.558390 2.605122 0.147780 -0.055991 1047970.000000 0 0 1
0.586487 19.307678 -31.285712 36.768549 1.540430 2.588459 0.162508 -0.029732 -160037.000000 0 0 1
0.551587 20.660178 -30.563842 36.895740 1.544105 2.547013 0.144881 -0.026033 -231379.000000 0 0 1
1.239287 20.650378 -29.311022 35.876315 1.510855 2.526989 0.158251 -0.056069 -289655.000000 0 0 1
1.136487 21.906678 -28.647872 36.081778 1.518964 2.488109 0.149367 -0.053143 387491.000000 0 0 1
2.237187 22.152178 -27.559512 35.429518 1.470146 2.462063 0.166177 -0.054892 946873.000000 0 0 1
3.540587 22.310278 -28.132702 36.079540 1.413411 2.465049 0.137658 -0.048690 472304.000000 0 0 1
4.553687 22.585178 -27.163582 35.618626 1.371841 2.438155 0.135551 -0.051635 347469.000000 0 0 1
4.972487 24.087778 -27.158962 36.640905 1.367224 2.405682 0.141630 -0.052056 -365688.000000 0 0 1
5.824387 24.440178 -28.222512 37.785659 1.336848 2.414200 0.128868 -0.052018 -25905.500000 0 0 1
6.155187 25.773378 -28.311492 38.777493 1.336368 2.389266 0.138193 -0.061172 174652.000000 0 0 1
7.264287 26.023278 -29.380912 39.915146 1.298580 2.398064 0.170954 -0.054064 -227716.000000 0 0 1
8.593587 25.711478 -29.124312 39.788886 1.248238 2.392007 0.167360 -0.055245 -576126.000000 0 0 1
9.383087 26.659778 -29.810852 41.078863 1.232379 2.382845 0.174144 -0.050107 204554.000000 0 0 1
10.915887 26.505378 -29.545922 41.166166 1.180128 2.371324 0.155469 -0.046767 225767.000000 0 0 1
11.545087 27.659978 -29.986232 42.397377 1.175386 2.356420 0.155022 -0.036440 -1720940.000000 0 0 1
12.733087 27.808078 -29.333212 42.377565 1.141399 2.335312 0.138274 -0.037154 -1159340.000000 0 0 1
13.700687 28.715178 -30.160902 43.840054 1.125617 2.329493 0.125467 -0.036875 -84599.600000 0 0 1
13.339287 30.089278 -30.235752 44.693422 1.153508 2.313816 0.120435 -0.031486 483562.000000 0 0 1
14.258387 30.846578 -31.034952 46.021530 1.137814 2.310890 0.122897 -0.036309 453859.000000 0 0 1
13.766287 32.347778 -31.157502 46.975306 1.168442 2.295982 0.121591 -0.045402 10116.900000 0 0 1
12.711087 32.496378 -32.062822 47.387877 1.197939 2.313937 0.099178 -0.040709 3523.620000 0 0 1
11.988287 33.705378 -31.764402 47.840869 1.229071 2.296898 0.098944 -0.041807 179014.000000 0 0 1
10.915687 -33.444993 -32.827662 48.118346 -1.255319 2.321601 0.071523 -0.034277 -223557.000000 0 0 1
11.456487 -32.876493 33.380003 48.232142 -1.235485 0.806444 0.049307 -0.020968 206832.000000 0 0 1
10.433087 -32.799693 32.410926 47.277239 -1.262832 0.815437 0.063823 -0.029278 56.827400 0 0 1
10.738687 -31.957093 31.175823 45.918484 -1.246617 0.824481 0.071868 -0.028315 -359910.000000 0 0 1
10.425987 -30.616293 31.501799 45.148886 -1.242576 0.798570 0.069035 -0.030451 56598.600000 0 0 1
10.653487 -29.727293 30.398483 43.832368 -1.226681 0.804437 0.086460 -0.031816 -217331.000000 0 0 1
10.105587 -28.295793 30.675933 42.939349 -1.227774 0.775028 0.090107 -0.036349 228927.000000 0 0 1
8.690287 -28.232393 30.644923 42.564074 -1.272187 0.767035 0.060040 -0.036130 -127469.000000 0 0 1
8.107087 -28.226393 31.931800 43.383107 -1.291108 0.743591 0.065165 -0.035089 92963.400000 0 0 1
6.554787 -27.957593 31.884113 42.909077 -1.340501 0.733162 0.076728 -0.042190 1317270.000000 0 0 1
5.720187 -29.112693 31.611149 43.353595 -1.376784 0.753721 0.102876 -0.060435 395551.000000 0 0 1
6.041087 -29.845293 30.431903 43.050400 -1.371081 0.785705 0.099431 -0.053395 -1067300.000000 0 0 1
5.736187 -29.113893 29.070233 41.540355 -1.376262 0.795669 0.086129 -0.057143 671299.000000 0 0 1
4.344387 -29.179293 28.708293 41.163952 -1.422996 0.799014 0.135340 -0.058810 751897.000000 0 0 1
4.064587 -28.435293 27.564513 39.810666 -1.428816 0.806000 0.137050 -0.052841 -925987.000000 0 0 1
2.614487 -28.658093 27.161683 39.571187 -1.479818 0.814269 0.126564 -0.048710 -568960.000000 0 0 1
2.312087 -29.947793 26.698863 40.187627 -1.493745 0.844165 0.159014 -0.064074 65982.700000 0 0 1
2.017787 -30.919593 27.757983 41.600461 -1.505630 0.840283 0.203437 -0.065378 -936815.000000 0 0 1
2.339487 -32.292393 27.273563 42.333428 -1.498476 0.870746 0.218840 -0.058867 -691897.000000 0 0 1
3.718987 -32.499693 27.253243 42.576991 -1.456860 0.876177 0.183654 -0.054420 -295361.000000 0 0 1
4.295787 -32.245593 25.972573 41.626994 -1.438355 0.897027 0.174140 -0.068999 -745725.000000 0 0 1
5.823087 -32.246293 25.961053 41.805598 -1.392140 0.900785 0.180533 -0.049202 -446478.000000 0 0 1
6.385187 -31.811293 24.734333 40.798483 -1.372708 0.919452 0.141972 -0.054965 747241.000000 0 0 1
7.765787 -31.442893 24.882233 40.842239 -1.328661 0.915710 0.110393 -0.053090 494494.000000 0 0 1
8.460987 -31.155093 23.525703 39.946049 -1.305616 0.941054 0.096873 -0.036591 -504675.000000 0 0 1
9.686587 -30.511293 23.677173 39.816799 -1.263385 0.933963 0.096253 -0.014646 -230304.000000 0 0 1
10.386487 -30.438793 22.448283 39.221482 -1.241960 0.961432 0.096958 -0.023916 760272.000000 0 0 1
11.669887 -29.535593 22.372643 38.846785 -1.194510 0.957067 0.052586 -0.023473 913370.000000 0 0 1
12.855787 -30.035793 22.970253 39.938110 -1.166374 0.958013 0.066090 -0.016086 -59604.400000 0 0 1
13.933087 -29.182493 22.730213 39.527350 -1.125354 0.958131 0.072453 -0.018773 32300.300000 0 0 1
15.190887 -29.466393 23.599903 40.693818 -1.094800 0.952143 0.085410 -0.010151 -35140.800000 0 0 1
15.042687 -29.220893 25.002733 41.295032 -1.095385 0.920445 0.078412 -0.012386 270901.000000 0 0 1
16.232187 -29.311993 25.774343 42.272847 -1.065061 0.915097 0.092316 -0.022078 152741.000000 0 0 1
-11.510513 -14.048922 25.679453 31.453114 0.884388 0.615585 0.118603 -0.057346 -322749.000000 0 0 1
-10.168113 -14.023122 25.298663 30.660411 0.943425 0.600373 0.135300 -0.049477 -446793.000000 0 0 1
-9.310213 -14.221122 26.446973 31.438237 0.991142 0.571231 0.153646 -0.053116 59064.700000 0 0 1
-7.843613 -13.906922 26.139133 30.629708 1.057262 0.548339 0.172759 -0.046249 -557232.000000 0 0 1
-7.252713 -14.962522 25.421393 30.376407 1.119443 0.579239 0.174748 -0.062673 -107653.000000 0 0 1
-7.226713 -14.832622 24.044533 29.161132 1.117427 0.601407 0.183595 -0.062069 -824052.000000 0 0 1
-6.615613 -15.989422 23.252823 28.984853 1.178494 0.639758 0.174062 -0.066929 371899.000000 0 0 1
-7.399013 -17.223722 23.091773 29.742763 1.165051 0.681890 0.190753 -0.068095 285128.000000 0 0 1
-7.426113 -18.115622 24.183453 31.115306 1.181760 0.680560 0.207177 -0.076510 -124297.000000 0 0 1
-8.099613 -19.469622 23.809613 31.805150 1.176562 0.724835 0.193736 -0.075499 -766973.000000 0 0 1
-9.440013 -19.304622 23.500733 31.844414 1.115985 0.740715 0.164881 -0.063509 -1297160.000000 0 0 1
-9.934713 -20.639222 23.292803 32.668496 1.122179 0.777022 0.151502 -0.060207 -153456.000000 0 0 1
-11.458613 -20.735822 23.113753 33.098636 1.065959 0.797735 0.111194 -0.051242 -138845.000000 0 0 1
-12.155413 -20.296722 24.285333 33.904105 1.031197 0.772319 0.108743 -0.050712 -117714.000000 0 0 1
-13.526313 -20.176222 23.930983 34.098871 0.980208 0.792859 0.082083 -0.032824 -228211.000000 0 0 1
-14.332213 -20.053122 25.185683 35.240015 0.950264 0.774616 0.074266 -0.038837 -913713.000000 0 0 1
-14.442913 -21.232022 25.977883 36.527344 0.973454 0.779607 0.065907 -0.035931 175031.000000 0 0 1
-13.619813 -21.066522 27.129103 36.949775 0.996875 0.746286 0.095029 -0.041127 154412.000000 0 0 1
-13.188213 -22.276422 27.959813 38.104056 1.036261 0.746934 0.125021 -0.043174 216949.000000 0 0 1
-14.205713 -22.936022 28.702863 39.391848 1.016261 0.754448 0.065277 -0.036790 -41375.100000 0 0 1
-13.615613 -24.065822 29.316813 40.299184 1.055930 0.756156 0.104060 -0.036214 139897.000000 0 0 1
-14.423113 -24.767022 30.478523 41.837446 1.043455 0.754669 0.088267 -0.028777 351364.000000 0 0 1
-14.511413 -24.007022 31.651605 42.293525 1.027100 0.725181 0.122129 -0.035923 -183522.000000 0 0 1
-15.581113 -24.464922 32.438434 43.515003 1.003703 0.729581 0.097919 -0.031314 -127735.000000 0 0 1
-15.610113 -23.881722 -33.510932 44.011304 0.991865 2.436292 0.103039 -0.039046 -75332.400000 0 0 1
-15.596213 -22.469222 -33.370352 43.147285 0.964031 2.454992 0.120379 -0.044949 -13047.600000 0 0 1
-16.713013 -21.738222 33.537983 43.320565 0.915352 0.685375 0.109510 -0.040562 -93373.400000 0 0 1
-16.810713 -20.228922 -33.492702 42.586036 0.877423 2.475871 0.101727 -0.048618 -10427.300000 0 0 1
-16.977313 -20.063522 -32.096012 41.484070 0.868525 2.455449 0.103346 -0.049878 146157.000000 0 0 1
-17.143213 -18.745922 -31.676762 40.604392 0.830026 2.465672 0.088327 -0.045873 -386173.000000 0 0 1
-17.131513 -18.633922 -30.157832 39.372664 0.827381 2.443327 0.090803 -0.041010 -346242.000000 0 0 1
-18.354613 -18.926622 -29.542312 39.596175 0.800740 2.412967 0.083144 -0.039548 -169937.000000 0 0 1
-18.226813 -18.951822 -28.085922 38.473462 0.804896 2.389129 0.071296 -0.037704 27723.200000 0 0 1
-17.360013 -20.025522 -27.357052 38.089367 0.856576 2.372056 0.065891 -0.030620 -211509.000000 0 0 1
-15.988813 -19.763222 -27.493102 37.444596 0.890580 2.395334 0.063248 -0.038849 -640898.000000 0 0 1
-15.287813 -20.929622 -27.148282 37.533925 0.939932 2.379365 0.057634 -0.031587 783193.000000 0 0 1
-13.754213 -20.966722 -27.485092 37.205001 0.990213 2.402006 0.160476 -0.037080 812691.000000 0 0 1
-13.009113 -20.002122 -26.731952 35.831818 0.994149 2.412891 0.159423 -0.047063 903304.000000 0 0 1
-11.600713 -20.002822 -27.007252 35.553918 1.045247 2.433516 0.146722 -0.065581 1219130.000000 0 0 1
-10.718113 -20.959422 -26.129882 35.170244 1.098091 2.408270 0.184964 -0.063849 -83123.200000 0 0 1
-10.918513 -22.304822 -26.465282 36.292288 1.115573 2.387987 0.195719 -0.059661 59758.700000 0 0 1
-10.629813 -23.188022 -25.387522 35.988937 1.140964 2.353820 0.237153 -0.061343 75389.500000 0 0 1
-10.722713 -24.684122 -25.773822 37.263553 1.160993 2.334586 0.226294 -0.050609 -540428.000000 0 0 1
-9.570413 -25.178972 -26.376502 37.700044 1.207566 2.345691 0.229624 -0.055542 -411009.000000 0 0 1
-9.839813 -26.327842 -27.145162 39.074762 1.213129 2.338796 0.227124 -0.044769 -42636.800000 0 0 1
-9.852513 -27.706862 -26.450912 39.552408 1.229143 2.303331 0.249760 -0.039665 -31860.700000 0 0 1
-10.912913 -27.847222 -25.519902 39.316979 1.197305 2.277172 0.196932 -0.039183 93270.700000 0 0 1
-10.735513 -28.980922 -24.705032 39.566194 1.216035 2.245156 0.192306 -0.047569 339853.000000 0 0 1
-11.673913 -28.928612 -23.439832 39.020131 1.187240 2.215187 0.171428 -0.050666 170514.000000 0 0 1
-11.328213 -27.877172 -22.487332 37.565213 1.184818 2.212575 0.178779 -0.052816 -66265.300000 0 0 1
-11.949013 -26.624652 -22.704932 36.975194 1.148945 2.231989 0.155623 -0.043048 55001.400000 0 0 1
-11.896213 -25.698622 -21.422832 35.508827 1.137256 2.218441 0.185242 -0.044744 -152477.000000 0 0 1
-12.656713 -26.142402 -20.354032 35.466945 1.119913 2.182041 0.128825 -0.033697 -210233.000000 0 0 1
-12.587813 -25.176632 -19.351532 34.158420 1.107165 2.173077 0.131011 -0.028619 -190904.000000 0 0 1
-13.246013 -25.592542 -18.040732 33.998575 1.093189 2.130142 0.166787 -0.037245 -147790.000000 0 0 1
-14.645713 -25.436722 -18.092332 34.479795 1.048383 2.123186 0.190587 -0.047274 -214372.000000 0 0 1
-15.247513 -25.928672 -16.895732 34.499978 1.039205 2.082578 0.178373 -0.044894 -739125.000000 0 0 1
-16.759113 -25.929032 -16.863132 35.178798 0.996994 2.070716 0.182475 -0.050537 -2113190.000000 0 0 1
-17.430613 -24.709522 -17.003732 34.691695 0.956441 2.083045 0.157978 -0.042052 -115431.000000 0 0 1
-18.733913 -24.821022 -16.453932 35.182020 0.924256 2.057461 0.156878 -0.038063 117203.000000 0 0 1
-19.811013 -25.470382 -17.350732 36.636928 0.909736 2.064154 0.140023 -0.034266 -1134840.000000 0 0 1
-19.672213 -26.857342 -17.597732 37.656247 0.938609 2.057060 0.138601 -0.039279 -159417.000000 0 0 1
-19.859213 -27.678072 -16.418132 37.815593 0.948417 2.019905 0.141007 -0.043204 -35761.700000 0 0 1
-21.342613 -28.112452 -16.222732 38.845774 0.921441 2.001620 0.140928 -0.031754 468164.000000 0 0 1
-21.755213 -29.171062 -17.089432 40.203095 0.930001 2.009844 0.114411 -0.032152 -305746.000000 0 0 1
-23.087613 -29.504842 -16.774332 41.048165 0.906816 1.991771 0.114541 -0.025749 -243673.000000 0 0 1
-23.777913 -30.295462 -17.868932 42.455894 0.905351 2.005214 0.084872 -0.027519 -345679.000000 0 0 1
-23.297113 -31.589352 -18.056332 43.205020 0.935344 2.001953 0.086994 -0.027082 -158866.000000 0 0 1
-23.888613 -32.252522 -19.153832 44.472017 0.933290 2.016058 0.063353 -0.002604 194334.000000 0 0 1
-23.357113 -33.716942 -19.249232 45.309159 0.964959 2.009584 0.051225 -0.004017 112585.000000 0 0 1
-23.908813 32.834453 -18.295232 44.547146 -0.941418 1.994011 0.057470 -0.001923 -19338.500000 0 0 1
-23.096113 31.707815 -18.087332 43.196847 -0.941260 2.002830 0.058491 -0.006574 60804.700000 0 0 1
-23.943513 30.450849 -17.653232 42.569739 -0.904465 1.998398 0.062114 -0.011972 214968.000000 0 0 1
-24.514713 30.505179 -16.395032 42.430345 -0.893849 1.967520 0.063890 -0.015090 -328238.000000 0 0 1
-25.120163 29.241429 -16.112732 41.781622 -0.861066 1.966699 0.062185 -0.010104 -376694.000000 0 0 1
-24.287613 27.985989 -15.757232 40.266538 -0.856031 1.972865 0.054886 -0.017930 -365915.000000 0 0 1
-23.574413 27.529809 -16.889232 39.986117 -0.862643 2.006863 0.031729 -0.008039 -15182.800000 0 0 1
-23.276113 26.138519 -16.758032 38.805042 -0.843260 2.017341 0.028822 -0.011285 64789.700000 0 0 1
-22.565613 25.550239 -17.995832 38.547005 -0.847349 2.056527 0.036815 -0.013634 -927422.000000 0 0 1
-22.363613 24.112969 -17.916832 37.451026 -0.823020 2.069636 0.060824 -0.023515 -52217.600000 0 0 1
-21.578913 23.646069 -18.981032 37.216470 -0.831075 2.106001 0.064945 -0.020681 194989.000000 0 0 1
-20.130013 24.157039 -19.166732 36.825855 -0.876079 2.118197 0.062005 -0.027231 -1288150.000000 0 0 1
-19.177813 23.606489 -18.264332 35.477326 -0.888543 2.111591 0.094597 -0.033303 824501.000000 0 0 1
-17.918513 24.267119 -18.490832 35.381875 -0.934769 2.120703 0.121362 -0.043326 587198.000000 0 0 1
-17.747013 25.398199 -17.489132 35.579415 -0.960909 2.084667 0.143314 -0.036556 -506296.000000 0 0 1
-18.667613 26.449869 -17.714332 36.903563 -0.956206 2.071470 0.107355 -0.030350 36135.700000 0 0 1
-18.400113 27.539169 -16.837332 37.154620 -0.981772 2.041114 0.120732 -0.035749 -24076.200000 0 0 1
-19.424613 28.692229 -17.061232 38.621824 -0.975675 2.028346 0.082482 -0.023551 255498.000000 0 0 1
-19.544213 29.266099 -18.378732 39.702124 -0.982002 2.052078 0.087798 -0.028478 81509.000000 0 0 1
-20.058613 28.432319 -19.387832 39.832559 -0.956398 2.079143 0.058839 -0.014075 -447678.000000 0 0 1
-20.201413 29.099159 -20.787532 41.072858 -0.963956 2.101469 0.057072 -0.021477 -151520.000000 0 0 1
-21.208513 30.070609 -20.850132 42.293860 -0.956529 2.086311 0.065345 -0.019462 -4882.930000 0 0 1
-21.439613 30.448059 -22.152132 43.329647 -0.957299 2.107431 0.069804 -0.017692 -317946.000000 0 0 1
-22.387513 31.596396 -22.454232 44.762993 -0.954358 2.096272 0.074444 -0.019499 -451663.000000 0 0 1
-21.855413 32.858997 -22.062732 45.212133 -0.983860 2.080573 0.051832 -0.019479 185603.000000 0 0 1
-22.096313 -33.666062 -23.128932 46.439189 0.989979 2.092142 0.082821 -0.013044 -305501.000000 0 0 1
-20.905713 -32.711302 -23.393932 45.324984 1.002124 2.113132 0.086969 -0.014169 255601.000000 0 0 1
-20.383713 -31.810762 -22.462432 43.954308 1.000930 2.107191 0.089476 -0.019878 85447.600000 0 0 1
-19.626813 -32.409582 -21.407432 43.518628 1.026279 2.085083 0.097114 -0.031964 -156804.000000 0 0 1
-19.430613 -31.486602 -20.225132 42.166466 1.017893 2.071052 0.120347 -0.039206 50507.300000 0 0 1
-18.393813 -30.538682 -20.414432 41.081535 1.028679 2.090848 0.120899 -0.040728 145823.000000 0 0 1
-18.250813 -29.648622 -19.352232 39.832673 1.019007 2.078118 0.122384 -0.040519 164262.000000 0 0 1
-17.019913 -28.695672 -19.444732 38.616274 1.035453 2.098484 0.129483 -0.037764 1090290.000000 0 0 1
-15.782013 -29.426722 -19.447632 38.642131 1.078520 2.098181 0.135050 -0.041853 -326951.000000 0 0 1
-14.714913 -28.662802 -19.849032 37.842687 1.096502 2.122941 0.127151 -0.042533 -1002160.000000 0 0 1
-13.440513 -29.509502 -20.160932 38.182736 1.143408 2.127054 0.197851 -0.056258 387575.000000 0 0 1
-12.943213 -30.148882 -18.975432 37.901832 1.165281 2.095142 0.197067 -0.059779 263305.000000 0 0 1
-12.205013 -29.258782 -18.101132 36.506022 1.175602 2.089598 0.155965 -0.048676 65182.300000 0 0 1
-11.330713 -29.981222 -17.012332 36.286061 1.209462 2.058773 0.174096 -0.037302 437715.000000 0 0 1
-12.100213 -30.575052 -15.974132 36.557104 1.193955 2.023017 0.198679 -0.047855 194940.000000 0 0 1
-12.520813 -31.927142 -16.203432 37.929730 1.197060 2.012186 0.208331 -0.043509 -4714.110000 0 0 1
-13.237113 -32.546512 -14.973632 38.193013 1.184516 1.973657 0.187314 -0.046090 -121358.000000 0 0 1
-12.405813 -32.986742 -13.928132 37.894884 1.211075 1.947166 0.182202 -0.046134 100569.000000 0 0 1
-13.227713 -33.466382 -12.855132 38.212898 1.194388 1.913897 0.171245 -0.047840 227811.000000 0 0 1
-12.411613 33.701219 -11.600232 37.741035 -1.217927 1.883218 0.150169 -0.035729 -21490.800000 0 0 1
-12.021913 -32.621562 -10.840332 36.417105 1.217713 1.873049 0.128057 -0.030058 -10798.800000 0 0 1
-11.465813 -32.935632 -9.618032 36.176336 1.235790 1.839898 0.144111 -0.034672 703875.000000 0 0 1
-10.014313 -32.373882 -9.369932 35.158930 1.270799 1.840558 0.133116 -0.037003 948674.000000 0 0 1
-8.981913 -33.101962 -10.004432 35.728187 1.305835 1.854606 0.093078 -0.042469 332707.000000 0 0 1
-7.742813 -32.404392 -9.834732 34.737843 1.336251 1.857835 0.078900 -0.041357 1091330.000000 0 0 1
-6.434313 -33.028682 -10.409432 35.222869 1.378396 1.870807 0.076448 -0.052135 602727.000000 0 0 1
-6.025213 33.278043 -9.650232 35.168997 -1.391680 1.848758 0.066098 -0.027577 535405.000000 0 0 1
-4.808613 32.775629 -10.243332 34.674061 -1.425123 1.870689 0.082776 -0.027846 800280.000000 0 0 1
-4.113513 31.733790 -9.276332 33.316734 -1.441889 1.852954 0.089360 -0.034250 341978.000000 0 0 1
-3.525613 32.332513 -8.095132 33.516452 -1.462183 1.814736 0.106408 -0.036057 -190649.000000 0 0 1
-2.962813 31.385239 -7.298932 32.358707 -1.476674 1.798317 0.094020 -0.043306 -219595.000000 0 0 1
-2.422713 31.969493 -5.983832 32.614786 -1.495159 1.755311 0.104859 -0.042653 -471078.000000 0 0 1
-1.389913 32.941922 -6.099832 33.530733 -1.528629 1.753733 0.087651 -0.039015 83673.500000 0 0 1
-1.016113 33.558409 -4.858232 33.923469 -1.540527 1.714502 0.095803 -0.040262 19158.600000 0 0 1
-0.041113 32.700884 -4.007332 32.945534 -1.569539 1.692733 0.095538 -0.041744 128021.000000 0 0 1
1.292387 32.753661 -4.525932 33.090129 1.531359 1.708002 0.092984 -0.039432 488881.000000 0 0 1
2.220387 32.071484 -3.706532 32.361221 1.501674 1.685584 0.088225 -0.032868 -336840.000000 0 0 1
3.685887 32.300474 -4.025332 32.758353 1.457175 1.693987 0.090038 -0.027584 -494612.000000 0 0 1
4.230887 33.503999 -3.596032 33.961004 1.445181 1.676882 0.086646 -0.029225 -1829190.000000 0 0 1
5.579387 33.608289 -3.671232 34.265502 1.406284 1.678143 0.091581 -0.024367 -1488770.000000 0 0 1
6.153087 -32.544312 -3.156632 33.270964 -1.383934 1.665816 0.094179 -0.026218 -388441.000000 0 0 1
6.205387 -31.552792 -4.173032 32.426836 -1.376608 1.699845 0.101865 -0.031566 -32742.500000 0 0 1
6.604787 -30.288152 -3.739432 31.224649 -1.356092 1.690843 0.093004 -0.032708 -66341.600000 0 0 1
6.528487 -29.237572 -4.852732 30.348077 -1.351109 1.731388 0.088346 -0.035806 181785.000000 0 0 1
7.619987 -29.174112 -5.782632 30.702310 -1.315314 1.760273 0.106498 -0.039746 281807.000000 0 0 1
7.571987 -28.063172 -6.673232 29.822955 -1.307253 1.796469 0.094343 -0.033527 57428.300000 0 0 1
7.851387 -26.605302 -6.079432 28.397991 -1.283835 1.786546 0.089054 -0.029631 5420.710000 0 0 1
6.977187 -26.189052 -5.067632 27.572241 -1.310428 1.755642 0.081311 -0.030325 -408923.000000 0 0 1
7.510887 -25.148282 -4.308032 26.597155 -1.280566 1.733486 0.066240 -0.034503 -145579.000000 0 0 1
6.484287 -24.714822 -3.249232 25.757056 -1.314215 1.697283 0.072641 -0.034562 545416.000000 0 0 1
5.242387 -24.212222 -3.737432 25.053597 -1.357569 1.720533 0.074355 -0.037190 93525.300000 0 0 1
4.552187 -23.602522 -2.692732 24.187854 -1.380267 1.682353 0.082187 -0.041428 250409.000000 0 1 0
3.278687 -22.829222 -3.189432 23.282948 -1.428154 1.708214 0.093785 -0.044684 433307.000000 0 1 0
2.253987 -23.733422 -3.566732 24.105546 -1.476109 1.719305 0.097791 -0.039357 -251185.000000 0 1 0
1.163987 -22.956122 -4.038032 23.337612 -1.520135 1.744698 0.109765 -0.042190 221665.000000 0 1 0
-15.673913 22.826278 17.897033 32.969900 -0.969079 0.996994 0.028275 -0.019709 -52005.200000 0 0 1
-16.123013 22.469178 19.194233 33.663542 -0.948381 0.964073 0.049748 -0.018614 264359.000000 0 0 1
-15.874013 23.474878 20.148533 34.770930 -0.976214 0.952724 0.066167 -0.019383 -691630.000000 0 0 1
-16.019613 22.958178 21.607433 35.363641 -0.961566 0.913464 0.081382 -0.020507 233231.000000 0 0 1
-15.025113 22.022578 22.065833 34.607065 -0.972076 0.879404 0.066033 -0.014542 2123300.000000 0 0 1
-13.622213 22.433878 22.120133 34.324100 -1.025088 0.870494 0.062625 -0.024385 1407500.000000 0 0 1
-13.141513 23.478978 23.217153 35.538682 -1.060526 0.858871 0.083800 -0.030465 -191624.000000 0 0 1
-12.640713 22.845378 24.414143 35.745619 -1.065411 0.818939 0.073845 -0.025495 156663.000000 0 0 1
-12.625813 23.719478 25.515293 37.054756 -1.081646 0.811262 0.101129 -0.037408 -217830.000000 0 0 1
-11.876413 23.253678 26.753233 37.383394 -1.098599 0.773249 0.097016 -0.032544 -658482.000000 0 0 1
-10.485813 23.217378 26.713473 36.913528 -1.146582 0.761681 0.056003 -0.029712 -633317.000000 0 0 1
-10.066913 22.390578 27.817683 37.101269 -1.148271 0.723071 0.043197 -0.031214 -336051.000000 0 0 1
-8.543813 22.098278 27.826893 36.546772 -1.201870 0.705319 0.039975 -0.032410 1162500.000000 0 0 1
-7.625913 23.177178 28.214843 37.301655 -1.252927 0.713010 0.041771 -0.028385 761741.000000 0 0 1
-7.477013 24.150278 27.191583 37.128477 -1.270552 0.749008 0.045407 -0.028139 -1083130.000000 0 0 1
-6.401913 25.206978 27.346593 37.738738 -1.322081 0.760300 0.047886 -0.029542 -385288.000000 0 0 1
-5.088313 24.746478 27.176443 37.105769 -1.368005 0.748949 0.041350 -0.022735 -22725.300000 0 0 1
-4.072613 25.694078 27.540173 37.884468 -1.413600 0.756924 0.060649 -0.016167 252355.000000 0 0 1
-2.670613 25.098378 27.590363 37.393701 -1.464789 0.740940 0.070084 -0.024106 -644822.000000 0 0 1
-2.088413 24.939778 26.345143 36.337591 -1.487253 0.759746 0.071396 -0.027860 -597069.000000 0 0 1
-0.752613 24.543278 26.498163 36.126051 -1.540141 0.747351 0.104587 -0.019951 -106171.000000 0 0 1
-0.058913 24.213278 25.160783 34.919211 -1.568363 0.766212 0.106800 -0.029607 -136578.000000 0 0 1
-0.521613 22.964178 24.618963 33.670742 -1.548086 0.750764 0.102332 -0.029637 -47175.300000 0 0 1
-0.177213 22.890978 23.301623 32.664872 -1.563055 0.776524 0.100241 -0.032059 31488.200000 0 0 1
-0.573013 21.566778 22.695063 31.313258 -1.544233 0.760089 0.088939 -0.032057 -337287.000000 0 0 1
0.264787 20.590778 23.159233 30.990326 1.557938 0.726799 0.103612 -0.031321 -568244.000000 0 0 1
-0.080813 19.365678 22.620603 29.777973 -1.566623 0.708034 0.096548 -0.027491 -668844.000000 0 0 1
0.981687 18.307078 22.829363 29.279559 1.517224 0.676605 0.107203 -0.020860 -143573.000000 0 0 1
2.136487 18.701578 22.077333 29.012449 1.457048 0.706004 0.095582 -0.021644 33282.700000 0 0 1
3.007187 17.577678 21.999733 28.319713 1.401357 0.681173 0.082433 -0.023710 213538.000000 0 0 1
4.423487 17.878878 21.425533 28.253760 1.328253 0.710057 0.083868 -0.021669 125494.000000 0 0 1
5.290487 18.413178 22.398753 29.474370 1.291012 0.707576 0.084686 -0.012885 -393498.000000 0 0 1
6.529487 18.552678 21.718233 29.300472 1.232392 0.735903 0.105479 -0.021049 64966.700000 0 0 1
7.746687 19.099578 22.511943 30.522002 1.185476 0.741340 0.124781 -0.028057 -302504.000000 0 0 1
7.636787 20.330878 23.256063 31.819955 1.211478 0.751209 0.114041 -0.019882 6157.240000 0 0 1
7.307687 21.474778 22.431083 31.901753 1.242796 0.791006 0.127154 -0.029453 80834.200000 0 0 1
5.934987 22.111378 22.740073 32.268375 1.308564 0.788772 0.095343 -0.019888 142290.000000 0 0 1
5.833187 23.385478 22.225833 32.785580 1.326348 0.825874 0.096229 -0.027045 -233071.000000 0 0 1
4.564487 23.921878 22.512853 33.165031 1.382255 0.824651 0.078366 -0.026343 -207234.000000 0 0 1
4.455887 25.433078 22.139033 34.012250 1.397356 0.862009 0.085166 -0.020390 126080.000000 0 0 1
4.089287 25.768678 20.785433 33.358376 1.413417 0.898103 0.087395 -0.022825 -201426.000000 0 0 1
2.798987 25.426478 20.355433 32.690729 1.461156 0.898650 0.097768 -0.031360 -576223.000000 0 0 1
2.493387 25.732178 18.861533 32.001865 1.474200 0.940495 0.101064 -0.033823 -486570.000000 0 0 1
2.108087 27.045478 18.784033 32.996087 1.493008 0.965166 0.130067 -0.038121 2102.510000 0 0 1
1.770087 27.365578 17.443633 32.500590 1.506203 1.004254 0.139321 -0.028546 -194014.000000 0 0 1
0.881787 28.591178 17.321233 33.440366 1.539965 1.026316 0.144713 -0.013145 -45912.400000 0 0 1
1.526987 29.768078 17.770733 34.702580 1.519545 1.033184 0.164919 -0.023622 475942.000000 0 0 1
0.535987 30.775278 18.005833 35.659711 1.553382 1.041490 0.141537 -0.023755 337230.000000 0 0 1
1.079287 32.078578 18.554033 37.073604 1.537164 1.046661 0.161452 -0.021462 -5422.870000 0 0 1
1.738787 31.863278 19.823533 37.566798 1.516280 1.014920 0.192411 -0.026917 89498.700000 0 0 1
2.106787 33.126178 20.271633 38.893718 1.507283 1.022533 0.208832 -0.030276 -316390.000000 0 0 1
2.585587 33.138778 21.753733 39.725165 1.492931 0.991296 0.206797 -0.053843 770917.000000 0 0 1
1.429687 32.953578 22.596573 39.982339 1.527439 0.970164 0.206708 -0.039584 694747.000000 0 0 1
1.766787 32.994778 23.940233 40.803329 1.517300 0.943791 0.206292 -0.057005 -81998.900000 0 0 1
0.650387 32.672178 24.967053 41.124785 1.550893 0.918384 0.196505 -0.025986 -352062.000000 0 0 1
-0.493713 33.490478 24.866893 41.715923 -1.556056 0.932160 0.197355 -0.030489 537422.000000 0 0 1
-1.544113 33.211978 25.807783 42.088732 -1.524337 0.910722 0.203771 -0.035285 338303.000000 0 0 1
-1.313013 33.315378 27.318683 43.103930 -1.531405 0.884358 0.206261 -0.044116 -709541.000000 0 0 1
-0.374113 32.376478 27.839583 42.701506 -1.559242 0.860633 0.200413 -0.050558 409990.000000 0 0 1
0.171287 32.991778 28.984363 43.915601 1.565605 0.849976 0.196832 -0.058385 -111494.000000 0 0 1
1.350387 32.214278 29.688943 43.829403 1.528902 0.826608 0.166751 -0.050299 1789380.000000 0 0 1
2.689087 32.149078 29.141813 43.474586 1.487346 0.836159 0.144234 -0.054340 922944.000000 0 0 1
2.885187 31.653978 27.828913 42.246266 1.479900 0.851666 0.144625 -0.052801 -657782.000000 0 0 1
4.373687 31.467078 27.497673 42.016998 1.432689 0.857352 0.115412 -0.044836 -11340.200000 0 0 1
4.977087 30.371378 28.142023 41.703302 1.408366 0.830082 0.108649 -0.040722 -343625.000000 0 0 1
6.342487 30.273978 27.843533 41.617342 1.364280 0.837884 0.112164 -0.048225 -411216.000000 0 0 1
7.146887 29.204178 28.576503 41.479857 1.330792 0.810792 0.114827 -0.022731 -35659.000000 0 0 1
7.361687 29.525778 29.914553 42.671377 1.326448 0.793935 0.128707 -0.036229 -272337.000000 0 0 1
7.991387 28.518878 30.610073 42.593018 1.297589 0.768917 0.113026 -0.023213 -287336.000000 0 0 1
7.892987 28.499978 32.148862 43.681773 1.300621 0.743685 0.137466 -0.036963 111194.000000 0 0 1
6.507287 28.354978 32.415450 43.555837 1.345209 0.731419 0.152241 -0.038236 140297.000000 0 0 1
6.271187 28.102178 -33.591662 44.243191 1.351237 2.432957 0.167092 -0.036256 11206.800000 0 0 1
6.235187 26.593478 -33.052402 42.878339 1.340493 2.450957 0.167433 -0.033124 495898.000000 0 0 1
7.581987 26.122478 -33.125982 42.862584 1.288311 2.454103 0.148958 -0.035727 383624.000000 0 0 1
7.659987 24.758278 -32.763742 41.774520 1.270746 2.472363 0.158819 -0.034385 -37492.900000 0 0 1
8.960987 23.927278 -32.800042 41.577118 1.212456 2.479808 0.171906 -0.036223 -863678.000000 0 0 1
9.577387 23.866678 33.340933 42.106561 1.189181 0.657009 0.147922 -0.028396 -479343.000000 0 0 1
10.859487 23.321778 33.396473 42.156354 1.135015 0.656383 0.146276 -0.042638 -372361.000000 0 0 1
11.085487 21.840378 -33.482912 41.484883 1.101112 2.510039 0.164560 -0.042630 -1206520.000000 0 0 1
10.757287 20.900978 32.908739 40.441998 1.095475 0.620261 0.160823 -0.046113 197030.000000 0 0 1
10.230987 19.608678 33.256677 39.939703 1.089894 0.586881 0.151246 -0.039517 167968.000000 0 0 1
8.792487 19.633478 -33.583382 39.882639 1.149747 2.571878 0.170793 -0.048483 -355109.000000 0 0 1
8.774087 20.047778 -32.208972 38.939901 1.158253 2.544806 0.192005 -0.048083 -80687.300000 0 0 1
7.512787 20.606278 -31.937942 38.743939 1.221186 2.539821 0.205434 -0.049886 -156012.000000 0 0 1
7.448587 21.170978 -30.495832 37.864067 1.232492 2.507151 0.218107 -0.056271 344929.000000 0 0 1
8.393887 22.204378 -30.188222 38.403392 1.209373 2.475241 0.217127 -0.045339 246806.000000 0 0 1
8.467287 22.437078 -28.816162 37.489847 1.209941 2.447507 0.177939 -0.044249 -456934.000000 0 0 1
9.898087 22.537078 -28.307472 37.512731 1.156967 2.425855 0.195805 -0.052165 -631077.000000 0 0 1
10.655787 21.395678 -28.227752 36.988199 1.108722 2.438979 0.210824 -0.047238 -1459100.000000 0 0 1
11.997887 21.636378 -28.025802 37.383522 1.064487 2.418380 0.214894 -0.049406 -391185.000000 0 0 1
12.783287 20.255178 -27.973662 36.826763 1.007814 2.433496 0.213353 -0.054371 160378.000000 0 0 1
12.899987 19.561478 -29.188882 37.430628 0.987800 2.465163 0.219945 -0.057501 -60748.300000 0 0 1
11.734787 18.907678 -29.664322 37.083386 1.015341 2.497984 0.236130 -0.053090 -105889.000000 0 0 1
11.873287 17.968378 -30.909802 37.672980 0.986875 2.533041 0.229917 -0.058683 -413224.000000 0 0 1
12.149387 16.645578 -30.490122 36.801229 0.940292 2.547235 0.208941 -0.055265 105190.000000 0 0 1
12.181387 15.686478 -31.505622 37.243201 0.910517 2.579127 0.194560 -0.054506 -610686.000000 0 0 1
13.441187 15.557878 -32.350712 38.331210 0.858261 2.575454 0.168060 -0.042519 -703646.000000 0 0 1
13.803687 16.767878 -32.950212 39.464161 0.882055 2.558820 0.171241 -0.054738 -53786.600000 0 0 1
14.455987 16.785678 33.181423 39.896633 0.859830 0.588661 0.164446 -0.051913 582854.000000 0 0 1
13.471487 16.717178 31.936528 38.482292 0.892500 0.591864 0.163488 -0.044384 -95796.700000 0 0 1
14.094987 17.207478 30.776133 37.972836 0.884505 0.625829 0.157767 -0.047084 644995.000000 0 0 1
13.275987 17.093778 29.567293 36.642514 0.910452 0.631891 0.145923 -0.039279 921181.000000 0 0 1
11.799387 17.566878 29.490293 36.297356 0.979328 0.622430 0.135333 -0.038389 271436.000000 0 0 1
10.916687 16.763978 30.257503 36.272875 0.993579 0.584182 0.130308 -0.038702 341716.000000 0 0 1
9.547187 17.081078 30.028103 35.841302 1.061120 0.577542 0.131744 -0.038158 484431.000000 0 0 1
8.539287 16.371078 30.940223 36.030945 1.090012 0.538044 0.158394 -0.048102 -88659.800000 0 0 1
8.592487 16.756478 32.321905 37.407431 1.096972 0.527535 0.160002 -0.046215 119926.000000 0 0 1
7.867587 15.761678 33.044075 37.446499 1.107822 0.489784 0.180516 -0.050696 5948.190000 0 0 1
7.932587 15.798278 -32.816592 37.275196 1.105456 2.647474 0.178507 -0.051228 309157.000000 0 0 1
6.927487 16.649578 -32.228972 36.931087 1.176509 2.631458 0.169326 -0.055213 596067.000000 0 0 1
6.813687 16.447078 -30.843942 35.612940 1.178041 2.618119 0.182443 -0.064046 -355757.000000 0 0 1
5.691787 17.337878 -30.312762 35.381662 1.253595 2.599705 0.170719 -0.064198 -1113630.000000 0 0 1
5.531087 17.258278 -28.898902 34.111401 1.260650 2.581474 0.163717 -0.069717 200873.000000 0 0 1
4.745487 18.335178 -28.385842 34.124104 1.317535 2.553214 0.162860 -0.071091 445026.000000 0 0 1
3.223987 18.233378 -28.665562 34.125718 1.395787 2.568077 0.166167 -0.069173 -1787570.000000 0 0 1
2.650987 17.263878 -27.884962 32.903500 1.418430 2.582011 0.170295 -0.062508 -953321.000000 0 0 1
1.282187 17.148078 -28.112022 32.954308 1.496164 2.592619 0.160401 -0.060336 90423.100000 0 0 1
0.311787 18.311778 -27.663252 33.176407 1.553771 2.556794 0.152232 -0.063472 -603040.000000 0 0 1
0.186587 18.473178 -26.293492 32.134730 1.560696 2.529116 0.158808 -0.058342 -288862.000000 0 0 1
-0.668713 19.559678 -26.168872 32.677792 -1.536621 2.499451 0.150540 -0.050520 -439852.000000 0 0 1
-1.197813 19.867078 -24.770332 31.775854 -1.510578 2.464716 0.146111 -0.058212 -175613.000000 0 0 1
-2.175813 18.978578 -24.277732 30.892214 -1.456649 2.474923 0.130436 -0.044458 -463320.000000 0 0 1
-2.544013 19.492978 -23.068932 30.308808 -1.441021 2.435849 0.117626 -0.039606 -404809.000000 0 0 1
-3.729813 18.796378 -22.418432 29.492396 -1.374908 2.434329 0.092204 -0.024661 -198438.000000 0 0 1
-5.011813 19.359978 -22.629132 30.199415 -1.317482 2.417836 0.106361 -0.022968 483443.000000 0 0 1
-6.049613 18.535578 -22.047332 29.432131 -1.255318 2.417485 0.100544 -0.027785 736183.000000 0 0 1
-7.458913 19.143978 -22.204632 30.251826 -1.199268 2.394979 0.143864 -0.025065 -265384.000000 0 0 1
-7.786213 20.008278 -21.112932 30.111662 -1.199679 2.347812 0.110346 -0.016616 158675.000000 0 0 1
-7.559013 21.384578 -21.433332 31.206195 -1.231025 2.327914 0.133791 -0.024388 -131559.000000 0 0 1
-7.809113 22.366778 -20.234732 31.156049 -1.234889 2.277676 0.145212 -0.031433 -194958.000000 0 0 1
-6.967513 22.244778 -19.133432 30.157331 -1.267256 2.258098 0.142964 -0.028110 -161397.000000 0 0 1
-7.297213 23.284278 -18.196232 30.438623 -1.267095 2.211551 0.155270 -0.034697 108476.000000 0 0 1
-6.305613 23.457678 -17.018632 29.659016 -1.308196 2.181946 0.148591 -0.037003 850342.000000 0 0 1
-4.939313 23.734178 -17.309932 29.788283 -1.365615 2.190874 0.136980 -0.042790 257531.000000 0 0 1
-4.136613 23.827878 -16.148732 29.080249 -1.398906 2.159539 0.117905 -0.039096 -602873.000000 0 0 1
-2.677613 24.088678 -16.454532 29.294806 -1.460094 2.167221 0.112894 -0.041698 -760603.000000 0 0 1
-2.287713 25.404178 -16.315432 30.278693 -1.480986 2.139858 0.109554 -0.050478 -482542.000000 0 0 1
-1.182313 25.660378 -17.131532 30.876241 -1.524753 2.158973 0.116457 -0.049997 -257895.000000 0 0 1
-0.854913 27.183478 -17.270432 32.217079 -1.539357 2.136565 0.120763 -0.057289 142621.000000 0 0 1
-1.829613 27.923778 -17.980332 33.262249 -1.505368 2.141902 0.132649 -0.057419 -32866.700000 0 0 1
-1.222413 28.945178 -18.691932 34.477615 -1.528589 2.143786 0.151644 -0.068518 -341462.000000 0 0 1
-2.236413 29.642778 -19.666232 35.643464 -1.495494 2.155256 0.203191 -0.066389 739254.000000 0 0 1
-3.116713 30.647178 -19.151232 36.273036 -1.469448 2.127010 0.189572 -0.075958 361466.000000 0 0 1
-4.193913 30.086878 -18.399932 35.515724 -1.432295 2.115399 0.143894 -0.069130 65894.300000 0 0 1
-4.888513 31.192178 -17.486532 36.091943 -1.415338 2.076587 0.180551 -0.067472 445150.000000 0 0 1
-5.535413 32.282578 -18.139132 37.441070 -1.400980 2.076555 0.219314 -0.078241 -169199.000000 0 0 1
-6.324513 32.852178 -17.147632 37.593967 -1.380609 2.044435 0.216429 -0.082921 -141250.000000 0 0 1
-7.212613 -33.375093 -17.493232 38.365764 1.357962 2.044246 0.219873 -0.065604 -270059.000000 0 0 1
-8.350313 33.701878 -18.199932 39.201809 -1.327918 2.053598 0.191353 -0.078330 -407014.000000 0 0 1
-9.233813 -32.660593 -18.425932 38.619848 1.295267 2.068160 0.212244 -0.072792 280194.000000 0 0 1
29.372687 -20.069622 -26.737612 44.502184 -0.599413 2.215317 0.116988 -0.021290 266369.000000 0 0 1
29.647487 -21.183822 -25.880712 44.693837 -0.620407 2.188380 0.109861 -0.021903 71841.400000 0 0 1
28.398687 -21.769522 -25.558372 43.973036 -0.654021 2.191034 0.088854 -0.030672 -104870.000000 0 0 1
28.461087 -23.112822 -24.772632 44.248382 -0.682067 2.165006 0.100020 -0.024150 -49283.300000 0 0 1
28.955987 -24.231822 -25.468692 45.544316 -0.696810 2.164225 0.111705 -0.010007 541422.000000 0 0 1
30.390787 -24.301922 -25.509972 46.528938 -0.674526 2.151079 0.103442 -0.014966 683259.000000 0 0 1
30.817587 -25.683602 -26.121302 47.871636 -0.694782 2.147964 0.106621 -0.021151 52493.000000 0 0 1
30.373687 -26.779332 -25.311712 47.753286 -0.722591 2.129458 0.124122 -0.026317 -42714.100000 0 0 1
30.683587 -28.022772 -25.878632 48.953671 -0.740105 2.127788 0.109806 -0.021662 302114.000000 0 0 1
29.586187 -28.542932 -26.852292 49.102821 -0.767453 2.149404 0.108649 -0.023939 -223421.000000 0 0 1
29.431487 -27.943882 -28.140252 49.385694 -0.759476 2.177066 0.092370 -0.025477 188040.000000 0 0 1
30.472387 -27.978482 -29.133872 50.597869 -0.742757 2.184369 0.065956 -0.029486 -143239.000000 0 0 1
30.699787 -29.329752 -29.864312 51.909425 -0.762579 2.183787 0.070841 -0.021029 -602877.000000 0 0 1
31.195287 -30.378772 -29.034682 52.335729 -0.772138 2.158892 0.086573 -0.024082 570084.000000 0 0 1
32.476087 -30.197442 -28.395832 52.658381 -0.749057 2.140338 0.087744 -0.027596 897394.000000 0 0 1
33.694487 -30.245222 -29.387032 53.978603 -0.731505 2.146494 0.076102 -0.031584 -331162.000000 0 0 1
33.759687 -29.015162 -30.162782 53.771643 -0.709962 2.166320 0.080600 -0.038851 -912135.000000 0 0 1
34.949587 -28.885062 -30.852262 54.842343 -0.690679 2.168279 0.066358 -0.046292 -758872.000000 0 0 1
35.199787 -27.559792 -31.646362 54.772798 -0.664260 2.186797 0.059731 -0.029594 -244518.000000 0 0 1
35.083287 -26.362462 -30.929962 53.688723 -0.644413 2.184743 0.064793 -0.020044 1014690.000000 0 0 1
33.727787 -25.992612 -30.556282 52.410551 -0.656592 2.193234 0.089790 -0.024336 1067790.000000 0 0 1
33.617987 -24.670022 -29.724712 51.208765 -0.633074 2.190092 0.078727 -0.022810 -636134.000000 0 0 1
34.435287 -24.651722 -28.623682 51.115669 -0.621308 2.165156 0.082623 -0.019081 -256449.000000 0 0 1
34.363087 -23.372722 -27.991272 50.106060 -0.597293 2.163542 0.078833 -0.018521 -517656.000000 0 0 1
35.377087 -23.124722 -26.905742 50.101996 -0.578947 2.137696 0.088572 -0.023888 -850890.000000 0 0 1
35.101287 -23.785622 -25.612712 49.536524 -0.595553 2.114194 0.089243 -0.027665 680730.000000 0 0 1
34.083587 -23.215322 -24.758632 48.100228 -0.597948 2.111489 0.102404 -0.011525 405118.000000 0 0 1
34.419287 -21.801922 -24.172132 47.374076 -0.564632 2.106260 0.112498 -0.007962 -162312.000000 0 0 1
34.401087 -20.738222 -25.053832 47.341347 -0.542502 2.128473 0.112867 -0.026386 102820.000000 0 0 1
34.248487 -19.516022 -24.301532 46.307650 -0.517945 2.123258 0.081783 -0.038453 -19769.900000 0 0 1
34.464587 -18.208622 -25.169062 46.398743 -0.486053 2.144149 0.070714 -0.044558 407581.000000 0 0 1
33.260687 -17.847622 -25.826652 45.736494 -0.492496 2.170846 0.098569 -0.032402 316856.000000 0 0 1
33.470087 -16.691022 -26.592892 45.891381 -0.462595 2.188880 0.095115 -0.021225 -622208.000000 0 0 1
32.384287 -16.515022 -27.619732 45.654547 -0.471592 2.220527 0.096258 -0.015014 -443458.000000 0 0 1
31.117187 -16.428122 -26.990832 44.347126 -0.485752 2.225125 0.099592 -0.020813 -210708.000000 0 0 1
30.081187 -16.316322 -27.933442 44.174397 -0.496997 2.255372 0.067716 -0.024279 -808975.000000 0 0 1
28.738187 -16.003722 -27.324432 42.762450 -0.508110 2.263970 0.052715 -0.014385 -697801.000000 0 0 1
28.168287 -17.090022 -26.633072 42.365573 -0.545340 2.250611 0.075086 -0.010201 -124750.000000 0 0 1
27.748787 -16.621722 -25.337572 41.088556 -0.539689 2.235286 0.092392 -0.016648 55083.400000 0 0 1
27.234287 -17.835522 -24.508832 40.749173 -0.579807 2.216119 0.090984 -0.015246 76550.500000 0 0 1
26.659087 -17.259522 -23.329832 39.406587 -0.574557 2.204370 0.089622 -0.008537 -56561.600000 0 0 1
26.189287 -18.220522 -22.388832 38.975967 -0.607851 2.182700 0.105998 -0.012406 84590.200000 0 0 1
26.268687 -17.659422 -20.945332 37.955317 -0.591866 2.155368 0.103906 -0.013539 7632.790000 0 0 1
25.372787 -16.666222 -20.469732 36.613539 -0.581179 2.164067 0.104355 -0.009622 -68626.800000 0 0 1
25.493887 -15.408222 -21.063832 36.483375 -0.543640 2.186281 0.098517 0.001281 241737.000000 0 0 1
26.825087 -14.622422 -20.847932 36.986982 -0.499075 2.169602 0.095901 -0.006219 343122.000000 0 0 1
27.118887 -14.152622 -19.543932 36.300083 -0.480993 2.139333 0.092317 -0.011999 -222274.000000 0 0 1
28.180687 -13.257122 -19.558732 36.775623 -0.439715 2.131568 0.078143 -0.009728 -562304.000000 0 0 1
28.181187 -12.412522 -18.270132 35.805694 -0.414887 2.106281 0.085201 -0.002141 -144385.000000 0 0 1
28.525387 -13.149022 -17.153632 35.788847 -0.431930 2.070654 0.094058 -0.010782 192901.000000 0 0 1
28.528587 -12.332822 -16.044632 34.977264 -0.408035 2.047346 0.074618 -0.016051 124252.000000 0 0 1
29.027987 -12.947022 -14.666932 35.005261 -0.419538 2.003131 0.103998 -0.032865 511490.000000 0 0 1
28.144687 -13.938022 -14.088432 34.422025 -0.459822 1.992467 0.144663 -0.035341 781879.000000 0 0 1
28.562387 -14.151822 -12.712932 34.317673 -0.460018 1.950288 0.153174 -0.043706 -115414.000000 0 0 1
27.866487 -15.236822 -11.897332 33.915312 -0.500367 1.929217 0.169306 -0.061208 563023.000000 0 0 1
26.434887 -15.074422 -11.803532 32.639927 -0.518255 1.940810 0.144229 -0.063376 952869.000000 0 0 1
25.890387 -16.204722 -11.211332 32.536120 -0.559244 1.922589 0.125901 -0.058409 -544952.000000 0 0 1
24.403387 -16.021222 -10.885332 31.155984 -0.580942 1.927708 0.123796 -0.059442 -486481.000000 0 0 1
24.165187 -15.509222 -9.567832 30.266081 -0.570589 1.892437 0.104784 -0.051907 -17068.500000 0 0 1
22.784287 -15.473122 -9.347632 29.084695 -0.596570 1.897997 0.110765 -0.051863 -530431.000000 0 0 1
22.313887 -15.119322 -7.930332 28.096150 -0.595516 1.856942 0.092068 -0.038534 -214229.000000 0 0 1
22.607787 -13.730522 -7.702232 27.549295 -0.545796 1.854153 0.123272 -0.038549 218897.000000 0 0 1
22.410487 -13.288422 -6.369332 26.821269 -0.535224 1.810560 0.119872 -0.027824 -244412.000000 0 0 1
23.184787 -13.996322 -5.219032 27.580241 -0.543125 1.761175 0.115042 -0.025941 1782730.000000 0 0 1
24.637687 -14.072922 -5.405132 28.883875 -0.518970 1.759039 0.145513 -0.029405 2238120.000000 0 0 1
25.323287 -14.525622 -4.240332 29.499881 -0.520787 1.715037 0.156968 -0.043614 1202840.000000 0 0 1
26.896987 -14.426522 -4.159932 30.803855 -0.492312 1.706256 0.165546 -0.043748 1148720.000000 0 0 1
27.444987 -13.148222 -3.843832 30.673736 -0.446768 1.696440 0.175964 -0.042852 263534.000000 0 0 1
28.844287 -13.271722 -3.763032 31.973300 -0.431235 1.688763 0.191749 -0.066290 127931.000000 0 0 1
29.653787 -12.084622 -3.148332 32.176034 -0.386975 1.668800 0.240528 -0.067496 -253797.000000 0 0 1
29.978487 -12.353222 -1.748532 32.471051 -0.390868 1.624671 0.255177 -0.068091 689231.000000 0 0 1
30.747787 -11.402522 -1.010932 32.809540 -0.355119 1.601613 0.259616 -0.060664 449302.000000 0 0 1
32.213587 -11.069922 -1.392132 34.091002 -0.330999 1.611643 0.274080 -0.070012 -105078.000000 0 0 1
32.194687 -10.305522 -2.577032 33.901958 -0.309794 1.646884 0.284136 -0.077095 -520842.000000 0 0 1
33.401787 -10.226422 -3.226832 35.080928 -0.297102 1.662909 0.306939 -0.072240 -932700.000000 0 0 1
33.099687 -9.808122 -4.683532 34.838542 -0.288078 1.705640 0.283266 -0.070780 282488.000000 0 0 1
32.259087 -10.804722 -5.294432 34.429954 -0.323192 1.725183 0.285579 -0.075010 630885.000000 0 0 1
32.093487 -10.692222 -6.676032 34.480211 -0.321593 1.765646 0.265501 -0.069490 24113.000000 0 0 1
30.890387 -11.413422 -7.349832 33.741699 -0.353924 1.790383 0.251668 -0.062192 120000.000000 0 0 1
31.031587 -12.776522 -7.476232 34.381579 -0.390574 1.789996 0.250162 -0.058908 75280.000000 0 0 1
29.834887 -13.423822 -7.854032 33.645287 -0.422802 1.806406 0.234845 -0.056130 -36012.100000 0 0 1
29.960687 -14.914422 -8.041832 34.420253 -0.461886 1.806612 0.234401 -0.053072 -212315.000000 0 0 1
30.511887 -15.257022 -9.246832 35.344814 -0.463676 1.835494 0.245634 -0.062047 40687.300000 0 0 1
30.874787 -16.598122 -9.316532 36.270483 -0.493269 1.830571 0.228814 -0.062157 -133300.000000 0 0 1
31.149587 -17.167122 -10.715232 37.145970 -0.503702 1.863417 0.197276 -0.065513 288494.000000 0 0 1
32.458087 -16.845822 -11.185632 38.241699 -0.478734 1.867635 0.216695 -0.058883 683319.000000 0 0 1
32.851687 -17.291422 -12.485332 39.167718 -0.484503 1.895223 0.194588 -0.047608 241936.000000 0 0 1
32.157687 -16.665122 -13.781232 38.752619 -0.478126 1.934374 0.172785 -0.043840 42838.300000 0 0 1
32.765287 -15.466422 -14.197132 38.914429 -0.441028 1.944246 0.159245 -0.040861 89387.800000 0 0 1
32.347587 -15.066722 -15.438732 38.880933 -0.435895 1.979126 0.132013 -0.037123 -602395.000000 0 0 1
33.214287 -13.920522 -16.037232 39.422869 -0.396873 1.989745 0.128215 -0.031678 1071420.000000 0 0 1
34.456987 -14.179622 -16.702432 40.832792 -0.390395 1.992203 0.084499 -0.035860 1451400.000000 0 0 1
35.551087 -14.721822 -15.942932 41.650797 -0.392605 1.963596 0.104199 -0.038970 424573.000000 0 0 1
36.727887 -15.100022 -16.889332 43.153191 -0.390066 1.972928 0.105760 -0.044127 74344.400000 0 0 1
38.035887 -15.184522 -16.352932 44.098943 -0.379830 1.950692 0.112077 -0.048876 394786.000000 0 0 1
-37.328927 -15.525422 -17.479532 44.045676 0.394145 1.978879 0.123661 -0.055637 763781.000000 0 0 1
-35.811927 -15.486222 -17.066032 42.585991 0.408149 1.983124 0.140513 -0.056170 670668.000000 0 0 1
-35.226627 -16.359822 -16.102132 42.045662 0.434778 1.963803 0.131442 -0.052526 308216.000000 0 0 1
-35.565127 -16.165022 -14.740832 41.754979 0.426605 1.931606 0.104635 -0.045277 -498635.000000 0 0 1
-35.046927 -17.271722 -13.840932 41.450825 0.457885 1.911247 0.091225 -0.033624 629840.000000 0 0 1
-33.619727 -17.197022 -13.707532 40.173624 0.472818 1.918997 0.093466 -0.034136 611486.000000 0 0 1
-33.156227 -17.761322 -12.507932 39.638974 0.491787 1.891829 0.069432 -0.012271 928514.000000 0 0 1
-31.583427 -17.684022 -12.442232 38.275927 0.510423 1.901879 0.087872 -0.016928 764481.000000 0 0 1
-31.037827 -16.403722 -12.358232 37.217666 0.486193 1.909275 0.095816 -0.035143 -503874.000000 0 0 1
-29.867327 -16.329422 -11.617732 35.967748 0.500331 1.899698 0.124630 -0.031556 -462107.000000 0 0 1
-30.155227 -15.991222 -10.100832 35.596119 0.487590 1.858512 0.123242 -0.031287 10914.100000 0 0 1
-30.699227 -17.116422 -9.436232 36.393089 0.508623 1.833080 0.094100 -0.026087 77762.000000 0 0 1
-31.135127 -16.732722 -8.111132 36.265280 0.493136 1.796365 0.122021 -0.030011 63536.900000 0 0 1
-31.835727 -17.933722 -7.369432 37.275198 0.513013 1.769811 0.112026 -0.026318 203158.000000 0 0 1
-33.039927 -18.436222 -7.932132 38.658114 0.508963 1.777451 0.075424 -0.022295 169585.000000 0 0 1
-33.001527 -19.225622 -9.081632 39.258137 0.527503 1.804242 0.077616 -0.017193 872980.000000 0 0 1
-34.447327 -19.806322 -9.403032 40.832900 0.521815 1.803163 0.070824 -0.018562 1189120.000000 0 0 1
-35.388427 -18.905722 -9.974732 41.343226 0.490659 1.814467 0.088691 -0.014587 -515557.000000 0 0 1
-36.605027 -19.557322 -9.892332 42.664682 0.490694 1.804788 0.094179 -0.027902 -1562630.000000 0 0 1
-37.775627 -18.897122 -10.545032 43.535008 0.463845 1.815449 0.109901 -0.047175 -890313.000000 0 0 1
-37.852127 -18.981022 -11.970032 44.003913 0.464808 1.846290 0.091973 -0.040555 357749.000000 0 0 1
37.402787 -18.024622 -12.476232 43.353337 -0.449068 1.862705 0.132301 -0.049687 239507.000000 0 0 1
36.992187 -18.182022 -13.970632 43.522252 -0.456832 1.897581 0.123017 -0.050135 -471339.000000 0 0 1
36.067387 -19.164322 -14.226432 43.249497 -0.488410 1.905976 0.087487 -0.041245 -348662.000000 0 0 1
35.470387 -19.047522 -15.503632 43.143007 -0.492806 1.938372 0.080285 -0.040547 173945.000000 0 0 1
34.205987 -19.936422 -15.657332 42.575375 -0.527702 1.947391 0.110214 -0.043306 5840.090000 0 0 1
33.212587 -19.584522 -14.684632 41.258549 -0.532791 1.934692 0.143484 -0.045210 1458910.000000 0 0 1
31.929287 -20.269122 -14.675232 40.566971 -0.565625 1.940944 0.165977 -0.043734 1493920.000000 0 0 1
31.056087 -19.961922 -15.937532 40.211489 -0.571276 1.978326 0.163457 -0.042723 -735998.000000 0 0 1
30.473187 -18.662222 -15.830832 39.083359 -0.549498 1.987833 0.157903 -0.041786 570574.000000 0 0 1
29.585887 -18.383622 -16.938732 38.732453 -0.555981 2.023420 0.135555 -0.037583 -5576.790000 0 0 1
28.727787 -17.195822 -16.689532 37.410193 -0.539373 2.033225 0.134816 -0.029865 293051.000000 0 0 1
27.433187 -17.396122 -16.083532 36.247549 -0.565136 2.030535 0.144888 -0.029075 1148080.000000 0 0 1
26.737587 -16.134022 -16.078132 35.124231 -0.542931 2.046260 0.115538 -0.020408 -319164.000000 0 0 1
25.290287 -16.249122 -15.503832 33.823090 -0.571088 2.046968 0.090507 -0.021978 492242.000000 0 0 1
24.346087 -16.869622 -16.349432 33.832234 -0.605951 2.075160 0.081504 -0.020727 14226.400000 0 0 1
23.916487 -16.032722 -17.393232 33.638833 -0.590557 2.114207 0.085414 -0.005508 -1525780.000000 0 0 1
22.825387 -16.716222 -18.206232 33.643681 -0.632111 2.142599 0.069548 -0.001026 -452252.000000 0 0 1
21.630087 -16.826922 -17.491432 32.510863 -0.661145 2.138880 0.059077 -0.004195 -224543.000000 0 0 1
20.572787 -17.466322 -18.229332 32.567170 -0.703914 2.164875 0.047164 -0.009807 -265510.000000 0 0 1
19.258487 -17.321422 -17.542632 31.283621 -0.732493 2.166101 0.060987 -0.011245 -983730.000000 0 0 1
18.526387 -16.123722 -17.687332 30.266205 -0.716168 2.194927 0.075871 -0.012630 427686.000000 0 0 1
17.193587 -16.303522 -17.226032 29.294376 -0.758833 2.199420 0.091004 -0.022293 256742.000000 0 0 1
16.406987 -14.972022 -17.139032 28.055251 -0.739700 2.227997 0.110329 -0.028549 -301903.000000 0 0 1
15.716587 -14.514722 -18.234932 28.110515 -0.745663 2.276655 0.109491 -0.022261 -375396.000000 0 0 1
14.430787 -14.065722 -17.861632 26.928239 -0.772588 2.296023 0.126212 -0.019280 146479.000000 0 0 1
13.716187 -13.612422 -19.149432 27.205378 -0.781601 2.351647 0.123096 -0.025708 96721.100000 0 0 1
14.355687 -12.466322 -19.691832 27.372673 -0.715073 2.373731 0.129946 -0.030501 -170989.000000 0 0 1
13.691687 -12.066622 -20.836232 27.698633 -0.722393 2.422263 0.120126 -0.025392 -82479.000000 0 0 1
13.992187 -10.642422 -21.195632 27.537198 -0.650249 2.449182 0.124430 -0.026956 -884118.000000 0 0 1
15.260687 -10.587422 -21.743532 28.596561 -0.606533 2.434656 0.111730 -0.023275 -1038860.000000 0 0 1
15.504187 -9.277822 -22.227232 28.644505 -0.539248 2.459045 0.115000 -0.030206 863923.000000 0 0 1
16.951587 -9.087622 -22.819732 29.844285 -0.492103 2.441258 0.096776 -0.028409 743174.000000 0 0 1
17.089387 -9.641322 -24.129732 31.100582 -0.513657 2.458875 0.132340 -0.025698 -92802.600000 0 0 1
18.409287 -9.525922 -24.593232 32.163211 -0.477512 2.441277 0.108607 -0.035379 -688898.000000 0 0 1
21.846387 4.740078 -6.855132 23.382169 0.213661 1.868345 0.216271 -0.002653 -255880.000000 0 1 0
22.066887 6.071278 -7.257532 24.009992 0.268488 1.877871 0.257664 -0.003293 547621.000000 0 1 0
21.782287 6.855778 -6.147632 23.648744 0.304925 1.833773 0.252095 -0.001818 -280024.000000 0 1 0
21.700287 8.361478 -6.493132 24.144928 0.367784 1.843071 0.208993 0.010710 -40343.700000 0 1 0
20.413287 8.659878 -7.042132 23.265584 0.401216 1.878304 0.120716 -0.008468 1010750.000000 0 1 0
19.963487 10.022578 -6.995432 23.407882 0.465283 1.874283 0.103478 -0.005620 -331338.000000 0 1 0
19.499687 10.473378 -5.635832 22.840579 0.492889 1.820118 0.125992 -0.015257 -1136060.000000 0 1 0
20.416687 10.725278 -4.612232 23.519043 0.483697 1.768182 0.132122 -0.008482 -89292.000000 0 1 0
20.896587 12.066478 -4.722032 24.587900 0.523664 1.764044 0.187786 -0.018523 -101061.000000 0 1 0
21.701787 12.637878 -3.549832 25.363060 0.527335 1.711218 0.166837 -0.027658 -444007.000000 0 0 1
22.976487 12.072778 -3.472732 26.186462 0.483792 1.703804 0.139799 -0.043240 -383266.000000 0 0 1
23.726587 12.732878 -2.459832 27.039377 0.492536 1.661895 0.110872 -0.043362 -229520.000000 0 0 1
24.605187 11.691278 -1.785132 27.299962 0.443575 1.636233 0.135153 -0.043279 -758581.000000 0 0 1
25.701087 11.233078 -2.536632 28.163139 0.412046 1.660988 0.139119 -0.028821 -165706.000000 0 0 1
26.342987 10.292378 -1.707432 28.333749 0.372469 1.631094 0.164925 -0.033912 654859.000000 0 0 1
27.800987 9.948978 -2.196032 29.609113 0.343664 1.645032 0.186782 -0.036404 939163.000000 0 0 1
28.735687 11.023378 -2.096332 30.848812 0.366300 1.638804 0.145763 -0.040690 881169.000000 0 0 1
30.063787 10.473378 -2.113032 31.905922 0.335224 1.637072 0.118810 -0.032432 511048.000000 0 0 1
31.152287 11.523378 -1.798832 33.263930 0.354296 1.624900 0.095676 -0.029754 -563587.000000 0 0 1
31.080287 12.005078 -0.446732 33.321250 0.368606 1.584204 0.139049 -0.041644 235388.000000 0 0 1
32.019287 12.993278 -0.082832 34.555273 0.385492 1.573193 0.123239 -0.039531 -257186.000000 0 0 1
33.475587 12.523478 0.118368 35.741662 0.357988 1.567485 0.136002 -0.034112 -387954.000000 0 0 1
34.369487 13.513778 0.602368 36.935710 0.374623 1.554487 0.137755 -0.044801 75520.200000 0 0 1
35.389087 13.746178 -0.336232 37.966537 0.370492 1.579652 0.159832 -0.024501 -578442.000000 0 0 1
35.207187 14.938878 -1.303532 38.267679 0.401289 1.604866 0.113663 0.000206 229417.000000 0 0 1
34.113687 14.692778 -2.206532 37.208738 0.406689 1.630133 0.119379 0.005821 486229.000000 0 0 1
33.853087 15.787778 -3.070732 37.479525 0.436377 1.652819 0.085512 0.021530 -77788.700000 0 0 1
32.518387 15.713778 -3.828232 36.318366 0.450140 1.676400 0.078909 0.004480 -833355.000000 0 0 1
32.407487 14.565578 -4.686532 35.838037 0.422397 1.701942 0.061265 0.004773 335720.000000 0 0 1
31.228587 14.557578 -5.486232 34.889059 0.436213 1.728700 0.044806 0.000192 567422.000000 0 0 1
29.907687 14.236378 -4.739132 33.460478 0.444273 1.712908 0.066734 -0.014412 -428087.000000 0 0 1
28.804987 13.887678 -5.550232 32.456124 0.449248 1.742648 0.099946 -0.027213 -154356.000000 0 0 1
27.943387 13.070278 -4.834332 31.225563 0.437509 1.726241 0.112031 -0.009899 -42684.300000 0 0 1
26.855987 12.446478 -5.793332 30.161591 0.433985 1.764074 0.112489 -0.011512 -30396.300000 0 0 1
27.388087 11.643778 -6.850632 30.538763 0.401989 1.797047 0.110954 -0.006612 128534.000000 0 0 1
26.738687 11.526378 -8.121932 30.228803 0.407005 1.842821 0.142631 -0.003987 -279441.000000 0 0 1
26.529587 12.835578 -9.007732 30.817370 0.450621 1.867421 0.165352 -0.005921 -623049.000000 0 0 1
25.525087 13.672078 -8.578532 30.200116 0.491746 1.858818 0.154722 -0.021431 -436154.000000 0 0 1
25.274587 14.692878 -9.530832 30.749344 0.526578 1.885939 0.149457 -0.032378 -477277.000000 0 0 1
24.333287 15.770378 -8.907132 30.333986 0.575038 1.868824 0.133138 -0.024487 488199.000000 0 0 1
22.949187 15.511278 -8.808932 29.066514 0.594365 1.878700 0.181677 -0.042455 447424.000000 0 0 1
22.506587 14.394578 -8.012532 27.891773 0.569009 1.862174 0.202427 -0.043878 77066.200000 0 0 1
20.973487 14.078478 -8.118532 26.533022 0.591170 1.881762 0.229719 -0.035348 560646.000000 0 0 1
20.152687 14.997378 -7.458432 26.204587 0.639771 1.859410 0.288326 -0.064883 807206.000000 0 0 1
18.770787 14.769978 -7.799532 25.126229 0.666677 1.886425 0.291312 -0.053345 239728.000000 0 0 1
17.785087 15.239078 -6.756732 24.376059 0.708455 1.851662 0.269923 -0.037113 -605311.000000 0 1 0
17.877887 14.475278 -5.574432 23.669111 0.680613 1.808545 0.256733 -0.040182 546680.000000 0 1 0
17.101887 14.980478 -4.486232 23.173596 0.719370 1.765619 0.214152 -0.025246 -74864.800000 0 1 0
17.064787 13.941978 -3.381732 22.293986 0.685023 1.723072 0.162774 -0.003516 143739.000000 0 1 0
18.281787 13.681078 -2.695432 22.992629 0.642441 1.688297 0.170709 -0.004028 565635.000000 0 1 0
18.033887 12.738978 -1.690732 22.144101 0.615002 1.647222 0.157639 -0.012035 -63187.900000 0 1 0
17.608387 13.377178 -0.333632 22.115956 0.649683 1.585882 0.154998 -0.021995 -281261.000000 0 1 0
16.359287 14.015078 -0.349432 21.544623 0.708374 1.587016 0.132067 -0.028845 -11647.500000 0 1 0
16.274887 14.759378 0.830768 21.986390 0.736604 1.533002 0.122211 -0.024800 -128467.000000 0 1 0
14.937987 15.474978 1.101468 21.536751 0.803053 1.519630 0.129100 -0.025580 -305083.000000 0 1 0
14.755887 16.585878 0.174568 22.200406 0.843720 1.562933 0.139556 -0.029937 941337.000000 0 1 0
13.680987 17.440278 0.681068 22.176486 0.905611 1.540080 0.116398 -0.037620 853042.000000 0 1 0
13.772787 18.940378 0.168268 23.419135 0.942070 1.563611 0.124011 -0.040342 -247162.000000 0 1 0
13.439887 18.981878 -1.215932 23.289928 0.954696 1.623029 0.141395 -0.053221 -99084.200000 0 1 0
12.962987 20.260878 -1.541532 24.102252 1.001622 1.634798 0.132322 -0.051426 306033.000000 0 1 0
11.429787 20.442378 -1.412132 23.463268 1.060977 1.631018 0.103761 -0.044789 17133.800000 0 1 0
10.930687 20.438978 -0.123432 23.178589 1.079701 1.576122 0.088065 -0.041699 39879.600000 0 1 0
9.540987 20.089878 -0.095732 22.240566 1.127417 1.575101 0.070546 -0.046292 920046.000000 0 1 0
8.843587 20.235978 1.252068 22.119483 1.158786 1.514161 0.045195 -0.038388 28665.700000 0 1 0
8.685387 21.596378 1.668168 23.337144 1.188422 1.499254 0.038554 -0.034768 203406.000000 0 1 0
7.904987 21.721478 2.857168 23.291089 1.221770 1.447814 0.048871 -0.033217 141955.000000 0 1 0
7.676687 23.227578 3.248968 24.678081 1.251599 1.438759 0.048311 -0.022195 37275.500000 0 1 0
7.869087 23.507078 4.648168 25.221235 1.247768 1.385441 0.046975 -0.029555 -57096.000000 0 0 1
7.486887 24.796078 4.927668 26.366283 1.277562 1.382798 0.052365 -0.026393 -11948.300000 0 0 1
7.922687 25.198378 6.362268 27.169941 1.266170 1.334436 0.058148 -0.035195 -25205.700000 0 0 1
7.383587 24.380878 7.360468 26.516430 1.276733 1.289521 0.055023 -0.027116 -112558.000000 0 0 1
7.918587 24.714078 8.633368 27.350040 1.260723 1.249642 0.064299 -0.021158 38569.000000 0 0 1
7.423187 23.849378 9.785768 26.826438 1.269048 1.197399 0.068194 -0.020721 398264.000000 0 0 1
6.106787 24.085278 10.289668 26.893693 1.322481 1.178182 0.073802 -0.020659 476021.000000 0 0 1
5.743587 23.003578 11.154068 26.202416 1.326117 1.131074 0.072213 -0.023974 760186.000000 0 0 1
4.338287 22.978378 11.856268 26.218270 1.384194 1.101550 0.068415 -0.027866 1796710.000000 0 0 1
3.170187 22.923378 11.018368 25.630758 1.433373 1.126427 0.062910 -0.026650 1643550.000000 0 0 1
1.873387 22.941878 11.642468 25.795085 1.489319 1.102525 0.079255 -0.033555 1466640.000000 0 0 1
0.700587 23.228678 10.661768 25.568253 1.540645 1.140663 0.091937 -0.024985 -21969.500000 0 0 1
0.795287 24.545578 10.183068 26.585950 1.538407 1.177728 0.084801 -0.023686 -166064.000000 0 0 1
-0.112213 24.860378 9.168468 26.497392 -1.566283 1.217477 0.083371 -0.028155 -116441.000000 0 0 1
-1.460013 25.410978 9.640968 27.217599 -1.513403 1.208718 0.090658 -0.040045 -41795.900000 0 0 1
-2.335713 24.557978 10.368468 26.759203 -1.475971 1.172908 0.090498 -0.034763 199002.000000 0 0 1
-3.626613 25.138778 10.415668 27.451714 -1.427521 1.181629 0.101928 -0.037832 -615082.000000 0 0 1
-4.766313 24.207678 10.844968 26.950746 -1.376390 1.156660 0.091127 -0.038441 -151142.000000 0 0 1
-5.099413 24.334478 12.213568 27.700940 -1.364230 1.114186 0.085095 -0.028514 -210200.000000 0 0 1
-5.976513 25.405678 12.383768 28.888144 -1.339754 1.127765 0.084745 -0.017389 -890212.000000 0 0 1
-6.537013 25.577078 13.802268 29.789630 -1.320572 1.089053 0.083761 -0.018579 232955.000000 0 0 1
-7.642913 24.720778 14.069668 29.453124 -1.270948 1.072765 0.077510 -0.019640 226225.000000 0 0 1
-8.035713 24.823578 15.447968 30.321979 -1.257729 1.036234 0.060813 -0.004808 -420641.000000 0 0 1
-9.346113 24.138678 15.762768 30.306607 -1.201387 1.023817 0.060373 -0.015499 -679464.000000 0 0 1
-10.523213 24.742578 15.317868 30.944632 -1.168665 1.052951 0.065969 -0.012819 115859.000000 0 0 1
-11.644113 23.848878 15.385568 30.676865 -1.116596 1.045422 0.051674 -0.008413 1124390.000000 0 0 1
-13.031713 24.511778 15.136468 31.619068 -1.082150 1.071608 0.050587 -0.007285 363093.000000 0 0 1
-13.611513 25.336878 16.081868 32.952346 -1.077817 1.060960 0.053449 -0.015305 120564.000000 0 0 1
-14.486313 26.332878 15.543668 33.836065 -1.067859 1.093497 0.043863 -0.008519 286890.000000 0 0 1
-15.275513 27.172178 16.597868 35.315121 -1.058654 1.081513 0.047658 -0.010106 807232.000000 0 0 1
-16.498813 26.589278 17.068568 35.644586 -1.015435 1.071447 0.046451 -0.018762 513152.000000 0 0 1
-17.134613 27.335378 18.092368 36.988533 -1.010883 1.059699 0.072012 -0.030471 -377752.000000 0 0 1
-18.435713 26.699178 18.536368 37.367346 -0.966476 1.051744 0.059166 -0.036760 71987.300000 0 0 1
-19.569813 26.933378 17.694468 37.702501 -0.942440 1.082278 0.050356 -0.034875 600473.000000 0 0 1
-20.748113 26.384178 18.269968 38.215190 -0.904413 1.072327 0.067586 -0.034757 -228659.000000 0 0 1
-22.009313 26.518778 17.439668 38.623794 -0.878057 1.102321 0.063934 -0.035657 -632214.000000 0 0 1
-22.538013 27.844178 17.351868 39.803864 -0.890330 1.119720 0.058829 -0.035045 -352183.000000 0 0 1
-23.386213 27.912678 16.300368 39.896548 -0.873407 1.149914 0.063328 -0.035613 -1059510.000000 0 0 1
-24.387913 29.073878 16.246768 41.279754 -0.872825 1.166277 0.060611 -0.032294 -742151.000000 0 0 1
-25.458323 28.921378 17.104868 42.156243 -0.848995 1.152998 0.080252 -0.034300 -906083.000000 0 0 1
-26.288363 30.041078 17.115768 43.433787 -0.851921 1.165745 0.081816 -0.034000 -584150.000000 0 0 1
-27.688623 29.673478 17.586768 44.231997 -0.819987 1.161894 0.098226 -0.024714 -503611.000000 0 0 1
-28.553023 28.858078 16.798368 43.934598 -0.790712 1.178459 0.122044 -0.018255 823292.000000 0 0 1
-29.859963 28.711678 17.378568 44.922071 -0.765796 1.173572 0.151779 -0.022742 692727.000000 0 0 1
-30.030973 27.526378 18.324368 44.669265 -0.741911 1.148098 0.148128 -0.020369 -463902.000000 0 0 1
-30.244983 26.280278 17.646768 43.781508 -0.715372 1.155933 0.139874 -0.019866 243217.000000 0 0 1
-30.479543 25.127578 18.406068 43.579594 -0.689448 1.134754 0.139680 -0.015574 -52623.100000 0 0 1
-30.646663 23.814978 17.582268 42.608770 -0.660610 1.145441 0.144326 -0.019254 277800.000000 0 0 1
-31.860843 23.708278 16.842368 43.137699 -0.639727 1.169695 0.163573 -0.024140 373683.000000 0 0 1
-31.823893 22.617878 15.938968 42.170834 -0.617884 1.183202 0.155462 -0.028228 -85068.300000 0 0 1
-32.330233 21.233278 16.487368 42.046752 -0.581114 1.167861 0.137897 -0.019257 -167302.000000 0 0 1
-33.735513 21.176978 16.537068 43.127994 -0.560564 1.177276 0.149895 -0.012469 -169609.000000 0 0 1
-34.124456 19.841878 16.710568 42.865157 -0.526673 1.170338 0.119184 -0.007265 662670.000000 0 0 1
-35.544587 19.441778 16.183568 43.626921 -0.500513 1.190761 0.112925 -0.016835 505707.000000 0 0 1
-35.562291 19.643778 14.789268 43.235136 -0.504666 1.221682 0.096378 -0.009001 -599836.000000 0 0 1
-36.783713 19.342178 14.220968 43.924905 -0.484102 1.241099 0.117171 -0.015827 -810418.000000 0 0 1
-37.038323 19.850878 12.783768 43.924019 -0.491996 1.275480 0.101797 -0.014383 -212619.000000 0 0 1
-36.988963 21.288578 12.721968 44.533531 -0.522239 1.281089 0.102271 -0.023967 67294.700000 0 0 1
-37.044243 21.860978 11.399068 44.498506 -0.533132 1.311741 0.053877 -0.013290 633348.000000 0 0 1
-35.869224 21.473278 10.407268 43.081482 -0.539430 1.326811 0.101793 -0.019262 219453.000000 0 0 1
-36.155023 20.320478 9.596468 42.569939 -0.512038 1.343414 0.116090 -0.015983 -641577.000000 0 0 1
-35.004315 20.008178 8.911368 41.292151 -0.519269 1.353272 0.137716 -0.013890 -583387.000000 0 0 1
-34.291676 18.744778 9.538868 40.227798 -0.500250 1.331395 0.094845 -0.013397 82694.200000 0 0 1
-33.787853 18.997078 10.850268 40.252159 -0.512196 1.297863 0.115397 -0.020979 91564.600000 0 0 1
-33.590363 17.842278 11.605868 39.766261 -0.488274 1.274634 0.135589 -0.030486 -166085.000000 0 0 1
-32.968763 18.082778 13.025168 39.794235 -0.501677 1.237338 0.092845 -0.005998 1937270.000000 0 0 1
-31.619723 18.682178 13.016368 38.964811 -0.533657 1.230194 0.140732 -0.006097 1592710.000000 0 0 1
-31.592903 20.082778 12.746668 39.546264 -0.566238 1.242614 0.150773 -0.011353 402080.000000 0 0 1
-30.157473 20.721778 12.763668 38.752761 -0.602029 1.235169 0.166209 -0.027459 817299.000000 0 0 1
-29.617333 20.802678 14.081968 38.836061 -0.612323 1.199740 0.138188 -0.012855 220952.000000 0 0 1
-28.475033 21.647178 14.129568 38.458712 -0.650007 1.194589 0.176956 -0.014653 -26634.700000 0 0 1
-27.694013 21.608278 15.440668 38.370434 -0.662582 1.156648 0.146686 -0.012807 -279098.000000 0 0 1
-27.025483 20.396578 15.677068 37.311762 -0.646513 1.137170 0.174249 -0.025984 -71080.400000 0 0 1
-26.610853 20.236278 17.022268 37.515357 -0.650157 1.099837 0.136474 -0.015009 -183007.000000 0 0 1
-25.558023 19.126178 17.243268 36.281586 -0.642440 1.075534 0.151113 -0.022188 76586.600000 0 0 1
-25.160863 19.022578 18.609468 36.622941 -0.647354 1.037776 0.127470 -0.030649 -321677.000000 0 0 1
-24.394413 17.885278 18.763068 35.595270 -0.632643 1.015585 0.108163 -0.024725 -593956.000000 0 0 1
-23.692413 17.835878 20.114168 35.833346 -0.645297 0.974810 0.093084 -0.019561 -303107.000000 0 0 1
-24.454313 17.405078 21.217768 36.757908 -0.618561 0.955464 0.087296 -0.012125 77657.200000 0 0 1
-23.791313 17.710278 22.446668 37.195879 -0.639908 0.922948 0.114240 -0.018759 193456.000000 0 0 1
-24.450213 16.996678 23.683668 38.047550 -0.607467 0.898895 0.099192 -0.016508 35223.200000 0 0 1
-24.178213 15.646778 23.839868 37.386454 -0.574365 0.879339 0.092259 -0.029053 -184533.000000 0 0 1
-25.034673 15.076178 24.782168 38.316861 -0.542044 0.867456 0.083887 -0.035955 27488.700000 0 0 1
22.297187 24.768978 33.609253 47.331265 0.837867 0.781176 0.081150 -0.017291 -309287.000000 0 0 1
23.304687 24.141078 32.870488 46.972003 0.803025 0.795694 0.104890 -0.028863 -415076.000000 0 0 1
23.542787 22.745978 33.083627 46.542117 0.768186 0.780116 0.101731 -0.032526 -587577.000000 0 0 1
22.552287 21.705578 32.604833 45.197487 0.766269 0.764995 0.091370 -0.045154 -572159.000000 0 0 1
22.277087 21.679478 31.240813 44.071042 0.771804 0.782896 0.120512 -0.033156 -376495.000000 0 0 1
21.388987 20.650778 30.918483 42.894008 0.767840 0.765824 0.153323 -0.036883 -350235.000000 0 0 1
21.629587 19.861178 29.650643 41.730876 0.742802 0.780559 0.142890 -0.024131 -392745.000000 0 0 1
22.774687 19.054278 29.658643 41.968881 0.696688 0.785999 0.124143 -0.028229 -529072.000000 0 0 1
22.932287 18.447578 28.407553 40.904669 0.677441 0.803097 0.118243 -0.024810 691267.000000 0 0 1
24.122887 17.381078 28.361353 41.089924 0.624367 0.808994 0.133791 -0.031164 1035680.000000 0 0 1
25.379887 18.026478 28.285763 42.061585 0.617583 0.833236 0.111519 -0.026427 -52503.400000 0 0 1
26.415887 17.081878 28.506223 42.452260 0.574018 0.834580 0.099487 -0.020201 492513.000000 0 0 1
27.864887 17.595878 28.655393 43.671482 0.563239 0.855080 0.097804 -0.021050 273467.000000 0 0 1
28.540787 18.065478 27.485993 43.547879 0.564310 0.887739 0.106969 -0.011993 660891.000000 0 0 1
29.904987 18.361778 27.781863 44.758184 0.550653 0.901148 0.111006 -0.007703 589142.000000 0 0 1
30.899887 18.002978 26.659513 44.605379 0.527544 0.930199 0.108487 0.000906 -76086.800000 0 0 1
30.866787 18.841578 25.524513 44.263578 0.548043 0.956176 0.125886 -0.000756 37756.500000 0 0 1
31.789187 18.390978 24.560853 44.181625 0.524483 0.981343 0.126156 0.008352 61526.500000 0 0 1
32.325487 19.562478 23.699543 44.601524 0.544214 1.010589 0.148391 -0.014526 681894.000000 0 0 1
31.214487 20.133878 22.953543 43.664429 0.572864 1.017281 0.131613 -0.016041 837269.000000 0 0 1
31.468587 21.041978 21.919833 43.743752 0.589386 1.045931 0.114883 -0.024823 -91263.700000 0 0 1
32.085187 20.402278 20.620333 43.254020 0.566384 1.073869 0.148346 -0.019664 -52498.400000 0 0 1
31.231987 19.394978 20.097933 41.899034 0.555716 1.070512 0.143908 -0.035128 358747.000000 0 0 1
31.730687 18.909978 18.845633 41.467838 0.537438 1.099026 0.160802 -0.037801 485536.000000 0 0 1
32.860687 17.814178 18.962033 41.913344 0.496767 1.101330 0.190560 -0.052998 386530.000000 0 0 1
32.345987 16.681578 19.592333 41.332764 0.476147 1.076952 0.204604 -0.051754 392780.000000 0 0 1
33.254487 15.582078 19.529333 41.593953 0.438190 1.082045 0.208290 -0.051364 -386815.000000 0 0 1
32.715487 14.237478 20.048333 40.926086 0.410471 1.058859 0.219969 -0.046015 -46527.500000 0 0 1
32.345987 14.119778 21.404633 41.276983 0.411590 1.025629 0.193188 -0.047914 283804.000000 0 0 1
31.182787 14.769978 21.870133 40.851207 0.442353 1.005862 0.201094 -0.032814 -286697.000000 0 0 1
30.423587 14.114078 23.037193 40.688009 0.434368 0.968919 0.155196 -0.025174 190029.000000 0 0 1
29.803887 12.893278 22.579713 39.551886 0.408294 0.963209 0.149923 -0.023521 88300.700000 0 0 1
29.247687 12.172778 23.625283 39.519080 0.394390 0.930018 0.141317 -0.017171 -133763.000000 0 0 1
28.772087 10.775878 23.184213 38.489742 0.358355 0.924357 0.155094 -0.022184 -339376.000000 0 0 1
27.646087 10.849378 22.358903 37.174395 0.373971 0.925469 0.133585 -0.014001 -350156.000000 0 0 1
27.248287 9.584478 21.947233 36.276885 0.338229 0.921040 0.130641 -0.009752 138871.000000 0 0 1
25.943887 9.533778 21.093033 34.769156 0.352159 0.918945 0.112093 -0.008160 626105.000000 0 0 1
24.729887 9.667878 21.843133 34.382519 0.372671 0.882402 0.112876 -0.013258 1058120.000000 0 0 1
23.682087 9.273278 20.939433 32.943812 0.373221 0.881997 0.107181 -0.001875 517942.000000 0 0 1
22.186987 9.411078 21.317233 32.175382 0.401168 0.846602 0.108653 -0.014035 336584.000000 0 0 1
21.854587 8.508878 22.364223 32.406518 0.371284 0.809148 0.124282 -0.013114 236147.000000 0 0 1
20.454087 8.608178 22.566753 31.650098 0.398353 0.777018 0.116231 -0.016113 128848.000000 0 0 1
20.080087 7.975878 23.914703 32.229451 0.378093 0.734727 0.103335 -0.014029 -87624.400000 0 0 1
20.225487 6.567278 23.842823 31.948077 0.313963 0.728312 0.096098 -0.005953 218793.000000 0 0 1
19.921787 5.982278 25.105623 32.603029 0.291721 0.691893 0.096991 -0.018942 44706.900000 0 0 1
20.218387 4.458078 25.091803 32.530850 0.217024 0.689879 0.098132 -0.022610 154968.000000 0 0 1
21.585687 4.137378 24.929923 33.234934 0.189375 0.722565 0.103803 -0.011694 33392.500000 0 0 1
21.800587 2.777978 24.918063 33.224879 0.126744 0.722761 0.074658 -0.004727 -532683.000000 0 0 1
23.251187 2.478578 24.532523 33.891086 0.106199 0.761410 0.067520 -0.005214 -334250.000000 0 0 1
24.128887 2.891378 25.566783 35.273554 0.119262 0.760031 0.071505 -0.016101 -258411.000000 0 0 1
25.472387 2.790778 25.126223 35.888132 0.109126 0.795222 0.080084 -0.012429 222204.000000 0 0 1
26.403887 3.426578 26.202753 37.356270 0.129054 0.793397 0.069859 -0.014157 -658414.000000 0 0 1
26.397087 2.649578 27.454843 38.178460 0.100039 0.768263 0.075445 -0.015925 295884.000000 0 0 1
27.220587 3.171278 28.510843 39.545992 0.115980 0.765618 0.076894 -0.017032 486547.000000 0 0 1
28.747587 3.044478 28.282713 40.442607 0.105510 0.796337 0.068302 -0.018460 -490353.000000 0 0 1
29.154587 4.165678 27.416613 40.236966 0.141922 0.821152 0.094831 -0.024090 954804.000000 0 0 1
30.563387 4.424178 27.226193 41.169886 0.143756 0.848228 0.105103 -0.025973 1044880.000000 0 0 1
31.268587 3.378578 26.321993 41.012030 0.107633 0.873938 0.119494 -0.022406 -593610.000000 0 0 1
30.976687 3.472878 24.977003 39.943293 0.111646 0.895266 0.120657 -0.018704 27384.500000 0 0 1
31.550387 2.399478 24.251623 39.866347 0.075906 0.916850 0.121527 0.001331 -264257.000000 0 0 1
31.463987 2.527078 22.701873 38.881147 0.080144 0.947298 0.136658 -0.010615 -130920.000000 0 0 1
32.131787 3.618178 22.136833 39.186507 0.112132 0.970473 0.122425 -0.014589 698748.000000 0 0 1
33.564887 3.496078 22.017833 40.294034 0.103785 0.992702 0.117210 -0.015408 878444.000000 0 0 1
34.211387 4.722978 21.385833 40.621169 0.137186 1.016353 0.126597 -0.032430 -1029370.000000 0 0 1
33.888587 4.979278 19.981333 39.654548 0.145887 1.042706 0.114334 -0.027238 59177.300000 0 0 1
34.524887 6.117478 19.430633 40.086667 0.175370 1.064758 0.113102 -0.026151 31057.400000 0 0 1
36.069087 6.014378 19.282833 41.339804 0.165226 1.085526 0.098093 -0.028054 -96062.300000 0 0 1
36.904987 6.068678 20.442633 42.622859 0.162982 1.070579 0.104146 -0.029794 345698.000000 0 0 1
36.775387 7.061178 21.410033 43.135586 0.189700 1.051416 0.121216 -0.035797 -739765.000000 0 0 1
37.421187 6.775078 22.813623 44.347585 0.179109 1.030456 0.132024 -0.038380 88792.800000 0 0 1
36.675687 5.783178 23.485533 43.933147 0.156396 1.006792 0.141798 -0.029785 294519.000000 0 0 1
37.400587 5.185378 24.549973 45.037687 0.137766 0.994290 0.153362 -0.031815 -57493.500000 0 0 1
36.635187 4.122778 25.374993 44.755161 0.112065 0.967969 0.165183 -0.027877 -93648.400000 0 0 1
36.558387 2.905978 24.708643 44.220780 0.079322 0.977911 0.161218 -0.027385 339447.000000 0 0 1
35.659087 2.028478 25.377203 43.814240 0.056824 0.953049 0.163647 -0.032805 130698.000000 0 0 1
35.375987 0.603978 24.751913 43.179653 0.017071 0.960353 0.144718 -0.027613 70472.900000 0 0 1
34.506887 0.556178 23.624273 41.822731 0.016116 0.970524 0.141772 -0.020698 34824.700000 0 0 1
34.562887 -0.663622 22.934023 41.484973 -0.019198 0.985043 0.131498 -0.019846 -4539.440000 0 0 1
33.231287 -0.979022 22.239133 39.998199 -0.029452 0.981227 0.131305 -0.007081 -28454.800000 0 0 1
32.146387 -1.356422 23.054173 39.581877 -0.042170 0.949066 0.126190 0.001541 -76780.200000 0 0 1
31.079287 -1.866722 22.235033 38.259684 -0.059991 0.950642 0.128350 -0.001666 1244540.000000 0 0 1
29.709987 -1.446222 22.913263 37.547203 -0.048640 0.914417 0.126322 -0.003906 649761.000000 0 0 1
29.399087 -0.060822 22.797343 37.202538 -0.002069 0.911210 0.114691 0.004679 526183.000000 0 0 1
27.974487 0.080578 22.779253 36.075931 0.002880 0.887407 0.099268 -0.005475 618919.000000 0 0 1
27.566787 1.481278 22.348293 35.518560 0.053683 0.890272 0.082483 0.015974 -197151.000000 0 0 1
27.671787 1.693678 20.926933 34.735182 0.061130 0.924203 0.089808 -0.000627 215853.000000 0 0 1
27.258687 2.997978 20.542333 34.263849 0.109542 0.927878 0.106259 -0.000930 -183478.000000 0 0 1
27.593187 3.310678 19.026333 33.680052 0.119411 0.970467 0.126769 -0.016830 103030.000000 0 0 1
26.679887 2.778678 18.034233 32.322917 0.103775 0.978895 0.107562 -0.012127 517377.000000 0 0 1
25.709087 3.702678 17.632533 31.393840 0.143039 0.974411 0.133144 -0.022554 -176845.000000 0 0 1
25.183987 3.444278 16.189633 30.136364 0.135921 1.003668 0.137728 -0.026435 642074.000000 0 0 1
26.171587 3.717678 15.144933 30.465424 0.141106 1.050521 0.127843 -0.014803 988792.000000 0 0 1
25.597987 3.858778 13.841633 29.355373 0.149619 1.079783 0.107020 -0.027539 -184515.000000 0 0 1
24.915387 2.628978 13.199933 28.318302 0.105127 1.085888 0.131332 -0.018572 -474358.000000 0 0 1
23.692887 2.183678 13.672833 27.442079 0.091906 1.049225 0.162024 -0.015779 -273409.000000 0 0 1
23.309487 1.076978 12.883833 26.654928 0.046171 1.066312 0.159337 -0.020905 -789665.000000 0 0 1
21.957287 0.411678 13.185133 25.615223 0.018747 1.030094 0.223018 -0.038496 132489.000000 0 0 1
20.799687 1.088878 12.627333 24.356974 0.052303 1.025785 0.260449 -0.037027 1288460.000000 0 1 0
20.563387 0.819678 11.212133 23.435799 0.039840 1.071943 0.246832 -0.031799 -1103010.000000 0 1 0
20.253087 -0.597922 10.816433 22.968245 -0.029514 1.080452 0.237801 -0.027947 203921.000000 0 1 0
21.402287 -1.459122 10.946233 24.083333 -0.068071 1.098969 0.231344 -0.054290 1469480.000000 0 1 0
22.428887 -1.224322 9.959033 24.571045 -0.054533 1.153472 0.231513 -0.053891 513783.000000 0 1 0
23.748687 -2.024822 10.237133 25.940295 -0.085055 1.165118 0.238922 -0.062538 488074.000000 0 0 1
24.385687 -1.779122 11.461233 27.003460 -0.072829 1.132458 0.199248 -0.063478 -471411.000000 0 0 1
25.585087 -2.458822 11.587633 28.194250 -0.095809 1.147254 0.130173 -0.053431 -666368.000000 0 0 1
26.148787 -2.336322 13.012233 29.300779 -0.089111 1.110636 0.151047 -0.038282 -156313.000000 0 0 1
26.818387 -1.139422 13.260233 29.939237 -0.042461 1.111960 0.119404 -0.033966 -123610.000000 0 0 1
26.870187 -0.854922 14.606033 30.595327 -0.031806 1.073110 0.104876 -0.026754 247707.000000 0 0 1
27.979287 0.177178 14.993933 31.744132 0.006332 1.078856 0.168513 -0.028064 14418.900000 0 0 1
29.266087 -0.349822 14.862133 32.825435 -0.011953 1.100935 0.182792 -0.026955 -424895.000000 0 0 1
30.253387 0.661978 14.822833 33.696024 0.021878 1.115311 0.160722 -0.028798 290499.000000 0 0 1
31.702487 0.255078 15.150233 35.137477 0.008046 1.125007 0.171389 -0.031877 -93276.300000 0 0 1
32.291887 -0.709522 14.350433 35.344084 -0.021969 1.152701 0.197096 -0.038571 -1013890.000000 0 0 1
33.626587 -0.866422 14.675833 36.699838 -0.025760 1.159401 0.180422 -0.035467 -748763.000000 0 0 1
34.434587 -1.727122 13.688033 37.095633 -0.050115 1.192871 0.162139 -0.047975 -33621.100000 0 0 1
34.595287 -1.152322 12.376633 36.760614 -0.033296 1.227406 0.186710 -0.048885 218328.000000 0 0 1
35.512487 -1.885622 11.608133 37.409104 -0.053048 1.255285 0.179605 -0.055700 -79367.300000 0 0 1
35.444187 -1.453722 10.066133 36.874527 -0.040991 1.294303 0.211819 -0.049271 -94095.500000 0 0 1
36.045387 -0.211422 9.744033 37.339802 -0.005865 1.306784 0.176333 -0.033813 254731.000000 0 0 1
35.135087 0.829578 9.857033 36.501009 0.023607 1.297353 0.176931 -0.036043 -616786.000000 0 0 1
35.647387 2.087378 9.129333 36.856995 0.058489 1.320495 0.177597 -0.034823 -69923.100000 0 0 1
35.764687 1.959278 7.727233 36.642349 0.054728 1.358319 0.154848 -0.032919 418798.000000 0 0 1
36.068587 3.242978 7.241733 36.931052 0.089670 1.373430 0.150227 -0.025921 -137095.000000 0 0 1
36.328187 3.358178 5.744633 36.932578 0.092178 1.414618 0.129310 -0.014803 -155821.000000 0 0 1
36.794087 4.664578 5.393133 37.478647 0.126103 1.426396 0.118487 -0.007873 330767.000000 0 0 1
36.999887 4.785878 3.986533 37.520511 0.128634 1.464346 0.135281 -0.022063 -146294.000000 0 0 1
37.220087 6.273578 3.618933 37.918193 0.166984 1.475210 0.174551 -0.035669 -213831.000000 0 0 1
36.176087 7.178878 3.910833 37.088275 0.195898 1.465153 0.144172 -0.035561 -263956.000000 0 0 1
36.437787 8.535578 3.482933 37.585891 0.230102 1.477997 0.147946 -0.044980 -687636.000000 0 0 1
35.151987 9.412478 3.366333 36.545713 0.261628 1.478553 0.158942 -0.053722 65016.000000 0 0 1
34.336387 9.052678 2.296533 35.583880 0.257781 1.506213 0.166632 -0.057545 -185037.000000 0 0 1
33.542687 7.908078 2.502033 34.552999 0.231534 1.498321 0.176426 -0.041207 -1461940.000000 0 0 1
32.366287 7.844778 1.556133 33.339745 0.237789 1.524104 0.202146 -0.041980 -414039.000000 0 0 1
32.837987 7.641478 0.265033 33.716403 0.228633 1.562936 0.218221 -0.037770 804728.000000 0 0 1
31.706887 7.446378 -0.596167 32.575000 0.230670 1.589099 0.235628 -0.036390 319499.000000 0 0 1
32.071787 7.317578 -2.065667 32.960787 0.224322 1.633508 0.194863 -0.021272 -899113.000000 0 0 1
31.233787 6.486078 -2.782767 32.021281 0.204752 1.657810 0.262973 -0.032037 182033.000000 0 0 1
31.587187 6.381678 -4.163067 32.493189 0.199350 1.699271 0.200492 -0.029963 -133798.000000 0 0 1
30.622787 5.429478 -4.947767 31.491502 0.175478 1.728564 0.268362 -0.028134 -72429.000000 0 0 1
30.680587 4.039178 -4.647967 31.292443 0.130900 1.719881 0.271277 -0.024973 557858.000000 0 0 1
29.574587 3.378678 -5.213867 30.220127 0.113749 1.744194 0.297680 -0.026268 -281513.000000 0 0 1
29.472287 1.839778 -4.959967 29.943309 0.062343 1.737209 0.331839 -0.018225 -432782.000000 0 0 1
29.174687 1.554378 -3.632767 29.441050 0.053228 1.694503 0.364828 -0.026729 432256.000000 0 0 1
29.228187 0.130478 -3.431667 29.429242 0.004464 1.687670 0.331189 -0.039381 -142643.000000 0 0 1
29.353387 -0.350922 -1.947867 29.420038 -0.011955 1.637054 0.340849 -0.040708 -68990.600000 0 0 1
30.670087 -0.050322 -1.559467 30.709749 -0.001641 1.621599 0.288705 -0.038919 -13107.000000 0 0 1
30.811987 -0.306522 -0.150367 30.813879 -0.009948 1.575676 0.306693 -0.041348 268340.000000 0 0 1
32.146787 0.157678 0.516733 32.151326 0.004905 1.554724 0.328975 -0.033090 626090.000000 0 0 1
33.289487 -0.513722 -0.020167 33.293457 -0.015431 1.571402 0.243890 -0.031408 -220271.000000 0 0 1
34.417387 0.027578 0.595233 34.422545 0.000801 1.553504 0.154625 -0.029419 -663941.000000 0 0 1
-3.268913 -21.080022 -8.152732 22.836816 1.416950 1.935850 0.066162 -0.017835 110137.000000 0 1 0
-3.719113 -21.844022 -7.046632 23.251841 1.402156 1.878695 0.059215 -0.018037 -556011.000000 0 1 0
-2.890213 -22.865522 -6.598732 23.973500 1.445063 1.849647 0.063805 -0.024766 -494117.000000 0 1 0
-3.325013 -23.319422 -5.173532 24.116729 1.429165 1.786997 0.071755 -0.027088 -230590.000000 0 1 0
-3.102113 -22.305822 -4.253232 22.918612 1.432611 1.757458 0.090170 -0.042504 -175473.000000 0 1 0
-3.409913 -22.900022 -3.036032 23.350718 1.422978 1.701184 0.099831 -0.044686 -200959.000000 0 1 0
-2.716613 -22.258622 -1.806532 22.496440 1.449349 1.651186 0.112841 -0.060434 -415283.000000 0 1 0
-1.324313 -22.378322 -1.804132 22.489953 1.511687 1.651102 0.101381 -0.053905 -904631.000000 0 1 0
-0.867913 -22.463122 -0.481132 22.485031 1.532178 1.592196 0.099408 -0.049840 1704160.000000 0 1 0
0.708787 -22.297822 -0.265932 22.310669 -1.539020 1.582716 0.092662 -0.048890 1472710.000000 0 1 0
1.177887 -21.035722 -0.639632 21.078381 -1.514860 1.601146 0.070602 -0.045792 444405.000000 0 1 0
2.488587 -20.864622 -0.060432 21.012596 -1.452084 1.573672 0.054900 -0.040438 424126.000000 0 1 0
3.299987 -19.771122 -0.675132 20.055996 -1.405411 1.604465 0.052318 -0.040892 -230273.000000 0 1 0
3.987987 -20.254722 -1.803332 20.722206 -1.376391 1.657931 0.055966 -0.034325 303685.000000 0 1 0
4.989187 -19.278022 -2.218832 20.036400 -1.317551 1.681764 0.058755 -0.028345 82103.000000 0 1 0
5.742587 -19.815522 -3.415332 20.911641 -1.288721 1.734853 0.056614 -0.019213 -459062.000000 0 1 0
6.895887 -20.530922 -2.982732 21.862496 -1.246757 1.707655 0.066557 -0.031203 217770.000000 0 1 0
7.779487 -21.080722 -3.926332 22.810816 -1.217267 1.743784 0.063332 -0.028097 158645.000000 0 1 0
8.952287 -20.236222 -4.439632 22.568971 -1.154290 1.768802 0.071146 -0.030183 -221585.000000 0 1 0
8.684487 -19.478922 -5.627932 22.057252 -1.151407 1.828800 0.056595 -0.018503 -514703.000000 0 1 0
9.845687 -18.813222 -6.009332 22.067781 -1.088653 1.846592 0.073420 -0.024369 -729810.000000 0 1 0
9.777087 -17.881822 -7.257432 21.633800 -1.070443 1.912898 0.064435 -0.010013 -893938.000000 0 1 0
10.909887 -17.097622 -7.467632 21.612956 -1.002837 1.923585 0.078469 -0.028022 -300711.000000 0 1 0
10.852887 -16.136622 -8.469332 21.210972 -0.978723 1.981539 0.076672 -0.018615 -511814.000000 0 1 0
11.100687 -16.765522 -9.896932 22.411097 -0.985952 2.028187 0.066511 -0.007683 -85632.100000 0 1 0
10.059587 -17.442222 -10.583832 22.747394 -1.047657 2.054744 0.066950 -0.016706 46085.800000 0 1 0
9.030887 -16.577522 -11.035532 21.866736 -1.071980 2.099798 0.044462 -0.029811 134631.000000 0 1 0
8.438887 -16.899722 -12.459032 22.628365 -1.107668 2.153871 0.057623 -0.041800 -235951.000000 0 1 0
7.387687 -17.831822 -12.477232 22.983323 -1.178025 2.144661 0.051570 -0.028966 -71070.800000 0 1 0
7.090987 -18.221222 -13.793032 23.927866 -1.199669 2.185164 0.065276 -0.019737 -64452.500000 0 1 0
5.827687 -19.085022 -13.945032 24.344690 -1.274435 2.180734 0.066884 -0.000949 -38015.900000 0 1 0
6.031187 -20.321522 -13.266732 25.006912 -1.282289 2.130013 0.072252 -0.014441 423101.000000 0 0 1
4.837487 -21.015322 -12.895132 25.126271 -1.344549 2.109721 0.113543 -0.022908 493809.000000 0 0 1
5.236687 -22.432422 -12.556232 26.235385 -1.341461 2.069855 0.074134 -0.024954 13587.500000 0 0 1
5.658987 -23.214722 -13.677232 27.532057 -1.331692 2.090675 0.097848 -0.024350 -195306.000000 0 0 1
5.489587 -24.646722 -13.582732 28.672061 -1.351643 2.064314 0.075931 -0.019608 924024.000000 0 0 1
4.005787 -25.165212 -13.656632 28.910860 -1.412941 2.062774 0.097039 -0.025219 157744.000000 0 0 1
3.159687 -24.768922 -12.614832 27.975295 -1.443915 2.038601 0.111472 -0.027309 -831746.000000 0 0 1
1.803887 -24.794522 -12.950932 28.031214 -1.498171 2.051066 0.092917 -0.037041 -222616.000000 0 0 1
1.100487 -26.152492 -12.751632 29.116457 -1.528742 2.024116 0.072359 -0.017586 -888235.000000 0 0 1
1.584387 -27.192492 -13.574932 30.433874 -1.512597 2.033140 0.087879 -0.016181 -19848.500000 0 0 1
1.013887 -28.469962 -13.292832 31.436700 -1.535199 2.007378 0.076059 -0.020616 687326.000000 0 0 1
-0.456813 -28.788382 -13.688332 31.880246 1.554930 2.014588 0.057366 -0.019949 571532.000000 0 0 1
-1.527213 -28.099342 -13.075432 31.030184 1.516499 2.005760 0.053648 -0.022567 -1183570.000000 0 0 1
-2.704613 -28.702632 -13.425332 31.802446 1.476845 2.006610 0.072427 -0.017331 -1458350.000000 0 0 1
-3.940713 -27.894282 -13.006732 31.028943 1.430452 2.003339 0.061912 -0.019741 -200835.000000 0 0 1
-4.245713 -27.904612 -11.592132 30.513456 1.419803 1.960487 0.042782 -0.023211 -35709.300000 0 0 1
-4.857613 -29.074262 -11.124132 31.506435 1.405249 1.931652 0.055148 -0.025217 -707499.000000 0 0 1
-5.353413 -28.993142 -9.683932 31.032884 1.388209 1.888150 0.044929 -0.021800 370007.000000 0 0 1
-6.733013 -28.703532 -9.468532 30.965777 1.340391 1.881548 0.061731 -0.022570 164725.000000 0 0 1
-6.965913 -27.360892 -9.145532 29.677991 1.321499 1.884053 0.066396 -0.021611 -625133.000000 0 0 1
-8.450813 -27.185142 -8.757332 29.784880 1.269405 1.869226 0.081572 -0.022461 451090.000000 0 0 1
-9.381913 -27.163062 -9.846832 30.377826 1.238232 1.900905 0.132678 -0.032255 40030.300000 0 0 1
-9.673513 -28.486192 -10.294732 31.796564 1.243429 1.900506 0.132345 -0.039583 -1071700.000000 0 0 1
-11.036713 -28.755242 -10.941532 32.686237 1.204319 1.912130 0.163296 -0.042631 -262198.000000 0 0 1
-11.299113 -28.022282 -12.121832 32.555446 1.187518 1.952330 0.174420 -0.047258 -455161.000000 0 0 1
-12.064113 -28.722832 -13.024832 33.766702 1.173153 1.966795 0.184420 -0.049740 -491007.000000 0 0 1
-12.359413 -27.847462 -14.313832 33.661878 1.153089 2.010005 0.188838 -0.045978 399824.000000 0 0 1
-13.401713 -26.862692 -14.363532 33.279441 1.108032 2.017066 0.182319 -0.057236 334665.000000 0 0 1
-13.299213 -25.791232 -13.447032 31.982486 1.094708 2.004737 0.195835 -0.051584 18635.100000 0 0 1
-14.353013 -24.669422 -13.690132 31.654527 1.043856 2.018044 0.208888 -0.048829 -5887.340000 0 0 1
-14.123113 -23.930922 -14.879932 31.520846 1.037642 2.062430 0.215604 -0.053711 156485.000000 0 0 1
-14.869513 -22.734222 -14.859932 30.963928 0.991573 2.071350 0.228529 -0.050998 -192248.000000 0 0 1
-14.532613 -21.951022 -16.142932 30.881038 0.985999 2.120865 0.203091 -0.042218 -355265.000000 0 0 1
-13.303313 -21.292022 -16.254432 29.908777 1.012339 2.145358 0.184528 -0.038210 -199153.000000 0 0 1
-13.109913 -20.765422 -17.521532 30.167477 1.007655 2.190518 0.123008 -0.033463 -143097.000000 0 0 1
-13.304613 -19.218722 -17.612332 29.267153 0.965275 2.216522 0.113660 -0.022394 -360304.000000 0 0 1
-12.205213 -18.494522 -17.152632 28.021909 0.987467 2.229529 0.091753 -0.010989 -236275.000000 0 0 1
-12.412913 -17.092422 -17.331032 27.323909 0.942687 2.257874 0.085436 -0.003859 507029.000000 0 0 1
-11.125213 -16.210422 -17.430432 26.274857 0.969324 2.296134 0.080022 -0.013507 224368.000000 0 0 1
-10.521313 -15.846622 -16.238832 25.010261 0.984679 2.277443 0.100779 -0.019356 -931363.000000 0 0 1
-9.290813 -15.282022 -16.516132 24.344240 1.024547 2.316435 0.069863 -0.015132 -830551.000000 0 1 0
-8.433513 -14.762722 -15.320632 22.886325 1.051769 2.304228 0.051298 -0.012848 -21273.100000 0 1 0
-8.008313 -15.606722 -14.259832 22.606319 1.096698 2.253367 0.041592 -0.008311 271316.000000 0 1 0
-7.159913 -16.704022 -14.645732 23.340655 1.165852 2.249105 0.040246 0.001553 -395328.000000 0 1 0
-6.678613 -17.465622 -13.384832 22.995773 1.205566 2.192051 0.035551 -0.002554 -572102.000000 0 1 0
-5.856013 -16.672322 -12.547332 21.672442 1.233016 2.188241 0.036076 -0.005874 222847.000000 0 1 0
-5.503013 -17.323422 -11.342332 21.425046 1.263215 2.128685 0.033093 -0.012973 31499.500000 0 1 0
-4.454913 -18.464922 -11.413732 22.160164 1.334057 2.111870 0.040698 -0.011674 -135465.000000 0 1 0
-3.203113 -18.126522 -12.008132 21.977852 1.395893 2.148825 0.047551 0.002256 -307625.000000 0 1 0
-2.354613 -19.237322 -11.798332 22.689632 1.449004 2.117633 0.046771 0.006509 -634820.000000 0 1 0
-0.926913 -18.922722 -12.190132 22.528380 1.521851 2.142542 0.050318 0.012037 -1389480.000000 0 1 0
-0.760013 -18.469922 -13.512932 22.897925 1.529671 2.202026 0.059743 0.000366 302212.000000 0 1 0
0.473187 -17.809722 -13.853532 22.568351 -1.544234 2.231722 0.068560 -0.009939 876023.000000 0 1 0
1.775887 -18.642222 -13.809132 23.267539 -1.475821 2.206189 0.081095 -0.019327 -463607.000000 0 1 0
1.902387 -19.574022 -14.846332 24.640921 -1.473911 2.217435 0.101618 -0.015670 -26835.500000 0 1 0
1.268787 -20.832122 -14.627732 25.486422 -1.509966 2.182108 0.108214 -0.014810 -876041.000000 0 0 1
1.387987 -21.876122 -15.791232 27.015815 -1.507434 2.195082 0.129096 -0.017907 630870.000000 0 0 1
2.648687 -22.450622 -16.083332 27.743820 -1.453361 2.189167 0.137110 -0.022724 991423.000000 0 0 1
3.813387 -21.596622 -16.285732 27.316315 -1.396025 2.209544 0.123946 -0.030822 1139430.000000 0 0 1
5.101187 -22.405722 -16.661132 28.383654 -1.346939 2.198141 0.123836 -0.020883 476768.000000 0 0 1
5.287387 -22.895122 -17.995932 29.597241 -1.343836 2.224370 0.116112 -0.018506 547734.000000 0 0 1
6.637087 -23.300222 -18.239532 30.325432 -1.293295 2.216124 0.113091 -0.023181 711533.000000 0 0 1
7.178287 -23.218922 -19.678532 31.271245 -1.270960 2.251429 0.104980 -0.011436 -28120.600000 0 0 1
7.321287 -21.869822 -20.185332 30.648622 -1.247756 2.289760 0.125990 -0.022652 19119.400000 0 0 1
7.872687 -21.908422 -21.488132 31.681193 -1.225821 2.316190 0.101658 -0.019176 -246421.000000 0 0 1
8.058587 -20.486922 -22.005832 31.127343 -1.196033 2.355989 0.096180 -0.028214 35937.700000 0 0 1
6.838687 -19.815522 -22.190532 30.526092 -1.238478 2.384647 0.133626 -0.033797 -6881.060000 0 0 1
7.122487 -18.462422 -22.379632 29.873714 -1.202606 2.417561 0.139648 -0.035410 762967.000000 0 0 1
5.801187 -17.651822 -22.610532 29.265624 -1.253271 2.453718 0.144545 -0.036670 191180.000000 0 0 1
5.156587 -17.880422 -23.837632 30.241240 -1.290022 2.478755 0.135621 -0.039918 517913.000000 0 0 1
4.078087 -16.973622 -24.158932 29.805849 -1.335005 2.515876 0.147679 -0.040040 1914780.000000 0 0 1
2.695187 -17.136522 -23.412432 29.138744 -1.414797 2.503916 0.152685 -0.031460 773641.000000 0 0 1
2.810587 -16.512222 -22.152432 27.771985 -1.402200 2.494192 0.159873 -0.034688 -933446.000000 0 0 1
1.534987 -16.279722 -21.670432 27.147618 -1.476786 2.495171 0.160176 -0.029845 -202801.000000 0 0 1
1.696687 -15.373522 -20.441832 25.633814 -1.460877 2.493863 0.152325 -0.032849 198829.000000 0 0 1
2.272587 -14.122922 -20.747832 25.201074 -1.411249 2.537982 0.141596 -0.025480 -285427.000000 0 0 1
2.497087 -13.407822 -19.535232 23.824996 -1.386665 2.532115 0.136821 -0.027801 50094.500000 0 1 0
3.534687 -12.262122 -19.652732 23.432532 -1.290144 2.565678 0.121304 -0.029715 309922.000000 0 1 0
4.870687 -12.798322 -19.711332 24.001193 -1.207149 2.534420 0.112651 -0.017791 450074.000000 0 1 0
5.847087 -11.826722 -20.019732 23.976019 -1.111642 2.558911 0.100470 -0.009156 52800.900000 0 1 0
6.334987 -11.006622 -18.821232 22.704990 -1.048540 2.548019 0.110113 -0.011474 -495104.000000 0 1 0
5.534487 -9.903822 -18.303732 21.534690 -1.061204 2.586715 0.072545 -0.013673 369396.000000 0 1 0
5.781487 -8.673522 -18.980432 21.654385 -0.982862 2.639374 0.087574 -0.025502 3833.230000 0 1 0
5.122787 -8.488122 -20.379032 22.662659 -1.027790 2.688812 0.108641 -0.032172 -578603.000000 0 1 0
3.734987 -8.590522 -20.452732 22.495810 -1.160671 2.712106 0.102230 -0.026846 -824298.000000 0 1 0
3.349987 -8.950722 -21.726432 23.735537 -1.212666 2.727184 0.101359 -0.027381 949712.000000 0 1 0
1.786087 -8.842822 -21.919032 23.702945 -1.371496 2.751145 0.079376 -0.020994 1086730.000000 0 1 0
1.370587 -7.495022 -21.865832 23.155312 -1.389928 2.806293 0.071647 -0.023477 -212917.000000 0 1 0
-0.038113 -7.400022 -21.943332 23.157539 1.565646 2.816332 0.061818 -0.021746 491915.000000 0 1 0
-0.613813 -6.395422 -23.025332 23.904898 1.475112 2.869482 0.067592 -0.012161 334866.000000 0 1 0
-0.305213 -6.802322 -24.342832 25.277228 1.525957 2.868844 0.066423 -0.012983 -460426.000000 0 0 1
-0.950213 -6.011222 -25.307402 26.028875 1.414020 2.905596 0.092452 -0.031437 159848.000000 0 0 1
-0.363013 -4.570622 -25.685512 26.091530 1.491540 2.964947 0.099842 -0.029973 -252193.000000 0 0 1
-1.049813 -4.045822 -26.835432 27.158999 1.316915 2.987077 0.095827 -0.030664 191897.000000 0 0 1
-0.778013 -2.698822 -27.245402 27.389796 1.290127 3.038866 0.095214 -0.024573 -868440.000000 0 0 1
-1.279713 -1.511722 -26.358442 26.432754 0.868322 3.066591 0.092939 -0.030390 29113.500000 0 0 1
-2.664913 -1.360722 -26.179272 26.349718 0.472097 3.027790 0.081164 -0.029137 -320166.000000 0 0 1
-3.425713 -0.982422 -27.299712 27.531345 0.279284 3.011783 0.095137 -0.025819 -150047.000000 0 0 1
-4.933413 -1.273022 -27.080502 27.555630 0.252532 2.955623 0.087541 -0.030436 414444.000000 0 0 1
-5.570413 -0.340422 -26.192692 26.780637 0.061037 2.931665 0.094412 -0.023494 -151945.000000 0 0 1
-6.957013 -0.544522 -26.161312 27.076019 0.078110 2.880921 0.115305 -0.040315 -576199.000000 0 0 1
-7.795313 0.360478 -25.278252 26.455376 -0.046210 2.842165 0.127054 -0.030983 -945034.000000 0 0 1
-7.990513 1.721978 -25.666292 26.936445 -0.212257 2.833278 0.149187 -0.040231 596929.000000 0 0 1
-8.962313 2.021578 -26.689542 28.226610 -0.221851 2.810063 0.152251 -0.048792 123897.000000 0 0 1
-10.383113 1.474678 -26.579932 28.574053 -0.141083 2.765787 0.150102 -0.044586 -394572.000000 0 0 1
-11.383413 2.185378 -27.359192 29.713354 -0.189671 2.740848 0.152412 -0.056820 1290100.000000 0 0 1
-12.676113 1.621678 -27.102102 29.963939 -0.127241 2.700980 0.097560 -0.037655 447280.000000 0 0 1
-13.854313 2.463178 -27.645812 31.020964 -0.175953 2.670775 0.078523 -0.028268 -795197.000000 0 0 1
-15.023913 1.681578 -27.592982 31.462968 -0.111463 2.640376 0.068640 -0.025570 934703.000000 0 0 1
-16.186013 2.327778 -28.197792 32.596335 -0.142835 2.616067 0.068585 -0.027233 1162450.000000 0 0 1
-16.901513 3.532378 -27.589492 32.547180 -0.206032 2.582387 0.082580 -0.015284 -766049.000000 0 0 1
-16.185413 4.767278 -27.618142 32.364430 -0.286442 2.593171 0.096692 -0.019517 70268.200000 0 0 1
-16.031913 5.386378 -28.918872 33.501291 -0.324129 2.612403 0.084071 -0.021709 -90787.700000 0 0 1
-17.334513 5.780078 -29.676402 34.850875 -0.321850 2.589684 0.086795 -0.016213 463454.000000 0 0 1
-18.095513 6.787478 -28.987052 34.839154 -0.358851 2.553545 0.095090 -0.015959 463302.000000 0 0 1
-19.110113 7.319378 -29.813932 36.161309 -0.365775 2.540062 0.082561 -0.014472 -452136.000000 0 0 1
-19.961713 8.442378 -29.269742 36.420620 -0.400115 2.504214 0.088947 -0.014818 -719049.000000 0 0 1
-19.336013 9.641778 -28.860212 36.052145 -0.462562 2.498947 0.083375 -0.010725 -10285.700000 0 0 1
-20.153313 10.444878 -28.034092 36.071621 -0.478157 2.460966 0.107379 -0.005465 -153700.000000 0 0 1
-9.095413 24.803478 30.587873 40.417286 -1.219323 0.712390 0.072948 -0.017244 -518378.000000 0 0 1
-9.993213 25.893178 30.476213 41.220389 -1.202469 0.738695 0.075025 -0.017005 171029.000000 0 0 1
-9.737013 26.955978 31.451727 42.551678 -1.224162 0.739001 0.087896 -0.018882 2065050.000000 0 0 1
-8.257313 27.632078 31.446717 42.668618 -1.280413 0.742177 0.084102 -0.017974 1959620.000000 0 0 1
-8.171613 28.432678 30.259713 42.318349 -1.290937 0.774101 0.093508 -0.007620 158839.000000 0 0 1
-6.836813 28.623078 29.835063 41.906486 -1.336333 0.778534 0.097832 -0.006920 141650.000000 0 0 1
-6.579713 29.775478 28.771043 41.924272 -1.353314 0.814459 0.119658 -0.012183 -199760.000000 0 0 1
-6.680413 31.048278 29.350553 43.244403 -1.358865 0.824787 0.125434 -0.015601 287512.000000 0 0 1
-6.232713 32.126178 28.547053 43.426630 -1.379170 0.853482 0.144617 -0.020394 -27268.600000 0 0 1
-6.522313 33.479678 29.188733 44.893335 -1.378392 0.862975 0.152917 -0.032491 -206323.000000 0 0 1
-5.680213 33.721778 30.266423 45.667050 -1.403919 0.846294 0.170699 -0.036984 75244.000000 0 0 1
-6.273513 -32.761693 31.173513 45.656034 1.381597 0.819221 0.173072 -0.041691 182635.000000 0 0 1
-7.289313 -33.253493 32.222271 46.874339 1.355005 0.812868 0.131115 -0.033254 -119571.000000 0 0 1
-6.840713 33.316978 33.240888 47.558101 -1.368289 0.796864 0.136013 -0.031268 -199945.000000 0 0 1
-6.861313 31.990878 32.746828 46.290913 -1.359520 0.784964 0.116804 -0.020879 -53595.600000 0 0 1
-6.926513 30.961178 -33.531732 46.162195 -1.350704 2.383850 0.108265 -0.019728 -241505.000000 0 0 1
-5.749013 30.797178 -32.790292 45.351082 -1.386247 2.378978 0.112476 -0.012482 -235266.000000 0 0 1
-6.028913 30.195278 -31.510552 44.056980 -1.373724 2.367739 0.109393 -0.018151 673417.000000 0 0 1
-4.645413 29.809378 -30.867032 43.161934 -1.416202 2.367628 0.130065 -0.025172 1343360.000000 0 0 1
-3.916313 28.664978 -31.298592 42.621830 -1.435013 2.395479 0.135074 -0.011982 398523.000000 0 0 1
-3.329513 28.708278 -32.605062 43.569955 -1.455335 2.416350 0.113112 -0.016516 -333090.000000 0 0 1
-2.592213 27.400078 -32.966912 42.945328 -1.476471 2.445960 0.109901 -0.021925 -783577.000000 0 0 1
-1.435413 27.101978 -32.217582 42.125411 -1.517882 2.441530 0.122108 -0.016631 188352.000000 0 0 1
-0.785413 25.893078 -32.585022 41.627540 -1.540473 2.469910 0.137667 -0.013296 296767.000000 0 0 1
-0.175513 25.833878 33.368883 42.200739 -1.564003 0.658815 0.116639 -0.004334 -644121.000000 0 0 1
-1.125013 25.444778 32.382034 41.198283 -1.526611 0.666477 0.121812 -0.001379 69894.800000 0 0 1
-0.645313 25.344978 31.051493 40.087149 -1.545341 0.684714 0.131581 -0.001928 150941.000000 0 0 1
-0.164713 26.651778 30.354973 40.395158 -1.564616 0.720538 0.115252 -0.006478 -150453.000000 0 0 1
-1.226813 27.556978 30.288693 40.967023 -1.526307 0.738702 0.111771 -0.011401 45123.600000 0 0 1
-0.876413 28.680778 29.450143 41.117709 -1.540248 0.772397 0.110153 -0.011641 315701.000000 0 0 1
-1.977213 29.766278 29.598553 42.023981 -1.504469 0.789324 0.119430 -0.010547 252437.000000 0 0 1
-1.926613 30.416678 30.800603 43.330858 -1.507540 0.780128 0.139156 -0.024211 13628.300000 0 0 1
-2.741113 31.572078 30.804493 44.195323 -1.484193 0.799580 0.138671 -0.020589 -14870.900000 0 0 1
-2.484413 32.311078 32.120561 45.627935 -1.494057 0.789829 0.152012 -0.015021 -48417.500000 0 0 1
-1.171213 32.804078 32.044167 45.872736 -1.535108 0.797434 0.193152 -0.045632 -668161.000000 0 0 1
-0.678013 33.130878 33.289543 46.971357 -1.550334 0.783114 0.160148 -0.034427 842809.000000 0 0 1
0.837387 33.527078 33.038108 47.077412 1.545825 0.792900 0.170646 -0.055438 885282.000000 0 0 1
1.041087 -32.843193 32.175378 45.989283 -1.539108 0.795920 0.206855 -0.071873 104224.000000 0 0 1
2.430387 -32.615393 32.015341 45.767376 -1.496417 0.796066 0.172291 -0.075152 162592.000000 0 0 1
2.721187 -31.154693 31.766830 44.577475 -1.483673 0.777570 0.177718 -0.070954 -247803.000000 0 0 1
2.395187 -30.373293 32.912231 44.849624 -1.492101 0.746846 0.174564 -0.062550 129262.000000 0 0 1
2.389787 -28.992693 32.574638 43.673726 -1.488555 0.728966 0.137652 -0.061654 29220.000000 0 0 1
1.930187 -28.096893 -33.625022 43.861181 -1.502207 2.444363 0.130861 -0.051072 404756.000000 0 0 1
0.529787 -28.009793 -33.393682 43.588614 -1.551884 2.443563 0.137533 -0.054501 216587.000000 0 0 1
0.231687 -27.393793 -32.176992 42.259111 -1.562339 2.436299 0.126398 -0.045330 -52133.200000 0 0 1
-1.307713 -27.291993 -32.154602 42.195752 1.522917 2.437245 0.171940 -0.050585 -319219.000000 0 0 1
-1.765713 -26.837993 -30.907232 40.971364 1.505099 2.425478 0.174517 -0.050954 411643.000000 0 0 1
-3.154913 -26.518393 -30.869222 40.817736 1.452382 2.428389 0.188715 -0.053319 417182.000000 0 0 1
-3.530613 -25.786393 -29.595042 39.411545 1.434725 2.420255 0.201616 -0.061539 -200733.000000 0 0 1
-3.807813 -26.698193 -28.506592 39.241799 1.429127 2.383916 0.210445 -0.065579 -17207.700000 0 0 1
-3.860513 -26.036593 -27.271662 37.901865 1.423596 2.373927 0.216956 -0.057558 733126.000000 0 0 1
-2.520213 -25.511193 -26.599392 36.941848 1.472327 2.374648 0.201315 -0.052188 834757.000000 0 0 1
-1.937013 -24.388693 -27.271812 36.637578 1.491540 2.410383 0.192474 -0.048173 94870.100000 0 0 1
-0.896113 -23.825693 -26.518812 35.661101 1.533203 2.409286 0.155938 -0.042454 -512533.000000 0 0 1
-0.021913 -22.754093 -27.257802 35.506859 1.569833 2.446005 0.107660 -0.030632 499015.000000 0 0 1
0.715387 -23.064393 -28.420462 36.608752 -1.539789 2.459618 0.073148 -0.037469 -248739.000000 0 0 1
1.724887 -24.017993 -28.234812 37.108542 -1.499103 2.435451 0.064996 -0.028342 -4683.760000 0 0 1
2.659887 -24.195493 -29.524622 38.264869 -1.461303 2.452126 0.052492 -0.033567 1094740.000000 0 0 1
3.717087 -23.254993 -29.710292 37.911910 -1.412297 2.471343 0.068504 -0.028522 511045.000000 0 0 1
4.464287 -23.420493 -30.904982 39.032900 -1.382441 2.484494 0.081858 -0.027217 -29403.500000 0 0 1
5.713687 -22.508093 -31.022412 38.751136 -1.322197 2.499017 0.094350 -0.042142 89948.600000 0 0 1
6.840087 -22.690093 -30.181742 38.374011 -1.278003 2.475942 0.057982 -0.035443 1008300.000000 0 0 1
7.646487 -23.899693 -30.306962 39.346869 -1.261147 2.450031 0.065587 -0.026523 229249.000000 0 0 1
8.323787 -24.252793 -31.653282 40.735902 -1.240184 2.460740 0.078849 -0.024240 -922293.000000 0 0 1
7.518487 -24.834193 -32.629022 41.688343 -1.276821 2.469771 0.065778 -0.029164 -431420.000000 0 0 1
7.716487 -24.431393 33.423933 42.114088 -1.264869 0.654008 0.074182 -0.025687 12926.400000 0 0 1
7.205587 -22.986893 33.034514 40.885166 -1.267033 0.630076 0.080544 -0.026690 1120920.000000 0 0 1
5.774887 -22.847893 33.183228 40.700149 -1.323228 0.617532 0.085615 -0.031522 574876.000000 0 0 1
5.331287 -21.664293 32.564216 39.473945 -1.329504 0.600674 0.095451 -0.045573 -63867.700000 0 0 1
3.816787 -21.351193 32.714824 39.251764 -1.393903 0.585454 0.084074 -0.055511 682092.000000 0 0 1
2.923987 -22.380593 32.285423 39.392755 -1.440884 0.610123 0.078566 -0.050381 37307.100000 0 0 1
2.839787 -23.496593 33.136521 40.720797 -1.450520 0.620222 0.080522 -0.038549 -1213480.000000 0 0 1
1.565787 -24.337193 33.016632 41.046908 -1.506548 0.636193 0.092962 -0.047366 -132288.000000 0 0 1
1.386887 -25.101793 31.855598 40.580815 -1.515602 0.668114 0.093558 -0.042901 1575940.000000 0 0 1
-0.011413 -25.502093 31.673475 40.664061 1.570349 0.677877 0.151380 -0.051443 1490600.000000 0 0 1
-0.330613 -26.480293 30.518363 40.406506 1.558312 0.714710 0.149745 -0.059806 619314.000000 0 0 1
-1.738313 -26.689493 30.359273 40.460304 1.505757 0.722209 0.191055 -0.054492 696009.000000 0 0 1
-2.026313 -27.522993 29.248573 40.213183 1.497306 0.756361 0.199823 -0.065860 -694407.000000 0 0 1
-3.418813 -27.332793 28.695903 39.777188 1.446362 0.764951 0.230968 -0.067425 -945046.000000 0 0 1
-4.466413 -27.857293 29.466103 40.794961 1.411817 0.763678 0.244621 -0.066338 -745937.000000 0 0 1
-5.636413 -27.790693 28.734713 40.370478 1.370694 0.778774 0.231757 -0.054458 -635920.000000 0 0 1
-6.894013 -28.408093 29.350113 41.424344 1.332721 0.783393 0.188253 -0.045651 -792733.000000 0 0 1
-7.940913 -28.800593 28.527933 41.308295 1.301760 0.808464 0.182634 -0.048749 -106852.000000 0 0 1
-9.150513 -29.077093 29.206773 42.216641 1.265910 0.806775 0.154506 -0.046375 -17397.500000 0 0 1
-9.223513 -30.356793 30.059903 43.705902 1.275823 0.812374 0.106150 -0.033463 -777629.000000 0 0 1
-9.320813 -31.595193 29.318383 44.098768 1.283926 0.843524 0.115083 -0.036819 1227470.000000 0 0 1
-10.627613 -31.881593 28.749243 44.225571 1.249034 0.863134 0.113061 -0.037205 887491.000000 0 0 1
-10.642613 -33.352293 28.283623 45.006711 1.261913 0.891262 0.112643 -0.027527 -444395.000000 0 0 1
-10.748913 33.154378 29.302513 45.534483 -1.257281 0.871704 0.114491 -0.021777 314529.000000 0 0 1
-10.455913 31.850578 28.785773 44.186040 -1.253600 0.861279 0.117009 -0.029402 -70650.300000 0 0 1
-10.948413 30.690978 29.728283 44.108669 -1.228138 0.831216 0.100377 -0.006136 982613.000000 0 0 1
-12.396313 30.752078 29.754453 44.549818 -1.187616 0.839424 0.095919 0.004550 961025.000000 0 0 1
-12.883713 29.494278 30.228733 44.155167 -1.158956 0.816738 0.084344 0.003814 51922.800000 0 0 1
-12.841913 29.310478 31.773476 45.095150 -1.157854 0.788955 0.090309 -0.014290 312239.000000 0 0 1
-13.789813 30.192278 32.473337 46.435441 -1.142357 0.796347 0.091881 -0.009500 973876.000000 0 0 1
-13.975913 29.765378 -33.588152 47.004977 -1.131816 2.366800 0.094300 -0.014629 342702.000000 0 0 1
-15.349013 30.101178 -32.917712 47.172544 -1.099249 2.343139 0.085925 -0.015434 438519.000000 0 0 1
-15.487413 29.634078 -31.592812 46.001569 -1.089216 2.327842 0.058550 -0.009190 -598549.000000 0 0 1
-16.756913 29.976578 -31.137852 46.356825 -1.061069 2.307297 0.076775 -0.013178 -340804.000000 0 0 1
-17.042813 29.588478 -29.651462 45.223276 -1.048215 2.285864 0.081958 -0.014530 -7931.080000 0 0 1
-17.137513 28.193978 -29.356022 44.163003 -1.024630 2.297915 0.069773 -0.015419 163924.000000 0 0 1
-17.259413 28.016378 -27.960592 43.181009 -1.018661 2.275123 0.061277 -0.011651 -135665.000000 0 0 1
-17.668513 26.558778 -27.543182 42.144655 -0.983768 2.283047 0.049985 -0.018490 803073.000000 0 0 1
-19.054113 26.329078 -27.836352 42.791846 -0.944347 2.279047 0.052905 -0.016189 512867.000000 0 0 1
-19.410013 25.008378 -27.485622 41.924062 -0.910774 2.285780 0.039522 -0.022562 308856.000000 0 0 1
-20.908313 24.686478 -27.706102 42.593519 -0.868073 2.279009 0.051216 -0.024376 289756.000000 0 0 1
-21.830613 24.881178 -26.665372 42.505185 -0.850612 2.248934 0.056305 -0.026313 376555.000000 0 0 1
-23.161813 24.612278 -27.071292 43.302294 -0.815750 2.246146 0.100448 -0.033221 838968.000000 0 0 1
-24.252213 24.519278 -25.943072 43.155623 -0.790874 2.215738 0.114374 -0.034519 -29956.500000 0 0 1
-24.845613 25.750678 -25.722882 44.068907 -0.803284 2.194071 0.083330 -0.023027 -331892.000000 0 0 1
-26.117603 25.718178 -25.111692 44.431419 -0.777693 2.171446 0.089572 -0.026234 211320.000000 0 0 1
-26.215583 25.265578 -23.621832 43.400428 -0.766947 2.146323 0.073827 -0.019783 -921265.000000 0 0 1
-26.132133 23.864778 -23.315732 42.379705 -0.740079 2.153355 0.082341 -0.022453 594379.000000 0 0 1
-27.408813 23.227678 -23.089732 42.707187 -0.703013 2.142008 0.085015 -0.021555 827180.000000 0 0 1
-28.196453 23.595578 -21.780732 42.733963 -0.696797 2.105611 0.072210 -0.019350 -165826.000000 0 0 1
-27.681513 23.216678 -20.503832 41.541394 -0.697901 2.086993 0.058879 -0.018145 511793.000000 0 0 1
-26.508193 23.926878 -20.083232 40.969696 -0.734262 2.083112 0.048172 -0.008929 509671.000000 0 0 1
-25.715103 23.298178 -18.898732 39.512450 -0.736126 2.069512 0.041289 -0.010039 -174608.000000 0 0 1
-26.329293 23.432278 -17.656732 39.421612 -0.727246 2.035206 0.032835 0.000861 -448263.000000 0 0 1
-25.419843 23.169178 -16.630832 38.204238 -0.739111 2.021183 0.061002 -0.014553 -227801.000000 0 0 1
-25.965723 23.369678 -15.156532 38.079930 -0.732826 1.980153 0.058406 -0.014213 -205199.000000 0 0 1
-26.176743 24.768778 -14.921732 39.004773 -0.757769 1.963364 0.060136 -0.014114 -54876.300000 0 0 1
-26.699553 24.945278 -13.630532 38.999031 -0.751443 1.927844 0.044295 -0.024121 85480.400000 0 0 1
-26.365283 26.352178 -13.072532 39.502614 -0.785150 1.908083 0.062104 -0.016468 310638.000000 0 0 1
-25.029713 26.646578 -12.719732 38.708116 -0.816676 1.905624 0.062372 -0.028141 -73182.500000 0 0 1
-25.070793 27.612778 -11.700032 39.088373 -0.833611 1.874779 0.067681 -0.027370 -367528.000000 0 0 1
-23.663013 28.109078 -11.351632 38.456703 -0.871066 1.870440 0.086076 -0.030026 -622816.000000 0 0 1
-23.076013 27.031578 -10.674332 37.109971 -0.864176 1.862559 0.087304 -0.032007 -142879.000000 0 0 1
-21.931913 27.369178 -9.909132 36.445461 -0.895241 1.846152 0.082040 -0.033777 71598.900000 0 0 1
-21.287113 26.116678 -9.288932 34.950055 -0.886929 1.839806 0.148694 -0.036531 89505.600000 0 0 1
-20.700713 25.253978 -10.293832 34.238077 -0.884157 1.876175 0.138315 -0.033800 576754.000000 0 0 1
-19.584913 24.490778 -9.849532 32.869139 -0.896247 1.875132 0.154392 -0.036979 160628.000000 0 0 1
-19.033613 23.490478 -10.860132 32.125122 -0.889825 1.915648 0.144780 -0.036415 -764807.000000 0 0 1
-18.314713 22.450878 -10.390932 30.780548 -0.886514 1.915142 0.106229 -0.022057 -86757.600000 0 0 1
-17.681613 21.714478 -11.454932 30.255139 -0.887410 1.959092 0.127308 -0.016376 482525.000000 0 0 1
-17.240313 20.301278 -11.043532 28.832792 -0.866754 1.963860 0.113764 -0.013691 575142.000000 0 0 1
-18.391813 19.456478 -10.853032 28.889473 -0.813521 1.955921 0.122715 -0.013383 603919.000000 0 0 1
-18.040513 18.077678 -10.628532 27.662759 -0.786427 1.965157 0.145263 -0.031327 -834703.000000 0 0 1
-19.255713 17.190678 -10.310032 27.795659 -0.728799 1.950798 0.130293 -0.018506 375028.000000 0 0 1
-19.973413 16.745978 -11.488732 28.484311 -0.697729 1.985955 0.123912 -0.018352 381646.000000 0 0 1
-20.838213 17.706078 -12.067632 29.889197 -0.704316 1.986404 0.134458 -0.016915 -806131.000000 0 0 1
-21.519213 17.220278 -13.351632 30.624836 -0.674880 2.021917 0.128085 -0.014434 58250.100000 0 0 1
-20.633213 16.889078 -14.430632 30.318535 -0.685943 2.066860 0.122715 -0.016815 168768.000000 0 0 1
-21.336013 16.318178 -15.497132 31.010796 -0.652918 2.094087 0.135342 -0.018038 378160.000000 0 0 1
-20.468413 15.922278 -16.791432 30.893803 -0.661116 2.145423 0.144892 -0.028989 147631.000000 0 0 1
-19.883213 17.086578 -17.332532 31.427854 -0.709895 2.154960 0.125720 -0.026464 85475.400000 0 0 1
-18.991413 16.769578 -18.361932 31.289824 -0.723348 2.197940 0.116750 -0.021871 -407884.000000 0 0 1
-18.054113 17.968078 -18.748232 31.627504 -0.783010 2.205306 0.098051 -0.019739 70472.300000 0 0 1
-17.071113 18.317378 -17.789132 30.714857 -0.820600 2.188507 0.126206 -0.027393 368714.000000 0 0 1
-16.360213 19.489178 -18.122132 31.239339 -0.872458 2.189655 0.138805 -0.016279 12950.700000 0 0 1
34.087861 30.494578 1.713768 45.769406 0.729817 1.533344 0.116598 -0.008659 -682582.000000 0 0 1
35.432191 30.549578 1.393568 46.804475 0.711533 1.541018 0.124872 -0.009906 -809782.000000 0 0 1
35.789421 31.384478 0.296568 47.602059 0.719917 1.564566 0.104932 -0.004667 125983.000000 0 0 1
37.119531 30.991678 -0.382532 48.357936 0.695671 1.578707 0.073365 -0.005513 -202070.000000 0 0 1
-37.939303 31.390978 0.325868 49.243176 -0.691226 1.564179 0.061903 -0.003860 -683241.000000 0 0 1
-36.844503 31.479778 -0.525132 48.464106 -0.707040 1.581632 0.070329 -0.002814 -748172.000000 0 0 1
-35.846834 32.539378 -0.087632 48.412956 -0.737071 1.572606 0.062315 -0.002791 -359477.000000 0 0 1
-35.268739 32.305878 1.192168 47.843233 -0.741580 1.545876 0.049448 -0.014414 96244.800000 0 0 1
-34.902824 33.536378 1.759768 48.435447 -0.765435 1.534456 0.033758 -0.007397 -102354.000000 0 0 1
-33.858243 33.396178 2.893568 47.645126 -0.778528 1.510027 0.056801 -0.003396 19507.900000 0 0 1
-33.536863 -32.774793 3.482768 47.021675 0.773906 1.496661 0.048671 0.006601 377839.000000 0 0 1
-32.542253 -32.920493 4.499968 46.508137 0.791176 1.473888 0.083778 -0.002869 -234511.000000 0 0 1
-32.458253 -31.652993 5.385168 45.655780 0.772838 1.452570 0.088391 -0.001495 1077900.000000 0 0 1
-33.619593 -31.177493 6.138768 46.260108 0.747728 1.437703 0.074858 -0.000810 968320.000000 0 0 1
-34.240967 -32.137793 6.953268 47.472408 0.753724 1.423798 0.072021 -0.022048 -1496390.000000 0 0 1
-35.269329 -31.438993 7.860068 47.896937 0.728042 1.405947 0.085093 -0.018471 -719828.000000 0 0 1
-36.511953 -31.037193 7.418968 48.491970 0.704526 1.417199 0.061723 -0.013932 -336355.000000 0 0 1
-37.348023 -32.164693 7.158268 49.806457 0.710969 1.426575 0.062904 -0.009682 -414416.000000 0 0 1
37.345761 -31.969993 6.792468 49.627854 -0.707998 1.433497 0.073468 -0.010532 631981.000000 0 0 1
36.476221 -32.247993 7.904268 49.324692 -0.723951 1.409853 0.071934 -0.012864 940425.000000 0 0 1
35.108941 -32.170893 7.458568 48.199941 -0.741757 1.415430 0.055124 -0.003041 863292.000000 0 0 1
34.241181 -32.439393 8.751568 47.972520 -0.758384 1.387340 0.058351 -0.022383 57429.100000 0 0 1
32.844031 -32.253993 8.624568 46.834107 -0.776335 1.385588 0.079482 -0.020317 742984.000000 0 0 1
32.072101 -32.310893 9.842268 46.577717 -0.789107 1.357883 0.095693 -0.029773 231894.000000 0 0 1
32.160361 -31.094693 10.809468 46.021879 -0.768553 1.333705 0.085872 -0.023991 -669308.000000 0 0 1
31.530281 -29.915393 10.370368 44.683709 -0.759123 1.336577 0.080228 -0.030775 -15219.500000 0 0 1
32.132891 -29.214693 9.302168 44.413413 -0.737866 1.359789 0.077943 -0.030088 -187107.000000 0 0 1
31.496711 -27.822993 8.896568 42.957079 -0.723546 1.362183 0.077860 -0.030251 -100286.000000 0 0 1
31.830321 -27.292693 7.628468 42.617531 -0.708799 1.390828 0.077452 -0.032867 69067.300000 0 0 1
31.088001 -26.092493 7.463868 41.267315 -0.698256 1.388929 0.073779 -0.026849 45678.700000 0 0 1
31.320521 -25.414793 6.070568 40.788951 -0.681679 1.421413 0.067418 -0.008149 841397.000000 0 0 1
32.672421 -24.950693 5.945168 41.537564 -0.652188 1.427176 0.066539 -0.008358 435699.000000 0 0 1
32.701731 -24.185293 4.774168 40.952708 -0.636794 1.453953 0.068381 -0.001865 1181650.000000 0 0 1
34.221541 -23.849393 4.505268 41.954795 -0.608650 1.463205 0.077213 -0.009774 907708.000000 0 0 1
35.036311 -24.901493 4.113968 43.180460 -0.617894 1.475378 0.061703 -0.009171 -78690.100000 0 0 1
36.344841 -24.415893 3.805068 43.949537 -0.591537 1.484110 0.065485 -0.008751 345059.000000 0 0 1
37.321931 -25.566393 3.608068 45.382652 -0.600604 1.491209 0.056281 -0.006710 -330613.000000 0 0 1
37.411491 -26.430493 4.738768 46.050478 -0.615062 1.467710 0.039425 -0.001510 -159683.000000 0 0 1
38.025891 -27.667193 4.490268 47.239861 -0.629003 1.475600 0.040536 -0.003719 -750489.000000 0 0 1
37.484321 -28.732493 5.439468 47.541753 -0.653991 1.456131 0.050393 -0.001896 1331800.000000 0 0 1
36.109701 -29.138193 5.219368 46.692468 -0.678956 1.458780 0.036519 0.000669 1762960.000000 0 0 1
35.038231 -28.261793 5.611068 45.363980 -0.678752 1.446789 0.044616 -0.001181 166590.000000 0 0 1
33.644401 -28.913893 5.534768 44.705621 -0.709924 1.446673 0.070264 -0.006775 -388995.000000 0 0 1
33.301861 -29.142993 4.161668 44.448256 -0.718896 1.477029 0.062010 -0.007580 -42097.500000 0 0 1
32.124871 -28.529493 3.704768 43.123829 -0.726191 1.484780 0.067021 -0.007534 902449.000000 0 0 1
30.722501 -29.172893 4.075868 42.562219 -0.759532 1.474887 0.071758 -0.011445 931308.000000 0 0 1
30.542301 -30.456393 3.468768 43.271889 -0.783990 1.490548 0.075521 -0.010397 -331925.000000 0 0 1
29.180001 -30.757793 3.296768 42.525086 -0.811716 1.493193 0.082381 -0.007274 29558.600000 0 0 1
28.957501 -32.106693 2.555868 43.311766 -0.836924 1.511751 0.082865 -0.004772 -182325.000000 0 0 1
28.974201 -32.092493 1.173668 43.252860 -0.836418 1.543658 0.083632 0.001944 237858.000000 0 0 1
28.929601 -33.433793 0.703168 44.218037 -0.857498 1.554893 0.075126 0.003544 -167950.000000 0 0 1
28.689901 -33.659393 -0.785132 44.234394 -0.864934 1.588547 0.066751 0.004308 -1274090.000000 0 0 1
29.768501 -33.417493 -1.571932 44.781285 -0.843084 1.605906 0.068311 0.001226 -846359.000000 0 0 1
29.441301 -33.419393 -2.951732 44.635846 -0.848598 1.636974 0.060012 0.001380 -823501.000000 0 0 1
30.475201 -32.715293 -3.745632 44.867115 -0.820833 1.654376 0.045128 -0.001887 -728627.000000 0 0 1
30.608601 -31.289193 -3.714232 43.928300 -0.796393 1.655450 0.032868 0.003327 -598201.000000 0 0 1
31.659471 -30.861093 -4.497032 44.440437 -0.772629 1.672162 0.027702 0.000501 -694608.000000 0 0 1
31.741741 -29.342793 -4.436932 43.453699 -0.746146 1.673082 0.030478 0.004127 -112286.000000 0 0 1
30.656901 -28.635893 -5.035732 42.251847 -0.751326 1.690264 0.015576 -0.008918 213291.000000 0 0 1
30.702701 -27.239193 -4.976732 41.344859 -0.725694 1.691460 0.019057 -0.009256 -351523.000000 0 0 1
31.621071 -26.559993 -6.000332 41.729239 -0.698628 1.715089 0.054388 -0.009553 -250026.000000 0 0 1
32.993141 -26.740493 -5.686532 42.847847 -0.681102 1.703904 0.062876 -0.003578 287008.000000 0 0 1
33.892341 -26.386693 -6.743432 43.478986 -0.661521 1.726521 0.086657 -0.011283 302427.000000 0 0 1
34.031771 -27.470293 -7.849032 44.434061 -0.679113 1.748373 0.098870 -0.004531 -1194200.000000 0 0 1
32.859921 -27.690993 -8.574132 43.818732 -0.700240 1.767740 0.089004 -0.007071 -594578.000000 0 0 1
32.862801 -28.593393 -9.641032 44.614967 -0.716039 1.788609 0.073513 0.000140 -155177.000000 0 0 1
32.873941 -30.024793 -9.204232 45.463195 -0.740132 1.774660 0.074508 0.006178 -503999.000000 0 0 1
34.091241 -30.391393 -8.622832 46.477981 -0.728084 1.757403 0.082363 0.004262 -675769.000000 0 0 1
34.098671 -31.777193 -8.362332 47.354387 -0.750173 1.748318 0.094762 -0.002216 1186480.000000 0 0 1
35.458741 -32.314493 -7.726232 48.592627 -0.739038 1.730474 0.089808 -0.006291 1192500.000000 0 0 1
35.359281 -33.579093 -7.060332 49.271519 -0.759581 1.714586 0.079612 -0.005079 -120358.000000 0 0 1
34.689081 -33.605693 -5.821232 48.647319 -0.769536 1.690746 0.089587 0.000330 -183903.000000 0 0 1
34.580201 32.403778 -5.172932 47.671316 0.752918 1.679523 0.059451 0.001437 327006.000000 0 0 1
33.528381 31.555378 -5.661132 46.389035 0.755093 1.693137 0.074468 -0.013429 625925.000000 0 0 1
33.545361 30.345578 -4.958932 45.505344 0.735358 1.679988 0.077872 0.002696 -75739.400000 0 0 1
32.405131 29.430178 -5.423532 44.109438 0.737324 1.694065 0.081260 -0.010352 -24977.400000 0 0 1
32.530631 29.162878 -6.809232 44.216298 0.730864 1.725410 0.068859 -0.002530 45569.700000 0 0 1
31.345981 28.526278 -7.224532 42.994336 0.738338 1.739632 0.067843 -0.010984 54672.400000 0 0 1
31.305451 28.308278 -8.769232 43.107879 0.735164 1.775651 0.066227 -0.013905 50360.300000 0 0 1
32.201391 27.281878 -9.215132 43.198948 0.702882 1.785767 0.079603 -0.012743 228028.000000 0 0 1
32.418421 27.348578 -10.609332 43.720209 0.700774 1.815908 0.070621 -0.018551 -380900.000000 0 0 1
33.550761 28.260678 -11.037432 45.234327 0.700022 1.817291 0.100680 -0.021536 -136181.000000 0 0 1
34.835381 27.810578 -10.545032 45.805346 0.673730 1.803094 0.093176 -0.024325 1076220.000000 0 0 1
35.976781 28.398478 -11.123832 47.165050 0.668217 1.808889 0.113252 -0.028069 93678.100000 0 0 1
36.258791 29.831478 -10.542632 48.122386 0.688453 1.791667 0.109400 -0.028767 -954670.000000 0 0 1
36.755631 29.691578 -9.233632 48.143807 0.679485 1.763785 0.087895 -0.012922 137600.000000 0 0 1
36.663771 30.924578 -8.532032 48.717114 0.700687 1.746838 0.079689 -0.015931 -1087470.000000 0 0 1
37.633651 31.197278 -7.390532 49.438667 0.692159 1.720848 0.065886 -0.005439 2158920.000000 0 0 1
-37.135753 31.413178 -7.754432 49.254270 -0.702110 1.728891 0.084244 -0.008543 2278440.000000 0 0 1
-36.461073 30.179778 -7.982032 47.999392 -0.691420 1.737867 0.087703 -0.017811 -1287610.000000 0 0 1
-35.044220 30.406778 -8.482932 47.165980 -0.714663 1.751633 0.150883 -0.025094 -753106.000000 0 0 1
-34.152873 30.830478 -7.422932 46.605118 -0.734316 1.730750 0.115337 -0.028543 875129.000000 0 0 1
-32.848723 31.211578 -7.858632 45.988687 -0.759847 1.742521 0.158652 -0.043657 490050.000000 0 0 1
-32.696503 32.447278 -8.767332 46.890866 -0.781572 1.758876 0.125296 -0.045839 -846508.000000 0 0 1
-32.892363 33.624278 -8.101032 47.729722 -0.796401 1.741349 0.095912 -0.035054 509509.000000 0 0 1
-31.803253 -33.320693 -7.294132 46.636036 0.808695 1.727847 0.147306 -0.050292 343451.000000 0 0 1
-32.110733 -31.901493 -6.844332 45.778263 0.782129 1.720870 0.100574 -0.038886 299301.000000 0 0 1
-33.157063 -31.889393 -5.854132 46.374509 0.765912 1.697370 0.096705 -0.036352 316798.000000 0 0 1
-32.718753 -32.244093 -4.544432 46.161133 0.778092 1.669403 0.110792 -0.040450 -149235.000000 0 0 1
-33.885913 -32.258293 -3.547532 46.919480 0.760796 1.646477 0.080032 -0.024743 -336675.000000 0 0 1
-34.372832 -30.970293 -3.276632 46.383046 0.733373 1.641498 0.044789 -0.012561 22627.800000 0 0 1
-35.309262 -31.064093 -2.214732 47.081068 0.721526 1.617855 0.043866 -0.007739 231029.000000 0 0 1
-36.171153 -29.763893 -1.985732 46.884803 0.688527 1.613162 0.062893 -0.002457 380822.000000 0 0 1
-36.958593 -29.815793 -0.791832 47.492590 0.678834 1.587470 0.045925 0.006017 -267823.000000 0 0 1
-37.659603 -28.623593 -0.693132 47.307888 0.649909 1.585448 0.063050 0.000680 -841293.000000 0 0 1
37.658991 -28.559593 0.548268 47.266802 -0.648839 1.559197 0.056305 0.005680 -1272610.000000 0 0 1
36.589871 -29.440593 0.342568 46.964716 -0.677546 1.563502 0.041746 0.003119 83250.600000 0 0 1
35.518821 -29.248893 1.276068 46.029477 -0.688893 1.543070 0.043687 -0.005386 814296.000000 0 0 1
34.657261 -27.919993 1.224768 44.521363 -0.678148 1.543283 0.038070 0.005254 -1100300.000000 0 0 1
33.767581 -27.998193 0.162468 43.865416 -0.692261 1.567093 0.039156 -0.000710 -228489.000000 0 0 1
32.965991 -26.868093 -0.010232 42.528239 -0.683835 1.571037 0.048948 -0.003914 -357815.000000 0 0 1
31.734681 -27.027893 -0.953432 41.695396 -0.705470 1.593665 0.046157 -0.005976 773395.000000 0 0 1
30.540001 -27.310193 -0.182032 40.970373 -0.729626 1.575239 0.055654 0.001765 780485.000000 0 0 1
30.285701 -28.702793 0.068468 41.726235 -0.758570 1.569155 0.062286 0.001219 -469446.000000 0 0 1
29.757501 -29.458093 -1.112232 41.887053 -0.780342 1.597353 0.046480 -0.000677 -55200.200000 0 0 1
28.422601 -29.134193 -1.505732 40.729752 -0.797761 1.607774 0.054971 -0.000020 491666.000000 0 0 1
28.183701 -29.504493 -2.868032 40.903077 -0.808290 1.640972 0.045260 -0.000133 360548.000000 0 0 1
26.697201 -29.941493 -3.122632 40.236605 -0.842616 1.648481 0.054122 -0.003253 670575.000000 0 0 1
25.830901 -28.843493 -2.995832 38.835004 -0.840443 1.648016 0.068684 -0.009272 1044930.000000 0 0 1
24.517701 -29.169493 -3.551132 38.269930 -0.871829 1.663722 0.045725 -0.001502 1578570.000000 0 0 1
23.492501 -28.008693 -3.646832 36.738044 -0.872865 1.670226 0.046258 0.000942 236012.000000 0 0 1
23.688501 -27.257493 -4.837132 36.435064 -0.855338 1.703950 0.060835 -0.003650 133280.000000 0 0 1
23.132301 -25.985093 -4.635532 35.097245 -0.843414 1.703260 0.091106 -0.015825 93447.000000 0 0 1
22.555201 -25.463093 -6.039732 34.548293 -0.845882 1.746519 0.089287 -0.034732 -413159.000000 0 0 1
21.266301 -25.920593 -6.293032 34.113560 -0.883715 1.756332 0.090853 -0.032930 -732748.000000 0 0 1
20.718001 -25.355793 -7.472732 33.585615 -0.885720 1.795172 0.107354 -0.040069 877671.000000 0 0 1
19.166401 -25.517093 -7.594732 32.804770 -0.926579 1.804429 0.094436 -0.036651 766556.000000 0 0 1
18.396501 -24.862293 -6.608632 31.626554 -0.933767 1.781306 0.086581 -0.035612 -359962.000000 0 0 1
17.026101 -25.059393 -6.857732 31.062675 -0.974010 1.793401 0.082893 -0.037846 128336.000000 0 0 1
16.155401 -24.186593 -5.874432 29.673174 -0.981907 1.770084 0.073170 -0.025042 15593.800000 0 0 1
16.122201 -24.689993 -4.545432 29.835919 -0.992325 1.723740 0.058652 -0.020659 -310891.000000 0 0 1
15.417901 -23.806293 -3.783532 28.614094 -0.996082 1.703411 0.061463 -0.015942 -461511.000000 0 0 1
15.274701 -24.383393 -2.371332 28.870219 -1.011163 1.653027 0.058308 -0.012370 -105790.000000 0 0 1
14.580801 -25.602493 -2.293732 29.552472 -1.053100 1.648490 0.054591 -0.012141 552324.000000 0 0 1
15.489701 -26.695693 -2.253632 30.946239 -1.045039 1.643685 0.056648 -0.012512 165444.000000 0 0 1
14.660101 -27.998493 -2.289432 31.687153 -1.088445 1.643110 0.056202 -0.007140 263833.000000 0 0 1
13.847401 -28.290293 -1.176132 31.519430 -1.115604 1.608120 0.075484 -0.020112 -107587.000000 0 0 1
13.189901 -29.532693 -1.249232 32.368411 -1.150757 1.609400 0.086536 -0.023494 -210202.000000 0 0 1
13.963001 -30.803493 -0.809132 33.830094 -1.145208 1.594716 0.069104 -0.018522 -24292.600000 0 0 1
14.898701 -31.218393 -1.816032 34.638957 -1.125521 1.623248 0.072608 -0.013626 -149467.000000 0 0 1
15.467001 -32.404893 -1.409432 35.934548 -1.125469 1.610029 0.070829 -0.014560 -1418700.000000 0 0 1
16.958901 -32.410193 -1.664932 36.616894 -1.088716 1.616281 0.060151 -0.003288 -1168020.000000 0 0 1
17.567301 -31.320293 -1.019532 35.925065 -1.059629 1.599180 0.054706 -0.000470 -820158.000000 0 0 1
18.861001 -31.217993 -1.527732 36.505266 -1.027316 1.612658 0.044674 0.000963 -950861.000000 0 0 1
19.561901 -30.036393 -0.870932 35.855424 -0.993527 1.595089 0.040557 0.000305 -324301.000000 0 0 1
19.165101 -28.759293 -1.383032 34.587726 -0.982981 1.610793 0.048601 -0.002424 188232.000000 0 0 1
19.587101 -27.751993 -0.478832 33.971413 -0.956195 1.584892 0.046223 0.005524 -139813.000000 0 0 1
19.296501 -26.271293 -0.833932 32.607227 -0.937283 1.596374 0.039378 -0.001985 -325254.000000 0 0 1
19.861901 -25.821993 -2.048132 32.641466 -0.915129 1.633584 0.052108 -0.008747 476109.000000 0 0 1
18.947601 -25.860893 -3.154632 32.214113 -0.938476 1.668881 0.065583 -0.005937 -11737.800000 0 0 1
35.129601 -29.623893 13.246868 47.824088 -0.700577 1.290135 0.097864 -0.039146 67802.600000 0 0 1
35.675671 -29.771593 14.562968 48.694777 -0.695430 1.267082 0.087768 -0.034242 61640.400000 0 0 1
34.755621 -30.204093 15.558468 48.603563 -0.715446 1.244951 0.066730 -0.025283 -214515.000000 0 0 1
35.369851 -30.652993 16.918368 49.768097 -0.714077 1.223939 0.065968 -0.025105 -552358.000000 0 0 1
34.661861 -31.606693 17.644768 50.117517 -0.739328 1.211017 0.056898 -0.022607 -39299.300000 0 0 1
35.262191 -31.879893 18.914668 51.161649 -0.735065 1.192106 0.042008 -0.027989 706138.000000 0 0 1
36.449061 -32.933693 18.917868 52.640744 -0.734775 1.203196 0.038905 -0.013356 300928.000000 0 0 1
37.564121 -32.540693 18.163268 52.913743 -0.713864 1.220409 0.054763 -0.008666 -189124.000000 0 0 1
-37.877343 33.705778 17.995268 53.801508 -0.727188 1.229748 0.055742 -0.011979 -162740.000000 0 0 1
-36.796663 -33.665293 16.901368 52.659307 0.740987 1.244057 0.067648 -0.015001 541167.000000 0 0 1
-35.714961 -32.776893 17.286668 51.465640 0.742528 1.228249 0.077979 -0.016918 501384.000000 0 0 1
-34.737083 -32.726093 16.296968 50.430678 0.755598 1.241734 0.089188 -0.006885 -728526.000000 0 0 1
-33.666583 -31.673293 16.720468 49.154963 0.754901 1.223711 0.081378 -0.011300 737314.000000 0 0 1
-32.518793 -31.636393 15.841268 48.054959 0.771645 1.234865 0.094611 -0.012104 724353.000000 0 0 1
-32.789233 -30.947993 14.631768 47.402539 0.756518 1.257001 0.098192 -0.020522 -477990.000000 0 0 1
-31.534133 -30.925693 13.740668 46.255875 0.775657 1.269186 0.092576 -0.024023 23759.400000 0 0 1
-30.393803 -30.451993 14.409168 45.373244 0.786355 1.247631 0.072053 -0.027637 -430430.000000 0 0 1
-29.360653 -30.172393 13.481668 44.206070 0.799032 1.260886 0.060429 -0.017026 613832.000000 0 0 1
-28.077953 -29.598593 14.182068 43.192351 0.811757 1.236244 0.061801 -0.022174 493164.000000 0 0 1
-27.017803 -29.583993 13.254568 42.200212 0.830705 1.251301 0.055582 -0.013242 378287.000000 0 0 1
-25.802533 -29.243693 13.975068 41.427851 0.847831 1.226712 0.041187 -0.015620 1493880.000000 0 0 1
-24.435513 -29.299993 13.212368 40.375123 0.875678 1.237415 0.054231 -0.016520 683894.000000 0 0 1
-24.053113 -30.630993 12.902468 41.027840 0.905112 1.250887 0.074335 -0.023369 -158986.000000 0 0 1
-22.859113 -30.695593 12.168768 40.160147 0.930694 1.262951 0.058497 -0.034883 70659.700000 0 0 1
-22.339513 -32.149893 11.794468 40.887394 0.963532 1.278176 0.055554 -0.028972 -279523.000000 0 0 1
-23.242213 -32.830993 11.010068 41.704870 0.954765 1.303630 0.051968 -0.035002 -504855.000000 0 0 1
-22.917313 33.246078 10.830268 41.806694 -0.967272 1.308752 0.068238 -0.016783 -322211.000000 0 0 1
-23.748713 32.583578 9.776368 41.488170 -0.940966 1.332917 0.076953 -0.009844 -236459.000000 0 0 1
-23.558313 33.163278 8.482868 41.554256 -0.953142 1.365212 0.084801 -0.014787 -195266.000000 0 0 1
-24.729713 32.951778 7.723468 41.916946 -0.926987 1.385481 0.076481 -0.016371 -272338.000000 0 0 1
-24.527313 33.522378 6.319068 42.015111 -0.939130 1.419824 0.090185 -0.016586 -380557.000000 0 0 1
-23.845213 32.789378 5.306668 40.888852 -0.942032 1.440646 0.073645 -0.010422 1524040.000000 0 0 1
-22.429213 32.505378 5.498968 39.873648 -0.966803 1.432446 0.083542 -0.018772 1457810.000000 0 0 1
-21.420713 33.680678 5.314368 40.267574 -1.004330 1.438434 0.104040 -0.019977 -480574.000000 0 0 1
-21.492013 -32.651293 6.226368 39.582588 0.988658 1.412840 0.106918 -0.034640 -66872.000000 0 0 1
-21.093113 -32.956093 7.589668 39.857578 1.001457 1.379207 0.087716 -0.039003 -580644.000000 0 0 1
-21.052013 -31.665693 8.417068 38.945480 0.984073 1.352953 0.084292 -0.044273 654599.000000 0 0 1
-19.846813 -30.932093 8.103868 37.634599 1.000331 1.353766 0.119497 -0.057523 629273.000000 0 0 1
-19.863413 -29.671293 8.758768 36.764886 0.980870 1.330246 0.108958 -0.059721 231619.000000 0 0 1
-19.167213 -29.624593 10.148868 36.715094 0.996531 1.290727 0.081394 -0.044576 509681.000000 0 0 1
-17.815013 -30.070193 10.106468 36.383127 1.035949 1.289315 0.079582 -0.047824 -3331.340000 0 0 1
-17.151513 -29.910393 11.329168 36.292645 1.050143 1.253329 0.084973 -0.043027 -163232.000000 0 0 1
-15.721613 -30.451893 11.159168 36.041836 1.094212 1.256006 0.086842 -0.029687 -527002.000000 0 0 1
-14.756813 -29.652293 10.554368 34.762289 1.109021 1.262311 0.110293 -0.033080 -1081470.000000 0 0 1
-13.813713 -30.536093 10.091568 35.001591 1.145971 1.278327 0.111100 -0.025238 -887059.000000 0 0 1
-12.592513 -29.922993 9.386768 33.794501 1.172462 1.289335 0.120619 -0.017649 203781.000000 0 0 1
-11.654713 -29.355493 10.313868 33.225791 1.192862 1.255164 0.105185 -0.026493 -454829.000000 0 0 1
-10.702413 -28.624493 9.604768 32.033651 1.212999 1.266278 0.140682 -0.028385 -84460.900000 0 0 1
-9.599713 -28.192493 10.608668 31.615107 1.242604 1.228600 0.147581 -0.020846 187784.000000 0 0 1
-10.034513 -27.122993 11.431568 31.097089 1.216449 1.194360 0.125272 -0.029734 259812.000000 0 0 1
-9.087613 -26.961493 12.507068 31.079472 1.245696 1.156635 0.116753 -0.025260 391768.000000 0 0 1
-9.245913 -25.643493 13.237568 30.303611 1.224749 1.118723 0.107712 -0.035084 200073.000000 0 0 1
-8.769713 -24.425193 12.626468 28.860451 1.226088 1.117979 0.094495 -0.029886 -348654.000000 0 0 1
-9.506113 -24.113193 11.498668 28.355452 1.195275 1.153250 0.092227 -0.029083 -218664.000000 0 0 1
-9.017313 -22.839493 10.759968 26.809164 1.194770 1.157802 0.102458 -0.031814 -372249.000000 0 0 1
-7.864713 -23.097993 10.024768 26.379291 1.242616 1.180974 0.086148 -0.036106 -657571.000000 0 0 1
-7.432813 -21.848393 9.466868 24.944350 1.242879 1.181519 0.090894 -0.026956 -568420.000000 0 1 0
-6.227813 -21.912793 8.532968 24.326276 1.293889 1.212401 0.095903 -0.038002 233832.000000 0 1 0
-5.121613 -22.340093 9.362168 24.758047 1.345434 1.183003 0.104407 -0.042388 278206.000000 0 1 0
-3.964213 -22.568093 8.599068 24.474023 1.396915 1.211778 0.100229 -0.040720 521213.000000 0 1 0
-2.738813 -23.341693 9.160468 25.223995 1.453995 1.199134 0.121511 -0.044856 492486.000000 0 0 1
-1.996113 -22.721493 10.182568 24.978699 1.483170 1.150917 0.102241 -0.039043 -143370.000000 0 1 0
-1.020113 -23.679993 10.621868 25.973194 1.527744 1.149488 0.130934 -0.055157 234645.000000 0 0 1
0.057787 -23.208093 11.559968 25.927819 -1.568306 1.108671 0.122770 -0.051392 -741508.000000 0 0 1
-0.435213 -22.976993 12.871968 26.340448 1.551857 1.060224 0.122172 -0.047216 -477330.000000 0 0 1
0.424587 -22.513193 13.902368 26.463182 -1.551939 1.017673 0.145445 -0.052461 -125279.000000 0 0 1
1.120787 -21.127193 13.685268 25.197242 -1.517797 0.996641 0.117617 -0.048892 224235.000000 0 0 1
2.129387 -21.057993 12.674468 24.670134 -1.470019 1.031237 0.126441 -0.057127 -85609.300000 0 1 0
2.533487 -19.722993 12.550168 23.514288 -1.443042 1.007797 0.104831 -0.051773 378216.000000 0 1 0
4.065187 -19.609393 12.310268 23.507376 -1.366384 1.019635 0.112236 -0.048949 477362.000000 0 1 0
4.503887 -20.179593 11.076568 23.456158 -1.351205 1.078984 0.101910 -0.031675 -94986.200000 0 1 0
5.916687 -20.172693 10.938868 23.698177 -1.285496 1.091008 0.140464 -0.039295 663775.000000 0 1 0
6.409487 -21.033193 9.726968 24.043516 -1.275004 1.154302 0.135175 -0.046644 -312949.000000 0 1 0
6.212887 -20.437093 8.476068 22.980828 -1.275673 1.193044 0.114623 -0.040335 -176511.000000 0 1 0
6.639887 -21.322293 7.400068 23.526353 -1.268909 1.250820 0.107869 -0.042106 447633.000000 0 1 0
8.169087 -21.589493 7.255068 24.196616 -1.209063 1.266273 0.100821 -0.025919 -103785.000000 0 1 0
8.923587 -20.517193 6.749368 23.369630 -1.160543 1.277813 0.110275 -0.037023 -134395.000000 0 1 0
9.316987 -19.463393 7.630768 22.887956 -1.124339 1.230892 0.117735 -0.029329 -10262.000000 0 1 0
10.396887 -19.683793 8.696068 23.899133 -1.084848 1.198382 0.114211 -0.021167 128215.000000 0 1 0
9.734387 -19.872893 9.949968 24.262977 -1.115316 1.148245 0.142149 -0.030752 194516.000000 0 1 0
10.605487 -19.714793 11.065268 24.971776 -1.077255 1.111730 0.136089 -0.016343 356793.000000 0 1 0
9.854287 -19.796993 12.424468 25.365238 -1.108937 1.058910 0.169285 -0.031332 285842.000000 0 0 1
9.740587 -21.148093 12.890968 26.613867 -1.139171 1.065153 0.127882 -0.025067 268040.000000 0 0 1
8.705287 -21.330893 13.858868 26.886005 -1.183321 1.029243 0.166649 -0.039466 469006.000000 0 0 1
8.923787 -22.698593 14.626568 28.439349 -1.196215 1.030596 0.161004 -0.030055 205998.000000 0 0 1
8.818987 -23.891893 13.862768 28.996093 -1.217190 1.072317 0.166435 -0.035990 -338800.000000 0 0 1
9.176687 -25.023993 14.652668 30.415662 -1.219308 1.068149 0.178583 -0.042885 209985.000000 0 0 1
9.259587 -26.286793 13.827268 31.111554 -1.232116 1.110246 0.193973 -0.052119 349582.000000 0 0 1
10.306087 -26.279293 12.865568 31.021598 -1.197054 1.143151 0.152412 -0.041789 9128.010000 0 0 1
10.137187 -27.362193 11.990368 31.547125 -1.215993 1.180916 0.148313 -0.047011 -19721.400000 0 0 1
11.489887 -27.830593 11.429568 32.205503 -1.179261 1.207995 0.111037 -0.040361 -7941.640000 0 0 1
12.459587 -28.330693 12.325368 33.313424 -1.156464 1.191807 0.098536 -0.039106 109332.000000 0 0 1
13.596687 -28.738093 11.592668 33.839886 -1.128880 1.221141 0.123892 -0.036357 -5887.670000 0 0 1
14.631387 -29.510593 12.442168 35.210228 -1.110513 1.209627 0.103520 -0.042424 105955.000000 0 0 1
15.362087 -28.688193 13.401068 35.193675 -1.079166 1.180156 0.092367 -0.037901 527690.000000 0 0 1
16.382587 -29.360593 14.089568 36.454760 -1.061848 1.173969 0.089772 -0.033427 788065.000000 0 0 1
17.816587 -29.518793 13.487968 37.023171 -1.027758 1.197903 0.098633 -0.033480 648347.000000 0 0 1
18.564887 -28.261693 13.483868 36.403201 -0.989591 1.191353 0.084531 -0.037180 1218730.000000 0 0 1
19.875887 -28.513893 12.947868 37.090973 -0.962046 1.214203 0.063886 -0.030995 -38212.400000 0 0 1
20.734387 -27.338693 12.797068 36.620812 -0.921924 1.213814 0.046537 -0.028114 -1732460.000000 0 0 1
22.008787 -27.612893 12.385468 37.420027 -0.897858 1.233449 0.048265 -0.029505 -1003560.000000 0 0 1
22.745087 -26.430393 12.103368 36.910651 -0.860200 1.236706 0.040769 -0.023377 706034.000000 0 0 1
24.166187 -26.704793 11.517268 37.812670 -0.835260 1.261291 0.052369 -0.022604 457967.000000 0 0 1
25.136587 -27.288993 12.338468 39.099552 -0.826432 1.249744 0.054747 -0.024307 348369.000000 0 0 1
26.170887 -27.919693 11.557768 39.975075 -0.817718 1.277484 0.060444 -0.028389 -321829.000000 0 0 1
27.212987 -28.585693 12.474468 41.392039 -0.809994 1.264663 0.083378 -0.028253 21695.800000 0 0 1
28.210387 -27.746093 13.094568 41.679004 -0.777101 1.251207 0.069473 -0.023330 1313990.000000 0 0 1
29.341087 -27.674893 12.162668 42.127540 -0.756183 1.277917 0.049236 -0.024022 523492.000000 0 0 1
30.593087 -27.026193 12.826968 42.788821 -0.723573 1.266341 0.069503 -0.035111 107410.000000 0 0 1
30.458987 -25.625393 12.895668 41.841474 -0.699426 1.257493 0.083189 -0.034527 102949.000000 0 0 1
29.822687 -25.163393 14.078368 41.482399 -0.700864 1.224537 0.086511 -0.027718 -552948.000000 0 0 1
30.674487 -25.131193 15.348668 42.521555 -0.686391 1.201497 0.084911 -0.016159 -297661.000000 0 0 1
30.926487 -26.408493 15.954368 43.685215 -0.706761 1.196936 0.085927 -0.014865 23247.400000 0 0 1
31.699187 -26.161693 17.109768 44.519847 -0.689985 1.176328 0.102097 -0.003564 -31974.100000 0 0 1
32.138287 -27.419293 17.771168 45.831229 -0.706329 1.172604 0.084001 0.009432 120718.000000 0 0 1
31.059387 -28.121893 18.377768 45.752254 -0.735803 1.157446 0.075493 -0.000278 -54032.900000 0 0 1
31.499887 -29.058093 19.283268 46.994256 -0.745098 1.147978 0.088000 -0.009333 -479317.000000 0 0 1
30.426987 -29.814093 20.041968 47.078256 -0.775225 1.131043 0.086181 -0.009263 -1752080.000000 0 0 1
29.514987 -29.033693 20.772368 46.320417 -0.777178 1.105766 0.080992 -0.004666 832759.000000 0 0 1
28.334287 -29.766893 21.184668 46.235159 -0.810050 1.094834 0.087509 -0.009858 1560630.000000 0 0 1
27.351587 -30.220593 20.026268 45.414149 -0.835190 1.114117 0.123225 -0.014819 -798750.000000 0 0 1
27.812487 -31.316793 19.289868 46.112634 -0.844594 1.139201 0.119180 -0.016983 -203923.000000 0 0 1
27.295987 -31.539293 17.987168 45.423960 -0.857395 1.163657 0.129804 -0.016481 -230517.000000 0 0 1
27.769987 -30.587893 16.868368 44.624357 -0.833647 1.183153 0.125104 -0.013265 115501.000000 0 0 1
29.128487 -30.706293 16.501668 45.427417 -0.811761 1.199039 0.117563 -0.021854 147915.000000 0 0 1
29.555387 -29.814193 15.465268 44.739038 -0.789757 1.217836 0.119005 -0.036919 645297.000000 0 0 1
30.954187 -30.231993 14.876068 45.754044 -0.773595 1.239646 0.113334 -0.037307 457024.000000 0 0 1
30.950487 -31.326593 13.994168 46.207411 -0.791437 1.263109 0.150229 -0.029549 226099.000000 0 0 1
30.689087 -32.627893 14.507568 47.083638 -0.816009 1.257577 0.143923 -0.037298 -497030.000000 0 0 1
29.410787 -33.249993 13.943668 46.529371 -0.846591 1.266445 0.152551 -0.045470 -300722.000000 0 0 1
29.487287 -33.622193 12.580568 46.456675 -0.850824 1.296570 0.148605 -0.040042 183269.000000 0 0 1
29.112287 32.498678 12.284168 45.327586 0.840307 1.296356 0.136651 -0.043469 -148634.000000 0 0 1
29.537387 32.212278 10.817568 45.023414 0.828689 1.328157 0.123500 -0.045561 108833.000000 0 0 1
30.912887 31.887678 10.679968 45.678138 0.800919 1.334803 0.136798 -0.048551 482220.000000 0 0 1
31.107587 31.441578 9.361668 45.209464 0.790738 1.362214 0.137500 -0.050067 292906.000000 0 0 1
32.585187 31.005078 9.107168 45.891718 0.760555 1.371021 0.133086 -0.044619 410870.000000 0 0 1
32.886387 29.969178 10.045068 45.613260 0.739020 1.348754 0.125885 -0.041939 -587584.000000 0 0 1
34.246187 29.696978 9.941968 46.406406 0.714373 1.354886 0.137547 -0.034792 -644253.000000 0 0 1
34.779487 28.816678 11.144568 46.521125 0.691911 1.328884 0.132126 -0.044034 161785.000000 0 0 1
34.292487 27.463378 11.102068 45.315204 0.675263 1.323280 0.128331 -0.052149 223067.000000 0 0 1
34.264487 27.002378 12.407968 45.355718 0.667416 1.293694 0.135392 -0.048719 48267.000000 0 0 1
34.216387 25.462378 12.446968 44.429954 0.639751 1.286848 0.120320 -0.044230 -272075.000000 0 0 1
35.339487 24.876178 11.859868 44.814730 0.613352 1.302963 0.119231 -0.030326 -517721.000000 0 0 1
35.429687 23.440778 11.883768 44.112999 0.584496 1.298033 0.116236 -0.031401 -355479.000000 0 0 1
34.421687 22.609978 11.085268 42.649112 0.581178 1.307859 0.107756 -0.032005 395045.000000 0 0 1
33.150887 22.453678 11.691968 41.711522 0.595340 1.286684 0.134965 -0.044651 148422.000000 0 0 1
32.076787 22.161278 10.827168 40.463194 0.604580 1.299915 0.149719 -0.040182 954120.000000 0 0 1
30.704487 22.002778 11.598268 39.514650 0.621779 1.272891 0.168200 -0.038903 793490.000000 0 0 1
30.312887 23.234878 12.128468 40.072814 0.653979 1.263313 0.173204 -0.035020 -726670.000000 0 0 1
29.436387 23.194278 13.171868 39.723715 0.667347 1.232811 0.224700 -0.031108 -451862.000000 0 0 1
26.166287 9.517978 25.518183 37.768295 0.348871 0.828949 0.118317 -0.015123 -211228.000000 0 0 1
25.647587 8.301278 25.989443 37.445441 0.313026 0.803681 0.099888 -0.020988 834942.000000 0 0 1
24.226587 8.422778 26.165943 36.640514 0.334595 0.775422 0.097212 -0.020449 775671.000000 0 0 1
23.608287 7.189978 26.850153 36.468859 0.295629 0.743286 0.110407 -0.027560 -354061.000000 0 0 1
23.677687 7.240778 28.265453 37.576556 0.296775 0.719387 0.104349 -0.021876 -65290.800000 0 0 1
24.901287 7.024878 28.928193 38.810608 0.274963 0.729709 0.089555 -0.027642 -362334.000000 0 0 1
24.852387 6.975378 30.442023 39.912577 0.273632 0.703292 0.094358 -0.035963 -310541.000000 0 0 1
24.911487 8.254578 31.038003 40.645760 0.319970 0.701892 0.124258 -0.043097 130191.000000 0 0 1
25.020187 8.090878 32.483639 41.793048 0.312761 0.680513 0.132607 -0.043495 -59491.000000 0 0 1
25.418187 9.347078 33.237476 42.874023 0.352383 0.683708 0.170725 -0.053255 108945.000000 0 0 1
26.775387 9.723678 33.162422 43.717473 0.348348 0.709693 0.127546 -0.055758 -174138.000000 0 0 1
27.106287 10.631978 -33.209472 44.166263 0.373793 2.421765 0.141171 -0.050311 422707.000000 0 0 1
28.305787 11.605978 -33.459142 45.336856 0.389116 2.400916 0.116163 -0.051379 218935.000000 0 0 1
28.140887 12.566478 32.880950 45.066426 0.419986 0.753044 0.112615 -0.051456 268359.000000 0 0 1
27.324487 13.660278 33.230158 45.138389 0.463590 0.743382 0.101288 -0.046376 -577498.000000 0 0 1
27.225187 14.755478 32.149857 44.637968 0.496664 0.766654 0.088824 -0.040047 77271.700000 0 0 1
28.418987 15.533678 31.954508 45.497522 0.500225 0.792124 0.083571 -0.027329 631646.000000 0 0 1
28.348587 16.898378 32.480698 46.305435 0.537541 0.793374 0.078960 -0.034595 -334759.000000 0 0 1
28.663487 17.012478 -33.401472 47.187692 0.535644 2.357236 0.068295 -0.029807 -668006.000000 0 0 1
27.785087 16.459278 -32.498632 45.815718 0.534796 2.359349 0.055861 -0.022919 216691.000000 0 0 1
28.486687 16.321778 -31.248342 45.324945 0.520301 2.331497 0.077570 -0.032711 -164757.000000 0 0 1
27.532487 15.819678 -30.204752 43.824960 0.521520 2.331199 0.073276 -0.025588 -458894.000000 0 0 1
26.902987 14.680478 -30.694012 43.375218 0.499522 2.356948 0.088767 -0.021638 120389.000000 0 0 1
25.911787 14.196678 -29.803142 41.966578 0.501218 2.360527 0.116829 -0.019531 74808.300000 0 0 1
25.164987 12.920178 -30.224512 41.397207 0.474325 2.389279 0.108120 -0.021467 -1258200.000000 0 0 1
24.127987 13.115878 -31.110602 41.497658 0.497913 2.418398 0.115978 -0.030851 -495651.000000 0 0 1
23.530087 11.935078 -31.578212 41.149661 0.469412 2.445571 0.114525 -0.036359 56620.200000 0 0 1
22.606387 11.195278 -30.562362 39.628790 0.459821 2.451546 0.115680 -0.035758 345888.000000 0 0 1
21.361387 11.903078 -30.343172 38.970505 0.508373 2.463258 0.136921 -0.029010 1056380.000000 0 0 1
20.527887 11.285178 -29.366122 37.564858 0.502650 2.468255 0.120093 -0.020988 57144.200000 0 0 1
19.331487 12.182378 -29.027402 36.941938 0.562318 2.474716 0.105908 -0.009637 -277529.000000 0 0 1
18.316887 12.243378 -30.009102 37.228415 0.589216 2.508295 0.086473 -0.018231 29292.600000 0 0 1
17.256987 12.991278 -29.442762 36.516478 0.645299 2.508644 0.084400 -0.017016 -480625.000000 0 0 1
15.995287 13.051578 -30.324422 36.684649 0.684400 2.543879 0.096081 -0.030172 -642449.000000 0 0 1
15.385887 11.796078 -30.387702 36.045602 0.654092 2.573697 0.091177 -0.022913 393447.000000 0 0 1
14.069087 11.840878 -29.826772 35.039720 0.699611 2.589116 0.092286 -0.027608 499750.000000 0 0 1
12.976587 11.315778 -30.788352 35.275506 0.717137 2.631700 0.102718 -0.033204 -65956.800000 0 0 1
12.755787 12.120078 -31.978222 36.499495 0.759848 2.638567 0.119317 -0.033669 576025.000000 0 0 1
11.625387 11.621078 -32.711562 36.609362 0.785213 2.675943 0.118271 -0.031750 153747.000000 0 0 1
11.346287 12.416478 33.399393 37.395542 0.830404 0.466521 0.141639 -0.040572 -590141.000000 0 0 1
12.251287 12.549078 32.351389 36.799263 0.797405 0.496760 0.118506 -0.030836 -299001.000000 0 0 1
11.644787 13.205678 31.190743 35.816943 0.848127 0.513893 0.141298 -0.043714 -283466.000000 0 0 1
12.417087 13.141178 29.906713 34.946903 0.813722 0.543748 0.130146 -0.032286 -638901.000000 0 0 1
12.612187 11.865178 29.408893 34.128180 0.754889 0.532149 0.106487 -0.030333 75608.400000 0 0 1
12.944587 11.764278 28.024383 33.035232 0.737666 0.557996 0.118481 -0.024191 -153649.000000 0 0 1
13.528587 10.408778 27.703323 32.539813 0.655797 0.552211 0.114709 -0.028228 -616695.000000 0 0 1
12.636787 9.332678 27.870263 31.992793 0.636121 0.513273 0.124763 -0.033730 112553.000000 0 0 1
13.201287 8.048078 27.655633 31.684058 0.547480 0.509771 0.096186 -0.034940 -54765.700000 0 0 1
12.128487 6.966978 27.932423 31.238745 0.521406 0.464246 0.098343 -0.035311 1237930.000000 0 0 1
10.974187 6.923078 27.040943 29.992905 0.562796 0.447393 0.108666 -0.035814 1320890.000000 0 0 1
10.040687 5.852778 27.294523 29.665828 0.527756 0.402547 0.112860 -0.046357 624968.000000 0 0 1
10.533987 4.444578 26.772723 29.111816 0.399265 0.403604 0.125805 -0.043551 259729.000000 0 0 1
11.587687 3.856378 27.526183 30.113732 0.321270 0.417577 0.110507 -0.038622 321288.000000 0 0 1
11.959087 2.589378 27.001003 29.644203 0.213228 0.425492 0.123444 -0.038990 -71311.700000 0 0 1
12.416387 1.568778 28.030113 30.697149 0.125681 0.419929 0.092302 -0.030374 234717.000000 0 0 1
11.303087 1.136578 28.787003 30.947425 0.100218 0.375865 0.067197 -0.018371 266846.000000 0 0 1
11.712587 0.058578 29.646573 31.876439 0.005001 0.376257 0.058747 -0.015601 711128.000000 0 0 1
10.709787 -0.213422 30.843743 32.650904 -0.019925 0.334264 0.068922 -0.010638 381006.000000 0 0 1
10.710987 0.905978 31.712878 33.485111 0.084383 0.326801 0.031714 -0.014611 -558618.000000 0 0 1
9.473587 1.184578 32.294840 33.676531 0.124394 0.287444 0.050748 -0.015968 -525736.000000 0 0 1
9.423787 2.537978 33.027234 34.439037 0.263074 0.287324 0.046636 -0.024035 -294096.000000 0 0 1
9.387987 3.759378 32.322894 33.867930 0.380890 0.303218 0.041674 -0.029785 129288.000000 0 0 1
10.491887 4.083278 31.495510 33.447272 0.371148 0.343307 0.051526 -0.025762 -203937.000000 0 0 1
10.542187 5.437978 30.869223 33.069899 0.476231 0.366872 0.061402 -0.031387 -60523.000000 0 0 1
10.905087 6.435378 31.781427 34.211023 0.533128 0.379143 0.069891 -0.034973 74151.200000 0 0 1
10.976587 7.673278 31.100273 33.861359 0.610094 0.406630 0.079279 -0.036276 -307392.000000 0 0 1
11.089587 8.897778 32.028920 35.042846 0.676175 0.417777 0.111454 -0.043645 1119030.000000 0 0 1
9.890187 9.407378 32.696414 35.431201 0.760384 0.395474 0.116251 -0.045826 1011540.000000 0 0 1
9.377187 8.545978 -33.643882 35.956588 0.739055 2.780979 0.107949 -0.043675 -14079.300000 0 0 1
8.019587 9.026678 -33.090212 35.224379 0.844409 2.791708 0.100719 -0.046172 61677.800000 0 0 1
7.387287 8.051278 -32.230292 34.032144 0.828380 2.814730 0.107263 -0.041457 -236221.000000 0 0 1
6.095087 8.492078 -31.922462 33.590312 0.948265 2.825146 0.109070 -0.041401 -152834.000000 0 0 1
5.579987 7.641078 -30.691442 32.116771 0.940048 2.842555 0.094889 -0.030829 -112910.000000 0 0 1
6.217087 8.081278 -29.453702 31.168571 0.915045 2.808332 0.108259 -0.040283 375484.000000 0 0 1
5.705087 7.633978 -28.202362 29.769093 0.929007 2.815716 0.098306 -0.033305 1135900.000000 0 0 1
4.221887 8.121778 -27.866182 29.331071 1.091416 2.824214 0.090561 -0.031477 715266.000000 0 0 1
3.295587 7.420278 -28.590052 29.720574 1.152832 2.864891 0.093688 -0.023645 -775944.000000 0 0 1
1.973187 7.570478 -28.115132 29.183322 1.315827 2.870195 0.121770 -0.016775 15898.300000 0 0 1
0.927987 6.718178 -28.847242 29.633739 1.433534 2.910687 0.136173 -0.031390 -505786.000000 0 0 1
0.762187 7.252878 -30.136292 31.006149 1.466093 2.904163 0.109381 -0.029489 5560.180000 0 0 1
0.368287 6.304978 -31.087762 31.722821 1.512451 2.941162 0.135093 -0.034021 -400621.000000 0 0 1
0.232087 6.980578 -32.485342 33.227696 1.537561 2.929814 0.148670 -0.040578 1204630.000000 0 0 1
1.470387 7.535978 -33.030722 33.911379 1.378102 2.913196 0.106703 -0.028449 1570190.000000 0 0 1
2.463787 6.657778 -33.568912 34.311341 1.216362 2.933187 0.115669 -0.036387 300671.000000 0 0 1
2.180387 6.273978 32.366323 33.040819 1.236325 0.202405 0.124187 -0.039691 116559.000000 0 0 1
0.977787 5.530878 32.150586 32.637506 1.395817 0.172953 0.137848 -0.043671 144850.000000 0 0 1
0.677987 5.486078 30.774143 31.266669 1.447837 0.177730 0.168002 -0.044785 -40378.200000 0 0 1
1.458387 4.513378 29.887483 30.261512 1.258261 0.157388 0.171029 -0.043967 -119851.000000 0 0 1
1.085887 4.650778 28.537763 28.934629 1.341421 0.165816 0.141934 -0.038305 407435.000000 0 0 1
1.796287 3.690278 27.711973 28.014250 1.117795 0.147035 0.109308 -0.028618 366307.000000 0 0 1
1.832887 4.070378 26.209163 26.586607 1.147694 0.168704 0.106750 -0.024593 188249.000000 0 0 1
2.690787 5.179378 26.021313 26.667864 1.091655 0.220650 0.106464 -0.021672 -80862.800000 0 0 1
2.475987 5.808578 24.787823 25.579410 1.167856 0.249428 0.080960 -0.024376 -367990.000000 0 0 1
3.226787 7.154978 24.536863 25.761667 1.147124 0.309597 0.093090 -0.031050 -503174.000000 0 0 1
4.604987 7.232578 24.584043 26.036345 1.003827 0.335578 0.087516 -0.025803 -1045960.000000 0 0 1
5.260487 6.730778 23.463253 24.969988 0.907403 0.349167 0.080689 -0.028882 1081370.000000 0 1 0
6.802687 6.322578 23.637543 25.396554 0.748835 0.374370 0.112723 -0.035635 1675140.000000 0 0 1
7.184087 5.286578 24.549883 26.120026 0.634399 0.348496 0.125886 -0.035878 31352.100000 0 0 1
6.575087 4.005078 24.423503 25.608200 0.547105 0.305364 0.124937 -0.031489 -677499.000000 0 0 1
6.591687 3.212578 23.083743 24.220449 0.453491 0.307582 0.144353 -0.038602 309741.000000 0 1 0
5.778387 3.801778 22.063033 23.121866 0.581930 0.303801 0.077004 -0.028114 603610.000000 0 1 0
4.397387 3.469478 22.232333 22.927078 0.667989 0.246806 0.078800 -0.023834 52828.100000 0 1 0
3.415587 3.972178 21.171133 21.809660 0.860596 0.242575 0.025408 -0.014529 -232685.000000 0 1 0
3.183087 5.373478 21.260033 22.158414 1.036006 0.285729 0.020650 -0.021681 -173167.000000 0 1 0
2.202587 5.712278 20.318233 21.220558 1.202775 0.292664 0.015620 -0.024499 -417338.000000 0 1 0
1.709387 7.145678 20.360333 21.645458 1.335989 0.346319 0.015816 -0.017120 304366.000000 0 1 0
2.650587 7.996878 19.739033 21.461712 1.250739 0.403398 0.013066 -0.017673 10054.500000 0 1 0
2.288787 9.249378 20.173433 22.310467 1.328216 0.441261 0.029381 -0.013378 38929.100000 0 1 0
3.198487 10.330478 19.620733 22.403621 1.270541 0.503739 0.045541 -0.022306 -785751.000000 0 1 0
3.057887 10.492978 18.223833 21.249972 1.287228 0.540225 0.030219 -0.019100 89992.300000 0 1 0
3.930787 11.461678 17.631133 21.393410 1.240416 0.602117 0.029107 -0.022143 -565735.000000 0 1 0
5.418287 11.213178 17.560233 21.528004 1.120673 0.616871 0.041975 -0.027782 -1049420.000000 0 1 0
5.770087 9.971478 17.016633 20.549697 1.046216 0.595136 0.039809 -0.025014 -90841.400000 0 1 0
7.014587 9.544678 17.540733 21.165600 0.937016 0.593948 0.044412 -0.016648 82348.400000 0 1 0
7.072987 8.055278 17.929433 20.889691 0.850238 0.538866 0.056867 -0.023151 -289617.000000 0 1 0
6.463587 7.788878 19.157333 21.666748 0.878118 0.486058 0.070313 -0.028923 -114706.000000 0 1 0
6.746787 6.479478 19.584633 21.703931 0.765190 0.445595 0.076234 -0.039730 73583.600000 0 1 0
8.175887 6.119378 20.105033 22.550039 0.642519 0.469987 0.134032 -0.037038 497702.000000 0 1 0
9.075087 5.964978 19.025233 21.906566 0.581484 0.518685 0.122255 -0.036791 1093770.000000 0 1 0
10.421087 5.472078 19.308133 22.612976 0.483523 0.547455 0.161886 -0.039932 1491090.000000 0 1 0
10.611887 3.926778 19.126633 22.222957 0.354411 0.534212 0.182500 -0.040233 -364164.000000 0 1 0
9.897587 3.192878 20.095033 22.626688 0.312052 0.477575 0.200293 -0.050303 107473.000000 0 1 0
10.260187 1.828278 19.992833 22.546117 0.176341 0.480524 0.203641 -0.055915 75433.300000 0 1 0
9.526587 0.956578 21.012733 23.091250 0.100076 0.427544 0.204170 -0.048513 263642.000000 0 1 0
10.161687 0.931478 22.310423 24.533293 0.091410 0.428972 0.207105 -0.042490 373202.000000 0 1 0
9.513787 0.013778 23.182653 25.058885 0.001448 0.389426 0.213160 -0.042608 -332105.000000 0 0 1
10.064687 0.138178 24.614783 26.593318 0.013728 0.388178 0.197722 -0.033200 756985.000000 0 0 1
11.380187 -0.408022 24.833983 27.320356 -0.035838 0.429937 0.200929 -0.033560 812642.000000 0 0 1
11.476787 -1.807722 24.701063 27.297014 -0.156228 0.439652 0.192480 -0.026869 -587772.000000 0 0 1
12.935887 -2.256422 24.855383 28.110828 -0.172694 0.486034 0.160846 -0.022042 -135745.000000 0 0 1
13.040487 -3.645122 24.710893 28.177463 -0.272567 0.501269 0.150800 -0.019336 260513.000000 0 0 1
14.328087 -4.234622 24.855233 29.000150 -0.287366 0.541236 0.136211 -0.013002 264747.000000 0 0 1
14.245787 -5.780922 24.909503 29.271912 -0.385495 0.552968 0.133141 -0.015946 14938.900000 0 0 1
14.034287 -6.323722 23.612023 28.186491 -0.423345 0.577725 0.158510 -0.022911 -99927.900000 0 0 1
13.401687 -7.537522 23.795643 28.331115 -0.512337 0.573675 0.148851 -0.037735 -117469.000000 0 0 1
13.256587 -8.425122 22.543753 27.476182 -0.566144 0.608540 0.163896 -0.038626 31905.800000 0 0 1
12.540987 -9.571122 22.828743 27.749490 -0.651888 0.604700 0.171886 -0.032501 -535662.000000 0 0 1
12.933887 -10.558622 21.899933 27.538645 -0.684633 0.651387 0.160128 -0.033035 111299.000000 0 0 1
12.191687 -11.871422 22.061733 27.861944 -0.772090 0.657008 0.185859 -0.032371 213290.000000 0 0 1
10.780687 -11.812122 21.875833 27.097998 -0.831020 0.631258 0.186553 -0.024483 92723.200000 0 0 1
10.150187 -13.062822 22.094333 27.601144 -0.910220 0.642690 0.166216 -0.026845 465832.000000 0 0 1
8.626487 -12.830122 22.356443 27.181590 -0.978861 0.605031 0.116607 -0.023507 373064.000000 0 0 1
8.030187 -12.131722 21.290533 25.786612 -0.986090 0.599456 0.101032 -0.023941 -1096740.000000 0 0 1
6.708387 -11.886922 21.649533 25.593039 -1.057002 0.562518 0.048087 -0.020847 -387209.000000 0 0 1
6.078487 -10.794122 20.752833 24.169012 -1.057929 0.538157 0.032732 -0.024671 307497.000000 0 1 0
6.382487 -9.513522 21.305833 24.190530 -0.979878 0.493351 0.069477 -0.024830 174666.000000 0 1 0
5.261987 -8.691722 21.020233 23.347049 -1.026414 0.450251 0.042536 -0.010236 254017.000000 0 1 0
5.521487 -7.177022 21.377433 23.216182 -0.915039 0.400673 0.069084 -0.027604 111273.000000 0 1 0
4.411087 -6.324622 21.321933 22.673406 -0.961786 0.347010 0.041863 -0.016511 -400114.000000 0 1 0
4.881687 -5.032222 21.572933 22.683596 -0.800581 0.314223 0.094561 -0.040117 252055.000000 0 1 0
-8.969313 -15.711922 -20.294732 27.188035 1.052079 2.413520 0.064877 -0.021832 -85848.700000 0 0 1
-8.529313 -14.757722 -19.355632 25.791085 1.046743 2.419581 0.066103 -0.017360 -67184.800000 0 0 1
-7.520213 -13.916522 -19.888632 25.412219 1.075369 2.469693 0.064540 -0.021085 183837.000000 0 0 1
-6.687613 -13.273722 -18.739932 23.918632 1.104095 2.471054 0.043457 -0.017401 -48802.400000 0 1 0
-6.007713 -14.277422 -18.001432 23.748452 1.172502 2.431045 0.057793 -0.020778 386207.000000 0 1 0
-5.115513 -13.602422 -17.067632 22.416477 1.211085 2.436247 0.063437 -0.016738 -72413.100000 0 1 0
-4.107913 -14.544322 -16.434332 22.327103 1.295526 2.398044 0.048107 -0.012344 226408.000000 0 1 0
-2.933713 -14.550422 -17.284632 22.783327 1.371840 2.432039 0.048810 -0.013941 87494.400000 0 1 0
-1.861313 -15.077422 -16.545132 22.461847 1.447967 2.398808 0.063163 -0.022845 -937769.000000 0 1 0
-0.567113 -15.083622 -17.351932 22.998409 1.533216 2.425664 0.083573 -0.015842 -428939.000000 0 1 0
-0.492913 -16.111422 -18.374432 24.442599 1.540212 2.421490 0.137117 -0.043227 -277683.000000 0 1 0
-0.513613 -17.428622 -17.844532 24.948908 1.541335 2.367768 0.130603 -0.037623 -391865.000000 0 1 0
-0.725813 -18.341622 -19.050132 26.454668 1.531245 2.374750 0.152545 -0.058806 -840899.000000 0 0 1
-1.977913 -18.074622 -19.557932 26.704247 1.461800 2.392622 0.138013 -0.055468 -924060.000000 0 0 1
-2.303413 -18.770322 -20.748732 28.073842 1.448691 2.402496 0.136673 -0.052875 -421481.000000 0 0 1
-3.710913 -18.441022 -21.246832 28.377281 1.372217 2.416936 0.133971 -0.055381 -282550.000000 0 0 1
-3.870813 -17.145722 -21.785232 27.992058 1.348759 2.462694 0.127822 -0.060290 -162022.000000 0 0 1
-4.356013 -16.115522 -20.919232 26.763766 1.306806 2.468063 0.079013 -0.047537 -9320.430000 0 0 1
-3.242213 -15.211422 -20.354032 25.616127 1.360795 2.489110 0.096770 -0.030581 -79527.200000 0 0 1
-2.801113 -14.285222 -21.286832 25.788428 1.377168 2.541780 0.085840 -0.025552 -103340.000000 0 0 1
-2.013513 -13.273022 -20.650032 24.630290 1.420245 2.565137 0.082973 -0.019742 220179.000000 0 1 0
-1.419213 -12.373422 -21.741232 25.055876 1.456597 2.621373 0.078995 -0.021240 -77396.500000 0 0 1
-2.413613 -11.620622 -22.381232 25.333455 1.366007 2.654005 0.062504 -0.019231 158148.000000 0 0 1
-1.930513 -11.062122 -23.597932 26.133500 1.398021 2.697443 0.068197 -0.015420 -205090.000000 0 0 1
-2.693413 -9.723122 -23.885432 25.928892 1.300561 2.741924 0.033326 -0.008971 552124.000000 0 0 1
-4.082813 -9.961022 -24.053832 26.352954 1.181803 2.720778 0.092928 -0.024383 218324.000000 0 0 1
-4.829113 -8.771122 -24.047432 26.048645 1.067516 2.747054 0.046712 -0.018225 439295.000000 0 0 1
-6.341813 -8.942422 -23.657832 26.074481 0.953934 2.707656 0.072628 -0.033411 1146680.000000 0 0 1
-7.235213 -9.253322 -24.748932 27.394925 0.907187 2.698460 0.115201 -0.041452 605424.000000 0 0 1
-7.848313 -8.106522 -25.318352 27.718779 0.801581 2.722358 0.106874 -0.041218 426.243000 0 0 1
-8.876213 -8.528822 -26.401202 29.129907 0.765442 2.705304 0.075250 -0.033591 705546.000000 0 0 1
-9.788813 -7.496222 -26.819072 29.517399 0.653533 2.710681 0.106677 -0.045449 501746.000000 0 0 1
-10.621713 -7.835222 -27.923302 30.885633 0.635557 2.700035 0.088943 -0.035735 489115.000000 0 0 1
-11.633613 -6.658022 -28.248752 31.267591 0.519810 2.698550 0.073705 -0.035071 674298.000000 0 0 1
-11.042813 -5.599522 -28.982282 31.516203 0.469291 2.737856 0.045206 -0.028249 -130596.000000 0 0 1
-11.819613 -5.418322 -30.132392 32.818022 0.429832 2.734223 0.092196 -0.020955 -44616.900000 0 0 1
-11.497913 -4.211622 -30.999352 33.330161 0.351117 2.765397 0.062620 -0.014354 156207.000000 0 0 1
-10.332613 -4.456722 -31.765052 33.699315 0.407216 2.801136 0.050926 -0.012290 51567.200000 0 0 1
-9.891013 -3.291822 -32.461372 34.094119 0.321279 2.830863 0.046676 -0.011752 55615.600000 0 0 1
-8.808613 -3.594022 -33.529722 34.853277 0.387394 2.865123 0.040510 -0.013687 297390.000000 0 0 1
-7.496613 -3.765722 -33.011852 34.061155 0.465504 2.892732 0.048241 -0.015113 899984.000000 0 0 1
-6.584013 -4.041822 33.257284 34.142824 0.550566 0.228251 0.056187 -0.017468 485015.000000 0 0 1
-5.095813 -3.791722 33.487023 34.084089 0.639705 0.187451 0.100456 -0.030189 -307853.000000 0 0 1
-4.784513 -2.412622 33.475463 33.901606 0.467047 0.158723 0.127189 -0.043517 -65955.100000 0 0 1
-3.406513 -2.103522 33.397643 33.636761 0.553188 0.119309 0.135873 -0.042115 62148.800000 0 0 1
-3.096413 -0.699822 -33.511432 33.661456 0.222276 3.047145 0.147912 -0.048800 -183201.000000 0 0 1
-3.255513 -0.515922 -32.092502 32.261328 0.157169 3.039244 0.151901 -0.048143 163970.000000 0 0 1
-3.931513 0.701278 -31.837992 32.087480 -0.176517 3.016810 0.179585 -0.048586 -683202.000000 0 0 1
-4.385513 0.897378 -30.423172 30.750731 -0.201837 2.995504 0.169206 -0.059892 462659.000000 0 0 1
-5.566813 0.165678 -30.101242 30.612116 -0.029753 2.958643 0.134922 -0.057867 795243.000000 0 0 1
-6.779413 0.944278 -30.141702 30.909130 -0.138396 2.918290 0.131663 -0.055560 189627.000000 0 0 1
-7.980213 0.012078 -30.278512 31.312494 -0.001513 2.883892 0.106310 -0.054502 -515570.000000 0 0 1
-8.228713 -0.730022 -29.103872 30.253596 0.088485 2.865021 0.097658 -0.043050 342475.000000 0 0 1
-9.421213 -1.508422 -29.220002 30.738301 0.158762 2.825978 0.061769 -0.029643 519833.000000 0 0 1
-9.744113 -2.396422 -27.957442 29.703689 0.241149 2.796994 0.067061 -0.030737 -181755.000000 0 0 1
-10.199913 -1.658722 -26.867122 28.785966 0.161210 2.774406 0.078918 -0.029220 57411.500000 0 0 1
-10.562013 -2.477322 -25.776252 27.966202 0.230386 2.743219 0.077733 -0.031119 120242.000000 0 0 1
-11.514213 -1.774322 -24.759832 27.363747 0.152896 2.701802 0.098907 -0.032965 254245.000000 0 0 1
-10.871813 -0.736222 -24.022332 26.378226 0.067615 2.715743 0.088553 -0.032979 -90711.400000 0 0 1
-11.775613 0.015578 -23.265532 26.075857 -0.001323 2.673045 0.111571 -0.040786 16719.700000 0 0 1
-11.145113 1.333278 -22.670432 25.297029 -0.119063 2.681857 0.120507 -0.039866 289198.000000 0 0 1
-10.941713 2.325778 -23.631132 26.144995 -0.209443 2.699479 0.106059 -0.035224 275490.000000 0 0 1
-10.246813 3.470678 -23.045832 25.458853 -0.326580 2.702691 0.109413 -0.029346 -120653.000000 0 0 1
-10.178213 4.738278 -23.991832 26.488777 -0.435695 2.703909 0.150233 -0.038378 611804.000000 0 0 1
-11.461413 5.363278 -24.118132 27.236245 -0.437674 2.658400 0.160140 -0.038398 586378.000000 0 0 1
-12.292313 4.700778 -25.063332 28.308460 -0.365257 2.658076 0.139646 -0.041668 514355.000000 0 0 1
-13.735213 5.339478 -25.152082 29.151215 -0.370765 2.611607 0.128181 -0.029315 787720.000000 0 0 1
-13.798413 6.673978 -25.612452 29.848549 -0.450504 2.602316 0.131279 -0.034535 385919.000000 0 0 1
-15.124713 7.151978 -25.840942 30.784120 -0.441707 2.567020 0.137155 -0.034020 405635.000000 0 0 1
-15.193513 8.691378 -26.017002 31.357093 -0.519611 2.549368 0.154627 -0.030620 -57950.100000 0 0 1
-15.049613 9.281378 -24.752932 30.419443 -0.552622 2.521321 0.210915 -0.042754 95385.500000 0 0 1
-15.291413 10.671778 -24.816632 31.041575 -0.609311 2.497199 0.192349 -0.034668 38701.300000 0 0 1
-14.934913 11.365878 -23.461332 30.044449 -0.650521 2.466882 0.201684 -0.042694 281972.000000 0 0 1
-15.823213 11.061078 -22.394132 29.567189 -0.610082 2.430115 0.219509 -0.043545 32347.600000 0 0 1
-15.475613 11.734278 -21.206432 28.755880 -0.648756 2.400104 0.204837 -0.040755 -245654.000000 0 0 1
-16.529513 11.663878 -20.082032 28.505418 -0.614501 2.352513 0.200467 -0.046684 253270.000000 0 0 1
-17.678113 12.451478 -20.375332 29.710422 -0.613636 2.326495 0.179867 -0.039009 84266.600000 0 0 1
-18.526413 12.574678 -19.266832 29.539149 -0.596317 2.281342 0.164543 -0.028504 273319.000000 0 0 1
-20.009713 12.873578 -19.640332 30.852233 -0.571698 2.260869 0.134635 -0.021780 316004.000000 0 0 1
-20.116913 14.154678 -20.196832 31.826988 -0.613152 2.258264 0.110302 -0.020289 1444650.000000 0 0 1
-21.515013 14.549578 -20.278332 32.951430 -0.594610 2.233691 0.083534 -0.017228 1318910.000000 0 0 1
-21.865113 15.900578 -20.959332 34.208262 -0.628757 2.230266 0.084639 -0.015146 -50147.700000 0 0 1
-21.871713 15.822078 -22.382332 35.066776 -0.626261 2.263055 0.095444 -0.017992 208357.000000 0 0 1
-22.290513 17.068678 -22.947532 36.260116 -0.653497 2.256036 0.085071 -0.008360 16486.600000 0 0 1
-22.032113 17.117678 -24.500932 37.131181 -0.660522 2.291413 0.079701 -0.003664 839182.000000 0 0 1
-20.666513 16.972978 -24.933032 36.562862 -0.687582 2.321184 0.080251 -0.016985 844089.000000 0 0 1
-20.662713 16.470378 -26.219732 37.224930 -0.672974 2.352317 0.072782 -0.018942 -134518.000000 0 0 1
-19.781513 17.326378 -27.138612 37.789098 -0.719332 2.371951 0.037260 -0.006845 -104181.000000 0 0 1
-20.275813 18.656778 -27.380312 38.844118 -0.743837 2.353046 0.027537 -0.015210 70826.000000 0 0 1
-19.531913 19.646378 -26.731152 38.497147 -0.788320 2.338336 0.005443 -0.025407 -1300180.000000 0 0 1
-20.097513 21.073378 -26.744692 39.538283 -0.809097 2.313694 0.054783 -0.020289 63804.500000 0 0 1
-21.253413 21.456778 -26.055822 39.887426 -0.790160 2.282644 0.081948 -0.022992 338765.000000 0 0 1
-22.463213 20.742078 -26.291772 40.324769 -0.745583 2.281016 0.126003 -0.029986 499083.000000 0 0 1
-23.550113 21.091678 -25.173732 40.412665 -0.730383 2.243262 0.131969 -0.018567 560155.000000 0 0 1
-23.293913 20.484678 -23.899732 39.158979 -0.721317 2.227268 0.090621 -0.020287 370270.000000 0 0 1
-24.177413 20.940078 -22.854232 39.310941 -0.713767 2.191209 0.080582 -0.028002 285850.000000 0 0 1
-23.842713 20.263878 -21.539832 37.987683 -0.704435 2.173682 0.079690 -0.015931 377118.000000 0 0 1
-22.633713 20.815378 -21.022932 37.249545 -0.743573 2.170479 0.072213 -0.016732 104739.000000 0 0 1
-21.917213 20.138978 -20.022032 35.872335 -0.743141 2.162947 0.074773 -0.016302 33674.400000 0 0 1
-22.714813 19.690378 -18.749432 35.429013 -0.714196 2.128467 0.094980 -0.019416 -1011160.000000 0 0 1
-23.594113 18.638678 -19.077032 35.609207 -0.668596 2.136172 0.119915 -0.022302 281572.000000 0 0 1
-24.262513 18.104478 -17.877332 35.157370 -0.641059 2.104232 0.118652 -0.019791 96752.000000 0 0 1
-25.364603 19.020278 -17.327132 36.129816 -0.643421 2.070972 0.077092 -0.019885 -1746940.000000 0 0 1
-26.465643 18.987078 -18.172532 37.298530 -0.622324 2.079698 0.076313 -0.012604 -648568.000000 0 0 1
-27.352973 20.043478 -17.863032 38.327719 -0.632383 2.055629 0.056650 -0.011221 -1152790.000000 0 0 1
-28.766363 19.784478 -18.355432 39.444278 -0.602467 2.054827 0.031596 -0.000872 -486390.000000 0 0 1
-29.519093 18.693478 -17.805132 39.215376 -0.564522 2.042085 0.032901 -0.003710 432690.000000 0 0 1
-29.647253 18.544378 -16.381232 38.616037 -0.558959 2.008883 0.041980 -0.018054 -1100540.000000 0 0 1
-30.682263 17.523678 -15.967832 38.774376 -0.518924 1.995240 0.039720 -0.021255 -396982.000000 0 0 1
-30.213043 16.183078 -16.078532 37.858146 -0.491745 2.009432 0.067690 -0.032486 147930.000000 0 0 1
-31.174663 15.300778 -15.536432 38.044108 -0.456267 1.991474 0.069538 -0.029231 90783.900000 0 0 1
-30.616703 13.884678 -15.201932 36.895332 -0.425761 1.995476 0.134354 -0.022113 -562281.000000 0 0 1
-29.796903 13.960078 -14.076332 35.789417 -0.438138 1.975025 0.147459 -0.022546 -251148.000000 0 0 1
-30.398213 13.835378 -12.806132 35.769625 -0.427118 1.936940 0.102905 -0.012422 140704.000000 0 0 1
-29.488503 14.655878 -11.843632 34.994831 -0.461247 1.916054 0.128091 -0.032443 460329.000000 0 0 1
-29.442963 16.099778 -11.813532 35.575982 -0.500393 1.909288 0.111654 -0.019659 173456.000000 0 0 1
-30.715093 16.592878 -11.446832 36.739223 -0.495303 1.887641 0.072221 -0.015814 354299.000000 0 0 1
-30.537803 18.141478 -11.625532 37.374104 -0.536045 1.887103 0.131131 -0.003014 -489526.000000 0 0 1
-29.507003 18.635678 -10.857032 36.548965 -0.563308 1.872403 0.072393 -0.029003 -539892.000000 0 0 1
-29.498733 20.057378 -10.839132 37.282173 -0.597136 1.865788 0.028780 -0.024112 -236992.000000 0 0 1
-28.124093 20.596978 -10.423432 36.384723 -0.632116 1.861345 0.091321 -0.019859 -45817.300000 0 0 1
-28.103003 22.013078 -10.458632 37.198621 -0.664475 1.855795 0.093232 -0.019691 -346654.000000 0 0 1
-26.856543 22.520578 -10.043332 36.459825 -0.697810 1.849868 0.089016 -0.009174 -151018.000000 0 0 1
-26.757673 24.025178 -9.598032 37.219678 -0.731643 1.831619 0.131381 -0.000136 -61718.400000 0 0 1
-26.968283 24.319478 -8.221532 37.233303 -0.733798 1.793443 0.103883 -0.010057 -908851.000000 0 0 1
-28.306543 24.492178 -7.895532 38.255282 -0.713280 1.778681 0.138038 -0.013856 -739207.000000 0 0 1
-28.691753 24.092778 -6.439632 38.015096 -0.698490 1.741014 0.131491 -0.012082 -54590.400000 0 0 1
-28.774373 22.696478 -6.274032 37.181422 -0.667858 1.740349 0.134981 -0.020254 197170.000000 0 0 1
-29.152663 22.378978 -4.952332 37.083986 -0.654700 1.704740 0.138818 -0.024127 -510763.000000 0 0 1
-29.364323 20.863578 -4.619632 36.316571 -0.617743 1.698346 0.143068 -0.021149 958827.000000 0 0 1
-28.216853 19.963278 -4.471232 34.852764 -0.615738 1.699440 0.151817 -0.016243 1451400.000000 0 0 1
-27.293383 19.891578 -5.578932 34.230514 -0.629798 1.734508 0.125802 -0.009153 147519.000000 0 0 1
-27.841293 19.016378 -6.778432 34.390513 -0.599244 1.769197 0.143164 -0.018758 -179455.000000 0 0 1
-27.607923 17.582178 -6.679632 33.405806 -0.567077 1.772108 0.143058 -0.022285 297379.000000 0 0 1
-27.932033 17.060578 -7.963332 33.684959 -0.548315 1.809462 0.099508 -0.024026 10216.600000 0 0 1
-27.838683 15.493678 -8.082332 32.868989 -0.507860 1.819240 0.164002 -0.028848 -305046.000000 0 0 1
-28.748003 14.793078 -7.328132 33.150933 -0.475242 1.793691 0.145424 -0.026200 -395586.000000 0 0 1
-28.490953 13.416878 -7.515532 32.376384 -0.440112 1.805063 0.170624 -0.036453 35409.800000 0 0 1
-29.392203 12.500578 -6.661332 32.627280 -0.402127 1.776406 0.167891 -0.032408 401889.000000 0 0 1
-30.756923 12.453578 -7.102632 33.934161 -0.384726 1.781662 0.190385 -0.034576 636946.000000 0 0 1
-31.527063 11.479378 -6.396632 34.156240 -0.349191 1.759184 0.221849 -0.042575 -31890.400000 0 0 1
-31.618753 10.084078 -7.065232 33.931573 -0.308729 1.780551 0.176871 -0.029235 236699.000000 0 0 1
-30.395893 9.356978 -7.224432 32.613736 -0.298631 1.794164 0.183714 -0.023210 352265.000000 0 0 1
-30.686993 8.159878 -7.903332 32.722130 -0.259893 1.814737 0.163597 -0.019751 -607714.000000 0 0 1
-29.554333 7.332478 -8.477632 31.608450 -0.243191 1.842329 0.234855 -0.021543 -740258.000000 0 0 1
-29.038503 7.762478 -9.751732 31.600427 -0.261209 1.884512 0.244929 -0.039111 324251.000000 0 0 1
-28.293343 6.674978 -10.314332 30.845649 -0.231684 1.911749 0.242058 -0.041983 209681.000000 0 0 1
-27.129223 7.130878 -11.261532 30.226913 -0.257034 1.952569 0.180020 -0.034813 -365333.000000 0 0 1
-25.957683 7.442178 -10.604032 29.010909 -0.279215 1.944986 0.230905 -0.052968 -433502.000000 0 0 1
-24.845613 7.581278 -11.447132 28.386918 -0.296162 1.985866 0.180880 -0.030939 -382754.000000 0 0 1
-33.509203 24.986578 -32.940932 53.219365 -0.640720 2.238221 0.085491 -0.020262 144178.000000 0 0 1
-34.086801 26.286778 -33.172762 54.344612 -0.656914 2.227381 0.082761 -0.028700 402210.000000 0 0 1
-33.866903 26.748378 32.879434 54.254032 -0.668496 0.919739 0.075294 -0.030606 -6958.560000 0 0 1
-34.320165 28.219578 32.581592 55.097898 -0.688158 0.938077 0.089747 -0.044279 14989.200000 0 0 1
-34.132913 28.659378 31.281913 54.451572 -0.698449 0.958815 0.121281 -0.037303 153110.000000 0 0 1
-34.702293 29.955178 31.139073 55.418442 -0.712110 0.974127 0.130179 -0.041708 58946.900000 0 0 1
-34.447360 30.563878 29.753983 54.827646 -0.725734 0.997169 0.129358 -0.040899 402271.000000 0 0 1
-33.080693 30.816578 29.406893 53.932912 -0.749979 0.994110 0.122051 -0.036040 599917.000000 0 0 1
-32.984803 31.463378 28.103483 53.551350 -0.761796 1.018322 0.141058 -0.032289 725789.000000 0 0 1
-31.500923 31.651678 27.617333 52.505751 -0.787785 1.016921 0.141151 -0.025998 638757.000000 0 0 1
-30.974473 30.375178 27.298153 51.256790 -0.775630 1.009155 0.153291 -0.034070 654962.000000 0 0 1
-29.850643 30.308878 26.389663 50.060995 -0.793015 1.015553 0.131993 -0.021848 667592.000000 0 0 1
-30.170713 30.779378 24.946973 49.799533 -0.795384 1.046103 0.139621 -0.016911 -397505.000000 0 0 1
-30.026433 32.138278 24.896403 50.539949 -0.819357 1.055712 0.127751 -0.025449 240715.000000 0 0 1
-30.890203 32.762378 23.942453 50.998226 -0.814802 1.082099 0.134221 -0.025146 201288.000000 0 0 1
-31.116753 -33.187493 24.344473 51.597630 0.817589 1.079450 0.122724 -0.027189 -229295.000000 0 0 1
-31.746893 -33.217793 25.592963 52.595501 0.808036 1.062603 0.122007 -0.039298 -6715.510000 0 0 1
-31.689833 -31.970993 26.233683 52.101785 0.789815 1.043142 0.095922 -0.035509 -126553.000000 0 0 1
-32.090953 -32.100093 27.708103 53.178795 0.785541 1.022731 0.109223 -0.040971 291995.000000 0 0 1
-33.435193 -32.429993 28.030393 54.362850 0.770138 1.029069 0.081068 -0.046436 155277.000000 0 0 1
-33.614443 -32.488593 29.446813 55.249925 0.768368 1.008684 0.073956 -0.040311 1001360.000000 0 0 1
-35.104042 -32.915093 29.754163 56.577445 0.753228 1.017022 0.071547 -0.045350 1075070.000000 0 0 1
-35.337745 -33.151993 31.097663 57.574956 0.753495 1.000211 0.066889 -0.047526 245053.000000 0 0 1
-36.725143 -33.369093 31.341309 58.689949 0.737556 1.007454 0.050869 -0.047834 144332.000000 0 0 1
-37.188493 -33.714893 32.765075 59.943541 0.736447 0.992499 0.043874 -0.039329 -296402.000000 0 0 1
-36.947323 32.369378 33.041025 59.199583 -0.719450 0.978667 0.030537 -0.036123 -385589.000000 0 0 1
-37.695353 31.845678 -33.311832 59.537929 -0.701477 2.164586 0.038048 -0.036224 -332478.000000 0 0 1
-37.205883 30.463878 -32.807232 58.212027 -0.686095 2.169512 0.033632 -0.035496 591728.000000 0 0 1
-36.034483 30.660178 -32.009292 57.123772 -0.704991 2.165604 0.033667 -0.039563 100609.000000 0 0 1
-35.423385 29.414678 -31.641142 55.867713 -0.692990 2.172877 0.041377 -0.038530 551290.000000 0 0 1
-34.493209 29.482378 -30.404642 54.620823 -0.707234 2.161143 0.047620 -0.034003 398848.000000 0 0 1
-35.219478 29.565178 -29.177332 54.459417 -0.698340 2.136207 0.061172 -0.036740 -121155.000000 0 0 1
-35.655920 30.855378 -28.815462 55.260563 -0.713347 2.119342 0.042660 -0.028274 332433.000000 0 0 1
-36.743353 30.884778 -27.709812 55.423616 -0.698985 2.094354 0.044208 -0.020577 525951.000000 0 0 1
-36.196483 30.405678 -26.493752 54.190493 -0.698670 2.081625 0.038878 -0.031136 664292.000000 0 0 1
-37.272893 30.143178 -25.591072 54.339513 -0.680033 2.061161 0.068669 -0.030330 380732.000000 0 0 1
-36.663043 30.104678 -24.161632 53.237720 -0.687486 2.041871 0.077566 -0.036830 28295.200000 0 0 1
-36.491423 31.437478 -23.684132 53.673803 -0.711134 2.027799 0.072233 -0.025912 -83307.700000 0 0 1
-36.295613 31.488778 -22.293932 52.971068 -0.714603 2.005200 0.075246 -0.028901 32548.300000 0 0 1
-37.435933 31.068778 -21.303432 53.108891 -0.692720 1.983544 0.061978 -0.024895 1186570.000000 0 0 1
37.649271 31.993978 -21.044632 53.702502 0.704372 1.973464 0.073745 -0.019702 1197310.000000 0 0 1
38.001881 33.170778 -20.334132 54.386767 0.717623 1.953985 0.071236 -0.014600 -385661.000000 0 0 1
-37.907903 33.131278 -18.799832 53.741273 -0.718260 1.928176 0.077273 -0.019923 1013860.000000 0 0 1
-36.627593 32.500378 -18.555732 52.365736 -0.725765 1.933014 0.073856 -0.023932 877099.000000 0 0 1
-36.407103 32.293878 -17.169832 51.605957 -0.725598 1.909972 0.080159 -0.015453 -533880.000000 0 0 1
-35.188550 31.432578 -16.917132 50.124150 -0.729080 1.915061 0.082001 -0.023431 -442867.000000 0 0 1
-35.240909 30.834178 -15.646332 49.370800 -0.718804 1.893271 0.078057 -0.016905 -27931.600000 0 0 1
-34.040179 30.130678 -15.443632 48.011429 -0.724550 1.898285 0.088988 -0.012178 -39423.600000 0 0 1
-33.703063 29.952678 -13.915732 47.187996 -0.726550 1.870147 0.114901 -0.015794 427026.000000 0 0 1
-34.609767 29.028378 -13.332732 47.098243 -0.697917 1.857804 0.105141 -0.014413 270070.000000 0 0 1
-34.067057 28.728578 -12.116432 46.181203 -0.700589 1.836271 0.128027 -0.014010 -100803.000000 0 0 1
-34.973518 27.792978 -11.314832 46.082774 -0.671493 1.818866 0.114107 -0.021419 -83772.900000 0 0 1
-34.500757 27.499278 -9.984632 45.235002 -0.672948 1.793357 0.133509 -0.021497 -94075.600000 0 0 1
-35.146006 26.434378 -9.379932 44.966668 -0.644863 1.780937 0.131171 -0.023204 -480963.000000 0 0 1
-34.392999 25.798278 -8.184832 43.765523 -0.643567 1.758920 0.135125 -0.025964 -128307.000000 0 0 1
-34.294686 26.569978 -6.983632 43.941556 -0.659157 1.730403 0.137881 -0.022777 381603.000000 0 0 1
-33.403293 27.689278 -6.944832 43.939809 -0.692139 1.729515 0.124022 -0.018904 -245700.000000 0 0 1
-33.083313 27.981878 -5.467632 43.673632 -0.702051 1.696319 0.140770 -0.022256 -265799.000000 0 0 1
-32.140333 27.129978 -4.878432 42.341892 -0.701065 1.686268 0.150613 -0.025308 -20175.500000 0 0 1
-31.826633 27.481778 -3.577332 42.201659 -0.712270 1.655666 0.155936 -0.030395 -14230.700000 0 0 1
-30.961663 26.380078 -2.901332 40.779294 -0.705668 1.642004 0.157616 -0.030332 292697.000000 0 0 1
-31.700093 25.169378 -2.889132 40.580051 -0.671062 1.642052 0.134366 -0.030357 165967.000000 0 0 1
-30.902113 24.182978 -2.298132 39.306977 -0.664020 1.629296 0.151274 -0.036244 24245.900000 0 0 1
-31.735073 22.998978 -1.840832 39.235908 -0.627123 1.617731 0.144020 -0.035311 -373181.000000 0 0 1
-32.082743 22.097078 -2.856432 39.060753 -0.603138 1.643990 0.131383 -0.026965 -429319.000000 0 0 1
-33.090863 21.264178 -2.393032 39.406815 -0.571155 1.631560 0.112525 -0.027793 -527905.000000 0 0 1
-33.493863 20.355678 -3.515332 39.351621 -0.546094 1.660247 0.151525 -0.017687 -357493.000000 0 0 1
-32.521303 19.403978 -3.845932 38.064954 -0.537956 1.672005 0.147259 -0.027130 -26667.000000 0 0 1
-32.921293 18.623778 -4.945932 38.146021 -0.514822 1.700820 0.156208 -0.021844 310837.000000 0 0 1
-31.814713 17.596078 -5.334832 36.745862 -0.505205 1.716493 0.139546 -0.022649 291145.000000 0 0 1
-31.843733 16.492178 -4.497832 36.142022 -0.477872 1.695569 0.171336 -0.026215 147876.000000 0 0 1
-31.053763 15.401278 -4.947432 35.014463 -0.460407 1.712568 0.175503 -0.036150 -330533.000000 0 0 1
-30.901983 14.150278 -4.043232 34.227338 -0.429411 1.689202 0.197322 -0.043417 -280032.000000 0 0 1
-32.079843 13.435478 -3.710532 34.977085 -0.396619 1.677081 0.186240 -0.033668 142858.000000 0 0 1
-31.876093 12.494878 -2.763532 34.348863 -0.373576 1.651338 0.185407 -0.045528 -625582.000000 0 0 1
-33.155763 11.814878 -2.307832 35.273532 -0.342316 1.636270 0.184363 -0.040624 -493050.000000 0 0 1
-33.731673 11.018178 -3.332032 35.641667 -0.315716 1.664420 0.202612 -0.025034 -357579.000000 0 0 1
-34.894984 10.370678 -2.967732 36.524216 -0.288883 1.652140 0.197351 -0.024541 -472555.000000 0 0 1
-35.614824 9.632778 -4.160732 37.128396 -0.264151 1.683096 0.137481 -0.021661 -129799.000000 0 0 1
-34.865246 8.616478 -4.754332 36.227513 -0.242282 1.702411 0.130765 -0.014349 -77524.800000 0 0 1
-35.535627 7.970778 -5.809732 36.879087 -0.220652 1.728990 0.137559 -0.016255 -239425.000000 0 0 1
-34.565903 7.348578 -6.847132 35.995645 -0.209477 1.762184 0.156499 -0.021629 -119408.000000 0 0 1
-33.975237 6.166378 -6.289732 35.098457 -0.179542 1.750972 0.147033 -0.019059 187663.000000 0 0 1
-33.451983 5.368278 -7.285732 34.654516 -0.159120 1.782616 0.153012 -0.015142 -571808.000000 0 0 1
-32.544143 4.241678 -6.746632 33.505673 -0.129606 1.773540 0.181881 -0.029905 -94417.700000 0 0 1
-31.331183 4.827578 -6.317632 32.324310 -0.152880 1.767508 0.191976 -0.033943 -466438.000000 0 0 1
-30.441723 3.924978 -5.772632 31.231830 -0.128227 1.756697 0.205227 -0.038811 -534020.000000 0 0 1
-29.035413 4.563478 -5.710832 29.941512 -0.155894 1.762705 0.248710 -0.046768 1494.610000 0 0 1
-28.321283 4.521978 -6.951332 29.510411 -0.158331 1.808586 0.243306 -0.033565 841723.000000 0 0 1
-26.939193 4.241678 -6.668332 28.074519 -0.156172 1.810611 0.261256 -0.048095 844129.000000 0 0 1
-25.986043 4.476578 -7.863732 27.516404 -0.170594 1.860620 0.231291 -0.040772 -14285.100000 0 0 1
-26.320973 3.607778 -8.954032 28.035413 -0.136220 1.895875 0.219960 -0.055518 -272058.000000 0 0 1
-25.381183 3.730378 -9.934032 27.510092 -0.145929 1.940249 0.216852 -0.052942 -742036.000000 0 0 1
-25.764673 2.988778 -11.265132 28.278161 -0.115487 1.980534 0.179969 -0.054166 -270695.000000 0 0 1
-26.729273 3.759978 -11.925932 29.509648 -0.139752 1.986831 0.176072 -0.031065 138948.000000 0 0 1
-27.095673 3.124278 -13.126632 30.269541 -0.114798 2.019345 0.172030 -0.035593 -35437.700000 0 0 1
-27.935153 3.971278 -14.114532 31.549387 -0.141214 2.034629 0.158578 -0.031672 -671403.000000 0 0 1
-27.295693 5.101978 -14.566132 31.356933 -0.184783 2.053896 0.126278 -0.021401 380118.000000 0 0 1
-28.108783 6.174478 -15.138932 32.517920 -0.216229 2.055060 0.164433 -0.031410 232145.000000 0 0 1
-28.844093 5.845578 -16.472132 33.726601 -0.199953 2.081054 0.099617 -0.003179 328545.000000 0 0 1
-30.018253 5.071578 -16.247532 34.507952 -0.167369 2.061033 0.136022 -0.022950 -48598.000000 0 0 1
-30.601223 4.596078 -17.414732 35.508192 -0.149078 2.083394 0.145081 -0.005423 1323760.000000 0 0 1
-32.062733 4.006878 -17.105032 36.560307 -0.124325 2.057662 0.149392 -0.015999 1414860.000000 0 0 1
-32.148103 2.787978 -16.355232 36.176885 -0.086507 2.039904 0.155745 -0.023405 95440.000000 0 0 1
-31.887783 1.629478 -17.153032 36.245171 -0.051056 2.063773 0.178653 -0.019630 27218.600000 0 0 1
-32.241663 0.390578 -16.321232 36.139452 -0.012113 2.039374 0.167327 -0.020493 -45052.500000 0 0 1
-31.945443 -0.786022 -16.981932 36.187224 0.024600 2.059271 0.177927 -0.014767 194500.000000 0 0 1
-32.250133 -1.830422 -16.078132 36.082238 0.056696 2.032637 0.172436 -0.023876 -34174.600000 0 0 1
-32.295983 -3.178022 -16.769032 36.528493 0.098087 2.047741 0.166344 -0.021184 405532.000000 0 0 1
-33.392143 -3.351222 -17.669932 37.927463 0.100025 2.055434 0.190556 -0.025314 485123.000000 0 0 1
-33.233343 -4.558122 -18.374532 38.247288 0.136305 2.071923 0.186226 -0.031560 30664.200000 0 0 1
-33.970751 -4.653622 -19.721232 39.554963 0.136142 2.092754 0.212810 -0.033880 -40469.500000 0 0 1
-33.784663 -5.927222 -20.300932 39.858039 0.173674 2.105203 0.213286 -0.032440 275997.000000 0 0 1
-34.393916 -5.909722 -21.570132 41.026051 0.170163 2.124413 0.207192 -0.036280 -210208.000000 0 0 1
-33.951855 -7.182622 -22.348232 41.276652 0.208479 2.142928 0.198846 -0.033863 216211.000000 0 0 1
-32.570723 -7.076122 -22.643832 40.294747 0.213930 2.167544 0.193868 -0.034836 -26284.900000 0 0 1
-32.227663 -7.998822 -23.621632 40.750275 0.243281 2.189118 0.168430 -0.027750 264035.000000 0 0 1
-30.922113 -7.672622 -24.419232 40.141563 0.243215 2.224748 0.152260 -0.017480 59703.600000 0 0 1
-30.878093 -6.546522 -25.262992 40.429350 0.208918 2.245758 0.138268 -0.019840 -38010.000000 0 0 1
-31.066293 -6.827322 -26.634932 41.486703 0.216327 2.267915 0.102868 -0.018076 -1110140.000000 0 0 1
-32.450373 -6.908022 -27.194062 42.898304 0.209749 2.257407 0.122319 -0.009372 -937645.000000 0 0 1
-33.293023 -7.949322 -26.706712 43.415039 0.234380 2.233371 0.124644 -0.016524 -220457.000000 0 0 1
-34.534393 -7.962722 -27.374432 44.781568 0.226613 2.228483 0.127172 -0.020007 253997.000000 0 0 1
-35.527763 -8.886122 -26.620362 45.275035 0.245089 2.199343 0.119470 -0.014878 -433083.000000 0 0 1
-35.175664 -10.245122 -26.855842 45.426051 0.283416 2.203341 0.118369 -0.013818 628074.000000 0 0 1
-36.249753 -11.200322 -26.745262 46.419833 0.299672 2.184819 0.100120 -0.014450 108589.000000 0 0 1
-37.359413 -11.143522 -27.799822 47.882502 0.289877 2.190242 0.084570 -0.011600 -580249.000000 0 0 1
37.876721 -10.159522 -27.504862 47.899680 -0.262058 2.182445 0.084418 -0.021828 -583034.000000 0 0 1
37.086271 -9.966622 -28.620602 47.894299 -0.262539 2.211274 0.079545 -0.030674 170201.000000 0 0 1
35.922851 -8.917322 -28.400232 46.653435 -0.243317 2.225279 0.087498 -0.025373 732127.000000 0 0 1
34.830311 -9.427622 -27.648262 45.458300 -0.264339 2.224602 0.079442 -0.026750 -49566.300000 0 0 1
33.803741 -8.456522 -27.560542 44.427347 -0.245134 2.239986 0.059247 -0.018641 -406834.000000 0 0 1
32.653421 -9.042822 -26.757332 43.173758 -0.270163 2.239232 0.058861 -0.015085 -516875.000000 0 0 1
32.926611 -9.168222 -25.364182 42.562422 -0.271565 2.209218 0.038195 0.006614 -215767.000000 0 0 1
31.762681 -9.612922 -24.731032 41.387197 -0.293885 2.211242 0.022341 0.003580 -223251.000000 0 0 1
31.975611 -9.681522 -23.256732 40.706844 -0.294004 2.178913 0.009443 0.002806 4865.880000 0 0 1
32.808681 -10.729422 -22.835232 41.388137 -0.316067 2.155238 0.000090 -0.001775 30996.300000 0 0 1
32.746031 -10.877922 -21.423332 40.615156 -0.320722 2.126418 0.004323 -0.007352 -43526.700000 0 0 1
33.621191 -12.015222 -20.871532 41.356630 -0.343226 2.099798 0.046365 -0.013461 1213060.000000 0 0 1
35.051461 -11.843222 -21.034632 42.559635 -0.325838 2.087756 0.062435 -0.019213 1180900.000000 0 0 1
35.753101 -12.650322 -20.084432 42.915024 -0.340078 2.057828 0.105332 -0.024561 37404.800000 0 0 1
37.272291 -12.771122 -20.365032 44.351547 -0.330107 2.047860 0.135620 -0.037291 -300864.000000 0 0 1
38.076141 -11.601522 -20.320632 44.691340 -0.295756 2.042819 0.166720 -0.043412 251768.000000 0 0 1
37.834831 -10.595822 -21.275932 44.681217 -0.273059 2.067092 0.170312 -0.027411 -1038270.000000 0 0 1
-37.844493 -10.767522 -22.756732 45.453427 0.277195 2.095158 0.133149 -0.028320 -44486.200000 0 0 1
37.963061 -11.846022 -23.596132 46.241753 -0.302466 2.106304 0.128809 -0.026109 -624201.000000 0 0 1
36.616061 -11.943522 -23.934432 45.345790 -0.315301 2.126829 0.145071 -0.023200 -745496.000000 0 0 1
36.352951 -13.271822 -24.682632 45.901096 -0.350048 2.138545 0.099071 -0.029778 -164356.000000 0 0 1
36.330601 -14.507522 -23.933132 45.860392 -0.379920 2.119837 0.093375 -0.035347 39686.800000 0 0 1
35.113931 -14.740622 -23.278432 44.633614 -0.397453 2.119457 0.064707 -0.027464 -563871.000000 0 0 1
-30.561763 8.424278 -19.087232 37.004219 -0.268968 2.112752 0.087404 -0.012029 -671621.000000 0 0 1
-29.388013 7.726378 -18.902132 35.786070 -0.257091 2.127273 0.087988 -0.002699 -829003.000000 0 0 1
-28.603263 7.786878 -20.076032 35.802642 -0.265796 2.166078 0.085964 -0.020632 61550.200000 0 0 1
-27.367143 6.851278 -19.992632 34.577534 -0.245305 2.187314 0.065673 -0.015405 -467980.000000 0 0 1
-26.328353 7.424178 -19.299332 33.477826 -0.274848 2.185212 0.068889 -0.013380 -720766.000000 0 0 1
-25.220473 6.571478 -19.138032 32.334515 -0.254894 2.204181 0.079938 -0.018973 -505596.000000 0 0 1
-23.983513 7.193678 -18.537132 31.154184 -0.291404 2.208078 0.075383 -0.018321 -533614.000000 0 0 1
-23.457413 8.080278 -19.494932 31.553027 -0.331736 2.236798 0.081550 -0.006945 -704251.000000 0 0 1
-22.226613 8.598778 -19.098632 30.540450 -0.369135 2.246383 0.090598 -0.006624 -318895.000000 0 0 1
-21.663013 9.603578 -20.142932 31.100684 -0.417282 2.275317 0.093356 -0.008954 -91114.200000 0 0 1
-21.338013 8.975878 -21.383432 31.513939 -0.398182 2.316568 0.139168 -0.016890 -33718.400000 0 0 1
-20.786213 9.910478 -22.285232 32.045527 -0.444901 2.339806 0.121643 -0.013063 325786.000000 0 0 1
-19.617513 9.353278 -23.153232 31.755359 -0.444901 2.387821 0.167324 -0.018660 326186.000000 0 0 1
-20.099013 8.401678 -24.092932 32.481193 -0.395939 2.406473 0.157903 -0.017115 556844.000000 0 0 1
-19.057613 7.773178 -24.849332 32.266147 -0.387279 2.449851 0.137118 -0.012374 249237.000000 0 0 1
-19.645613 6.743078 -25.814252 33.132987 -0.330636 2.464042 0.111486 -0.006344 130227.000000 0 0 1
-20.197613 5.581178 -25.178232 32.757236 -0.269601 2.447495 0.119971 -0.002979 378759.000000 0 0 1
-20.595713 4.628078 -26.202792 33.648014 -0.221039 2.463439 0.103505 -0.004274 -609888.000000 0 0 1
-20.880013 3.231778 -25.589202 33.184735 -0.153560 2.451385 0.105749 -0.006700 239933.000000 0 0 1
-19.802013 2.437778 -25.097832 32.061873 -0.122491 2.469939 0.105549 -0.004225 797282.000000 0 0 1
-18.857113 3.072678 -24.220432 30.849010 -0.161526 2.473700 0.110993 -0.008366 139467.000000 0 0 1
-17.853013 2.184178 -23.423732 29.532557 -0.121737 2.486759 0.116523 -0.017287 189987.000000 0 0 1
-18.256613 1.492278 -22.228932 28.803754 -0.081558 2.452365 0.124781 -0.013370 306136.000000 0 0 1
-19.365813 0.601478 -22.419232 29.631376 -0.031049 2.428901 0.119345 -0.005066 546251.000000 0 0 1
-19.826213 -0.355622 -21.275332 29.083414 0.017935 2.391357 0.141345 -0.017760 -46677.200000 0 0 1
-18.935313 -1.388722 -20.975132 28.291886 0.073209 2.405926 0.142675 -0.029340 -288943.000000 0 0 1
-19.538613 -2.307322 -20.138932 28.154178 0.117546 2.367862 0.151860 -0.028932 -359889.000000 0 0 1
-18.914813 -3.680522 -19.977032 27.756048 0.192183 2.374219 0.119104 -0.044790 -268063.000000 0 0 1
-19.194313 -4.500122 -21.090132 28.869819 0.230291 2.389887 0.121226 -0.042232 372465.000000 0 0 1
-19.587813 -5.833022 -20.776332 29.143825 0.289427 2.364407 0.124717 -0.034257 -165001.000000 0 0 1
-19.660413 -6.713522 -22.045032 30.291693 0.329059 2.385844 0.103873 -0.042427 438343.000000 0 0 1
-18.334913 -6.800022 -22.573832 29.866156 0.355152 2.427722 0.108915 -0.039986 571969.000000 0 0 1
-18.274613 -7.549022 -23.731932 30.889381 0.391738 2.446958 0.119352 -0.042349 1330160.000000 0 0 1
-16.829813 -7.599522 -24.404032 30.603139 0.424143 2.493830 0.139525 -0.046536 750496.000000 0 0 1
-16.823813 -8.377022 -25.613312 31.768805 0.461987 2.508567 0.147636 -0.064938 -438976.000000 0 0 1
-15.608613 -8.491222 -26.289862 31.731475 0.498232 2.547239 0.157664 -0.063629 171804.000000 0 0 1
-14.498613 -9.373822 -25.603852 30.880991 0.573934 2.548317 0.134538 -0.056620 -188002.000000 0 0 1
-13.787513 -8.774022 -24.571832 29.510234 0.566737 2.554680 0.140482 -0.047607 -25634.700000 0 0 1
-12.851813 -9.712022 -24.047632 28.944448 0.647135 2.551376 0.124330 -0.042220 730593.000000 0 0 1
-11.854613 -9.132622 -22.975932 27.419521 0.656421 2.564295 0.128176 -0.044556 757307.000000 0 0 1
-12.567513 -8.733322 -21.795132 26.631581 0.607303 2.529407 0.128043 -0.043100 827096.000000 0 0 1
-11.681313 -8.046922 -20.919632 25.275226 0.603218 2.545746 0.121896 -0.042591 -30006.900000 0 0 1
-12.438313 -7.790722 -19.596432 24.483201 0.559569 2.498764 0.113329 -0.038043 821147.000000 0 1 0
-13.538613 -6.873422 -19.674632 24.852145 0.469781 2.484330 0.103570 -0.031111 894192.000000 0 1 0
-14.817213 -7.502722 -19.748932 25.804282 0.468716 2.442359 0.118393 -0.051651 1352170.000000 0 0 1
-16.027413 -6.479122 -19.457932 26.028218 0.384167 2.415193 0.131507 -0.039965 852367.000000 0 0 1
-16.011713 -5.860222 -18.174832 24.920708 0.350853 2.388104 0.111973 -0.040856 170027.000000 0 1 0
-15.266513 -4.678222 -18.180532 24.196775 0.297352 2.420920 0.122342 -0.035484 -676340.000000 0 1 0
-14.974113 -4.189522 -16.742432 22.849184 0.272809 2.393131 0.123531 -0.025555 98596.300000 0 1 0
-16.068613 -3.824922 -15.914432 22.936859 0.233688 2.337599 0.161566 -0.034862 -7731.490000 0 1 0
-16.681913 -2.562222 -16.005932 23.260290 0.152402 2.329695 0.124514 -0.037853 468120.000000 0 1 0
-17.931813 -2.570522 -15.056832 23.555588 0.142380 2.264259 0.120341 -0.044321 225854.000000 0 1 0
-17.635613 -2.457222 -13.685232 22.457479 0.138442 2.226080 0.134796 -0.038264 701322.000000 0 1 0
-18.670313 -1.773822 -12.989632 22.813539 0.094723 2.176551 0.145532 -0.039363 244104.000000 0 1 0
-18.117313 -0.582922 -12.113032 21.801431 0.032164 2.159889 0.130442 -0.041802 181986.000000 0 1 0
-17.655113 0.474478 -12.927332 21.887075 -0.026868 2.202645 0.145398 -0.046826 311862.000000 0 1 0
-16.636313 1.240678 -12.342632 20.752030 -0.074439 2.207773 0.110291 -0.035073 -853477.000000 0 1 0
-16.152413 2.378378 -13.317232 21.069072 -0.146195 2.255024 0.111048 -0.034092 281070.000000 0 1 0
-15.425113 1.964278 -14.473832 21.243454 -0.126661 2.320376 0.111313 -0.043610 1464710.000000 0 1 0
-14.144913 1.347378 -14.162232 20.061476 -0.094969 2.354548 0.109206 -0.036253 -155251.000000 0 1 0
-13.694013 0.499178 -15.378032 20.597550 -0.036436 2.413726 0.103179 -0.035570 43807.400000 0 1 0
-13.215913 1.159478 -16.543932 21.206283 -0.087509 2.465691 0.116899 -0.042878 259232.000000 0 1 0
-12.808213 0.205878 -17.530532 21.712031 -0.016073 2.510547 0.072491 -0.029856 -206911.000000 0 1 0
-12.037613 0.906278 -18.646832 22.213280 -0.075145 2.567058 0.083847 -0.035993 -519149.000000 0 1 0
-10.776113 1.361078 -18.235532 21.225263 -0.125640 2.604389 0.046329 -0.030370 -749699.000000 0 1 0
-10.240913 2.178978 -19.218132 21.885174 -0.209645 2.642746 0.044794 -0.028068 -899759.000000 0 1 0
-8.833013 2.659278 -18.980332 21.103244 -0.292430 2.689199 0.019596 -0.025180 -1928550.000000 0 1 0
-7.888013 1.673978 -19.276032 20.894697 -0.209116 2.745388 0.023752 -0.013551 -116465.000000 0 1 0
-6.541713 2.118978 -19.144032 20.341535 -0.313253 2.796754 0.028872 -0.006518 605229.000000 0 1 0
-6.085213 3.193578 -20.206332 21.343023 -0.483298 2.813758 0.037965 -0.003986 -1286580.000000 0 1 0
-6.045213 2.653578 -21.523232 22.513010 -0.413631 2.843966 0.041664 -0.003979 90620.000000 0 1 0
-5.896413 3.652878 -22.515532 23.559720 -0.554641 2.842754 0.063644 0.000028 -239939.000000 0 1 0
-5.236013 3.064978 -23.781332 24.543058 -0.529589 2.891800 0.089467 -0.020068 454141.000000 0 1 0
-3.907313 2.602378 -23.542432 24.005949 -0.587560 2.944763 0.094554 -0.026264 -10454.400000 0 1 0
-3.478913 1.902778 -24.646632 24.963571 -0.500496 2.982075 0.121583 -0.036305 -202556.000000 0 1 0
-2.042513 1.376178 -24.497232 24.620725 -0.592902 3.041393 0.106189 -0.029771 -237285.000000 0 1 0
-1.068213 2.417678 -24.258032 24.401606 -1.154754 3.033061 0.107655 -0.030952 790300.000000 0 1 0
0.294187 2.058678 -24.447732 24.536021 1.428856 3.056734 0.098275 -0.027007 711678.000000 0 1 0
0.916287 1.075478 -23.398932 23.441550 0.865153 3.081284 0.086997 -0.030294 -1119950.000000 0 1 0
0.435187 -0.236722 -23.545732 23.550944 -0.498190 3.120556 0.081792 -0.034519 -220876.000000 0 1 0
1.074487 -1.195022 -22.770032 22.826673 -0.838459 3.071132 0.074614 -0.025146 -912087.000000 0 1 0
0.268587 -2.444822 -22.704232 22.837063 -1.461376 3.033684 0.085455 -0.035981 -179320.000000 0 1 0
-0.966713 -2.201422 -22.060032 22.190670 1.157018 3.033031 0.067573 -0.024740 -530600.000000 0 1 0
-2.049013 -2.684322 -22.814432 23.063009 0.918821 2.994640 0.075760 -0.027968 -351167.000000 0 1 0
-3.194613 -1.658622 -22.818832 23.100989 0.478884 2.985138 0.099167 -0.029330 -669901.000000 0 1 0
-3.798213 -1.485222 -21.531032 21.913869 0.372751 2.954397 0.067942 -0.026275 432667.000000 0 1 0
-4.712113 -0.367622 -21.471832 21.985876 0.077859 2.924926 0.038211 -0.024397 966319.000000 0 1 0
-6.145313 -0.618622 -22.013832 22.863866 0.100328 2.868058 0.057846 -0.021855 -206154.000000 0 1 0
-6.820213 -1.686822 -21.412832 22.535973 0.242461 2.824553 0.065957 -0.011859 329498.000000 0 1 0
-8.105613 -1.816122 -22.027032 23.541228 0.220417 2.780975 0.060254 0.003049 1003430.000000 0 1 0
-8.986713 -3.063222 -21.680932 23.668696 0.328510 2.728833 0.055828 -0.011233 101519.000000 0 1 0
-8.429213 -4.221022 -22.332832 24.240958 0.464256 2.742168 0.065836 -0.011661 38501.500000 0 1 0
-9.185213 -5.436322 -22.190032 24.623551 0.534410 2.693260 0.068546 0.000276 660516.000000 0 1 0
-10.365413 -5.448522 -23.237232 26.021091 0.483952 2.674798 0.096143 -0.022841 1388780.000000 0 0 1
-11.627413 -4.844822 -22.903632 26.138964 0.394796 2.638770 0.101193 -0.037841 1272990.000000 0 0 1
-12.714313 -5.414822 -23.659332 27.399600 0.402619 2.612949 0.105744 -0.050947 1002280.000000 0 0 1
-14.134013 -5.037622 -23.148032 27.585854 0.342381 2.566472 0.129827 -0.053805 183236.000000 0 0 1
-14.546013 -3.818322 -23.631632 28.011072 0.256708 2.574848 0.134851 -0.046777 -116201.000000 0 0 1
-15.939913 -3.697822 -23.453932 28.597931 0.227953 2.532429 0.134287 -0.047440 284258.000000 0 0 1
-16.632213 -2.385322 -23.957932 29.262652 0.142444 2.529975 0.124786 -0.039564 -179119.000000 0 0 1
-16.540513 -2.161722 -25.358612 30.353267 0.129956 2.559746 0.111396 -0.033079 -79645.700000 0 0 1
-17.150013 -1.014522 -25.869202 31.054272 0.059087 2.555362 0.099974 -0.031348 497663.000000 0 0 1
-18.694113 -1.167022 -26.122692 32.143846 0.062346 2.519535 0.114975 -0.022402 576816.000000 0 0 1
-19.008513 -1.852322 -27.318232 33.332274 0.097140 2.531462 0.131540 -0.033791 -34470.700000 0 0 1
-18.845113 -1.091422 -28.543892 34.221094 0.057851 2.557300 0.097149 -0.035876 -278456.000000 0 0 1
-18.881913 -1.808222 -29.901882 35.410717 0.095474 2.576297 0.103393 -0.031684 -453145.000000 0 0 1
-20.141313 -2.345322 -30.143782 36.329336 0.115921 2.549432 0.111754 -0.040559 -559624.000000 0 0 1
-20.145013 -3.089722 -31.323642 37.370289 0.152188 2.564764 0.116638 -0.045330 -1358490.000000 0 0 1
-21.539013 -3.470422 -31.752572 38.525300 0.159750 2.539585 0.076845 -0.042393 -923701.000000 0 0 1
-22.441013 -2.460922 -32.085512 39.231815 0.109225 2.528451 0.060662 -0.038064 271052.000000 0 0 1
-23.105713 -1.831322 -30.959842 38.674792 0.079093 2.498954 0.059033 -0.029253 -1158710.000000 0 0 1
-24.190413 -0.927422 -31.401502 39.649597 0.038320 2.484834 0.048458 -0.024538 -1120650.000000 0 0 1
-23.666213 0.240278 -31.977422 39.783199 -0.010152 2.504439 0.050537 -0.027824 56142.200000 0 0 1
-24.610113 1.159278 -32.489612 40.774704 -0.047071 2.492790 0.043976 -0.032961 -170322.000000 0 0 1
-23.968313 2.509578 -32.892602 40.776235 -0.104324 2.509277 0.054100 -0.032771 -645061.000000 0 0 1
-23.561613 3.334678 -31.802442 39.719832 -0.140596 2.499208 0.043427 -0.026852 642520.000000 0 0 1
-24.533613 3.916678 -30.912082 39.658484 -0.158309 2.464595 0.046181 -0.028506 56430.700000 0 0 1
-25.670133 4.794878 -31.514622 40.928206 -0.184660 2.449634 0.037685 -0.031852 107230.000000 0 0 1
-26.683263 4.028478 -32.186662 42.002457 -0.149842 2.443865 0.063931 -0.039025 120196.000000 0 0 1
-27.448233 4.831978 -33.008922 43.201186 -0.174254 2.440402 0.089716 -0.046999 -781874.000000 0 0 1
-28.734643 4.168178 -33.485832 44.321038 -0.144053 2.427258 0.114867 -0.048073 -585672.000000 0 0 1
-28.470643 2.984078 33.225861 43.857041 -0.104431 0.711176 0.117367 -0.044917 362159.000000 0 0 1
-29.290053 2.822578 32.075382 43.528201 -0.096070 0.742342 0.122106 -0.044711 -359862.000000 0 0 1
-29.837093 1.416278 31.827612 43.649225 -0.047431 0.753691 0.125008 -0.034043 -36023.100000 0 0 1
-30.686943 0.944378 32.871565 44.979107 -0.030765 0.751276 0.139249 -0.033417 298046.000000 0 0 1
-30.850533 -0.479922 32.761924 45.003659 0.015555 0.755420 0.128775 -0.025796 -513293.000000 0 0 1
-30.505493 -1.178322 -33.312212 45.184921 0.038607 2.399775 0.100121 -0.021001 -522453.000000 0 0 1
-29.155593 -1.429422 -33.066242 44.107462 0.048988 2.418367 0.103000 -0.028791 -4196.900000 0 0 1
-28.281343 -0.399122 -32.669582 43.212212 0.014112 2.428017 0.101108 -0.024674 -437652.000000 0 0 1
-28.497423 -0.083222 -31.136292 42.208752 0.002920 2.400415 0.125178 -0.023419 -526772.000000 0 0 1
-27.850213 -0.951322 -30.226012 41.111449 0.034145 2.396789 0.099194 -0.029295 431244.000000 0 0 1
-28.083483 -0.553522 -28.897072 40.299246 0.019707 2.370375 0.111902 -0.032334 -25421.900000 0 0 1
-27.001603 -1.075822 -27.908432 38.847452 0.039822 2.372311 0.110740 -0.028710 138337.000000 0 0 1
-27.131883 -2.425022 -27.563102 38.752347 0.089142 2.362089 0.092970 -0.018611 895606.000000 0 0 1
-26.012193 -2.855922 -26.756662 37.426053 0.109354 2.367307 0.106075 -0.018512 660561.000000 0 0 1
-26.260283 -4.177922 -26.039712 37.217256 0.157774 2.345729 0.091536 -0.020832 649089.000000 0 0 1
-27.235833 -4.072322 -24.970832 37.174143 0.148421 2.307332 0.105156 -0.019604 512635.000000 0 0 1
-27.358793 -5.330022 -24.245332 36.942507 0.192409 2.286699 0.089496 -0.021314 -16310.500000 0 0 1
-28.311643 -5.156722 -23.071232 36.883908 0.180166 2.246581 0.113870 -0.022419 -137656.000000 0 0 1
-28.640293 -6.286422 -22.277132 36.824667 0.216069 2.220501 0.117567 -0.029793 272895.000000 0 0 1
-29.677263 -5.902222 -21.364532 37.040780 0.196319 2.185583 0.172485 -0.026378 457936.000000 0 0 1
-30.114413 -7.110322 -20.459932 37.095059 0.231864 2.155023 0.181387 -0.040172 -495942.000000 0 0 1
-29.030043 -7.662522 -19.789632 35.959522 0.258066 2.153557 0.165089 -0.042234 -184681.000000 0 0 1
-29.430283 -8.588122 -18.772732 35.948754 0.283928 2.120234 0.192240 -0.036701 337553.000000 0 0 1
-30.191063 -8.126522 -17.482932 35.821691 0.262938 2.080656 0.196030 -0.046110 365293.000000 0 0 1
-29.361153 -7.437122 -16.575632 34.527376 0.248080 2.071533 0.160426 -0.042526 237588.000000 0 0 1
-30.126353 -6.565722 -15.789632 34.641281 0.214584 2.044072 0.162464 -0.037138 79722.200000 0 0 1
-29.285003 -5.868422 -14.688432 33.283627 0.197771 2.027855 0.170845 -0.031225 239739.000000 0 0 1
-28.353153 -4.892222 -15.140032 32.512393 0.170864 2.055187 0.171135 -0.021745 825259.000000 0 0 1
-27.234133 -4.889022 -14.235732 31.116822 0.177626 2.045970 0.155895 -0.035521 66149.700000 0 0 1
-14.339413 20.808278 -5.014932 25.763399 -0.967409 1.766700 0.123392 -0.043118 62346.800000 0 0 1
-14.303913 20.274078 -6.353432 25.612619 -0.956370 1.821472 0.142838 -0.036745 -217721.000000 0 0 1
-15.265813 19.267478 -6.446232 25.413277 -0.900762 1.827254 0.132548 -0.054878 -250197.000000 0 0 1
-15.410513 18.577978 -7.790232 25.363614 -0.878322 1.882985 0.140710 -0.054074 79753.600000 0 0 1
-14.257613 17.792078 -8.122232 24.203475 -0.895235 1.913019 0.117814 -0.045387 305593.000000 0 1 0
-14.483613 16.738178 -9.103432 23.933536 -0.857484 1.960985 0.103742 -0.048505 -177775.000000 0 1 0
-15.305813 15.524678 -8.566932 23.423831 -0.792497 1.945220 0.104076 -0.058837 948146.000000 0 1 0
-16.664313 15.854978 -8.239232 24.432859 -0.760515 1.914758 0.123200 -0.047019 550137.000000 0 1 0
-16.942813 15.209378 -7.027432 23.827902 -0.731537 1.870173 0.121385 -0.030413 1523550.000000 0 1 0
-18.426913 15.494878 -6.478732 24.932235 -0.699177 1.833667 0.156813 -0.031690 2053780.000000 0 1 0
-19.445513 14.869778 -7.254132 25.531563 -0.652836 1.858889 0.155030 -0.040597 236490.000000 0 0 1
-20.745013 15.390578 -7.068532 26.780396 -0.638292 1.837906 0.139650 -0.037045 423438.000000 0 0 1
-21.844913 14.644178 -7.887832 27.456694 -0.590562 1.862185 0.135114 -0.025599 152840.000000 0 0 1
-22.103413 13.372978 -7.323832 26.852112 -0.544102 1.847043 0.182503 -0.040331 -41249.700000 0 0 1
-23.164813 12.883678 -8.115032 27.720957 -0.507571 1.867887 0.194544 -0.045584 180919.000000 0 0 1
-23.425113 11.368978 -7.777132 27.174866 -0.451845 1.861043 0.189038 -0.033852 416388.000000 0 0 1
-22.225613 10.625778 -8.031732 25.911267 -0.445964 1.885958 0.181763 -0.021910 557138.000000 0 0 1
-22.391113 9.256978 -7.662232 25.411875 -0.392023 1.877085 0.207898 -0.038409 -676270.000000 0 0 1
-21.055913 8.620278 -7.378232 23.918591 -0.388583 1.884383 0.160954 -0.016601 -935292.000000 0 1 0
-20.969413 7.317078 -7.846432 23.554669 -0.335731 1.910403 0.150947 -0.020379 946529.000000 0 1 0
-19.771013 6.622278 -7.432832 22.135820 -0.323204 1.913233 0.107857 -0.016651 351590.000000 0 1 0
-19.377513 5.319678 -8.229532 21.714331 -0.267928 1.959502 0.088307 -0.026233 -65403.100000 0 1 0
-20.380613 4.298978 -8.346132 22.438996 -0.207887 1.951903 0.126058 -0.029909 404409.000000 0 1 0
-20.188113 3.457278 -9.426732 22.547194 -0.169608 2.002137 0.130146 -0.030656 58074.700000 0 1 0
-21.282713 2.352178 -9.616732 23.472711 -0.110074 1.992920 0.137045 -0.034795 257986.000000 0 1 0
-21.153813 1.400578 -8.547932 22.858534 -0.066113 1.954060 0.140956 -0.046187 -8662.400000 0 1 0
-22.108413 0.387878 -8.434632 23.665912 -0.017543 1.935213 0.154548 -0.044708 -395271.000000 0 1 0
-21.962713 -0.791722 -9.442132 23.919478 0.036033 1.976588 0.137057 -0.058479 75791.600000 0 1 0
-20.838613 -1.603822 -9.135332 22.809523 0.076813 1.982864 0.107068 -0.038242 493969.000000 0 1 0
-20.955013 -2.980722 -9.484132 23.193664 0.141296 1.992056 0.100085 -0.027287 237967.000000 0 1 0
-21.939813 -3.746122 -8.543532 23.840738 0.169115 1.937305 0.110108 -0.029629 304377.000000 0 1 0
-21.388513 -3.765422 -7.222032 22.886779 0.174263 1.891838 0.089817 -0.033751 516616.000000 0 1 0
-22.146713 -4.436422 -6.232632 23.430844 0.197703 1.840039 0.093591 -0.041923 -844704.000000 0 1 0
-22.404813 -5.957222 -6.339632 24.034456 0.259877 1.837728 0.099559 -0.036812 -812592.000000 0 1 0
-21.406613 -6.866222 -6.052732 23.281401 0.310385 1.833799 0.089593 -0.033515 -168375.000000 0 1 0
-21.805213 -8.223822 -6.282932 24.136566 0.360654 1.834137 0.110567 -0.035943 434754.000000 0 1 0
-20.722213 -9.222522 -5.738132 23.396393 0.418734 1.818581 0.105046 -0.037431 -736583.000000 0 1 0
-19.555013 -9.363222 -6.431332 22.614829 0.446556 1.859162 0.109232 -0.033045 -352819.000000 0 1 0
-18.600513 -9.899922 -5.447632 21.763829 0.489105 1.823793 0.110870 -0.027853 370916.000000 0 1 0
-17.843513 -11.126022 -5.961732 21.856843 0.557544 1.847060 0.105683 -0.034283 412060.000000 0 1 0
-16.760313 -11.008622 -6.913132 21.210593 0.581159 1.902790 0.107502 -0.037325 1268320.000000 0 1 0
-17.197913 -10.582722 -8.217832 21.801261 0.551629 1.957290 0.107497 -0.040557 147327.000000 0 1 0
-16.211413 -10.837322 -9.430432 21.660806 0.589270 2.021244 0.102737 -0.026598 464477.000000 0 1 0
-16.010113 -12.209822 -9.760232 22.375558 0.651537 2.022168 0.100484 -0.028517 537134.000000 0 1 0
-15.080513 -12.316322 -10.849932 22.289789 0.684844 2.079181 0.100141 -0.013292 464673.000000 0 1 0
-15.241313 -13.725722 -11.582932 23.555411 0.733125 2.084873 0.118295 -0.015942 250706.000000 0 1 0
-16.281713 -13.640622 -12.547232 24.669694 0.697361 2.104365 0.133075 -0.021092 238298.000000 0 1 0
-16.597813 -14.908422 -13.037332 25.840288 0.731829 2.099640 0.132843 -0.014738 12468.300000 0 0 1
-17.294913 -14.733322 -14.418732 26.908821 0.705589 2.136295 0.160261 -0.021967 -44128.800000 0 0 1
-17.679613 -15.909222 -15.055232 28.148394 0.732739 2.135129 0.157171 -0.015824 187211.000000 0 0 1
-18.173813 -15.597322 -16.339232 28.991972 0.709253 2.169507 0.140843 -0.008754 -201959.000000 0 0 1
-18.410213 -16.869822 -17.230332 30.338279 0.741764 2.174798 0.134575 -0.025902 -897269.000000 0 0 1
-19.524113 -17.579222 -16.821432 31.195843 0.733028 2.140307 0.099572 -0.020227 -1103330.000000 0 0 1
-20.239213 -17.880622 -18.032432 32.473235 0.723604 2.159522 0.102097 -0.015904 114081.000000 0 0 1
-21.778513 -17.774522 -17.892632 33.322418 0.684511 2.137620 0.096222 -0.021545 -369965.000000 0 0 1
-22.233213 -16.580222 -17.272432 32.673482 0.640770 2.127791 0.080860 -0.010296 143408.000000 0 0 1
-22.139313 -16.591622 -15.848132 31.884078 0.643129 2.090998 0.094343 -0.008853 -866245.000000 0 0 1
-22.108213 -15.185822 -15.293532 30.875142 0.601870 2.089017 0.090538 -0.020696 676668.000000 0 0 1
-23.403813 -14.574822 -15.332932 31.547785 0.556983 2.078329 0.102327 -0.024291 930972.000000 0 0 1
-23.249213 -13.233622 -14.976032 30.658379 0.517470 2.081144 0.106712 -0.026240 518501.000000 0 0 1
-24.602213 -12.523722 -14.619332 31.238396 0.470860 2.057814 0.127654 -0.035702 406718.000000 0 0 1
-25.241893 -13.024722 -13.425332 31.417131 0.476363 2.012329 0.144642 -0.031320 293452.000000 0 0 1
-26.073503 -11.985222 -12.920532 31.470832 0.430867 1.993860 0.154942 -0.034825 312047.000000 0 0 1
-27.210223 -12.689322 -12.064032 32.356700 0.436362 1.952870 0.147047 -0.035597 -42296.300000 0 0 1
-28.129283 -11.819822 -11.497032 32.605928 0.397795 1.931150 0.145063 -0.044182 300756.000000 0 0 1
-28.738463 -12.365622 -10.274332 32.929770 0.406335 1.888102 0.135341 -0.032918 22157.600000 0 0 1
-29.525513 -11.315822 -9.502532 33.016691 0.365989 1.862736 0.125481 -0.037663 -682070.000000 0 0 1
-28.701943 -10.400422 -8.918332 31.804197 0.347643 1.855021 0.143645 -0.039651 -115261.000000 0 0 1
-29.445743 -9.474422 -8.137732 31.984983 0.311297 1.828048 0.193677 -0.044362 646862.000000 0 0 1
-28.477813 -8.374522 -7.545032 30.627536 0.286009 1.819707 0.190942 -0.038538 963845.000000 0 0 1
-27.679393 -8.914022 -6.426632 29.781037 0.311557 1.788303 0.168867 -0.035924 973638.000000 0 0 1
-26.865863 -7.912022 -5.753332 28.591529 0.286404 1.773405 0.165354 -0.036785 616726.000000 0 0 1
-27.608633 -6.668622 -5.065232 28.850714 0.237002 1.747278 0.178769 -0.045028 -246387.000000 0 0 1
-28.355503 -6.956922 -3.893432 29.454917 0.240594 1.703367 0.203239 -0.044121 214317.000000 0 0 1
-27.706273 -7.148022 -2.652732 28.736193 0.252487 1.663241 0.220121 -0.033504 -131611.000000 0 0 1
-27.002523 -5.857422 -2.064732 27.707558 0.213612 1.645384 0.239097 -0.036896 -163402.000000 0 0 1
-27.916393 -4.927022 -1.616332 28.393891 0.174693 1.627752 0.269198 -0.056018 -103090.000000 0 0 1
-27.260203 -3.793722 -1.030132 27.542189 0.138279 1.608207 0.220825 -0.058852 -449218.000000 0 0 1
-28.174203 -2.646422 -0.512732 28.302865 0.093656 1.588913 0.258811 -0.065696 -8945.350000 0 0 1
-29.216003 -2.995522 0.358368 29.371354 0.102173 1.558595 0.258883 -0.049084 212603.000000 0 0 1
-28.727813 -3.540422 1.587368 28.988645 0.122622 1.516011 0.243694 -0.054488 -690134.000000 0 0 1
-29.788033 -3.381922 2.656868 30.096898 0.113049 1.482404 0.247190 -0.048922 167239.000000 0 0 1
-30.729513 -4.459622 2.766668 31.174439 0.144119 1.481931 0.265409 -0.054619 -199583.000000 0 0 1
-31.470783 -4.393922 3.883668 32.012491 0.138722 1.449179 0.293712 -0.070057 -635735.000000 0 0 1
-32.523593 -5.529822 3.912768 33.221571 0.168414 1.452744 0.272113 -0.067969 75747.600000 0 0 1
-31.970513 -6.767622 4.181968 32.945459 0.208604 1.443517 0.284347 -0.059659 220794.000000 0 0 1
-32.996383 -7.687122 3.895868 34.103239 0.228886 1.456309 0.296340 -0.076039 257691.000000 0 0 1
-32.496553 -9.137722 3.975168 33.990085 0.274112 1.453577 0.261027 -0.057709 87191.500000 0 0 1
-32.335753 -9.545122 5.291068 34.127784 0.287036 1.415131 0.245906 -0.050347 76988.100000 0 0 1
-31.629413 -10.755822 5.298468 33.825748 0.327790 1.413509 0.239586 -0.043658 -141898.000000 0 0 1
-31.161773 -11.224722 6.676968 33.788051 0.345740 1.371874 0.221341 -0.050052 178082.000000 0 0 1
-30.085793 -10.508522 7.287968 32.690954 0.336038 1.345972 0.209743 -0.040716 551505.000000 0 0 1
-29.625573 -11.091022 8.451668 32.743183 0.358221 1.309721 0.217111 -0.053009 -353873.000000 0 0 1
-29.937493 -10.212722 9.643268 33.068804 0.328755 1.274884 0.206923 -0.059366 -226459.000000 0 0 1
-29.151893 -9.007522 9.699268 32.016310 0.299680 1.263012 0.181394 -0.042681 685104.000000 0 0 1
-29.723173 -8.071722 10.620868 32.579480 0.265168 1.238728 0.183749 -0.041491 142734.000000 0 0 1
-28.828823 -6.824222 10.813968 31.537485 0.232437 1.220802 0.205116 -0.032316 91781.900000 0 0 1
-28.989403 -5.873922 9.738668 31.140490 0.199916 1.252727 0.213549 -0.033728 607396.000000 0 0 1
-28.134593 -4.774722 10.048468 30.254338 0.168108 1.232232 0.204826 -0.039546 16418.200000 0 0 1
-27.942423 -3.634222 9.015468 29.584882 0.129335 1.261139 0.239045 -0.050045 679396.000000 0 0 1
-27.024023 -3.942322 7.920068 28.435316 0.144860 1.288534 0.209458 -0.043457 910661.000000 0 0 1
-27.193263 -2.898322 6.970568 28.221670 0.106182 1.321220 0.231369 -0.060356 -202784.000000 0 0 1
-26.514223 -3.164422 5.644368 27.292425 0.118786 1.362482 0.206162 -0.038945 127177.000000 0 0 1
-25.097953 -3.024122 5.685768 25.911011 0.119915 1.349562 0.217749 -0.059298 820275.000000 0 0 1
-24.436613 -3.638822 4.567868 25.124778 0.147822 1.387972 0.211455 -0.037009 -1283750.000000 0 0 1
-22.951813 -3.539422 4.590768 23.672524 0.153006 1.375632 0.194359 -0.037294 -1184440.000000 0 1 0
-22.490113 -2.176722 4.565768 23.051888 0.096485 1.371413 0.160252 -0.039306 -515093.000000 0 1 0
-21.103713 -2.108322 4.467468 21.674178 0.099573 1.363189 0.133805 -0.031599 -640560.000000 0 1 0
-20.487813 -0.709922 4.680168 21.027564 0.034637 1.346343 0.103953 -0.035810 -427295.000000 0 1 0
-20.641513 0.273378 3.629068 20.959888 -0.013243 1.396776 0.114623 -0.035601 957961.000000 0 1 0
-21.992113 0.714078 3.476168 22.276595 -0.032458 1.414110 0.119972 -0.051091 307079.000000 0 1 0
-22.121413 1.885478 2.494268 22.341292 -0.085028 1.458919 0.153476 -0.040934 -207882.000000 0 1 0
-21.505513 3.094478 2.962468 21.928044 -0.142911 1.435282 0.122096 -0.042872 285151.000000 0 1 0
-21.603213 4.173778 2.023368 22.095548 -0.190850 1.479094 0.144970 -0.033590 -447425.000000 0 1 0
-20.523613 4.221678 0.953768 20.975007 -0.202869 1.525309 0.098191 -0.017272 -1088380.000000 0 1 0
-20.655213 5.040278 -0.223232 21.262457 -0.239342 1.581295 0.110894 -0.008432 572331.000000 0 1 0
-21.596313 4.633878 -1.232032 22.122194 -0.211363 1.626517 0.162580 -0.025721 189496.000000 0 1 0
-21.282013 3.346178 -2.058032 21.641545 -0.155954 1.666037 0.149800 -0.027076 -347142.000000 0 1 0
-21.775613 2.194578 -1.437532 21.933080 -0.100442 1.636385 0.159824 -0.026350 514181.000000 0 1 0
-21.433413 1.001278 -2.071432 21.556544 -0.046682 1.667038 0.151971 -0.025595 -393812.000000 0 1 0
-20.453713 0.162378 -1.239632 20.491887 -0.007939 1.631327 0.128704 -0.022527 -347137.000000 0 1 0
-20.995413 -0.557022 -0.100332 21.003040 0.026524 1.575573 0.135664 -0.030752 267762.000000 0 1 0
-20.075413 -1.208822 0.738468 20.125327 0.060141 1.534095 0.106489 -0.025814 -429784.000000 0 1 0
-19.226913 -2.377122 0.208268 19.374423 0.123011 1.560047 0.066343 -0.021663 -427578.000000 0 1 0
-18.616613 -3.077622 1.278768 18.912569 0.163834 1.503130 0.073425 -0.017120 465521.000000 0 1 0
-17.823413 -4.170622 0.795468 18.322143 0.229861 1.527367 0.049139 -0.012237 -51290.400000 0 1 0
-18.573613 -5.472322 0.449668 19.368211 0.286522 1.547577 0.041367 -0.016390 4711.680000 0 1 0
-19.193413 -6.050022 1.610968 20.188737 0.305355 1.490916 0.070010 -0.015706 282655.000000 0 1 0
-20.165913 -7.005622 1.269768 21.385862 0.334356 1.511387 0.078080 -0.019090 -100754.000000 0 1 0
-21.067713 -7.234222 2.499968 22.415002 0.330765 1.459033 0.115654 -0.019989 644226.000000 0 1 0
-20.142713 -7.858022 3.415768 21.889378 0.371958 1.414109 0.100449 -0.014281 1121840.000000 0 1 0
-20.824113 -8.211722 4.550068 22.842486 0.375615 1.370262 0.102386 -0.022339 -232290.000000 0 1 0
-19.979013 -9.029422 5.545868 22.615218 0.424471 1.323042 0.087749 -0.017959 -197551.000000 0 1 0
-19.549213 -10.340922 5.105768 22.697473 0.486553 1.343906 0.094332 -0.012605 -163169.000000 0 1 0
-18.521513 -10.893722 5.842768 22.267859 0.531673 1.305303 0.098806 -0.023761 -480657.000000 0 1 0
-18.018713 -12.223322 5.288368 22.406482 0.596060 1.332529 0.081175 -0.013841 332691.000000 0 1 0
-19.067613 -13.213222 5.335068 23.803908 0.605990 1.344751 0.125674 -0.016914 527972.000000 0 1 0
-18.654613 -14.417522 4.756668 24.051724 0.657976 1.371716 0.119462 -0.012024 -376328.000000 0 1 0
-19.670713 -15.551522 4.916668 25.553090 0.668978 1.377179 0.138251 -0.017345 -297937.000000 0 0 1
-19.155013 -16.839822 4.661368 25.927254 0.721167 1.390027 0.142734 -0.028498 -522307.000000 0 0 1
-19.905113 -17.878622 5.099268 27.237129 0.731816 1.382468 0.134962 -0.023593 -374489.000000 0 0 1
-19.204913 -19.274122 4.834368 27.634970 0.787197 1.394955 0.157226 -0.037236 -355276.000000 0 0 1
-19.140313 -19.695722 3.497168 27.685795 0.799699 1.444142 0.153126 -0.038888 307783.000000 0 0 1
-18.372713 -20.881722 3.378368 28.018142 0.849228 1.449924 0.141135 -0.036070 605677.000000 0 0 1
-16.827313 -20.647622 3.363868 26.847688 0.886990 1.445172 0.146557 -0.036070 234686.000000 0 0 1
-16.103113 -21.826522 3.763168 27.383731 0.935164 1.432937 0.126293 -0.039553 -645062.000000 0 0 1
-14.725513 -21.593022 3.674268 26.393173 0.972283 1.431130 0.133527 -0.041719 -401893.000000 0 0 1
-13.969913 -22.854322 4.170168 27.108464 1.022139 1.416350 0.169928 -0.040609 -328945.000000 0 0 1
-13.832713 -23.757322 3.111368 27.666494 1.043530 1.458098 0.155255 -0.044819 40133.300000 0 0 1
-13.273613 -25.004872 3.470968 28.521572 1.082781 1.448798 0.128600 -0.042182 -84706.800000 0 0 1
19.510787 18.800778 -23.688132 35.989827 0.766868 2.289208 0.116441 -0.028958 -159905.000000 0 0 1
18.825887 18.855778 -24.877332 36.453204 0.786191 2.321900 0.110476 -0.032123 -457875.000000 0 0 1
19.719187 19.215778 -25.873132 37.782422 0.772469 2.325116 0.104099 -0.020604 -316096.000000 0 0 1
19.021987 19.481878 -27.200492 38.486963 0.797342 2.355684 0.108476 -0.020892 -39913.600000 0 0 1
18.702887 20.867178 -27.307392 39.127111 0.840039 2.343278 0.093142 -0.017773 -91528.400000 0 0 1
17.874587 20.973578 -28.409622 39.579016 0.865001 2.371427 0.111384 -0.023388 -136815.000000 0 0 1
17.274887 22.432078 -28.699792 40.314984 0.914556 2.362981 0.138013 -0.027868 -211127.000000 0 0 1
16.464087 23.029478 -27.728082 39.626627 0.950131 2.345821 0.137411 -0.027046 208476.000000 0 0 1
15.967287 24.253778 -28.189792 40.470537 0.988579 2.341376 0.130945 -0.022133 -73935.600000 0 0 1
15.054287 25.062978 -27.215872 39.943562 1.029893 2.320413 0.137745 -0.031516 621722.000000 0 0 1
13.775987 24.452478 -27.009752 38.951614 1.057740 2.337018 0.165334 -0.048394 184833.000000 0 0 1
13.049487 25.216378 -26.079832 38.552723 1.093247 2.313758 0.143922 -0.041348 -1259500.000000 0 0 1
11.636687 24.668678 -25.891802 37.607733 1.130028 2.330174 0.163416 -0.046112 29021.800000 0 0 1
10.768687 25.469378 -25.078432 37.330706 1.170783 2.307420 0.131547 -0.043980 242703.000000 0 0 1
10.299687 26.657178 -25.741252 38.461679 1.202090 2.304022 0.131370 -0.050489 -489682.000000 0 0 1
9.713287 27.687878 -24.783832 38.408396 1.233397 2.272175 0.136216 -0.052585 34390.300000 0 0 1
10.764987 28.288378 -24.060832 38.665759 1.207174 2.242445 0.130768 -0.042703 249492.000000 0 0 1
10.232687 29.003078 -22.948132 38.373209 1.231617 2.211831 0.138220 -0.049266 250822.000000 0 0 1
11.244487 29.381478 -21.829732 38.291604 1.205286 2.177414 0.120470 -0.036380 -26280.700000 0 0 1
12.227187 30.342478 -22.095132 39.476131 1.187730 2.164831 0.113770 -0.047284 72554.600000 0 0 1
13.017087 30.604678 -20.957632 39.310472 1.168646 2.133093 0.096318 -0.037506 674093.000000 0 0 1
14.318687 31.464778 -21.209132 40.557174 1.143734 2.121098 0.096950 -0.030878 1060940.000000 0 0 1
15.397787 30.791678 -21.835932 40.767968 1.107098 2.136032 0.098301 -0.029471 388887.000000 0 0 1
16.508887 31.659878 -22.060332 41.970817 1.090140 2.124230 0.081901 -0.032616 -127156.000000 0 0 1
17.695787 30.974678 -22.709732 42.288338 1.051748 2.137698 0.054107 -0.018371 -652038.000000 0 0 1
18.571287 30.431778 -21.782032 41.778496 1.022867 2.119251 0.053911 -0.008592 434446.000000 0 0 1
19.831387 30.103078 -22.402732 42.442451 0.988272 2.126849 0.049834 -0.007743 639327.000000 0 0 1
20.866987 29.361878 -21.561432 41.981501 0.952936 2.110164 0.053779 -0.004736 -322538.000000 0 0 1
21.631787 30.064978 -20.640532 42.401282 0.947102 2.079208 0.058138 -0.007212 46316.000000 0 0 1
22.375687 29.164078 -19.823832 41.763610 0.916356 2.065383 0.072012 -0.001337 295669.000000 0 0 1
23.170687 29.829278 -18.662832 42.130368 0.910377 2.029714 0.074669 -0.015452 -118191.000000 0 0 1
24.283787 30.619778 -18.991532 43.450563 0.900292 2.023150 0.101019 -0.017892 -125502.000000 0 0 1
24.935787 30.908478 -17.810332 43.523964 0.891946 1.992382 0.094972 -0.020532 -891693.000000 0 0 1
26.224187 31.697478 -17.890732 44.861079 0.879613 1.981008 0.114219 -0.021373 -765945.000000 0 0 1
27.346887 31.162178 -18.504932 45.402270 0.850515 1.990596 0.130157 -0.023432 -465485.000000 0 0 1
28.437287 32.033178 -18.284832 46.574015 0.844793 1.974250 0.135493 -0.022996 -851932.000000 0 0 1
29.708087 31.629678 -18.958532 47.354334 0.816716 1.982700 0.150256 -0.030532 -684450.000000 0 0 1
30.270587 30.436978 -18.361232 46.688895 0.788139 1.974979 0.115065 -0.021336 335095.000000 0 0 1
31.622487 30.321878 -18.809432 47.678011 0.764405 1.976330 0.095436 -0.018372 454600.000000 0 0 1
32.261487 29.010278 -18.279032 47.079962 0.732386 1.969534 0.101866 -0.021449 -70640.100000 0 0 1
32.548087 29.080778 -16.906032 46.806875 0.729196 1.940337 0.087514 -0.011909 82247.700000 0 0 1
33.073287 27.859878 -16.365432 46.236809 0.700047 1.932585 0.098935 -0.018583 -13227.700000 0 0 1
33.529287 27.898378 -14.859532 46.079695 0.693986 1.899139 0.098877 -0.015571 231052.000000 0 0 1
34.744487 28.549578 -14.571632 47.271453 0.687834 1.884154 0.103273 -0.017279 192643.000000 0 0 1
34.451987 29.954078 -14.443632 47.883240 0.715675 1.877212 0.100028 -0.025953 229551.000000 0 0 1
35.675287 30.897978 -14.695732 49.430514 0.713761 1.872661 0.097026 -0.025395 526726.000000 0 0 1
36.560987 30.887378 -13.571232 49.748510 0.701478 1.847095 0.099933 -0.029984 19751.800000 0 0 1
37.760687 31.525178 -13.962932 51.133842 0.695643 1.847375 0.101140 -0.037494 -30000.100000 0 0 1
-37.442027 31.676578 -12.810432 50.689428 -0.702177 1.826291 0.093611 -0.026500 56142.100000 0 0 1
-37.911727 32.760478 -11.972732 51.515961 -0.712638 1.805349 0.096633 -0.030372 777789.000000 0 0 1
-36.921727 33.038878 -10.991532 50.750321 -0.729955 1.789107 0.110311 -0.023032 238485.000000 0 0 1
-37.206527 -33.030293 -10.297732 50.807177 0.726009 1.774893 0.103773 -0.012656 90875.800000 0 0 1
-36.157127 -32.513993 -9.501232 49.545645 0.732396 1.763759 0.117193 -0.019124 -75771.200000 0 0 1
-36.070227 -33.102993 -8.222232 49.643474 0.742529 1.737189 0.098818 -0.020536 -135956.000000 0 0 1
-36.003527 -32.112693 -7.045832 48.755746 0.728340 1.715817 0.110679 -0.014233 -131909.000000 0 0 1
-37.195327 -31.360893 -6.904232 49.139255 0.700498 1.711766 0.101214 -0.007106 -163441.000000 0 0 1
-37.111927 -30.336493 -5.872132 48.291613 0.685280 1.692695 0.125616 -0.012274 -185105.000000 0 0 1
37.771587 -29.606793 -5.532332 48.310058 -0.664808 1.685565 0.112949 -0.010392 -486913.000000 0 0 1
36.901687 -30.455893 -4.833932 48.090153 -0.689994 1.671485 0.068007 -0.000571 -169887.000000 0 0 1
35.669087 -29.896293 -4.448432 46.753189 -0.697578 1.666088 0.059439 0.004984 -131025.000000 0 0 1
35.727587 -29.009393 -3.171132 46.130917 -0.681992 1.639593 0.044782 0.004388 -513689.000000 0 0 1
36.434687 -27.818693 -3.366632 45.964120 -0.652099 1.644107 0.073649 -0.008325 211370.000000 0 0 1
35.877587 -26.888293 -2.482332 44.903714 -0.643146 1.626106 0.054728 -0.006826 -248877.000000 0 0 1
36.275687 -25.433793 -2.719032 44.386895 -0.611481 1.632092 0.078173 -0.018377 -517221.000000 0 0 1
35.621487 -24.909593 -3.810832 43.633710 -0.610246 1.658245 0.096997 -0.021750 91901.000000 0 0 1
35.773287 -23.523693 -3.889332 42.990919 -0.581683 1.661389 0.103047 -0.033520 -84513.400000 0 0 1
35.367687 -22.941693 -5.260432 42.483723 -0.575434 1.694937 0.109823 -0.037133 42704.900000 0 0 1
36.192687 -23.448493 -6.310832 43.584046 -0.574883 1.716104 0.141817 -0.036829 545552.000000 0 0 1
35.758687 -22.959393 -7.613932 43.171627 -0.570777 1.748088 0.123915 -0.041639 -96984.000000 0 0 1
36.909087 -22.557293 -8.558932 44.094983 -0.548584 1.766138 0.126431 -0.043843 -46101.000000 0 0 1
37.549487 -23.689593 -9.126432 45.326070 -0.562824 1.773533 0.121528 -0.022273 480053.000000 0 0 1
-37.487527 -23.300693 -9.879732 45.231030 0.556121 1.791000 0.121308 -0.021830 864431.000000 0 0 1
-36.585827 -24.476493 -10.355832 45.220180 0.589627 1.801856 0.137453 -0.024595 215422.000000 0 0 1
-35.956627 -25.328693 -9.429932 44.981611 0.613689 1.782003 0.175787 -0.029872 416128.000000 0 0 1
-36.732727 -26.533093 -9.224032 46.242632 0.625555 1.771614 0.139847 -0.021862 133569.000000 0 0 1
-35.942327 -27.710393 -8.676032 46.205955 0.656786 1.759686 0.127850 -0.011066 -54853.100000 0 0 1
-35.014027 -28.211793 -9.644232 45.988026 0.678224 1.782077 0.137150 -0.021808 83707.300000 0 0 1
-34.393127 -29.286293 -9.013932 46.063273 0.705373 1.767753 0.160997 -0.031191 -291809.000000 0 0 1
-33.689327 -30.301793 -9.976732 46.397248 0.732510 1.787517 0.145291 -0.032061 108494.000000 0 0 1
-32.393527 -30.012793 -10.462032 45.382402 0.747268 1.803419 0.091480 -0.010047 188571.000000 0 0 1
-32.274527 -30.618393 -11.715332 46.004131 0.759072 1.828291 0.073493 -0.010360 -184413.000000 0 0 1
-32.260127 -29.637593 -12.964632 45.685713 0.743055 1.858529 0.046014 -0.004587 -389307.000000 0 0 1
-31.144827 -28.840293 -13.229432 44.461001 0.746999 1.872923 0.030924 -0.000188 -507070.000000 0 0 1
-31.281227 -28.193193 -14.461932 44.525485 0.733523 1.901598 0.025963 0.016223 -352921.000000 0 0 1
-30.031527 -27.411393 -14.837232 43.283028 0.739817 1.920688 0.042935 0.006853 -518345.000000 0 0 1
-28.901027 -28.225793 -15.031432 43.103465 0.773579 1.927011 0.070350 -0.001659 -880533.000000 0 0 1
-27.900027 -27.409693 -15.556832 42.091778 0.776533 1.949367 0.096712 0.011432 -400729.000000 0 0 1
-26.749927 -28.258893 -16.156032 42.132422 0.812823 1.964334 0.091561 -0.005752 -197097.000000 0 0 1
-27.129427 -29.008693 -17.342032 43.338853 0.818861 1.982477 0.077069 -0.009346 -53530.400000 0 0 1
-27.346127 -28.291693 -18.565032 43.507367 0.802392 2.011648 0.062526 0.003392 584747.000000 0 0 1
-26.092727 -27.537793 -19.140532 42.491416 0.812337 2.038073 0.077870 -0.004283 640934.000000 0 0 1
-25.794927 -26.365193 -18.444632 41.239618 0.796331 2.034490 0.089142 -0.005786 -655031.000000 0 0 1
-24.443727 -26.029793 -18.579432 40.252220 0.816812 2.050567 0.107976 -0.025358 -237707.000000 0 0 1
-23.996927 -24.934493 -17.622632 38.834760 0.804557 2.041805 0.116264 -0.021533 -50836.600000 0 0 1
-24.146427 -25.244293 -16.230432 38.519491 0.807623 2.005737 0.127546 -0.022113 103564.000000 0 0 1
-23.779227 -24.156593 -15.382832 37.223973 0.793270 1.996817 0.137800 -0.022867 35360.400000 0 0 1
-24.217227 -24.313493 -13.913732 37.029879 0.787382 1.955995 0.122825 -0.011041 539970.000000 0 0 1
-25.613527 -24.064393 -13.761932 37.743060 0.754225 1.944023 0.090642 0.001268 380397.000000 0 0 1
-25.957627 -23.763993 -12.439732 37.326568 0.741308 1.910563 0.090423 0.008700 -937430.000000 0 0 1
-27.450327 -23.732793 -12.222532 38.290419 0.712893 1.895688 0.082694 0.018734 -1416470.000000 0 0 1
-28.046927 -25.023693 -12.077832 39.480240 0.728493 1.881702 0.098361 0.014420 689390.000000 0 0 1
-29.390027 -25.084693 -11.611932 40.346654 0.706529 1.862729 0.074955 0.017431 383216.000000 0 0 1
-30.538227 -24.430293 -12.425932 41.034453 0.674735 1.878443 0.088846 0.007406 -901618.000000 0 0 1
-30.760427 -23.019893 -12.269332 40.331822 0.642451 1.879905 0.082940 0.012008 183989.000000 0 0 1
-31.303627 -22.537193 -11.020332 40.115955 0.623993 1.849086 0.107322 -0.000388 321007.000000 0 0 1
-32.781127 -22.974693 -10.675032 41.429399 0.611297 1.831404 0.089135 -0.005973 1344770.000000 0 0 1
-33.817527 -22.214793 -11.367632 42.027910 0.581212 1.844686 0.119622 -0.021925 868161.000000 0 0 1
-33.989827 -22.560393 -12.757832 42.743911 0.585973 1.873887 0.115215 -0.017663 -873711.000000 0 0 1
-35.248227 -21.922893 -13.368932 43.609392 0.556408 1.882374 0.080506 -0.023137 -853721.000000 0 0 1
-36.419027 -22.500893 -12.919932 44.716444 0.553429 1.863906 0.110265 -0.021321 -1413830.000000 0 0 1
-37.501027 -21.875693 -13.533532 45.475592 0.528076 1.872974 0.121403 -0.033216 -207320.000000 0 0 1
37.360887 -22.545993 -13.088132 45.557183 -0.542964 1.862193 0.096258 -0.013233 -15156.900000 0 0 1
37.136487 -23.788893 -13.760532 46.199376 -0.569725 1.873237 0.077408 -0.005457 232511.000000 0 0 1
36.280487 -24.611293 -12.976832 45.720758 -0.596056 1.858580 0.069431 -0.020797 60216.000000 0 0 1
36.046387 -26.057193 -13.558432 46.498929 -0.625917 1.866681 0.057823 -0.018840 21482.600000 0 0 1
35.351287 -26.027893 -14.762532 46.315193 -0.634652 1.895197 0.048666 -0.017710 -274984.000000 0 0 1
35.443787 -27.252093 -15.465432 47.308754 -0.655477 1.903822 0.041795 0.011390 29618.600000 0 0 1
34.695887 -27.213093 -16.801932 47.187519 -0.665114 1.934852 0.040836 -0.005166 -760743.000000 0 0 1
33.330387 -27.417893 -16.714232 46.281974 -0.688376 1.940286 0.124703 -0.005416 -765198.000000 0 0 1
32.709487 -27.249393 -17.987632 46.216825 -0.694585 1.970560 0.112412 -0.017409 1049200.000000 0 0 1
31.147987 -27.418493 -18.041632 45.248993 -0.721804 1.980916 0.126068 -0.030051 770115.000000 0 0 1
30.441587 -26.538393 -17.222432 43.904313 -0.717004 1.973897 0.113583 -0.029257 847838.000000 0 0 1
29.022287 -26.755693 -17.392132 43.135212 -0.744785 1.985808 0.147751 -0.032063 1134640.000000 0 0 1
28.133987 -25.949993 -16.417332 41.646755 -0.745039 1.975998 0.137958 -0.041094 29377.200000 0 0 1
27.938687 -24.569193 -16.676532 40.771586 -0.721315 1.992180 0.140366 -0.048441 96335.900000 0 0 1
27.293387 -23.896893 -15.594732 39.486532 -0.719145 1.976797 0.129914 -0.047723 21770.900000 0 0 1
26.966687 -22.396293 -15.835432 38.465011 -0.693074 1.995098 0.119721 -0.048399 -13937.400000 0 0 1
25.594387 -22.124593 -15.983532 37.417156 -0.712813 2.012158 0.126997 -0.050906 -175597.000000 0 0 1
25.306787 -20.739593 -16.063032 36.449763 -0.686535 2.027163 0.119011 -0.049028 -844753.000000 0 0 1
23.878787 -20.278493 -16.249032 35.290860 -0.704045 2.049278 0.099992 -0.048709 -857277.000000 0 0 1
23.151887 -20.402593 -15.040232 34.329059 -0.722359 2.024302 0.089183 -0.047368 -44179.900000 0 0 1
21.822787 -19.954493 -15.198432 33.247680 -0.740708 2.045559 0.075467 -0.040978 91471.100000 0 0 1
21.485887 -18.639593 -14.453632 31.905882 -0.714582 2.040933 0.046587 -0.035834 -151927.000000 0 0 1
21.587387 -18.718493 -13.033332 31.404857 -0.714340 1.998750 0.066734 -0.048651 201337.000000 0 0 1
21.113587 -17.547093 -12.363132 30.108655 -0.693407 1.993927 0.074004 -0.056641 -11742.300000 0 0 1
20.185287 -17.719893 -11.138732 29.077686 -0.720449 1.963912 0.089401 -0.050164 274924.000000 0 0 1
20.840687 -18.252293 -9.985032 29.447943 -0.719283 1.916729 0.095876 -0.060563 731612.000000 0 0 1
19.850087 -18.261593 -8.967532 28.424081 -0.743742 1.891770 0.084075 -0.051679 477175.000000 0 0 1
20.436087 -19.111893 -7.830332 29.055331 -0.751927 1.843667 0.086685 -0.047087 227235.000000 0 0 1
21.279987 -18.348693 -6.978632 28.951921 -0.711564 1.814236 0.083775 -0.048044 -104288.000000 0 0 1
22.101587 -19.172393 -6.213232 29.910952 -0.714547 1.780044 0.086744 -0.035390 758445.000000 0 0 1
23.500287 -18.494393 -5.892432 30.479942 -0.666755 1.765343 0.091953 -0.031442 1525520.000000 0 0 1
24.484487 -18.435093 -6.970632 31.431393 -0.645373 1.794429 0.086796 -0.048807 747642.000000 0 0 1
25.432387 -17.475993 -6.567132 31.549071 -0.602053 1.780486 0.114840 -0.044739 -703113.000000 0 0 1
26.489487 -17.212593 -7.643832 32.502223 -0.576227 1.808199 0.149602 -0.060628 220894.000000 0 0 1
27.593487 -18.121193 -7.647332 33.885983 -0.581085 1.798436 0.173930 -0.071656 672702.000000 0 0 1
27.406987 -19.157393 -8.625132 34.533195 -0.610052 1.823232 0.165402 -0.076525 -598558.000000 0 0 1
28.349087 -20.336093 -8.410632 35.888246 -0.622273 1.807353 0.162316 -0.078332 -431878.000000 0 0 1
29.626587 -19.961593 -8.854232 36.804854 -0.592906 1.813752 0.179720 -0.061955 -110977.000000 0 0 1
30.559687 -21.031893 -8.655332 38.093960 -0.602778 1.800008 0.145756 -0.053057 240719.000000 0 0 1
-30.602513 28.968778 4.052768 42.333542 -0.757980 1.474915 0.129602 -0.036057 -96982.500000 0 0 1
-30.282463 30.024078 3.143468 42.759259 -0.781114 1.497214 0.132192 -0.034195 -463345.000000 0 0 1
-29.580913 31.076678 3.673668 43.061423 -0.810052 1.485380 0.114301 -0.012849 -275989.000000 0 0 1
-29.237733 32.091878 2.548368 43.488249 -0.831902 1.512164 0.109893 -0.007632 -205241.000000 0 0 1
-28.157073 31.682778 1.729268 42.421805 -0.844249 1.530021 0.112860 -0.013034 128698.000000 0 0 1
-27.926983 32.627478 0.675068 42.952583 -0.862867 1.555079 0.138166 -0.030632 -256270.000000 0 0 1
-26.920653 -33.717093 1.038768 43.158348 0.897015 1.546725 0.148940 -0.008903 -1161940.000000 0 0 1
-25.619193 33.257778 1.105368 41.995770 -0.914416 1.544472 0.128329 -0.010174 -726931.000000 0 0 1
-24.921113 -33.310793 2.022168 41.650450 0.928487 1.522226 0.132375 -0.010235 -58383.000000 0 0 1
-23.425213 -33.631893 2.080368 41.038674 0.962411 1.520082 0.117430 -0.023627 -185069.000000 0 0 1
-22.649613 -33.329293 0.911168 40.307282 0.973913 1.548189 0.170543 -0.035313 -97488.700000 0 0 1
-21.340113 33.683278 1.201768 39.892454 -1.006071 1.540667 0.157400 -0.038672 -498691.000000 0 0 1
-20.341113 -33.419093 0.080668 39.122924 1.024028 1.568734 0.184497 -0.046392 -232992.000000 0 0 1
-20.016813 -32.059293 -0.155132 37.795438 1.012651 1.574901 0.192676 -0.049871 601110.000000 0 0 1
-19.287013 -31.353993 0.880268 36.821687 1.019321 1.546888 0.200698 -0.038533 -36674.900000 0 0 1
-19.073413 -29.865593 0.558868 35.440952 1.002447 1.555027 0.218125 -0.055143 -143552.000000 0 0 1
-18.174413 -29.634893 -0.511932 34.767776 1.020671 1.585521 0.206236 -0.038586 142127.000000 0 0 1
-18.017313 -28.263193 -0.668832 33.524305 1.003271 1.590748 0.170085 -0.038614 -453955.000000 0 0 1
-16.874413 -27.844093 -1.593332 32.597209 1.025953 1.619695 0.137363 -0.024797 -484494.000000 0 0 1
-17.031213 -28.066993 -2.949932 32.962409 1.025388 1.660410 0.118821 -0.023733 -18265.200000 0 0 1
-16.073213 -27.282793 -3.622632 31.871970 1.038405 1.684705 0.107073 -0.014369 -77332.000000 0 0 1
-16.412413 -27.140793 -5.128832 32.129346 1.026918 1.731113 0.134048 -0.021911 -803340.000000 0 0 1
-17.504913 -26.331993 -5.254832 32.053223 0.984103 1.735481 0.130236 -0.015092 -997119.000000 0 0 1
-17.974213 -26.318693 -6.616532 32.550337 0.971609 1.775494 0.156301 -0.016624 187718.000000 0 0 1
-18.510113 -24.924093 -7.003132 31.825753 0.932010 1.792658 0.118176 -0.009549 275140.000000 0 0 1
-17.512513 -23.899893 -7.011932 30.447664 0.938431 1.803177 0.102868 -0.004323 508249.000000 0 0 1
-18.066413 -22.624693 -7.308732 29.861172 0.896955 1.818065 0.106212 -0.005361 376077.000000 0 0 1
-16.941413 -21.566393 -7.184632 28.350304 0.904931 1.827014 0.113779 0.001910 105251.000000 0 0 1
-15.958213 -21.641293 -8.152732 28.097637 0.935410 1.865187 0.137642 -0.007075 -273696.000000 0 0 1
-14.880613 -20.724993 -7.968732 26.729360 0.948090 1.873526 0.154602 -0.030462 417588.000000 0 0 1
-13.893013 -20.660993 -9.129632 26.518723 0.978816 1.922259 0.121457 -0.016404 37683.400000 0 0 1
-14.456013 -20.011693 -10.280832 26.742096 0.945209 1.965402 0.150865 -0.019378 123072.000000 0 0 1
-13.699213 -20.186393 -11.480932 26.962395 0.974553 2.010656 0.131511 -0.005435 -60297.100000 0 0 1
-14.273813 -19.342693 -12.612232 27.146822 0.935056 2.053972 0.167540 -0.007686 -269645.000000 0 0 1
-15.554013 -19.794793 -12.957232 28.313443 0.904797 2.046130 0.152782 0.013848 -709395.000000 0 0 1
-16.082013 -18.904393 -13.910432 28.451843 0.865895 2.081638 0.165465 -0.023295 342467.000000 0 0 1
-17.270413 -19.591993 -14.686732 29.963536 0.848295 2.083062 0.183669 -0.030913 23127.800000 0 0 1
-18.443913 -19.383793 -13.943232 30.171561 0.810239 2.051194 0.178537 -0.021799 -434290.000000 0 0 1
-19.556713 -19.770193 -14.723732 31.466075 0.790826 2.057737 0.152904 -0.021381 -248002.000000 0 0 1
-20.910613 -19.420493 -14.091132 31.827179 0.748468 2.029447 0.135022 -0.003797 124230.000000 0 0 1
-21.987613 -20.201693 -14.579632 33.228440 0.743092 2.025025 0.143608 -0.015131 -88211.000000 0 0 1
-23.247413 -19.808093 -14.090632 33.635527 0.705686 2.003053 0.120635 -0.003802 39540.900000 0 0 1
-24.401313 -20.303993 -15.002532 35.110571 0.694002 2.012294 0.106831 -0.011202 -188486.000000 0 0 1
-24.435013 -19.757993 -16.297932 35.398740 0.679959 2.049253 0.100549 -0.024391 236361.000000 0 0 1
-24.724613 -20.651393 -17.344632 36.587195 0.695872 2.064696 0.118729 -0.027890 -174571.000000 0 0 1
-24.850613 -19.918093 -18.650032 36.906735 0.675663 2.100559 0.119975 -0.031524 624080.000000 0 0 1
-23.611113 -19.626293 -19.318532 36.275084 0.693496 2.132415 0.093924 -0.039090 638276.000000 0 0 1
-23.944813 -18.998793 -20.548632 36.831434 0.670729 2.162662 0.103260 -0.039233 -559212.000000 0 0 1
-22.787713 -18.356593 -21.277232 36.179621 0.678115 2.199504 0.077925 -0.021614 -1094790.000000 0 0 1
-21.776013 -19.214193 -21.628932 36.210367 0.722981 2.210943 0.052186 -0.020936 -645208.000000 0 0 1
-20.664313 -18.466893 -22.121532 35.459867 0.729302 2.244452 0.049877 -0.022070 -321571.000000 0 0 1
-19.436213 -19.338493 -22.240532 35.304178 0.782878 2.252309 0.066054 -0.018791 -960122.000000 0 0 1
-19.586113 -20.394593 -23.183832 36.565631 0.805617 2.257554 0.034964 -0.013725 92677.700000 0 0 1
-18.427313 -21.204193 -23.148232 36.400884 0.855351 2.260003 0.046433 -0.009653 51534.700000 0 0 1
-18.460913 -22.492893 -24.060232 37.757520 0.883534 2.261695 0.048671 -0.016486 -340923.000000 0 0 1
-18.618213 -22.252493 -25.447622 38.592652 0.874086 2.290804 0.048094 -0.016876 118216.000000 0 0 1
-18.841913 -23.544093 -26.007012 39.820933 0.895883 2.282466 0.063818 -0.022693 -175617.000000 0 0 1
-18.733113 -23.568693 -27.590122 40.836597 0.899216 2.312605 0.067355 -0.007236 680972.000000 0 0 1
-17.411513 -23.313593 -28.096582 40.448762 0.929321 2.338690 0.072646 -0.011226 629166.000000 0 0 1
-17.374713 -23.276693 -29.490712 41.393082 0.929576 2.363787 0.097656 -0.016693 775794.000000 0 0 1
-15.931613 -22.974893 -30.080432 41.066951 0.964489 2.392744 0.072393 -0.025457 1220730.000000 0 0 1
-15.004113 -23.947393 -29.626772 40.943213 1.011087 2.379810 0.080128 -0.024187 -240784.000000 0 0 1
-13.744513 -23.862493 -30.237482 40.897868 1.048220 2.402888 0.108959 -0.033099 -18878.800000 0 0 1
-12.823613 -25.046293 -29.875812 41.040541 1.097598 2.386136 0.115297 -0.027271 -521082.000000 0 0 1
-13.149113 -26.312493 -30.511182 42.381349 1.107366 2.374483 0.091805 -0.018666 288408.000000 0 0 1
-12.425613 -27.460393 -30.045042 42.557886 1.145872 2.354603 0.107072 -0.026263 103956.000000 0 0 1
-10.997813 -27.536193 -30.624022 42.626571 1.190812 2.372333 0.141189 -0.038638 -387447.000000 0 0 1
-10.082013 -26.571893 -30.183992 41.458243 1.208153 2.386281 0.206846 -0.059122 99451.100000 0 0 1
-8.996813 -26.492193 -31.123602 41.850419 1.243414 2.409365 0.174087 -0.049144 944853.000000 0 0 1
-7.910313 -25.426693 -30.638852 40.593461 1.269185 2.426104 0.240406 -0.059150 587336.000000 0 0 1
-8.280413 -24.087393 -30.884262 40.032555 1.239686 2.451958 0.260074 -0.061253 138298.000000 0 0 1
-8.861313 -23.537193 -29.681992 38.904280 1.210728 2.438659 0.235524 -0.050625 76588.100000 0 0 1
-9.145813 -22.010293 -29.768922 38.135124 1.176979 2.466449 0.246875 -0.058994 -29025.000000 0 0 1
-10.028313 -21.688393 -30.815432 38.994158 1.137694 2.482026 0.221986 -0.058321 43022.400000 0 0 1
-10.400613 -20.317593 -30.655882 38.219896 1.097673 2.501587 0.229909 -0.059253 237482.000000 0 0 1
-11.269413 -19.726293 -31.795512 39.077883 1.051755 2.521190 0.184922 -0.054382 -59692.100000 0 0 1
-12.052713 -18.644293 -31.406332 38.460828 0.996917 2.526257 0.177983 -0.051436 -93650.900000 0 0 1
-12.976713 -18.332593 -32.417922 39.438569 0.954822 2.535685 0.157885 -0.042350 -167884.000000 0 0 1
-13.980813 -17.173193 -32.180372 39.063513 0.887513 2.538872 0.171354 -0.038776 -384892.000000 0 0 1
-13.641113 -15.815793 -32.274182 38.442712 0.859090 2.567232 0.164879 -0.040527 -92613.000000 0 0 1
-12.604613 -15.300493 -31.441502 37.169200 0.881708 2.579051 0.148883 -0.033858 320178.000000 0 0 1
-12.425513 -13.813493 -31.727302 36.767210 0.838247 2.611824 0.122634 -0.038535 -207123.000000 0 0 1
-11.575213 -13.413993 -32.773092 37.255823 0.858849 2.645979 0.129109 -0.033176 19641.300000 0 0 1
-12.174913 -13.403993 33.307383 37.911440 0.833412 0.497962 0.130365 -0.031287 -218520.000000 0 0 1
-12.598113 -11.981293 32.964704 37.268425 0.760308 0.485330 0.117122 -0.016445 657297.000000 0 0 1
-13.903313 -11.659893 33.459773 38.063258 0.697863 0.496916 0.099813 -0.011535 31617.800000 0 0 1
-14.636313 -10.786993 32.669887 37.388533 0.635130 0.507845 0.084688 -0.024757 747167.000000 0 0 1
-15.791613 -10.123693 33.472353 38.370074 0.570079 0.510796 0.098899 -0.024343 990122.000000 0 0 1
-15.132313 -9.060193 -33.178782 37.575332 0.539486 2.652999 0.100641 -0.032110 527802.000000 0 0 1
-15.886513 -8.670693 -32.061792 36.817397 0.499605 2.627690 0.111112 -0.041473 138260.000000 0 0 1
-15.158013 -7.518893 -31.296992 35.578095 0.460470 2.645965 0.117634 -0.047470 -60651.100000 0 0 1
-15.132013 -6.226493 -31.941832 35.889103 0.390362 2.668174 0.119508 -0.049719 514948.000000 0 0 1
-16.285913 -5.385493 -31.818642 36.147759 0.319364 2.647160 0.134729 -0.044622 522374.000000 0 0 1
-16.699613 -4.700793 -30.461632 35.055464 0.274391 2.623884 0.136400 -0.047860 -308389.000000 0 0 1
-17.074113 -5.619693 -29.487072 34.533950 0.317968 2.594148 0.140029 -0.053680 -158193.000000 0 0 1
-17.158713 -5.155493 -28.150492 33.368410 0.291878 2.574799 0.134427 -0.053348 661046.000000 0 0 1
-15.862013 -4.539193 -27.489482 32.060558 0.278719 2.601039 0.130745 -0.049592 713896.000000 0 0 1
-15.331013 -3.441893 -28.184902 32.268798 0.220844 2.633022 0.125939 -0.045098 -94269.600000 0 0 1
-14.151813 -2.924893 -27.596422 31.151105 0.203810 2.659203 0.112893 -0.041895 105029.000000 0 0 1
-13.690113 -1.598093 -28.182012 31.371945 0.116207 2.686724 0.080946 -0.027682 -105147.000000 0 0 1
-13.410413 -1.781093 -29.567012 32.514915 0.132041 2.712484 0.080111 -0.028493 97239.500000 0 0 1
-13.340513 -0.576093 -30.360702 33.167355 0.043157 2.727245 0.060354 -0.037046 -106724.000000 0 0 1
-13.667713 -0.789093 -31.816942 34.637362 0.057670 2.735251 0.069453 -0.042240 -419265.000000 0 0 1
-15.020613 -1.086093 -32.052852 35.414457 0.072181 2.702360 0.096903 -0.040700 -91912.300000 0 0 1
-15.317313 -1.220093 -33.409442 36.773626 0.079487 2.710516 0.089102 -0.036039 75518.700000 0 0 1
-16.809013 -1.337093 33.576903 37.573117 0.079379 0.465401 0.091988 -0.040672 180261.000000 0 0 1
-17.121313 -1.821093 32.256427 36.564092 0.105966 0.490306 0.104557 -0.036087 -115468.000000 0 0 1
-18.466413 -1.541093 31.971756 36.953708 0.083261 0.525279 0.095057 -0.032135 -318931.000000 0 0 1
-18.631413 -1.776093 30.484913 35.771692 0.095041 0.550606 0.116213 -0.022423 -278022.000000 0 0 1
-17.854513 -0.886093 29.767943 34.723180 0.049588 0.540808 0.106077 -0.003100 -238853.000000 0 0 1
-17.863413 -1.056093 28.347163 33.522805 0.059052 0.563093 0.105245 -0.016622 -93933.800000 0 0 1
-17.270113 0.253907 27.728333 32.667747 -0.014701 0.557088 0.086926 -0.016548 397429.000000 0 0 1
-18.003213 1.443907 28.062193 33.371952 -0.080031 0.571868 0.082533 -0.016251 262380.000000 0 0 1
-19.175013 1.708907 27.303103 33.407498 -0.088887 0.614131 0.101122 -0.026448 131605.000000 0 0 1
-19.040813 2.612907 26.055263 32.376790 -0.136375 0.635540 0.111198 -0.022344 -462716.000000 0 0 1
-18.725113 3.967907 26.283263 32.514366 -0.208814 0.629438 0.102967 -0.015844 -13970.000000 0 0 1
-18.942713 4.750907 25.162363 31.851876 -0.245735 0.660019 0.101545 -0.008451 -163918.000000 0 0 1
-18.645513 6.278907 25.410593 32.136864 -0.324824 0.658846 0.095847 -0.008698 -192936.000000 0 0 1
-17.286513 6.595907 25.309393 31.351154 -0.364513 0.631255 0.089259 -0.008391 -316976.000000 0 0 1
-16.851713 7.079907 24.014103 30.179172 -0.397738 0.650605 0.078382 -0.004515 113671.000000 0 0 1
-15.707913 8.112907 24.209343 29.977492 -0.476749 0.630752 0.095845 -0.009794 800749.000000 0 0 1
-14.431713 7.487907 24.413873 29.332239 -0.478614 0.587512 0.092942 -0.008317 746776.000000 0 0 1
-13.389113 8.229907 23.769183 28.495153 -0.551138 0.584210 0.101113 -0.008648 -650016.000000 0 0 1
-12.012913 7.834907 24.225963 28.153030 -0.577925 0.534526 0.079787 -0.010153 -1157340.000000 0 0 1
-10.985213 8.548907 23.575513 27.378157 -0.661318 0.533354 0.059731 -0.014281 -256047.000000 0 0 1
-9.776713 8.551907 24.279733 27.535879 -0.718673 0.491239 0.059324 -0.015019 -236871.000000 0 0 1
-9.547113 9.864907 25.008853 28.529046 -0.801768 0.502024 0.069643 -0.022779 -381013.000000 0 0 1
-10.475813 9.956907 26.089233 29.825001 -0.760008 0.505890 0.062853 -0.028226 558903.000000 0 0 1
-10.436713 11.223907 26.752133 30.831439 -0.821724 0.520260 0.060116 -0.028107 -495473.000000 0 0 1
-11.135013 12.460907 26.136613 31.022334 -0.841531 0.568871 0.056513 -0.032250 359790.000000 0 0 1
-12.546013 12.342907 25.970223 31.371998 -0.777238 0.595594 0.074467 -0.034177 618376.000000 0 0 1
-13.015913 11.710907 24.758763 30.324176 -0.732670 0.615527 0.076935 -0.029459 -131860.000000 0 0 1
-14.549313 11.636907 24.610653 30.867205 -0.674634 0.647975 0.084294 -0.033238 -107115.000000 0 0 1
-15.129013 12.928907 24.388513 31.477662 -0.707145 0.684417 0.090927 -0.032892 958560.000000 0 0 1
-16.535013 12.994907 24.078853 31.969757 -0.666086 0.717919 0.095137 -0.012482 1062400.000000 0 0 1
-16.918513 12.543907 22.649443 30.928675 -0.637994 0.749085 0.088905 0.000007 -379405.000000 0 0 1
-16.997713 11.160907 22.504703 30.330673 -0.581010 0.734780 0.096477 -0.003760 7226.740000 0 0 1
-16.884213 10.834907 21.167533 29.163955 -0.570531 0.758583 0.088677 0.000831 69512.400000 0 0 1
-17.087113 9.359907 20.806533 28.504194 -0.501134 0.752553 0.081922 -0.000650 1057910.000000 0 0 1
-18.446413 8.925907 21.012033 29.350425 -0.450671 0.772881 0.075163 0.014697 739994.000000 0 0 1
-18.712613 7.537907 20.824833 28.994061 -0.382939 0.769520 0.076249 0.005213 -767935.000000 0 0 1
-20.188613 7.224907 20.961133 29.985804 -0.343669 0.796749 0.102787 0.000279 -840898.000000 0 0 1
-20.657513 7.630907 22.221633 31.285213 -0.353853 0.780884 0.098295 -0.001939 -473286.000000 0 0 1
-22.055713 7.683907 22.230833 32.244485 -0.335236 0.810072 0.080806 -0.001578 -367790.000000 0 0 1
-22.607813 8.617907 23.393383 33.654597 -0.364188 0.802234 0.079688 -0.010034 -786814.000000 0 0 1
-22.456213 10.042907 23.208593 33.819820 -0.420541 0.814486 0.072464 0.001653 1283170.000000 0 0 1
-21.149513 10.670907 23.393873 33.293294 -0.467278 0.791667 0.086097 0.008624 1218200.000000 0 0 1
-20.268213 10.267907 24.578493 33.471371 -0.468915 0.746141 0.101842 -0.015957 -773366.000000 0 0 1
-20.831113 10.575907 25.831793 34.829105 -0.469787 0.735236 0.105021 -0.025562 98040.300000 0 0 1
-20.354413 9.690907 26.793583 35.015880 -0.444352 0.699470 0.119931 -0.032647 -214892.000000 0 0 1
-31.787683 -13.251222 19.776733 39.713610 0.394961 1.049524 0.106047 -0.000092 25928.800000 0 0 1
-31.519383 -14.643622 19.875133 40.036584 0.434921 1.051322 0.113600 -0.010047 -240132.000000 0 0 1
-32.278393 -15.507922 19.086233 40.579238 0.447880 1.081115 0.106777 0.000678 -102315.000000 0 0 1
-32.061453 -15.448722 17.534433 39.674376 0.449020 1.113015 0.118537 0.000519 -12785.200000 0 0 1
-32.726983 -14.325322 16.963633 39.547884 0.412597 1.127478 0.120226 -0.004417 -377201.000000 0 0 1
-32.337373 -13.914722 15.702033 38.547101 0.406350 1.151249 0.115086 -0.007769 -493983.000000 0 0 1
-33.284043 -12.796922 15.046933 38.703991 0.367053 1.171501 0.123750 -0.015344 732380.000000 0 0 1
-34.614676 -13.173022 14.731133 39.858632 0.363638 1.192235 0.125178 -0.011591 1090430.000000 0 0 1
-35.448253 -13.438922 15.921933 41.118016 0.362372 1.173176 0.122771 -0.008210 -352340.000000 0 0 1
-36.248423 -12.204222 16.425433 41.625545 0.324762 1.165164 0.120544 -0.008248 186566.000000 0 0 1
-37.203343 -12.575122 17.441533 42.970100 0.325954 1.152834 0.083280 -0.007173 314244.000000 0 0 1
-37.893273 -11.481722 17.954333 43.475144 0.294208 1.145073 0.079829 -0.002986 61487.800000 0 0 1
37.237911 -11.851122 19.014433 43.458713 -0.308119 1.117948 0.090187 -0.003203 -472548.000000 0 0 1
37.810551 -12.359422 20.181833 44.606047 -0.315929 1.101290 0.092627 -0.001107 -207503.000000 0 0 1
37.376661 -11.622022 21.307833 44.565793 -0.301466 1.072282 0.079464 -0.009717 -1356990.000000 0 0 1
-38.094023 -11.888622 22.626323 45.874224 0.302508 1.055003 0.070278 -0.015390 1268750.000000 0 0 1
-36.767163 -11.291522 22.729553 44.676116 0.297966 1.037049 0.069903 -0.017181 1335890.000000 0 0 1
-35.783148 -11.978222 21.964933 43.661994 0.323020 1.043652 0.077240 -0.017543 -604596.000000 0 0 1
-34.405198 -11.293122 21.889433 42.313113 0.317159 1.027080 0.106540 -0.020900 97925.400000 0 0 1
-34.508157 -10.055122 21.218533 41.739005 0.283534 1.037514 0.129043 -0.022372 268288.000000 0 0 1
-33.228063 -9.471822 21.016833 40.441647 0.277690 1.024317 0.154977 -0.029318 16476.200000 0 0 1
-33.296963 -8.118922 20.284433 39.825404 0.239167 1.036386 0.167415 -0.023442 53386.000000 0 0 1
-33.616743 -8.142322 18.902533 39.416856 0.237634 1.070649 0.166630 -0.022418 363454.000000 0 0 1
-34.949104 -8.457422 18.525133 40.449332 0.237428 1.095071 0.145452 -0.023467 -43855.900000 0 0 1
-35.346847 -8.268022 17.029233 40.096815 0.229780 1.132163 0.145709 -0.023516 -1388840.000000 0 0 1
-36.657723 -8.611222 16.833333 41.246853 0.230726 1.150411 0.055970 -0.016907 -1239680.000000 0 0 1
-36.973643 -8.365222 15.478033 40.946266 0.222502 1.183152 0.082237 -0.014405 -98965.800000 0 0 1
37.698741 -8.172822 15.327233 41.508001 -0.213489 1.192584 0.090193 -0.028254 -101493.000000 0 0 1
37.038551 -9.330422 15.760433 41.319514 -0.246777 1.179455 0.078419 -0.003333 -95100.000000 0 0 1
35.640851 -9.239722 15.563533 39.973319 -0.253661 1.170873 0.075486 -0.006797 173315.000000 0 0 1
34.791881 -10.499022 15.796633 39.626229 -0.293077 1.160762 0.063087 -0.000868 108749.000000 0 0 1
34.765821 -10.955922 17.130233 40.275791 -0.305284 1.131477 0.050861 -0.008607 -283902.000000 0 0 1
33.613241 -11.738622 17.289933 39.580133 -0.335985 1.118721 0.084774 -0.015505 -18212.000000 0 0 1
33.398691 -11.988522 18.753833 40.136061 -0.344627 1.084611 0.081373 -0.023255 688588.000000 0 0 1
34.312881 -13.033322 19.182033 41.414872 -0.363005 1.089230 0.072667 -0.006561 220091.000000 0 0 1
33.982171 -13.365822 20.499333 41.876673 -0.374733 1.059261 0.094328 -0.008088 376422.000000 0 0 1
34.851361 -14.546422 21.103833 43.261848 -0.395403 1.061210 0.090616 -0.010567 466665.000000 0 0 1
35.065681 -14.506922 22.496313 44.115041 -0.392267 1.035674 0.091535 -0.019743 -327032.000000 0 0 1
35.632591 -15.694922 22.987993 45.215704 -0.414897 1.037462 0.088005 -0.021771 208198.000000 0 0 1
36.258731 -15.587022 24.418633 46.410348 -0.406000 1.016734 0.104338 -0.015128 514384.000000 0 0 1
37.394781 -14.724722 24.452773 47.043864 -0.375119 1.024195 0.101799 -0.011959 333969.000000 0 0 1
38.016811 -14.664822 25.732433 48.192250 -0.368158 1.007526 0.108405 -0.014849 -65872.900000 0 0 1
-36.961393 -13.720722 25.787183 47.110313 0.355451 0.991567 0.083949 -0.018149 -502827.000000 0 0 1
-35.770570 -14.331522 25.354863 46.128031 0.381068 0.988836 0.067229 -0.017253 -631339.000000 0 0 1
-34.782493 -13.314922 25.483403 45.127738 0.365596 0.970733 0.086815 -0.021877 -318670.000000 0 0 1
-33.407433 -13.945722 25.210083 44.114487 0.395453 0.962501 0.067695 -0.022957 -590701.000000 0 0 1
-33.189493 -14.300422 23.856213 43.303157 0.406834 0.987340 0.080389 -0.016492 -201075.000000 0 0 1
-31.873033 -14.700922 23.548463 42.267451 0.432157 0.979871 0.085829 -0.019108 108655.000000 0 0 1
-31.460843 -16.155022 23.957183 42.716694 0.474386 0.975398 0.083608 -0.015778 -483529.000000 0 0 1
-31.265173 -16.408922 25.335713 43.458740 0.483314 0.948401 0.081506 -0.018111 132711.000000 0 0 1
-30.935803 -17.773722 25.623353 43.925907 0.521485 0.947972 0.084265 -0.022993 -371827.000000 0 0 1
-30.543533 -17.975822 27.083543 44.604438 0.531944 0.918272 0.087421 -0.030186 -131307.000000 0 0 1
-29.351473 -17.289322 27.372623 43.700001 0.532325 0.893901 0.093824 -0.034364 -361140.000000 0 0 1
-28.859953 -17.592422 28.669423 44.320717 0.547433 0.867333 0.109470 -0.042357 245824.000000 0 0 1
-27.656743 -16.685022 28.997993 43.407015 0.542835 0.839213 0.091084 -0.041524 -59712.100000 0 0 1
-28.014673 -15.343322 29.301863 43.345572 0.501067 0.828467 0.104425 -0.046145 40348.500000 0 0 1
-26.853823 -14.542922 29.189723 42.245287 0.496339 0.807983 0.094251 -0.047068 -194797.000000 0 0 1
-26.821763 -13.248322 30.068633 42.415182 0.458787 0.782842 0.093594 -0.037906 -158253.000000 0 0 1
-26.366733 -13.526622 31.374022 43.156730 0.474008 0.756885 0.093595 -0.042907 61891.000000 0 0 1
-26.268943 -12.322922 32.077027 43.253294 0.438628 0.735331 0.091405 -0.033681 -255886.000000 0 0 1
-25.588903 -12.392122 33.456773 43.905720 0.450990 0.704379 0.087359 -0.029778 -618177.000000 0 0 1
-24.216713 -12.669722 33.455693 43.200167 0.482020 0.684976 0.077702 -0.031014 -526455.000000 0 0 1
-23.910113 -14.020822 33.608723 43.564012 0.530357 0.689634 0.076200 -0.034979 -362685.000000 0 0 1
-23.878213 -14.550822 -32.353672 42.762783 0.547285 2.428871 0.083183 -0.032987 -391401.000000 0 0 1
-22.845213 -14.064222 -31.488472 41.367016 0.551834 2.435954 0.061681 -0.024503 299464.000000 0 0 1
-22.810513 -14.896522 -30.311352 40.755416 0.578520 2.409441 0.072056 -0.030736 748118.000000 0 0 1
-21.406813 -14.937322 -29.593512 39.460755 0.609237 2.418780 0.072866 -0.031039 874867.000000 0 0 1
-20.955013 -13.924822 -28.665312 38.140705 0.586508 2.421231 0.079909 -0.037458 127400.000000 0 0 1
-21.550613 -13.903622 -27.397322 37.528028 0.572966 2.389191 0.077553 -0.030598 -269048.000000 0 0 1
-21.228913 -12.639422 -26.654652 36.344081 0.537021 2.394102 0.077973 -0.029223 -455890.000000 0 0 1
-19.915613 -12.710422 -26.184772 35.267957 0.568045 2.407520 0.085821 -0.027618 -519805.000000 0 0 1
-19.475913 -11.475422 -25.690262 34.219674 0.532449 2.419986 0.082175 -0.028897 455335.000000 0 0 1
-18.012713 -11.527222 -25.165162 33.024538 0.569277 2.437214 0.094262 -0.025104 61500.100000 0 0 1
-17.973613 -12.342022 -23.977032 32.407937 0.601727 2.403645 0.102856 -0.029941 471725.000000 0 0 1
-16.687113 -12.395822 -23.370832 31.277979 0.638902 2.414632 0.105344 -0.035619 1333970.000000 0 0 1
-15.496113 -13.228822 -24.008732 31.488895 0.706630 2.437889 0.100258 -0.030444 256737.000000 0 0 1
-14.863213 -12.558822 -25.063832 31.730660 0.701561 2.481431 0.118390 -0.044298 -451688.000000 0 0 1
-14.213613 -13.548922 -25.823812 32.441784 0.761461 2.491462 0.122053 -0.045653 -225221.000000 0 0 1
-13.084913 -12.943522 -26.704402 32.432620 0.779966 2.538140 0.129802 -0.047716 -28326.100000 0 0 1
-13.608513 -11.935122 -27.554042 32.967621 0.719981 2.560368 0.135683 -0.049167 43703.200000 0 0 1
-12.734813 -11.376722 -28.528252 33.248556 0.729132 2.602218 0.135124 -0.056387 122223.000000 0 0 1
-13.550513 -10.312022 -29.274212 33.866410 0.650508 2.614757 0.101358 -0.043082 307274.000000 0 0 1
-12.781313 -9.433622 -30.113242 34.046476 0.635828 2.656163 0.089395 -0.034234 154433.000000 0 0 1
-12.399113 -10.023422 -31.350192 35.171602 0.679841 2.671110 0.107029 -0.028650 130288.000000 0 0 1
-11.440413 -9.087022 -32.156312 35.319760 0.671250 2.715129 0.084815 -0.027187 1484320.000000 0 0 1
-10.100113 -8.847622 -31.659222 34.388938 0.719392 2.740468 0.089322 -0.030669 921677.000000 0 0 1
-9.572513 -7.644922 -32.192712 34.444863 0.673907 2.777974 0.062558 -0.022281 2061550.000000 0 0 1
-7.953113 -7.674722 -32.081252 33.931698 0.767586 2.809817 0.091346 -0.026235 2201500.000000 0 0 1
-7.316713 -7.645322 -30.788962 32.556803 0.807357 2.810537 0.074943 -0.021014 37094.200000 0 0 1
-7.742813 -6.755322 -29.783082 31.505833 0.717392 2.809370 0.074574 -0.008847 -813369.000000 0 0 1
-7.326313 -5.289322 -30.112272 31.438841 0.625314 2.850061 0.058889 -0.016332 -469409.000000 0 0 1
-5.977613 -5.115222 -29.806042 30.826896 0.707811 2.883523 0.066114 -0.019076 -623166.000000 0 0 1
-5.514913 -3.862222 -30.281712 31.021172 0.610943 2.922812 0.098866 -0.037344 1139160.000000 0 0 1
-3.975713 -3.676222 -29.963302 30.448652 0.746279 2.962805 0.126704 -0.034025 878395.000000 0 0 1
-3.130713 -4.583722 -30.629442 31.128357 0.971567 2.962313 0.131164 -0.034929 -1177130.000000 0 0 1
-1.784613 -4.409722 -30.420952 30.790662 1.186245 2.986471 0.147697 -0.033007 -1013430.000000 0 0 1
-1.069513 -3.412722 -31.381672 31.584805 1.267101 3.028118 0.143998 -0.025082 -701084.000000 0 0 1
-0.020713 -2.825622 -30.659442 30.789381 1.563466 3.049688 0.107079 -0.029736 -324420.000000 0 0 1
0.309787 -1.587522 -31.313362 31.355109 -1.378079 3.089984 0.111259 -0.013725 745392.000000 0 0 1
1.218887 -0.583922 -30.453082 30.483059 -0.446757 3.097241 0.103614 -0.031480 279713.000000 0 0 1
0.561787 0.004078 -29.384792 29.390162 0.007259 3.122476 0.117647 -0.029425 -783470.000000 0 0 1
1.189987 1.147878 -28.981532 29.028657 0.767388 3.084605 0.151747 -0.042658 -621334.000000 0 0 1
0.396587 2.112778 -28.106392 28.188480 1.385247 3.065258 0.129733 -0.037651 -308287.000000 0 0 1
-0.722713 2.631178 -28.756082 28.885250 -1.302734 3.046987 0.100946 -0.048494 -223161.000000 0 0 1
-1.534713 3.529778 -28.012832 28.276023 -1.160663 3.005047 0.146878 -0.047344 119667.000000 0 0 1
-2.886013 3.844778 -28.676542 29.076717 -0.926891 2.975494 0.177979 -0.053365 -121914.000000 0 0 1
-2.769313 4.450878 -29.866882 30.323425 -1.014217 2.967848 0.177587 -0.057440 609739.000000 0 0 1
-4.054813 4.835878 -30.382142 31.030659 -0.873025 2.936788 0.207449 -0.045769 442692.000000 0 0 1
-3.920813 5.484178 -31.853042 32.558644 -0.950119 2.933024 0.199623 -0.043754 -147636.000000 0 0 1
-3.661913 4.590778 -32.925552 33.445132 -0.897479 2.965095 0.223582 -0.049041 -79850.700000 0 0 1
-2.463713 3.870878 -32.881032 33.199637 -1.003989 3.002942 0.199651 -0.048645 -680698.000000 0 0 1
-1.982713 3.428978 33.119152 33.355168 -1.046543 0.119031 0.166308 -0.043951 -250296.000000 0 0 1
-2.796113 2.400378 32.569498 32.777313 -0.709391 0.112667 0.163693 -0.054521 150002.000000 0 0 1
-2.442713 1.783178 31.312144 31.457859 -0.630577 0.096288 0.148149 -0.045930 -94998.300000 0 0 1
-2.333713 2.807478 30.122073 30.342502 -0.877289 0.120611 0.142754 -0.038891 -679789.000000 0 0 1
-3.550013 3.417678 29.892603 30.296053 -0.766408 0.163380 0.139678 -0.038873 -619649.000000 0 0 1
-3.494813 4.293878 28.717083 29.245887 -0.887633 0.190453 0.133152 -0.036633 394215.000000 0 0 1
-4.895413 4.912578 28.476283 29.308653 -0.787148 0.238896 0.122890 -0.030558 273125.000000 0 0 1
-4.801213 5.937078 27.509713 28.549690 -0.890783 0.270741 0.110156 -0.024001 322972.000000 0 0 1
-6.005413 6.710278 27.467653 28.906137 -0.840774 0.316804 0.093763 -0.023096 398303.000000 0 0 1
-6.119013 7.476278 26.149203 27.876833 -0.884902 0.353906 0.088986 -0.021803 -518116.000000 0 0 1
-5.172013 8.455278 25.933463 27.763032 -1.021825 0.365065 0.086193 -0.023481 -453082.000000 0 0 1
-5.354913 9.149778 24.744213 26.919688 -1.041293 0.404787 0.078217 -0.016569 53160.000000 0 0 1
-4.640513 10.510678 24.872893 27.398348 -1.155030 0.432729 0.075830 -0.018687 -604624.000000 0 0 1
-4.707813 11.222378 23.674673 26.619455 -1.173592 0.474820 0.078694 -0.020058 289010.000000 0 0 1
-4.204313 12.538178 23.800363 27.227549 -1.247258 0.507159 0.073577 -0.012023 1846230.000000 0 0 1
-2.596413 12.726278 23.931323 27.228803 -1.369539 0.497251 0.071211 -0.013502 1907810.000000 0 0 1
-1.967713 12.216078 25.102133 27.986095 -1.411092 0.457974 0.084143 -0.016732 -97059.400000 0 0 1
-2.285713 12.868078 26.329213 29.394546 -1.395003 0.460754 0.100732 -0.019810 -478739.000000 0 0 1
-1.432913 12.399378 27.547443 30.243336 -1.455743 0.425434 0.114816 -0.025747 557816.000000 0 0 1
-0.098513 12.880178 27.427523 30.301447 -1.563148 0.439051 0.119693 -0.029839 -465750.000000 0 0 1
0.672887 12.730078 28.548843 31.265701 1.517987 0.419963 0.124672 -0.034918 1002360.000000 0 0 1
2.213387 12.817778 28.154093 31.013665 1.399802 0.432797 0.109328 -0.033894 1265650.000000 0 0 1
2.758287 14.135878 28.048543 31.530175 1.378091 0.474376 0.111819 -0.037337 1046370.000000 0 0 1
4.179687 13.928678 27.885593 31.449708 1.279268 0.480698 0.127604 -0.037321 1078280.000000 0 0 1
5.140287 15.069278 28.283193 32.456812 1.242063 0.512727 0.136231 -0.036866 -265051.000000 0 0 1
5.121187 15.556078 29.625713 33.851159 1.252763 0.504997 0.149755 -0.030054 203014.000000 0 0 1
4.148187 16.499578 30.039043 34.522277 1.324489 0.515320 0.115015 -0.027816 -84627.300000 0 0 1
4.221787 17.930478 29.427543 34.717514 1.339555 0.559297 0.132505 -0.023874 442555.000000 0 0 1
5.230287 18.813778 29.955333 35.758021 1.299640 0.577695 0.153134 -0.019093 369720.000000 0 0 1
5.766987 19.695878 28.985273 35.515233 1.285956 0.616103 0.132042 -0.019314 562746.000000 0 0 1
6.889587 20.639178 29.554873 36.700580 1.248616 0.634620 0.140208 -0.013972 209724.000000 0 0 1
6.369587 21.428778 30.607223 37.902061 1.281869 0.630836 0.132870 -0.019394 82462.400000 0 0 1
7.306487 22.203378 31.331986 39.090511 1.252887 0.640957 0.119239 -0.020214 -21715.900000 0 0 1
7.666787 23.609178 30.750733 39.519368 1.256802 0.679132 0.123703 -0.009375 4353.980000 0 0 1
8.358887 23.494978 29.524873 38.647161 1.228987 0.701369 0.090591 -0.006093 21666.400000 0 0 1
8.505787 24.736778 28.890563 38.973340 1.239609 0.735805 0.089839 -0.013385 9838.490000 0 0 1
8.968187 24.613278 27.446963 37.941766 1.221383 0.762086 0.106715 -0.016959 -81766.600000 0 0 1
8.023887 23.982778 26.590243 36.696013 1.247934 0.760330 0.107269 -0.013836 336041.000000 0 0 1
8.242887 24.216378 25.217873 35.921014 1.242713 0.792543 0.117796 -0.022602 -219551.000000 0 0 1
31.149401 2.347178 7.748068 32.184266 0.075210 1.327667 0.210204 -0.013068 291090.000000 0 0 1
30.508301 3.628978 7.711968 31.676495 0.118394 1.324864 0.200473 -0.033701 -115695.000000 0 0 1
29.351701 3.772978 8.477268 30.783466 0.127843 1.291807 0.191844 -0.029772 -693804.000000 0 0 1
29.451601 4.639578 9.755168 31.370141 0.156248 1.254583 0.160679 -0.033193 -238512.000000 0 0 1
29.425001 6.055778 9.643468 31.551538 0.202970 1.260184 0.172735 -0.030249 237622.000000 0 0 1
30.392101 6.639178 8.771068 32.321666 0.215072 1.295982 0.179686 -0.043083 67901.500000 0 0 1
30.237101 8.165278 8.610868 32.482319 0.263751 1.302495 0.201210 -0.049657 806265.000000 0 0 1
29.000301 8.538378 7.977368 31.265952 0.286333 1.312798 0.174270 -0.036652 628638.000000 0 0 1
29.207301 9.115178 6.707868 31.323288 0.302507 1.354975 0.195016 -0.075242 -163276.000000 0 0 1
28.002801 9.084978 5.717668 29.989755 0.313717 1.378968 0.169684 -0.060902 62409.400000 0 0 1
26.901601 9.823078 6.211668 29.304842 0.350106 1.357209 0.182436 -0.056233 -162844.000000 0 0 1
25.829501 9.543078 5.332268 28.047576 0.353909 1.379517 0.188650 -0.054751 -325285.000000 0 0 1
24.422501 10.008078 5.685368 26.998955 0.388917 1.358631 0.141866 -0.054750 -260073.000000 0 0 1
24.317201 11.424578 5.619768 27.448661 0.439209 1.364601 0.147794 -0.053812 -372228.000000 0 0 1
22.975901 11.804278 5.552568 26.420901 0.474601 1.359060 0.146508 -0.051781 -367017.000000 0 0 1
22.721701 13.313378 5.935568 26.995419 0.530011 1.349112 0.139435 -0.037177 -195546.000000 0 0 1
23.163201 14.144978 4.915368 27.582152 0.548225 1.391631 0.138502 -0.040773 279218.000000 0 0 1
23.111801 15.520178 5.245668 28.329283 0.591359 1.384554 0.175816 -0.036445 -179473.000000 0 0 1
22.758301 16.352778 3.951268 28.301345 0.623062 1.430725 0.143034 -0.043188 -71487.700000 0 0 1
21.371901 16.188578 3.751568 27.072171 0.648265 1.431772 0.170833 -0.032417 49532.900000 0 0 1
20.848701 17.110678 2.855168 27.121866 0.687240 1.465329 0.146970 -0.027218 -1326740.000000 0 0 1
19.401601 17.146878 2.515868 26.014748 0.723785 1.473936 0.146554 -0.030829 -683416.000000 0 0 1
18.466501 17.389878 3.579668 25.617055 0.755381 1.430600 0.152702 -0.040634 529429.000000 0 0 1
17.121701 17.489578 3.209768 24.684825 0.796027 1.440397 0.134477 -0.046775 -89148.900000 0 1 0
16.218001 18.487178 4.004968 24.916642 0.850690 1.409361 0.132499 -0.053980 -100056.000000 0 1 0
14.906801 18.440678 3.505968 23.970046 0.890975 1.424005 0.126649 -0.054260 -227034.000000 0 1 0
14.147601 19.487478 4.043668 24.418592 0.942843 1.404432 0.098570 -0.055267 52017.700000 0 1 0
12.648101 19.616578 3.700968 23.632218 0.998109 1.413542 0.091953 -0.042989 125994.000000 0 1 0
11.776601 18.877378 4.527968 22.705643 1.013026 1.370030 0.073266 -0.044570 102255.000000 0 1 0
10.447901 19.368678 4.324468 22.427780 1.076110 1.376764 0.062566 -0.023132 214387.000000 0 1 0
9.528001 18.846278 5.428468 21.804432 1.102707 1.319188 0.046227 -0.024060 -492749.000000 0 1 0
9.724601 19.412178 6.736668 22.732866 1.106386 1.269938 0.067319 -0.029837 -322709.000000 0 1 0
8.978101 18.723478 7.703968 22.147822 1.123674 1.215527 0.066673 -0.029271 -236777.000000 0 1 0
7.966901 19.528378 8.525868 22.749054 1.183442 1.186638 0.055655 -0.029922 580164.000000 0 1 0
6.763301 19.871278 7.833368 22.404722 1.242739 1.213620 0.057153 -0.028291 285771.000000 0 1 0
6.853901 21.152278 7.255568 23.388845 1.257445 1.255377 0.065673 -0.024365 228382.000000 0 1 0
5.633101 21.535078 6.328368 23.141729 1.314951 1.293807 0.062541 -0.019804 472432.000000 0 1 0
4.340401 21.386878 6.871968 22.879282 1.370569 1.265729 0.068777 -0.027318 140911.000000 0 1 0
3.816401 22.388778 7.775468 24.005836 1.401959 1.240949 0.063573 -0.029193 -15203.600000 0 1 0
3.772501 23.818378 7.178368 25.160999 1.413715 1.281480 0.083863 -0.027834 -367501.000000 0 0 1
2.895501 23.873778 6.078968 24.805141 1.450102 1.323206 0.063828 -0.022543 -58503.600000 0 1 0
2.926901 25.163678 5.482968 25.919884 1.455002 1.357651 0.069302 -0.018762 -110804.000000 0 0 1
1.801301 25.405178 4.433468 25.851951 1.500012 1.398450 0.068519 -0.018502 398098.000000 0 0 1
0.547201 25.432078 5.115868 25.947295 1.549283 1.372332 0.072011 -0.020055 -21206.300000 0 0 1
-0.478299 25.919878 4.283468 26.275786 -1.552345 1.407046 0.083778 -0.021814 -1039250.000000 0 0 1
-1.776199 26.163578 4.975568 26.691646 -1.503012 1.383290 0.096333 -0.016624 -1201320.000000 0 0 1
-2.659899 26.839678 4.146168 27.287984 -1.472016 1.418264 0.123890 -0.023538 -135743.000000 0 0 1
-3.670899 27.581078 4.849968 28.243823 -1.438479 1.398223 0.123030 -0.028271 294421.000000 0 0 1
-4.653599 28.207678 3.817368 28.842701 -1.407293 1.438056 0.118073 -0.034215 -162326.000000 0 0 1
-4.199199 29.327978 3.106968 29.789542 -1.428582 1.466309 0.134605 -0.037723 145794.000000 0 0 1
-5.044099 29.607378 1.962868 30.098050 -1.402050 1.505534 0.151176 -0.045279 174402.000000 0 0 1
-4.279599 30.210978 0.718468 30.521048 -1.430076 1.547254 0.149019 -0.041796 269072.000000 0 0 1
-3.816499 31.557078 0.924068 31.800452 -1.450441 1.541734 0.160365 -0.042517 722231.000000 0 0 1
-2.848899 31.808578 1.984368 31.997493 -1.481471 1.508740 0.161760 -0.039365 -106828.000000 0 0 1
-2.058299 33.081278 1.824268 33.195414 -1.508657 1.515813 0.153242 -0.036707 -779580.000000 0 0 1
-1.207999 33.206278 0.720568 33.236055 -1.534434 1.549114 0.118845 -0.034259 -366252.000000 0 0 1
-0.419299 -33.111393 0.728668 33.122064 1.558134 1.548795 0.117347 -0.033344 -138956.000000 0 0 1
0.966301 -33.383893 1.353668 33.425297 -1.541859 1.530287 0.098718 -0.018234 -723003.000000 0 0 1
0.912701 -33.339193 2.774268 33.466870 -1.543427 1.487805 0.105354 -0.026647 624132.000000 0 0 1
2.128501 33.692078 3.407668 33.930795 1.507705 1.470197 0.085053 -0.018658 528519.000000 0 0 1
1.982801 -33.510293 4.925468 33.928329 -1.511695 1.425109 0.097323 -0.030990 978136.000000 0 0 1
0.926901 33.168278 5.569768 33.645447 1.542858 1.404488 0.130698 -0.039093 821423.000000 0 0 1
0.637501 33.624978 6.901868 34.331929 1.551839 1.368383 0.151069 -0.033577 -210625.000000 0 0 1
1.694301 33.342178 7.966768 34.322600 1.520024 1.336546 0.125313 -0.033395 -261381.000000 0 0 1
1.935401 31.986378 8.308568 33.104478 1.510363 1.317104 0.135983 -0.034208 -415671.000000 0 0 1
2.855701 32.047978 9.340168 33.503233 1.481924 1.288269 0.161407 -0.041229 -419179.000000 0 0 1
3.581501 30.690978 9.572568 32.348065 1.454626 1.270374 0.154979 -0.036766 261645.000000 0 0 1
2.790801 29.719978 10.239868 31.558209 1.477168 1.240339 0.177040 -0.039863 229157.000000 0 0 1
3.570501 28.540278 10.344868 30.566521 1.446339 1.225540 0.127482 -0.039616 -180376.000000 0 0 1
2.966501 27.413778 11.158368 29.746000 1.463004 1.186268 0.129114 -0.043131 -718980.000000 0 0 1
2.863901 27.753678 12.520268 30.581459 1.467970 1.148992 0.154027 -0.048144 -9746.910000 0 0 1
2.401701 26.661978 13.325868 29.903310 1.480959 1.108916 0.161706 -0.034149 -957060.000000 0 0 1
0.898601 26.467678 13.332768 29.649758 1.536858 1.104394 0.117889 -0.027984 -1276180.000000 0 0 1
0.150501 27.462678 13.979668 30.816431 1.565316 1.099947 0.129876 -0.027492 -107406.000000 0 0 1
-0.218399 28.514378 13.098068 31.379561 -1.563137 1.140206 0.155949 -0.037426 -386422.000000 0 0 1
-0.804899 29.823378 13.755468 32.852620 -1.543814 1.138780 0.156219 -0.035344 125707.000000 0 0 1
-2.045299 29.541078 14.343268 32.902703 -1.501671 1.119725 0.137557 -0.029993 -231772.000000 0 0 1
-2.736799 30.674278 14.840668 34.185477 -1.481811 1.121733 0.160921 -0.026516 -87896.200000 0 0 1
-3.980999 30.321278 15.673568 34.364065 -1.440249 1.097185 0.163933 -0.008299 -236514.000000 0 0 1
-5.016399 29.696978 14.967068 33.631650 -1.403456 1.109589 0.137329 -0.021496 -483368.000000 0 0 1
-6.154999 29.656278 15.793468 34.158637 -1.366157 1.090145 0.116986 -0.010795 -274532.000000 0 0 1
-7.334899 28.924278 15.096668 33.441351 -1.322442 1.102421 0.105550 -0.018254 37422.900000 0 0 1
-8.476999 28.816178 15.914768 33.992815 -1.284692 1.083566 0.105663 -0.018567 -312940.000000 0 0 1
-9.553199 28.259178 15.230468 33.493461 -1.244801 1.098728 0.089752 -0.016087 -470525.000000 0 0 1
-10.774899 27.862078 16.060868 33.916741 -1.201788 1.077493 0.082296 -0.012578 -238823.000000 0 0 1
-11.436599 28.975678 16.612568 35.303868 -1.194870 1.080872 0.070994 -0.020554 -17095.400000 0 0 1
-11.732799 28.779978 17.997168 35.914395 -1.183693 1.045912 0.085011 -0.020188 -184379.000000 0 0 1
-12.587699 29.930678 18.594268 37.417141 -1.172691 1.050721 0.076372 -0.015062 -78950.900000 0 0 1
-13.928099 29.826378 18.135468 37.583240 -1.133918 1.067242 0.096723 -0.022560 524469.000000 0 0 1
-14.712499 31.001278 18.407368 38.940571 -1.127693 1.078439 0.085391 -0.017005 466038.000000 0 0 1
-15.650699 30.903578 19.634768 39.818333 -1.102013 1.055137 0.086731 -0.026974 242508.000000 0 0 1
-14.942999 30.950378 20.875468 40.211992 -1.120999 1.024957 0.081774 -0.030692 776068.000000 0 0 1
-15.862799 30.465078 21.878268 40.723555 -1.090736 1.003637 0.071983 -0.026919 586570.000000 0 0 1
-15.310699 30.429578 23.333768 41.289726 -1.104630 0.970214 0.072559 -0.022476 -471178.000000 0 0 1
-14.082499 29.751278 23.418868 40.396766 -1.128702 0.952410 0.079704 -0.027856 291160.000000 0 0 1
-13.569599 29.424678 24.744768 40.770691 -1.138697 0.918610 0.081387 -0.023443 442285.000000 0 0 1
-12.950099 30.596778 25.575568 41.928243 -1.170409 0.914756 0.082057 -0.019859 80567.000000 0 0 1
-14.003499 31.400578 26.100568 43.166352 -1.151305 0.921469 0.087274 -0.027545 348739.000000 0 0 1
-13.564499 32.657878 26.587068 44.242568 -1.177126 0.926121 0.095516 -0.029715 -819181.000000 0 0 1
-14.722399 33.486278 27.111768 45.531613 -1.156579 0.932972 0.116369 -0.035549 32118.100000 0 0 1
-15.439599 32.829378 28.239968 45.974396 -1.131191 0.909356 0.114174 -0.036524 505681.000000 0 0 1
-14.885299 32.898078 29.539468 46.652286 -1.145893 0.885137 0.118448 -0.026069 -550988.000000 0 0 1
-15.748899 32.181178 30.589468 47.110207 -1.115679 0.864110 0.105314 -0.022887 -363418.000000 0 0 1
-16.873199 32.929278 30.947968 48.237111 -1.097272 0.874240 0.104337 -0.024617 -499969.000000 0 0 1
-17.626699 32.290578 31.960668 48.732599 -1.071124 0.855505 0.085712 -0.015901 -671039.000000 0 0 1
-19.074899 32.691378 32.039268 49.589239 -1.042609 0.868342 0.091913 -0.017743 -783767.000000 0 0 1
-19.305399 -33.466393 32.521168 50.500735 1.047566 0.871115 0.113961 -0.021961 -712691.000000 0 0 1
-20.680399 -33.241993 32.506468 50.885946 1.014273 0.877845 0.124571 -0.021688 -573964.000000 0 0 1
-21.145899 -31.843993 32.889968 50.427561 0.984610 0.860284 0.130440 -0.012178 -347649.000000 0 0 1
-20.897299 -31.394293 -33.166597 50.222724 0.983505 2.292135 0.125081 -0.015890 188616.000000 0 0 1
-21.778699 -31.883493 -32.164597 50.253659 0.971522 2.265353 0.116965 -0.016281 106232.000000 0 0 1
-21.503599 -31.297493 -30.769697 48.874453 0.968800 2.251791 0.122233 -0.021091 21601.700000 0 0 1
-21.544499 -29.883593 -30.860397 48.057869 0.946150 2.268097 0.135250 -0.016069 -62853.300000 0 0 1
-21.008599 -29.225293 -29.741897 46.691107 0.947531 2.261387 0.117375 -0.012409 90303.800000 0 0 1
-21.365399 -27.688393 -29.661897 45.857994 0.913590 2.274204 0.117285 -0.019097 166076.000000 0 0 1
-22.663399 -27.325693 -29.243297 45.994496 0.878395 2.259841 0.112259 -0.015834 -98900.200000 0 0 1
-22.825199 -25.946293 -29.335097 45.329326 0.849305 2.274643 0.110290 -0.015616 -95210.500000 0 0 1
-24.062399 -25.453893 -28.576497 45.205265 0.813493 2.255121 0.116760 -0.015478 -271552.000000 0 0 1
-24.069299 -25.546393 -27.149297 44.373796 0.815160 2.229171 0.108806 -0.018819 79766.300000 0 0 1
-23.260099 -24.607193 -26.451797 42.967939 0.813533 2.233965 0.103740 -0.034509 -204649.000000 0 0 1
-23.073399 -24.979893 -24.930297 42.165111 0.825052 2.203409 0.103754 -0.026102 1030300.000000 0 0 1
-24.298499 -24.842993 -24.151897 42.319092 0.796478 2.178166 0.102299 -0.029453 1013960.000000 0 0 1
-24.231399 -25.401793 -22.844397 41.884106 0.808975 2.147686 0.098233 -0.020540 -653780.000000 0 0 1
-25.645899 -25.317093 -22.247997 42.351396 0.778946 2.123886 0.100697 -0.024600 133265.000000 0 0 1
-26.732099 -25.960893 -22.858197 43.715790 0.770763 2.121025 0.101607 -0.021131 -214173.000000 0 0 1
-26.661899 -27.374693 -22.939997 44.569880 0.798588 2.111451 0.086579 -0.013584 -1415360.000000 0 0 1
-28.027199 -28.011593 -22.848597 45.740919 0.785120 2.093843 0.057494 -0.007595 -249263.000000 0 0 1
-28.831799 -27.657193 -21.720897 45.475162 0.764608 2.068766 0.056321 0.001464 12991.900000 0 0 1
-30.110899 -27.228293 -22.124697 46.233629 0.735168 2.069789 0.061311 -0.004030 -16254.700000 0 0 1
-30.794699 -26.297593 -21.115097 45.669730 0.706791 2.051433 0.071072 0.000915 84658.000000 0 0 1
-31.258899 -27.009993 -19.943097 45.873584 0.712608 2.020546 0.076883 0.005144 -32025.500000 0 0 1
-31.964199 -26.224893 -19.059097 45.526962 0.687084 2.002736 0.077531 0.011454 -1172060.000000 0 0 1
-32.697099 -26.974193 -17.904597 46.013933 0.689783 1.970464 0.065451 0.003728 -212255.000000 0 0 1
-33.876699 -27.652293 -18.290797 47.400774 0.684579 1.966953 0.064738 0.016648 25726.600000 0 0 1
-34.976499 -26.935293 -18.784897 47.976431 0.656240 1.973106 0.058562 0.015806 -1062850.000000 0 0 1
-35.840899 -26.354493 -17.667097 47.867063 0.634039 1.948822 0.067770 0.012699 -1107710.000000 0 0 1
-35.331799 -25.259593 -16.950097 46.622837 0.620673 1.942881 0.064208 0.020209 89076.200000 0 0 1
-36.189599 -24.859893 -15.873297 46.686861 0.601903 1.917708 0.064339 0.010573 154886.000000 0 0 1
-35.957499 -25.534393 -14.498597 46.423661 0.617490 1.888421 0.112430 0.015486 -69131.200000 0 0 1
-36.494999 -26.796493 -14.327797 47.489186 0.633345 1.877278 0.110241 0.014619 -54066.500000 0 0 1
-36.004999 -27.251893 -13.098397 47.016951 0.647897 1.853121 0.112173 0.006653 -17221.900000 0 0 1
-36.365599 -28.679693 -12.613397 48.000827 0.667781 1.836693 0.127072 -0.010162 -2163.780000 0 0 1
-35.772799 -29.743193 -13.353997 48.401239 0.693624 1.850324 0.110522 -0.005755 290211.000000 0 0 1
-36.162199 -30.971193 -12.810197 49.305382 0.708228 1.833625 0.097790 -0.016294 -310029.000000 0 0 1
-35.690799 -32.094693 -13.741097 49.927150 0.732397 1.849618 0.094583 -0.014800 703210.000000 0 0 1
-34.270099 -32.314093 -13.671097 49.046297 0.756030 1.853277 0.063813 -0.016042 785069.000000 0 0 1
-33.870899 -33.311593 -14.571897 49.691451 0.777073 1.868418 0.080589 -0.026224 -191582.000000 0 0 1
-32.370299 -33.615393 -14.689497 48.924557 0.804265 1.875749 0.095132 -0.022153 24588.700000 0 0 1
-32.187699 33.067278 -15.850297 48.792671 -0.798876 1.901649 0.092347 -0.017613 -1013230.000000 0 0 1
-30.889699 32.575978 -15.823997 47.600071 -0.811962 1.909682 0.088289 -0.016395 -1129860.000000 0 0 1
10.111887 19.902778 -9.777132 24.371359 1.100718 1.983593 0.113957 -0.018304 57663.500000 0 1 0
8.712687 19.747978 -9.585032 23.617078 1.155290 1.988707 0.096924 -0.017760 799104.000000 0 1 0
7.884387 19.577278 -10.784232 23.700908 1.187937 2.043184 0.102439 -0.024416 799916.000000 0 1 0
7.934487 18.296278 -11.638532 23.090373 1.161608 2.099069 0.093461 -0.018802 -834167.000000 0 1 0
9.099187 18.204878 -12.396732 23.830480 1.107292 2.117887 0.138512 -0.025885 -435345.000000 0 1 0
9.079787 16.905778 -12.964232 23.158566 1.077925 2.164944 0.131690 -0.038838 -690305.000000 0 1 0
10.305787 16.474678 -13.741232 23.800120 1.011799 2.186288 0.153164 -0.039806 -452432.000000 0 1 0
10.180187 15.127178 -14.190932 23.105200 0.978440 2.232153 0.157023 -0.057955 -326603.000000 0 1 0
11.284887 14.751378 -14.965232 23.851834 0.917761 2.249038 0.180510 -0.062039 -629794.000000 0 1 0
11.317487 13.265078 -15.402532 23.265550 0.864460 2.294323 0.171036 -0.069855 -313220.000000 0 1 0
11.544287 12.254478 -14.460232 22.193267 0.815231 2.280435 0.178915 -0.066501 1073640.000000 0 1 0
12.796887 12.344178 -13.747632 22.475241 0.767393 2.228978 0.201019 -0.067739 879783.000000 0 1 0
14.017987 11.606878 -14.379832 23.194895 0.691582 2.239484 0.220838 -0.073190 364078.000000 0 1 0
14.557787 12.196278 -15.576032 24.561986 0.697359 2.257708 0.177768 -0.059736 281723.000000 0 1 0
15.512987 11.385378 -16.214832 25.163473 0.633134 2.271008 0.175674 -0.072324 -173995.000000 0 0 1
16.088887 12.078278 -17.463132 26.640159 0.643963 2.285666 0.127826 -0.062576 -579434.000000 0 0 1
17.150387 12.918278 -17.205432 27.514443 0.645569 2.246343 0.119748 -0.047861 -585294.000000 0 0 1
17.778687 13.413978 -18.352432 28.858765 0.646373 2.260022 0.077280 -0.035432 390612.000000 0 0 1
18.967787 14.447178 -18.250632 30.026380 0.650928 2.224109 0.081331 -0.017342 194258.000000 0 0 1
18.830787 15.753978 -17.726932 30.282511 0.696667 2.196151 0.097532 -0.028346 6545.880000 0 0 1
18.067287 16.587678 -18.583932 30.772398 0.742729 2.219201 0.086395 -0.018801 -278025.000000 0 0 1
17.873087 17.979978 -18.009232 31.097577 0.788380 2.188445 0.109427 -0.027049 -229115.000000 0 0 1
19.012287 18.804378 -17.956632 32.210438 0.779900 2.162142 0.114405 -0.023348 -156965.000000 0 0 1
18.707387 20.058778 -17.423132 32.494406 0.820244 2.136712 0.092533 -0.018665 -545006.000000 0 0 1
19.851087 21.076878 -17.549332 33.856750 0.815339 2.115706 0.114180 -0.021652 468820.000000 0 0 1
21.081287 20.828878 -16.853632 34.092635 0.779376 2.087881 0.134098 -0.024743 353660.000000 0 0 1
21.032887 20.854478 -15.461432 33.411787 0.781139 2.051895 0.134530 -0.022065 -523040.000000 0 0 1
21.990487 21.931678 -14.909932 34.451213 0.784059 2.018375 0.143458 -0.022219 697780.000000 0 0 1
23.395287 21.685478 -14.929532 35.220595 0.747489 2.008528 0.147803 -0.035240 300360.000000 0 0 1
24.013587 22.794878 -14.308132 36.069121 0.759368 1.978701 0.125192 -0.041921 575326.000000 0 0 1
25.575587 22.717978 -14.300632 37.077288 0.726295 1.966760 0.105521 -0.027444 765858.000000 0 0 1
26.208287 23.120078 -15.523432 38.241199 0.722875 1.988798 0.116404 -0.020095 -288291.000000 0 0 1
27.569887 23.339278 -15.282232 39.222024 0.702488 1.971030 0.102413 -0.006738 -416044.000000 0 0 1
28.306687 23.648078 -16.600732 40.448541 0.695971 1.993707 0.120173 -0.014015 -416927.000000 0 0 1
28.606187 22.531278 -17.362632 40.341460 0.667157 2.015723 0.117290 -0.022873 -13036.800000 0 0 1
28.694287 22.821778 -18.738632 41.174410 0.671894 2.043285 0.125620 -0.027119 -806328.000000 0 0 1
29.466487 21.772378 -19.560432 41.532166 0.636350 2.061187 0.116086 -0.033857 128158.000000 0 0 1
30.830787 22.047678 -19.798032 42.762128 0.620801 2.052151 0.098403 -0.026278 -678682.000000 0 0 1
31.363287 21.006578 -20.499432 42.955312 0.590157 2.068293 0.127109 -0.030204 -1346170.000000 0 0 1
32.829087 21.151978 -20.752432 44.224638 0.572362 2.059238 0.132404 -0.039417 -1658470.000000 0 0 1
33.048887 22.388178 -21.460032 45.320993 0.595414 2.064070 0.110604 -0.024778 122521.000000 0 0 1
34.413487 22.773878 -21.456932 46.511693 0.584606 2.050283 0.112349 -0.025270 298521.000000 0 0 1
34.530487 24.304378 -21.842132 47.540888 0.613307 2.048160 0.118337 -0.026012 -48889.600000 0 0 1
34.658687 24.698478 -23.248332 48.494581 0.619146 2.070768 0.100443 -0.023798 -210557.000000 0 0 1
33.474187 24.503278 -23.976332 47.914469 0.631885 2.094855 0.103096 -0.025243 -309897.000000 0 0 1
33.529487 25.052978 -25.409722 48.964601 0.641702 2.116408 0.118158 -0.032031 -459244.000000 0 0 1
33.363787 26.449378 -25.527592 49.642420 0.670309 2.110905 0.130746 -0.038256 282670.000000 0 0 1
32.045287 26.917378 -25.821032 49.174906 0.698648 2.123612 0.127529 -0.028320 720838.000000 0 0 1
31.443587 26.570478 -27.234462 49.359958 0.701596 2.155260 0.136123 -0.029252 -90185.800000 0 0 1
31.214087 25.201778 -27.542802 48.662663 0.679228 2.172435 0.127917 -0.036427 43489.900000 0 0 1
30.645987 25.092578 -28.841452 48.996361 0.686093 2.200178 0.122803 -0.035757 166830.000000 0 0 1
29.739687 23.843778 -29.091402 47.950854 0.675807 2.222689 0.124961 -0.042720 -399869.000000 0 0 1
28.505187 23.931878 -28.471142 46.860286 0.698403 2.223800 0.107769 -0.032203 -818436.000000 0 0 1
27.701287 22.840178 -28.807752 46.031746 0.689512 2.246983 0.100609 -0.043750 1775560.000000 0 0 1
26.260787 22.889678 -28.049632 44.725252 0.716918 2.248691 0.076237 -0.031404 1732600.000000 0 0 1
26.318387 22.490878 -26.683352 43.709248 0.707141 2.227455 0.084127 -0.019217 231860.000000 0 0 1
25.100587 22.639478 -25.993152 42.640701 0.733891 2.226334 0.069746 -0.026103 -176226.000000 0 0 1
25.351687 22.432078 -24.475132 41.772458 0.724374 2.196806 0.085762 -0.023101 -183528.000000 0 0 1
25.586087 21.133478 -24.127732 41.029492 0.690380 2.199452 0.086641 -0.020937 158204.000000 0 0 1
25.680587 21.085778 -22.705332 40.244685 0.687462 2.170239 0.112296 -0.030776 -262068.000000 0 0 1
26.519287 19.874778 -22.256032 39.920050 0.643147 2.162186 0.118382 -0.023427 976676.000000 0 0 1
27.896487 19.836778 -22.688632 41.066845 0.618127 2.156134 0.104307 -0.028234 971159.000000 0 0 1
28.523087 18.634578 -22.298632 40.719074 0.578703 2.150315 0.148004 -0.040299 145492.000000 0 0 1
29.947587 18.489478 -22.882932 41.980321 0.553112 2.147289 0.172168 -0.055062 23887.100000 0 0 1
30.843587 17.812978 -22.021032 41.875469 0.523731 2.124533 0.177675 -0.056902 4640.530000 0 0 1
31.971187 17.429178 -22.795032 42.959825 0.499114 2.130120 0.165131 -0.051526 429557.000000 0 0 1
33.305187 17.065278 -22.066332 43.444013 0.473511 2.103571 0.153143 -0.042462 507128.000000 0 0 1
33.945987 18.237178 -21.571132 44.161504 0.492995 2.081120 0.130712 -0.035766 311434.000000 0 0 1
35.173187 17.918078 -20.911332 44.670957 0.471159 2.057957 0.122276 -0.030116 824532.000000 0 0 1
35.918287 19.202878 -20.362532 45.535773 0.490964 2.034403 0.090216 -0.033062 290232.000000 0 0 1
35.111587 19.720378 -19.314932 44.662999 0.511743 2.018015 0.107452 -0.029784 -35505.200000 0 0 1
35.812687 20.598278 -18.490032 45.262776 0.521960 1.991611 0.089054 -0.014080 -116861.000000 0 0 1
35.286487 20.635978 -17.011132 44.275935 0.529177 1.965145 0.088804 -0.024191 58642.500000 0 0 1
35.513387 19.423578 -16.331332 43.648465 0.500488 1.954283 0.090904 -0.038017 313794.000000 0 0 1
35.133887 19.593178 -14.998632 42.932990 0.508714 1.927673 0.077957 -0.031764 -272364.000000 0 0 1
35.336487 18.286978 -14.185832 42.241197 0.477557 1.913282 0.073078 -0.017730 -302305.000000 0 0 1
36.682387 17.910178 -13.981032 43.149059 0.454204 1.900769 0.062887 -0.020198 156235.000000 0 0 1
36.869487 16.803078 -13.107532 42.585325 0.427621 1.883671 0.059553 -0.001358 -96467.600000 0 0 1
36.885287 17.188378 -11.569932 42.306360 0.436076 1.847805 0.065153 -0.008488 -482907.000000 0 0 1
38.032487 17.849478 -11.132732 43.462762 0.438805 1.829827 0.057913 -0.013721 2373.520000 0 0 1
37.778887 18.391878 -9.808732 43.147615 0.453056 1.800131 0.069684 -0.013878 -247920.000000 0 0 1
36.780987 19.562278 -9.655532 42.763922 0.488808 1.798547 0.078489 -0.016036 -393957.000000 0 0 1
35.446187 19.178278 -9.826432 41.482494 0.495948 1.809951 0.084571 -0.023777 -697600.000000 0 0 1
34.662487 20.324278 -10.091932 41.429595 0.530321 1.816864 0.066144 -0.007145 -893287.000000 0 0 1
33.258487 19.917078 -10.464832 40.153825 0.539579 1.834459 0.045798 -0.010646 -964227.000000 0 0 1
33.017287 19.300978 -11.754132 40.010356 0.528998 1.868972 0.067320 -0.010481 -443287.000000 0 0 1
31.750287 18.716678 -11.785232 38.694786 0.532660 1.880282 0.065658 -0.012244 -365529.000000 0 0 1
31.510987 17.889278 -13.037132 38.508900 0.516343 1.916170 0.096248 -0.018313 -319162.000000 0 0 1
32.311587 16.742278 -13.121332 38.684776 0.478063 1.916848 0.080284 -0.019688 -9675.730000 0 0 1
32.010987 15.976878 -14.272532 38.518425 0.462932 1.950384 0.062081 -0.021396 773217.000000 0 0 1
33.281087 15.270778 -14.920432 39.540444 0.430183 1.957725 0.090335 -0.032994 818316.000000 0 0 1
33.848387 14.271178 -14.100332 39.347163 0.399005 1.937304 0.068783 -0.025220 404650.000000 0 0 1
35.044187 13.768378 -14.694232 40.417617 0.374359 1.942883 0.083634 -0.025810 38514.000000 0 0 1
35.825287 12.853678 -13.777032 40.478079 0.344482 1.918094 0.059976 -0.030904 -388794.000000 0 0 1
36.728587 13.566378 -12.942032 41.237506 0.353824 1.890032 0.065583 -0.006238 164874.000000 0 0 1
37.036887 12.872378 -11.736632 40.928934 0.334496 1.861636 0.063975 -0.016475 -499838.000000 0 0 1
-37.973727 13.423278 -10.974932 41.744909 -0.339779 1.836828 0.089824 -0.007034 -126654.000000 0 0 1
-36.718427 13.350278 -11.652032 40.770610 -0.348726 1.860632 0.079634 -0.008774 98532.300000 0 0 1
-35.740827 13.718278 -10.719232 39.755500 -0.366486 1.843804 0.091568 -0.020332 -132943.000000 0 0 1
-34.281227 13.856278 -11.288532 38.660444 -0.384117 1.867105 0.134049 -0.026073 1110200.000000 0 0 1
-33.530127 12.676178 -11.672332 37.698783 -0.361445 1.885591 0.156282 -0.047925 553285.000000 0 0 1
-33.351727 11.717378 -10.601832 36.905737 -0.337857 1.862170 0.185567 -0.040847 -571247.000000 0 0 1
-32.226027 10.685678 -10.862532 35.646811 -0.320177 1.880448 0.212436 -0.047263 87513.000000 0 0 1
-32.475827 9.960678 -12.048032 36.042329 -0.297602 1.911632 0.193497 -0.030983 512877.000000 0 0 1
-31.393727 9.121078 -12.446132 34.980943 -0.282754 1.934564 0.231263 -0.041802 161119.000000 0 0 1
-31.592027 8.759378 -13.967732 35.635381 -0.270471 1.973560 0.219655 -0.042546 -275204.000000 0 0 1
-32.786427 8.098578 -14.297032 36.673449 -0.242163 1.971262 0.188266 -0.036981 68547.700000 0 0 1
-32.937327 7.555378 -15.611532 37.224604 -0.225486 2.003567 0.188707 -0.046958 2048110.000000 0 0 1
-34.479527 7.250278 -16.041132 38.713334 -0.207258 1.998032 0.195965 -0.049462 2213390.000000 0 0 1
-35.003127 6.070878 -15.423532 38.729314 -0.171730 1.980393 0.203387 -0.042045 -318645.000000 0 0 1
-36.253127 5.709078 -15.912132 40.000984 -0.156195 1.979907 0.143537 -0.045301 -651148.000000 0 0 1
-37.077827 4.875478 -14.940932 40.271168 -0.130743 1.950891 0.140390 -0.040778 732962.000000 0 0 1
37.909987 4.280778 -15.486732 41.174398 0.112443 1.956407 0.145742 -0.035934 1211030.000000 0 0 1
37.023887 3.853278 -14.451232 39.930616 0.103702 1.941111 0.155007 -0.035711 770671.000000 0 0 1
36.020487 2.790978 -14.988432 39.114168 0.077329 1.964051 0.163744 -0.036749 427376.000000 0 0 1
36.760687 1.564278 -15.083632 39.765702 0.042527 1.959850 0.167245 -0.037817 732990.000000 0 0 1
35.947287 0.402978 -15.052232 38.973575 0.011210 1.967322 0.157704 -0.032459 283754.000000 0 0 1
35.354787 -0.050622 -13.664732 37.903673 -0.001432 1.939613 0.167866 -0.035934 53372.000000 0 0 1
36.324587 -0.614322 -12.810732 38.522304 -0.016910 1.909806 0.175077 -0.032477 275344.000000 0 0 1
36.016687 -0.509322 -11.375432 37.773822 -0.014140 1.876690 0.177805 -0.030412 -60068.300000 0 0 1
36.282987 0.841078 -10.696332 37.836148 0.023177 1.857406 0.160121 -0.031833 203116.000000 0 0 1
35.335387 1.791778 -11.199432 37.111014 0.050664 1.877357 0.160473 -0.024976 759641.000000 0 0 1
35.579587 3.063478 -10.641932 37.263154 0.085890 1.860417 0.152204 -0.027595 -721624.000000 0 0 1
34.441187 4.011778 -10.890332 36.344038 0.115959 1.875118 0.138674 -0.031104 -811285.000000 0 0 1
34.289087 4.475678 -12.205532 36.670809 0.129794 1.910111 0.138350 -0.026806 315257.000000 0 0 1
33.051087 5.085078 -12.525032 35.708666 0.152658 1.929175 0.128978 -0.032895 -138536.000000 0 0 1
33.062487 5.920278 -13.742432 36.290938 0.177185 1.959159 0.089332 -0.025344 -347308.000000 0 0 1
33.065087 5.041978 -14.884132 36.609547 0.151321 1.989487 0.099712 -0.018858 200386.000000 0 0 1
33.329087 5.752278 -16.077532 37.448682 0.170907 2.014538 0.094330 -0.017044 -389327.000000 0 0 1
32.235387 6.721378 -16.590332 36.871889 0.205564 2.037500 0.109170 -0.016451 438228.000000 0 0 1
31.094387 6.245478 -17.280632 36.117685 0.198218 2.069689 0.093301 -0.015461 890482.000000 0 0 1
30.072787 5.489078 -16.656532 34.812966 0.180539 2.069694 0.087189 -0.007683 -135219.000000 0 0 1
28.793787 5.350678 -17.518732 34.126499 0.183732 2.109877 0.069455 -0.007359 -166386.000000 0 0 1
28.775887 4.380378 -18.553532 34.517719 0.151064 2.138275 0.073593 -0.002404 354235.000000 0 0 1
27.788187 4.694078 -19.532832 34.289200 0.167344 2.176876 0.057383 0.002619 -144029.000000 0 0 1
27.094387 3.450178 -20.149632 33.941379 0.126658 2.206396 0.062845 -0.006882 -169297.000000 0 0 1
26.139287 2.957478 -19.221832 32.580483 0.112664 2.201830 0.075016 -0.007346 242758.000000 0 0 1
25.681887 1.708778 -19.668432 32.393309 0.066438 2.223298 0.078996 -0.012686 -244267.000000 0 0 1
24.539187 1.046578 -18.869732 30.973115 0.042623 2.225885 0.085494 -0.017541 -517681.000000 0 0 1
23.296287 1.632478 -19.090332 30.163269 0.069960 2.256089 0.087226 -0.027436 -160545.000000 0 0 1
22.299387 0.873478 -18.365532 28.901876 0.039150 2.259380 0.106405 -0.035335 437618.000000 0 0 1
21.062987 1.769078 -18.106232 27.831901 0.083793 2.279114 0.130386 -0.046329 -517648.000000 0 0 1
20.295587 2.022078 -19.273532 28.061873 0.099304 2.327905 0.128333 -0.039188 1125700.000000 0 0 1
19.221987 2.989078 -19.068932 27.240476 0.154268 2.346225 0.117620 -0.035353 1660430.000000 0 0 1
17.888687 2.470578 -18.411132 25.789119 0.137240 2.365864 0.170373 -0.052505 -301810.000000 0 0 1
17.833587 2.378378 -16.988032 24.744429 0.132583 2.327516 0.178933 -0.058052 589617.000000 0 1 0
16.520087 2.116778 -16.482132 23.431917 0.127439 2.350973 0.150017 -0.041853 580946.000000 0 1 0
15.628887 3.352278 -16.364432 22.875632 0.211291 2.367943 0.161177 -0.040831 -451950.000000 0 1 0
15.272887 3.929578 -17.582732 23.618957 0.251829 2.410482 0.161816 -0.027118 -365729.000000 0 1 0
14.157687 4.751478 -17.505932 23.010309 0.323799 2.435320 0.157140 -0.036109 -556773.000000 0 1 0
-21.009413 -21.620122 -17.798632 35.008805 0.799723 2.104127 0.135144 -0.030333 -63190.700000 0 0 1
-20.851613 -22.566922 -18.773132 36.006753 0.824884 2.119261 0.119840 -0.036023 292346.000000 0 0 1
-21.774813 -22.319822 -19.827632 36.952022 0.797758 2.137173 0.134146 -0.031939 52681.900000 0 0 1
-21.583013 -23.176022 -21.114132 38.062594 0.820974 2.158824 0.101952 -0.022610 -68344.900000 0 0 1
-21.876413 -24.513122 -20.900432 38.939680 0.842176 2.137363 0.081183 -0.026881 82338.600000 0 0 1
-20.805113 -25.379572 -21.243632 39.093060 0.884123 2.145292 0.073802 -0.033758 62578.200000 0 0 1
-21.037813 -26.757172 -20.560832 39.765358 0.904496 2.114202 0.081741 0.000229 476018.000000 0 0 1
-22.241213 -27.373902 -21.018032 41.058005 0.888482 2.108204 0.085616 0.008142 240845.000000 0 0 1
-22.092513 -28.764482 -20.985732 41.903168 0.915844 2.095336 0.126248 -0.027778 -364917.000000 0 0 1
-23.281913 -29.496122 -21.569632 43.328025 0.902601 2.091882 0.110340 -0.025091 -379477.000000 0 0 1
-23.820313 -29.158712 -22.879332 44.057935 0.885824 2.116829 0.084246 -0.020493 41750.100000 0 0 1
-23.058913 -29.460392 -24.010832 44.453889 0.906688 2.141387 0.085147 -0.025172 -447163.000000 0 0 1
-23.677813 -28.814222 -25.254912 45.041190 0.882939 2.166036 0.075646 -0.016930 -799359.000000 0 0 1
-24.873813 -29.411532 -25.613622 46.257999 0.868794 2.157612 0.080499 -0.012506 -351335.000000 0 0 1
-25.464903 -28.668582 -26.685642 46.716939 0.844510 2.178788 0.078821 -0.008196 -98040.000000 0 0 1
-25.085723 -29.113922 -28.155962 47.641077 0.859583 2.203097 0.085088 -0.017851 -416442.000000 0 0 1
-25.610343 -30.331562 -28.629522 48.944283 0.869594 2.195604 0.075613 -0.008829 186339.000000 0 0 1
-25.395853 -30.440792 -30.046502 49.743175 0.875505 2.219348 0.122849 -0.007704 119944.000000 0 0 1
-26.048323 -31.722372 -30.609752 51.203330 0.883301 2.211560 0.096800 -0.018452 -37349.300000 0 0 1
-25.469113 -32.936212 -30.074682 51.361039 0.912558 2.196360 0.105124 -0.031663 -112410.000000 0 0 1
-26.087613 33.347155 -30.547222 52.208516 -0.906939 2.195800 0.101885 -0.028636 -162820.000000 0 0 1
-25.233283 32.028911 -30.563262 50.957656 -0.903521 2.214020 0.107982 -0.027116 28813.000000 0 0 1
-24.105813 32.308017 -31.351602 51.066830 -0.929780 2.231830 0.122108 -0.040497 -681167.000000 0 0 1
-23.226013 31.222209 -31.391612 49.997074 -0.931215 2.249609 0.123571 -0.037911 -463383.000000 0 0 1
-22.068913 31.433269 -32.386222 50.238976 -0.958671 2.271353 0.124476 -0.031819 -213385.000000 0 0 1
-22.216313 31.123669 33.664033 50.946192 -0.950863 0.848944 0.119029 -0.027947 -147516.000000 0 0 1
-21.993013 29.784039 33.412723 49.871752 -0.934750 0.836624 0.102251 -0.021796 -105947.000000 0 0 1
-22.114613 29.388319 31.926550 48.703532 -0.925699 0.855914 0.085874 -0.015346 353522.000000 0 0 1
-21.129113 29.986139 31.080833 48.079373 -0.956970 0.867876 0.090294 -0.013296 530158.000000 0 0 1
-21.516413 29.806359 29.767803 47.302190 -0.945541 0.890130 0.094636 -0.012503 -161727.000000 0 0 1
-21.129513 31.001419 28.902033 47.358967 -0.972550 0.914388 0.096688 -0.027908 -253886.000000 0 0 1
-22.030613 32.078205 28.962383 48.509574 -0.968999 0.930984 0.085548 -0.023192 -39739.100000 0 0 1
-21.461213 33.309395 28.515533 48.818389 -0.998439 0.947008 0.100752 -0.038602 -366038.000000 0 0 1
-22.403313 -32.947412 28.540583 49.010257 0.973639 0.949193 0.121786 -0.049642 -202945.000000 0 0 1
-22.644813 -32.488382 29.867583 49.601966 0.962078 0.924611 0.109080 -0.037496 -87619.400000 0 0 1
-23.747613 -31.608092 29.981233 49.617486 0.926455 0.921975 0.122386 -0.038276 71620.200000 0 0 1
-23.602113 -30.126662 29.457813 48.295323 0.906241 0.914797 0.120628 -0.029293 -169647.000000 0 0 1
-23.764013 -30.013872 28.015153 47.438482 0.901095 0.939047 0.085387 -0.026196 -64640.700000 0 0 1
-24.016913 -28.675582 27.681743 46.533644 0.873581 0.933685 0.069066 -0.033724 1417710.000000 0 0 1
-25.462673 -28.301262 27.074493 46.715493 0.838146 0.952606 0.071986 -0.022808 1005600.000000 0 0 1
-26.503803 -28.163522 28.049163 47.774377 0.815749 0.943303 0.098420 -0.019285 366320.000000 0 0 1
-27.333333 -29.276262 28.223943 48.997975 0.819706 0.956942 0.090086 -0.022813 -110881.000000 0 0 1
-28.346553 -29.569212 27.092623 49.110850 0.806506 0.986440 0.067570 -0.007729 -944333.000000 0 0 1
-27.707423 -29.943052 25.931713 48.339853 0.824158 1.004576 0.068517 -0.009754 36929.300000 0 0 1
-28.579953 -29.793392 24.791893 48.157013 0.806183 1.030006 0.063745 -0.008714 74789.800000 0 0 1
-27.899373 -30.048112 23.414753 47.217737 0.822462 1.051938 0.060530 -0.011470 -71500.700000 0 0 1
-27.082193 -28.868142 23.218643 45.890306 0.817308 1.040302 0.036080 -0.018698 596649.000000 0 0 1
-26.471223 -28.689672 21.929533 44.774181 0.825594 1.058958 0.061623 -0.023081 -945102.000000 0 0 1
-25.176443 -29.386722 21.655833 44.344197 0.862409 1.060589 0.062734 -0.025542 -1601770.000000 0 0 1
-25.283203 -30.679272 21.083333 44.999611 0.881524 1.083179 0.078530 -0.031059 708576.000000 0 0 1
-24.037313 -31.290732 20.730533 44.571934 0.915753 1.087046 0.073085 -0.013215 526359.000000 0 0 1
-23.254313 -31.986902 21.893233 45.202197 0.942182 1.065188 0.076119 -0.022245 -274122.000000 0 0 1
-22.750913 -31.086732 22.823353 44.776047 0.939011 1.035934 0.082672 -0.034687 -145196.000000 0 0 1
-21.961313 -31.844352 23.701763 45.366679 0.967054 1.021076 0.098175 -0.041537 -388437.000000 0 0 1
-21.299313 -31.062142 24.866043 45.131336 0.969732 0.987269 0.092935 -0.035556 -652508.000000 0 0 1
-20.088113 -30.468042 24.485623 43.947464 0.987899 0.979838 0.101943 -0.041566 -180390.000000 0 0 1
-19.396213 -29.890992 25.561673 43.852977 0.995196 0.948510 0.111103 -0.040983 84966.500000 0 0 1
-18.345813 -30.830002 26.203683 44.426241 1.034014 0.939955 0.103589 -0.057691 -629557.000000 0 0 1
-18.922913 -31.785352 27.044603 45.823529 1.033814 0.939502 0.126484 -0.057638 223746.000000 0 0 1
-18.111613 -32.040902 28.190653 46.361221 1.056309 0.917175 0.140905 -0.047684 129814.000000 0 0 1
-18.652913 -31.439342 29.556043 47.009819 1.035319 0.890889 0.152619 -0.041391 123298.000000 0 0 1
-18.397413 -30.037192 29.577083 45.994581 1.021245 0.872314 0.144222 -0.036060 212342.000000 0 0 1
-18.424113 -29.476662 30.870843 46.490111 1.012168 0.844600 0.143402 -0.029519 -223946.000000 0 0 1
-18.034913 -27.993702 30.835273 45.384132 0.998475 0.823813 0.143055 -0.028270 -456483.000000 0 0 1
-18.926513 -27.165762 30.166403 44.790662 0.962285 0.831866 0.125984 -0.026220 -269402.000000 0 0 1
-19.015313 -27.303702 28.767343 43.984478 0.962466 0.857891 0.117064 -0.027677 328355.000000 0 0 1
-17.740613 -26.960322 27.913873 42.670512 0.988799 0.857708 0.098425 -0.025569 517311.000000 0 0 1
-17.491613 -25.556882 27.821743 41.631240 0.970604 0.838889 0.080083 -0.016871 -390960.000000 0 0 1
-16.362213 -25.304662 27.051013 40.494508 0.996809 0.839256 0.077087 -0.020139 -611619.000000 0 0 1
-16.432013 -23.963222 26.313803 39.200297 0.969720 0.834882 0.052453 -0.011117 -980069.000000 0 0 1
-17.488713 -23.816522 25.433753 38.986633 0.937413 0.860088 0.075293 -0.021083 -556491.000000 0 0 1
-17.490313 -22.652122 24.602593 37.740128 0.913284 0.860716 0.072712 -0.029789 -203976.000000 0 0 1
-17.864213 -21.309422 25.296463 37.591656 0.873120 0.832637 0.067779 -0.019981 -292507.000000 0 0 1
-17.628213 -20.229622 24.361323 36.241765 0.854006 0.833635 0.073518 -0.023282 -10385.000000 0 0 1
-18.031513 -19.040922 24.944183 36.192602 0.812619 0.810403 0.072175 -0.015736 -177233.000000 0 0 1
-17.657413 -17.826122 24.100853 34.790889 0.790153 0.805522 0.073582 -0.030103 -694466.000000 0 0 1
-16.275113 -17.685722 24.086283 34.026652 0.826911 0.784325 0.073047 -0.030798 -895229.000000 0 0 1
-15.909713 -16.691422 23.153983 32.677660 0.809372 0.783345 0.085373 -0.029325 -86217.100000 0 0 1
-14.451713 -16.231422 23.280643 31.848067 0.843336 0.751024 0.106901 -0.041891 -343368.000000 0 0 1
-13.480713 -17.176922 22.853823 31.608124 0.905383 0.762609 0.085961 -0.038654 840417.000000 0 0 1
-12.131713 -16.684322 22.972473 30.875226 0.942092 0.731696 0.103123 -0.049156 497436.000000 0 0 1
-11.585913 -15.653222 21.954233 29.346977 0.933622 0.725614 0.124080 -0.052239 -635936.000000 0 0 1
-11.129513 -16.278422 20.742633 28.620096 0.971096 0.760114 0.153204 -0.051106 -196786.000000 0 0 1
-9.777713 -16.640622 20.914633 28.459372 1.039559 0.745285 0.139302 -0.049550 -671251.000000 0 0 1
-9.297213 -17.945822 20.274833 28.627950 1.092797 0.783825 0.127777 -0.044942 15194.200000 0 0 1
-9.063913 -17.749522 18.882633 27.454578 1.098660 0.812374 0.120555 -0.043281 -264817.000000 0 0 1
-8.631113 -18.983122 18.332133 27.765484 1.144063 0.849646 0.109173 -0.041242 273651.000000 0 0 1
-8.430613 -18.924722 16.814733 26.682496 1.151706 0.889013 0.099137 -0.045493 345693.000000 0 0 1
-7.244013 -18.241022 16.476333 25.625771 1.192769 0.872440 0.098477 -0.045121 -357556.000000 0 0 1
-7.353713 -17.714522 15.165933 24.451726 1.177321 0.901748 0.120380 -0.043287 706328.000000 0 1 0
-6.138913 -16.829922 14.706033 23.177574 1.221032 0.883443 0.091797 -0.046452 751293.000000 0 1 0
-6.281613 -15.650022 15.491133 22.898844 1.189100 0.827793 0.098527 -0.048151 69219.200000 0 1 0
-5.052513 -14.961322 15.517033 22.139272 1.245116 0.794162 0.068097 -0.027321 -519825.000000 0 1 0
-5.120913 -13.789722 16.504533 22.108364 1.215223 0.727967 0.046052 -0.022748 -312461.000000 0 1 0
-5.001513 -14.200122 17.876833 23.371772 1.232149 0.699926 0.074121 -0.022031 318926.000000 0 1 0
-5.983413 -15.029622 18.532333 24.599555 1.191922 0.717639 0.111121 -0.043588 206667.000000 0 1 0
-7.284613 -14.418022 19.062833 24.986727 1.102963 0.702981 0.149636 -0.055286 -76676.900000 0 1 0
-7.096513 -13.380822 20.000433 25.088328 1.083165 0.648152 0.140658 -0.055479 -601493.000000 0 0 1
-8.339413 -12.908722 20.411633 25.550257 0.997218 0.645363 0.144603 -0.041923 -249549.000000 0 0 1
-8.227013 -12.097322 21.766533 26.226149 0.973573 0.591769 0.137215 -0.029664 -321704.000000 0 0 1
-7.685613 -10.841822 21.424033 25.211167 0.954132 0.555222 0.102399 -0.024595 202325.000000 0 0 1
-7.177313 -10.035922 22.510043 25.669740 0.949967 0.501402 0.085150 -0.019460 131205.000000 0 0 1
-5.765213 -10.461422 22.948453 25.871036 1.067115 0.479918 0.090472 -0.017044 -401310.000000 0 0 1
-5.755013 -11.532322 23.843043 27.103603 1.107922 0.495565 0.109764 -0.019802 -33388.200000 0 0 1
-4.431713 -11.797922 24.260793 27.338930 1.211469 0.479104 0.089947 -0.012066 -18462.200000 0 0 1
-4.377213 -13.171622 24.984113 28.580719 1.249957 0.507094 0.109319 -0.024685 536128.000000 0 0 1
-3.026213 -13.478222 25.423983 28.934397 1.349933 0.497713 0.083860 -0.026325 1159960.000000 0 0 1
-3.032313 -14.704722 26.139853 30.144911 1.367433 0.521366 0.100284 -0.027947 121848.000000 0 0 1
-2.750213 -16.072422 25.443563 30.220213 1.401324 0.569930 0.122918 -0.057284 1223170.000000 0 0 1
-1.386813 -16.212522 24.956783 29.792786 1.485464 0.577777 0.104958 -0.058395 1173940.000000 0 0 1
-1.210213 -17.429822 24.321363 29.946485 1.501474 0.622950 0.129498 -0.058013 435181.000000 0 0 1
0.236387 -18.068122 24.378383 30.344991 -1.557714 0.637856 0.126985 -0.062570 1092790.000000 0 0 1
0.585487 -18.557422 25.673483 31.683567 -1.539257 0.626117 0.127330 -0.065728 23090.600000 0 0 1
1.072087 -17.587122 26.584023 31.893048 -1.509913 0.585318 0.127319 -0.063213 -372211.000000 0 0 1
1.652087 -18.151022 27.936403 33.356133 -1.480027 0.578069 0.103059 -0.056334 109358.000000 0 0 1
2.902887 -18.825522 27.787093 33.689012 -1.417802 0.600927 0.098578 -0.055460 754252.000000 0 0 1
3.724087 -18.941822 28.970893 34.813418 -1.376666 0.587776 0.106387 -0.066050 473101.000000 0 0 1
4.637387 -17.806122 29.395283 34.679187 -1.316018 0.559285 0.126767 -0.061499 -454254.000000 0 0 1
3.937987 -16.591122 29.599083 34.159607 -1.337754 0.522662 0.139563 -0.072819 -287675.000000 0 0 1
4.798387 -15.595322 30.027663 34.174539 -1.272308 0.497756 0.171427 -0.085624 -570612.000000 0 0 1
4.042487 -14.471322 30.678943 34.160773 -1.298395 0.455423 0.193962 -0.078940 270595.000000 0 0 1
3.273687 -14.924122 31.807574 35.286941 -1.354861 0.447809 0.171520 -0.078185 40506.900000 0 0 1
2.338887 -13.977922 32.252502 35.228917 -1.405005 0.414017 0.172484 -0.067518 204337.000000 0 0 1
1.353087 -14.583522 33.276540 36.357091 -1.478279 0.414620 0.159707 -0.061588 200560.000000 0 0 1
2.081087 -14.761522 -32.919282 36.137413 -1.430739 2.716371 0.177936 -0.058560 -404657.000000 0 0 1
1.334887 -15.107222 -31.801722 35.232934 -1.482664 2.696599 0.173376 -0.063531 -195009.000000 0 0 1
2.164787 -15.221922 -30.500852 34.156920 -1.429529 2.674681 0.160838 -0.047013 -76611.500000 0 0 1
1.504087 -15.957722 -29.550522 33.617623 -1.476819 2.644597 0.152122 -0.039806 -589533.000000 0 0 1
2.193687 -15.981022 -28.348292 32.616422 -1.434381 2.624260 0.140795 -0.039140 77756.600000 0 0 1
1.662187 -17.129822 -27.531632 32.468207 -1.474064 2.582915 0.142022 -0.041273 487871.000000 0 0 1
2.359787 -18.289322 -28.043602 33.563545 -1.442480 2.559907 0.123914 -0.037285 441028.000000 0 0 1
2.251287 -19.368722 -27.133922 33.413552 -1.455082 2.518476 0.116102 -0.043857 -98191.300000 0 0 1
3.264487 -20.521022 -27.534062 34.494838 -1.413038 2.495111 0.085641 -0.037126 700885.000000 0 0 1
4.640787 -20.399022 -27.249652 34.354047 -1.347103 2.486843 0.099735 -0.034716 70329.800000 0 0 1
5.011487 -20.222322 -25.879722 33.223747 -1.327871 2.463790 0.119929 -0.036286 -1147930.000000 0 0 1
6.484087 -20.563522 -25.629442 33.492837 -1.265345 2.442182 0.089364 -0.030736 -403864.000000 0 0 1
6.938387 -21.899122 -25.650632 34.433526 -1.263968 2.411229 0.075037 -0.015604 -1931.170000 0 0 1
7.067287 -22.560722 -26.894032 35.808124 -1.267223 2.420462 0.076040 -0.024867 -319892.000000 0 0 1
6.109587 -23.784422 -27.020062 36.511773 -1.319359 2.403922 0.061879 -0.022083 194918.000000 0 0 1
6.524787 -24.853322 -26.214982 36.708116 -1.314058 2.366201 0.069064 -0.010925 56723.200000 0 0 1
6.019387 -26.063902 -26.814612 37.875895 -1.343828 2.357402 0.076043 -0.010259 191113.000000 0 0 1
6.264687 -27.340002 -25.954162 38.214403 -1.345545 2.317431 0.085878 -0.019878 130611.000000 0 0 1
7.632387 -27.665542 -25.845012 38.621241 -1.301612 2.303917 0.085488 -0.027032 -229369.000000 0 0 1
7.817887 -28.906432 -25.180772 39.125088 -1.306661 2.269985 0.095095 -0.040627 319911.000000 0 0 1
9.322287 -29.295632 -25.084732 39.678494 -1.262714 2.255185 0.095895 -0.044537 137830.000000 0 0 1
9.937287 -29.359712 -26.314312 40.659383 -1.244433 2.274688 0.111219 -0.051920 -1221420.000000 0 0 1
11.265587 -29.720422 -26.165632 41.168644 -1.208478 2.259545 0.131862 -0.032171 -824823.000000 0 0 1
11.874187 -29.853062 -27.553792 42.325088 -1.192227 2.279702 0.125037 -0.049474 -52100.300000 0 0 1
11.369887 -30.968302 -28.276672 43.449744 -1.218929 2.279421 0.134238 -0.049514 492136.000000 0 0 1
12.204887 -31.090472 -29.427102 44.514392 -1.196720 2.293039 0.123126 -0.024180 339605.000000 0 0 1
-35.407947 -5.222522 -5.789832 36.256304 0.146440 1.731175 0.278967 -0.055151 88770.200000 0 0 1
-35.146537 -4.587922 -4.526032 35.732521 0.129803 1.697802 0.254138 -0.059793 53454.100000 0 0 1
-34.526649 -3.324222 -4.530832 34.980972 0.095984 1.700684 0.262312 -0.069184 -398066.000000 0 0 1
-35.246068 -2.129122 -5.161832 35.685613 0.060334 1.715953 0.261184 -0.049663 55865.300000 0 0 1
-36.353833 -1.705822 -4.358032 36.653833 0.046888 1.689975 0.189120 -0.038114 703538.000000 0 0 1
-37.187353 -0.769822 -5.033932 37.534415 0.020698 1.705317 0.176849 -0.037722 14669.800000 0 0 1
37.921681 -0.129122 -4.167032 38.150160 -0.003405 1.680242 0.163037 -0.026241 -247024.000000 0 0 1
-37.839533 0.647878 -3.080432 37.970239 -0.017120 1.652013 0.164995 -0.024102 -3208.250000 0 0 1
37.301851 1.444778 -2.553032 37.417020 0.038713 1.639081 0.148919 -0.024042 -603875.000000 0 0 1
37.734041 2.549378 -1.558232 37.852150 0.067459 1.611974 0.130216 -0.024514 59720.200000 0 0 1
-37.861013 3.734778 -2.002832 38.097457 -0.098326 1.623392 0.155602 -0.041088 247581.000000 0 0 1
-36.682033 3.621778 -2.778832 36.964993 -0.098415 1.646042 0.141557 -0.010955 -585918.000000 0 0 1
-35.932373 4.938378 -2.955132 36.390326 -0.136580 1.652092 0.128696 -0.015683 -91584.700000 0 0 1
-35.396916 5.394378 -1.722332 35.847000 -0.151233 1.618862 0.155135 -0.027211 467210.000000 0 0 1
-34.760406 6.696678 -1.809132 35.445794 -0.190321 1.621858 0.183418 -0.046789 45721.600000 0 0 1
-34.092159 7.160978 -0.522632 34.840035 -0.207038 1.585798 0.220541 -0.053932 -896751.000000 0 0 1
-32.767383 6.760378 -0.297132 33.458816 -0.203460 1.579677 0.257317 -0.045768 -27283.800000 0 0 1
-32.282973 7.108778 0.989968 33.071213 -0.216743 1.540857 0.305355 -0.061975 73228.900000 0 0 1
-32.028403 8.620178 1.259568 33.192056 -0.262912 1.532839 0.319451 -0.071781 -222771.000000 0 0 1
-33.288943 9.273478 1.351868 34.582924 -0.271687 1.531696 0.265768 -0.064008 392617.000000 0 0 1
-33.211403 10.633978 1.736368 34.915523 -0.309876 1.521045 0.290255 -0.053838 356293.000000 0 0 1
-34.643117 11.247178 1.762068 36.465730 -0.313923 1.522456 0.260634 -0.054884 -46927.700000 0 0 1
-35.194710 11.472878 0.461668 37.020368 -0.315121 1.558325 0.201953 -0.043328 442033.000000 0 0 1
-36.409383 12.190478 0.413868 38.398206 -0.323085 1.560018 0.186017 -0.023221 214954.000000 0 0 1
-37.725423 11.471978 0.772768 39.438699 -0.295206 1.551201 0.195210 -0.044453 -221154.000000 0 0 1
38.031621 10.549478 -0.247732 39.468431 0.270584 1.577073 0.188313 -0.036631 -778501.000000 0 0 1
36.777811 10.052378 0.052768 38.126899 0.266810 1.569412 0.175103 -0.043277 -612389.000000 0 0 1
36.306541 8.861778 -0.805532 37.381076 0.239401 1.592347 0.164250 -0.037116 118847.000000 0 0 1
35.958421 9.351578 -2.091632 37.213371 0.254430 1.627032 0.156208 -0.032358 4667.170000 0 0 1
35.753721 8.237478 -2.891332 36.804135 0.226443 1.649437 0.147728 -0.040245 -310786.000000 0 0 1
35.259371 8.709478 -4.263032 36.568452 0.242164 1.687639 0.116976 -0.030768 -543452.000000 0 0 1
33.891441 8.963478 -4.129132 35.299057 0.258556 1.688040 0.158597 -0.035976 -311866.000000 0 0 1
33.337201 9.518978 -5.299032 35.072206 0.278135 1.722466 0.127991 -0.018945 -486370.000000 0 0 1
31.873811 9.941878 -5.240632 33.797115 0.302351 1.726486 0.176147 -0.030778 -717789.000000 0 0 1
30.877401 8.990178 -5.344532 32.600632 0.283325 1.735479 0.202828 -0.028147 -385977.000000 0 0 1
29.669301 9.528678 -5.775532 31.692584 0.310757 1.754056 0.239829 -0.024933 -131343.000000 0 0 1
28.542901 8.510978 -6.154932 30.414094 0.289788 1.774575 0.270264 -0.018675 168246.000000 0 0 1
28.869501 7.732478 -7.322632 30.771094 0.261700 1.811073 0.252332 -0.023471 330286.000000 0 0 1
27.879101 6.750178 -7.618532 29.679137 0.237552 1.830399 0.316371 -0.017635 -1784.840000 0 0 1
28.231201 5.778278 -8.810532 30.133282 0.201889 1.867517 0.289241 -0.029013 -161255.000000 0 0 1
29.285901 4.915078 -8.446932 30.873494 0.166281 1.847928 0.253094 -0.028455 356265.000000 0 0 1
29.476601 3.971878 -9.390232 31.190099 0.133940 1.876605 0.234581 -0.025019 31711.900000 0 0 1
30.414901 2.778278 -8.970132 31.831561 0.091093 1.856466 0.185910 -0.019538 80176.000000 0 0 1
31.806131 3.076978 -9.058232 33.213692 0.096442 1.847021 0.139579 -0.012443 831910.000000 0 0 1
32.546271 2.466678 -7.995232 33.604583 0.075645 1.811021 0.123456 -0.016845 -106330.000000 0 0 1
32.533441 0.890078 -7.772532 33.460862 0.027352 1.805225 0.098773 -0.016318 -1158640.000000 0 0 1
31.364231 0.413178 -7.160332 32.173841 0.013173 1.795227 0.171799 -0.019002 -19314.500000 0 0 1
31.401081 -0.937922 -6.858532 32.155047 -0.029860 1.785743 0.166035 -0.021511 -386293.000000 0 0 1
31.051301 -1.925522 -7.972332 32.116180 -0.061932 1.821653 0.163682 -0.022200 -850048.000000 0 0 1
32.097411 -2.078522 -8.874432 33.366444 -0.064666 1.840005 0.145503 -0.021378 -86774.300000 0 0 1
31.913861 -3.236722 -9.642732 33.495569 -0.101075 1.862810 0.124120 -0.031605 -262011.000000 0 0 1
32.968401 -3.459422 -10.730332 34.842834 -0.104549 1.883848 0.148628 -0.030661 45964.600000 0 0 1
34.270741 -3.819322 -10.293032 35.986350 -0.110988 1.860873 0.174277 -0.025684 435110.000000 0 0 1
35.154281 -3.952822 -11.390732 37.164459 -0.111972 1.882305 0.190510 -0.048556 -934549.000000 0 0 1
36.595891 -4.246122 -11.088032 38.473799 -0.115511 1.863140 0.219222 -0.054174 -1192870.000000 0 0 1
36.763521 -5.399222 -10.333132 38.567884 -0.145821 1.842030 0.225401 -0.058425 1115750.000000 0 0 1
-38.052593 -5.631122 -9.990332 39.743127 0.146916 1.824894 0.242988 -0.056726 742519.000000 0 0 1
-37.871733 -6.890522 -9.116432 39.558271 0.179975 1.803342 0.254424 -0.066566 -217048.000000 0 0 1
37.952331 -6.670922 -7.738732 39.303544 -0.173994 1.768988 0.267209 -0.059683 488894.000000 0 0 1
37.390261 -7.840022 -7.170332 38.870441 -0.206687 1.756326 0.269240 -0.057646 -639248.000000 0 0 1
36.652711 -7.458522 -5.874732 37.862425 -0.200751 1.726586 0.249988 -0.055444 -854106.000000 0 0 1
37.367241 -7.098422 -4.726132 38.327987 -0.187727 1.694419 0.286785 -0.055959 235624.000000 0 0 1
37.927441 -8.119422 -3.894232 38.981801 -0.210895 1.670862 0.287965 -0.046802 -292688.000000 0 0 1
-37.113053 -9.030022 -4.305032 38.437655 0.238673 1.683032 0.286153 -0.050924 -813617.000000 0 0 1
-37.535853 -9.937722 -5.281932 39.186699 0.258815 1.705997 0.269507 -0.045675 157723.000000 0 0 1
-36.566383 -10.856222 -5.720932 38.570546 0.288602 1.719670 0.216012 -0.037794 -358049.000000 0 0 1
-37.039523 -11.710322 -6.912932 39.456895 0.306213 1.746907 0.227379 -0.030838 -25551.400000 0 0 1
-36.998613 -10.940222 -8.071332 39.417410 0.287501 1.777021 0.201538 -0.041366 422419.000000 0 0 1
-37.591763 -11.725522 -9.125732 40.421622 0.302354 1.798523 0.213973 -0.033263 105359.000000 0 0 1
-37.658063 -10.840622 -10.415032 40.547771 0.280291 1.830566 0.209307 -0.046685 -346892.000000 0 0 1
37.511571 -9.891222 -10.472632 40.182462 -0.257816 1.834468 0.200626 -0.054271 -65018.100000 0 0 1
37.424721 -9.225022 -11.760032 40.298996 -0.241678 1.866925 0.181008 -0.053681 -576399.000000 0 0 1
36.298441 -8.248622 -12.035932 39.121353 -0.223450 1.883525 0.185049 -0.052005 -639683.000000 0 0 1
36.397201 -7.765222 -13.325932 39.530183 -0.210195 1.914639 0.185580 -0.050583 384208.000000 0 0 1
35.201121 -7.134122 -13.728232 38.450994 -0.199959 1.935885 0.155641 -0.050399 -203973.000000 0 0 1
35.273331 -6.167722 -14.939432 38.799939 -0.173105 1.966045 0.149138 -0.047781 -199414.000000 0 0 1
36.095481 -5.066422 -14.625332 39.274072 -0.139451 1.952381 0.141252 -0.030963 274814.000000 0 0 1
36.543951 -4.376122 -15.773432 40.042627 -0.119182 1.975685 0.164888 -0.039543 -439246.000000 0 0 1
37.810781 -3.557922 -15.596232 41.055528 -0.093822 1.960464 0.160207 -0.029152 -862698.000000 0 0 1
-37.658903 -3.279522 -16.758832 41.349809 0.086866 1.988097 0.173207 -0.032962 -6127.010000 0 0 1
-36.426863 -2.621622 -16.580532 40.108644 0.071846 1.996971 0.196788 -0.026129 -262689.000000 0 0 1
-36.437423 -1.140822 -16.285532 39.927507 0.031299 1.990925 0.179106 -0.022084 -438514.000000 0 0 1
-36.878763 -0.300722 -17.335932 40.751296 0.008154 2.010209 0.159521 -0.023550 307654.000000 0 0 1
-36.636163 1.032278 -16.877432 40.349991 -0.028169 2.002343 0.156064 -0.024829 -58866.600000 0 0 1
-36.896603 2.140878 -17.878732 41.055959 -0.057959 2.021359 0.137582 -0.027922 -447737.000000 0 0 1
-36.051173 2.124378 -18.959932 40.788222 -0.058859 2.054248 0.139041 -0.022490 -208157.000000 0 0 1
-35.997283 3.415278 -19.524632 41.093549 -0.094593 2.065904 0.131042 -0.021429 -369333.000000 0 0 1
-35.089567 3.543878 -20.739732 40.914219 -0.100654 2.102390 0.130872 -0.014369 -397065.000000 0 0 1
-33.708403 3.597578 -20.471532 39.601548 -0.106324 2.114066 0.130534 -0.020234 183418.000000 0 0 1
-32.958153 4.042978 -21.589232 39.606571 -0.122060 2.147295 0.114611 -0.017808 51492.400000 0 0 1
-31.542573 4.487478 -21.189832 38.263303 -0.141319 2.157705 0.129093 -0.022544 1008130.000000 0 0 1
-30.592693 3.480178 -20.677032 37.088599 -0.113272 2.162172 0.131669 -0.008015 709300.000000 0 0 1
-29.269793 3.690678 -21.087532 36.263286 -0.125430 2.191382 0.098667 0.001285 -363466.000000 0 0 1
-28.324933 2.611778 -20.555832 35.095092 -0.091948 2.196562 0.120375 -0.003767 -271348.000000 0 0 1
-28.031813 2.954078 -19.220632 34.116592 -0.104996 2.169268 0.119674 0.001879 -268479.000000 0 0 1
-27.383763 1.875078 -18.611932 33.163088 -0.068367 2.166661 0.111981 -0.002736 -261495.000000 0 0 1
-26.590213 2.265178 -17.348432 31.829838 -0.084983 2.147229 0.094145 -0.007583 -601607.000000 0 0 1
-25.388633 2.889978 -17.614432 31.035510 -0.113342 2.174332 0.077946 -0.011816 -600246.000000 0 0 1
-24.679213 3.191278 -16.429532 29.819077 -0.128597 2.154327 0.097580 -0.024918 -85177.400000 0 0 1
-23.534813 4.210178 -16.540732 29.072476 -0.177019 2.176023 0.122016 -0.024325 -676015.000000 0 0 1
-22.415613 3.703478 -17.136032 28.457320 -0.163739 2.217008 0.161049 -0.041954 -848820.000000 0 0 1
-21.266613 4.510878 -17.102732 27.660808 -0.209013 2.237377 0.158143 -0.045381 -36380.400000 0 0 1
-20.036513 3.915878 -17.820032 27.098884 -0.193004 2.288415 0.224816 -0.057469 -162662.000000 0 0 1
-19.625613 2.815978 -17.032832 26.138320 -0.142512 2.280544 0.272458 -0.065919 -423895.000000 0 0 1
-18.497813 2.155978 -17.513432 25.564382 -0.116030 2.325498 0.218015 -0.063512 -923464.000000 0 0 1
-18.261913 0.755778 -16.947532 24.925640 -0.041362 2.318455 0.242060 -0.058893 259399.000000 0 1 0
-19.187513 -0.264122 -17.336332 25.860759 0.013764 2.305507 0.202157 -0.049120 -13507.600000 0 0 1
-20.447313 -0.126222 -16.735832 26.423411 0.006173 2.256698 0.194588 -0.054573 -296805.000000 0 0 1
-21.531613 -1.120622 -17.259532 27.618067 0.051999 2.245846 0.162026 -0.053393 87132.700000 0 0 1
-21.354513 -2.407722 -16.778832 27.264291 0.112276 2.233708 0.158511 -0.048110 1099110.000000 0 0 1
-22.468313 -3.257122 -17.162532 28.460261 0.143962 2.218097 0.135723 -0.032357 787268.000000 0 0 1
-22.873713 -4.201222 -16.008532 28.233493 0.181646 2.173662 0.148672 -0.040416 -92653.500000 0 0 1
-23.392813 -3.551822 -14.888732 27.955563 0.150683 2.132449 0.146845 -0.040682 257791.000000 0 0 1
-23.655013 -4.474622 -13.831932 27.765162 0.186953 2.092290 0.157816 -0.052898 -360089.000000 0 0 1
-23.896013 -3.751422 -12.500932 27.228035 0.155718 2.047801 0.172534 -0.058205 -511682.000000 0 0 1
-25.113953 -3.078422 -12.423632 28.187479 0.121970 2.027230 0.159065 -0.038556 -138824.000000 0 0 1
-25.102863 -2.387922 -11.179632 27.583330 0.094840 1.988108 0.180019 -0.051920 -511223.000000 0 0 1
-26.317733 -1.538622 -10.811932 28.493654 0.058397 1.959999 0.190325 -0.055898 -533915.000000 0 0 1
-26.332573 -1.395022 -9.410032 27.998200 0.052928 1.913563 0.187714 -0.071637 606343.000000 0 0 1
-27.021553 -0.220222 -8.960832 28.469446 0.008150 1.890992 0.186478 -0.073131 -130127.000000 0 0 1
-26.906923 0.045678 -7.466732 27.923766 -0.001698 1.841487 0.211983 -0.069430 359290.000000 0 0 1
-25.592983 0.441278 -7.055232 26.551305 -0.017240 1.839748 0.208921 -0.071661 898069.000000 0 0 1
-25.580153 0.638278 -5.651332 26.204755 -0.024947 1.788165 0.212205 -0.072404 326179.000000 0 0 1
-24.206013 1.251478 -5.234832 24.797192 -0.051655 1.783503 0.157869 -0.062152 434423.000000 0 1 0
-24.096413 2.647078 -5.471732 24.851237 -0.109415 1.792795 0.211204 -0.056050 896030.000000 0 1 0
-22.710513 2.972578 -5.643232 23.589186 -0.130150 1.812369 0.202634 -0.037142 642888.000000 0 1 0
-22.436413 4.507878 -5.861632 23.623554 -0.198278 1.821542 0.200089 -0.034496 -422817.000000 0 1 0
-22.523713 5.174378 -4.614032 23.566526 -0.225812 1.767857 0.187765 -0.032243 544342.000000 0 1 0
-22.372113 6.573578 -4.807632 23.808332 -0.285786 1.774125 0.177085 -0.031317 -639455.000000 0 1 0
-22.776113 7.558278 -3.703732 24.281609 -0.320416 1.723926 0.201600 -0.031662 -466694.000000 0 1 0
-22.120213 7.571178 -2.447932 23.507848 -0.329776 1.675118 0.171398 -0.032181 760259.000000 0 1 0
-20.786713 8.075578 -2.376132 22.426511 -0.370551 1.676948 0.179623 -0.030816 -226162.000000 0 1 0
-20.443213 9.559178 -2.669632 22.725091 -0.437391 1.688543 0.167675 -0.032384 -721598.000000 0 1 0
-20.479313 9.867678 -4.035432 23.088050 -0.449011 1.746483 0.148825 -0.023501 474529.000000 0 1 0
-20.240613 11.237978 -4.155732 23.521154 -0.506841 1.748409 0.161456 -0.022892 -70263.600000 0 1 0
-19.981713 11.742678 -5.605932 23.845038 -0.531305 1.808116 0.137743 -0.027201 -174986.000000 0 1 0
-18.740013 11.374678 -6.156032 22.769895 -0.545531 1.844562 0.088041 -0.020614 -94741.700000 0 1 0
-18.686913 11.762178 -7.491532 23.316788 -0.561781 1.897891 0.093443 -0.017273 -265393.000000 0 1 0
-17.289813 11.668578 -8.112032 22.380760 -0.593668 1.941698 0.061541 -0.004806 -770604.000000 0 1 0
-16.717513 10.353978 -8.289132 21.339864 -0.554525 1.969728 0.019819 0.004442 342092.000000 0 1 0
-17.399713 9.392978 -9.095732 21.764889 -0.495006 2.001938 0.045739 -0.011122 -520712.000000 0 1 0
-17.670513 9.669478 -10.587432 22.756088 -0.500699 2.054721 0.052678 -0.015497 234610.000000 0 1 0
-16.548413 9.755878 -11.472032 22.374867 -0.532690 2.109146 0.052104 -0.016835 345117.000000 0 1 0
-16.931613 10.314378 -12.691932 23.540413 -0.547141 2.140230 0.085288 -0.022274 -103741.000000 0 1 0
-15.983313 9.983978 -13.859032 23.392710 -0.558348 2.204894 0.065662 -0.009255 -296619.000000 0 1 0
-15.913013 8.689578 -14.452432 23.186322 -0.499819 2.243774 0.094487 -0.027719 116500.000000 0 1 0
-15.519413 7.597778 -13.643832 22.016643 -0.455266 2.239164 0.073862 -0.025044 -353032.000000 0 1 0
-15.728113 6.234278 -14.396932 22.215117 -0.377380 2.275843 0.101217 -0.031705 52861.000000 0 1 0
-14.920413 6.130578 -15.557632 22.410771 -0.389855 2.338109 0.133878 -0.031411 411360.000000 0 1 0
-14.957413 4.861478 -16.109732 22.514032 -0.314251 2.368196 0.143572 -0.042529 77266.600000 0 1 0
33.484721 -15.926422 27.602673 46.225371 -0.443964 0.930875 0.079677 -0.014217 -196038.000000 0 0 1
33.210131 -14.560722 27.902093 45.754280 -0.413201 0.914957 0.110125 -0.013986 28190.600000 0 0 1
32.214601 -14.398222 28.908093 45.615426 -0.420312 0.884424 0.112885 -0.018616 132420.000000 0 0 1
32.663651 -14.447922 30.382333 46.890752 -0.416452 0.865921 0.094615 -0.025557 -60226.600000 0 0 1
33.195901 -13.230622 30.884133 47.231841 -0.379266 0.858090 0.087649 -0.027994 107621.000000 0 0 1
33.366191 -13.309122 32.263212 48.284058 -0.379541 0.839015 0.073730 -0.025773 -318730.000000 0 0 1
33.829641 -11.977622 32.885912 48.676393 -0.340285 0.829014 0.087201 -0.027360 -35774.400000 0 0 1
33.909381 -11.941222 -33.111362 48.875364 -0.338590 2.315107 0.070674 -0.040214 177871.000000 0 0 1
34.132521 -10.576522 -32.702532 48.439110 -0.300484 2.311933 0.111260 -0.033036 -22636.300000 0 0 1
33.472571 -10.309622 -31.314442 46.981865 -0.298782 2.300330 0.111974 -0.035697 -914217.000000 0 0 1
32.106601 -10.460822 -31.305392 46.046609 -0.314969 2.318372 0.172246 -0.037882 -1078980.000000 0 0 1
31.519331 -9.849622 -30.215392 44.759951 -0.302880 2.311834 0.156606 -0.041256 -541616.000000 0 0 1
30.255601 -10.540022 -29.705212 43.690881 -0.335218 2.318416 0.142597 -0.038770 -395745.000000 0 0 1
29.759701 -10.014022 -28.504232 42.407684 -0.324594 2.307902 0.129666 -0.036441 -157465.000000 0 0 1
28.641801 -10.736222 -28.083342 41.524611 -0.358634 2.313533 0.144230 -0.030458 -504801.000000 0 0 1
28.044001 -10.283222 -26.686042 40.054407 -0.351458 2.299958 0.129017 -0.023018 -225920.000000 0 0 1
27.253401 -9.099022 -26.555622 39.124687 -0.322231 2.316846 0.111868 -0.021799 909804.000000 0 0 1
26.074201 -8.952422 -27.344242 38.829337 -0.330733 2.352115 0.097433 -0.026238 1109710.000000 0 0 1
24.846401 -9.938422 -27.155362 38.125183 -0.380502 2.363521 0.101747 -0.008014 114984.000000 0 0 1
25.196001 -11.252522 -27.523932 38.974666 -0.420022 2.354914 0.107440 -0.016953 -384563.000000 0 0 1
24.130301 -12.132422 -27.326572 38.421461 -0.465875 2.362046 0.091844 -0.031254 -804255.000000 0 0 1
24.375601 -13.624022 -27.648732 39.296772 -0.509666 2.351230 0.107697 -0.009700 -52968.200000 0 0 1
24.539101 -13.953722 -29.025302 40.488789 -0.517036 2.370103 0.112722 -0.022190 -337975.000000 0 0 1
25.828601 -13.697922 -29.483822 41.521626 -0.487623 2.360413 0.095216 -0.015336 -716034.000000 0 0 1
25.983001 -13.609222 -31.003292 42.679402 -0.482485 2.383899 0.099951 -0.018448 -121252.000000 0 0 1
25.661401 -14.889922 -31.635882 43.371031 -0.525768 2.388276 0.100994 -0.009062 216323.000000 0 0 1
26.254701 -15.172822 -32.924712 44.761150 -0.524018 2.397296 0.106383 -0.004931 140135.000000 0 0 1
25.959401 -14.140622 33.290743 44.521020 -0.498781 0.726124 0.066140 -0.010163 169859.000000 0 0 1
24.670901 -14.211022 32.686772 43.347797 -0.522603 0.716577 0.068977 -0.002567 166140.000000 0 0 1
24.658301 -13.228722 31.613659 42.219122 -0.492405 0.724547 0.057249 -0.006516 -831145.000000 0 0 1
23.984301 -11.859922 31.922719 41.652904 -0.459227 0.697581 0.073960 -0.019414 77848.000000 0 0 1
22.568901 -11.766922 31.963495 40.859279 -0.480603 0.672475 0.069550 -0.009208 461494.000000 0 0 1
21.924701 -11.970422 30.731643 39.603249 -0.499751 0.682516 0.055068 -0.008330 -892064.000000 0 0 1
20.404301 -12.112422 30.913043 38.970020 -0.535716 0.654665 0.086611 -0.008943 -132480.000000 0 0 1
19.655801 -10.898922 30.995843 38.286803 -0.506283 0.627377 0.083546 -0.011163 -721838.000000 0 0 1
18.686001 -11.172022 31.948262 38.660990 -0.538861 0.598167 0.092716 -0.006898 -683479.000000 0 0 1
17.726301 -9.984622 32.193851 38.083572 -0.512971 0.563581 0.112967 -0.012074 -83134.100000 0 0 1
16.793501 -9.884322 31.104883 36.704703 -0.531980 0.559660 0.149006 -0.012720 892940.000000 0 0 1
15.916101 -8.693622 31.216583 36.102304 -0.499933 0.526303 0.146616 -0.012264 1713860.000000 0 0 1
14.680301 -8.815022 32.186724 36.458209 -0.540762 0.488924 0.157154 -0.013197 187588.000000 0 0 1
13.706301 -9.820022 31.834211 36.023776 -0.621688 0.487087 0.153105 -0.017241 135472.000000 0 0 1
12.668601 -9.897722 32.760372 36.492469 -0.663222 0.456208 0.129467 -0.015786 497496.000000 0 0 1
11.398901 -9.048422 32.339579 35.463463 -0.670948 0.422876 0.132457 -0.019762 144552.000000 0 0 1
11.676001 -7.645022 32.197426 35.092016 -0.579717 0.409012 0.135639 -0.023993 711649.000000 0 0 1
10.466201 -6.911022 31.964545 34.337089 -0.583595 0.373915 0.138659 -0.024844 548384.000000 0 0 1
10.774701 -5.431022 31.825608 34.036149 -0.466885 0.362387 0.120108 -0.025958 122556.000000 0 0 1
11.299201 -4.766922 32.973465 35.180177 -0.399226 0.356070 0.112359 -0.020328 288428.000000 0 0 1
11.507701 -3.357122 32.704934 34.832601 -0.283851 0.351326 0.068715 -0.017219 -220933.000000 0 0 1
11.335401 -2.365822 -33.478892 35.424916 -0.205757 2.808594 0.057299 -0.018000 -762467.000000 0 0 1
10.009001 -2.229522 -33.094962 34.647185 -0.219173 2.841128 0.059111 -0.003856 -749492.000000 0 0 1
9.866701 -1.377522 -31.989372 33.504765 -0.138717 2.839684 0.060008 -0.007383 -621772.000000 0 0 1
8.405401 -1.124422 -31.681812 32.797139 -0.132984 2.880054 0.089701 -0.008634 -795955.000000 0 0 1
7.760601 -0.195422 -32.539062 33.452290 -0.025176 2.907394 0.086913 -0.007854 967724.000000 0 0 1
6.372701 -0.119222 -32.117682 32.744023 -0.018706 2.945686 0.102322 -0.007563 913406.000000 0 0 1
5.665601 1.004278 -32.913572 33.412735 0.175437 2.968523 0.122568 -0.016130 -203978.000000 0 0 1
6.136201 2.358678 -32.804412 33.456626 0.366975 2.943815 0.090408 -0.017320 25953.100000 0 0 1
5.594401 3.149678 33.541283 34.150189 0.512773 0.189122 0.105516 -0.014783 -102342.000000 0 0 1
6.168601 4.551378 33.560993 34.425382 0.635667 0.224566 0.082436 -0.023413 -319970.000000 0 0 1
5.717401 5.274078 32.509943 33.427547 0.745087 0.234849 0.098355 -0.038027 300122.000000 0 0 1
6.588601 6.386578 32.226590 33.507478 0.769829 0.277391 0.094584 -0.042814 342957.000000 0 0 1
5.938301 7.437378 31.222493 32.640803 0.897007 0.295873 0.125733 -0.041691 -305724.000000 0 0 1
4.928501 8.138978 31.926655 33.314326 1.026311 0.289642 0.137245 -0.044143 -24211.100000 0 0 1
4.522401 9.344178 31.384700 33.056998 1.120046 0.319439 0.155610 -0.054421 -65487.300000 0 0 1
4.056601 9.404578 29.891623 31.597645 1.163565 0.330106 0.148930 -0.057682 -721864.000000 0 0 1
2.984701 8.574178 29.579393 30.941322 1.235812 0.297803 0.146780 -0.050122 -581316.000000 0 0 1
2.535301 8.807278 28.244903 29.694619 1.290510 0.313762 0.117678 -0.037548 248890.000000 0 0 1
1.268501 7.988478 27.902833 29.051557 1.413320 0.282150 0.109876 -0.034067 1475470.000000 0 0 1
0.002501 8.535978 28.386483 29.642121 1.570503 0.292104 0.121173 -0.033539 1065640.000000 0 0 1
-1.079299 8.088878 27.610043 28.790785 -1.438150 0.287383 0.116470 -0.030921 -119701.000000 0 0 1
-2.504899 8.281578 28.110133 29.411539 -1.277078 0.298591 0.113081 -0.028946 -257330.000000 0 0 1
-2.806699 9.608978 28.472673 30.181171 -1.286611 0.338084 0.120575 -0.029157 -879066.000000 0 0 1
-4.128699 9.627778 28.890153 30.730786 -1.165684 0.347859 0.098791 -0.017743 -1264280.000000 0 0 1
-4.609399 11.008978 29.509743 31.831887 -1.174279 0.384330 0.088660 -0.010538 -126402.000000 0 0 1
-4.916599 12.130178 28.675543 31.521436 -1.185712 0.428198 0.071207 -0.013233 -414018.000000 0 0 1
-6.054699 11.890378 27.929833 30.953449 -1.099808 0.445681 0.063992 -0.014643 -925645.000000 0 0 1
-6.631999 13.187778 27.209003 30.955302 -1.104840 0.497083 0.053494 -0.006093 -580751.000000 0 0 1
-5.779599 13.877978 26.376153 30.359570 -1.176183 0.518039 0.061656 -0.013763 -341946.000000 0 0 1
-6.211199 15.214678 26.175603 30.906756 -1.183209 0.560627 0.043209 -0.007960 545888.000000 0 0 1
-4.953899 16.014578 25.716153 30.697367 -1.270796 0.577680 0.086799 -0.014738 632674.000000 0 0 1
-4.573499 15.768078 24.382043 29.394441 -1.288495 0.592624 0.075422 -0.000705 340825.000000 0 0 1
-3.473799 16.573878 23.941003 29.324603 -1.364192 0.615624 0.094596 -0.012293 434745.000000 0 0 1
-3.134099 16.504178 22.452933 28.041837 -1.383133 0.642343 0.093876 -0.019873 -155764.000000 0 0 1
-2.406799 15.351478 22.097133 27.013771 -1.415283 0.612879 0.071231 -0.017465 -31058.700000 0 0 1
-2.236599 15.390578 20.651933 25.852941 -1.426484 0.645460 0.063880 -0.019468 -472250.000000 0 0 1
-1.344599 14.311578 20.118133 24.725866 -1.477119 0.620398 0.056700 -0.017333 -937340.000000 0 1 0
-1.762899 12.960078 20.203133 24.067364 -1.435601 0.574542 0.052535 -0.014226 -16863.100000 0 1 0
-0.963299 12.083478 19.397833 22.873878 -1.491244 0.558531 0.042225 -0.010345 67837.800000 0 1 0
-1.726099 10.789078 18.905833 21.836074 -1.412155 0.524035 0.023031 -0.019602 -136143.000000 0 1 0
-1.848599 9.692078 19.849933 22.166946 -1.382327 0.461301 0.040186 -0.032323 66464.900000 0 1 0
-2.632599 9.870878 21.010733 23.362699 -1.310159 0.452566 0.060437 -0.022324 311953.000000 0 1 0
-4.185899 9.881378 20.945433 23.534539 -1.170099 0.473480 0.046637 -0.014526 129973.000000 0 1 0
-4.756199 8.623678 20.722033 22.943232 -1.066781 0.443659 0.042077 -0.017372 -42477.500000 0 1 0
-6.157999 8.798278 20.853833 23.456619 -0.960131 0.475556 0.036480 -0.008934 40312.200000 0 1 0
-7.003999 7.542278 20.964933 23.355307 -0.822386 0.456384 0.037596 -0.007523 -261780.000000 0 1 0
-6.860099 6.917778 22.219133 24.261213 -0.789584 0.413228 0.049814 -0.013142 419718.000000 0 1 0
-7.663699 5.721878 22.296293 24.261015 -0.641335 0.405216 0.049819 -0.012665 430044.000000 0 1 0
-7.754099 4.916178 23.585663 25.309649 -0.565052 0.371223 0.057021 -0.017844 -193740.000000 0 0 1
-8.482999 5.601578 24.565843 26.586079 -0.583603 0.392354 0.053565 -0.013942 -103697.000000 0 0 1
-9.013999 4.760878 25.575083 27.531854 -0.485925 0.379292 0.050979 -0.004005 161577.000000 0 0 1
-10.078699 5.509578 26.425303 28.813751 -0.500272 0.410034 0.057987 0.000896 -89288.300000 0 0 1
-9.547599 6.479678 27.315593 29.652731 -0.596267 0.399687 0.056407 -0.014504 -123690.000000 0 0 1
-10.507199 7.098078 28.137543 30.862684 -0.594123 0.423391 0.072260 -0.012467 -228913.000000 0 0 1
-9.931999 8.174878 29.059883 31.779711 -0.688659 0.416733 0.082842 -0.009919 -85977.900000 0 0 1
-8.931299 7.630578 29.880523 32.106689 -0.707022 0.374574 0.091405 -0.011847 -57109.600000 0 0 1
-8.296499 8.652378 30.621553 32.884267 -0.806392 0.373128 0.094012 -0.013552 536429.000000 0 0 1
-7.301899 8.167178 31.758345 33.594836 -0.841276 0.332179 0.134031 -0.018535 123476.000000 0 0 1
-6.082199 7.735878 31.255303 32.767833 -0.904507 0.305020 0.127004 -0.026040 -587666.000000 0 0 1
-5.244599 7.205578 32.303675 33.510499 -0.941621 0.269190 0.152724 -0.021188 895604.000000 0 0 1
-3.728199 7.244678 31.926542 32.949793 -1.095527 0.249868 0.121640 -0.020370 482799.000000 0 0 1
-3.253899 8.572178 31.959947 33.249185 -1.208009 0.279386 0.099366 -0.032992 303222.000000 0 0 1
-1.856199 8.555578 31.648440 32.836978 -1.357150 0.269873 0.099857 -0.033263 811342.000000 0 0 1
-1.308599 9.980378 31.278663 32.858410 -1.440423 0.311344 0.101243 -0.032705 -148254.000000 0 0 1
-1.534499 10.964278 32.262150 34.108890 -1.431745 0.330570 0.115354 -0.046344 146825.000000 0 0 1
-1.616399 12.213978 31.660663 33.973395 -1.439221 0.371111 0.113934 -0.045541 -185511.000000 0 0 1
-1.886899 13.436878 32.570535 35.283846 -1.431282 0.394730 0.105893 -0.047829 -500899.000000 0 0 1
-0.733999 13.837778 33.253895 36.025607 -1.517803 0.394828 0.161228 -0.056713 -192976.000000 0 0 1
-1.004199 14.811478 -33.152142 36.324273 -1.503101 2.720571 0.146530 -0.060424 741652.000000 0 0 1
0.364401 15.112278 -32.437412 35.786862 1.546688 2.705492 0.130441 -0.059739 535590.000000 0 0 1
1.208601 15.907878 -33.245562 36.875313 1.494967 2.694174 0.154053 -0.061393 -357357.000000 0 0 1
2.431001 16.050878 -32.574042 36.395174 1.420483 2.679250 0.176454 -0.060808 -397959.000000 0 0 1
3.566501 16.646678 -33.411402 37.498715 1.359740 2.670342 0.181434 -0.041889 -80862.000000 0 0 1
3.306801 17.955978 33.560313 38.205322 1.388675 0.498251 0.156803 -0.033746 -139462.000000 0 0 1
4.498101 18.542778 33.084076 38.191931 1.332814 0.523133 0.128229 -0.003551 257385.000000 0 0 1
4.329501 20.031278 32.926415 38.783314 1.357934 0.556737 0.118665 -0.012891 32331.100000 0 0 1
4.317801 20.761778 -33.241752 39.429798 1.365750 2.573747 0.143016 -0.038992 131706.000000 0 0 1
3.686601 22.026878 -33.311802 40.105493 1.404965 2.550989 0.117645 -0.025300 63590.500000 0 0 1
3.843501 22.776378 -31.960692 39.433764 1.403622 2.515785 0.121670 -0.033611 -17873.500000 0 0 1
3.404001 24.114778 -31.819382 40.069725 1.430565 2.488322 0.118523 -0.029782 104291.000000 0 0 1
3.270401 24.559778 -30.486552 39.284960 1.438414 2.459153 0.127133 -0.030393 78056.000000 0 0 1
2.821101 26.054778 -30.441152 40.168070 1.462941 2.430799 0.140403 -0.041229 189828.000000 0 0 1
3.943901 26.907778 -30.512472 40.872899 1.425262 2.413614 0.154296 -0.041154 54921.700000 0 0 1
3.568401 28.256478 -30.444822 41.689918 1.445175 2.389511 0.140988 -0.044896 31331.700000 0 0 1
4.757001 29.238678 -30.249552 42.338691 1.409514 2.366657 0.157376 -0.054541 436553.000000 0 0 1
5.361701 29.082078 -28.939412 41.376378 1.388479 2.345380 0.145405 -0.063357 -131190.000000 0 0 1
6.244601 30.127678 -28.686442 42.066424 1.366419 2.321197 0.150499 -0.066020 -880245.000000 0 0 1
7.340901 29.916178 -27.667952 41.405098 1.330168 2.302618 0.169115 -0.063725 -651584.000000 0 0 1
8.451001 29.289078 -28.289852 41.588283 1.289888 2.318881 0.177533 -0.063888 321799.000000 0 0 1
9.749101 29.795978 -28.022362 42.048758 1.254580 2.300200 0.173342 -0.057659 424445.000000 0 0 1
10.125401 31.181578 -28.671992 43.553389 1.256814 2.289379 0.179672 -0.062714 -629831.000000 0 0 1
9.309701 32.219478 -28.147022 43.783789 1.289511 2.269028 0.177170 -0.062296 144346.000000 0 0 1
9.410401 33.522278 -28.754962 45.156911 1.297119 2.261110 0.167576 -0.058839 87949.000000 0 0 1
8.324701 -33.555993 -29.834262 45.666055 -1.327622 2.282750 0.145489 -0.038931 541576.000000 0 0 1
8.553801 33.076078 -30.992032 46.127004 1.317731 2.307547 0.137112 -0.035333 -319185.000000 0 0 1
7.369701 32.908678 -31.713732 46.293136 1.350487 2.325487 0.109969 -0.027740 -378234.000000 0 0 1
7.493301 32.161378 -33.036172 46.710732 1.341889 2.356397 0.133238 -0.040347 -72651.400000 0 0 1
7.508701 32.986578 33.231536 47.421829 1.346981 0.794328 0.154306 -0.042967 -46845.800000 0 0 1
7.351501 32.213178 32.059235 46.038331 1.346425 0.800484 0.127771 -0.039718 -214444.000000 0 0 1
7.082901 33.023078 30.791093 45.703200 1.359514 0.831567 0.128700 -0.056676 16099.900000 0 0 1
8.162101 33.367778 29.951033 45.575134 1.330897 0.853726 0.127190 -0.056861 -67150.000000 0 0 1
7.653501 -33.465793 28.798663 44.809579 -1.345967 0.872792 0.110009 -0.064789 -96511.200000 0 0 1
19.235387 -21.476222 28.557593 40.580344 -0.840384 0.790163 0.141702 -0.020539 -824818.000000 0 0 1
18.180487 -20.564522 28.550443 39.605018 -0.846852 0.765726 0.154655 -0.019864 899094.000000 0 0 1
16.903387 -21.157022 28.952953 39.643632 -0.896696 0.751991 0.162650 -0.018558 1356140.000000 0 0 1
16.676287 -21.495122 30.428363 40.816958 -0.910976 0.729537 0.131898 -0.029801 -455350.000000 0 0 1
17.515087 -22.551322 30.890953 42.066511 -0.910440 0.746108 0.132339 -0.033991 371152.000000 0 0 1
17.130087 -22.923122 32.212641 43.087859 -0.929036 0.726350 0.125020 -0.026741 173193.000000 0 0 1
18.041087 -24.030222 32.782343 44.470376 -0.926805 0.741920 0.121058 -0.031909 167879.000000 0 0 1
17.620587 -25.373702 32.510820 44.847110 -0.963810 0.759870 0.147969 -0.038887 217428.000000 0 0 1
18.443787 -26.227052 33.298403 46.225698 -0.957902 0.766498 0.143093 -0.042860 174280.000000 0 0 1
18.092887 -27.684232 33.115629 46.801860 -0.991933 0.784742 0.124980 -0.033477 74511.500000 0 0 1
18.556587 -28.236842 31.932259 46.490164 -0.989393 0.813636 0.123171 -0.035616 -152368.000000 0 0 1
17.941587 -29.463402 31.836440 46.942001 -1.023826 0.825475 0.127342 -0.037937 -229293.000000 0 0 1
18.542687 -30.363882 30.751703 47.026203 -1.022559 0.858033 0.129335 -0.035935 780323.000000 0 0 1
19.802787 -30.918332 31.173023 48.164831 -1.001138 0.866870 0.152512 -0.040458 684920.000000 0 0 1
20.596387 -31.356272 30.088223 48.090832 -0.989620 0.894827 0.125000 -0.031476 1069850.000000 0 0 1
22.080087 -31.747632 30.501243 49.252088 -0.963105 0.902960 0.114304 -0.036083 832982.000000 0 0 1
22.955887 -30.668572 30.640063 49.054536 -0.928246 0.896161 0.096791 -0.035063 102866.000000 0 0 1
24.244587 -31.109672 30.219773 49.687487 -0.908789 0.917009 0.087939 -0.033083 -636252.000000 0 0 1
25.344787 -30.182432 30.628523 49.914365 -0.872301 0.910157 0.082083 -0.037326 -589517.000000 0 0 1
26.590987 -30.474242 30.021873 50.369364 -0.853343 0.932243 0.080545 -0.037857 -363024.000000 0 0 1
27.416087 -29.357932 30.004573 50.137854 -0.819588 0.929242 0.073519 -0.030293 -171480.000000 0 0 1
28.480387 -29.475612 28.888273 50.144555 -0.802569 0.956847 0.064060 -0.030701 -174245.000000 0 0 1
29.528287 -30.348382 29.193343 51.431462 -0.799094 0.967189 0.055782 -0.028544 -147989.000000 0 0 1
30.601987 -30.274002 28.277233 51.503385 -0.780010 0.989585 0.047716 -0.039302 582924.000000 0 0 1
31.834387 -31.172682 28.607703 52.948701 -0.774896 1.000014 0.034670 -0.040630 241972.000000 0 0 1
31.561587 -32.539852 28.527723 53.561243 -0.800658 1.009105 0.019504 -0.038208 337024.000000 0 0 1
32.601487 -33.361732 29.082543 54.969595 -0.796923 1.013297 0.037664 -0.032722 -259418.000000 0 0 1
32.009587 32.805667 29.749983 54.643270 0.797680 0.995075 0.024804 -0.025368 -137270.000000 0 0 1
31.309987 32.884584 31.003393 54.981101 0.809922 0.971706 0.048289 -0.027956 233687.000000 0 0 1
30.190787 33.718169 31.092373 54.910238 0.840536 0.968859 0.042909 -0.028377 434636.000000 0 0 1
28.937887 33.525259 30.125583 53.562067 0.858708 0.973459 0.041429 -0.030948 84516.000000 0 0 1
28.238587 32.377352 30.496803 52.685536 0.853571 0.953484 0.031965 -0.026708 -349859.000000 0 0 1
26.855287 32.586465 30.239883 51.937796 0.881518 0.949324 0.046441 -0.029328 327149.000000 0 0 1
26.149987 31.233059 30.277553 50.754862 0.873749 0.931607 0.071320 -0.037149 -351690.000000 0 0 1
26.345787 30.561549 29.057273 49.723575 0.859344 0.946685 0.056033 -0.034978 68309.100000 0 0 1
25.798287 29.266599 29.131983 48.690429 0.848301 0.929406 0.093200 -0.045966 -362334.000000 0 0 1
25.343987 28.699719 27.797263 47.314684 0.847411 0.942833 0.095419 -0.049449 -137835.000000 0 0 1
24.219587 29.368899 27.221683 46.798938 0.881194 0.950012 0.131715 -0.053562 148511.000000 0 0 1
23.824087 28.734589 26.012613 45.496371 0.878557 0.962157 0.120247 -0.051742 61573.700000 0 0 1
22.340987 29.026479 25.694153 44.741990 0.914821 0.959080 0.158551 -0.048626 -17784.800000 0 0 1
22.125487 30.406039 25.457873 45.411096 0.941742 0.975675 0.146817 -0.052272 -462726.000000 0 0 1
20.824887 30.563609 24.966763 44.622297 0.972689 0.976998 0.138574 -0.044894 -433740.000000 0 0 1
20.521887 32.019938 24.409923 45.191466 1.000838 1.000188 0.155195 -0.041569 265697.000000 0 0 1
21.209187 32.355340 23.174343 45.097093 0.990559 1.031099 0.154420 -0.040558 254039.000000 0 0 1
22.532387 32.808616 23.279473 46.109084 0.968996 1.041555 0.155092 -0.039153 -573787.000000 0 0 1
23.162087 33.026283 21.952133 45.925089 0.959183 1.072421 0.161114 -0.046502 -473219.000000 0 0 1
22.680987 -33.317022 21.236333 45.556920 -0.973098 1.085863 0.160225 -0.024206 73859.700000 0 0 1
23.362987 -33.112152 20.042533 45.210031 -0.956341 1.111497 0.181851 -0.030478 -114690.000000 0 0 1
22.715487 -31.962702 19.228633 43.673195 -0.952934 1.114881 0.149030 -0.030073 -84020.400000 0 0 1
22.862087 -30.653442 19.804033 43.064002 -0.929973 1.092943 0.148685 -0.016485 166030.000000 0 0 1
22.549887 -29.604382 18.910733 41.743654 -0.919844 1.100646 0.133472 -0.023633 -103128.000000 0 0 1
23.707287 -29.164392 17.965433 41.657580 -0.888248 1.124903 0.120533 -0.027311 52459.100000 0 0 1
23.697487 -29.859422 16.725133 41.627948 -0.899948 1.157340 0.104984 -0.028494 402700.000000 0 0 1
24.339387 -29.083482 15.709133 41.049136 -0.873969 1.178089 0.083277 -0.030489 -190094.000000 0 0 1
23.958287 -29.557822 14.323633 40.655022 -0.889652 1.210746 0.046897 -0.035173 -549518.000000 0 0 1
24.531387 -30.773892 13.906533 41.739825 -0.897796 1.231131 0.111559 -0.039157 14601.200000 0 0 1
24.349387 -31.012152 12.528133 41.371492 -0.905172 1.263146 0.095429 -0.042207 -759563.000000 0 0 1
22.917887 -31.024772 11.998933 40.394807 -0.934569 1.269204 0.088358 -0.039929 -629371.000000 0 0 1
22.170887 -32.201762 12.359833 41.003258 -0.967831 1.264599 0.077715 -0.039708 -133386.000000 0 0 1
20.939687 -32.185312 11.681533 40.135060 -0.994001 1.275466 0.054894 -0.025272 -525020.000000 0 0 1
19.812987 -32.808302 12.488833 40.310173 -1.027513 1.255794 0.051419 -0.021015 -620425.000000 0 0 1
19.578087 -32.041072 13.684333 39.964894 -1.022305 1.221317 0.055002 -0.016812 94802.900000 0 0 1
20.096687 -32.626122 14.874933 41.104796 -1.018717 1.200514 0.065678 -0.026001 -888839.000000 0 0 1
19.897987 -31.881852 16.219033 40.932132 -1.012833 1.163376 0.075964 -0.024647 -476765.000000 0 0 1
18.621887 -31.465372 16.634033 40.168836 -1.036412 1.143839 0.089326 -0.028649 -292503.000000 0 0 1
17.715487 -32.509382 16.956733 40.721360 -1.071850 1.141305 0.074782 -0.025320 -476360.000000 0 0 1
17.945887 -33.376622 18.243633 42.058101 -1.077462 1.122121 0.055340 -0.027869 681249.000000 0 0 1
18.982187 33.043531 18.070833 42.175270 1.049368 1.127998 0.048808 -0.019906 974638.000000 0 0 1
19.131087 32.309542 19.252033 42.196514 1.036192 1.097023 0.055721 -0.025846 165903.000000 0 0 1
19.967387 30.999579 19.123533 41.537693 0.998567 1.092362 0.084053 -0.029577 -588073.000000 0 0 1
19.249987 29.841639 18.749733 40.157663 0.997894 1.085011 0.040566 -0.023009 -418349.000000 0 0 1
20.108487 28.780059 18.439333 39.656677 0.960947 1.087191 0.047348 -0.029960 -347826.000000 0 0 1
19.431687 27.390579 18.365533 38.276978 0.953770 1.070362 0.044775 -0.025309 -96773.300000 0 0 1
18.951787 26.897309 19.600533 38.299039 0.956991 1.033545 0.062974 -0.040153 133421.000000 0 0 1
18.331987 25.615399 19.448533 37.019668 0.949636 1.017662 0.072405 -0.038923 -606503.000000 0 0 1
18.203587 24.845729 20.775333 37.152325 0.938482 0.977384 0.111230 -0.041398 -272604.000000 0 0 1
17.038687 24.973329 21.549233 37.126183 0.972065 0.951537 0.115156 -0.039504 476614.000000 0 0 1
15.951987 24.227289 20.944533 35.778497 0.988517 0.945430 0.105225 -0.039827 -7151.020000 0 0 1
14.583787 24.404219 21.616933 35.714766 1.032149 0.920696 0.137169 -0.051794 -260765.000000 0 0 1
14.011387 25.636619 21.367733 36.195790 1.070615 0.939319 0.110455 -0.047224 2307.640000 0 0 1
12.696187 25.769019 21.906533 36.126606 1.113012 0.919293 0.118109 -0.044209 478101.000000 0 0 1
11.959487 26.899669 21.099233 36.218768 1.152445 0.948934 0.097867 -0.045687 -387842.000000 0 0 1
12.506787 28.146959 21.348133 37.475509 1.152660 0.964710 0.077749 -0.044068 -303815.000000 0 0 1
12.095287 29.032439 20.365833 37.469263 1.176051 0.996154 0.078048 -0.046097 113479.000000 0 0 1
12.678487 30.517419 20.449033 38.861547 1.177042 1.016668 0.060818 -0.039015 180963.000000 0 0 1
12.022387 31.283309 21.426233 39.777716 1.203891 1.001963 0.054700 -0.038271 -5350.070000 0 0 1
12.606587 31.143579 22.722703 40.560693 1.186168 0.976151 0.069673 -0.040251 -7266.650000 0 0 1
11.952887 32.068399 23.736073 41.649188 1.214016 0.964406 0.067406 -0.037139 -94663.100000 0 0 1
10.616487 31.837617 24.091513 41.312766 1.248934 0.948196 0.054383 -0.039317 -396700.000000 0 0 1
10.333387 32.138404 25.466443 42.287062 1.259708 0.924508 0.053217 -0.038927 -1241540.000000 0 0 1
8.928687 31.805190 25.926893 41.993992 1.297110 0.905369 0.163762 -0.052404 -744670.000000 0 0 1
7.889387 32.685555 25.486573 42.191863 1.333954 0.922206 0.142894 -0.044753 447533.000000 0 0 1
7.431887 32.412413 24.163423 41.105577 1.345401 0.942413 0.149628 -0.058831 115113.000000 0 0 1
6.320887 31.287609 24.036353 39.957657 1.371454 0.925362 0.140180 -0.049081 300517.000000 0 0 1
6.865887 30.003409 24.378953 39.264211 1.345833 0.900912 0.119923 -0.043217 -430461.000000 0 0 1
6.064487 28.908159 24.087013 38.113565 1.364010 0.886691 0.114130 -0.036614 -793363.000000 0 0 1
6.988187 27.706359 24.212663 37.453039 1.323726 0.867834 0.110111 -0.032230 145303.000000 0 0 1
8.052687 27.539959 23.264113 36.939329 1.286326 0.889510 0.089112 -0.034801 973117.000000 0 0 1
9.178987 28.415059 23.405443 37.940534 1.258345 0.906001 0.118331 -0.042523 -260203.000000 0 0 1
10.209887 27.928929 24.458873 38.503290 1.220321 0.882476 0.106482 -0.048943 -1333170.000000 0 0 1
9.745087 27.924189 25.795603 39.244620 1.235027 0.853562 0.111155 -0.043685 338294.000000 0 0 1
10.748887 27.512749 26.737993 39.842317 1.198344 0.835111 0.111099 -0.027879 395806.000000 0 0 1
12.018887 28.388319 26.785263 40.838715 1.170303 0.855450 0.104977 -0.028540 -726873.000000 0 0 1
11.840487 29.670729 27.357263 42.059115 1.191098 0.862622 0.091025 -0.038481 -105272.000000 0 0 1
13.047487 30.390749 27.459243 42.986563 1.165269 0.877876 0.079390 -0.030767 -263678.000000 0 0 1
12.929887 31.663845 28.361223 44.431295 1.183114 0.878487 0.064167 -0.036880 -100556.000000 0 0 1
12.692187 31.274949 29.743583 44.987718 1.185278 0.848447 0.057714 -0.050106 265366.000000 0 0 1
11.376687 30.992879 30.184923 44.733848 1.218992 0.830147 0.106161 -0.046305 -55909.100000 0 0 1
11.407387 30.916619 31.744441 45.756697 1.217320 0.804091 0.100775 -0.038551 -77910.200000 0 0 1
11.656987 29.573629 32.174116 45.228958 1.195327 0.779364 0.107270 -0.035069 205829.000000 0 0 1
11.413787 29.544569 33.575753 46.157202 1.202135 0.756239 0.131902 -0.039269 -114021.000000 0 0 1
11.776687 28.151189 -33.246442 45.127661 1.174583 2.399003 0.143880 -0.044118 -310981.000000 0 0 1
13.116987 27.760749 -33.349332 45.330922 1.129389 2.397476 0.147897 -0.032163 -374847.000000 0 0 1
13.206687 26.341959 -33.017362 44.254510 1.106065 2.412950 0.166440 -0.041404 949595.000000 0 0 1
14.588187 25.669709 -33.418192 44.592878 1.054009 2.417962 0.210144 -0.040179 1043340.000000 0 0 1
14.602287 24.278159 -33.242782 43.677665 1.029306 2.435793 0.183663 -0.040509 47242.600000 0 0 1
14.822687 23.807019 -31.897922 42.473094 1.013911 2.420394 0.194015 -0.039943 -165612.000000 0 0 1
15.145387 22.285649 -31.784212 41.668562 0.973891 2.438408 0.169565 -0.055724 -120207.000000 0 0 1
16.422987 21.935749 -32.250402 42.319972 0.928137 2.437287 0.175004 -0.042911 -209402.000000 0 0 1
16.641087 20.495049 -32.278572 41.699869 0.888807 2.456039 0.174340 -0.040840 905887.000000 0 0 1
18.100487 20.161849 -32.778882 42.527437 0.839221 2.450846 0.209220 -0.058094 567046.000000 0 0 1
19.073387 20.513449 -31.845622 42.411548 0.821759 2.420177 0.149080 -0.052027 -619628.000000 0 0 1
20.322287 20.041849 -32.246512 43.064006 0.778451 2.417053 0.164145 -0.050641 -452853.000000 0 0 1
21.519187 20.255249 -31.297152 43.044887 0.755151 2.384858 0.110616 -0.033885 8071.530000 0 0 1
21.928787 21.588849 -31.344272 43.925090 0.777587 2.365398 0.063489 -0.031867 -349057.000000 0 0 1
22.743587 21.905249 -30.234372 43.717593 0.766624 2.334476 0.022162 -0.009496 -17970.300000 0 0 1
22.038887 22.096149 -28.811422 42.474115 0.786696 2.316282 0.033915 -0.017212 152916.000000 0 0 1
21.176687 23.193599 -29.020272 42.761798 0.830823 2.316719 0.028071 -0.005047 51031.800000 0 0 1
20.490287 23.759969 -27.910742 41.992827 0.859155 2.297828 0.039525 0.001171 -194600.000000 0 0 1
21.448587 24.362049 -26.863012 42.132799 0.848911 2.262149 0.041866 -0.008537 -95652.000000 0 0 1
22.203287 25.438749 -27.348292 43.451640 0.853206 2.251572 0.048685 -0.002861 -384699.000000 0 0 1
21.556887 26.692349 -27.337182 43.869151 0.891435 2.243564 0.061661 -0.004074 -487092.000000 0 0 1
22.446787 27.803919 -27.924152 45.350573 0.891605 2.234121 0.056205 -0.003728 -223067.000000 0 0 1
22.571687 27.919049 -29.339922 46.365779 0.890913 2.255951 0.065687 -0.005300 7626.300000 0 0 1
22.952087 26.840479 -30.188772 46.460431 0.863332 2.278083 0.055783 -0.001192 -137634.000000 0 0 1
24.350687 26.249059 -29.935522 46.670168 0.822898 2.267154 0.081190 -0.011726 455846.000000 0 0 1
25.496787 27.053009 -30.229682 47.914352 0.815004 2.253523 0.084243 -0.010510 -417004.000000 0 0 1
26.690087 26.411949 -30.032392 48.082184 0.780160 2.245422 0.108591 -0.021201 172326.000000 0 0 1
27.979787 27.306749 -30.289112 49.456621 0.773225 2.229937 0.113642 -0.018244 786514.000000 0 0 1
28.105587 28.370839 -29.326472 49.546650 0.790095 2.204206 0.101043 -0.012991 -155871.000000 0 0 1
29.094887 29.302099 -29.679452 50.852683 0.788946 2.193995 0.102347 -0.019973 22739.900000 0 0 1
29.284487 30.444809 -28.656892 51.045911 0.804822 2.166866 0.105614 -0.015096 114387.000000 0 0 1
29.920487 30.180179 -27.399082 50.564696 0.789719 2.143447 0.128940 -0.016762 -16223.900000 0 0 1
29.224087 30.748709 -26.331922 49.928955 0.810815 2.126319 0.121389 -0.007718 -370350.000000 0 0 1
29.852187 30.747229 -24.946232 49.586890 0.800167 2.097957 0.136580 -0.013700 -970455.000000 0 0 1
30.080087 29.426939 -24.352632 48.618999 0.774423 2.095420 0.120299 -0.014665 419273.000000 0 0 1
28.955087 28.591669 -24.034532 47.260336 0.779083 2.104303 0.133032 -0.024720 733289.000000 0 0 1
27.939687 29.048649 -22.920332 46.365847 0.804855 2.087868 0.124645 -0.015601 175923.000000 0 0 1
27.139887 30.145019 -23.237032 46.746715 0.837810 2.091031 0.161679 -0.027430 -498239.000000 0 0 1
26.210087 30.331489 -22.225632 45.836085 0.858161 2.077038 0.112991 -0.012796 -177546.000000 0 0 1
4.076487 -25.888072 -19.051532 32.400168 -1.414613 2.199389 0.096113 -0.007150 -184891.000000 0 0 1
4.044887 -27.018412 -18.186332 32.819177 -1.422191 2.158123 0.111376 -0.006805 87218.300000 0 0 1
3.661687 -26.714652 -16.870532 31.807160 -1.434579 2.129869 0.111234 -0.007440 -52829.400000 0 0 1
3.786087 -27.939132 -15.888932 32.363370 -1.436105 2.083981 0.092886 -0.008555 453103.000000 0 0 1
5.128487 -28.321832 -15.601132 32.738706 -1.391659 2.067505 0.072716 -0.017883 235235.000000 0 0 1
5.138487 -29.340382 -14.615232 33.179317 -1.397421 2.026943 0.080370 -0.022695 746916.000000 0 0 1
6.565987 -29.933032 -14.379632 33.850737 -1.354860 2.009532 0.095818 -0.025661 967126.000000 0 0 1
7.571787 -29.008522 -13.916632 33.052972 -1.315474 2.005388 0.088737 -0.018417 356212.000000 0 0 1
8.828387 -29.622292 -13.664332 33.795482 -1.281146 1.987036 0.087641 -0.018817 377355.000000 0 0 1
8.917187 -30.301662 -12.249332 33.878505 -1.284595 1.940744 0.076268 -0.029388 -961561.000000 0 0 1
9.196287 -29.448562 -11.161932 32.808204 -1.268109 1.917945 0.074117 -0.037857 -31811.600000 0 0 1
9.526287 -30.063242 -9.915232 33.058441 -1.263931 1.875416 0.080582 -0.033290 1338210.000000 0 0 1
10.894687 -30.885812 -9.811432 34.189060 -1.231682 1.861865 0.068576 -0.028211 955156.000000 0 0 1
12.052387 -30.140182 -9.530832 33.830864 -1.190395 1.856383 0.070297 -0.028497 -76047.400000 0 0 1
13.091087 -31.069252 -9.265032 34.964494 -1.172020 1.838984 0.075542 -0.029668 -147255.000000 0 0 1
14.305987 -30.611982 -8.464932 34.834032 -1.133622 1.816261 0.086480 -0.033574 -176227.000000 0 0 1
15.187387 -29.746342 -9.180332 34.637842 -1.098734 1.839039 0.085359 -0.039896 -65129.100000 0 0 1
16.277787 -29.463962 -8.330332 34.676878 -1.066063 1.813396 0.085291 -0.038580 -229136.000000 0 0 1
17.447087 -28.867132 -9.133932 34.944826 -1.027153 1.835250 0.093094 -0.040213 -207075.000000 0 0 1
17.258587 -27.537732 -9.489832 33.856202 -1.010957 1.854901 0.094839 -0.041324 473966.000000 0 0 1
16.413287 -27.313172 -10.648932 33.597695 -1.029694 1.893313 0.087207 -0.038873 143162.000000 0 0 1
16.190587 -25.783912 -10.892232 32.335522 -1.010090 1.914366 0.094943 -0.035978 -382526.000000 0 0 1
15.311187 -25.138182 -9.948032 31.069664 -1.023726 1.896721 0.083570 -0.038317 654966.000000 0 0 1
14.727087 -23.875722 -10.248132 29.865723 -1.018099 1.921054 0.056673 -0.024543 427867.000000 0 0 1
13.940687 -23.749322 -11.575132 29.872341 -1.039996 1.968700 0.053446 -0.019620 291191.000000 0 0 1
14.889887 -23.457122 -12.632732 30.520997 -1.005202 1.997534 0.055958 -0.020813 476426.000000 0 0 1
14.290087 -23.295622 -13.908032 30.664735 -1.020565 2.041542 0.075542 -0.023477 -32472.800000 0 0 1
15.171987 -22.566022 -14.928132 31.020375 -0.978878 2.072861 0.060663 -0.030249 389275.000000 0 0 1
16.265487 -23.328422 -15.434832 32.357617 -0.961926 2.068043 0.060707 -0.030094 533671.000000 0 0 1
16.843987 -22.740222 -16.635032 32.826238 -0.933265 2.102219 0.061207 -0.026190 -574522.000000 0 0 1
17.659787 -23.771322 -17.457832 34.376151 -0.931853 2.103480 0.064778 -0.026669 221568.000000 0 0 1
18.919587 -24.148922 -16.959232 35.053342 -0.906226 2.075802 0.095141 -0.040424 41093.600000 0 0 1
19.935587 -23.162722 -17.147132 35.042310 -0.860137 2.082114 0.106561 -0.047397 -32852.600000 0 0 1
21.360287 -23.643622 -16.746932 35.996423 -0.836091 2.054701 0.100249 -0.051030 464771.000000 0 0 1
22.105087 -24.276622 -17.781832 37.338758 -0.832183 2.067159 0.131306 -0.048942 678609.000000 0 0 1
23.437487 -24.461222 -17.252732 38.017417 -0.806768 2.041834 0.158594 -0.032917 859041.000000 0 0 1
24.249787 -25.492762 -18.063932 39.550458 -0.810381 2.045114 0.172228 -0.032259 -224511.000000 0 0 1
24.542487 -24.980222 -19.366032 40.017351 -0.794237 2.075949 0.188450 -0.033959 -343019.000000 0 0 1
25.458187 -25.756462 -20.051332 41.395296 -0.791222 2.076458 0.173217 -0.033041 906074.000000 0 0 1
26.901587 -25.080872 -20.114132 41.920447 -0.750387 2.071242 0.162964 -0.050762 882702.000000 0 0 1
27.167087 -24.008822 -21.032932 41.914895 -0.723762 2.096476 0.156726 -0.044148 -34889.600000 0 0 1
26.943887 -22.724222 -20.465932 40.758039 -0.700644 2.096859 0.156401 -0.034439 567138.000000 0 0 1
25.435787 -22.240222 -20.553232 39.547972 -0.718472 2.117301 0.179719 -0.046187 852992.000000 0 0 1
25.103087 -21.685322 -21.781332 39.684312 -0.712480 2.151802 0.158333 -0.040715 -17471.600000 0 0 1
24.845087 -22.692322 -22.791032 40.640509 -0.740143 2.166143 0.117501 -0.037183 -618227.000000 0 0 1
24.249387 -22.156422 -24.114432 40.748566 -0.740327 2.204069 0.087968 -0.037032 -427060.000000 0 0 1
25.001987 -21.240522 -24.833032 41.145336 -0.704235 2.218735 0.076777 -0.021257 -45495.900000 0 0 1
24.259987 -20.641922 -25.892182 41.049251 -0.704995 2.253327 0.062617 -0.016185 239440.000000 0 0 1
25.265187 -19.880522 -26.784252 41.844486 -0.666686 2.265412 0.072016 -0.014416 -541239.000000 0 0 1
24.660287 -19.170822 -27.772102 41.796410 -0.660806 2.297569 0.059397 -0.004994 -255575.000000 0 0 1
25.464687 -18.630822 -28.800832 42.720554 -0.631643 2.310634 0.073302 -0.003104 -244235.000000 0 0 1
24.638687 -17.565122 -29.526952 42.278119 -0.619337 2.343953 0.112170 -0.010924 60745.000000 0 0 1
23.412087 -18.018622 -30.055372 42.144062 -0.655946 2.364789 0.106893 -0.014186 -13839.500000 0 0 1
22.730987 -16.958122 -30.662922 41.767098 -0.640959 2.395196 0.125669 -0.021879 -217121.000000 0 0 1
21.329787 -17.379522 -31.145172 41.557543 -0.683701 2.418023 0.102247 -0.019760 -97963.500000 0 0 1
21.401987 -18.031022 -32.395842 42.809501 -0.700120 2.429115 0.099777 -0.017615 661292.000000 0 0 1
20.163087 -18.658322 -32.756162 42.751015 -0.746656 2.443715 0.129573 -0.028496 511289.000000 0 0 1
20.320987 -19.521822 33.357693 43.666689 -0.765343 0.701436 0.143361 -0.022843 -187404.000000 0 0 1
21.145787 -20.622022 33.596903 44.734371 -0.772859 0.721174 0.137651 -0.023857 -138156.000000 0 0 1
21.305987 -21.384122 32.447281 44.317624 -0.787228 0.749319 0.136396 -0.030472 180973.000000 0 0 1
22.179887 -22.618122 32.747200 45.562110 -0.795180 0.768811 0.117197 -0.026938 176303.000000 0 0 1
21.457487 -23.577622 33.526133 46.263696 -0.832441 0.760234 0.138146 -0.027630 396568.000000 0 0 1
21.676187 -23.401122 -32.468992 45.515987 -0.823646 2.365068 0.142075 -0.034723 211923.000000 0 0 1
20.613787 -24.223622 -31.690752 44.900065 -0.865734 2.354357 0.148335 -0.040027 96652.100000 0 0 1
20.851887 -25.619852 -31.719152 45.796099 -0.887640 2.335907 0.140579 -0.045316 358423.000000 0 0 1
21.807387 -26.011262 -30.715852 45.777849 -0.873086 2.306321 0.122675 -0.049188 352800.000000 0 0 1
21.943587 -27.493122 -30.488912 46.550688 -0.897186 2.284928 0.125175 -0.050732 -342092.000000 0 0 1
20.764187 -28.123742 -30.068712 46.110994 -0.934816 2.281140 0.120211 -0.049858 -391366.000000 0 0 1
20.845987 -29.513792 -30.077462 47.013539 -0.955846 2.264985 0.116358 -0.042805 210403.000000 0 0 1
19.448387 -30.094052 -29.725792 46.556573 -0.997059 2.263328 0.142755 -0.050058 1461690.000000 0 0 1
18.312787 -29.953932 -30.612522 46.580283 -1.022062 2.287893 0.148531 -0.059832 729200.000000 0 0 1
18.418787 -30.774822 -31.782922 47.921765 -1.031479 2.295916 0.150186 -0.059793 1044420.000000 0 0 1
16.994287 -31.405492 -32.145802 48.046471 -1.074793 2.303735 0.150389 -0.062455 1641990.000000 0 0 1
16.097187 -30.553512 -32.847012 47.660914 -1.085898 2.331155 0.139214 -0.055219 343321.000000 0 0 1
14.883687 -31.252112 -33.163042 47.937522 -1.126332 2.334771 0.098682 -0.037146 595153.000000 0 0 1
13.842787 -30.358652 33.522283 47.297082 -1.142985 0.783057 0.089443 -0.021319 -191748.000000 0 0 1
13.196587 -29.548632 -32.952392 46.185839 -1.150769 2.365240 0.108464 -0.029418 -134359.000000 0 0 1
12.242687 -28.677812 -33.577442 45.822974 -1.167314 2.393172 0.105915 -0.031921 712826.000000 0 0 1
11.389687 -27.897082 -32.476892 44.302604 -1.183177 2.393620 0.128292 -0.042334 316474.000000 0 0 1
10.651987 -28.839422 -31.729602 44.180819 -1.216984 2.371974 0.114091 -0.034717 31034.000000 0 0 1
9.738187 -28.127292 -30.881592 42.891137 -1.237494 2.374598 0.095861 -0.039578 88961.100000 0 0 1
8.610287 -28.970222 -30.274452 42.777953 -1.281900 2.357050 0.076507 -0.032195 -151476.000000 0 0 1
7.550387 -29.199312 -31.182892 43.381804 -1.317758 2.372873 0.071930 -0.028912 -267063.000000 0 0 1
7.544187 -30.463182 -31.874592 44.731531 -1.328031 2.363959 0.080789 -0.026312 -288413.000000 0 0 1
6.172487 -30.911152 -32.400592 45.203952 -1.373704 2.369948 0.134928 -0.044351 28005.900000 0 0 1
5.335587 -31.341192 -31.341212 44.643145 -1.402171 2.349052 0.152192 -0.059155 275705.000000 0 0 1
4.197987 -32.052612 -31.844602 45.376996 -1.440566 2.348687 0.176811 -0.075570 -187744.000000 0 0 1
3.236287 -32.516392 -30.751892 44.871686 -1.471595 2.325852 0.146546 -0.070697 -141297.000000 0 0 1
2.242987 -31.557932 -30.417322 43.887898 -1.499840 2.336533 0.131848 -0.060628 134854.000000 0 0 1
0.970687 -31.886392 -30.943732 44.443209 -1.540364 2.340961 0.119628 -0.034073 -123791.000000 0 0 1
-0.058013 -30.745742 -30.669812 43.427427 1.568909 2.354957 0.094399 -0.024086 -80055.200000 0 0 1
-0.630013 -30.765672 -29.382952 42.547402 1.550321 2.333105 0.065515 -0.032321 -214888.000000 0 0 1
-1.198113 -29.523432 -29.144672 41.502776 1.530237 2.349327 0.146807 -0.034834 344099.000000 0 0 1
-2.069213 -29.423332 -27.831002 40.553407 1.500586 2.327159 0.164294 -0.042114 648249.000000 0 0 1
-1.187313 -29.467372 -26.691742 39.776687 1.530526 2.306407 0.127974 -0.040698 411003.000000 0 0 1
-1.815413 -29.466342 -25.429192 38.964149 1.509264 2.281847 0.163243 -0.052066 233320.000000 0 0 1
-0.748013 -29.650852 -24.303832 38.345910 1.545574 2.257259 0.105679 -0.051789 290034.000000 0 0 1
-1.350313 -29.820242 -23.049332 37.713948 1.525545 2.228324 0.179794 -0.058832 -158339.000000 0 0 1
-0.373913 -30.245602 -22.114932 37.470075 1.558434 2.202106 0.137365 -0.054523 100696.000000 0 0 1
-0.646113 -30.219942 -20.562332 36.557788 1.549419 2.168156 0.090501 -0.034339 8149.990000 0 0 1
-0.827513 -28.929032 -19.971432 35.162932 1.542199 2.174832 0.073663 -0.019870 106851.000000 0 0 1
0.402187 -28.331432 -19.594732 34.449751 -1.556601 2.175832 0.088508 -0.021823 22684.300000 0 0 1
0.337987 -26.924932 -18.917932 32.908272 -1.558244 2.183240 0.092485 -0.021587 -284645.000000 0 0 1
-0.341013 -27.006272 -17.704032 32.293773 1.558170 2.151029 0.081448 -0.015668 -59155.100000 0 0 1
-0.358913 -25.753902 -17.045832 30.886125 1.556861 2.155429 0.077423 -0.014371 226202.000000 0 0 1
-1.193613 -25.763602 -15.718632 30.203697 1.524500 2.118140 0.053832 -0.011666 151811.000000 0 0 1
-1.529113 -24.455522 -15.204432 28.837224 1.508351 2.126157 0.035191 -0.009574 55863.200000 0 0 1
-2.600613 -24.393522 -14.305432 28.398107 1.464587 2.098726 0.042869 -0.013930 -417235.000000 0 0 1
-2.421213 -23.208922 -13.318332 26.868091 1.466850 2.089429 0.036214 -0.011154 305515.000000 0 0 1
-1.266813 -23.450122 -12.516932 26.611776 1.516827 2.060487 0.044192 -0.019344 187256.000000 0 0 1
-1.249813 -22.591222 -11.349832 25.312922 1.515530 2.035750 0.062095 -0.014141 35525.400000 0 0 1
0.045387 -22.726522 -10.525632 25.045674 -1.568799 2.004525 0.061055 -0.018922 239198.000000 0 0 1
0.481587 -21.427322 -10.103732 23.694883 -1.548325 2.011316 0.061597 -0.013627 257744.000000 0 1 0
1.774287 -21.325822 -9.511232 23.417991 -1.487789 1.989034 0.059023 -0.016392 626194.000000 0 1 0
2.351187 -19.905722 -9.362132 22.122734 -1.453225 2.007760 0.069194 -0.017647 -281541.000000 0 1 0
2.813087 -19.363822 -10.619932 22.263289 -1.426530 2.068052 0.068956 -0.005354 364134.000000 0 1 0
3.681787 -18.222722 -10.533732 21.367795 -1.371436 2.086299 0.053881 -0.003400 1984400.000000 0 1 0
5.188087 -18.470322 -10.068132 21.666480 -1.296965 2.054077 0.082481 -0.024362 967094.000000 0 1 0
5.261887 -18.855522 -8.682032 21.414851 -1.298656 1.988236 0.072989 -0.024440 -287275.000000 0 1 0
6.356387 -19.637122 -8.310732 22.250584 -1.257748 1.953582 0.072605 -0.024162 -319679.000000 0 1 0
5.916787 -20.623122 -7.154132 22.616435 -1.291400 1.892649 0.070630 -0.032811 261161.000000 0 1 0
5.042787 -21.657522 -7.605832 23.501631 -1.342030 1.900360 0.085887 -0.034419 295692.000000 0 1 0
4.964687 -22.758422 -6.708532 24.240427 -1.356014 1.851206 0.101609 -0.036779 204882.000000 0 1 0
3.922487 -23.753522 -7.250632 25.143337 -1.407140 1.863322 0.092597 -0.033544 294077.000000 0 0 1
4.527887 -24.380822 -8.361432 26.169444 -1.387173 1.896010 0.105697 -0.031788 823196.000000 0 0 1
3.603687 -25.264952 -9.024932 27.069425 -1.429116 1.910703 0.099167 -0.028027 862482.000000 0 0 1
4.359087 -26.094662 -10.121332 28.326214 -1.405276 1.936186 0.079957 -0.025514 812276.000000 0 0 1
5.277787 -27.115512 -9.644932 29.259712 -1.378559 1.906710 0.099068 -0.035216 625035.000000 0 0 1
5.984887 -27.676302 -10.744432 30.285960 -1.357830 1.933460 0.118854 -0.032125 220830.000000 0 0 1
5.871287 -29.234032 -10.713832 31.684173 -1.372596 1.915741 0.105919 -0.037265 -539656.000000 0 0 1
4.545487 -29.664482 -10.884332 31.923528 -1.418749 1.918724 0.105560 -0.035666 -156117.000000 0 0 1
4.461887 -31.113952 -10.870532 33.258907 -1.428363 1.903760 0.119649 -0.039606 512611.000000 0 0 1
3.033987 -31.714732 -11.132032 33.748355 -1.475422 1.906945 0.120434 -0.046231 649703.000000 0 0 1
2.665687 -31.777562 -12.543932 34.267617 -1.487106 1.945566 0.118863 -0.045571 1179900.000000 0 0 1
1.358787 -32.349852 -12.727932 34.790221 -1.528818 1.945340 0.118719 -0.044783 555750.000000 0 0 1
0.928687 -32.586712 -14.222032 35.567154 -1.542305 1.982165 0.126348 -0.029615 294529.000000 0 0 1
0.157787 -31.519962 -14.836932 34.837731 -1.565790 2.010738 0.112469 -0.032143 232989.000000 0 0 1
-0.001213 -31.770202 -16.236332 35.678624 1.570758 2.043249 0.094244 -0.031552 86004.700000 0 0 1
-1.123213 -30.901422 -16.847632 35.213665 1.534464 2.069674 0.100222 -0.030584 538299.000000 0 0 1
-2.414813 -31.173162 -16.315132 35.267278 1.493486 2.051738 0.123050 -0.036685 128411.000000 0 0 1
-3.415713 -30.533492 -17.093832 35.159072 1.459392 2.078516 0.120308 -0.027001 132885.000000 0 0 1
-4.852513 -30.680722 -16.572532 35.206568 1.413934 2.060906 0.131458 -0.025514 -153324.000000 0 0 1
-5.182813 -29.841382 -15.481032 34.015173 1.398833 2.043305 0.116020 -0.022272 81699.900000 0 0 1
-6.456413 -29.213272 -15.552832 33.719299 1.353283 2.050193 0.117538 -0.028173 367333.000000 0 0 1
-7.446313 -29.717302 -14.462632 33.878214 1.325280 2.011859 0.116121 -0.033443 -90498.700000 0 0 1
-7.999713 -30.965872 -14.704732 35.200991 1.317984 2.001749 0.133797 -0.037895 -428291.000000 0 0 1
-8.716813 -31.406112 -13.589232 35.312801 1.300060 1.965814 0.120043 -0.034529 30474.300000 0 0 1
-9.236813 -32.860162 -13.900132 36.855429 1.296773 1.957517 0.158866 -0.053922 442418.000000 0 0 1
-8.213513 33.601139 -14.151932 37.373460 -1.331056 1.959147 0.159253 -0.054879 399475.000000 0 0 1
-8.762513 32.322872 -14.030832 36.309971 -1.306066 1.967541 0.196182 -0.058448 -36168.900000 0 0 1
-8.655913 -22.138522 -3.135732 23.976484 1.198082 1.701956 0.132294 -0.038009 -44800.300000 0 1 0
-8.307913 -21.190822 -4.130632 23.132974 1.197160 1.750319 0.094156 -0.026376 -873996.000000 0 1 0
-6.964213 -21.211122 -4.461632 22.766601 1.253557 1.768046 0.092074 -0.027160 -699074.000000 0 1 0
-6.578313 -20.265022 -5.585032 22.025846 1.256913 1.827163 0.084192 -0.029345 -14525.100000 0 1 0
-7.095413 -20.521622 -6.895832 22.782326 1.237910 1.878303 0.070281 -0.019527 -243773.000000 0 1 0
-7.068313 -19.291622 -7.579932 21.899386 1.219593 1.924234 0.046949 -0.018629 -31159.900000 0 1 0
-7.794513 -19.338422 -8.951632 22.690543 1.187656 1.976330 0.050700 -0.026365 430436.000000 0 1 0
-7.083213 -20.054922 -9.976532 23.492616 1.231282 2.009390 0.044897 -0.019435 249136.000000 0 1 0
-7.965013 -20.388622 -11.071232 24.529768 1.198368 2.039061 0.070344 -0.017723 344105.000000 0 1 0
-7.394713 -21.317422 -12.147332 25.625611 1.236898 2.064659 0.064764 -0.017240 -117932.000000 0 0 1
-6.527913 -20.717422 -13.082332 25.356905 1.265551 2.112887 0.052379 -0.007885 -70846.400000 0 0 1
-6.106313 -21.614722 -14.109432 26.524693 1.295464 2.131681 0.030576 -0.006575 93932.100000 0 0 1
-5.268913 -20.923822 -15.229832 26.410520 1.324111 2.185428 0.005604 0.006555 -628117.000000 0 0 1
-3.968613 -20.682022 -14.820832 25.751757 1.381214 2.184045 0.017620 -0.000531 -981732.000000 0 0 1
-3.240713 -19.696922 -15.546032 25.301187 1.407728 2.232471 0.043614 -0.005947 -12459.100000 0 0 1
-3.679213 -18.171222 -15.574332 24.213421 1.371022 2.269481 0.057836 -0.009510 -1053970.000000 0 1 0
-4.820713 -17.944622 -16.335732 24.740754 1.308349 2.291983 0.051177 -0.002185 -677563.000000 0 1 0
-4.789113 -18.097422 -17.742732 25.792573 1.312097 2.329389 0.063462 -0.015640 -886953.000000 0 0 1
-6.178113 -18.209822 -18.358932 26.586032 1.243709 2.333043 0.051080 -0.007470 32949.500000 0 0 1
-6.903713 -19.419622 -17.930432 27.318188 1.229228 2.286774 0.031085 -0.011324 970381.000000 0 0 1
-8.310413 -19.204322 -18.140432 27.693758 1.162391 2.285028 0.025192 -0.011336 868878.000000 0 0 1
-9.085613 -20.435422 -17.625232 28.474614 1.152441 2.238240 0.068663 -0.027887 -175728.000000 0 0 1
-8.623313 -21.585422 -18.282532 29.572673 1.190724 2.237277 0.085772 -0.021763 280674.000000 0 0 1
-9.289413 -22.764822 -17.847032 30.381687 1.183361 2.198672 0.128876 -0.018518 130543.000000 0 0 1
-8.832313 -24.023022 -18.619732 31.651379 1.218476 2.199721 0.150697 -0.027987 -745846.000000 0 0 1
-9.103313 -23.862022 -19.960232 32.414153 1.206341 2.234181 0.135057 -0.029025 605281.000000 0 0 1
-8.262213 -24.681822 -20.842732 33.344805 1.247772 2.246014 0.165831 -0.048629 721949.000000 0 0 1
-6.754313 -24.310222 -20.861532 32.738527 1.299793 2.261678 0.130584 -0.032529 -488254.000000 0 0 1
-6.293213 -23.073122 -21.407432 32.097534 1.304522 2.300903 0.150758 -0.060044 124508.000000 0 0 1
-6.364913 -21.919422 -20.602332 30.747834 1.288190 2.305061 0.110363 -0.053027 -1008500.000000 0 0 1
-5.492313 -21.981622 -19.331832 29.783837 1.325950 2.277159 0.112184 -0.032814 -47511.500000 0 0 1
-4.127013 -22.056022 -19.748032 29.891222 1.385820 2.292498 0.113797 -0.042476 64400.400000 0 0 1
-3.331813 -21.938622 -18.587032 28.946190 1.420078 2.268062 0.061488 -0.039736 123809.000000 0 0 1
-1.955813 -22.656522 -18.664632 29.419580 1.484685 2.258066 0.116318 -0.035103 74087.100000 0 0 1
-0.960713 -21.799622 -19.159932 29.038759 1.526755 2.291356 0.170623 -0.040702 313043.000000 0 0 1
0.292187 -22.499122 -19.304232 29.647078 -1.557810 2.279874 0.118287 -0.034701 868242.000000 0 0 1
1.387187 -21.672522 -20.002832 29.525172 -1.506877 2.315133 0.122416 -0.032624 57978.900000 0 0 1
1.192587 -21.529922 -21.428532 30.399701 -1.515461 2.353068 0.117839 -0.037814 -331217.000000 0 0 1
2.211087 -20.807422 -22.081632 30.420983 -1.464929 2.383092 0.132976 -0.036624 -497398.000000 0 0 1
1.993487 -20.825222 -23.592932 31.532370 -1.475362 2.416161 0.149993 -0.045391 835635.000000 0 0 1
1.111287 -19.826422 -24.160732 31.273998 -1.514804 2.453644 0.146202 -0.049200 335392.000000 0 0 1
-0.242213 -19.859622 -23.736632 30.949814 1.558601 2.444854 0.142911 -0.047438 -295537.000000 0 0 1
-1.126213 -18.798022 -24.429932 30.845674 1.510957 2.484883 0.141859 -0.053091 32078.100000 0 0 1
-0.743313 -17.437622 -24.173132 29.815491 1.528195 2.516241 0.117398 -0.044511 196266.000000 0 0 1
-1.592713 -16.457122 -24.823832 29.826100 1.474317 2.554014 0.145762 -0.051583 565865.000000 0 0 1
-1.050013 -15.026222 -24.616632 28.859461 1.501031 2.592471 0.134860 -0.037921 658106.000000 0 0 1
0.282387 -14.857922 -25.100132 29.169406 -1.551793 2.607037 0.137928 -0.043000 48138.200000 0 0 1
0.950287 -13.693322 -24.689932 28.248945 -1.501510 2.634196 0.120866 -0.041973 237037.000000 0 0 1
0.633787 -12.489222 -25.591472 28.483431 -1.520093 2.687066 0.122663 -0.027526 -308094.000000 0 0 1
1.221287 -11.311322 -25.075932 27.536157 -1.463243 2.715662 0.104891 -0.030189 -22313.000000 0 0 1
0.954487 -10.166422 -25.882242 27.823689 -1.477185 2.765817 0.091776 -0.027908 -119654.000000 0 0 1
1.886187 -8.910822 -25.608482 27.180045 -1.362202 2.799872 0.096442 -0.028247 2211130.000000 0 0 1
3.335087 -8.934522 -25.778302 27.485803 -1.213534 2.787256 0.088809 -0.028920 1518160.000000 0 0 1
3.596687 -8.986622 -27.180532 28.852675 -1.190094 2.799472 0.087810 -0.029584 -697080.000000 0 0 1
5.032287 -8.587622 -27.539792 29.283294 -1.040740 2.794780 0.091468 -0.031364 -645513.000000 0 0 1
5.298787 -7.192522 -27.595962 29.005976 -0.935857 2.828511 0.086728 -0.033590 53009.300000 0 0 1
6.451287 -6.757822 -28.286372 29.789363 -0.808600 2.822582 0.090453 -0.024810 83446.500000 0 0 1
7.756587 -6.766022 -27.426352 29.294172 -0.717295 2.782566 0.103066 -0.026916 -38531.400000 0 0 1
8.227087 -8.017122 -26.995522 29.337986 -0.772473 2.739275 0.082571 -0.027115 616167.000000 0 0 1
9.062887 -8.734922 -27.940722 30.645045 -0.766973 2.718329 0.080768 -0.032458 30119.800000 0 0 1
9.451587 -10.143922 -27.333192 30.648574 -0.820715 2.672162 0.089870 -0.023866 -528152.000000 0 0 1
8.428887 -11.087322 -27.261302 30.612962 -0.920782 2.669272 0.090809 -0.032644 -153618.000000 0 0 1
8.751087 -12.199422 -26.390912 30.362603 -0.948530 2.624361 0.099740 -0.033122 -116701.000000 0 0 1
9.735487 -13.259622 -26.915752 31.544493 -0.937471 2.593007 0.097477 -0.039729 -245582.000000 0 0 1
9.206887 -13.989022 -27.968002 32.598599 -0.988712 2.602064 0.117286 -0.049835 -352031.000000 0 0 1
9.960487 -15.110222 -28.313372 33.603232 -0.987989 2.572850 0.110840 -0.050099 -216002.000000 0 0 1
9.274587 -15.833822 -29.458422 34.706290 -1.040924 2.584493 0.108671 -0.052051 -356102.000000 0 0 1
9.542287 -15.062722 -30.618972 35.432504 -1.006105 2.614254 0.115529 -0.051247 277630.000000 0 0 1
9.096187 -15.559522 -31.877812 36.620135 -1.041773 2.627013 0.131058 -0.052589 -608554.000000 0 0 1
7.698187 -15.053122 -32.247082 36.410615 -1.098069 2.658690 0.145321 -0.053082 -364376.000000 0 0 1
7.689187 -13.806122 -32.848772 36.452359 -1.062640 2.693194 0.150618 -0.047716 1319140.000000 0 0 1
6.355687 -13.592222 -33.401392 36.616885 -1.133405 2.719383 0.153740 -0.069508 1451870.000000 0 0 1
6.309087 -12.295822 33.221604 35.981478 -1.096717 0.394218 0.192737 -0.058105 -188463.000000 0 0 1
6.982287 -12.433922 31.981882 35.017074 -1.059128 0.419427 0.184058 -0.049635 293228.000000 0 0 1
7.039887 -11.119022 31.409987 34.055542 -1.006366 0.396764 0.195371 -0.059373 -324881.000000 0 0 1
7.366387 -11.169822 29.912193 32.768397 -0.987779 0.420618 0.212414 -0.061058 -62022.300000 0 0 1
6.338787 -11.743622 29.117173 32.029715 -1.075846 0.429756 0.188384 -0.047550 217700.000000 0 0 1
6.626687 -11.702422 27.717273 30.807578 -1.055550 0.451737 0.167280 -0.053025 156854.000000 0 0 1
5.657087 -12.608822 26.898933 30.241323 -1.149056 0.474599 0.136237 -0.049937 -48252.700000 0 0 1
5.915087 -13.933222 27.245383 31.167833 -1.169323 0.507112 0.126428 -0.043153 8150.370000 0 0 1
5.525287 -14.832222 26.211023 30.619296 -1.214202 0.543257 0.061813 -0.028727 873628.000000 0 0 1
3.994187 -15.228422 26.043993 30.432678 -1.314289 0.543720 0.065930 -0.036937 992654.000000 0 0 1
3.196087 -14.115722 25.709423 29.503271 -1.348130 0.512729 0.066675 -0.041190 -813415.000000 0 0 1
2.068987 -14.524822 24.995603 28.983294 -1.429303 0.530777 0.059767 -0.036552 -38364.100000 0 0 1
1.141687 -13.346122 24.562993 27.977902 -1.485460 0.499248 0.077482 -0.038032 -59697.100000 0 0 1
1.687487 -12.525922 23.543393 26.721483 -1.436883 0.492685 0.033956 -0.019163 -179266.000000 0 0 1
0.880687 -11.407422 23.180043 25.849937 -1.493746 0.458504 0.030694 -0.012301 1040590.000000 0 0 1
-0.477213 -11.681822 22.425683 25.290392 1.529968 0.480579 0.054712 -0.022605 578038.000000 0 0 1
-0.350813 -12.302322 21.140033 24.461627 1.542288 0.527214 0.056396 -0.025344 8457.850000 0 1 0
-1.581413 -12.909622 20.710433 24.455699 1.448905 0.560753 0.077610 -0.043359 701994.000000 0 1 0
-1.592113 -13.560522 19.312133 23.651238 1.453923 0.615408 0.108759 -0.050032 -62712.100000 0 1 0
-0.704913 -14.660122 19.308233 24.253328 1.522750 0.649962 0.125937 -0.055958 -426729.000000 0 1 0
-0.948313 -15.576622 18.269633 24.027275 1.509991 0.706913 0.131861 -0.046585 233977.000000 0 1 0
-2.268113 -16.377322 18.377633 24.720404 1.433181 0.732628 0.122843 -0.060300 220171.000000 0 1 0
-2.451113 -17.284622 17.297133 24.575535 1.429927 0.790014 0.095171 -0.057780 383232.000000 0 1 0
-3.680213 -18.026522 17.424533 25.339964 1.369408 0.812576 0.114282 -0.050048 793569.000000 0 0 1
-3.606113 -19.379622 16.676933 25.820416 1.386823 0.868619 0.112627 -0.057849 -171500.000000 0 0 1
-2.629413 -20.147622 17.311033 26.692927 1.441022 0.865151 0.132666 -0.057551 -355596.000000 0 0 1
-2.470913 -21.461822 16.831833 27.386599 1.456170 0.908916 0.111542 -0.077841 44453.500000 0 0 1
-1.330413 -22.185622 17.594933 28.347019 1.510901 0.901164 0.149141 -0.060399 559896.000000 0 0 1
-0.029713 -21.823822 17.169233 27.768015 1.569435 0.904206 0.124934 -0.063947 -614623.000000 0 0 1
0.966887 -22.483822 17.855133 28.727389 -1.527819 0.900093 0.169660 -0.053414 386150.000000 0 0 1
2.331887 -22.720122 17.129033 28.549000 -1.468519 0.927311 0.171150 -0.055583 1023320.000000 0 0 1
3.153187 -21.533422 17.020333 27.628293 -1.425397 0.907082 0.165816 -0.066472 -874806.000000 0 0 1
4.323587 -21.826422 16.370433 27.623851 -1.375238 0.936489 0.171533 -0.052140 -907986.000000 0 0 1
5.362487 -20.700622 16.550233 27.040381 -1.317319 0.912138 0.146835 -0.037956 -538395.000000 0 0 1
6.163887 -20.788422 17.723233 28.004731 -1.282548 0.885548 0.135970 -0.030071 53413.200000 0 0 1
6.771787 -19.579022 18.123733 27.525713 -1.237806 0.852067 0.121479 -0.023594 1252810.000000 0 0 1
7.864187 -18.849822 17.205533 26.705647 -1.175549 0.870734 0.117409 -0.028480 861919.000000 0 0 1
7.160087 -18.264022 16.124833 25.393928 -1.197177 0.882804 0.111185 -0.029111 764047.000000 0 0 1
8.074987 -17.447322 15.358133 24.606639 -1.137332 0.896758 0.140096 -0.035804 373208.000000 0 1 0
7.381287 -16.576522 14.356433 23.138099 -1.151870 0.901458 0.098423 -0.032234 -449749.000000 0 1 0
6.410387 -17.192422 13.570433 22.821680 -1.213902 0.933992 0.099116 -0.033302 -73991.100000 0 1 0
5.861387 -16.408022 12.512433 21.450874 -1.227698 0.948003 0.063106 -0.028854 241361.000000 0 1 0
6.600487 -16.619822 11.159433 21.078848 -1.192753 1.012887 0.075394 -0.028773 71588.300000 0 1 0
7.858987 -15.992822 11.106933 20.997571 -1.114047 1.013418 0.096663 -0.035625 -196227.000000 0 1 0
8.479587 -16.268822 9.846233 20.821294 -1.090320 1.078226 0.116724 -0.038560 -703129.000000 0 1 0
9.857187 -15.651322 9.850933 20.956357 -1.008753 1.081427 0.096106 -0.025631 -1018950.000000 0 1 0
10.669187 -16.200222 8.888733 21.337486 -0.988411 1.141118 0.098677 -0.017595 174374.000000 0 1 0
11.993387 -15.641022 8.847433 21.604628 -0.916636 1.148873 0.092589 -0.017004 493428.000000 0 1 0
12.970387 -16.422522 8.015133 22.409206 -0.902310 1.205023 0.099476 -0.023289 -436308.000000 0 1 0
13.322987 -17.664622 8.587033 23.733478 -0.924601 1.200587 0.109975 -0.030909 389410.000000 0 1 0
14.250887 -18.342522 7.727033 24.479439 -0.910281 1.249651 0.104270 -0.022070 197756.000000 0 1 0
15.044587 -19.454122 8.339433 25.968223 -0.912526 1.243863 0.103559 -0.023245 158539.000000 0 0 1
14.191987 -20.591122 8.593033 26.443279 -0.967336 1.239826 0.099977 -0.018000 1056250.000000 0 0 1
14.955687 -21.615622 9.242833 27.862836 -0.965532 1.232664 0.085111 -0.009102 191261.000000 0 0 1
14.007287 -22.646422 9.865633 28.397099 -1.016870 1.215981 0.108504 -0.017835 90247.600000 0 0 1
13.453087 -22.144922 11.076533 28.179296 -1.024879 1.166825 0.108492 -0.024199 -227375.000000 0 0 1
12.442687 -22.889822 11.703533 28.561111 -1.072887 1.148593 0.135398 -0.033076 -284779.000000 0 0 1
12.760787 -24.314622 12.183033 30.041052 -1.087491 1.153220 0.097791 -0.029996 -92489.800000 0 0 1
13.818987 -24.491122 13.129633 31.034927 -1.057082 1.133977 0.081301 -0.020850 338785.000000 0 0 1
13.830487 -25.806832 13.593733 32.281024 -1.078825 1.136132 0.092155 -0.040221 354112.000000 0 0 1
15.023987 -26.002172 14.588433 33.386457 -1.046862 1.118584 0.078997 -0.033203 468507.000000 0 0 1
14.909087 -25.287792 15.809033 33.341848 -1.038076 1.076798 0.077147 -0.021751 868889.000000 0 0 1
16.094687 -25.583222 16.573333 34.470503 -1.009246 1.069232 0.077663 -0.025385 500505.000000 0 0 1
15.955087 -25.194902 18.025333 34.846241 -1.006275 1.027124 0.091691 -0.020438 -193011.000000 0 0 1
16.295887 -23.887222 18.353733 34.249304 -0.972116 1.005239 0.082464 -0.014752 -73445.300000 0 0 1
17.647187 -23.705822 18.710533 34.978182 -0.930873 1.006383 0.083239 -0.016499 61578.300000 0 0 1
18.113987 -22.258822 19.191333 34.523600 -0.887704 0.981363 0.085492 -0.023870 -740.777000 0 0 1
18.345887 -21.300922 18.192333 33.485248 -0.859795 0.996441 0.086516 -0.025455 563861.000000 0 0 1
17.197787 -20.560122 17.747833 32.147598 -0.874214 0.985947 0.101880 -0.019451 -194710.000000 0 0 1
17.539087 -19.599422 16.573233 31.087440 -0.840818 1.008516 0.093513 -0.017111 -135565.000000 0 0 1
18.448087 -18.577922 16.872333 31.147178 -0.788905 0.998342 0.088144 -0.027295 -136767.000000 0 0 1
19.785587 -19.007122 16.706933 32.122605 -0.765334 1.023830 0.091519 -0.025660 -136324.000000 0 0 1
20.818287 -17.859422 17.000633 32.270444 -0.709046 1.015944 0.106044 -0.037568 49590.200000 0 0 1
20.798287 -17.427822 18.369833 32.768101 -0.697454 0.975685 0.100109 -0.033625 161308.000000 0 0 1
21.122487 -16.072322 18.562433 32.388932 -0.650447 0.960500 0.096152 -0.035747 -266562.000000 0 0 1
21.586187 -15.818922 19.981433 33.398494 -0.632419 0.929452 0.085657 -0.032941 -804051.000000 0 0 1
22.831987 -16.359522 20.249033 34.625957 -0.621726 0.946171 0.070465 -0.029508 -883759.000000 0 0 1
23.191087 -16.268722 21.580033 35.611735 -0.611737 0.919798 0.065991 -0.023425 55927.800000 0 0 1
35.840001 -2.227422 -7.625332 36.709845 -0.062069 1.780039 0.154733 -0.016742 595414.000000 0 0 1
37.066581 -1.909522 -8.280332 38.028168 -0.051471 1.790297 0.186741 -0.016118 1136180.000000 0 0 1
-38.005353 -2.677122 -7.827532 38.895297 0.070324 1.773426 0.222056 -0.046152 593098.000000 0 0 1
-36.687683 -2.440622 -8.583932 37.757471 0.066426 1.800146 0.208071 -0.045469 185502.000000 0 0 1
-35.596285 -3.313622 -8.312532 36.703866 0.092821 1.799254 0.245808 -0.046708 146679.000000 0 0 1
-34.457188 -2.858722 -8.989932 35.725187 0.082775 1.825172 0.279155 -0.050499 -87606.500000 0 0 1
-33.200123 -3.746622 -8.818932 34.555158 0.112374 1.828865 0.279742 -0.052103 -25005.200000 0 0 1
-32.631883 -3.658222 -7.520332 33.686463 0.111640 1.795938 0.289019 -0.057443 -58990.200000 0 0 1
-31.301413 -4.081622 -7.522432 32.450348 0.129666 1.804738 0.278760 -0.069426 -540302.000000 0 0 1
-30.538223 -4.128522 -6.208932 31.435308 0.134377 1.769618 0.297416 -0.091913 -255102.000000 0 0 1
-30.182463 -2.865222 -5.698732 30.849086 0.094646 1.756593 0.280565 -0.083336 406215.000000 0 0 1
-30.160923 -2.944422 -4.264332 30.602866 0.097315 1.710595 0.278369 -0.080690 -91974.400000 0 0 1
-30.208143 -1.618422 -3.513432 30.454809 0.053525 1.686419 0.280595 -0.074675 191711.000000 0 0 1
-28.926203 -0.998322 -3.583332 29.164398 0.034499 1.693974 0.220229 -0.065437 700456.000000 0 0 1
-28.949683 0.228978 -2.920132 29.097487 -0.007909 1.671322 0.263352 -0.079437 -770740.000000 0 0 1
-27.554703 0.792678 -2.754132 27.703343 -0.028759 1.670376 0.278535 -0.056512 -528042.000000 0 0 1
-26.723913 0.013278 -1.878932 26.789888 -0.000497 1.640990 0.248157 -0.063018 519318.000000 0 0 1
-25.530393 0.692778 -1.527432 25.585425 -0.027129 1.630531 0.229932 -0.054746 90235.200000 0 0 1
-24.897313 0.076478 -0.275232 24.898952 -0.003072 1.581851 0.209980 -0.054488 -125838.000000 0 1 0
-24.730113 -1.313622 -0.339132 24.767299 0.053068 1.584490 0.189547 -0.055258 264285.000000 0 1 0
-24.102713 -1.745522 0.841268 24.180475 0.072294 1.535998 0.176535 -0.043302 -201069.000000 0 1 0
-23.956513 -3.281522 0.905068 24.197150 0.136131 1.533384 0.155476 -0.026198 -176984.000000 0 1 0
-25.114753 -3.956722 1.334968 25.459548 0.156261 1.518337 0.174121 -0.042636 17453.600000 0 0 1
-24.951933 -5.355522 1.196468 25.548231 0.211426 1.523947 0.146335 -0.010739 716722.000000 0 0 1
-26.153403 -6.138122 1.890468 26.930483 0.230525 1.500540 0.203293 -0.025558 759698.000000 0 0 1
-26.219313 -6.195822 3.296068 27.142304 0.232051 1.449059 0.197923 -0.037031 1189570.000000 0 0 1
-27.535273 -6.661522 3.699768 28.570184 0.237366 1.440934 0.240262 -0.027793 1280090.000000 0 0 1
-27.754283 -6.874622 5.200268 29.062062 0.242809 1.390891 0.223985 -0.025504 -480479.000000 0 0 1
-26.951383 -7.913222 5.667968 28.655226 0.285585 1.371685 0.233227 -0.008170 -266750.000000 0 0 1
-26.973033 -8.163022 7.083768 29.057860 0.293874 1.324533 0.208534 -0.028165 -190253.000000 0 0 1
-26.270833 -7.041322 7.857968 28.310502 0.261873 1.289539 0.177877 -0.018821 -41764.600000 0 0 1
-24.861613 -7.071522 7.652468 26.956752 0.277117 1.282959 0.197519 -0.025354 10366.800000 0 0 1
-24.282313 -5.942122 8.185368 26.304748 0.239994 1.254368 0.195273 -0.039497 -439490.000000 0 0 1
-22.855313 -5.684322 7.697968 24.777723 0.243763 1.254887 0.168014 -0.042232 -581621.000000 0 1 0
-21.851113 -6.355022 8.406168 24.259454 0.283026 1.216947 0.163213 -0.048928 -501170.000000 0 1 0
-20.635813 -5.929022 7.823568 22.851658 0.279781 1.221365 0.145400 -0.041445 201011.000000 0 1 0
-19.409813 -6.196622 8.754368 22.176066 0.309024 1.164983 0.138183 -0.043327 260561.000000 0 1 0
-19.418213 -5.388022 9.925168 22.463453 0.270664 1.113152 0.126687 -0.031676 -409442.000000 0 1 0
-18.187813 -5.487522 10.549268 21.730082 0.293029 1.063898 0.112740 -0.047829 -1195160.000000 0 1 0
-17.877913 -4.368922 11.598868 21.754103 0.239678 1.008441 0.093422 -0.041569 29761.100000 0 1 0
-18.728813 -4.314822 12.755968 23.067311 0.226433 0.984849 0.096079 -0.038253 -66070.900000 0 1 0
-19.529013 -3.158822 12.723868 23.521422 0.160361 0.999232 0.137981 -0.040616 -532623.000000 0 1 0
-20.821313 -3.538022 13.454168 25.041152 0.168315 1.003585 0.137710 -0.045156 -988931.000000 0 0 1
-20.750113 -3.850022 14.826068 25.791513 0.183456 0.958384 0.137046 -0.035248 178854.000000 0 0 1
-21.978413 -4.097222 15.493968 27.201119 0.184305 0.964768 0.126924 -0.024228 197359.000000 0 0 1
-21.626213 -4.534822 16.902968 27.820281 0.206696 0.917790 0.113165 -0.013084 260872.000000 0 0 1
-22.691513 -4.383122 17.848568 29.200820 0.190811 0.913176 0.104349 -0.013000 394389.000000 0 0 1
-22.443113 -4.834622 19.199368 29.927957 0.212174 0.874319 0.106432 0.003477 -829487.000000 0 0 1
-23.445313 -4.523122 20.286668 31.331936 0.190581 0.866529 0.122441 -0.017610 -669612.000000 0 0 1
-23.518213 -3.109222 20.581168 31.406338 0.131443 0.856192 0.148982 -0.025816 -215314.000000 0 0 1
-24.189413 -2.888122 21.758568 32.663500 0.118834 0.841771 0.142281 -0.020162 -360493.000000 0 0 1
-24.384513 -1.384422 22.030268 32.891546 0.056714 0.836877 0.120780 -0.018894 -408555.000000 0 0 1
-25.335453 -0.774522 21.215468 33.054215 0.030561 0.873903 0.133130 -0.032539 -383235.000000 0 0 1
-25.205963 0.648978 21.117368 32.889283 -0.025741 0.873595 0.127494 -0.029740 171343.000000 0 0 1
-26.553863 1.370778 20.816668 33.768629 -0.051577 0.906570 0.148015 -0.038595 263860.000000 0 0 1
-27.440373 1.349278 21.894868 35.130896 -0.049132 0.897921 0.140672 -0.037227 227412.000000 0 0 1
-28.727493 1.873578 21.563068 35.968667 -0.065127 0.927925 0.117376 -0.033320 146031.000000 0 0 1
-29.715453 1.780778 22.737768 37.459116 -0.059856 0.918513 0.091308 -0.031020 -714428.000000 0 0 1
-29.376893 2.489978 23.892468 37.948015 -0.084558 0.889745 0.080450 -0.031951 -50909.600000 0 0 1
-30.166463 2.059078 24.978668 39.219754 -0.068151 0.880339 0.077214 -0.030244 -348880.000000 0 0 1
-29.888083 2.728578 26.289068 39.898092 -0.091041 0.851434 0.097520 -0.030836 1257980.000000 0 0 1
-28.556873 2.468178 26.832768 39.263015 -0.086216 0.818372 0.078188 -0.037419 1535750.000000 0 0 1
-28.438073 3.221978 27.991068 40.032549 -0.112817 0.796508 0.067911 -0.033975 -395611.000000 0 0 1
-27.109933 2.943578 28.700968 39.589881 -0.108156 0.759824 0.092982 -0.039148 -307898.000000 0 0 1
-27.230433 2.050478 29.779968 40.404794 -0.075159 0.742116 0.089542 -0.038652 -532818.000000 0 0 1
-25.981433 1.869878 30.329268 39.979942 -0.071846 0.709616 0.073074 -0.041277 -914411.000000 0 0 1
-26.017173 0.651378 31.334768 40.733098 -0.025031 0.693098 0.073842 -0.041130 -172372.000000 0 0 1
-26.510393 -0.378222 30.535868 40.439871 0.014266 0.715000 0.056624 -0.044469 3217.420000 0 0 1
-26.778933 -1.607822 31.079868 41.056723 0.059969 0.712089 0.081447 -0.042170 -565054.000000 0 0 1
-27.575573 -2.508222 30.107268 40.904168 0.090709 0.743589 0.066311 -0.026824 376298.000000 0 0 1
-28.953733 -2.230522 29.889268 41.673279 0.076886 0.770979 0.083313 -0.042961 504740.000000 0 0 1
-29.137873 -1.212822 28.937168 41.083406 0.041600 0.789287 0.075538 -0.034691 -68848.400000 0 0 1
-30.640653 -1.112322 28.550568 41.895367 0.036286 0.821023 0.095462 -0.043044 401485.000000 0 0 1
-31.521403 -0.664922 29.540868 43.205368 0.021091 0.817932 0.129926 -0.044623 -201211.000000 0 0 1
-32.847903 -0.598322 29.029568 43.841288 0.018213 0.847110 0.138679 -0.051918 277812.000000 0 0 1
-33.778433 -0.163422 30.175168 45.294039 0.004838 0.841686 0.160378 -0.049389 -267770.000000 0 0 1
-34.199584 -1.101122 31.129868 46.258974 0.032186 0.832610 0.170933 -0.047760 412576.000000 0 0 1
-35.196372 -0.642022 32.040868 47.600567 0.018239 0.832377 0.199672 -0.039921 314755.000000 0 0 1
-35.678041 -1.763922 32.984968 48.621416 0.049400 0.825208 0.183883 -0.041278 104394.000000 0 0 1
-36.252963 -2.913922 32.366068 48.686041 0.080205 0.843582 0.159641 -0.040839 138864.000000 0 0 1
-36.295083 -4.071822 33.163368 49.332765 0.111719 0.833568 0.138289 -0.034349 322313.000000 0 0 1
-37.510873 -5.037622 32.919968 50.161414 0.133499 0.854918 0.126694 -0.031478 1296960.000000 0 0 1
37.431381 -4.454922 33.347068 50.328734 -0.118458 0.846531 0.129646 -0.035285 835734.000000 0 0 1
36.315381 -5.251822 32.978968 49.335594 -0.143621 0.838657 0.123671 -0.036868 -575587.000000 0 0 1
35.021361 -4.795322 33.629368 48.789601 -0.136079 0.810311 0.109983 -0.028755 -869768.000000 0 0 1
34.597931 -5.321922 -32.478297 47.751225 -0.152626 2.318772 0.107498 -0.037466 214380.000000 0 0 1
34.174521 -6.654022 -32.473297 47.609757 -0.192301 2.321389 0.127679 -0.031891 -413493.000000 0 0 1
32.743211 -6.879122 -33.011197 47.001908 -0.207081 2.349472 0.117923 -0.028715 -157686.000000 0 0 1
31.681541 -6.650122 -32.096297 45.586363 -0.206901 2.351918 0.114938 -0.028200 -505757.000000 0 0 1
30.482301 -6.963922 -32.719297 45.257257 -0.224603 2.378877 0.107109 -0.024999 -1118860.000000 0 0 1
29.299001 -6.776522 -31.771297 43.746634 -0.227292 2.383657 0.104146 -0.029634 66478.600000 0 0 1
28.066901 -7.029522 -32.453497 43.478668 -0.245408 2.413468 0.084598 -0.025331 533871.000000 0 0 1
26.953701 -6.384422 -31.852897 42.212201 -0.232580 2.425825 0.084693 -0.026975 501274.000000 0 0 1
25.627401 -6.769922 -32.610497 42.024279 -0.258268 2.459082 0.075743 -0.030182 783748.000000 0 0 1
25.022201 -8.022922 -32.262397 41.609375 -0.310276 2.458087 0.088025 -0.040293 397092.000000 0 0 1
24.268101 -8.084322 -31.058197 40.235663 -0.321563 2.452632 0.102039 -0.049145 -431389.000000 0 0 1
23.844001 -9.548222 -30.820197 40.119689 -0.380890 2.446831 0.079840 -0.030063 -312997.000000 0 0 1
22.887901 -10.082622 -31.713397 40.388796 -0.414944 2.473820 0.087318 -0.035409 85186.700000 0 0 1
22.971201 -11.495622 -31.783197 40.865597 -0.463997 2.461874 0.081557 -0.017706 -702498.000000 0 0 1
21.730601 -12.174322 -32.418797 40.882900 -0.510670 2.486460 0.073983 -0.017821 559126.000000 0 0 1
20.492701 -12.183222 -31.726397 39.685589 -0.536377 2.497165 0.081369 -0.015940 355826.000000 0 0 1
19.825201 -10.934522 -31.711097 38.964035 -0.504030 2.521553 0.091834 -0.023024 942289.000000 0 0 1
18.359501 -11.053322 -31.033697 37.713891 -0.541925 2.537243 0.116064 -0.026754 2090550.000000 0 0 1
17.386701 -11.632322 -31.925097 38.168313 -0.589641 2.561532 0.096581 -0.007850 305449.000000 0 0 1
16.105801 -11.565922 -31.329497 37.077011 -0.622785 2.577332 0.118477 -0.016490 -524806.000000 0 0 1
14.974101 -11.914322 -32.245497 37.495958 -0.672090 2.606012 0.117455 -0.012883 -2001850.000000 0 0 1
14.857601 -13.305122 -32.522597 38.150936 -0.730329 2.591492 0.138361 -0.014123 48283.300000 0 0 1
13.660501 -13.727722 -33.148797 38.391437 -0.787853 2.612851 0.123169 -0.017685 6224.660000 0 0 1
12.426001 -13.590822 -32.242797 37.131037 -0.830140 2.622665 0.100163 -0.023927 -1243470.000000 0 0 1
11.939101 -12.287322 -32.175397 36.452388 -0.799771 2.652308 0.159970 -0.029366 -839654.000000 0 0 1
11.020801 -12.064122 -31.151197 35.176671 -0.830562 2.658503 0.148579 -0.034633 -378870.000000 0 0 1
9.800201 -11.321322 -31.711297 35.068827 -0.857292 2.700437 0.124141 -0.030018 -338673.000000 0 0 1
10.012401 -9.895222 -31.721697 34.704894 -0.779512 2.723934 0.114524 -0.027347 191720.000000 0 0 1
8.853901 -9.181622 -32.098897 34.540309 -0.803567 2.763355 0.094106 -0.023173 -88530.600000 0 0 1
9.081501 -7.671222 -32.206397 34.330356 -0.701414 2.787991 0.103726 -0.021484 -134024.000000 0 0 1
9.122101 -6.875922 -31.025797 33.061929 -0.645906 2.788809 0.113487 -0.021282 178889.000000 0 0 1
9.536701 -5.619622 -31.429597 33.321891 -0.532487 2.802966 0.100485 -0.009344 -140994.000000 0 0 1
9.668501 -4.547522 -30.330597 32.157503 -0.439643 2.802897 0.095469 -0.017683 -725278.000000 0 0 1
8.448701 -4.020122 -29.940197 31.368094 -0.444123 2.838706 0.095507 -0.017942 -825909.000000 0 0 1
8.447301 -3.100522 -28.896097 30.264741 -0.351776 2.839707 0.111819 -0.024844 -43836.600000 0 0 1
7.056801 -2.646522 -28.413697 29.396270 -0.358798 2.882313 0.122168 -0.027485 -507747.000000 0 0 1
6.309101 -1.846622 -29.362997 30.089872 -0.284739 2.921344 0.108302 -0.021690 281428.000000 0 0 1
5.152701 -1.274522 -28.799197 29.284271 -0.242483 2.959328 0.130198 -0.025822 568794.000000 0 0 1
3.906301 -2.239722 -28.740297 29.090896 -0.520602 2.986183 0.117727 -0.027230 -456690.000000 0 0 1
4.005301 -3.367222 -27.898597 28.385073 -0.699065 2.956187 0.126723 -0.037387 -233339.000000 0 0 1
2.823501 -4.065322 -27.535897 27.977217 -0.963749 2.963739 0.118060 -0.038001 -91570.500000 0 0 1
3.017801 -5.227122 -26.482197 27.161309 -1.047209 2.917504 0.091272 -0.040408 -434935.000000 0 0 1
3.181501 -4.745622 -25.175697 25.815860 -0.980208 2.918432 0.095027 -0.043141 53069.000000 0 0 1
3.495601 -5.780022 -24.261997 25.184765 -1.026875 2.870057 0.084134 -0.040484 -1268.450000 0 0 1
3.613201 -5.358022 -22.804297 23.702312 -0.977491 2.865444 0.111634 -0.050362 263324.000000 0 1 0
4.669401 -4.448122 -22.537197 23.441723 -0.761133 2.862893 0.113297 -0.054818 212883.000000 0 1 0
4.358901 -3.778922 -21.345097 22.110935 -0.714249 2.877631 0.097869 -0.047813 -234104.000000 0 1 0
5.230201 -2.563622 -21.112697 21.901442 -0.455743 2.872403 0.095535 -0.041377 -693953.000000 0 1 0
6.508501 -2.898422 -20.688897 21.881314 -0.418962 2.809939 0.093007 -0.048184 -922040.000000 0 1 0
7.322301 -1.785422 -20.427597 21.773621 -0.239167 2.788134 0.102025 -0.034103 295686.000000 0 1 0
8.816401 -2.139222 -20.210297 22.153133 -0.238041 2.719661 0.122807 -0.041365 -732560.000000 0 1 0
9.485301 -2.488722 -21.449297 23.584678 -0.256593 2.712777 0.126375 -0.052685 701485.000000 0 1 0
10.702201 -3.222422 -21.243997 24.004761 -0.292465 2.657271 0.113604 -0.052097 1048060.000000 0 1 0
11.873801 -2.462722 -20.561297 23.870884 -0.204508 2.608727 0.116913 -0.044516 -936718.000000 0 1 0
11.705601 -2.432922 -19.133197 22.561459 -0.204925 2.583087 0.110055 -0.028433 501660.000000 0 1 0
12.799801 -1.830222 -18.429397 22.512825 -0.142026 2.529796 0.111892 -0.036787 281540.000000 0 1 0
12.839901 -0.301922 -18.408097 22.445763 -0.023510 2.532408 0.094884 -0.039165 44334.800000 0 1 0
13.280501 0.343578 -19.595097 23.673985 0.025865 2.545803 0.114194 -0.044652 189753.000000 0 1 0
13.453501 1.738578 -19.416897 23.686182 0.128516 2.531782 0.144065 -0.058420 -17353.000000 0 1 0
13.960401 2.467878 -20.684697 25.076681 0.174969 2.540747 0.129562 -0.049754 -1388250.000000 0 0 1
15.301101 2.280578 -20.919597 26.018345 0.147957 2.504843 0.136403 -0.049963 -1018200.000000 0 0 1
15.692001 3.465478 -21.628597 26.945216 0.217355 2.502585 0.123149 -0.046651 681647.000000 0 0 1
17.209401 3.484078 -22.041797 28.180545 0.199752 2.468927 0.092506 -0.035497 709042.000000 0 0 1
17.498901 2.460878 -22.939297 28.956499 0.139714 2.485200 0.064676 -0.027001 798782.000000 0 0 1
18.852301 2.014578 -22.716197 29.588738 0.106457 2.446089 0.065137 -0.034091 587390.000000 0 0 1
10.394287 26.568678 3.250368 28.714121 1.197879 1.457356 0.038504 -0.022809 61142.800000 0 0 1
10.137787 26.893378 4.596468 29.105945 1.210306 1.412210 0.048636 -0.026309 255394.000000 0 0 1
11.342487 27.294078 5.231768 30.016497 1.176944 1.395605 0.048164 -0.022259 24966.800000 0 0 1
11.281987 27.779778 6.689068 30.720399 1.185023 1.351298 0.058157 -0.026692 -67400.700000 0 0 1
11.129387 26.791878 7.643968 30.001637 1.177084 1.313171 0.051406 -0.034290 32363.400000 0 0 1
11.183887 27.447578 8.921868 30.952360 1.183872 1.278403 0.059305 -0.028688 -458202.000000 0 0 1
11.273587 26.451578 10.123368 30.483804 1.167912 1.232278 0.077080 -0.020556 1024750.000000 0 0 1
12.543387 25.790478 10.338168 30.485456 1.118122 1.224817 0.047938 -0.019133 940509.000000 0 0 1
13.003487 24.930278 9.294568 29.614159 1.090023 1.251545 0.054679 -0.024369 -435382.000000 0 0 1
14.354587 24.314878 9.689268 29.852125 1.037494 1.240233 0.065511 -0.021902 257047.000000 0 0 1
15.436487 25.252878 9.827468 31.186088 1.022127 1.250210 0.070595 -0.020328 306373.000000 0 0 1
16.579287 24.532678 10.219968 31.323678 0.976494 1.238442 0.068403 -0.017855 -601463.000000 0 0 1
17.787087 25.313378 10.656468 32.721673 0.958277 1.239076 0.066054 -0.014633 -1328430.000000 0 0 1
18.337087 26.159278 9.708568 33.388813 0.959414 1.275762 0.048472 -0.015247 -532226.000000 0 0 1
19.723687 26.286578 9.650668 34.251181 0.927082 1.285167 0.040428 -0.013833 -151774.000000 0 0 1
20.367787 26.977578 10.910768 35.520154 0.924110 1.258577 0.044058 -0.015086 -824453.000000 0 0 1
20.513687 28.368778 10.834668 36.646813 0.944729 1.270659 0.044624 -0.022174 367693.000000 0 0 1
19.297587 29.126878 10.893868 36.598473 0.985659 1.268557 0.028123 -0.003897 343157.000000 0 0 1
19.534187 30.619878 11.229668 38.016665 1.002933 1.270935 0.024744 -0.008438 -1034580.000000 0 0 1
20.050187 31.458178 10.229768 38.681715 1.003358 1.303152 0.052391 -0.033318 -47528.300000 0 0 1
19.292287 31.597278 9.032768 38.107364 1.022642 1.331484 0.058735 -0.039082 399402.000000 0 0 1
17.831187 32.106978 9.193168 37.859260 1.063841 1.325520 0.059499 -0.028087 -10468.600000 0 0 1
17.911087 33.469078 9.614368 39.158936 1.079423 1.322739 0.054359 -0.027130 308269.000000 0 0 1
16.646687 -33.349593 9.668168 38.506896 -1.107823 1.317004 0.074936 -0.026011 210251.000000 0 0 1
16.833387 -31.871093 9.905068 37.379672 -1.084867 1.302608 0.086438 -0.027361 -560528.000000 0 0 1
17.502487 -31.335193 8.870068 36.971739 -1.061407 1.328518 0.092381 -0.034146 -366368.000000 0 0 1
17.721987 -29.914793 8.926768 35.897784 -1.035972 1.319488 0.074409 -0.037605 -201576.000000 0 0 1
18.265087 -29.342193 7.581668 35.384451 -1.014007 1.354857 0.073620 -0.031930 430207.000000 0 0 1
17.415087 -29.602193 6.426768 34.941071 -1.039021 1.385812 0.076910 -0.025152 541162.000000 0 0 1
18.026787 -29.108893 5.251668 34.639179 -1.016315 1.418599 0.057689 -0.014458 -156600.000000 0 0 1
17.380987 -29.552893 3.947968 34.511718 -1.039149 1.456150 0.061502 -0.025472 -198967.000000 0 0 1
17.652087 -30.899793 3.680468 35.776239 -1.051771 1.467739 0.068172 -0.029491 101597.000000 0 0 1
17.393287 -31.225293 2.328268 35.818518 -1.062575 1.505749 0.066695 -0.026863 -269930.000000 0 0 1
17.890687 -32.611293 1.958868 37.247957 -1.069026 1.518182 0.064535 -0.021999 -1471080.000000 0 0 1
19.257487 -32.728693 1.920668 38.022456 -1.038952 1.520261 0.055042 -0.008384 -1139960.000000 0 0 1
19.626187 33.406278 1.540168 38.775491 1.039619 1.531066 0.084798 -0.014583 1075130.000000 0 0 1
21.141287 33.022278 1.805768 39.251569 1.001332 1.524775 0.101745 -0.016444 1137090.000000 0 0 1
21.371687 32.752678 3.147168 39.235081 0.992654 1.490497 0.086851 -0.043843 320472.000000 0 0 1
22.740487 32.562678 3.468568 39.868392 0.961172 1.483686 0.057307 -0.020819 13345.900000 0 0 1
22.886487 32.268678 5.022568 39.878378 0.953891 1.444514 0.062274 -0.006814 -204728.000000 0 0 1
22.331487 31.054378 5.510768 38.645029 0.947360 1.427709 0.076429 -0.025500 182759.000000 0 0 1
23.109287 29.890678 5.243268 38.144248 0.912658 1.432901 0.058233 -0.027138 -64835.400000 0 0 1
22.535387 28.631778 5.995468 36.926522 0.903986 1.407712 0.071831 -0.034874 188976.000000 0 0 1
21.266387 28.279578 5.484768 35.806095 0.926013 1.417011 0.080578 -0.032274 -691261.000000 0 0 1
20.402887 28.019778 6.532968 35.271312 0.941420 1.384500 0.064144 -0.031342 -515802.000000 0 0 1
18.935487 28.283978 6.125868 34.584134 0.980850 1.392727 0.090203 -0.032934 -157219.000000 0 0 1
18.448687 29.619378 6.007668 35.408384 1.013738 1.400304 0.086743 -0.042145 91825.900000 0 0 1
18.953287 30.371778 4.880568 36.131592 1.012886 1.435305 0.099095 -0.042564 -235535.000000 0 0 1
18.810487 31.926278 4.963168 37.386557 1.038367 1.437651 0.098975 -0.044759 -607521.000000 0 0 1
17.497287 32.367278 5.091268 37.144538 1.075210 1.433297 0.095818 -0.045164 -549960.000000 0 0 1
17.471287 -33.690493 5.371968 38.329535 -1.092394 1.430181 0.086608 -0.044319 -270299.000000 0 0 1
16.056187 -33.170493 5.619268 37.278130 -1.119990 1.419481 0.088960 -0.049776 494988.000000 0 0 1
15.039987 -33.214993 4.592168 36.749490 -1.145610 1.445510 0.081980 -0.041772 969699.000000 0 0 1
13.974887 -32.287593 4.743868 35.500570 -1.162316 1.436767 0.078180 -0.037481 731725.000000 0 0 1
12.999287 -32.292193 3.523468 34.988313 -1.188092 1.469921 0.075556 -0.036809 812279.000000 0 0 1
11.827387 -31.470093 3.501968 33.801149 -1.211299 1.467005 0.070277 -0.034286 531257.000000 0 0 1
11.310787 -31.327993 2.204268 33.380172 -1.224317 1.504713 0.077152 -0.024473 96604.400000 0 0 1
10.223387 -30.176193 2.189268 31.936080 -1.244143 1.502191 0.068020 -0.018879 464656.000000 0 0 1
9.685087 -29.679293 0.966168 31.234514 -1.255367 1.539859 0.083204 -0.012266 -105007.000000 0 0 1
8.948887 -30.567293 0.151068 31.850665 -1.285995 1.566053 0.073116 -0.018127 -554910.000000 0 0 1
9.544487 -31.089493 -1.152332 32.541999 -1.272930 1.606214 0.092749 -0.021574 -296266.000000 0 0 1
10.623587 -31.992593 -0.956732 33.723908 -1.250189 1.599170 0.086361 -0.023738 52828.400000 0 0 1
10.778887 -32.736493 -2.111232 34.529983 -1.252714 1.631976 0.101359 -0.020310 -147827.000000 0 0 1
12.015287 -33.645193 -1.961532 35.780075 -1.227795 1.625646 0.084382 -0.020550 -350278.000000 0 0 1
11.937887 32.883878 -0.915932 34.995736 1.222560 1.596972 0.073972 -0.018076 231146.000000 0 0 1
13.051887 32.007278 -0.831932 34.576144 1.183602 1.594860 0.086236 -0.017067 -230616.000000 0 0 1
13.158787 31.232678 0.489768 33.895040 1.172051 1.556346 0.078364 -0.032837 -502427.000000 0 0 1
13.490687 31.953678 1.692068 34.726060 1.171304 1.522051 0.068698 -0.029338 -145787.000000 0 0 1
14.709487 32.651078 1.693468 35.851496 1.147522 1.523543 0.077212 -0.027881 413571.000000 0 0 1
16.005187 31.739478 1.910468 35.597898 1.103741 1.517103 0.083518 -0.036985 294092.000000 0 0 1
16.463087 31.208278 0.681668 35.290998 1.085373 1.551480 0.085662 -0.029014 -498106.000000 0 0 1
17.407287 30.240578 0.936668 34.905351 1.048491 1.543959 0.094921 -0.027091 -508885.000000 0 0 1
17.998587 29.552978 -0.350232 34.604195 1.023765 1.580918 0.087878 -0.015074 112830.000000 0 0 1
18.977687 30.345478 -1.032932 35.805971 1.011918 1.599648 0.064396 -0.003234 168077.000000 0 0 1
18.511687 31.401978 -1.911632 36.502344 1.038128 1.623190 0.071824 -0.006591 -235105.000000 0 0 1
19.610987 32.143278 -2.706032 37.750546 1.022975 1.642540 0.058650 0.006347 -280981.000000 0 0 1
20.463087 32.837278 -1.857332 38.735958 1.013517 1.618763 0.049331 0.008091 -103685.000000 0 0 1
21.436987 33.562178 -2.594832 39.908613 1.002388 1.635862 0.053274 0.014416 63053.900000 0 0 1
22.564287 -33.136793 -1.780532 40.129346 -0.972975 1.615181 0.052652 0.012118 651030.000000 0 0 1
23.519687 33.508378 -1.041032 40.952055 0.958793 1.596220 0.045943 0.007812 1216650.000000 0 0 1
24.388387 32.641278 -1.783132 40.785120 0.929113 1.614530 0.052673 0.014498 420531.000000 0 0 1
25.408687 33.333778 -2.777332 42.005425 0.919501 1.636963 0.048348 0.012758 -730766.000000 0 0 1
24.789987 -33.609493 -3.927932 41.947231 -0.935286 1.664574 0.046478 0.003053 206271.000000 0 0 1
25.625087 -32.998693 -4.916332 42.068149 -0.910520 1.687930 0.044574 -0.002124 51298.900000 0 0 1
24.805987 -32.657593 -6.224432 41.480103 -0.921193 1.721424 0.043003 -0.007445 88454.200000 0 0 1
24.012987 -31.502793 -5.971832 40.058861 -0.919502 1.720431 0.054479 -0.000709 160941.000000 0 0 1
23.425487 -31.026993 -7.173432 39.533352 -0.924101 1.753260 0.060155 -0.003245 -1667.300000 0 0 1
22.381387 -29.929193 -6.855332 37.995772 -0.928698 1.752213 0.069393 -0.008821 469341.000000 0 0 1
21.125687 -30.363693 -6.327132 37.527072 -0.962925 1.740207 0.073070 -0.005123 137084.000000 0 0 1
20.414587 -29.193993 -5.974632 36.121197 -0.960558 1.736965 0.084686 -0.024841 -329413.000000 0 0 1
19.283087 -29.500693 -5.017732 35.599242 -0.991860 1.712218 0.064506 -0.012631 -677984.000000 0 0 1
18.114587 -30.048193 -5.537832 35.520414 -1.028283 1.727341 0.070929 -0.017052 -605540.000000 0 0 1
17.068387 -29.905993 -4.614232 34.741753 -1.052173 1.704005 0.053961 -0.015256 -595026.000000 0 0 1
15.739587 -30.541493 -4.972332 34.716588 -1.094944 1.714517 0.048469 -0.013122 -489845.000000 0 0 1
15.814587 -31.910693 -5.215432 35.994364 -1.110684 1.716204 0.054974 0.003230 444374.000000 0 0 1
14.494687 -32.459293 -5.290132 35.940050 -1.150815 1.718526 0.073912 -0.000086 654113.000000 0 0 1
14.489587 33.436078 -5.530532 36.857919 1.161873 1.721415 0.070132 -0.008455 -18134.200000 0 0 1
14.786587 32.754578 -4.323732 36.196688 1.146749 1.690533 0.076577 -0.018471 -19800.100000 0 0 1
15.112087 31.374378 -4.475432 35.110629 1.121920 1.698611 0.081549 -0.018164 421761.000000 0 0 1
13.971587 30.372378 -4.962032 33.798052 1.139650 1.718143 0.089712 -0.027023 914936.000000 0 0 1
13.062587 29.986878 -3.901732 32.940363 1.159973 1.689523 0.083937 -0.024578 458821.000000 0 0 1
13.612287 29.069978 -2.980832 32.237297 1.132862 1.663394 0.092216 -0.026818 -129638.000000 0 0 1
12.515587 28.189178 -2.321432 30.929900 1.152955 1.645922 0.071788 -0.026721 749542.000000 0 0 1
11.501687 28.926878 -1.617532 31.171613 1.192350 1.622711 0.058354 -0.029125 -117090.000000 0 0 1
10.674587 28.032678 -0.955532 30.011512 1.206958 1.602641 0.044534 -0.025576 -7854.830000 0 0 1
9.418187 28.718178 -0.360332 30.225252 1.253897 1.582718 0.040024 -0.011772 728531.000000 0 0 1
8.556087 27.937678 0.488968 29.222586 1.273610 1.554063 0.040589 -0.014866 207566.000000 0 0 1
7.261887 28.471778 0.573068 29.388868 1.321065 1.551296 0.054994 -0.010277 -83294.700000 0 0 1
6.342387 27.881278 1.653168 28.641307 1.347124 1.513045 0.048054 -0.014840 147287.000000 0 0 1
5.720187 26.681678 1.294768 27.318655 1.359607 1.523384 0.055478 -0.025465 -1076950.000000 0 0 1
4.389287 26.579078 1.646668 26.989345 1.407133 1.509747 0.051982 -0.024473 -769418.000000 0 0 1
3.763787 25.325678 1.023668 25.624284 1.423261 1.530837 0.055402 -0.032995 256098.000000 0 0 1
2.385687 25.139178 1.332568 25.287260 1.476181 1.518075 0.063825 -0.030654 368251.000000 0 0 1
1.921087 23.923578 0.789968 24.013584 1.490667 1.537894 0.055510 -0.041499 1452790.000000 0 1 0
0.343987 23.719378 0.932168 23.740180 1.556295 1.531521 0.053145 -0.034362 576574.000000 0 1 0
-0.441513 24.418678 -0.000832 24.422669 -1.552717 1.570830 0.061868 -0.040611 267394.000000 0 1 0
-1.804213 24.020978 0.124368 24.088961 -1.495827 1.565633 0.057046 -0.032800 -82371.300000 0 1 0
-2.622713 24.580178 1.255068 24.751545 -1.464498 1.520068 0.088103 -0.040741 129905.000000 0 1 0
-4.040813 24.306678 1.043268 24.662343 -1.406060 1.528482 0.086903 -0.032470 1266410.000000 0 1 0
-4.812413 24.919878 2.033068 25.461598 -1.380029 1.490863 0.092130 -0.037493 -199038.000000 0 0 1
-6.262013 25.254278 1.657768 26.071815 -1.327740 1.507169 0.123161 -0.040106 -74929.600000 0 0 1
-6.345013 26.493978 0.919168 27.258667 -1.335735 1.537070 0.135122 -0.040872 -190027.000000 0 0 1
-7.334513 26.371878 -0.066432 27.372896 -1.299533 1.573223 0.141786 -0.036812 -193906.000000 0 0 1
-7.367913 27.572878 -0.996732 28.557717 -1.309681 1.605706 0.144546 -0.035075 -260619.000000 0 0 1
-7.699213 28.836678 -0.491632 29.850856 -1.309889 1.587267 0.174393 -0.048451 38925.900000 0 0 1
-7.423313 29.750078 -1.535032 30.700636 -1.326267 1.620817 0.167459 -0.047351 31004.500000 0 0 1
-7.399413 31.210678 -0.981732 32.090832 -1.338015 1.601393 0.160999 -0.049128 -398895.000000 0 0 1
-7.701413 32.270578 -1.923532 33.232543 -1.336527 1.628710 0.144503 -0.035864 -7690.420000 0 0 1
-6.844613 32.418778 -3.051532 33.273679 -1.362721 1.662635 0.120619 -0.033007 1215690.000000 0 0 1
-5.339113 32.826078 -2.767232 33.372370 -1.409560 1.653812 0.140684 -0.041279 800791.000000 0 0 1
-5.123713 -33.234493 -2.430132 33.714827 1.417832 1.642938 0.142580 -0.042844 -183930.000000 0 0 1
-4.123013 -33.102293 -1.455032 33.389792 1.446881 1.614387 0.144699 -0.043152 -49460.900000 0 0 1
-3.829213 -31.604493 -1.115632 31.855165 1.450224 1.605826 0.142617 -0.044258 314506.000000 0 0 1
-4.981313 -30.943293 -0.606832 31.347554 1.411184 1.590156 0.157442 -0.045930 73614.300000 0 0 1
-5.461113 -29.971693 -1.516432 30.502881 1.390565 1.620531 0.161633 -0.041907 -173007.000000 0 0 1
-6.975213 -29.727493 -1.407832 30.567294 1.340327 1.616869 0.180846 -0.048912 -343390.000000 0 0 1
-7.322513 -29.016993 -0.264432 29.927830 1.323605 1.579632 0.182980 -0.041769 -624894.000000 0 0 1
-8.625513 -28.514993 -0.348832 29.793053 1.277056 1.582505 0.137170 -0.034033 -168455.000000 0 0 1
-8.848513 -27.738293 1.006468 29.132835 1.262001 1.536242 0.153297 -0.033035 215361.000000 0 0 1
-8.257213 -26.431493 0.975568 27.708431 1.268002 1.535581 0.163123 -0.042657 -55143.800000 0 0 1
-7.599913 -26.073793 2.167468 27.245170 1.287177 1.491158 0.185736 -0.030782 -187578.000000 0 0 1
-8.444413 -25.250593 3.151168 26.811013 1.248064 1.452991 0.163578 -0.031224 -10334.100000 0 0 1
-8.948713 -24.010393 2.653168 25.760779 1.214042 1.467621 0.160217 -0.035918 -361219.000000 0 0 1
-9.633113 -23.309793 3.624868 25.481032 1.178907 1.428055 0.151093 -0.034922 102294.000000 0 0 1
-8.940313 -21.887893 3.868068 23.957692 1.183019 1.408632 0.111796 -0.015004 715084.000000 0 1 0
-7.818013 -22.005593 4.751868 23.831654 1.229431 1.370058 0.109015 -0.015484 265837.000000 0 1 0
-7.089913 -20.752893 4.871368 22.465077 1.241593 1.352218 0.074797 -0.016849 315175.000000 0 1 0
-7.775913 -19.519993 5.487368 21.716495 1.191708 1.315345 0.079111 -0.030047 -253212.000000 0 1 0
-8.103913 -19.706093 6.856968 22.383510 1.180639 1.259450 0.081658 -0.027856 137711.000000 0 1 0
-8.841013 -18.645993 7.424968 21.930954 1.128041 1.225409 0.062862 -0.030272 -90991.600000 0 1 0
-28.473373 28.229878 -5.140532 40.423805 -0.781104 1.698308 0.193148 -0.019238 -435537.000000 0 0 1
-27.842543 29.272478 -4.518732 40.651004 -0.810429 1.682186 0.184353 -0.029461 -819045.000000 0 0 1
-26.547573 28.940778 -4.137832 39.490048 -0.828501 1.675771 0.164346 -0.010253 -630335.000000 0 0 1
-25.755093 30.092878 -3.564732 39.769504 -0.862914 1.660552 0.143760 -0.014252 -494810.000000 0 0 1
-26.246113 30.491578 -2.258432 40.295103 -0.860085 1.626873 0.116305 -0.026084 845099.000000 0 0 1
-25.371223 31.502478 -1.665132 40.483055 -0.892788 1.611940 0.116645 -0.024756 765567.000000 0 0 1
-24.068813 30.924078 -1.048432 39.200836 -0.909416 1.597545 0.096791 -0.008279 385901.000000 0 0 1
-23.158013 30.375978 -2.009632 38.249604 -0.919420 1.623360 0.132365 -0.020729 155472.000000 0 0 1
-21.860913 30.273878 -1.439732 37.369507 -0.945388 1.609333 0.105947 -0.010443 -124162.000000 0 0 1
-20.872913 29.564378 -2.363832 36.267322 -0.956044 1.636021 0.111709 -0.017953 -1003970.000000 0 0 1
-19.659013 29.451478 -1.707132 35.451102 -0.982213 1.618970 0.120234 -0.014243 -1000720.000000 0 0 1
-18.888013 28.414178 -2.267632 34.194513 -0.984129 1.637161 0.123595 -0.016346 159020.000000 0 0 1
-17.415013 28.413878 -1.775732 33.373408 -1.020942 1.624029 0.134328 -0.030051 140093.000000 0 0 1
-17.172513 28.187478 -0.396232 33.008879 -1.023621 1.582800 0.122489 -0.038452 -105478.000000 0 0 1
-15.832513 28.562678 -0.159932 32.657627 -1.064652 1.575694 0.143150 -0.053328 -66505.000000 0 0 1
-15.311913 28.091778 1.188268 32.015850 -1.071748 1.533673 0.148049 -0.054340 -137100.000000 0 0 1
-15.939813 28.660478 2.342368 32.878372 -1.063236 1.499493 0.124894 -0.051318 311353.000000 0 0 1
-15.442313 28.000478 3.570568 32.175157 -1.066801 1.459594 0.134179 -0.060982 726885.000000 0 0 1
-14.126013 28.523578 4.231168 32.109835 -1.110964 1.438640 0.142028 -0.054536 464117.000000 0 0 1
-14.105213 29.696078 5.027068 33.257863 -1.127360 1.419060 0.119238 -0.042024 -493894.000000 0 0 1
-14.329313 30.888578 4.279168 34.318286 -1.136441 1.445780 0.138349 -0.051260 -23147.900000 0 0 1
-14.187913 32.134778 5.136668 35.501073 -1.155023 1.425596 0.142053 -0.045795 188462.000000 0 0 1
-15.251213 32.436478 6.017868 36.344729 -1.131282 1.404453 0.128954 -0.052271 94161.600000 0 0 1
-14.785113 33.501678 6.813268 37.247585 -1.155180 1.386842 0.131806 -0.056986 151668.000000 0 0 1
-15.903013 -33.321993 7.648068 37.706153 1.125512 1.366546 0.101451 -0.048168 145326.000000 0 0 1
-16.431513 33.337778 8.701368 38.172187 -1.112861 1.340824 0.073636 -0.044683 330391.000000 0 0 1
-17.482513 -33.459593 9.416068 38.908161 1.089314 1.326362 0.068920 -0.035778 -220331.000000 0 0 1
-17.914113 33.269178 10.736468 39.281362 -1.076856 1.293951 0.056303 -0.020731 -182083.000000 0 0 1
-17.095113 33.402578 11.830568 39.343836 -1.097761 1.265373 0.055233 -0.017642 -743742.000000 0 0 1
-15.764213 32.984478 11.703268 38.385579 -1.124962 1.260976 0.078633 -0.015429 -546521.000000 0 0 1
-14.913513 33.005578 12.998268 38.480333 -1.146406 1.226229 0.060025 -0.006859 -266311.000000 0 0 1
-15.179113 32.035978 14.034668 38.127172 -1.128316 1.193830 0.049532 -0.003540 34067.100000 0 0 1
-14.849413 30.627178 14.015268 36.809738 -1.119347 1.180190 0.046151 -0.010197 -121126.000000 0 0 1
-15.831213 29.785178 13.183868 36.215998 -1.082257 1.198201 0.055207 -0.016193 87866.900000 0 0 1
-15.461713 29.696978 11.855168 35.517884 -1.090766 1.230485 0.063070 -0.008560 515785.000000 0 0 1
-16.645013 29.379378 11.141668 35.557574 -1.055332 1.252087 0.045331 -0.016394 349232.000000 0 0 1
-16.371413 29.335678 9.622368 34.945602 -1.061777 1.291840 0.050693 -0.015947 -55338.400000 0 0 1
-15.552213 28.241478 9.345368 33.567667 -1.067426 1.288664 0.049069 -0.014383 -28713.000000 0 0 1
-15.038413 28.225178 8.008168 32.968853 -1.081253 1.325441 0.052957 -0.026157 -119751.000000 0 0 1
-14.245913 26.956978 7.630368 31.430037 -1.084634 1.325573 0.067523 -0.025794 -35454.300000 0 0 1
-13.020113 26.746178 8.299668 30.883100 -1.117762 1.298707 0.087019 -0.025695 169749.000000 0 0 1
-12.386213 25.520778 7.942868 29.458743 -1.118947 1.297791 0.093771 -0.024756 155008.000000 0 0 1
-11.098413 25.701278 7.115368 28.885272 -1.163160 1.321902 0.139152 -0.039807 -314523.000000 0 0 1
-11.341913 26.034278 5.726268 28.969169 -1.159937 1.371818 0.152503 -0.042967 537192.000000 0 0 1
-10.209013 25.899278 4.863468 28.260394 -1.195316 1.397840 0.174541 -0.038006 169776.000000 0 0 1
-10.523413 26.243178 3.424968 28.481169 -1.189432 1.450251 0.188065 -0.044623 -30103.700000 0 0 1
-10.692813 27.670078 3.336268 29.851301 -1.202034 1.458799 0.195675 -0.045514 169988.000000 0 0 1
-11.082413 28.037478 2.006468 30.214996 -1.194373 1.504341 0.205206 -0.052630 73625.000000 0 0 1
-10.579213 29.462278 1.539468 31.341913 -1.226058 1.521658 0.226089 -0.060154 415543.000000 0 0 1
-11.263113 30.561378 2.128968 32.640282 -1.217701 1.505525 0.196977 -0.067055 187210.000000 0 0 1
-10.689013 31.770878 1.636868 33.560736 -1.246252 1.522004 0.192600 -0.059905 137261.000000 0 0 1
-11.318313 32.991278 2.442268 34.964172 -1.240309 1.500889 0.171223 -0.061414 -351987.000000 0 0 1
-12.681813 33.165478 2.272168 35.580051 -1.205571 1.506892 0.186146 -0.060764 -1045570.000000 0 0 1
-12.982513 -33.544793 1.171468 35.988486 1.201529 1.538239 0.167040 -0.051247 -527975.000000 0 0 1
-14.459513 -33.707793 0.750368 36.685909 1.165571 1.550341 0.167349 -0.046095 15696.000000 0 0 1
-14.837213 32.401678 0.382168 35.639271 -1.141380 1.560073 0.143629 -0.042963 -462718.000000 0 0 1
-15.801413 32.397778 -0.595532 36.050733 -1.117012 1.587316 0.152108 -0.044561 -661421.000000 0 0 1
-15.128513 32.503878 -2.009732 35.908397 -1.135179 1.626794 0.163158 -0.042887 274601.000000 0 0 1
-14.267113 31.477278 -2.441232 34.645767 -1.145242 1.641317 0.154911 -0.044803 495429.000000 0 0 1
-12.913013 31.663178 -2.025332 34.254995 -1.183563 1.629956 0.164432 -0.040130 394273.000000 0 0 1
-11.985013 30.468678 -2.424132 32.830737 -1.196031 1.644701 0.122650 -0.046555 385721.000000 0 0 1
-11.975613 30.260978 -3.814132 32.767205 -1.193964 1.687462 0.119258 -0.037370 -683781.000000 0 0 1
-10.693913 29.926478 -4.228432 32.059842 -1.227598 1.703074 0.112396 -0.041717 -421803.000000 0 0 1
-10.632013 29.234078 -5.623432 31.611612 -1.221982 1.749640 0.109117 -0.038158 -76596.500000 0 0 1
-11.143313 27.893378 -5.667032 30.566799 -1.190724 1.757273 0.101293 -0.026480 182849.000000 0 0 1
-10.804913 27.364378 -6.934432 30.226506 -1.194735 1.802274 0.086894 -0.017297 99334.900000 0 0 1
-11.284213 25.931678 -7.201232 29.182925 -1.160359 1.820134 0.102006 -0.019600 116530.000000 0 0 1
-10.738213 24.960778 -6.377932 27.911067 -1.164527 1.801342 0.076882 -0.011395 369690.000000 0 0 1
-11.470413 23.744178 -6.620132 27.187911 -1.120774 1.816764 0.116099 -0.018537 383354.000000 0 0 1
-10.908813 22.672178 -5.657732 25.788365 -1.122339 1.791986 0.110228 -0.024076 330652.000000 0 0 1
-9.594813 22.238978 -6.017632 24.956852 -1.163483 1.814318 0.104724 -0.018720 534594.000000 0 1 0
-9.212713 20.939778 -5.479432 23.523872 -1.156321 1.805887 0.101274 -0.017139 -258962.000000 0 1 0
-8.877013 20.780478 -3.994332 22.947425 -1.167080 1.745752 0.098883 -0.030536 306757.000000 0 1 0
-9.997013 20.893378 -3.091432 23.367295 -1.124514 1.703483 0.111927 -0.030811 532984.000000 0 1 0
-10.777913 19.701478 -3.115532 22.671969 -1.070212 1.708650 0.110397 -0.029913 831166.000000 0 1 0
-12.071813 19.691178 -2.193832 23.200949 -1.020831 1.665496 0.099603 -0.029783 783881.000000 0 1 0
-11.823013 19.574378 -0.776032 22.881043 -1.027438 1.604719 0.091618 -0.028529 -18708.100000 0 1 0
-11.293313 18.297178 -0.416132 21.505785 -1.017814 1.590147 0.070290 -0.023058 32314.800000 0 1 0
-11.065313 18.176478 1.131568 21.309762 -1.023952 1.517670 0.069753 -0.029311 358373.000000 0 1 0
-12.285713 18.151578 1.868068 21.997914 -0.975784 1.485774 0.094866 -0.034285 566464.000000 0 1 0
-12.031213 18.646178 3.217468 22.422804 -0.997776 1.426808 0.085267 -0.016607 74262.700000 0 1 0
-13.259413 18.452078 4.108668 23.090525 -0.947705 1.391906 0.099774 -0.028742 38531.200000 0 1 0
-13.546113 17.128678 4.542068 22.305138 -0.901663 1.365729 0.054086 -0.028407 323876.000000 0 1 0
-14.907813 17.065978 4.954568 23.195651 -0.852794 1.355539 0.075823 -0.035298 639630.000000 0 1 0
-15.402613 15.653878 5.336968 22.600168 -0.793489 1.332397 0.052091 -0.033484 -229983.000000 0 1 0
-14.732513 15.132078 6.478868 22.090777 -0.798777 1.273136 0.050866 -0.025446 -5906.580000 0 1 0
-15.142113 15.614378 7.728568 23.082962 -0.800752 1.229385 0.045966 -0.022651 -647234.000000 0 1 0
-14.043913 15.380378 8.786768 22.605194 -0.830787 1.171570 0.043069 -0.020303 1675730.000000 0 1 0
-12.836513 16.212678 8.722068 22.443294 -0.901101 1.171655 0.045136 -0.024158 907763.000000 0 1 0
-11.961313 15.882878 7.710668 21.325881 -0.925317 1.200852 0.046511 -0.026535 -1758230.000000 0 1 0
-10.847113 16.848578 7.456768 21.380782 -0.998792 1.214548 0.064154 -0.037001 -619131.000000 0 1 0
-9.860313 16.861778 8.441268 21.279105 -1.041648 1.162885 0.059358 -0.035196 -351106.000000 0 1 0
-9.211513 18.107178 8.579868 22.053027 -1.100196 1.171189 0.055027 -0.030143 -53262.700000 0 1 0
-8.027013 18.234578 9.556768 22.096710 -1.156115 1.123536 0.056348 -0.027045 480478.000000 0 1 0
-6.897113 17.407778 9.138368 20.835322 -1.193563 1.116756 0.039041 -0.021938 567269.000000 0 1 0
-5.713013 17.730178 9.818568 21.057113 -1.259081 1.085712 0.036940 -0.023955 -185760.000000 0 1 0
-4.847613 18.809478 9.198468 21.492036 -1.318563 1.128524 0.026362 -0.025797 -1547630.000000 0 1 0
-5.352413 20.086078 9.132768 22.704764 -1.310374 1.156834 0.044036 -0.029966 -540567.000000 0 1 0
-4.758213 21.052078 8.307068 23.126564 -1.348510 1.203386 0.047656 -0.033118 48415.000000 0 1 0
-3.332713 21.623878 8.596668 23.507483 -1.417878 1.196412 0.050504 -0.026149 1381130.000000 0 1 0
-2.259613 20.688878 8.302668 22.406914 -1.462009 1.191206 0.036817 -0.014588 767960.000000 0 1 0
-1.032913 21.381578 8.073468 22.878367 -1.522525 1.210142 0.039879 -0.015200 683166.000000 0 1 0
0.245087 20.531678 7.922368 22.008493 1.558860 1.202562 0.038055 -0.014427 372867.000000 0 1 0
0.588087 19.826378 9.088268 21.818059 1.541143 1.141152 0.035854 -0.022796 695182.000000 0 1 0
1.917787 19.249778 8.968768 21.323007 1.471498 1.136674 0.026009 -0.025564 1362980.000000 0 1 0
2.472787 18.746478 10.348368 21.555366 1.439647 1.070047 0.022716 -0.035741 1835820.000000 0 1 0
3.926687 18.584478 10.361368 21.636997 1.362570 1.071426 0.043657 -0.018460 1446420.000000 0 1 0
4.434587 18.494578 11.639768 22.297963 1.335462 1.021590 0.038005 -0.020770 -488685.000000 0 1 0
5.929387 18.813878 11.710168 22.940088 1.265490 1.035068 0.059775 -0.019433 151080.000000 0 1 0
6.790887 17.937778 10.969268 22.095358 1.208891 1.051291 0.049932 -0.021672 270031.000000 0 1 0
7.360587 16.906878 11.832168 21.909380 1.160183 1.000299 0.045999 -0.023871 709249.000000 0 1 0
8.650687 16.229778 11.206868 21.536805 1.081088 1.023525 0.052731 -0.026867 1281040.000000 0 1 0
9.787887 17.098678 11.208968 22.667344 1.050892 1.053539 0.062122 -0.028893 6008.590000 0 1 0
10.937887 16.493078 10.691168 22.493556 0.985211 1.075492 0.059016 -0.029936 154193.000000 0 1 0
12.051187 17.485578 10.255568 23.582901 0.967351 1.120899 0.067724 -0.032671 527975.000000 0 1 0
13.079887 16.851778 9.498968 23.351579 0.910754 1.151869 0.075650 -0.031523 220109.000000 0 1 0
13.793787 17.801878 8.692668 24.139965 0.911580 1.202427 0.099425 -0.031818 206246.000000 0 1 0
14.671287 17.130978 7.609268 23.803740 0.862588 1.245418 0.118403 -0.034909 67031.600000 0 1 0
16.014787 16.946678 8.001468 24.651304 0.813663 1.240222 0.123864 -0.034445 -408993.000000 0 1 0
16.769287 16.447978 6.972068 24.502136 0.775726 1.282260 0.111437 -0.031095 -1318710.000000 0 1 0
18.225987 16.288478 7.326868 25.518309 0.729321 1.279575 0.117319 -0.033301 -881539.000000 0 0 1
18.527387 15.063278 8.083368 25.209269 0.682634 1.244380 0.135115 -0.040806 1021680.000000 0 0 1
19.676987 15.327778 8.951168 26.499962 0.661785 1.226239 0.145320 -0.044173 859478.000000 0 0 1
20.068587 14.085278 9.803468 26.405515 0.611971 1.190424 0.143758 -0.049219 800565.000000 0 0 1
21.025587 13.148678 9.205968 26.452086 0.558862 1.215334 0.181958 -0.062343 913058.000000 0 0 1
21.351087 12.252178 10.236168 26.660156 0.520965 1.176726 0.185630 -0.065105 -545672.000000 0 0 1
22.344487 11.143578 9.893868 26.857849 0.462621 1.193532 0.183963 -0.054098 -524952.000000 0 0 1
23.644287 11.737978 9.773768 28.148871 0.460796 1.216194 0.175866 -0.064188 1694050.000000 0 0 1
24.622187 10.998278 8.962568 28.417280 0.420091 1.249927 0.192108 -0.054897 395759.000000 0 0 1
24.981287 9.558878 9.327068 28.327214 0.365453 1.235275 0.203221 -0.060025 -646260.000000 0 0 1
23.908787 8.685678 8.970568 26.972990 0.348460 1.231763 0.223983 -0.064946 700695.000000 0 0 1
24.057087 7.354978 9.364068 26.842595 0.296706 1.214451 0.212578 -0.055795 -496913.000000 0 0 1
24.940187 6.448778 8.505268 27.128200 0.253028 1.251897 0.224370 -0.058209 -231309.000000 0 0 1
24.489287 6.196478 7.234068 26.276477 0.247827 1.291889 0.212730 -0.044173 506871.000000 0 0 1
25.527287 5.602878 6.455268 26.920347 0.216060 1.328645 0.221846 -0.041022 124453.000000 0 0 1
25.134787 5.176078 5.022868 26.149159 0.203094 1.377510 0.232272 -0.052908 -551069.000000 0 0 1
24.155487 4.186778 5.005168 25.021358 0.171621 1.369402 0.225711 -0.045601 55327.700000 0 0 1
23.720787 3.817678 3.724868 24.313063 0.159574 1.416986 0.235582 -0.048077 -338223.000000 0 1 0
22.551887 2.846378 3.623768 23.017845 0.125551 1.412706 0.209086 -0.042923 -473321.000000 0 1 0
22.942087 1.569578 3.983268 23.338152 0.068308 1.399280 0.233013 -0.046732 351067.000000 0 1 0
22.004487 0.560078 3.624068 22.307958 0.025447 1.407617 0.216693 -0.036192 65014.000000 0 1 0
22.594387 -0.866522 3.805068 22.928928 -0.038332 1.404075 0.252275 -0.048029 -200561.000000 0 1 0
22.686287 -1.304422 5.123768 23.294251 -0.057435 1.349024 0.229094 -0.053033 523737.000000 0 1 0
22.901687 -2.679322 5.233068 23.644260 -0.116463 1.347623 0.227089 -0.057235 -243962.000000 0 1 0
23.057687 -3.134022 6.675568 24.208309 -0.135093 1.291421 0.259953 -0.056124 -66816.200000 0 1 0
23.295387 -4.511522 6.755768 24.671224 -0.191298 1.293421 0.241853 -0.052281 451456.000000 0 1 0
23.513087 -4.949822 8.103068 25.357951 -0.207484 1.245545 0.286452 -0.057224 -184268.000000 0 0 1
23.074587 -6.415122 8.404068 25.381464 -0.271169 1.233316 0.275253 -0.053409 958673.000000 0 0 1
21.637787 -6.478422 8.296768 24.062422 -0.290909 1.218769 0.278905 -0.056810 1375820.000000 0 1 0
21.179387 -7.736122 8.836368 24.217667 -0.350210 1.197300 0.242138 -0.052658 -72086.200000 0 1 0
-28.092633 -32.675993 5.596068 43.453798 0.860679 1.441656 0.100488 -0.015181 -288331.000000 0 0 1
-28.941143 33.683378 5.624668 44.763787 -0.860979 1.444811 0.106076 -0.024772 -229285.000000 0 0 1
-29.138443 33.215078 6.937068 44.725979 -0.850685 1.415066 0.077215 -0.006035 -97194.000000 0 0 1
-30.047723 31.961478 7.027168 44.427276 -0.816251 1.411957 0.091371 -0.023884 278131.000000 0 0 1
-31.400673 32.376178 6.943268 45.633629 -0.800693 1.418051 0.102296 -0.016032 155118.000000 0 0 1
-32.304413 31.421978 7.499668 45.685455 -0.771552 1.405891 0.136102 -0.033272 -591931.000000 0 0 1
-33.752713 31.786878 7.645368 46.990455 -0.755413 1.407369 0.147472 -0.026092 -820203.000000 0 0 1
-34.417232 31.684678 6.384168 47.214640 -0.744083 1.435165 0.137664 -0.031515 -355705.000000 0 0 1
-35.808112 31.826678 6.425668 48.336813 -0.726599 1.437466 0.111660 -0.024382 -595281.000000 0 0 1
-36.393683 31.717978 5.050668 48.539052 -0.716858 1.466554 0.101978 -0.021651 -594023.000000 0 0 1
-36.288453 30.405578 4.547468 47.560808 -0.697419 1.475036 0.113436 -0.027724 107923.000000 0 0 1
-36.785343 30.281078 3.266468 47.757460 -0.688718 1.502346 0.108716 -0.006737 -309930.000000 0 0 1
-36.395133 28.970778 2.679768 46.594987 -0.672301 1.513253 0.106734 -0.023121 -414268.000000 0 0 1
-36.998663 27.818778 3.247168 46.403982 -0.644707 1.500763 0.140729 -0.034214 91331.900000 0 0 1
-36.230443 26.692978 2.914468 45.096055 -0.634971 1.506123 0.116733 -0.035925 -361312.000000 0 0 1
-36.651373 25.392978 3.489968 44.724784 -0.605894 1.492685 0.144491 -0.040404 -852840.000000 0 0 1
-37.917423 24.955078 3.125068 45.500032 -0.582078 1.502059 0.137862 -0.034781 -488202.000000 0 0 1
37.732361 24.155778 4.218968 45.000359 0.569446 1.476904 0.139124 -0.037117 33175.900000 0 0 1
36.214011 23.885778 4.171668 43.581966 0.583075 1.474930 0.150722 -0.030736 -124753.000000 0 0 1
35.778591 22.916078 3.177068 42.606900 0.569666 1.496160 0.124728 -0.037883 228288.000000 0 0 1
36.120961 21.592878 3.500468 42.228301 0.538796 1.487807 0.113958 -0.034691 -934053.000000 0 0 1
35.531511 20.569478 2.519368 41.133185 0.524766 1.509509 0.111133 -0.020239 1494060.000000 0 0 1
34.110741 20.268378 2.657968 39.767003 0.536139 1.503908 0.108781 -0.030763 1604410.000000 0 0 1
33.738201 19.451278 3.742268 39.123177 0.522988 1.474996 0.087960 -0.025064 -418819.000000 0 0 1
33.865151 17.922978 3.542968 38.479010 0.486769 1.478590 0.115994 -0.027057 -646954.000000 0 0 1
32.911461 17.481078 2.617568 37.357783 0.488260 1.500671 0.087520 -0.034457 157608.000000 0 0 1
32.873121 16.093478 2.422968 36.681233 0.455264 1.504694 0.103737 -0.029579 -97120.100000 0 0 1
32.113281 15.214678 3.454768 35.702726 0.442454 1.473880 0.138046 -0.033291 27057.500000 0 0 1
30.699501 15.216478 3.333368 34.425454 0.460169 1.473816 0.096978 -0.028404 288256.000000 0 0 1
30.076301 14.387378 4.308668 33.617631 0.446188 1.442276 0.095138 -0.041316 -670784.000000 0 0 1
28.559701 14.404878 4.319668 32.277183 0.467144 1.436563 0.083917 -0.033382 -746342.000000 0 0 1
28.006801 13.920878 3.113668 31.430346 0.461288 1.471568 0.092164 -0.044345 -538815.000000 0 0 1
26.693501 14.390478 3.011168 30.474513 0.494437 1.471825 0.078582 -0.030812 -149588.000000 0 0 1
25.879701 13.806478 1.782768 29.386323 0.490077 1.510092 0.092404 -0.027976 202080.000000 0 0 1
26.288701 14.220778 0.492168 29.892617 0.495866 1.554331 0.091301 -0.026437 260751.000000 0 0 1
27.607101 13.823778 0.155068 30.875118 0.464234 1.565774 0.095396 -0.031172 -276342.000000 0 0 1
28.209101 14.441978 -1.153532 31.712060 0.473171 1.607180 0.114441 -0.031015 101700.000000 0 0 1
28.590401 15.805578 -1.133832 32.688115 0.505012 1.605490 0.060935 -0.014192 900873.000000 0 0 1
29.722201 16.093478 -0.287232 33.800765 0.496265 1.579294 0.073342 -0.023419 98071.800000 0 0 1
30.141201 17.564378 -0.234732 34.886307 0.527629 1.577525 0.073927 -0.018414 -576118.000000 0 0 1
31.170001 17.981378 -1.073532 36.000713 0.523247 1.600621 0.077385 -0.007851 -457732.000000 0 0 1
31.707281 19.153678 -0.580832 37.047974 0.543413 1.586475 0.071321 0.004692 -443484.000000 0 0 1
32.629931 19.678378 -1.660832 38.140651 0.542679 1.614355 0.067838 0.003737 -412475.000000 0 0 1
33.073741 21.022078 -1.518732 39.218702 0.566194 1.609531 0.053844 0.012251 619648.000000 0 0 1
32.432261 21.902778 -2.469432 39.213280 0.593983 1.633812 0.067766 0.001365 292759.000000 0 0 1
33.285721 23.227378 -2.540532 40.668226 0.609260 1.633307 0.100441 -0.007225 438087.000000 0 0 1
33.353261 23.949078 -1.345532 41.082950 0.622733 1.603554 0.092840 -0.010143 6264.030000 0 0 1
34.543681 23.574078 -0.697132 41.826893 0.598845 1.587464 0.104759 0.001258 -387331.000000 0 0 1
34.802691 24.419078 0.527968 42.518201 0.611828 1.558379 0.103841 -0.015645 -153110.000000 0 0 1
35.069801 25.745778 0.144468 43.505826 0.633266 1.567476 0.114570 -0.006905 -347755.000000 0 0 1
36.020531 26.247378 1.035768 44.581120 0.629715 1.547561 0.126740 -0.024423 -42341.600000 0 0 1
36.830021 27.472978 0.571568 45.951514 0.640898 1.558358 0.112837 -0.024883 67183.300000 0 0 1
37.555671 27.395578 -0.630932 46.490259 0.630229 1.584368 0.108894 -0.017205 448048.000000 0 0 1
36.713331 27.354178 -1.785132 45.818188 0.640342 1.609767 0.092291 -0.018137 231815.000000 0 0 1
37.528511 27.061178 -3.064732 46.369053 0.624736 1.636939 0.094586 -0.016944 99152.900000 0 0 1
-37.778073 28.030978 -3.567732 47.176766 -0.638355 1.646493 0.100139 -0.024458 292192.000000 0 0 1
-37.218223 27.598278 -4.837032 46.586027 -0.638056 1.674814 0.105710 -0.017738 324128.000000 0 0 1
38.043461 27.559978 -6.108432 47.372674 0.626937 1.700101 0.092321 -0.013898 63461.100000 0 0 1
36.938661 26.714278 -6.082932 45.990427 0.626132 1.703450 0.099872 -0.009561 -314571.000000 0 0 1
36.021451 26.916078 -7.126132 45.528034 0.641722 1.727964 0.085781 -0.003247 644091.000000 0 0 1
34.717951 26.044178 -7.061732 43.971620 0.643606 1.732092 0.098563 -0.003083 312428.000000 0 0 1
34.728371 24.640678 -7.461832 43.230795 0.617091 1.744270 0.081431 -0.003847 -123470.000000 0 0 1
35.784501 23.836278 -6.966332 43.557186 0.587614 1.731421 0.096618 -0.007838 -19357.800000 0 0 1
35.656041 22.309878 -7.126432 42.659933 0.559100 1.738635 0.097303 -0.000296 -152768.000000 0 0 1
34.614501 21.817178 -6.322232 41.401975 0.562394 1.724100 0.073756 0.012380 86007.600000 0 0 1
34.724591 20.434778 -6.252132 40.773355 0.531907 1.724742 0.074160 0.007388 216849.000000 0 0 1
33.533181 19.803578 -5.508532 39.331919 0.533454 1.711311 0.073867 0.002391 893764.000000 0 0 1
32.252021 19.667878 -6.119432 38.268338 0.547608 1.731394 0.061077 -0.002358 955400.000000 0 0 1
31.291751 18.857778 -5.432732 36.936486 0.542361 1.718415 0.082921 -0.016017 595870.000000 0 0 1
30.099601 18.505678 -6.357432 35.900738 0.551242 1.748819 0.049826 -0.017192 -40157.800000 0 0 1
30.390501 17.430378 -7.179232 35.762298 0.520742 1.772918 0.032361 -0.007219 260218.000000 0 0 1
29.537901 17.437478 -8.335532 35.299211 0.533288 1.809187 0.051032 -0.022845 206712.000000 0 0 1
29.607701 16.223478 -9.220432 34.997622 0.501266 1.837402 0.063100 -0.015163 -180443.000000 0 0 1
28.898901 16.381378 -10.444832 34.822271 0.515689 1.875433 0.098181 -0.017247 258073.000000 0 0 1
29.083301 15.316178 -11.378632 34.783573 0.484725 1.904058 0.090135 -0.018024 -935059.000000 0 0 1
28.163801 15.414578 -12.549232 34.471613 0.500782 1.943404 0.118377 -0.009456 -755330.000000 0 0 1
26.795601 15.249578 -12.241532 33.172413 0.517395 1.948759 0.100796 -0.018014 206462.000000 0 0 1
25.920001 15.348978 -13.348732 32.948842 0.534640 1.987923 0.117569 -0.026471 -127430.000000 0 0 1
25.646301 14.020478 -14.111532 32.456769 0.500295 2.020590 0.123722 -0.035955 -442508.000000 0 0 1
26.821801 13.453878 -14.659432 33.396329 0.464929 2.025230 0.131464 -0.038639 208220.000000 0 0 1
27.138201 14.063678 -15.906732 34.457120 0.478121 2.050638 0.133375 -0.042661 -382801.000000 0 0 1
28.503601 13.628078 -16.492232 35.639493 0.445989 2.051893 0.152846 -0.037406 103466.000000 0 0 1
28.616501 12.306578 -16.882632 35.431331 0.406142 2.067453 0.157219 -0.038147 329516.000000 0 0 1
29.974801 11.959978 -17.114832 36.530087 0.379645 2.058404 0.149304 -0.017434 487552.000000 0 0 1
30.064001 10.543678 -17.591632 36.393390 0.337305 2.075302 0.119972 -0.016398 -175499.000000 0 0 1
29.425301 10.384378 -18.834132 36.447334 0.339262 2.113846 0.124069 -0.023422 -85962.900000 0 0 1
29.409901 9.149178 -19.497332 36.452650 0.301601 2.135147 0.098859 -0.006203 -319648.000000 0 0 1
30.744501 8.829278 -20.187032 37.824552 0.279656 2.133768 0.121088 -0.009546 -776615.000000 0 0 1
31.032201 9.830778 -21.197432 38.845499 0.306791 2.148003 0.131021 -0.017818 465537.000000 0 0 1
31.667381 9.261778 -22.365432 39.859956 0.284535 2.166511 0.113547 -0.013558 -291497.000000 0 0 1
33.074491 8.637378 -22.360132 40.847298 0.255444 2.150060 0.104207 -0.014033 -981673.000000 0 0 1
34.001691 9.671678 -22.265032 41.777841 0.277128 2.132866 0.112790 -0.013511 167068.000000 0 0 1
35.300431 9.084478 -22.173632 42.665186 0.251882 2.117311 0.086396 -0.010482 1198010.000000 0 0 1
36.609181 9.949578 -22.037732 43.873544 0.265368 2.097054 0.099001 -0.019410 794874.000000 0 0 1
36.677761 10.646978 -20.863532 43.518999 0.282520 2.070781 0.080374 -0.015647 280171.000000 0 0 1
37.769991 11.543178 -20.843432 44.657203 0.296603 2.056401 0.054325 -0.010459 -54380.100000 0 0 1
38.019491 12.220078 -19.480032 44.432912 0.310987 2.024630 0.047551 -0.014917 -132147.000000 0 0 1
-37.852073 11.354478 -18.430832 43.605036 -0.291429 2.007193 0.057874 -0.012499 188874.000000 0 0 1
-37.925323 12.019178 -17.161032 43.327725 -0.306904 1.978035 0.054244 -0.011678 -189968.000000 0 0 1
-37.763233 11.147378 -15.870032 42.452135 -0.287039 1.953935 0.056575 -0.021681 -342344.000000 0 0 1
37.435751 10.156478 -15.738632 41.860411 0.264927 1.956249 0.047600 -0.017446 57181.700000 0 0 1
37.759051 9.219578 -14.744732 41.571068 0.239483 1.933376 0.022046 -0.023204 -321979.000000 0 0 1
36.856541 7.962978 -14.605532 40.436805 0.212783 1.940344 0.091234 -0.015692 -1002580.000000 0 0 1
35.762521 8.127078 -13.792332 39.182084 0.223456 1.930510 0.106947 -0.021137 -559405.000000 0 0 1
36.055911 7.969178 -12.397332 38.951641 0.217526 1.894706 0.118093 -0.031252 -683383.000000 0 0 1
35.087101 8.642578 -11.409532 37.894277 0.241510 1.876630 0.122911 -0.028902 -352574.000000 0 0 1
35.084661 10.047678 -11.373932 38.226373 0.278919 1.872913 0.119919 -0.030108 173492.000000 0 0 1
34.219801 10.543778 -10.364832 37.277282 0.298889 1.852557 0.095526 -0.022731 -527384.000000 0 0 1
34.580411 10.184578 -8.841932 37.117519 0.286421 1.811323 0.111917 -0.022158 -66165.000000 0 0 1
35.749971 10.867578 -8.416132 38.301383 0.295112 1.792339 0.132440 -0.023336 238597.000000 0 0 1
35.618781 12.215978 -8.108832 38.518577 0.330393 1.782901 0.120241 -0.026185 -344574.000000 0 0 1
35.134631 12.483778 -6.658532 37.876418 0.341400 1.747511 0.109314 -0.023460 -370613.000000 0 0 1
36.170541 12.247278 -5.759532 38.619633 0.326481 1.720490 0.153523 -0.024646 90323.300000 0 0 1
35.817491 12.547778 -4.416232 38.207885 0.336965 1.686640 0.137834 -0.010831 -471826.000000 0 0 1
37.087831 12.620978 -3.595832 39.341152 0.328007 1.662325 0.165089 -0.016828 -248412.000000 0 0 1
37.966221 13.690278 -3.941432 40.551110 0.346079 1.668147 0.176260 -0.006038 291861.000000 0 0 1
-37.059713 13.594478 -3.139832 39.599125 -0.351586 1.650170 0.172255 -0.018079 235012.000000 0 0 1
-36.117363 14.799478 -3.253932 39.167289 -0.388892 1.653970 0.161121 -0.014781 218716.000000 0 0 1
-36.688543 15.964378 -2.605832 40.096146 -0.410422 1.635832 0.174398 -0.007693 692150.000000 0 0 1
-35.707319 16.973478 -2.330432 39.604829 -0.443734 1.629672 0.166796 -0.013266 470733.000000 0 0 1
-36.253103 18.110678 -1.402032 40.549350 -0.463297 1.605379 0.164665 -0.009212 1082870.000000 0 0 1
-37.336083 18.912778 -1.961932 41.898991 -0.468878 1.617639 0.150364 -0.001598 802350.000000 0 0 1
-37.965793 19.705178 -1.009932 42.786861 -0.478751 1.594402 0.147145 -0.006581 153000.000000 0 0 1
37.397191 20.806378 -1.717832 42.829968 0.507715 1.610915 0.121296 -0.006312 340401.000000 0 0 1
-37.943813 21.821978 -2.227732 43.828010 -0.521919 1.621647 0.119569 -0.006521 448115.000000 0 0 1
37.808271 22.269178 -3.507832 44.019161 0.532294 1.650570 0.093445 -0.004432 -30359.200000 0 0 1
-37.628843 23.566278 -3.864832 44.567210 -0.559521 1.657625 0.112183 -0.012972 543611.000000 0 0 1
-36.263713 23.228678 -4.130232 43.263000 -0.569702 1.666410 0.127018 -0.015178 538355.000000 0 0 1
-35.551753 24.364578 -4.661432 43.350764 -0.600810 1.678533 0.139617 -0.024964 258415.000000 0 0 1
-34.049724 24.155078 -4.913232 42.035596 -0.617011 1.687947 0.123971 -0.034202 -200569.000000 0 0 1
-33.929032 23.219578 -5.986632 41.547175 -0.600150 1.715392 0.112144 -0.016544 23451.000000 0 0 1
-32.605313 23.143578 -6.466032 40.503595 -0.617280 1.731123 0.123422 -0.010538 -303015.000000 0 0 1
-32.472863 22.151578 -7.653332 40.046882 -0.598650 1.763089 0.110804 -0.017280 -227278.000000 0 0 1
-33.234463 22.482278 -8.781132 41.074209 -0.594762 1.786246 0.108670 -0.022638 -230209.000000 0 0 1
-32.829443 21.776778 -9.916032 40.624230 -0.585690 1.817379 0.071829 -0.016472 -129355.000000 0 0 1
-33.742553 21.814178 -11.197632 41.710972 -0.573903 1.842588 0.083163 -0.009570 -246436.000000 0 0 1
-33.786533 23.167578 -11.632332 42.586120 -0.601067 1.847461 0.085100 -0.011739 105970.000000 0 0 1
-34.295287 23.301178 -12.941032 43.434801 -0.596785 1.873332 0.057971 -0.010752 -728826.000000 0 0 1
-34.398086 24.797278 -13.371932 44.462815 -0.624610 1.876269 0.091396 -0.018120 1927250.000000 0 0 1
-33.109033 25.523378 -13.366832 43.889897 -0.656736 1.880266 0.087513 -0.009357 1539390.000000 0 0 1
-32.110653 25.219378 -14.323532 43.269789 -0.665769 1.908190 0.077260 -0.005792 173904.000000 0 0 1
-30.749443 25.763078 -13.813332 42.427262 -0.697391 1.902418 0.075473 -0.002061 195436.000000 0 0 1
-30.075673 25.113978 -12.680632 41.183206 -0.695737 1.883790 0.055487 -0.015063 228498.000000 0 0 1
-30.646893 25.112378 -11.402632 41.229645 -0.686465 1.851013 0.084073 -0.016690 -418411.000000 0 0 1
-30.807633 26.499078 -10.724532 42.027693 -0.710355 1.828828 0.112057 -0.008125 -10783.200000 0 0 1
-29.645853 27.072778 -10.164332 41.414074 -0.740064 1.818761 0.146099 -0.007103 -229459.000000 0 0 1
-29.840953 28.368078 -9.702032 42.300824 -0.760100 1.802214 0.150320 -0.014658 -868208.000000 0 0 1
-28.558943 29.023978 -9.315732 41.770652 -0.793474 1.795709 0.157859 -0.027435 -947043.000000 0 0 1
-28.785573 30.370978 -8.942232 42.789824 -0.812192 1.781328 0.144454 -0.037614 1116.470000 0 0 1
-27.598813 31.136178 -8.931832 42.555066 -0.845551 1.782258 0.169094 -0.029912 -16430.600000 0 0 1
36.785481 -25.061672 33.236159 55.550889 -0.598060 0.929417 0.051558 -0.031930 -139476.000000 0 0 1
36.478651 -23.685022 33.384733 54.828939 -0.575872 0.916137 0.051234 -0.034245 478167.000000 0 0 1
35.595311 -23.518422 -32.884822 53.866073 -0.583872 2.227478 0.059503 -0.024536 126460.000000 0 0 1
35.208591 -22.092522 -32.560582 52.800719 -0.560377 2.235301 0.048907 -0.018397 1590.690000 0 0 1
34.383331 -21.493822 -33.529062 52.615548 -0.558688 2.261716 0.031971 -0.017040 97166.600000 0 0 1
33.906281 -20.199722 -33.135132 51.532530 -0.537290 2.269198 0.021335 -0.002740 170675.000000 0 0 1
33.352391 -19.383922 33.103521 50.832681 -0.526470 0.861599 0.029537 -0.004670 -37755.900000 0 0 1
34.369291 -19.019422 32.197414 50.790354 -0.505438 0.884175 0.047286 -0.013130 -199051.000000 0 0 1
33.917441 -18.366322 31.080563 49.534997 -0.496295 0.892527 0.062525 -0.009120 -407507.000000 0 0 1
34.971531 -18.218822 29.961353 49.523894 -0.480276 0.921046 0.059034 -0.013979 1547.370000 0 0 1
35.932321 -17.224222 30.242933 50.024399 -0.446993 0.921578 0.054247 -0.018307 401460.000000 0 0 1
36.967311 -17.081422 29.281393 50.157322 -0.432844 0.947406 0.085848 -0.018420 864562.000000 0 0 1
-38.075203 -16.116222 29.798273 50.964603 0.400407 0.946304 0.086842 -0.021277 -105657.000000 0 0 1
-36.989943 -16.083022 28.954843 49.651812 0.410137 0.948186 0.094487 -0.023884 -976703.000000 0 0 1
-36.063533 -15.119622 29.352213 48.895130 0.396990 0.926908 0.079742 -0.030617 -1098620.000000 0 0 1
-34.714781 -15.370222 28.673843 47.576769 0.416815 0.923934 0.110609 -0.030095 -883529.000000 0 0 1
-33.612773 -14.666022 29.144703 46.843616 0.411422 0.899285 0.087484 -0.028015 -550186.000000 0 0 1
-32.955893 -15.553022 29.998513 47.200616 0.440944 0.882071 0.085164 -0.037936 -643794.000000 0 0 1
-31.606923 -15.037622 30.563503 46.467788 0.444076 0.852988 0.102593 -0.045572 273339.000000 0 0 1
-31.802293 -13.981222 31.487240 46.886103 0.414196 0.834472 0.102419 -0.043351 155437.000000 0 0 1
-30.586173 -13.322722 31.741063 46.048930 0.410798 0.810288 0.098206 -0.050743 -22078.800000 0 0 1
-30.749833 -12.506122 33.041968 46.837239 0.386273 0.787719 0.080067 -0.010173 -116435.000000 0 0 1
-30.748083 -13.297322 -33.162012 47.137909 0.408172 2.351121 0.099341 -0.018593 310700.000000 0 0 1
-31.023073 -12.530722 -32.002072 46.298841 0.383878 2.333954 0.100818 -0.000592 -332455.000000 0 0 1
-31.208973 -13.319422 -30.666982 45.736974 0.403379 2.305689 0.096584 -0.019181 227586.000000 0 0 1
-32.416493 -14.074322 -30.579062 46.733228 0.409613 2.284096 0.094467 -0.015764 384363.000000 0 0 1
-32.555803 -14.643522 -29.272022 46.164536 0.422686 2.257615 0.109252 -0.000290 339969.000000 0 0 1
-33.815633 -15.534222 -29.102622 47.241631 0.430627 2.234499 0.089412 -0.013046 158875.000000 0 0 1
-33.713583 -16.724422 -29.749902 47.972582 0.460502 2.239722 0.073691 -0.014608 166330.000000 0 0 1
-34.842743 -17.552022 -29.551812 48.942822 0.466643 2.219059 0.061670 -0.015755 -197850.000000 0 0 1
-34.572464 -19.009622 -29.982312 49.553608 0.502727 2.220623 0.050755 -0.012030 -444752.000000 0 0 1
-35.655934 -19.851222 -30.284582 50.819018 0.508006 2.209220 0.034539 -0.016941 -400228.000000 0 0 1
-35.273680 -21.114722 -30.767322 51.348730 0.539387 2.213277 0.027475 -0.016717 -406722.000000 0 0 1
-36.460543 -22.034722 -31.096542 52.743674 0.543608 2.201333 0.029393 -0.020510 -144270.000000 0 0 1
-37.162423 -22.458822 -29.951722 52.749882 0.543606 2.174635 0.034461 -0.021756 -87870.000000 0 0 1
38.069841 -23.480222 -30.132252 53.931310 -0.552657 2.163632 0.057379 -0.028070 -184657.000000 0 0 1
-37.609643 -24.916222 -30.360662 54.378977 0.585109 2.163151 0.043531 -0.028453 -76788.600000 0 0 1
-37.067663 -24.960022 -31.676662 54.776138 0.592625 2.187431 0.052954 -0.034341 47749.100000 0 0 1
-36.171573 -26.086902 -31.784542 54.764645 0.624812 2.189997 0.043198 -0.035625 178533.000000 0 0 1
-36.613053 -27.175332 -32.831802 56.186667 0.638510 2.194856 0.056887 -0.041295 346347.000000 0 0 1
-37.921743 -27.694492 -32.618562 57.175293 0.630778 2.177912 0.071850 -0.040862 -153950.000000 0 0 1
37.932861 -28.830852 -33.382302 58.176439 -0.649902 2.181948 0.055576 -0.041456 -316586.000000 0 0 1
-37.758793 -30.187042 -32.919132 58.486351 0.674418 2.168628 0.054579 -0.041306 -380702.000000 0 0 1
37.929801 -30.471492 -31.658982 58.047160 -0.676790 2.147664 0.066837 -0.047600 -329376.000000 0 0 1
-37.459903 -31.378012 -31.007362 57.872969 0.697276 2.136231 0.058378 -0.047274 -401506.000000 0 0 1
-38.047983 -31.685802 -29.601052 57.687619 0.694415 2.109620 0.048964 -0.039962 70804.000000 0 0 1
37.107351 -32.628002 -29.742322 57.672764 -0.721253 2.112630 0.070881 -0.037672 80368.400000 0 0 1
36.467351 -32.815672 -28.488392 56.730279 -0.732740 2.096906 0.073676 -0.037871 -107639.000000 0 0 1
35.258271 33.685629 -28.484752 56.473431 0.762592 2.099474 0.083479 -0.036105 466370.000000 0 0 1
34.088731 -33.250802 -29.133312 55.824791 -0.772955 2.119839 0.096379 -0.038612 313099.000000 0 0 1
32.985711 33.380797 -28.809282 55.066410 0.791351 2.121367 0.096350 -0.028514 1434130.000000 0 0 1
31.580651 33.722369 -29.472262 54.801003 0.818183 2.138628 0.078377 -0.020770 1212270.000000 0 0 1
31.463321 33.240189 -30.759542 55.145264 0.812853 2.162518 0.074178 -0.017808 169383.000000 0 0 1
30.197801 33.573149 -31.309952 54.948855 0.838278 2.177061 0.086282 -0.009745 -38536.400000 0 0 1
29.895601 32.891788 -32.639952 55.145110 0.833082 2.204201 0.077293 -0.023425 132897.000000 0 0 1
29.999301 31.485244 -32.506772 54.295201 0.809561 2.212679 0.072927 -0.023121 7936.200000 0 0 1
29.748001 30.768779 33.684923 54.464074 0.802264 0.903990 0.077533 -0.028047 39638.100000 0 0 1
29.893801 29.287229 -33.584592 53.659165 0.775149 2.247065 0.076590 -0.038349 -176991.000000 0 0 1
31.229701 28.881509 -33.608942 54.212515 0.746354 2.239473 0.079911 -0.034370 -576636.000000 0 0 1
31.197501 27.580989 -33.094752 53.190767 0.723948 2.242333 0.067579 -0.033634 649282.000000 0 0 1
32.605841 26.919809 -33.080082 53.685276 0.690165 2.234686 0.089366 -0.031495 387875.000000 0 0 1
33.373291 27.162279 -31.943992 53.590900 0.683155 2.209395 0.105910 -0.033002 -621055.000000 0 0 1
34.677221 26.661179 -31.994522 54.193889 0.655449 2.202315 0.120928 -0.030461 -165523.000000 0 0 1
35.554901 26.913459 -30.741262 54.161891 0.647937 2.174361 0.120086 -0.033634 -458048.000000 0 0 1
36.269351 28.122239 -30.520142 55.116288 0.659542 2.157646 0.105077 -0.029689 557397.000000 0 0 1
35.538951 29.389169 -30.651852 55.373968 0.690963 2.157408 0.092545 -0.017388 1089560.000000 0 0 1
34.345561 29.644319 -29.644702 54.196048 0.712061 2.149561 0.096996 -0.017778 794175.000000 0 0 1
34.912401 29.801039 -28.377292 53.965252 0.706577 2.124503 0.099394 -0.022794 64075.900000 0 0 1
33.936371 30.012559 -27.374842 52.932154 0.724116 2.114336 0.108262 -0.026775 23742.500000 0 0 1
34.477301 30.271259 -25.954002 52.712841 0.720530 2.085602 0.117585 -0.025346 272168.000000 0 0 1
35.202611 31.518441 -25.799882 53.835582 0.730237 2.070579 0.099363 -0.023990 404413.000000 0 0 1
35.649861 31.631067 -24.461132 53.570365 0.725738 2.044985 0.095494 -0.031480 -87620.100000 0 0 1
35.948431 33.131264 -24.060932 54.487602 0.744639 2.028161 0.096969 -0.028290 -189500.000000 0 0 1
34.810481 -33.517722 -24.047432 53.976720 -0.766481 2.032546 0.108734 -0.030251 109481.000000 0 0 1
35.252871 -32.161142 -23.829432 53.338033 -0.739568 2.033940 0.094791 -0.029169 -201035.000000 0 0 1
35.532801 -31.199272 -25.104032 53.536781 -0.720550 2.058855 0.083134 -0.031947 879212.000000 0 0 1
36.831591 -31.396372 -25.694482 54.795115 -0.705903 2.058863 0.085904 -0.033831 1052420.000000 0 0 1
37.858661 -30.629172 -25.043632 54.759546 -0.680229 2.045796 0.088541 -0.029097 340635.000000 0 0 1
-36.903293 -30.814272 -25.651072 54.491742 0.695721 2.060918 0.066507 -0.021161 182339.000000 0 0 1
-36.333213 -32.069562 -25.493032 54.758140 0.723147 2.055060 0.065858 -0.021709 -192582.000000 0 0 1
-36.069763 -32.519462 -24.123732 54.226356 0.733683 2.031827 0.073877 -0.013513 -849292.000000 0 0 1
-34.835330 -31.920902 -23.446732 52.746502 0.741768 2.031432 0.056233 -0.010618 -413026.000000 0 0 1
-34.966814 -30.545992 -23.269432 51.934595 0.718020 2.035382 0.036612 -0.005502 -309932.000000 0 0 1
-34.526978 -30.146212 -22.028532 50.854327 0.717765 2.018802 0.056038 -0.011279 -220927.000000 0 0 1
-34.400242 -28.580822 -21.891632 49.794413 0.693260 2.025995 0.066597 0.004567 344711.000000 0 0 1
-35.618434 -27.878872 -22.107232 50.345149 0.664108 2.025408 0.042218 0.005911 -19806.900000 0 0 1
-35.816337 -27.632392 -23.482332 50.968412 0.657121 2.049606 0.042285 -0.004638 -642511.000000 0 0 1
-37.147763 -27.004752 -23.868532 51.758282 0.628588 2.050091 0.048729 -0.006549 -342816.000000 0 0 1
-37.442713 -25.726902 -23.267132 51.041059 0.602016 2.044125 0.050749 -0.007662 -141901.000000 0 0 1
37.855761 -24.819622 -23.914232 51.195339 -0.580327 2.056824 0.058531 -0.014714 332015.000000 0 0 1
-37.814003 -24.272022 -25.304242 51.568736 0.570645 2.083677 0.053951 -0.011519 110368.000000 0 0 1
-36.676793 -23.419822 -25.287002 50.329988 0.568281 2.097197 0.045309 -0.015567 133581.000000 0 0 1
-36.390443 -22.910522 -26.608212 50.568304 0.561883 2.124903 0.047532 -0.021780 1319360.000000 0 0 1
-35.018521 -22.077822 -26.631952 49.223856 0.562517 2.142467 0.066312 -0.029298 1064440.000000 0 0 1
-35.034282 -20.791522 -25.971902 48.313849 0.535598 2.138345 0.083997 -0.023661 440902.000000 0 0 1
-35.857836 -19.759822 -26.595342 48.821585 0.503657 2.146882 0.094502 -0.020718 132406.000000 0 0 1
-37.116763 -19.388822 -25.791852 49.181299 0.481386 2.122835 0.111287 -0.029550 -441061.000000 0 0 1
-37.092023 -18.761622 -24.510532 48.255392 0.468287 2.103580 0.102042 -0.042376 -395646.000000 0 0 1
-36.501843 -19.516622 -23.460132 47.577945 0.491001 2.086432 0.066421 -0.037070 -7498.470000 0 0 1
-37.328343 -20.702822 -22.912132 48.445617 0.506379 2.063427 0.072587 -0.021206 1007650.000000 0 0 1
37.686851 -20.402722 -22.127132 48.230486 -0.496197 2.047417 0.081817 -0.021852 916592.000000 0 0 1
37.209591 -21.577122 -21.485132 48.080524 -0.525494 2.034046 0.068730 -0.000233 -449430.000000 0 0 1
36.084111 -21.377322 -20.486932 46.677268 -0.534835 2.025177 0.071309 -0.008390 -152643.000000 0 0 1
34.878341 -20.950722 -21.116132 45.840184 -0.540919 2.049520 0.091765 -0.005111 -322649.000000 0 0 1
33.852061 -20.952322 -20.164632 44.627057 -0.554228 2.039632 0.082840 -0.005604 -76557.100000 0 0 1
32.473511 -20.535322 -20.736332 43.660323 -0.563883 2.065700 0.092596 -0.012899 -318108.000000 0 0 1
31.954281 -21.557722 -21.573632 44.172764 -0.593504 2.081043 0.088857 -0.006831 849659.000000 0 0 1
30.738901 -21.249222 -22.306132 43.519800 -0.604850 2.108950 0.118819 -0.013397 842095.000000 0 0 1
30.657701 -19.983222 -23.204932 43.332351 -0.577652 2.135909 0.106185 -0.017329 -707309.000000 0 0 1
30.445901 -18.796622 -22.442532 42.236633 -0.553099 2.130992 0.112372 -0.013762 7226.170000 0 0 1
30.995601 -17.735722 -23.159832 42.563610 -0.519728 2.146140 0.092735 -0.015406 -310205.000000 0 0 1
31.668421 -16.652222 -22.309532 42.165159 -0.484098 2.128334 0.083408 -0.013770 -294408.000000 0 0 1
30.817901 -16.091522 -21.313732 40.779349 -0.481209 2.120764 0.073673 -0.018365 301883.000000 0 0 1
31.442111 -15.152122 -20.392732 40.423467 -0.449067 2.099573 0.055735 -0.017365 107012.000000 0 0 1
32.520171 -15.663222 -19.421532 40.988949 -0.448857 2.064424 0.079344 -0.026839 1187390.000000 0 0 1
33.724231 -16.155822 -20.078132 42.443677 -0.446753 2.063550 0.074073 -0.025097 525322.000000 0 0 1
34.462241 -16.946422 -19.209232 42.939747 -0.457017 2.034600 0.069143 -0.021965 -642853.000000 0 0 1
35.760111 -17.485822 -19.813932 44.464946 -0.454789 2.032650 0.083370 -0.039118 -532634.000000 0 0 1
36.590261 -16.437522 -20.209632 44.916239 -0.422215 2.037495 0.096971 -0.048236 266350.000000 0 0 1
37.510021 -16.953922 -21.210332 46.306752 -0.424502 2.046585 0.116116 -0.050851 354843.000000 0 0 1
-37.767073 -15.886522 -21.855932 46.437217 0.398176 2.060830 0.135811 -0.050759 318163.000000 0 0 1
-36.627583 -15.550822 -21.054632 45.018945 0.401503 2.057465 0.160105 -0.061296 556283.000000 0 0 1
-36.035113 -14.304322 -21.431732 44.299686 0.377879 2.075776 0.164653 -0.050715 -321759.000000 0 0 1
-34.739092 -13.900122 -20.647032 42.735440 0.380618 2.075029 0.163632 -0.052957 1056490.000000 0 0 1
-33.557833 -14.607922 -21.031432 42.211855 0.410567 2.092358 0.174355 -0.057013 425331.000000 0 0 1
-33.410873 -15.923022 -20.477532 42.298444 0.444738 2.076154 0.161203 -0.055926 -401501.000000 0 0 1
-32.063833 -16.610422 -20.773932 41.659954 0.477977 2.092842 0.134886 -0.059798 59833.800000 0 0 1
-32.154683 -17.924222 -20.204732 41.993245 0.508535 2.072754 0.151741 -0.068947 393396.000000 0 0 1
-31.023333 -18.726422 -20.538332 41.652721 0.543080 2.086429 0.150719 -0.068326 112875.000000 0 0 1
-31.191323 -20.178922 -19.982032 42.182569 0.574221 2.064288 0.132625 -0.021177 -469913.000000 0 0 1
-32.223323 -20.872022 -20.616432 43.577760 0.574778 2.063597 0.126418 -0.035759 -110920.000000 0 0 1
-32.546313 -22.059522 -19.914032 44.073276 0.595663 2.039622 0.104621 -0.008608 -374674.000000 0 0 1
-33.566703 -22.924922 -20.594632 45.567691 0.599202 2.039754 0.069183 -0.018757 -304266.000000 0 0 1
-33.060503 -23.385922 -21.870632 46.024154 0.615653 2.065987 0.066569 -0.022251 -61397.700000 0 0 1
-33.951024 -24.226722 -22.518732 47.399361 0.619781 2.065857 0.056388 -0.007966 -265834.000000 0 0 1
-33.523353 -24.437022 -23.975832 47.914755 0.629896 2.094840 0.050819 -0.004802 102316.000000 0 0 1
-32.326273 -25.163872 -24.135832 47.547311 0.661452 2.103213 0.063529 -0.015521 -230590.000000 0 0 1
-32.070173 -25.419232 -25.503922 48.219119 0.670220 2.128121 0.055168 -0.009519 714700.000000 0 0 1
-30.615343 -25.956172 -25.812152 47.720953 0.703225 2.142300 0.070445 -0.016111 760847.000000 0 0 1
-29.672623 -24.948822 -25.610762 46.463098 0.699130 2.154606 0.092664 -0.028024 39100.800000 0 0 1
-28.332543 -25.342912 -25.909212 46.003081 0.729757 2.169057 0.085630 -0.022180 1331080.000000 0 0 1
-27.288183 -24.194922 -26.173632 44.889845 0.725387 2.193291 0.097842 -0.024547 445682.000000 0 0 1
-27.413393 -23.614322 -27.418302 45.397066 0.711084 2.219265 0.102609 -0.028478 615813.000000 0 0 1
-26.384223 -22.621522 -27.629052 44.398480 0.708768 2.242470 0.124283 -0.022241 548369.000000 0 0 1
-26.457703 -21.944222 -29.015402 44.982802 0.692417 2.271863 0.094056 -0.018411 -42055.700000 0 0 1
-26.140693 -22.870122 -30.033002 45.916877 0.718765 2.283753 0.092048 -0.016057 193749.000000 0 0 1
-25.612533 -22.208222 -31.187822 46.063947 0.714329 2.314550 0.086375 -0.010933 3500.600000 0 0 1
-24.975353 -23.275522 -32.107352 46.865769 0.750184 2.325526 0.084390 -0.016154 -160930.000000 0 0 1
-25.956323 -23.989822 -32.815762 48.229830 0.746046 2.319110 0.066989 -0.015904 -248296.000000 0 0 1
-25.455763 -25.103902 -33.480442 48.981035 0.778439 2.323396 0.078272 -0.011324 91363.300000 0 0 1
-20.138713 -14.420922 -11.747232 27.414015 0.621436 2.013642 0.117803 0.002507 223140.000000 0 0 1
-20.576613 -13.915322 -10.484232 26.962053 0.594621 1.970181 0.123935 -0.001826 672822.000000 0 0 1
-19.629613 -14.415222 -9.528432 26.151699 0.633417 1.943734 0.112806 -0.010164 371813.000000 0 0 1
-20.026813 -14.120022 -8.134332 25.818901 0.614111 1.891309 0.154484 -0.034144 251019.000000 0 0 1
-21.231613 -14.750922 -7.670732 26.966854 0.607202 1.859229 0.183804 -0.035076 713854.000000 0 0 1
-21.726413 -14.070722 -6.539932 26.698183 0.574709 1.818273 0.156264 -0.044441 843428.000000 0 0 1
-23.066213 -14.698022 -5.957232 27.992332 0.567331 1.785253 0.163200 -0.044179 632226.000000 0 0 1
-22.945613 -15.977222 -5.339232 28.465421 0.608244 1.759483 0.145353 -0.049164 399992.000000 0 0 1
-22.646513 -15.867622 -3.986032 27.938046 0.611172 1.713959 0.158518 -0.050906 -245524.000000 0 0 1
-22.507713 -17.274822 -3.380732 28.573519 0.654612 1.689391 0.131862 -0.041553 44732.000000 0 0 1
-23.784513 -17.852022 -3.196032 29.910071 0.643868 1.677855 0.129063 -0.038295 370680.000000 0 0 1
-23.784213 -18.915122 -2.256932 30.472354 0.671857 1.644929 0.118559 -0.031540 -570710.000000 0 0 1
-24.930013 -19.880522 -2.380032 31.975072 0.673186 1.645299 0.131518 -0.046602 -654265.000000 0 0 1
-24.637513 -20.845822 -3.324132 32.443878 0.702226 1.673434 0.134108 -0.048186 -139685.000000 0 0 1
-25.766173 -21.607422 -3.645832 33.824081 0.697836 1.678794 0.135675 -0.039617 -166002.000000 0 0 1
-25.453243 -22.714822 -4.705732 34.437982 0.728608 1.707869 0.133476 -0.041615 -81419.000000 0 0 1
-24.449813 -23.621922 -4.253532 34.261948 0.768178 1.695265 0.160837 -0.039786 218983.000000 0 0 1
-23.857613 -24.364222 -5.345932 34.516373 0.795904 1.726303 0.162952 -0.045484 2204830.000000 0 0 1
-22.302213 -24.050722 -5.646532 33.282267 0.823102 1.741277 0.144057 -0.034185 1770240.000000 0 0 1
-22.034713 -22.731122 -6.154032 32.250653 0.800954 1.762793 0.117414 -0.020891 237996.000000 0 0 1
-22.036213 -21.651622 -5.210532 31.329492 0.776595 1.737887 0.120430 -0.024612 -661583.000000 0 0 1
-21.861313 -20.199322 -5.813732 30.327036 0.745905 1.763692 0.120501 -0.006665 -797645.000000 0 0 1
-20.564613 -19.898722 -6.173432 29.274113 0.768943 1.783275 0.110457 0.005696 -735733.000000 0 0 1
-20.440913 -18.594522 -6.709532 28.435981 0.738133 1.808995 0.100960 0.000579 -38650.700000 0 0 1
-19.295613 -18.330722 -7.705232 27.707520 0.759760 1.852603 0.135074 -0.001304 -316557.000000 0 0 1
-19.349113 -19.139122 -8.850232 28.618539 0.779942 1.885199 0.139648 -0.010519 60009.500000 0 0 1
-18.183913 -19.237322 -9.652332 28.176174 0.813541 1.920448 0.153336 -0.002975 -243807.000000 0 0 1
-17.813913 -18.016922 -10.544332 27.443176 0.791064 1.965164 0.142794 0.000644 -106.438000 0 0 1
-17.348613 -16.830522 -9.942332 26.136006 0.770241 1.961033 0.146566 -0.009125 -876515.000000 0 0 1
-16.036013 -16.922622 -9.526132 25.184838 0.812292 1.958700 0.143473 -0.008030 -1247830.000000 0 0 1
-15.753913 -15.762422 -8.558832 23.872439 0.785668 1.937482 0.112581 -0.014072 31260.700000 0 1 0
-16.354613 -15.908522 -7.257332 23.942083 0.771572 1.878762 0.103200 -0.021556 349995.000000 0 1 0
-16.711313 -14.647922 -6.670932 23.201960 0.719694 1.862429 0.130762 -0.028445 -77545.500000 0 1 0
-17.540513 -14.911222 -5.392132 23.645068 0.704553 1.800865 0.148211 -0.046016 -58598.300000 0 1 0
-18.221813 -13.840422 -4.813532 23.382939 0.649587 1.778135 0.138479 -0.038048 221731.000000 0 1 0
-18.901213 -14.221722 -3.646132 23.933397 0.645051 1.723737 0.135234 -0.028961 -300885.000000 0 1 0
-19.651713 -13.144622 -2.860232 23.814950 0.589533 1.691189 0.145021 -0.025378 -232284.000000 0 1 0
-20.771313 -12.746822 -3.627732 24.639183 0.550414 1.718568 0.166489 -0.050651 -143296.000000 0 1 0
-21.529513 -11.779822 -2.982532 24.722048 0.500651 1.691734 0.162962 -0.026079 763782.000000 0 1 0
-23.063013 -11.943822 -3.350732 26.187494 0.477847 1.699100 0.132521 -0.014190 830701.000000 0 0 1
-23.391713 -11.582022 -4.672232 26.516886 0.459747 1.747919 0.142753 -0.040534 504031.000000 0 0 1
-24.804113 -11.518922 -4.808132 27.767746 0.434761 1.744829 0.138613 -0.022717 363116.000000 0 0 1
-25.334173 -11.251022 -6.273432 28.421150 0.417940 1.793360 0.147452 -0.036656 -162336.000000 0 0 1
-25.191223 -12.284922 -7.254932 28.950839 0.453732 1.824091 0.139540 -0.037015 280965.000000 0 0 1
-25.596693 -11.827622 -8.539532 29.461958 0.432851 1.864866 0.159506 -0.034495 89342.200000 0 0 1
-24.406213 -11.684922 -9.549632 28.694880 0.446518 1.910067 0.154797 -0.049279 101903.000000 0 0 1
-23.532613 -10.617822 -9.280232 27.434371 0.423848 1.915875 0.154692 -0.038559 -294096.000000 0 0 1
-22.281513 -11.074622 -9.739532 26.720246 0.461270 1.943892 0.136049 -0.040199 90176.000000 0 0 1
-21.092913 -10.050522 -9.549632 25.241225 0.444662 1.958793 0.140220 -0.048784 326449.000000 0 0 1
-21.102613 -8.835022 -10.277632 25.080024 0.396497 1.993024 0.133962 -0.045737 322946.000000 0 0 1
-19.986113 -8.058222 -9.911132 23.719406 0.383254 2.001873 0.131205 -0.034093 -130715.000000 0 1 0
-19.849913 -6.752622 -10.601332 23.494791 0.327903 2.038929 0.128041 -0.046082 -221698.000000 0 1 0
-19.579713 -6.968522 -11.968432 23.982678 0.341926 2.093293 0.136935 -0.032953 376122.000000 0 1 0
-19.605313 -5.821622 -12.736032 24.092864 0.288648 2.127773 0.150248 -0.043360 -172792.000000 0 1 0
-18.795413 -5.907122 -14.068332 24.209081 0.304511 2.190898 0.161092 -0.045101 252179.000000 0 1 0
-19.455013 -6.673422 -15.084932 25.506612 0.330441 2.203606 0.155796 -0.051721 311228.000000 0 0 1
-19.010113 -6.285222 -16.315632 25.828052 0.319311 2.254543 0.173212 -0.070009 124243.000000 0 0 1
-19.682113 -7.153822 -17.465532 27.269169 0.348622 2.265928 0.148321 -0.054709 516333.000000 0 0 1
-21.084113 -6.984822 -17.650032 28.369900 0.319905 2.242269 0.133360 -0.059793 537697.000000 0 0 1
-21.528613 -7.868622 -18.644832 29.547016 0.350412 2.253667 0.131612 -0.051051 -973380.000000 0 0 1
-23.012413 -7.730122 -18.944132 30.792955 0.324069 2.233449 0.116307 -0.044456 -1047370.000000 0 0 1
-23.193913 -6.503722 -19.644532 31.083173 0.273386 2.254926 0.117922 -0.046652 33282.300000 0 0 1
-24.346513 -6.315122 -20.411432 32.392284 0.253792 2.252520 0.094420 -0.039729 -326874.000000 0 0 1
-25.669633 -5.948622 -19.748832 32.929205 0.227718 2.213968 0.130523 -0.038546 -336171.000000 0 0 1
-25.623163 -4.623222 -19.215832 32.359989 0.178511 2.206588 0.143520 -0.034359 247513.000000 0 0 1
-26.790123 -4.288422 -18.469132 32.820879 0.158728 2.168475 0.147664 -0.025080 -489685.000000 0 0 1
-26.901753 -2.786622 -17.987432 32.481030 0.103217 2.157697 0.135799 -0.022374 -138618.000000 0 0 1
-27.304093 -1.791722 -18.881032 33.244806 0.065527 2.174796 0.138783 -0.014847 555636.000000 0 0 1
-28.631393 -2.078422 -19.338032 34.612657 0.072465 2.163612 0.165521 -0.005816 53795.800000 0 0 1
-29.121813 -1.018122 -20.380132 35.559336 0.034947 2.181117 0.164593 -0.013083 199551.000000 0 0 1
-28.450583 -1.021122 -21.647832 35.764606 0.035876 2.220922 0.155659 -0.008731 290474.000000 0 0 1
-29.303293 -1.543622 -22.627332 37.054850 0.052629 2.227670 0.156713 -0.008022 251229.000000 0 0 1
-28.664603 -1.322122 -24.077132 37.458187 0.046091 2.268910 0.144168 -0.014848 -276365.000000 0 0 1
-28.719613 -0.059122 -24.725132 37.896594 0.002059 2.281592 0.151448 -0.008505 365515.000000 0 0 1
-27.962473 1.045378 -24.230732 37.015147 -0.037368 2.284472 0.132883 0.000213 -37269.600000 0 0 1
-26.462223 0.896978 -23.934532 35.691955 -0.033884 2.305795 0.134132 0.002356 -443240.000000 0 0 1
-25.603083 0.583478 -25.012232 35.797627 -0.022785 2.344392 0.121426 -0.008194 103439.000000 0 0 1
-24.272613 0.495878 -24.522332 34.507252 -0.020427 2.361208 0.108575 -0.004820 -192762.000000 0 0 1
-23.300713 0.020078 -25.578212 34.600124 -0.000862 2.402755 0.107693 -0.012388 -537388.000000 0 0 1
-23.081013 0.892878 -26.632242 35.253464 -0.038665 2.427138 0.083222 -0.010242 209624.000000 0 0 1
-22.442613 0.257978 -27.751442 35.691455 -0.011494 2.461537 0.080399 -0.014173 104028.000000 0 0 1
-22.153313 1.212578 -28.941642 36.467222 -0.054681 2.487556 0.075904 -0.004359 -146058.000000 0 0 1
-21.168213 2.209478 -28.627612 35.672331 -0.104001 2.502296 0.090249 -0.009103 523589.000000 0 0 1
-21.020313 3.206778 -29.629292 36.469603 -0.151389 2.519118 0.067873 -0.008290 -112575.000000 0 0 1
-20.271813 2.691478 -30.871272 37.030068 -0.131997 2.556537 0.058464 -0.012734 -437337.000000 0 0 1
-18.931413 2.303778 -30.696152 36.138063 -0.121095 2.585669 0.060945 -0.007878 -106192.000000 0 0 1
-18.320713 1.997878 -31.930952 36.867679 -0.108621 2.618135 0.052816 -0.013831 -772162.000000 0 0 1
-16.813313 1.940078 -31.970792 36.174341 -0.114881 2.654714 0.066807 -0.024076 -918721.000000 0 0 1
-16.199613 3.187278 -31.775512 35.808789 -0.194269 2.662397 0.070588 -0.021175 569634.000000 0 0 1
-14.813213 3.064478 -32.134142 35.516551 -0.203997 2.701625 0.070108 -0.019891 804319.000000 0 0 1
-14.098113 4.417578 -32.412522 35.620828 -0.303655 2.713916 0.071706 -0.018904 -130610.000000 0 0 1
-13.818713 5.224178 -31.338092 34.645705 -0.361443 2.701073 0.085347 -0.035434 1475.650000 0 0 1
-13.437013 6.502578 -31.735392 35.070956 -0.450709 2.701920 0.109202 -0.013515 -578631.000000 0 0 1
-13.065913 7.337478 -30.525022 34.004906 -0.511686 2.685239 0.115554 -0.027635 -284467.000000 0 0 1
-11.862413 7.003378 -29.828472 32.855774 -0.533319 2.708950 0.141533 -0.047574 650577.000000 0 0 1
-12.038713 5.903878 -28.979852 31.931461 -0.455944 2.708243 0.136442 -0.048837 -167257.000000 0 0 1
-10.709013 5.138878 -28.716522 31.076192 -0.447410 2.749387 0.159078 -0.062016 -126771.000000 0 0 1
-10.211613 4.473678 -29.861312 31.874579 -0.412911 2.784273 0.139155 -0.063633 -98379.300000 0 0 1
-10.831013 3.274978 -30.239042 32.286778 -0.293630 2.783527 0.139481 -0.057090 -467242.000000 0 0 1
-10.411713 2.636678 -31.610142 33.384981 -0.248027 2.814055 0.124880 -0.058587 -263614.000000 0 0 1
-11.050913 1.411478 -31.868712 33.759884 -0.127037 2.805291 0.116428 -0.048519 12637.500000 0 0 1
-10.618013 0.812178 -33.066922 34.739361 -0.076342 2.830036 0.097966 -0.033696 -410240.000000 0 0 1
-11.173213 1.472178 33.036084 34.905455 -0.131005 0.328756 0.114077 -0.033663 -876738.000000 0 0 1
-12.540513 1.394378 32.874395 35.212705 -0.110735 0.366479 0.073635 -0.024991 -1059140.000000 0 0 1
-12.799113 1.833978 31.560743 34.106616 -0.142321 0.388824 0.072230 -0.015784 863995.000000 0 0 1
-14.249113 1.494378 31.034953 34.182432 -0.104493 0.432499 0.076341 -0.014988 146124.000000 0 0 1
-15.269413 2.257578 31.506341 35.084200 -0.146786 0.455546 0.087039 0.001362 -853333.000000 0 0 1
-16.527413 1.700678 31.201683 35.349578 -0.102540 0.489303 0.089124 -0.002421 -143784.000000 0 0 1
-17.657613 2.700578 30.994533 35.773530 -0.151765 0.522830 0.090911 0.011891 -362803.000000 0 0 1
-18.106713 3.458178 32.144137 37.054791 -0.188716 0.520691 0.086817 -0.002006 711990.000000 0 0 1
-17.324713 4.651878 32.395095 37.030093 -0.262324 0.505708 0.079745 0.005449 172097.000000 0 0 1
-17.928913 5.469778 33.568613 38.447576 -0.296112 0.509270 0.076022 0.001653 707368.000000 0 0 1
-19.187113 6.075478 33.269838 38.883658 -0.306655 0.544039 0.071098 0.000404 456922.000000 0 0 1
-20.222013 5.638178 -33.266032 39.336342 -0.271908 2.578638 0.060827 -0.005946 1271000.000000 0 0 1
-21.633913 6.355978 -33.453102 40.342716 -0.285756 2.548512 0.048883 -0.005720 997846.000000 0 0 1
-21.808713 7.723578 -33.041352 40.336145 -0.340368 2.530724 0.061528 -0.006103 50288.100000 0 0 1
-21.336913 8.696478 33.474473 40.637826 -0.387023 0.602843 0.044153 -0.003443 -333107.000000 0 0 1
-21.136213 10.089278 -33.282702 40.697313 -0.445360 2.528393 0.059305 -0.007597 -637640.000000 0 0 1
-20.092513 10.121978 -32.302792 39.365390 -0.466658 2.533237 0.075114 -0.008093 568798.000000 0 0 1
-19.453413 11.350678 -32.120532 39.230113 -0.528184 2.530066 0.090043 -0.007598 555347.000000 0 0 1
-18.694013 11.978278 -33.364522 40.076634 -0.569848 2.554434 0.072889 -0.023635 -1040060.000000 0 0 1
-19.654113 12.497678 33.207388 40.561148 -0.566386 0.611654 0.088712 -0.026121 -122105.000000 0 0 1
-19.135713 12.745478 31.895316 39.318366 -0.587580 0.624584 0.106566 -0.029202 279438.000000 0 0 1
-20.045113 12.132178 30.770683 38.675977 -0.544266 0.650796 0.105092 -0.038849 -334331.000000 0 0 1
-20.103213 10.701178 30.729973 38.248995 -0.489162 0.637781 0.083524 -0.019071 414174.000000 0 0 1
-18.893513 10.043478 30.355633 37.138938 -0.488594 0.613994 0.098284 -0.023388 340736.000000 0 0 1
-18.974713 8.536278 30.348523 36.795932 -0.422751 0.600985 0.110208 -0.010739 -90745.400000 0 0 1
-19.779513 7.923778 29.379083 36.292504 -0.381028 0.627482 0.110090 -0.016859 69426.800000 0 0 1
-19.869013 6.507678 29.724173 36.340803 -0.316518 0.612995 0.097895 -0.009428 31376.500000 0 0 1
-20.449313 5.708978 28.525013 35.559010 -0.272245 0.639845 0.097039 -0.009709 -650371.000000 0 0 1
-21.813013 5.827278 28.301943 36.204484 -0.261051 0.673370 0.121685 -0.025140 -795562.000000 0 0 1
-22.260013 4.760278 27.492403 35.693145 -0.210676 0.691574 0.107088 -0.029381 260374.000000 0 0 1
-23.782313 4.715778 27.212163 36.446382 -0.195750 0.727806 0.088338 -0.022384 254034.000000 0 0 1
-24.299513 5.643978 26.291293 36.242970 -0.228221 0.759155 0.083397 -0.029409 508576.000000 0 0 1
-25.706043 5.575978 26.113553 37.064940 -0.213604 0.789028 0.081854 -0.025932 171046.000000 0 0 1
-26.433433 6.523078 25.151133 37.065569 -0.241940 0.824999 0.080945 -0.027223 -138533.000000 0 0 1
-26.344123 6.259578 23.713583 35.993460 -0.233282 0.851533 0.082253 -0.021301 379975.000000 0 0 1
-26.985293 5.043378 23.306113 36.011340 -0.184762 0.866906 0.081495 -0.021352 -121958.000000 0 0 1
-26.761703 4.760778 21.796633 34.841741 -0.176053 0.894909 0.102009 -0.017917 -95458.400000 0 0 1
-27.613283 5.488878 20.918133 35.074057 -0.196219 0.931789 0.097547 -0.019608 297652.000000 0 0 1
-27.695523 4.911678 19.625633 34.297697 -0.175521 0.961593 0.103059 -0.030975 -83987.700000 0 0 1
-28.752253 5.565478 18.664933 34.728177 -0.191202 1.003377 0.125489 -0.041775 740107.000000 0 0 1
-30.118273 5.298878 18.955833 35.979328 -0.174153 1.015902 0.138362 -0.036828 636520.000000 0 0 1
-30.973323 5.760978 17.913933 36.241476 -0.183897 1.053774 0.145707 -0.039171 301665.000000 0 0 1
-32.473883 5.675678 18.286333 37.698227 -0.173029 1.064351 0.146927 -0.035310 209417.000000 0 0 1
-33.000203 6.622978 19.201233 38.750027 -0.198064 1.052368 0.153637 -0.037932 -366236.000000 0 0 1
-34.337094 6.447578 19.545333 40.032828 -0.185612 1.060733 0.153334 -0.026704 -507156.000000 0 0 1
-34.920163 7.537078 20.480833 41.178755 -0.212576 1.050239 0.150469 -0.031099 45155.700000 0 0 1
-34.402957 7.490778 21.792633 41.407657 -0.214390 1.016559 0.126382 -0.032448 66830.500000 0 0 1
-35.021980 8.403878 22.638953 42.540410 -0.235507 1.009629 0.134938 -0.030403 -35043.700000 0 0 1
-0.200513 32.775378 11.606268 34.770261 -1.564679 1.230466 0.207754 -0.050841 223171.000000 0 0 1
-0.723313 32.758678 12.945868 35.231373 -1.548720 1.194528 0.197550 -0.047570 152068.000000 0 0 1
-0.228313 -33.588593 13.722168 36.284206 1.563999 1.182961 0.187964 -0.060535 -152415.000000 0 0 1
-0.470813 -33.688693 15.261268 36.987241 1.556822 1.145480 0.195214 -0.056927 343811.000000 0 0 1
-1.810813 -33.489193 15.693368 37.028191 1.516777 1.133135 0.166521 -0.044407 84168.600000 0 0 1
-1.837613 -33.232893 17.075168 37.408066 1.515558 1.096787 0.161884 -0.047887 1070870.000000 0 0 1
-3.252413 -32.881293 17.710368 37.488862 1.472203 1.078765 0.154360 -0.037768 1122040.000000 0 0 1
-4.113013 33.456478 17.904368 38.168301 -1.448474 1.082536 0.170286 -0.030030 -166394.000000 0 0 1
-5.110813 -33.598093 18.808568 38.842174 1.419837 1.065313 0.131899 -0.017778 -630666.000000 0 0 1
-6.024413 32.695678 19.207968 38.395923 -1.388583 1.046897 0.121007 -0.020491 -79503.100000 0 0 1
-7.079713 32.579778 18.267968 38.016877 -1.356819 1.069546 0.110467 -0.017601 -109553.000000 0 0 1
-8.049113 31.649978 18.706168 37.635489 -1.321759 1.050617 0.100017 -0.027605 -131539.000000 0 0 1
-9.109313 31.432578 17.609268 37.162788 -1.288719 1.077148 0.078426 -0.028272 -163205.000000 0 0 1
-10.015313 32.525078 17.498368 38.267219 -1.272084 1.095876 0.079166 -0.014490 -112413.000000 0 0 1
-10.957913 32.285578 16.477568 37.867461 -1.243591 1.120605 0.071564 -0.004426 5510.230000 0 0 1
-11.934713 33.467078 16.312568 39.097091 -1.228245 1.140399 0.075119 -0.015149 -188420.000000 0 0 1
-13.076613 33.453478 17.124468 39.791712 -1.198168 1.125913 0.059566 -0.009274 -494294.000000 0 0 1
-13.964713 -33.003493 16.759668 39.561727 1.170512 1.133344 0.038416 -0.007212 80963.300000 0 0 1
-15.303413 -33.019893 17.547368 40.403192 1.136805 1.121528 0.072898 -0.012757 393824.000000 0 0 1
-15.063913 -32.728293 18.890668 40.680708 1.139433 1.087880 0.074690 -0.015467 156336.000000 0 0 1
-16.196913 -33.047693 19.696468 41.742555 1.115094 1.079402 0.072419 -0.029352 432993.000000 0 0 1
-16.210313 -32.488293 21.150968 42.019363 1.107982 1.043311 0.078250 -0.040301 -115213.000000 0 0 1
-16.346013 -31.137493 21.199868 41.063001 1.087379 1.028299 0.084563 -0.036526 30059.700000 0 0 1
-16.424813 -30.715593 22.545668 41.491316 1.079746 0.996335 0.090112 -0.043006 206212.000000 0 0 1
-16.201013 -29.200393 22.740068 40.401070 1.064259 0.972957 0.098884 -0.051583 -205777.000000 0 0 1
-16.249013 -28.821993 24.116768 40.943329 1.057442 0.940941 0.116600 -0.067345 -204966.000000 0 0 1
-16.254513 -27.380293 24.211068 40.000818 1.035054 0.920698 0.090781 -0.048654 -164818.000000 0 0 1
-17.476013 -26.599093 23.687768 39.674086 0.989505 0.930967 0.097936 -0.035990 258145.000000 0 0 1
-18.623013 -26.748293 24.540768 40.798739 0.962604 0.925409 0.094169 -0.029400 424851.000000 0 0 1
-19.678013 -25.897893 24.152068 40.512312 0.921033 0.932079 0.093775 -0.024279 -245660.000000 0 0 1
-20.719313 -25.672493 25.304668 41.577555 0.891764 0.916484 0.094672 -0.018763 496941.000000 0 0 1
-21.469813 -26.795693 25.810568 42.955180 0.895299 0.926205 0.101630 -0.022015 818804.000000 0 0 1
-22.297213 -27.464693 24.839168 43.225679 0.888871 0.958633 0.097229 -0.029175 1100750.000000 0 0 1
-23.691513 -26.829493 24.356768 43.293898 0.847431 0.973280 0.073856 -0.013613 1087930.000000 0 0 1
-23.539613 -25.656093 23.609468 42.068462 0.828393 0.974943 0.075651 -0.013415 643200.000000 0 0 1
-24.720113 -25.452993 22.810268 42.181123 0.800004 0.999445 0.066031 -0.008764 386306.000000 0 0 1
-25.044023 -23.952093 22.530468 41.334342 0.763116 0.994313 0.063668 0.004730 275776.000000 0 0 1
-25.621023 -23.390393 23.756068 42.046380 0.739917 0.970367 0.057428 0.001579 356068.000000 0 0 1
-26.244823 -22.145393 23.471368 41.594642 0.700884 0.971225 0.050850 0.003008 179555.000000 0 0 1
-26.839753 -21.394293 24.662368 42.264885 0.672978 0.947741 0.053957 0.002202 320902.000000 0 0 1
-27.873333 -22.046093 25.396968 43.680189 0.669191 0.950311 0.037962 0.004475 456927.000000 0 0 1
-28.212283 -21.373993 26.618768 44.287010 0.648356 0.925980 0.035750 -0.004650 355568.000000 0 0 1
-29.463313 -21.955893 27.429068 45.853046 0.640418 0.929549 0.049795 -0.005669 301403.000000 0 0 1
-30.741243 -21.723693 26.964168 46.303447 0.615184 0.949197 0.060731 -0.006933 -437124.000000 0 0 1
-31.107573 -22.432993 25.792568 46.218793 0.624775 0.978758 0.047697 0.002242 -587679.000000 0 0 1
-32.654943 -22.500493 25.643368 47.224991 0.603331 0.996786 0.073877 -0.013687 322273.000000 0 0 1
-33.173953 -22.947893 24.407168 47.146864 0.605164 1.026655 0.059275 -0.008268 29803.200000 0 0 1
-32.936513 -24.305493 24.054568 47.478344 0.635744 1.039510 0.045272 -0.001036 -533899.000000 0 0 1
-33.415013 -24.854393 22.707668 47.433555 0.639527 1.071593 0.062102 -0.003047 -536698.000000 0 0 1
-34.772278 -25.122693 22.536368 48.457702 0.625662 1.087079 0.080455 -0.010125 -503702.000000 0 0 1
-34.886887 -25.714493 21.304868 48.293140 0.635182 1.113909 0.080247 -0.006943 1097020.000000 0 0 1
-36.352583 -26.275193 21.032668 49.540581 0.625856 1.132327 0.084855 -0.003472 1117640.000000 0 0 1
-36.818223 -27.226193 21.978268 50.792631 0.636732 1.123304 0.078526 -0.000264 597724.000000 0 0 1
-36.076403 -28.473493 22.038568 50.970042 0.668155 1.123663 0.061648 -0.004341 -291124.000000 0 0 1
-36.491883 -29.588193 21.012768 51.465086 0.681301 1.150214 0.071141 -0.010658 -171080.000000 0 0 1
-36.360713 -29.123093 19.650768 50.560940 0.675320 1.171625 0.071738 -0.014019 333071.000000 0 0 1
-36.804243 -30.062393 18.782368 51.098700 0.684912 1.194401 0.065451 -0.009879 -487508.000000 0 0 1
-37.150323 -29.550693 17.343668 50.539022 0.671952 1.220503 0.080922 -0.013268 -722533.000000 0 0 1
-36.086473 -29.040893 16.604968 49.207032 0.677636 1.226588 0.108503 -0.027453 -106666.000000 0 0 1
-36.506763 -28.679493 15.321768 48.887766 0.665895 1.252018 0.120970 -0.030665 -14014.500000 0 0 1
-36.986493 -29.764193 14.323368 49.588978 0.677619 1.277780 0.105899 -0.030353 92177.600000 0 0 1
-35.940213 -30.560593 13.790168 49.150966 0.704678 1.286411 0.093533 -0.033089 218896.000000 0 0 1
-36.303853 -31.389893 12.649468 49.631685 0.712934 1.313086 0.091242 -0.027592 75621.900000 0 0 1
-36.727243 -30.639393 11.331268 49.153438 0.695274 1.338176 0.098640 -0.032074 614268.000000 0 0 1
-37.949253 -29.898693 11.322768 49.621394 0.667294 1.340585 0.096488 -0.040977 531870.000000 0 0 1
38.009461 -29.312693 10.125168 49.055806 -0.656928 1.362901 0.076505 -0.027743 -79807.600000 0 0 1
36.785631 -28.383593 10.045468 47.536538 -0.657179 1.357870 0.108695 -0.022024 136644.000000 0 0 1
37.038121 -27.351693 9.119868 46.937293 -0.636084 1.375254 0.118223 -0.056696 186404.000000 0 0 1
35.838181 -26.635093 9.038668 45.557666 -0.639138 1.371071 0.099268 -0.047287 -12406.800000 0 0 1
36.017161 -25.464793 8.104068 44.848272 -0.615421 1.389099 0.084978 -0.039333 209408.000000 0 0 1
36.572971 -24.288593 8.683568 44.754020 -0.586233 1.375529 0.103824 -0.045058 156886.000000 0 0 1
36.737751 -23.341393 7.657168 44.194063 -0.566009 1.396655 0.096304 -0.034605 -31929.300000 0 0 1
37.318571 -21.994793 8.141168 44.076357 -0.532574 1.385024 0.105547 -0.028511 161369.000000 0 0 1
36.308191 -21.118093 8.660068 42.886540 -0.526806 1.367468 0.104891 -0.042423 340981.000000 0 0 1
36.686861 -19.794893 8.517668 42.547787 -0.494795 1.369244 0.112811 -0.031616 103433.000000 0 0 1
35.897781 -18.883793 9.496968 41.658621 -0.484265 1.340803 0.107358 -0.025033 89176.400000 0 0 1
36.312561 -18.991093 10.881668 42.398990 -0.481870 1.311243 0.087751 -0.035778 378036.000000 0 0 1
35.627771 -18.044193 11.704568 41.616437 -0.468806 1.285701 0.098783 -0.028200 29035.700000 0 0 1
36.180931 -18.058293 13.131868 42.515969 -0.462936 1.256793 0.090519 -0.036683 197201.000000 0 0 1
37.469421 -17.466493 13.228568 43.405424 -0.436206 1.261102 0.051612 -0.018442 322525.000000 0 0 1
38.016721 -17.873693 14.434068 44.419391 -0.439487 1.239838 0.057415 -0.005148 -861900.000000 0 0 1
-36.946053 -17.129193 14.935068 43.375988 0.434128 1.219286 0.082738 -0.017645 154625.000000 0 0 1
-35.843478 -17.417193 14.027268 42.247814 0.452323 1.232348 0.081682 -0.013003 499605.000000 0 0 1
-34.704691 -16.730793 14.490868 41.162122 0.449217 1.211043 0.076878 -0.014165 -683769.000000 0 0 1
-33.494223 -16.829893 13.580368 39.868969 0.465623 1.223215 0.101145 -0.011583 -700528.000000 0 0 1
-32.931883 -18.100093 13.549068 39.946208 0.502553 1.224748 0.103594 -0.021112 877986.000000 0 0 1
-31.761363 -18.138793 12.705168 38.719779 0.518896 1.236472 0.112479 -0.029520 582962.000000 0 0 1
-31.066183 -19.445493 12.419068 38.697134 0.559273 1.244085 0.091256 -0.027586 -99707.800000 0 0 1
-31.685273 -20.175093 11.416068 39.259617 0.566993 1.275750 0.100820 -0.025969 375155.000000 0 0 1
-30.730333 -21.140293 10.904268 38.860886 0.602579 1.286380 0.092468 -0.032743 359548.000000 0 0 1
-31.222513 -22.011893 9.706468 39.415534 0.614074 1.321977 0.095727 -0.028627 219027.000000 0 0 1
-32.240953 -22.968293 9.827568 40.787285 0.618996 1.327455 0.092163 -0.033199 788540.000000 0 0 1
-33.586013 -22.448293 9.955568 41.606003 0.589189 1.329170 0.105019 -0.039809 596543.000000 0 0 1
-34.586641 -23.593193 10.177168 43.086532 0.598644 1.332340 0.134544 -0.044193 -233777.000000 0 0 1
-34.747097 -24.483293 9.107268 43.471079 0.613816 1.359731 0.108776 -0.035181 177704.000000 0 0 1
-35.594922 -25.589493 9.451568 44.845878 0.623304 1.358447 0.116664 -0.029276 274791.000000 0 0 1
-35.760253 -26.520293 8.232568 45.275786 0.638112 1.387948 0.108548 -0.031668 538578.000000 0 0 1
-34.528147 -27.042893 7.721368 44.532354 0.664421 1.396528 0.091562 -0.030483 329302.000000 0 0 1
-34.695406 -27.864293 6.567368 44.981333 0.676636 1.424271 0.073527 -0.018108 -693649.000000 0 0 1
-33.427243 -28.075293 5.776168 44.033701 0.698597 1.439241 0.071936 -0.011736 -698642.000000 0 0 1
-32.875573 -27.022393 5.096168 42.860051 0.687988 1.451612 0.074282 -0.000448 -577194.000000 0 0 1
-31.737023 -27.427393 4.392968 42.175807 0.712685 1.466449 0.090843 -0.021557 -115111.000000 0 0 1
-30.948203 -26.271893 3.684068 40.762434 0.703854 1.480294 0.069543 -0.017336 -67977.700000 0 0 1
-31.455353 -25.707093 2.489168 40.699998 0.685175 1.509599 0.082875 -0.012896 -289314.000000 0 0 1
-30.722253 -24.599093 1.992768 39.407402 0.675163 1.520206 0.102660 -0.033444 -119729.000000 0 0 1
-31.128963 -24.063793 0.611368 39.350378 0.658082 1.555259 0.125955 -0.030528 -207909.000000 0 0 1
-30.823053 -24.975593 -0.435832 39.674057 0.680984 1.581782 0.125392 -0.039446 -173729.000000 0 0 1
-30.913733 -24.378693 -1.726432 39.407615 0.667753 1.614620 0.134355 -0.043333 -239925.000000 0 0 1
-32.333553 -24.154193 -2.287532 40.424207 0.641599 1.627415 0.136539 -0.034225 401754.000000 0 0 1
-32.986383 -22.921993 -1.838832 40.210702 0.607290 1.616542 0.126808 -0.023007 -753542.000000 0 0 1
-34.284778 -22.899893 -2.295132 41.293084 0.588878 1.626407 0.137541 -0.026046 -802880.000000 0 0 1
-35.054064 -21.581393 -1.905332 41.208910 0.551855 1.617049 0.127354 -0.022834 -64143.000000 0 0 1
-35.232230 -21.335093 -0.587332 41.192732 0.544495 1.585055 0.123243 -0.033849 353116.000000 0 0 1
-35.806470 -20.064193 -0.380132 41.046555 0.510756 1.580057 0.130514 -0.029231 -395762.000000 0 0 1
-36.081533 -19.717293 1.087668 41.131882 0.500125 1.544350 0.117236 -0.031480 -434745.000000 0 0 1
-37.009793 -20.556893 1.703468 42.369947 0.507014 1.530581 0.098491 -0.029159 123579.000000 0 0 1
-37.288403 -20.020693 2.996168 42.429120 0.492741 1.500122 0.093537 -0.030331 -894713.000000 0 0 1
37.864271 -20.843093 3.838668 43.392083 -0.503203 1.482216 0.108910 -0.015379 224501.000000 0 0 1
36.599891 -20.853993 3.227768 42.247598 -0.517905 1.494321 0.096720 -0.012569 -669506.000000 0 0 1
35.880391 -19.727993 3.613468 41.105393 -0.502710 1.482775 0.096205 -0.019169 -643212.000000 0 0 1
34.593081 -19.563393 2.725968 39.835141 -0.514688 1.502312 0.096834 0.005843 499724.000000 0 0 1
33.485641 -20.358193 3.072468 39.308831 -0.546258 1.492554 0.090374 0.004154 -560093.000000 0 0 1
32.348881 -19.990493 2.354668 38.100057 -0.553525 1.508955 0.118786 -0.002732 -91484.400000 0 0 1
31.184201 -20.991793 2.596768 37.680936 -0.592481 1.501827 0.111196 0.005890 -9932.180000 0 0 1
31.155501 -22.252593 1.867068 38.331828 -0.620221 1.522069 0.083693 0.001824 -74002.100000 0 0 1
29.980601 -22.907193 2.300668 37.800384 -0.652443 1.509895 0.088985 0.003994 167326.000000 0 0 1
29.438601 -23.996693 1.358768 38.004194 -0.683907 1.535036 0.074047 0.005757 21272.100000 0 0 1
29.059501 -23.549193 0.063268 37.403517 -0.681037 1.569105 0.072953 0.000967 184589.000000 0 0 1
28.410501 -24.590893 -0.663532 37.580698 -0.713456 1.588453 0.056607 -0.008642 -39506.000000 0 0 1
27.529001 -23.979093 -1.780632 36.551518 -0.716588 1.619531 0.070821 -0.017521 -530588.000000 0 0 1
28.140101 -23.408793 -2.884332 36.717247 -0.693872 1.649433 0.056290 -0.029409 18285.800000 0 0 1
28.631401 -24.321593 -3.889932 37.768089 -0.704188 1.673975 0.042946 -0.028720 -506772.000000 0 0 1
27.488801 -24.829193 -4.784032 37.349832 -0.734606 1.699236 0.039463 -0.027132 -141342.000000 0 0 1
27.046501 -23.763893 -5.584332 36.433784 -0.720883 1.724676 0.047938 -0.041901 -25251.700000 0 0 1
25.788201 -23.277393 -5.184032 35.124671 -0.734270 1.718927 0.073935 -0.046789 -687192.000000 0 0 1
25.167501 -22.372493 -6.284632 34.255338 -0.726673 1.755306 0.084855 -0.052039 -164344.000000 0 0 1
24.520701 -23.175993 -7.303132 34.521402 -0.757213 1.783961 0.090115 -0.057665 699984.000000 0 0 1
23.372701 -22.513293 -7.842932 33.386271 -0.766671 1.807927 0.082584 -0.061184 93175.800000 0 0 1
23.457001 -21.154493 -8.658432 32.752281 -0.733832 1.838338 0.085799 -0.058693 -984109.000000 0 0 1
24.138001 -21.228393 -9.871532 33.626402 -0.721350 1.868750 0.090421 -0.054886 163336.000000 0 0 1
23.988901 -19.946793 -10.440832 32.899132 -0.693656 1.893739 0.084271 -0.054780 -238413.000000 0 0 1
24.677501 -19.845393 -11.805032 33.796116 -0.677290 1.927622 0.084928 -0.057150 -360271.000000 0 0 1
26.060701 -19.740093 -11.644832 34.704950 -0.648262 1.912973 0.127416 -0.057915 -458560.000000 0 0 1
26.780601 -19.195093 -12.723832 35.320647 -0.621882 1.939319 0.122563 -0.063477 -361695.000000 0 0 1
28.244101 -19.621193 -12.804132 36.696952 -0.607160 1.927210 0.134724 -0.049745 -438584.000000 0 0 1
28.395201 -21.039093 -12.946332 37.636929 -0.637676 1.921948 0.103093 -0.047496 -123625.000000 0 0 1
29.490701 -21.478793 -12.188832 38.465668 -0.629484 1.893230 0.129125 -0.055352 -305654.000000 0 0 1
29.918801 -22.965193 -12.555332 39.751366 -0.654660 1.892145 0.099767 -0.042664 76801.300000 0 0 1
30.838101 -22.983993 -13.655132 40.813172 -0.640494 1.911952 0.080771 -0.047535 398171.000000 0 0 1
31.131001 -24.383093 -13.937832 41.927767 -0.664439 1.909670 0.065420 -0.029904 -212299.000000 0 0 1
-3.039513 -9.276922 -27.660352 29.332491 1.254176 2.802310 0.065142 -0.021211 29415.500000 0 0 1
-3.168813 -7.977422 -27.139982 28.465054 1.192686 2.835271 0.074551 -0.014425 -209178.000000 0 0 1
-4.167113 -7.174122 -27.707302 28.922785 1.044574 2.850654 0.072843 -0.017905 -202124.000000 0 0 1
-4.315713 -5.810922 -27.014822 27.967710 0.931990 2.879806 0.065907 -0.020265 -187657.000000 0 0 1
-4.940913 -5.845822 -25.758602 26.871767 0.869093 2.852753 0.055880 -0.018789 139937.000000 0 0 1
-5.087613 -4.542522 -25.253542 26.158359 0.728856 2.877808 0.065014 -0.018384 143228.000000 0 0 1
-5.691313 -4.467422 -23.826832 24.901142 0.665499 2.846782 0.051477 -0.015194 -157952.000000 0 1 0
-4.854213 -5.098022 -22.874132 23.932805 0.809891 2.843045 0.047785 -0.025800 480086.000000 0 1 0
-5.474513 -5.158822 -21.563632 22.837994 0.755718 2.805953 0.040499 -0.015561 -69139.200000 0 1 0
-4.821313 -6.195722 -20.648032 22.090117 0.909510 2.778261 0.034004 -0.015002 -341374.000000 0 1 0
-5.183013 -7.547022 -20.993832 22.903322 0.969010 2.730359 0.032099 -0.008927 13923.400000 0 1 0
-4.338713 -8.463522 -20.378232 22.488397 1.097090 2.704926 0.035101 -0.013926 -1050980.000000 0 1 0
-4.966813 -9.908522 -20.209832 23.049628 1.106136 2.639955 0.040745 -0.012335 740748.000000 0 1 0
-6.020213 -9.963622 -19.222332 22.472534 1.027280 2.597061 0.036664 -0.018803 927050.000000 0 1 0
-7.259713 -9.412522 -19.686632 22.997011 0.913813 2.598379 0.041348 -0.019605 -298821.000000 0 1 0
-8.407913 -9.630822 -18.666732 22.625044 0.853088 2.541082 0.044900 -0.015315 -336223.000000 0 1 0
-9.006013 -10.885622 -18.683232 23.423668 0.879611 2.494139 0.049395 -0.016686 -202736.000000 0 1 0
-9.762413 -10.972522 -17.506832 22.851480 0.843693 2.443569 0.059676 -0.018171 -268383.000000 0 1 0
-10.798613 -12.161522 -17.468132 23.867306 0.844688 2.391881 0.079454 -0.006180 773273.000000 0 1 0
-12.021613 -11.841022 -18.154732 24.785546 0.777830 2.392743 0.111986 -0.027088 526053.000000 0 1 0
-11.936113 -12.040122 -19.509932 25.847104 0.789736 2.426177 0.130685 -0.030340 -931914.000000 0 0 1
-13.252813 -11.642722 -20.233432 26.843655 0.720814 2.424548 0.140653 -0.029688 352983.000000 0 0 1
-14.397113 -12.442522 -20.197032 27.749114 0.712702 2.385969 0.121771 -0.027977 -41019.300000 0 0 1
-14.917913 -12.674222 -18.880532 27.196591 0.704260 2.338138 0.118670 -0.020407 -1696020.000000 0 0 1
-16.164413 -13.514622 -18.833532 28.260135 0.696353 2.300213 0.126637 -0.011150 -666901.000000 0 0 1
-15.916113 -14.890322 -19.068332 28.959379 0.752113 2.289555 0.119098 -0.017445 -48330.900000 0 0 1
-16.466613 -15.414622 -20.269632 30.325203 0.752413 2.302864 0.122393 -0.013368 96869.600000 0 0 1
-16.120213 -16.921922 -20.581832 31.142006 0.809657 2.292817 0.076133 -0.004182 146950.000000 0 0 1
-16.654613 -17.976222 -19.773232 31.488115 0.823542 2.249724 0.090720 -0.003667 105310.000000 0 0 1
-16.293113 -19.210622 -20.340732 32.376827 0.867389 2.250098 0.077219 -0.004154 -296474.000000 0 0 1
-16.994813 -20.459522 -19.762032 33.135383 0.877641 2.209808 0.092472 -0.020560 -219069.000000 0 0 1
-16.542213 -21.651622 -20.335632 33.999640 0.918384 2.211941 0.084296 -0.018192 -152469.000000 0 0 1
-17.032713 -22.755122 -19.672632 34.567635 0.928242 2.176214 0.099307 -0.018327 -13145.600000 0 0 1
-16.560413 -24.160822 -20.157732 35.557373 0.969920 2.173543 0.106770 -0.014859 -197023.000000 0 0 1
-17.104213 -24.496422 -21.382732 36.740305 0.961257 2.191978 0.061440 -0.008696 -481704.000000 0 0 1
-16.549313 -25.621322 -21.890632 37.543730 0.997295 2.193299 0.066495 -0.005167 -125486.000000 0 0 1
-17.289013 -26.197672 -23.162532 39.009369 0.987462 2.206531 0.063069 -0.011492 -185624.000000 0 0 1
-18.453313 -26.900912 -22.848032 39.827333 0.969546 2.181785 0.086520 -0.017760 -607757.000000 0 0 1
-18.322113 -28.281042 -23.129232 40.871488 0.995928 2.172322 0.098473 -0.005974 42844.300000 0 0 1
-19.100113 -28.810782 -24.355432 42.285489 0.985371 2.184594 0.108288 -0.016773 -52377.000000 0 0 1
-18.456013 -28.579112 -25.616482 42.586315 0.997389 2.216198 0.102389 -0.015764 70380.400000 0 0 1
-18.860313 -27.411592 -26.259942 42.387396 0.968141 2.238930 0.122588 -0.025661 -490660.000000 0 0 1
-17.923513 -27.035842 -27.371092 42.442500 0.985369 2.271686 0.111047 -0.022207 -534009.000000 0 0 1
-18.054713 -27.687422 -28.645452 43.739318 0.992953 2.284864 0.114482 -0.019224 -710769.000000 0 0 1
-16.944913 -27.378542 -29.396102 43.598687 1.016587 2.310735 0.093668 -0.011249 -705907.000000 0 0 1
-17.015213 -27.597332 -30.909922 44.794570 1.018294 2.332337 0.112246 -0.014640 28230.300000 0 0 1
-16.882013 -29.020462 -31.164902 45.808741 1.043921 2.319004 0.102694 -0.017472 212787.000000 0 0 1
-17.464513 -29.183552 -32.449872 47.007267 1.031527 2.332722 0.108845 -0.014356 266204.000000 0 0 1
-17.130013 -30.605532 -33.033722 48.180523 1.060534 2.326257 0.109569 -0.021328 644779.000000 0 0 1
-15.795813 -30.810642 -33.489352 48.169909 1.097061 2.339542 0.108407 -0.024410 221397.000000 0 0 1
-15.789113 -31.856942 32.954791 48.478645 1.110654 0.823334 0.108360 -0.025765 381531.000000 0 0 1
-14.405813 -32.163852 32.314923 47.815218 1.149700 0.828707 0.107486 -0.028932 58127.800000 0 0 1
-13.579913 -33.016652 33.018539 48.628564 1.180582 0.824404 0.112358 -0.031033 -362000.000000 0 0 1
-12.561913 -33.613452 32.236400 48.237447 1.213151 0.838894 0.113564 -0.031786 -241762.000000 0 0 1
-11.740513 32.903807 33.144047 48.156287 -1.228065 0.811708 0.100404 -0.029312 -501601.000000 0 0 1
-11.074113 33.651619 -33.299542 48.620232 -1.252878 2.325250 0.109817 -0.029234 -345179.000000 0 0 1
-10.499813 32.808725 -32.306242 47.226601 -1.261065 2.324123 0.102205 -0.034063 -34220.100000 0 0 1
-9.773413 33.659589 -31.281602 46.978997 -1.288206 2.299447 0.087700 -0.034243 -152418.000000 0 0 1
-10.661313 -32.978302 -30.559132 46.207062 1.258118 2.293416 0.093191 -0.040259 -260023.000000 0 0 1
-9.958913 -31.971672 -29.847862 44.858251 1.268830 2.298801 0.126277 -0.051397 -488883.000000 0 0 1
-10.749313 -30.993132 -28.950702 43.752316 1.236949 2.293874 0.123782 -0.046579 22409.500000 0 0 1
-11.005813 -31.480092 -27.622092 43.302472 1.234467 2.262548 0.152904 -0.050846 372529.000000 0 0 1
-11.779913 -32.707352 -27.442182 44.290073 1.225098 2.239031 0.119124 -0.047020 60832.100000 0 0 1
-12.241313 -32.905092 -25.998052 43.686309 1.214642 2.208196 0.141096 -0.042486 -688704.000000 0 0 1
-11.205113 -32.964292 -25.088132 42.914025 1.243133 2.195200 0.164047 -0.066587 -889992.000000 0 0 1
-11.581213 -33.166842 -23.755632 42.408655 1.234852 2.165375 0.159665 -0.071838 94696.700000 0 0 1
-10.461413 -32.966712 -22.698932 41.370120 1.263515 2.151580 0.201738 -0.093560 772565.000000 0 0 1
-9.377713 33.556209 -22.742032 41.607220 -1.298286 2.149081 0.173504 -0.080302 579954.000000 0 0 1
-8.260313 -33.482442 -21.957432 40.883194 1.328920 2.137765 0.210363 -0.094098 690259.000000 0 0 1
-7.346713 32.852624 -21.407232 39.894094 -1.350790 2.137201 0.200748 -0.074882 126996.000000 0 0 1
-6.425113 32.275758 -22.289932 39.747299 -1.374296 2.166137 0.188314 -0.086504 137200.000000 0 0 1
-5.444713 31.411559 -21.753232 38.594482 -1.399167 2.169577 0.162022 -0.066607 561550.000000 0 0 1
-3.992813 31.979511 -21.754632 38.883103 -1.446584 2.164564 0.149127 -0.070249 51428.400000 0 0 1
-3.408313 32.180457 -23.016932 39.711177 -1.465277 2.189044 0.166011 -0.067852 -373483.000000 0 0 1
-2.497913 31.176359 -23.341332 39.025924 -1.490845 2.211922 0.169041 -0.086004 -294541.000000 0 0 1
-1.966813 31.244169 -24.826032 39.954954 -1.507930 2.241262 0.170476 -0.047735 -10357.500000 0 0 1
-1.037113 32.243508 -25.160252 40.911584 -1.538642 2.233171 0.158605 -0.074253 -33617.100000 0 0 1
-1.586713 33.549479 -25.282472 42.039132 -1.523537 2.216053 0.168690 -0.069168 -245154.000000 0 0 1
-0.802213 -32.941162 -26.207592 42.102276 1.546448 2.242697 0.068053 -0.043568 496012.000000 0 0 1
0.497987 -32.675792 -25.676042 41.559771 -1.555557 2.236751 0.092880 -0.046348 221951.000000 0 0 1
1.185487 -31.676872 -26.412392 41.260684 -1.533389 2.265470 0.061030 -0.031680 -356207.000000 0 0 1
2.526387 -31.402422 -25.716892 40.667595 -1.490517 2.255403 0.060142 -0.017946 -565424.000000 0 0 1
2.464887 -30.734922 -24.508632 39.387614 -1.490769 2.242400 0.061064 -0.013852 21763.500000 0 0 1
3.758187 -30.261082 -24.221632 38.942837 -1.447237 2.242064 0.039868 -0.005566 -210907.000000 0 0 1
3.877787 -29.444942 -22.933732 37.523299 -1.439854 2.228355 0.048157 -0.003905 -156306.000000 0 0 1
3.923287 -30.258112 -21.763732 37.478068 -1.441855 2.190392 0.051133 -0.007560 433970.000000 0 0 1
3.948587 -29.407032 -20.649732 36.149361 -1.437321 2.178804 0.057973 -0.001411 -449616.000000 0 0 1
3.885287 -30.224342 -19.311232 36.076724 -1.442949 2.135638 0.063591 -0.003145 -235879.000000 0 0 1
2.656887 -30.836252 -18.980432 36.306891 -1.484847 2.120902 0.082276 -0.023314 35023.200000 0 0 1
2.552787 -32.217502 -19.330232 37.658227 -1.491725 2.109830 0.075001 -0.024439 -146495.000000 0 0 1
3.257187 -33.213412 -18.331532 38.076044 -1.473040 2.073099 0.058211 -0.030797 1224270.000000 0 0 1
4.683587 -33.377492 -18.449132 38.423475 -1.431385 2.071625 0.045352 -0.020190 726460.000000 0 0 1
5.074687 32.937901 -17.797932 37.781268 1.417930 2.061309 0.060075 -0.032124 -220152.000000 0 0 1
6.139987 32.023118 -18.413732 37.446563 1.381359 2.084876 0.071570 -0.024509 1123640.000000 0 0 1
7.441587 32.680353 -18.404132 38.237348 1.346906 2.072948 0.095198 -0.029216 1137290.000000 0 0 1
8.381987 31.809145 -19.043032 38.009427 1.313145 2.095560 0.081311 -0.038433 1455990.000000 0 0 1
9.833787 32.347481 -19.437032 38.998220 1.275670 2.092558 0.078114 -0.038296 1160270.000000 0 0 1
10.544587 32.381042 -18.228932 38.626600 1.255985 2.062271 0.074026 -0.037098 181547.000000 0 0 1
11.807387 33.037927 -18.423632 39.627633 1.227554 2.054339 0.077916 -0.027135 370686.000000 0 0 1
12.698387 33.140716 -17.221432 39.447862 1.204886 2.022570 0.060213 -0.024519 -180570.000000 0 0 1
13.495787 32.043247 -16.759832 38.597901 1.172171 2.019964 0.074062 -0.029872 174397.000000 0 0 1
14.183787 32.443209 -15.587832 38.687494 1.158648 1.985498 0.064790 -0.038098 529024.000000 0 0 1
15.495787 31.603364 -15.398832 38.418955 1.114922 1.983201 0.072889 -0.032772 693659.000000 0 0 1
15.181187 30.330599 -14.907432 37.049227 1.106730 1.984899 0.093437 -0.032957 190965.000000 0 0 1
16.335687 29.480519 -14.958232 36.874170 1.064797 1.988493 0.087603 -0.026472 445542.000000 0 0 1
16.228387 28.136519 -14.176132 35.439907 1.047631 1.982318 0.101195 -0.024758 -339364.000000 0 0 1
16.455087 28.141249 -12.797732 35.021162 1.041679 1.944889 0.102412 -0.033953 -351277.000000 0 0 1
15.298887 28.303929 -12.024132 34.347462 1.075259 1.928446 0.092013 -0.037645 30129.100000 0 0 1
14.447687 27.034499 -11.706332 32.812163 1.079996 1.935602 0.094716 -0.035134 635670.000000 0 0 1
13.412587 26.795899 -12.708032 32.548607 1.106712 1.971898 0.088143 -0.033652 707980.000000 0 0 1
12.625387 25.629119 -12.672732 31.254604 1.113071 1.988287 0.111822 -0.036745 -6838.300000 0 0 1
11.795487 25.319639 -11.415332 30.174948 1.134829 1.958761 0.116238 -0.032726 -876606.000000 0 0 1
10.667887 26.137749 -11.339432 30.423157 1.183292 1.952739 0.118573 -0.035338 -757652.000000 0 0 1
10.144687 26.339359 -10.124332 29.986307 1.203154 1.915196 0.103673 -0.025948 214580.000000 0 0 1
8.932187 27.339019 -10.168932 30.505952 1.255010 1.910643 0.105138 -0.023518 478203.000000 0 0 1
9.338987 28.644689 -10.573532 31.930150 1.255634 1.908314 0.096938 -0.030861 -303105.000000 0 0 1
8.308887 29.594589 -10.583732 32.509886 1.297086 1.902394 0.081234 -0.028384 -137189.000000 0 0 1
8.798687 31.056269 -10.917332 34.074872 1.294717 1.896940 0.095638 -0.036266 -84737.100000 0 0 1
9.688287 31.543899 -9.912532 34.454880 1.272805 1.862617 0.087765 -0.034855 -195796.000000 0 0 1
10.167487 32.843879 -10.169632 35.854144 1.270583 1.858383 0.087208 -0.037193 550668.000000 0 0 1
11.317687 32.921307 -11.248032 36.584433 1.239673 1.883313 0.073499 -0.033475 -113359.000000 0 0 1
12.631987 32.771715 -10.772432 36.736871 1.202892 1.868402 0.076232 -0.030941 50647.700000 0 0 1
13.520787 32.829379 -11.906432 37.447870 1.180116 1.894360 0.072447 -0.032188 -429713.000000 0 0 1
14.985487 32.600928 -11.620832 37.715104 1.139935 1.884014 0.079332 -0.034609 -669927.000000 0 0 1
15.538287 33.657879 -10.871132 38.632535 1.138293 1.856047 0.080560 -0.031726 -574235.000000 0 0 1
16.930487 33.460555 -10.807932 39.026421 1.102373 1.851403 0.082040 -0.037093 -261981.000000 0 0 1
17.544987 -33.035902 -9.768732 38.660387 -1.082588 1.826246 0.086912 -0.027889 4351.440000 0 0 1
17.746787 -33.655862 -8.497532 38.985556 -1.085547 1.790526 0.084044 -0.021108 186531.000000 0 0 1
18.285487 -32.767782 -7.518932 38.270366 -1.061807 1.768552 0.077201 -0.017141 -719409.000000 0 0 1
18.560187 -33.418692 -6.172732 38.721985 -1.063829 1.730891 0.064922 -0.007044 -42447.600000 0 0 1
19.494887 33.003768 -6.273832 38.841477 1.037253 1.733031 0.052395 -0.009173 -562623.000000 0 0 1
20.835987 33.420912 -6.298032 39.884345 1.013318 1.729367 0.060887 -0.003723 -898334.000000 0 0 1
21.774987 32.479540 -7.080932 39.739277 0.980199 1.749938 0.050933 -0.002947 41086.900000 0 0 1
21.885387 31.216779 -6.411532 38.659607 0.959347 1.737412 0.051965 0.000705 -25776.600000 0 0 1
22.695887 31.148639 -5.241232 38.894878 0.941112 1.705961 0.050003 0.006999 -194368.000000 0 0 1
23.085687 29.686109 -4.900132 37.923941 0.909827 1.700368 0.048881 -0.005445 46039.200000 0 0 1
23.881287 29.008429 -5.858132 38.027918 0.882036 1.725460 0.050185 -0.009621 209643.000000 0 0 1
24.191387 27.630559 -5.526632 37.137780 0.851666 1.720165 0.065546 -0.014670 -14797.800000 0 0 1
25.268287 27.047959 -6.461832 37.574376 0.819403 1.743630 0.046646 -0.009059 806142.000000 0 0 1
26.592187 27.600469 -6.306332 38.841989 0.804002 1.733877 0.052431 -0.004323 1097720.000000 0 0 1
27.622287 26.766229 -6.825432 39.064156 0.769660 1.746421 0.034911 -0.004451 506171.000000 0 0 1
28.376487 25.909249 -5.732032 38.850617 0.739980 1.718877 0.038007 -0.004331 -333914.000000 0 0 1
29.386187 26.673559 -5.108432 40.014033 0.737048 1.698812 0.053103 -0.002824 -303406.000000 0 0 1
30.086187 25.781299 -4.305432 39.854621 0.708495 1.679036 0.062120 -0.005785 -437359.000000 0 0 1
31.339187 26.319249 -3.602532 41.083157 0.698554 1.658598 0.073440 -0.002840 12470.400000 0 0 1
31.052287 27.176499 -2.506832 41.341152 0.718935 1.631471 0.083877 -0.002267 842176.000000 0 0 1
32.277387 27.270669 -1.742632 42.291322 0.701517 1.612013 0.087779 -0.012874 1082010.000000 0 0 1
32.265887 28.424609 -0.703332 43.006285 0.722190 1.587151 0.097635 -0.007044 56030.600000 0 0 1
32.598887 29.726569 -1.129032 44.131973 0.739345 1.596382 0.081781 0.014856 254367.000000 0 0 1
31.482887 30.485989 -1.615732 43.854057 0.769312 1.607648 0.088048 0.000045 295703.000000 0 0 1
34.774851 22.135278 19.137133 45.447669 0.566848 1.136160 0.154480 -0.028348 -227825.000000 0 0 1
35.167531 22.171178 20.510033 46.357068 0.562505 1.112483 0.137801 -0.030572 608080.000000 0 0 1
36.041221 23.261078 20.851833 47.695348 0.573136 1.118327 0.137853 -0.026307 380890.000000 0 0 1
36.154471 23.409578 22.421033 48.557767 0.574607 1.090841 0.119904 -0.019114 358413.000000 0 0 1
34.974631 23.971078 22.994483 48.234672 0.600850 1.073876 0.098720 -0.017090 393538.000000 0 0 1
34.934301 23.995678 24.420123 48.913600 0.601866 1.048063 0.097058 -0.018368 -429764.000000 0 0 1
33.689171 24.631178 25.022543 48.659868 0.631315 1.030682 0.081625 -0.021170 -356691.000000 0 0 1
33.466781 26.010478 24.652893 49.034024 0.660685 1.043995 0.053827 -0.017842 1076090.000000 0 0 1
32.183701 26.441278 25.162463 48.662935 0.687758 1.027364 0.040602 -0.015697 881031.000000 0 0 1
31.966071 27.965378 25.148453 49.359261 0.718743 1.036195 0.023383 -0.008743 -127653.000000 0 0 1
32.024011 28.548778 23.875963 49.098183 0.728088 1.062957 0.033492 -0.025835 354059.000000 0 0 1
31.606411 29.940978 24.071113 49.747822 0.758345 1.065733 0.034310 -0.020906 -39407.700000 0 0 1
31.926871 30.836878 22.858213 49.927307 0.768033 1.095244 0.052629 -0.026538 -952515.000000 0 0 1
33.298021 30.972578 22.724453 50.837580 0.749232 1.107386 0.016482 -0.023697 -975265.000000 0 0 1
33.575731 31.807978 21.593433 51.042663 0.758368 1.133991 0.025078 -0.018964 -197061.000000 0 0 1
35.065571 32.152778 21.502033 52.208551 0.742092 1.146314 0.009816 -0.029211 -103625.000000 0 0 1
35.445251 33.234878 22.389523 53.499660 0.753226 1.139005 0.024918 -0.014097 174304.000000 0 0 1
36.843371 33.418078 22.428003 54.563882 0.736686 1.147200 0.028081 -0.015658 176005.000000 0 0 1
37.294451 -32.822893 23.274833 54.862886 -0.721712 1.132678 0.031287 -0.006244 -429358.000000 0 0 1
36.589891 -31.688093 22.815283 53.511611 -0.713729 1.130330 0.024792 -0.001329 73461.900000 0 0 1
36.938751 -30.474893 23.418423 53.306781 -0.689807 1.115961 0.044557 0.000492 -924364.000000 0 0 1
36.126621 -29.260593 22.929543 51.837042 -0.680776 1.112591 0.042194 -0.001741 -57629.200000 0 0 1
34.738891 -29.358093 23.158573 51.039276 -0.701647 1.099838 0.031496 0.003165 519154.000000 0 0 1
33.943461 -29.897493 22.083733 50.335970 -0.722107 1.116615 0.029594 0.007317 -54207.100000 0 0 1
33.332151 -31.285793 22.436833 50.923910 -0.753740 1.114535 0.019397 0.003677 -927556.000000 0 0 1
32.191981 -31.241393 23.213033 50.509337 -0.770414 1.093275 0.038605 -0.008177 -658403.000000 0 0 1
31.720411 -32.536393 23.438973 51.129119 -0.798096 1.094572 0.030272 -0.012144 -324388.000000 0 0 1
30.767801 -32.560793 24.616763 51.116023 -0.813703 1.068333 0.027526 -0.019094 -359083.000000 0 0 1
30.390701 33.595878 24.987503 51.736380 0.835448 1.066744 0.031396 -0.029625 471139.000000 0 0 1
29.437301 33.599978 26.057943 51.715854 0.851338 1.042726 0.034586 -0.030115 -313372.000000 0 0 1
29.004501 32.185278 26.558373 50.818307 0.837334 1.020882 0.033155 -0.015948 271313.000000 0 0 1
28.287201 31.400678 25.652413 49.438998 0.837514 1.025268 0.046516 -0.024923 280737.000000 0 0 1
26.895101 31.691878 25.520573 48.775211 0.867090 1.020161 0.051203 -0.027705 71224.300000 0 0 1
26.482101 31.404878 24.041103 47.597717 0.870235 1.041311 0.090524 -0.034138 -2187.940000 0 0 1
26.981201 32.220378 22.980443 47.898212 0.873665 1.070396 0.120853 -0.039904 -214630.000000 0 0 1
28.357301 32.190978 22.723413 48.546360 0.848630 1.083683 0.086660 -0.032083 -726111.000000 0 0 1
28.633301 32.882878 21.407933 48.574161 0.854369 1.114388 0.115430 -0.029503 -32251.900000 0 0 1
29.975201 33.086578 21.012333 49.343210 0.834697 1.130906 0.113165 -0.034068 -67864.400000 0 0 1
30.066601 33.569978 19.706333 49.186212 0.840396 1.158573 0.107407 -0.038968 -357470.000000 0 0 1
31.427021 33.712378 19.011933 49.856149 0.820468 1.179556 0.122229 -0.038651 -554091.000000 0 0 1
32.093311 32.504878 18.855533 49.417393 0.791769 1.179317 0.123551 -0.053304 -600170.000000 0 0 1
33.095251 32.687078 17.905533 49.843242 0.779193 1.203346 0.105909 -0.037245 -422889.000000 0 0 1
33.898571 31.392478 17.584533 49.434973 0.747034 1.207122 0.077396 -0.041690 190399.000000 0 0 1
34.818141 30.931478 18.579433 50.142343 0.726354 1.191213 0.051127 -0.039144 610082.000000 0 0 1
35.888801 30.253278 17.935333 50.248811 0.700400 1.205816 0.075750 -0.042886 386241.000000 0 0 1
37.012091 29.697678 18.864833 51.065926 0.676189 1.192410 0.073742 -0.053225 525290.000000 0 0 1
37.919871 30.714678 19.293133 52.474117 0.680802 1.194295 0.093300 -0.046954 833172.000000 0 0 1
-37.301463 30.243678 20.244933 52.114648 -0.681286 1.171827 0.122475 -0.045011 784461.000000 0 0 1
-36.320303 31.323378 20.770633 52.266027 -0.711661 1.162112 0.118254 -0.041698 -100248.000000 0 0 1
-35.488420 31.880278 19.771633 51.640077 -0.731891 1.177891 0.124413 -0.041384 10907.000000 0 0 1
-34.292640 32.433578 20.267633 51.368269 -0.757544 1.165212 0.114766 -0.022975 -55492.000000 0 0 1
-34.267554 -33.725093 21.124033 52.515445 0.777420 1.156830 0.090204 -0.018552 -701294.000000 0 0 1
-34.780224 33.543778 22.417993 53.267395 -0.767303 1.136406 0.094000 -0.014604 224475.000000 0 0 1
-34.685677 -32.710093 23.164193 53.005907 0.756093 1.118523 0.083217 -0.007216 -170610.000000 0 0 1
-35.074937 -33.019793 24.647423 54.111490 0.755227 1.097870 0.073097 -0.018400 -1528700.000000 0 0 1
-36.361353 -33.395893 24.851753 55.272446 0.742913 1.104453 0.057281 -0.008927 -1752480.000000 0 0 1
-36.345163 33.649778 26.176593 56.022249 -0.746909 1.084615 0.069687 -0.015184 197211.000000 0 0 1
-37.779123 33.573278 26.729253 57.174121 -0.726522 1.084329 0.032625 -0.023794 -165728.000000 0 0 1
-37.768513 32.893278 27.982233 57.371017 -0.716513 1.061295 0.057213 -0.033078 1165540.000000 0 0 1
37.128331 32.631378 28.611403 57.113327 0.721024 1.046090 0.054248 -0.038412 1017080.000000 0 0 1
37.298921 31.623678 29.838043 57.285035 0.703241 1.022927 0.057990 -0.033658 -179137.000000 0 0 1
37.493441 30.240178 29.622583 56.548420 0.678720 1.019438 0.055593 -0.035727 241688.000000 0 0 1
-37.747003 29.790478 28.687673 55.993673 -0.668130 1.032892 0.063705 -0.034118 -702140.000000 0 0 1
-37.957813 28.271778 28.295763 55.142898 -0.640178 1.031963 0.075026 -0.026679 -196319.000000 0 0 1
37.127671 28.099878 27.417563 54.035079 0.647867 1.038628 0.061274 -0.025565 289993.000000 0 0 1
36.920631 26.769778 26.911643 52.952719 0.627349 1.037679 0.080394 -0.026957 186022.000000 0 0 1
36.370891 25.762378 27.977743 52.624100 0.616291 1.010246 0.078622 -0.028097 -427712.000000 0 0 1
37.427671 25.505078 28.871003 53.711026 0.598167 1.003297 0.075376 -0.028198 163782.000000 0 0 1
37.408171 24.182178 29.360063 53.349435 0.573869 0.988031 0.079580 -0.019061 95714.500000 0 0 1
38.071821 23.105078 28.467793 52.855684 0.545464 1.002028 0.101668 -0.014366 -460547.000000 0 0 1
37.360211 22.953078 27.287103 51.645088 0.550920 1.014131 0.091851 -0.015481 -119346.000000 0 0 1
37.976161 22.117878 26.310383 51.221339 0.527389 1.031351 0.104414 -0.027637 -129774.000000 0 0 1
37.600971 20.554978 26.380693 50.321775 0.500276 1.018974 0.104222 -0.027398 -498373.000000 0 0 1
36.305871 20.243178 25.890543 48.971652 0.508639 1.013747 0.121405 -0.004249 510831.000000 0 0 1
35.859271 18.942378 26.374373 48.376735 0.485985 0.994184 0.127626 -0.006887 -31634.300000 0 0 1
35.616031 18.810478 27.889343 48.991337 0.485910 0.965178 0.100480 -0.008597 -663996.000000 0 0 1
34.435951 19.370978 28.415863 48.667553 0.512406 0.947300 0.087900 -0.014937 -68462.800000 0 0 1
34.298191 20.798578 28.401083 49.148430 0.545115 0.954688 0.084839 -0.018438 -552579.000000 0 0 1
33.077181 21.416178 29.112523 48.992770 0.574588 0.934500 0.061710 -0.016435 343115.000000 0 0 1
31.756351 21.163578 28.627913 47.706606 0.587843 0.927192 0.064691 -0.015284 635868.000000 0 0 1
31.348811 21.925478 27.500923 47.114491 0.610326 0.947513 0.071760 -0.000812 -59847.700000 0 0 1
31.044301 23.419378 27.829433 47.819381 0.646302 0.949648 0.061575 -0.003806 -236038.000000 0 0 1
32.287901 24.036678 28.124533 49.104580 0.639939 0.960942 0.059591 -0.019404 4890.550000 0 0 1
32.267491 25.273678 28.665883 50.016823 0.664447 0.960482 0.048281 -0.014309 -76800.700000 0 0 1
32.498571 25.165678 30.187353 50.997497 0.658912 0.937335 0.046022 -0.026103 1344670.000000 0 0 1
33.881421 24.829378 30.537913 51.932772 0.632423 0.942178 0.052426 -0.017106 1508110.000000 0 0 1
34.288731 24.769278 31.898067 52.978494 0.625585 0.924674 0.063626 -0.026425 113248.000000 0 0 1
33.693611 23.599178 32.730790 52.568861 0.610998 0.898701 0.065968 -0.021431 -341300.000000 0 0 1
34.256321 23.478278 -33.374892 53.278593 0.600840 2.247751 0.071601 -0.032424 42414.700000 0 0 1
33.645071 22.553378 -32.504522 51.934474 0.590536 2.247050 0.071217 -0.032007 -189257.000000 0 0 1
34.286151 22.598278 -31.071592 51.494331 0.582751 2.218552 0.071948 -0.047263 -320079.000000 0 0 1
33.926441 23.696078 -30.274022 51.274008 0.609688 2.202395 0.066901 -0.050708 117082.000000 0 0 1
34.247471 23.456678 -28.912442 50.586899 0.600531 2.179178 0.098041 -0.058431 -385525.000000 0 0 1
35.721131 23.590778 -28.523812 51.440566 0.583662 2.158559 0.095769 -0.030407 -608099.000000 0 0 1
35.968061 23.070778 -27.287152 50.700600 0.570323 2.139098 0.101860 -0.032867 -213299.000000 0 0 1
37.192661 23.520978 -26.753262 51.500169 0.563909 2.117038 0.102285 -0.023095 -85197.500000 0 0 1
37.809271 22.631778 -25.645192 50.984451 0.539373 2.097863 0.089587 -0.026106 -496325.000000 0 0 1
-37.332743 21.889678 -26.167592 50.573062 -0.530315 2.114631 0.085274 -0.019041 -255316.000000 0 0 1
-37.434563 20.582378 -25.631722 49.819333 -0.502707 2.111213 0.063587 -0.008623 6453.090000 0 0 1
-36.233873 19.680978 -26.027282 48.761192 -0.497581 2.133849 0.070660 0.000437 1508490.000000 0 0 1
-34.991459 20.090978 -25.350272 47.651715 -0.521209 2.131746 0.079953 -0.002117 1107810.000000 0 0 1
-34.016200 19.076478 -25.391812 46.537705 -0.511101 2.147923 0.052191 -0.001704 855555.000000 0 0 1
-32.642933 19.591078 -24.800432 45.436030 -0.540539 2.148178 0.041336 0.000402 707944.000000 0 0 1
-32.764533 19.707178 -23.380232 44.816546 -0.541506 2.119624 0.041290 0.004116 74139.000000 0 0 1
-31.499323 19.708478 -22.756332 43.571575 -0.559088 2.120313 0.055075 -0.006138 179624.000000 0 0 1
-31.675313 19.908778 -21.243932 43.023128 -0.561131 2.087227 0.040246 -0.007613 204992.000000 0 0 1
-32.305173 18.811178 -20.601832 42.683956 -0.527300 2.074486 0.030636 -0.009806 68387.900000 0 0 1
-32.866053 19.174178 -19.387032 42.704608 -0.528127 2.042023 0.034774 -0.007683 -938253.000000 0 0 1
-33.725463 18.166178 -18.663432 42.611508 -0.494086 2.024158 0.030465 -0.003742 -11046.100000 0 0 1
-34.498430 18.679478 -17.607732 43.001126 -0.496262 1.992671 0.037348 -0.012088 999276.000000 0 0 1
-35.626419 19.535878 -17.915432 44.405574 -0.501578 1.986081 0.035873 -0.018422 198123.000000 0 0 1
-36.745453 19.723478 -16.879432 44.990656 -0.492621 1.955383 0.041190 -0.021982 -207562.000000 0 0 1
-36.319033 20.365878 -15.674532 44.491933 -0.511059 1.930824 0.047201 -0.026719 -113964.000000 0 0 1
-37.269723 20.182378 -14.678232 44.853218 -0.496311 1.904189 0.057115 -0.022664 -876047.000000 0 0 1
-37.124983 21.200878 -13.564432 44.852374 -0.518874 1.878031 0.062098 -0.023158 -216388.000000 0 0 1
-37.547813 22.517578 -13.966632 45.955918 -0.540202 1.879594 0.093375 -0.037505 -460442.000000 0 0 1
37.320131 22.769278 -13.664732 45.803461 0.547818 1.873743 0.091378 -0.038629 -680637.000000 0 0 1
36.803331 24.119878 -14.212432 46.241182 0.580143 1.883208 0.106764 -0.035365 327712.000000 0 0 1
37.630111 25.085278 -13.575732 47.218608 0.587976 1.862420 0.092411 -0.029740 344392.000000 0 0 1
37.381351 26.336278 -14.185632 47.876895 0.613760 1.871606 0.107974 -0.020329 -187195.000000 0 0 1
-37.606793 27.151378 -14.672732 48.649330 -0.625326 1.877169 0.108208 -0.015834 -130197.000000 0 0 1
-37.185833 26.722278 -15.948332 48.489335 -0.623110 1.905939 0.096695 -0.017933 964587.000000 0 0 1
-35.835999 27.148278 -16.228432 47.797592 -0.648328 1.917207 0.087268 -0.019565 401021.000000 0 0 1
-35.375179 26.929078 -17.680132 47.845226 -0.650657 1.949297 0.085095 -0.024507 -294658.000000 0 0 1
-35.009908 25.654378 -18.082532 47.019345 -0.632386 1.965545 0.102813 -0.026272 1288950.000000 0 0 1
-33.567633 25.558678 -17.949332 45.849870 -0.650763 1.973036 0.072519 -0.018469 1284810.000000 0 0 1
-32.980223 24.400178 -18.844932 45.146376 -0.636969 2.001399 0.068959 -0.013526 -44214.800000 0 0 1
-33.391783 24.465878 -20.230532 46.074557 -0.632331 2.025374 0.072150 -0.020425 19740.600000 0 0 1
-32.526023 23.821678 -21.109832 45.508675 -0.632134 2.053148 0.060330 -0.015240 -207288.000000 0 0 1
-32.978033 23.928978 -22.633932 46.609458 -0.627704 2.077855 0.067255 -0.019610 -8492.760000 0 0 1
-34.236932 23.325778 -22.935132 47.352716 -0.598068 2.076413 0.080560 -0.024226 510532.000000 0 0 1
-34.618433 23.263578 -24.273432 48.257947 -0.591686 2.097855 0.071233 -0.017140 -220649.000000 0 0 1
-35.281544 24.556478 -24.813332 49.633753 -0.608046 2.094313 0.078603 -0.021326 -1035640.000000 0 0 1
-34.476687 25.669278 -25.004332 49.726959 -0.639998 2.097669 0.071092 -0.019010 -484335.000000 0 0 1
-35.062593 26.683278 -25.797552 51.057776 -0.650516 2.100482 0.073692 -0.021754 164311.000000 0 0 1
-34.062489 27.857578 -25.928032 51.074070 -0.685523 2.103258 0.055817 -0.027147 879236.000000 0 0 1
-32.873983 27.582978 -26.693762 50.537871 -0.698104 2.127268 0.071102 -0.026925 135904.000000 0 0 1
-32.242193 28.829378 -26.941142 50.956032 -0.729574 2.127881 0.076598 -0.029940 675368.000000 0 0 1
-30.886503 28.611678 -27.700032 50.397381 -0.747183 2.152720 0.089410 -0.034613 -193860.000000 0 0 1
-29.925563 27.891278 -26.947272 48.985898 -0.750228 2.153283 0.096939 -0.029786 506192.000000 0 0 1
-28.644483 27.997278 -27.594962 48.639859 -0.773972 2.174059 0.101549 -0.025372 1240390.000000 0 0 1
-27.810913 29.350178 -27.506702 48.902950 -0.812320 2.168173 0.086546 -0.033480 -616485.000000 0 0 1
-27.293263 29.602378 -26.224792 48.051667 -0.825961 2.148095 0.060355 -0.024289 -382858.000000 0 0 1
-28.231113 29.922978 -25.219782 48.253681 -0.814483 2.120753 0.064744 -0.014159 -408235.000000 0 0 1
-27.745873 30.465578 -23.850932 47.611468 -0.832085 2.095492 0.025527 -0.007223 -58991.600000 0 0 1
-27.112263 31.715178 -23.818732 48.044348 -0.863483 2.089512 0.023814 0.001540 125330.000000 0 0 1
-26.497683 32.048578 -22.587932 47.322862 -0.879928 2.068393 0.043363 0.007321 219268.000000 0 0 1
-25.860303 33.461178 -22.637532 47.967318 -0.912834 2.062282 0.041007 0.018360 267657.000000 0 0 1
-26.851653 -32.944593 -22.539732 48.108181 0.886943 2.058413 0.027373 0.003681 323838.000000 0 0 1
-26.361573 -31.678693 -22.188032 46.805779 0.876754 2.064675 0.049637 0.003515 -259585.000000 0 0 1
17.987687 7.938378 -24.867432 31.701166 0.415615 2.472577 0.075280 -0.016903 135744.000000 0 0 1
16.592587 7.746478 -24.609432 30.674844 0.436789 2.501880 0.062416 -0.019594 699416.000000 0 0 1
16.373687 6.377778 -24.637832 30.262129 0.371434 2.522056 0.055039 -0.022935 -971313.000000 0 0 1
14.919687 6.006778 -24.637632 29.422634 0.382752 2.563251 0.071310 -0.023011 -1255670.000000 0 0 1
14.137287 6.159778 -23.506232 28.113141 0.410908 2.560985 0.095606 -0.048960 -390417.000000 0 0 1
12.836887 5.739578 -23.812732 27.654559 0.420453 2.608182 0.106608 -0.039334 7241.290000 0 0 1
11.821287 5.966178 -22.628832 26.218355 0.467399 2.612155 0.134082 -0.050178 197112.000000 0 0 1
12.145887 5.087278 -21.554932 25.259020 0.396648 2.593185 0.108833 -0.035248 139449.000000 0 0 1
11.380587 5.248778 -20.384532 23.928991 0.432132 2.590353 0.116823 -0.036238 -386650.000000 0 1 0
11.469187 6.583378 -19.599932 23.644037 0.521087 2.548040 0.121712 -0.052158 -126066.000000 0 1 0
11.299687 6.437778 -18.200532 22.369338 0.517865 2.521178 0.121360 -0.052864 -211007.000000 0 1 0
11.375187 7.682878 -17.517232 22.254773 0.594029 2.476926 0.121627 -0.058069 -876722.000000 0 1 0
12.772387 8.198678 -17.261032 22.984678 0.570665 2.420341 0.115137 -0.049431 -1137220.000000 0 1 0
13.391687 7.496178 -16.235032 22.340686 0.510308 2.384306 0.142720 -0.060422 -858099.000000 0 1 0
14.611187 8.100978 -16.000732 23.133008 0.506243 2.334615 0.138738 -0.056203 -817850.000000 0 1 0
15.327187 7.673678 -14.667532 22.559798 0.464174 2.278594 0.149118 -0.062480 380015.000000 0 1 0
16.657887 8.162578 -14.594632 23.603309 0.455626 2.237412 0.126461 -0.065236 660425.000000 0 1 0
17.239087 8.003678 -13.316332 23.207104 0.434661 2.181940 0.119921 -0.060474 -360546.000000 0 1 0
18.097787 9.169578 -12.919432 24.052501 0.468968 2.137833 0.176533 -0.062810 -55120.900000 0 1 0
17.339787 10.355378 -12.650932 23.831663 0.538361 2.130394 0.195875 -0.054895 1295860.000000 0 1 0
18.281587 11.316278 -12.112832 24.677830 0.554272 2.083848 0.270951 -0.080020 291857.000000 0 1 0
17.661887 12.617278 -11.629132 24.624676 0.620311 2.062644 0.291573 -0.073058 -791056.000000 0 1 0
17.090987 12.573978 -10.315032 23.592513 0.634291 2.023298 0.337405 -0.054719 329185.000000 0 1 0
16.227387 13.606278 -9.977532 23.409614 0.697766 2.011101 0.222261 -0.046124 441018.000000 0 1 0
14.893387 13.810878 -10.810932 23.009337 0.747704 2.059917 0.183161 -0.053164 692962.000000 0 1 0
13.913487 14.731878 -10.284632 22.724150 0.813960 2.040460 0.204611 -0.052765 818986.000000 0 1 0
14.307487 16.095678 -10.331232 23.885339 0.844146 2.018098 0.227856 -0.055455 -397229.000000 0 1 0
13.421287 16.968278 -9.438132 23.603638 0.901590 1.982160 0.211345 -0.039056 148221.000000 0 1 0
13.852887 17.000878 -8.063732 23.365704 0.887076 1.923152 0.235152 -0.033774 249800.000000 0 1 0
12.824487 17.489678 -7.269932 22.873745 0.938095 1.894235 0.204497 -0.020755 -74636.800000 0 1 0
13.286087 17.322778 -5.804532 22.589629 0.916521 1.830667 0.189940 -0.018521 258687.000000 0 1 0
14.308687 18.242778 -5.493832 23.826869 0.905672 1.803463 0.227473 -0.025099 113360.000000 0 1 0
14.841287 18.013178 -4.207532 23.715854 0.881644 1.749155 0.227330 -0.023782 -30283.600000 0 1 0
16.067287 18.899078 -3.851132 25.103069 0.866208 1.724817 0.214503 -0.037251 172702.000000 0 0 1
17.240387 18.487678 -4.545532 25.684374 0.820295 1.748710 0.233102 -0.057391 -28152.300000 0 0 1
18.099287 19.594878 -4.684732 27.083023 0.825054 1.744647 0.151677 -0.052395 -877226.000000 0 0 1
19.282887 19.252378 -5.559232 27.809870 0.784606 1.772054 0.156106 -0.044067 -751604.000000 0 0 1
20.269987 18.502878 -4.865932 27.873037 0.739854 1.746270 0.146023 -0.055103 -77041.400000 0 0 1
20.684387 17.482078 -5.741032 27.684407 0.701690 1.779686 0.183198 -0.056790 18986.200000 0 0 1
21.755387 16.579078 -5.014532 27.808420 0.651180 1.752112 0.157790 -0.056201 -24074.300000 0 0 1
23.025387 17.182378 -5.031232 29.167034 0.641088 1.744161 0.100503 -0.049609 -377241.000000 0 0 1
23.887187 16.289078 -4.351932 29.238178 0.598486 1.720196 0.090350 -0.052014 200318.000000 0 0 1
25.403687 16.508078 -4.602532 30.643878 0.576256 1.721561 0.088122 -0.039531 543598.000000 0 0 1
25.956087 17.638478 -3.876032 31.620531 0.596869 1.693685 0.086584 -0.037828 -375120.000000 0 0 1
27.345887 17.584878 -3.791532 32.732265 0.571477 1.686892 0.067303 -0.023973 -709703.000000 0 0 1
27.851587 18.698978 -2.900732 33.671604 0.591258 1.657051 0.087867 -0.025754 -331418.000000 0 0 1
27.922887 19.958078 -3.559432 34.506261 0.620561 1.674133 0.081582 -0.030194 145280.000000 0 0 1
28.222287 20.983678 -2.658932 35.268713 0.639337 1.646259 0.107056 -0.019609 -150378.000000 0 0 1
28.066987 22.360178 -3.423532 36.047939 0.672708 1.665911 0.091649 -0.023124 -79584.400000 0 0 1
29.089787 22.768478 -4.324932 37.193068 0.664101 1.687343 0.067923 -0.010402 301553.000000 0 0 1
29.128187 22.045078 -5.528732 36.945955 0.647858 1.721004 0.052128 -0.010945 -202753.000000 0 0 1
30.284487 22.536578 -6.411232 38.290356 0.639755 1.739026 0.049700 -0.009265 -259743.000000 0 0 1
29.895087 23.579878 -7.316032 38.771784 0.667846 1.760629 0.046532 0.001171 554515.000000 0 0 1
30.981287 24.188578 -8.030832 40.117599 0.662891 1.772340 0.055248 -0.004126 400873.000000 0 0 1
31.862687 23.339178 -9.000332 40.508691 0.632202 1.794849 0.056682 -0.005568 -118832.000000 0 0 1
31.289187 22.773778 -10.184632 40.017308 0.629173 1.828133 0.056202 -0.005783 -62077.600000 0 0 1
31.843487 23.309178 -11.357132 41.064704 0.631876 1.851016 0.034871 -0.007576 -669533.000000 0 0 1
31.470387 22.528078 -12.631532 40.711855 0.621285 1.886270 0.067457 -0.007492 -54967.900000 0 0 1
31.782387 23.189578 -13.857932 41.712336 0.630340 1.909459 0.076043 -0.011612 90357.900000 0 0 1
31.904487 22.195178 -14.855732 41.607872 0.607818 1.935895 0.084733 -0.013652 -6276.340000 0 0 1
32.177587 22.893378 -16.226732 42.694387 0.618382 1.960665 0.092033 -0.022299 852307.000000 0 0 1
33.439487 23.598878 -16.288132 44.050080 0.614554 1.949551 0.101885 -0.020956 794091.000000 0 0 1
33.662687 24.118678 -17.581432 44.988820 0.621702 1.972292 0.115840 -0.029002 12399.100000 0 0 1
35.000187 24.885778 -17.694832 46.448058 0.618083 1.961630 0.111538 -0.031017 -616624.000000 0 0 1
36.047187 24.011478 -17.787032 46.822316 0.587619 1.960467 0.108699 -0.022209 -1492610.000000 0 0 1
37.278087 24.615378 -18.018232 48.168759 0.583594 1.954184 0.097574 -0.027208 -123386.000000 0 0 1
-37.702127 23.646978 -18.000732 48.006836 -0.560184 1.955152 0.081372 -0.037923 155485.000000 0 0 1
-37.709527 22.650778 -19.004232 47.918963 -0.540908 1.978597 0.070343 -0.034961 -328021.000000 0 0 1
-36.526127 22.770978 -19.728932 47.348771 -0.557460 2.000578 0.090838 -0.016636 -441622.000000 0 0 1
-36.493627 21.985478 -21.081932 47.535186 -0.542217 2.030298 0.092340 -0.022234 -53904.800000 0 0 1
-36.462127 20.576578 -20.934332 46.809492 -0.513777 2.034456 0.075586 -0.018783 74416.800000 0 0 1
-36.086727 20.077378 -22.184532 46.877568 -0.507717 2.063766 0.063905 -0.015757 37240.400000 0 0 1
-35.800927 18.545478 -22.226732 46.039860 -0.477957 2.074613 0.053419 -0.009292 612590.000000 0 0 1
-36.993927 17.765378 -22.044732 46.584649 -0.447702 2.063737 0.058804 -0.015431 785294.000000 0 0 1
-36.753927 16.447378 -22.382032 46.068674 -0.420773 2.078121 0.045577 -0.021051 -426531.000000 0 0 1
-37.924127 15.517278 -22.019332 46.517484 -0.388383 2.063893 0.044915 -0.023386 -635306.000000 0 0 1
37.173687 15.775478 -22.861332 46.404625 0.401339 2.085931 0.117566 -0.028132 -129999.000000 0 0 1
36.187487 14.767778 -22.686132 45.191615 0.387462 2.096705 0.163693 -0.027756 -224465.000000 0 0 1
36.433787 13.436478 -23.440832 45.358929 0.353317 2.113888 0.112824 -0.030968 -598254.000000 0 0 1
36.470087 13.562978 -24.823332 46.154300 0.356044 2.138662 0.114360 -0.021717 267297.000000 0 0 1
36.908187 12.309778 -25.299422 46.409112 0.321922 2.147351 0.094222 -0.012527 -271192.000000 0 0 1
36.660987 12.131578 -26.771522 46.988483 0.319570 2.176994 0.102832 -0.004279 -155196.000000 0 0 1
35.325987 11.993578 -27.193952 46.165813 0.327301 2.200679 0.092978 -0.006485 227106.000000 0 0 1
34.641187 13.034778 -27.924752 46.364955 0.359892 2.217152 0.115024 -0.007479 240903.000000 0 0 1
34.984987 13.111278 -29.415142 47.551083 0.358568 2.237757 0.111240 -0.011787 -616545.000000 0 0 1
36.326087 13.398778 -29.673232 48.781273 0.353366 2.224703 0.105991 -0.008400 -429170.000000 0 0 1
36.698387 13.121878 -30.988232 49.791825 0.343394 2.242545 0.112006 -0.018747 182342.000000 0 0 1
-38.035527 13.598978 -31.292902 51.096763 -0.343370 2.229920 0.117757 -0.013159 816017.000000 0 0 1
-36.940627 12.853678 -30.818402 49.795591 -0.334852 2.238136 0.113155 -0.013209 211033.000000 0 0 1
-36.699927 12.809978 -29.446672 48.765630 -0.335825 2.219107 0.085144 -0.005973 -792751.000000 0 0 1
-35.598227 11.833578 -29.029182 47.433751 -0.320929 2.229376 0.100522 -0.014520 -157418.000000 0 0 1
-35.938427 10.477278 -29.236202 47.498415 -0.283672 2.233841 0.111893 -0.022100 -75926.900000 0 0 1
-34.833727 9.630778 -29.156252 46.435196 -0.269740 2.249637 0.112954 -0.027001 -413414.000000 0 0 1
-35.031827 8.257378 -29.804362 46.730217 -0.231485 2.262430 0.125517 -0.029806 -561811.000000 0 0 1
-35.208227 8.300578 -31.195182 47.766706 -0.231529 2.282433 0.143135 -0.034309 257121.000000 0 0 1
-35.546127 7.103678 -31.859222 48.259708 -0.197245 2.291831 0.149198 -0.032567 -699573.000000 0 0 1
-36.923527 6.503278 -31.659672 49.071115 -0.174340 2.272054 0.159942 -0.020911 -982514.000000 0 0 1
-37.021927 5.999678 -30.345362 48.243758 -0.160661 2.251064 0.161621 -0.027889 408281.000000 0 0 1
37.881187 5.463278 -30.092492 48.686650 0.143234 2.237101 0.136637 -0.013816 118648.000000 0 0 1
37.673087 4.861878 -28.710322 47.614934 0.128345 2.218014 0.138535 -0.029943 -170649.000000 0 0 1
-37.822127 3.649578 -28.542932 47.524011 -0.096195 2.215048 0.164021 -0.023342 376214.000000 0 0 1
37.945187 2.920778 -27.417552 46.905121 0.076822 2.195100 0.159932 -0.024938 133240.000000 0 0 1
-37.495627 1.517478 -27.358902 46.440653 -0.040449 2.200760 0.198594 -0.022286 256118.000000 0 0 1
-36.140927 1.628178 -26.990352 45.136423 -0.045020 2.211766 0.191647 -0.017395 214130.000000 0 0 1
-35.518127 0.359278 -26.814572 44.504918 -0.010115 2.217436 0.197752 -0.014719 -271362.000000 0 0 1
-34.252127 0.378678 -25.966082 42.983590 -0.011055 2.219423 0.188947 -0.016589 -530925.000000 0 0 1
-34.469027 0.535078 -24.609532 42.355982 -0.015522 2.190774 0.173775 -0.012642 1138880.000000 0 0 1
-33.246727 0.359778 -23.858832 40.923320 -0.010821 2.193229 0.184113 -0.012148 773624.000000 0 0 1
-33.549227 0.255578 -22.341232 40.308145 -0.007618 2.158271 0.187379 -0.002198 -137917.000000 0 0 1
-33.996427 -1.083322 -21.971232 40.492785 0.031855 2.144321 0.206861 -0.015902 417374.000000 0 0 1
-34.185027 -1.142522 -20.556732 39.906148 0.033409 2.111952 0.179788 -0.016643 573836.000000 0 0 1
-35.724727 -1.047122 -20.300732 41.103191 0.029302 2.087362 0.170170 -0.013265 329889.000000 0 0 1
-36.425127 -2.257922 -20.456832 41.837424 0.061909 2.081694 0.172588 -0.016299 1273020.000000 0 0 1
-37.836827 -2.078822 -20.189532 42.936746 0.054887 2.060332 0.154346 -0.013878 1630980.000000 0 0 1
37.505687 -3.354422 -19.829232 42.557340 -0.089200 2.055495 0.135504 -0.018442 418450.000000 0 0 1
36.951587 -4.215922 -20.852532 42.638268 -0.113602 2.081804 0.138303 -0.008110 1051430.000000 0 0 1
37.966787 -4.789722 -21.702032 43.993142 -0.125493 2.086681 0.142024 -0.023732 442569.000000 0 0 1
37.371587 -5.572922 -22.887532 44.176149 -0.148031 2.115421 0.139193 -0.027598 -375939.000000 0 0 1
36.940087 -6.913722 -22.638932 43.873578 -0.185020 2.112975 0.146066 -0.027559 432245.000000 0 0 1
36.435287 -7.574422 -23.828832 44.189538 -0.204968 2.140332 0.147708 -0.021910 -46301.900000 0 0 1
35.047687 -7.202522 -24.363632 43.287449 -0.202684 2.168606 0.111788 -0.009812 -903212.000000 0 0 1
34.839087 -5.873822 -24.884432 43.214566 -0.167028 2.184421 0.126695 -0.015372 957906.000000 0 0 1
33.429087 -5.604022 -24.999732 42.117639 -0.166095 2.206283 0.091869 -0.006775 966464.000000 0 0 1
33.095087 -4.382122 -25.905702 42.256280 -0.131644 2.230726 0.115730 -0.029922 36578.400000 0 0 1
33.115387 -4.716522 -27.257412 43.149055 -0.141475 2.254545 0.111069 -0.035061 -68692.800000 0 0 1
32.360387 -3.829722 -27.976492 42.948173 -0.117798 2.280226 0.117251 -0.035714 -486385.000000 0 0 1
32.445287 -4.064122 -29.526452 44.057067 -0.124612 2.305256 0.116769 -0.030520 -72934.600000 0 0 1
31.838987 -2.991222 -30.191602 43.979556 -0.093673 2.327450 0.087357 -0.035013 -68701.700000 0 0 1
31.491887 -3.277222 -31.512602 44.671280 -0.103692 2.353830 0.093011 -0.039169 -96805.200000 0 0 1
31.009687 -1.979022 -32.271732 44.799352 -0.063733 2.375120 0.086126 -0.030633 210019.000000 0 0 1
29.848987 -1.261822 -31.828532 43.653290 -0.042248 2.387833 0.050820 -0.019086 1360430.000000 0 0 1
28.515087 -1.750422 -32.022112 42.913749 -0.061309 2.413127 0.052230 -0.020402 816514.000000 0 0 1
28.131887 -2.111322 -33.522862 43.813731 -0.074910 2.442028 0.065712 -0.027812 -888179.000000 0 0 1
28.492987 -3.427122 33.552643 44.151730 -0.119704 0.707576 0.080182 -0.031880 224856.000000 0 0 1
27.848287 -3.770722 32.341358 42.845173 -0.134584 0.715382 0.079387 -0.024561 -202266.000000 0 0 1
28.573987 -4.915122 31.594200 42.881518 -0.170347 0.742502 0.053883 -0.029668 574171.000000 0 0 1
29.867587 -4.776922 31.009523 43.318382 -0.158594 0.772954 0.072564 -0.023552 437930.000000 0 0 1
29.879087 -3.849022 29.864323 42.419955 -0.128114 0.789760 0.082298 -0.023279 -331142.000000 0 0 1
30.359687 -2.406822 30.228923 42.910269 -0.079111 0.789123 0.065036 -0.022782 -295477.000000 0 0 1
31.678687 -2.432122 30.718403 44.193605 -0.076624 0.802255 0.087880 -0.024623 -131617.000000 0 0 1
32.139987 -1.193822 31.225273 44.826573 -0.037127 0.800177 0.079749 -0.017050 -44716.000000 0 0 1
33.580287 -1.249222 31.786745 46.255739 -0.037184 0.813175 0.088630 -0.022805 297014.000000 0 0 1
34.518287 -1.571822 30.756393 46.259469 -0.045504 0.843481 0.112511 -0.029357 88926.500000 0 0 1
35.835387 -1.427422 31.232983 47.557457 -0.039812 0.854306 0.126878 -0.026387 306510.000000 0 0 1
37.005687 -2.079922 30.449443 47.967859 -0.056146 0.883062 0.155369 -0.027562 352130.000000 0 0 1
37.311187 -1.592322 29.143683 47.371029 -0.042651 0.908129 0.159951 -0.025815 -721503.000000 0 0 1
-37.698227 -2.104822 28.676403 47.412262 0.055776 0.921243 0.160587 -0.036082 -648913.000000 0 0 1
-37.165427 -1.386022 27.414843 46.203502 0.037276 0.935582 0.153976 -0.039928 55940.400000 0 0 1
-37.938827 -1.681622 26.274743 46.179481 0.044296 0.965543 0.164026 -0.050454 120385.000000 0 0 1
-37.281027 -1.179422 25.114953 44.966952 0.031625 0.978196 0.154893 -0.047837 350438.000000 0 0 1
-28.771703 14.853778 10.800268 34.133435 -0.476574 1.248850 0.191689 -0.037157 -37671.200000 0 0 1
-29.847493 14.214278 11.429668 34.979363 -0.444452 1.237929 0.085310 -0.001007 -68874.600000 0 0 1
-30.635973 15.028878 12.262968 36.260314 -0.456070 1.225801 0.111121 -0.004356 -576120.000000 0 0 1
-31.721023 14.252578 12.960568 37.112472 -0.422280 1.214053 0.118133 0.001491 -530315.000000 0 0 1
-32.417103 15.038278 13.895668 38.341987 -0.434352 1.199940 0.105836 -0.002731 -334630.000000 0 0 1
-33.394723 14.257478 14.542568 39.114824 -0.403511 1.189858 0.125866 -0.006331 -245267.000000 0 0 1
-34.110269 15.035078 15.671268 40.437021 -0.415159 1.172827 0.101960 -0.005378 -198463.000000 0 0 1
-33.319713 15.248378 16.807068 40.313693 -0.429188 1.140756 0.068227 0.001929 178033.000000 0 0 1
-33.936794 16.110878 17.776968 41.560642 -0.443230 1.128810 0.076042 -0.019576 323494.000000 0 0 1
-32.983943 16.182078 18.984968 41.354917 -0.456103 1.093844 0.104230 -0.012199 100223.000000 0 0 1
-32.624683 15.048878 19.743368 40.995600 -0.432189 1.068320 0.116095 -0.015673 230810.000000 0 0 1
-31.575413 15.442678 20.641268 40.762053 -0.454868 1.039810 0.090726 -0.010866 275935.000000 0 0 1
-32.049473 16.016478 21.990368 42.038941 -0.463441 1.020318 0.111442 -0.027733 -205072.000000 0 0 1
-32.749523 17.276578 21.836168 42.986389 -0.485434 1.037960 0.099607 -0.028878 273987.000000 0 0 1
-33.140723 17.882078 23.022768 44.137558 -0.494808 1.022055 0.101407 -0.032617 287943.000000 0 0 1
-34.298305 17.207478 23.882268 45.197718 -0.465007 1.014087 0.088897 -0.030196 1311130.000000 0 0 1
-35.587273 17.079578 23.252368 45.813083 -0.447467 1.038459 0.151181 -0.029035 893638.000000 0 0 1
-36.472213 18.172978 23.482568 47.030952 -0.462262 1.048005 0.158136 -0.029781 376309.000000 0 0 1
-37.932453 17.716778 23.144668 47.837546 -0.436951 1.065784 0.133795 -0.036347 565190.000000 0 0 1
37.777541 16.838678 24.196268 47.918086 0.419299 1.041472 0.145999 -0.032979 -250357.000000 0 0 1
36.687191 16.067378 23.794668 46.586444 0.412793 1.034723 0.185896 -0.039448 -177873.000000 0 0 1
36.169901 15.012478 24.828368 46.368999 0.393417 1.005754 0.175069 -0.022740 -392537.000000 0 0 1
35.512411 15.681878 25.869468 46.650637 0.415837 0.982991 0.147582 -0.026479 20556.100000 0 0 1
35.379261 14.938478 27.064868 46.982521 0.399529 0.956893 0.146311 -0.024967 -234955.000000 0 0 1
34.423241 13.728378 27.086768 45.903386 0.379481 0.939636 0.151623 -0.031747 -96387.200000 0 0 1
35.060781 12.490978 26.703168 45.807663 0.342246 0.948453 0.137840 -0.032255 458137.000000 0 0 1
34.136301 11.405078 26.568968 44.735588 0.322444 0.934885 0.128349 -0.030475 190637.000000 0 0 1
34.778251 10.068978 26.165368 44.671439 0.281814 0.945017 0.113561 -0.040982 -653437.000000 0 0 1
35.523371 9.418278 27.173268 45.705583 0.259166 0.934117 0.122341 -0.032878 38961.500000 0 0 1
35.878551 8.124878 26.795968 45.511624 0.222699 0.941258 0.136789 -0.026426 -38778.500000 0 0 1
37.026961 7.548878 27.702868 46.855418 0.201119 0.938199 0.119730 -0.030653 371618.000000 0 0 1
-37.970113 8.260678 27.433368 47.566353 -0.214219 0.956065 0.112579 -0.030184 -385816.000000 0 0 1
-36.956773 7.803378 28.273168 47.181223 -0.208092 0.928237 0.123997 -0.031555 1150280.000000 0 0 1
-35.618449 8.691978 28.288668 46.308456 -0.239352 0.913631 0.121200 -0.031863 1010790.000000 0 0 1
-34.806985 8.638778 27.178068 44.997800 -0.243275 0.922303 0.100697 -0.023490 -1324800.000000 0 0 1
-33.748453 9.453278 27.397068 44.485074 -0.273111 0.907305 0.087665 -0.011665 -875823.000000 0 0 1
-33.012083 10.067278 26.128668 43.288047 -0.295999 0.922788 0.081145 -0.012433 351717.000000 0 0 1
-32.149743 9.177078 25.414468 41.996665 -0.278053 0.920837 0.073146 -0.014512 452738.000000 0 0 1
-31.353333 9.863678 24.484868 40.985758 -0.304795 0.930542 0.073316 -0.013924 264076.000000 0 0 1
-30.376813 8.914678 23.721968 39.559499 -0.285455 0.927729 0.065791 -0.012480 589829.000000 0 0 1
-29.367173 9.495278 22.901368 38.432588 -0.312720 0.932430 0.075847 -0.018019 575030.000000 0 0 1
-28.568383 8.487178 22.274768 37.206854 -0.288778 0.928952 0.064162 -0.010518 -170750.000000 0 0 1
-27.573633 9.062778 21.291768 35.996924 -0.317553 0.937893 0.076311 -0.003328 -890788.000000 0 0 1
-26.484713 9.724678 21.909868 35.721866 -0.351898 0.910506 0.075035 -0.004602 1051090.000000 0 0 1
-25.452873 10.321278 21.091368 34.629804 -0.385243 0.915931 0.069176 0.000471 1242740.000000 0 0 1
-24.617913 9.352978 20.172168 33.172823 -0.363082 0.917140 0.064359 -0.001076 -494306.000000 0 0 1
-25.338113 9.034378 18.969368 32.916210 -0.342501 0.956611 0.060426 -0.007283 437954.000000 0 0 1
-24.738313 8.122278 18.065068 31.690727 -0.317239 0.964239 0.089446 -0.027755 -401671.000000 0 0 1
-24.797513 6.660978 18.483668 31.637497 -0.262420 0.946862 0.098299 -0.028814 -637955.000000 0 0 1
-23.560913 6.177578 18.948768 30.859924 -0.256424 0.909646 0.095776 -0.020726 297096.000000 0 0 1
-23.574213 4.746478 19.202368 30.773422 -0.198686 0.896955 0.113733 -0.032099 -287809.000000 0 0 1
-23.705113 3.753078 18.057268 30.034695 -0.157020 0.925777 0.128036 -0.036130 347334.000000 0 0 1
-25.060183 3.545078 17.628568 30.843909 -0.140530 0.962413 0.152948 -0.047344 1020180.000000 0 0 1
-25.120623 2.435778 16.703768 30.265402 -0.096661 0.986144 0.165440 -0.050305 -53574.300000 0 0 1
-24.896313 1.005978 17.159568 30.253746 -0.040385 0.967709 0.161814 -0.052484 542005.000000 0 0 1
-23.514513 0.735278 17.438368 29.284290 -0.031259 0.932927 0.128950 -0.044399 881925.000000 0 0 1
-23.399913 -0.424122 18.217968 29.658559 0.018123 0.909353 0.153094 -0.041002 -458469.000000 0 0 1
-21.975813 -0.916022 18.501368 28.741539 0.041659 0.871453 0.153148 -0.033984 -708638.000000 0 0 1
-21.134813 -0.191722 19.311268 28.629393 0.009071 0.830474 0.112765 -0.038369 -894246.000000 0 0 1
-20.028413 -1.004922 19.512768 27.980266 0.050133 0.799067 0.090806 -0.026031 -171013.000000 0 0 1
-19.086313 -0.690422 20.733968 28.189740 0.036158 0.744370 0.108047 -0.027638 555949.000000 0 0 1
-19.698813 -0.839022 22.004568 29.545697 0.042567 0.730615 0.117702 -0.030857 158666.000000 0 0 1
-18.731513 -0.810322 23.075968 29.732583 0.043233 0.682312 0.101866 -0.022682 -19744.400000 0 0 1
-19.359913 -0.866322 24.505468 31.242194 0.044718 0.669115 0.111776 -0.020185 258298.000000 0 0 1
-20.211513 0.198778 24.853968 32.035363 -0.009835 0.682768 0.122286 -0.029895 217460.000000 0 0 1
-21.542113 0.129278 24.337968 32.502554 -0.006001 0.724544 0.141379 -0.034868 -45291.600000 0 0 1
-22.506313 1.146078 24.958668 33.627113 -0.050879 0.734421 0.119241 -0.040693 -377562.000000 0 0 1
-22.281913 2.496878 24.422568 33.153881 -0.111593 0.742704 0.114480 -0.032392 236226.000000 0 0 1
-23.253113 3.021678 23.543768 33.228704 -0.129223 0.783373 0.097053 -0.035779 -674986.000000 0 0 1
-22.630013 4.247178 22.810568 32.411078 -0.185521 0.790079 0.099014 -0.029958 552024.000000 0 0 1
-21.894613 3.900378 21.609468 31.008968 -0.176294 0.799761 0.127764 -0.029344 -574922.000000 0 0 1
-20.609513 3.485178 21.836968 30.228325 -0.167520 0.763528 0.107917 -0.025669 -1930070.000000 0 0 1
-20.059213 2.753878 20.625268 28.902552 -0.136435 0.776153 0.094021 -0.028265 -425338.000000 0 0 1
-19.569513 3.612678 19.620268 27.945879 -0.182552 0.792481 0.090814 -0.020187 98862.000000 0 0 1
-19.415113 2.874078 18.421568 26.917672 -0.146966 0.817061 0.110373 -0.026624 -186967.000000 0 0 1
-18.854913 3.677078 17.276368 25.836051 -0.192602 0.838348 0.086905 -0.023031 -776535.000000 0 0 1
-17.530613 4.086778 17.420368 25.049817 -0.229032 0.801780 0.095584 -0.028929 -587309.000000 0 0 1
-17.137213 4.900678 16.404168 24.223902 -0.278533 0.826860 0.097610 -0.028611 208068.000000 0 1 0
-15.618713 5.102678 16.072068 22.984622 -0.315771 0.796444 0.099629 -0.028329 741608.000000 0 1 0
-14.956313 5.864878 17.091568 23.456551 -0.373707 0.754451 0.088694 -0.030973 109709.000000 0 1 0
-15.241313 7.292978 17.148868 24.074235 -0.446301 0.777980 0.087209 -0.032364 -882887.000000 0 1 0
-14.797713 8.280978 16.046068 23.345732 -0.510193 0.812999 0.055083 -0.025939 -333204.000000 0 1 0
-15.302913 8.039178 14.740868 22.717850 -0.483711 0.864702 0.063151 -0.029634 1355780.000000 0 1 0
-16.724413 8.321878 14.685768 23.761974 -0.461717 0.904554 0.068336 -0.024349 1178790.000000 0 1 0
-17.465013 7.826478 13.399168 23.362751 -0.421292 0.959991 0.077397 -0.030234 82114.300000 0 1 0
-17.299913 6.468178 13.255468 22.733934 -0.357793 0.948294 0.068624 -0.027929 187057.000000 0 1 0
-18.240613 5.906978 12.378068 22.821676 -0.313179 0.997526 0.091203 -0.023615 82209.000000 0 1 0
-17.914013 4.388578 12.204068 22.115848 -0.240249 0.986246 0.090541 -0.031923 289841.000000 0 1 0
-18.115113 3.613578 13.354568 22.793853 -0.196894 0.944825 0.088412 -0.032067 277732.000000 0 1 0
-17.606113 2.317878 13.059968 22.043378 -0.130899 0.936679 0.070676 -0.040524 -452032.000000 0 1 0
-18.054913 1.310478 14.171068 22.989484 -0.072456 0.906614 0.057383 -0.041966 -96020.800000 0 1 0
-19.452913 1.273978 14.039168 24.023677 -0.065397 0.946670 0.090555 -0.037269 -126913.000000 0 1 0
-20.153813 0.369578 14.862968 25.044372 -0.018336 0.935439 0.117938 -0.051237 -190770.000000 0 0 1
-21.678313 0.370978 14.734968 26.214617 -0.017111 0.973886 0.128574 -0.055095 -467139.000000 0 0 1
-22.072913 -0.125922 13.491668 25.869952 0.005705 1.022166 0.147512 -0.051856 595569.000000 0 0 1
-23.500313 -0.234822 13.471268 27.088649 0.009992 1.050309 0.200249 -0.066235 563300.000000 0 0 1
-23.927413 -1.108422 12.263668 26.909984 0.046291 1.097605 0.213650 -0.068653 -316849.000000 0 0 1
-23.811213 -2.435922 12.515668 27.010174 0.101947 1.089004 0.175127 -0.051359 177056.000000 0 0 1
-24.181513 -3.220122 11.440768 26.944497 0.132386 1.132271 0.181152 -0.041859 -87333.200000 0 0 1
-23.863513 -4.755922 11.657868 26.981325 0.196719 1.124008 0.132807 -0.041330 189774.000000 0 0 1
-24.717913 -5.325822 12.651968 28.273873 0.212220 1.106852 0.124198 -0.034678 482420.000000 0 0 1
-24.695813 -6.724622 12.649068 28.550002 0.265853 1.111799 0.112265 -0.032995 144865.000000 0 0 1
-25.576003 -7.246822 13.830868 29.965668 0.276107 1.091047 0.111351 -0.024245 -511669.000000 0 0 1
-26.909203 -6.879922 13.737068 30.986216 0.250310 1.111488 0.159454 -0.040619 -347920.000000 0 0 1
-27.711793 -7.446222 14.782268 32.278555 0.262502 1.095098 0.165848 -0.021993 -331691.000000 0 0 1
-29.164743 -6.959222 14.852968 33.460778 0.234237 1.110859 0.185117 -0.035494 -366894.000000 0 0 1
-30.098423 -7.477622 13.925168 33.996179 0.243509 1.148770 0.164262 -0.032336 628522.000000 0 0 1
-30.551683 -8.836122 14.081768 34.781871 0.281537 1.153971 0.165140 -0.043809 -224795.000000 0 0 1
-31.078603 -9.409722 15.464868 35.966437 0.293998 1.126325 0.160541 -0.040692 489642.000000 0 0 1
-29.996643 -9.558622 16.423868 35.509284 0.308484 1.089957 0.173568 -0.018947 880471.000000 0 0 1
-30.387003 -10.173822 17.602968 36.561470 0.323077 1.068474 0.155634 -0.013640 247196.000000 0 0 1
-29.152533 -10.351922 18.528068 36.059974 0.341207 1.031173 0.169600 -0.016388 648122.000000 0 0 1
-28.208063 -11.268922 18.034668 35.326090 0.380069 1.035007 0.132963 -0.011911 1073570.000000 0 0 1
-26.994503 -11.542022 18.787468 34.855278 0.404045 1.001531 0.128923 -0.018305 1494840.000000 0 0 1
-26.023513 -12.561222 18.101568 34.098010 0.449702 1.011171 0.087600 -0.007799 127436.000000 0 0 1
-25.477743 -12.110122 16.893068 32.880787 0.443711 1.031226 0.088284 -0.010036 201765.000000 0 0 1
-24.635213 -13.093622 16.300668 32.311738 0.488529 1.042015 0.083522 -0.022948 149147.000000 0 0 1
-24.327813 -12.841222 14.759268 31.218191 0.485672 1.078356 0.076841 -0.016991 -141403.000000 0 0 1
-23.664813 -11.614522 14.598568 30.133680 0.456255 1.065050 0.061778 -0.025613 -220267.000000 0 0 1
-23.057913 -11.520522 13.335568 29.021150 0.463355 1.093351 0.069486 -0.022884 154421.000000 0 0 1
-21.792413 -10.630022 13.335668 27.672128 0.453828 1.067955 0.082878 -0.032862 -256022.000000 0 0 1
-21.981713 -9.212622 13.181768 27.236503 0.396866 1.065606 0.089979 -0.037757 253133.000000 0 0 1
-20.800313 -8.415922 13.193468 26.029759 0.384470 1.039257 0.100602 -0.044133 173580.000000 0 0 1
-19.959213 -8.401422 11.908268 24.713577 0.398418 1.068030 0.133695 -0.042396 -362108.000000 0 1 0
-19.311513 -9.612422 11.610268 24.497582 0.461851 1.077042 0.125120 -0.044766 296036.000000 0 1 0
-18.778613 -9.584322 10.287668 23.459148 0.471921 1.116828 0.123664 -0.036801 -909363.000000 0 1 0
-18.168813 -10.911322 9.756168 23.331213 0.540825 1.139378 0.092364 -0.029692 -304012.000000 0 1 0
-16.787213 -11.078022 9.876068 22.406914 0.583309 1.114351 0.109470 -0.037856 -76480.800000 0 1 0
-16.286813 -11.032622 11.233568 22.653301 0.595394 1.051936 0.119059 -0.035065 -429700.000000 0 1 0
-14.788113 -11.451922 11.171168 21.786000 0.658935 1.032390 0.126424 -0.036977 262297.000000 0 1 0
-14.612013 -12.816022 10.843568 22.256332 0.720011 1.061901 0.124881 -0.039053 307468.000000 0 1 0
-13.271913 -13.280622 10.794668 21.657411 0.785726 1.049011 0.138021 -0.040141 129567.000000 0 1 0
-12.994213 -14.797622 10.708868 22.416490 0.850197 1.072736 0.152494 -0.036974 -84048.800000 0 1 0
-13.155313 -15.465622 9.452668 22.396443 0.865944 1.135079 0.124884 -0.037934 313294.000000 0 1 0
-12.826313 -16.831122 9.665068 23.264017 0.919622 1.142357 0.113590 -0.031297 225941.000000 0 1 0
-13.201313 -17.734822 8.432368 23.662278 0.930907 1.206424 0.108545 -0.024989 559770.000000 0 1 0
-12.397613 -17.422922 7.256768 22.581402 0.952348 1.243631 0.112964 -0.034788 520316.000000 0 1 0
-12.722513 -18.292022 6.199568 23.127798 0.963082 1.299421 0.086518 -0.029707 268947.000000 0 1 0
-11.698913 -18.094322 5.042468 22.129065 0.996849 1.340911 0.085619 -0.028777 314790.000000 0 1 0
-12.072213 -18.979222 3.920868 22.832486 1.004272 1.398218 0.103604 -0.033508 167002.000000 0 1 0
-11.188713 -18.880322 2.851468 22.131081 1.035827 1.441593 0.121233 -0.043605 -253169.000000 0 1 0
-11.550113 -19.764622 1.650568 22.951466 1.041939 1.498819 0.118153 -0.043559 13514.800000 0 1 0
-11.336113 -21.154022 1.973368 24.080994 1.078855 1.488757 0.117486 -0.049597 -6810.590000 0 1 0
-11.867213 -21.935222 0.870168 24.954797 1.074880 1.535920 0.119387 -0.046629 279384.000000 0 1 0
-11.074313 -21.938322 -0.492732 24.579934 1.103322 1.590844 0.134165 -0.046053 34150.200000 0 1 0
-11.238613 -20.780222 -1.295432 23.660139 1.075019 1.625575 0.125549 -0.056873 836022.000000 0 1 0
-12.305813 -20.917022 -2.295432 24.376707 1.039013 1.665101 0.132138 -0.045072 513508.000000 0 1 0
-13.487713 -19.982322 -2.054032 24.195674 0.977059 1.655791 0.145929 -0.038803 -774766.000000 0 1 0
-14.172213 -20.385722 -0.935432 24.845610 0.963297 1.608455 0.141306 -0.035380 -1263100.000000 0 1 0
-15.302613 -19.632522 -0.789932 24.904415 0.908711 1.602520 0.161212 -0.021542 -846238.000000 0 1 0
27.395587 -19.211822 -4.090932 33.709762 -0.611581 1.692454 0.145070 -0.049172 121205.000000 0 0 1
26.171787 -19.399222 -3.377832 32.752130 -0.637862 1.674113 0.126147 -0.040416 516401.000000 0 0 1
26.177987 -20.631722 -2.640732 33.435437 -0.667463 1.649859 0.109956 -0.035801 276755.000000 0 0 1
24.776887 -21.060622 -2.117532 32.587235 -0.704500 1.635823 0.097591 -0.027922 672193.000000 0 0 1
23.886387 -21.739122 -3.015132 32.438248 -0.738370 1.663881 0.096817 -0.032538 680229.000000 0 0 1
22.634787 -21.890722 -2.331232 31.574863 -0.768689 1.644695 0.093617 -0.027009 385275.000000 0 0 1
21.590387 -22.754422 -3.068032 31.517001 -0.811642 1.668296 0.088047 -0.029429 -116489.000000 0 0 1
20.794187 -21.861922 -3.816532 30.412296 -0.810424 1.696621 0.089265 -0.039117 -868953.000000 0 0 1
19.774387 -22.580822 -4.411432 30.337776 -0.851561 1.716724 0.076956 -0.029651 -1026330.000000 0 0 1
18.898887 -21.795022 -5.374632 29.344124 -0.856447 1.754995 0.074228 -0.019024 367326.000000 0 0 1
17.821887 -21.020222 -4.766432 27.967629 -0.867555 1.742059 0.073620 -0.017803 866223.000000 0 0 1
18.201987 -20.053422 -3.848832 27.354444 -0.833757 1.711967 0.070980 -0.023948 -715322.000000 0 0 1
17.024587 -19.621622 -2.955932 26.145404 -0.856148 1.684096 0.075241 -0.012929 -82223.200000 0 0 1
16.609187 -20.577022 -2.025032 26.521306 -0.891698 1.647226 0.068744 -0.014332 150566.000000 0 0 1
15.728487 -19.950122 -1.111532 25.428885 -0.903175 1.614522 0.071266 -0.004219 -345044.000000 0 0 1
15.431087 -20.728422 0.181468 25.842191 -0.930862 1.563774 0.061722 -0.006962 -310165.000000 0 0 1
14.718087 -21.924522 -0.009532 26.406568 -0.979588 1.571157 0.068824 -0.013555 -12334.300000 0 0 1
14.208087 -22.357022 1.253868 26.519396 -1.004676 1.523498 0.058930 -0.000968 -309158.000000 0 0 1
13.109087 -23.396722 1.038268 26.839016 -1.060083 1.532102 0.069330 -0.010675 -240869.000000 0 0 1
13.556287 -24.743322 1.240868 28.240833 -1.069585 1.526843 0.059190 -0.008696 293499.000000 0 0 1
12.483287 -25.631572 1.008468 28.527652 -1.117580 1.535438 0.055856 -0.011162 212013.000000 0 0 1
12.718287 -27.010572 1.615068 29.898734 -1.130729 1.516752 0.064580 -0.007637 44258.000000 0 0 1
12.390387 -27.007062 2.970168 29.861765 -1.140662 1.471168 0.073561 -0.017286 152141.000000 0 0 1
13.283687 -27.804172 3.729368 31.039274 -1.125099 1.450355 0.066736 -0.025449 -18928.100000 0 0 1
12.734887 -28.327892 5.101068 31.474874 -1.148314 1.408010 0.078602 -0.022197 -299742.000000 0 0 1
13.631087 -29.070842 5.908468 32.647058 -1.132343 1.388813 0.078652 -0.026979 -419857.000000 0 0 1
13.109787 -29.569742 7.094068 33.114377 -1.153485 1.354894 0.084940 -0.032679 -395753.000000 0 0 1
14.179487 -30.256382 7.969168 34.351334 -1.132546 1.336673 0.097305 -0.022369 -67614.200000 0 0 1
13.664887 -30.894452 9.158068 35.000950 -1.154357 1.306063 0.091740 -0.023179 395870.000000 0 0 1
12.731187 -31.987942 9.052968 35.598705 -1.192016 1.313666 0.077230 -0.021687 450719.000000 0 0 1
12.203787 -32.347792 10.479968 36.126746 -1.210039 1.276477 0.087269 -0.013401 -535888.000000 0 0 1
13.215887 -32.733492 11.361068 37.083892 -1.187068 1.259428 0.074578 -0.014452 -218949.000000 0 0 1
12.869887 -33.048692 12.677968 37.664053 -1.199442 1.227485 0.088468 -0.006117 186187.000000 0 0 1
11.835587 33.236466 12.938168 37.578451 1.228695 1.219306 0.090310 -0.016816 545910.000000 0 0 1
12.398587 31.959028 12.833868 36.603451 1.200719 1.212564 0.082933 -0.022198 798118.000000 0 0 1
11.338287 30.989979 12.958168 35.452076 1.220054 1.196613 0.079957 -0.020305 653609.000000 0 0 1
11.500887 29.844529 11.887968 34.121695 1.202974 1.214934 0.096776 -0.021113 -38965.700000 0 0 1
11.110487 30.120659 10.513968 33.782252 1.217414 1.254312 0.112035 -0.026346 231724.000000 0 0 1
11.948387 31.028509 9.783868 34.659146 1.203220 1.284618 0.059262 -0.019436 276690.000000 0 0 1
11.379587 31.301239 8.343068 34.334667 1.222101 1.325347 0.059951 -0.019209 -234523.000000 0 0 1
10.144687 31.962350 8.429468 34.576906 1.263458 1.324526 0.066790 -0.015549 -412062.000000 0 0 1
9.675887 32.135538 7.078968 34.299087 1.278334 1.362913 0.075393 -0.019397 -119397.000000 0 0 1
10.207687 33.380591 6.400968 35.488493 1.274030 1.389436 0.066195 -0.015107 -256715.000000 0 0 1
9.550487 -32.981912 6.963468 35.035813 -1.288938 1.370711 0.067200 -0.016853 -60868.700000 0 0 1
10.135187 -31.822452 6.439768 34.012661 -1.262462 1.380312 0.075398 -0.027311 -507225.000000 0 0 1
9.400187 -30.517492 6.619868 32.611401 -1.271992 1.366383 0.060669 -0.018248 -483103.000000 0 0 1
9.460587 -30.018292 7.921768 32.455430 -1.265489 1.324224 0.078679 -0.024470 -218207.000000 0 0 1
8.749887 -28.859452 8.111368 31.228557 -1.276416 1.308041 0.083450 -0.025222 -551025.000000 0 0 1
9.408487 -27.562132 7.627968 30.106090 -1.241843 1.314634 0.095930 -0.032260 -194033.000000 0 0 1
10.117087 -26.827392 8.632668 29.943069 -1.210170 1.278343 0.088734 -0.030806 414653.000000 0 0 1
11.030787 -25.811802 8.228968 29.251381 -1.166933 1.285628 0.090720 -0.033338 207031.000000 0 0 1
10.520087 -24.718022 7.288368 27.834747 -1.168414 1.305864 0.087787 -0.031134 -534794.000000 0 0 1
10.286887 -25.175332 5.980868 27.845793 -1.182890 1.354324 0.090242 -0.030518 -162123.000000 0 0 1
9.537187 -24.268722 5.225068 26.593799 -1.196354 1.373033 0.088374 -0.024736 -26953.500000 0 0 1
9.126587 -24.835922 3.844268 26.737539 -1.218639 1.426518 0.074164 -0.016034 730415.000000 0 0 1
8.127487 -25.893882 3.903268 27.418692 -1.266658 1.427953 0.056373 -0.019171 462081.000000 0 0 1
8.678687 -27.186042 3.809168 28.790801 -1.261789 1.438102 0.060107 -0.019424 241213.000000 0 0 1
7.586987 -28.255542 3.467468 29.461184 -1.308471 1.452827 0.063283 -0.017279 -177334.000000 0 0 1
6.701887 -28.397802 4.540168 29.529029 -1.339037 1.416431 0.055733 -0.018485 40821.600000 0 0 1
5.617187 -29.289502 4.226868 30.121324 -1.381315 1.430004 0.056509 -0.018956 485771.000000 0 0 1
5.883987 -30.808902 4.363268 31.667773 -1.382085 1.432574 0.050092 -0.010979 -927077.000000 0 0 1
6.773687 -31.315462 3.467268 32.226743 -1.357773 1.462998 0.054539 -0.013955 -645112.000000 0 0 1
6.979287 -32.665692 3.726368 33.610173 -1.360303 1.459698 0.066430 -0.009828 -176619.000000 0 0 1
8.127787 -33.290032 2.916368 34.391748 -1.331330 1.485896 0.074164 -0.011178 -383435.000000 0 0 1
7.838187 33.723639 1.568168 34.658046 1.342427 1.525534 0.078706 -0.011685 -367623.000000 0 0 1
8.812987 32.918594 0.962068 34.091468 1.309210 1.542572 0.068722 -0.010271 -619513.000000 0 0 1
8.266987 32.448512 -0.445532 33.488020 1.321331 1.584101 0.077128 -0.010515 696453.000000 0 0 1
7.140487 31.594447 -0.304232 32.392718 1.348526 1.580188 0.072913 -0.008528 -774271.000000 0 0 1
5.923987 32.261617 -0.234932 32.801841 1.389196 1.577959 0.074239 -0.008596 -1354910.000000 0 0 1
4.806987 31.259779 0.029768 31.627232 1.418216 1.569855 0.063557 -0.007347 -222592.000000 0 0 1
4.348087 30.486109 -1.102632 30.814356 1.429127 1.606587 0.080544 -0.014564 140135.000000 0 0 1
3.284387 29.605269 -0.796332 29.797539 1.460309 1.597524 0.073822 -0.022597 156896.000000 0 0 1
3.131487 28.468559 -1.874432 28.701543 1.461239 1.636151 0.080033 -0.019369 -72265.100000 0 0 1
2.579187 29.048519 -3.067332 29.323663 1.482240 1.675591 0.087192 -0.030340 244698.000000 0 0 1
2.494287 28.063929 -4.095332 28.470640 1.482151 1.715141 0.077232 -0.042668 -296053.000000 0 0 1
2.139187 28.679969 -5.423232 29.266503 1.496346 1.757179 0.091660 -0.045366 -143135.000000 0 0 1
0.798987 29.082229 -5.594732 29.626263 1.543330 1.760781 0.104226 -0.046971 -119020.000000 0 0 1
0.527087 29.998859 -6.660532 30.733891 1.553228 1.789246 0.102607 -0.041899 -231395.000000 0 0 1
0.595387 29.484869 -8.123432 30.589249 1.550606 1.839586 0.114065 -0.041740 182298.000000 0 0 1
-0.644713 28.863109 -8.485032 30.091369 -1.548463 1.856649 0.125641 -0.038926 602182.000000 0 0 1
-0.874313 28.578299 -9.879332 30.250369 -1.540212 1.903485 0.123203 -0.042518 -100321.000000 0 0 1
-0.993813 29.791189 -10.861732 31.725067 -1.537449 1.920235 0.125815 -0.045373 333859.000000 0 0 1
0.202387 30.572059 -10.890032 32.454346 1.564176 1.912985 0.116310 -0.043444 534504.000000 0 0 1
-0.183513 31.927091 -11.188032 33.831123 -1.565049 1.907844 0.116446 -0.043640 277892.000000 0 0 1
-0.225313 32.763591 -9.914732 34.231646 -1.563920 1.864643 0.110055 -0.047263 267341.000000 0 0 1
1.033987 33.047511 -9.320032 34.352149 1.539519 1.845549 0.101058 -0.046900 257845.000000 0 0 1
0.812787 -33.371512 -8.370732 34.414933 -1.546445 1.816490 0.099060 -0.042178 -601136.000000 0 0 1
1.938787 -33.081932 -7.417132 33.958607 -1.512258 1.790988 0.088585 -0.040933 -1514360.000000 0 0 1
3.058687 -32.485192 -7.903632 33.572469 -1.476917 1.808447 0.094942 -0.041486 -493796.000000 0 0 1
3.974287 -32.143872 -6.840332 33.103076 -1.447780 1.778933 0.097066 -0.043182 -599476.000000 0 0 1
5.309087 -31.558982 -7.282332 32.820544 -1.404129 1.794542 0.092113 -0.044344 235837.000000 0 0 1
6.287987 -32.358742 -7.978932 33.915930 -1.378867 1.808278 0.102899 -0.041120 878575.000000 0 0 1
6.808687 -33.409762 -7.190832 34.846499 -1.369756 1.778647 0.097711 -0.031973 -1480100.000000 0 0 1
7.222687 32.792714 -8.029532 34.525392 1.354005 1.805515 0.087248 -0.029118 439266.000000 0 0 1
6.208287 31.859780 -8.488832 33.550689 1.378345 1.826592 0.078222 -0.027431 -63733.200000 0 0 1
5.202287 32.358296 -9.305732 34.069338 1.411389 1.847453 0.094076 -0.036185 130500.000000 0 0 1
4.078087 31.364619 -9.713832 33.086684 1.441500 1.868774 0.086693 -0.038842 526094.000000 0 0 1
4.655587 30.353339 -10.526732 32.462467 1.418603 1.901040 0.073456 -0.030759 95253.800000 0 0 1
3.790687 29.256649 -10.694032 31.379662 1.441947 1.918559 0.095340 -0.041410 118064.000000 0 0 1
4.464687 28.165939 -11.572132 30.776092 1.413591 1.956283 0.091899 -0.032436 96319.700000 0 0 1
4.640587 28.713629 -12.874632 31.808233 1.410566 1.987510 0.096217 -0.032948 -564681.000000 0 0 1
5.867187 28.331339 -13.391932 31.881539 1.366591 2.004300 0.080615 -0.034769 -637020.000000 0 0 1
5.998687 28.809639 -14.861832 32.967463 1.365511 2.038461 0.078154 -0.030906 248462.000000 0 0 1
5.051187 28.105649 -15.669432 32.572582 1.392973 2.072662 0.090779 -0.032080 356343.000000 0 0 1
4.921287 28.632279 -16.975132 33.647906 1.400581 2.099591 0.095126 -0.029106 -83787.300000 0 0 1
3.741887 28.113369 -17.816932 33.493377 1.438474 2.131703 0.090079 -0.036156 -101757.000000 0 0 1
4.096087 26.848819 -18.336932 32.770110 1.419403 2.164654 0.103883 -0.026396 470827.000000 0 0 1
3.212387 26.446559 -19.397332 32.954460 1.449921 2.200135 0.097893 -0.034921 281215.000000 0 0 1
3.663987 25.163199 -20.017132 32.361968 1.426204 2.237678 0.117201 -0.037560 136897.000000 0 0 1
3.642787 24.114169 -19.091432 30.971694 1.420866 2.234979 0.120143 -0.043908 675602.000000 0 0 1
4.761187 23.273319 -19.446232 30.699711 1.369004 2.256779 0.119152 -0.040593 893407.000000 0 0 1
4.967987 22.066249 -18.564232 29.261425 1.349349 2.258063 0.137121 -0.039569 364354.000000 0 0 1
3.927287 21.123349 -18.735632 28.506901 1.386974 2.287936 0.143626 -0.032246 -97356.400000 0 0 1
4.335987 19.889649 -18.140432 27.266724 1.356152 2.298686 0.139336 -0.031769 492554.000000 0 0 1
3.242987 18.772049 -18.050332 26.243500 1.399729 2.329253 0.123533 -0.039555 54859.700000 0 0 1
2.302987 18.937549 -17.034732 25.575704 1.449781 2.299699 0.124341 -0.032473 -457176.000000 0 0 1
1.563387 17.764949 -16.761832 24.474408 1.483018 2.325224 0.082996 -0.022099 333924.000000 0 1 0
2.361187 16.780649 -15.809732 23.175699 1.431005 2.321521 0.075067 -0.023958 257331.000000 0 1 0
3.401487 15.993449 -16.316532 23.099562 1.361239 2.355134 0.087932 -0.031557 -425231.000000 0 1 0
3.013287 14.975949 -17.273832 23.059580 1.372239 2.417492 0.100320 -0.030383 -328185.000000 0 1 0
3.230487 15.263649 -18.770832 24.408179 1.362228 2.448132 0.108085 -0.027413 -396816.000000 0 1 0
4.544087 15.314649 -19.242032 25.008859 1.282356 2.448711 0.136958 -0.032977 -667423.000000 0 0 1
4.643287 15.825949 -20.582332 26.375238 1.285408 2.466047 0.144379 -0.035629 -539415.000000 0 0 1
4.713587 14.739049 -21.713532 26.663364 1.261272 2.522419 0.140088 -0.056511 -11667.900000 0 0 1
3.662087 13.794049 -21.758732 26.021705 1.311299 2.561070 0.121229 -0.046899 737534.000000 0 0 1
2.422787 14.381149 -22.223432 26.581353 1.403894 2.560846 0.124906 -0.047337 501051.000000 0 0 1
1.328787 13.449749 -22.757032 26.467791 1.472319 2.605676 0.104428 -0.038978 201652.000000 0 0 1
0.689587 12.626449 -21.748332 25.157359 1.516236 2.614935 0.099777 -0.026620 195242.000000 0 0 1
0.076487 11.528449 -22.372532 25.168258 1.564162 2.665775 0.054220 -0.018229 -49062.500000 0 0 1
-0.582013 10.592149 -21.271632 23.770038 -1.515904 2.678987 0.029530 -0.014964 -591153.000000 0 1 0
-1.699413 11.129449 -20.598832 23.474764 -1.419272 2.641396 0.026898 -0.011719 2283.930000 0 1 0
-2.234013 10.242249 -19.607632 22.234067 -1.356042 2.650617 0.017195 -0.008164 7026.760000 0 1 0
-3.154913 9.171949 -20.157332 22.369537 -1.239500 2.693111 0.019250 -0.006536 -925092.000000 0 1 0
-2.483513 8.115549 -20.726232 22.396578 -1.273827 2.752938 0.014951 -0.008326 -521111.000000 0 1 0
-3.447313 7.149049 -21.030432 22.478255 -1.121485 2.780723 0.026377 -0.006257 -545222.000000 0 1 0
-2.904913 5.843749 -21.582932 22.547969 -1.109473 2.847967 0.041913 -0.019427 -189067.000000 0 1 0
-2.193313 4.986349 -20.675532 21.381112 -1.156404 2.883976 0.036173 -0.017724 289793.000000 0 1 0
-1.857013 3.867649 -21.389532 21.815575 -1.123163 2.943637 0.064807 -0.021453 -366889.000000 0 1 0
-0.952013 2.800049 -20.721932 20.931916 -1.243059 2.999829 0.054614 -0.018739 -70897.500000 0 1 0
0.419887 3.087449 -20.909432 21.140317 1.435628 2.993664 0.051402 -0.015113 -360027.000000 0 1 0
1.140487 2.219849 -20.046932 20.201682 1.096195 3.017738 0.043941 -0.015873 -870144.000000 0 1 0
2.629387 2.439149 -20.197732 20.513691 0.747883 2.965854 0.036842 -0.014937 -538149.000000 0 1 0
3.249287 1.939949 -21.381232 21.713553 0.538239 2.966413 0.061424 -0.011258 -712346.000000 0 1 0
4.634787 1.891849 -21.299432 21.879812 0.387542 2.910751 0.075798 -0.011799 -805109.000000 0 1 0
5.337387 1.110049 -22.373232 23.027841 0.205053 2.902584 0.074714 -0.015130 349885.000000 0 1 0
6.758787 1.087649 -22.192432 23.224303 0.159556 2.842382 0.086813 -0.026279 659023.000000 0 1 0
7.398487 0.584449 -23.368732 24.518908 0.078832 2.834083 0.097948 -0.027947 208904.000000 0 1 0
8.944287 0.515249 -23.290032 24.953785 0.057543 2.774366 0.096099 -0.031345 457819.000000 0 1 0
9.525587 1.799349 -23.095032 25.047056 0.186697 2.744181 0.091053 -0.044234 1745500.000000 0 0 1
10.983487 1.766249 -22.907732 25.466072 0.159444 2.689510 0.103546 -0.040771 1961690.000000 0 0 1
13.531487 -19.836322 22.953713 33.218274 -0.972146 0.807930 0.111559 -0.023032 -235402.000000 0 0 1
13.069187 -21.089122 22.426653 33.444125 -1.016008 0.835818 0.106692 -0.020628 86162.300000 0 0 1
11.851687 -21.073322 21.711633 32.495267 -1.058481 0.839080 0.094617 -0.011223 248.456000 0 0 1
11.991387 -20.687822 20.199033 31.301442 -1.045486 0.869372 0.126092 -0.026539 -129746.000000 0 0 1
12.391287 -19.354422 20.069733 30.511175 -1.001320 0.852925 0.140062 -0.031786 5820.390000 0 0 1
12.317387 -18.961922 18.701833 29.343331 -0.994713 0.879748 0.158207 -0.029990 53271.400000 0 0 1
12.303687 -17.484122 18.417233 28.218251 -0.957587 0.859692 0.188561 -0.049445 53753.900000 0 0 1
11.051587 -16.946022 18.769233 27.596908 -0.992901 0.822869 0.211639 -0.050014 -246374.000000 0 0 1
10.987087 -15.614222 18.296433 26.443893 -0.957619 0.806684 0.229745 -0.050101 1043560.000000 0 0 1
9.625187 -14.945222 18.748733 25.836386 -0.998629 0.758786 0.194689 -0.048137 250064.000000 0 0 1
8.501187 -15.524422 18.191433 25.381215 -1.069797 0.771697 0.142414 -0.031679 -1214920.000000 0 0 1
7.397387 -14.799422 18.672633 24.948175 -1.107274 0.725064 0.102403 -0.017742 27726.700000 0 1 0
6.026387 -15.350222 18.220833 24.575301 -1.196692 0.735599 0.037853 0.000570 -88961.000000 0 1 0
5.698287 -15.077822 16.873733 23.335253 -1.209464 0.762516 0.022525 -0.012640 1578030.000000 0 1 0
4.329287 -15.421922 16.457933 22.966104 -1.297117 0.771855 -0.002110 -0.011743 1802150.000000 0 1 0
3.908187 -16.899822 16.440733 23.899280 -1.343535 0.812181 -0.003042 -0.004034 74959.500000 0 1 0
2.495187 -16.953722 16.293833 23.646218 -1.424669 0.810595 0.004130 -0.000168 -157805.000000 0 1 0
2.000287 -18.238022 16.147833 24.441340 -1.461556 0.849076 0.020227 -0.017134 24779.100000 0 1 0
0.514187 -18.236822 15.767233 24.113309 -1.542609 0.858094 0.034322 -0.009693 -30695.400000 0 1 0
0.247987 -17.769622 14.394233 22.869519 -1.556842 0.890007 0.040377 -0.018297 -34817.800000 0 1 0
-1.154213 -17.776722 14.208233 22.786354 1.505959 0.897532 0.046857 -0.017923 28510.500000 0 1 0
-1.549913 -18.807822 13.130833 22.990328 1.488574 0.962895 0.046857 -0.012980 271206.000000 0 1 0
-2.966513 -18.923622 12.985233 23.141304 1.415299 0.975048 0.046496 -0.022051 531188.000000 0 1 0
-3.308713 -20.102322 12.281533 23.788379 1.407665 1.028291 0.077552 -0.030131 245912.000000 0 1 0
-4.814313 -20.431422 12.377433 24.368452 1.339385 1.038018 0.065071 -0.030340 254662.000000 0 1 0
-5.240913 -21.097422 13.568933 25.625853 1.327310 1.012783 0.059439 -0.031265 -439855.000000 0 0 1
-6.641813 -21.095222 13.557033 25.940609 1.265773 1.020877 0.064284 -0.032252 -247483.000000 0 0 1
-7.396013 -22.046322 14.508433 27.408684 1.247119 1.012977 0.064920 -0.033917 -419781.000000 0 0 1
-8.765613 -21.792222 14.495333 27.601659 1.188364 1.017891 0.079410 -0.033338 -944936.000000 0 0 1
-9.457313 -22.568422 15.478433 28.954383 1.173976 1.006786 0.073867 -0.025742 228431.000000 0 0 1
-10.937813 -22.140122 15.488033 29.149613 1.111939 1.010628 0.108148 -0.036492 -14447.400000 0 0 1
-11.112413 -20.747522 15.717433 28.301644 1.079074 0.982008 0.100811 -0.033130 -15822.500000 0 0 1
-12.482513 -20.354622 15.680033 28.565490 1.020690 0.989730 0.093444 -0.027914 526517.000000 0 0 1
-12.710513 -19.066922 16.477533 28.224347 0.982822 0.947388 0.104845 -0.030364 -79634.400000 0 0 1
-12.611413 -19.286722 17.863833 29.157193 0.991691 0.911358 0.106593 -0.035808 -174463.000000 0 0 1
-12.948113 -18.151322 18.568933 29.016019 0.951172 0.876357 0.105695 -0.034405 -262063.000000 0 0 1
-13.598313 -18.420522 19.907233 30.340199 0.934880 0.855112 0.107039 -0.039197 -1111560.000000 0 0 1
-14.865013 -18.921122 19.721033 31.111037 0.904879 0.884221 0.112088 -0.032063 -1053460.000000 0 0 1
-15.360213 -19.579822 20.882233 32.486508 0.905583 0.872652 0.093325 -0.030340 -82301.700000 0 0 1
-16.773713 -20.134822 20.644033 33.360824 0.876214 0.903569 0.104654 -0.034705 -867845.000000 0 0 1
-16.790413 -21.308922 19.872033 33.628646 0.903445 0.938590 0.111731 -0.039352 -192347.000000 0 0 1
-18.047713 -21.657722 19.368833 34.204218 0.876069 0.968823 0.100930 -0.029471 -432243.000000 0 0 1
-19.042813 -22.267522 20.350233 35.673565 0.863301 0.963734 0.105293 -0.031715 -858326.000000 0 0 1
-19.707513 -21.324522 21.176233 35.938199 0.824786 0.940678 0.101525 -0.033005 48933.900000 0 0 1
-20.275513 -21.907722 22.350663 37.290707 0.824072 0.928091 0.087747 -0.027470 -159533.000000 0 0 1
-20.983113 -20.847122 23.205973 37.595355 0.782147 0.905546 0.071336 -0.021230 -97225.300000 0 0 1
-22.240113 -20.407622 22.716863 37.777632 0.742457 0.925630 0.084812 -0.013678 -151434.000000 0 0 1
-22.891713 -19.824022 23.811433 38.522807 0.713705 0.904457 0.080705 -0.014082 -621346.000000 0 0 1
-23.789413 -18.748022 23.278923 38.201214 0.667432 0.915522 0.084422 -0.017401 -547722.000000 0 0 1
-23.131013 -17.893522 22.357803 36.811591 0.658418 0.918066 0.089095 -0.012602 199230.000000 0 0 1
-24.033413 -16.890422 21.835833 36.601843 0.612595 0.931567 0.088008 -0.012091 367195.000000 0 0 1
-23.672313 -16.220222 20.481433 35.255682 0.600723 0.950913 0.093004 -0.015261 -761468.000000 0 0 1
-22.604413 -15.367622 20.398133 34.105822 0.597074 0.929689 0.089348 -0.010868 -1038170.000000 0 0 1
-22.418813 -15.104522 19.038233 33.063637 0.592886 0.957207 0.076822 -0.011005 196554.000000 0 0 1
-21.493613 -13.917522 18.714233 31.715853 0.574629 0.939664 0.071842 -0.021048 142166.000000 0 0 1
-21.140713 -13.966722 17.351733 30.709635 0.583829 0.970332 0.063071 -0.030641 -261185.000000 0 0 1
-20.245113 -12.931422 17.041133 29.453123 0.568421 0.953804 0.071438 -0.036524 -569247.000000 0 0 1
-19.659913 -13.012422 15.628033 28.285521 0.584679 0.985424 0.079853 -0.048733 199095.000000 0 0 1
-18.978613 -11.875722 15.118733 27.014748 0.559133 0.976836 0.078182 -0.037404 -64076.400000 0 0 1
-17.707713 -11.579922 15.632633 26.306594 0.579146 0.934466 0.127796 -0.055910 -820265.000000 0 0 1
-17.185513 -10.357322 14.861433 24.969545 0.542386 0.933304 0.122629 -0.052716 62866.300000 0 1 0
-17.666513 -9.089622 15.362233 25.114241 0.475189 0.912596 0.128807 -0.047088 273476.000000 0 0 1
-17.018013 -8.008222 14.699833 23.871101 0.439830 0.907395 0.118462 -0.038276 -537954.000000 0 1 0
-17.229713 -6.607022 15.291633 23.965596 0.366173 0.878812 0.122595 -0.028229 248895.000000 0 1 0
-16.450713 -6.269822 16.459433 24.100820 0.364132 0.819015 0.115890 -0.028018 532956.000000 0 1 0
-15.090613 -6.046522 16.125333 22.897890 0.381093 0.789461 0.118523 -0.035330 98409.600000 0 1 0
-14.082113 -5.963322 17.324733 23.108732 0.400572 0.723180 0.096894 -0.035245 462719.000000 0 1 0
-14.109913 -7.112422 18.245633 24.136680 0.466900 0.713723 0.090851 -0.034600 6437.740000 0 1 0
-13.568613 -8.297822 17.695033 23.792337 0.548866 0.732166 0.097531 -0.039994 -614352.000000 0 1 0
-13.748513 -9.569322 18.551433 24.994983 0.608054 0.734440 0.112937 -0.042510 -281715.000000 0 1 0
-15.043513 -10.097122 18.562933 25.939191 0.591131 0.773267 0.113420 -0.042073 -578990.000000 0 0 1
-15.867013 -9.504722 19.548533 26.911837 0.539702 0.757739 0.090190 -0.036405 655026.000000 0 0 1
-17.285813 -10.277022 19.725333 28.169225 0.536391 0.795057 0.079537 -0.020243 2401600.000000 0 0 1
-18.294513 -9.976022 18.744333 28.027847 0.499229 0.838236 0.087113 -0.018212 577627.000000 0 0 1
-18.770913 -8.614822 18.693833 27.857166 0.430268 0.835159 0.081586 -0.019851 -53832.500000 0 0 1
-19.879413 -8.398022 17.612233 27.855135 0.399707 0.886304 0.095703 -0.026670 -643850.000000 0 0 1
-21.069613 -9.036522 17.805233 29.027808 0.405160 0.910456 0.094900 -0.014893 -1327990.000000 0 0 1
-21.935913 -8.733122 16.713433 28.927332 0.378884 0.954799 0.102271 -0.013313 -849039.000000 0 0 1
-23.335913 -9.225922 16.958233 30.286369 0.376494 0.976496 0.082223 -0.007785 -1147780.000000 0 0 1
-23.916213 -8.377022 17.947133 31.052525 0.336911 0.954569 0.103641 -0.005999 684742.000000 0 0 1
-25.339683 -8.484522 17.810633 32.113942 0.323098 0.982905 0.108925 -0.000515 439063.000000 0 0 1
-26.147933 -7.441222 18.585933 32.932098 0.277252 0.971125 0.144145 -0.014504 -219409.000000 0 0 1
-26.308973 -7.703722 19.949733 33.904295 0.284854 0.941701 0.149276 -0.017637 165807.000000 0 0 1
-27.030533 -6.665822 20.546933 34.601435 0.241779 0.935001 0.146089 -0.026500 -819713.000000 0 0 1
-26.959153 -6.644322 22.070133 35.468771 0.241643 0.899194 0.141244 -0.021070 405110.000000 0 0 1
-25.830183 -5.981022 22.664893 34.880773 0.227542 0.863499 0.141686 -0.026955 -310688.000000 0 0 1
-24.718513 -6.782322 22.637593 34.197447 0.267792 0.847356 0.149022 -0.021869 -1727280.000000 0 0 1
-23.725313 -6.520022 23.763493 34.206794 0.268192 0.802792 0.157354 -0.020970 89010.600000 0 0 1
-23.022513 -5.259922 23.669903 33.436016 0.224613 0.784253 0.139312 -0.021899 417388.000000 0 0 1
-22.145713 -5.067222 24.755453 33.599729 0.224941 0.742508 0.133198 -0.021774 121339.000000 0 0 1
-21.604713 -3.602022 24.895163 33.158819 0.165204 0.721546 0.118925 -0.023493 163401.000000 0 0 1
-20.702713 -3.464822 25.994253 33.411203 0.165824 0.679304 0.117535 -0.031081 286415.000000 0 0 1
-21.331313 -3.400422 27.275983 34.793203 0.158080 0.669800 0.117938 -0.040267 279349.000000 0 0 1
-22.127213 -2.164422 27.764063 35.568827 0.097507 0.675214 0.115431 -0.043522 164226.000000 0 0 1
-23.301713 -1.888422 27.056943 35.757714 0.080865 0.712585 0.113383 -0.043663 -624720.000000 0 0 1
-24.069313 -0.890022 27.670013 36.684514 0.036961 0.716255 0.093687 -0.041320 656153.000000 0 0 1
-25.499423 -0.735222 27.064073 37.191735 0.028825 0.755847 0.095510 -0.043181 58811.400000 0 0 1
-25.441823 0.004378 25.846243 36.267267 -0.000172 0.777513 0.100416 -0.045067 702905.000000 0 0 1
-26.699933 0.365578 25.244703 36.746633 -0.013691 0.813453 0.101464 -0.040002 973628.000000 0 0 1
-27.564253 -0.830822 24.623103 36.969927 0.030132 0.841922 0.101171 -0.029425 117547.000000 0 0 1
-28.373103 -1.548422 25.528813 38.198833 0.054520 0.838856 0.083297 -0.029787 160015.000000 0 0 1
-28.826703 -2.817722 25.109513 38.332832 0.097437 0.856562 0.075213 -0.026032 657004.000000 0 0 1
-27.759943 -4.010822 25.163803 37.681800 0.143489 0.839551 0.093881 -0.029467 716857.000000 0 0 1
-27.370733 -4.361122 26.471523 38.326465 0.158007 0.808360 0.069041 -0.027671 -295832.000000 0 0 1
-26.508573 -5.460322 26.475773 37.861406 0.203142 0.796405 0.098782 -0.036033 -377548.000000 0 0 1
-26.377063 -5.964422 27.921713 38.870886 0.222382 0.769413 0.058263 -0.026807 450205.000000 0 0 1
-27.569363 -6.336722 28.631503 40.249059 0.225923 0.779367 0.077551 -0.023957 458299.000000 0 0 1
-27.178993 -6.901122 29.883033 40.979492 0.248659 0.753616 0.075719 -0.017985 -378956.000000 0 0 1
-28.431003 -7.256422 30.658123 42.436989 0.249894 0.763473 0.047352 -0.021435 -290325.000000 0 0 1
-29.165763 -8.330922 30.079713 42.718089 0.278231 0.789579 0.046515 -0.025346 -1169170.000000 0 0 1
-30.451283 -8.324322 30.533773 43.919087 0.266846 0.802059 0.064467 -0.028316 -1666340.000000 0 0 1
-31.370323 -9.185022 29.697693 44.163500 0.284832 0.833284 0.056625 -0.033610 -417511.000000 0 0 1
-30.967323 -10.523322 29.595713 44.109201 0.327577 0.835287 0.071067 -0.029122 262356.000000 0 0 1
-31.925693 -11.173522 28.793603 44.420367 0.336662 0.865569 0.050099 -0.024282 48233.300000 0 0 1
-31.319893 -12.387422 28.054453 43.834190 0.376632 0.876281 0.066769 -0.034599 -661894.000000 0 0 1
-30.268633 -12.046422 27.244123 42.468207 0.378767 0.874321 0.080426 -0.029835 -1173870.000000 0 0 1
-29.391863 -13.129722 27.089923 42.072974 0.420117 0.871238 0.087950 -0.029397 -686329.000000 0 0 1
-28.138233 -12.584022 26.363363 40.560383 0.420541 0.863241 0.112226 -0.039270 154607.000000 0 0 1
-27.233923 -11.850522 27.281983 40.328997 0.410426 0.827816 0.100620 -0.038419 781685.000000 0 0 1
-27.606203 -10.542122 27.725933 40.521181 0.364785 0.817245 0.107081 -0.036563 -710284.000000 0 0 1
-27.563093 -9.438522 26.587113 39.442165 0.329918 0.831080 0.107133 -0.030879 1273910.000000 0 0 1
-26.251873 -9.084322 26.044163 38.078657 0.333147 0.817623 0.108101 -0.030697 1239670.000000 0 0 1
-25.670863 -9.961822 25.113013 37.267875 0.370171 0.831387 0.109696 -0.030068 2439.310000 0 0 1
-26.357903 -9.944122 23.691473 36.809109 0.360762 0.871564 0.113516 -0.021807 138214.000000 0 0 1
-27.693193 -10.397522 23.716793 37.914478 0.359169 0.894981 0.108350 -0.024315 50173.000000 0 0 1
-28.404333 -10.170622 22.514203 37.644880 0.343842 0.929708 0.129937 -0.015289 432825.000000 0 0 1
-29.735383 -10.993422 22.406733 38.821515 0.354123 0.955534 0.130635 -0.022598 700076.000000 0 0 1
-30.858983 -10.411422 23.045003 39.896700 0.325394 0.954990 0.131533 -0.023676 -76524.200000 0 0 1
-30.953863 -10.453622 24.480183 40.825227 0.325690 0.927753 0.128252 -0.031425 -1777870.000000 0 0 1
-32.349573 -10.317122 24.980453 42.154014 0.308728 0.936514 0.075722 -0.025688 -1103840.000000 0 0 1
-32.970203 -9.050622 24.605403 42.123318 0.267910 0.946991 0.088920 -0.029674 647774.000000 0 0 1
-34.358418 -8.870022 24.887833 43.342616 0.252645 0.959156 0.082015 -0.023006 764569.000000 0 0 1
-34.831679 -8.790522 26.373173 44.565271 0.247209 0.937522 0.063228 -0.027542 -323253.000000 0 0 1
-35.043275 -10.106922 26.939483 45.342218 0.280793 0.934604 0.058525 -0.034041 254682.000000 0 0 1
-35.550706 -9.879722 28.269293 46.482411 0.271065 0.917041 0.082812 -0.034811 -607539.000000 0 0 1
-36.170653 -11.146722 28.906883 47.625344 0.298936 0.918561 0.083727 -0.022447 1221120.000000 0 0 1
-37.362363 -11.739922 28.290023 48.312496 0.304449 0.945222 0.069241 -0.024489 465424.000000 0 0 1
37.662181 -11.058022 28.597973 48.565046 -0.285585 0.941150 0.102805 -0.030884 -1586670.000000 0 0 1
36.529971 -11.929722 28.108543 47.611419 -0.315654 0.939274 0.112565 -0.030996 -697801.000000 0 0 1
36.276121 -11.633122 26.748063 46.548312 -0.310322 0.958644 0.116555 -0.024881 -296850.000000 0 0 1
35.119811 -12.260622 26.243613 45.524182 -0.335880 0.956387 0.134231 -0.021308 -103129.000000 0 0 1
34.804441 -11.845222 24.865923 44.384372 -0.328040 0.976120 0.135150 -0.032234 128215.000000 0 0 1
34.190191 -10.560922 24.674213 43.466297 -0.299590 0.967132 0.148685 -0.046328 199683.000000 0 0 1
34.421451 -9.994822 23.364653 42.785976 -0.282595 0.993116 0.130148 -0.036778 -130237.000000 0 0 1
33.896031 -8.516022 23.161603 41.927597 -0.246145 0.985533 0.141060 -0.024591 -1081830.000000 0 0 1
32.534671 -8.532422 23.052953 40.776778 -0.256480 0.969945 0.162305 -0.029291 -1477790.000000 0 0 1
31.966841 -7.225122 22.834133 39.943446 -0.222284 0.962267 0.157143 -0.013275 450184.000000 0 0 1
30.454801 -7.213322 22.506123 38.549351 -0.232568 0.947363 0.167279 0.001672 185613.000000 0 0 1
30.144101 -7.827222 21.257533 37.706961 -0.254050 0.971870 0.164890 0.002288 -608297.000000 0 0 1
28.806501 -7.703322 20.910233 36.419685 -0.261302 0.959235 0.163093 -0.028726 -798112.000000 0 0 1
15.975887 -17.048222 25.351743 34.475813 -0.817858 0.744615 0.141366 -0.029839 33200.900000 0 0 1
15.384687 -18.317322 25.435593 34.916790 -0.872196 0.754720 0.138310 -0.022210 47666.800000 0 0 1
16.319287 -19.314222 25.784393 36.113615 -0.869249 0.775630 0.133648 -0.022527 -724126.000000 0 0 1
15.723087 -20.770922 25.524653 36.471284 -0.922846 0.795600 0.125022 -0.030729 505920.000000 0 0 1
14.786887 -21.289222 26.499323 37.068816 -0.963723 0.774361 0.112168 -0.028077 1032570.000000 0 0 1
13.562987 -20.543222 26.510643 36.177241 -0.987272 0.748370 0.112647 -0.023763 447215.000000 0 0 1
12.503787 -20.943422 27.640903 36.864497 -1.032566 0.723041 0.108071 -0.013120 734702.000000 0 0 1
12.843087 -20.315922 28.813433 37.521933 -1.007059 0.695226 0.113836 -0.024037 129665.000000 0 0 1
11.972087 -19.291322 29.346813 37.104196 -1.015371 0.658469 0.109159 -0.024565 128414.000000 0 0 1
12.151487 -17.896822 28.717033 35.953064 -0.974321 0.645604 0.136418 -0.024495 47129.000000 0 0 1
13.204187 -17.126122 29.225673 36.356493 -0.913992 0.637033 0.131573 -0.015935 -501800.000000 0 0 1
13.310987 -15.955222 28.489793 35.262158 -0.875505 0.630144 0.143357 -0.017323 1857460.000000 0 0 1
14.532887 -14.956622 28.935253 35.667271 -0.799766 0.624501 0.142160 -0.011789 1835550.000000 0 0 1
14.199387 -13.660922 28.512223 34.658191 -0.766073 0.604706 0.180183 -0.023893 4062.370000 0 0 1
15.035587 -12.750922 29.161613 35.200206 -0.703361 0.594462 0.176313 -0.022146 -152005.000000 0 0 1
14.496687 -11.289722 29.050783 34.373823 -0.661667 0.563964 0.157536 -0.022030 91285.400000 0 0 1
14.466687 -10.630422 27.799833 33.092621 -0.633715 0.573400 0.197631 -0.029876 389833.000000 0 0 1
15.751687 -10.378022 27.232363 33.127338 -0.582573 0.605793 0.173091 -0.028504 -28492.900000 0 0 1
15.789987 -9.154422 26.288953 32.003690 -0.525405 0.606874 0.155658 -0.029188 56196.700000 0 0 1
16.008787 -7.928722 26.978703 32.357322 -0.459859 0.584887 0.152760 -0.031102 538939.000000 0 0 1
17.308087 -7.769622 27.563553 33.461714 -0.421940 0.602831 0.143201 -0.029745 105786.000000 0 0 1
17.733887 -6.286122 27.735123 33.514819 -0.340651 0.596070 0.128928 -0.031634 163111.000000 0 0 1
19.123287 -6.164622 27.501763 34.059501 -0.311844 0.630959 0.110673 -0.033570 65722.600000 0 0 1
19.511387 -4.835522 27.171343 33.798792 -0.242936 0.636948 0.114382 -0.028080 -497887.000000 0 0 1
20.934887 -4.675422 26.657653 34.216363 -0.219726 0.677582 0.102351 -0.027170 -1138470.000000 0 0 1
21.197187 -5.443622 25.462713 33.575340 -0.251377 0.709979 0.094271 -0.026621 599538.000000 0 0 1
22.533687 -5.424422 24.954403 34.057504 -0.236230 0.748495 0.089501 -0.025424 1739490.000000 0 0 1
23.765887 -5.855722 25.883513 35.623912 -0.241580 0.757470 0.084645 -0.023320 494503.000000 0 0 1
24.159387 -4.821722 26.709693 36.336382 -0.196991 0.745030 0.073200 -0.021488 -860364.000000 0 0 1
25.279387 -5.208522 27.420633 37.657233 -0.203195 0.755157 0.084187 -0.037239 -737320.000000 0 0 1
25.948287 -4.070922 28.215443 38.548634 -0.155617 0.749626 0.075490 -0.027850 -178121.000000 0 0 1
26.790787 -3.235022 27.456683 38.497806 -0.120169 0.776742 0.077216 -0.017447 59354.500000 0 0 1
27.053387 -1.945922 28.045893 39.015951 -0.071805 0.768676 0.069842 -0.023187 -380012.000000 0 0 1
28.021387 -1.110822 27.163263 39.041963 -0.039621 0.801339 0.078785 -0.022101 -929605.000000 0 0 1
29.352687 -1.417222 27.328003 40.129895 -0.048245 0.821684 0.086998 -0.025861 -1447750.000000 0 0 1
30.077687 -0.584622 26.458843 40.063442 -0.019435 0.849414 0.098380 -0.009081 583227.000000 0 0 1
31.631587 -0.749422 26.559943 41.310404 -0.023688 0.872471 0.120112 -0.024922 672545.000000 0 0 1
32.163387 0.041778 27.577953 42.367779 0.001299 0.862003 0.111392 -0.027712 204557.000000 0 0 1
33.562987 0.003378 27.804363 43.583904 0.000101 0.878963 0.140903 -0.034276 388145.000000 0 0 1
34.106687 1.081778 28.798413 44.651819 0.031707 0.869832 0.145724 -0.030748 19004.000000 0 0 1
34.088587 2.371578 28.180553 44.292208 0.069459 0.881179 0.147306 -0.028493 191091.000000 0 0 1
34.561787 3.363378 29.083953 45.295758 0.097009 0.873575 0.131415 -0.021603 -77172.300000 0 0 1
34.637487 4.718278 28.335933 44.999364 0.135386 0.889634 0.127147 -0.032049 -274964.000000 0 0 1
34.608287 5.906678 29.121943 45.614799 0.169044 0.878337 0.140333 -0.032826 238243.000000 0 0 1
33.318587 6.207778 29.618393 45.010154 0.184204 0.852586 0.130976 -0.030159 -149382.000000 0 0 1
33.272187 7.136678 30.844413 45.927643 0.211292 0.834448 0.091003 -0.025543 -80287.100000 0 0 1
33.748187 6.577878 32.086923 47.029557 0.192497 0.819931 0.102471 -0.021236 258278.000000 0 0 1
34.001187 7.572278 33.041803 48.012299 0.219130 0.811799 0.111347 -0.028502 -218662.000000 0 0 1
34.471487 7.060178 -32.990472 48.233814 0.202018 2.323987 0.112681 -0.026853 1821.890000 0 0 1
33.501787 6.357078 -32.216572 46.911509 0.187524 2.327808 0.077797 -0.023490 177425.000000 0 0 1
33.330087 5.032978 -32.671032 46.942752 0.149872 2.340575 0.092372 -0.017940 -60363.400000 0 0 1
33.682287 3.907778 -31.679652 46.404392 0.115502 2.322229 0.101967 -0.024540 -44758.000000 0 0 1
33.753487 2.567378 -32.145672 46.682262 0.075916 2.330361 0.098429 -0.023317 181111.000000 0 0 1
33.981787 1.649678 -31.081162 46.081688 0.048508 2.311056 0.083970 -0.014734 -101306.000000 0 0 1
33.910787 0.144978 -31.392852 46.211186 0.004275 2.317652 0.092321 -0.021088 -601268.000000 0 0 1
34.898087 -0.373722 -32.250992 47.519919 -0.010709 2.316765 0.099385 -0.022867 174995.000000 0 0 1
35.545687 -1.579522 -31.864932 47.763633 -0.044407 2.301156 0.096089 -0.024681 492767.000000 0 0 1
36.432987 -1.647922 -30.598062 47.605878 -0.045201 2.268862 0.104848 -0.021633 -597756.000000 0 0 1
35.692087 -1.691022 -29.422152 46.286582 -0.047343 2.259649 0.113966 -0.018576 -122834.000000 0 0 1
36.443387 -1.612622 -28.229032 46.125907 -0.044221 2.229383 0.147169 -0.025230 -205944.000000 0 0 1
35.560087 -1.114922 -27.084422 44.713854 -0.031343 2.221477 0.148223 -0.022992 -51823.100000 0 0 1
35.379487 0.315478 -27.229692 44.645983 0.008917 2.226734 0.132873 -0.024248 304492.000000 0 0 1
34.347687 0.736478 -26.371902 43.310313 0.021439 2.225477 0.112234 -0.013841 -263557.000000 0 0 1
33.941587 2.166678 -26.539472 43.140114 0.063749 2.233426 0.085315 -0.021722 -176442.000000 0 0 1
32.915587 2.270478 -27.505662 42.955237 0.068870 2.265728 0.097396 -0.028864 451991.000000 0 0 1
32.210987 3.524978 -27.294182 42.366798 0.109000 2.270819 0.084107 -0.018587 -271253.000000 0 0 1
31.176187 3.746678 -28.368262 42.317261 0.119604 2.305505 0.093514 -0.015337 -804251.000000 0 0 1
30.243987 4.713478 -27.971812 41.464900 0.154605 2.311206 0.088457 -0.016947 -193603.000000 0 0 1
29.359587 5.007378 -29.022482 41.585619 0.168928 2.343253 0.062991 -0.025453 -492559.000000 0 0 1
28.215587 5.920278 -28.553662 40.576849 0.206823 2.351379 0.064601 -0.023329 -623619.000000 0 0 1
27.087587 5.190278 -28.119622 39.387682 0.189316 2.365876 0.097175 -0.025834 181836.000000 0 0 1
26.164987 6.103478 -27.529752 38.467470 0.229171 2.368369 0.110775 -0.030422 442390.000000 0 0 1
24.794387 5.391578 -27.262202 37.243233 0.214118 2.392055 0.134244 -0.026205 472199.000000 0 0 1
24.056587 4.927678 -28.384982 37.532767 0.202042 2.428393 0.138183 -0.027606 -192769.000000 0 0 1
22.798187 4.440578 -28.030162 36.402831 0.192369 2.449637 0.112606 -0.021887 -300559.000000 0 0 1
21.983187 4.137878 -29.323182 36.881317 0.186052 2.489917 0.107647 -0.020542 -107822.000000 0 0 1
22.392187 2.941078 -29.909782 37.478728 0.130596 2.494843 0.105066 -0.027624 192870.000000 0 0 1
21.724087 2.593078 -31.129702 38.048895 0.118802 2.528983 0.082656 -0.027888 53816.100000 0 0 1
21.905087 3.481378 -32.440562 39.298129 0.157612 2.541882 0.105581 -0.031207 637599.000000 0 0 1
23.237487 3.297178 -32.933192 40.440665 0.140950 2.522419 0.095393 -0.029948 590030.000000 0 0 1
23.437587 3.992178 33.263145 40.886364 0.168713 0.620563 0.100878 -0.033406 -415752.000000 0 0 1
24.877687 3.734278 32.789901 41.328219 0.148993 0.654418 0.098095 -0.023359 -21368.400000 0 0 1
25.028187 2.403878 32.384617 40.999417 0.095753 0.660183 0.102657 -0.028492 -250099.000000 0 0 1
26.332587 2.168578 31.920216 41.436796 0.082168 0.691430 0.083351 -0.022650 -359301.000000 0 0 1
26.761687 0.724478 31.509190 41.346605 0.027065 0.704285 0.059284 -0.024043 -567859.000000 0 0 1
26.253387 0.076178 30.327453 40.112349 0.002902 0.713520 0.061450 -0.025140 853068.000000 0 0 1
24.853787 -0.233222 30.272193 39.168492 -0.009383 0.687443 0.095551 -0.036257 508838.000000 0 0 1
24.274187 -1.195422 31.334935 39.655306 -0.049207 0.659689 0.092150 -0.044650 -631704.000000 0 0 1
24.558387 -2.577322 31.114723 39.722574 -0.104564 0.670838 0.078321 -0.045113 500781.000000 0 0 1
23.804987 -3.478222 31.963203 40.005272 -0.145086 0.645208 0.094356 -0.045567 134839.000000 0 0 1
23.831587 -4.968822 31.539631 39.841963 -0.205553 0.657343 0.098327 -0.037578 -594196.000000 0 0 1
25.092087 -5.540322 31.422739 40.591828 -0.217313 0.685481 0.074010 -0.026292 -722854.000000 0 0 1
24.961887 -6.897222 31.209023 40.554538 -0.269584 0.692649 0.102555 -0.034834 -350586.000000 0 0 1
26.212287 -7.643422 30.719033 41.099451 -0.283730 0.726609 0.081401 -0.034157 -286252.000000 0 0 1
26.639287 -7.138022 29.471083 40.362702 -0.261801 0.752246 0.090186 -0.032770 -827340.000000 0 0 1
27.792387 -7.855322 29.143013 41.029721 -0.275458 0.780886 0.082692 -0.014368 -429096.000000 0 0 1
28.089787 -7.759822 27.645243 40.168525 -0.269529 0.811748 0.101534 -0.027185 734846.000000 0 0 1
27.115387 -8.324122 26.704503 38.957229 -0.297856 0.815530 0.085519 -0.032873 256206.000000 0 0 1
27.555187 -8.191922 25.410813 38.368025 -0.288970 0.846923 0.120872 -0.036122 -131635.000000 0 0 1
26.715287 -8.960222 24.403003 37.275980 -0.323607 0.857067 0.099963 -0.035463 -519134.000000 0 0 1
25.446887 -8.432622 24.178993 36.100926 -0.319993 0.836909 0.093216 -0.026955 -767609.000000 0 0 1
24.683487 -9.333622 23.363333 35.245373 -0.361514 0.846142 0.106949 -0.031726 -745715.000000 0 0 1
23.261787 -8.889822 23.165183 34.011253 -0.365037 0.821528 0.079928 -0.029758 -1452820.000000 0 0 1
22.494887 -9.069922 24.305113 34.336889 -0.383261 0.784357 0.064519 -0.026330 -146955.000000 0 0 1
21.194187 -8.600122 23.966183 33.129044 -0.385477 0.762055 0.085507 -0.023149 219052.000000 0 0 1
20.120787 -8.404422 25.037783 33.201972 -0.395670 0.716506 0.071253 -0.017524 -77722.100000 0 0 1
19.456787 -9.548622 25.556893 33.509663 -0.456229 0.703362 0.093658 -0.024576 6243.210000 0 0 1
20.242087 -10.333322 26.438783 34.864435 -0.472002 0.710047 0.072582 -0.024980 -432953.000000 0 0 1
19.512487 -11.388622 27.224013 35.377743 -0.528317 0.692701 0.083882 -0.017911 -442587.000000 0 0 1
18.935687 -12.373822 26.394413 34.761138 -0.578808 0.708547 0.122622 -0.025976 247955.000000 0 0 1
18.234687 -13.297322 27.272863 35.399599 -0.630077 0.691283 0.129778 -0.023540 103067.000000 0 0 1
18.977587 -14.644222 27.602083 36.557858 -0.657219 0.715105 0.127848 -0.011070 111888.000000 0 0 1
18.220787 -15.559722 28.418643 37.171512 -0.706785 0.700488 0.124088 -0.003720 178379.000000 0 0 1
18.913187 -16.661422 28.979133 38.407053 -0.722186 0.715864 0.119638 -0.004125 141342.000000 0 0 1
19.605587 -17.723822 28.018343 38.516755 -0.735031 0.756223 0.122161 -0.011396 122343.000000 0 0 1
20.697987 -17.268922 27.278473 38.350194 -0.695325 0.779451 0.111776 -0.010933 -283932.000000 0 0 1
20.905787 -18.153422 26.201293 38.119633 -0.715048 0.812971 0.102318 -0.009549 -13042.400000 0 0 1
22.071387 -17.841022 25.230053 37.973724 -0.679801 0.844095 0.092953 -0.023453 -241160.000000 0 0 1
23.310387 -17.990422 25.845613 39.179397 -0.657293 0.850412 0.073616 -0.015051 -624113.000000 0 0 1
24.353687 -17.400622 25.082563 39.051487 -0.620389 0.873308 0.061935 -0.018080 -169699.000000 0 0 1
25.646087 -17.218122 25.944793 40.340027 -0.591255 0.872188 0.068505 -0.020666 450818.000000 0 0 1
26.154987 -18.465722 26.450193 41.529254 -0.614749 0.880319 0.069081 -0.019448 -257589.000000 0 0 1
26.822287 -19.213522 25.488223 41.692253 -0.621600 0.913041 0.047720 -0.020753 -1011550.000000 0 0 1
27.511187 -20.414922 26.131653 43.087095 -0.638399 0.919165 0.044547 -0.023049 -295019.000000 0 0 1
28.598787 -20.059122 26.966683 44.130046 -0.611663 0.913381 0.044724 -0.014733 374285.000000 0 0 1
29.364487 -21.210822 27.439483 45.443341 -0.625555 0.922515 0.048970 -0.018999 430147.000000 0 0 1
28.611187 -22.292322 28.260123 45.980237 -0.661896 0.908899 0.060821 -0.016638 -294693.000000 0 0 1
28.428287 -21.944422 29.643563 46.566790 -0.657384 0.880739 0.074238 -0.014263 -111817.000000 0 0 1
27.836787 -23.083922 30.221493 47.128471 -0.692329 0.874660 0.102229 -0.021374 -236746.000000 0 0 1
27.321687 -22.934622 31.671375 47.702698 -0.698325 0.844731 0.098651 -0.017569 30869.700000 0 0 1
27.021587 -24.122622 32.334844 48.555218 -0.728777 0.842044 0.096179 -0.019736 30738.100000 0 0 1
26.602487 -23.952022 33.662023 49.137801 -0.733018 0.816119 0.100794 -0.017288 -253895.000000 0 0 1
26.335287 -25.239852 -32.924032 49.138472 -0.764162 2.305040 0.095645 -0.022411 271171.000000 0 0 1
25.079387 -25.876972 -33.035192 48.886780 -0.801049 2.312777 0.129725 -0.036438 -107671.000000 0 0 1
24.741287 -26.411762 33.046100 49.007725 -0.818043 0.830775 0.114026 -0.027023 -174105.000000 0 0 1
23.416287 -27.179622 33.004172 48.747612 -0.859642 0.827061 0.133280 -0.033035 9156.490000 0 0 1
23.578087 -28.508232 33.504133 49.911646 -0.879770 0.834877 0.143125 -0.042287 117914.000000 0 0 1
22.298787 -29.096492 33.618563 49.739818 -0.916898 0.828627 0.158728 -0.048593 -190954.000000 0 0 1
22.223087 -30.598532 -33.497512 50.519492 -0.942650 2.295697 0.136842 -0.045777 -52966.900000 0 0 1
22.743087 -31.086722 -32.254942 50.239562 -0.939175 2.267930 0.126978 -0.055534 151654.000000 0 0 1
24.131487 -31.312442 -32.416072 51.123375 -0.914199 2.257609 0.096765 -0.035005 -262010.000000 0 0 1
24.785487 -32.118052 -31.261132 51.216677 -0.913552 2.227324 0.079565 -0.036145 -543140.000000 0 0 1
25.953687 -32.808112 -31.612042 52.433647 -0.901521 2.217923 0.076444 -0.030404 201775.000000 0 0 1
26.713087 -33.337962 -30.517632 52.500806 -0.895275 2.191096 0.069986 -0.014068 316960.000000 0 0 1
27.399587 -32.468222 -29.437702 51.686566 -0.869861 2.176746 0.067341 -0.017489 -438655.000000 0 0 1
28.051987 -33.213592 -28.417652 51.938614 -0.869449 2.149739 0.084312 -0.013533 -30224.100000 0 0 1
28.636187 -32.288112 -27.527342 51.188944 -0.845269 2.138574 0.083965 -0.017003 -548602.000000 0 0 1
28.818087 -32.807292 -26.066842 50.855490 -0.850041 2.108968 0.098417 -0.022687 -232258.000000 0 0 1
29.989487 -33.460372 -25.678962 51.753019 -0.840046 2.089993 0.098888 -0.005876 -746682.000000 0 0 1
31.026987 -32.569022 -25.384852 51.650807 -0.809641 2.084574 0.113614 -0.022682 -339789.000000 0 0 1
-28.090733 -30.028693 9.640968 42.234583 0.818730 1.340494 0.086246 -0.016006 -13465.700000 0 0 1
-27.565463 -31.265993 9.110868 42.666439 0.848216 1.355602 0.082259 -0.019652 608005.000000 0 0 1
-26.349283 -31.671193 9.749468 42.336761 0.876867 1.338427 0.070351 -0.016535 190426.000000 0 0 1
-26.533883 -32.330993 11.196468 43.297817 0.883563 1.309232 0.070975 -0.021658 -407669.000000 0 0 1
-26.894453 -33.684693 11.245068 44.546849 0.897021 1.315603 0.079736 -0.001166 482983.000000 0 0 1
-28.229983 33.416178 10.863168 45.073066 -0.869329 1.327387 0.058835 -0.022442 233553.000000 0 0 1
-28.285233 31.873878 10.572068 43.906345 -0.844980 1.327620 0.067332 -0.022106 69835.000000 0 0 1
-27.740263 31.590278 9.312468 43.060305 -0.850198 1.352808 0.118184 -0.036274 4967.750000 0 0 1
-27.524673 30.158778 9.246368 41.864720 -0.831031 1.348097 0.140303 -0.036603 -182050.000000 0 0 1
-26.822003 29.525278 8.049268 40.693397 -0.833337 1.371680 0.117405 -0.026950 -1152440.000000 0 0 1
-25.465953 29.768878 8.011768 39.986113 -0.863144 1.369067 0.093239 -0.019226 -1025660.000000 0 0 1
-25.040393 29.416678 6.712768 39.209992 -0.865588 1.398748 0.080933 -0.006364 1321170.000000 0 0 1
-23.518013 28.944678 6.596468 37.873536 -0.888470 1.395733 0.092280 -0.007614 1457710.000000 0 0 1
-23.387113 27.491078 6.693468 36.708567 -0.865886 1.387430 0.085713 -0.011422 147040.000000 0 0 1
-23.899613 26.748778 5.582768 36.302285 -0.841593 1.416398 0.087596 -0.016505 -350085.000000 0 0 1
-24.157013 25.274178 5.972668 35.468551 -0.807995 1.401597 0.111560 -0.014554 177369.000000 0 0 1
-25.236263 25.009778 6.897268 36.192959 -0.780891 1.379054 0.145417 -0.014544 728686.000000 0 0 1
-25.326983 23.709978 7.438368 35.481663 -0.752435 1.359590 0.177987 -0.020284 -105372.000000 0 0 1
-25.626263 22.513478 6.474168 34.719978 -0.720827 1.383230 0.187999 -0.030288 -451953.000000 0 0 1
-26.943633 22.412378 5.963268 35.550451 -0.693847 1.402259 0.178033 -0.036078 52459.100000 0 0 1
-27.162103 21.681078 4.803868 35.084557 -0.673649 1.433442 0.157401 -0.025942 -138596.000000 0 0 1
-27.112933 22.514078 3.518568 35.417159 -0.692994 1.471286 0.150440 -0.035466 147601.000000 0 0 1
-25.901213 23.253078 3.379168 34.971377 -0.731576 1.474019 0.144260 -0.034497 363800.000000 0 0 1
-25.904993 24.135578 2.241168 35.477001 -0.750053 1.507582 0.124320 -0.026265 407073.000000 0 0 1
-24.573513 24.942478 2.136968 35.079216 -0.792849 1.509840 0.077708 -0.012021 529193.000000 0 0 1
-24.295813 25.515878 0.882468 35.243798 -0.809887 1.545755 0.064124 -0.012101 -252613.000000 0 0 1
-22.948913 25.929178 0.891968 34.637703 -0.846296 1.545042 0.063694 -0.010422 -803150.000000 0 0 1
-22.458713 26.419478 -0.496132 34.678938 -0.866255 1.585103 0.097718 -0.014903 20038.900000 0 0 1
-22.306113 25.495778 -1.568332 33.912491 -0.852026 1.617059 0.107235 -0.015559 -292034.000000 0 0 1
-21.224413 24.673478 -1.300832 32.572203 -0.860404 1.610744 0.104578 -0.031693 -857427.000000 0 0 1
-21.026513 23.560478 -2.354732 31.666309 -0.842169 1.645226 0.132860 -0.047507 -141250.000000 0 0 1
-22.003913 22.554478 -2.212532 31.587529 -0.797754 1.640898 0.114144 -0.029559 214037.000000 0 0 1
-21.715813 21.349078 -2.979832 30.598024 -0.776882 1.668337 0.121533 -0.031692 558925.000000 0 0 1
-22.911313 21.026478 -3.954532 31.347717 -0.742527 1.697284 0.121246 -0.024907 605258.000000 0 0 1
-22.964913 22.006878 -4.968632 32.192813 -0.764098 1.725756 0.111453 -0.027519 -730876.000000 0 0 1
-24.120513 21.948278 -5.708332 33.107569 -0.738281 1.744080 0.126055 -0.025131 -880396.000000 0 0 1
-24.061713 22.621878 -7.063532 33.772902 -0.754566 1.781500 0.120510 -0.021892 229739.000000 0 0 1
-23.302613 21.846278 -8.013232 32.931497 -0.753153 1.816594 0.104381 -0.026246 580917.000000 0 0 1
-22.981113 22.570578 -9.172732 33.491813 -0.776386 1.848221 0.097380 -0.029618 -165334.000000 0 0 1
-22.433313 21.797378 -10.346232 32.945770 -0.771021 1.890240 0.091976 -0.026684 587821.000000 0 0 1
-23.512413 21.163378 -11.065132 33.513569 -0.732867 1.907279 0.071875 -0.019965 997421.000000 0 0 1
-23.036913 20.731978 -12.340532 33.358702 -0.732785 1.949735 0.070009 -0.007056 782888.000000 0 0 1
-24.268813 20.438078 -13.271532 34.392207 -0.699921 1.966966 0.047781 -0.018198 500341.000000 0 0 1
-25.000593 19.331078 -12.912532 34.138742 -0.658200 1.958687 0.061200 -0.014878 -782069.000000 0 0 1
-26.283683 19.397178 -13.454632 35.328595 -0.635772 1.961504 0.075415 -0.022867 -213607.000000 0 0 1
-27.020743 18.028878 -13.577432 35.206642 -0.588388 1.966708 0.141506 -0.028307 -11959.700000 0 0 1
-26.455893 17.277078 -14.631632 34.820918 -0.578518 2.004458 0.132269 -0.028017 251485.000000 0 0 1
-27.086763 16.007678 -14.810932 34.775023 -0.533759 2.010761 0.145349 -0.039286 -165898.000000 0 0 1
-26.469333 15.348678 -16.025332 34.540104 -0.525484 2.053260 0.150195 -0.030952 -515842.000000 0 0 1
-25.252713 14.735678 -15.782732 33.225508 -0.528220 2.065781 0.154927 -0.026192 -567192.000000 0 0 1
-24.703513 14.190778 -16.981632 33.166513 -0.521416 2.108321 0.146744 -0.031596 284071.000000 0 0 1
-23.894613 12.887378 -16.812832 31.932873 -0.494624 2.125281 0.127245 -0.022930 46369.200000 0 0 1
-22.692613 12.945078 -16.090132 30.682602 -0.518411 2.122813 0.142354 -0.031115 -139844.000000 0 0 1
-21.956013 11.742578 -16.286632 29.752463 -0.491116 2.150056 0.134420 -0.032038 400851.000000 0 0 1
-20.630513 11.819878 -15.455632 28.358494 -0.520279 2.147196 0.135952 -0.039276 483289.000000 0 0 1
-19.706713 12.778778 -15.977032 28.406289 -0.575283 2.168139 0.125130 -0.030220 -428215.000000 0 0 1
-18.662113 12.914078 -15.086632 27.251685 -0.605333 2.157482 0.110337 -0.023597 -829083.000000 0 0 1
-17.746613 14.114078 -15.387932 27.403247 -0.671875 2.167038 0.097277 -0.019091 -496211.000000 0 0 1
-16.900113 13.849778 -16.490132 27.374343 -0.686523 2.217293 0.121149 -0.033898 180663.000000 0 0 1
-16.240913 15.086078 -16.763032 27.791298 -0.748551 2.218273 0.112405 -0.024058 -262014.000000 0 0 1
-15.425813 15.124478 -18.076732 28.168667 -0.775535 2.267551 0.146401 -0.030176 -131145.000000 0 0 1
-14.310213 14.257478 -17.996432 27.054195 -0.783552 2.298557 0.142761 -0.031292 -245989.000000 0 0 1
-13.462713 14.574278 -19.085032 27.529851 -0.825024 2.336783 0.170821 -0.035969 -667715.000000 0 0 1
-12.268613 13.647678 -19.190932 26.553152 -0.838560 2.378550 0.159101 -0.032248 -729626.000000 0 0 1
-12.458613 12.304478 -19.591232 26.276103 -0.779174 2.412218 0.193395 -0.040504 -713499.000000 0 0 1
-11.299213 11.529178 -19.579832 25.376446 -0.795471 2.452110 0.155610 -0.027321 -465563.000000 0 0 1
-11.363213 10.162478 -20.354132 25.430086 -0.729674 2.498751 0.180447 -0.041591 -180138.000000 0 0 1
-11.391713 10.211378 -21.767632 26.605886 -0.730815 2.528984 0.198675 -0.052920 -273800.000000 0 0 1
-11.228313 8.909078 -22.306232 26.514424 -0.670733 2.570455 0.203362 -0.028943 53748.100000 0 0 1
-11.497613 8.708178 -23.830032 27.854944 -0.648214 2.597321 0.174277 -0.039488 191963.000000 0 0 1
-10.535313 9.374778 -24.615332 28.368889 -0.727175 2.621328 0.155035 -0.044376 -90197.800000 0 0 1
-10.541113 8.877678 -25.962862 29.393851 -0.699946 2.653599 0.132658 -0.049554 152032.000000 0 0 1
-9.789813 9.736878 -27.013932 30.338091 -0.782687 2.669084 0.146826 -0.055057 669590.000000 0 0 1
-8.401913 10.044878 -26.998022 30.006415 -0.874229 2.689974 0.118780 -0.051971 573483.000000 0 0 1
-7.994913 11.061678 -26.071182 29.427638 -0.944959 2.659318 0.096269 -0.042520 963369.000000 0 0 1
-6.485513 11.496478 -26.285112 29.413229 -1.057169 2.676209 0.083903 -0.042547 1006060.000000 0 0 1
-6.306113 12.211078 -27.463532 30.710309 -1.094095 2.677610 0.083852 -0.059136 675845.000000 0 0 1
-4.921113 12.534178 -27.620172 30.727787 -1.196672 2.687972 0.094294 -0.049491 356169.000000 0 0 1
-4.533613 12.961878 -29.050222 32.132217 -1.234331 2.700028 0.103346 -0.044227 469082.000000 0 0 1
-3.120013 12.815078 -29.203502 32.043802 -1.331978 2.717377 0.121595 -0.062258 621037.000000 0 0 1
-2.669113 12.678978 -30.541112 33.175898 -1.363311 2.740363 0.119480 -0.059844 1189760.000000 0 0 1
-1.123213 12.343478 -30.581782 32.998007 -1.480050 2.756535 0.150097 -0.076648 775849.000000 0 0 1
-0.869413 11.064578 -29.942902 31.933653 -1.492381 2.786631 0.116954 -0.045777 500288.000000 0 0 1
0.483187 10.627678 -29.842872 31.682456 1.525363 2.799149 0.136978 -0.054803 602216.000000 0 0 1
1.274487 10.188178 -31.092092 32.743572 1.446348 2.822636 0.151469 -0.054390 -206186.000000 0 0 1
1.625687 11.249478 -31.932722 33.895315 1.427278 2.799630 0.158916 -0.064691 86253.600000 0 0 1
1.825887 10.768678 -33.237692 34.986319 1.402838 2.824095 0.165172 -0.055775 28099.500000 0 0 1
2.094587 11.869978 33.087130 35.214227 1.396134 0.349350 0.165100 -0.062864 -200020.000000 0 0 1
3.412487 12.348978 33.162729 35.551496 1.301187 0.368668 0.170434 -0.068549 -353664.000000 0 0 1
3.677587 13.169278 32.007101 34.805301 1.298479 0.403725 0.174615 -0.065268 514390.000000 0 0 1
5.209187 13.363578 31.798627 34.883714 1.199110 0.423732 0.177660 -0.062725 139436.000000 0 0 1
5.899087 12.220578 31.438717 34.242293 1.121070 0.407473 0.182907 -0.063066 485435.000000 0 0 1
7.295487 12.478078 31.238433 34.420433 1.041729 0.433372 0.173612 -0.057633 843368.000000 0 0 1
8.087187 11.278878 30.649703 33.645504 0.948738 0.425191 0.139361 -0.049846 196227.000000 0 0 1
7.678687 10.891478 29.311353 32.198477 0.956711 0.426707 0.129369 -0.044545 556356.000000 0 0 1
8.488087 9.762378 28.966283 31.723763 0.855107 0.420026 0.118371 -0.036033 506821.000000 0 0 1
7.833087 8.969178 27.777293 30.222200 0.852911 0.405000 0.106186 -0.033150 706030.000000 0 0 1
6.731387 8.171378 28.244153 30.163142 0.881725 0.358627 0.104355 -0.037739 270182.000000 0 0 1
6.249687 7.350878 27.243453 28.901552 0.866188 0.340375 0.129372 -0.043967 -92464.700000 0 0 1
5.511387 6.133678 27.809793 29.006585 0.838786 0.288258 0.143942 -0.044335 589520.000000 0 0 1
6.441587 5.182578 28.294213 29.477375 0.677509 0.284286 0.107671 -0.036482 689459.000000 0 0 1
5.600787 4.289878 28.992053 29.838079 0.653626 0.238700 0.104739 -0.036687 338577.000000 0 0 1
6.324687 3.059878 29.643953 30.465200 0.450603 0.232718 0.108207 -0.026296 161411.000000 0 0 1
6.559487 2.029878 28.707583 29.517327 0.300110 0.234773 0.117146 -0.024063 -501464.000000 0 0 1
7.930887 1.869978 28.505033 29.646799 0.231555 0.278432 0.132261 -0.021852 -598535.000000 0 0 1
8.164687 0.556778 27.730353 28.912706 0.068088 0.286969 0.135901 -0.030928 -159805.000000 0 0 1
8.264087 -0.569022 28.579373 29.755663 -0.068746 0.282117 0.101915 -0.023483 -96690.600000 0 0 1
8.441887 -1.746522 27.809983 29.115476 -0.204009 0.300591 0.128262 -0.026160 -241172.000000 0 0 1
8.981887 -2.901422 28.679433 30.192754 -0.312449 0.317951 0.099470 -0.022797 -179040.000000 0 0 1
10.376087 -2.772022 28.815313 30.751740 -0.261058 0.356769 0.085589 -0.024841 -631868.000000 0 0 1
11.034687 -3.936722 28.415113 30.735659 -0.342683 0.391075 0.113274 -0.030538 -1461170.000000 0 0 1
12.529387 -3.680122 28.291273 31.159668 -0.285685 0.432442 0.092271 -0.019409 -529086.000000 0 0 1
13.261787 -4.839622 27.937953 31.302175 -0.349913 0.467885 0.122672 -0.021310 24395.000000 0 0 1
13.445187 -5.808522 28.981893 32.472482 -0.407797 0.467925 0.129494 -0.023548 -629164.000000 0 0 1
12.825487 -7.208222 28.676173 32.230024 -0.512027 0.474033 0.158815 -0.030063 -234020.000000 0 0 1
11.428187 -7.229722 28.591163 31.627945 -0.564062 0.441798 0.148984 -0.029231 -642025.000000 0 0 1
10.941687 -8.595322 28.672473 31.870217 -0.665872 0.451798 0.168291 -0.030872 -448144.000000 0 0 1
9.494787 -8.509422 28.230953 30.976571 -0.730723 0.424209 0.176465 -0.039861 -1217780.000000 0 0 1
8.640687 -7.925222 29.115123 31.387274 -0.742236 0.382836 0.189188 -0.049254 -546835.000000 0 0 1
7.343687 -7.676122 28.572203 30.483165 -0.807528 0.355964 0.172114 -0.045107 421290.000000 0 0 1
6.503187 -7.046022 29.715313 31.223992 -0.825441 0.312129 0.142873 -0.051794 -68294.100000 0 0 1
6.241387 -7.890122 30.870543 32.468436 -0.901544 0.315033 0.156970 -0.062014 283746.000000 0 0 1
5.540287 -7.250622 31.956516 33.233796 -0.918325 0.278144 0.160017 -0.049703 438877.000000 0 0 1
6.403387 -6.301722 32.871402 34.077032 -0.777396 0.266796 0.148508 -0.025119 138282.000000 0 0 1
7.154687 -5.276422 32.315583 33.516072 -0.635439 0.268456 0.146701 -0.023899 -40371.500000 0 0 1
7.122087 -4.164722 33.149926 34.161186 -0.529139 0.243925 0.109649 -0.002963 45434.200000 0 0 1
7.383487 -2.832122 32.458454 33.407903 -0.366267 0.238979 0.104203 -0.016068 -309718.000000 0 0 1
6.289787 -2.513422 31.661150 32.377571 -0.380165 0.210757 0.139067 -0.023169 -357547.000000 0 0 1
6.464687 -1.219522 31.158393 31.845327 -0.186453 0.208082 0.111350 -0.012848 -464274.000000 0 0 1
5.261787 -0.594022 30.422233 30.879629 -0.112418 0.172331 0.145847 -0.019670 87730.700000 0 0 1
4.233187 -0.482522 31.409579 31.697229 -0.113496 0.134824 0.135868 -0.015845 -655643.000000 0 0 1
3.146087 0.232878 30.922233 31.082737 0.073887 0.101669 0.138610 -0.027449 185901.000000 0 0 1
2.005287 0.390978 32.012065 32.077193 0.192558 0.063735 0.131904 -0.027358 454381.000000 0 0 1
2.313887 1.370678 32.958695 33.068238 0.534791 0.081418 0.122141 -0.023733 403373.000000 0 0 1
1.318487 1.599478 -33.412492 33.476729 0.881399 3.079634 0.106351 -0.027043 230337.000000 0 0 1
1.608587 2.737578 -32.416802 32.571935 1.039548 3.043955 0.102496 -0.026282 -68690.200000 0 0 1
2.736087 2.474678 -31.612962 31.827498 0.735273 3.025419 0.074924 -0.012931 -104362.000000 0 0 1
3.208887 3.640678 -30.986862 31.364584 0.848354 2.986240 0.069019 -0.016122 18002.000000 0 0 1
4.366787 3.570378 -29.960952 30.487294 0.685394 2.955506 0.078891 -0.009181 -17602.200000 0 0 1
4.005087 2.924278 -28.742372 29.167038 0.630670 2.970740 0.087397 -0.014395 252067.000000 0 0 1
4.982287 2.938678 -27.703682 28.301114 0.532904 2.935755 0.098969 -0.020686 30437.300000 0 0 1
4.476987 2.240678 -26.416422 26.886640 0.464038 2.954295 0.093410 -0.022537 21452.300000 0 0 1
4.401887 0.824878 -26.468942 26.845148 0.185244 2.973981 0.110089 -0.027166 4085.040000 0 0 1
3.830787 0.262778 -25.346612 25.635810 0.068489 2.991245 0.109849 -0.028328 -599838.000000 0 0 1
4.247687 -1.221222 -25.124782 25.510565 -0.279952 2.967462 0.123059 -0.043024 -328422.000000 0 0 1
5.620587 -1.347922 -24.877132 25.539765 -0.235374 2.913303 0.118498 -0.043494 -470914.000000 0 0 1
6.021087 -2.681222 -24.925932 25.782640 -0.418943 2.883082 0.115672 -0.040337 -703442.000000 0 0 1
7.457487 -2.980122 -24.540132 25.820793 -0.380174 2.825322 0.125148 -0.047643 -282391.000000 0 0 1
8.434487 -2.729522 -25.542892 27.037570 -0.312978 2.807531 0.130809 -0.044334 -239894.000000 0 0 1
9.707787 -2.928222 -24.955732 26.937041 -0.292957 2.755657 0.111521 -0.040957 135675.000000 0 0 1
-31.091893 -3.978222 17.325433 35.814839 0.127259 1.065862 0.193361 -0.030345 732648.000000 0 0 1
-32.503663 -3.841622 17.492533 37.111115 0.117645 1.079969 0.180106 -0.019560 664067.000000 0 0 1
-33.130373 -4.925222 18.196333 38.118053 0.147581 1.073140 0.150272 -0.031264 -521025.000000 0 0 1
-34.578608 -4.736822 18.563333 39.531189 0.136140 1.081973 0.130747 -0.023820 -627786.000000 0 0 1
-35.523986 -4.850422 17.500533 39.896727 0.135700 1.116705 0.126743 -0.022512 -436239.000000 0 0 1
-36.794503 -4.640922 18.026633 41.235095 0.125468 1.118350 0.103397 -0.017803 -597439.000000 0 0 1
-37.840573 -4.577922 16.871733 41.683590 0.120394 1.154083 0.082212 -0.019622 801910.000000 0 0 1
36.984231 -4.606822 17.275833 41.079320 -0.123924 1.136747 0.077121 -0.014287 146766.000000 0 0 1
36.108311 -4.464322 16.209533 39.830757 -0.123013 1.151673 0.085664 -0.021096 1109350.000000 0 0 1
34.595821 -4.695222 16.652733 38.681125 -0.134892 1.125735 0.093017 -0.017191 1088450.000000 0 0 1
33.995891 -3.714722 17.453933 38.394785 -0.108838 1.098883 0.107537 -0.023175 -184398.000000 0 0 1
32.761241 -4.207622 17.901433 37.569459 -0.127734 1.074139 0.145717 -0.028559 -137855.000000 0 0 1
32.239011 -3.539622 19.183633 37.681487 -0.109355 1.036658 0.149325 -0.020614 -242550.000000 0 0 1
31.631521 -2.272622 19.097333 37.019265 -0.071724 1.028767 0.146700 -0.017188 -349309.000000 0 0 1
32.336031 -1.151322 18.606333 37.324791 -0.035590 1.048931 0.129523 -0.009906 -342866.000000 0 0 1
31.453651 0.113578 18.764833 36.626001 0.003611 1.032893 0.163997 -0.007636 367675.000000 0 0 1
32.056871 1.235278 18.180533 36.874119 0.038515 1.055212 0.136305 -0.013394 397873.000000 0 0 1
31.397851 2.407978 18.732333 36.640465 0.076543 1.034161 0.129461 -0.015125 -32423.000000 0 0 1
31.728511 3.833078 18.142833 36.749874 0.120226 1.054475 0.108987 -0.019059 -128297.000000 0 0 1
31.273821 4.100278 16.782933 35.728573 0.130365 1.081807 0.136992 -0.002053 1019960.000000 0 0 1
29.851801 4.069078 16.581833 34.389600 0.135474 1.067660 0.146180 -0.021691 523075.000000 0 0 1
29.321601 4.333478 15.137533 33.281830 0.146729 1.098616 0.148012 -0.018047 -86126.800000 0 0 1
29.206101 5.693778 14.715733 33.195906 0.192537 1.111520 0.159819 -0.033954 40171.000000 0 0 1
28.839601 5.661078 13.327833 32.270753 0.193831 1.145050 0.142204 -0.029308 -83026.600000 0 0 1
28.315701 7.041378 12.794633 31.860046 0.243730 1.157545 0.161958 -0.019874 -209631.000000 0 0 1
26.982701 7.283578 13.155533 30.889880 0.263651 1.130857 0.132648 -0.022391 -335528.000000 0 0 1
26.467801 8.499678 12.617533 30.528530 0.310730 1.144718 0.174366 -0.045481 -765656.000000 0 0 1
25.190501 9.038078 13.292333 29.882006 0.344483 1.109815 0.174133 -0.050961 252443.000000 0 0 1
24.040001 8.223578 13.037933 28.557601 0.329601 1.096684 0.175831 -0.033793 702819.000000 0 0 1
24.007901 6.981978 13.647033 28.484536 0.283014 1.071164 0.194126 -0.035458 -1693610.000000 0 0 1
22.651101 6.264078 13.703533 27.204739 0.269803 1.042898 0.215983 -0.021141 -515010.000000 0 0 1
22.239101 5.945578 12.407733 26.151086 0.261238 1.076442 0.242170 -0.029398 890023.000000 0 0 1
21.197801 4.953578 12.290433 24.998788 0.229564 1.056823 0.244652 -0.025412 359463.000000 0 1 0
20.794401 4.714578 10.805633 23.903892 0.222954 1.101740 0.256412 -0.034404 -482725.000000 0 1 0
21.806601 4.124978 10.057833 24.366027 0.186953 1.145291 0.266932 -0.043229 -41709.500000 0 1 0
21.344501 3.716578 8.799133 23.384298 0.172395 1.185014 0.277366 -0.041733 -705544.000000 0 1 0
22.315801 3.138678 7.805033 23.848790 0.139732 1.237382 0.263777 -0.036999 -1209290.000000 0 1 0
22.655201 1.792578 8.080833 24.119936 0.078960 1.229162 0.268368 -0.047617 1299270.000000 0 1 0
23.587401 1.241978 7.116233 24.668781 0.052606 1.278167 0.260847 -0.040181 1829770.000000 0 1 0
25.118301 1.698978 7.041633 26.141923 0.067536 1.298066 0.245279 -0.042859 1207610.000000 0 0 1
26.001401 1.132278 7.988133 27.224348 0.043519 1.272995 0.199372 -0.023152 364077.000000 0 0 1
26.027901 1.732578 9.264233 27.681753 0.066468 1.229542 0.199939 -0.030293 -543337.000000 0 0 1
26.760601 0.894978 10.318533 28.694997 0.033431 1.202964 0.132068 -0.021668 1517010.000000 0 0 1
28.208101 1.040878 10.164133 30.001499 0.036883 1.225168 0.149772 -0.035144 1600200.000000 0 0 1
28.946801 0.160878 10.978433 30.959153 0.005558 1.208299 0.148979 -0.027519 -673292.000000 0 0 1
30.420401 0.525678 10.995633 32.350905 0.017279 1.224000 0.188993 -0.028363 -665020.000000 0 0 1
30.736501 1.696478 11.678933 32.924276 0.055138 1.208181 0.178866 -0.029396 -176839.000000 0 0 1
32.137371 1.817678 11.608433 34.217981 0.056499 1.224677 0.178398 -0.035694 -496270.000000 0 0 1
32.635011 3.163778 12.179433 34.977021 0.096642 1.215133 0.162241 -0.037411 -938374.000000 0 0 1
34.001801 3.288178 11.987033 36.202535 0.096406 1.233316 0.157487 -0.048533 -608102.000000 0 0 1
34.438631 4.507878 12.594733 36.945467 0.130156 1.222922 0.138108 -0.050769 -632476.000000 0 0 1
35.839181 4.793778 12.074033 38.120984 0.132969 1.248517 0.163316 -0.046586 -690608.000000 0 0 1
36.818421 3.892278 12.578833 39.102084 0.105324 1.243280 0.164247 -0.044436 434867.000000 0 0 1
38.072811 4.211078 11.981133 40.135017 0.110158 1.267654 0.174852 -0.034943 -207042.000000 0 0 1
-36.998143 3.287778 12.411233 39.162619 -0.088631 1.248321 0.179971 -0.026865 -863376.000000 0 0 1
-37.100873 1.904378 12.024433 39.047259 -0.051285 1.257763 0.170083 -0.021666 1331360.000000 0 0 1
38.003071 1.108978 12.637333 40.064515 0.029173 1.249892 0.177811 -0.026281 1146230.000000 0 0 1
37.840971 1.109978 14.202333 40.433617 0.029324 1.211890 0.169193 -0.022679 42752.800000 0 0 1
-37.377493 0.243378 14.775733 40.192767 -0.006511 1.194346 0.141130 -0.021445 550977.000000 0 0 1
-37.592073 0.098378 16.193733 40.931780 -0.002617 1.164045 0.130236 -0.031566 -112794.000000 0 0 1
-36.566663 -0.910322 16.806433 40.254263 0.024890 1.140096 0.118148 -0.018004 165596.000000 0 0 1
-35.271622 -0.330522 16.916333 39.119801 0.009370 1.123617 0.125058 -0.024339 -33246.000000 0 0 1
-34.392320 -1.002322 17.777133 38.728062 0.029136 1.093899 0.125339 -0.016679 -55011.000000 0 0 1
-34.731883 -0.968122 19.284433 39.738272 0.027867 1.064106 0.099305 -0.026244 -213627.000000 0 0 1
-35.762671 -1.844922 19.751233 40.896009 0.051542 1.066762 0.102225 -0.034115 380956.000000 0 0 1
-35.945303 -1.555422 21.134433 41.727070 0.043245 1.039685 0.096717 -0.035583 204103.000000 0 0 1
-36.554583 -2.726722 21.951633 42.726417 0.074455 1.031221 0.093220 -0.030514 -11239.500000 0 0 1
-35.675714 -3.857722 22.000833 42.091272 0.107714 1.020789 0.105889 -0.032074 246303.000000 0 0 1
-36.129113 -4.990822 22.720403 42.970197 0.137270 1.013672 0.109576 -0.035329 -79748.200000 0 0 1
-36.261363 -4.840222 24.243143 43.886720 0.132697 0.985552 0.120255 -0.037505 598130.000000 0 0 1
-34.999277 -4.871122 24.914823 43.236855 0.138289 0.956675 0.121356 -0.037596 125981.000000 0 0 1
-35.058108 -4.474322 26.219383 44.006210 0.126940 0.932521 0.126427 -0.053135 -566457.000000 0 0 1
-33.778393 -3.802222 26.682173 43.213135 0.112092 0.905293 0.113972 -0.051176 -568280.000000 0 0 1
-33.709323 -2.415322 26.302783 42.825093 0.071529 0.909436 0.113508 -0.044796 321695.000000 0 0 1
-33.036203 -2.289422 25.024573 41.507365 0.069190 0.923672 0.106542 -0.033711 99187.100000 0 0 1
-32.790193 -0.796322 24.648343 41.028913 0.024281 0.926351 0.107058 -0.035025 -75100.400000 0 0 1
-34.019087 -0.194022 24.327213 41.822831 0.005703 0.950012 0.122693 -0.045221 25884.300000 0 0 1
-33.928668 1.142878 23.881553 41.506496 -0.033672 0.957741 0.117104 -0.040658 -651136.000000 0 0 1
-35.279308 1.850178 23.848483 42.623970 -0.052396 0.977003 0.118137 -0.035509 -480562.000000 0 0 1
-36.070013 1.534578 22.728173 42.661113 -0.042519 1.008937 0.118154 -0.030170 -78471.700000 0 0 1
-37.032683 2.536278 22.443253 43.376859 -0.068381 1.026985 0.138624 -0.020578 382130.000000 0 0 1
-36.392983 3.797778 21.787333 42.585915 -0.103978 1.033740 0.120506 -0.006917 176051.000000 0 0 1
-35.849009 3.660078 20.467033 41.442093 -0.101745 1.054261 0.107888 -0.022811 982114.000000 0 0 1
-36.960923 3.598178 19.526133 41.956246 -0.097045 1.086718 0.132948 -0.037620 1064850.000000 0 0 1
-36.508373 2.924078 18.203133 40.899457 -0.079923 1.109544 0.140585 -0.031435 -636724.000000 0 0 1
-35.522593 3.689678 17.633233 39.829627 -0.103497 1.112170 0.138043 -0.040749 -475043.000000 0 0 1
-35.035808 3.063378 16.461833 38.831483 -0.087214 1.133016 0.153290 -0.030600 -257072.000000 0 0 1
-34.090669 3.958178 15.662833 37.724862 -0.115590 1.142649 0.146211 -0.031795 -66937.900000 0 0 1
-34.768656 4.995378 14.932033 38.167772 -0.142698 1.168838 0.169587 -0.042424 272716.000000 0 0 1
-33.855513 5.917578 14.366133 37.250493 -0.173041 1.174870 0.184089 -0.039981 -489647.000000 0 0 1
-34.431917 6.969078 13.465733 37.622479 -0.199704 1.204760 0.202767 -0.047326 -455608.000000 0 0 1
-33.517743 7.599978 12.584033 36.599954 -0.222975 1.219808 0.226935 -0.041322 -68254.300000 0 0 1
-34.047336 8.631478 11.772633 37.044816 -0.248283 1.247394 0.198745 -0.038096 -446269.000000 0 0 1
-33.030523 9.317978 10.841433 35.991344 -0.274957 1.264821 0.220858 -0.038058 -244468.000000 0 0 1
-33.335973 10.619878 10.462833 36.517664 -0.308406 1.280210 0.186884 -0.018423 -403673.000000 0 0 1
-32.383983 11.264278 9.657233 35.621180 -0.334745 1.296251 0.198186 -0.038530 -289004.000000 0 0 1
-32.666903 12.751278 9.367533 36.297001 -0.372153 1.309762 0.155617 -0.016985 206270.000000 0 0 1
-31.895363 13.344078 8.313633 35.559740 -0.396242 1.334819 0.174637 -0.023122 71000.300000 0 0 1
-31.992393 14.760378 8.359833 36.211445 -0.432270 1.337833 0.153548 -0.013856 -219735.000000 0 0 1
-31.047613 15.516078 7.416933 35.492448 -0.463448 1.360273 0.170639 -0.017176 431309.000000 0 0 1
-29.692133 15.549978 7.852133 34.424999 -0.482433 1.340677 0.214315 -0.014362 463451.000000 0 0 1
-28.761753 16.290178 7.085133 33.805435 -0.515335 1.359645 0.209919 -0.043842 1034370.000000 0 0 1
-27.287523 16.150378 7.631133 32.614074 -0.534412 1.334624 0.215156 -0.029964 704184.000000 0 0 1
-27.066833 16.744278 8.876033 33.041916 -0.554003 1.298826 0.199635 -0.028545 51636.100000 0 0 1
-26.867753 18.155078 8.907233 33.627694 -0.594244 1.302719 0.190357 -0.042507 -193721.000000 0 0 1
-27.023983 18.641078 10.332233 34.417154 -0.603846 1.265888 0.200597 -0.013897 366210.000000 0 0 1
-25.848043 18.345278 11.082833 33.578263 -0.617230 1.234429 0.180789 -0.014348 539005.000000 0 0 1
-25.955893 18.847578 12.438333 34.404239 -0.628054 1.200883 0.196849 -0.018780 -173905.000000 0 0 1
-26.568863 17.872378 13.494633 34.748115 -0.592155 1.171950 0.154213 -0.006652 90532.000000 0 0 1
-25.720413 16.799478 13.895533 33.717176 -0.578592 1.146016 0.158388 -0.021637 461748.000000 0 0 1
-26.293243 15.992178 14.950333 34.213986 -0.546445 1.118574 0.131153 -0.022872 -208177.000000 0 0 1
-25.260913 14.954178 15.375133 33.138133 -0.534508 1.088324 0.141310 -0.015049 191431.000000 0 0 1
-24.186113 15.558978 16.075233 32.946365 -0.571652 1.061090 0.125286 -0.006681 595305.000000 0 0 1
-22.981813 14.820678 16.313033 31.842287 -0.572773 1.032927 0.113067 -0.026515 524449.000000 0 0 1
-23.014813 13.856578 17.494333 32.058354 -0.541942 0.993569 0.111694 -0.012573 -366572.000000 0 0 1
-22.924113 14.432778 18.812533 32.980773 -0.561893 0.963793 0.099916 -0.012112 -992.493000 0 0 1
-23.079813 13.489978 19.831133 33.285599 -0.528939 0.932551 0.087566 -0.011748 -547071.000000 0 0 1
-22.851213 13.924578 21.318533 34.213325 -0.547272 0.898089 0.087209 -0.006378 1172800.000000 0 0 1
-21.459513 14.081078 21.680733 33.598238 -0.580700 0.869389 0.111647 -0.017704 858289.000000 0 0 1
-20.973213 15.378078 21.446333 33.709140 -0.632678 0.881211 0.113737 -0.003631 -603140.000000 0 0 1
-19.534813 15.634778 21.945633 33.281616 -0.674957 0.850787 0.116782 -0.017894 67617.400000 0 0 1
-18.578113 14.981778 21.151833 31.890437 -0.678644 0.845622 0.102626 -0.012521 -307299.000000 0 0 1
-17.967213 15.783978 20.175333 31.288956 -0.720802 0.870026 0.100034 -0.024056 -1026960.000000 0 0 1
-16.751713 15.086478 19.490933 29.801311 -0.733143 0.857898 0.103369 -0.010616 498443.000000 0 0 1
-15.671313 14.746378 20.323533 29.598846 -0.755000 0.813949 0.103951 -0.009349 274911.000000 0 0 1
-14.963413 15.831878 20.987133 30.249162 -0.813592 0.804032 0.083651 -0.009147 -139186.000000 0 0 1
-13.847313 15.419378 22.015533 30.235558 -0.839062 0.755201 0.075227 -0.017125 1581210.000000 0 0 1
-12.665513 14.869878 21.348033 28.935566 -0.865283 0.741023 0.061152 -0.001752 727093.000000 0 0 1
-11.762013 14.313278 22.257433 28.958732 -0.882930 0.694160 0.044061 -0.005057 395909.000000 0 0 1
-10.423713 13.771078 21.672633 27.712802 -0.922876 0.672857 0.054019 -0.002252 118087.000000 0 0 1
-9.720613 12.837578 22.539143 27.700301 -0.922703 0.620344 0.050992 -0.009504 1396840.000000 0 0 1
-8.463413 12.254078 22.138533 26.681574 -0.966366 0.592171 0.052829 0.001988 1996070.000000 0 0 1
-7.234013 13.253778 21.958433 26.648946 -1.071178 0.602381 0.049688 0.003308 221953.000000 0 0 1
-7.387013 14.106578 20.828533 26.218148 -1.088402 0.652725 0.040351 -0.000123 297069.000000 0 0 1
-6.654013 15.350478 21.080233 26.912623 -1.161771 0.670865 0.041096 0.003702 29927.100000 0 0 1
-7.447513 16.440478 21.866033 28.352745 -1.145452 0.690050 0.050164 0.009602 191362.000000 0 0 1
-8.573513 16.921078 21.157933 28.416300 -1.101822 0.730905 0.012649 -0.000224 -341928.000000 0 0 1
-8.308513 17.678878 19.989033 27.948802 -1.131461 0.773884 0.031838 -0.012277 -1438000.000000 0 0 1
-9.496813 17.714878 19.013333 27.667909 -1.078693 0.813171 0.043966 -0.014408 194937.000000 0 0 1
-10.592413 18.546578 19.313133 28.795344 -1.051879 0.835640 0.024835 -0.014613 -252601.000000 0 0 1
-11.448813 18.030578 20.293133 29.461641 -1.005062 0.810966 0.029257 -0.003406 -810855.000000 0 0 1
-12.726413 18.889978 20.478333 30.629315 -0.977932 0.838491 0.024060 -0.008395 53979.600000 0 0 1
-13.571913 18.863278 19.358833 30.245404 -0.947110 0.876222 0.028272 -0.007360 -1238380.000000 0 0 1
-14.791813 19.400278 19.677133 31.342592 -0.919372 0.892062 0.016713 -0.008430 -205849.000000 0 0 1
-15.829813 19.382878 18.450733 31.091936 -0.885961 0.935489 0.045162 -0.003694 767676.000000 0 0 1
-16.352413 18.107978 18.049233 30.349219 -0.836299 0.933881 0.061769 -0.001935 2424.580000 0 0 1
-17.188613 18.364578 16.950233 30.331774 -0.818462 0.977825 0.081399 -0.020028 -817786.000000 0 0 1
-17.773713 17.066378 16.294733 29.541233 -0.765099 0.986524 0.084614 -0.025318 975659.000000 0 0 1
-18.755213 16.378478 17.131733 30.224308 -0.717853 0.968156 0.096199 -0.020982 531981.000000 0 0 1
-20.020713 17.006878 17.102133 31.345586 -0.704183 0.993692 0.113741 -0.022895 -561811.000000 0 0 1
36.165631 -9.078722 11.342168 38.974617 -0.245950 1.275510 0.108039 -0.043494 -957827.000000 0 0 1
34.883161 -9.559322 11.121468 37.840489 -0.267472 1.272488 0.094007 -0.034357 -544034.000000 0 0 1
34.747561 -10.725322 11.946868 38.277319 -0.299386 1.253379 0.078376 -0.025341 -219987.000000 0 0 1
33.296251 -11.191022 12.040768 37.132996 -0.324243 1.240566 0.119023 -0.016277 -221658.000000 0 0 1
32.309911 -10.307822 12.533468 36.156180 -0.308823 1.216801 0.127516 -0.014564 992477.000000 0 0 1
30.982101 -10.811822 12.731668 35.197747 -0.335757 1.200686 0.136507 -0.015992 885026.000000 0 0 1
30.736901 -11.644322 14.003068 35.727205 -0.362132 1.168052 0.130834 -0.003157 -868383.000000 0 0 1
30.603201 -10.921822 15.205968 35.875668 -0.342795 1.133102 0.150861 -0.006061 595636.000000 0 0 1
29.655301 -11.518722 16.107468 35.659057 -0.370484 1.102118 0.162459 -0.016505 750509.000000 0 0 1
28.153601 -11.216822 15.893368 34.220483 -0.379139 1.087794 0.169726 -0.038998 7203.530000 0 0 1
27.741801 -9.862322 16.045268 33.530934 -0.341570 1.071826 0.164411 -0.035337 22334.500000 0 0 1
26.655601 -9.477522 15.199668 32.115018 -0.341615 1.077776 0.179655 -0.040016 519658.000000 0 0 1
26.316901 -8.003122 15.610068 31.627574 -0.295219 1.054619 0.182828 -0.037008 -291582.000000 0 0 1
27.381001 -7.138322 15.357868 32.195325 -0.255027 1.073533 0.176832 -0.033698 -603592.000000 0 0 1
27.304301 -5.904322 15.975868 32.180960 -0.212962 1.051305 0.160833 -0.032725 169848.000000 0 0 1
28.612301 -5.075222 15.900968 33.124951 -0.175553 1.070108 0.173951 -0.031022 228013.000000 0 0 1
28.968901 -4.689322 14.562668 32.760620 -0.160482 1.110161 0.181045 -0.034964 112231.000000 0 0 1
30.106601 -3.835022 14.559268 33.661359 -0.126699 1.123509 0.182801 -0.030423 300135.000000 0 0 1
30.432401 -3.333322 13.144768 33.317067 -0.109097 1.165234 0.174956 -0.036475 -33631.200000 0 0 1
30.796801 -4.345622 12.262268 33.431879 -0.140181 1.195247 0.158565 -0.039605 181600.000000 0 0 1
30.978501 -3.817622 10.920268 33.068021 -0.122616 1.234242 0.172462 -0.049194 -158076.000000 0 0 1
31.551471 -4.800622 9.948668 33.429287 -0.150994 1.268615 0.160123 -0.047076 82304.000000 0 0 1
32.955161 -4.990822 9.970068 34.790130 -0.150301 1.280144 0.176442 -0.050585 346499.000000 0 0 1
33.371871 -5.801322 8.900368 35.022188 -0.172119 1.313843 0.166847 -0.055122 387329.000000 0 0 1
34.809431 -6.402522 8.990768 36.517429 -0.181898 1.322034 0.157813 -0.050617 497935.000000 0 0 1
35.871961 -5.516222 8.740168 37.331177 -0.152580 1.334478 0.151647 -0.051248 -333481.000000 0 0 1
37.060231 -6.210422 8.464068 38.518443 -0.166034 1.349248 0.153624 -0.071652 228343.000000 0 0 1
-37.916933 -5.256622 8.266068 39.161892 0.137757 1.358122 0.161164 -0.062768 349227.000000 0 0 1
-37.904063 -4.671022 6.995668 38.826226 0.122615 1.389628 0.153873 -0.061372 -178673.000000 0 0 1
-36.688303 -4.020522 6.729068 37.516350 0.109150 1.390457 0.185261 -0.041664 38170.700000 0 0 1
-36.669213 -3.413022 5.326568 37.210915 0.092809 1.427158 0.177453 -0.053023 8010.410000 0 0 1
-36.524783 -4.390022 4.329068 37.041502 0.119619 1.453658 0.197630 -0.071545 13842.400000 0 0 1
-36.466603 -3.831522 2.995568 36.789497 0.104685 1.489282 0.204640 -0.066398 -279541.000000 0 0 1
-35.848798 -4.749422 1.914368 36.212679 0.131718 1.517907 0.313151 -0.075733 93262.000000 0 0 1
-36.614203 -5.894222 1.583468 37.119390 0.159612 1.528125 0.263253 -0.063135 916143.000000 0 0 1
-37.494423 -5.797722 0.399068 37.942122 0.153414 1.560278 0.209495 -0.052089 245668.000000 0 0 1
-36.652353 -5.804922 -0.941432 37.121131 0.157073 1.596160 0.294028 -0.058560 -25723.100000 0 0 1
-35.891487 -7.027422 -1.047832 36.587996 0.193350 1.599439 0.291442 -0.075006 1227110.000000 0 0 1
-34.784585 -6.969222 -1.972732 35.530678 0.197736 1.626347 0.279289 -0.072575 1139400.000000 0 0 1
-33.569313 -6.009522 -1.713332 34.145990 0.177142 1.620994 0.275793 -0.076958 179164.000000 0 0 1
-32.662943 -6.585322 -0.770932 33.329096 0.198947 1.593929 0.282617 -0.066502 879433.000000 0 0 1
-31.354063 -5.976422 -0.769532 31.927842 0.188351 1.594901 0.292345 -0.071986 1249850.000000 0 0 1
-30.424953 -6.778222 0.211468 31.171570 0.219205 1.564012 0.258270 -0.058515 20149.100000 0 0 1
-30.017283 -8.025822 -0.300432 31.073161 0.261262 1.580465 0.242572 -0.034218 365295.000000 0 0 1
-29.125433 -8.732422 0.547768 30.411282 0.291293 1.552783 0.275782 -0.045886 93801.500000 0 0 1
-28.783833 -10.170822 0.015668 30.527937 0.339658 1.570283 0.209842 -0.030776 -26048.600000 0 0 1
-27.765423 -10.199722 -0.975732 29.595694 0.352050 1.603771 0.197523 -0.031164 181752.000000 0 0 1
-27.396903 -11.502922 -1.374232 29.745521 0.397511 1.617012 0.158586 -0.012691 -72263.000000 0 0 1
-28.344033 -12.401822 -2.229432 31.018700 0.412449 1.642732 0.148673 -0.013914 325345.000000 0 0 1
-29.463143 -13.009222 -1.571632 32.245723 0.415798 1.619555 0.197395 -0.029355 1068250.000000 0 0 1
-30.111893 -13.960922 -2.441632 33.280550 0.434135 1.644227 0.150804 -0.016350 416244.000000 0 0 1
-31.269553 -14.784422 -1.766332 34.633568 0.441656 1.621819 0.187336 -0.021978 369755.000000 0 0 1
-30.726563 -15.378022 -0.618332 34.365500 0.464031 1.588790 0.154810 -0.017828 322705.000000 0 0 1
-31.681563 -15.990622 0.209468 35.488946 0.467424 1.564894 0.168522 -0.021347 -154589.000000 0 0 1
-32.036393 -17.442722 -0.107232 36.477260 0.498584 1.573736 0.163076 -0.023118 -135512.000000 0 0 1
-31.088223 -18.374222 0.366868 36.114045 0.533801 1.560638 0.203416 -0.035529 226646.000000 0 0 1
-31.383893 -19.751322 0.107768 37.082005 0.561718 1.567890 0.168225 -0.028443 -156604.000000 0 0 1
-32.371113 -20.485522 1.026168 38.322299 0.564213 1.544016 0.139196 -0.026734 -250925.000000 0 0 1
-31.731463 -20.935622 2.187668 38.078497 0.583216 1.513313 0.138343 -0.030012 415705.000000 0 0 1
-32.700133 -21.369122 3.129568 39.188420 0.578823 1.490852 0.102700 -0.024745 154346.000000 0 0 1
-31.977643 -21.827922 4.373468 38.963509 0.598952 1.458314 0.098620 -0.022549 54024.500000 0 0 1
-31.565813 -20.677122 5.123968 38.081478 0.579916 1.435834 0.087063 -0.022731 -180003.000000 0 0 1
-30.896373 -20.929122 6.308368 37.847186 0.595395 1.403335 0.093902 -0.027102 -268823.000000 0 0 1
-30.214623 -19.640922 6.725768 36.659586 0.576408 1.386286 0.112072 -0.025826 -301646.000000 0 0 1
-29.377083 -19.728322 7.840768 36.244963 0.591379 1.352745 0.099552 -0.032126 -343432.000000 0 0 1
-28.577013 -18.577122 7.926468 34.994057 0.576426 1.342304 0.136340 -0.036670 602114.000000 0 0 1
-27.447293 -18.698022 9.009468 34.411342 0.598020 1.305892 0.162893 -0.034112 393902.000000 0 0 1
-28.056623 -18.772022 10.251468 35.279675 0.589669 1.275966 0.139575 -0.038455 358245.000000 0 0 1
-27.123923 -19.061422 11.307868 35.027316 0.612571 1.242078 0.129138 -0.023053 359975.000000 0 0 1
-26.493023 -17.867822 12.057068 34.154241 0.593361 1.210001 0.122219 -0.031617 -452889.000000 0 0 1
-25.627083 -17.020922 11.304468 32.775756 0.586277 1.218661 0.127863 -0.033124 453741.000000 0 0 1
-25.119783 -15.888822 12.071168 32.080699 0.563990 1.185024 0.122065 -0.025808 375779.000000 0 0 1
-24.188113 -16.197022 13.293168 32.001822 0.590050 1.142427 0.097979 -0.021241 -531850.000000 0 0 1
-24.781613 -16.768422 14.456968 33.231194 0.594881 1.120711 0.099132 -0.034209 -293063.000000 0 0 1
-24.001313 -16.717122 15.614068 33.156060 0.608379 1.080456 0.103166 -0.036268 -127823.000000 0 0 1
-24.713613 -17.442622 16.786768 34.594845 0.614601 1.064160 0.089661 -0.016146 278906.000000 0 0 1
-25.814233 -16.724922 17.320668 35.300186 0.574894 1.057940 0.091014 -0.014343 -10579.300000 0 0 1
-26.556553 -17.604722 18.120168 36.654020 0.585400 1.053701 0.084065 -0.004348 -559289.000000 0 0 1
-27.655713 -16.902022 18.885868 37.512569 0.548584 1.043204 0.090981 0.001157 -710297.000000 0 0 1
-27.081513 -16.148522 19.927268 37.299854 0.537689 1.007182 0.082321 -0.003998 707692.000000 0 0 1
-28.007183 -15.282922 20.640768 38.000149 0.499519 0.996581 0.088717 -0.009938 233608.000000 0 0 1
-27.360383 -14.552722 21.799668 37.889283 0.488833 0.957762 0.090583 -0.016227 162269.000000 0 0 1
-26.263133 -13.780822 21.314868 36.523784 0.483228 0.947655 0.088366 -0.013162 648077.000000 0 0 1
-25.356083 -13.365022 22.356568 36.350665 0.485087 0.908379 0.080748 -0.015621 -96106.900000 0 0 1
-24.116913 -12.693522 21.806868 34.904018 0.484491 0.895964 0.080169 -0.008313 -639262.000000 0 0 1
-24.390513 -11.526622 21.087768 34.241117 0.441477 0.907318 0.095538 -0.008622 -10336.300000 0 0 1
-23.184713 -10.998622 20.609268 32.912650 0.442951 0.894151 0.102147 -0.008972 -327816.000000 0 0 1
-22.735013 -9.643522 21.232068 32.568068 0.401168 0.860671 0.118196 -0.010318 27743.300000 0 0 1
-22.311613 -9.708722 22.599468 33.208482 0.410430 0.822307 0.126196 -0.022813 694900.000000 0 0 1
-20.882713 -9.753222 22.645268 32.311317 0.436940 0.794213 0.082490 -0.015322 518482.000000 0 0 1
-20.288213 -9.730922 24.069568 32.949150 0.447223 0.751733 0.087423 -0.014039 78774.300000 0 0 1
-20.639713 -10.860222 24.815168 34.054878 0.484372 0.754401 0.095633 -0.016896 -59410.900000 0 0 1
-19.984113 -10.908522 26.093868 34.630197 0.499659 0.717426 0.097223 -0.017711 -808205.000000 0 0 1
-20.184513 -12.177922 26.996268 35.840128 0.542864 0.717820 0.093492 -0.037466 -303102.000000 0 0 1
-21.440413 -12.339322 27.565368 37.037814 0.522223 0.731386 0.089173 -0.029223 -502581.000000 0 0 1
-22.529113 -12.578322 26.655468 37.098370 0.509204 0.769142 0.082360 -0.028616 205437.000000 0 0 1
-23.764913 -13.117022 27.427268 38.588630 0.504338 0.780218 0.065956 -0.028635 62481.000000 0 0 1
-23.577813 -14.401522 27.976068 39.318920 0.548329 0.779142 0.057844 -0.029490 -86723.800000 0 0 1
-22.799413 -14.470322 29.202068 39.773914 0.565530 0.746306 0.049823 -0.027506 -118461.000000 0 0 1
-23.246213 -15.318322 30.296768 41.145249 0.582648 0.743156 0.041337 -0.027743 -966724.000000 0 0 1
-23.071113 -16.705622 30.068568 41.418267 0.626713 0.758347 0.044270 -0.024570 -120157.000000 0 0 1
-23.486413 -17.538322 31.141568 42.766828 0.641414 0.755147 0.045965 -0.020934 -131801.000000 0 0 1
-24.985763 -17.707122 31.445568 43.893670 0.616533 0.772163 0.071079 -0.028256 -395293.000000 0 0 1
-25.479493 -16.622522 32.157868 44.267835 0.578052 0.757671 0.085966 -0.036021 292441.000000 0 0 1
-26.832683 -16.917922 32.551168 45.450935 0.562542 0.772479 0.091305 -0.035415 583638.000000 0 0 1
-27.516923 -15.803722 33.382068 46.057585 0.521329 0.760067 0.093909 -0.032392 35764.400000 0 0 1
-27.052673 -15.738522 -32.680997 45.250368 0.526910 2.377812 0.114153 -0.031793 49781.600000 0 0 1
-27.708723 -14.668822 -32.015497 44.810041 0.486885 2.366665 0.104217 -0.026026 135371.000000 0 0 1
-27.084373 -14.372022 -30.602897 43.320383 0.487857 2.355240 0.084953 -0.012354 110094.000000 0 0 1
-27.736433 -15.194822 -29.640797 43.344771 0.501175 2.323806 0.091963 -0.000562 400358.000000 0 0 1
-27.098693 -15.098222 -28.372797 42.039399 0.508321 2.311639 0.090893 0.007957 489475.000000 0 0 1
-28.098213 -15.464022 -27.212797 42.061644 0.503117 2.274406 0.096452 0.007988 847407.000000 0 0 1
-29.006693 -14.430622 -26.770897 42.027515 0.461640 2.261377 0.126199 0.003209 826834.000000 0 0 1
-28.366673 -13.311522 -26.109097 40.786637 0.438760 2.265475 0.113125 -0.002053 -33280.900000 0 0 1
-27.509013 -13.551822 -24.843597 39.466467 0.457736 2.251688 0.106905 -0.005816 345119.000000 0 0 1
-26.248683 -14.111622 -25.180097 39.014978 0.493283 2.272337 0.072935 -0.016025 157311.000000 0 0 1
-25.459183 -14.326222 -24.009397 37.813514 0.512552 2.258730 0.065188 -0.014536 36047.300000 0 0 1
-24.681213 -15.648822 -24.093397 37.875318 0.565072 2.260261 0.060266 -0.000262 -263894.000000 0 0 1
-23.661113 -15.653322 -25.063497 37.855695 0.584461 2.294387 0.066318 -0.002845 -212316.000000 0 0 1
-23.196813 -16.966722 -25.083797 38.146542 0.631507 2.288377 0.083784 -0.008336 -410674.000000 0 0 1
-22.375413 -17.387722 -26.298397 38.660027 0.660615 2.318897 0.072760 -0.008646 125571.000000 0 0 1
-23.064813 -17.390022 -27.573497 39.933648 0.646033 2.332953 0.081768 -0.013738 339646.000000 0 0 1
-24.161713 -18.292922 -27.618797 41.002650 0.648032 2.309846 0.099989 -0.017181 126193.000000 0 0 1
-24.988923 -18.113322 -28.923997 42.298184 0.627213 2.323770 0.098032 -0.013052 -66457.000000 0 0 1
-24.247513 -18.558022 -30.033897 42.829628 0.653258 2.347933 0.098684 -0.019025 56661.900000 0 0 1
-24.950293 -18.411222 -31.237797 44.014659 0.635722 2.359888 0.080317 -0.015110 -159450.000000 0 0 1
-24.101513 -18.709622 -32.532697 44.601674 0.660112 2.388249 0.081112 -0.023963 106800.000000 0 0 1
-22.931813 -17.916622 -32.667297 43.749580 0.663234 2.413866 0.070323 -0.018942 1554000.000000 0 0 1
-21.652313 -18.323922 -32.089097 42.828716 0.702331 2.417714 0.075419 -0.027379 1482830.000000 0 0 1
-21.045013 -19.494422 -32.953497 43.690480 0.747168 2.425306 0.068760 -0.027828 -737131.000000 0 0 1
-20.631913 -19.044322 33.143568 43.437980 0.745406 0.702841 0.063103 -0.029080 -157354.000000 0 0 1
-20.413713 -20.191422 32.324568 43.235297 0.779924 0.726291 0.059969 -0.024892 66925.000000 0 0 1
-21.573513 -20.984422 31.628968 43.659524 0.771557 0.760566 0.062935 -0.024587 377449.000000 0 0 1
-22.446813 -21.665722 32.545468 45.082928 0.767693 0.764249 0.059185 -0.015601 -14817.600000 0 0 1
-23.621213 -22.200222 31.987668 45.541436 0.754397 0.792052 0.059733 -0.010445 -88870.400000 0 0 1
-23.475513 -23.383522 31.004368 45.377964 0.783435 0.818596 0.071668 -0.009538 -514094.000000 0 0 1
-23.017013 -24.640122 31.504468 46.145964 0.819443 0.819327 0.073883 -0.001625 -69968.100000 0 0 1
-23.010613 -25.569162 30.476268 45.957298 0.838017 0.845786 0.089789 0.003004 252545.000000 0 0 1
-22.494013 -26.951572 30.976968 46.818163 0.875306 0.847787 0.100567 -0.009808 -409869.000000 0 0 1
-23.419213 -27.347802 31.915968 48.114351 0.862629 0.845529 0.101481 -0.009218 -554287.000000 0 0 1
-23.091913 -28.484442 32.675568 49.115095 0.889574 0.842920 0.109912 -0.018022 -1132090.000000 0 0 1
-24.233013 -29.156482 33.407668 50.531293 0.877356 0.848475 0.108580 -0.008123 -1214290.000000 0 0 1
-25.216703 -29.703362 32.579768 50.789892 0.866911 0.874394 0.091066 -0.013392 182432.000000 0 0 1
-26.380713 -28.929592 32.346768 50.785595 0.831449 0.880289 0.084930 -0.010148 289342.000000 0 0 1
-27.357283 -28.611322 33.520568 51.871545 0.807801 0.868172 0.068213 -0.012288 -701709.000000 0 0 1
-28.407603 -27.766572 33.167868 51.750187 0.773987 0.875097 0.057354 -0.008669 -178002.000000 0 0 1
-29.312403 -27.517362 -33.170997 52.122330 0.753822 2.260627 0.054431 -0.005009 283115.000000 0 0 1
-30.578743 -26.724212 -33.600797 52.709170 0.718234 2.262013 0.040384 -0.014414 221195.000000 0 0 1
-31.497043 -27.496982 33.042068 53.290956 0.717697 0.902014 0.032603 -0.019918 762985.000000 0 0 1
-32.652513 -26.702872 32.634868 53.331647 0.685494 0.912307 0.037439 -0.028682 1074600.000000 0 0 1
