# x y z rho theta phi s1 s2 stress_xx np intf bulk
-0.663366 -10.660500 -14.386171 17.917818 1.508650 2.502936 0.006793 0.000050 428837.000000 1 0 0
2.300234 -13.416300 -13.025571 18.840214 -1.400997 2.334181 0.008405 0.001642 -871525.000000 1 0 0
2.229734 -11.228200 -14.737171 18.660878 -1.374763 2.481175 0.006260 0.003212 -661484.000000 1 0 0
-5.566266 -6.331100 -16.389571 18.430523 0.849596 2.666526 0.024203 -0.005518 -932001.000000 1 0 0
4.591934 -14.147600 -11.467271 18.781340 -1.256950 2.227573 -0.000368 0.002064 1253810.000000 1 0 0
14.090134 -10.563500 -7.841771 19.277260 -0.643315 1.989732 0.038877 -0.016035 -591963.000000 1 0 0
6.984134 10.900600 -10.785871 16.850407 1.000979 2.265419 0.029448 -0.013249 -1217050.000000 1 0 0
5.794834 -4.267200 -12.650671 14.554331 -0.634727 2.624385 -0.001384 0.000864 2689090.000000 1 0 0
13.706434 0.576200 -10.009771 16.982163 0.042014 2.201148 0.039098 -0.004160 2736150.000000 1 0 0
14.046834 4.988500 -10.319471 18.129814 0.341241 2.176328 0.029779 -0.006580 -26187.700000 1 0 0
4.026534 4.283100 -13.569371 14.788027 0.816264 2.732776 0.011447 0.000778 2552330.000000 1 0 0
10.270934 -5.028100 -13.629671 17.791621 -0.455250 2.443504 0.031064 -0.004549 -1618770.000000 1 0 0
2.624734 -7.603700 -11.962471 14.415484 -1.238411 2.549608 -0.007549 0.005921 2768200.000000 1 0 0
-5.590566 -2.066200 -15.238071 16.362225 0.354016 2.768750 0.016120 -0.004280 -725787.000000 1 0 0
10.634634 0.208600 -9.647971 14.360442 0.019613 2.307491 0.013261 0.000600 1911540.000000 1 0 0
-1.625466 -9.474300 -16.893171 19.436659 1.400885 2.624256 0.017060 -0.009299 872951.000000 1 0 0
8.662334 1.525300 -17.890471 19.935684 0.174297 2.684659 0.040284 -0.008037 -415750.000000 1 0 0
16.456034 -6.025700 -8.807771 19.613438 -0.351007 2.036518 0.095837 -0.005623 -919098.000000 1 0 0
10.032934 7.645600 -10.004771 16.100013 0.651169 2.241342 0.030313 -0.003507 900327.000000 1 0 0
13.745634 -2.266900 -10.575671 17.490743 -0.163447 2.220115 0.051641 -0.007093 -637343.000000 1 0 0
7.232534 -1.858400 -13.635871 15.546709 -0.251509 2.640567 0.009910 -0.004672 597251.000000 1 0 0
-2.955066 6.622800 -13.931371 15.705954 -1.151110 2.661630 0.013083 -0.002149 1127210.000000 1 0 0
11.257434 1.768700 -13.932871 17.999528 0.155840 2.456039 0.026429 -0.002937 545492.000000 1 0 0
-2.405466 10.645500 -12.980271 16.958784 -1.348568 2.442461 0.006914 -0.000868 -1598160.000000 1 0 0
2.887634 -1.143900 -15.170571 15.485256 -0.377172 2.939648 0.011557 -0.002748 -517261.000000 1 0 0
-9.119366 0.492500 -15.165471 17.703019 -0.053954 2.599557 0.013291 0.002181 -328349.000000 1 0 0
2.375834 -1.721700 -18.038471 18.275537 -0.627093 2.980348 0.025084 -0.011238 1516590.000000 1 0 0
0.962334 7.851900 -13.211171 15.398489 1.448844 2.602067 0.008007 -0.002059 -94129.400000 1 0 0
9.309234 -9.093800 -9.766171 16.270744 -0.773692 2.214584 0.018524 -0.003399 -1015110.000000 1 0 0
3.908734 7.251800 -13.615171 15.913506 1.076436 2.597454 0.009632 -0.000479 3716440.000000 1 0 0
-2.786866 9.100100 -15.598971 18.273104 -1.273619 2.593764 0.007035 -0.002049 1221820.000000 1 0 0
5.521534 -7.810200 -15.178671 17.940975 -0.955411 2.579298 0.019300 -0.005195 805636.000000 1 0 0
4.278534 7.122600 -16.504671 18.478134 1.029864 2.675209 0.017048 0.000925 820004.000000 1 0 0
-0.334566 5.028400 -13.501571 14.411424 -1.504359 2.784353 0.015579 -0.005697 2750950.000000 1 0 0
8.887134 4.140700 -16.610871 19.288535 0.436014 2.608380 0.038877 -0.009522 727761.000000 1 0 0
5.298034 0.275000 -14.365971 15.314239 0.051860 2.787840 0.003033 0.001608 84562.600000 1 0 0
6.223334 7.948100 -11.606071 15.381907 0.906510 2.425730 0.010097 -0.000259 275745.000000 1 0 0
2.720534 -8.375300 -15.003871 17.397215 -1.256720 2.610846 0.007851 -0.004035 78339.800000 1 0 0
3.942434 11.411900 -13.851671 18.375066 1.238166 2.424668 0.018583 -0.011734 -246837.000000 1 0 0
0.645834 -4.546500 -13.733871 14.481263 -1.429690 2.818913 0.007586 0.000644 1110620.000000 1 0 0
8.476634 -0.031800 -11.611571 14.376471 -0.003751 2.511001 0.002675 0.000339 -301822.000000 1 0 0
-0.879466 -4.995900 -16.258471 17.031452 1.396544 2.839159 0.006459 -0.010530 988530.000000 1 0 0
4.444834 0.905100 -11.674671 12.524923 0.200883 2.771006 0.003165 -0.002064 230711.000000 1 0 0
-2.844666 -7.154200 -15.535371 17.338467 1.192342 2.681488 0.006998 -0.003816 3272160.000000 1 0 0
11.329434 -3.751000 -11.270071 16.414645 -0.319725 2.327580 0.021434 -0.001886 198915.000000 1 0 0
6.545634 -7.105400 -12.495071 15.794265 -0.826381 2.483425 0.011036 0.001591 -1841120.000000 1 0 0
3.486634 -4.006700 -14.632971 15.567084 -0.854691 2.793410 0.008855 -0.003700 3140170.000000 1 0 0
-0.571066 -1.500700 -18.412171 18.482052 1.207184 3.054605 0.022271 -0.015047 188215.000000 1 0 0
14.856834 2.918000 -8.403371 17.316376 0.193939 2.077485 0.022537 -0.005840 -1564480.000000 1 0 0
6.962234 4.401600 -14.345671 16.542220 0.563768 2.620379 0.013548 0.002654 2263640.000000 1 0 0
10.123034 -9.593000 -14.030171 19.782496 -0.758521 2.359190 0.046083 -0.009504 -118887.000000 1 0 0
9.032634 -3.329500 -15.527871 18.269888 -0.353155 2.586622 0.043269 -0.013570 1289910.000000 1 0 0
-5.246166 -2.171600 -18.120171 18.988910 0.392466 2.837938 0.012858 0.002129 -769156.000000 1 0 0
5.065734 -9.123700 -10.981571 15.149206 -1.063948 2.381677 -0.009865 0.004953 1504700.000000 1 0 0
-2.592966 4.016700 -17.146571 17.800625 -0.997558 2.869671 0.021303 -0.004321 2956650.000000 1 0 0
9.470834 9.483000 -14.417771 19.684921 0.786040 2.392676 0.066464 -0.012966 -2118250.000000 1 0 0
9.714434 10.138400 -11.572071 18.195335 0.806750 2.260088 0.043031 -0.015073 80298.200000 1 0 0
11.950134 -5.965200 -9.590571 16.442882 -0.462987 2.193540 0.030819 -0.004158 735945.000000 1 0 0
8.112134 7.018400 -13.738871 17.430468 0.713237 2.478691 0.017678 0.001643 80719.600000 1 0 0
4.070634 -4.056800 -17.552071 18.468970 -0.783696 2.825170 0.035298 -0.015458 -543550.000000 1 0 0
9.348134 -7.514600 -12.271571 17.159495 -0.677091 2.367631 0.027926 -0.006493 937871.000000 1 0 0
12.005534 -8.651400 -8.810471 17.222194 -0.624430 2.107815 0.037548 -0.012994 727604.000000 1 0 0
-2.940366 -2.486900 -13.939471 14.461648 0.702038 2.872048 0.008011 -0.004631 -1003580.000000 1 0 0
-0.355166 6.057700 -17.673771 18.686467 -1.512233 2.810864 0.023147 -0.006361 1601390.000000 1 0 0
1.086434 -8.487500 -17.486471 19.467785 -1.443485 2.686513 0.021901 -0.008767 1533760.000000 1 0 0
-0.021466 8.523200 -16.031271 18.156185 -1.568278 2.652937 0.008633 -0.000787 -37365.900000 1 0 0
1.727734 3.328600 -14.989171 15.451210 1.092019 2.896426 0.023105 -0.003800 2234400.000000 1 0 0
-1.934466 -0.429900 -15.885271 16.008398 0.218678 3.017486 0.015939 -0.012080 2254820.000000 1 0 0
14.115034 -4.330000 -8.431671 17.002240 -0.297652 2.089685 0.053483 -0.000919 211018.000000 1 0 0
0.628434 0.541700 -14.609471 14.633011 0.711411 3.084863 0.015069 -0.005904 1903650.000000 1 0 0
8.826034 2.772700 -12.616471 15.644874 0.304388 2.508883 0.011000 0.003531 2338570.000000 1 0 0
5.982134 1.001700 -17.066471 18.112254 0.165909 2.800115 0.030770 -0.002408 -421405.000000 1 0 0
15.287834 1.662300 -12.404371 19.757265 0.108308 2.249569 0.075144 -0.016295 -1200770.000000 1 0 0
8.840034 -11.256400 -11.855771 18.585264 -0.905062 2.262581 0.029944 -0.004265 -238509.000000 1 0 0
-4.672466 0.771900 -15.177871 15.899545 -0.163723 2.839145 0.015998 -0.006786 2415700.000000 1 0 0
2.348234 5.057100 -17.310171 18.185997 1.136078 2.829981 0.026553 -0.003730 1120520.000000 1 0 0
6.047734 -11.728000 -12.236971 17.996236 -1.094694 2.318523 0.007088 -0.003409 -370752.000000 1 0 0
12.764934 7.191000 -8.688071 17.033397 0.513027 2.106052 0.016562 -0.007521 97110.200000 1 0 0
-5.251866 3.638500 -15.777671 17.022211 -0.605878 2.756829 0.013001 -0.004621 811211.000000 1 0 0
-0.555466 -4.451700 -19.051071 19.572160 1.446662 2.910322 0.019491 -0.016750 -1018500.000000 1 0 0
9.750834 4.529500 -10.284371 14.878287 0.434867 2.333991 0.006996 0.001084 1159170.000000 1 0 0
13.275034 3.635600 -12.854871 18.833264 0.267313 2.322059 0.052620 -0.011612 -821366.000000 1 0 0
-6.329066 5.911000 -17.302271 19.348529 -0.751256 2.677532 0.012219 0.000633 -611603.000000 1 0 0
-10.393566 3.132400 -15.388471 18.831972 -0.292721 2.527239 0.028756 0.000303 177447.000000 1 0 0
10.490434 13.737900 -8.267371 19.160598 0.918640 2.016926 0.092813 -0.022690 40001.100000 1 0 0
7.341334 13.436900 -12.306471 19.644203 1.070755 2.247810 0.061136 -0.022512 -346161.000000 1 0 0
5.227934 15.183600 -11.330871 19.653540 1.239195 2.185273 0.030810 -0.011573 -759621.000000 1 0 0
14.164134 9.650800 -9.641571 19.665211 0.598102 2.083214 0.075830 -0.025495 -1313180.000000 1 0 0
8.461134 -17.102100 -2.027271 19.188080 -1.111364 1.676646 0.031708 -0.011365 42529.500000 1 0 0
0.868334 -15.977900 0.119529 16.001924 -1.516504 1.563327 0.011909 -0.010516 3102330.000000 1 0 0
-9.104966 -11.756800 7.550029 16.677101 0.911835 1.100985 0.018380 -0.003159 424749.000000 1 0 0
2.163834 -15.839200 -2.533071 16.185761 -1.435024 1.727942 0.015559 -0.009366 2690020.000000 1 0 0
-1.162566 -10.988900 -9.406671 14.511820 1.465394 2.276024 -0.000097 0.000411 395965.000000 1 0 0
-4.595766 -12.534700 -12.970271 18.613642 1.219372 2.341744 0.039073 -0.006774 808111.000000 1 0 0
-8.297366 -17.952300 -1.578971 19.839972 1.137852 1.650466 0.041162 -0.016705 -1166100.000000 1 0 0
-11.383666 -7.132600 -8.884271 16.105654 0.559723 2.155107 0.033398 -0.009074 3709220.000000 1 0 0
-13.611466 -11.619200 -4.750171 18.515991 0.706600 1.830241 0.047336 -0.004515 -209037.000000 1 0 0
-5.610366 -13.457400 9.701329 17.512670 1.175808 0.983682 0.017531 -0.008124 -255360.000000 1 0 0
0.221034 -13.946000 -3.615871 14.408827 -1.554948 1.824456 0.009729 -0.005397 -572933.000000 1 0 0
-14.668266 -11.595000 1.819729 18.785991 0.668910 1.473778 0.007096 0.002258 1516680.000000 1 0 0
-3.959466 -16.427900 -7.423871 18.457170 1.334286 1.984738 0.023421 -0.011900 523048.000000 1 0 0
0.645034 -15.174600 -9.211471 17.763326 -1.528314 2.115970 0.008823 -0.008228 -427886.000000 1 0 0
4.655834 -14.215300 -2.533571 15.171372 -1.254284 1.738579 0.013609 -0.005290 726826.000000 1 0 0
-3.406066 -17.987000 -2.364171 18.458677 1.383650 1.699228 0.027897 -0.020190 1622020.000000 1 0 0
-0.854066 -13.443300 0.712429 13.489229 1.507351 1.517957 0.012965 -0.005090 2051620.000000 1 0 0
-8.343866 -11.344600 -10.540071 17.590143 0.936645 2.213302 0.047380 -0.013925 1839660.000000 1 0 0
-3.640066 -14.106900 -0.362071 14.573462 1.318270 1.595643 0.008992 -0.003696 5044550.000000 1 0 0
-1.503266 -14.874300 -7.270971 16.624428 1.470074 2.023465 0.008838 -0.005526 826821.000000 1 0 0
-14.170866 -7.989700 -1.878871 16.376169 0.513385 1.685782 0.018011 -0.003294 1198240.000000 1 0 0
-10.722866 -7.387500 -11.706271 17.509762 0.603270 2.303063 0.045565 -0.009505 495053.000000 1 0 0
-9.347166 -14.761100 6.879529 18.777313 1.006301 1.195687 0.012593 -0.004469 537793.000000 1 0 0
-2.285266 -14.254600 -12.293271 18.961555 1.411831 2.276180 0.025946 -0.003894 758004.000000 1 0 0
2.445234 -17.648500 -4.787471 18.449081 -1.433121 1.833297 0.029367 -0.017038 537010.000000 1 0 0
-6.546766 -9.659000 -9.162871 14.836260 0.975133 2.236484 0.023185 -0.007331 -162648.000000 1 0 0
-10.846666 -15.324500 0.544029 18.782610 0.954855 1.541828 0.026153 -0.010264 1569210.000000 1 0 0
-12.651666 -11.047000 4.021129 17.270505 0.717790 1.335807 0.015892 -0.000444 2453690.000000 1 0 0
-17.030866 -8.939700 -1.656471 19.305764 0.483378 1.656704 0.009632 -0.001639 -159108.000000 1 0 0
-1.218266 -19.173500 -3.956771 19.615384 1.507343 1.773908 0.041043 -0.019581 373211.000000 1 0 0
3.376034 -14.263200 -8.729471 17.059898 -1.338378 2.107953 0.009629 -0.007891 199041.000000 1 0 0
-4.248566 -7.996300 -12.999571 15.842347 1.082411 2.533184 0.014737 -0.003635 1077720.000000 1 0 0
5.637634 -16.562300 1.265329 17.541201 -1.242709 1.498599 0.020663 -0.013509 1885790.000000 1 0 0
-2.770666 -13.780700 -3.179071 14.411480 1.372387 1.793219 0.008346 -0.005215 825778.000000 1 0 0
-0.320866 -13.913500 3.671329 14.393300 1.547739 1.312874 0.013364 -0.005898 -4047890.000000 1 0 0
1.378134 -16.122100 6.996029 17.628550 -1.485523 1.162705 0.022530 -0.014430 3793120.000000 1 0 0
-5.540166 -10.289000 -14.514071 18.633711 1.076860 2.463730 0.047286 -0.010767 -1068520.000000 1 0 0
-0.213266 -17.149700 -5.841771 18.118608 1.558361 1.899079 0.028204 -0.014631 -640425.000000 1 0 0
-6.471166 -13.352700 -1.219271 14.888156 1.119517 1.652783 0.008935 -0.001947 2969640.000000 1 0 0
-1.580866 -17.670200 -0.094571 17.741027 1.481569 1.576127 0.018935 -0.015777 3120260.000000 1 0 0
-9.450966 -9.734300 -4.941071 14.439236 0.800165 1.920051 0.022727 -0.005216 2682230.000000 1 0 0
-0.677066 -16.639300 4.835029 17.340768 1.530128 1.288227 0.018869 -0.016752 4251070.000000 1 0 0
-6.682066 -9.799300 -6.275871 13.418749 0.972327 2.057477 0.019908 -0.007114 1294710.000000 1 0 0
-5.980766 -14.498000 -8.548271 17.861537 1.179541 2.069839 0.029239 -0.011470 129271.000000 1 0 0
-5.552866 -12.147600 -10.223471 16.820162 1.142040 2.224097 0.032498 -0.008211 1451040.000000 1 0 0
-10.523066 -12.322200 -8.843171 18.460043 0.863989 2.070361 0.058281 -0.018843 -895946.000000 1 0 0
4.209534 -17.172900 6.608229 18.875841 -1.330410 1.213130 0.038258 -0.018720 643629.000000 1 0 0
-6.597266 -14.355300 -4.132671 16.330264 1.140012 1.826647 0.018547 -0.013685 -1064990.000000 1 0 0
-2.725966 -12.212900 -7.102271 14.388470 1.351192 2.087030 0.005926 -0.004219 2896000.000000 1 0 0
-7.024166 -12.839200 4.361729 15.271170 1.070192 1.281145 0.008840 -0.001367 2831090.000000 1 0 0
2.721534 -16.396900 2.477629 16.804872 -1.406317 1.422822 0.017613 -0.014808 2504320.000000 1 0 0
-6.141866 -11.994200 7.187529 15.272325 1.097540 1.080798 0.010075 -0.005877 1945030.000000 1 0 0
-11.250066 -12.796300 -1.012971 17.068549 0.849612 1.630178 0.031953 0.000551 637011.000000 1 0 0
-14.202266 -8.673800 4.597629 17.264917 0.548274 1.301245 0.009195 0.000870 200374.000000 1 0 0
-7.873766 -15.620000 4.448229 18.049026 1.103888 1.321778 0.011149 -0.003808 1289220.000000 1 0 0
-16.480266 -9.204400 1.167329 18.912504 0.509354 1.509034 0.003094 0.007404 -893003.000000 1 0 0
-6.488866 -17.109200 2.407329 18.456038 1.208295 1.439988 0.013915 -0.008066 2709380.000000 1 0 0
-11.408566 -14.884000 -4.665471 19.324995 0.916819 1.814627 0.059883 -0.012621 -542803.000000 1 0 0
-10.077166 -10.088100 -12.561071 19.002619 0.785940 2.292971 0.048476 -0.007972 -15776.700000 1 0 0
-4.276266 -16.058600 -4.514771 17.220576 1.310544 1.836070 0.012796 -0.008347 -462248.000000 1 0 0
-11.796966 -8.257500 -0.015871 14.399825 0.610705 1.571898 -0.000898 0.002290 1482470.000000 1 0 0
-9.644066 -11.300800 3.489629 15.260852 0.864334 1.340090 0.005772 0.003949 1896470.000000 1 0 0
-14.157466 -13.001000 -0.629571 19.231646 0.742842 1.603538 0.021882 0.007169 409772.000000 1 0 0
5.741234 -14.935600 -7.088371 17.500826 -1.203811 1.987809 0.008973 -0.014261 -633881.000000 1 0 0
-7.464666 -10.496800 -1.370771 12.953110 0.952635 1.676820 0.007843 0.002572 1352530.000000 1 0 0
-11.669266 -8.238600 -6.105371 15.534537 0.614747 1.974709 0.026082 -0.008839 60858.800000 1 0 0
-14.417266 -6.671200 -9.230871 18.373117 0.433384 2.097182 0.043102 -0.017276 1014090.000000 1 0 0
-3.729766 -16.353100 1.454629 16.836002 1.346555 1.484289 0.017860 -0.017004 580758.000000 1 0 0
-7.894166 -15.525500 0.198929 17.418340 1.100400 1.559375 0.024583 -0.010360 121416.000000 1 0 0
1.163134 -18.633400 3.750729 19.042700 -1.508455 1.372536 0.023579 -0.017296 1582010.000000 1 0 0
-14.115466 -8.867500 -4.611071 17.295690 0.560905 1.840662 0.033727 -0.012033 413104.000000 1 0 0
-3.193266 -14.575100 11.079129 18.584337 1.355114 0.932094 0.015513 -0.011374 700008.000000 1 0 0
-10.762466 -12.108100 -3.891271 16.660694 0.844167 1.806534 0.044112 -0.011322 2637490.000000 1 0 0
-9.934966 -10.739400 0.501129 14.638627 0.824288 1.536556 0.007159 0.003785 2825400.000000 1 0 0
0.122934 -13.041300 -11.120171 17.139102 -1.561370 2.276827 0.011712 -0.005825 968713.000000 1 0 0
-5.740866 -12.597900 -6.288971 15.205781 1.143212 1.997191 0.013788 -0.009671 1253410.000000 1 0 0
1.914734 -15.887000 9.846429 18.788697 -1.450853 1.019184 0.027596 -0.010208 -108053.000000 1 0 0
-8.868566 -15.701700 -5.477571 18.846714 1.056650 1.865690 0.057659 -0.017559 -252206.000000 1 0 0
-3.106866 -15.449300 5.923329 16.835062 1.372343 1.211255 0.008294 -0.009793 -1090780.000000 1 0 0
-17.445966 -5.564700 -6.528471 19.440899 0.308766 1.913263 0.032518 -0.014605 405013.000000 1 0 0
18.894334 5.571700 -2.850471 19.903891 0.286760 1.714502 0.023227 0.003266 532232.000000 1 0 0
12.919534 -12.360700 -5.792871 18.795175 -0.763296 1.884108 0.030127 -0.011753 -127796.000000 1 0 0
11.198334 -13.454200 -1.484371 17.567627 -0.876650 1.655392 0.032448 -0.010081 1848200.000000 1 0 0
18.865634 -2.800100 4.550629 19.607675 -0.147348 1.336577 0.092902 -0.027859 -420186.000000 1 0 0
8.706234 -16.987000 4.885229 19.703353 -1.097180 1.320244 0.055364 -0.029712 -981845.000000 1 0 0
18.289234 -0.979900 6.759529 19.523000 -0.053527 1.217242 0.121469 -0.029532 -1350660.000000 1 0 0
17.962334 -4.170600 -5.065471 19.123241 -0.228143 1.838882 0.082805 -0.005738 -79920.400000 1 0 0
5.491334 -11.684400 14.895129 19.711540 -1.131459 0.714142 0.012961 0.004364 710538.000000 1 0 0
16.179734 -8.774400 -0.735471 18.420499 -0.496918 1.610734 0.049175 -0.007343 -132994.000000 1 0 0
14.028934 -12.409200 -1.288971 18.773936 -0.724210 1.639508 0.042161 -0.004298 -341124.000000 1 0 0
11.507834 -2.081000 13.929529 18.187704 -0.178900 0.698393 0.054656 -0.007817 -786883.000000 1 0 0
17.240834 -6.009300 -1.363171 18.308912 -0.335383 1.645319 0.063839 -0.009709 -1396040.000000 1 0 0
17.880634 3.622900 -0.962671 18.269352 0.199910 1.623514 0.019661 0.000947 1420860.000000 1 0 0
9.848034 -10.975300 9.626929 17.610189 -0.839480 0.992416 0.012894 0.001439 -353184.000000 1 0 0
9.173434 -11.141400 4.320429 15.064820 -0.881970 1.279923 0.014514 -0.008456 -499013.000000 1 0 0
14.186434 -10.091100 6.857529 18.711251 -0.618283 1.195560 0.047514 -0.014152 1403540.000000 1 0 0
16.234034 -0.434000 -4.793971 16.932642 -0.026728 1.857842 0.026425 0.000934 1040990.000000 1 0 0
15.828634 -0.360100 -1.777571 15.932203 -0.022746 1.682600 0.023761 -0.002506 1299770.000000 1 0 0
13.038534 -5.165600 -0.286471 14.027432 -0.377208 1.591220 0.016960 -0.006973 998985.000000 1 0 0
14.406034 -7.462600 1.074929 16.259757 -0.477959 1.504638 0.039873 -0.009032 1990660.000000 1 0 0
15.501334 2.444400 3.658429 16.113676 0.156402 1.341760 0.037689 -0.010069 2426920.000000 1 0 0
15.949634 -7.072100 4.987729 18.146153 -0.417354 1.292348 0.065032 -0.019398 -1425670.000000 1 0 0
13.806734 -12.142300 3.279029 18.676546 -0.721343 1.394312 0.040931 -0.010123 393360.000000 1 0 0
14.074734 -0.912100 9.189729 16.833930 -0.064714 0.993327 0.064696 -0.016148 1953840.000000 1 0 0
14.335834 -2.746700 -1.536371 14.677225 -0.189303 1.675666 0.021843 -0.004668 1603740.000000 1 0 0
15.096634 1.834600 9.154229 17.750325 0.120931 1.028946 0.079638 -0.011387 -1209660.000000 1 0 0
14.499634 -10.041700 -2.917171 17.876941 -0.605707 1.734710 0.042103 -0.008179 966980.000000 1 0 0
7.547834 -12.674100 6.165429 15.987968 -1.033668 1.174907 0.002229 -0.002818 151734.000000 1 0 0
12.444334 -4.646000 6.932129 14.983363 -0.357317 1.089809 0.022881 -0.008372 3024330.000000 1 0 0
15.060834 -8.995100 -5.590471 18.411787 -0.538396 1.879302 0.062377 -0.012731 -101122.000000 1 0 0
14.359434 -4.547800 4.623229 15.755954 -0.306717 1.272986 0.031734 -0.015026 569831.000000 1 0 0
17.355034 -4.181200 0.981929 17.878586 -0.236416 1.515847 0.049593 -0.016414 -678042.000000 1 0 0
10.356734 -14.373400 1.240429 17.759370 -0.946412 1.500893 0.044138 -0.020333 932079.000000 1 0 0
16.521934 -2.494400 8.560929 18.774606 -0.149843 1.097318 0.100924 -0.025596 2355940.000000 1 0 0
16.249734 -2.606300 3.259229 16.777045 -0.159036 1.375286 0.043245 -0.013251 1452450.000000 1 0 0
7.871734 -15.195500 2.722029 17.328498 -1.092828 1.413059 0.024426 -0.019656 1885520.000000 1 0 0
16.667134 -6.845600 7.838429 19.649340 -0.389717 1.160462 0.085735 -0.024393 302530.000000 1 0 0
10.394734 -8.643400 5.257329 14.505115 -0.693665 1.199905 0.012902 -0.005253 1984240.000000 1 0 0
11.104034 -11.766200 2.223229 16.330517 -0.814343 1.434233 0.031566 -0.013697 -564902.000000 1 0 0
12.502734 -7.167700 12.020529 18.766657 -0.520549 0.875613 0.051747 -0.022473 -986098.000000 1 0 0
15.344834 -9.899900 4.282529 18.756652 -0.572966 1.340444 0.051009 -0.015040 181660.000000 1 0 0
7.460934 -10.307300 7.881929 14.967658 -0.944243 1.016203 0.001727 0.003763 1523490.000000 1 0 0
15.194034 -3.255300 -4.352671 16.136957 -0.211058 1.843912 0.046078 -0.003111 -968257.000000 1 0 0
12.017334 -9.021100 9.818429 17.949878 -0.643932 0.992030 0.035938 -0.009068 -1735860.000000 1 0 0
16.992734 -6.617400 2.388529 18.391521 -0.371357 1.440557 0.058262 -0.016151 457254.000000 1 0 0
17.541934 3.921600 1.964129 18.081930 0.219939 1.461958 0.032179 -0.003222 -676045.000000 1 0 0
14.759734 -4.832000 8.751729 17.826686 -0.316380 1.057635 0.067254 -0.020726 792065.000000 1 0 0
12.888634 -12.628100 6.146429 19.062119 -0.775188 1.242488 0.042567 -0.014836 -1443210.000000 1 0 0
18.320534 0.727300 -0.858071 18.355033 0.039678 1.617562 0.034747 -0.003865 -244368.000000 1 0 0
11.712234 -2.095400 10.979329 16.189898 -0.177034 0.825541 0.032340 -0.006750 1694860.000000 1 0 0
5.902434 -12.543100 10.643729 17.477330 -1.130967 0.915995 0.000115 0.010210 -1403310.000000 1 0 0
10.860034 -5.008700 11.014529 16.258760 -0.432133 0.826503 0.032129 -0.010651 522854.000000 1 0 0
17.996034 1.329100 4.994029 18.723356 0.073721 1.300801 0.079334 -0.016355 1053110.000000 1 0 0
12.391434 -7.763100 7.252429 16.322104 -0.559669 1.110368 0.026491 -0.010865 -1776730.000000 1 0 0
10.848634 -7.777900 14.389629 19.627787 -0.622010 0.747890 0.058586 -0.022828 87679.200000 1 0 0
14.301734 -0.410700 3.797229 14.802946 -0.028709 1.311378 0.016924 -0.007100 1322760.000000 1 0 0
11.818834 -7.703900 2.652529 14.355167 -0.577662 1.384950 0.017850 -0.008241 2179670.000000 1 0 0
9.250534 6.124900 3.433029 11.613461 0.584844 1.270705 0.002739 -0.001553 1657700.000000 1 0 0
-3.975366 14.680900 -9.989871 18.196975 -1.306353 2.151946 0.019431 -0.003396 1843870.000000 1 0 0
8.984434 -6.456700 9.299529 14.453037 -0.623136 0.871825 0.009980 -0.000544 156286.000000 1 0 0
5.895834 -10.628900 -8.403971 14.777046 -1.064353 2.175743 -0.003054 -0.003100 605253.000000 1 0 0
5.429434 1.049600 0.598829 5.562285 0.190961 1.462928 0.006604 -0.002472 3453220.000000 1 0 0
-0.630566 9.892300 10.901529 14.734265 -1.507139 0.737910 0.005860 0.000552 -383453.000000 1 0 0
-6.339166 -5.185700 1.083529 8.261389 0.685645 1.439262 0.008013 -0.003623 2392710.000000 1 0 0
-1.164866 3.996000 -10.932971 11.698495 -1.287148 2.777823 0.010549 -0.004448 1807400.000000 1 0 0
10.912134 5.799200 1.152029 12.410986 0.488486 1.477839 0.003388 -0.000931 140233.000000 1 0 0
-10.149066 -1.832800 -13.617471 17.082102 0.178662 2.493402 0.017237 -0.001995 1805210.000000 1 0 0
7.384834 10.910200 -6.085271 14.512021 0.975760 2.003499 0.006289 -0.002541 1577900.000000 1 0 0
-12.392966 -2.950700 -9.569571 15.933264 0.233743 2.215052 0.014186 -0.005257 988753.000000 1 0 0
-3.909966 -8.651000 2.459729 9.807033 1.146308 1.317277 0.013916 -0.002378 -1195670.000000 1 0 0
8.087034 -6.698900 -5.862971 12.027045 -0.691790 2.080000 0.000333 -0.003631 2379760.000000 1 0 0
14.356834 3.247600 -4.238371 15.317617 0.222462 1.851154 0.014453 0.001328 415495.000000 1 0 0
-2.515066 -4.948600 9.746529 11.216462 1.100580 0.517722 0.011155 -0.004333 1465730.000000 1 0 0
3.461234 -1.870800 -4.574671 6.033875 -0.495521 2.431290 0.002248 -0.000276 -2683730.000000 1 0 0
-4.009366 8.484100 -3.511971 10.019427 -1.129329 1.928918 0.000544 -0.000351 1000560.000000 1 0 0
5.848634 0.140900 11.553529 12.950306 0.024086 0.468729 0.009965 -0.005832 2414970.000000 1 0 0
7.175734 4.752600 12.307029 15.018034 0.584984 0.610287 0.017301 -0.005764 898310.000000 1 0 0
1.415934 -14.449100 12.398829 19.092206 -1.473114 0.863977 0.014170 -0.000378 479922.000000 1 0 0
2.928534 8.737800 -9.120671 12.965805 1.247405 2.351023 0.003391 0.000300 1198330.000000 1 0 0
-4.327466 -8.847700 -4.534671 10.843062 1.115902 2.002270 0.010573 -0.005515 1448220.000000 1 0 0
5.737534 -6.533300 -3.998071 9.570155 -0.850158 2.001780 0.001370 -0.002001 2363030.000000 1 0 0
-3.113466 3.347600 8.571329 9.714308 -0.821620 0.489983 0.002490 -0.001674 1877460.000000 1 0 0
-3.886866 3.182700 -11.129171 12.210477 -0.686120 2.717578 0.007786 -0.004382 472491.000000 1 0 0
3.181034 -6.117300 8.626829 11.043664 -1.091272 0.674280 0.006170 -0.002223 -1960.220000 1 0 0
-5.087866 -8.639600 10.480529 14.504157 1.038578 0.763258 0.009886 -0.004868 2082170.000000 1 0 0
-13.203266 -2.607800 6.524029 14.956263 0.195002 1.119417 0.017825 -0.004128 327492.000000 1 0 0
4.004234 -5.939000 -8.313571 10.973653 -0.977578 2.430415 -0.004283 0.000517 2498730.000000 1 0 0
3.019334 -0.425200 12.315729 12.687567 -0.139906 0.242700 0.009107 -0.006949 54845.100000 1 0 0
1.437134 -1.392700 -7.530871 7.792238 -0.769697 2.881857 0.003076 -0.002069 -977175.000000 1 0 0
3.667134 -3.473500 3.408029 6.093253 -0.758288 0.977241 0.004743 -0.004349 1653460.000000 1 0 0
1.523734 0.409100 -11.846271 11.950868 0.262300 3.009191 0.010248 -0.007755 824367.000000 1 0 0
4.048234 3.575400 -10.655971 11.946606 0.723455 2.672472 0.001883 0.001050 2498070.000000 1 0 0
2.733934 3.209900 3.402929 5.418282 0.865305 0.891757 -0.000629 -0.001322 -231795.000000 1 0 0
-5.361866 0.861700 2.548729 5.999013 -0.159347 1.131991 0.001312 -0.006001 517392.000000 1 0 0
-9.446466 -9.352200 5.691629 14.460083 0.780384 1.166241 0.004963 0.003737 -979456.000000 1 0 0
-3.066766 3.846600 -0.646671 4.961811 -0.897724 1.701498 -0.000691 -0.005125 347628.000000 1 0 0
-15.793066 -6.411600 4.982829 17.758326 0.385647 1.286386 0.029819 -0.007039 929179.000000 1 0 0
0.921234 6.729700 -8.106871 10.576336 1.434751 2.444186 0.004878 -0.002305 829536.000000 1 0 0
-1.683466 6.543200 -9.506071 11.662457 -1.318973 2.523698 0.005556 -0.002248 1322700.000000 1 0 0
2.010034 -0.385000 5.262129 5.646102 -0.189247 0.370923 0.004873 -0.004851 2927620.000000 1 0 0
-3.449666 -0.610300 -6.275671 7.187260 0.175104 2.632457 0.009067 -0.007667 436810.000000 1 0 0
1.904834 -1.216500 -2.398671 3.295737 -0.568346 2.385919 0.007088 -0.002235 736312.000000 1 0 0
2.525734 -8.643600 -7.509171 11.725135 -1.286503 2.265859 -0.003201 0.001016 2016950.000000 1 0 0
-2.542966 14.016900 -5.585771 15.301667 -1.391327 1.944476 0.001818 0.001367 3773590.000000 1 0 0
6.837334 -5.121100 -8.179171 11.826818 -0.642855 2.334468 -0.002636 -0.000376 2156520.000000 1 0 0
-14.120866 -5.021200 -2.141871 15.139317 0.341644 1.712750 0.006143 -0.002327 -658866.000000 1 0 0
-2.790266 6.839900 -6.861771 10.082347 -1.183464 2.319340 0.004641 -0.001395 -3132350.000000 1 0 0
-5.682266 -1.166400 -8.117571 9.977153 0.202458 2.521141 0.012528 -0.007774 814290.000000 1 0 0
-5.728766 -10.639600 3.335229 12.535693 1.076873 1.301494 0.006875 -0.000946 -3244050.000000 1 0 0
8.134834 -7.593600 6.701829 12.990489 -0.751001 1.028735 0.006569 -0.005489 219679.000000 1 0 0
8.964634 -5.963500 13.172829 17.013272 -0.587004 0.685239 0.033756 -0.013850 476763.000000 1 0 0
-4.784066 9.490700 -0.692571 10.650837 -1.103891 1.635867 -0.002450 0.001266 396707.000000 1 0 0
2.791734 6.667300 12.106829 14.100425 1.174257 0.538236 0.007080 -0.006272 3146040.000000 1 0 0
6.110134 -2.798300 11.001729 12.891946 -0.429468 0.548361 0.011084 -0.003613 -26785.300000 1 0 0
-9.679166 -6.577500 -1.108471 11.754934 0.596870 1.665235 0.006999 -0.002695 -766660.000000 1 0 0
0.973234 -13.281500 6.264329 14.716903 -1.497650 1.131110 0.011121 -0.004605 -507728.000000 1 0 0
-0.467266 -3.152500 8.713529 9.278049 1.423647 0.350633 0.007221 -0.005709 1687130.000000 1 0 0
4.175234 0.700200 3.395329 5.426889 0.166157 0.894833 0.001749 -0.001329 1473900.000000 1 0 0
-10.218166 5.508000 8.245829 14.238774 -0.494390 0.953159 0.001233 -0.008077 -655639.000000 1 0 0
9.360734 7.945900 -0.086771 12.278770 0.703829 1.577863 -0.000314 -0.003174 -593601.000000 1 0 0
4.360734 2.900000 8.182229 9.714673 0.586866 0.569344 0.000257 -0.003403 3441390.000000 1 0 0
1.224434 2.625100 -9.844571 10.261869 1.134361 2.855433 0.009213 -0.004684 1938660.000000 1 0 0
-1.391266 -10.078100 3.055029 10.622472 1.433615 1.279076 0.013767 -0.003985 -1152850.000000 1 0 0
-9.963566 9.462500 9.088129 16.474394 -0.759610 0.986453 0.011236 -0.009866 1395040.000000 1 0 0
9.772534 -1.918200 -7.583171 12.517443 -0.193821 2.221578 0.011170 0.001201 2006940.000000 1 0 0
-5.219066 -1.952500 6.718129 8.728354 0.357989 0.692440 0.004591 -0.004349 1080670.000000 1 0 0
3.203934 -7.847600 -4.864171 9.772931 -1.183182 2.091763 -0.002712 -0.001176 2344800.000000 1 0 0
-5.276066 4.902500 -13.194371 15.032059 -0.748713 2.641939 0.003034 -0.004903 2127660.000000 1 0 0
-5.642966 9.581500 5.431529 12.375368 -1.038546 1.116424 -0.004815 -0.000216 1232960.000000 1 0 0
-0.477066 -1.807200 -9.410571 9.594394 1.312703 2.945526 0.007660 -0.005334 1325340.000000 1 0 0
-16.806866 0.336800 6.268229 17.940872 -0.020037 1.213884 0.045397 -0.016287 815160.000000 1 0 0
-5.994466 -2.868100 4.062329 7.788590 0.446266 1.022101 -0.000174 -0.002681 1454910.000000 1 0 0
1.062834 -5.724200 -5.121971 7.754396 -1.387213 2.292314 0.001869 -0.002440 2178780.000000 1 0 0
-7.043266 1.349000 -8.520571 11.136764 -0.189239 2.441970 0.002598 -0.004136 -1126870.000000 1 0 0
8.021634 2.001400 4.722529 9.521266 0.244508 1.051812 0.004106 -0.002667 -532318.000000 1 0 0
0.517934 -8.010300 -0.560671 8.046584 -1.506228 1.640531 0.006523 -0.002701 1247720.000000 1 0 0
5.419834 5.481700 -3.420871 8.433623 0.791073 1.988457 0.001327 0.000460 504415.000000 1 0 0
-0.718166 -0.369700 -1.197671 1.444595 0.475404 2.548239 0.005389 -0.004889 1352840.000000 1 0 0
9.017134 6.357700 -6.359371 12.734624 0.614120 2.093675 0.003189 -0.001577 607419.000000 1 0 0
-15.032066 -7.078200 2.460029 16.796299 0.440076 1.423805 0.000114 -0.000175 1115780.000000 1 0 0
-6.480566 6.726000 8.873129 12.882905 -0.803980 0.811030 0.002823 -0.000827 -321227.000000 1 0 0
-9.411366 -3.206700 -9.642871 13.850693 0.328389 2.340888 0.010616 -0.002272 2976720.000000 1 0 0
14.939034 3.505700 -1.239471 15.394835 0.230496 1.651396 0.009538 -0.000409 1271500.000000 1 0 0
12.054034 1.733300 -5.742671 13.464113 0.142815 2.011435 0.013801 -0.000594 6061.640000 1 0 0
1.717534 -9.428800 12.785229 15.978557 -1.390614 0.643252 0.004943 -0.000942 1128740.000000 1 0 0
-3.707366 6.219800 7.904129 10.719409 -1.033280 0.741634 -0.000950 -0.000506 1330110.000000 1 0 0
-4.078166 13.070800 -12.439471 18.499127 -1.268362 2.308291 0.013808 -0.003563 130748.000000 1 0 0
-10.292566 7.718700 6.433129 14.384033 -0.643456 1.107118 0.002813 -0.008329 529047.000000 1 0 0
8.095634 -9.318200 -7.065171 14.222685 -0.855490 2.090651 0.002487 -0.002650 -995223.000000 1 0 0
5.904834 -3.831200 -0.284971 7.044598 -0.575548 1.611260 0.007541 -0.003467 303278.000000 1 0 0
-1.599166 -4.508000 4.195729 6.362668 1.229905 0.850737 0.007379 -0.003400 2251020.000000 1 0 0
9.939534 -2.061600 -2.598471 10.478386 -0.204514 1.821395 0.012083 -0.001105 -1629040.000000 1 0 0
13.469834 7.084700 1.391229 15.282831 0.484205 1.479638 0.013238 -0.003402 -594352.000000 1 0 0
5.415634 -3.639300 -3.216371 7.274520 -0.591685 2.028782 0.002881 -0.002929 -2514760.000000 1 0 0
-12.225266 -5.967500 1.972129 13.746180 0.454105 1.426832 -0.004047 0.001485 1994800.000000 1 0 0
3.780034 -5.755200 -0.190571 6.888200 -0.989653 1.598466 0.006683 -0.003134 -949703.000000 1 0 0
-5.291866 3.708400 -8.724871 10.857230 -0.611245 2.504116 0.003443 -0.004422 1754910.000000 1 0 0
-1.668366 -9.247300 7.277529 11.885219 1.392300 0.911808 0.008906 -0.003187 1570750.000000 1 0 0
-7.464866 -7.387500 2.504029 10.796737 0.780189 1.336741 0.008004 -0.001585 -3801370.000000 1 0 0
-5.891666 13.026500 -8.661771 16.716091 -1.146045 2.115506 0.019475 -0.005650 3144160.000000 1 0 0
9.388534 -13.829800 -4.027071 17.193756 -0.974398 1.807209 0.020357 -0.004590 1080250.000000 1 0 0
-6.462066 -5.162900 -6.655871 10.616706 0.674103 2.248395 0.015141 -0.005581 2487430.000000 1 0 0
3.240634 0.466800 -6.217671 7.027022 0.143062 2.656910 0.003426 -0.002192 2367020.000000 1 0 0
-3.724066 5.684400 4.984229 8.427551 -0.990818 0.937977 -0.002722 0.000421 713761.000000 1 0 0
-2.614666 -10.760600 -2.876471 11.441200 1.332431 1.824937 0.012639 -0.003994 -113743.000000 1 0 0
-12.546966 -0.395000 1.779629 12.678701 0.031471 1.429968 0.002630 -0.005201 -294166.000000 1 0 0
8.528334 -12.048500 -6.103871 15.973605 -0.954832 1.962888 0.012230 -0.008354 -1022370.000000 1 0 0
6.135534 3.916700 0.982029 7.345046 0.568151 1.436695 0.002916 -0.001296 -1145150.000000 1 0 0
3.457434 -4.865800 -10.968071 12.487131 -0.953019 2.643196 -0.004454 0.002059 -354548.000000 1 0 0
-7.676766 4.152300 8.511829 12.191209 -0.495824 0.797925 0.000408 0.000085 1654510.000000 1 0 0
8.056934 8.746900 4.048129 12.562237 0.826435 1.242695 0.001944 -0.000365 1396470.000000 1 0 0
0.223334 10.511500 -6.424671 12.321441 1.549553 2.119313 -0.002071 0.002297 2599930.000000 1 0 0
5.329134 8.047300 3.235929 10.179880 0.985874 1.247309 0.003855 -0.000825 2627990.000000 1 0 0
8.069134 6.674600 -3.782671 11.134173 0.691094 1.917432 0.000658 -0.001457 -33746.100000 1 0 0
10.419834 2.685500 -8.151771 13.499490 0.252240 2.219128 0.009628 0.000825 912428.000000 1 0 0
3.443434 -12.506600 -0.217971 12.973812 -1.302124 1.587598 0.007341 -0.006837 -2043290.000000 1 0 0
0.496134 2.085800 5.193129 5.618301 1.337273 0.391536 0.003362 -0.003971 933190.000000 1 0 0
-4.964766 13.366100 1.493529 14.336393 -1.215146 1.466429 -0.006360 0.004836 2048740.000000 1 0 0
8.097234 4.150900 -8.016971 12.127118 0.473702 2.293051 0.004563 0.000675 -391722.000000 1 0 0
-13.927866 -0.585600 -3.545571 14.384000 0.042020 1.819857 0.005090 -0.004790 760442.000000 1 0 0
-8.611766 -0.003500 -0.509971 8.626853 0.000406 1.629945 0.000083 -0.005525 -1083820.000000 1 0 0
1.795434 -3.864100 -1.122471 4.406222 -1.135831 1.828382 0.007751 -0.001352 -1156620.000000 1 0 0
8.176634 -5.753400 -0.213171 10.000220 -0.613164 1.592115 0.009564 -0.004784 4546650.000000 1 0 0
-2.296466 -1.203600 7.345129 7.789309 0.482749 0.339336 0.007896 -0.005087 1865830.000000 1 0 0
-5.955666 8.886100 -11.761171 15.898361 -0.980336 2.403529 0.003056 -0.001163 141053.000000 1 0 0
-6.181866 9.217900 -8.894571 14.223169 -0.980050 2.246386 0.010449 -0.000154 -180035.000000 1 0 0
-1.585366 13.925100 -8.393671 16.336325 -1.457435 2.110409 0.012976 0.001198 -148915.000000 1 0 0
-1.627466 7.208400 9.693429 12.189022 -1.348746 0.651362 -0.000594 -0.002798 1024870.000000 1 0 0
9.957634 2.335300 -3.983871 10.976308 0.230360 1.942230 0.008071 -0.001739 -1540620.000000 1 0 0
-2.902066 -7.499400 -6.966371 10.639234 1.201570 2.284689 0.009673 -0.005035 1556710.000000 1 0 0
-5.465566 -4.950100 -1.560971 7.537409 0.735949 1.779402 0.012531 -0.005837 967581.000000 1 0 0
5.564834 7.427200 -8.784971 12.779139 0.927775 2.328763 -0.000100 0.003435 -935791.000000 1 0 0
-9.585666 5.210000 -7.468071 13.221240 -0.497854 2.171053 -0.003752 0.000069 365784.000000 1 0 0
-0.495566 6.124300 -5.402371 8.181580 -1.490054 2.292026 0.004298 -0.000730 -2937030.000000 1 0 0
-8.286366 2.744700 -6.328971 10.782074 -0.319857 2.198132 0.002580 -0.002296 1357570.000000 1 0 0
3.656534 1.374800 -1.933671 4.358830 0.359634 2.030432 0.004106 -0.003091 2721130.000000 1 0 0
-6.730066 12.439800 -3.523171 14.575841 -1.074881 1.814927 0.017557 0.001518 2735880.000000 1 0 0
-6.670966 3.168700 -2.356471 7.752122 -0.443447 1.879661 0.004957 -0.004313 -1118180.000000 1 0 0
12.144834 4.042700 -0.822271 12.826400 0.321337 1.634948 0.003763 -0.002006 1895320.000000 1 0 0
2.234034 12.329700 -5.512471 13.689403 1.391550 1.985241 -0.000467 0.000944 -438501.000000 1 0 0
-9.208666 -1.462200 -4.229771 10.238580 0.157471 1.996675 0.003378 -0.002870 -1384990.000000 1 0 0
-1.212666 5.661900 3.478729 6.754941 -1.359804 1.029800 -0.001844 0.000204 1258490.000000 1 0 0
11.660734 2.649000 12.031629 16.963196 0.223381 0.782322 0.056838 -0.003256 699096.000000 1 0 0
-7.186166 -2.361900 -5.780571 9.520218 0.317551 2.223314 0.010365 -0.005719 804987.000000 1 0 0
7.652234 -7.376600 10.915829 15.235690 -0.767060 0.772075 0.008066 -0.001382 -1607020.000000 1 0 0
-5.532266 -1.963100 -11.050771 12.513163 0.340985 2.653293 0.013048 -0.006505 -771399.000000 1 0 0
0.903034 -6.165100 4.489329 7.679714 -1.425355 0.946447 0.008587 -0.003192 325668.000000 1 0 0
-4.787066 -9.379100 7.368329 12.852073 1.098866 0.960246 0.005143 -0.003445 3362110.000000 1 0 0
-8.777266 9.226000 1.717429 12.849476 -0.810318 1.436738 0.006887 -0.003316 1189910.000000 1 0 0
-8.148266 7.148100 -9.092171 14.147690 -0.720105 2.268763 0.002499 0.000248 142295.000000 1 0 0
-1.212866 -10.600600 -0.105571 10.670281 1.456877 1.580690 0.010744 -0.003187 -232505.000000 1 0 0
-3.976866 10.257500 7.765629 13.466134 -1.200935 0.956139 -0.000122 0.001365 1688820.000000 1 0 0
-7.538066 11.977100 2.030129 14.296671 -1.009058 1.428315 -0.000444 -0.002036 2459850.000000 1 0 0
-8.132766 -8.264900 -2.914671 11.955992 0.793456 1.817061 0.017638 -0.006177 736237.000000 1 0 0
5.298134 4.619000 -8.069171 10.701257 0.717024 2.424987 0.004096 0.002293 638330.000000 1 0 0
-8.965466 -0.209100 -10.202871 13.583883 0.023319 2.420525 -0.000004 -0.003495 -1387900.000000 1 0 0
-15.207866 -2.327500 -1.467971 15.454817 0.151867 1.665924 0.008845 -0.006725 223391.000000 1 0 0
-7.210966 -5.895100 8.762229 12.787763 0.685332 0.815912 0.003701 -0.003053 -650359.000000 1 0 0
8.180234 3.529200 -0.995371 8.964499 0.407304 1.682060 0.005652 -0.000624 1605890.000000 1 0 0
11.844234 7.220200 -5.939471 15.089549 0.547446 1.975357 0.008688 -0.000760 555622.000000 1 0 0
3.664534 13.351200 -9.564571 16.827489 1.302921 2.175344 0.001855 -0.001255 985351.000000 1 0 0
-9.782066 5.486100 -0.562171 11.229521 -0.511122 1.620879 0.006393 -0.004386 2276600.000000 1 0 0
11.324034 -1.218000 -5.139771 12.495380 -0.107147 1.994713 0.018818 -0.000530 -676554.000000 1 0 0
10.575934 1.733600 -1.149371 10.778534 0.162474 1.677635 0.007465 -0.001327 221084.000000 1 0 0
14.599734 5.044100 4.653829 16.132368 0.332654 1.278160 0.029180 -0.011214 2200090.000000 1 0 0
0.929134 -0.799900 10.334629 10.407098 -0.710793 0.118081 0.008300 -0.004724 2379430.000000 1 0 0
-8.036366 1.436500 -12.508271 14.936651 -0.176882 2.563344 -0.003744 0.001246 370711.000000 1 0 0
3.158834 -11.588000 -7.771571 14.305848 -1.304667 2.145093 -0.006411 -0.002495 -546276.000000 1 0 0
2.804734 5.055200 -6.851271 8.964457 1.064259 2.440706 0.003296 0.000096 -2521940.000000 1 0 0
6.504134 7.974500 0.537629 10.304633 0.886605 1.518599 0.004543 -0.002306 -300865.000000 1 0 0
-9.060866 -5.443700 6.803429 12.570593 0.541002 0.998912 0.000526 0.001245 -1229980.000000 1 0 0
-0.288666 -6.810900 -11.833871 13.656946 1.528439 2.618962 0.000060 0.004041 4049590.000000 1 0 0
6.567434 -13.460600 -4.558171 15.655538 -1.116875 1.866229 0.009506 -0.007140 2570790.000000 1 0 0
-3.290466 -0.387200 9.985229 10.520546 0.117135 0.320376 0.006485 -0.003052 -550478.000000 1 0 0
8.518234 8.553300 6.897929 13.903262 0.787452 1.051652 -0.005090 0.001561 -162193.000000 1 0 0
-7.999666 5.669700 -2.744771 10.182039 -0.616569 1.843743 0.005821 -0.004356 1815080.000000 1 0 0
-5.456866 5.768100 -6.473071 10.244462 -0.813118 2.254748 0.003034 -0.000427 -1320120.000000 1 0 0
3.418334 -13.651100 2.679929 14.325486 -1.325434 1.382613 0.008820 -0.006743 -2183840.000000 1 0 0
-11.222366 -7.094500 6.506729 14.785498 0.563742 1.115114 0.009707 0.001280 -1417300.000000 1 0 0
-12.962066 -3.722600 -6.723571 15.069151 0.279665 2.033290 0.014189 -0.003934 1129390.000000 1 0 0
5.931734 0.376100 -7.221971 9.353276 0.063320 2.452987 0.001699 0.002174 -1198640.000000 1 0 0
-1.420466 2.171300 -2.530671 3.624440 -0.991474 2.343710 0.004201 -0.005428 2050160.000000 1 0 0
7.541934 0.925200 -4.971271 9.080215 0.122064 2.150151 0.005077 0.001127 420736.000000 1 0 0
3.790734 -4.455900 10.914729 12.383700 -0.865883 0.492024 0.006392 -0.001430 -1523320.000000 1 0 0
6.063734 -2.518700 2.124829 6.901277 -0.393687 1.257823 0.008957 -0.004641 -1846390.000000 1 0 0
-6.290266 7.703300 1.145829 10.011054 -0.886034 1.456089 -0.002428 -0.000993 1810080.000000 1 0 0
6.106234 -3.379200 7.992929 10.610938 -0.505451 0.717772 0.007137 -0.003681 1093110.000000 1 0 0
6.733434 -2.229900 -7.790971 10.536167 -0.319801 2.403050 0.000070 0.000763 1532360.000000 1 0 0
12.176334 -8.051800 -5.794871 15.705894 -0.584255 1.948688 0.028780 -0.012555 895051.000000 1 0 0
5.640834 -9.640300 10.078229 15.044105 -1.041382 0.836706 -0.002433 0.007998 1765120.000000 1 0 0
-6.644166 7.561000 -4.570171 11.054417 -0.849851 1.997009 0.005428 -0.000817 2056020.000000 1 0 0
-1.309266 -7.570300 9.809629 12.460034 1.399543 0.664399 0.008571 -0.005170 374524.000000 1 0 0
10.168834 -9.232900 0.842129 13.760843 -0.737196 1.509561 0.014415 -0.006534 367385.000000 1 0 0
11.128734 6.126400 9.730829 16.002204 0.503229 0.917140 0.012375 -0.006864 1705590.000000 1 0 0
-15.283866 -4.245600 -4.963071 16.620883 0.270952 1.874026 0.020918 -0.012442 2302610.000000 1 0 0
-4.797266 -4.659000 7.854929 10.316005 0.770778 0.705278 0.005108 -0.004118 -855325.000000 1 0 0
2.866834 10.940700 -11.095571 15.843906 1.314524 2.346621 -0.000367 0.002504 -22108.000000 1 0 0
10.004234 -1.443700 1.582729 10.231031 -0.143319 1.415474 0.010665 -0.003188 -1089220.000000 1 0 0
-1.624866 -2.595700 0.718729 3.145539 1.011490 1.340268 0.009146 -0.007085 485334.000000 1 0 0
1.550234 3.091300 0.911729 3.576397 1.105963 1.313021 0.002733 -0.002558 -642074.000000 1 0 0
-8.955866 -2.373700 4.285129 10.208052 0.259087 1.137594 -0.004443 -0.000894 4797170.000000 1 0 0
9.950434 4.911000 -2.755771 11.433430 0.458471 1.814221 0.002671 -0.001309 1292460.000000 1 0 0
2.471134 8.417200 2.493129 9.119839 1.285238 1.293897 0.001534 -0.001106 191205.000000 1 0 0
-8.179066 -0.095700 2.443129 8.536695 0.011700 1.280547 -0.002586 -0.005480 730941.000000 1 0 0
6.849834 2.092200 13.612129 15.381404 0.296438 0.484360 0.028591 -0.010437 -1321780.000000 1 0 0
6.837634 4.374700 3.764829 8.947915 0.569169 1.136525 0.001186 -0.000618 351055.000000 1 0 0
-0.299066 3.278400 7.734029 8.405508 -1.479825 0.402424 0.002885 -0.003071 1351420.000000 1 0 0
2.740334 -10.204700 9.298429 14.075017 -1.308449 0.849134 0.008555 0.000513 2918570.000000 1 0 0
1.510434 -4.558600 6.925629 8.427727 -1.250843 0.606291 0.004688 -0.004072 225420.000000 1 0 0
-0.266766 10.793600 -2.043071 10.988499 -1.546086 1.757813 0.000432 -0.001381 2431550.000000 1 0 0
8.796334 5.600100 7.887029 13.074473 0.566926 0.923241 0.001303 -0.001149 151853.000000 1 0 0
2.577534 11.351400 -2.822071 11.977565 1.347515 1.808646 0.002598 -0.004152 921350.000000 1 0 0
1.389334 2.505700 -6.802371 7.381127 1.064528 2.742953 0.005327 -0.003301 40395.300000 1 0 0
-13.606066 -2.173300 3.610429 14.243717 0.158392 1.314525 0.001428 -0.001499 -207930.000000 1 0 0
-0.891866 -10.624200 -5.264071 11.890311 1.487046 2.029426 0.004685 -0.003667 88237.700000 1 0 0
-5.648366 2.797700 0.385529 6.315045 -0.459890 1.509709 0.004586 -0.004760 1800040.000000 1 0 0
3.750534 7.263900 -5.058971 9.613737 1.094174 2.124949 0.001323 -0.001327 -787390.000000 1 0 0
2.999834 9.716000 -6.482071 12.058893 1.271330 2.138307 0.002577 0.000918 -314056.000000 1 0 0
-12.261266 1.649300 -2.533471 12.628433 -0.133710 1.772783 0.006523 -0.005095 237887.000000 1 0 0
-2.538766 9.647400 -5.771171 11.524933 -1.313475 2.095267 -0.002088 0.000306 662378.000000 1 0 0
-1.378866 3.287600 1.651729 3.929096 -1.173666 1.136928 -0.000421 -0.003828 -753771.000000 1 0 0
12.954634 3.752400 9.570929 16.538009 0.281941 0.953634 0.049788 -0.005262 1278130.000000 1 0 0
-2.501966 -9.625200 11.596629 15.276980 1.316485 0.708880 0.007508 -0.008069 1643840.000000 1 0 0
-0.396466 -8.928600 -7.497671 11.665854 1.526421 2.268817 0.002089 -0.002304 1534230.000000 1 0 0
2.288334 7.609700 -0.506771 7.962464 1.278686 1.634484 0.001206 -0.000434 2680830.000000 1 0 0
-11.847366 -1.315500 -5.492271 13.124620 0.110584 2.002557 0.005750 -0.001104 -755111.000000 1 0 0
-6.187666 -7.185500 -10.946271 14.482384 0.859875 2.427722 0.015588 -0.004139 1853580.000000 1 0 0
-4.772066 -2.198700 -1.382871 5.433160 0.431752 1.828152 0.009061 -0.006343 -59966.700000 1 0 0
-10.503566 3.724900 4.511129 12.022898 -0.340795 1.186171 0.003514 -0.009671 3135980.000000 1 0 0
6.704034 9.393700 -3.607971 12.091449 0.950952 1.873802 0.000198 0.000361 145660.000000 1 0 0
1.324634 -2.730000 -11.488271 11.882252 -1.119047 2.883360 0.004410 -0.002949 -618015.000000 1 0 0
1.224434 8.830200 7.534729 11.672353 1.433011 0.869093 0.000721 0.004335 134851.000000 1 0 0
10.368034 0.437400 10.441129 14.720891 0.042162 0.782330 0.020236 -0.003291 945147.000000 1 0 0
-5.337566 -0.877100 -3.933671 6.688249 0.162870 2.199561 0.009144 -0.007085 -418949.000000 1 0 0
11.711134 5.719000 5.337129 14.083415 0.454275 1.182118 0.003412 -0.001694 3022370.000000 1 0 0
9.983834 -3.485300 3.649429 11.186715 -0.335868 1.238485 0.013598 -0.008489 -3435140.000000 1 0 0
7.339534 -1.657700 -3.394371 8.254604 -0.222132 1.994577 0.005253 0.000449 -3799930.000000 1 0 0
2.320534 9.261900 10.373429 14.098784 1.325304 0.743997 0.004193 0.000344 2165520.000000 1 0 0
2.488534 -10.776200 6.429729 12.792994 -1.343846 1.044195 0.001955 0.000779 2393070.000000 1 0 0
5.929734 -7.585200 -1.196871 9.702036 -0.907283 1.694474 0.005312 -0.003836 249535.000000 1 0 0
-0.248766 -5.531100 -2.363171 6.019927 1.525851 1.974208 0.006586 -0.001866 1968010.000000 1 0 0
7.776034 -5.039000 2.740629 9.662778 -0.574980 1.283221 0.007997 -0.006359 1825560.000000 1 0 0
-2.613366 -12.434500 4.660929 13.534058 1.363641 1.219212 0.010729 -0.005491 159028.000000 1 0 0
4.919034 -10.309200 -1.000871 11.466396 -1.125595 1.658195 0.006726 -0.006652 1663700.000000 1 0 0
0.982534 0.208800 1.108229 1.495708 0.209397 0.736328 0.000770 -0.003253 -2052970.000000 1 0 0
-1.619666 8.455600 2.503229 8.965860 -1.381539 1.287840 -0.005412 0.000928 -250111.000000 1 0 0
-7.593666 0.657100 -3.131071 8.240094 -0.086318 1.960571 0.004368 -0.004142 -919239.000000 1 0 0
4.510234 -6.330300 12.889929 15.052082 -0.951741 0.542627 0.016495 -0.005875 -291583.000000 1 0 0
-5.159366 13.041700 8.414429 16.355660 -1.194084 1.030412 0.009505 -0.010349 1814180.000000 1 0 0
0.592734 6.106000 8.234629 10.268578 1.474026 0.640286 0.001119 0.001251 569008.000000 1 0 0
7.982434 -0.513200 -0.684071 8.028112 -0.064203 1.656109 0.008269 -0.002075 5580520.000000 1 0 0
2.496034 -9.170500 -2.345571 9.789277 -1.305053 1.812756 0.000545 -0.000989 694064.000000 1 0 0
-7.099966 12.126400 4.854129 14.866798 -1.041109 1.238190 -0.003713 -0.003317 687575.000000 1 0 0
-14.956166 0.241400 0.139129 14.958761 -0.016139 1.561495 0.008648 -0.009618 263598.000000 1 0 0
6.868134 -0.446400 3.908029 7.914748 -0.064904 1.054382 0.006433 -0.002041 -72505.100000 1 0 0
-4.214466 -5.098900 5.104329 8.355518 0.880078 0.913608 0.005676 -0.003991 824333.000000 1 0 0
2.908534 5.098000 6.891329 9.052049 1.052332 0.705480 0.000318 0.000007 -657424.000000 1 0 0
2.114334 -7.246100 1.858329 7.773658 -1.286889 1.329404 0.004906 -0.002798 1532030.000000 1 0 0
-2.573766 6.366700 -1.831171 7.107203 -1.186628 1.831386 0.000727 0.001083 2867070.000000 1 0 0
2.727734 -3.786600 -6.544371 8.037889 -0.946533 2.522129 -0.001206 -0.001221 -1002720.000000 1 0 0
-5.172066 0.933700 -12.252371 13.332016 -0.178604 2.736380 0.008984 -0.001576 -991300.000000 1 0 0
-7.626366 6.389400 -11.935671 15.538537 -0.697371 2.446717 -0.001227 -0.002982 2421540.000000 1 0 0
-1.037066 11.154500 -9.049371 14.401024 -1.478090 2.250270 0.001863 0.002591 1611610.000000 1 0 0
4.613834 5.909400 -0.672371 7.527321 0.907897 1.660240 0.001589 0.000085 933903.000000 1 0 0
-2.716966 13.351400 3.573529 14.085876 -1.370041 1.314297 -0.005333 0.002456 1824590.000000 1 0 0
1.513934 -7.854100 10.259029 13.008711 -1.380375 0.662222 0.003612 -0.002166 -860444.000000 1 0 0
13.018734 -0.250400 -1.015471 13.060678 -0.019231 1.648625 0.015275 -0.003607 2390680.000000 1 0 0
-1.086966 3.123600 -5.495971 6.414364 -1.235918 2.599871 0.006957 -0.004611 1148780.000000 1 0 0
6.597634 1.090000 7.251829 9.864376 0.163732 0.744903 0.005513 -0.001180 1942420.000000 1 0 0
5.569834 -6.152400 6.910129 10.799304 -0.835055 0.876470 0.004388 -0.002563 1936910.000000 1 0 0
12.276634 -4.842700 2.612829 13.453414 -0.375726 1.375341 0.019857 -0.008931 -176627.000000 1 0 0
4.509934 -9.162800 13.898029 17.246786 -1.113408 0.633715 0.008669 -0.001392 1205160.000000 1 0 0
-2.696766 -4.196500 -1.478971 5.202933 0.999625 1.859028 0.013557 -0.007342 1228370.000000 1 0 0
-9.324766 -5.192700 -7.548971 13.072963 0.508104 2.186397 0.014790 -0.003467 1371380.000000 1 0 0
-10.537766 -3.118900 7.894529 13.531284 0.287759 0.947853 -0.000024 0.000983 -263144.000000 1 0 0
12.140434 -0.663400 1.758429 12.285044 -0.054590 1.427167 0.012740 -0.005595 116599.000000 1 0 0
-7.602466 4.686100 4.301829 9.912757 -0.552385 1.121903 0.000183 -0.005828 1812600.000000 1 0 0
-1.141566 10.582900 6.909929 12.690472 -1.463343 0.995007 -0.001217 0.005205 1402810.000000 1 0 0
7.468334 -9.988600 2.019229 12.634296 -0.928778 1.410287 0.007246 -0.006269 3403830.000000 1 0 0
-4.328766 -1.687200 1.647829 4.929523 0.371652 1.229958 0.003386 -0.004185 1584980.000000 1 0 0
6.802834 -14.948000 -0.869371 16.446187 -1.143709 1.623683 0.021532 -0.012743 -3271540.000000 1 0 0
-10.457166 1.710900 2.377629 10.859679 -0.162173 1.350067 -0.001020 -0.004296 171379.000000 1 0 0
-3.101166 8.274000 -11.478671 14.485724 -1.212194 2.485550 0.005098 -0.000028 -1181520.000000 1 0 0
-1.235866 -5.082600 -6.924171 8.677806 1.332269 2.494628 0.002843 -0.003186 1196560.000000 1 0 0
12.948434 -0.453000 6.438729 14.468047 -0.034971 1.109587 0.021545 -0.010607 3651340.000000 1 0 0
6.023234 -13.304100 3.893529 15.114165 -1.145670 1.310251 0.007178 -0.007682 26958.600000 1 0 0
-5.630966 3.447900 -4.982971 8.271988 -0.549422 2.217289 0.003057 -0.003533 1374430.000000 1 0 0
-4.386766 8.040200 3.386629 9.765132 -1.071334 1.216630 -0.004927 0.001184 -490384.000000 1 0 0
13.966134 6.236100 -3.998871 15.809264 0.419953 1.826519 0.015756 -0.000473 -340741.000000 1 0 0
-6.730866 -8.520600 5.272829 12.070953 0.902212 1.118736 0.008050 -0.000907 2018540.000000 1 0 0
1.563034 11.319900 2.674129 11.736021 1.433586 1.340921 -0.000309 -0.003495 1093250.000000 1 0 0
-7.379966 7.223100 5.988129 11.937117 -0.774657 1.045303 0.001048 -0.004083 -1551690.000000 1 0 0
-17.346866 -3.971000 5.206429 18.541562 0.225040 1.286171 0.040267 -0.007004 -39674.700000 1 0 0
7.624234 -13.130200 -8.491471 17.396441 -1.044716 2.080725 0.009226 -0.006594 -1337960.000000 1 0 0
-2.384366 12.817000 -2.799671 13.334124 -1.386867 1.782333 -0.004458 0.002914 1827770.000000 1 0 0
-5.618466 13.940500 -5.864171 16.133605 -1.187679 1.942792 0.020143 0.000303 4443640.000000 1 0 0
-5.639666 2.397700 7.338329 9.560642 -0.401997 0.695777 0.001828 -0.003585 2545680.000000 1 0 0
-7.377866 5.049900 1.370429 9.045025 -0.600224 1.418699 0.005031 -0.004609 1351100.000000 1 0 0
10.759234 -5.563600 -4.980371 13.096521 -0.477234 1.960897 0.016711 -0.005603 730801.000000 1 0 0
-9.489566 -0.791900 6.811629 11.708000 0.083257 0.949865 -0.004157 -0.001410 1417380.000000 1 0 0
-11.292866 -4.573200 -2.506371 12.438845 0.384778 1.773681 0.003011 -0.001905 161594.000000 1 0 0
6.675034 -4.314000 13.578029 15.733072 -0.573762 0.529569 0.023309 -0.013630 -379065.000000 1 0 0
0.136534 10.174800 -11.681971 15.492374 1.557378 2.424998 0.002425 0.002161 -823665.000000 1 0 0
-11.784866 -3.180500 1.499729 12.298286 0.263600 1.448546 -0.004028 -0.000260 2815610.000000 1 0 0
5.216134 5.921100 5.414629 9.570041 0.848612 0.969406 -0.000047 0.000308 -4457970.000000 1 0 0
-7.105266 -0.067600 8.128629 10.796480 0.009514 0.718345 -0.001241 -0.002149 565337.000000 1 0 0
1.774734 2.075000 9.599529 9.980294 0.863237 0.277116 0.005890 -0.006313 3265010.000000 1 0 0
10.593434 -4.948300 -2.000871 11.862125 -0.436991 1.740284 0.015344 -0.004633 2101580.000000 1 0 0
-9.724866 -2.432100 -1.576671 10.147611 0.245064 1.726802 0.001792 -0.003467 638144.000000 1 0 0
-2.026066 -5.173700 -9.954371 11.400070 1.197545 2.632496 0.009667 -0.004993 344213.000000 1 0 0
7.667534 -1.639800 6.472529 10.167284 -0.210689 0.880710 0.006873 -0.003967 1930080.000000 1 0 0
1.620034 -11.811000 -2.565671 12.194543 -1.434484 1.782775 0.002828 -0.003222 -3102920.000000 1 0 0
-0.729466 -1.546600 4.832729 5.126340 1.130078 0.340089 0.007645 -0.004416 797185.000000 1 0 0
7.649434 1.568900 9.818329 12.544915 0.202295 0.671878 0.008828 -0.000667 271800.000000 1 0 0
-3.863766 10.747200 -8.025871 13.958711 -1.225671 2.183367 0.008712 0.002684 2076020.000000 1 0 0
-9.590366 12.562700 6.476729 17.080532 -0.918774 1.181878 0.016106 -0.008969 1623410.000000 1 0 0
-2.531266 -2.379000 -11.135271 11.664527 0.754398 2.839200 0.013963 -0.006685 -1863820.000000 1 0 0
1.253634 -11.879700 11.067329 16.284491 -1.465658 0.823547 0.004473 0.005517 564842.000000 1 0 0
1.399234 3.462300 -1.968371 4.221358 1.186731 2.055887 0.002529 -0.001910 2877660.000000 1 0 0
-1.873566 -9.393900 -12.016071 15.366898 1.373935 2.468576 0.001520 -0.000884 1224010.000000 1 0 0
1.323634 -2.656700 1.567129 3.356480 -1.108570 1.085018 0.009779 -0.004565 2580250.000000 1 0 0
-1.095166 -2.228800 -6.623871 7.074079 1.114076 2.782904 0.007632 -0.006774 388776.000000 1 0 0
1.739434 5.822900 4.134129 7.350022 1.280512 0.973432 -0.001717 0.002500 -139233.000000 1 0 0
-11.023066 8.535100 3.616929 14.402711 -0.658869 1.316951 0.005848 -0.012496 2309040.000000 1 0 0
-16.341766 -1.390000 3.916929 16.862021 0.084854 1.336362 0.025888 -0.010056 -84863.200000 1 0 0
-12.248266 0.196400 6.866629 14.043119 -0.016034 1.059891 0.000196 0.001880 53891.600000 1 0 0
-5.169766 2.963800 4.587229 7.520191 -0.520552 0.914750 -0.001781 -0.002888 1662340.000000 1 0 0
5.230634 -5.997600 4.002429 8.907872 -0.853599 1.104799 0.004308 -0.004123 1479340.000000 1 0 0
9.977534 3.478700 6.183929 12.243101 0.335475 1.041304 0.000069 0.000334 -203752.000000 1 0 0
-12.227966 5.841500 3.158929 13.914924 -0.445662 1.341782 0.006951 -0.010429 165620.000000 1 0 0
-4.910466 12.234000 -1.287471 13.245415 -1.189102 1.668151 -0.003584 0.006324 846472.000000 1 0 0
-1.644066 -12.222800 10.351429 16.101300 1.437091 0.872526 0.013545 -0.002211 1326520.000000 1 0 0
5.271734 6.322600 13.866429 16.125890 0.875787 0.535750 0.023316 -0.008667 1451660.000000 1 0 0
12.902534 -3.622500 -5.931071 14.655220 -0.273712 1.987455 0.018505 -0.004147 1686650.000000 1 0 0
3.585634 -2.550600 6.409229 7.774352 -0.618295 0.601643 0.000524 -0.002319 943556.000000 1 0 0
7.308934 -11.829400 -0.543871 13.915855 -1.017347 1.609889 0.011363 -0.007725 -668191.000000 1 0 0
-6.027466 -6.550200 -4.048571 9.778875 0.826935 1.997653 0.015307 -0.005074 951072.000000 1 0 0
0.316234 -8.863200 5.126429 10.243856 -1.535132 1.046690 0.009962 -0.003886 1926490.000000 1 0 0
-10.285566 2.484100 -0.427871 10.589934 -0.236975 1.611211 0.004221 -0.004342 -1587180.000000 1 0 0
-1.919366 8.902100 -0.363571 9.113920 -1.358439 1.610699 -0.001130 0.001148 848510.000000 1 0 0
-3.553766 2.287800 -6.695971 7.918289 -0.571982 2.578547 0.009258 -0.006940 -710555.000000 1 0 0
-12.688966 2.944000 6.370629 14.500411 -0.227979 1.115931 0.005847 -0.007837 -1338500.000000 1 0 0
11.427734 1.637500 7.953129 14.018801 0.142323 0.967550 0.016481 -0.005360 -1600570.000000 1 0 0
6.024834 2.635000 -3.112371 7.275212 0.412290 2.012859 0.002753 -0.000425 489325.000000 1 0 0
10.550434 -2.369700 6.366629 12.548351 -0.220940 1.038669 0.012657 -0.007512 2644060.000000 1 0 0
-1.050566 10.996100 4.028329 11.757778 -1.475546 1.221103 -0.002470 0.001332 1231720.000000 1 0 0
-1.528966 -12.195900 7.417129 14.355888 1.446080 1.027850 0.010174 -0.001742 -545549.000000 1 0 0
8.037234 8.661700 -7.833971 14.177210 0.822776 2.156247 0.008273 -0.001325 1688230.000000 1 0 0
-4.728366 -5.914400 -8.706671 11.538790 0.896381 2.425775 0.013078 -0.005864 732181.000000 1 0 0
-8.525666 -5.393200 -11.719071 15.463189 0.564034 2.430837 0.019017 -0.000713 1211500.000000 1 0 0
6.020234 -0.593500 -9.894371 11.597156 -0.098267 2.592833 0.001220 0.003158 -425640.000000 1 0 0
-11.187766 -5.505000 -5.365671 13.574297 0.457272 1.977171 0.008659 -0.005448 -983076.000000 1 0 0
3.906234 8.902900 -2.723971 10.096550 1.157329 1.843974 0.006320 -0.003565 656849.000000 1 0 0
11.771434 -10.298900 -3.934671 16.128101 -0.718777 1.817247 0.018951 -0.008282 765543.000000 1 0 0
4.072234 -11.305100 4.066129 12.685495 -1.225053 1.244503 -0.000362 -0.003090 -275928.000000 1 0 0
-1.058166 0.758400 3.147229 3.405868 -0.621854 0.392225 0.005593 -0.004108 -744057.000000 1 0 0
-10.579066 -5.126500 4.568929 12.612405 0.451243 1.200108 0.000233 0.001211 2421980.000000 1 0 0
4.634734 -8.664100 2.805829 10.218614 -1.079593 1.292643 0.003291 -0.002708 5709110.000000 1 0 0
-3.692766 -5.695600 2.582429 7.262597 0.995579 1.207263 0.009207 -0.002701 2295670.000000 1 0 0
10.095434 5.075900 12.329129 16.723934 0.465878 0.741858 0.026082 -0.002163 567974.000000 1 0 0
1.715934 -12.296900 -5.222371 13.469645 -1.432150 1.968947 0.001142 -0.004017 1527380.000000 1 0 0
9.898534 -10.666100 -1.662071 14.646130 -0.822705 1.684523 0.015768 -0.008962 429833.000000 1 0 0
9.499834 -4.411000 -9.125671 13.891783 -0.434702 2.287511 0.013616 -0.002243 2784270.000000 1 0 0
-7.439466 -3.146300 -13.178771 15.457194 0.400108 2.591733 0.012191 0.000162 1997940.000000 1 0 0
0.383334 6.233800 -2.575071 6.755605 1.509381 1.961864 0.001105 -0.001040 1447070.000000 1 0 0
-5.981666 -9.421200 0.879129 11.194293 1.005099 1.492182 0.008177 0.000150 954165.000000 1 0 0
-9.013166 -4.143500 0.585529 9.937233 0.430905 1.511839 -0.001240 -0.001885 2394150.000000 1 0 0
1.812034 3.853300 11.994229 12.727644 1.131227 0.341133 0.006233 -0.010745 1244190.000000 1 0 0
6.721234 4.338800 9.532929 12.444955 0.573231 0.698189 0.004771 -0.001490 1527460.000000 1 0 0
-8.285966 9.849800 -3.647271 13.378280 -0.871415 1.846918 0.012506 -0.000197 2265180.000000 1 0 0
16.463134 2.229600 -6.053671 17.681992 0.134611 1.920228 0.039570 0.001316 -1424270.000000 1 0 0
-10.981466 2.605900 -5.071671 12.373567 -0.232990 1.993118 -0.000719 -0.000729 1565740.000000 1 0 0
-13.793766 4.015800 1.413129 14.435774 -0.283301 1.472749 0.010439 -0.007218 -607496.000000 1 0 0
-17.416366 10.313300 3.417329 20.527350 -0.534636 1.403541 0.043303 -0.028548 -410153.000000 1 0 0
-14.398466 2.848500 -1.303771 14.735318 -0.195312 1.659391 0.013187 -0.005079 1658980.000000 1 0 0
-14.337166 5.060200 5.117829 16.042198 -0.339294 1.246098 0.011145 -0.012510 346426.000000 1 0 0
-17.568766 7.399300 3.230929 19.335203 -0.398616 1.402908 0.037690 -0.015366 -3255490.000000 1 0 0
-15.265366 12.421200 -3.275071 19.951033 -0.683030 1.735698 0.057773 -0.013180 -73993.900000 1 0 0
-8.647966 12.334400 -9.718171 17.926728 -0.959315 2.143737 0.025906 -0.014972 840730.000000 1 0 0
-12.386066 8.818300 -9.809571 18.094329 -0.618703 2.143772 0.000535 -0.000136 -630308.000000 1 0 0
-13.865766 -3.551400 -12.141871 18.769575 0.250737 2.274297 0.031725 -0.001913 -1885920.000000 1 0 0
-14.814966 5.738600 -7.634471 17.626681 -0.369555 2.018748 0.019324 0.001424 1378150.000000 1 0 0
-10.967166 13.532300 -8.410971 19.342862 -0.889720 2.020652 0.028851 -0.011061 1965010.000000 1 0 0
-10.923666 13.456700 4.001729 17.788285 -0.888923 1.343890 0.010018 -0.007537 -841661.000000 1 0 0
-15.215566 3.286800 2.983329 15.849819 -0.212747 1.381442 0.012148 -0.008440 955438.000000 1 0 0
-11.233166 9.486800 -12.557071 19.335548 -0.701313 2.277630 0.018026 -0.008949 -807764.000000 1 0 0
-13.203866 11.556200 -9.104671 19.768229 -0.718951 2.049435 0.025636 -0.014787 420069.000000 1 0 0
-9.000166 14.491500 -3.468971 17.408053 -1.015032 1.771413 0.025194 -0.003723 143406.000000 1 0 0
-16.915066 8.105000 -4.129071 19.205721 -0.446836 1.787480 0.045251 -0.003857 -726569.000000 1 0 0
-17.135766 6.629500 0.454529 18.379101 -0.369146 1.546063 0.037498 -0.005398 -4939.360000 1 0 0
-10.615566 2.735400 -12.499571 16.625640 -0.252192 2.421622 -0.002376 0.000625 294724.000000 1 0 0
-16.890266 0.978400 2.276729 17.071082 -0.057862 1.437030 0.027133 -0.012454 -783607.000000 1 0 0
-12.723666 1.188000 -6.937471 14.540685 -0.093099 2.068157 0.003414 -0.002906 1760480.000000 1 0 0
-12.408866 9.037800 -5.401771 16.273934 -0.629490 1.909143 0.023420 -0.001758 65213.000000 1 0 0
-9.724666 13.914300 1.282929 17.024182 -0.960811 1.495366 0.024461 -0.004231 6663.350000 1 0 0
-12.234266 11.122200 2.770829 16.764787 -0.737821 1.404758 0.012791 -0.008539 -3499.600000 1 0 0
-12.721866 6.806500 -3.666571 14.886842 -0.491272 1.819653 0.020744 -0.000443 290665.000000 1 0 0
-15.795066 3.726700 -9.440871 18.775048 -0.231703 2.097679 0.021526 -0.003944 -1264290.000000 1 0 0
-15.224066 5.775200 -4.692671 16.945391 -0.362576 1.851393 0.024501 0.002576 883967.000000 1 0 0
-17.952366 5.302700 7.606329 20.205502 -0.287209 1.184837 0.041883 -0.018061 -1411720.000000 1 0 0
-16.099266 9.880500 -2.005371 18.995583 -0.550449 1.676564 0.041738 -0.007938 -398131.000000 1 0 0
-8.862266 9.853700 -8.271671 15.622282 -0.838321 2.128783 0.009541 -0.006832 441407.000000 1 0 0
-17.190866 4.161200 -1.307471 17.735584 -0.237491 1.644583 0.031028 -0.002958 790426.000000 1 0 0
-10.304066 5.373900 -4.660571 12.520922 -0.480724 1.952199 0.008698 -0.003613 868524.000000 1 0 0
-18.327266 2.870200 6.049229 19.512045 -0.155346 1.255577 0.066838 -0.023472 -789925.000000 1 0 0
-10.417466 10.040600 -5.670671 15.540069 -0.766979 1.944329 0.015740 -0.004625 473629.000000 1 0 0
-15.410066 0.416500 -5.886971 16.501516 -0.027021 1.935587 0.009579 -0.001771 278564.000000 1 0 0
-16.426866 -4.220800 -8.917571 19.161945 0.251504 2.054859 0.045147 -0.019079 -849625.000000 1 0 0
-10.006766 9.562800 -1.125471 13.887015 -0.762716 1.651930 0.017902 -0.002102 2277930.000000 1 0 0
-17.356466 -3.112200 -3.131971 17.909270 0.177425 1.746580 0.025147 -0.011648 -478268.000000 1 0 0
-12.062466 5.136300 -11.604671 17.508656 -0.402555 2.295343 -0.004194 0.004285 578727.000000 1 0 0
-16.355166 6.971400 5.896629 18.731314 -0.402929 1.250550 0.034024 -0.019623 -827593.000000 1 0 0
-12.109566 6.016800 -8.827771 16.148468 -0.461135 2.149170 -0.000051 -0.000588 1025610.000000 1 0 0
-14.707366 8.256800 0.060729 16.866685 -0.511558 1.567196 0.031413 -0.005106 2367530.000000 1 0 0
-14.982766 11.793800 3.860329 19.454540 -0.666861 1.371042 0.029961 -0.021357 1163050.000000 1 0 0
-17.438666 3.979500 -4.105571 18.352090 -0.224358 1.796417 0.032416 -0.001863 445370.000000 1 0 0
-14.033666 13.214200 -0.684771 19.288022 -0.755333 1.606306 0.046604 -0.012383 -128403.000000 1 0 0
-10.221966 6.854500 -13.235871 18.073766 -0.590697 2.392526 -0.009173 -0.002409 1914140.000000 1 0 0
-15.900066 -1.261700 -8.346471 18.001876 0.079186 2.052900 0.020524 -0.008704 -194296.000000 1 0 0
-11.485966 11.881000 -0.015871 16.525309 -0.802302 1.571757 0.029771 -0.005855 1173410.000000 1 0 0
-12.070166 7.368100 -0.929171 14.171844 -0.548060 1.636408 0.017413 -0.002730 2616750.000000 1 0 0
-11.519366 0.102600 -11.662771 16.392881 -0.008907 2.362361 0.005800 -0.003491 469830.000000 1 0 0
-19.116066 -1.387000 -4.678971 19.729179 0.072430 1.810238 0.036178 -0.016667 -1973050.000000 1 0 0
-18.026966 1.348000 -5.229971 18.818640 -0.074638 1.852419 0.021399 -0.003823 152199.000000 1 0 0
-13.338166 -0.129500 -9.418071 16.328610 0.009709 2.185582 0.008542 -0.006889 -1206170.000000 1 0 0
-6.203766 11.231400 -13.438071 18.579903 -1.066144 2.379305 0.005323 -0.000166 -1160940.000000 1 0 0
16.392334 5.888500 6.912029 18.739242 0.344867 1.193021 0.070094 -0.017370 1415010.000000 1 0 0
14.798434 10.290300 -5.342971 18.799768 0.607608 1.858972 0.057411 -0.020544 1273000.000000 1 0 0
2.300934 16.873200 4.370229 17.581186 1.435266 1.319588 0.017923 -0.006712 2872800.000000 1 0 0
-4.119366 18.130500 -5.920771 19.512553 -1.347383 1.879091 0.015705 -0.010761 1131240.000000 1 0 0
5.418734 14.520300 5.604329 16.480604 1.213619 1.223820 0.009895 -0.005604 523608.000000 1 0 0
10.117934 6.166100 15.084529 19.181669 0.547319 0.665832 0.052981 -0.005213 -887636.000000 1 0 0
4.549634 12.679000 -1.100171 13.515421 1.226275 1.652288 0.004444 -0.007657 1368830.000000 1 0 0
3.455934 13.782300 12.958229 19.230470 1.325110 0.831405 0.028935 -0.010944 877233.000000 1 0 0
-0.784666 12.386600 9.136429 15.411616 -1.507533 0.936231 0.006250 0.000396 1309410.000000 1 0 0
-7.823266 13.959200 8.436629 18.089762 -1.059975 1.085607 0.021439 -0.016603 1668470.000000 1 0 0
11.339534 12.836200 -4.212671 17.638018 0.847227 1.811968 0.070915 -0.016501 509893.000000 1 0 0
-5.934866 16.098200 0.811929 17.176551 -1.217590 1.523509 -0.001424 0.001711 434138.000000 1 0 0
3.176634 10.662800 6.723929 12.999905 1.281251 1.027186 0.003088 0.004894 1381850.000000 1 0 0
-1.323766 15.510700 2.395029 15.750249 -1.485657 1.418141 -0.000862 -0.003761 -1022400.000000 1 0 0
9.806334 8.837200 9.493029 16.259702 0.733463 0.947348 0.008720 -0.003838 3146010.000000 1 0 0
7.259934 12.298200 6.284229 15.602689 1.037521 1.156260 0.003588 -0.003482 1448010.000000 1 0 0
11.677534 14.050400 -1.620071 18.341297 0.877367 1.659241 0.067731 -0.013182 -52443.500000 1 0 0
9.491134 15.919900 -1.181071 18.572016 1.033190 1.634433 0.051983 -0.015016 87912.400000 1 0 0
10.086834 13.724100 2.970129 17.289211 0.936982 1.398149 0.028152 -0.013023 3486120.000000 1 0 0
-6.103566 14.558500 6.252029 16.979144 -1.173811 1.193705 -0.001330 -0.006483 470589.000000 1 0 0
-1.118466 18.220000 -6.232571 19.288969 -1.509487 1.899816 0.026501 0.001990 782123.000000 1 0 0
-3.639766 15.734900 5.428329 17.038244 -1.343477 1.246548 -0.004577 0.001337 1614350.000000 1 0 0
7.021034 12.309600 10.701429 17.757865 1.052448 0.924003 0.013776 -0.001470 2058870.000000 1 0 0
1.420034 14.603500 6.225029 15.938309 1.473862 1.169545 0.006985 0.001937 873126.000000 1 0 0
17.329334 7.700500 -1.547571 19.026258 0.418156 1.652225 0.016455 -0.001453 355207.000000 1 0 0
1.828234 16.172600 -3.231271 16.593268 1.458229 1.766782 0.005500 -0.007680 629325.000000 1 0 0
6.716234 11.166100 0.613529 13.044770 1.029286 1.523746 0.007525 -0.007017 1554900.000000 1 0 0
12.624034 9.309300 3.194629 16.007341 0.635406 1.369874 0.021964 -0.002248 -1894230.000000 1 0 0
5.887534 14.294900 -3.375571 15.824086 1.180106 1.785767 0.015097 -0.006105 1789700.000000 1 0 0
2.978134 16.329600 1.640129 16.679783 1.390403 1.472307 0.017105 -0.019869 -1056690.000000 1 0 0
2.475434 18.902500 -2.379471 19.211824 1.440579 1.694970 0.019281 -0.025026 -234944.000000 1 0 0
3.920034 11.914300 10.716729 16.497439 1.252933 0.863739 0.018623 -0.004699 3077870.000000 1 0 0
7.977334 11.546700 3.425829 14.446469 0.966220 1.331376 0.002671 -0.003469 1147870.000000 1 0 0
0.693334 12.406400 0.161129 12.426803 1.514969 1.557830 0.003488 -0.004663 -3186620.000000 1 0 0
11.900734 9.857400 -4.687971 16.148464 0.691762 1.865341 0.040527 -0.011432 483988.000000 1 0 0
-1.354466 16.527500 9.847129 19.286233 -1.489027 1.034939 0.006750 -0.002915 254574.000000 1 0 0
7.892334 14.924400 -8.011371 18.687127 1.084359 2.013861 0.045113 -0.006043 1686560.000000 1 0 0
14.432134 7.663900 -1.367271 16.397905 0.488163 1.654274 0.021874 -0.003603 562751.000000 1 0 0
12.373134 8.344300 5.938529 16.062002 0.593330 1.192083 0.011395 -0.005182 -1541820.000000 1 0 0
-3.078466 14.144400 10.189029 17.701902 -1.356493 0.957471 0.012301 -0.010401 2110170.000000 1 0 0
-4.722266 17.060800 -3.136171 17.977938 -1.300766 1.746139 0.015822 -0.008757 194256.000000 1 0 0
-7.282566 16.362300 -1.806571 18.000676 -1.152040 1.671327 0.019705 -0.002069 968573.000000 1 0 0
8.250234 11.341200 -1.872671 14.149066 0.941880 1.703539 0.011859 -0.006080 -927984.000000 1 0 0
8.446634 12.967000 -4.244371 16.046913 0.993441 1.838479 0.037921 -0.006615 1415590.000000 1 0 0
2.429334 14.776100 -7.298971 16.658625 1.407844 2.024336 -0.001798 -0.000321 -377442.000000 1 0 0
11.294134 11.355900 9.818729 18.786202 0.788125 1.020832 0.025629 -0.006916 1112380.000000 1 0 0
8.394634 15.630000 1.465729 17.802111 1.077923 1.488368 0.018748 -0.014677 -840815.000000 1 0 0
5.993434 10.073000 7.733229 14.042415 1.034061 0.987588 0.003871 0.006065 1634720.000000 1 0 0
14.396634 11.373800 2.402829 18.504053 0.668633 1.440574 0.046265 -0.008535 802287.000000 1 0 0
12.038834 12.645400 1.019329 17.489388 0.809966 1.512481 0.044265 -0.009504 2752160.000000 1 0 0
5.157234 15.811700 8.243629 18.562445 1.255510 1.110624 0.024385 -0.008487 -1159930.000000 1 0 0
11.449234 15.064600 5.136229 19.606325 0.920920 1.305735 0.040893 -0.014236 177731.000000 1 0 0
5.889934 16.646600 1.770729 17.746439 1.230721 1.470851 0.016516 -0.024536 -1135150.000000 1 0 0
-0.775966 16.186100 -4.260671 16.755455 -1.522893 1.827905 0.004046 -0.000805 896162.000000 1 0 0
15.990434 6.462700 2.428629 17.417196 0.384088 1.430902 0.021572 -0.007261 -587367.000000 1 0 0
7.436634 16.732500 -3.094971 18.570378 1.152574 1.738239 0.043909 -0.015570 -562371.000000 1 0 0
14.770534 8.250800 7.353229 18.447611 0.509421 1.160806 0.052513 -0.013373 722333.000000 1 0 0
2.094334 12.943100 8.588429 15.673902 1.410376 0.990891 0.009786 0.002692 2165640.000000 1 0 0
15.961234 7.604400 -5.780171 18.601029 0.444614 1.886773 0.027660 -0.004002 -682488.000000 1 0 0
-3.110266 17.017600 0.661229 17.312126 -1.390024 1.532592 -0.004688 -0.002967 771651.000000 1 0 0
-2.990566 18.538900 4.569429 19.326510 -1.410861 1.332103 -0.001216 -0.000171 910366.000000 1 0 0
-1.227166 19.194100 0.812429 19.250441 -1.506949 1.528581 0.003961 -0.007659 747735.000000 1 0 0
6.694834 16.917600 -5.972071 19.149194 1.193975 1.887958 0.037567 -0.010067 -1849210.000000 1 0 0
10.923334 10.070100 0.752729 14.875912 0.744778 1.520174 0.018721 -0.005111 -1804290.000000 1 0 0
9.137934 8.788900 14.320229 19.126306 0.765931 0.724669 0.052726 -0.012362 586664.000000 1 0 0
6.255534 12.461100 -8.366271 16.260542 1.105546 2.111237 0.020047 -0.005662 1774160.000000 1 0 0
6.325334 9.003600 13.332429 17.286652 0.958372 0.689985 0.031537 -0.010560 -363273.000000 1 0 0
16.603434 9.454900 2.761129 19.305258 0.517657 1.427279 0.038896 -0.008340 -1775840.000000 1 0 0
2.482634 14.623000 -0.719471 14.849688 1.402624 1.619266 0.005410 -0.009254 -522421.000000 1 0 0
9.031434 12.910800 8.462729 17.885004 0.960389 1.077905 0.014620 -0.005849 469324.000000 1 0 0
7.097134 9.392000 10.478929 15.760296 0.923684 0.843444 0.009571 -0.005705 143158.000000 1 0 0
4.149334 15.887700 -5.216871 17.229386 1.315336 1.878414 0.023378 -0.005953 1876710.000000 1 0 0
0.148134 16.378400 -8.131271 18.286375 1.561752 2.031594 0.007037 0.004338 575289.000000 1 0 0
-2.522466 15.693900 -1.972471 16.017240 -1.411430 1.694256 -0.008704 -0.000439 750390.000000 1 0 0
13.128434 10.506200 7.673329 18.482857 0.674901 1.142678 0.042445 -0.013631 802297.000000 1 0 0
-1.089666 15.908000 7.009529 17.417960 -1.502405 1.156625 0.005014 -0.001775 1685640.000000 1 0 0
13.128334 13.343500 6.777129 19.908080 0.793526 1.223432 0.047945 -0.015606 -871830.000000 1 0 0
5.305434 17.316900 4.494429 18.660722 1.273503 1.327555 0.020162 -0.011996 -81620.400000 1 0 0
10.681334 9.582400 -1.942471 14.480555 0.731220 1.705345 0.018623 -0.002240 352148.000000 1 0 0
3.173734 12.710400 4.689229 13.914587 1.326104 1.227067 0.002263 -0.000819 1893840.000000 1 0 0
-0.270666 18.011600 3.407329 18.333055 -1.555770 1.383852 0.000589 -0.005241 2640510.000000 1 0 0
-7.917566 15.782300 -5.753271 18.570648 -1.105811 1.885784 0.047171 -0.016104 -94912.700000 1 0 0
-12.344666 -9.206800 8.290729 17.489772 0.640815 1.076931 0.024092 -0.004150 16440.400000 1 0 0
-13.241066 -11.746600 6.815529 18.967337 0.725661 1.203247 0.035137 -0.003416 -745360.000000 1 0 0
-6.480166 -12.309700 12.257729 18.541122 1.086231 0.848498 0.026277 -0.006857 372670.000000 1 0 0
-1.760066 -10.747700 14.385929 18.043443 1.408475 0.647998 0.011994 -0.002846 182513.000000 1 0 0
-8.964466 2.740000 10.854829 14.342126 -0.296633 0.712317 0.000999 -0.000242 1607550.000000 1 0 0
0.444834 10.116100 15.136629 18.211285 1.526852 0.589592 0.004543 -0.004652 -1393070.000000 1 0 0
1.069934 -6.730700 16.492729 17.845369 -1.413152 0.391855 0.013680 -0.016333 870540.000000 1 0 0
6.098734 2.395900 17.531429 18.715927 0.374329 0.357679 0.051389 -0.025361 1592550.000000 1 0 0
-5.125766 -2.925600 17.637629 18.598887 0.518645 0.322909 0.022493 -0.016403 402163.000000 1 0 0
-4.428766 8.075100 13.003729 15.934811 -1.069146 0.616239 0.005437 -0.000786 370868.000000 1 0 0
0.142934 -4.770700 18.385829 18.995229 -1.540844 0.253987 0.024309 -0.027613 -169621.000000 1 0 0
-11.755466 2.096400 11.140729 16.331005 -0.176479 0.820053 0.011736 -0.004324 202986.000000 1 0 0
-3.270266 -5.993600 14.400629 15.937252 1.071317 0.442736 0.017184 -0.011913 2082680.000000 1 0 0
-7.483566 -2.302200 14.602029 16.568740 0.298446 0.492190 0.014372 -0.009231 617188.000000 1 0 0
-6.127866 -1.194200 10.575329 12.280653 0.192468 0.533294 0.005912 -0.004569 1218620.000000 1 0 0
-4.055866 2.371400 11.097929 12.051457 -0.529082 0.400468 0.004537 -0.001391 1979460.000000 1 0 0
-6.610666 6.167400 13.604329 16.334488 -0.750722 0.586543 -0.002547 0.000605 259128.000000 1 0 0
-9.054766 5.359900 12.475829 16.320651 -0.534474 0.700655 0.001016 -0.002242 -1018340.000000 1 0 0
-12.164066 -2.145500 15.760529 20.024034 0.174584 0.664734 0.038551 -0.012398 1120730.000000 1 0 0
-3.313566 -7.616100 16.887629 18.819583 1.160424 0.457084 0.028548 -0.014593 -1250420.000000 1 0 0
-0.456666 -5.264800 14.331129 15.274421 1.484273 0.353278 0.017053 -0.008165 2058940.000000 1 0 0
-14.228866 -2.218600 13.707629 19.881698 0.154677 0.810053 0.047152 -0.010098 118619.000000 1 0 0
-6.627366 1.385700 12.121029 13.883857 -0.206118 0.509414 0.001729 -0.005092 -48193.400000 1 0 0
2.299034 -2.135600 14.535129 14.869981 -0.748561 0.212620 0.012319 -0.008397 1031830.000000 1 0 0
-12.667166 4.009400 9.063629 16.083587 -0.306542 0.972140 0.007610 -0.005113 343812.000000 1 0 0
-9.072666 -3.081200 12.578429 15.812145 0.327392 0.650978 0.004707 -0.004777 246441.000000 1 0 0
-7.152866 -7.235900 15.238429 18.322976 0.791169 0.588711 0.027363 -0.016896 -1008690.000000 1 0 0
-3.203266 6.067100 19.359029 20.538808 -1.085021 0.340588 0.031748 -0.016366 -172469.000000 1 0 0
0.628134 5.470900 16.147529 17.060715 1.456483 0.328664 0.009448 -0.013456 546918.000000 1 0 0
3.397234 1.573800 16.680229 17.095265 0.433825 0.220802 0.027159 -0.015063 1295050.000000 1 0 0
-11.723366 11.368300 7.877729 18.131028 -0.770023 1.121326 0.020581 -0.019622 252734.000000 1 0 0
0.642634 -9.479200 15.546929 18.220187 -1.503106 0.548552 0.000420 0.000811 657187.000000 1 0 0
-2.424766 -3.510400 18.774529 19.253191 0.966314 0.223451 0.022119 -0.022517 2352070.000000 1 0 0
-12.944366 2.309000 13.765229 19.036009 -0.176522 0.762494 0.015304 -0.010546 153209.000000 1 0 0
-5.356866 -0.610800 15.762429 16.659030 0.113532 0.329577 0.013240 -0.007599 632044.000000 1 0 0
-4.409166 -5.982100 11.672129 13.837083 0.935628 0.566956 0.011750 -0.004675 539163.000000 1 0 0
2.405334 1.919300 13.965229 14.300244 0.673481 0.216884 0.012367 -0.011503 493216.000000 1 0 0
-0.015066 3.352700 14.246329 14.635530 -1.566303 0.231134 0.010706 -0.010744 1233590.000000 1 0 0
-13.079466 7.159500 12.144829 19.230906 -0.500833 0.887276 0.016612 -0.006847 780757.000000 1 0 0
0.839934 1.632500 18.184829 18.277269 1.095610 0.100617 0.018694 -0.009731 1580290.000000 1 0 0
-2.108266 6.404400 12.421729 14.133665 -1.252779 0.497297 0.000412 -0.003629 1360330.000000 1 0 0
-13.508066 -2.741900 10.910429 17.579059 0.200262 0.901226 0.038714 -0.005608 -563369.000000 1 0 0
-2.639266 3.602900 13.397329 14.122147 -0.938564 0.321777 0.009310 -0.007349 -104025.000000 1 0 0
3.531534 6.086700 16.219729 17.680477 1.045059 0.409347 0.020592 -0.016320 498152.000000 1 0 0
-3.862066 12.267200 12.251229 17.762105 -1.265791 0.809667 0.016703 -0.013882 -661321.000000 1 0 0
3.791634 -1.330800 17.027229 17.494972 -0.337550 0.231758 0.035377 -0.022404 -758001.000000 1 0 0
-15.900166 0.282700 9.050829 18.297888 -0.017778 1.053378 0.045014 -0.002827 258294.000000 1 0 0
-4.802666 4.582400 15.155329 16.545332 -0.761933 0.412832 0.011906 -0.007706 959202.000000 1 0 0
-7.986266 -8.255500 10.544429 15.592264 0.801973 0.828122 0.011961 -0.004704 3427320.000000 1 0 0
-2.653466 -0.456800 14.709829 14.954218 0.170481 0.181037 0.012425 -0.005191 2220100.000000 1 0 0
-1.872866 1.064100 17.121329 17.256299 -0.516684 0.125153 0.013600 -0.012927 494445.000000 1 0 0
-0.615766 -2.416600 14.427229 14.641177 1.321299 0.171164 0.015863 -0.005631 525432.000000 1 0 0
5.352934 -8.073200 16.489829 19.124459 -0.985302 0.531125 0.030459 -0.014417 298478.000000 1 0 0
-4.518566 9.872200 10.599929 15.173539 -1.141553 0.797385 0.003694 -0.005903 -1976300.000000 1 0 0
-6.279566 2.027900 15.142329 16.517732 -0.312364 0.410975 0.010442 -0.004911 -1630840.000000 1 0 0
-4.922566 6.834800 17.277729 19.221501 -0.946628 0.453601 0.020457 -0.005680 -1396230.000000 1 0 0
-4.078566 9.152000 15.649629 18.582376 -1.151568 0.569490 0.011324 -0.007966 142381.000000 1 0 0
-4.564766 -9.780800 18.337229 21.278043 1.134136 0.532006 0.042769 -0.021153 -28814.000000 1 0 0
-6.828866 -4.203500 11.109429 13.701177 0.551774 0.625214 0.009714 -0.002609 1203690.000000 1 0 0
-2.285466 -0.714100 19.484929 19.631499 0.302842 0.122273 0.021594 -0.017325 233806.000000 1 0 0
-5.721566 -4.523500 15.266729 16.919557 0.668986 0.445692 0.020856 -0.012431 1352880.000000 1 0 0
-13.037966 -0.030800 9.716929 16.260634 0.002362 0.930324 0.020089 0.000946 1131590.000000 1 0 0
-14.699566 8.670000 10.330129 19.948878 -0.532896 1.026484 0.032629 -0.016761 -2132930.000000 1 0 0
-8.444566 10.416800 12.792529 18.532923 -0.889584 0.808948 0.020341 -0.018522 -21054.200000 1 0 0
-10.547866 7.063000 10.686829 16.593727 -0.590040 0.871044 0.010801 -0.005353 -826225.000000 1 0 0
-9.837066 -6.593600 14.803729 18.957685 0.590501 0.674719 0.037548 -0.016862 -68051.300000 1 0 0
-0.645066 -13.468300 14.324329 19.672255 1.522938 0.755179 0.012607 -0.008469 776234.000000 1 0 0
3.862334 -5.643900 16.930129 18.259258 -0.970659 0.383908 0.035718 -0.022363 1762570.000000 1 0 0
-7.364666 9.200700 10.422929 15.733043 -0.895783 0.846663 0.010045 -0.008559 2117870.000000 1 0 0
-10.325966 -6.743000 11.826429 17.086780 0.578491 0.806348 0.025196 -0.015080 2556940.000000 1 0 0
-10.931366 -3.992200 10.735229 15.832800 0.350157 0.825707 0.013166 -0.003766 -1415530.000000 1 0 0
-10.011866 -10.289600 9.855529 17.413925 0.799078 0.969203 0.021596 -0.005061 930823.000000 1 0 0
-9.841766 -3.751000 15.329529 18.599054 0.364135 0.601990 0.034926 -0.023270 1599080.000000 1 0 0
5.626534 -3.231400 16.079629 17.339386 -0.521319 0.383536 0.035259 -0.022816 796040.000000 1 0 0
-11.190366 0.530500 15.185429 18.870691 -0.047371 0.635610 0.017248 -0.012316 184570.000000 1 0 0
-3.238166 3.277600 18.697929 19.257231 -0.791450 0.241601 0.024280 -0.016667 20479.100000 1 0 0
0.431534 7.416600 13.876929 15.740437 1.512677 0.491533 0.000004 -0.008019 1486190.000000 1 0 0
-13.063866 -7.260000 12.375629 19.404340 0.507233 0.879189 0.041822 -0.016701 -1462730.000000 1 0 0
-1.459266 -1.059800 12.149129 12.282263 0.628131 0.147371 0.011764 -0.006317 619285.000000 1 0 0
2.189534 -4.797500 13.116329 14.136766 -1.142641 0.382279 0.012638 -0.004310 32054.400000 1 0 0
-14.493466 -4.286600 8.652929 17.415760 0.287563 1.050837 0.036639 -0.008569 -433556.000000 1 0 0
8.149434 0.964900 16.049929 18.026218 0.117852 0.472648 0.055898 -0.022330 37932.600000 1 0 0
-1.391766 11.291000 13.319029 17.516285 -1.448152 0.706899 0.011794 -0.006089 -50536.700000 1 0 0
2.989334 -12.201900 -13.799171 18.661179 -1.330539 2.403062 0.007279 0.002438 -697688.000000 1 0 0
0.880134 -10.788300 -14.047271 17.733806 -1.489394 2.485068 0.005250 0.005227 -2594160.000000 1 0 0
3.304034 -14.439000 -12.389471 19.310628 -1.345842 2.267363 0.010219 0.001679 -620466.000000 1 0 0
-5.301766 -10.095900 -16.102871 19.731659 1.087239 2.525414 0.047486 -0.011110 120160.000000 1 0 0
-1.070366 -12.028700 -15.192071 19.407069 1.482046 2.469967 0.022297 0.000238 289359.000000 1 0 0
5.856934 -15.030800 -11.943371 20.071689 -1.199234 2.208106 0.004205 0.001418 480286.000000 1 0 0
2.042134 -11.999300 -16.140871 20.215865 -1.402224 2.495473 0.018929 0.001989 -558830.000000 1 0 0
1.301334 -14.247700 -13.922871 19.963385 -1.479713 2.342588 0.024681 0.004815 -912641.000000 1 0 0
-1.045366 -10.688300 -15.988871 19.260751 1.473302 2.550132 0.014090 -0.004810 -2831.700000 1 0 0
-5.939966 -5.644500 -14.971371 17.067089 0.759898 2.640810 0.023281 -0.004664 -59914.300000 1 0 0
-6.535866 -7.556700 -16.582171 19.359484 0.857710 2.599324 0.035896 -0.002770 161019.000000 1 0 0
4.965234 -12.580300 -11.413271 17.696899 -1.194882 2.271729 -0.005667 0.001458 -32199.800000 1 0 0
-1.748866 -15.487400 -13.134671 20.382288 1.458351 2.271056 0.031723 -0.000832 335022.000000 1 0 0
15.658834 -7.388100 -8.864571 19.451574 -0.440848 2.043983 0.071625 -0.007253 197356.000000 1 0 0
19.202034 -3.548500 -4.289271 19.992694 -0.182737 1.787019 0.095730 -0.011233 240190.000000 1 0 0
14.947134 -11.567200 -8.816371 20.855343 -0.658606 2.007262 0.044096 -0.020874 941251.000000 1 0 0
17.936134 -3.493300 -6.527871 19.404153 -0.192355 1.913905 0.098883 -0.002694 627682.000000 1 0 0
9.330934 -9.012800 -15.305671 20.063909 -0.768057 2.438500 0.067204 -0.024636 285217.000000 1 0 0
1.298534 1.823600 -15.343771 15.506225 0.952014 2.996713 0.019510 -0.007365 -68651.200000 1 0 0
4.883734 -4.428000 -13.927971 15.409296 -0.736495 2.699523 0.003170 -0.000289 325516.000000 1 0 0
13.124334 -5.558600 -8.603171 16.648145 -0.400628 2.113864 0.038079 -0.000834 -838282.000000 1 0 0
2.968834 0.939300 -12.224171 12.614540 0.306422 2.892166 0.006706 -0.004896 -3112620.000000 1 0 0
0.448734 6.347300 -12.972571 14.449124 1.500217 2.685568 0.013854 -0.005172 414320.000000 1 0 0
3.122834 -1.214300 -16.719671 17.052097 -0.370854 2.943813 0.018604 -0.005546 -345720.000000 1 0 0
13.178234 4.284100 -11.435671 17.966467 0.314312 2.260749 0.031002 -0.007281 240511.000000 1 0 0
-4.009266 9.392800 -16.626471 19.512520 -1.167364 2.590767 0.012149 -0.004951 344901.000000 1 0 0
-0.160466 -5.110300 -17.645671 18.371462 1.539406 2.859567 0.012277 -0.011142 17953.500000 1 0 0
-0.507566 -8.585700 -17.601171 19.590127 1.511747 2.687072 0.019733 -0.007408 -1002830.000000 1 0 0
5.666434 -10.203000 -11.996271 16.736791 -1.063840 2.369942 0.000114 -0.000463 441243.000000 1 0 0
1.762734 -9.840800 -17.908071 20.509694 -1.393551 2.632427 0.039198 -0.017944 -699403.000000 1 0 0
10.950034 8.981500 -14.443471 20.228308 0.686953 2.366024 0.083699 -0.028134 -2062690.000000 1 0 0
10.920434 -3.828600 -12.809071 17.262281 -0.337201 2.406885 0.022213 -0.005386 351656.000000 1 0 0
4.858334 7.517700 -12.344171 15.247878 0.997060 2.514210 0.006220 0.001823 354904.000000 1 0 0
9.656234 -5.980800 -12.507971 16.895625 -0.554542 2.404325 0.021341 -0.005509 -1332550.000000 1 0 0
-3.302266 0.412000 -15.945071 16.288646 -0.124122 2.935838 0.018801 -0.009201 -416374.000000 1 0 0
-0.847666 10.701800 -12.824971 16.725039 -1.491754 2.444657 0.002974 0.001379 -2282180.000000 1 0 0
6.744834 -5.536300 -12.365971 15.134749 -0.687308 2.527086 0.005202 -0.002455 143982.000000 1 0 0
17.830034 -6.200600 -8.041971 20.519036 -0.334679 1.973522 0.090216 -0.009387 -594700.000000 1 0 0
12.977234 4.808200 -13.901171 19.615553 0.354829 2.358423 0.054277 -0.018728 413748.000000 1 0 0
14.218634 0.941800 -11.474071 18.295104 0.066140 2.248706 0.040037 -0.003305 -307412.000000 1 0 0
14.946134 6.079800 -11.125371 19.599101 0.386338 2.174441 0.053037 -0.016891 74272.000000 1 0 0
8.120934 1.490400 -11.912871 14.494390 0.181506 2.535527 -0.001481 0.005753 877513.000000 1 0 0
9.841034 1.385700 -8.883571 13.329814 0.139889 2.300225 0.006871 0.000719 754780.000000 1 0 0
-0.125166 -5.739300 -13.053871 14.260392 1.548991 2.727281 0.004916 -0.000650 77261.800000 1 0 0
10.494334 -5.681100 -8.973371 14.930751 -0.496177 2.215547 0.018835 -0.005614 306011.000000 1 0 0
10.219734 8.659500 -11.239471 17.485869 0.702943 2.268911 0.042174 -0.014194 954915.000000 1 0 0
8.475734 8.264100 -14.671271 18.851515 0.772756 2.462677 0.044756 -0.006755 326947.000000 1 0 0
8.530334 10.642200 -10.647771 17.303122 0.895106 2.233648 0.054540 -0.016384 -1723350.000000 1 0 0
7.086934 1.644300 -18.017571 19.430934 0.227985 2.757829 0.033154 -0.004244 -1797920.000000 1 0 0
12.210234 2.487500 -12.874671 17.917439 0.200972 2.372519 0.037635 -0.006971 -1717380.000000 1 0 0
2.695234 -0.706400 -19.223571 19.424442 -0.256327 2.997655 0.039850 -0.015835 -534127.000000 1 0 0
10.387434 -2.414000 -15.660371 18.946593 -0.228343 2.543753 0.047661 -0.002770 988906.000000 1 0 0
8.299234 -0.813900 -13.011571 15.454471 -0.097757 2.571645 0.005022 -0.001523 860191.000000 1 0 0
0.480834 4.309400 -14.657671 15.285596 1.459678 2.853968 0.016203 -0.003898 352254.000000 1 0 0
3.981534 -7.609500 -15.595871 17.804165 -1.088736 2.638234 0.022058 -0.010856 -765217.000000 1 0 0
11.371234 -5.754700 -14.491471 19.298297 -0.468496 2.420250 0.064563 -0.005342 -1419780.000000 1 0 0
-6.113866 4.407400 -16.845971 18.455115 -0.624606 2.720903 0.020825 -0.007115 50586.000000 1 0 0
11.345334 7.799200 -9.107571 16.507331 0.602244 2.155232 0.035925 -0.011236 -558227.000000 1 0 0
9.446934 6.210900 -13.400871 17.532917 0.581596 2.440792 0.016210 0.000470 -1307820.000000 1 0 0
12.089034 0.669600 -10.074771 15.751004 0.055333 2.264810 0.014269 0.002055 -321256.000000 1 0 0
5.563334 -7.367700 -13.699371 16.519880 -0.924041 2.548589 0.012507 -0.000742 -594979.000000 1 0 0
8.587834 -10.188900 -10.675071 17.074007 -0.870461 2.246214 0.012757 -0.004574 -148945.000000 1 0 0
10.210034 4.581900 -15.791171 19.354578 0.421826 2.525060 0.059138 -0.018807 126068.000000 1 0 0
9.916334 -0.263900 -11.008871 14.818858 -0.026606 2.408183 0.006538 0.004039 -939094.000000 1 0 0
-1.795266 5.493800 -14.051671 15.193889 -1.254955 2.751369 0.014917 -0.005678 1558050.000000 1 0 0
1.372634 -0.799000 -14.943171 15.027338 -0.527148 3.035704 0.011860 -0.005534 -1846930.000000 1 0 0
11.425034 -10.406400 -14.484071 21.180483 -0.738773 2.323810 0.084735 -0.010203 -199409.000000 1 0 0
9.311034 -7.789600 -10.713971 16.191429 -0.696662 2.293889 0.021454 -0.003867 -341447.000000 1 0 0
14.170734 -0.963300 -9.783371 17.246797 -0.067874 2.173968 0.043049 -0.002410 1163980.000000 1 0 0
3.915634 11.183000 -12.242771 17.037521 1.233995 2.372550 0.012697 -0.007703 -1138440.000000 1 0 0
-1.439566 2.930900 -16.822671 17.136650 -1.114239 2.949872 0.020095 -0.012022 418919.000000 1 0 0
5.920134 -0.568500 -17.424271 18.411311 -0.095735 2.812665 0.019988 -0.009354 -128867.000000 1 0 0
6.452534 -6.821800 -16.044771 18.590503 -0.813209 2.612099 0.031299 -0.006337 -219217.000000 1 0 0
-1.690966 -5.319700 -19.738471 20.512576 1.263028 2.865992 0.016320 -0.019219 -1025000.000000 1 0 0
0.006734 -4.293400 -15.144671 15.741486 -1.569228 2.865348 0.006839 -0.006865 -472193.000000 1 0 0
0.496834 0.734000 -13.010771 13.040926 0.975753 3.073574 0.011983 -0.008367 613082.000000 1 0 0
15.535734 0.625900 -13.633171 20.678833 0.040266 2.290659 0.098372 -0.023766 474992.000000 1 0 0
-0.139866 7.014500 -16.459671 17.892555 -1.550859 2.738666 0.015422 0.000394 -116975.000000 1 0 0
-4.859366 -0.676400 -18.353771 18.998207 0.138306 2.880386 0.014501 -0.008500 -614267.000000 1 0 0
10.482934 -8.410200 -12.981571 18.685410 -0.676127 2.338860 0.032830 -0.016031 807795.000000 1 0 0
4.197934 8.302900 -17.570071 19.881353 1.102680 2.654604 0.039737 -0.005760 -125545.000000 1 0 0
9.165934 0.437200 -16.823371 19.163280 0.047662 2.642247 0.026827 -0.008714 -345411.000000 1 0 0
3.302734 4.769400 -18.584071 19.468511 0.965132 2.839012 0.030174 -0.001855 -181289.000000 1 0 0
1.467034 -8.071200 -15.971771 17.955331 -1.390998 2.667107 0.010665 -0.009059 378055.000000 1 0 0
4.574534 7.686900 -15.029571 17.490077 1.033982 2.604735 0.013476 0.002208 551582.000000 1 0 0
-5.723766 -0.480500 -15.246071 16.292177 0.083752 2.781292 0.011214 -0.004037 277971.000000 1 0 0
2.870734 3.261500 -13.894671 14.558172 0.849035 2.838521 0.011968 -0.002265 -816960.000000 1 0 0
-2.602466 -10.099700 -18.013971 20.815377 1.318605 2.616777 0.033828 -0.012450 36734.600000 1 0 0
6.042234 -9.343300 -15.313571 18.929112 -0.996750 2.513238 0.014884 -0.008481 127979.000000 1 0 0
-1.806866 5.401700 -17.392471 18.301398 -1.247997 2.825109 0.022972 -0.005361 1282910.000000 1 0 0
10.135234 -12.088800 -11.498771 19.521367 -0.873076 2.200661 0.048634 -0.014495 -648948.000000 1 0 0
10.834134 3.773300 -9.298371 14.767395 0.335141 2.251906 0.008175 -0.000140 -452121.000000 1 0 0
4.789234 -0.440700 -10.901171 11.914970 -0.091760 2.726091 0.002929 -0.003168 52684.900000 1 0 0
6.266334 9.570300 -11.336571 16.105137 0.991076 2.351684 0.020933 -0.010000 146163.000000 1 0 0
10.768034 -9.487000 -9.310271 17.106574 -0.722237 2.146292 0.034041 -0.009614 -2014350.000000 1 0 0
3.320434 -2.450700 -14.404271 14.983799 -0.635820 2.862563 0.005903 -0.001669 -397985.000000 1 0 0
9.115834 -4.641000 -14.616071 17.840034 -0.470912 2.530959 0.032875 -0.011315 -505628.000000 1 0 0
-4.028766 -6.649900 -16.552171 18.287331 1.026095 2.702451 0.007489 -0.005974 -173682.000000 1 0 0
5.949234 -7.798900 -11.195371 14.884641 -0.919135 2.422103 -0.002269 0.002551 298633.000000 1 0 0
5.440234 6.084900 -16.915971 18.782232 0.841276 2.692029 0.023622 -0.011885 -1262870.000000 1 0 0
9.225234 1.134700 -19.335071 21.453145 0.122385 2.693488 0.063898 -0.020141 428562.000000 1 0 0
13.042434 5.750000 -9.294071 17.016091 0.415234 2.148609 0.013035 -0.006249 679324.000000 1 0 0
-1.536966 -0.753300 -17.428771 17.512617 0.455713 3.043699 0.018899 -0.011203 44111.800000 1 0 0
-0.474166 -0.517000 -19.685771 19.698266 0.828587 3.105972 0.031188 -0.018611 -421727.000000 1 0 0
2.842534 6.408600 -16.594771 18.014899 1.153319 2.741871 0.014569 0.001585 -319307.000000 1 0 0
7.661434 3.766200 -15.631771 17.811066 0.456888 2.641720 0.019862 0.000626 338087.000000 1 0 0
3.059334 -9.914300 -14.958371 18.204552 -1.271489 2.535154 0.011167 -0.000628 -406218.000000 1 0 0
9.059934 -10.609100 -13.320171 19.288918 -0.863998 2.333060 0.042262 -0.004466 831038.000000 1 0 0
3.799034 0.082200 -14.808171 15.287947 0.021634 2.890403 0.009914 -0.001854 -2888340.000000 1 0 0
-1.139466 -2.919200 -18.842671 19.101475 1.198649 2.976792 0.027477 -0.013880 493610.000000 1 0 0
9.098234 10.157600 -13.024471 18.857135 0.840358 2.333242 0.059806 -0.022167 -42761.500000 1 0 0
4.732934 2.153100 -10.745771 11.937675 0.426937 2.690924 -0.000571 -0.000032 186377.000000 1 0 0
-0.437566 7.072200 -18.927471 20.210310 -1.509004 2.783382 0.030375 -0.010793 140769.000000 1 0 0
0.822634 -1.745300 -17.708071 17.812876 -1.130336 3.033062 0.023362 -0.011104 -2280520.000000 1 0 0
-4.494566 -2.302300 -14.165171 15.038410 0.473392 2.799137 0.016412 -0.006512 -3381740.000000 1 0 0
10.000534 6.097200 -10.441471 15.691107 0.547512 2.298878 0.014659 0.003036 248586.000000 1 0 0
8.355234 5.329800 -17.555171 20.159383 0.567822 2.627662 0.059272 -0.017104 -52981.200000 1 0 0
11.445934 0.192800 -13.623171 17.794307 0.016843 2.442757 0.023853 0.005706 489749.000000 1 0 0
6.655634 12.159400 -11.740871 18.165806 1.069978 2.273544 0.037149 -0.017332 -647633.000000 1 0 0
-0.853466 0.540200 -15.234371 15.267818 -0.564295 3.075388 0.015062 -0.009616 -94097.900000 1 0 0
-4.347066 -3.105500 -19.082771 19.816489 0.620318 2.868622 0.017542 -0.003198 172288.000000 1 0 0
5.964634 -12.076900 -13.772971 19.264555 -1.112050 2.367332 0.010835 -0.002614 -89655.100000 1 0 0
2.219534 -4.774500 -14.016671 14.972950 -1.135643 2.782263 0.003870 0.001367 70328.700000 1 0 0
11.844834 1.918400 -15.419971 19.538573 0.160567 2.480312 0.062377 -0.009648 411750.000000 1 0 0
9.729734 2.251700 -13.877871 17.097753 0.227421 2.517816 0.018109 -0.001438 284613.000000 1 0 0
-2.236766 -4.135900 -16.433371 17.092819 1.075031 2.862913 0.006809 -0.010119 -557331.000000 1 0 0
-2.909666 10.102400 -14.383171 17.815730 -1.290369 2.510409 0.010864 -0.003220 115337.000000 1 0 0
3.444234 5.734500 -13.746071 15.287305 1.029924 2.688693 0.010460 0.001328 -88759.400000 1 0 0
-5.044666 -2.626000 -16.595171 17.542640 0.479952 2.811433 0.014573 -0.004396 161849.000000 1 0 0
-4.449066 6.130900 -13.762571 15.709566 -0.943043 2.638432 0.006333 -0.002746 -611591.000000 1 0 0
5.890834 -1.136500 -14.007171 15.237926 -0.190585 2.736919 0.006004 -0.002234 -2180360.000000 1 0 0
6.870234 -3.035000 -12.629971 14.694472 -0.415981 2.605097 0.003334 -0.003939 1767220.000000 1 0 0
2.954134 -3.196200 -18.263071 18.774513 -0.824736 2.907644 0.031748 -0.017384 -308681.000000 1 0 0
7.536034 -12.147800 -11.963371 18.640898 -1.015539 2.267614 0.011567 -0.000573 -1803690.000000 1 0 0
-5.967566 -5.314700 -17.578371 19.309505 0.727596 2.714921 0.028784 -0.008586 391076.000000 1 0 0
0.468634 8.664300 -11.946971 14.765494 1.516761 2.513439 0.005932 0.000146 273709.000000 1 0 0
0.273534 8.569300 -14.475871 16.824344 1.538887 2.606874 0.002398 -0.000427 214501.000000 1 0 0
7.801634 -2.431900 -15.003671 17.084782 -0.302171 2.642859 0.017383 -0.011121 591006.000000 1 0 0
14.352134 1.463400 -8.817371 16.907729 0.101613 2.119404 0.034146 -0.005239 352107.000000 1 0 0
2.690934 10.759900 -14.595271 18.331353 1.325734 2.491771 0.008298 0.000605 -433517.000000 1 0 0
6.172934 0.994400 -15.513271 16.725893 0.159718 2.758466 0.016091 0.000383 345458.000000 1 0 0
16.791034 -5.557500 -10.325871 20.480435 -0.319631 2.099231 0.126842 -0.012473 661692.000000 1 0 0
4.923534 -4.329100 -11.287671 13.053498 -0.721241 2.615397 -0.003997 0.003435 -952604.000000 1 0 0
8.625234 -3.779800 -17.005471 19.438816 -0.413019 2.635861 0.038184 -0.015687 59559.700000 1 0 0
13.332134 -9.553100 -8.820071 18.622598 -0.621745 2.064195 0.053280 -0.015206 232240.000000 1 0 0
2.349034 -8.003900 -13.490771 15.861313 -1.285326 2.587818 -0.004037 0.002868 246808.000000 1 0 0
-6.807066 -2.234100 -18.459771 19.801275 0.317126 2.771383 0.015942 -0.009128 -545175.000000 1 0 0
-1.427766 -6.429900 -15.708671 17.033627 1.352291 2.744567 0.000369 -0.005383 543991.000000 1 0 0
1.605834 -7.314100 -18.512671 19.969821 -1.354672 2.757216 0.038300 -0.013820 -41458.700000 1 0 0
5.354434 10.759100 -14.344671 18.713572 1.109018 2.444230 0.042383 -0.025511 934432.000000 1 0 0
5.407334 -3.261600 -17.278071 18.395897 -0.542755 2.791191 0.028502 -0.013540 -1390980.000000 1 0 0
3.884034 12.969800 -14.276271 19.675196 1.279828 2.382698 0.021428 -0.009682 21465.300000 1 0 0
9.296734 10.593700 -15.567471 21.000045 0.850512 2.405811 0.090099 -0.021778 157196.000000 1 0 0
2.463534 3.811700 -16.359471 16.977348 0.997021 2.870974 0.024801 -0.003856 652756.000000 1 0 0
16.616434 1.892900 -11.553871 20.326851 0.113428 2.175361 0.107283 -0.011418 -325308.000000 1 0 0
9.951034 -3.723600 -10.494971 14.934279 -0.358062 2.350043 0.016570 -0.000650 -722910.000000 1 0 0
14.549334 -2.204000 -11.958271 18.961566 -0.150342 2.253198 0.090677 -0.009513 294769.000000 1 0 0
-2.598466 -8.636800 -15.994371 18.362087 1.278551 2.628141 0.008608 -0.000663 -154176.000000 1 0 0
13.889934 8.179600 -9.122871 18.521957 0.532208 2.085806 0.049279 -0.011963 -351024.000000 1 0 0
-8.347466 0.039200 -16.518571 18.507969 -0.004696 2.673679 0.013551 -0.003844 -347643.000000 1 0 0
-3.728666 4.069900 -15.981971 16.908295 -0.829126 2.809048 0.014139 -0.005701 -309139.000000 1 0 0
15.041234 3.978900 -9.596071 18.279905 0.258609 2.123455 0.031676 -0.007591 285732.000000 1 0 0
5.277734 1.149900 -13.043671 14.117864 0.214525 2.748980 0.006531 -0.002761 291380.000000 1 0 0
7.900734 -7.789500 -12.888571 17.006268 -0.778309 2.430841 0.025302 -0.001453 -2991810.000000 1 0 0
3.312134 -6.185700 -11.895271 13.810524 -1.079192 2.608657 -0.003692 0.002685 -1140090.000000 1 0 0
-3.266066 3.576500 -18.580871 19.201752 -0.830735 2.886601 0.025431 -0.006282 182616.000000 1 0 0
0.834234 5.018600 -17.783771 18.497156 1.406074 2.862961 0.031241 -0.014790 -1369820.000000 1 0 0
6.132534 7.134900 -10.226071 13.895585 0.860806 2.397824 0.005044 0.001983 401503.000000 1 0 0
9.707934 3.562500 -11.543171 15.497748 0.351710 2.411075 0.016201 -0.000205 -92366.400000 1 0 0
4.570434 1.607700 -17.518171 18.175805 0.338243 2.871770 0.022154 -0.002373 -528738.000000 1 0 0
2.523634 8.098400 -13.343171 15.811168 1.268712 2.575323 0.004286 -0.001502 300222.000000 1 0 0
14.270534 -3.556700 -9.819371 17.683843 -0.244257 2.159488 0.061596 -0.000296 66895.400000 1 0 0
-1.409166 9.204800 -16.420871 18.877476 -1.418885 2.625727 0.005959 -0.000387 -737002.000000 1 0 0
-5.320466 2.093500 -15.856571 16.855887 -0.374874 2.795526 0.015294 -0.006326 496538.000000 1 0 0
4.391534 4.305100 -12.036471 13.516512 0.775460 2.669242 0.007787 -0.002088 625079.000000 1 0 0
9.339934 2.933200 -17.562771 20.106938 0.304296 2.633077 0.044957 -0.012671 1031760.000000 1 0 0
-4.220266 14.356600 -13.391671 20.081321 -1.284890 2.300799 0.030409 -0.006906 -322870.000000 1 0 0
15.540334 -4.912000 -8.024271 18.166415 -0.306144 2.028299 0.072173 -0.000455 508106.000000 1 0 0
1.173934 9.270800 -16.837371 19.256763 1.444840 2.634915 0.011798 0.001026 383696.000000 1 0 0
0.554834 -3.215300 -12.813571 13.222465 -1.399919 2.892254 0.008830 -0.001611 417351.000000 1 0 0
7.628534 3.774200 -13.033371 15.566241 0.459437 2.563094 0.012434 0.001967 455810.000000 1 0 0
-2.935666 7.548900 -15.233271 17.252726 -1.199907 2.652903 0.009092 -0.001752 -96808.000000 1 0 0
12.062134 -5.121100 -10.945271 17.073948 -0.401498 2.266663 0.037749 -0.003299 -1333190.000000 1 0 0
0.713634 -4.428800 -20.051171 20.546849 -1.411035 2.921493 0.044792 -0.019400 -188689.000000 1 0 0
3.411934 -4.480400 -16.150471 17.104180 -0.919960 2.806078 0.021370 -0.012776 744049.000000 1 0 0
-5.911066 4.108600 -14.411871 16.109727 -0.607409 2.678347 0.003891 -0.003137 701691.000000 1 0 0
12.254034 -7.493700 -9.872471 17.429359 -0.548854 2.172961 0.030009 -0.004568 242168.000000 1 0 0
-2.071666 -1.814500 -15.115971 15.364790 0.719320 2.961381 0.014657 -0.005811 638915.000000 1 0 0
7.090634 6.035400 -14.464671 17.202612 0.705178 2.569632 0.021145 0.003599 -187380.000000 1 0 0
4.382634 -5.365600 -18.438071 19.696690 -0.885894 2.782170 0.049262 -0.018450 165408.000000 1 0 0
7.534534 7.488200 -12.354471 16.293413 0.782314 2.431420 0.014697 -0.003939 -1085320.000000 1 0 0
12.182134 -2.417700 -10.890671 16.518365 -0.195917 2.290693 0.019203 -0.002008 -326986.000000 1 0 0
7.398334 -0.603300 -10.643071 12.975911 -0.081365 2.532588 0.000040 0.002450 -2021110.000000 1 0 0
5.398034 4.092600 -14.425371 15.936733 0.648706 2.702564 0.008480 0.003325 531317.000000 1 0 0
14.733434 3.028600 -12.974071 19.863862 0.202736 2.282533 0.064102 -0.020467 -631673.000000 1 0 0
-6.365166 6.937100 -16.077071 18.630912 -0.828367 2.611825 0.005613 0.009816 204721.000000 1 0 0
-11.521166 3.751700 -16.329671 20.333978 -0.314807 2.503231 0.069539 -0.018623 -345655.000000 1 0 0
-5.093666 6.342300 -18.274871 20.003527 -0.894152 2.722804 0.016851 0.012606 472865.000000 1 0 0
-10.199466 1.596100 -15.576771 18.687226 -0.155230 2.556302 0.037897 -0.007676 -148027.000000 1 0 0
-7.694066 5.932100 -18.110771 20.552092 -0.656804 2.649218 0.021264 -0.005231 -906556.000000 1 0 0
-9.000966 3.953500 -15.605071 18.443584 -0.413862 2.579417 0.010338 0.003608 58352.400000 1 0 0
8.879234 13.433200 -11.855571 19.996155 0.986733 2.205442 0.099494 -0.043432 -1021260.000000 1 0 0
14.101634 9.658800 -11.257971 20.466812 0.600548 2.153232 0.082912 -0.016539 389083.000000 1 0 0
8.146134 16.069600 -9.076071 20.173413 1.101622 2.037453 0.064236 -0.020418 -237101.000000 1 0 0
7.180434 13.464100 -13.922071 20.655863 1.080863 2.310408 0.067660 -0.023505 59445.500000 1 0 0
4.560534 15.831200 -12.645871 20.768809 1.290318 2.225454 0.042510 -0.020080 304581.000000 1 0 0
11.003434 11.106600 -11.521571 19.421090 0.790064 2.205887 0.094051 -0.027754 316821.000000 1 0 0
15.646534 9.995200 -9.242871 20.740027 0.568470 2.032701 0.088276 -0.023332 -889451.000000 1 0 0
13.072134 10.711500 -9.034971 19.163706 0.686468 2.061745 0.088557 -0.030601 528591.000000 1 0 0
10.379634 12.141700 -8.330171 18.015256 0.863479 2.051491 0.068507 -0.007920 221061.000000 1 0 0
5.167534 16.233500 -10.151771 19.831500 1.262613 2.108193 0.042799 -0.011556 -329502.000000 1 0 0
6.691234 14.750600 -11.712671 19.988484 1.144932 2.196874 0.044299 -0.003627 -1584480.000000 1 0 0
10.608234 14.270500 -9.751371 20.279818 0.931553 2.072410 0.104449 -0.023305 -708214.000000 1 0 0
8.257434 -18.527200 -1.308071 20.326175 -1.151530 1.635195 0.059334 -0.010126 -115061.000000 1 0 0
7.613034 -17.134300 -3.431871 19.060961 -1.152680 1.751831 0.030114 -0.013404 377369.000000 1 0 0
4.594034 -18.493400 5.812029 19.922115 -1.327310 1.274753 0.043089 -0.009113 223.087000 1 0 0
10.023334 -16.927900 -2.356971 19.813539 -1.036192 1.690036 0.052079 -0.013809 -534459.000000 1 0 0
-9.517566 -12.295600 -10.072571 18.526266 0.912072 2.145625 0.061331 -0.016012 -778356.000000 1 0 0
-5.015466 -6.970800 -12.025471 14.776972 0.947105 2.521454 0.012442 -0.004082 508829.000000 1 0 0
-10.775666 -9.447200 -5.774571 15.450250 0.719801 1.953848 0.025716 -0.008020 -1091320.000000 1 0 0
-4.479266 -11.373000 -14.048071 18.621419 1.195602 2.425542 0.032196 -0.007497 -51175.700000 1 0 0
-2.692666 -15.558000 7.495429 17.478080 1.399421 1.127580 0.009195 -0.004750 50321.600000 1 0 0
-4.549266 -11.961600 -11.471271 17.186208 1.207368 2.301602 0.028400 -0.004526 810595.000000 1 0 0
-14.424766 -12.910600 -4.234371 19.816341 0.730063 1.786138 0.060028 -0.007399 219711.000000 1 0 0
-3.171566 -12.239400 -3.218671 13.046899 1.317246 1.820070 0.011976 -0.004479 717974.000000 1 0 0
-2.303266 -17.297800 -1.459171 17.511370 1.438421 1.654220 0.017599 -0.015124 -607482.000000 1 0 0
-5.785966 -12.220000 3.517329 13.970591 1.128586 1.316291 0.004712 -0.000402 1296690.000000 1 0 0
-8.774966 -10.673900 -11.889371 18.228804 0.882727 2.281319 0.047852 -0.010327 -276586.000000 1 0 0
-9.779966 -12.296400 -7.431671 17.380417 0.898896 2.012620 0.050451 -0.007163 -73308.800000 1 0 0
-10.760366 -15.110700 6.215029 19.563878 0.951994 1.247516 0.047029 -0.019838 -724830.000000 1 0 0
-9.294566 -15.533100 0.917329 18.124780 1.031575 1.520163 0.022986 -0.006896 -1478340.000000 1 0 0
-14.925466 -7.498200 -7.977771 18.510466 0.465547 2.016383 0.042921 -0.020950 -358820.000000 1 0 0
-2.301666 -16.629500 5.154829 17.561611 1.433262 1.272881 0.017006 -0.010499 2119280.000000 1 0 0
4.693234 -15.856800 5.847029 17.540020 -1.283035 1.230938 0.025915 -0.009251 -496278.000000 1 0 0
4.167934 -14.814300 -10.040771 18.375316 -1.296541 2.148888 0.000924 -0.003476 919280.000000 1 0 0
-7.465166 -14.051400 -0.161271 15.912151 1.082442 1.580932 0.013299 0.000210 719946.000000 1 0 0
3.133634 -14.885600 9.607929 17.992027 -1.363311 1.007459 0.023878 -0.006993 -942009.000000 1 0 0
2.560434 -17.338200 10.211229 20.283939 -1.424180 1.043250 0.044019 -0.012055 -208525.000000 1 0 0
-8.167566 -17.128700 -5.483871 19.752831 1.125852 1.852117 0.058484 -0.016990 -86208.600000 1 0 0
-6.409166 -9.120200 -7.670771 13.531303 0.958231 2.173523 0.019058 -0.007168 287241.000000 1 0 0
-5.925966 -13.043500 -4.760771 15.096850 1.144353 1.891620 0.009200 -0.010629 352040.000000 1 0 0
2.324534 -19.234200 -4.915971 19.988113 -1.450525 1.819291 0.028317 -0.020690 21873.400000 1 0 0
-5.469266 -13.007400 8.189529 16.314831 1.172766 1.044923 0.013807 -0.002960 803096.000000 1 0 0
2.338034 -17.507000 3.540929 18.013873 -1.438033 1.372941 0.015292 -0.016955 923778.000000 1 0 0
-17.551866 -10.098100 -2.628071 20.419265 0.522082 1.699860 0.035216 -0.011440 535224.000000 1 0 0
-3.395766 -15.366800 2.627029 15.955283 1.353311 1.405394 0.008557 -0.008811 -307811.000000 1 0 0
-10.239866 -10.475800 -14.080271 20.318742 0.796787 2.336396 0.061720 -0.012683 70537.200000 1 0 0
6.164934 -14.619400 -5.594071 16.823403 -1.171728 1.909768 0.001475 -0.012868 409246.000000 1 0 0
-7.070766 -12.281600 -10.728471 17.774518 1.048421 2.218789 0.041668 -0.013569 -1064810.000000 1 0 0
-7.205666 -14.325200 3.890329 16.500534 1.104747 1.332786 0.010524 -0.003725 821388.000000 1 0 0
3.299034 -14.862600 -3.104371 15.537619 -1.352369 1.771947 0.013758 -0.007571 -310556.000000 1 0 0
-7.544966 -11.379500 7.699029 15.674648 0.985315 1.057356 0.011403 -0.006618 -376536.000000 1 0 0
-12.768866 -12.361400 -1.100871 17.806180 0.769185 1.632661 0.025386 0.007858 -1323530.000000 1 0 0
-1.804366 -13.602000 4.000829 14.292542 1.438912 1.287081 0.008647 -0.004581 -3500310.000000 1 0 0
-3.028866 -13.920800 5.287029 15.195900 1.356557 1.215440 0.008689 -0.006017 -119250.000000 1 0 0
-14.520566 -10.374400 -4.422071 18.385584 0.620367 1.813696 0.044140 -0.011677 604821.000000 1 0 0
-6.200166 -8.651300 -10.371371 14.861103 0.948967 2.343239 0.026145 -0.004681 283256.000000 1 0 0
1.001234 -19.502300 2.398229 19.674696 -1.519502 1.448598 0.027986 -0.017445 136240.000000 1 0 0
6.639434 -14.272200 -8.169071 17.734472 -1.135374 2.049504 0.007003 -0.005284 -2611940.000000 1 0 0
-3.910766 -16.827900 -5.858471 18.242642 1.342452 1.897731 0.016832 -0.005195 -194164.000000 1 0 0
-3.354466 -13.507900 -13.220471 19.196266 1.327387 2.330491 0.045240 -0.005775 -491368.000000 1 0 0
-8.093266 -14.656600 -4.500771 17.337065 1.066271 1.833408 0.026469 -0.013227 -1499370.000000 1 0 0
-4.410566 -14.407300 10.082329 18.129444 1.273721 0.981074 0.020175 -0.005455 -1384520.000000 1 0 0
-0.130766 -12.083800 -9.930371 15.641214 1.559975 2.258656 0.005913 -0.000332 304441.000000 1 0 0
2.624734 -17.115000 6.791829 18.599500 -1.418623 1.196990 0.029103 -0.023985 -959270.000000 1 0 0
-2.697466 -19.074300 -3.292771 19.543479 1.430309 1.740088 0.032969 -0.018127 529288.000000 1 0 0
0.710034 -15.342600 -3.013071 15.651777 -1.524551 1.764512 0.011798 -0.007092 396031.000000 1 0 0
5.988534 -17.885100 0.496329 18.867583 -1.247696 1.544487 0.020932 -0.013278 -480251.000000 1 0 0
-6.795266 -16.731700 3.960729 18.488180 1.185016 1.354893 0.010740 -0.008905 739387.000000 1 0 0
-5.122366 -13.531500 -9.485071 17.300482 1.208916 2.151072 0.027925 -0.007999 157467.000000 1 0 0
5.761034 -15.224600 -2.032171 16.404501 -1.209046 1.694994 0.016641 -0.008454 -812519.000000 1 0 0
-8.857566 -10.277500 -0.622771 13.582022 0.859468 1.616665 0.008789 0.003153 -248822.000000 1 0 0
-7.345466 -18.362100 -2.762971 19.968890 1.190261 1.709605 0.040630 -0.023606 -462462.000000 1 0 0
8.017234 -15.894300 -1.092871 17.835335 -1.103627 1.632110 0.019267 -0.011244 -1241800.000000 1 0 0
-7.989666 -10.255400 -9.418171 16.053346 0.908949 2.197749 0.041191 -0.012729 -1331440.000000 1 0 0
-9.132066 -15.195600 -6.969171 19.049153 1.029666 1.945344 0.063506 -0.015361 39728.100000 1 0 0
-11.423866 -10.578200 -11.790371 19.529871 0.746981 2.218943 0.065574 -0.012642 404120.000000 1 0 0
6.707234 -16.230500 2.347929 17.718038 -1.178921 1.437889 0.030145 -0.020315 -1039160.000000 1 0 0
-2.165666 -11.155900 -6.080571 12.888660 1.379054 2.062101 0.006197 -0.004974 -278275.000000 1 0 0
-12.195266 -15.194700 -3.299971 19.760901 0.894472 1.738577 0.049012 -0.018408 -249231.000000 1 0 0
-0.101966 -19.657200 -2.936771 19.875626 1.565609 1.719097 0.042808 -0.020339 -304400.000000 1 0 0
-5.757866 -15.594100 -4.716771 17.279378 1.217091 1.847276 0.012492 -0.009435 -2808810.000000 1 0 0
2.075134 -15.757500 -0.954971 15.922216 -1.439858 1.630810 0.011035 -0.013026 1016180.000000 1 0 0
-13.318166 -11.947900 5.192329 18.630248 0.731218 1.288352 0.032258 -0.002305 360696.000000 1 0 0
2.052934 -15.049100 -8.577971 17.443380 -1.435217 2.084907 0.013886 -0.011074 -3824210.000000 1 0 0
-11.576266 -16.715400 0.158929 20.333219 0.965087 1.562980 0.067849 -0.022785 548095.000000 1 0 0
-7.834666 -16.538000 -1.038171 18.329354 1.128379 1.627466 0.032510 -0.012413 423470.000000 1 0 0
-2.865366 -14.403700 -1.710071 14.785169 1.374427 1.686717 0.009643 -0.004027 351254.000000 1 0 0
-1.753366 -10.502500 -13.197971 16.957689 1.405374 2.462731 0.007707 0.001066 409877.000000 1 0 0
1.622934 -19.612200 4.934929 20.288564 -1.488233 1.325095 0.035194 -0.025067 -262581.000000 1 0 0
-17.333166 -9.531200 2.452729 19.932343 0.502753 1.447431 0.026963 -0.003480 -507684.000000 1 0 0
-2.689166 -15.653300 -7.994371 17.781096 1.400662 2.037113 0.007722 -0.007357 -754792.000000 1 0 0
-10.471666 -12.184700 0.232329 16.067877 0.860864 1.556337 0.012476 0.005768 409097.000000 1 0 0
-6.752866 -11.368200 -6.508771 14.737749 1.034790 2.028221 0.023660 -0.006526 739666.000000 1 0 0
-2.096866 -13.602600 -6.612071 15.269153 1.417848 2.018653 0.004121 -0.003896 216266.000000 1 0 0
-14.248166 -14.581200 -1.032671 20.412938 0.796950 1.621407 0.050785 -0.001684 239391.000000 1 0 0
-9.509066 -11.277900 -4.470671 15.414287 0.870287 1.865059 0.024299 -0.006201 1350700.000000 1 0 0
9.669134 -15.113800 -4.939071 18.609501 -1.001657 1.839421 0.018452 -0.007136 211574.000000 1 0 0
-5.457766 -10.820000 -9.324171 15.290512 1.103623 2.226606 0.024319 -0.007252 -206058.000000 1 0 0
-10.307466 -15.993900 -4.837871 19.632974 0.998324 1.819776 0.064893 -0.015502 -1402210.000000 1 0 0
2.393334 -17.252900 -3.218571 17.712984 -1.432955 1.753518 0.020139 -0.014291 617301.000000 1 0 0
-0.337366 -14.436200 -8.237571 16.624538 1.547431 2.089214 0.005127 -0.005701 -1256180.000000 1 0 0
-0.453666 -18.095700 -7.094071 19.441862 1.545731 1.944307 0.030667 -0.017172 121581.000000 1 0 0
-1.565066 -9.934500 -10.529871 14.560972 1.414542 2.379159 0.001881 -0.001176 308680.000000 1 0 0
-4.878466 -17.253000 2.157829 18.058839 1.295230 1.451021 0.019592 -0.013321 1103740.000000 1 0 0
0.337534 -12.742000 -2.590371 13.007018 -1.544313 1.771289 0.006494 -0.004188 -1353920.000000 1 0 0
2.687734 -14.969300 3.173629 15.536273 -1.393140 1.365076 0.010744 -0.006986 -952259.000000 1 0 0
-9.299766 -13.150100 6.792729 17.480044 0.955254 1.171686 0.010924 -0.003048 -488769.000000 1 0 0
-0.849966 -17.728000 -4.499971 18.309947 1.522888 1.819107 0.032094 -0.018277 -117239.000000 1 0 0
-9.795166 -18.042200 -2.113371 20.638134 1.073418 1.673377 0.060593 -0.010174 -871659.000000 1 0 0
1.458634 -16.180500 1.546229 16.319528 -1.480892 1.475907 0.012209 -0.015387 -371321.000000 1 0 0
-0.266466 -17.957800 4.026929 18.405698 1.555959 1.350225 0.031070 -0.021048 171128.000000 1 0 0
-17.457066 -9.121200 -0.105871 19.696615 0.481480 1.576171 0.006593 -0.000854 1002530.000000 1 0 0
-14.835766 -7.557000 -10.524371 19.696969 0.471121 2.134493 0.062553 -0.019492 618687.000000 1 0 0
2.993634 -12.719500 -8.910471 15.815941 -1.339645 2.169274 -0.001940 -0.002231 672613.000000 1 0 0
-11.665266 -14.705400 1.781329 18.854717 0.900176 1.476179 0.034366 -0.004966 251614.000000 1 0 0
-2.098966 -15.634800 10.577729 18.993182 1.437345 0.980121 0.026091 -0.008351 -17326.500000 1 0 0
-6.959466 -15.983700 1.358129 17.485918 1.160141 1.493048 0.020415 -0.006033 -1727820.000000 1 0 0
-12.483866 -15.062200 -5.880571 20.427870 0.878727 1.862798 0.069474 -0.015596 795131.000000 1 0 0
1.034634 -13.711600 -4.992971 14.629019 -1.495482 1.919102 0.008683 -0.005128 409804.000000 1 0 0
5.926434 -16.491900 -7.343271 19.000763 -1.225813 1.967600 0.023862 -0.019803 -56123.800000 1 0 0
-6.428766 -12.870600 5.884529 15.543779 1.107555 1.182537 0.012382 -0.006006 399782.000000 1 0 0
-2.450366 -13.610100 0.645229 13.843967 1.392664 1.524172 0.009425 -0.004721 1027240.000000 1 0 0
-4.176866 -15.526800 0.161829 16.079612 1.308007 1.560732 0.012839 -0.009509 137209.000000 1 0 0
-17.603266 -7.519200 -2.194571 19.267316 0.403689 1.684945 -0.000652 -0.005487 599621.000000 1 0 0
1.507434 -12.685400 -11.821671 17.405276 -1.452519 2.317469 0.007512 -0.001376 -6756.980000 1 0 0
1.319434 -16.869800 -5.633971 17.834592 -1.492742 1.892203 0.027944 -0.020972 -1733270.000000 1 0 0
-12.846466 -6.440300 -9.107271 17.013275 0.464710 2.135664 0.041603 -0.011890 634475.000000 1 0 0
-11.398366 -13.650900 -8.959471 19.913360 0.875081 2.037475 0.070425 -0.016652 33552.500000 1 0 0
-4.339166 -9.897300 3.435029 11.339503 1.157615 1.263035 0.007364 0.000152 -4404980.000000 1 0 0
-6.898066 -14.404500 9.702529 18.687215 1.124185 1.024874 0.014490 -0.006569 -973337.000000 1 0 0
-5.282066 -15.836500 -8.111071 18.560291 1.248862 2.023070 0.024169 -0.010303 -605493.000000 1 0 0
-0.098766 -13.432700 2.149729 13.603989 1.563444 1.412109 0.012103 -0.006534 972475.000000 1 0 0
-10.830266 -13.422500 -4.787671 17.899161 0.891878 1.841573 0.057578 -0.012529 -757344.000000 1 0 0
-9.715966 -10.637800 6.632629 15.860471 0.830658 1.139349 0.015061 0.001620 -908109.000000 1 0 0
-15.497666 -8.102900 -4.847471 18.147523 0.481757 1.841194 0.039131 -0.014290 -225033.000000 1 0 0
-14.455566 -7.275100 5.381829 17.054458 0.466263 1.249742 0.018043 0.001481 139624.000000 1 0 0
-1.679866 -19.259700 0.090429 19.333033 1.483795 1.566119 0.017679 -0.014165 -725529.000000 1 0 0
-15.328666 -12.273700 -1.449971 19.690458 0.675169 1.644501 0.025405 0.006683 386474.000000 1 0 0
-4.301466 -12.127100 -6.730171 14.521169 1.229942 2.052707 0.007774 -0.006513 -727511.000000 1 0 0
-7.146966 -18.528600 2.206629 19.981425 1.202655 1.460137 0.026933 -0.008255 -256027.000000 1 0 0
-2.376366 -11.722200 -8.602071 14.732709 1.370783 2.194291 0.002552 -0.001239 614865.000000 1 0 0
-1.173366 -20.248200 -5.103771 20.914465 1.512912 1.817316 0.055723 -0.014680 -66464.400000 1 0 0
-5.361766 -8.863300 -13.796471 17.252513 1.026752 2.497557 0.034417 -0.006451 861748.000000 1 0 0
-8.132766 -19.061300 -0.438371 20.728415 1.167517 1.591946 0.036876 -0.018176 84321.800000 1 0 0
-16.922366 -7.255600 5.790629 19.301336 0.405049 1.266091 0.040536 -0.011093 -295184.000000 1 0 0
-3.474366 -14.682700 -4.326071 15.696107 1.338440 1.850025 0.009645 -0.006203 -2031210.000000 1 0 0
-2.882966 -14.733300 -10.871571 18.535713 1.377561 2.197552 0.021012 -0.008621 -133676.000000 1 0 0
0.062334 -16.763400 6.266729 17.896574 -1.567078 1.213051 0.029328 -0.014487 430128.000000 1 0 0
-11.159266 -11.658500 3.764829 16.571776 0.807274 1.341612 0.010113 0.001358 -58015.900000 1 0 0
-0.113066 -14.704700 -0.002171 14.705135 1.563107 1.570944 0.013953 -0.006887 1030910.000000 1 0 0
-7.146566 -9.482100 -2.576471 12.149972 0.924938 1.784474 0.015366 -0.002103 11141.300000 1 0 0
-10.957466 -14.349300 -0.747171 18.070051 0.918633 1.612157 0.031674 -0.008295 142711.000000 1 0 0
0.553234 -14.542000 -10.653471 18.035306 -1.532771 2.202723 0.006281 -0.004300 113130.000000 1 0 0
-1.306666 -14.013700 -3.797371 14.577763 1.477823 1.834327 0.008597 -0.004185 -3076960.000000 1 0 0
-11.393766 -8.081200 -7.684771 15.943004 0.616917 2.073750 0.030521 -0.009172 726889.000000 1 0 0
-0.003466 -17.298600 -0.196671 17.299718 1.570596 1.582165 0.015069 -0.012473 1199800.000000 1 0 0
-12.802166 -9.529400 4.594029 16.607529 0.639881 1.290518 0.010987 -0.001290 378829.000000 1 0 0
4.158934 -16.810600 1.837329 17.414614 -1.328267 1.465095 0.016585 -0.015137 1110790.000000 1 0 0
-3.774366 -17.878200 -8.062871 19.972124 1.362736 1.986361 0.039652 -0.018442 54258.800000 1 0 0
-13.346566 -11.104900 2.583929 17.553527 0.693976 1.423057 0.007937 -0.001027 -111582.000000 1 0 0
-8.539366 -12.338300 4.077429 15.549271 0.965391 1.305468 0.009245 -0.000961 1179720.000000 1 0 0
-8.165166 -9.406900 -5.897471 13.781867 0.855946 2.012981 0.022116 -0.008412 53271.500000 1 0 0
3.901934 -17.336500 -5.394871 18.571051 -1.349415 1.865545 0.014574 -0.012475 -630931.000000 1 0 0
-2.524366 -13.117500 11.309229 17.502568 1.380678 0.868271 0.013309 -0.005171 143505.000000 1 0 0
0.242334 -16.731900 -9.399971 19.193088 -1.556314 2.082609 0.020910 -0.009187 8785.750000 1 0 0
-7.057966 -10.733100 -14.408271 19.303175 0.989105 2.413462 0.052016 -0.003865 -1272540.000000 1 0 0
-4.413966 -18.887500 -1.490571 19.453600 1.341219 1.647493 0.036913 -0.024712 -360297.000000 1 0 0
-2.371666 -17.100100 1.188729 17.304661 1.432982 1.502048 0.020460 -0.020331 -524435.000000 1 0 0
4.250334 -14.561500 -7.422371 16.887694 -1.286798 2.025853 0.010083 -0.015394 -1370280.000000 1 0 0
-0.910166 -15.739700 -6.053471 16.888193 1.513035 1.937397 0.014582 -0.007833 -206551.000000 1 0 0
-9.492166 -15.285500 8.394529 19.854869 1.015085 1.134270 0.032305 -0.010982 -395717.000000 1 0 0
-7.215166 -12.018600 -1.726871 14.124002 1.030132 1.693368 0.008206 -0.000743 957792.000000 1 0 0
-7.328166 -14.982700 -9.330071 19.111084 1.115900 2.080825 0.051620 -0.015583 594760.000000 1 0 0
-4.982766 -13.189100 -0.555671 14.109893 1.209578 1.610188 0.009591 -0.002114 2730560.000000 1 0 0
-6.400566 -13.679000 -7.268571 16.760501 1.133147 2.019361 0.023493 -0.012905 784461.000000 1 0 0
5.803934 -15.291800 0.320829 16.359331 -1.208047 1.551184 0.018135 -0.010634 285812.000000 1 0 0
-14.320466 -12.837400 0.908229 19.253557 0.730843 1.523607 0.006032 0.003630 614206.000000 1 0 0
1.072034 -15.328800 11.096429 18.953947 -1.500974 0.945372 0.027959 -0.005586 293453.000000 1 0 0
-9.347966 -10.766600 1.990329 14.396720 0.855809 1.432103 0.007407 0.002751 49880.900000 1 0 0
-9.426466 -8.899800 -3.622471 13.460572 0.756668 1.843273 0.015214 -0.002695 -105288.000000 1 0 0
-12.182966 -7.230800 -12.414671 18.837016 0.535639 2.290361 0.062960 -0.009348 566143.000000 1 0 0
-13.279866 -8.368900 -0.586271 15.707865 0.562326 1.608128 0.005952 -0.001116 -270324.000000 1 0 0
-11.193366 -9.671500 0.536929 14.802623 0.712588 1.534516 0.001606 0.004435 1684430.000000 1 0 0
-15.709966 -12.253100 2.912529 20.135151 0.662400 1.425638 0.034992 -0.001953 458386.000000 1 0 0
-10.418066 -12.461900 -2.333471 16.409757 0.874490 1.713480 0.032248 -0.008150 792048.000000 1 0 0
-3.402266 -8.904000 -12.017171 15.338482 1.205811 2.471019 0.010932 -0.001880 -513945.000000 1 0 0
-0.240666 -15.466300 3.876629 15.946555 1.555237 1.325234 0.013741 -0.012989 -831328.000000 1 0 0
-15.836966 -7.747400 1.295129 17.677926 0.454968 1.497468 0.002640 0.001846 -242423.000000 1 0 0
-5.925766 -13.409300 -13.247071 19.758768 1.154686 2.305598 0.041431 -0.007560 -44267.700000 1 0 0
-15.391966 -10.395200 0.954129 18.597934 0.594001 1.519471 0.008154 0.005133 687753.000000 1 0 0
-9.886266 -8.505200 -12.494471 18.060689 0.710446 2.334782 0.041604 -0.007909 576883.000000 1 0 0
-13.475966 -11.640800 -6.326771 18.898093 0.712462 1.912172 0.062704 -0.009203 339593.000000 1 0 0
-12.238666 -11.449300 -3.979471 17.225202 0.752087 1.803928 0.036889 -0.001563 -650545.000000 1 0 0
-11.443066 -11.010900 -8.937871 18.222766 0.766154 2.083435 0.058335 -0.025352 197074.000000 1 0 0
-13.203966 -8.598500 -5.929571 16.835638 0.577222 1.930721 0.032691 -0.008630 -750985.000000 1 0 0
-13.422966 -8.258600 -3.276371 16.097052 0.551564 1.775767 0.020106 -0.006706 439147.000000 1 0 0
-4.344666 -16.993800 -3.224271 17.834272 1.320496 1.752587 0.017890 -0.014296 832463.000000 1 0 0
-15.447566 -8.922600 -1.841671 17.934097 0.523790 1.673669 0.010679 -0.001828 -1728960.000000 1 0 0
-9.281166 -15.991100 3.734529 18.862715 1.044916 1.371495 0.018438 -0.003692 -401538.000000 1 0 0
4.937134 -17.250600 8.053929 19.667848 -1.292047 1.148893 0.043725 -0.024095 412230.000000 1 0 0
-8.159466 -15.512100 6.048129 18.541359 1.086561 1.238519 0.012600 -0.003840 586388.000000 1 0 0
1.025034 -15.931000 8.544729 18.106901 -1.506543 1.079347 0.028612 -0.016683 2436.840000 1 0 0
-10.908366 -7.866400 -10.167071 16.859479 0.624770 2.218113 0.039820 -0.009655 764662.000000 1 0 0
-4.639766 -15.860600 5.947129 17.562870 1.286203 1.225347 0.010630 -0.012489 -1278920.000000 1 0 0
-1.083766 -13.210600 -12.119271 17.960268 1.488942 2.311466 0.011439 -0.002168 -1126250.000000 1 0 0
-6.375766 -14.314800 -2.515171 15.871042 1.151777 1.729943 0.013447 -0.007393 564845.000000 1 0 0
-17.697066 -7.010100 -7.195971 20.349684 0.377154 1.932230 0.056994 -0.023138 69401.800000 1 0 0
-17.422266 -4.047000 -10.142371 20.561645 0.228241 2.086637 0.074824 -0.022591 493591.000000 1 0 0
-15.272566 -5.319300 -9.192571 18.602408 0.335152 2.087665 0.033228 -0.018714 682362.000000 1 0 0
-16.085966 -5.511800 -5.644171 17.916331 0.330109 1.891284 0.027245 -0.014159 1456450.000000 1 0 0
-15.150566 -4.529800 -12.321771 20.047064 0.290526 2.232729 0.070013 -0.017514 229299.000000 1 0 0
-18.713866 -5.267400 -5.600771 20.231730 0.274372 1.851291 0.048641 -0.019808 -501125.000000 1 0 0
-17.357166 -4.500700 -7.646971 19.493683 0.253712 1.973905 0.043794 -0.022720 985669.000000 1 0 0
12.349134 -7.822800 8.816329 17.071174 -0.564667 1.028102 0.035590 -0.012004 21782.200000 1 0 0
16.261234 -3.303600 1.817829 16.692693 -0.200430 1.461680 0.039693 -0.013017 749334.000000 1 0 0
12.081334 -2.344800 12.488129 17.533114 -0.191701 0.778084 0.061090 -0.012486 226768.000000 1 0 0
9.755334 -10.096100 5.294029 15.004150 -0.802562 1.210194 0.007085 -0.005884 241204.000000 1 0 0
17.109934 -1.941100 7.210329 18.668330 -0.112966 1.174252 0.096838 -0.029364 47992.300000 1 0 0
5.178334 -12.901300 9.233429 16.688766 -1.189100 0.984509 0.003971 0.010127 -223487.000000 1 0 0
15.286134 -8.921100 -2.068571 17.819397 -0.528279 1.687144 0.040862 -0.008898 566866.000000 1 0 0
11.231234 -8.581900 6.583129 15.592537 -0.652471 1.134928 0.011280 -0.008374 -2494630.000000 1 0 0
20.121634 -3.037500 3.563129 20.659198 -0.149826 1.397458 0.125686 -0.033403 401529.000000 1 0 0
13.689634 -8.566900 6.874929 17.551709 -0.559171 1.168322 0.037527 -0.012650 -1754520.000000 1 0 0
8.405934 -10.971800 8.992729 16.489672 -0.917045 0.993983 0.004870 0.004534 -1959260.000000 1 0 0
16.889534 0.118800 -0.703271 16.904587 0.007034 1.612411 0.028294 -0.002531 -1890490.000000 1 0 0
12.569034 -12.298000 2.291029 17.733308 -0.774499 1.441241 0.035230 -0.011997 -2586200.000000 1 0 0
10.520734 -11.581500 3.599429 16.055307 -0.833355 1.344685 0.027588 -0.012956 -379260.000000 1 0 0
16.401734 2.845800 2.386429 16.816971 0.171796 1.428410 0.030070 -0.004017 386963.000000 1 0 0
18.630934 -3.309900 0.547729 18.930588 -0.175822 1.541859 0.069812 -0.016629 536324.000000 1 0 0
13.540034 -11.340600 -0.202571 17.663034 -0.697228 1.582265 0.042877 -0.007631 -417705.000000 1 0 0
17.126034 -7.482600 -0.762971 18.704878 -0.411918 1.611598 0.054901 -0.007516 326272.000000 1 0 0
10.364434 -5.795400 9.746929 15.362642 -0.509850 0.883491 0.022160 -0.006248 -650609.000000 1 0 0
11.402334 -13.146200 5.994229 18.405613 -0.856317 1.239072 0.036322 -0.018931 -1685800.000000 1 0 0
13.056934 -1.791700 10.131829 16.623708 -0.136370 0.915391 0.049135 -0.012116 1329260.000000 1 0 0
15.742734 -1.949900 -1.437571 15.928038 -0.123233 1.661173 0.023863 -0.005091 671019.000000 1 0 0
10.536434 -12.309300 9.083929 18.575604 -0.862845 1.059825 0.032713 -0.017949 -85047.100000 1 0 0
14.536734 1.159700 3.402829 14.974672 0.079609 1.341555 0.019196 -0.007137 1278390.000000 1 0 0
14.894834 -5.931700 5.128329 16.832733 -0.378987 1.261211 0.050770 -0.018147 -1238090.000000 1 0 0
14.311234 -3.255800 -3.038271 14.988087 -0.223692 1.774923 0.022504 -0.003135 1021990.000000 1 0 0
14.067834 0.637600 9.597529 17.041803 0.045292 0.972572 0.065135 -0.007887 583892.000000 1 0 0
15.626634 -3.621600 4.402729 16.634052 -0.227738 1.302922 0.045897 -0.018511 -806303.000000 1 0 0
18.623534 4.748000 -4.257271 19.685118 0.249629 1.788787 0.031047 0.000934 590623.000000 1 0 0
18.213534 -5.732500 -5.246871 19.802122 -0.304923 1.838964 0.088225 -0.009030 450099.000000 1 0 0
17.573134 0.118000 5.929129 18.546793 0.006715 1.245399 0.094161 -0.017158 507477.000000 1 0 0
17.062334 -6.558400 3.967129 18.704918 -0.366968 1.357083 0.074346 -0.022455 201710.000000 1 0 0
9.933834 -6.513200 14.303329 18.592688 -0.580343 0.693054 0.046614 -0.020305 -1129510.000000 1 0 0
8.745134 -12.388700 5.132829 16.009472 -0.956124 1.244421 0.015522 -0.006568 -1795970.000000 1 0 0
17.110734 -10.069700 -0.582471 19.862410 -0.531922 1.600126 0.054203 -0.005535 63186.800000 1 0 0
15.239334 -8.729500 0.523329 17.570297 -0.520200 1.541007 0.052410 -0.011421 -200406.000000 1 0 0
10.147434 -12.837000 1.511429 16.432997 -0.901885 1.478691 0.028440 -0.016578 465658.000000 1 0 0
17.179834 -7.929900 8.872029 20.898395 -0.432444 1.132352 0.113096 -0.027284 322582.000000 1 0 0
19.211634 -0.253500 -1.814271 19.298775 -0.013194 1.664945 0.078641 -0.005970 174515.000000 1 0 0
13.546434 -1.204200 7.715629 15.636077 -0.088661 1.054744 0.037198 -0.014642 348710.000000 1 0 0
12.926534 -9.724400 -2.973971 16.446998 -0.644960 1.752618 0.025165 -0.008081 -567090.000000 1 0 0
8.970834 -15.129300 1.553629 17.657444 -1.035581 1.482695 0.037734 -0.017237 71751.000000 1 0 0
11.660234 -8.274100 11.212829 18.170012 -0.617140 0.905736 0.049903 -0.014812 308232.000000 1 0 0
14.123934 -4.013100 -0.527971 14.692489 -0.276839 1.606739 0.021434 -0.008151 -477347.000000 1 0 0
7.290334 -13.325100 10.666129 18.559999 -1.070172 0.958579 0.010061 0.008305 -1057570.000000 1 0 0
15.487734 -6.604200 1.866329 16.940146 -0.403068 1.460400 0.036651 -0.013772 -1033950.000000 1 0 0
16.226334 -6.095600 -2.608671 17.528703 -0.359350 1.720174 0.067056 -0.009290 227970.000000 1 0 0
11.337134 -8.549700 3.937029 14.735270 -0.646141 1.300327 0.015398 -0.009580 805859.000000 1 0 0
10.770834 -14.494600 -0.329871 18.061370 -0.931730 1.589061 0.043634 -0.017044 718139.000000 1 0 0
13.550834 -12.858800 4.692629 19.261220 -0.759200 1.324688 0.041617 -0.014753 327784.000000 1 0 0
12.963234 -11.104200 6.633629 18.312666 -0.708309 1.200123 0.036049 -0.011086 42448.100000 1 0 0
11.062634 -10.402500 1.427429 15.252260 -0.754654 1.477071 0.022182 -0.011593 267828.000000 1 0 0
14.048834 -7.473300 11.769129 19.792230 -0.488881 0.933986 0.067495 -0.028336 -845513.000000 1 0 0
15.301434 -1.774800 -4.955171 16.181394 -0.115473 1.882023 0.034780 -0.000015 -244278.000000 1 0 0
13.000234 -11.292000 -6.946371 18.567913 -0.715194 1.954229 0.039864 -0.010621 30595.600000 1 0 0
17.839234 -5.314200 1.970729 18.717980 -0.289524 1.465315 0.088056 -0.019709 776151.000000 1 0 0
10.765934 -9.770800 9.182329 17.195611 -0.736980 1.007481 0.023428 -0.002676 -1315170.000000 1 0 0
16.495234 1.718800 9.882129 19.305530 0.103825 1.033424 0.112034 -0.016480 -343200.000000 1 0 0
18.191334 3.594000 0.580429 18.552045 0.195055 1.539505 0.018604 -0.001718 283724.000000 1 0 0
13.379334 -3.982200 5.738229 15.092772 -0.289289 1.180787 0.025126 -0.013839 -235341.000000 1 0 0
12.317134 -6.234900 6.648929 15.322990 -0.468593 1.121959 0.018199 -0.012478 -288411.000000 1 0 0
16.774134 -10.322000 3.673929 20.035294 -0.551631 1.386380 0.056194 -0.009518 155112.000000 1 0 0
16.380134 -8.094700 -5.439271 19.063542 -0.458979 1.860140 0.071190 -0.012132 299357.000000 1 0 0
14.210334 -0.430500 5.383229 15.201910 -0.030286 1.208828 0.024639 -0.010454 1616760.000000 1 0 0
18.448234 -4.196600 5.199029 19.620874 -0.223673 1.302619 0.113733 -0.029060 -290326.000000 1 0 0
13.645934 -13.585800 7.142329 20.537730 -0.783190 1.215609 0.068794 -0.017959 -274945.000000 1 0 0
15.128534 -13.352600 -0.731371 20.191567 -0.723124 1.607026 0.043241 -0.007626 -652407.000000 1 0 0
17.800334 -5.706300 7.814929 20.260476 -0.310222 1.174805 0.100654 -0.033257 -414496.000000 1 0 0
14.429834 3.284600 9.130129 17.388731 0.223812 1.018011 0.058310 -0.010984 188449.000000 1 0 0
18.706634 3.814000 2.996829 19.325262 0.201128 1.415095 0.056847 -0.009624 -1080150.000000 1 0 0
15.045434 -10.539300 8.169829 20.104428 -0.611060 1.152319 0.057674 -0.022625 372723.000000 1 0 0
14.859734 -4.644300 10.388929 18.716599 -0.302924 0.982355 0.081090 -0.021901 67724.400000 1 0 0
17.848234 -7.900500 2.013229 19.622193 -0.416724 1.468016 0.084389 -0.017626 -119460.000000 1 0 0
18.758534 -5.846900 -1.823071 19.733029 -0.302149 1.663315 0.079838 -0.010749 -206200.000000 1 0 0
14.428034 -12.883300 -5.446171 20.094983 -0.728898 1.845250 0.044965 -0.015874 481883.000000 1 0 0
15.546734 -1.507400 9.404229 18.232189 -0.096657 1.028851 0.113036 -0.020693 486822.000000 1 0 0
13.171534 -10.070700 10.115129 19.422259 -0.652768 1.023008 0.042664 -0.024204 -1770340.000000 1 0 0
16.567534 2.119900 4.776229 17.372090 0.127264 1.292272 0.057095 -0.012479 1198040.000000 1 0 0
14.990734 2.414200 -0.047971 15.183964 0.159675 1.573956 0.013416 0.000097 -1068000.000000 1 0 0
15.110434 -9.819400 -6.924871 19.305431 -0.576264 1.937672 0.060510 -0.013923 256657.000000 1 0 0
16.269634 0.032400 -3.253771 16.591837 0.001991 1.768182 0.023066 0.002618 99841.200000 1 0 0
12.053134 2.488800 13.551729 18.306325 0.203624 0.737316 0.077911 -0.007513 -278929.000000 1 0 0
17.799334 -2.978400 9.443029 20.368062 -0.165796 1.088720 0.112481 -0.033324 966861.000000 1 0 0
7.929434 -18.293700 4.359229 20.409269 -1.161789 1.355547 0.064948 -0.030329 209268.000000 1 0 0
7.012634 -11.277900 6.687429 14.869088 -1.014499 1.104307 0.005297 -0.001673 -22658.800000 1 0 0
18.166934 2.166900 -1.551771 18.361398 0.118716 1.655410 0.029289 0.001489 674266.000000 1 0 0
17.684834 -2.121000 3.715829 18.195037 -0.119363 1.365127 0.055236 -0.018363 -1561050.000000 1 0 0
12.775334 -13.328500 -1.761871 18.546219 -0.806586 1.665939 0.033247 -0.003728 532059.000000 1 0 0
15.195634 -8.334300 4.339929 17.866248 -0.501665 1.325430 0.049885 -0.013692 -198553.000000 1 0 0
12.467134 -2.774900 15.013129 19.711001 -0.219007 0.704921 0.088916 -0.024005 37936.100000 1 0 0
12.200134 -13.657100 -6.340971 19.379565 -0.841685 1.904134 0.027501 -0.017821 -403492.000000 1 0 0
10.687734 -11.981700 -1.096571 16.093205 -0.842416 1.638988 0.022598 -0.011733 -197888.000000 1 0 0
13.344834 -7.932200 2.180929 15.676761 -0.536293 1.431225 0.031687 -0.012011 -49499.400000 1 0 0
8.862734 -7.901700 10.030829 15.543566 -0.728135 0.869333 0.009435 -0.000414 -1499750.000000 1 0 0
15.629134 -3.725900 8.011629 17.953784 -0.234026 1.108241 0.085775 -0.026859 -318771.000000 1 0 0
10.123134 -17.347900 5.505029 20.826253 -1.042570 1.303286 0.070645 -0.027015 -900674.000000 1 0 0
15.224034 -6.300900 8.339329 18.466645 -0.392413 1.102251 0.064873 -0.016286 262609.000000 1 0 0
16.791134 -4.921000 -0.291071 17.499804 -0.285088 1.587430 0.047807 -0.010223 -825059.000000 1 0 0
14.141534 -10.580700 3.461029 17.997581 -0.642348 1.377286 0.040120 -0.012444 364714.000000 1 0 0
15.076534 -10.047800 -4.398371 18.644190 -0.587855 1.808952 0.050793 -0.012355 331885.000000 1 0 0
13.754734 -6.577900 -0.086971 15.246935 -0.446079 1.576500 0.031783 -0.007519 139872.000000 1 0 0
17.780034 -0.735000 -5.213471 18.543196 -0.041315 1.855791 0.070808 -0.001705 710517.000000 1 0 0
14.407734 0.307600 -1.564171 14.495656 0.021346 1.678913 0.013328 -0.001768 -1397410.000000 1 0 0
5.112634 -12.989300 11.982429 18.396727 -1.195816 0.861454 0.006549 0.014538 -373338.000000 1 0 0
12.160134 -7.334800 13.560729 19.635721 -0.542757 0.808457 0.063642 -0.025862 581595.000000 1 0 0
12.187034 -5.696200 11.540329 17.724268 -0.437228 0.861759 0.044279 -0.015444 -287491.000000 1 0 0
13.261034 -4.549000 8.305429 16.295048 -0.330457 1.035971 0.037075 -0.015172 -1042090.000000 1 0 0
15.446134 -1.249700 3.111729 15.805938 -0.080731 1.372631 0.034917 -0.008740 -982497.000000 1 0 0
15.350234 -10.427100 5.777529 19.435379 -0.596684 1.268966 0.058700 -0.016799 1015270.000000 1 0 0
13.780634 -8.025800 -5.648771 16.918273 -0.527376 1.911219 0.047133 -0.011239 -135905.000000 1 0 0
9.983634 -2.577900 14.020229 17.403602 -0.252693 0.634120 0.045766 -0.001262 -54325.000000 1 0 0
10.159334 -9.087800 13.751929 19.362741 -0.729783 0.780977 0.058189 -0.013910 -270528.000000 1 0 0
20.315334 6.345500 -2.922771 21.483034 0.302748 1.707270 0.123330 0.000391 322693.000000 1 0 0
11.250734 -3.555500 10.448329 15.760336 -0.306092 0.846043 0.024002 -0.008054 764687.000000 1 0 0
10.495434 -13.917900 -2.835971 17.660827 -0.924679 1.732074 0.025774 -0.005127 1185570.000000 1 0 0
14.994734 -12.916700 2.553129 19.954991 -0.711084 1.442500 0.042018 -0.005199 -207829.000000 1 0 0
11.350134 -0.498400 14.232829 18.211188 -0.043883 0.673661 0.065849 -0.015632 714627.000000 1 0 0
19.181734 -1.829800 5.784729 20.118404 -0.095105 1.279145 0.138644 -0.031050 85150.700000 1 0 0
19.104934 -0.350700 7.993529 20.712750 -0.018354 1.174588 0.140965 -0.028084 141685.000000 1 0 0
19.115234 0.858900 0.552329 19.142491 0.044903 1.541939 0.063378 -0.011623 473138.000000 1 0 0
18.573434 0.743700 3.610929 18.935796 0.040020 1.378928 0.064377 -0.018190 293913.000000 1 0 0
16.604834 -3.921400 -4.242871 17.581235 -0.231911 1.814532 0.056366 -0.005912 -1116860.000000 1 0 0
11.249134 -8.078900 15.919629 21.100859 -0.622823 0.715974 0.086741 -0.028215 225516.000000 1 0 0
16.596934 -7.455000 6.382929 19.281520 -0.422171 1.233392 0.072775 -0.019168 306142.000000 1 0 0
19.051234 2.208800 5.795029 20.035236 0.115425 1.277362 0.093421 -0.014324 52584.600000 1 0 0
15.535834 1.667200 7.590729 17.371266 0.106904 1.118569 0.077064 -0.014024 431963.000000 1 0 0
8.783334 -15.842800 3.848029 18.518871 -1.064577 1.361482 0.044669 -0.024902 651622.000000 1 0 0
11.463034 -15.077300 2.226329 19.070466 -0.920746 1.453787 0.057576 -0.016429 684396.000000 1 0 0
7.783934 -16.354200 6.034529 19.090967 -1.126566 1.249187 0.033129 -0.015351 -436342.000000 1 0 0
14.677234 -11.557500 -2.439471 18.840064 -0.667038 1.700644 0.040752 -0.006915 516986.000000 1 0 0
13.751434 -4.644100 3.171129 14.856839 -0.325691 1.355696 0.025706 -0.008886 -1720770.000000 1 0 0
-1.089666 10.202000 -5.612371 11.694738 -1.464391 2.071343 -0.004416 0.002307 -2408730.000000 1 0 0
8.238134 -1.598500 -7.898471 11.524231 -0.191655 2.325921 0.000550 0.002068 -1249220.000000 1 0 0
2.959134 -10.061500 7.741829 13.035573 -1.284757 0.934898 0.005637 -0.001035 737751.000000 1 0 0
-6.293766 1.290700 8.260929 10.465197 -0.202272 0.661012 -0.000323 -0.002056 -127828.000000 1 0 0
7.265634 -6.316200 -7.197471 12.020291 -0.715607 2.212769 -0.001857 -0.001583 239632.000000 1 0 0
-11.478766 -4.520600 -4.105371 13.001998 0.375170 1.892042 0.005335 -0.004264 -127874.000000 1 0 0
2.146134 -3.214600 2.872429 4.815640 -0.982133 0.931689 0.007158 -0.003661 1888420.000000 1 0 0
-3.537566 -4.338800 8.746629 10.384752 0.886776 0.569340 0.008477 -0.004511 -2411390.000000 1 0 0
-4.910966 -1.019100 -2.406871 5.563198 0.204611 2.018217 0.006821 -0.005687 -343377.000000 1 0 0
5.027934 -5.178800 -3.479871 8.013088 -0.800178 2.020028 0.004785 -0.003510 503769.000000 1 0 0
2.672134 14.372300 -8.830271 17.078554 1.386973 2.114184 0.008361 -0.000056 -7698.640000 1 0 0
5.639034 -5.512700 13.670529 15.782013 -0.774070 0.523231 0.022644 -0.012217 -787922.000000 1 0 0
-4.703666 -1.076500 9.877229 10.992861 0.224989 0.454426 0.006847 -0.003148 -2654160.000000 1 0 0
-1.027466 11.924900 -2.814571 12.295558 -1.484847 1.801754 -0.005547 -0.000289 353304.000000 1 0 0
3.058834 9.434600 -10.535671 14.469572 1.257275 2.386380 0.003892 0.002155 -401788.000000 1 0 0
-10.544066 2.712000 1.143629 10.947153 -0.251749 1.466137 0.001669 -0.005160 242894.000000 1 0 0
5.736234 -9.016200 -0.584271 10.702225 -1.004174 1.625417 0.005573 -0.004757 579304.000000 1 0 0
-7.161366 5.391700 9.366129 12.964566 -0.645346 0.763471 -0.003994 -0.001572 -603230.000000 1 0 0
-5.608166 -1.889000 5.217129 7.889124 0.324894 0.848237 0.001684 -0.004164 306892.000000 1 0 0
6.631134 -3.764300 -7.309571 10.562751 -0.516309 2.335071 -0.002018 -0.000186 139517.000000 1 0 0
6.324734 4.895500 10.974929 13.580032 0.658700 0.629764 0.009312 -0.005955 238030.000000 1 0 0
3.844934 -9.928200 3.283429 11.141525 -1.201309 1.271653 0.001096 -0.003188 1178250.000000 1 0 0
-6.639666 6.624400 -5.841771 11.049621 -0.784247 2.127847 0.000565 -0.001969 -498657.000000 1 0 0
-11.145566 8.398800 5.236729 14.905932 -0.645773 1.211817 0.005214 -0.009260 464424.000000 1 0 0
-9.158966 -5.546800 5.178829 11.894281 0.544537 1.120308 -0.000751 0.000319 -1900980.000000 1 0 0
3.267934 9.810500 -8.020871 13.086622 1.249251 2.230530 0.000445 0.001762 744486.000000 1 0 0
-8.091866 -8.647900 6.119429 13.330862 0.818602 1.093879 0.006332 0.001432 -1401520.000000 1 0 0
-7.815966 -5.744100 -7.395471 12.197417 0.633779 2.222214 0.010411 -0.002529 1462610.000000 1 0 0
9.251134 -1.600500 6.876329 11.637396 -0.171310 0.938644 0.008933 -0.005689 1495080.000000 1 0 0
-4.133166 -0.503600 -4.867371 6.405308 0.121246 2.433950 0.009984 -0.008235 -1315620.000000 1 0 0
9.079434 1.184200 -4.675071 10.280795 0.129695 2.042875 0.006423 0.000489 -2622570.000000 1 0 0
-1.833466 -10.692900 10.681929 15.225088 1.400982 0.793155 0.005152 -0.004640 -186780.000000 1 0 0
-12.858066 0.216000 -2.648371 13.129752 -0.016797 1.773897 0.005392 -0.005235 -239959.000000 1 0 0
-9.812866 -5.162400 -6.043171 12.627851 0.484297 2.069809 0.012436 -0.004238 -1452440.000000 1 0 0
-5.673166 8.264700 -0.187371 10.026225 -0.969234 1.589485 -0.001768 0.001410 285894.000000 1 0 0
6.330634 9.574800 0.399129 11.485340 0.986604 1.536038 0.005999 -0.004871 390059.000000 1 0 0
-0.500966 -12.039700 -0.036271 12.050172 1.529211 1.573806 0.010446 -0.002894 -140340.000000 1 0 0
6.121834 4.682900 2.377929 8.066037 0.653001 1.271542 0.002939 -0.001492 290763.000000 1 0 0
3.584334 -7.524400 -8.127571 11.641368 -1.126238 2.343625 -0.003670 -0.000505 1251890.000000 1 0 0
-6.526666 -9.887300 4.481229 12.666392 0.987349 1.209177 0.009845 -0.000579 -1965460.000000 1 0 0
-0.104766 6.575600 -9.325471 11.411130 -1.554865 2.527377 0.007913 -0.002655 -1146560.000000 1 0 0
-17.252366 -2.611300 4.309529 17.973176 0.150219 1.328662 0.041643 -0.008531 237484.000000 1 0 0
-8.375766 0.814500 -9.149471 12.430997 -0.096940 2.397970 0.000099 -0.002756 -260678.000000 1 0 0
-9.991666 -5.982100 -11.916071 16.661682 0.539470 2.367675 0.025331 0.002876 -739428.000000 1 0 0
2.126634 9.483500 6.395129 11.634304 1.350200 0.988817 -0.000455 0.004735 259902.000000 1 0 0
-11.414366 1.662000 -1.181571 11.595090 -0.144590 1.672876 0.004826 -0.005956 -1688680.000000 1 0 0
-5.922566 -5.313600 -3.032471 8.515105 0.731254 1.934918 0.016951 -0.006728 632148.000000 1 0 0
-7.122666 -8.354200 1.329429 11.058590 0.864803 1.450288 0.011479 -0.002159 847642.000000 1 0 0
0.022734 11.004100 -7.896771 13.544361 1.568730 2.193250 0.000073 0.002959 193548.000000 1 0 0
-2.834966 9.239100 -4.255871 10.559850 -1.273072 1.985615 -0.000672 -0.000655 -219514.000000 1 0 0
3.534834 -4.780500 9.406129 11.127601 -0.934096 0.563675 0.005338 -0.003295 -1064040.000000 1 0 0
-9.023366 1.528900 -0.443971 9.162739 -0.167844 1.619269 -0.000413 -0.004544 -1909740.000000 1 0 0
2.433134 3.477500 -10.511171 11.335690 0.960286 2.757833 0.006879 -0.003752 1030140.000000 1 0 0
-13.665666 0.496300 1.061529 13.715815 -0.036301 1.493324 0.006082 -0.007549 -125809.000000 1 0 0
9.576634 -12.633200 -5.045071 16.636177 -0.922161 1.878907 0.022509 -0.006956 -1751880.000000 1 0 0
-4.743466 9.425900 -8.325571 13.441101 -1.104562 2.238789 0.007314 -0.000010 -1514220.000000 1 0 0
-2.449666 7.113900 8.309329 11.209523 -1.239164 0.735830 0.001902 0.000149 -681250.000000 1 0 0
-10.725166 -1.191700 -4.401871 11.654433 0.110659 1.958107 0.004828 -0.002977 -3810600.000000 1 0 0
2.787834 -7.129500 9.730529 12.380831 -1.198048 0.666589 0.004782 -0.000928 -1739480.000000 1 0 0
-16.129466 -6.490800 3.446229 17.724747 0.382590 1.375120 0.020407 -0.001439 -341359.000000 1 0 0
-10.798566 -0.050700 6.256329 12.480114 0.004695 1.045691 0.000327 -0.002080 -766979.000000 1 0 0
-8.433666 9.837700 9.364829 15.987717 -0.862091 0.944989 0.010680 -0.013076 276702.000000 1 0 0
0.267834 -6.091400 -3.784471 7.176288 -1.526855 2.126284 0.002591 -0.001309 401976.000000 1 0 0
4.954834 1.513000 -2.867671 5.921409 0.296365 2.076346 0.001108 0.000107 121813.000000 1 0 0
0.274334 5.255300 3.815429 6.500072 1.518642 0.943470 -0.001448 0.001475 -1758350.000000 1 0 0
6.125134 -11.276800 -1.467071 12.916492 -1.073218 1.684623 0.004102 -0.006505 -1589460.000000 1 0 0
6.451934 -13.572400 5.431329 15.979262 -1.127045 1.223987 0.008857 -0.006321 -152606.000000 1 0 0
8.261234 -8.285100 -5.831271 13.072665 -0.786841 2.033161 0.002048 -0.003814 786640.000000 1 0 0
-13.139666 -1.370500 -4.618771 13.995075 0.103927 1.907130 0.004316 -0.002395 -2917570.000000 1 0 0
-6.861966 -1.606300 -7.139371 10.031819 0.229947 2.362673 0.009601 -0.005519 29037.400000 1 0 0
-5.708266 12.923200 -4.675771 14.881406 -1.154860 1.890413 0.011165 0.000284 728807.000000 1 0 0
-4.337866 6.793800 -6.853871 10.580565 -1.002545 2.275462 0.003764 -0.000430 -3553210.000000 1 0 0
-9.348066 -3.731000 -8.152771 12.952774 0.379747 2.251606 0.009871 -0.000692 612845.000000 1 0 0
-2.199966 -6.422300 9.174429 11.412972 1.240773 0.637040 0.007556 -0.003924 -568356.000000 1 0 0
7.660234 -5.967300 10.108729 14.016928 -0.661802 0.765292 0.012172 -0.004085 542138.000000 1 0 0
9.782034 -4.975900 12.224329 16.428086 -0.470565 0.731592 0.031558 -0.009227 -228342.000000 1 0 0
-6.567366 2.751500 -9.119471 11.570039 -0.396748 2.478670 0.000687 -0.003730 699021.000000 1 0 0
7.489134 5.541600 8.821829 12.830477 0.637039 0.812661 0.000861 -0.001818 -147401.000000 1 0 0
12.839534 3.357600 11.144629 17.330028 0.255777 0.872280 0.060070 -0.005018 839099.000000 1 0 0
-7.470766 -7.234100 -3.885171 11.101310 0.769305 1.928340 0.015712 -0.007722 -327540.000000 1 0 0
2.135134 1.532200 -5.787371 6.356107 0.622449 2.715339 0.004412 -0.001719 -68686.900000 1 0 0
12.865534 6.906400 -7.132171 16.250790 0.492663 2.025150 0.013306 -0.002623 399954.000000 1 0 0
0.867434 -7.771500 1.037129 7.888237 -1.459639 1.438937 0.007055 -0.002116 371082.000000 1 0 0
-10.236766 -6.043700 -8.544771 14.640041 0.533324 2.194022 0.020634 -0.005299 286654.000000 1 0 0
-6.730066 0.233400 3.068129 7.400114 -0.034666 1.143287 -0.000249 -0.005321 -499872.000000 1 0 0
10.819434 -7.882100 1.423629 13.461589 -0.629607 1.464843 0.015236 -0.008986 165820.000000 1 0 0
6.266134 1.063500 10.365229 12.158678 0.168120 0.550054 0.010215 -0.001841 -1248410.000000 1 0 0
-12.974666 5.306300 1.878529 14.143113 -0.388219 1.437580 0.009813 -0.008688 -416975.000000 1 0 0
1.983034 7.338500 3.629729 8.423832 1.306876 1.125320 -0.000841 0.001082 122768.000000 1 0 0
10.218934 -9.388900 -0.766271 13.898389 -0.743092 1.625958 0.014076 -0.006257 749186.000000 1 0 0
6.949434 -11.755200 -8.914571 16.307941 -1.036888 2.149143 -0.003712 -0.004894 -56515.500000 1 0 0
10.334034 3.509100 12.002229 16.222193 0.327351 0.737927 0.024709 -0.003548 -790460.000000 1 0 0
-11.168466 -3.123400 -1.906571 11.752671 0.272696 1.733741 0.003226 -0.001933 1162440.000000 1 0 0
12.488934 1.045000 6.875229 14.294554 0.083480 1.069037 0.013533 -0.006946 207335.000000 1 0 0
-9.562766 9.017000 3.100429 13.504275 -0.756032 1.339141 0.002825 -0.006470 442033.000000 1 0 0
-6.656466 7.725100 -8.857971 13.507382 -0.859568 2.286021 0.005520 -0.001946 -431452.000000 1 0 0
8.579834 5.504200 12.136629 15.849528 0.570396 0.698604 0.018998 -0.004558 -1736720.000000 1 0 0
1.283334 4.893200 -2.686171 5.727641 1.314304 2.058936 0.001842 -0.001418 594742.000000 1 0 0
1.363234 0.528300 9.575029 9.686005 0.369714 0.151521 0.006250 -0.006526 570215.000000 1 0 0
2.469434 12.531400 -3.961071 13.372516 1.376230 1.871518 0.001093 -0.003108 589534.000000 1 0 0
2.105234 0.723300 12.985129 13.174550 0.330937 0.169778 0.010861 -0.010801 322125.000000 1 0 0
-12.202466 -1.732400 0.858829 12.354715 0.141029 1.501226 -0.000390 -0.003164 70329.600000 1 0 0
3.253834 8.669100 -1.259471 9.344892 1.211730 1.705984 0.005398 -0.002543 412299.000000 1 0 0
3.672234 -2.748400 -5.860671 7.442208 -0.642494 2.477523 0.000624 -0.000490 -1453630.000000 1 0 0
-7.795766 -7.315900 9.276529 14.154517 0.753654 0.856116 0.005927 -0.001996 -206424.000000 1 0 0
-7.041366 10.848300 -3.520971 13.403868 -0.995071 1.836598 0.019523 0.002403 406785.000000 1 0 0
0.384034 0.491400 2.523529 2.599453 0.907432 0.242285 0.003467 -0.003558 -2091320.000000 1 0 0
-7.123466 4.590000 -1.942171 8.693900 -0.572393 1.796092 0.005598 -0.003842 -898704.000000 1 0 0
-6.897766 -3.881900 -5.820471 9.824775 0.512599 2.204866 0.010668 -0.004073 373955.000000 1 0 0
3.041034 -6.067500 13.404029 15.024328 -1.106189 0.468703 0.011180 -0.006896 -1782740.000000 1 0 0
-5.496166 -0.568400 -11.855671 13.080055 0.103051 2.705462 0.012399 -0.005781 -608423.000000 1 0 0
11.958934 2.468600 -0.762771 12.234865 0.203564 1.633181 0.004044 -0.003457 -562569.000000 1 0 0
6.145134 -10.962100 10.840629 16.596673 -1.059867 0.859019 0.000949 0.008256 503843.000000 1 0 0
-8.257766 6.349300 -10.484371 14.779254 -0.655480 2.359440 -0.004464 -0.000109 195958.000000 1 0 0
2.935134 8.007300 11.196029 14.074194 1.219448 0.650963 0.005347 -0.000228 1330660.000000 1 0 0
-6.198866 -10.116900 -0.487371 11.874979 1.021074 1.611850 0.015104 0.001421 366816.000000 1 0 0
11.343834 4.256600 5.860829 13.459218 0.358976 1.120257 0.004316 -0.001451 278836.000000 1 0 0
-7.921266 10.542700 1.440329 13.265351 -0.926431 1.462004 0.000016 -0.001135 376791.000000 1 0 0
4.340834 -2.628400 -3.553971 6.195323 -0.544458 2.181756 0.003790 -0.000828 -5929950.000000 1 0 0
6.349734 6.480500 6.254729 11.019875 0.795590 0.967225 0.001302 0.001632 -5469280.000000 1 0 0
-0.439966 10.246600 -10.204871 14.468095 -1.527885 2.353694 0.000593 0.000351 -204525.000000 1 0 0
14.005734 6.566400 -2.433671 15.658894 0.438408 1.726847 0.015929 -0.000818 491742.000000 1 0 0
1.448834 9.453200 -6.284771 11.443796 1.418716 2.152186 0.000225 -0.000670 -446262.000000 1 0 0
0.622434 7.390900 7.231929 10.359229 1.486778 0.798036 -0.002993 0.004180 291622.000000 1 0 0
12.196434 6.251700 1.861729 13.831225 0.473664 1.435783 0.006567 -0.002041 -2605290.000000 1 0 0
-6.907366 6.724700 -3.221271 10.164147 -0.771999 1.893282 0.002153 -0.002857 459714.000000 1 0 0
0.959734 9.809800 11.003629 14.772716 1.473272 0.730469 0.004125 -0.000602 -643204.000000 1 0 0
-3.591866 13.532200 -11.005171 17.808305 -1.311348 2.236967 0.011706 -0.000453 -164906.000000 1 0 0
-10.043366 -5.503100 -2.243471 11.669896 0.501255 1.764245 0.004976 -0.002881 -544282.000000 1 0 0
-4.161566 3.946700 -12.537571 13.787159 -0.758905 2.712553 0.006357 -0.004992 136977.000000 1 0 0
-3.171166 8.178600 2.425129 9.100937 -1.200904 1.301067 -0.006362 0.000511 -3850160.000000 1 0 0
6.971034 9.021200 7.045929 13.402332 0.912900 1.017230 0.001780 0.003687 258508.000000 1 0 0
-1.438766 -2.195900 -8.168971 8.580449 0.990770 2.830647 0.007696 -0.006300 -735887.000000 1 0 0
0.848034 -1.398700 4.844229 5.112933 -1.025756 0.325639 0.007295 -0.004928 -1578940.000000 1 0 0
2.822334 -8.906000 -5.992071 11.098978 -1.263906 2.141086 -0.002967 -0.002768 369342.000000 1 0 0
5.391934 3.987200 8.732429 11.010270 0.636731 0.654887 0.003798 -0.001379 -545318.000000 1 0 0
6.043934 -7.571300 -2.790571 10.081716 -0.897112 1.851254 0.003011 -0.004122 860594.000000 1 0 0
1.757334 2.315200 -8.357671 8.848674 0.921533 2.806899 0.005061 -0.003313 360066.000000 1 0 0
-5.489466 10.909100 -0.657971 12.230112 -1.104592 1.624622 -0.003420 0.002876 214925.000000 1 0 0
-5.501366 3.318600 -3.400271 7.269111 -0.542793 2.057562 0.002991 -0.002981 147672.000000 1 0 0
1.951934 13.690800 -6.249571 15.175809 1.429178 1.995237 -0.005112 0.002727 514207.000000 1 0 0
-5.367166 -2.457600 2.588629 6.445717 0.429400 1.157528 -0.001410 -0.005012 105144.000000 1 0 0
10.417134 -3.385600 -1.827271 11.104859 -0.314235 1.736095 0.013039 -0.002828 209282.000000 1 0 0
2.390434 -3.260900 7.097929 8.168736 -0.938225 0.517792 0.004772 -0.004120 -2412850.000000 1 0 0
-3.016666 9.851300 -11.728371 15.610992 -1.273643 2.420810 0.006215 0.000961 -2467320.000000 1 0 0
0.604934 -2.086700 9.369829 9.618418 -1.288631 0.227847 0.007175 -0.005119 1065650.000000 1 0 0
9.460334 2.586300 4.968429 10.994188 0.266863 1.101886 0.002898 -0.002223 -1231710.000000 1 0 0
13.422634 2.173100 -4.994871 14.485793 0.160506 1.922834 0.010595 -0.000352 -729376.000000 1 0 0
-6.413866 3.777700 7.640629 10.667142 -0.532284 0.772344 0.000391 -0.004449 -151407.000000 1 0 0
10.680734 -0.018500 2.018329 10.869778 -0.001732 1.384030 0.008333 0.000215 1442520.000000 1 0 0
15.334134 6.695700 -4.617871 17.357788 0.411700 1.840079 0.016820 -0.003762 -756564.000000 1 0 0
7.971734 -4.913300 -9.318171 13.210502 -0.552348 2.353728 0.001572 -0.000352 896012.000000 1 0 0
4.440434 5.667500 -2.213071 7.532310 0.906203 1.869007 0.001545 -0.001563 -153844.000000 1 0 0
-1.571866 -10.367700 1.489829 10.591485 1.420330 1.429665 0.012609 -0.003055 -1023530.000000 1 0 0
-2.911866 12.165600 -12.994871 18.037391 -1.335864 2.375234 0.009519 -0.002125 -582193.000000 1 0 0
8.306534 4.290200 -9.621671 13.415695 0.476748 2.370565 0.009086 0.001871 -979830.000000 1 0 0
4.017134 7.613500 -8.847871 12.344536 1.085287 2.369918 0.005004 0.000246 -2741810.000000 1 0 0
-1.709866 -4.863800 -2.520971 5.738944 1.232742 2.025587 0.010506 -0.004717 -230506.000000 1 0 0
-3.224066 -9.017400 7.143629 11.947365 1.227422 0.929886 0.010086 -0.002470 -663416.000000 1 0 0
0.942334 7.208000 -1.396171 7.402199 1.440799 1.760549 0.001621 -0.000751 2080870.000000 1 0 0
0.367534 -1.109500 -2.108371 2.410663 -1.250912 2.635410 0.007042 -0.001419 -1775230.000000 1 0 0
4.267734 -6.716600 7.656429 11.042970 -1.004753 0.804696 0.005324 -0.001182 -871057.000000 1 0 0
-13.906766 3.741700 5.842529 15.541352 -0.262832 1.185391 0.006781 -0.009431 -1603070.000000 1 0 0
4.325134 6.353400 12.561329 14.726149 0.973101 0.549100 0.013259 -0.005542 624813.000000 1 0 0
8.280034 10.117300 -7.213371 14.931559 0.884934 2.074983 0.024430 -0.003941 994370.000000 1 0 0
12.471634 5.275800 9.403129 16.486193 0.400196 0.963848 0.028781 -0.005464 641678.000000 1 0 0
7.488834 4.149100 0.295529 8.566505 0.505938 1.536291 0.004245 -0.000319 -2549920.000000 1 0 0
-10.895566 -7.571600 -1.098571 13.313502 0.607312 1.653406 0.004446 -0.002033 -2014910.000000 1 0 0
10.530134 6.925600 0.150929 12.604382 0.581765 1.558822 -0.000485 -0.002500 -1569240.000000 1 0 0
14.482134 3.582600 4.101829 15.472305 0.242512 1.302481 0.025335 -0.006969 883250.000000 1 0 0
2.111634 5.579600 8.232329 10.166719 1.208999 0.627099 0.000635 -0.000514 413706.000000 1 0 0
4.234634 0.188000 11.590129 12.340931 0.044367 0.350615 0.009281 -0.004807 -1512540.000000 1 0 0
-1.590066 -1.374300 -0.361371 2.132510 0.712740 1.741076 0.011453 -0.008630 -1014120.000000 1 0 0
3.145034 -5.283200 -9.510071 11.324526 -1.033848 2.567668 -0.005099 0.001418 466313.000000 1 0 0
-3.881366 -5.260400 -1.400571 6.685687 0.935119 1.781848 0.013582 -0.007865 -73757.200000 1 0 0
-1.162866 -8.617600 8.639529 12.257926 1.436666 0.788639 0.008076 -0.002612 -319951.000000 1 0 0
3.936034 8.513500 -5.991871 11.129895 1.137737 2.139284 0.002908 -0.000071 104461.000000 1 0 0
-14.349366 -1.863600 -2.724971 14.724224 0.129150 1.756937 0.006021 -0.006467 -580627.000000 1 0 0
8.923834 -10.634900 -6.698271 15.414368 -0.872659 2.020332 0.001350 -0.005389 202789.000000 1 0 0
14.750134 6.149700 1.535129 16.054342 0.395011 1.475029 0.014440 -0.004154 -2042560.000000 1 0 0
-5.851466 0.355300 -8.556071 10.371704 -0.060645 2.540899 0.008123 -0.006741 -1179860.000000 1 0 0
-8.096166 -4.629900 -13.063971 16.051517 0.519474 2.521591 0.019539 0.001346 677230.000000 1 0 0
0.912834 -10.623800 12.038829 16.082033 -1.485083 0.724865 0.004543 0.000170 -133398.000000 1 0 0
0.176034 11.750600 3.322429 12.212540 1.555817 1.295273 0.000578 -0.000131 -1057190.000000 1 0 0
5.294434 -13.202900 -3.613571 14.676699 -1.189424 1.819566 0.010263 -0.007981 734930.000000 1 0 0
-7.549866 1.477100 -6.993271 10.396544 -0.193205 2.308585 0.001319 -0.002814 1147390.000000 1 0 0
1.382334 2.661700 4.071729 5.057121 1.091795 0.634872 0.001212 -0.002670 -1665990.000000 1 0 0
17.122934 5.492800 1.867529 18.079087 0.310416 1.467314 0.021791 -0.009186 -173199.000000 1 0 0
2.606634 -8.153800 -3.462371 9.234013 -1.261381 1.955148 -0.000928 -0.000615 267533.000000 1 0 0
-0.262466 -9.427300 -0.616871 9.451106 1.542962 1.636112 0.011339 -0.001594 -1117390.000000 1 0 0
0.783934 11.759300 -5.588271 13.043177 1.504230 2.013566 0.000121 0.001256 -1761460.000000 1 0 0
6.115234 -4.991500 7.881429 11.154734 -0.684565 0.786179 0.005360 -0.001573 -1076960.000000 1 0 0
-5.958166 -1.954000 -9.482671 11.368329 0.316901 2.557351 0.012180 -0.004838 -187480.000000 1 0 0
2.164434 -1.242500 11.279329 11.552136 -0.521122 0.217756 0.005699 -0.005701 -208199.000000 1 0 0
18.017734 2.321800 -5.805171 19.071694 0.128156 1.880091 0.054244 0.000451 -2009520.000000 1 0 0
-8.933966 4.754800 7.679629 12.704353 -0.489087 0.921673 0.003478 -0.005681 -229372.000000 1 0 0
11.546534 -6.911900 -4.881271 14.315153 -0.539399 1.918762 0.018746 -0.007551 -358726.000000 1 0 0
10.811034 0.519600 8.910729 14.019613 0.048025 0.882023 0.011706 -0.002789 160482.000000 1 0 0
-8.418466 -7.423000 -1.558171 11.331345 0.722641 1.708743 0.011970 -0.003924 -819592.000000 1 0 0
10.350334 -10.312700 -3.183971 14.953891 -0.783577 1.785358 0.017846 -0.006867 751330.000000 1 0 0
7.832934 -13.973400 -3.716671 16.444586 -1.059882 1.798778 0.017324 -0.008316 -1163970.000000 1 0 0
1.808134 -1.171700 -11.551271 11.750493 -0.574979 2.957188 0.005169 -0.005762 111309.000000 1 0 0
-11.849766 -2.662400 -6.294371 13.679343 0.221009 2.048946 0.009432 -0.002480 271812.000000 1 0 0
2.731334 -12.209900 -6.384771 14.046606 -1.350721 2.042654 0.000455 -0.003692 -362961.000000 1 0 0
-5.484866 1.418700 1.089529 5.769189 -0.253110 1.380802 0.000730 -0.005684 565412.000000 1 0 0
0.128034 6.826300 -4.070371 7.948754 1.552043 2.108397 0.003836 -0.001996 1154270.000000 1 0 0
5.541134 -11.828100 3.776629 13.596729 -1.132688 1.289335 -0.001821 -0.004991 -2647040.000000 1 0 0
-4.416566 -9.202800 1.057429 10.262345 1.123345 1.467573 0.012991 -0.002061 -648443.000000 1 0 0
7.217434 -6.307200 -4.569771 10.618612 -0.718198 2.015682 0.004589 -0.002091 503709.000000 1 0 0
-7.011766 -5.986500 2.207729 9.480354 0.706684 1.335764 0.006022 -0.002137 -523276.000000 1 0 0
-6.084266 -0.719500 7.116829 9.390699 0.117709 0.710771 0.001940 -0.003425 -587924.000000 1 0 0
4.265434 -4.964500 3.237629 7.302221 -0.860993 1.111435 0.003199 -0.003678 -464347.000000 1 0 0
-2.507466 10.545500 -8.777871 13.947974 -1.337355 2.251486 0.001081 0.001802 -864611.000000 1 0 0
-2.337466 -4.843800 2.792829 6.060201 1.121191 1.091846 0.007381 -0.003128 -3331.700000 1 0 0
15.176334 5.114800 6.150929 17.155647 0.325069 1.204096 0.043048 -0.014047 1096340.000000 1 0 0
6.867734 0.293400 0.247829 6.878464 0.042696 1.534759 0.008746 -0.003120 4101360.000000 1 0 0
-9.695766 9.162900 0.402729 13.346491 -0.757150 1.540617 0.012175 -0.005678 -1361510.000000 1 0 0
7.076134 10.500000 -2.511271 12.908453 0.977791 1.766590 0.001136 -0.003583 -566632.000000 1 0 0
1.754334 -4.286600 -5.347871 7.074768 -1.182333 2.427836 -0.000364 -0.001598 -102149.000000 1 0 0
1.000534 -8.181400 -7.678771 11.264985 -1.449107 2.320811 -0.002593 0.001021 -197327.000000 1 0 0
-10.456066 0.197500 -10.454271 14.787160 -0.018886 2.356019 -0.004701 -0.002523 -3673050.000000 1 0 0
5.902034 -2.485700 0.551329 6.427805 -0.398614 1.484918 0.007493 -0.002296 -22933.200000 1 0 0
-3.478566 5.262300 -1.184671 6.418385 -0.986703 1.756435 -0.000692 -0.003080 711327.000000 1 0 0
-0.431266 4.538400 -5.188371 6.906682 -1.476055 2.420690 0.004985 -0.002443 -1011040.000000 1 0 0
4.058034 -9.657500 10.068229 14.529425 -1.173003 0.805218 0.005078 0.002954 -1305300.000000 1 0 0
7.319734 -13.450500 -0.629071 15.326127 -1.072419 1.611853 0.016622 -0.010530 139874.000000 1 0 0
12.995434 -0.026200 0.596629 13.009149 -0.002016 1.524918 0.008873 -0.006096 144935.000000 1 0 0
9.318234 2.479200 -0.568571 9.659151 0.260035 1.629694 0.006958 -0.001607 -700461.000000 1 0 0
-0.657966 -5.828400 4.387429 7.324800 1.458383 0.928566 0.008056 -0.002759 173241.000000 1 0 0
11.461034 -3.708000 3.344529 12.501617 -0.312903 1.299970 0.016074 -0.007901 -3806980.000000 1 0 0
1.705734 -8.143000 11.820029 14.454448 -1.364309 0.613317 0.006471 -0.001973 357369.000000 1 0 0
9.518634 -6.006500 -5.823771 12.672756 -0.562920 2.048285 0.006214 -0.003857 -2004490.000000 1 0 0
3.138634 6.313300 -0.216271 7.053762 1.109434 1.601461 0.000488 0.001530 -604886.000000 1 0 0
6.457034 -1.322500 11.420729 13.186180 -0.202021 0.523422 0.011009 -0.001562 391234.000000 1 0 0
-4.827766 -7.562800 -3.773771 9.733684 1.002650 1.968934 0.016691 -0.006786 164340.000000 1 0 0
-3.279266 -8.407600 -5.690271 10.668669 1.198909 2.133367 0.011065 -0.002512 -309290.000000 1 0 0
9.733534 5.375400 2.141429 11.323530 0.504573 1.380537 0.002904 -0.002628 -67050.000000 1 0 0
9.032134 -1.394500 0.277029 9.143348 -0.153184 1.540493 0.010924 -0.002309 1625270.000000 1 0 0
-3.860966 9.550500 9.179229 13.797730 -1.186616 0.842940 0.000577 0.000054 -36239.800000 1 0 0
-14.455566 -3.533900 -6.104571 16.084701 0.239764 1.960081 0.017695 -0.006801 422546.000000 1 0 0
10.579034 6.289600 -6.058671 13.717963 0.536391 2.028244 0.004643 -0.001968 -1560840.000000 1 0 0
-1.862366 4.462100 2.634629 5.506362 -1.175402 1.071885 -0.001477 -0.001296 481240.000000 1 0 0
6.942834 -3.676200 2.736329 8.318947 -0.486965 1.235629 0.008423 -0.004958 -1869310.000000 1 0 0
8.403934 -11.043400 -1.453971 13.953380 -0.920298 1.675188 0.015594 -0.009257 -2517480.000000 1 0 0
4.545434 0.463600 1.817529 4.917246 0.101641 1.192193 0.006006 -0.002578 271933.000000 1 0 0
-10.946766 2.347500 3.771829 11.813938 -0.211247 1.245838 0.003563 -0.007556 156191.000000 1 0 0
-0.866566 -3.114000 4.452829 5.502329 1.299383 0.627900 0.007658 -0.004221 227802.000000 1 0 0
8.558334 -8.671600 -8.428571 14.814943 -0.791972 2.175993 0.004169 -0.004521 -684334.000000 1 0 0
12.203034 -4.764500 1.003429 13.138545 -0.372234 1.494349 0.016101 -0.007514 256060.000000 1 0 0
2.788834 4.774400 3.491829 6.539523 1.042133 1.007522 0.001966 -0.002121 -60184.600000 1 0 0
5.998234 7.460300 1.926529 9.764548 0.893609 1.372195 0.000748 -0.002607 -375727.000000 1 0 0
-1.646666 -1.298300 -10.364171 10.574172 0.667653 2.941963 0.011395 -0.005633 926920.000000 1 0 0
-0.837466 -8.477600 6.143729 10.503164 1.472330 0.945989 0.007289 -0.003642 -497157.000000 1 0 0
-4.231366 -0.225300 2.310329 4.826266 0.053195 1.071624 0.002342 -0.005390 356893.000000 1 0 0
-8.407566 6.082400 -7.993971 13.099096 -0.626287 2.227196 -0.001697 -0.000833 -1652630.000000 1 0 0
6.392034 11.249300 -9.364771 15.971969 1.054075 2.197312 0.009663 -0.006025 134124.000000 1 0 0
-11.139866 -5.776000 3.183929 12.945895 0.478336 1.322306 -0.004559 0.003070 919934.000000 1 0 0
1.651134 -6.324200 3.105429 7.236397 -1.315415 1.127256 0.003256 -0.004651 -20599.900000 1 0 0
10.197634 2.304600 7.244929 12.719745 0.222260 0.964800 0.006819 -0.001748 -1198910.000000 1 0 0
-4.046966 -2.353600 -10.778571 11.751381 0.526759 2.731835 0.011739 -0.009230 -3754360.000000 1 0 0
-8.303566 11.817100 5.914029 15.606691 -0.958278 1.182144 0.010551 -0.004873 828258.000000 1 0 0
6.892334 5.972000 -3.017171 9.605851 0.713978 1.890302 0.003350 -0.000930 -2347660.000000 1 0 0
3.946534 -9.834000 -2.197271 10.821769 -1.189157 1.775260 0.001222 -0.003282 -1425330.000000 1 0 0
8.673934 -13.040400 -7.311771 17.284419 -0.983838 2.007579 0.010191 -0.004575 658718.000000 1 0 0
-1.231366 9.445500 3.708929 10.222030 -1.441162 1.199486 -0.005760 0.001138 -216923.000000 1 0 0
0.642334 -13.132100 4.689929 13.959229 -1.521922 1.228158 0.012250 -0.004100 -1211990.000000 1 0 0
-11.190366 -7.107400 -5.115371 14.209379 0.565855 1.939064 0.016018 -0.006987 -203832.000000 1 0 0
3.578334 10.309000 -3.379371 11.423664 1.236700 1.871112 0.005556 -0.003239 -1105010.000000 1 0 0
11.744034 -8.058100 -7.334571 16.020338 -0.601366 2.046348 0.032683 -0.008967 338695.000000 1 0 0
11.555334 -4.540300 -5.861671 13.729503 -0.374386 2.011902 0.023158 -0.008082 603140.000000 1 0 0
1.374034 -10.255700 -2.624171 10.674906 -1.437612 1.819168 -0.000267 -0.000507 -1053430.000000 1 0 0
2.524134 -11.970700 -3.866071 12.830254 -1.362981 1.876878 0.001471 -0.002939 -1022910.000000 1 0 0
-7.619466 -5.812800 7.265729 12.026459 0.651699 0.922103 0.002563 -0.000424 -3087910.000000 1 0 0
-7.260466 -0.866100 9.496329 11.985189 0.118729 0.656163 0.000861 -0.002147 101078.000000 1 0 0
16.177234 2.698400 -7.561771 18.060029 0.165281 2.002812 0.048552 -0.003833 -925333.000000 1 0 0
-2.020366 6.269300 -5.595771 8.642838 -1.259042 2.275025 0.003267 -0.000568 -2475330.000000 1 0 0
7.721734 1.315900 8.301729 11.413828 0.168794 0.756359 0.009843 -0.001979 -891215.000000 1 0 0
7.787034 8.235000 -3.813071 11.957953 0.813350 1.895337 0.001528 0.000692 -259319.000000 1 0 0
8.023934 0.594400 3.959629 8.967469 0.073943 1.113465 0.004803 -0.004919 -526137.000000 1 0 0
-6.989466 5.865700 5.223929 10.514205 -0.698202 1.050837 0.003120 -0.007331 -638951.000000 1 0 0
-6.127966 -2.074600 -4.595871 7.935865 0.326435 2.188453 0.009481 -0.006291 -591861.000000 1 0 0
-15.103466 -2.037700 3.153129 15.563069 0.134106 1.366781 0.010522 -0.006092 -2154780.000000 1 0 0
0.939634 1.231900 -10.597971 10.710624 0.919184 2.996428 0.009370 -0.007770 755625.000000 1 0 0
1.493834 -9.178800 9.426929 13.241937 -1.409463 0.778597 0.005910 -0.002722 -236778.000000 1 0 0
-0.255666 -6.705000 -1.182071 6.813199 1.532684 1.745176 0.008176 -0.001908 814237.000000 1 0 0
-0.323166 -10.237600 -8.356671 13.219184 1.539240 2.255137 0.000789 -0.001175 -866142.000000 1 0 0
-4.483066 6.536200 3.877329 8.823462 -0.969608 1.115828 -0.004192 -0.000668 -323345.000000 1 0 0
10.710634 -0.969600 -8.566771 13.749450 -0.090281 2.243449 0.019619 0.000160 1231880.000000 1 0 0
3.091134 -1.022400 6.271129 7.065938 -0.319426 0.478871 0.001692 -0.003267 1264770.000000 1 0 0
2.003134 -12.227600 6.810529 14.138955 -1.408418 1.068219 0.003888 -0.001498 -189333.000000 1 0 0
2.896334 -5.016400 -1.293571 5.935178 -1.047180 1.790510 0.009348 -0.001747 -478956.000000 1 0 0
-1.161566 9.515600 -1.669071 9.730451 -1.449328 1.743179 -0.000626 -0.001343 280515.000000 1 0 0
4.597134 -2.526600 2.654529 5.879105 -0.502539 1.102329 0.006909 -0.002148 -2837220.000000 1 0 0
17.702134 6.657200 -2.664571 19.099314 0.359706 1.710764 0.007587 0.001156 760477.000000 1 0 0
-7.171366 3.432600 -5.435871 9.631195 -0.446425 2.170506 0.002889 -0.003680 -819177.000000 1 0 0
-13.829466 -6.030000 2.236129 15.251731 0.411172 1.423651 -0.005588 0.002091 1579420.000000 1 0 0
6.770634 -6.033900 3.505129 9.722930 -0.727925 1.201991 0.006212 -0.005687 814210.000000 1 0 0
-4.673266 1.904100 3.492129 6.136773 -0.386908 0.965446 0.001246 -0.005940 418414.000000 1 0 0
7.080334 -12.170400 -5.425671 15.089323 -1.043892 1.938604 0.010665 -0.009346 -425835.000000 1 0 0
3.007034 -12.330800 3.481429 13.160974 -1.331601 1.303083 0.003287 -0.005472 -1144820.000000 1 0 0
3.295734 11.248300 -6.104471 13.215547 1.285775 2.050950 -0.001186 0.001768 -54609.000000 1 0 0
-5.532566 -8.384300 6.373729 11.896646 0.987512 1.005391 0.008447 0.000296 269619.000000 1 0 0
-4.177066 6.414000 6.364829 9.954815 -0.993549 0.877115 -0.002949 -0.001033 125122.000000 1 0 0
4.176934 4.298500 -7.049171 9.252821 0.799741 2.436946 0.004010 0.000708 -2604870.000000 1 0 0
-0.268866 -2.715500 1.574329 3.150356 1.472106 1.047509 0.006771 -0.004690 -792069.000000 1 0 0
-13.204166 -1.030300 6.616329 14.804977 0.077871 1.107500 0.010116 0.002074 48103.400000 1 0 0
-0.495566 -9.230200 -5.895871 10.963734 1.517158 2.138576 0.000770 -0.000829 32891.700000 1 0 0
2.046634 -1.771800 -3.882471 4.733029 -0.713546 2.532719 0.004531 -0.001279 -1291560.000000 1 0 0
11.441134 -1.982900 1.119329 11.665519 -0.171609 1.474697 0.012941 -0.005224 126705.000000 1 0 0
0.514634 -4.180100 -1.959971 4.645381 -1.448298 2.006356 0.006102 -0.003030 -2231980.000000 1 0 0
1.166234 -7.318900 -11.257771 13.478271 -1.412779 2.559390 -0.005723 0.003953 2329800.000000 1 0 0
-4.587566 4.152300 -10.074171 11.822702 -0.735637 2.590789 0.003889 -0.003993 150536.000000 1 0 0
-1.076066 5.805700 -2.170471 6.290868 -1.387530 1.923056 0.001690 -0.000936 -588009.000000 1 0 0
-11.351166 1.729200 -3.839171 12.106954 -0.151175 1.893471 0.003806 -0.002161 -152797.000000 1 0 0
-1.668566 -11.217800 4.154129 12.078077 1.423136 1.219687 0.015890 -0.003815 -248353.000000 1 0 0
-3.544466 -5.333800 -9.595371 11.536195 0.984275 2.553071 0.009556 -0.000707 -1589990.000000 1 0 0
-12.941366 -3.716700 -8.292371 15.813166 0.279668 2.122803 0.022600 -0.004053 300416.000000 1 0 0
11.311234 4.486500 0.493829 12.178529 0.377607 1.530236 0.005168 -0.001154 427157.000000 1 0 0
-8.975966 -2.325800 -2.917271 9.720482 0.253538 1.875610 0.002856 -0.005046 -457703.000000 1 0 0
-2.375466 -6.117100 -6.407871 9.171835 1.200389 2.344300 0.005535 -0.005024 238105.000000 1 0 0
-0.002366 2.634200 -1.937671 3.270105 -1.569898 2.205006 0.003406 -0.003643 418977.000000 1 0 0
8.067334 5.983900 -5.195071 11.308302 0.638197 2.048120 0.003237 0.001026 -986907.000000 1 0 0
-9.807066 -0.955900 -0.914771 9.895913 0.097164 1.663368 0.000622 -0.004493 -849188.000000 1 0 0
6.031034 0.612500 -8.792671 10.679868 0.101211 2.537986 0.001393 0.003334 565028.000000 1 0 0
-4.082366 2.395200 7.751229 9.082084 -0.530597 0.548200 -0.001205 -0.002155 -245708.000000 1 0 0
-10.160766 -3.374000 1.501729 10.811116 0.320606 1.431440 -0.003385 -0.000127 1997590.000000 1 0 0
-1.738166 -8.140200 -7.885571 11.465875 1.360427 2.329171 0.002534 -0.004051 439525.000000 1 0 0
-9.425766 -9.946400 4.210229 14.335340 0.812267 1.272705 0.000333 0.003253 -331247.000000 1 0 0
-1.110466 -10.700200 7.259629 12.978044 1.467387 0.977161 0.009639 -0.004141 -324242.000000 1 0 0
9.427434 3.792100 -3.735271 10.826301 0.382437 1.923054 0.006301 -0.001091 -1172930.000000 1 0 0
12.961934 -0.957200 3.096329 13.360959 -0.073713 1.336926 0.012372 -0.005506 -401327.000000 1 0 0
6.475634 12.017700 -6.865571 15.280544 1.076561 2.036780 0.006459 0.002251 640071.000000 1 0 0
-11.877666 -0.089500 -6.504671 13.542441 0.007535 2.071813 0.002386 -0.000770 633380.000000 1 0 0
-7.599166 -6.691000 -11.537371 15.350170 0.721932 2.421299 0.023955 -0.003501 -955740.000000 1 0 0
4.151434 5.968500 6.580529 9.806160 0.963058 0.835158 0.001045 0.000753 -3161960.000000 1 0 0
-4.240466 -1.404000 -7.432171 8.671213 0.319735 2.600427 0.008157 -0.007767 -120735.000000 1 0 0
9.588034 9.227800 0.782529 13.330231 0.766255 1.512059 0.007847 -0.003350 -1923300.000000 1 0 0
-8.930166 3.885100 4.791029 10.853379 -0.410355 1.113602 0.004116 -0.008404 953229.000000 1 0 0
-7.182766 7.896800 -12.115971 16.147703 -0.832714 2.419345 0.000738 -0.006264 150104.000000 1 0 0
11.128934 -3.700700 7.084129 13.701578 -0.321027 1.027419 0.019406 -0.005957 531300.000000 1 0 0
11.813334 6.897700 6.394129 15.100266 0.528490 1.133552 0.005746 -0.004536 -96208.100000 1 0 0
-9.912466 -0.783600 -14.721371 17.764846 0.078888 2.547541 0.012602 0.001485 15022.800000 1 0 0
1.914034 -12.990200 11.972629 17.769431 -1.424504 0.831488 0.012229 0.004589 101542.000000 1 0 0
2.880534 3.109200 12.966329 13.641492 0.823556 0.315934 0.010532 -0.011630 -273312.000000 1 0 0
-2.490166 -1.304000 10.972429 11.326762 0.482396 0.250788 0.011015 -0.005015 -834926.000000 1 0 0
2.627434 -10.127000 -8.156171 13.265845 -1.316945 2.232960 -0.008289 0.000880 -883085.000000 1 0 0
13.896834 3.733100 -7.415971 16.188102 0.262434 2.046667 0.017141 -0.002757 -2927420.000000 1 0 0
7.340034 -1.584300 4.937629 8.987007 -0.212582 0.989128 0.006161 -0.003749 281147.000000 1 0 0
-1.293966 8.676300 10.149029 13.414743 -1.422750 0.712763 -0.000406 -0.000816 -379486.000000 1 0 0
-12.219766 -4.669100 1.008929 13.120256 0.364976 1.493822 -0.004684 0.000065 -99140.300000 1 0 0
-4.926366 4.844700 -5.277171 8.694178 -0.777040 2.223048 0.002924 -0.001803 251983.000000 1 0 0
-11.224666 0.398100 1.925329 11.395548 -0.035452 1.401027 -0.001304 -0.003038 -3290590.000000 1 0 0
-1.322666 2.260600 -4.135971 4.895509 -1.041408 2.577081 0.005981 -0.005801 858157.000000 1 0 0
3.208934 -9.818500 13.286229 16.829263 -1.254914 0.660848 0.006001 0.003375 -960126.000000 1 0 0
9.007034 4.737600 -1.521171 10.290067 0.484222 1.719169 0.004055 -0.003034 -1709040.000000 1 0 0
3.965834 2.261300 3.762229 5.915715 0.518216 0.881529 0.000406 -0.001256 168295.000000 1 0 0
-5.565266 -3.276100 7.550629 9.935644 0.532046 0.707554 0.005732 -0.004590 18740.200000 1 0 0
1.904634 -5.822600 7.729329 9.862699 -1.254657 0.670207 0.004435 -0.003203 -772637.000000 1 0 0
-5.902166 -6.237400 -9.690771 12.948041 0.813006 2.416496 0.011236 -0.005072 -505390.000000 1 0 0
-11.686866 -5.853800 5.526429 14.191238 0.464357 1.170789 0.002139 0.003449 -1487040.000000 1 0 0
10.511234 6.215300 4.403829 12.981129 0.533998 1.224678 0.001228 0.000104 -495744.000000 1 0 0
1.477034 -3.689800 0.447829 3.999600 -1.190030 1.458593 0.012246 -0.004203 -403081.000000 1 0 0
8.886134 4.444700 6.749329 12.011336 0.463795 0.974099 0.001516 -0.000306 -883693.000000 1 0 0
-7.943666 12.009500 3.552929 14.830820 -0.986415 1.328880 0.005033 -0.003998 -115710.000000 1 0 0
-6.366566 13.268100 -7.150571 16.361733 -1.123406 2.023090 0.026790 -0.005221 589168.000000 1 0 0
4.514734 -6.983300 -0.821171 8.356053 -0.996882 1.669228 0.006305 -0.003427 -893156.000000 1 0 0
-1.905666 -8.207000 11.163729 13.986253 1.342639 0.646507 0.008778 -0.004801 -752543.000000 1 0 0
11.521934 8.781000 -5.853871 15.624619 0.651208 1.954823 0.026560 -0.008842 487072.000000 1 0 0
-3.355866 -2.815300 -1.930871 4.787067 0.698026 1.985973 0.013070 -0.006082 -748547.000000 1 0 0
-2.129366 5.923900 4.771729 7.899126 -1.225725 0.922181 -0.002253 0.000857 973915.000000 1 0 0
0.437134 -11.399800 -5.606971 12.711595 -1.532469 2.027610 -0.000921 -0.003012 -86611.900000 1 0 0
-9.002866 6.282500 -1.685171 11.106809 -0.609270 1.723109 0.010057 -0.004018 -837846.000000 1 0 0
2.888934 -0.075000 3.923029 4.872548 -0.025955 0.634904 0.002544 -0.002844 41441.500000 1 0 0
-10.100666 3.962700 -1.039671 10.899879 -0.373869 1.666325 0.011838 -0.005024 -87575.700000 1 0 0
6.529034 5.406100 13.598029 16.023751 0.691588 0.557431 0.028238 -0.007201 -799637.000000 1 0 0
-8.688066 -1.602500 5.665429 10.495122 0.182398 1.000578 -0.003166 -0.002082 289694.000000 1 0 0
13.029134 -1.790600 -1.442171 13.230436 -0.136575 1.680017 0.017507 -0.004134 -394564.000000 1 0 0
5.067034 -5.589200 5.541029 9.360395 -0.834360 0.937301 0.005399 -0.004574 375145.000000 1 0 0
-9.022966 -1.198200 3.211429 9.652092 0.132022 1.231611 -0.005527 -0.001529 92751.300000 1 0 0
1.962934 5.381400 5.639729 8.038602 1.221031 0.793183 0.001930 -0.000362 -1079710.000000 1 0 0
9.165734 3.151700 -7.313671 12.142227 0.331192 2.217218 0.008488 -0.001045 -769657.000000 1 0 0
2.468034 -2.451300 -1.519971 3.796100 -0.781996 1.982753 0.003492 -0.001736 239750.000000 1 0 0
-6.295866 0.375000 -4.010471 7.474117 -0.059493 2.137177 0.003335 -0.003199 -1745130.000000 1 0 0
-4.101866 4.122900 4.954929 7.640349 -0.787956 0.865156 -0.001354 -0.003748 229563.000000 1 0 0
-6.491566 1.786100 -12.347271 14.063630 -0.268498 2.642376 0.001987 -0.001115 -2405170.000000 1 0 0
-0.232466 3.069700 6.185829 6.909529 -1.495211 0.461780 0.002294 -0.002641 1362930.000000 1 0 0
-8.806466 9.338100 -2.206871 13.023987 -0.814690 1.741064 0.011570 -0.000450 950163.000000 1 0 0
-1.296266 -3.698900 -6.144471 7.288119 1.233724 2.573782 0.003331 -0.003485 574196.000000 1 0 0
-3.388066 7.027000 -3.036871 8.371398 -1.121531 1.942032 0.001358 0.000908 1099960.000000 1 0 0
7.098134 -0.456500 -4.349171 8.337097 -0.064224 2.119598 0.004419 0.002420 -34921.900000 1 0 0
-5.048766 -10.871600 6.886029 13.823860 1.136032 1.049360 0.005721 -0.002407 235849.000000 1 0 0
9.628234 8.422100 -1.587271 12.890077 0.718677 1.694249 0.005129 -0.001563 216801.000000 1 0 0
13.775234 4.675400 -4.299671 15.169166 0.327206 1.858184 0.009358 -0.003692 408830.000000 1 0 0
4.601134 1.119400 -6.792671 8.280330 0.238651 2.532798 0.001353 0.001764 -223659.000000 1 0 0
9.028934 -4.749800 3.650629 10.835559 -0.484281 1.227161 0.010687 -0.006510 -950358.000000 1 0 0
-8.725566 -3.323300 -0.736271 9.365998 0.363906 1.649489 0.000250 -0.003336 451880.000000 1 0 0
-8.506966 -4.327600 -10.494671 14.185722 0.470593 2.403577 0.013060 -0.003860 746919.000000 1 0 0
10.448534 -1.114700 10.791229 15.062040 -0.106283 0.772093 0.022862 -0.005384 1197200.000000 1 0 0
2.233334 -11.581200 9.850929 15.367263 -1.380293 0.874952 0.006032 0.000636 34174.600000 1 0 0
-6.401766 -10.491900 1.913529 12.438817 1.022938 1.416348 0.010964 -0.001358 -692099.000000 1 0 0
-3.664266 -1.619800 6.640629 7.755550 0.416226 0.542846 0.007509 -0.005089 -1193710.000000 1 0 0
4.690734 -7.509000 3.930529 9.686956 -1.012426 1.152992 0.001794 -0.002323 296628.000000 1 0 0
11.602134 -9.381600 -5.202971 15.801735 -0.679969 1.906322 0.023437 -0.010799 449683.000000 1 0 0
11.382734 1.207500 11.441529 16.184353 0.105686 0.785620 0.041543 -0.002257 436985.000000 1 0 0
-10.230466 -3.515700 4.423029 11.686991 0.331007 1.182667 0.000544 0.001896 2368100.000000 1 0 0
2.115334 8.760000 8.868929 12.643977 1.333856 0.793387 0.001410 0.003288 -36371.900000 1 0 0
6.450934 8.834200 4.086629 11.677251 0.940073 1.213263 0.000788 0.000028 150462.000000 1 0 0
-4.244466 3.558700 0.393229 5.552879 -0.697740 1.499922 0.002246 -0.005415 -1084130.000000 1 0 0
4.830834 6.889800 4.175529 9.393687 0.959294 1.110176 0.002358 -0.001585 -1070240.000000 1 0 0
-8.378866 13.046400 1.155429 15.548279 -0.999899 1.496415 0.008819 0.001334 510886.000000 1 0 0
8.766434 8.144100 -9.164671 15.072091 0.748613 2.224406 0.013989 -0.004259 -865808.000000 1 0 0
7.097134 1.990700 6.034729 9.526288 0.273466 0.884752 0.005020 -0.001488 -432914.000000 1 0 0
11.677634 -6.191100 3.143529 13.585972 -0.487489 1.337300 0.016775 -0.008233 176225.000000 1 0 0
11.436634 4.737900 -2.133971 12.561772 0.392751 1.741502 0.002752 -0.001342 879865.000000 1 0 0
-4.042666 14.285100 -6.137471 16.064737 -1.295009 1.962806 0.010413 0.000756 1278940.000000 1 0 0
7.172934 -3.077000 6.878429 10.403447 -0.405232 0.848421 0.006225 -0.002909 -944763.000000 1 0 0
-8.037266 -0.524800 0.890329 8.103440 0.065203 1.460704 -0.000187 -0.003690 303217.000000 1 0 0
-3.322066 0.993900 10.751729 11.297064 -0.290706 0.311980 0.004862 -0.002193 -215761.000000 1 0 0
7.116234 -1.242200 -1.822271 7.450135 -0.172817 1.817899 0.007339 -0.001301 -1406300.000000 1 0 0
-7.873966 5.213200 2.844129 9.862346 -0.584821 1.278259 0.002233 -0.004744 740208.000000 1 0 0
9.505534 -2.215900 2.848829 10.167655 -0.229027 1.286809 0.009171 -0.005281 -1780030.000000 1 0 0
0.174034 3.449800 1.587929 3.801701 1.520391 1.139896 0.001265 -0.001617 -4397480.000000 1 0 0
-7.558966 -3.079000 3.896629 9.044442 0.386810 1.125382 -0.002544 -0.001739 -540289.000000 1 0 0
-2.387266 8.362400 -6.729771 10.996299 -1.292717 2.229387 0.000561 -0.000703 -482848.000000 1 0 0
4.453234 9.961600 7.379529 13.172784 1.150407 0.976157 0.002976 0.005436 -816590.000000 1 0 0
-11.734166 -3.111600 6.890529 13.958943 0.259209 1.054539 0.009552 -0.003882 -1996510.000000 1 0 0
-4.736766 2.348400 -5.663271 7.747553 -0.460267 2.390547 0.006244 -0.005714 -968937.000000 1 0 0
-2.696166 2.890200 -1.904571 4.387477 -0.820118 2.019827 0.005154 -0.003477 601560.000000 1 0 0
2.267834 5.277800 11.372329 12.740805 1.164957 0.467737 0.008305 -0.008824 640782.000000 1 0 0
-0.855666 1.636400 4.473729 4.839858 -1.089001 0.391464 0.007101 -0.005282 777920.000000 1 0 0
5.096934 1.552900 7.668329 9.337747 0.295739 0.607253 0.000422 -0.002165 1013080.000000 1 0 0
3.379434 -8.264500 1.862929 9.121022 -1.182633 1.365103 0.004274 -0.002708 2522870.000000 1 0 0
5.084334 6.426600 -4.702371 9.447959 0.901482 2.091756 0.002791 -0.000943 -1471000.000000 1 0 0
-4.124566 2.839500 -8.068071 9.495713 -0.602923 2.586125 0.008420 -0.007230 100315.000000 1 0 0
-8.702666 -2.155600 -12.978671 15.774311 0.242807 2.537068 0.012971 -0.000266 743514.000000 1 0 0
-7.817766 8.051900 1.404229 11.310280 -0.800151 1.446320 0.003970 -0.001811 -1879960.000000 1 0 0
7.239734 0.881800 -6.517871 9.781307 0.121203 2.300113 0.002597 0.001213 -575682.000000 1 0 0
8.885134 8.958000 5.429529 13.735762 0.789482 1.164419 0.000303 0.001289 580071.000000 1 0 0
9.442534 -1.127000 -1.354171 9.605486 -0.118792 1.712246 0.008776 -0.001278 2246020.000000 1 0 0
5.429334 0.161700 4.254129 6.899379 0.029774 0.906385 0.001506 -0.001487 -730908.000000 1 0 0
-4.172666 -7.214100 -7.904471 11.486298 1.046407 2.329754 0.012562 -0.006591 -31023.000000 1 0 0
-2.333166 7.394000 -0.616371 7.777841 -1.265137 1.650127 -0.002336 -0.000492 68435.800000 1 0 0
13.416834 -3.351000 -7.414071 15.691051 -0.244754 2.062925 0.032939 -0.000212 859087.000000 1 0 0
-4.872366 -4.945200 1.690029 7.145009 0.792817 1.332000 0.007512 -0.004187 1067910.000000 1 0 0
-8.938466 1.289000 2.549629 9.383939 -0.143221 1.295636 -0.003230 -0.003697 -1311750.000000 1 0 0
-1.177366 11.161000 10.092529 15.093484 -1.465696 0.838380 0.002098 -0.003827 188959.000000 1 0 0
-8.459866 0.275500 7.338529 11.202645 -0.032554 0.856520 -0.003484 -0.003493 -513095.000000 1 0 0
-6.049466 12.883500 -2.150771 14.394667 -1.131803 1.720772 0.001294 0.003214 -199864.000000 1 0 0
-12.947266 -0.776500 3.263329 13.374751 0.059902 1.324316 0.005101 -0.003180 197901.000000 1 0 0
-6.702066 12.815900 8.821829 16.940769 -1.088958 1.023072 0.012428 -0.012549 786396.000000 1 0 0
-8.071166 0.951900 -14.026471 16.210852 -0.117396 2.616449 -0.000288 0.002569 346882.000000 1 0 0
7.337334 2.874100 3.659029 8.688235 0.373339 1.136086 0.003765 -0.002729 -798536.000000 1 0 0
-1.626566 0.630100 -2.146871 2.766188 -0.369581 2.459272 0.005022 -0.006230 1580150.000000 1 0 0
-6.253166 9.712700 -10.410771 15.550652 -0.998783 2.304298 0.005258 -0.001636 154482.000000 1 0 0
-10.133866 13.601800 5.379729 17.794541 -0.930478 1.263666 0.007106 -0.006503 444044.000000 1 0 0
-5.580766 8.379300 2.411029 10.352327 -0.983243 1.335740 -0.002952 -0.000326 -1338980.000000 1 0 0
-2.370366 -10.703600 -1.257971 11.034862 1.352859 1.685044 0.011834 -0.002085 462975.000000 1 0 0
-2.165166 -12.393400 8.868029 15.392409 1.397839 0.956810 0.009749 -0.002026 405892.000000 1 0 0
-14.686366 -6.501000 -1.788771 16.160199 0.416729 1.681714 0.010062 -0.002641 230681.000000 1 0 0
-2.734866 -9.248200 3.268629 10.182958 1.283272 1.244022 0.012696 -0.002484 -1351310.000000 1 0 0
4.707634 -2.619500 7.589229 9.306987 -0.507771 0.617318 0.002297 -0.001156 354724.000000 1 0 0
-14.972166 -1.292800 -0.246471 15.029898 0.086133 1.587196 0.004161 -0.008772 85348.600000 1 0 0
5.480534 8.777200 -2.814071 10.723548 1.012624 1.836325 0.002676 -0.000735 -2258010.000000 1 0 0
-5.648966 -5.793800 8.547729 11.770412 0.798055 0.758011 0.006111 -0.003237 -2673560.000000 1 0 0
3.487134 3.608300 7.000929 8.613533 0.802473 0.621884 0.000549 -0.001221 550572.000000 1 0 0
3.372934 2.370200 9.385529 10.250985 0.612544 0.413865 0.006720 -0.005835 1986010.000000 1 0 0
9.971634 -3.105600 5.131329 11.636528 -0.301922 1.114120 0.012614 -0.007170 -741588.000000 1 0 0
6.451634 10.092200 -5.047971 12.998388 1.002002 1.969641 0.000491 0.001249 355096.000000 1 0 0
-4.591566 12.051700 -8.559771 15.478877 -1.206785 2.156753 0.009465 -0.001624 257848.000000 1 0 0
-3.359566 -7.184800 2.121429 8.210268 1.133408 1.309444 0.011935 -0.003204 1100940.000000 1 0 0
-7.497766 -4.043900 1.114329 8.591353 0.494628 1.440726 -0.000010 -0.001783 1910190.000000 1 0 0
-2.070666 -3.931100 -11.002071 11.865360 1.085987 2.757778 0.012318 -0.004537 -495716.000000 1 0 0
-5.220866 8.338000 -4.527171 10.829357 -1.011368 2.002090 0.009238 -0.001556 -407927.000000 1 0 0
-10.948966 -3.323900 -10.172771 15.310566 0.294739 2.297525 0.014738 -0.000602 845124.000000 1 0 0
4.723534 -11.467600 -7.712571 14.604840 -1.180071 2.127138 -0.001417 -0.004034 -2139990.000000 1 0 0
-9.326466 -3.967800 7.306429 12.494411 0.402239 0.946193 -0.002876 -0.000567 -364276.000000 1 0 0
-5.630766 -9.584700 -5.108571 12.233948 1.039638 2.001569 0.014001 -0.007329 -185814.000000 1 0 0
4.774034 4.459700 -9.551871 11.572319 0.751369 2.541719 0.002781 0.002723 156990.000000 1 0 0
-3.412266 -7.153600 -14.034771 16.118075 1.125718 2.627516 0.009008 -0.000464 -463277.000000 1 0 0
0.616834 -0.817500 -8.767171 8.826781 -0.924398 3.025308 0.006824 -0.006554 47287.300000 1 0 0
-7.834366 2.224300 -2.896771 8.643846 -0.276636 1.912534 0.004840 -0.005182 -601474.000000 1 0 0
-2.465866 7.470600 -12.697471 14.937072 -1.251980 2.586904 0.005622 -0.002719 57982.900000 1 0 0
-9.952066 8.764600 7.618729 15.294014 -0.722039 1.049331 0.004953 -0.011782 -176555.000000 1 0 0
-10.619266 -3.110100 -14.426471 18.181435 0.284906 2.487290 0.026478 0.003425 -371886.000000 1 0 0
-3.189566 4.771700 7.870929 9.741354 -0.981571 0.630061 0.000744 -0.002360 -548516.000000 1 0 0
8.717734 -2.296700 -3.552071 9.689733 -0.257598 1.946128 0.006283 0.001108 -5596680.000000 1 0 0
1.961834 -8.300600 -1.174371 8.609756 -1.338707 1.707623 0.002934 0.000083 -763625.000000 1 0 0
-13.511866 -2.898500 5.022929 14.703797 0.211313 1.222169 0.017969 -0.005348 515306.000000 1 0 0
7.109534 2.741000 -1.943371 7.863539 0.367978 1.820521 0.004158 -0.000958 757606.000000 1 0 0
-11.143666 4.405700 8.841329 14.891628 -0.376495 0.935133 0.001578 -0.004730 -2114970.000000 1 0 0
-1.682466 -2.451000 7.984729 8.520211 0.969229 0.356421 0.008172 -0.005845 -840995.000000 1 0 0
2.859334 12.018600 -9.908971 15.836990 1.337229 2.246806 -0.001161 0.001362 636617.000000 1 0 0
3.755734 -4.930100 -7.037071 9.377195 -0.919788 2.419532 -0.004375 -0.001422 186138.000000 1 0 0
8.433834 -13.838900 -9.689571 18.882068 -1.023472 2.109662 0.011753 -0.003229 440848.000000 1 0 0
-6.244366 -5.768500 -0.421371 8.511477 0.745806 1.620323 0.012550 -0.004396 -2946.970000 1 0 0
-1.147766 -4.105800 9.795829 10.683316 1.298207 0.410484 0.007975 -0.005604 742382.000000 1 0 0
2.774734 3.354800 1.850829 4.730687 0.879752 1.168819 0.000597 -0.000745 -693608.000000 1 0 0
-9.126366 13.257200 7.857229 17.910331 -0.967893 1.116647 0.021926 -0.021960 -332642.000000 1 0 0
4.153834 -11.128300 0.144429 11.879152 -1.213545 1.558638 0.005602 -0.007138 -379195.000000 1 0 0
-12.487066 -1.440500 -9.096671 15.516162 0.114852 2.197244 0.008389 -0.002267 172911.000000 1 0 0
-4.334166 0.977800 -13.604671 14.311819 -0.221888 2.825927 0.010898 -0.004906 334267.000000 1 0 0
4.079834 -3.052600 4.944329 7.099986 -0.642359 0.800447 0.003052 -0.002022 368926.000000 1 0 0
1.789634 -1.177900 1.026629 2.375754 -0.582104 1.123945 0.003916 -0.002843 450611.000000 1 0 0
8.208334 -8.976100 7.439429 14.258058 -0.830046 1.021872 0.008896 0.000562 -982815.000000 1 0 0
-0.158366 2.354900 -6.560471 6.972117 -1.503648 2.796246 0.004895 -0.006036 -1510560.000000 1 0 0
-3.740166 -9.796400 -3.307171 10.995257 1.206086 1.876308 0.013710 -0.004053 -619671.000000 1 0 0
-9.465766 2.230800 -5.422171 11.134502 -0.231447 2.079414 0.002078 -0.002596 -1072530.000000 1 0 0
9.061134 -7.710600 5.404829 13.067887 -0.705047 1.144396 0.008832 -0.006374 1635080.000000 1 0 0
-5.489466 -4.243700 4.641229 8.347708 0.658098 0.981245 0.004656 -0.003072 -183985.000000 1 0 0
-0.055966 -12.441100 10.382229 16.204159 1.566298 0.875369 0.013592 0.000859 -1274000.000000 1 0 0
-14.297566 -8.347600 3.094129 16.842697 0.528458 1.386040 0.001584 -0.000418 -1335800.000000 1 0 0
10.952934 -1.311800 -3.557571 11.590681 -0.119199 1.882766 0.016595 0.000728 -467707.000000 1 0 0
-13.634366 3.006400 2.647929 14.210767 -0.217029 1.383368 0.008896 -0.008956 -3331.220000 1 0 0
-6.216366 6.099900 1.076329 8.775561 -0.775942 1.447836 0.004157 -0.002009 340608.000000 1 0 0
7.252934 -7.019200 -0.543471 10.107897 -0.769023 1.624589 0.008462 -0.005636 -260006.000000 1 0 0
-6.925866 7.744300 10.072029 14.470231 -0.841129 0.800913 0.002059 -0.000906 375180.000000 1 0 0
-12.581166 -5.250900 -1.896971 13.764308 0.395383 1.709054 -0.000469 -0.004271 -3155520.000000 1 0 0
-9.452366 -5.660200 0.206829 11.019431 0.539546 1.552026 0.003298 -0.001899 -1039390.000000 1 0 0
-1.789066 1.738100 2.081529 3.248771 -0.770950 0.875370 0.003045 -0.005426 -274934.000000 1 0 0
-7.115766 7.315100 7.516529 12.674503 -0.799210 0.935963 0.002827 -0.004763 -116740.000000 1 0 0
5.606634 7.126700 -0.460271 9.079430 0.904213 1.621512 0.004820 -0.001806 -1236030.000000 1 0 0
0.117634 -4.126900 7.567829 8.620741 -1.542300 0.499415 0.006281 -0.004529 -704101.000000 1 0 0
6.285734 0.740900 12.947929 14.412087 0.117329 0.454666 0.019157 -0.007995 410915.000000 1 0 0
5.664234 6.125800 -7.869071 11.468707 0.824527 2.326958 -0.001247 0.002262 -828645.000000 1 0 0
9.964134 5.322500 8.990629 14.437603 0.490605 0.898578 0.004805 -0.002296 -860343.000000 1 0 0
-1.142866 -4.963700 -8.569971 9.969396 1.344495 2.605337 0.010221 -0.003520 1296840.000000 1 0 0
9.908834 -3.450200 -7.922271 13.147290 -0.335065 2.217524 0.014509 -0.003846 339312.000000 1 0 0
8.402634 -5.667000 1.377829 10.228273 -0.593359 1.435678 0.009850 -0.008067 1419670.000000 1 0 0
15.750734 3.161000 -4.993171 16.822880 0.198058 1.872145 0.012376 0.002409 -1073320.000000 1 0 0
-6.906566 3.547100 1.089429 7.840244 -0.474455 1.431392 0.002906 -0.005949 931389.000000 1 0 0
-1.763366 3.875500 0.241329 4.264646 -1.143789 1.514178 0.002428 -0.004455 -953136.000000 1 0 0
-2.624366 10.030400 6.902029 12.455289 -1.314892 0.983462 -0.002209 0.004112 -416143.000000 1 0 0
5.530734 -5.772600 -8.786271 11.878993 -0.806793 2.403343 -0.002733 -0.000584 -1603580.000000 1 0 0
-1.186066 -1.003300 6.223629 6.414587 0.702112 0.244615 0.006161 -0.004657 -37356.900000 1 0 0
-5.804466 4.924400 -7.786771 10.889230 -0.703554 2.367548 0.002115 -0.002967 -339295.000000 1 0 0
6.796934 -1.197100 2.530429 7.350812 -0.174336 1.219369 0.005883 -0.001914 -1275120.000000 1 0 0
8.700034 7.585300 3.190129 11.975153 0.717055 1.301145 -0.000020 0.000239 -239065.000000 1 0 0
-5.259866 -4.841300 -7.671671 10.486129 0.743984 2.391465 0.014445 -0.007319 967078.000000 1 0 0
-2.336166 7.885900 -10.124571 13.044233 -1.282787 2.459368 0.003775 -0.000825 467574.000000 1 0 0
-2.845766 -2.305100 1.696229 4.035971 0.680815 1.137045 0.005985 -0.003304 -26132.100000 1 0 0
6.012434 -2.033400 -9.194771 11.172640 -0.326123 2.537419 -0.002748 0.003202 1068440.000000 1 0 0
1.181634 -7.503400 5.225629 9.219787 -1.414599 0.968199 0.005601 -0.003136 698263.000000 1 0 0
1.691534 11.685100 1.140429 11.861848 1.427035 1.474505 0.003258 -0.002922 -94338.100000 1 0 0
-1.022966 6.964600 2.630329 7.514702 -1.424958 1.213199 -0.003733 -0.000003 364490.000000 1 0 0
8.663634 7.841800 -6.638071 13.439359 0.735648 2.087397 0.009004 -0.001819 11206.900000 1 0 0
3.872434 -10.902600 5.579229 12.844852 -1.229510 1.121474 0.002723 0.001865 1550470.000000 1 0 0
8.080834 -7.091600 12.437229 16.440053 -0.720291 0.712821 0.021611 -0.008314 309264.000000 1 0 0
-8.675866 0.008100 -4.038071 9.569573 -0.000934 2.006413 0.004354 -0.003431 -1936450.000000 1 0 0
-3.304666 -4.963100 11.124729 12.621917 0.983361 0.492017 0.011367 -0.004215 254617.000000 1 0 0
-8.192866 0.182900 -11.531571 14.146859 -0.022321 2.523755 0.001005 -0.001676 -1614360.000000 1 0 0
1.476534 -4.964100 5.407129 7.487288 -1.281688 0.763855 0.005833 -0.003139 -279599.000000 1 0 0
6.625034 3.819600 -7.693671 10.847718 0.522991 2.359220 0.002346 0.001600 -2249320.000000 1 0 0
16.386734 4.160800 -1.267971 16.954205 0.248658 1.645654 0.011868 0.004764 -498714.000000 1 0 0
7.944034 7.437700 0.273929 10.885867 0.752492 1.545630 0.000876 -0.001929 -3846630.000000 1 0 0
5.652134 -10.322700 14.031729 18.313770 -1.069841 0.697914 0.010368 0.000961 751300.000000 1 0 0
-5.220966 -9.147800 8.905629 13.793149 1.052174 0.868914 0.006306 -0.005968 276219.000000 1 0 0
-12.632666 -3.152000 2.855829 13.329483 0.244519 1.354873 -0.003406 -0.000113 3000.680000 1 0 0
-2.139666 -1.380300 -5.814471 6.347556 0.572923 2.728833 0.009437 -0.007886 -961785.000000 1 0 0
-2.594066 13.073500 -4.316671 14.009969 -1.374919 1.884007 0.002294 0.002520 161020.000000 1 0 0
3.800934 -0.347600 -4.931171 6.235733 -0.091197 2.482899 0.003970 0.001181 75847.200000 1 0 0
-8.948466 3.774200 -7.378871 12.197023 -0.399132 2.220528 -0.003832 -0.000709 488493.000000 1 0 0
-4.646566 8.017800 -11.459671 14.737698 -1.045563 2.461597 0.004915 -0.001433 -2363740.000000 1 0 0
-10.114466 -6.455800 7.456629 14.127317 0.568088 1.014769 -0.002110 0.002200 -1855740.000000 1 0 0
8.136134 5.240900 4.090329 10.506879 0.572253 1.170925 0.001123 -0.000437 -1592110.000000 1 0 0
-6.864866 -7.534500 4.008229 10.952670 0.831869 1.196133 0.006037 -0.001033 -88048.900000 1 0 0
-4.229466 11.787700 8.113229 14.921888 -1.226301 0.995941 0.001408 -0.004787 -6685.080000 1 0 0
-7.276966 10.008600 -8.034771 14.754113 -0.942132 2.146683 0.013317 -0.003521 -359646.000000 1 0 0
13.073434 5.513000 4.489929 14.881778 0.399068 1.264314 0.008943 -0.005463 470572.000000 1 0 0
5.292134 3.925800 -3.687871 7.551091 0.638244 2.081039 0.002974 -0.000578 675563.000000 1 0 0
-2.846866 -4.293300 5.189229 7.311988 0.985270 0.781741 0.008177 -0.002903 -628726.000000 1 0 0
12.505134 -2.223400 -5.311071 13.766966 -0.175960 1.966853 0.017517 -0.005843 -2775040.000000 1 0 0
-5.224366 9.673400 6.970529 13.017563 -1.075605 1.005731 -0.002247 0.001584 -396454.000000 1 0 0
1.750234 3.837900 -0.464971 4.243701 1.142931 1.680584 0.003178 -0.001620 548770.000000 1 0 0
-0.079366 9.690300 7.703829 12.379709 -1.562606 0.899125 -0.000431 0.004655 -822968.000000 1 0 0
-5.645866 2.064700 5.784529 8.342636 -0.350594 0.804642 -0.000552 -0.004690 620895.000000 1 0 0
8.916034 1.050300 10.635729 13.918245 0.117259 0.701062 0.020966 -0.003279 -1108380.000000 1 0 0
0.408234 -2.949200 -10.174671 10.601337 -1.433248 2.856919 0.004685 -0.002763 -1254090.000000 1 0 0
1.147434 10.603200 -2.786771 11.023182 1.463000 1.826380 0.002778 -0.001968 422315.000000 1 0 0
2.426534 -4.286200 11.644029 12.642903 -1.055656 0.400174 0.007534 -0.003227 -1563430.000000 1 0 0
6.559734 -3.008800 9.502529 11.932353 -0.430046 0.649532 0.009408 -0.001835 -8835.200000 1 0 0
-10.631566 -8.278400 5.676729 14.621469 0.661594 1.172069 0.001457 0.004905 -1495580.000000 1 0 0
-3.024866 0.803500 -6.894071 7.571237 -0.259636 2.715435 0.009638 -0.007925 593394.000000 1 0 0
11.071134 2.689200 -5.006871 12.444700 0.238287 1.984856 0.009727 -0.003038 -2911350.000000 1 0 0
-1.970566 -4.001800 -0.056871 4.461027 1.113231 1.583545 0.009860 -0.005985 1079500.000000 1 0 0
-1.349466 -6.349600 -10.694371 12.510317 1.361384 2.596047 0.005821 -0.001059 1012940.000000 1 0 0
0.235634 6.854200 -6.685471 9.577636 1.536432 2.343438 0.004993 -0.000730 -3273090.000000 1 0 0
1.945134 3.889400 -6.365271 7.708933 1.107059 2.542239 0.002636 -0.000737 -2389100.000000 1 0 0
1.699534 -14.666500 6.379629 16.083977 -1.455432 1.162937 0.014790 -0.008507 -11654.600000 1 0 0
-1.828666 5.385900 -10.554871 11.989881 -1.243481 2.647322 0.008593 -0.002499 -376642.000000 1 0 0
13.723234 4.407900 -0.758771 14.433727 0.310791 1.623390 0.007124 -0.002529 396914.000000 1 0 0
-2.494966 3.341000 -6.224071 7.491742 -0.929364 2.551323 0.005572 -0.004807 -1424360.000000 1 0 0
5.726534 7.820500 14.229729 17.217393 0.938755 0.597981 0.032097 -0.009640 573463.000000 1 0 0
15.981234 0.753600 -5.822271 17.025469 0.047120 1.919813 0.024577 -0.000721 -79347.100000 1 0 0
6.371334 -8.281400 10.674829 14.937452 -0.915023 0.774694 0.005275 0.003370 135585.000000 1 0 0
0.114634 -5.850900 -6.441971 8.703169 -1.551206 2.404144 0.001434 -0.001973 441615.000000 1 0 0
8.528934 5.602700 -7.636071 12.745295 0.581214 2.213209 0.004593 -0.000718 -654194.000000 1 0 0
-15.976466 -0.576300 5.260829 16.830208 0.036056 1.252886 0.030567 -0.014835 134979.000000 1 0 0
-0.517866 3.916700 -12.381671 12.996711 -1.439339 2.832721 0.013121 -0.005084 790922.000000 1 0 0
-11.336066 3.612600 5.894529 13.277905 -0.308507 1.110811 0.004734 -0.009005 -716558.000000 1 0 0
5.312934 -9.631400 -9.513571 14.543011 -1.066705 2.283878 -0.009898 -0.000116 275482.000000 1 0 0
1.431834 11.079900 -11.788971 16.241742 1.442281 2.383057 0.000041 0.002543 -1657240.000000 1 0 0
5.973334 2.375900 1.264729 6.551730 0.378566 1.376539 0.006277 -0.002275 -138344.000000 1 0 0
5.773734 4.505000 4.924329 8.824968 0.662586 0.978823 0.000162 0.000048 -274730.000000 1 0 0
0.358234 -1.572500 -6.328271 6.530551 -1.346807 2.892050 0.004355 -0.003440 284300.000000 1 0 0
12.598434 6.769400 -4.592771 15.021280 0.493057 1.881523 0.010530 -0.004913 178111.000000 1 0 0
7.324934 3.184900 12.617729 14.933363 0.410144 0.564352 0.019956 -0.005053 -235384.000000 1 0 0
-2.515466 -0.239500 8.600329 8.963849 0.094925 0.285766 0.005100 -0.003371 586673.000000 1 0 0
2.564034 -15.188400 13.285829 20.341461 -1.403558 0.859072 0.019544 -0.002059 724306.000000 1 0 0
18.959034 4.584300 -1.649571 19.575032 0.237247 1.655166 0.025466 0.003916 892542.000000 1 0 0
-0.309466 -13.193100 7.157029 15.012552 1.547344 1.073858 0.009360 -0.002513 -2021460.000000 1 0 0
4.373134 1.519900 -0.499971 4.656648 0.334494 1.678371 0.005039 -0.002055 900238.000000 1 0 0
2.673134 -0.480900 -7.342571 7.828809 -0.177997 2.787297 0.000604 -0.000586 -1415030.000000 1 0 0
7.294134 -11.274600 1.023329 13.467301 -0.996566 1.494737 0.003666 -0.006534 346196.000000 1 0 0
-11.871366 -7.359700 1.311529 14.029063 0.554962 1.477173 -0.003112 0.003588 194216.000000 1 0 0
0.203434 -7.007600 9.985729 12.200927 -1.541774 0.612105 0.006618 -0.003014 -270325.000000 1 0 0
-4.534566 -7.183500 10.664329 13.634254 1.007717 0.672652 0.011128 -0.002326 -1610410.000000 1 0 0
11.771534 0.695900 -1.591971 11.899061 0.059048 1.704988 0.008569 -0.002330 2260130.000000 1 0 0
6.606934 -9.756200 -7.278671 13.849695 -0.975534 2.124155 -0.005068 -0.004136 -1697070.000000 1 0 0
-11.000066 4.902300 3.518029 12.546335 -0.419240 1.286582 0.002273 -0.010217 46696.800000 1 0 0
6.128034 -9.036300 2.177929 11.133323 -0.974881 1.373904 0.003904 -0.005710 3870970.000000 1 0 0
11.696034 -1.337600 5.922929 13.178296 -0.113869 1.104652 0.015857 -0.011490 235259.000000 1 0 0
-6.523566 3.595000 4.012129 8.460385 -0.503671 1.076712 -0.001655 -0.004692 -1327000.000000 1 0 0
9.529434 6.334500 -3.255771 11.896892 0.586661 1.847998 0.003532 -0.000596 -252119.000000 1 0 0
-2.439166 6.493700 10.879829 12.903037 -1.211482 0.567590 -0.001443 -0.002405 -37751.700000 1 0 0
1.750934 9.761900 2.962829 10.350789 1.393319 1.280494 -0.000117 -0.002168 -224885.000000 1 0 0
2.789934 6.166000 -5.679171 8.834946 1.145890 2.268954 0.002735 0.000140 -1981110.000000 1 0 0
11.902234 0.150500 -5.681171 13.189447 0.012644 2.016105 0.014840 -0.002260 275264.000000 1 0 0
-2.581766 -12.406400 6.259429 14.133815 1.365625 1.112000 0.011318 -0.004246 -615466.000000 1 0 0
10.752134 1.870600 -2.694271 11.241291 0.172251 1.812829 0.005933 -0.001207 668454.000000 1 0 0
-8.781066 5.338800 0.694929 10.300138 -0.546274 1.503277 0.002020 -0.004951 -200140.000000 1 0 0
1.287634 -10.065700 5.642029 11.610720 -1.443564 1.063366 0.006846 -0.002016 426754.000000 1 0 0
9.583434 -5.874800 -1.095671 11.294068 -0.549935 1.667962 0.013834 -0.005028 2612340.000000 1 0 0
-7.797566 8.636100 -4.581871 12.505111 -0.836379 1.945933 0.009895 -0.001946 -778841.000000 1 0 0
-7.522466 -0.034300 -1.639471 7.699126 0.004560 1.785382 0.002600 -0.005253 -2050690.000000 1 0 0
4.024734 8.752000 2.640929 9.988518 1.139769 1.303218 0.005243 -0.004147 -720425.000000 1 0 0
-1.273866 -10.502600 -3.718171 11.213926 1.450095 1.908761 0.009125 -0.002387 -540944.000000 1 0 0
3.178734 7.841300 -3.662371 9.219723 1.185658 1.979295 0.004718 -0.003594 2865.800000 1 0 0
-4.548666 1.756600 -11.084271 12.109379 -0.368535 2.727162 0.007755 -0.004572 -949862.000000 1 0 0
1.237934 2.824600 10.896429 11.324443 1.157741 0.275812 0.007475 -0.007186 625314.000000 1 0 0
2.043034 5.558800 -8.158371 10.081332 1.218589 2.513680 0.003968 0.000035 290477.000000 1 0 0
15.503034 6.073300 3.883029 17.096987 0.373373 1.341679 0.027365 -0.009239 -113677.000000 1 0 0
-4.386766 9.056100 4.607829 11.067464 -1.119707 1.141380 -0.004066 0.001674 -91615.300000 1 0 0
-0.916166 -8.193700 -12.372371 14.867805 1.459445 2.553785 -0.000901 0.002400 -220375.000000 1 0 0
14.205934 -4.147700 -5.197871 15.685338 -0.284073 1.908566 0.041932 -0.002650 195796.000000 1 0 0
-5.911666 -6.152700 -5.572371 10.190919 0.805374 2.149331 0.015801 -0.005450 444875.000000 1 0 0
-9.060766 2.599400 -12.188271 15.408060 -0.279382 2.483291 -0.006037 0.001202 -859245.000000 1 0 0
10.619534 5.601200 13.730429 18.239316 0.485360 0.718501 0.038659 -0.003625 685873.000000 1 0 0
-0.513766 10.906300 5.476829 12.215032 -1.523724 1.105858 0.000233 0.006107 623783.000000 1 0 0
0.263334 11.145000 -0.614671 11.165043 1.547173 1.625877 0.000306 -0.002255 -216144.000000 1 0 0
-1.504966 -0.678900 3.704629 4.055873 0.423774 0.419240 0.005905 -0.004567 351550.000000 1 0 0
-4.898766 6.634600 8.911129 12.141831 -0.934782 0.746721 0.002408 -0.002408 -1005310.000000 1 0 0
3.515534 -8.760300 -11.241471 14.678981 -1.189167 2.443113 -0.011120 0.003758 861208.000000 1 0 0
6.854534 -3.797900 12.062029 14.384062 -0.505963 0.576145 0.019272 -0.005861 -567.455000 1 0 0
-2.443066 -1.786200 -12.614671 12.972625 0.631315 2.906132 0.009784 -0.008367 1144700.000000 1 0 0
-16.001466 -4.865800 5.397829 17.574398 0.295200 1.258608 0.027709 -0.006535 957968.000000 1 0 0
-8.917766 7.282600 5.784529 12.885014 -0.684805 1.105224 0.001556 -0.006676 -3896520.000000 1 0 0
-12.873866 1.412200 6.082329 14.308231 -0.109258 1.131732 0.004452 -0.003373 310796.000000 1 0 0
-3.607266 3.524700 10.106229 11.294767 -0.773822 0.462878 0.006762 -0.001332 600337.000000 1 0 0
2.178234 -12.214000 -1.097671 12.455175 -1.394313 1.659040 0.008397 -0.004043 -2579020.000000 1 0 0
10.382634 -5.072000 -3.545771 12.087049 -0.454412 1.868528 0.016313 -0.003418 324296.000000 1 0 0
3.215634 -13.420500 1.080829 13.842626 -1.335624 1.492637 0.007480 -0.005802 335456.000000 1 0 0
10.093234 -1.684200 -6.078671 11.902106 -0.165341 2.106821 0.011815 -0.000595 175819.000000 1 0 0
12.093834 -5.302600 -1.574571 13.298784 -0.413212 1.689474 0.018102 -0.006759 -493941.000000 1 0 0
1.394934 0.951500 5.857429 6.095955 0.598619 0.280665 0.005462 -0.005468 409667.000000 1 0 0
-10.786666 11.510000 6.615729 17.105559 -0.817828 1.173682 0.018196 -0.013138 -220794.000000 1 0 0
4.842334 -14.090900 3.236129 15.247104 -1.239790 1.356924 0.006586 -0.006857 -3471740.000000 1 0 0
5.326834 -3.398200 -1.658871 6.532593 -0.567850 1.827545 0.006010 -0.002124 -1299280.000000 1 0 0
2.019334 -2.921200 -7.653371 8.437132 -0.965954 2.707152 -0.000502 -0.001064 -301886.000000 1 0 0
-2.913666 14.655800 -8.800271 17.341473 -1.374549 2.103042 0.015067 -0.005972 -1955310.000000 1 0 0
-2.412166 6.066600 -8.162071 10.451870 -1.192348 2.466933 0.006759 -0.003089 -141139.000000 1 0 0
2.636134 -3.559300 -11.277171 12.115791 -0.933317 2.767345 -0.001570 0.001365 -1891690.000000 1 0 0
14.640934 2.858300 -2.688171 15.157608 0.192802 1.749087 0.011169 0.000434 586714.000000 1 0 0
-3.562266 13.087900 2.215329 13.743746 -1.305054 1.408902 -0.008787 0.003341 -471448.000000 1 0 0
8.048734 -4.954400 14.004329 16.895249 -0.551775 0.593673 0.032857 -0.018150 -1426870.000000 1 0 0
-11.515166 7.219100 2.833429 13.883183 -0.559980 1.365262 0.008218 -0.010853 944567.000000 1 0 0
-2.386466 11.884000 4.144729 12.810287 -1.372619 1.241321 -0.005920 0.001837 141854.000000 1 0 0
1.744334 1.542400 0.766929 2.451506 0.724036 1.252615 0.001799 -0.002040 -1180420.000000 1 0 0
-6.874766 8.586700 5.298929 12.209524 -0.895672 1.121869 -0.001431 -0.002181 -963185.000000 1 0 0
-1.194966 9.071600 1.056229 9.210727 -1.439824 1.455870 -0.002914 0.001087 376767.000000 1 0 0
4.718234 12.904600 -8.471771 16.141912 1.220271 2.123312 0.012744 -0.011065 -1441540.000000 1 0 0
8.894134 7.005500 7.104929 13.366476 0.667167 1.010369 -0.003619 -0.000068 -1245080.000000 1 0 0
7.303834 -13.725700 3.030829 15.840668 -1.081778 1.378277 0.017895 -0.014917 33130.500000 1 0 0
4.360834 -13.351700 -1.219171 14.098622 -1.255107 1.657379 0.007061 -0.003496 -3653220.000000 1 0 0
12.215634 -11.734600 -4.495171 17.525099 -0.765316 1.830195 0.022685 -0.006777 -766520.000000 1 0 0
2.891734 -0.004500 -1.901671 3.460997 -0.001556 2.152511 0.005469 -0.002907 1423650.000000 1 0 0
-13.580666 -3.205500 -10.616971 17.533676 0.231792 2.221214 0.023722 -0.008265 471366.000000 1 0 0
-6.578166 13.659700 5.013229 15.968474 -1.121997 1.251451 0.004892 -0.004399 290117.000000 1 0 0
7.390834 -4.403900 -0.594871 8.623957 -0.537370 1.639830 0.006449 -0.003052 496156.000000 1 0 0
11.687434 2.283500 -7.217471 13.924883 0.192950 2.115675 0.014212 -0.001053 -400894.000000 1 0 0
-7.548066 -4.696300 9.755829 13.198664 0.556573 0.738985 0.005815 -0.002907 272613.000000 1 0 0
1.066934 2.763800 8.368529 8.877456 1.202383 0.340248 0.003549 -0.004850 -1394340.000000 1 0 0
1.502134 8.105400 -8.727471 12.005110 1.387550 2.384709 0.002886 -0.000420 -112125.000000 1 0 0
-8.753366 -2.206600 -5.556871 10.600439 0.246941 2.122585 0.006933 -0.004391 -886993.000000 1 0 0
6.728434 -0.493500 7.092129 9.788446 -0.073214 0.760428 0.006599 -0.002171 236197.000000 1 0 0
-10.872566 6.433700 7.113729 14.498632 -0.534322 1.057963 0.003278 -0.008299 35511.500000 1 0 0
-5.959066 11.042700 4.943029 13.486483 -1.075943 1.195533 -0.006133 0.000610 -509163.000000 1 0 0
5.905934 -1.195100 -6.893471 9.155777 -0.199660 2.423268 -0.000421 0.002638 -556836.000000 1 0 0
4.588934 -5.712200 11.427229 13.574576 -0.894012 0.570166 0.011877 -0.002890 -1951570.000000 1 0 0
-9.029566 -7.366300 2.578129 11.934915 0.684300 1.353064 0.000017 0.001960 -3121330.000000 1 0 0
-1.231266 12.714600 -9.328171 15.817454 -1.474259 2.201532 0.009198 0.002307 556460.000000 1 0 0
-4.597366 9.261100 -2.262771 10.584134 -1.110019 1.786248 0.000065 -0.000989 214995.000000 1 0 0
-3.312766 9.686800 -0.150871 10.238715 -1.241277 1.585532 -0.002839 0.000973 -1268780.000000 1 0 0
-3.557166 10.749800 -6.419471 13.016191 -1.251233 2.086551 0.011076 0.000930 1070290.000000 1 0 0
4.900734 -4.827400 0.377329 6.889366 -0.777860 1.515999 0.006113 -0.004441 -1582920.000000 1 0 0
-2.335466 2.915200 -10.812671 11.439696 -0.895364 2.808968 0.011065 -0.003112 -218758.000000 1 0 0
-3.566766 11.998900 -2.152871 12.701586 -1.281857 1.741115 -0.005333 0.004727 -841027.000000 1 0 0
-0.098166 0.398200 -0.011271 0.410277 -1.329092 1.598271 0.000655 -0.003634 -2196360.000000 1 0 0
-4.797366 -1.524500 0.074729 5.034323 0.307686 1.555952 0.004206 -0.004934 234884.000000 1 0 0
2.622234 2.533800 -2.414271 4.373209 0.768248 2.155628 -0.002187 -0.001960 937594.000000 1 0 0
6.098834 -9.822900 8.564729 14.388875 -1.015166 0.933241 0.001591 0.005193 -85469.900000 1 0 0
-4.510366 -5.528300 6.591629 9.713654 0.886454 0.824949 0.000987 -0.003863 -59808.100000 1 0 0
-6.376966 5.392900 -12.151571 14.744821 -0.701983 2.539451 0.000204 -0.002928 209338.000000 1 0 0
-12.961266 3.051500 7.888129 15.476713 -0.231222 1.035987 0.008896 -0.009806 601960.000000 1 0 0
4.719534 -7.251500 -4.982571 9.984201 -0.993834 2.093293 -0.001699 -0.002035 770443.000000 1 0 0
-5.962266 2.437000 -1.127971 6.539106 -0.388016 1.744160 0.003822 -0.004976 -317365.000000 1 0 0
-6.824666 -2.821600 -14.642771 16.399641 0.392040 2.674478 0.014780 -0.001777 -903439.000000 1 0 0
2.850634 -6.121400 0.991429 6.824997 -1.134977 1.425016 0.005960 -0.001909 -154066.000000 1 0 0
4.870134 -7.890900 13.004529 15.971922 -1.017838 0.619426 0.011018 -0.004793 -73072.200000 1 0 0
-9.921866 -1.669100 8.075129 12.901048 0.166664 0.894475 0.003423 -0.000292 -253845.000000 1 0 0
-4.637766 13.232500 -0.074971 14.021896 -1.233691 1.576143 -0.008919 0.004784 633518.000000 1 0 0
6.821434 2.173800 -4.407171 8.407171 0.308498 2.122590 0.003760 0.002031 -1635220.000000 1 0 0
4.977634 4.516700 0.073029 6.721812 0.736888 1.559932 0.000856 0.000285 -522655.000000 1 0 0
-5.937366 12.150400 1.942329 13.662254 -1.116265 1.428145 -0.006902 0.002440 141251.000000 1 0 0
6.592334 -7.357400 6.543829 11.849553 -0.840188 0.985744 0.005045 -0.004849 -1564380.000000 1 0 0
-0.302166 4.902900 7.681729 9.118043 -1.509244 0.568934 0.001242 -0.001424 -755538.000000 1 0 0
-5.803766 -3.407100 -1.505171 6.896199 0.530843 1.790828 0.008755 -0.006226 -793722.000000 1 0 0
2.395134 -6.567000 -5.231071 8.730765 -1.221066 2.213240 -0.000886 -0.000641 -1021750.000000 1 0 0
-14.385266 -4.751100 -3.709271 15.597035 0.318996 1.810916 0.011358 -0.008805 -398365.000000 1 0 0
-12.371666 -5.150500 -6.327671 14.819756 0.394491 2.011942 0.019234 -0.011396 -1390000.000000 1 0 0
-14.678466 -3.820700 -1.216771 15.216295 0.254642 1.650847 0.002703 -0.005607 447233.000000 1 0 0
11.862734 2.872400 8.835529 15.067904 0.237564 0.944213 0.019218 -0.001225 -1068750.000000 1 0 0
8.780534 -6.533600 7.688629 13.375378 -0.639715 0.958394 0.008841 -0.005706 -15677.200000 1 0 0
-8.767066 -1.749400 -9.842071 13.296172 0.196955 2.404191 0.003519 -0.002773 -328466.000000 1 0 0
-8.904366 5.082600 -3.951271 10.987861 -0.518671 1.938639 0.005882 -0.003899 -294237.000000 1 0 0
-4.146666 -6.229900 4.009529 8.490160 0.983528 1.078948 0.008597 -0.001453 -1027480.000000 1 0 0
-0.169266 -9.170700 3.602929 9.854516 1.552341 1.196506 0.009765 -0.003260 516246.000000 1 0 0
8.060334 -10.393300 3.437729 13.594398 -0.911154 1.315142 0.005312 -0.005568 196195.000000 1 0 0
-0.166366 6.487300 9.567429 11.560642 -1.545157 0.596002 0.000758 -0.002713 1097230.000000 1 0 0
-0.033266 3.559700 -9.889871 10.511047 -1.561451 2.796082 0.009474 -0.005199 -1001760.000000 1 0 0
4.555134 -3.077300 11.113429 12.398683 -0.594139 0.459353 0.006135 -0.004728 -2215950.000000 1 0 0
8.704634 -9.157800 1.431429 12.715539 -0.810762 1.457984 0.008519 -0.005629 -808147.000000 1 0 0
-0.273966 -0.364000 11.315029 11.324197 0.925599 0.040242 0.012040 -0.005504 -1041360.000000 1 0 0
10.902934 5.975800 11.283529 16.789943 0.501376 0.833835 0.022735 -0.007072 347898.000000 1 0 0
-6.408266 -2.958200 -11.971571 13.897313 0.432477 2.608876 0.013627 -0.003817 -140244.000000 1 0 0
-1.653566 2.706000 8.451529 9.026908 -1.022274 0.358969 0.006116 -0.002727 796059.000000 1 0 0
-1.650966 13.480200 -6.842071 15.207084 -1.448930 2.037479 0.010538 0.000740 781575.000000 1 0 0
7.753334 3.134500 9.733029 12.832425 0.384189 0.709832 0.009045 0.000556 529091.000000 1 0 0
6.452834 8.503300 -8.038271 13.362596 0.921647 2.216236 0.000531 0.000396 -102703.000000 1 0 0
6.631434 -2.959400 -3.947571 8.265427 -0.419746 2.068718 0.003103 0.001138 -2174260.000000 1 0 0
1.937634 7.996200 1.030829 8.291939 1.333059 1.446157 0.000681 -0.001743 737820.000000 1 0 0
-17.698266 6.396200 6.450329 19.893384 -0.346797 1.240583 0.046874 -0.018816 -670962.000000 1 0 0
-14.515366 2.962400 -10.063571 17.909414 -0.201322 2.167496 0.011903 -0.007671 -440669.000000 1 0 0
-18.353466 -0.018400 -4.485271 18.893589 0.001003 1.810481 0.039205 -0.014119 157216.000000 1 0 0
-13.148566 7.875700 0.135429 15.327419 -0.539668 1.561960 0.015700 -0.005302 -74116.200000 1 0 0
-12.649466 -4.285200 -12.761671 18.472470 0.326631 2.333458 0.039594 -0.000690 -1742880.000000 1 0 0
-17.392566 -0.732100 -8.579571 19.407379 0.042068 2.028710 0.038767 -0.015807 -263513.000000 1 0 0
-16.745566 -2.265100 -1.891471 17.003597 0.134450 1.682266 0.024732 -0.014654 -163671.000000 1 0 0
-15.368066 4.083700 1.630329 15.984744 -0.259724 1.468626 0.013798 -0.006648 -1625220.000000 1 0 0
-13.269366 5.974300 4.320929 15.180210 -0.423047 1.282163 0.009319 -0.010930 -492785.000000 1 0 0
-10.140766 14.210100 2.808929 17.681973 -0.950981 1.411262 0.024029 -0.004416 419675.000000 1 0 0
-11.854466 2.396400 -6.418671 13.691984 -0.199464 2.058717 0.001702 0.001451 228155.000000 1 0 0
-15.884266 10.492800 3.869829 19.426383 -0.583776 1.370250 0.025095 -0.021954 -188251.000000 1 0 0
-12.849466 1.078300 -8.509071 15.449136 -0.083722 2.154094 0.002730 -0.003465 499093.000000 1 0 0
-12.342466 14.188500 4.150029 19.258057 -0.854867 1.353597 0.035796 -0.015075 -213149.000000 1 0 0
-10.519366 11.117300 -1.045771 15.340960 -0.813026 1.639018 0.023410 -0.001334 334606.000000 1 0 0
-17.058466 5.570900 8.936529 20.047138 -0.315657 1.108756 0.041008 -0.023258 497755.000000 1 0 0
-11.927966 12.493000 -9.189171 19.565078 -0.808531 2.059716 0.025452 -0.011123 -645083.000000 1 0 0
-17.211766 -0.428500 2.946129 17.467346 0.024891 1.401321 0.032948 -0.010846 953520.000000 1 0 0
-13.401666 14.662400 -0.462271 19.869684 -0.830291 1.594064 0.058006 -0.013086 -48375.500000 1 0 0
-16.313866 4.723700 -10.583071 20.011421 -0.281843 2.128043 0.050438 -0.005285 673526.000000 1 0 0
-11.881166 7.571500 -8.953571 16.692997 -0.567373 2.136923 -0.000892 -0.001060 -510380.000000 1 0 0
-15.038266 13.175400 -1.919571 20.085452 -0.719467 1.666513 0.060176 -0.020009 444394.000000 1 0 0
-11.902066 10.598400 -5.376771 16.819481 -0.727523 1.896183 0.030320 -0.009107 937530.000000 1 0 0
-17.882666 2.728900 -0.938571 18.114015 -0.151432 1.622634 0.046021 -0.005048 209919.000000 1 0 0
-9.472766 15.348900 0.586029 18.046204 -1.017853 1.538317 0.025937 -0.005184 14517.000000 1 0 0
-8.177566 13.136400 -3.649871 15.898401 -1.013988 1.802437 0.018484 0.001103 78807.200000 1 0 0
-17.861366 11.383700 2.290029 21.304020 -0.567421 1.463095 0.089823 -0.022421 -44695.500000 1 0 0
-8.287666 15.589300 -7.303471 19.106344 -1.082170 1.963030 0.060182 -0.022576 -241588.000000 1 0 0
-6.460366 15.207800 -5.423771 17.390538 -1.169090 1.887968 0.025048 -0.006522 -677388.000000 1 0 0
-17.586366 5.239900 -0.147971 18.350987 -0.289577 1.578860 0.050254 -0.004145 452175.000000 1 0 0
-5.402966 12.208200 -12.462071 18.262952 -1.154140 2.321795 0.005470 -0.003107 -1180010.000000 1 0 0
-11.326966 3.774900 -11.540071 16.604917 -0.321691 2.339187 0.000667 0.003960 -146607.000000 1 0 0
-11.826266 10.995500 1.275629 16.198420 -0.749012 1.491964 0.014808 -0.005971 193781.000000 1 0 0
-12.965866 0.155800 -10.972171 16.986067 -0.012016 2.273065 0.013094 -0.006013 590936.000000 1 0 0
-14.180366 -2.258700 -12.955371 19.339755 0.157957 2.304847 0.054846 -0.006014 152299.000000 1 0 0
-18.771266 -2.476500 -3.531471 19.260446 0.131173 1.755193 0.031897 -0.014472 869716.000000 1 0 0
-18.411766 4.732800 -5.115571 19.686584 -0.251606 1.833664 0.063655 -0.004822 -150878.000000 1 0 0
-8.416566 15.358200 -2.347571 17.669861 -1.069476 1.704048 0.024234 -0.005128 -225447.000000 1 0 0
-16.316466 8.997700 -5.296571 19.371095 -0.503955 1.847750 0.044228 -0.005333 2415.790000 1 0 0
-18.212466 1.806200 2.044229 18.415622 -0.098851 1.459562 0.059690 -0.017066 -1012260.000000 1 0 0
-15.694466 -2.772100 -8.709571 18.161977 0.174826 2.070938 0.019538 -0.008522 -101440.000000 1 0 0
-9.812266 10.374300 -7.105771 15.949879 -0.813233 2.032536 0.021263 -0.008856 155566.000000 1 0 0
-14.075266 11.946400 -7.825071 20.051467 -0.703769 1.971699 0.040928 -0.014257 -233825.000000 1 0 0
-11.189266 6.425200 -3.859471 13.467679 -0.521255 1.861444 0.012497 -0.002847 -761412.000000 1 0 0
-13.285466 5.121500 -12.680071 19.066137 -0.367941 2.298367 0.022067 -0.004277 870521.000000 1 0 0
-17.688866 8.896400 2.746129 19.989576 -0.465995 1.432982 0.037069 -0.022957 755066.000000 1 0 0
-13.482966 8.688600 -6.563071 17.330783 -0.572438 1.959182 0.015331 -0.002591 -167746.000000 1 0 0
-15.949366 6.870700 -3.777371 17.772375 -0.406758 1.784972 0.028699 0.001547 -598566.000000 1 0 0
-14.877166 -0.434400 -9.256671 17.527257 0.029191 2.127193 0.021160 -0.011890 -966736.000000 1 0 0
-10.120766 5.866000 -6.099271 13.192459 -0.525285 2.051418 0.001511 -0.000897 569314.000000 1 0 0
-12.859866 12.129100 -0.791971 17.695153 -0.756163 1.615568 0.034955 -0.007375 -347983.000000 1 0 0
-10.770066 3.381300 -13.890971 17.899346 -0.304209 2.459191 0.008531 0.000132 360246.000000 1 0 0
-11.015466 6.280000 -11.989971 17.451025 -0.518150 2.328237 -0.009848 -0.001927 -962722.000000 1 0 0
-5.810066 11.563900 -14.983171 19.798385 -1.105206 2.429181 0.019378 -0.009970 -192805.000000 1 0 0
-15.797466 13.166600 3.459429 20.853943 -0.694815 1.404137 0.044685 -0.026263 404324.000000 1 0 0
-15.263166 10.840700 -2.940571 18.950778 -0.617574 1.726595 0.045617 -0.007482 722404.000000 1 0 0
-18.367266 7.703700 -4.660071 20.455310 -0.397140 1.800632 0.049466 -0.002020 -288979.000000 1 0 0
-3.952866 16.140300 -10.642071 19.732919 -1.330617 2.140408 0.037770 -0.006111 -65056.700000 1 0 0
-15.888266 4.336000 -4.470971 17.065388 -0.266418 1.835881 0.022425 0.004778 1066960.000000 1 0 0
-18.790266 -2.047000 -6.123471 19.868598 0.108511 1.884095 0.044604 -0.015639 541873.000000 1 0 0
-10.909166 8.534200 -5.743471 14.994330 -0.663852 1.963884 0.011763 -0.000171 536344.000000 1 0 0
-11.332966 13.537800 -6.855271 18.939453 -0.873819 1.941163 0.036415 -0.005633 34909.600000 1 0 0
-9.492666 10.542900 -4.434471 14.863646 -0.837769 1.873753 0.009110 -0.000744 -154321.000000 1 0 0
-11.127866 6.293700 -0.194071 12.785841 -0.514726 1.585975 0.011864 -0.004539 -67450.100000 1 0 0
-14.933966 9.102000 -1.242171 17.533190 -0.547363 1.641703 0.034724 -0.003266 444505.000000 1 0 0
-18.667466 3.740500 4.666129 19.602000 -0.197756 1.330445 0.057937 -0.022784 623934.000000 1 0 0
-14.872166 12.841500 0.610229 19.658531 -0.712256 1.539750 0.036802 -0.016837 -225911.000000 1 0 0
-16.892666 2.605600 -9.190771 19.406741 -0.153038 2.064155 0.043571 -0.006910 -409785.000000 1 0 0
-9.154766 8.365000 -8.835971 15.226863 -0.740350 2.189879 0.004345 -0.000803 -2102030.000000 1 0 0
-17.832566 4.577000 -2.700571 18.607590 -0.251242 1.716443 0.037742 0.000665 958037.000000 1 0 0
-13.689266 5.751400 -4.369071 15.477835 -0.397746 1.856965 0.018702 0.002288 -1962350.000000 1 0 0
-12.175366 9.596800 3.216729 15.833050 -0.667513 1.366207 0.011015 -0.010953 1181860.000000 1 0 0
-17.797866 2.441900 -4.113371 18.429507 -0.136351 1.795887 0.040860 -0.000162 950228.000000 1 0 0
-11.418666 1.380000 -12.585071 17.049174 -0.120271 2.401140 0.009735 0.002185 -191267.000000 1 0 0
-11.148766 11.955900 3.552329 16.728944 -0.820318 1.356821 0.010845 -0.008249 -310390.000000 1 0 0
-16.731866 12.850200 -3.825371 21.440999 -0.654927 1.750171 0.072000 -0.014951 695742.000000 1 0 0
-11.209566 4.077800 -4.700171 12.820859 -0.348897 1.946152 0.002982 -0.002417 69967.500000 1 0 0
-11.316166 14.977700 -8.934971 20.789921 -0.923763 2.015039 0.048218 -0.014220 194568.000000 1 0 0
-15.621466 6.933500 -0.011871 17.091043 -0.417723 1.571491 0.026033 -0.001997 285115.000000 1 0 0
-12.924566 8.354800 -4.034571 15.909898 -0.573860 1.827185 0.024871 -0.002240 741421.000000 1 0 0
-19.343466 1.749100 -6.087371 20.353995 -0.090178 1.874519 0.083329 -0.014199 943666.000000 1 0 0
-12.706366 10.044300 -8.880571 18.471715 -0.668917 2.072324 0.017313 -0.009356 708865.000000 1 0 0
-16.930466 10.628500 -0.834771 20.007562 -0.560591 1.612531 0.048211 -0.015171 206968.000000 1 0 0
-10.878366 6.460200 -14.633771 19.344774 -0.535891 2.428697 0.018392 -0.008343 -407261.000000 1 0 0
-14.161066 12.765400 -4.371971 19.560301 -0.733612 1.796213 0.049173 -0.009128 -194100.000000 1 0 0
-18.103766 7.805300 -0.006971 19.714693 -0.407062 1.571150 0.065054 -0.008813 -512259.000000 1 0 0
-12.849066 6.517100 -2.082271 14.557024 -0.469394 1.714331 0.016524 -0.003383 993968.000000 1 0 0
-13.760266 8.456700 -10.570371 19.302679 -0.551067 2.150303 0.003683 -0.006410 -528800.000000 1 0 0
-14.966166 1.340300 -1.017871 15.060498 -0.089317 1.638433 0.009578 -0.005182 -834127.000000 1 0 0
-13.429766 2.742700 -2.568471 13.945539 -0.201455 1.756032 0.009643 -0.004474 -27079.800000 1 0 0
-11.337966 9.252100 -10.971371 18.289937 -0.684438 2.214120 0.006262 -0.007013 309858.000000 1 0 0
-15.519566 4.391900 -8.026871 18.016003 -0.275780 2.032575 0.018626 -0.002603 358867.000000 1 0 0
-18.396066 10.509300 4.690129 21.699261 -0.519034 1.352935 0.086185 -0.042100 548239.000000 1 0 0
-15.303066 6.202400 -6.229071 17.648085 -0.385071 1.931529 0.022099 0.003775 451372.000000 1 0 0
-7.759966 11.424900 -13.193471 19.100081 -0.974157 2.333329 0.004518 0.001060 -1179070.000000 1 0 0
-17.142566 8.938700 -2.778071 19.531657 -0.480647 1.713515 0.050152 -0.005600 1179500.000000 1 0 0
-20.677266 -1.117900 -4.676571 21.228974 0.054012 1.792910 0.070734 -0.024442 -607741.000000 1 0 0
-15.418466 4.380300 4.171729 16.562592 -0.276801 1.316177 0.022168 -0.013785 -105224.000000 1 0 0
-7.064166 12.496400 -9.611271 17.275387 -1.056285 2.160791 0.021683 -0.007354 -439874.000000 1 0 0
-17.341166 1.701700 5.655729 18.319364 -0.097817 1.256939 0.052951 -0.019635 147944.000000 1 0 0
-10.481266 14.115300 -3.028471 17.840131 -0.932083 1.741378 0.040246 -0.011291 -534485.000000 1 0 0
-10.171666 8.463700 -13.156271 18.659702 -0.694002 2.353309 -0.003434 -0.004402 -13943.300000 1 0 0
-13.708766 11.698900 2.898629 18.253673 -0.706458 1.411324 0.029941 -0.013784 -636995.000000 1 0 0
-17.072666 6.507900 2.038429 18.384338 -0.364185 1.459689 0.033042 -0.006796 773167.000000 1 0 0
-9.405766 13.241700 -8.688171 18.419972 -0.953182 2.061981 0.038505 -0.016745 58129.300000 1 0 0
-5.726566 9.768700 -13.093971 17.311070 -1.040574 2.428577 0.007094 -0.001640 -103716.000000 1 0 0
-15.893266 1.889000 3.104129 16.303369 -0.118300 1.379229 0.015837 -0.012104 -1018910.000000 1 0 0
-18.572666 -4.775800 4.496329 19.696933 0.251689 1.340490 0.053071 -0.010906 800699.000000 1 0 0
-5.443066 14.396700 -9.386771 18.027851 -1.209330 2.118445 0.022923 -0.000568 286604.000000 1 0 0
-15.481066 -0.926500 -6.801571 16.934674 0.059776 1.984099 0.012783 -0.004799 920091.000000 1 0 0
-9.108766 10.888000 -9.449471 17.053172 -0.874141 2.158099 0.013181 -0.011210 268956.000000 1 0 0
-16.725866 1.285100 -6.142171 17.864275 -0.076682 1.921783 0.011815 -0.002399 -585136.000000 1 0 0
-11.221166 8.596100 -1.458171 14.210340 -0.653701 1.673591 0.018777 -0.003903 -969099.000000 1 0 0
-10.899966 11.032400 -12.818871 20.120799 -0.791436 2.261520 0.031723 -0.008672 -460828.000000 1 0 0
-14.128066 11.651000 -10.434971 21.076923 -0.689604 2.088735 0.051456 -0.020635 146102.000000 1 0 0
-13.189966 5.605200 -7.730971 16.283777 -0.401836 2.065494 0.005945 0.005333 949519.000000 1 0 0
-9.088666 15.161200 -4.904871 18.344580 -1.030768 1.841464 0.042015 -0.014147 181944.000000 1 0 0
-8.732566 6.214500 -13.091271 16.919193 -0.618500 2.455540 -0.004858 -0.002246 657185.000000 1 0 0
-16.488666 7.360600 4.381629 18.580991 -0.419859 1.332742 0.034063 -0.013962 -167426.000000 1 0 0
-12.711466 5.556600 -10.174471 17.203983 -0.412102 2.203593 -0.002923 0.001691 436934.000000 1 0 0
-12.644366 9.155000 -13.219171 20.455818 -0.626677 2.273431 0.049348 -0.020293 -1273680.000000 1 0 0
-10.790566 5.170300 -8.515471 14.686101 -0.446829 2.189319 -0.006258 0.001349 -755352.000000 1 0 0
-17.717366 -4.563700 -2.564771 18.474590 0.252103 1.710073 0.016314 -0.011502 686894.000000 1 0 0
-9.153866 12.920100 -11.114271 19.345523 -0.954390 2.182806 0.043313 -0.012840 -291007.000000 1 0 0
-15.075466 6.027200 6.117829 17.350062 -0.380336 1.210436 0.028501 -0.016971 -16738.800000 1 0 0
-16.405866 -3.235400 -4.396371 17.290122 0.194711 1.827890 0.019385 -0.007948 -629524.000000 1 0 0
-11.236066 -1.243000 -12.564071 16.901186 0.110178 2.408912 0.013418 0.002397 523621.000000 1 0 0
-15.374066 6.853400 -8.611471 18.907364 -0.419336 2.043681 0.007291 0.003267 12589.200000 1 0 0
-15.067766 9.124700 1.313929 17.664205 -0.544511 1.496344 0.033676 -0.011992 -551501.000000 1 0 0
-19.465966 5.294600 8.078229 21.730495 -0.265568 1.189907 0.086760 -0.037317 -830978.000000 1 0 0
-16.282766 0.532600 0.901829 16.316416 -0.032698 1.515497 0.019674 -0.010948 -1126820.000000 1 0 0
-17.583266 3.848200 7.112429 19.353722 -0.215459 1.194480 0.044316 -0.018968 1017170.000000 1 0 0
-15.615466 3.900200 -1.427271 16.158324 -0.244758 1.659242 0.016605 -0.004217 -473473.000000 1 0 0
-10.896366 13.244300 0.488029 17.157519 -0.882354 1.542348 0.029562 -0.008170 -1478850.000000 1 0 0
-13.548166 3.402000 -0.039271 13.968821 -0.246018 1.573608 0.012933 -0.005996 -91915.700000 1 0 0
-15.134866 0.144100 -4.306171 15.736202 -0.009521 1.847979 0.011117 -0.004063 206534.000000 1 0 0
-18.981966 6.975700 3.762129 20.570101 -0.352171 1.386868 0.058192 -0.018774 -1002760.000000 1 0 0
-14.198566 1.342800 -6.298271 15.590722 -0.094292 1.986655 0.006379 -0.000903 -296265.000000 1 0 0
-14.434966 12.004600 5.334029 19.517442 -0.693734 1.293979 0.032244 -0.019822 69842.500000 1 0 0
17.818334 5.590100 6.182129 19.671324 0.304003 1.251108 0.079620 -0.018794 1145410.000000 1 0 0
18.417734 7.614000 -0.374971 19.933051 0.392010 1.589609 0.031317 -0.002329 170203.000000 1 0 0
16.693834 5.161200 8.334029 19.359187 0.299846 1.125755 0.087872 -0.014448 738807.000000 1 0 0
11.750734 12.257700 11.039829 20.253612 0.806511 0.994312 0.038594 -0.013472 684426.000000 1 0 0
-2.302366 16.364400 -0.540871 16.534419 -1.431020 1.603514 -0.010373 -0.001381 -141425.000000 1 0 0
14.997934 12.669600 3.082229 19.873523 0.701442 1.415075 0.066403 -0.017152 141773.000000 1 0 0
13.253134 11.761600 6.719429 18.950766 0.725842 1.208339 0.042938 -0.010249 780208.000000 1 0 0
-0.676666 15.882800 8.548829 18.050033 -1.528218 1.077402 0.006220 -0.001860 162062.000000 1 0 0
0.702134 12.923400 9.390829 15.990464 1.516519 0.943106 0.005299 -0.000448 -251344.000000 1 0 0
0.575234 15.434700 -3.844371 15.916660 1.533545 1.814740 -0.001112 -0.001268 -921597.000000 1 0 0
5.399834 10.296100 13.594629 17.888036 1.087777 0.707507 0.036740 -0.011414 253279.000000 1 0 0
-1.480266 16.511900 -2.878971 16.826245 -1.481387 1.742742 -0.001488 -0.000338 -548118.000000 1 0 0
8.447034 10.064200 3.322329 13.552800 0.872538 1.323133 0.002991 -0.002335 312265.000000 1 0 0
12.444834 13.760300 -4.880971 19.184463 0.835555 1.828047 0.094931 -0.026235 -30387.600000 1 0 0
2.376234 11.640300 7.734429 14.176194 1.369425 0.993700 0.005956 0.003565 389055.000000 1 0 0
-0.431066 15.016100 -8.708471 17.363944 -1.542097 2.096158 0.008622 0.005082 -413868.000000 1 0 0
2.298634 15.792300 0.282929 15.961219 1.426257 1.553069 0.012280 -0.014486 -690037.000000 1 0 0
1.875934 13.376400 5.320229 14.517302 1.431463 1.195579 0.004722 0.002929 -87708.200000 1 0 0
17.365834 9.254000 -2.044971 19.783595 0.489609 1.674348 0.014355 -0.003845 183986.000000 1 0 0
-7.337766 14.928200 7.220729 18.133750 -1.113942 1.161250 0.015503 -0.015566 -278233.000000 1 0 0
8.370034 15.708300 -0.113971 17.799471 1.081222 1.577199 0.031231 -0.020216 -1009230.000000 1 0 0
15.589234 10.395200 1.957829 18.839254 0.588108 1.466685 0.047993 -0.008295 121692.000000 1 0 0
14.090834 7.423100 8.520329 18.062393 0.484860 1.079560 0.045963 -0.016274 -1313730.000000 1 0 0
4.008234 18.562100 -2.019471 19.097009 1.358125 1.676742 0.034148 -0.021225 -772213.000000 1 0 0
-0.445366 17.622800 -4.915271 18.300856 -1.545530 1.842716 0.016175 0.003627 302707.000000 1 0 0
1.242834 13.617200 -0.716071 13.692536 1.479779 1.623117 0.001389 -0.006593 -534594.000000 1 0 0
10.172934 14.759600 4.190029 18.408985 0.967327 1.341176 0.025900 -0.016839 629219.000000 1 0 0
-1.817566 15.372600 -5.137371 16.309904 -1.453109 1.891237 0.004738 -0.002455 2234.250000 1 0 0
15.045034 8.914400 -6.076271 18.513256 0.534897 1.905206 0.043945 -0.015015 676188.000000 1 0 0
-2.690566 18.524000 0.853829 18.737843 -1.426557 1.525213 0.005171 -0.006449 68674.200000 1 0 0
-3.822266 19.382100 3.473629 20.058455 -1.376089 1.396744 0.006140 -0.007613 -5013.800000 1 0 0
1.593734 17.557300 -2.479671 17.803021 1.480271 1.710534 0.008134 -0.016958 -165953.000000 1 0 0
2.769534 12.189600 3.241929 12.913821 1.347384 1.317038 0.003578 -0.001682 180834.000000 1 0 0
-2.714766 16.123400 1.945629 16.465706 -1.403987 1.452357 -0.003567 -0.002741 -1110730.000000 1 0 0
11.740234 12.831500 -2.653071 17.593160 0.829780 1.722175 0.056312 -0.008055 414023.000000 1 0 0
7.218734 11.578100 4.850229 14.480582 1.013290 1.229247 -0.001524 -0.002217 -111830.000000 1 0 0
6.933434 15.536200 1.971729 17.126989 1.151044 1.455416 0.013905 -0.017311 -3390380.000000 1 0 0
5.471234 12.236800 10.314729 16.913525 1.150346 0.914924 0.018809 0.002484 596629.000000 1 0 0
-1.412066 14.129500 3.096029 14.533482 -1.471190 1.356124 -0.005207 -0.001231 -631945.000000 1 0 0
4.508134 15.937000 1.623629 16.641737 1.295126 1.473077 0.017762 -0.018955 -3067800.000000 1 0 0
7.274634 13.153400 12.074929 19.280461 1.065606 0.894026 0.031424 -0.006139 409549.000000 1 0 0
0.549534 17.247100 -9.402171 19.651088 1.538945 2.069691 0.016240 0.005395 180867.000000 1 0 0
9.774634 9.721000 15.487329 20.733998 0.782647 0.727328 0.058959 -0.018208 -92689.100000 1 0 0
13.454334 7.703200 -0.089571 15.503755 0.519987 1.576574 0.013254 -0.002519 -141388.000000 1 0 0
12.191234 13.703900 -0.145771 18.342419 0.843747 1.578744 0.057677 -0.011745 275302.000000 1 0 0
9.352634 12.367300 3.456829 15.886206 0.923314 1.351442 0.011814 -0.003538 578608.000000 1 0 0
-0.707966 12.825200 0.729129 12.865404 -1.515651 1.514092 -0.000431 -0.002457 -1233710.000000 1 0 0
15.919334 7.360000 -0.892771 17.561089 0.433061 1.621656 0.020600 -0.000720 -1717390.000000 1 0 0
-4.334366 18.437200 -2.345471 19.084505 -1.339901 1.694007 0.011417 -0.009923 71024.700000 1 0 0
11.379934 9.283500 -3.320871 15.057040 0.684288 1.793177 0.022537 -0.006700 -121516.000000 1 0 0
14.588034 9.819800 7.724329 19.206886 0.592471 1.156917 0.049897 -0.014907 155592.000000 1 0 0
4.423634 13.733700 4.631929 15.153806 1.259189 1.260164 0.006991 0.000275 408475.000000 1 0 0
2.092234 15.924700 5.642729 17.023922 1.440162 1.232947 0.009385 0.001234 34454.700000 1 0 0
5.988834 18.411800 5.437229 20.110296 1.256319 1.297019 0.031331 -0.018819 -326484.000000 1 0 0
10.577734 17.010200 -0.730071 20.044161 1.014468 1.607227 0.082016 -0.026078 -858342.000000 1 0 0
9.899234 13.581100 -4.380171 17.367412 0.940938 1.825756 0.072567 -0.014628 13188.800000 1 0 0
16.450834 7.969100 2.179029 18.408820 0.451105 1.452149 0.021803 -0.008147 -193978.000000 1 0 0
3.873134 13.956200 -0.396171 14.489087 1.300088 1.598142 0.005346 -0.010228 -368970.000000 1 0 0
5.452734 13.090600 -2.374371 14.378239 1.176115 1.736693 0.004943 -0.008411 -136440.000000 1 0 0
-6.283066 16.788200 -2.989971 18.173071 -1.212679 1.736075 0.018807 -0.005080 -1175700.000000 1 0 0
18.117834 9.837600 2.485729 20.765672 0.497437 1.450805 0.067323 -0.016750 -448012.000000 1 0 0
7.870234 12.994100 9.538129 17.937757 1.026213 1.010149 0.019219 -0.001859 -376179.000000 1 0 0
-2.632266 15.716000 6.702429 17.287106 -1.404847 1.172648 0.000145 -0.001182 -410910.000000 1 0 0
11.028934 16.110600 6.332029 20.525190 0.970497 1.257180 0.042434 -0.017471 59061.400000 1 0 0
13.460434 11.856800 1.211029 17.978698 0.722141 1.503386 0.048265 -0.011866 315109.000000 1 0 0
17.429434 8.020400 -5.317471 19.909482 0.431274 1.841160 0.027004 0.005907 -535141.000000 1 0 0
9.333534 9.312700 8.035829 15.440719 0.784281 1.023441 0.003302 0.000028 -281179.000000 1 0 0
-2.064066 14.144300 -2.017371 14.435767 -1.425890 1.711003 -0.009108 -0.001072 583602.000000 1 0 0
10.835634 11.627900 0.838929 15.916119 0.820653 1.518062 0.024343 -0.004779 -413715.000000 1 0 0
11.671734 9.820200 -0.687471 15.268868 0.699460 1.615836 0.022538 -0.003517 -1123200.000000 1 0 0
-0.282766 16.380400 11.029429 19.749577 -1.553536 0.978263 0.014952 -0.002841 -58391.900000 1 0 0
1.894834 19.908200 -1.238271 20.036470 1.475904 1.632637 0.034954 -0.031165 -838357.000000 1 0 0
9.250934 14.304600 1.742429 17.124177 0.996737 1.468867 0.020769 -0.012894 -359422.000000 1 0 0
8.445334 11.675300 -5.177671 15.311583 0.944570 1.915751 0.026442 -0.004934 -855590.000000 1 0 0
10.507334 10.040300 10.278829 17.800731 0.762673 0.955208 0.007259 -0.005797 640795.000000 1 0 0
-5.166166 15.807800 5.859029 17.632471 -1.254927 1.232070 -0.006181 -0.003228 -358367.000000 1 0 0
14.316334 9.146600 -1.988171 17.104693 0.568527 1.687295 0.029456 -0.005840 -644632.000000 1 0 0
12.044734 9.559000 6.963429 16.880150 0.670842 1.145576 0.014238 -0.006320 -1435540.000000 1 0 0
3.195134 12.948800 9.744529 16.517753 1.328878 0.939808 0.016226 -0.005229 -516250.000000 1 0 0
8.433734 12.657800 -2.667771 15.442305 0.983056 1.744425 0.029964 -0.007326 -868516.000000 1 0 0
9.150534 16.932600 2.083729 19.359420 1.075346 1.462954 0.019840 -0.016895 -492531.000000 1 0 0
9.306634 14.452400 -7.419371 18.722510 0.998685 1.978259 0.083684 -0.024024 101466.000000 1 0 0
6.299534 11.582900 7.337029 15.089059 1.072675 1.063005 0.001505 0.002597 -859846.000000 1 0 0
5.226934 17.054700 -5.559171 18.683897 1.273405 1.872909 0.052726 -0.004343 -3058610.000000 1 0 0
-4.275866 17.111100 -4.681071 18.247882 -1.325923 1.830223 0.012891 -0.006211 187922.000000 1 0 0
-0.607966 18.891500 -0.638471 18.912061 -1.538625 1.604563 0.002847 -0.001517 -1212850.000000 1 0 0
6.351134 15.625100 -2.657771 17.074671 1.184725 1.727088 0.030295 -0.008627 452490.000000 1 0 0
-1.289866 20.824700 0.881429 20.883218 -1.508936 1.528576 0.003265 -0.008800 -176268.000000 1 0 0
-1.440366 18.796400 4.190729 19.311694 -1.494316 1.352051 -0.004671 -0.003847 -14722.900000 1 0 0
7.145534 13.860900 -4.346471 16.188731 1.094812 1.842619 0.029426 -0.002957 537703.000000 1 0 0
-1.052666 11.963500 7.635129 14.231256 -1.483033 1.004507 0.000942 0.004348 707866.000000 1 0 0
7.603634 10.820700 10.925229 17.154109 0.958265 0.880343 0.014803 -0.007829 242953.000000 1 0 0
1.361534 15.968900 -7.197671 17.568893 1.485740 1.992902 0.005336 -0.001351 -642353.000000 1 0 0
9.014334 7.327700 14.895729 18.890108 0.682554 0.662354 0.049266 -0.005709 411965.000000 1 0 0
11.357834 11.338200 -4.906971 16.781941 0.784533 1.867528 0.060689 -0.014862 -299058.000000 1 0 0
-3.409766 17.020200 4.462929 17.922931 -1.373077 1.319142 -0.004177 0.001753 -543814.000000 1 0 0
3.759634 15.368100 -6.657571 17.164982 1.330870 1.969103 0.028088 -0.008624 -863722.000000 1 0 0
-4.508466 14.052000 9.452529 17.525276 -1.260330 1.001113 0.014096 -0.012307 27744.200000 1 0 0
6.204834 17.508500 0.465129 18.581278 1.230216 1.545762 0.025146 -0.032623 -994739.000000 1 0 0
9.690234 10.747900 -2.165871 14.632464 0.837102 1.719360 0.031677 -0.006149 -1520340.000000 1 0 0
7.037834 18.125400 -2.462371 19.599095 1.200429 1.696766 0.054635 -0.013334 -207974.000000 1 0 0
3.477734 10.376900 10.442429 15.126765 1.247419 0.808854 0.010053 -0.000112 787618.000000 1 0 0
-0.228366 18.528300 1.886329 18.625474 -1.558472 1.469346 0.002705 -0.013034 280027.000000 1 0 0
-1.056466 17.146400 -7.382271 18.697943 -1.509260 1.976665 0.022307 0.003022 341278.000000 1 0 0
10.081034 8.779300 13.094529 18.712831 0.716488 0.795732 0.031097 -0.011357 -910856.000000 1 0 0
3.653634 11.424300 5.460529 13.178811 1.261263 1.143577 0.003495 -0.000289 602465.000000 1 0 0
12.912034 13.874200 8.275929 20.681031 0.821303 1.159094 0.049848 -0.023540 -247892.000000 1 0 0
-0.586866 17.349900 6.624729 18.580917 -1.536984 1.206241 0.004404 -0.004126 -622980.000000 1 0 0
11.912034 13.714900 5.841329 19.081828 0.855633 1.259682 0.032575 -0.011428 -708489.000000 1 0 0
4.732734 14.649400 -4.393571 16.009596 1.258314 1.848797 0.014769 -0.003505 -1135950.000000 1 0 0
3.749534 17.546500 4.687029 18.544728 1.360271 1.315283 0.022579 -0.008953 -579575.000000 1 0 0
6.993934 11.703400 2.137029 13.800420 1.032145 1.415318 0.006384 -0.003641 684276.000000 1 0 0
6.387834 8.697000 11.750729 15.953742 0.937298 0.742841 0.019451 -0.008163 537100.000000 1 0 0
-5.537066 14.858100 1.740029 15.951487 -1.214076 1.461496 -0.003432 0.004773 97029.700000 1 0 0
6.826234 13.814000 5.989929 16.531888 1.111837 1.200034 0.003656 -0.003676 650862.000000 1 0 0
5.809734 15.866100 4.900129 17.592539 1.219787 1.288528 0.009830 -0.011358 600989.000000 1 0 0
1.166934 18.015700 4.151429 18.524620 1.506114 1.344773 0.020346 -0.007074 746848.000000 1 0 0
7.090134 18.267200 -6.755071 20.726591 1.200560 1.902774 0.054596 -0.012811 233807.000000 1 0 0
-2.614366 18.679500 -5.918771 19.768421 -1.431741 1.874866 0.028370 -0.002431 -921395.000000 1 0 0
13.472034 9.969900 -4.491671 17.351361 0.637099 1.832644 0.036707 -0.015800 -1167720.000000 1 0 0
-1.767466 18.041100 9.590529 20.508132 -1.473139 1.084171 0.012912 -0.008251 -317816.000000 1 0 0
3.299034 11.787100 -1.472071 12.328274 1.297894 1.690488 0.003610 -0.005339 -1187250.000000 1 0 0
4.254934 14.021500 -10.928271 18.279333 1.276170 2.211611 0.009495 -0.010209 -354620.000000 1 0 0
11.562934 13.458100 2.335329 17.896247 0.860997 1.439930 0.039882 -0.014164 910552.000000 1 0 0
15.975734 6.689200 -7.117371 18.725022 0.396531 1.960700 0.025592 0.002239 91844.600000 1 0 0
2.332234 15.967000 3.051029 16.422338 1.425756 1.383925 0.010427 -0.008566 -296216.000000 1 0 0
13.492734 10.584700 3.419129 17.486572 0.665202 1.374000 0.035741 -0.004318 -1322250.000000 1 0 0
-5.148966 19.369500 -5.899971 20.892560 -1.310977 1.857087 0.019198 -0.014509 318288.000000 1 0 0
5.459834 12.036500 0.059129 13.217058 1.144947 1.566323 0.007098 -0.007034 700504.000000 1 0 0
5.080234 15.280700 9.725829 18.812239 1.249831 1.027460 0.033201 -0.011408 -72708.800000 1 0 0
7.753934 9.428500 13.787029 18.414730 0.882549 0.724704 0.043700 -0.017607 -1855120.000000 1 0 0
-5.108066 13.545800 6.934029 16.051847 -1.210189 1.124113 -0.000482 -0.004231 -1522230.000000 1 0 0
-4.666866 16.972500 0.441729 17.607968 -1.302461 1.545707 0.002261 -0.006696 -2216960.000000 1 0 0
-0.682566 16.498700 3.466829 16.872816 -1.529449 1.363854 0.001349 -0.005147 -1376890.000000 1 0 0
7.624434 16.862700 -4.675871 19.087861 1.146158 1.818281 0.051379 -0.018500 566333.000000 1 0 0
2.930634 16.498500 -4.398171 17.324348 1.395000 1.827478 0.011832 -0.005321 471334.000000 1 0 0
9.468034 14.473000 8.277829 19.173781 0.991484 1.124390 0.023876 -0.006067 433615.000000 1 0 0
12.702734 10.900200 9.166729 19.084097 0.709177 1.069762 0.034759 -0.014319 943228.000000 1 0 0
3.667834 12.375300 12.206929 17.765421 1.282661 0.813282 0.025986 -0.008026 503076.000000 1 0 0
-3.220766 19.146100 6.054429 20.337222 -1.404136 1.268512 0.002660 0.000289 52426.500000 1 0 0
-2.682166 15.695100 10.238929 18.930554 -1.401539 0.999328 0.011865 -0.011289 668552.000000 1 0 0
1.999534 14.260300 7.678329 16.319039 1.431488 1.080924 0.011169 0.001624 116203.000000 1 0 0
4.148934 17.022500 8.039429 19.277230 1.331725 1.140607 0.022359 -0.011516 -6660.210000 1 0 0
-1.923066 13.461700 9.351929 16.503761 -1.428902 0.968357 0.005814 -0.004193 -831277.000000 1 0 0
5.786234 17.608800 2.987329 18.774304 1.253313 1.410999 0.015749 -0.020900 474152.000000 1 0 0
6.941134 15.572300 -6.872771 18.382352 1.151494 1.953984 0.029921 -0.004819 -141974.000000 1 0 0
10.986134 7.710500 9.404029 16.388494 0.611959 0.959635 0.004395 -0.004585 1343430.000000 1 0 0
8.882534 16.454300 -2.524371 18.868382 1.075794 1.704987 0.067946 -0.016193 -745104.000000 1 0 0
14.520534 11.506800 -6.416271 19.606654 0.670120 1.904188 0.082986 -0.021832 489765.000000 1 0 0
11.406134 6.812800 15.764229 20.616136 0.538426 0.700291 0.097492 -0.027115 -380852.000000 1 0 0
8.382534 8.469000 10.207229 15.690072 0.790529 0.862483 0.006193 -0.006256 1074190.000000 1 0 0
16.294334 9.569000 4.335429 19.387291 0.530999 1.345267 0.050928 -0.012543 -139875.000000 1 0 0
-3.422566 14.309500 4.654129 15.431678 -1.336026 1.264430 -0.007420 0.003304 -1130680.000000 1 0 0
4.541134 14.913400 12.540529 20.007406 1.275216 0.893364 0.031625 -0.004477 -229037.000000 1 0 0
16.006534 10.760400 -4.377671 19.777749 0.591858 1.793988 0.061122 -0.027009 -103389.000000 1 0 0
14.478934 13.976200 6.202329 21.058077 0.767732 1.271828 0.062522 -0.018176 -628974.000000 1 0 0
6.131234 9.599500 9.235729 14.664281 1.002403 0.889486 0.007389 0.000070 204622.000000 1 0 0
10.392234 12.187600 8.813829 18.281677 0.864743 1.067732 0.017186 -0.005277 -504005.000000 1 0 0
7.918634 11.570000 -0.343171 14.024530 0.970610 1.595268 0.004799 -0.004866 -478778.000000 1 0 0
7.197434 13.688100 -8.778171 17.782672 1.086709 2.087062 0.037076 -0.007633 -437974.000000 1 0 0
2.486134 15.156600 -2.230071 15.520200 1.408214 1.714984 0.010221 -0.009929 346819.000000 1 0 0
11.889734 14.099400 -7.603971 19.949417 0.870217 1.961850 0.096564 -0.031752 -774393.000000 1 0 0
-8.218266 14.867700 9.702429 19.563372 -1.065837 1.051869 0.040809 -0.027443 265920.000000 1 0 0
11.502034 9.529500 2.140129 15.089344 0.691882 1.428486 0.023195 -0.002352 -2183980.000000 1 0 0
11.893834 8.900100 4.544129 15.534612 0.642409 1.273939 0.012552 -0.001951 323965.000000 1 0 0
13.937734 8.142100 5.988429 17.216722 0.528704 1.215545 0.022758 -0.009997 -2517380.000000 1 0 0
16.177634 7.486500 7.055529 19.171438 0.433421 1.193914 0.074432 -0.018773 875879.000000 1 0 0
13.443034 8.185800 2.473829 15.932430 0.546956 1.414896 0.019196 -0.002882 -1983490.000000 1 0 0
-4.222666 17.337300 -7.289271 19.275538 -1.331888 1.958606 0.027495 -0.015170 -224005.000000 1 0 0
2.386934 19.711000 -3.789971 20.213482 1.450287 1.759410 0.032536 -0.014618 342204.000000 1 0 0
-0.168066 14.847300 6.202229 16.091557 -1.559477 1.175118 0.004882 0.002751 406300.000000 1 0 0
6.675634 16.268700 8.019729 19.327461 1.181411 1.142920 0.028847 -0.010053 -638388.000000 1 0 0
12.599234 15.160000 -2.257071 19.840884 0.877387 1.684802 0.105439 -0.028199 -604584.000000 1 0 0
12.635834 15.637600 4.267429 20.552610 0.891171 1.361640 0.057867 -0.021865 -909502.000000 1 0 0
2.824734 17.922000 1.519129 18.206729 1.414470 1.487261 0.018015 -0.023503 -382711.000000 1 0 0
10.164834 14.552800 -1.469471 17.811996 0.961091 1.653389 0.060410 -0.010370 -1037830.000000 1 0 0
-6.540666 15.644400 -0.568071 16.966151 -1.174799 1.604285 0.006142 -0.002168 -272782.000000 1 0 0
-4.016266 15.816200 -2.513671 16.510637 -1.322119 1.723636 0.001544 -0.004807 -1191340.000000 1 0 0
-6.953666 16.990500 1.671829 18.434359 -1.182326 1.479981 0.007665 -0.000471 29684.300000 1 0 0
-0.211066 19.405400 -6.717271 20.536208 -1.559920 1.904023 0.040010 -0.002584 -228392.000000 1 0 0
4.879034 14.747600 7.074929 17.069016 1.251295 1.143414 0.019628 -0.003443 -450950.000000 1 0 0
8.708534 12.353600 7.001229 16.657347 0.956763 1.137011 0.011021 -0.003886 185334.000000 1 0 0
-7.950966 17.329600 -5.338971 19.799937 -1.140642 1.843822 0.058607 -0.026653 325072.000000 1 0 0
-7.940666 17.734900 -1.334971 19.477243 -1.149821 1.639390 0.039974 -0.007722 93776.500000 1 0 0
-13.629866 -9.243000 9.237529 18.882220 0.595906 1.059603 0.046321 -0.010396 -370781.000000 1 0 0
-12.602966 -13.115000 7.431429 19.648514 0.805305 1.182925 0.042174 -0.005406 225438.000000 1 0 0
-3.825966 -15.129100 12.423829 19.946910 1.323102 0.898423 0.026880 -0.013042 58678.200000 1 0 0
-2.012566 -14.226400 14.756829 20.596235 1.430262 0.772050 0.035256 -0.011064 80486.400000 1 0 0
-7.019066 -13.787100 12.672129 19.998357 1.099892 0.884523 0.031273 -0.007844 64329.000000 1 0 0
-9.732366 -11.598600 8.970029 17.598520 0.872665 1.035956 0.018906 -0.003945 329473.000000 1 0 0
-10.610366 -10.690000 11.287429 18.821850 0.789137 0.927672 0.053317 -0.015220 95150.800000 1 0 0
-5.909866 -12.252400 10.726129 17.323327 1.121373 0.903108 0.019698 -0.004691 990086.000000 1 0 0
-12.375766 -10.501000 7.354729 17.819164 0.703630 1.145333 0.017138 -0.000470 -737624.000000 1 0 0
-7.668366 -11.235000 12.499029 18.473083 0.971883 0.827651 0.030638 -0.011314 228278.000000 1 0 0
-14.752966 -11.604200 7.305229 20.141346 0.666496 1.199635 0.054060 -0.007320 -459374.000000 1 0 0
-10.980666 -9.293400 9.150429 17.049125 0.702367 1.004264 0.019729 -0.004499 -514154.000000 1 0 0
-5.217166 -11.997900 13.210729 18.592789 1.160621 0.780546 0.028940 -0.010389 -48196.000000 1 0 0
4.001934 -12.345700 14.751729 19.648035 -1.257328 0.721525 0.007439 -0.000702 690960.000000 1 0 0
6.580434 -12.822400 14.581229 20.501910 -1.096646 0.779574 0.025395 0.011667 -604014.000000 1 0 0
6.857534 -8.258200 16.019229 19.283136 -0.877797 0.590365 0.033688 -0.018378 -1106860.000000 1 0 0
0.777634 -1.670700 14.453529 14.570534 -1.135165 0.126815 0.010624 -0.007402 -1929320.000000 1 0 0
0.051034 -6.355700 15.361829 16.624780 -1.562767 0.392300 0.015986 -0.012452 -608756.000000 1 0 0
-1.352666 -4.427800 18.040229 18.624849 1.274307 0.251216 0.023658 -0.031652 -2069090.000000 1 0 0
-5.299766 12.703600 12.736329 18.753215 -1.175563 0.824186 0.024292 -0.015958 -813098.000000 1 0 0
-4.117666 8.666300 11.558229 15.021738 -1.127238 0.692842 0.004759 -0.000125 -591894.000000 1 0 0
-0.520766 -3.864000 15.046429 15.543382 1.436830 0.253550 0.015320 -0.007380 221025.000000 1 0 0
-4.391766 9.208700 14.103529 17.406818 -1.125787 0.626252 0.007813 -0.010443 495822.000000 1 0 0
-13.380266 -2.294500 16.819329 21.614488 0.169832 0.679080 0.062054 -0.013027 383955.000000 1 0 0
-0.300066 1.057000 17.221629 17.256645 -1.294189 0.063715 0.012903 -0.009748 -1516090.000000 1 0 0
-3.039366 -7.231800 15.392529 17.276187 1.172932 0.471324 0.020763 -0.014079 429435.000000 1 0 0
-7.514566 5.530400 12.494729 15.593983 -0.634453 0.641409 -0.001696 0.001903 -2855000.000000 1 0 0
-9.958466 10.094500 13.292929 19.436356 -0.792182 0.817673 0.032226 -0.017333 804133.000000 1 0 0
-5.671466 2.224800 11.146829 12.703034 -0.373833 0.500186 0.005993 -0.002125 96231.400000 1 0 0
-7.206866 -7.393100 16.832729 19.746838 0.798153 0.550187 0.035386 -0.022979 -39072.900000 1 0 0
-4.846566 3.163400 18.539529 19.421906 -0.578278 0.302590 0.022348 -0.011290 -169946.000000 1 0 0
0.903234 -8.337600 16.603429 18.601217 -1.462885 0.467719 0.011184 -0.006420 317160.000000 1 0 0
-15.138966 -3.508400 13.974829 20.899594 0.227726 0.838384 0.082389 -0.022219 199032.000000 1 0 0
-14.439066 2.188900 13.200129 19.685561 -0.150450 0.835848 0.029332 0.000578 -73595.100000 1 0 0
-5.546366 0.958800 16.024729 16.984505 -0.171178 0.337785 0.015191 -0.009958 132495.000000 1 0 0
4.474834 5.618700 15.044029 16.670835 0.898243 0.445452 0.023763 -0.012515 -149946.000000 1 0 0
-0.966966 -12.001000 13.819429 18.328547 1.490396 0.716690 0.006128 -0.004183 -185474.000000 1 0 0
-5.887666 -4.024600 16.764429 18.218345 0.599610 0.402218 0.025371 -0.018261 -51878.700000 1 0 0
-13.020866 -1.588400 9.930729 16.452518 0.121389 0.922788 0.022402 0.001028 -557049.000000 1 0 0
-14.864966 10.247500 10.049029 20.663046 -0.603558 1.062913 0.039660 -0.018219 524044.000000 1 0 0
-3.571466 -3.272300 17.671929 18.323766 0.741712 0.267530 0.020961 -0.017560 -973223.000000 1 0 0
-7.957366 9.200400 11.881629 17.004122 -0.857719 0.797148 0.006741 -0.006104 -307003.000000 1 0 0
-4.129666 10.663000 16.282429 19.896513 -1.201295 0.612252 0.005680 -0.010689 199240.000000 1 0 0
-12.636566 12.630600 8.179829 19.650050 -0.785162 1.141451 0.037712 -0.026387 358600.000000 1 0 0
-12.739466 3.108900 10.385329 16.727651 -0.239359 0.900972 0.011371 -0.001228 658657.000000 1 0 0
-10.047866 -3.584700 13.748729 17.402219 0.342686 0.659896 0.019612 -0.010939 -1805420.000000 1 0 0
-3.933566 -6.445100 17.763829 19.301966 1.022824 0.401919 0.031830 -0.017352 -280636.000000 1 0 0
1.088534 -3.569100 17.844629 18.230584 -1.274769 0.206135 0.027115 -0.022884 -459616.000000 1 0 0
-6.083466 1.698300 13.600829 14.995844 -0.272236 0.434755 0.005035 -0.002879 -541588.000000 1 0 0
-10.522566 8.605200 10.367329 17.095478 -0.685492 0.919225 0.014946 -0.008682 -228396.000000 1 0 0
4.547934 2.561600 17.110629 17.889079 0.512955 0.296090 0.034795 -0.017447 -460687.000000 1 0 0
0.640834 -5.121400 13.156229 14.132437 -1.446315 0.373861 0.012813 -0.005955 -640150.000000 1 0 0
-4.244166 5.766300 20.568429 21.778968 -0.936297 0.334979 0.052383 -0.021011 -97877.600000 1 0 0
-10.863266 10.779200 9.083129 17.796206 -0.781514 1.035150 0.023897 -0.018421 221055.000000 1 0 0
0.596434 4.181700 13.003729 13.672576 1.429122 0.314079 0.008338 -0.010258 -1792600.000000 1 0 0
-3.243466 7.025900 13.349829 15.430531 -1.138301 0.525333 0.007818 0.001601 -55725.500000 1 0 0
0.684534 8.952600 14.082429 16.701271 1.494483 0.567597 0.002539 -0.002209 77208.200000 1 0 0
-4.023966 -6.554900 13.090029 15.182486 1.020229 0.531240 0.015514 -0.008682 129434.000000 1 0 0
-5.108666 8.187600 16.425129 19.050463 -1.012951 0.531218 0.018873 -0.007607 563593.000000 1 0 0
1.656234 -10.677200 15.884629 19.211121 -1.416904 0.597321 0.001026 0.000172 -242063.000000 1 0 0
-14.982166 -0.907900 14.301929 20.732457 0.060525 0.809538 0.047583 -0.003482 458304.000000 1 0 0
-13.354966 -5.433500 8.651229 16.814333 0.386400 1.030354 0.032006 -0.003762 -539231.000000 1 0 0
-14.098366 -1.967300 12.152329 18.716658 0.138646 0.864161 0.041386 -0.007205 163192.000000 1 0 0
9.406834 1.482500 16.885329 19.385579 0.156313 0.513511 0.072001 -0.021234 -416348.000000 1 0 0
5.151534 -6.509800 16.636129 18.592380 -0.901352 0.462853 0.037321 -0.027875 -8967.440000 1 0 0
-6.133366 -2.776100 10.971429 12.872341 0.425033 0.550380 0.006799 -0.004150 167027.000000 1 0 0
0.533534 -6.255100 17.889629 18.959161 -1.485706 0.337493 0.023414 -0.024533 -278517.000000 1 0 0
-8.589066 11.823800 12.060429 18.948041 -0.942557 0.880844 0.030658 -0.019569 331463.000000 1 0 0
-6.638366 -5.780000 14.882129 17.290288 0.716387 0.534110 0.023606 -0.012921 -382138.000000 1 0 0
-4.269766 -8.866500 17.040129 19.677696 1.122008 0.523726 0.033458 -0.019401 205264.000000 1 0 0
2.542834 -6.178400 16.185129 17.509913 -1.180357 0.391492 0.020579 -0.016584 -487879.000000 1 0 0
2.186434 5.247100 16.046529 17.023621 1.175982 0.340452 0.015609 -0.012527 -1910670.000000 1 0 0
0.941234 -8.942400 14.055029 16.685212 -1.465927 0.569141 0.005730 -0.001509 -600095.000000 1 0 0
-9.959766 -2.843500 11.280529 15.314463 0.278100 0.742777 -0.001864 -0.003277 -408427.000000 1 0 0
-1.313866 10.054700 12.327929 15.962490 -1.440861 0.688333 0.001841 -0.004113 -255187.000000 1 0 0
-12.366566 -3.739400 11.342729 17.192224 0.293639 0.850298 0.028629 -0.006752 -2238960.000000 1 0 0
-1.872866 6.616500 20.041329 21.188218 -1.294952 0.330527 0.029768 -0.010454 -659031.000000 1 0 0
0.250534 -13.435100 15.644629 20.623266 -1.552151 0.709648 0.008422 -0.009441 -705676.000000 1 0 0
4.273434 -8.668900 15.431929 18.208693 -1.112795 0.559532 0.015137 -0.008052 549159.000000 1 0 0
4.396034 -4.334000 16.121029 17.262568 -0.778292 0.365705 0.035056 -0.021717 739299.000000 1 0 0
8.023434 1.711700 14.631629 16.774683 0.210187 0.511023 0.027531 -0.010729 232093.000000 1 0 0
-6.315966 -0.154100 11.818529 13.401224 0.024394 0.490921 0.006255 -0.003369 169079.000000 1 0 0
-3.347766 -10.840800 18.302929 21.534338 1.271275 0.554922 0.050508 -0.022309 196454.000000 1 0 0
3.336634 -1.307600 13.577929 14.042902 -0.373497 0.258051 0.010853 -0.007570 955045.000000 1 0 0
-2.560266 8.583900 15.791129 18.154836 -1.280933 0.515994 0.013628 -0.010292 -409080.000000 1 0 0
-3.342266 4.029800 14.767929 15.668496 -0.878391 0.340692 0.010245 -0.008784 313610.000000 1 0 0
-4.498266 -9.031100 19.771029 22.196593 1.108681 0.471862 0.052750 -0.022834 -40132.900000 1 0 0
-5.679966 -2.834700 19.150729 20.175430 0.462903 0.320079 0.032011 -0.021890 -815225.000000 1 0 0
-6.562966 -8.660500 11.184829 15.594139 0.922319 0.770955 0.013868 -0.007296 575216.000000 1 0 0
-11.803766 2.557400 12.666029 17.501357 -0.213362 0.761623 0.012700 -0.008810 133939.000000 1 0 0
-11.665866 -7.601900 11.704829 18.190226 0.577525 0.871776 0.035715 -0.012237 -732267.000000 1 0 0
-11.039566 -7.397400 15.559029 20.461597 0.590362 0.706865 0.064777 -0.033307 579605.000000 1 0 0
0.209834 5.609800 17.679429 18.549289 1.533409 0.307459 0.010580 -0.014511 -6927.770000 1 0 0
-2.168966 -0.082600 13.231629 13.408477 0.038064 0.162594 0.011949 -0.005265 250060.000000 1 0 0
-5.971466 -10.536500 18.159929 21.827947 1.055191 0.588169 0.068415 -0.023074 -58131.000000 1 0 0
0.333734 2.774800 19.160429 19.363185 1.451098 0.144842 0.021136 -0.014012 -475928.000000 1 0 0
-0.906466 10.866000 14.746629 18.339976 -1.487567 0.636686 0.012322 -0.005958 -294063.000000 1 0 0
-12.750466 -2.397500 14.315929 19.320151 0.185862 0.736261 0.034322 -0.012826 -43965.800000 1 0 0
-13.759766 8.476000 11.590629 19.887595 -0.552100 0.948618 0.021607 -0.018670 -126744.000000 1 0 0
-18.163766 -0.433500 6.704329 19.366423 0.023862 1.217297 0.089232 -0.026859 218778.000000 1 0 0
-1.891466 -7.891200 17.549629 19.334895 1.335542 0.433107 0.031457 -0.017358 -2210010.000000 1 0 0
5.686834 2.734400 14.431829 15.751023 0.448194 0.412186 0.028592 -0.011227 -3298620.000000 1 0 0
-14.229766 -7.023500 11.294229 19.477562 0.458497 0.952241 0.066947 -0.012154 442954.000000 1 0 0
3.105934 7.617300 16.162029 18.135084 1.183629 0.470807 0.024610 -0.024437 -490201.000000 1 0 0
0.971834 2.200400 14.634129 14.830508 1.154898 0.162916 0.014608 -0.013818 -1357810.000000 1 0 0
-14.500966 0.582500 9.713229 17.463223 -0.040148 0.980977 0.033284 -0.000624 -2069310.000000 1 0 0
-9.483066 -5.263700 15.606629 19.005314 0.506722 0.607335 0.036737 -0.016850 -907922.000000 1 0 0
-2.521566 -0.064700 18.064029 18.239288 0.025653 0.138739 0.016919 -0.013494 313999.000000 1 0 0
6.846434 3.719900 17.111329 18.801833 0.497711 0.427299 0.063393 -0.029434 -603308.000000 1 0 0
-4.212166 -0.832500 14.672129 15.287471 0.195127 0.284691 0.014453 -0.004522 -422815.000000 1 0 0
5.191034 -8.824700 17.918129 20.636897 -1.039069 0.519118 0.040496 -0.007582 -186716.000000 1 0 0
1.856034 6.883600 13.373229 15.154936 1.307428 0.489785 0.008326 -0.006033 -404351.000000 1 0 0
-3.741066 -0.737500 20.210929 20.567478 0.194640 0.186472 0.029453 -0.021884 -93886.400000 1 0 0
-10.658366 1.601000 16.283429 19.527264 -0.149096 0.584693 0.019755 -0.014101 -344676.000000 1 0 0
-3.806066 7.144600 18.337729 20.045044 -1.081317 0.415719 0.021822 -0.011400 -875278.000000 1 0 0
-12.593066 1.070000 14.672429 19.365185 -0.084764 0.711060 0.026642 -0.009587 -599532.000000 1 0 0
-15.862966 -5.109300 8.391729 18.659039 0.311597 1.104321 0.063974 -0.015116 -643775.000000 1 0 0
-2.409866 0.824400 15.628929 15.835104 -0.329614 0.161545 0.014625 -0.009293 208841.000000 1 0 0
-13.446366 -8.487300 13.331129 20.749892 0.563043 0.873083 0.057850 -0.027826 632071.000000 1 0 0
6.253634 -3.117400 14.578229 16.166351 -0.462442 0.446963 0.028025 -0.018603 853654.000000 1 0 0
-15.801366 0.625000 7.499829 17.502035 -0.039533 1.127951 0.039753 -0.009535 1217680.000000 1 0 0
-14.090166 5.974100 12.466629 19.739288 -0.401016 0.887227 0.023307 -0.008977 -274007.000000 1 0 0
0.339234 9.482900 16.589529 19.111592 1.535038 0.519566 0.010550 -0.014161 -505176.000000 1 0 0
-10.498466 -5.517300 10.848329 16.073103 0.483865 0.829917 0.016004 -0.009371 17624.000000 1 0 0
-3.154266 -11.069700 15.050029 18.947059 1.293207 0.652909 0.023269 -0.006379 -1337800.000000 1 0 0
-3.680066 2.714100 12.611429 13.414819 -0.635462 0.347838 0.011933 -0.004527 -1345970.000000 1 0 0
-12.320766 -7.887600 7.383429 16.386901 0.569446 1.103394 0.024513 -0.003085 26954.400000 1 0 0
-8.274566 -1.863600 13.262429 15.742728 0.221524 0.568986 0.009755 -0.005684 -165143.000000 1 0 0
-9.822466 6.363500 9.494429 15.070473 -0.574863 0.889240 0.002418 -0.003716 -1325310.000000 1 0 0
-17.875766 -3.475000 6.633229 19.380876 0.192003 1.221479 0.071123 -0.016196 549831.000000 1 0 0
-1.320966 0.048100 20.485829 20.528431 -0.036397 0.064435 0.026610 -0.014620 -1183330.000000 1 0 0
-2.765866 2.665900 20.079129 20.443299 -0.766996 0.189033 0.030677 -0.015689 -668528.000000 1 0 0
-3.818766 11.194700 11.061629 16.194565 -1.242052 0.818872 0.004446 -0.010218 -1252760.000000 1 0 0
-4.161366 -4.769500 14.961929 16.245751 0.853387 0.400221 0.016845 -0.011523 700330.000000 1 0 0
0.069934 -14.321800 13.235429 19.501165 -1.565913 0.824806 0.015029 -0.010686 -903348.000000 1 0 0
-12.140966 0.328000 8.447429 14.794246 -0.027009 0.963080 0.005772 0.000499 -174232.000000 1 0 0
-7.796566 2.009900 15.571429 17.529847 -0.252300 0.477208 0.005612 0.001386 -1962120.000000 1 0 0
3.745934 -2.012400 18.466029 18.949301 -0.492980 0.226330 0.046401 -0.019941 -410376.000000 1 0 0
-2.196266 4.840600 12.509029 13.591571 -1.144855 0.401817 0.004254 -0.003473 -166145.000000 1 0 0
-10.263366 -6.267600 13.305529 17.934787 0.548233 0.734921 0.020793 -0.015585 -1561090.000000 1 0 0
2.527534 -3.680300 14.188829 14.874674 -0.969002 0.304851 0.013110 -0.009841 -464145.000000 1 0 0
6.793434 1.132500 16.855129 18.207929 0.165186 0.387907 0.046556 -0.021361 -835803.000000 1 0 0
-1.890366 -5.533200 13.768429 14.958591 1.241588 0.401601 0.014483 -0.008577 -2429640.000000 1 0 0
-12.964366 3.599900 14.692329 19.922314 -0.270853 0.741463 0.011059 -0.003255 269137.000000 1 0 0
-13.024766 -5.983400 13.354429 19.590467 0.430632 0.820740 0.039267 -0.035420 -1454410.000000 1 0 0
-9.731366 6.715600 11.980329 16.832322 -0.604050 0.778816 0.012473 0.000687 -742387.000000 1 0 0
-0.967566 -2.366000 12.885629 13.136726 1.182602 0.195833 0.011341 -0.003170 131587.000000 1 0 0
0.168234 6.784300 15.328629 16.763708 1.546004 0.416789 0.005982 -0.009304 235051.000000 1 0 0
-16.387566 -1.250200 9.329029 18.898310 0.076142 1.054522 0.066789 -0.008850 134723.000000 1 0 0
-1.338666 2.738400 13.568129 13.906293 -1.116109 0.220982 0.009369 -0.006998 -1272450.000000 1 0 0
-11.223766 -3.437900 16.091829 19.918309 0.297231 0.630231 0.043996 -0.024329 815969.000000 1 0 0
-5.124966 -1.385000 17.154329 17.957019 0.263941 0.300125 0.019528 -0.007777 278794.000000 1 0 0
-12.050666 6.654000 11.000829 17.621365 -0.504507 0.896575 0.016483 -0.005108 -1046070.000000 1 0 0
-2.740166 4.775400 18.559629 19.359050 -1.049858 0.288381 0.025717 -0.015997 93738.800000 1 0 0
5.164534 -1.729400 16.421329 17.300962 -0.323125 0.320249 0.037960 -0.020416 -1767350.000000 1 0 0
-8.040066 -4.183700 12.174929 15.178106 0.479800 0.639930 0.010712 -0.006644 -1752870.000000 1 0 0
-11.309666 -0.856000 15.935529 19.559713 0.075543 0.618564 0.025533 -0.021528 -47687.600000 1 0 0
2.037934 2.171900 17.248929 17.504168 0.817210 0.170980 0.016243 -0.017674 -866155.000000 1 0 0
-8.923566 -7.565600 11.620829 16.489755 0.703229 0.788753 0.017060 -0.010666 1139390.000000 1 0 0
-7.414366 6.587300 14.956829 17.946367 -0.726398 0.585532 0.003088 -0.006165 -667564.000000 1 0 0
-5.724566 3.394800 15.693529 17.046471 -0.535274 0.401100 0.010096 -0.007427 207341.000000 1 0 0
-9.368566 4.141400 11.452529 15.364949 -0.416225 0.729711 -0.000539 -0.003060 -381593.000000 1 0 0
-10.120266 0.285200 13.987129 17.266757 -0.028174 0.626540 0.009379 -0.008812 -24090.400000 1 0 0
8.266634 -0.597700 15.750929 17.798490 -0.072177 0.484391 0.047475 -0.020129 210229.000000 1 0 0
-8.580766 -7.550300 14.659129 18.588347 0.721604 0.662236 0.037834 -0.015346 -2445970.000000 1 0 0
-0.241766 4.281100 15.530629 16.111695 -1.514383 0.269383 0.009272 -0.014030 115937.000000 1 0 0
-8.166166 3.010100 9.501729 12.885256 -0.353153 0.741567 -0.002530 0.000119 -369411.000000 1 0 0
-2.144066 -9.810100 13.132329 16.531580 1.355623 0.652813 0.008314 -0.004278 670734.000000 1 0 0
-6.062866 10.166300 10.492029 15.817544 -1.033051 0.845555 0.015625 -0.010291 -1456730.000000 1 0 0
-8.568166 -2.831600 15.683729 18.094496 0.319180 0.522112 0.028118 -0.017959 322419.000000 1 0 0
4.140334 5.697500 17.635429 18.989793 0.942379 0.379960 0.032790 -0.019826 106763.000000 1 0 0
-6.762766 -1.039900 15.173529 16.644891 0.152573 0.423630 0.014975 -0.007875 -730009.000000 1 0 0
-0.862066 -10.021000 15.515129 18.490074 1.484982 0.575159 0.004353 -0.002059 -412355.000000 1 0 0
-4.504366 5.673000 16.285129 17.823515 -0.899724 0.418529 0.017609 -0.005815 113786.000000 1 0 0
3.689334 0.194100 17.412329 17.799946 0.052563 0.209073 0.033985 -0.016362 -625904.000000 1 0 0
1.274734 0.434000 19.156829 19.204099 0.328154 0.070177 0.021735 -0.014411 -659648.000000 1 0 0
-6.292766 6.545600 18.055929 20.210403 -0.805089 0.465944 0.011350 0.000598 -960411.000000 1 0 0
-12.280566 0.574500 10.976829 16.481296 -0.046747 0.841939 0.019442 -0.000237 36135.000000 1 0 0
-5.533566 5.103200 13.917829 15.823052 -0.744960 0.495793 -0.000740 -0.002031 -1961520.000000 1 0 0
-8.566866 -9.643400 10.040629 16.346271 0.844446 0.909366 0.016219 -0.002454 -548798.000000 1 0 0
6.755634 -3.709400 17.091729 18.749012 -0.502138 0.423620 0.034783 -0.019428 -1028200.000000 1 0 0
-16.917366 1.371000 9.699229 19.548707 -0.080864 1.051629 0.063809 -0.009714 273871.000000 1 0 0
-4.107966 -9.591300 11.318729 15.394221 1.166133 0.744749 0.010551 -0.007011 958048.000000 1 0 0
-11.017266 -3.883100 9.190929 14.863775 0.338861 0.904162 0.007440 -0.000950 -395544.000000 1 0 0
3.721034 -5.230100 18.488629 19.571138 -0.952417 0.334153 0.035013 -0.024553 -268308.000000 1 0 0
2.576334 -1.808900 16.061029 16.366621 -0.612148 0.193546 0.016970 -0.014397 153447.000000 1 0 0
-3.014066 -4.356500 20.040529 20.728881 0.965558 0.258429 0.031179 -0.026009 -596651.000000 1 0 0
-6.328966 -3.392100 14.347729 16.044298 0.492003 0.464027 0.017649 -0.007913 171605.000000 1 0 0
-9.770366 5.052800 13.901829 17.727146 -0.477278 0.669372 0.012690 -0.002341 186015.000000 1 0 0
-5.864466 -5.299200 11.737629 14.150810 0.734807 0.592644 0.011232 -0.001906 -194404.000000 1 0 0
6.209034 2.241800 19.164429 20.269512 0.346489 0.331729 0.084986 -0.035282 366684.000000 1 0 0
-2.905466 11.790500 13.447529 18.118876 -1.329186 0.734474 0.016251 -0.016176 -417495.000000 1 0 0
3.419734 1.447300 15.083129 15.533514 0.400362 0.241394 0.017049 -0.010732 -1300920.000000 1 0 0
-5.831866 7.378100 13.011029 16.054093 -0.901919 0.625878 -0.005271 -0.000170 -1415720.000000 1 0 0
-1.749366 -1.666300 15.288929 15.478637 0.761084 0.156724 0.013219 -0.004928 637730.000000 1 0 0
-7.473866 10.604600 14.064829 19.134671 -0.956872 0.745064 0.040367 -0.022289 423724.000000 1 0 0
-10.301466 1.938800 10.564629 14.882558 -0.186030 0.781488 0.000735 0.002769 -2116220.000000 1 0 0
-13.729066 5.227600 9.048529 17.253723 -0.363819 1.018740 0.020668 -0.011372 371877.000000 1 0 0
0.407334 -4.858300 19.965629 20.552259 -1.487149 0.239500 0.037979 -0.032306 -249447.000000 1 0 0
-14.323966 -3.285600 7.430729 16.467754 0.225477 1.102654 0.032731 -0.004110 299594.000000 1 0 0
-2.562766 2.438700 17.543629 17.896758 -0.760597 0.198981 0.016987 -0.013837 353854.000000 1 0 0
-6.150366 -8.245500 14.484729 17.765772 0.929921 0.617520 0.017907 -0.014606 48654.600000 1 0 0
-8.090266 1.831900 11.888229 14.496146 -0.222678 0.609218 -0.004440 -0.002243 -1686220.000000 1 0 0
-14.588666 -3.586000 10.087929 18.095715 0.241029 0.979454 0.043017 -0.008872 178217.000000 1 0 0
-0.653866 7.011100 12.783729 14.594753 -1.477804 0.503472 0.003948 -0.005683 89263.100000 1 0 0
-1.724866 -2.202300 19.342829 19.544061 0.906377 0.143625 0.019741 -0.016387 295808.000000 1 0 0
-12.811166 10.203500 7.473229 18.002404 -0.672575 1.142717 0.018787 -0.020466 635926.000000 1 0 0
-19.674866 2.336300 6.741729 20.928678 -0.118192 1.242819 0.100727 -0.034357 497442.000000 1 0 0
-16.036666 8.452800 6.517429 19.263992 -0.485086 1.225663 0.032718 -0.023525 367538.000000 1 0 0
-12.243666 7.535700 13.521029 19.736068 -0.551722 0.816066 0.016494 -0.006181 278154.000000 1 0 0
-16.136166 8.058800 10.568329 20.904777 -0.463187 1.040781 0.041472 -0.019582 -1112690.000000 1 0 0
1.681334 11.075600 15.040929 18.754342 1.420141 0.640165 0.016178 -0.011683 -1061650.000000 1 0 0
2.009534 14.438300 12.554529 19.238476 1.432504 0.859820 0.018941 -0.010797 512887.000000 1 0 0
-3.151366 13.524400 11.644829 18.122984 -1.341868 0.872982 0.001964 -0.017227 -171839.000000 1 0 0
9.535434 4.836700 15.853229 19.121795 0.469418 0.593361 0.058750 -0.002749 159007.000000 1 0 0
-0.526566 12.564900 12.878129 18.000006 -1.528913 0.773526 0.008097 -0.007569 -434695.000000 1 0 0
3.727434 13.560200 14.536029 20.225453 1.302541 0.768866 0.037599 -0.011853 211096.000000 1 0 0
-2.795266 -4.087000 -13.735671 14.600881 0.970930 2.795610 0.005006 -0.005212 -426186.000000 1 0 0
5.700734 -11.394500 16.417729 20.781598 -1.106904 0.659966 0.018974 -0.003883 110099.000000 1 0 0
8.099834 -13.627200 7.377829 17.485430 -1.034514 1.135211 0.000899 0.000732 -70479.500000 1 0 0
-0.212666 15.466100 1.245529 15.517630 -1.557047 1.490444 -0.000592 -0.007813 -1986420.000000 1 0 0
-14.074466 8.068100 8.984929 18.544913 -0.520513 1.065010 0.024555 -0.013465 310166.000000 1 0 0
-15.374066 -9.642300 5.074129 18.843637 0.560165 1.298156 0.026266 -0.001164 -1216700.000000 1 0 0
9.719434 -11.032800 11.238529 18.506610 -0.848602 0.918175 0.024749 0.000148 127835.000000 1 0 0
-5.426066 -10.884700 -16.617571 20.592779 1.108346 2.509785 0.056015 -0.012093 77439.000000 1 0 0
-0.827766 -12.844600 -14.770371 19.591651 1.506441 2.424792 0.036846 -0.007012 31939.800000 1 0 0
5.966534 -15.793700 -11.387871 20.364775 -1.209591 2.164210 0.032206 -0.010821 83645.800000 1 0 0
1.223534 -12.437900 -16.340771 20.572291 -1.472740 2.488667 0.024914 -0.001403 301165.000000 1 0 0
1.130534 -15.161800 -13.728671 20.484987 -1.496369 2.305250 0.052854 0.024946 498665.000000 1 0 0
-6.720766 -5.983400 -14.549271 17.107047 0.727422 2.587701 0.028875 -0.002511 -45900.200000 1 0 0
-6.225166 -8.124500 -17.277571 20.081699 0.916994 2.606780 0.034265 -0.007346 6976.600000 1 0 0
-2.405566 -16.164800 -13.022971 20.897016 1.423065 2.243621 0.035498 -0.011914 362954.000000 1 0 0
16.268334 -8.113800 -8.798571 20.196715 -0.462646 2.021550 0.094840 -0.017067 45496.500000 1 0 0
18.984634 -3.148800 -3.455371 19.551748 -0.164364 1.748459 0.097967 -0.015565 151174.000000 1 0 0
15.415434 -12.267800 -8.377771 21.408446 -0.672183 1.972873 0.035125 -0.001957 -68138.400000 1 0 0
18.415934 -2.675100 -6.580071 19.738291 -0.144251 1.910668 0.173001 0.000204 -206287.000000 1 0 0
8.556634 -9.489700 -15.580471 20.149974 -0.837056 2.454708 0.055756 -0.015126 175779.000000 1 0 0
-4.868366 9.416700 -16.221671 19.378282 -1.093647 2.562767 0.009451 -0.012213 486081.000000 1 0 0
2.529834 -9.710700 -18.453171 21.005172 -1.315941 2.643522 0.048157 -0.005387 329384.000000 1 0 0
11.593834 9.590300 -14.100871 20.620994 0.691102 2.323770 0.118285 -0.043984 359552.000000 1 0 0
18.423734 -5.477500 -8.206571 20.899397 -0.288984 1.974330 0.088776 -0.018170 206866.000000 1 0 0
13.323734 5.659900 -13.662371 19.905194 0.401700 2.327285 0.099381 -0.016611 -107877.000000 1 0 0
15.849534 6.153900 -10.840871 20.164392 0.370354 2.138414 0.049422 -0.023171 275443.000000 1 0 0
3.600934 -0.435000 -19.130371 19.471185 -0.120219 2.954217 0.045796 -0.012582 205581.000000 1 0 0
10.406534 -1.645600 -15.102071 18.414030 -0.156833 2.532451 0.033786 0.007253 313823.000000 1 0 0
12.193134 -5.895000 -14.036171 19.504810 -0.450335 2.374060 0.063830 -0.001289 364390.000000 1 0 0
10.090034 6.259800 -14.098371 18.432524 0.555281 2.441626 0.040662 0.019635 457311.000000 1 0 0
11.013834 4.565900 -16.297271 20.192895 0.392995 2.509985 0.097995 -0.033371 383273.000000 1 0 0
12.163534 -9.829900 -14.641171 21.422940 -0.679688 2.323253 0.115652 -0.021091 388150.000000 1 0 0
-0.970466 2.469300 -17.507771 17.707662 -1.196328 2.991195 0.025314 -0.009951 455209.000000 1 0 0
6.595634 -1.110200 -17.033471 18.299564 -0.166760 2.767427 0.028456 0.003910 47415.500000 1 0 0
7.326234 -6.960400 -15.698571 18.669922 -0.759797 2.569645 0.034482 -0.007108 189028.000000 1 0 0
-2.264466 -4.856300 -20.337471 21.031504 1.134475 2.883977 0.029808 -0.026883 314110.000000 1 0 0
15.961934 -0.135200 -13.256871 20.749608 -0.008470 2.263860 0.100403 -0.017756 64429.400000 1 0 0
-3.924366 -0.547500 -18.461671 18.882100 0.138618 2.930173 0.014359 -0.014906 95607.600000 1 0 0
5.068634 8.580900 -17.828871 20.425267 1.037252 2.631877 0.061985 -0.014605 151177.000000 1 0 0
9.713134 -0.210900 -17.251071 19.798709 -0.021709 2.628688 0.051144 -0.007775 5318.610000 1 0 0
4.127934 4.358300 -18.355071 19.311738 0.812537 2.825515 0.031927 -0.007585 422621.000000 1 0 0
-3.143866 -10.740200 -17.567671 20.829278 1.286032 2.574400 0.039586 -0.032473 197429.000000 1 0 0
5.551134 -9.755300 -16.014671 19.556345 -1.053454 2.530286 0.016932 -0.008852 71285.300000 1 0 0
10.152634 -12.464200 -10.626271 19.270441 -0.887250 2.154872 0.027695 -0.004867 68410.200000 1 0 0
6.063734 6.503600 -17.497671 19.627383 0.820385 2.671426 0.048943 -0.006037 412477.000000 1 0 0
8.601834 1.338000 -20.022471 21.833028 0.154312 2.731472 0.073853 -0.027028 220147.000000 1 0 0
-1.200766 -0.759900 -20.247471 20.297275 0.564221 3.071525 0.034943 -0.022326 152782.000000 1 0 0
-0.684266 6.681500 -19.757571 20.867972 -1.468740 2.813905 0.032721 -0.013005 29218.000000 1 0 0
8.891634 5.535100 -18.311971 21.095657 0.556804 2.622046 0.091427 -0.024724 -39999.600000 1 0 0
11.969734 0.062500 -12.841371 17.555035 0.005221 2.391304 0.016038 -0.002197 23726.800000 1 0 0
-4.021766 -2.652200 -19.851671 20.427863 0.582998 2.903518 -0.005332 -0.014098 401125.000000 1 0 0
5.488734 -11.491600 -14.350371 19.186355 -1.125204 2.415760 0.003626 -0.004317 -28470.300000 1 0 0
11.211534 1.955700 -16.127171 19.738513 0.172699 2.527056 0.045238 -0.003932 -344223.000000 1 0 0
-2.806866 -4.254300 -17.184071 17.924002 0.987582 2.853257 0.005378 -0.008487 336976.000000 1 0 0
-6.578066 -4.614100 -17.381071 19.148433 0.611690 2.708571 0.023028 -0.015873 -26925.200000 1 0 0
2.757234 10.353500 -15.451371 18.802717 1.310528 2.535294 0.006027 -0.007083 -41281.600000 1 0 0
17.404534 -6.110600 -10.795171 21.372715 -0.337648 2.100284 0.142214 -0.014955 130306.000000 1 0 0
9.279534 -3.783800 -17.694171 20.334959 -0.387176 2.626274 0.027691 -0.021470 41870.200000 1 0 0
-7.008366 -1.525600 -19.059771 20.364663 0.214339 2.781669 0.007367 0.000979 396961.000000 1 0 0
1.568934 -7.436800 -19.453971 20.885989 -1.362876 2.769137 0.052226 -0.023845 236774.000000 1 0 0
5.189034 10.085800 -14.994171 18.800920 1.095625 2.493975 0.034455 -0.006801 486923.000000 1 0 0
6.146134 -3.850000 -17.176271 18.644617 -0.559613 2.742067 0.045864 -0.035798 241498.000000 1 0 0
4.703934 13.183100 -14.706171 20.302527 1.228063 2.380890 0.032938 -0.018040 146436.000000 1 0 0
9.111834 11.445500 -15.189571 21.089051 0.898434 2.374971 0.095280 -0.030489 159488.000000 1 0 0
17.291134 1.224100 -11.547371 20.828430 0.070676 2.158443 0.137769 -0.012673 159966.000000 1 0 0
15.106434 -2.973000 -11.986171 19.511826 -0.194320 2.232298 0.117502 -0.016166 -28363.900000 1 0 0
-8.831366 0.008100 -17.335471 19.455375 -0.000917 2.670422 0.035215 -0.011125 356654.000000 1 0 0
-3.455066 4.371200 -19.065771 19.863245 -0.901927 2.857270 0.031098 -0.011001 86339.900000 1 0 0
4.025034 1.879400 -16.789371 17.367096 0.436842 2.882936 0.019291 -0.007841 413632.000000 1 0 0
-4.749966 14.053600 -14.119671 20.480014 -1.244861 2.331507 0.024469 -0.011052 383400.000000 1 0 0
1.098234 9.109900 -17.770571 19.999740 1.450821 2.664950 0.017368 -0.014256 442081.000000 1 0 0
0.692334 -5.110700 -20.712271 21.344712 -1.436148 2.897554 0.036665 0.009232 365331.000000 1 0 0
3.634534 -5.938900 -18.319571 19.598139 -1.021609 2.778381 0.043065 -0.018197 220381.000000 1 0 0
-6.688266 7.786300 -16.354571 19.308841 -0.861113 2.581111 0.007280 0.004856 -147666.000000 1 0 0
-12.030666 3.053300 -16.723571 20.826363 -0.248545 2.503108 0.089602 -0.025022 292359.000000 1 0 0
-4.519566 7.046000 -17.995971 19.847608 -1.000464 2.706207 0.010577 0.027801 457461.000000 1 0 0
-8.345066 5.378800 -17.695371 20.290337 -0.572533 2.630291 0.027120 -0.013926 413558.000000 1 0 0
-8.533966 4.182300 -14.810071 17.597113 -0.455678 2.571071 -0.008067 -0.019956 427050.000000 1 0 0
9.508434 13.545200 -12.558571 20.774996 0.958744 2.219940 0.108700 -0.052141 554928.000000 1 0 0
14.972834 9.568200 -11.625671 21.234228 0.568630 2.150166 0.152753 -0.035988 102504.000000 1 0 0
8.802934 15.965000 -9.754371 20.676572 1.066887 2.062082 0.088461 -0.020986 -13701.700000 1 0 0
7.680834 14.112900 -14.402871 21.578041 1.072385 2.301613 0.095507 -0.032948 149659.000000 1 0 0
3.825034 15.396300 -13.061271 20.549300 1.327288 2.259590 0.032247 -0.018938 242983.000000 1 0 0
11.129934 11.675500 -10.771371 19.396267 0.809316 2.159559 0.105701 -0.044494 397688.000000 1 0 0
15.895234 10.908200 -9.158871 21.343201 0.601442 2.014319 0.096913 -0.045338 385005.000000 1 0 0
12.216334 10.314500 -9.146171 18.419559 0.701188 2.090412 0.068719 -0.054062 122583.000000 1 0 0
10.804934 11.638900 -7.645471 17.625658 0.822539 2.019468 0.074927 -0.016527 108383.000000 1 0 0
5.733234 16.978500 -10.317671 20.678341 1.245142 2.093195 0.062907 -0.005026 -47009.200000 1 0 0
11.430234 13.985400 -10.132871 20.710305 0.885597 2.082046 0.145033 -0.056891 -97661.300000 1 0 0
8.695734 -19.259900 -1.724671 21.202217 -1.146700 1.652230 0.061445 -0.013811 258732.000000 1 0 0
7.849434 -16.451100 -4.048171 18.671904 -1.125606 1.789337 0.031144 -0.024286 88898.900000 1 0 0
3.906934 -19.144300 5.730329 20.361852 -1.369483 1.285518 0.049854 -0.020349 -17819.900000 1 0 0
10.625534 -17.624500 -2.123271 20.688964 -1.028259 1.673606 0.064395 -0.022228 710950.000000 1 0 0
-3.171966 -14.975700 8.073129 17.306310 1.362074 1.085484 0.030586 -0.029356 107876.000000 1 0 0
-15.349066 -12.847300 -4.444471 20.503664 0.696903 1.789295 0.059550 -0.006059 186420.000000 1 0 0
-8.902666 -12.646700 -7.532171 17.202618 0.957423 2.024002 0.043894 -0.008041 -65197.100000 1 0 0
-11.355766 -15.410400 6.891829 20.345298 0.935739 1.225216 0.047118 -0.013266 144966.000000 1 0 0
-14.790166 -8.430700 -8.098971 18.852560 0.518084 2.014841 0.068282 -0.018307 -24036.800000 1 0 0
5.419934 -16.062800 5.270829 17.753052 -1.245371 1.269355 0.031645 -0.013831 -9190.700000 1 0 0
2.898734 -14.111800 9.109529 17.044913 -1.368202 1.006948 0.016867 -0.001545 376455.000000 1 0 0
3.508534 -17.355900 10.268029 20.468744 -1.371332 1.045298 0.042032 -0.014087 256588.000000 1 0 0
-8.651366 -17.796100 -5.011571 20.412328 1.118299 1.818849 0.062735 -0.015046 -42464.600000 1 0 0
2.278134 -19.585100 -4.034371 20.125660 -1.454997 1.772623 0.036121 -0.022604 23859.600000 1 0 0
-18.124566 -10.649300 -2.107771 21.127001 0.531223 1.670729 0.023507 -0.009312 -90852.000000 1 0 0
-4.078266 -14.804600 2.974429 15.641472 1.301991 1.379468 0.009095 -0.006269 30017.500000 1 0 0
-10.788166 -9.846600 -14.534171 20.605392 0.739800 2.353724 0.067503 -0.009766 180464.000000 1 0 0
0.668234 -20.372700 2.582429 20.546590 -1.538008 1.444777 0.032426 -0.018762 274158.000000 1 0 0
6.822234 -18.274700 0.732429 19.520348 -1.213503 1.533266 0.043238 -0.017894 155888.000000 1 0 0
-6.865266 -17.634700 -3.140871 19.182794 1.199544 1.735271 0.004168 -0.057776 68974.200000 1 0 0
-9.257166 -15.915000 -7.576871 19.909578 1.043969 1.961203 0.078327 -0.011473 -39553.500000 1 0 0
-11.886466 -11.295300 -12.207871 20.442700 0.759902 2.210771 0.067950 -0.011214 417471.000000 1 0 0
-13.139166 -15.112200 -3.369271 20.306852 0.855123 1.737485 0.055821 -0.013373 250669.000000 1 0 0
-0.138966 -20.596000 -2.796571 20.785459 1.564049 1.705750 0.052320 -0.017218 415212.000000 1 0 0
-11.899366 -16.711000 -0.734371 20.527828 0.952017 1.606578 0.063201 -0.019444 223217.000000 1 0 0
0.942634 -20.233800 5.166129 20.904165 -1.524243 1.321075 0.055072 -0.028030 111113.000000 1 0 0
-18.060466 -8.962800 2.677529 20.339159 0.460656 1.438769 0.040770 -0.003470 -74601.800000 1 0 0
-14.942666 -14.953200 -0.501871 21.145527 0.785751 1.594533 0.065978 -0.011086 60335.300000 1 0 0
10.593734 -15.241700 -5.115871 19.253798 -0.963401 1.839734 0.023380 -0.007713 -95564.400000 1 0 0
0.203734 -18.781500 -7.095471 20.078146 -1.559949 1.931992 0.044416 -0.018452 70515.700000 1 0 0
-10.420066 -18.743600 -1.971271 21.535696 1.063414 1.662460 0.070340 0.042736 697634.000000 1 0 0
-14.926566 -7.077200 -11.339171 20.036614 0.442742 2.172348 0.084551 -0.023966 98628.000000 1 0 0
-11.979066 -15.397400 2.351529 19.649622 0.909619 1.450836 0.051412 -0.014502 293189.000000 1 0 0
-2.485466 -16.320300 10.045529 19.324657 1.419665 1.024145 0.031545 -0.022133 493309.000000 1 0 0
-12.110366 -14.957500 -6.747771 20.394121 0.890198 1.908020 0.054162 -0.003971 163832.000000 1 0 0
5.098934 -16.952100 -7.421271 19.195001 -1.278620 1.967766 0.019776 -0.018838 -4496.170000 1 0 0
-17.374366 -7.422700 -3.111471 19.148011 0.403751 1.734016 -0.009963 -0.013188 -69390.100000 1 0 0
-12.324266 -13.572000 -8.762171 20.319014 0.833543 2.016652 0.098810 -0.040914 202823.000000 1 0 0
-7.685166 -14.063100 10.110429 18.948703 1.070662 1.007982 0.031620 -0.005689 575702.000000 1 0 0
-15.828466 -8.355600 -5.701471 18.784652 0.485705 1.879178 0.050699 -0.008218 207634.000000 1 0 0
-0.869866 -19.540400 0.499929 19.566140 1.526309 1.545243 0.017647 -0.012631 265575.000000 1 0 0
-15.078166 -11.462100 -1.875271 19.032800 0.649984 1.669485 0.026564 0.005127 73617.600000 1 0 0
-6.737266 -19.225900 2.704929 20.550976 1.233742 1.438793 0.026544 -0.021239 231129.000000 1 0 0
-1.976966 -20.523800 -5.528871 21.347205 1.474767 1.832780 0.059109 -0.015007 132354.000000 1 0 0
-8.932366 -19.572100 -0.390271 21.517587 1.142647 1.588935 0.046944 -0.027633 164205.000000 1 0 0
-17.800666 -7.059000 5.486629 19.919746 0.377536 1.291752 0.056627 -0.007487 55107.500000 1 0 0
-2.525466 -15.568200 -10.592771 18.998779 1.409978 2.162228 0.024369 -0.009400 122339.000000 1 0 0
-3.028666 -18.361700 -7.727171 20.150285 1.407323 1.964354 0.030916 -0.010859 269290.000000 1 0 0
4.680334 -17.646000 -4.946771 18.914475 -1.311531 1.835407 0.015169 -0.006033 773969.000000 1 0 0
1.001534 -17.204800 -9.719971 19.786006 -1.512649 2.084326 0.032587 -0.010038 75440.600000 1 0 0
-7.674966 -10.074100 -14.704071 19.406243 0.919753 2.430575 0.044780 -0.008936 462616.000000 1 0 0
-4.714266 -19.713600 -1.850871 20.353772 1.336067 1.661857 0.039458 -0.020530 421217.000000 1 0 0
-9.917466 -16.119900 8.554329 20.769782 1.019253 1.146297 0.038664 -0.013298 133804.000000 1 0 0
-7.394866 -14.796300 -10.259271 19.464510 1.107326 2.125952 0.058647 -0.020796 318670.000000 1 0 0
-12.600166 -8.019800 -12.739971 19.631307 0.566815 2.277016 0.069275 -0.011447 307736.000000 1 0 0
-15.423266 -13.099400 3.234929 20.492344 0.704103 1.412273 0.043392 -0.006592 138889.000000 1 0 0
-5.833766 -14.348300 -13.358471 20.453735 1.184628 2.282476 0.014999 -0.000399 313609.000000 1 0 0
-14.314766 -11.675200 -6.771371 19.674203 0.684184 1.922156 0.075977 -0.017086 128032.000000 1 0 0
-11.605366 -10.720100 -8.048171 17.730711 0.745766 2.041946 0.049658 -0.013586 166170.000000 1 0 0
-9.605966 -15.116600 3.555229 18.259951 1.004712 1.374844 0.009952 0.003960 339796.000000 1 0 0
4.848434 -18.118000 8.431229 20.563435 -1.309320 1.148330 0.045708 -0.025646 170422.000000 1 0 0
-4.852566 -16.664200 5.487229 18.203094 1.287435 1.264589 0.011492 0.000494 368256.000000 1 0 0
-18.112466 -7.639300 -6.617971 20.741694 0.399132 1.895540 0.050082 -0.033379 75987.600000 1 0 0
-17.078666 -3.633500 -10.925671 20.597413 0.209625 2.129915 0.081092 -0.017293 -228789.000000 1 0 0
-15.869466 -4.064500 -12.733071 20.748282 0.250731 2.231526 0.084350 -0.023648 294018.000000 1 0 0
-19.508666 -5.358500 -6.113071 21.134597 0.268062 1.864234 0.071122 -0.017510 -89714.600000 1 0 0
5.507634 -13.687900 8.814729 17.186974 -1.188246 1.032269 0.018785 0.003001 312233.000000 1 0 0
20.060834 -2.727500 2.667229 20.420344 -0.135133 1.439806 0.096592 -0.025458 -51238.500000 1 0 0
18.285434 -2.513000 0.163029 18.458029 -0.136576 1.561964 0.053154 -0.018160 451969.000000 1 0 0
14.241834 -11.053800 0.369929 18.032004 -0.660028 1.550280 0.040719 -0.007968 67287.900000 1 0 0
11.213434 -13.661700 5.218929 18.428792 -0.883504 1.283673 0.030400 -0.012573 386113.000000 1 0 0
10.222034 -12.629200 8.246529 18.220645 -0.890352 1.101126 0.027902 -0.028999 -49847.000000 1 0 0
17.728834 4.724500 -4.575971 18.909573 0.260434 1.815215 0.011723 0.005037 -35658.600000 1 0 0
18.762834 -6.065000 -4.546671 20.236116 -0.312644 1.797412 0.069759 -0.014466 -155269.000000 1 0 0
17.851534 -9.912200 -0.008971 20.418841 -0.506871 1.571236 0.055573 -0.005598 315938.000000 1 0 0
17.721334 -8.580300 8.440429 21.422140 -0.450911 1.165811 0.142929 -0.037182 60249.400000 1 0 0
19.968934 0.193700 -2.173471 20.087803 0.009700 1.679207 0.115047 -0.006772 38628.600000 1 0 0
7.819434 -12.971300 11.371429 18.939577 -1.028302 0.926788 0.021360 -0.003062 405632.000000 1 0 0
16.542534 -6.527600 -3.393471 18.104713 -0.375838 1.759347 0.079042 -0.008015 114623.000000 1 0 0
14.645634 -6.749300 11.917929 20.052049 -0.431832 0.934340 0.090126 -0.038088 460172.000000 1 0 0
17.135934 1.172900 9.441629 19.600008 0.068340 1.068185 0.169431 -0.042077 369726.000000 1 0 0
16.931734 -10.171100 2.749329 19.942259 -0.540943 1.432491 0.048997 -0.012662 240692.000000 1 0 0
16.356934 -7.193700 -5.739571 18.768092 -0.414335 1.881591 0.079425 -0.009669 141384.000000 1 0 0
17.871134 -4.142700 5.951629 19.286298 -0.227786 1.257082 0.093889 -0.030278 33603.700000 1 0 0
13.216234 -13.490400 7.984229 20.503845 -0.795664 1.170815 0.062837 -0.025176 212881.000000 1 0 0
15.581034 -13.888900 -1.371671 20.917735 -0.728042 1.636418 0.053888 -0.010688 231605.000000 1 0 0
18.606434 -6.015600 7.418529 20.914622 -0.312700 1.208197 0.155751 -0.044750 238888.000000 1 0 0
19.483534 3.568900 2.508029 19.965855 0.181167 1.444848 0.074864 -0.010480 40353.800000 1 0 0
15.992334 -10.605400 8.130829 20.840817 -0.585568 1.170013 0.096408 -0.038333 481233.000000 1 0 0
14.160334 -4.122200 10.764129 18.258534 -0.283280 0.940308 0.068854 -0.018867 -102780.000000 1 0 0
18.791534 -7.827500 1.927729 20.447681 -0.394687 1.476380 0.088237 -0.020791 133716.000000 1 0 0
19.386834 -5.801000 -1.111971 20.266658 -0.290744 1.625691 0.086965 -0.017641 269990.000000 1 0 0
14.866834 -13.307700 -6.174071 20.886282 -0.730116 1.870884 0.062345 -0.022795 530976.000000 1 0 0
13.902034 -9.711000 10.604329 20.000547 -0.609739 1.011958 0.047974 -0.011641 368504.000000 1 0 0
14.408734 2.432900 0.702729 14.629574 0.167271 1.522743 0.008185 -0.002554 -95896.500000 1 0 0
12.998334 2.582800 13.536229 18.943523 0.196148 0.774805 0.072255 -0.016957 117641.000000 1 0 0
18.505634 -3.405100 8.972429 20.846047 -0.181968 1.125845 0.143966 -0.038811 311300.000000 1 0 0
8.049534 -18.988000 4.996429 21.220354 -1.169835 1.333110 0.084716 -0.032022 221476.000000 1 0 0
13.393234 -2.605900 14.885229 20.192560 -0.192167 0.741933 0.099426 -0.016873 474794.000000 1 0 0
11.544134 -13.561000 -7.021371 19.143338 -0.865563 1.946340 0.028015 -0.012950 162487.000000 1 0 0
10.867634 -17.215300 4.930029 20.947009 -1.007695 1.333210 0.076778 -0.035779 478518.000000 1 0 0
18.472334 -0.127100 -4.981471 19.132651 -0.006880 1.834196 0.101513 -0.005652 260160.000000 1 0 0
4.339134 -13.500700 11.775929 18.432837 -1.259823 0.877786 0.005021 0.004143 -94711.200000 1 0 0
9.647234 -2.793500 14.882129 17.954123 -0.281856 0.593662 0.055285 -0.008724 542822.000000 1 0 0
9.218834 -9.103700 13.885329 18.991225 -0.779114 0.750798 0.050048 -0.022041 432395.000000 1 0 0
21.084734 5.789300 -2.955071 22.063872 0.267969 1.705133 0.163322 0.002612 511289.000000 1 0 0
14.751734 -13.689100 2.056329 20.229523 -0.748053 1.468971 0.038682 -0.005428 165214.000000 1 0 0
11.406434 -0.195600 15.131529 18.950150 -0.017147 0.646011 0.074046 -0.020255 -86925.200000 1 0 0
19.972734 -0.081900 7.715529 21.411357 -0.004101 1.202156 0.186104 -0.035018 178448.000000 1 0 0
20.008134 1.138600 0.388029 20.044261 0.056846 1.551436 0.093726 -0.013266 214959.000000 1 0 0
17.951934 0.481500 2.942029 18.197783 0.026815 1.408414 0.053501 -0.010042 -49258.600000 1 0 0
10.504134 -8.047700 16.508229 21.157125 -0.653755 0.675702 0.072276 -0.021957 105644.000000 1 0 0
18.881934 3.141600 5.855529 20.017100 0.164871 1.273929 0.064821 -0.005192 45750.200000 1 0 0
15.458934 2.388200 6.977029 17.127787 0.153275 1.151244 0.067792 -0.013642 23427.000000 1 0 0
11.364134 -16.002100 2.032629 19.731759 -0.953281 1.467600 0.036896 -0.015374 246908.000000 1 0 0
7.415534 -17.023700 6.598929 19.706404 -1.159981 1.229337 0.004784 -0.002089 302576.000000 1 0 0
6.075134 6.851100 7.085229 11.577794 0.845357 0.912251 0.002123 0.000667 -1224500.000000 1 0 0
18.435134 2.740200 -6.548871 19.754761 0.147560 1.908698 0.078431 -0.003521 210728.000000 1 0 0
14.130534 4.596100 -7.094971 16.466170 0.314467 2.016266 0.013252 -0.006148 209724.000000 1 0 0
-10.456766 -3.875900 -13.888271 17.811530 0.354960 2.465039 0.023521 -0.003958 -229798.000000 1 0 0
7.854934 -14.223500 -10.337171 19.257856 -1.066227 2.137409 0.011983 -0.001541 -84586.800000 1 0 0
2.078934 -15.653000 13.957629 21.074956 -1.438755 0.846932 0.016764 -0.010776 520446.000000 1 0 0
-9.548766 -8.123600 2.334029 12.752235 0.704929 1.386730 -0.000583 0.002495 527679.000000 1 0 0
-13.683966 3.141100 -9.640271 17.030921 -0.225637 2.172497 0.004782 -0.002571 464859.000000 1 0 0
-12.785066 -5.130000 -13.174471 19.061518 0.381583 2.333883 0.044165 -0.005479 122924.000000 1 0 0
-18.063366 -1.310200 -8.235571 19.895387 0.072407 1.997578 0.075282 -0.033803 377875.000000 1 0 0
-12.275766 15.135900 4.125529 19.920088 -0.889362 1.362183 0.037387 -0.018950 478553.000000 1 0 0
-17.552966 5.982100 9.635829 20.898357 -0.328458 1.091584 0.057059 -0.032590 179543.000000 1 0 0
-13.257766 14.995800 0.415529 20.020366 -0.846836 1.550040 0.056278 -0.036847 185856.000000 1 0 0
-15.565466 5.266800 -10.800771 19.664170 -0.326272 2.152277 0.007685 -0.006466 131416.000000 1 0 0
-18.610166 2.745400 -0.327871 18.814436 -0.146465 1.588224 0.083005 -0.009438 17013.100000 1 0 0
-9.834766 15.388900 -0.291371 18.265426 -1.002135 1.586749 0.028544 -0.008008 -31508.800000 1 0 0
-18.360566 12.101800 2.660829 22.150485 -0.582759 1.450380 0.144782 -0.040871 135266.000000 1 0 0
-9.060566 16.072000 -7.571671 19.943251 -1.057459 1.960226 0.078198 -0.037644 -148314.000000 1 0 0
-15.092666 -1.993600 -12.962871 19.994975 0.131330 2.276154 0.068231 -0.019320 139062.000000 1 0 0
-19.304366 4.715100 -4.790871 20.441212 -0.239560 1.807370 0.104213 -0.008866 -126627.000000 1 0 0
-16.941366 9.649800 -5.591371 20.282799 -0.517766 1.850084 0.049253 0.009116 117239.000000 1 0 0
-19.057166 1.371400 2.035929 19.214612 -0.071839 1.464640 0.076821 -0.020317 456228.000000 1 0 0
-14.888366 11.479600 -7.671871 20.305227 -0.656834 1.958245 0.056684 -0.010211 191008.000000 1 0 0
-12.905966 5.002000 -13.542771 19.364674 -0.369748 2.345290 0.033723 -0.013824 144768.000000 1 0 0
-14.244666 9.255300 -6.528371 18.198646 -0.576191 1.937702 0.029296 -0.008142 208121.000000 1 0 0
-6.411266 11.184900 -15.613571 20.248208 -1.050310 2.451377 0.027397 -0.032854 119691.000000 1 0 0
-15.250066 13.916600 3.258529 20.901060 -0.739711 1.414255 0.056693 -0.024499 24453.600000 1 0 0
-18.907566 8.481700 -4.587971 21.224626 -0.421679 1.788679 0.088734 -0.010158 53234.100000 1 0 0
-4.821766 16.493200 -10.793571 20.292271 -1.286374 2.131646 0.033058 -0.000386 97024.300000 1 0 0
-19.432366 -2.736200 -6.246771 20.594314 0.139887 1.878976 0.051858 -0.015855 -47881.900000 1 0 0
-12.236866 13.817000 -6.769071 19.658858 -0.845973 1.922318 0.070317 -0.005005 168644.000000 1 0 0
-18.987666 3.234800 3.928429 19.657771 -0.168743 1.369601 0.063236 -0.024375 -11231.500000 1 0 0
-15.237466 11.978100 0.456429 19.387202 -0.666205 1.547251 0.034207 -0.020721 139377.000000 1 0 0
-16.636066 1.969100 -8.533871 18.800612 -0.117815 2.041950 -0.004650 -0.015379 245372.000000 1 0 0
-17.028466 13.706700 -3.540771 22.144510 -0.677739 1.731379 0.070364 0.025396 293457.000000 1 0 0
-10.637566 15.588500 -8.672571 20.769512 -0.971982 2.001557 0.045117 -0.015000 -36653.300000 1 0 0
-19.433466 1.279200 -6.908071 20.664399 -0.065730 1.911657 0.090217 -0.025365 49529.600000 1 0 0
-17.701666 10.109900 -0.637871 20.395243 -0.518919 1.602077 0.075712 -0.015166 -60749.100000 1 0 0
-11.766166 6.789400 -14.710271 20.023253 -0.523357 2.395961 0.027605 -0.011044 350027.000000 1 0 0
-14.015766 12.150100 -5.080971 19.232340 -0.714217 1.838159 0.053152 -0.015810 374219.000000 1 0 0
-19.012866 7.563100 0.125429 20.462289 -0.378598 1.564667 0.088913 -0.016479 -16903.700000 1 0 0
-14.176966 9.123300 -11.103771 20.186993 -0.571813 2.153215 0.002562 0.013184 456804.000000 1 0 0
-18.291866 11.382000 5.050729 22.128085 -0.556615 1.340517 0.069454 -0.045430 75599.900000 1 0 0
-8.202666 12.149900 -13.618771 20.009366 -0.976963 2.319405 0.009452 -0.002918 559062.000000 1 0 0
-21.129666 -1.434700 -5.449571 21.868218 0.067796 1.822651 0.077995 -0.024466 191844.000000 1 0 0
-10.829066 13.497100 -3.660471 17.687267 -0.894639 1.779258 0.034730 0.005886 394966.000000 1 0 0
-18.640566 -4.599300 3.565329 19.527822 0.241904 1.387190 0.046806 -0.016172 -91870.800000 1 0 0
-11.590866 11.645100 -13.041771 20.977233 -0.787732 2.241721 0.051819 -0.009334 254704.000000 1 0 0
-14.968566 11.223200 -10.320671 21.366666 -0.643363 2.074904 0.039456 -0.020914 272007.000000 1 0 0
-12.883266 9.605800 -14.020571 21.326658 -0.640681 2.288186 0.068251 -0.022116 326364.000000 1 0 0
-18.325366 -4.996500 -3.152671 19.254178 0.266185 1.735277 0.013441 -0.015052 -201230.000000 1 0 0
-10.040366 12.607300 -11.251571 19.655809 -0.898259 2.180262 0.050543 -0.016143 72764.800000 1 0 0
-15.207466 7.740800 -8.315871 18.982642 -0.470832 2.024255 -0.004635 0.000635 -36110.100000 1 0 0
-14.918566 8.780500 2.186729 17.448283 -0.531967 1.445140 0.032510 -0.009904 -76706.200000 1 0 0
-19.796666 6.184900 8.100629 22.266144 -0.302813 1.198442 0.095754 -0.034002 215129.000000 1 0 0
-18.997266 6.144600 4.222129 20.407807 -0.312826 1.362403 0.057831 -0.014844 79598.000000 1 0 0
-14.703366 12.788300 5.799029 20.331216 -0.715851 1.281552 0.044346 -0.023944 -40462.600000 1 0 0
18.044734 6.117300 5.424929 19.810695 0.326849 1.293415 0.072439 -0.022844 280077.000000 1 0 0
18.500434 8.291100 0.286129 20.275361 0.421320 1.556684 0.051934 0.004670 84636.400000 1 0 0
15.998334 5.341800 8.955429 19.096629 0.322258 1.082691 0.061064 0.005291 28934.500000 1 0 0
12.636134 12.579600 10.917629 20.907244 0.783156 1.021375 0.072427 -0.025607 161569.000000 1 0 0
15.474734 12.399200 3.858229 20.201324 0.675505 1.378627 0.069572 -0.017426 205952.000000 1 0 0
4.862634 10.193800 14.371429 18.278314 1.125702 0.666071 0.043593 -0.016673 260454.000000 1 0 0
12.269234 14.692100 -4.822171 19.739434 0.875022 1.817585 0.070657 0.013032 277619.000000 1 0 0
17.772834 9.332300 -2.899871 20.282374 0.483516 1.714263 0.026031 -0.008521 -51621.800000 1 0 0
14.302134 7.754500 9.385229 18.782062 0.496829 1.047554 0.051314 -0.016446 103473.000000 1 0 0
4.508534 19.363900 -1.923171 19.974636 1.342040 1.667226 0.034753 -0.019881 618776.000000 1 0 0
-4.392166 18.906300 2.880929 19.622412 -1.342533 1.423445 0.000526 -0.020577 238830.000000 1 0 0
8.142434 13.513800 12.215329 19.953353 1.028521 0.911964 0.080606 0.001262 35226.800000 1 0 0
0.434834 16.795900 -10.230371 19.671091 1.544913 2.117731 0.012441 0.004926 69077.700000 1 0 0
10.604834 9.417400 15.835329 21.258118 0.726162 0.730400 0.067425 -0.019438 46095.800000 1 0 0
-1.513966 12.588200 0.285529 12.682129 -1.451103 1.548280 -0.007781 0.003300 576491.000000 1 0 0
-4.906766 19.153400 -2.594271 19.941398 -1.320007 1.701261 0.019793 -0.002696 78571.100000 1 0 0
5.659434 18.472900 6.326129 20.329711 1.273511 1.254366 0.035316 -0.012649 190044.000000 1 0 0
11.127634 17.401700 -1.398471 20.702636 1.001869 1.638398 0.088973 -0.025631 499107.000000 1 0 0
18.542134 10.479100 3.043229 21.514728 0.514401 1.428872 0.077040 -0.019161 381183.000000 1 0 0
11.726534 16.677000 6.640529 21.441329 0.957955 1.255911 0.053439 -0.008962 -6280.920000 1 0 0
18.063034 8.054500 -6.024471 20.674681 0.419448 1.866480 0.042799 0.018277 234206.000000 1 0 0
0.059034 15.496000 11.089429 19.055313 1.566987 0.949660 0.010165 -0.000807 355324.000000 1 0 0
1.137934 20.368200 -1.581671 20.461187 1.514986 1.648175 0.029126 -0.013347 195193.000000 1 0 0
13.971334 9.733400 -1.325571 17.079063 0.608487 1.648488 0.028115 -0.013021 -282357.000000 1 0 0
10.083934 17.007200 1.923329 19.865291 1.035598 1.473826 0.051986 -0.031546 322238.000000 1 0 0
-0.069166 18.109200 -0.648271 18.120932 -1.566977 1.606579 0.005072 0.001044 -7211.270000 1 0 0
-0.499466 21.199400 1.252229 21.242225 -1.547240 1.511812 0.019979 -0.009543 233465.000000 1 0 0
5.891334 17.100700 -0.333571 18.090136 1.239022 1.589237 0.025209 -0.039286 2035.790000 1 0 0
6.274834 18.512900 -2.874871 19.757680 1.244005 1.716821 0.041902 -0.027284 -68677.400000 1 0 0
10.004134 9.626300 12.671429 18.796635 0.766153 0.831006 0.026287 -0.012201 132123.000000 1 0 0
12.337534 14.629500 8.320729 20.867955 0.870186 1.160662 0.059848 -0.027619 318611.000000 1 0 0
0.304734 17.422700 6.944229 18.758083 1.553307 1.191573 0.005683 -0.005223 211931.000000 1 0 0
7.348434 18.193400 -7.666271 21.065873 1.186927 1.943268 0.068997 -0.014118 171860.000000 1 0 0
-1.060666 18.561300 9.226729 20.755226 -1.513714 1.110125 0.023466 -0.008744 257231.000000 1 0 0
16.107634 7.139300 -7.943571 19.326815 0.417205 1.994361 0.056796 0.003858 -221027.000000 1 0 0
-5.432966 19.670000 -6.755171 21.495543 -1.301310 1.890472 0.030943 -0.017662 280835.000000 1 0 0
4.634334 15.795100 10.388429 19.464884 1.285403 1.007825 0.032326 -0.003520 168718.000000 1 0 0
9.114634 14.803400 7.460229 18.917511 1.018904 1.165430 0.023209 -0.008246 149150.000000 1 0 0
-2.414066 19.154900 6.556129 20.389231 -1.445429 1.243432 0.000483 -0.001700 124720.000000 1 0 0
4.414834 17.843100 8.437329 20.225121 1.328242 1.140466 0.025320 -0.013360 190552.000000 1 0 0
15.337034 11.823100 -6.784871 20.519376 0.656735 1.907796 0.110248 -0.032707 47312.300000 1 0 0
12.091934 7.201600 15.234129 20.740217 0.537156 0.745835 0.099540 -0.022962 291575.000000 1 0 0
17.052234 9.740400 4.881829 20.235769 0.518981 1.327145 0.071893 -0.020736 152338.000000 1 0 0
5.351434 14.785400 13.019729 20.414682 1.223524 0.879206 0.038134 -0.005640 219042.000000 1 0 0
15.777834 10.919000 -3.469371 19.498747 0.605368 1.749677 0.058984 -0.028722 243087.000000 1 0 0
15.288334 13.499800 6.345129 21.359739 0.723350 1.269184 0.083062 -0.020584 557975.000000 1 0 0
12.489134 13.377200 -7.750771 19.874667 0.819718 1.971409 0.154964 -0.063722 246279.000000 1 0 0
-8.588266 15.719900 9.504229 20.278164 -1.070775 1.082986 0.046741 -0.023595 155506.000000 1 0 0
-3.508266 17.351500 -7.915271 19.391596 -1.371298 1.991256 0.012753 0.022751 -198829.000000 1 0 0
1.721934 19.366600 -4.374471 19.929030 1.482117 1.792101 0.027811 -0.031903 121821.000000 1 0 0
7.103534 16.667900 8.768129 20.128566 1.167926 1.120085 0.035283 -0.011798 559525.000000 1 0 0
13.139634 15.632400 -1.634771 20.486444 0.871821 1.650679 0.108104 -0.032515 242680.000000 1 0 0
12.794534 16.536400 4.531029 21.393524 0.912287 1.357386 0.081133 -0.031851 411230.000000 1 0 0
2.374434 18.212700 0.734729 18.381518 1.441155 1.530815 0.017758 -0.027839 118737.000000 1 0 0
-7.189566 17.811400 1.255929 19.248719 -1.187148 1.505503 -0.001600 0.018118 268409.000000 1 0 0
0.067834 20.029500 -6.057671 20.925603 1.567410 1.864486 0.049535 0.004866 292095.000000 1 0 0
-7.745066 17.954600 -6.024171 20.460800 -1.163543 1.869650 0.064272 -0.031505 -21094.800000 1 0 0
-7.588866 18.501000 -1.772871 20.075382 -1.181539 1.659222 0.047186 -0.011133 30013.300000 1 0 0
-14.399466 -8.966100 8.754429 19.088625 0.556921 1.094354 0.056220 -0.015444 358531.000000 1 0 0
-13.232666 -13.826000 7.411329 20.522902 0.807322 1.201322 0.054424 -0.004385 33130.500000 1 0 0
-3.545066 -15.984600 12.726529 20.737393 1.352549 0.910058 0.044827 -0.007476 15888.700000 1 0 0
-1.872066 -15.059900 15.190329 21.472106 1.447123 0.784920 0.034779 -0.010756 488468.000000 1 0 0
-7.484166 -13.767700 13.500229 20.683774 1.072878 0.859658 0.032776 -0.006933 314853.000000 1 0 0
-10.007966 -10.653400 12.021129 18.925165 0.816627 0.882538 0.054206 -0.017118 -111970.000000 1 0 0
-7.376466 -10.546000 13.084229 18.352859 0.960435 0.777134 0.033423 -0.008393 473041.000000 1 0 0
-14.995266 -12.217100 7.989429 20.927172 0.683659 1.179082 0.056240 0.003181 364893.000000 1 0 0
-4.503966 -12.622700 13.151529 18.777140 1.228063 0.794837 0.029588 -0.010489 444535.000000 1 0 0
4.034034 -13.113500 14.193129 19.740370 -1.272359 0.768448 0.008457 0.025824 478749.000000 1 0 0
6.695634 -13.406500 15.321529 21.431636 -1.107603 0.774312 0.031538 0.017099 262791.000000 1 0 0
7.380734 -8.717600 16.665529 20.204248 -0.868252 0.600855 0.053847 -0.020120 520979.000000 1 0 0
-5.209466 13.569100 13.117229 19.578578 -1.204227 0.836616 0.018649 -0.014019 411894.000000 1 0 0
-13.658866 -1.468800 17.197629 22.010917 0.107123 0.674014 0.077723 -0.031979 348148.000000 1 0 0
-10.448266 10.742600 13.785529 20.361988 -0.799287 0.827087 0.029803 0.027649 552801.000000 1 0 0
-7.336166 -8.288300 17.123029 20.389050 0.846262 0.573854 0.052024 -0.022650 163477.000000 1 0 0
-5.065166 2.354700 18.091429 18.934105 -0.435160 0.299466 0.026509 -0.014435 491537.000000 1 0 0
-15.162166 -3.617900 14.918129 21.576169 0.234234 0.807348 0.073987 -0.023206 148267.000000 1 0 0
-14.626566 2.969400 12.692129 19.591935 -0.200292 0.866072 0.034645 0.002581 286972.000000 1 0 0
-14.419966 10.536600 9.261029 20.117704 -0.631031 1.092416 -0.002121 -0.019072 -268637.000000 1 0 0
-4.137466 11.361000 15.638029 19.767117 -1.221544 0.658169 0.004797 -0.008844 76679.500000 1 0 0
-13.223766 12.909700 7.487229 19.939583 -0.773381 1.185865 0.041237 -0.042882 125763.000000 1 0 0
-3.635266 -6.466500 18.665529 20.085636 1.058658 0.378290 0.033879 -0.018227 153893.000000 1 0 0
0.706934 -2.714500 18.007329 18.224494 -1.316027 0.154530 0.018999 -0.018655 107988.000000 1 0 0
-4.712266 6.563700 20.786429 22.301642 -0.948139 0.370743 0.052684 -0.023073 443094.000000 1 0 0
2.201934 -10.668000 16.662229 19.906899 -1.367249 0.579005 0.008501 0.000860 449072.000000 1 0 0
-15.028666 -0.287600 13.583829 20.259910 0.019134 0.835943 0.037562 -0.011621 -37200.400000 1 0 0
-13.751166 -6.263000 8.411529 17.293743 0.427379 1.062841 0.030684 0.001233 -36766.400000 1 0 0
10.063534 1.966500 16.398429 19.340381 0.192977 0.558812 0.064712 -0.014396 428297.000000 1 0 0
-7.805566 12.270100 11.761429 18.703300 -1.004223 0.890733 0.031218 -0.021062 84548.000000 1 0 0
-1.602766 7.507000 19.849829 21.282379 -1.360452 0.369000 0.034926 -0.021613 502464.000000 1 0 0
1.165534 -13.643100 15.496529 20.679339 -1.485573 0.723682 0.006593 -0.005388 442333.000000 1 0 0
-3.561966 -11.501400 17.654629 21.369505 1.270466 0.598538 0.051265 -0.020820 510405.000000 1 0 0
-2.224766 8.826900 16.646029 18.972455 -1.323895 0.500425 0.016795 -0.014851 484369.000000 1 0 0
-3.693266 -9.284500 20.207129 22.542631 1.192198 0.459225 0.046403 -0.038122 246105.000000 1 0 0
-6.599466 -2.687000 19.338529 20.609504 0.386658 0.353026 0.037748 -0.018975 116948.000000 1 0 0
-10.849966 -7.844100 16.375729 21.152214 0.625970 0.685370 0.085656 -0.032304 65616.500000 1 0 0
-0.348966 6.360500 17.842529 18.945543 -1.515987 0.342911 0.017552 -0.017371 75461.400000 1 0 0
-6.275166 -11.086300 18.872629 22.769714 1.055730 0.593751 0.095237 -0.029766 434079.000000 1 0 0
0.152734 3.561700 18.659929 18.997421 1.527940 0.188775 0.018744 -0.015846 98613.300000 1 0 0
-18.546966 -0.050400 7.484629 20.000304 0.002717 1.187235 0.086089 -0.026522 142237.000000 1 0 0
-1.615266 -8.797000 17.474229 19.630206 1.389204 0.473077 0.030008 -0.012678 202709.000000 1 0 0
5.176034 3.345000 13.913429 15.217223 0.573733 0.416968 0.031826 -0.016652 -321081.000000 1 0 0
-14.758266 -7.770900 11.040029 20.001889 0.484658 0.986096 0.099742 0.017792 311973.000000 1 0 0
3.742834 8.227400 16.515129 18.826801 1.143856 0.500769 0.035940 -0.023966 176516.000000 1 0 0
6.198334 4.342900 16.804229 18.429928 0.611166 0.423174 0.070036 -0.055717 118803.000000 1 0 0
6.008134 -8.823200 18.402729 21.274562 -0.972972 0.525624 0.054621 0.001443 303506.000000 1 0 0
-4.471266 -0.428500 19.687529 20.193431 0.095542 0.224313 0.021834 -0.021221 813725.000000 1 0 0
-11.329366 1.901200 16.885229 20.422538 -0.166263 0.597412 0.045662 -0.022226 244525.000000 1 0 0
-16.536066 -4.578200 8.800929 19.283613 0.270096 1.096858 0.063834 -0.013928 62019.400000 1 0 0
-12.778666 -8.511500 14.006429 20.782685 0.587590 0.831258 0.051231 -0.039026 72420.200000 1 0 0
-14.820866 6.284100 12.988629 20.684595 -0.401026 0.891896 0.035154 -0.014345 322173.000000 1 0 0
1.123434 9.049800 16.905729 19.208453 1.447289 0.494683 0.016725 -0.027181 117113.000000 1 0 0
-3.899566 -10.516200 14.848229 18.608251 1.215700 0.646930 0.026274 -0.012636 658673.000000 1 0 0
-18.697366 -3.016400 6.502329 20.024247 0.159949 1.240078 0.140979 -0.021225 -254804.000000 1 0 0
-0.796566 -0.482200 21.074329 21.094890 0.544343 0.044155 0.032965 -0.017735 410467.000000 1 0 0
-1.817166 2.716000 20.083829 20.347947 -0.981139 0.161296 0.024762 -0.024770 -217750.000000 1 0 0
-8.009366 2.035600 16.496929 18.451078 -0.248883 0.464400 0.004245 0.009800 604043.000000 1 0 0
2.882034 -2.257200 18.776229 19.129764 -0.664411 0.192552 0.031153 -0.014502 -198075.000000 1 0 0
-12.089966 3.954400 14.803029 19.517537 -0.316113 0.709868 -0.013422 0.005335 107023.000000 1 0 0
-13.580566 -5.243000 13.141529 19.611747 0.368437 0.836474 0.067621 -0.022936 -36959.400000 1 0 0
-17.220966 -1.292700 9.783229 19.848031 0.074925 1.055369 0.073659 -0.018921 231432.000000 1 0 0
-7.840366 7.420700 14.794029 18.313968 -0.757906 0.630386 0.016013 -0.013536 125294.000000 1 0 0
-9.347266 0.836400 14.018729 16.869965 -0.089243 0.589916 0.007072 -0.007941 99231.400000 1 0 0
8.212934 -0.721600 14.810529 16.950657 -0.087636 0.507950 0.050452 -0.020684 197982.000000 1 0 0
3.609934 5.914200 18.393229 19.655032 1.022776 0.360267 0.028215 -0.024750 42178.800000 1 0 0
2.017634 0.666400 19.701529 19.815781 0.319007 0.107436 0.039599 -0.024264 259227.000000 1 0 0
-7.056566 6.578600 17.492029 19.976091 -0.750359 0.504020 0.017199 -0.014996 512789.000000 1 0 0
7.550434 -3.189700 17.065929 18.932226 -0.399711 0.447753 0.036506 -0.006051 329149.000000 1 0 0
-17.015366 2.196400 9.239229 19.486154 -0.128373 1.076806 0.069903 -0.012470 366061.000000 1 0 0
4.504834 -5.041700 18.991329 20.158940 -0.841576 0.342018 0.069338 -0.033923 14386.300000 1 0 0
-3.608366 -3.872100 20.601429 21.270457 0.820640 0.251474 0.031542 -0.022719 522014.000000 1 0 0
-10.485166 5.637300 14.125529 18.472911 -0.493308 0.700280 0.029572 -0.008460 167238.000000 1 0 0
6.824934 2.886100 19.493029 20.853956 0.400070 0.363269 0.111594 -0.044612 68457.500000 1 0 0
-7.301466 11.513400 14.281229 19.743943 -1.005629 0.762195 0.038448 -0.029198 214946.000000 1 0 0
-14.567366 5.049100 8.638729 17.672838 -0.333646 1.060067 0.024628 -0.021663 166466.000000 1 0 0
1.067534 -5.494700 20.214029 20.974707 -1.378903 0.270140 0.049303 -0.031401 310799.000000 1 0 0
-6.409066 -8.291600 13.571829 17.147049 0.912763 0.657543 0.023802 -0.008993 380943.000000 1 0 0
-12.852566 10.111600 6.528629 17.608405 -0.666602 1.190961 0.005447 -0.023859 175953.000000 1 0 0
-20.028566 2.899500 7.420029 21.554753 -0.143769 1.219366 0.103924 -0.036952 -131527.000000 1 0 0
-15.105466 8.588300 6.647729 18.604470 -0.516978 1.205401 0.004097 -0.033795 62565.200000 1 0 0
-11.599466 8.208800 13.335929 19.487920 -0.615867 0.817129 -0.029438 -0.019239 167995.000000 1 0 0
-16.790966 8.739800 10.668029 21.728495 -0.479918 1.057594 0.065228 -0.031200 402440.000000 1 0 0
1.906434 11.184700 14.124529 18.117239 1.401969 0.676740 0.012008 -0.045101 231408.000000 1 0 0
1.845334 15.345600 12.783429 20.057636 1.451119 0.879762 0.022103 -0.012837 644418.000000 1 0 0
8.762734 5.010200 16.377929 19.238612 0.519398 0.552328 0.058854 -0.020411 1661.050000 1 0 0
-0.383766 13.272700 13.495529 18.932542 -1.541890 0.777283 0.009107 0.004804 217088.000000 1 0 0
3.936134 12.643900 14.675529 19.766955 1.268999 0.734110 0.041089 -0.012261 153353.000000 1 0 0
-3.587266 -4.596900 -13.858771 15.035474 0.908142 2.743335 0.006547 -0.005672 101671.000000 1 0 0
5.010034 -11.732400 16.975629 21.234916 -1.167211 0.644466 -0.018587 0.010180 219630.000000 1 0 0
8.701734 -14.238800 6.970329 18.084498 -1.022234 1.175121 0.008217 0.002131 287077.000000 1 0 0
-0.531866 15.147600 0.409329 15.162461 -1.535699 1.543797 -0.003175 -0.005802 -378324.000000 1 0 0
-14.657366 7.580300 8.415029 18.523284 -0.477286 1.099216 0.036908 -0.014213 -162810.000000 1 0 0
-15.746566 -10.169900 4.377429 19.249496 0.573451 1.341384 0.017820 -0.004879 153871.000000 1 0 0
9.416234 -10.216300 11.617929 18.111171 -0.826128 0.874372 0.019731 0.006096 126012.000000 1 0 0
-26.501006 5.874300 31.103236 41.282224 -0.218136 0.717534 0.072937 -0.029962 -1078370.000000 0 0 1
-25.301336 5.397600 30.616266 40.083007 -0.210182 0.701583 0.072845 -0.032982 -1350940.000000 0 0 1
-24.340366 5.566000 31.606633 40.279188 -0.224808 0.668602 0.054377 -0.022201 -801568.000000 0 0 1
-23.111566 4.760000 31.155016 39.082440 -0.203117 0.648217 0.049378 -0.026326 -781631.000000 0 0 1
-23.144266 3.398100 31.283451 39.062238 -0.145781 0.642064 0.043896 -0.025979 1022160.000000 0 0 1
-21.938666 2.793700 30.724376 37.856269 -0.126660 0.623900 0.050584 -0.025855 1049110.000000 0 0 1
-21.441066 1.590300 31.577774 38.202149 -0.074035 0.597763 0.040527 -0.025175 -306167.000000 0 0 1
-22.100066 0.409800 31.242296 38.270901 -0.018541 0.615741 0.043958 -0.018056 80905.500000 0 0 1
-21.797766 -0.530400 32.212959 38.898569 0.024328 0.595038 0.044394 -0.013783 -243288.000000 0 0 1
-22.511366 -1.879400 32.064288 39.222599 0.083294 0.613748 0.068069 -0.027340 -751642.000000 0 0 1
-21.914666 -2.832800 31.180706 38.216668 0.128552 0.616525 0.091739 -0.040281 147952.000000 0 0 1
-22.360866 -4.196800 31.290498 38.687423 0.185527 0.628683 0.108718 -0.044709 -157632.000000 0 0 1
-23.876866 -4.367100 30.941026 39.325861 0.180901 0.665212 0.092393 -0.030382 823286.000000 0 0 1
-24.822666 -3.888300 31.916646 40.619649 0.155380 0.666898 0.079070 -0.025573 377460.000000 0 0 1
-24.830266 -4.662600 33.105989 41.644789 0.185617 0.651853 0.068904 -0.030554 -958978.000000 0 0 1
-25.891926 -4.197100 -33.232701 42.336980 0.160703 2.473423 0.073996 -0.017802 -87227.700000 0 0 1
-26.166076 -5.117900 -32.179761 41.789872 0.193154 2.449696 0.071598 -0.021569 551213.000000 0 0 1
-27.069586 -4.501700 -31.255791 41.592694 0.164793 2.421088 0.089751 -0.023378 113561.000000 0 0 1
-26.986376 -5.153500 -29.867651 40.582011 0.188695 2.397913 0.075408 -0.018068 -328898.000000 0 0 1
-27.335086 -6.535200 -29.792081 40.957097 0.234672 2.385318 0.072967 -0.022176 486815.000000 0 0 1
-27.306706 -6.978900 -28.455281 40.050771 0.250218 2.360977 0.062156 -0.019516 -255473.000000 0 0 1
-27.661786 -8.438000 -28.368061 40.510753 0.296076 2.346558 0.054164 -0.019335 796111.000000 0 0 1
-29.069106 -8.700700 -28.200981 41.424756 0.290824 2.319618 0.060269 -0.020531 617161.000000 0 0 1
-29.363526 -10.040300 -28.418001 42.078582 0.329468 2.312243 0.049120 -0.009074 -1046950.000000 0 0 1
-30.675566 -10.385200 -27.813431 42.689924 0.326438 2.280385 0.086223 -0.011762 -1042840.000000 0 0 1
-30.605016 -11.179700 -26.643991 42.089843 0.350231 2.256253 0.110808 -0.018704 -109448.000000 0 0 1
-31.874636 -11.412700 -26.071291 42.731187 0.343828 2.227012 0.115845 -0.025788 -152489.000000 0 0 1
-31.775366 -12.084200 -24.726971 42.037184 0.363410 2.199648 0.116401 -0.018988 -246099.000000 0 0 1
-31.252166 -11.272600 -23.718671 40.820886 0.346174 2.190805 0.134992 -0.019408 234079.000000 0 0 1
-31.369376 -11.984200 -22.494771 40.418727 0.364924 2.161016 0.156421 -0.022943 -384495.000000 0 0 1
-30.637306 -11.091300 -21.477371 39.024850 0.347342 2.153581 0.170144 -0.029842 5342.930000 0 0 1
-30.384026 -11.556400 -20.226071 38.286203 0.363448 2.127377 0.189726 -0.031168 -45274.500000 0 0 1
-29.321196 -12.479000 -20.152471 37.703846 0.402376 2.134705 0.191950 -0.038572 -517606.000000 0 0 1
-29.079176 -12.911700 -18.671771 36.890995 0.417869 2.101492 0.171422 -0.040637 113852.000000 0 0 1
-28.471696 -11.896800 -17.887971 35.667223 0.395796 2.096156 0.154274 -0.039751 157554.000000 0 0 1
-28.301566 -12.281600 -16.535371 35.003354 0.409431 2.062801 0.149877 -0.043954 993.924000 0 0 1
-28.075486 -11.019300 -15.688671 33.996945 0.374014 2.050451 0.139868 -0.034193 485108.000000 0 0 1
-26.877776 -10.382900 -16.176071 33.043679 0.368641 2.082354 0.124616 -0.035785 823676.000000 0 0 1
-26.619926 -9.226000 -15.371971 32.094190 0.333627 2.070271 0.105990 -0.035768 1363.370000 0 0 1
-25.174056 -8.704800 -15.529271 30.832854 0.332914 2.098626 0.101920 -0.032477 189704.000000 0 0 1
-24.160266 -9.496200 -14.932371 29.947821 0.374501 2.092794 0.091236 -0.039618 553268.000000 0 0 1
-22.925266 -8.778600 -14.979271 28.757785 0.365698 2.118674 0.121269 -0.057102 424074.000000 0 0 1
-21.869766 -9.217500 -13.944271 27.526199 0.398879 2.102012 0.105683 -0.030185 -208157.000000 0 0 1
-21.268466 -10.467800 -13.979671 27.520059 0.457368 2.103636 0.087288 -0.038349 22433.900000 0 0 1
-20.303666 -10.558000 -12.952971 26.296191 0.479523 2.085848 0.119359 -0.039349 73610.800000 0 0 1
-19.275766 -11.685300 -13.262971 26.153542 0.544978 2.102636 0.111937 -0.026895 731188.000000 0 0 1
-18.293266 -11.545000 -14.321371 25.942865 0.562978 2.155599 0.134053 -0.021735 818604.000000 0 0 1
-18.823866 -11.596400 -15.634271 27.078494 0.552136 2.186298 0.112883 -0.029534 -516179.000000 0 0 1
-18.138066 -10.734700 -16.679871 26.878268 0.534392 2.240267 0.131210 -0.040661 142340.000000 0 0 1
-18.875266 -10.854600 -17.930771 28.206569 0.521887 2.259705 0.080473 -0.019732 654424.000000 0 0 1
-18.330866 -10.162900 -19.017471 28.301402 0.506226 2.307651 0.081387 -0.029322 -354823.000000 0 0 1
-19.074166 -10.457700 -20.302471 29.755295 0.501510 2.321720 0.097873 -0.023309 493270.000000 0 0 1
-20.374466 -9.890900 -20.490871 30.542176 0.451945 2.306224 0.093778 -0.030690 1105150.000000 0 0 1
-21.086066 -10.571700 -21.554171 31.952547 0.464735 2.311176 0.090277 -0.014675 472592.000000 0 0 1
-22.269566 -9.790500 -22.169471 32.913111 0.414202 2.309832 0.078378 -0.020305 -29337.600000 0 0 1
-21.871466 -8.774200 -23.015071 32.939962 0.381516 2.344372 0.073927 -0.024653 154269.000000 0 0 1
-22.886466 -8.332700 -23.895071 34.120355 0.349170 2.346638 0.074955 -0.024877 -376881.000000 0 0 1
-22.381666 -7.479800 -25.035371 34.404304 0.322524 2.385732 0.054880 -0.030451 -42925.900000 0 0 1
-21.502266 -8.357200 -25.748181 34.571072 0.370698 2.411016 0.065181 -0.029619 589575.000000 0 0 1
-20.681866 -7.606700 -26.653801 34.583617 0.352440 2.450745 0.047685 -0.037850 425073.000000 0 0 1
-19.550366 -8.454700 -27.315411 34.638568 0.408170 2.479299 0.072273 -0.041132 51178.700000 0 0 1
-20.032866 -9.268900 -28.398091 35.967760 0.433352 2.480860 0.079798 -0.039241 -110830.000000 0 0 1
-19.025066 -10.074200 -28.869241 36.012160 0.486986 2.500851 0.064141 -0.036217 -633454.000000 0 0 1
-19.477966 -11.091800 -29.966041 37.421689 0.517656 2.499370 0.078093 -0.029269 -284258.000000 0 0 1
-20.098066 -10.537900 -31.106781 38.504693 0.482917 2.511325 0.089264 -0.029940 344550.000000 0 0 1
-20.324966 -11.597800 -31.993681 39.638476 0.518535 2.510083 0.079425 -0.032896 -34304.500000 0 0 1
-20.841966 -11.271000 -33.423181 40.969891 0.495740 2.524905 0.097516 -0.037926 -472533.000000 0 0 1
-19.947666 -10.721300 32.992290 40.016832 0.493173 0.601548 0.092376 -0.038282 -534963.000000 0 0 1
-20.338866 -10.581400 31.657177 39.087240 0.479720 0.626796 0.093948 -0.033627 -625668.000000 0 0 1
-19.886466 -11.676300 30.750586 38.437040 0.530916 0.643460 0.101413 -0.028625 391969.000000 0 0 1
-18.468366 -11.768600 30.535196 37.576305 0.567346 0.622165 0.100283 -0.029725 1136990.000000 0 0 1
-18.062866 -12.690600 29.460366 36.813470 0.612455 0.643067 0.099081 -0.029671 153956.000000 0 0 1
-18.150766 -14.154200 29.805396 37.658376 0.662310 0.657589 0.089441 -0.019372 -149555.000000 0 0 1
-19.507066 -14.598400 29.771646 38.470635 0.642454 0.685852 0.092162 -0.022804 439483.000000 0 0 1
-19.732366 -15.842700 30.346966 39.513235 0.676494 0.695052 0.089197 -0.025775 -232364.000000 0 0 1
-19.800866 -15.820500 31.950440 40.782265 0.674119 0.670615 0.058092 -0.027521 -730912.000000 0 0 1
-18.522066 -15.751200 32.492483 40.582369 0.704727 0.642408 0.082157 -0.026563 -532047.000000 0 0 1
-18.592466 -15.488500 -33.457571 41.291433 0.694572 2.515424 0.077974 -0.022178 231237.000000 0 0 1
-17.218766 -15.144000 -32.833301 40.048124 0.721376 2.531939 0.054601 -0.021380 188950.000000 0 0 1
-16.830166 -13.783000 -33.155291 39.654746 0.686187 2.560929 0.057923 -0.024209 154286.000000 0 0 1
-15.806566 -13.215900 -32.312981 38.322790 0.696370 2.573966 0.058129 -0.016915 362967.000000 0 0 1
-16.225466 -12.743100 -30.897371 37.152387 0.665760 2.552849 0.071872 -0.015890 -114971.000000 0 0 1
-16.657566 -13.830400 -30.077081 37.059213 0.692932 2.517674 0.060579 -0.016797 -159078.000000 0 0 1
-16.927366 -13.423400 -28.752831 35.964547 0.670458 2.497220 0.049608 -0.011376 -76319.900000 0 0 1
-17.097566 -14.717800 -27.925561 35.899545 0.710738 2.462082 0.050557 -0.004429 1650340.000000 0 0 1
-15.863866 -15.457200 -27.578461 35.371723 0.772415 2.464944 0.088573 -0.029847 1310480.000000 0 0 1
-15.386366 -16.393400 -28.512291 36.310254 0.817075 2.473881 0.086895 -0.031103 -199322.000000 0 0 1
-14.060066 -17.019200 -28.045031 35.691208 0.880324 2.474734 0.149947 -0.025563 338994.000000 0 0 1
-12.886666 -16.218900 -28.233981 35.018231 0.899390 2.508607 0.120273 -0.028610 493645.000000 0 0 1
-11.861366 -16.737200 -27.384771 34.216246 0.954267 2.498665 0.167107 -0.038450 1129530.000000 0 0 1
-10.439366 -16.080100 -27.539611 33.555627 0.994976 2.533458 0.142976 -0.046662 952065.000000 0 0 1
-10.282266 -14.711600 -27.178911 32.570682 0.960794 2.557947 0.130196 -0.039982 374654.000000 0 0 1
-8.949666 -14.257800 -27.452391 32.202719 1.010256 2.591520 0.154307 -0.044469 817297.000000 0 0 1
-8.680266 -12.739000 -27.547561 31.567344 0.972668 2.631420 0.121060 -0.047725 180844.000000 0 0 1
-9.430966 -12.148100 -28.632011 32.500946 0.910654 2.648682 0.151542 -0.049955 552092.000000 0 0 1
-9.023966 -10.787600 -28.954311 32.189383 0.874185 2.689417 0.119277 -0.038275 56410.300000 0 0 1
-7.836866 -10.665800 -29.950911 32.744966 0.937117 2.725493 0.108709 -0.026145 -326812.000000 0 0 1
-6.611866 -11.037000 -29.327241 32.025290 1.031066 2.728173 0.099806 -0.031878 1158640.000000 0 0 1
-5.453366 -10.701400 -30.136891 32.442123 1.099503 2.762344 0.101263 -0.030342 808172.000000 0 0 1
-5.172466 -9.231100 -30.575671 32.354895 1.060057 2.808419 0.097037 -0.032951 -853543.000000 0 0 1
-3.865766 -8.877500 -31.050671 32.525349 1.160102 2.839314 0.126685 -0.043374 722224.000000 0 0 1
-3.809266 -7.499000 -31.366961 32.475094 1.100793 2.879606 0.136434 -0.037261 -165858.000000 0 0 1
-2.470766 -6.969000 -31.896051 32.741864 1.230086 2.913800 0.142473 -0.044742 -285063.000000 0 0 1
-2.101966 -7.351300 -33.218191 34.086772 1.292296 2.915361 0.150278 -0.045451 419839.000000 0 0 1
-0.870866 -6.706400 -33.567691 34.242139 1.441663 2.942789 0.190846 -0.049540 677915.000000 0 0 1
-0.217266 -7.315000 32.518187 33.331500 1.541104 0.221362 0.183182 -0.049995 74071.100000 0 0 1
-0.895466 -6.967000 31.295500 32.074121 1.442968 0.220792 0.186789 -0.051622 294946.000000 0 0 1
-0.308666 -7.618600 30.180576 31.128853 1.530304 0.247463 0.155247 -0.049913 -36681.500000 0 0 1
-0.603466 -7.042500 28.807966 29.662432 1.485316 0.240606 0.141940 -0.041590 108957.000000 0 0 1
0.038334 -5.770000 28.586926 29.163448 -1.564153 0.199169 0.151919 -0.057680 188085.000000 0 0 1
-0.058866 -5.291800 27.271516 27.780248 1.559673 0.191671 0.147168 -0.044867 -519939.000000 0 0 1
-1.332666 -4.550700 26.939436 27.353575 1.285913 0.174233 0.113957 -0.031436 -647180.000000 0 0 1
-2.531666 -5.282900 26.988606 27.617082 1.123911 0.213746 0.072731 -0.013255 -536484.000000 0 0 1
-3.601166 -4.369300 26.844546 27.435175 0.881474 0.207874 0.058378 -0.017290 505584.000000 0 0 1
-4.999566 -5.003700 27.163646 28.069491 0.785811 0.254741 0.042131 -0.010327 568709.000000 0 0 1
-5.560766 -5.813600 26.164676 27.373533 0.807623 0.298297 0.039471 -0.012629 -624096.000000 0 0 1
-6.888566 -6.136600 26.455566 28.017979 0.727730 0.335532 0.031850 -0.013766 -38530.100000 0 0 1
-7.125166 -7.664400 26.373346 28.373656 0.821842 0.377738 0.036198 -0.012362 219576.000000 0 0 1
-6.321266 -8.316500 27.344436 29.271842 0.920871 0.364913 0.024329 -0.008321 68480.600000 0 0 1
-6.449866 -9.745200 27.239266 29.640298 0.986135 0.405274 0.028968 -0.014130 91820.100000 0 0 1
-5.605066 -10.499700 28.304686 30.705304 1.080452 0.398053 0.017922 -0.011798 -241110.000000 0 0 1
-5.753966 -11.910200 28.189476 31.138522 1.120750 0.438728 0.038866 -0.016859 114429.000000 0 0 1
-5.372866 -12.540200 29.379276 32.392378 1.166006 0.434736 0.050836 -0.013050 -93200.400000 0 0 1
-5.370666 -14.063000 29.356846 32.991460 1.205990 0.473820 0.098121 -0.044221 -10212.600000 0 0 1
-6.703366 -14.522400 29.245136 33.333364 1.138348 0.500478 0.104809 -0.039657 68904.600000 0 0 1
-6.696166 -15.921300 29.385046 34.085295 1.172676 0.531390 0.149915 -0.053469 163397.000000 0 0 1
-6.947566 -16.542400 30.763726 35.613572 1.173181 0.527992 0.151587 -0.045239 215971.000000 0 0 1
-8.305066 -16.527300 31.166936 36.242291 1.105146 0.535604 0.144243 -0.041794 -32290.700000 0 0 1
-8.437966 -17.149900 32.433608 37.646477 1.113559 0.532519 0.173225 -0.050366 858345.000000 0 0 1
-9.915766 -17.214100 32.981586 38.502372 1.048191 0.542130 0.168004 -0.047318 1226520.000000 0 0 1
-10.713366 -18.298800 32.529317 38.830127 1.041130 0.577676 0.181555 -0.052239 143882.000000 0 0 1
-11.586566 -18.002000 31.473018 38.064043 0.998915 0.597324 0.149837 -0.054814 -451909.000000 0 0 1
-12.360966 -19.238700 30.993366 38.516357 0.999708 0.635659 0.135624 -0.055426 -226472.000000 0 0 1
-13.414666 -19.710600 31.812020 39.755070 0.973222 0.643167 0.130383 -0.049094 100564.000000 0 0 1
-13.707566 -21.111300 31.777059 40.538448 0.994913 0.669915 0.130442 -0.047300 -354857.000000 0 0 1
-12.830466 -21.855300 32.799217 41.449531 1.039943 0.657856 0.150461 -0.049545 -227390.000000 0 0 1
-11.434866 -21.781100 32.558406 40.807135 1.087357 0.647058 0.155699 -0.055845 267063.000000 0 0 1
-10.676066 -22.442900 33.599796 41.792444 1.126778 0.636858 0.178869 -0.069647 315738.000000 0 0 1
-10.860866 -23.927200 -33.471931 42.553959 1.144693 2.476041 0.179682 -0.048512 -614969.000000 0 0 1
-10.384966 -24.690800 32.793584 42.342676 1.172658 0.684903 0.172208 -0.047608 -57671.100000 0 0 1
-10.651366 -26.054690 32.962094 43.345104 1.182720 0.706780 0.174793 -0.049404 -1027820.000000 0 0 1
-10.046566 -26.999540 31.868999 42.959769 1.214569 0.734996 0.143818 -0.036236 1390920.000000 0 0 1
-8.622066 -27.005730 31.636900 42.479912 1.261758 0.730637 0.177046 -0.049189 1398470.000000 0 0 1
-7.746966 -27.350180 32.710067 43.335854 1.294776 0.715441 0.150620 -0.046242 529659.000000 0 0 1
-6.219566 -27.109230 32.502395 42.778488 1.345273 0.707816 0.152388 -0.056881 785545.000000 0 0 1
-5.786866 -25.770810 32.693589 42.029670 1.349909 0.679528 0.171738 -0.063548 196716.000000 0 0 1
-4.601366 -25.422230 31.954858 41.092277 1.391737 0.679898 0.248972 -0.052334 638204.000000 0 0 1
-4.129366 -24.010200 32.369577 40.513342 1.400479 0.645190 0.254538 -0.065750 -312947.000000 0 0 1
-3.513966 -24.007700 33.627836 41.467444 1.425460 0.625030 0.216049 -0.064368 -58458.100000 0 0 1
-2.973266 -22.704100 -33.525501 40.598961 1.440580 2.542367 0.200624 -0.062376 -229659.000000 0 0 1
35.065787 -15.502500 2.216529 38.403775 -0.416263 1.513048 0.221017 -0.060760 -254718.000000 0 0 1
36.117667 -15.481500 3.142229 39.421267 -0.404950 1.491003 0.180004 -0.054198 -56579.600000 0 0 1
35.733767 -15.951800 4.420029 39.381451 -0.419862 1.458323 0.132614 -0.045579 192571.000000 0 0 1
36.836777 -15.871500 5.531029 40.490059 -0.406824 1.433766 0.101305 -0.023456 556089.000000 0 0 1
37.807667 -16.907400 5.387529 41.764881 -0.420519 1.441439 0.126682 -0.030480 475236.000000 0 0 1
-37.124366 -16.876900 6.483229 41.292621 0.426676 1.413137 0.121033 -0.020333 703536.000000 0 0 1
-35.885909 -17.841400 6.500429 40.600118 0.461381 1.409996 0.118605 -0.022683 328113.000000 0 0 1
-36.097646 -19.256800 6.513029 41.428057 0.490059 1.412928 0.101215 -0.020146 708745.000000 0 0 1
-34.876983 -19.921500 6.895629 40.753157 0.518969 1.400774 0.077399 -0.005613 750680.000000 0 0 1
-35.095704 -21.432200 7.166629 41.742163 0.548235 1.398253 0.076503 -0.003450 -90291.200000 0 0 1
-35.057739 -22.270900 6.017229 41.967191 0.565946 1.426921 0.094574 -0.007782 200909.000000 0 0 1
-35.432511 -23.561100 6.290229 43.013431 0.586818 1.424031 0.101437 -0.011824 -192253.000000 0 0 1
-34.871344 -24.438800 5.148929 42.892622 0.611281 1.450464 0.106689 -0.014405 19668.000000 0 0 1
-35.282535 -24.073600 3.863829 42.887348 0.598754 1.480581 0.102578 -0.015332 -101188.000000 0 0 1
-34.587594 -24.791900 2.907429 42.654344 0.621903 1.502581 0.100499 -0.016018 -70761.600000 0 0 1
-35.160004 -24.597000 1.441329 42.933853 0.610440 1.537219 0.103203 -0.019167 -340369.000000 0 0 1
-36.374176 -25.247250 1.183029 44.293384 0.606754 1.544084 0.095580 -0.022890 -324924.000000 0 0 1
-36.996076 -24.830400 0.031029 44.556249 0.591109 1.570100 0.083773 -0.021090 -178931.000000 0 0 1
-37.876876 -23.546300 0.069129 44.599224 0.556189 1.569246 0.088495 -0.023085 952063.000000 0 0 1
36.579417 -23.906700 0.297829 43.699802 -0.578871 1.563981 0.074221 -0.019571 1023170.000000 0 0 1
35.738807 -22.805700 0.506029 42.398329 -0.567979 1.558861 0.095956 -0.023371 610329.000000 0 0 1
34.229067 -23.126300 0.269029 41.310133 -0.594185 1.564284 0.070526 -0.015156 517726.000000 0 0 1
33.814427 -22.950800 -1.053871 40.881112 -0.596306 1.596578 0.078329 -0.029089 241425.000000 0 0 1
32.400197 -22.929800 -1.187271 39.710931 -0.615879 1.600699 0.068564 -0.019186 275721.000000 0 0 1
31.964857 -22.686800 -2.625171 39.285296 -0.617234 1.637669 0.080476 -0.012764 27280.900000 0 0 1
32.362817 -21.414400 -3.181071 38.936456 -0.584555 1.652587 0.123415 -0.027469 200714.000000 0 0 1
31.980297 -21.268700 -4.531471 38.673391 -0.586887 1.688239 0.136469 -0.040592 -7314.930000 0 0 1
32.036107 -19.811800 -5.005071 37.998293 -0.553854 1.702899 0.157925 -0.045068 470849.000000 0 0 1
31.050137 -19.082000 -4.264671 36.693611 -0.551053 1.687283 0.188694 -0.046006 390097.000000 0 0 1
31.218977 -17.685600 -4.338771 36.141802 -0.515424 1.691135 0.193274 -0.045373 167430.000000 0 0 1
30.401757 -16.900600 -3.243971 34.934516 -0.507368 1.663789 0.193464 -0.037211 -98237.400000 0 0 1
30.823957 -17.001500 -1.921271 35.254200 -0.504046 1.625321 0.192171 -0.035958 -278312.000000 0 0 1
31.034877 -18.270600 -1.311471 36.037458 -0.532078 1.607196 0.162225 -0.031282 435978.000000 0 0 1
29.788857 -19.204600 -1.029871 35.457767 -0.572634 1.599845 0.138837 -0.024581 654122.000000 0 0 1
29.087257 -18.870200 0.182929 34.672560 -0.575492 1.565520 0.127207 -0.013690 323930.000000 0 0 1
28.041457 -19.816700 0.287229 34.338133 -0.615204 1.562431 0.108352 -0.011024 172682.000000 0 0 1
27.027857 -19.749400 1.478329 33.507153 -0.631038 1.526662 0.114983 -0.007012 -196254.000000 0 0 1
26.160157 -20.864400 1.472529 33.493959 -0.673254 1.526818 0.103495 -0.005387 -678076.000000 0 0 1
25.312757 -20.790800 2.562729 32.856667 -0.687628 1.492720 0.087214 -0.000463 -489522.000000 0 0 1
23.889957 -20.344100 2.175129 31.453833 -0.705408 1.501588 0.052075 -0.004875 -695245.000000 0 0 1
23.747857 -19.001000 1.803629 30.467225 -0.674811 1.511563 0.102657 -0.023159 109717.000000 0 0 1
23.668357 -18.150800 2.908129 29.968314 -0.654217 1.473603 0.131206 -0.028467 -488874.000000 0 0 1
23.420857 -16.627300 2.636929 28.843665 -0.617363 1.479247 0.127702 -0.008991 700439.000000 0 0 1
22.099257 -16.315300 2.184529 27.556094 -0.635954 1.491437 0.095531 -0.010464 537079.000000 0 0 1
22.181957 -15.001000 1.684129 26.831055 -0.594622 1.507987 0.102841 -0.026593 -117753.000000 0 0 1
20.852657 -14.599300 1.018329 25.475672 -0.610804 1.530813 0.060412 -0.014237 192822.000000 0 0 1
19.855957 -14.471400 2.050529 24.655326 -0.629807 1.487532 0.065449 -0.020438 1157810.000000 0 1 0
18.774457 -13.540200 1.754729 23.214140 -0.624815 1.495135 0.078539 -0.023165 674975.000000 0 1 0
19.046857 -12.080200 2.127029 22.654762 -0.565213 1.476769 0.076726 -0.022296 -736316.000000 0 1 0
20.013457 -11.529900 1.281229 23.132630 -0.522666 1.515382 0.079562 -0.023033 113284.000000 0 1 0
20.487857 -10.318000 1.803229 23.010107 -0.466536 1.492349 0.111829 -0.020153 -396126.000000 0 1 0
21.366657 -9.607700 0.765129 23.439866 -0.422570 1.538148 0.118676 -0.021001 -593361.000000 0 1 0
20.718357 -9.238800 -0.411671 22.688658 -0.419459 1.588942 0.121810 -0.017039 869234.000000 0 1 0
21.617857 -8.576600 -1.342071 23.295728 -0.377690 1.628438 0.108099 -0.007466 -82006.200000 0 1 0
21.063657 -8.329200 -2.778171 22.820417 -0.376560 1.692840 0.125294 -0.007777 -34781.300000 0 1 0
21.914757 -7.686100 -3.763871 23.526568 -0.337322 1.731471 0.139163 -0.009686 938774.000000 0 1 0
22.909357 -8.493600 -4.392471 24.824860 -0.355038 1.748671 0.133735 -0.011583 -411647.000000 0 1 0
22.387657 -9.681800 -5.262771 24.952779 -0.408174 1.783301 0.108967 -0.017550 -42867.100000 0 1 0
21.631757 -9.324700 -6.449871 24.423017 -0.406997 1.838056 0.100866 -0.023741 -411096.000000 0 1 0
20.321457 -8.946800 -6.224571 23.059751 -0.414728 1.844119 0.104217 -0.014558 -1511680.000000 0 1 0
19.646857 -8.873500 -7.597371 22.857341 -0.424225 1.909624 0.107714 -0.015431 -583042.000000 0 1 0
19.506357 -10.099300 -8.276771 23.473362 -0.477742 1.931147 0.103349 -0.021925 576183.000000 0 1 0
20.684557 -10.586400 -8.920971 24.889887 -0.473045 1.937369 0.107040 -0.022141 -130428.000000 0 1 0
20.578657 -12.056700 -9.479071 25.665111 -0.529975 1.949092 0.088709 -0.030885 -549399.000000 0 0 1
19.619457 -12.321500 -10.456471 25.418108 -0.560771 1.994763 0.116588 -0.032579 -262287.000000 0 0 1
19.449457 -13.700400 -10.832071 26.140315 -0.613680 1.998060 0.116605 -0.029402 26559.200000 0 0 1
18.324557 -13.999000 -11.844571 25.924028 -0.652368 2.045298 0.117364 -0.024330 53800.000000 0 0 1
18.355257 -15.364100 -12.282071 26.903908 -0.696922 2.044872 0.121277 -0.035135 -230482.000000 0 0 1
17.490257 -15.570100 -13.331671 26.945696 -0.727383 2.088356 0.117582 -0.025704 -691294.000000 0 0 1
17.434257 -17.062900 -13.715171 27.985742 -0.774634 2.082974 0.104786 -0.037938 -518687.000000 0 0 1
16.742757 -17.685700 -12.663371 27.449314 -0.812780 2.050297 0.096756 -0.031617 288510.000000 0 0 1
16.762157 -19.082200 -12.863771 28.470631 -0.850033 2.039607 0.102221 -0.032937 -257302.000000 0 0 1
15.730557 -19.652500 -11.881471 27.835957 -0.895790 2.011791 0.090611 -0.028468 730957.000000 0 0 1
14.359957 -19.355900 -12.162771 26.996152 -0.932506 2.038163 0.076130 -0.021768 312274.000000 0 0 1
13.437157 -20.052400 -11.369871 26.682014 -0.980419 2.011001 0.068027 -0.011954 209609.000000 0 0 1
12.028557 -20.054500 -12.004271 26.286340 -1.030529 2.045049 0.038460 -0.021214 -249508.000000 0 0 1
11.074057 -20.666000 -11.207271 25.986943 -1.078875 2.016691 0.046991 -0.027106 -1383260.000000 0 0 1
9.848857 -20.702600 -11.834271 25.800147 -1.126752 2.047317 0.029635 -0.021561 -1087470.000000 0 0 1
8.727957 -21.316500 -11.030071 25.538850 -1.182173 2.017388 0.015225 -0.014153 -567784.000000 0 0 1
9.014257 -22.691600 -10.742571 26.675238 -1.192662 1.985280 0.035996 -0.017668 -214657.000000 0 0 1
8.128957 -23.144100 -9.766771 26.403013 -1.233024 1.949710 0.036061 -0.023768 -84299.600000 0 0 1
8.161157 -24.692100 -9.612071 27.725371 -1.251583 1.924835 0.043457 -0.014958 -378917.000000 0 0 1
9.359857 -25.089060 -9.034371 28.261063 -1.213723 1.896183 0.036802 -0.006500 -885384.000000 0 0 1
9.803057 -26.330460 -9.560271 29.678137 -1.214387 1.898777 0.033400 -0.008635 614925.000000 0 0 1
11.268757 -26.698040 -9.184071 30.399299 -1.171400 1.877706 0.017632 0.002666 540610.000000 0 0 1
11.546757 -26.904930 -7.804171 30.300296 -1.165400 1.831293 0.034737 -0.005006 331257.000000 0 0 1
12.948957 -27.110260 -7.593871 30.988845 -1.125196 1.818369 0.062020 -0.000969 436129.000000 0 0 1
13.198957 -27.437330 -6.114771 31.054950 -1.122417 1.768993 0.071671 -0.012091 -29172.500000 0 0 1
12.792957 -28.723400 -5.673671 31.951275 -1.151787 1.749316 0.076171 -0.013227 750397.000000 0 0 1
11.367257 -28.855390 -5.559371 31.508009 -1.195526 1.748168 0.072440 -0.011673 400440.000000 0 0 1
10.776257 -29.930680 -4.653971 32.150159 -1.225205 1.716064 0.077544 -0.018825 45059.800000 0 0 1
10.996957 -31.265390 -5.066071 33.527939 -1.232582 1.722477 0.091344 -0.017548 169380.000000 0 0 1
10.099657 -31.686390 -6.112671 33.814126 -1.262239 1.752568 0.091693 -0.018453 452578.000000 0 0 1
10.423357 -33.098150 -6.640471 35.330295 -1.265706 1.759875 0.087797 -0.013111 -6782.220000 0 0 1
10.027557 33.626210 -5.653071 35.541962 1.280986 1.730528 0.086075 -0.014344 31929.900000 0 0 1
10.436457 32.332529 -5.918271 34.486780 1.258569 1.743260 0.086801 -0.010335 -70789.300000 0 0 1
10.232257 31.408435 -4.695471 33.365196 1.255859 1.711995 0.091485 -0.011736 407899.000000 0 0 1
8.834457 31.177835 -4.635071 32.735132 1.294677 1.712867 0.083164 -0.019973 -226320.000000 0 0 1
8.483557 30.400155 -3.520071 31.757378 1.298657 1.681867 0.061374 -0.020725 -597087.000000 0 0 1
7.074657 29.813245 -3.539171 30.844871 1.337807 1.685791 0.058253 -0.024365 -372712.000000 0 0 1
6.834657 28.959455 -4.634571 30.113814 1.339030 1.725312 0.055343 -0.024430 -80206.300000 0 0 1
6.428857 29.707815 -5.772471 30.938744 1.357680 1.758474 0.066584 -0.031095 -588126.000000 0 0 1
6.679457 29.022265 -7.154671 30.628358 1.344586 1.806571 0.088143 -0.042252 -368280.000000 0 0 1
5.840957 27.969845 -7.523471 29.547108 1.364924 1.828258 0.114859 -0.046496 -267533.000000 0 0 1
6.038257 26.735325 -6.844271 28.250348 1.348670 1.815503 0.083928 -0.039655 564138.000000 0 0 1
5.042057 25.566345 -7.339971 27.072781 1.376080 1.845353 0.096055 -0.039862 1366270.000000 0 0 1
3.657157 25.562985 -6.997271 26.754491 1.428696 1.835410 0.098563 -0.038239 274707.000000 0 0 1
2.844257 26.274855 -7.916971 27.588697 1.462966 1.861853 0.096511 -0.037499 224992.000000 0 0 1
2.140257 25.553385 -9.060771 27.196576 1.487235 1.910448 0.097609 -0.036777 -427782.000000 0 0 1
3.061057 25.141805 -10.021171 27.237920 1.449641 1.947559 0.091908 -0.040250 -123625.000000 0 0 1
2.480257 24.478835 -11.162071 27.017713 1.469818 1.996695 0.107591 -0.037937 -89574.900000 0 0 1
2.048357 22.973445 -11.047671 25.573931 1.481870 2.017494 0.109569 -0.032255 159296.000000 0 0 1
0.799657 22.742855 -10.443271 25.038746 1.535650 2.001031 0.130205 -0.028817 -333983.000000 0 0 1
0.703257 21.377915 -10.116571 23.661251 1.537912 2.012587 0.090389 -0.019245 -206547.000000 0 1 0
-0.532343 20.972215 -9.294171 22.945561 -1.545419 1.987833 0.091362 -0.008111 -496748.000000 0 1 0
-1.673243 20.781715 -10.078471 23.157180 -1.490454 2.021079 0.096895 -0.019436 -346542.000000 0 1 0
-2.717043 20.335015 -9.171971 22.472654 -1.437969 1.991211 0.085453 -0.012794 591397.000000 0 1 0
-3.940543 19.971615 -10.060871 22.707144 -1.375991 2.029817 0.089114 -0.021183 623829.000000 0 1 0
-5.104043 19.657415 -9.282171 22.329888 -1.316756 1.999491 0.077404 -0.023028 500099.000000 0 1 0
-6.176243 19.158415 -10.056271 22.501542 -1.258938 2.034110 0.085552 -0.022177 -507765.000000 0 1 0
-6.939643 18.071015 -9.266071 21.461134 -1.204141 2.017240 0.072889 -0.030364 33693.100000 0 1 0
-8.082643 18.429715 -8.527971 21.856573 -1.157492 1.971622 0.079859 -0.026900 1031840.000000 0 1 0
-9.279043 18.743015 -9.318571 22.896222 -1.111103 1.989954 0.072937 -0.029076 2189670.000000 0 1 0
-10.529943 19.005115 -8.327571 23.268488 -1.064843 1.936804 0.092412 -0.036474 1300010.000000 0 1 0
-10.724043 17.849515 -7.557571 22.152362 -1.029787 1.918950 0.090336 -0.031177 -298749.000000 0 1 0
-11.867843 17.909915 -6.729571 22.514392 -0.985586 1.874337 0.098277 -0.029792 -232438.000000 0 1 0
-12.081143 16.897715 -5.572771 21.506803 -0.950102 1.832904 0.079124 -0.030443 168913.000000 0 1 0
-13.186843 17.297215 -4.769971 22.267445 -0.919427 1.786682 0.084899 -0.021398 193655.000000 0 1 0
-13.583343 16.160115 -4.031571 21.492093 -0.871816 1.759498 0.085417 -0.020938 -305804.000000 0 1 0
-14.791343 16.433915 -3.157471 22.334435 -0.837954 1.712644 0.074762 -0.022889 -523760.000000 0 1 0
-16.047143 16.477015 -3.773171 23.307502 -0.798614 1.733398 0.122690 -0.039253 -258632.000000 0 1 0
-17.052643 16.833715 -2.851571 24.130853 -0.778938 1.689244 0.122445 -0.033410 1060190.000000 0 1 0
-18.438643 17.296715 -3.479271 25.519899 -0.753454 1.707558 0.126190 -0.040043 1075790.000000 0 0 1
-18.319043 18.456915 -4.209171 26.343162 -0.789147 1.731266 0.118304 -0.038406 295766.000000 0 0 1
-19.550543 18.597615 -4.905071 27.425439 -0.760424 1.750615 0.102842 -0.046393 405479.000000 0 0 1
-19.503943 19.445315 -6.173071 28.224650 -0.783893 1.791291 0.097238 -0.026573 -137404.000000 0 0 1
-19.293943 20.838415 -5.941771 29.013797 -0.823864 1.777047 0.106798 -0.042742 136008.000000 0 0 1
-19.277443 21.602115 -7.119971 29.815519 -0.842203 1.811927 0.087693 -0.020589 -247321.000000 0 0 1
-19.268343 23.160335 -6.983971 30.926461 -0.876872 1.798586 0.096911 -0.027785 -1375190.000000 0 0 1
-18.146643 23.796785 -6.570271 30.639127 -0.919301 1.786915 0.097594 -0.027358 -1258020.000000 0 0 1
-17.891543 23.883075 -5.150671 30.282635 -0.927852 1.741714 0.109258 -0.040194 -148827.000000 0 0 1
-16.494843 24.485355 -4.942371 29.933918 -0.977967 1.736665 0.088094 -0.037224 -568900.000000 0 0 1
-16.113343 25.053075 -3.711871 30.017901 -0.999239 1.694769 0.081939 -0.038655 645882.000000 0 0 1
-14.831743 25.697435 -3.625871 29.891231 -1.047334 1.692398 0.110646 -0.047425 695350.000000 0 0 1
-14.483343 26.864085 -4.614771 30.866525 -1.076334 1.720866 0.121023 -0.035127 -418945.000000 0 0 1
-15.306843 27.983375 -4.418371 32.200787 -1.070261 1.708444 0.140289 -0.034858 -24177.800000 0 0 1
-15.231243 28.903645 -5.461871 33.124666 -1.085809 1.736441 0.106735 -0.038117 15739.800000 0 0 1
-15.864043 30.302315 -5.161371 34.591009 -1.088506 1.720567 0.103839 -0.031857 307439.000000 0 0 1
-17.271643 30.259355 -5.052471 35.206046 -1.052134 1.714805 0.132811 -0.030368 -150234.000000 0 0 1
-17.866443 31.511225 -4.807571 36.541481 -1.055005 1.702744 0.139946 -0.030404 166104.000000 0 0 1
13.435834 -8.316100 18.288566 24.169212 -0.554236 0.712563 0.139264 -0.035428 -234385.000000 0 1 0
14.037034 -9.479100 18.744166 25.263321 -0.593950 0.734820 0.140079 -0.033443 -135356.000000 0 0 1
14.042934 -10.550400 17.828066 25.027083 -0.644330 0.777954 0.142057 -0.037275 -305911.000000 0 0 1
14.660634 -11.805900 18.378766 26.307651 -0.677952 0.797345 0.170547 -0.047296 -364735.000000 0 0 1
16.068634 -11.715600 18.474266 27.143227 -0.629989 0.822186 0.157074 -0.035089 524543.000000 0 0 1
16.768834 -12.574500 19.391966 28.554512 -0.643420 0.824232 0.148708 -0.044439 60068.600000 0 0 1
17.089834 -13.905700 18.727866 28.916498 -0.683028 0.866296 0.139087 -0.043827 -1152760.000000 0 0 1
16.019334 -14.737700 18.420566 28.515541 -0.743753 0.868486 0.153430 -0.050641 -119415.000000 0 0 1
16.393634 -15.811100 17.491366 28.717416 -0.767312 0.915889 0.159198 -0.051890 -433135.000000 0 0 1
15.794534 -15.677300 16.080866 27.456134 -0.781673 0.945062 0.147971 -0.051005 -1265920.000000 0 0 1
14.449534 -16.010800 16.144266 26.940157 -0.836609 0.928215 0.180817 -0.055465 -797676.000000 0 0 1
13.955534 -15.852200 14.831466 25.807393 -0.848942 0.958561 0.204769 -0.053677 -308189.000000 0 0 1
13.345134 -17.107700 14.232266 25.948475 -0.908329 0.990249 0.138722 -0.033272 -269701.000000 0 0 1
14.325734 -18.063000 13.922166 26.931864 -0.900278 1.027524 0.143500 -0.036588 186184.000000 0 0 1
13.696234 -19.285200 13.584666 27.277260 -0.953261 1.049480 0.127888 -0.034012 363619.000000 0 0 1
14.679134 -20.366200 13.030366 28.285146 -0.946273 1.092037 0.134402 -0.030613 73941.300000 0 0 1
15.609034 -20.938700 13.899266 29.584805 -0.930205 1.081720 0.121350 -0.025827 -418149.000000 0 0 1
16.054034 -22.123800 13.358866 30.424559 -0.943065 1.116220 0.095735 -0.025162 593148.000000 0 0 1
17.109234 -22.855500 14.313266 31.936959 -0.928203 1.106076 0.105013 -0.031051 1933170.000000 0 0 1
18.416134 -22.224400 14.418166 32.263934 -0.878831 1.107520 0.075007 -0.027445 898508.000000 0 0 1
19.180634 -22.893700 15.384766 33.596268 -0.873420 1.095130 0.086952 -0.037546 552589.000000 0 0 1
20.618034 -22.273100 15.509066 34.084093 -0.823967 1.098398 0.057847 -0.024106 611260.000000 0 0 1
21.546934 -22.714700 14.555366 34.526607 -0.811775 1.135621 0.054768 -0.028183 -602185.000000 0 0 1
22.785934 -22.109600 14.838066 35.045704 -0.770335 1.133610 0.057265 -0.026711 -6675.900000 0 0 1
23.997134 -22.686200 14.067766 35.894681 -0.757324 1.168081 0.055498 -0.032460 119799.000000 0 0 1
24.420834 -23.901500 14.650666 37.179306 -0.774651 1.165758 0.052317 -0.029216 -66272.300000 0 0 1
25.610434 -24.436400 14.116066 38.108992 -0.761944 1.191343 0.063584 -0.030385 63021.100000 0 0 1
26.005634 -25.748950 14.862366 39.499257 -0.780439 1.185030 0.069270 -0.028973 -287444.000000 0 0 1
26.430234 -25.616240 16.192766 40.211375 -0.769760 1.156341 0.088332 -0.028314 207696.000000 0 0 1
26.954934 -26.850430 16.718666 41.557524 -0.783456 1.156767 0.120951 -0.023915 216226.000000 0 0 1
27.476334 -26.705810 18.229366 42.431816 -0.771178 1.126729 0.100420 -0.019844 570696.000000 0 0 1
26.468734 -26.179720 19.095266 41.840181 -0.779909 1.096867 0.101828 -0.016984 229519.000000 0 0 1
26.965834 -25.987410 20.353166 42.623386 -0.766923 1.072976 0.109302 -0.014263 25884.800000 0 0 1
25.832334 -25.514710 21.308766 42.099565 -0.779212 1.040080 0.084491 -0.014616 85054.300000 0 0 1
25.088934 -26.627150 21.678966 42.525725 -0.815133 1.035862 0.093573 -0.012238 -1542310.000000 0 0 1
24.032434 -26.336670 22.455156 42.135639 -0.831113 1.008742 0.089000 -0.015451 -1317380.000000 0 0 1
23.110034 -27.515840 22.777456 42.544184 -0.872206 1.005835 0.095899 -0.019172 -252494.000000 0 0 1
23.704834 -28.540970 23.573956 43.957224 -0.877700 1.004757 0.106241 -0.017862 211837.000000 0 0 1
23.606134 -29.805300 22.954156 44.412822 -0.900946 1.027645 0.121417 -0.024350 -163569.000000 0 0 1
24.825434 -30.705600 23.263906 45.829525 -0.890895 1.038378 0.101753 -0.012190 -22176.900000 0 0 1
24.841234 -31.004190 24.642996 46.750657 -0.895311 1.015594 0.098601 -0.012061 141628.000000 0 0 1
25.863734 -31.921450 24.964696 48.074398 -0.889848 1.024773 0.093614 -0.013018 -664154.000000 0 0 1
25.894534 -32.378180 26.426646 49.165445 -0.896206 1.003321 0.099485 -0.029031 416903.000000 0 0 1
24.938234 -33.323180 26.919286 49.568112 -0.928336 0.996699 0.094142 -0.011985 893491.000000 0 0 1
23.547834 -33.027660 26.808226 48.621063 -0.951417 0.986790 0.093853 -0.020734 -139168.000000 0 0 1
22.647834 33.470988 27.232036 48.732075 0.975920 0.977845 0.116545 -0.036452 -442756.000000 0 0 1
22.435034 33.314704 28.630686 49.324602 0.978128 0.951510 0.095277 -0.017961 134045.000000 0 0 1
21.700934 32.148111 28.921936 48.382951 0.977026 0.930078 0.102018 -0.028078 -164078.000000 0 0 1
21.534234 31.962120 30.420766 49.099117 0.977911 0.902591 0.084296 -0.027755 -343304.000000 0 0 1
22.753834 32.000766 31.095776 50.087256 0.952699 0.900993 0.074577 -0.015730 -360547.000000 0 0 1
22.526034 32.286520 32.520598 51.063009 0.961621 0.880362 0.060791 -0.018041 -129090.000000 0 0 1
23.803934 32.216381 33.364416 52.131629 0.934452 0.876294 0.033139 0.000095 -90508.600000 0 0 1
24.161834 30.851535 33.590926 51.613581 0.906405 0.862138 0.042935 0.004538 -158383.000000 0 0 1
25.368434 30.846945 -33.033821 51.829767 0.882547 2.261854 0.018295 0.015108 -316535.000000 0 0 1
25.809334 29.421225 -32.625811 50.952661 0.850702 2.265706 0.038013 0.002690 -315983.000000 0 0 1
26.047034 28.658985 33.559486 51.244751 0.833107 0.856764 0.050218 -0.003185 312736.000000 0 0 1
25.421734 27.376185 -33.622331 50.261130 0.822399 2.303596 0.072459 -0.014776 110563.000000 0 0 1
25.541934 26.525745 32.400437 49.048892 0.804291 0.849213 0.121000 -0.016671 -182205.000000 0 0 1
26.818034 25.988145 32.158493 49.282444 0.769684 0.859872 0.115076 -0.027293 -69491.300000 0 0 1
26.923934 25.318055 30.949736 48.205687 0.754669 0.873647 0.149577 -0.041891 -86440.900000 0 0 1
28.281034 24.568285 30.834286 48.519797 0.715262 0.882142 0.120353 -0.032277 247956.000000 0 0 1
28.636434 23.662425 31.901778 48.966102 0.690576 0.861227 0.137440 -0.040181 245591.000000 0 0 1
29.255434 24.257045 33.004469 50.334676 0.692262 0.855686 0.114811 -0.042780 -1224730.000000 0 0 1
29.032334 23.543015 -33.004301 49.864154 0.681366 2.294126 0.110572 -0.050488 1269980.000000 0 0 1
27.745034 23.673585 -32.323551 48.734356 0.706381 2.295963 0.108667 -0.046737 2608110.000000 0 0 1
26.543134 23.156325 -32.966211 48.244423 0.717358 2.323092 0.105173 -0.037309 876070.000000 0 0 1
26.351334 21.593915 -32.952921 47.398153 0.686496 2.339545 0.100617 -0.040755 -388040.000000 0 0 1
26.213634 21.106915 -31.670711 46.213530 0.677897 2.325829 0.075249 -0.057396 249802.000000 0 0 1
26.254734 19.696315 -31.645871 45.592949 0.643629 2.337959 0.085020 -0.054146 -214243.000000 0 0 1
25.919134 19.139415 -30.289831 44.222082 0.636054 2.325329 0.093066 -0.052168 -36632.300000 0 0 1
24.621634 19.325115 -29.748061 43.181385 0.665455 2.330780 0.074218 -0.041328 343242.000000 0 0 1
24.560534 18.645215 -28.513381 41.998533 0.649334 2.317078 0.083847 -0.034182 1140510.000000 0 0 1
23.072934 18.637815 -27.926801 40.738613 0.679466 2.326103 0.076756 -0.029176 1364940.000000 0 0 1
22.849834 17.998115 -26.720061 39.496945 0.667177 2.313809 0.077927 -0.022110 5524.570000 0 0 1
23.338734 18.767515 -25.621371 39.412825 0.677258 2.278482 0.082848 -0.012158 -36636.600000 0 0 1
23.490534 18.021815 -24.264671 38.280089 0.654415 2.257345 0.105898 -0.006123 231767.000000 0 0 1
24.530834 17.062215 -24.374271 38.561458 0.607727 2.255042 0.102513 -0.015353 282116.000000 0 0 1
24.579634 16.244315 -23.241871 37.526267 0.583989 2.238710 0.120276 -0.017529 294209.000000 0 0 1
25.766634 15.239415 -23.389971 37.990129 0.534102 2.234052 0.135550 -0.018706 -1109510.000000 0 0 1
27.004634 15.694515 -23.063871 38.826668 0.526465 2.206845 0.156085 -0.027950 -556048.000000 0 0 1
27.985934 14.619415 -22.917171 39.014568 0.481394 2.198639 0.162510 -0.038940 607545.000000 0 0 1
27.981534 13.740415 -21.612371 37.932306 0.456464 2.177012 0.151766 -0.026400 -463623.000000 0 0 1
26.905634 12.829515 -21.548771 36.781233 0.444943 2.196741 0.147359 -0.021898 -238964.000000 0 0 1
26.806134 12.215515 -20.276571 35.762088 0.427583 2.173637 0.121896 -0.032700 -790539.000000 0 0 1
25.471234 11.514015 -20.134871 34.449518 0.424549 2.195029 0.136271 -0.030151 -849182.000000 0 0 1
24.437034 12.457015 -20.058371 33.980643 0.471425 2.202212 0.145275 -0.028571 -426126.000000 0 0 1
23.260334 11.925615 -20.667371 33.322719 0.473757 2.239818 0.130660 -0.029236 526300.000000 0 0 1
22.090434 12.929515 -20.480071 32.780984 0.529540 2.245614 0.105229 -0.020542 -336444.000000 0 0 1
22.388434 14.160715 -21.115371 33.876639 0.563975 2.243754 0.106647 -0.019348 201122.000000 0 0 1
21.491034 15.252815 -20.855871 33.607741 0.617226 2.240262 0.071791 -0.014538 -447406.000000 0 0 1
20.292034 15.280615 -21.801471 33.474885 0.645441 2.280064 0.068026 -0.004452 -217007.000000 0 0 1
19.246734 14.381715 -21.474571 32.224644 0.641725 2.300169 0.050818 -0.001737 452063.000000 0 0 1
18.169134 14.410315 -22.400971 32.242489 0.670532 2.338890 0.053792 -0.006615 -176738.000000 0 0 1
17.067434 13.432615 -22.051571 30.951643 0.666783 2.363783 0.061020 -0.002469 -102922.000000 0 0 1
15.902934 13.674615 -22.829971 31.001709 0.710202 2.398545 0.050755 -0.001340 354986.000000 0 0 1
14.836734 12.801715 -22.406871 29.767103 0.711901 2.423010 0.064912 -0.001939 1821420.000000 0 0 1
13.490534 13.001615 -23.262971 29.869756 0.766945 2.463568 0.066549 -0.007196 1154310.000000 0 0 1
12.983434 14.298915 -23.064471 30.083190 0.833578 2.444465 0.094830 -0.005643 -109170.000000 0 0 1
12.381134 14.760115 -24.254871 30.975026 0.872827 2.470345 0.086908 -0.012031 -535812.000000 0 0 1
12.059534 16.312215 -24.253071 31.618541 0.934182 2.445030 0.093781 -0.023015 205187.000000 0 0 1
13.106034 17.286415 -24.231371 32.523032 0.922087 2.411410 0.073265 -0.010182 120900.000000 0 0 1
14.154334 17.135915 -25.190031 33.593487 0.880399 2.418630 0.083091 -0.022468 -38592.100000 0 0 1
13.853134 17.458015 -26.702101 34.780652 0.900024 2.446085 0.112841 -0.032520 -377708.000000 0 0 1
14.966434 17.426115 -27.578541 35.892054 0.861186 2.447094 0.094386 -0.035105 -92590.400000 0 0 1
14.712234 17.506115 -28.937891 36.882454 0.871899 2.472843 0.144214 -0.039495 -24483.400000 0 0 1
15.981934 17.997215 -29.727751 38.249982 0.844638 2.460994 0.127368 -0.051862 893308.000000 0 0 1
17.021234 17.047115 -29.602471 38.165859 0.786158 2.458504 0.078258 -0.042683 -226556.000000 0 0 1
18.214834 17.417815 -30.238591 39.364106 0.763034 2.446785 0.070189 -0.038624 521928.000000 0 0 1
19.365434 16.338015 -30.181441 39.406473 0.700807 2.443237 0.083428 -0.034638 411630.000000 0 0 1
20.566334 16.763815 -30.774151 40.633089 0.683886 2.430067 0.078619 -0.034918 72934.400000 0 0 1
21.616834 15.817215 -30.684761 40.731147 0.631691 2.423936 0.096931 -0.030720 862902.000000 0 0 1
22.964034 16.264515 -31.353531 42.129861 0.616248 2.410150 0.106031 -0.033976 526366.000000 0 0 1
22.891434 16.313215 -32.764781 43.170239 0.619155 2.432521 0.127575 -0.038764 128512.000000 0 0 1
24.127434 16.798815 -33.237481 44.374129 0.608207 2.417391 0.126024 -0.047898 50513.500000 0 0 1
23.919934 17.595315 32.825725 44.263829 0.634216 0.735355 0.093142 -0.032528 -117177.000000 0 0 1
24.963534 18.494815 32.568565 45.010528 0.637634 0.761826 0.084509 -0.024007 -109807.000000 0 0 1
25.005334 18.916215 31.216279 44.244163 0.647640 0.787603 0.106721 -0.027134 179200.000000 0 0 1
26.115834 20.011815 31.010016 45.212062 0.653834 0.814985 0.136480 -0.033247 223154.000000 0 0 1
27.409534 19.535015 31.245543 45.925846 0.619204 0.822559 0.113215 -0.025317 -511541.000000 0 0 1
28.350534 20.549715 30.972236 46.747438 0.627206 0.846586 0.110513 -0.035809 647353.000000 0 0 1
29.821834 20.191315 31.387581 47.772494 0.595167 0.853935 0.133864 -0.028426 649921.000000 0 0 1
30.062834 19.932415 32.765380 48.730332 0.585477 0.833375 0.111510 -0.036515 -537041.000000 0 0 1
31.397434 20.113715 33.112971 49.868118 0.569750 0.844626 0.105230 -0.023127 -549981.000000 0 0 1
31.663034 19.749215 -32.740951 49.644225 0.557686 2.290965 0.083385 -0.005188 -89226.300000 0 0 1
30.874934 20.526715 -31.839951 48.871157 0.586733 2.280367 0.062773 -0.033664 146365.000000 0 0 1
30.557434 19.899515 -30.675981 47.652526 0.577230 2.270176 0.084791 -0.044894 -229526.000000 0 0 1
31.651234 19.947215 -29.611121 47.712791 0.562344 2.240319 0.100088 -0.056229 -151568.000000 0 0 1
32.858434 19.254015 -29.832821 48.377587 0.530038 2.235297 0.101661 -0.057039 -430589.000000 0 0 1
33.589634 19.172815 -28.652771 48.133581 0.518669 2.208406 0.119358 -0.058702 -957717.000000 0 0 1
35.015834 18.705115 -28.925941 49.119243 0.490624 2.200484 0.079180 -0.042620 -1025960.000000 0 0 1
35.681734 19.701115 -29.619201 50.384691 0.504480 2.199209 0.077646 -0.049851 -769317.000000 0 0 1
36.952134 19.774615 -29.026861 50.980920 0.491364 2.176532 0.056528 -0.025140 -153471.000000 0 0 1
-37.826489 20.713415 -29.673351 52.348797 -0.500991 2.173460 0.053265 -0.027343 418507.000000 0 0 1
-37.258789 20.110015 -30.843971 52.383018 -0.494931 2.200390 0.039806 -0.029099 258479.000000 0 0 1
-36.127589 20.897815 -31.200391 52.109363 -0.524419 2.212734 0.039128 -0.028252 631426.000000 0 0 1
-35.271289 20.327115 -32.421771 52.042546 -0.522816 2.243350 0.045234 -0.029020 256146.000000 0 0 1
-34.433089 19.264315 -32.058181 50.837765 -0.510086 2.253119 0.055021 -0.022849 -358475.000000 0 0 1
-33.665689 18.803415 -33.093221 50.814449 -0.509371 2.280035 0.065917 -0.021903 -876572.000000 0 0 1
-32.790789 17.632115 -32.672131 49.533780 -0.493363 2.291073 0.050722 -0.015891 -208372.000000 0 0 1
-33.489389 16.433415 -32.233301 49.300932 -0.456184 2.283401 0.052522 -0.015440 249500.000000 0 0 1
-32.825489 15.244615 -32.589961 48.703352 -0.434776 2.303864 0.052422 -0.006718 -450607.000000 0 0 1
-33.808689 14.081615 -32.718691 49.110406 -0.394657 2.299935 0.059517 -0.012110 -512819.000000 0 0 1
-33.265389 12.883615 -33.136241 48.688644 -0.369509 2.319343 0.074167 -0.023747 -24371.400000 0 0 1
-34.248189 11.864615 -33.136521 49.109434 -0.333491 2.311420 0.084811 -0.028986 -220419.000000 0 0 1
-33.737689 10.416915 -33.211641 48.474290 -0.299476 2.325591 0.090817 -0.029959 126480.000000 0 0 1
-33.035689 10.143115 32.892125 47.708819 -0.297898 0.810088 0.069843 -0.028450 289686.000000 0 0 1
-33.288089 8.827815 32.411191 47.291780 -0.259227 0.815719 0.107147 -0.043199 324228.000000 0 0 1
-32.135289 8.232115 31.502244 45.747523 -0.250778 0.811225 0.122234 -0.035028 665702.000000 0 0 1
-31.084689 7.792315 32.340095 45.528670 -0.245619 0.780838 0.087450 -0.015697 -257091.000000 0 0 1
-29.980289 7.359215 31.581574 44.163011 -0.240709 0.774010 0.079831 -0.022071 -138300.000000 0 0 1
22.198234 -4.280300 -31.707731 38.941787 -0.190484 2.522205 0.105828 -0.060123 879514.000000 0 0 1
23.573134 -4.283900 -32.143051 40.090150 -0.179766 2.501046 0.080265 -0.054295 1338410.000000 0 0 1
24.515734 -3.357600 -31.572111 40.113500 -0.136110 2.476840 0.088457 -0.049236 469946.000000 0 0 1
24.399634 -1.929900 -32.073911 40.346033 -0.078931 2.489755 0.082443 -0.046561 -520848.000000 0 0 1
25.199334 -0.986800 -31.367751 40.248180 -0.039140 2.464437 0.090597 -0.038319 301794.000000 0 0 1
24.918834 0.273400 -31.947341 40.517350 0.010971 2.479139 0.079195 -0.037563 623965.000000 0 0 1
25.901134 1.375600 -31.333591 40.676221 0.053060 2.450135 0.072443 -0.029908 109035.000000 0 0 1
27.127134 1.446000 -31.968701 41.951998 0.053254 2.437239 0.074869 -0.030325 -1148710.000000 0 0 1
27.989734 2.365600 -31.324861 42.074555 0.084316 2.410595 0.083575 -0.034051 59200.600000 0 0 1
29.433934 2.129300 -31.826011 43.402596 0.072216 2.393922 0.096232 -0.036244 -97296.800000 0 0 1
29.899034 2.524900 -33.098681 44.674937 0.084248 2.405173 0.100436 -0.030124 52200.100000 0 0 1
29.613034 1.614300 33.238386 44.545797 0.054459 0.728518 0.095804 -0.031502 -355996.000000 0 0 1
30.142034 1.935800 31.835224 43.883608 0.064135 0.759113 0.082348 -0.036790 -612959.000000 0 0 1
29.448734 2.987600 31.311151 43.087607 0.101105 0.757311 0.068943 -0.022706 -58692.900000 0 0 1
30.024934 4.296100 31.472100 43.708651 0.142120 0.766932 0.095785 -0.023311 -271621.000000 0 0 1
29.126234 5.443400 30.976716 42.866362 0.184759 0.763190 0.080878 -0.019513 -314032.000000 0 0 1
29.614734 6.712900 31.246734 43.571251 0.222908 0.771105 0.107832 -0.028690 109604.000000 0 0 1
28.848034 7.700600 30.560296 42.725168 0.260855 0.773777 0.095009 -0.028920 83153.800000 0 0 1
29.308034 9.161000 30.882266 43.549961 0.302954 0.782543 0.099391 -0.024723 -76833.300000 0 0 1
30.666234 9.299100 30.554506 44.277184 0.294423 0.809206 0.108442 -0.024574 -278561.000000 0 0 1
31.102334 10.584800 30.992616 45.165644 0.328027 0.814546 0.103791 -0.018679 683644.000000 0 0 1
32.554734 10.951000 30.517216 45.946007 0.324497 0.844377 0.118225 -0.023413 1328740.000000 0 0 1
33.607134 10.501400 31.443822 47.206279 0.302862 0.841837 0.129698 -0.042197 2428520.000000 0 0 1
34.940634 10.568300 30.847436 47.792271 0.293716 0.869186 0.132569 -0.046931 1519500.000000 0 0 1
35.632434 11.977300 30.787206 48.589897 0.324270 0.884582 0.121246 -0.042080 -541937.000000 0 0 1
35.993834 12.367300 32.083486 49.778070 0.330957 0.870387 0.120709 -0.039440 -67403.100000 0 0 1
36.319134 13.734000 32.253105 50.477372 0.361528 0.877649 0.127880 -0.027286 373203.000000 0 0 1
35.262734 14.913600 32.073465 49.945801 0.400114 0.873477 0.114355 -0.021647 -456571.000000 0 0 1
34.961234 15.179000 30.759786 48.978101 0.409609 0.891775 0.113948 -0.029705 230351.000000 0 0 1
33.900334 16.117500 30.642526 48.455865 0.443805 0.886174 0.102280 -0.019476 -10009.500000 0 0 1
32.484934 15.572000 30.793496 47.391956 0.447000 0.863525 0.103721 -0.014754 -1192380.000000 0 0 1
31.915634 14.862500 29.725526 46.077201 0.435817 0.869610 0.100757 -0.008129 305647.000000 0 0 1
30.610334 14.450100 30.122776 45.312025 0.441052 0.843590 0.081192 -0.010780 598058.000000 0 0 1
29.650034 14.000700 28.983776 43.763037 0.441160 0.846927 0.091138 -0.006940 292707.000000 0 0 1
30.077534 12.813200 28.308756 43.246061 0.402722 0.857146 0.094580 -0.011430 334535.000000 0 0 1
29.121134 12.491700 27.306176 41.829538 0.405217 0.859526 0.102739 -0.016951 376449.000000 0 0 1
28.808134 10.996900 27.199856 41.117789 0.364657 0.847965 0.097623 -0.008467 196538.000000 0 0 1
29.913634 10.193700 26.794266 41.432713 0.328429 0.867555 0.101822 -0.015423 443716.000000 0 0 1
29.490734 8.837800 26.530366 40.640748 0.291164 0.859519 0.095040 -0.016692 463618.000000 0 0 1
30.715234 7.954600 26.168526 41.127764 0.253411 0.881138 0.110794 -0.028562 91274.800000 0 0 1
31.213934 8.210000 24.902406 40.765716 0.257198 0.913642 0.113142 -0.024807 380613.000000 0 0 1
32.220334 7.240700 24.525086 41.134626 0.221052 0.932018 0.134678 -0.021994 714135.000000 0 0 1
32.910434 7.567100 23.176816 40.957569 0.226002 0.969304 0.150034 -0.026276 165209.000000 0 0 1
33.556734 8.851400 23.139546 41.711392 0.257900 0.982730 0.145649 -0.032288 250958.000000 0 0 1
32.721934 9.971900 22.850556 41.137716 0.295806 0.981874 0.155081 -0.039574 -91740.200000 0 0 1
32.277434 10.083200 21.347966 39.990490 0.302786 1.007677 0.153112 -0.021887 -378024.000000 0 0 1
33.349334 10.288100 20.497766 40.474455 0.299232 1.039749 0.147938 -0.031996 -366629.000000 0 0 1
32.962934 10.126900 19.115766 39.427422 0.298068 1.064623 0.168148 -0.035440 -955024.000000 0 0 1
33.843234 10.799300 18.064566 39.853706 0.308884 1.100364 0.183372 -0.060820 531698.000000 0 0 1
35.085934 10.199300 17.681766 40.591789 0.282898 1.120092 0.188767 -0.050950 897328.000000 0 0 1
36.102834 10.257000 18.674266 41.920745 0.276811 1.109102 0.167088 -0.043446 422355.000000 0 0 1
37.541434 9.779800 18.234066 42.865895 0.254843 1.131420 0.160144 -0.038339 674557.000000 0 0 1
37.559434 8.391800 17.942166 42.462392 0.219817 1.134548 0.143266 -0.034678 -86684.600000 0 0 1
-37.137389 7.975300 17.273166 41.727129 -0.211538 1.144001 0.152562 -0.031199 -615705.000000 0 0 1
-37.139589 6.498600 16.784666 41.271126 -0.173224 1.151965 0.140029 -0.027381 -975832.000000 0 0 1
37.725934 6.203400 15.877566 41.398374 0.162975 1.177180 0.142452 -0.028946 -609654.000000 0 0 1
37.803034 4.940900 15.310366 41.083928 0.129964 1.188922 0.151027 -0.035420 128527.000000 0 0 1
36.593734 3.978500 15.602166 39.979462 0.108295 1.169888 0.154307 -0.037137 324409.000000 0 0 1
36.601534 3.391900 16.845566 40.434519 0.092407 1.141079 0.153084 -0.029267 -967577.000000 0 0 1
35.374234 2.855200 17.137466 39.410422 0.080540 1.120929 0.136013 -0.034161 -948388.000000 0 0 1
35.280034 2.026800 18.405366 39.844023 0.057386 1.090620 0.147982 -0.046560 -6232.990000 0 0 1
36.078434 0.867300 18.403966 40.510635 0.024035 1.099210 0.155234 -0.041145 105821.000000 0 0 1
35.871134 0.201800 19.587266 40.871016 0.005626 1.071001 0.144775 -0.038950 198412.000000 0 0 1
36.439734 -1.240600 19.579666 41.385464 -0.034032 1.077985 0.141655 -0.036636 192076.000000 0 0 1
35.991834 -1.895400 20.785066 41.605572 -0.052613 1.047689 0.171015 -0.025282 352237.000000 0 0 1
36.237234 -3.311000 20.688166 41.858094 -0.091117 1.053830 0.104105 -0.019606 -484453.000000 0 0 1
35.706134 -4.077300 21.921566 42.096406 -0.113698 1.023071 0.101201 -0.026957 106943.000000 0 0 1
36.348634 -3.748100 23.146146 43.255237 -0.102752 1.006163 0.103649 -0.026729 249296.000000 0 0 1
35.651734 -4.423200 24.136066 43.280024 -0.123436 0.979218 0.087255 -0.025814 -99882.000000 0 0 1
35.432934 -3.656200 25.433496 43.768977 -0.102823 0.950735 0.064038 -0.024154 -43085.200000 0 0 1
34.772134 -4.410100 26.482476 43.930306 -0.126155 0.923754 0.077372 -0.023377 244292.000000 0 0 1
34.744434 -3.755000 27.743546 44.620399 -0.107657 0.899798 0.078056 -0.014275 -135256.000000 0 0 1
33.846734 -4.474100 28.764076 44.642928 -0.131425 0.870670 0.067592 -0.016090 -139702.000000 0 0 1
34.348034 -5.737900 29.180506 45.433609 -0.165523 0.873344 0.074838 -0.026176 187327.000000 0 0 1
33.429034 -6.393200 30.043776 45.398257 -0.188965 0.847602 0.079236 -0.039632 288756.000000 0 0 1
33.935734 -7.846500 30.281986 46.154093 -0.227223 0.855149 0.076237 -0.037858 -218798.000000 0 0 1
34.933634 -7.908300 31.239601 47.526968 -0.222628 0.853562 0.077631 -0.040954 -1039790.000000 0 0 1
35.775234 -8.973500 30.979216 48.167446 -0.245760 0.872183 0.075606 -0.020330 -343999.000000 0 0 1
37.066934 -8.843200 31.816754 49.643384 -0.234196 0.875118 0.095331 -0.017462 -16779.000000 0 0 1
36.874734 -9.229800 33.156258 50.440784 -0.245262 0.853526 0.078254 -0.025126 258442.000000 0 0 1
-37.787489 -8.970100 -33.444261 51.253054 0.233069 2.281717 0.065708 -0.025699 26841.500000 0 0 1
-37.876789 -9.008300 -31.871301 50.314813 0.233494 2.256784 0.091752 -0.033168 -461563.000000 0 0 1
36.993234 -8.203200 -31.279571 49.134544 -0.218218 2.260892 0.090596 -0.040813 91971.500000 0 0 1
37.128134 -6.786800 -31.520201 49.173998 -0.180798 2.266588 0.069817 -0.035997 -140583.000000 0 0 1
36.486834 -5.933600 -30.396011 47.858271 -0.161212 2.258967 0.091631 -0.026376 -166433.000000 0 0 1
37.298934 -5.871100 -29.287321 47.785222 -0.156126 2.230515 0.091432 -0.021995 -42572.900000 0 0 1
36.624534 -5.201300 -28.274621 46.560328 -0.141073 2.223414 0.103285 -0.027345 -251221.000000 0 0 1
37.393434 -5.335200 -26.934801 46.391990 -0.141721 2.190251 0.101519 -0.030784 229610.000000 0 0 1
-37.116589 -4.883200 -27.072671 46.199743 0.130813 2.196900 0.097507 -0.026533 -52089.600000 0 0 1
-36.487589 -5.028200 -25.831731 44.987834 0.136943 2.182415 0.112446 -0.025649 -19257.000000 0 0 1
-35.116989 -4.317700 -25.776521 43.775272 0.122338 2.200416 0.129884 -0.023094 -235601.000000 0 0 1
-34.533789 -4.240900 -24.444471 42.521758 0.122193 2.183241 0.154515 -0.028524 578661.000000 0 0 1
-33.138989 -4.088100 -24.288571 41.289706 0.122742 2.199686 0.180091 -0.028992 256315.000000 0 0 1
-32.353589 -2.951800 -24.956871 40.967221 0.090984 2.225837 0.164426 -0.028197 -600555.000000 0 0 1
-32.222689 -3.181400 -26.337651 41.738409 0.098413 2.253660 0.161146 -0.018509 156393.000000 0 0 1
-31.483389 -2.167800 -27.044231 41.560721 0.068747 2.279323 0.156025 -0.016485 411052.000000 0 0 1
-30.789689 -2.892200 -28.258391 41.891603 0.093659 2.311165 0.132627 -0.023796 259329.000000 0 0 1
-31.738889 -3.080600 -29.302861 43.307099 0.096758 2.313972 0.150307 -0.026877 456288.000000 0 0 1
-31.250489 -3.942600 -30.323631 43.722531 0.125498 2.337197 0.120913 -0.012901 -901290.000000 0 0 1
-32.371789 -4.357800 -31.272381 45.220404 0.133813 2.334435 0.101234 -0.018315 -685847.000000 0 0 1
-33.285489 -5.251800 -30.655351 45.554974 0.156490 2.308960 0.088161 -0.021701 711381.000000 0 0 1
-34.348789 -4.703800 -29.867551 45.760634 0.136096 2.281927 0.109375 -0.024458 108837.000000 0 0 1
-35.523389 -4.009500 -30.615401 47.066867 0.112394 2.278994 0.131780 -0.030441 -387078.000000 0 0 1
-35.241289 -2.723300 -31.151761 47.114721 0.077123 2.293200 0.152122 -0.024892 -1463.930000 0 0 1
-35.184189 -1.673600 -30.187631 46.389882 0.047531 2.279352 0.164545 -0.022914 -719646.000000 0 0 1
-34.764689 -0.292000 -30.722401 46.395417 0.008399 2.294529 0.149093 -0.024529 -10293.300000 0 0 1
-35.710989 0.464100 -31.490871 47.614756 -0.012995 2.293437 0.172828 -0.022834 164061.000000 0 0 1
-35.255189 1.752000 -31.850831 47.544434 -0.049654 2.304893 0.165925 -0.019304 235289.000000 0 0 1
-36.473489 2.673100 -32.131581 48.681612 -0.073158 2.291662 0.148194 -0.020763 224945.000000 0 0 1
-37.054089 2.459800 -33.383571 49.935147 -0.066287 2.303038 0.151719 -0.018956 -517510.000000 0 0 1
37.556334 3.075100 -33.548531 50.452338 0.081697 2.298230 0.139772 -0.017762 -58802.400000 0 0 1
36.615034 2.514800 32.663768 49.131524 0.068574 0.843539 0.117353 -0.014221 224031.000000 0 0 1
36.925534 2.836800 31.331019 48.509538 0.076674 0.868630 0.132638 -0.018109 -134454.000000 0 0 1
-37.826389 2.110200 30.863156 48.865356 -0.055729 0.887186 0.121310 -0.017638 -383234.000000 0 0 1
-37.695589 2.337900 29.354046 47.833912 -0.061941 0.910101 0.131203 -0.020018 -54170.800000 0 0 1
-37.124789 3.611400 29.045556 47.275115 -0.096972 0.909178 0.136507 -0.024020 334822.000000 0 0 1
-36.662189 3.656000 27.679526 46.082953 -0.099393 0.926488 0.132561 -0.021653 299211.000000 0 0 1
-35.994389 5.011400 27.285956 45.444841 -0.138338 0.926771 0.122325 -0.023279 -156007.000000 0 0 1
-35.256589 5.099400 26.122646 44.174920 -0.143641 0.938070 0.116680 -0.015488 -294751.000000 0 0 1
-34.514889 6.246400 26.064336 43.699481 -0.179039 0.931732 0.119783 -0.017936 -428852.000000 0 0 1
-33.637989 6.312900 24.777416 42.252661 -0.185514 0.944176 0.104658 -0.010277 428173.000000 0 0 1
-32.560689 5.359000 24.774586 41.263754 -0.163123 0.926800 0.095319 -0.007287 821411.000000 0 0 1
-31.574789 5.469700 23.767556 39.897138 -0.171528 0.932634 0.090338 -0.007214 105702.000000 0 0 1
-32.027189 5.213700 22.350446 39.401344 -0.161374 0.967633 0.099401 -0.016531 -350749.000000 0 0 1
-32.426189 3.873800 22.152766 39.461488 -0.118902 0.974748 0.088517 -0.013845 -18943.600000 0 0 1
-33.049789 3.690700 20.895766 39.275219 -0.111210 1.009795 0.095699 -0.024065 -533724.000000 0 0 1
-33.093489 2.232900 20.372766 38.925755 -0.067370 1.019989 0.093079 -0.013005 440780.000000 0 0 1
-31.902389 1.618000 19.837066 37.601722 -0.050674 1.015074 0.120617 -0.012158 542492.000000 0 0 1
-31.652789 2.161800 18.555066 36.754087 -0.068191 1.041596 0.117952 -0.020324 -191306.000000 0 0 1
-30.220289 1.872900 18.057966 35.254272 -0.061896 1.033028 0.125192 -0.027957 -246080.000000 0 0 1
-29.908889 0.521600 17.943166 34.882243 -0.017438 1.030497 0.136637 -0.031369 116946.000000 0 0 1
-28.644589 0.067600 17.494266 33.564362 -0.002360 1.022522 0.143512 -0.033281 103123.000000 0 0 1
-28.333389 0.144500 15.964266 32.521679 -0.005100 1.057696 0.173487 -0.028963 -229732.000000 0 0 1
-28.003189 1.446100 15.504366 32.041460 -0.051595 1.065708 0.175792 -0.036265 250696.000000 0 0 1
-27.931889 1.518100 14.085566 31.319294 -0.054297 1.104321 0.187662 -0.038166 -98738.000000 0 0 1
-27.240489 2.782800 13.481866 30.521286 -0.101804 1.113281 0.180674 -0.035946 -42071.400000 0 0 1
-25.836489 2.639300 13.520766 29.279706 -0.101801 1.090796 0.179381 -0.045873 -231562.000000 0 0 1
-25.251789 3.659700 12.773866 28.534503 -0.143926 1.106645 0.174105 -0.051547 -632880.000000 0 0 1
-23.726489 3.607400 12.754266 27.177765 -0.150885 1.082309 0.155805 -0.054342 -654845.000000 0 0 1
-23.093789 4.045300 13.925366 27.269091 -0.173409 1.034838 0.138385 -0.045803 104058.000000 0 0 1
-21.729789 4.319700 13.656566 26.025859 -0.196233 1.018398 0.114449 -0.041110 46101.900000 0 0 1
-20.931789 4.908800 14.815966 26.110322 -0.230351 0.967406 0.098623 -0.043813 -409750.000000 0 0 1
-21.306189 6.248400 15.042266 26.819134 -0.285268 0.975350 0.096459 -0.034587 246392.000000 0 0 1
-20.641789 6.781800 16.131666 27.061169 -0.317437 0.932138 0.094094 -0.024037 -438007.000000 0 0 1
-21.042689 8.217900 16.359266 27.891830 -0.372320 0.944034 0.089580 -0.026456 -117323.000000 0 0 1
-20.444689 9.203400 15.477066 27.243851 -0.422988 0.966608 0.091369 -0.028502 598303.000000 0 0 1
-20.865289 10.548400 15.683766 28.153322 -0.468076 0.979926 0.098094 -0.025158 -270676.000000 0 0 1
-20.480189 11.293100 16.964266 28.892188 -0.503930 0.943253 0.100625 -0.023625 -240039.000000 0 0 1
-21.177489 10.814700 18.085866 29.875447 -0.472147 0.920559 0.117371 -0.027769 508675.000000 0 0 1
-20.543189 11.253100 19.299666 30.350156 -0.501135 0.881622 0.112884 -0.019664 101028.000000 0 0 1
-12.689866 -33.363714 -19.729471 40.785072 1.207344 2.075722 0.152184 -0.058097 -680296.000000 0 0 1
-13.815066 -33.662514 -19.011071 41.054131 1.181357 2.052256 0.161477 -0.049516 -1050020.000000 0 0 1
-14.758966 -32.630914 -18.902271 40.495672 1.146031 2.056434 0.141157 -0.073968 430164.000000 0 0 1
-16.068666 -33.151314 -18.210671 41.095501 1.119458 2.029884 0.134621 -0.058232 117523.000000 0 0 1
-16.842766 33.623600 -19.043171 42.152907 -1.106412 2.039538 0.116138 -0.066254 217664.000000 0 0 1
-17.623066 32.643400 -18.359671 41.391322 -1.075767 2.030367 0.136514 -0.065299 631390.000000 0 0 1
-19.019166 33.139500 -17.864771 42.179440 -1.049780 2.008148 0.125109 -0.060711 -287514.000000 0 0 1
-18.969166 -33.433714 -16.906071 41.993544 1.054718 1.985138 0.143337 -0.057718 581233.000000 0 0 1
-20.309266 -33.114814 -16.524471 42.215108 1.020656 1.972987 0.106938 -0.051556 475297.000000 0 0 1
-20.723466 -33.678014 -15.183971 42.358277 1.019173 1.937420 0.123062 -0.054954 -476990.000000 0 0 1
-20.630466 32.539900 -15.164571 41.405621 -1.005748 1.945766 0.127613 -0.058060 481070.000000 0 0 1
-21.256566 32.003500 -13.945771 40.872364 -0.984507 1.918993 0.131588 -0.054859 170546.000000 0 0 1
-21.289666 30.446700 -13.947071 39.683400 -0.960578 1.929925 0.138583 -0.051834 -148856.000000 0 0 1
-20.024866 29.834000 -13.897271 38.525277 -0.979655 1.939848 0.166810 -0.058250 -123633.000000 0 0 1
-20.056166 28.437600 -13.758471 37.419813 -0.956543 1.947308 0.168127 -0.056219 -493008.000000 0 0 1
-18.832366 27.888100 -13.041071 36.089800 -0.976852 1.940512 0.155099 -0.055736 390875.000000 0 0 1
-17.606866 27.987700 -13.800671 35.829759 -1.009259 1.966192 0.181408 -0.060335 52073.900000 0 0 1
-16.622066 27.210700 -13.216371 34.516485 -1.022426 1.963730 0.179604 -0.059041 -986773.000000 0 0 1
-15.208866 27.601700 -13.581171 34.316347 -1.067177 1.977696 0.152483 -0.065083 -549319.000000 0 0 1
-14.997566 27.425600 -14.971471 34.658844 -1.070378 2.017469 0.133288 -0.051772 -248178.000000 0 0 1
-13.708566 27.895000 -15.321971 34.652830 -1.114025 2.028798 0.154075 -0.057830 217114.000000 0 0 1
-13.588266 28.183100 -16.858371 35.540579 -1.121537 2.065012 0.165090 -0.063603 81979.500000 0 0 1
-13.616066 26.976800 -17.614771 34.977495 -1.103370 2.098560 0.129299 -0.066422 -69453.900000 0 0 1
-14.093566 27.120600 -18.947671 35.960670 -1.091543 2.125745 0.113312 -0.061875 -86489.200000 0 0 1
-13.612866 25.987700 -19.915471 35.458379 -1.088275 2.167184 0.087979 -0.041011 308286.000000 0 0 1
-12.271466 26.115900 -20.355271 35.312408 -1.131530 2.185154 0.065929 -0.033292 146018.000000 0 0 1
-11.781966 25.088200 -21.200371 34.895390 -1.131745 2.223757 0.068349 -0.035066 880622.000000 0 0 1
-10.441266 25.371600 -21.954471 35.138823 -1.180387 2.245662 0.093164 -0.031649 661002.000000 0 0 1
-10.688766 26.100700 -23.140471 36.482566 -1.182110 2.257884 0.074038 -0.026719 263391.000000 0 0 1
-9.484266 26.454800 -23.790971 36.821435 -1.226562 2.273283 0.075506 -0.027702 123650.000000 0 0 1
-9.734566 27.058000 -25.222361 38.250028 -1.225447 2.290827 0.068713 -0.018906 -739766.000000 0 0 1
-10.583266 26.297700 -25.940661 38.425154 -1.188188 2.311891 0.058877 -0.011582 -1080000.000000 0 0 1
-10.740366 26.807500 -27.214581 39.681620 -1.189732 2.326531 0.075098 -0.009030 -665521.000000 0 0 1
-11.996366 26.284500 -27.866911 40.141655 -1.142629 2.338124 0.060166 -0.006576 -612473.000000 0 0 1
-12.280666 26.908200 -29.125001 41.510621 -1.142640 2.348476 0.067726 -0.004860 395336.000000 0 0 1
-13.506866 26.337100 -29.592131 41.854181 -1.096925 2.356085 0.065568 -0.004792 358604.000000 0 0 1
-13.925766 26.765400 -30.999641 43.258425 -1.091049 2.369733 0.064879 -0.005853 44782.500000 0 0 1
-13.099866 26.281000 -32.054591 43.471764 -1.108386 2.399959 0.071920 -0.010542 151565.000000 0 0 1
-13.165966 24.914200 -32.239621 42.818841 -1.084647 2.423300 0.066369 -0.012717 78120.900000 0 0 1
-12.333966 24.330800 -33.410361 43.131969 -1.101622 2.456891 0.058373 -0.014172 261746.000000 0 0 1
-12.998966 24.439600 32.680833 42.828775 -1.081970 0.702765 0.069435 -0.018491 264668.000000 0 0 1
-12.235466 23.821500 31.664195 41.470372 -1.096303 0.702022 0.068694 -0.019412 -298789.000000 0 0 1
-13.014166 23.867400 30.295316 40.704146 -1.071592 0.731339 0.077686 -0.012159 469011.000000 0 0 1
-14.205166 23.098800 30.352816 40.701778 -1.019439 0.729156 0.083935 -0.021133 171607.000000 0 0 1
-14.914366 22.975100 29.137636 39.991191 -0.995016 0.754519 0.094766 -0.017192 510484.000000 0 0 1
-16.219566 22.139900 29.174866 40.055241 -0.938528 0.754863 0.095911 -0.020606 730557.000000 0 0 1
-15.818266 20.726300 29.388286 39.287000 -0.918902 0.725691 0.082344 -0.020612 435542.000000 0 0 1
-16.966066 19.926000 29.560136 39.480305 -0.865459 0.724650 0.080374 -0.016562 214843.000000 0 0 1
-16.541366 18.437300 29.628696 38.618784 -0.839548 0.696317 0.064162 -0.016938 79946.100000 0 0 1
-16.216666 17.775100 28.415776 37.234269 -0.831213 0.702604 0.080600 -0.019737 43338.100000 0 0 1
-15.728066 16.452300 28.592226 36.545391 -0.807900 0.672325 0.065325 -0.024729 284161.000000 0 0 1
-15.199166 15.903800 27.188506 34.973709 -0.808049 0.680277 0.064740 -0.024391 -701637.000000 0 0 1
-14.093066 16.496200 26.667276 34.378521 -0.863798 0.682979 0.051402 -0.020268 -1270170.000000 0 0 1
-13.556966 15.751000 25.625386 32.993116 -0.860120 0.681404 0.045207 -0.015138 260666.000000 0 0 1
-12.370466 16.467200 24.916726 32.327084 -0.926516 0.690748 0.046846 -0.015224 282850.000000 0 0 1
-12.763266 17.509800 24.011926 32.342954 -0.940923 0.734127 0.046572 -0.020523 -169342.000000 0 0 1
-13.193166 18.772300 24.467946 33.543095 -0.958194 0.753282 0.045536 -0.020845 65430.200000 0 0 1
-12.118166 19.738900 25.051866 34.118472 -1.020202 0.746219 0.056110 -0.014511 83454.700000 0 0 1
-11.862266 19.522000 26.455786 34.953261 -1.024781 0.712255 0.066989 -0.017045 972763.000000 0 0 1
-12.910866 19.969900 27.381906 36.266460 -0.996874 0.715112 0.072715 -0.016973 815786.000000 0 0 1
-12.545366 19.613300 28.803266 37.036413 -1.001742 0.679796 0.071660 -0.024692 908459.000000 0 0 1
-11.303266 20.126300 29.329546 37.323639 -1.059078 0.666780 0.072797 -0.031180 688501.000000 0 0 1
-11.147266 19.975900 30.745046 38.321743 -1.061805 0.639679 0.069472 -0.030742 557002.000000 0 0 1
-9.963366 20.771900 31.417269 38.958764 -1.123556 0.632717 0.049191 -0.023339 320435.000000 0 0 1
-8.689866 20.234500 31.223400 38.207976 -1.165156 0.614268 0.059867 -0.029617 -669820.000000 0 0 1
-7.728166 21.075600 31.810665 38.933583 -1.219333 0.614521 0.071006 -0.027840 96969.900000 0 0 1
-6.472966 20.365300 32.375728 38.792170 -1.263051 0.583400 0.071935 -0.025500 -318349.000000 0 0 1
-6.670966 19.545400 33.498176 39.352919 -1.241887 0.552482 0.072360 -0.031838 206462.000000 0 0 1
-5.479966 18.999400 -33.272321 38.704710 -1.289989 2.605371 0.067240 -0.030628 680380.000000 0 0 1
-4.774366 17.889900 33.195061 38.009935 -1.310000 0.508808 0.043604 -0.033129 125940.000000 0 0 1
-5.402266 16.581500 33.229316 37.527564 -1.255840 0.483304 0.046883 -0.026623 -17814.400000 0 0 1
-4.912466 15.693800 32.192703 36.149659 -1.267438 0.472266 0.052466 -0.023066 -72324.100000 0 0 1
-5.451566 14.235000 32.100202 35.535584 -1.205057 0.443336 0.063447 -0.033546 -196221.000000 0 0 1
-4.972566 13.378300 33.107880 36.053253 -1.214932 0.407019 0.066424 -0.029737 -92721.400000 0 0 1
-5.544866 12.080900 32.908478 35.491712 -1.140502 0.383887 0.075131 -0.025555 84712.200000 0 0 1
-4.763066 10.895200 33.485766 35.534331 -1.158662 0.341212 0.085025 -0.036016 107779.000000 0 0 1
-4.715466 10.862500 -32.450071 34.543257 -1.161239 2.791684 0.097779 -0.046250 432.797000 0 0 1
-3.656266 9.968400 -32.153701 33.861449 -1.219247 2.822647 0.111980 -0.041178 268823.000000 0 0 1
-3.727866 9.444400 -30.691451 32.327370 -1.194852 2.822101 0.129557 -0.044924 481494.000000 0 0 1
-4.865966 8.643000 -30.366721 31.945529 -1.058031 2.825889 0.134406 -0.037744 171639.000000 0 0 1
-5.448266 9.058600 -29.153681 31.010949 -1.029314 2.793747 0.165699 -0.043727 730152.000000 0 0 1
-6.609566 8.014100 -28.820701 30.635681 -0.881150 2.795649 0.153829 -0.041617 758846.000000 0 0 1
-6.076466 6.829900 -28.271461 29.712732 -0.843709 2.828849 0.156693 -0.035083 150858.000000 0 0 1
-7.131166 6.041900 -27.817341 29.345571 -0.702897 2.817446 0.166750 -0.053384 -344558.000000 0 0 1
-6.615066 5.206700 -26.587531 27.888449 -0.666824 2.834951 0.148603 -0.055755 138097.000000 0 0 1
-6.674666 5.925100 -25.414191 26.935832 -0.725978 2.803861 0.115688 -0.039794 372251.000000 0 0 1
-5.565666 6.794600 -25.221781 26.707330 -0.884499 2.806491 0.115400 -0.041199 -114048.000000 0 0 1
-5.968366 7.906500 -24.214871 26.162838 -0.924187 2.753267 0.068085 -0.026223 240104.000000 0 0 1
-6.294966 7.268500 -22.959271 24.891480 -0.857052 2.744980 0.055220 -0.027006 -430991.000000 0 1 0
-7.489166 7.733400 -22.422071 24.872522 -0.801441 2.693972 0.062331 -0.020579 -402674.000000 0 1 0
-7.470066 7.820600 -20.852871 23.490549 -0.808319 2.663150 0.043305 -0.020102 85917.000000 0 1 0
-6.793666 9.015800 -20.457071 23.365151 -0.925041 2.637344 0.025927 -0.012931 109195.000000 0 1 0
-6.705166 9.195200 -19.035571 22.178005 -0.940739 2.602760 0.028163 -0.012508 -369189.000000 0 1 0
-7.970166 9.715200 -18.340271 22.232278 -0.883751 2.540890 0.030101 0.002070 -981345.000000 0 1 0
-7.956266 9.427900 -16.967571 20.978225 -0.869851 2.512936 0.022272 -0.004650 -378785.000000 0 1 0
-9.045966 9.790500 -16.162971 20.950537 -0.824904 2.451964 0.029776 -0.007550 -486219.000000 0 1 0
-9.628466 11.191600 -16.350971 22.029832 -0.860336 2.407173 0.058305 -0.017511 5698.380000 0 1 0
-8.650566 12.171300 -15.898071 21.811041 -0.952902 2.387510 0.038472 -0.018594 774661.000000 0 1 0
-9.101666 13.508000 -16.121071 22.917140 -0.977873 2.351037 0.070769 -0.024166 675845.000000 0 1 0
-7.938066 14.539900 -15.837771 22.918477 -1.071067 2.333734 0.078515 -0.021282 842642.000000 0 1 0
-7.440166 14.627000 -14.465471 21.875901 -1.100245 2.293282 0.072647 -0.017178 313957.000000 0 1 0
-8.368866 15.138800 -13.546571 21.971135 -1.065799 2.235165 0.069449 -0.029819 -84841.000000 0 1 0
-7.575666 15.937000 -12.420271 21.578735 -1.127062 2.184109 0.051785 -0.025938 764796.000000 0 1 0
-7.054966 17.245500 -12.626971 22.508225 -1.182478 2.166382 0.069122 -0.027079 371418.000000 0 1 0
-6.069966 17.334600 -13.660871 22.890003 -1.233975 2.210310 0.076678 -0.021382 82653.700000 0 1 0
-5.953466 18.774500 -14.139171 24.245448 -1.263723 2.193419 0.109304 -0.010730 192143.000000 0 1 0
-5.628666 19.679600 -13.143271 24.325174 -1.292218 2.141608 0.117551 -0.022211 -120283.000000 0 1 0
-5.927066 20.982800 -13.577571 25.685763 -1.295496 2.127750 0.119013 -0.016994 -73640.100000 0 0 1
-5.461866 22.062500 -12.547671 25.962087 -1.328112 2.075225 0.127522 -0.015916 -584069.000000 0 0 1
-5.757466 23.415300 -12.880671 27.337454 -1.329695 2.061417 0.113087 -0.021272 -200936.000000 0 0 1
-7.104166 23.815700 -12.946071 28.022446 -1.280902 2.051033 0.115404 -0.026832 105502.000000 0 0 1
-7.947366 23.746400 -11.619171 27.605385 -1.247837 2.005236 0.068575 -0.032837 -328340.000000 0 0 1
-8.195766 22.422800 -11.121171 26.336913 -1.220371 2.006739 0.079612 -0.027114 -270621.000000 0 0 1
-8.642066 22.356700 -9.786071 25.889661 -1.201935 1.958422 0.074314 -0.028903 136508.000000 0 0 1
-7.571466 22.710000 -8.710071 25.474233 -1.248988 1.919752 0.073246 -0.024701 189479.000000 0 0 1
-7.228766 24.100600 -8.763071 26.643675 -1.279393 1.905934 0.066930 -0.018386 -355803.000000 0 0 1
-6.756966 24.524200 -7.542171 26.532571 -1.301945 1.859032 0.070399 -0.020455 -96411.000000 0 0 1
-6.634366 26.028800 -7.206271 27.810854 -1.321225 1.832904 0.073108 -0.014073 219376.000000 0 0 1
-5.772566 26.871700 -7.974871 28.618339 -1.359193 1.853198 0.076117 -0.017706 -82127.500000 0 0 1
-6.011766 26.970600 -9.343771 29.169516 -1.351481 1.896871 0.077415 -0.020644 -72897.500000 0 0 1
-5.243866 28.134300 -10.021471 30.322712 -1.386524 1.907623 0.074710 -0.019507 716086.000000 0 0 1
-6.092866 29.288900 -10.137071 31.586752 -1.365695 1.897505 0.067164 -0.016428 240111.000000 0 0 1
-7.030766 29.251100 -11.191471 32.098404 -1.334912 1.926939 0.078764 -0.018341 -116901.000000 0 0 1
-8.021966 30.431400 -11.075171 33.362876 -1.313052 1.909178 0.079826 -0.021435 497572.000000 0 0 1
-9.135966 30.173800 -10.213271 33.139629 -1.276793 1.884085 0.099768 -0.023495 86504.300000 0 0 1
-10.121666 31.156400 -10.157571 34.297896 -1.256685 1.871463 0.090274 -0.039954 -31473.500000 0 0 1
-11.270866 30.838400 -9.187171 34.094625 -1.220397 1.843630 0.111705 -0.042575 295119.000000 0 0 1
-12.168066 29.865600 -9.723971 33.683401 -1.183903 1.863652 0.122512 -0.049919 864038.000000 0 0 1
-13.411066 29.785900 -8.986671 33.879445 -1.147736 1.839264 0.143077 -0.042009 1267010.000000 0 0 1
-14.436066 28.781400 -9.576371 33.592795 -1.105889 1.859878 0.148914 -0.052858 49536.500000 0 0 1
-14.179266 27.438700 -9.142571 32.210564 -1.093830 1.858590 0.121627 -0.046923 255975.000000 0 0 1
-15.125966 26.601900 -9.799871 32.132435 -1.053782 1.880718 0.142582 -0.049611 253209.000000 0 0 1
-15.301966 25.202900 -9.071271 30.848408 -1.025135 1.869268 0.114543 -0.045101 136056.000000 0 0 1
-14.292466 24.224700 -9.251171 29.609033 -1.037765 1.888561 0.104889 -0.038320 225358.000000 0 0 1
-14.709066 23.001700 -8.619171 28.630839 -1.001854 1.876585 0.105710 -0.035643 148090.000000 0 0 1
-13.795766 21.843900 -9.015371 27.363407 -1.007493 1.906537 0.095840 -0.024146 -142607.000000 0 0 1
-13.937666 21.467000 -10.380771 27.619758 -0.994941 1.956106 0.092181 -0.019635 -224924.000000 0 0 1
-13.069466 20.450400 -10.772771 26.553388 -1.002135 1.988543 0.082415 -0.022868 -520694.000000 0 0 1
-13.208266 20.044200 -12.268471 26.958183 -0.988150 2.043273 0.090246 -0.018701 -179780.000000 0 0 1
-14.504166 19.640800 -12.629071 27.488639 -0.934715 2.048148 0.116500 -0.013059 -574777.000000 0 0 1
-14.625066 19.356500 -13.974171 27.997216 -0.923744 2.093388 0.114397 -0.007206 412337.000000 0 0 1
-16.050966 18.902400 -14.379571 28.665420 -0.866796 2.096284 0.109987 -0.007980 391298.000000 0 0 1
-17.019366 19.919800 -14.439071 29.915615 -0.863757 2.074486 0.098632 -0.016771 -386651.000000 0 0 1
-18.276166 19.362500 -14.720171 30.423808 -0.814252 2.075830 0.105680 -0.019170 82419.600000 0 0 1
-19.363866 20.284500 -15.353371 31.971022 -0.808614 2.071711 0.103858 -0.024311 230684.000000 0 0 1
-20.000266 21.244400 -14.547671 32.603219 -0.815554 2.033315 0.107401 -0.030316 6490.500000 0 0 1
-20.465566 22.263500 -15.364771 33.920186 -0.827451 2.040888 0.115004 -0.032536 -103165.000000 0 0 1
-21.035866 23.473100 -14.593771 34.734309 -0.840102 2.004412 0.109749 -0.033168 -376613.000000 0 0 1
-22.327666 23.287700 -14.103071 35.209917 -0.806441 1.982905 0.144291 -0.035923 -424532.000000 0 0 1
-22.715066 24.397300 -13.311171 35.894146 -0.821090 1.950715 0.138502 -0.041803 75574.800000 0 0 1
-26.089536 -0.399500 4.023129 26.400929 0.015311 1.417814 0.199528 -0.057660 -340682.000000 0 0 1
-26.808756 0.165200 5.071229 27.284685 -0.006162 1.383846 0.238877 -0.050730 -723795.000000 0 0 1
-28.153796 -0.133600 4.890929 28.575781 0.004745 1.398793 0.258531 -0.056132 -523773.000000 0 0 1
-29.075546 0.484200 5.977929 29.687665 -0.016652 1.368049 0.248724 -0.049561 -84692.000000 0 0 1
-29.393476 1.827500 5.657829 29.988785 -0.062094 1.380994 0.282608 -0.057845 210426.000000 0 0 1
-29.872196 2.539300 6.796729 30.740717 -0.084802 1.347856 0.295056 -0.046149 448849.000000 0 0 1
-28.702636 3.050300 7.715729 29.877720 -0.105875 1.309593 0.304934 -0.047740 240631.000000 0 0 1
-27.954396 2.080900 8.366229 29.253584 -0.074302 1.280757 0.273848 -0.058703 -132201.000000 0 0 1
-26.981356 2.602900 9.220629 28.631952 -0.096173 1.242913 0.265212 -0.073158 -732004.000000 0 0 1
-26.002246 1.534300 9.656429 27.779804 -0.058938 1.215780 0.230549 -0.065864 -745864.000000 0 0 1
-25.051516 1.034000 8.751129 26.556165 -0.041252 1.234988 0.233969 -0.065717 442133.000000 0 0 1
-25.302426 -0.332000 8.379229 26.655852 0.013121 1.251026 0.199598 -0.052542 -257811.000000 0 0 1
-24.031766 -0.980200 7.813329 25.289023 0.040765 1.256696 0.172455 -0.052808 -94759.200000 0 0 1
-23.095966 -1.342800 8.807429 24.754748 0.058075 1.207040 0.178598 -0.073666 299333.000000 0 1 0
-21.902866 -1.795700 8.203129 23.457438 0.081802 1.213543 0.195790 -0.057326 -9075.110000 0 1 0
-20.698166 -2.194500 9.075229 22.706600 0.105629 1.159636 0.154863 -0.034472 185966.000000 0 1 0
-19.976266 -1.053400 9.573429 22.176821 0.052684 1.124435 0.130340 -0.032431 1103070.000000 0 1 0
-20.648066 -0.282100 10.655129 23.236910 0.013661 1.094441 0.147081 -0.040003 -305930.000000 0 1 0
-20.259266 1.165100 10.774629 22.975812 -0.057446 1.082689 0.109131 -0.028606 -266687.000000 0 1 0
-20.719666 2.111600 9.786829 23.011854 -0.101562 1.131508 0.120355 -0.031769 1121450.000000 0 1 0
-22.127566 2.366900 9.771429 24.304572 -0.106561 1.157052 0.155279 -0.047607 167434.000000 0 1 0
-22.496066 3.728200 9.189629 24.584990 -0.164234 1.187704 0.151432 -0.056327 -377091.000000 0 1 0
-22.287366 4.802400 10.110029 24.939976 -0.212231 1.153408 0.134546 -0.052383 525968.000000 0 1 0
-22.823066 6.013800 9.654529 25.500354 -0.257640 1.182509 0.132904 -0.049261 -173331.000000 0 0 1
-22.933066 7.075100 10.792029 26.314453 -0.299247 1.148213 0.129479 -0.054032 227196.000000 0 0 1
-24.010766 6.805600 11.700229 27.563172 -0.276195 1.132400 0.134580 -0.047138 705339.000000 0 0 1
-23.913866 7.603800 12.843629 28.189530 -0.307857 1.097731 0.116988 -0.036988 296092.000000 0 0 1
-24.935366 7.149300 13.920529 29.439193 -0.279223 1.078266 0.138754 -0.038399 507899.000000 0 0 1
-26.314296 7.182700 13.636829 30.495843 -0.266467 1.107197 0.141176 -0.039902 95432.100000 0 0 1
-27.183816 6.708500 14.631529 31.591858 -0.241948 1.089259 0.142354 -0.043069 -78462.700000 0 0 1
-28.628956 6.663600 14.115629 32.607847 -0.228686 1.123099 0.151371 -0.036705 -361832.000000 0 0 1
-28.810086 5.596700 13.206829 32.183295 -0.191872 1.147944 0.178249 -0.034341 610799.000000 0 0 1
-30.096406 5.815500 12.616229 33.147895 -0.190877 1.180347 0.236024 -0.037093 371158.000000 0 0 1
-30.541586 4.780600 11.450329 32.965932 -0.155268 1.216065 0.261705 -0.037884 -10495.400000 0 0 1
-31.257796 3.731000 12.093229 33.722639 -0.118800 1.204019 0.224371 -0.034905 258623.000000 0 0 1
-31.799736 2.860600 11.114529 33.807381 -0.089715 1.235806 0.226331 -0.026510 192749.000000 0 0 1
-33.034616 2.059300 11.623629 35.080412 -0.062257 1.233070 0.179301 -0.011679 242054.000000 0 0 1
-32.690586 1.017200 12.512629 35.018210 -0.031106 1.205402 0.172896 -0.013461 -750756.000000 0 0 1
-33.895476 0.489200 12.904729 36.272230 -0.014432 1.207054 0.141672 -0.015759 -869432.000000 0 0 1
-33.885386 -0.695300 13.862629 36.617964 0.020516 1.182541 0.116572 -0.021922 -190994.000000 0 0 1
-33.724056 -1.969200 13.287129 36.300654 0.058325 1.196057 0.137550 -0.017045 174617.000000 0 0 1
-33.544496 -2.784300 14.407129 36.613535 0.082813 1.166369 0.135075 -0.014738 -148966.000000 0 0 1
-33.484516 -4.330900 14.098529 36.588769 0.128626 1.175237 0.140628 -0.015892 358894.000000 0 0 1
-34.693864 -4.797600 13.499129 37.535419 0.137412 1.202917 0.118515 -0.020915 604951.000000 0 0 1
-34.642807 -6.207700 13.370629 37.648816 0.177310 1.207732 0.139613 -0.019195 -712633.000000 0 0 1
-35.669578 -6.798700 12.351029 38.354779 0.188343 1.242933 0.133363 -0.031645 1236970.000000 0 0 1
-37.072146 -6.889300 12.662429 39.776168 0.183739 1.246816 0.114595 -0.028720 1162020.000000 0 0 1
-37.620726 -5.599900 12.807229 40.133565 0.147766 1.246001 0.123063 -0.033011 -1535930.000000 0 0 1
36.764767 -5.468100 12.367729 39.172808 -0.147650 1.249579 0.131772 -0.035472 -91571.400000 0 0 1
35.786267 -5.848600 13.334729 38.635191 -0.161999 1.218403 0.125019 -0.030746 376664.000000 0 0 1
34.501327 -5.580100 12.782729 37.213939 -0.160347 1.220163 0.142569 -0.030153 327683.000000 0 0 1
33.405147 -6.584200 13.225629 36.526330 -0.194607 1.200293 0.138124 -0.019692 17982.000000 0 0 1
32.962157 -6.410900 14.556229 36.599006 -0.192095 1.161764 0.135807 -0.013545 567760.000000 0 0 1
31.846937 -7.281700 14.803129 35.866184 -0.224783 1.145345 0.118220 -0.021118 387983.000000 0 0 1
31.393267 -7.277400 16.267829 36.099031 -0.227791 1.103309 0.108685 -0.012187 283236.000000 0 0 1
32.333197 -7.864300 17.190429 37.453887 -0.238594 1.093954 0.091894 -0.008262 588720.000000 0 0 1
31.720027 -8.094200 18.447429 37.576373 -0.249845 1.057638 0.081715 -0.011029 -781455.000000 0 0 1
32.675087 -8.887000 19.331829 38.991790 -0.265557 1.052049 0.085362 -0.008279 424356.000000 0 0 1
33.781367 -8.075300 19.780029 39.970499 -0.234643 1.053116 0.086087 -0.008401 652823.000000 0 0 1
34.899177 -8.324600 18.919329 40.560973 -0.234157 1.085533 0.054108 -0.004571 330539.000000 0 0 1
36.265327 -7.761700 19.477829 41.890378 -0.210844 1.087194 0.023053 -0.002483 799593.000000 0 0 1
36.530137 -8.250700 20.792129 42.835004 -0.222133 1.063975 0.024596 -0.012062 60350.400000 0 0 1
37.821167 -7.814000 21.175429 44.044274 -0.203737 1.069257 0.028488 -0.014854 -1539.600000 0 0 1
-37.564866 -8.346500 22.496729 44.574500 0.218637 1.041762 0.029352 -0.014611 -602637.000000 0 0 1
37.583487 -7.830300 23.564729 45.045849 -0.205406 1.020280 0.027561 -0.016136 -167491.000000 0 0 1
37.511227 -8.794400 24.555329 45.688049 -0.230288 1.003379 0.022493 -0.017183 -149238.000000 0 0 1
36.937427 -8.336100 25.928429 45.892783 -0.221963 0.970389 0.045085 -0.017042 205489.000000 0 0 1
37.874307 -7.562500 26.669929 46.935484 -0.197082 0.966449 0.031827 -0.024057 245971.000000 0 0 1
37.347567 -6.873700 27.807129 47.067238 -0.182010 0.938751 0.043171 -0.027468 472234.000000 0 0 1
-37.299306 -6.199000 28.526229 47.364666 0.164691 0.924457 0.054391 -0.018931 761360.000000 0 0 1
-36.704076 -7.006300 29.544329 47.635542 0.188617 0.901778 0.050596 -0.016768 751577.000000 0 0 1
-35.353022 -6.598700 29.847029 46.735684 0.184528 0.878074 0.061734 -0.022301 1221830.000000 0 0 1
-34.837669 -7.322000 31.149429 47.302873 0.207160 0.851959 0.058763 -0.019078 -39087.500000 0 0 1
-34.553173 -8.683400 31.027529 47.244373 0.246207 0.854301 0.053425 -0.023229 278896.000000 0 0 1
-34.097761 -9.323200 32.226429 47.834319 0.266902 0.831579 0.042516 -0.018881 -101457.000000 0 0 1
-34.340349 -10.860800 32.260929 48.352705 0.306315 0.840353 0.049636 -0.018130 -16219.100000 0 0 1
-35.714071 -11.154200 32.379729 49.480884 0.302720 0.857422 0.051473 -0.024523 -116787.000000 0 0 1
-36.028316 -12.539500 32.465129 50.092547 0.334933 0.865706 0.050116 -0.024206 241857.000000 0 0 1
-37.542526 -12.841900 32.569129 51.333262 0.329586 0.883481 0.073478 -0.026035 159127.000000 0 0 1
-37.738626 -14.194900 32.799029 51.975719 0.359767 0.887896 0.082316 -0.035643 543713.000000 0 0 1
36.741427 -14.496500 33.077829 51.519159 -0.375803 0.873628 0.079829 -0.033518 343789.000000 0 0 1
36.421397 -15.997500 33.149629 51.781619 -0.413865 0.876062 0.067736 -0.021795 -239336.000000 0 0 1
36.789337 -16.581100 -33.000507 52.128894 -0.423439 2.256291 0.085680 -0.034228 143065.000000 0 0 1
36.656977 -17.976500 -33.117107 52.570251 -0.455936 2.252297 0.091906 -0.047145 -150649.000000 0 0 1
37.148897 -18.598400 -31.746207 52.285396 -0.464163 2.223292 0.106824 -0.045338 194199.000000 0 0 1
36.223917 -18.485300 -30.671607 50.937471 -0.471859 2.216978 0.117576 -0.042221 -70241.300000 0 0 1
36.620887 -19.185200 -29.522707 50.801097 -0.482574 2.190929 0.118394 -0.041533 -178289.000000 0 0 1
35.530857 -19.145600 -28.377507 49.338410 -0.494238 2.183597 0.107270 -0.031511 1901250.000000 0 0 1
34.299257 -19.885000 -28.665307 48.923942 -0.525397 2.196806 0.102935 -0.026124 1042480.000000 0 0 1
33.402057 -19.149900 -29.467507 48.484534 -0.520567 2.224047 0.083497 -0.018171 -1400050.000000 0 0 1
32.098827 -19.951900 -29.570507 47.987789 -0.556134 2.234716 0.058030 -0.009050 -1335760.000000 0 0 1
31.275307 -19.283200 -30.429707 47.706956 -0.552509 2.262495 0.043846 0.000199 -960318.000000 0 0 1
30.104657 -20.066600 -30.487207 47.312034 -0.587930 2.271016 0.034541 0.005553 -642534.000000 0 0 1
29.112357 -19.589800 -31.522807 47.169661 -0.592308 2.302698 0.011169 0.015935 -225299.000000 0 0 1
29.593757 -19.748200 -32.844607 48.420554 -0.588448 2.316269 0.009608 0.013421 838373.000000 0 0 1
28.454157 -19.833800 33.595429 48.287385 -0.608739 0.801348 0.054486 0.007622 1225960.000000 0 0 1
28.889257 -19.837200 32.088429 47.516007 -0.601719 0.829400 0.071459 -0.005905 -122658.000000 0 0 1
29.485357 -18.603100 31.748229 47.153066 -0.562850 0.832131 0.051673 -0.011758 -6139.730000 0 0 1
29.587157 -18.264800 30.401329 46.187050 -0.553059 0.852342 0.055962 -0.023320 484309.000000 0 0 1
28.312657 -17.650200 29.689429 44.660926 -0.557450 0.843605 0.060063 -0.021710 436753.000000 0 0 1
28.086757 -16.315200 30.102329 44.285459 -0.526246 0.823397 0.064107 -0.024810 957582.000000 0 0 1
27.118257 -15.627900 29.248729 42.838292 -0.522801 0.819248 0.057066 -0.022839 628122.000000 0 0 1
27.163757 -14.087800 29.528129 42.523478 -0.478436 0.803216 0.075653 -0.028552 -493817.000000 0 0 1
28.416057 -13.508700 29.308729 42.999522 -0.443766 0.820841 0.086153 -0.027356 -240312.000000 0 0 1
28.647657 -12.373300 30.101829 43.357893 -0.407712 0.803399 0.124942 -0.041957 -192067.000000 0 0 1
30.096457 -11.854700 30.121529 44.199968 -0.375228 0.821009 0.130910 -0.037363 -213552.000000 0 0 1
30.411757 -11.216800 28.902129 43.428385 -0.353351 0.842616 0.109491 -0.040409 -775538.000000 0 0 1
31.765307 -11.327500 28.612029 44.226634 -0.342542 0.867230 0.100146 -0.030800 -574788.000000 0 0 1
32.182647 -10.457600 27.377729 43.527281 -0.314182 0.890558 0.111072 -0.039734 -168499.000000 0 0 1
32.180937 -9.067700 27.600329 43.354516 -0.274651 0.880690 0.103172 -0.033693 -46344.300000 0 0 1
32.726147 -8.423000 26.485329 42.935070 -0.251911 0.906037 0.105208 -0.027256 27107.100000 0 0 1
32.556477 -6.876300 26.469229 42.518558 -0.208152 0.898820 0.106222 -0.023259 -61925.700000 0 0 1
31.214677 -6.507900 26.268929 41.313018 -0.205544 0.881686 0.103318 -0.020571 -402598.000000 0 0 1
31.074197 -5.099100 26.135429 40.922698 -0.162645 0.878049 0.106832 -0.020415 138173.000000 0 0 1
29.626557 -4.560600 26.034929 39.703268 -0.152737 0.855637 0.096312 -0.014261 -211514.000000 0 0 1
28.968357 -5.021200 24.908029 38.532948 -0.171629 0.867928 0.114247 -0.016496 -663599.000000 0 0 1
27.723257 -4.379200 24.950329 37.553632 -0.156667 0.844116 0.100120 -0.016782 -368988.000000 0 0 1
26.741357 -4.703400 23.788329 36.098570 -0.174104 0.851331 0.114584 -0.008246 -53931.500000 0 0 1
27.071857 -4.080900 22.527129 35.454347 -0.149617 0.882290 0.129829 -0.000515 272187.000000 0 0 1
26.101757 -4.389600 21.548029 34.130454 -0.166614 0.887512 0.125517 -0.006089 65839.100000 0 0 1
26.342057 -3.609700 20.277629 33.438244 -0.136184 0.919245 0.151903 -0.004444 23027.900000 0 0 1
25.886857 -2.298700 20.297829 32.975980 -0.088566 0.907733 0.121413 0.002269 -41811.700000 0 0 1
26.402457 -1.633300 19.174229 32.671218 -0.061783 0.943591 0.145088 -0.000642 -78322.900000 0 0 1
25.415757 -0.652400 18.505929 31.446077 -0.025663 0.941597 0.117699 -0.013771 -590305.000000 0 0 1
24.399857 -1.304900 17.838729 30.253529 -0.053429 0.940182 0.114148 -0.009222 -1433990.000000 0 0 1
23.320757 -0.491600 17.627029 29.237160 -0.021077 0.923668 0.130721 -0.012616 -1354000.000000 0 0 1
22.108257 -1.242300 17.136429 27.999563 -0.056133 0.912178 0.132993 -0.023042 -891040.000000 0 0 1
22.240057 -1.809600 15.819729 27.352488 -0.081188 0.954073 0.159610 -0.019746 201666.000000 0 0 1
21.047157 -2.435600 15.386729 26.185232 -0.115209 0.942693 0.167244 -0.029325 16365.800000 0 0 1
21.308157 -3.191600 14.068429 25.732170 -0.148678 0.992348 0.186124 -0.044119 450415.000000 0 0 1
20.161357 -3.911900 13.602529 24.633556 -0.191648 0.985801 0.195638 -0.049865 989497.000000 0 1 0
20.381357 -4.149500 12.228629 24.127939 -0.200848 1.039299 0.199345 -0.053669 -21728.900000 0 1 0
19.265057 -4.998500 11.602829 23.038078 -0.253862 1.042993 0.182772 -0.056194 -301782.000000 0 1 0
19.452057 -6.331000 11.996629 23.714620 -0.314654 1.040400 0.201847 -0.066317 969053.000000 0 1 0
18.274857 -7.132100 11.894929 22.941809 -0.372089 1.025721 0.185287 -0.051579 120687.000000 0 1 0
18.551357 -8.615600 12.342129 23.889528 -0.434780 1.027882 0.200233 -0.057651 -85156.000000 0 1 0
19.320057 -9.314500 11.385929 24.282996 -0.449238 1.082768 0.200882 -0.068327 435633.000000 0 1 0
18.958657 -10.679100 11.381629 24.556370 -0.512984 1.088867 0.213122 -0.072881 110690.000000 0 1 0
19.505057 -11.436800 10.153429 24.785878 -0.530323 1.148731 0.211054 -0.073315 -79207.400000 0 1 0
18.762657 -11.137600 9.027729 23.613202 -0.535704 1.178494 0.173193 -0.058395 165762.000000 0 1 0
19.423557 -11.521300 7.854829 23.910526 -0.535376 1.236072 0.192099 -0.069649 -81250.100000 0 1 0
18.737257 -10.858300 6.652829 22.654969 -0.525212 1.272744 0.150682 -0.047996 -236154.000000 0 1 0
18.995857 -9.501800 6.467829 22.202693 -0.463811 1.275202 0.124024 -0.045384 94870.000000 0 1 0
19.743257 -9.214700 5.352529 22.435607 -0.436676 1.329900 0.117045 -0.036787 -609613.000000 0 1 0
20.200557 -7.753500 5.286329 22.273853 -0.366486 1.331176 0.131655 -0.037660 -394596.000000 0 1 0
21.047257 -7.563300 4.184229 22.752984 -0.344979 1.385846 0.139844 -0.029418 480778.000000 0 1 0
21.166657 -6.143800 3.974929 22.395841 -0.282496 1.392366 0.142176 -0.035946 -196880.000000 0 1 0
22.045057 -5.760000 2.768329 22.952685 -0.255569 1.449892 0.168404 -0.043045 -155149.000000 0 1 0
21.433657 -5.931400 1.522229 22.291261 -0.269977 1.502455 0.140012 -0.041869 939437.000000 0 1 0
22.345157 -5.574900 0.470729 23.034911 -0.244499 1.550359 0.177915 -0.029990 476483.000000 0 1 0
-25.490316 -14.371900 -0.280971 29.264085 0.513390 1.580398 0.177776 -0.036708 -594245.000000 0 0 1
-24.372866 -13.576900 -0.488871 27.903545 0.508240 1.588317 0.131987 -0.023479 -28036.400000 0 0 1
-23.102266 -14.103600 -0.160271 27.067543 0.548094 1.576717 0.125082 -0.010748 463164.000000 0 0 1
-22.700966 -14.056500 1.390329 26.736717 0.554420 1.518772 0.157604 -0.040844 -509471.000000 0 0 1
-23.336966 -14.969700 2.240229 27.815904 0.570347 1.490171 0.150751 -0.021475 -218491.000000 0 0 1
-22.974866 -14.678400 3.573129 27.496675 0.568525 1.440480 0.145772 -0.021642 -269255.000000 0 0 1
-23.866466 -15.270100 4.645929 28.711823 0.569181 1.408269 0.188274 -0.018789 -310915.000000 0 0 1
-23.784066 -16.656800 4.577729 29.395346 0.610950 1.414430 0.240654 -0.050133 209874.000000 0 0 1
-24.527966 -17.271000 5.623929 30.521093 0.613496 1.385474 0.233182 -0.045662 130598.000000 0 0 1
-24.713366 -18.762300 5.374529 31.490632 0.649361 1.399286 0.184608 -0.035446 330501.000000 0 0 1
-25.525136 -19.452500 6.334229 32.711692 0.651195 1.375927 0.186535 -0.040904 341770.000000 0 0 1
-25.823616 -20.766500 5.877929 33.654966 0.677277 1.395243 0.174833 -0.049860 104122.000000 0 0 1
-26.278656 -21.692800 6.999029 34.786948 0.690092 1.368217 0.145940 -0.038757 49160.700000 0 0 1
-25.208736 -21.969200 7.879529 34.354230 0.716839 1.339375 0.137469 -0.030646 -98870.500000 0 0 1
-25.539136 -22.898300 8.880129 35.432136 0.730932 1.317472 0.121114 -0.029074 310876.000000 0 0 1
-24.471166 -23.064700 10.023929 35.089849 0.755819 1.281096 0.127318 -0.039958 402284.000000 0 0 1
-24.595666 -22.148700 11.087629 34.906263 0.733098 1.247557 0.119452 -0.039571 177804.000000 0 0 1
-23.652666 -22.370500 12.119329 34.738538 0.757546 1.214428 0.123120 -0.042827 -4876.910000 0 0 1
-24.033966 -21.433800 13.252129 34.823243 0.728273 1.180401 0.082004 -0.026028 493696.000000 0 0 1
-25.199646 -21.860200 13.978029 36.170095 0.714555 1.174014 0.067458 -0.025749 580415.000000 0 0 1
-25.599206 -21.000100 15.104429 36.393232 0.687022 1.142816 0.060600 -0.006624 492864.000000 0 0 1
-27.036456 -21.430100 15.566129 37.848692 0.670235 1.146947 0.029880 -0.003031 208084.000000 0 0 1
-28.077646 -21.157400 14.653229 38.088146 0.645758 1.175893 0.045188 -0.004967 474.636000 0 0 1
-28.388006 -22.161000 13.739929 38.545745 0.662828 1.206322 0.045030 -0.016087 136125.000000 0 0 1
-29.453926 -23.228300 14.211329 40.112960 0.667771 1.208649 0.035447 -0.016391 476453.000000 0 0 1
-29.030656 -23.877800 15.409929 40.625044 0.688312 1.181734 0.023151 -0.008179 572551.000000 0 0 1
-30.134416 -24.674800 15.865529 42.055247 0.686114 1.183966 0.007294 -0.004940 475587.000000 0 0 1
-30.123866 -26.147540 15.383629 42.752745 0.714852 1.202713 0.021539 -0.007830 -35791.600000 0 0 1
-30.547276 -26.374160 14.045129 42.731698 0.712215 1.235889 0.035858 -0.015831 -240251.000000 0 0 1
-31.856036 -26.868540 13.940029 43.943713 0.700671 1.247995 0.055712 -0.027405 -332610.000000 0 0 1
-32.373796 -27.135000 12.515329 44.056831 0.697591 1.282758 0.098044 -0.038559 18023.200000 0 0 1
-31.712896 -28.246670 11.915429 44.108498 0.727653 1.297259 0.078624 -0.038533 -7208.020000 0 0 1
-32.299696 -28.603690 10.712529 44.454468 0.724786 1.327423 0.101942 -0.030779 -113766.000000 0 0 1
-31.695916 -29.840830 9.975929 44.661229 0.755261 1.345527 0.083916 -0.036149 -349795.000000 0 0 1
-32.114326 -31.067930 10.535129 45.907898 0.768838 1.339249 0.087254 -0.026233 97255.900000 0 0 1
-31.632776 -32.257100 9.916929 46.254713 0.795170 1.354721 0.106787 -0.031190 -399540.000000 0 0 1
-31.770406 -33.496850 10.811729 47.416148 0.811844 1.340755 0.101286 -0.028872 390540.000000 0 0 1
-33.132216 33.793045 11.046729 48.597776 -0.795272 1.341483 0.074833 -0.017221 488400.000000 0 0 1
-33.206676 32.539944 11.742329 47.952201 -0.775258 1.323405 0.104642 -0.026695 -154306.000000 0 0 1
-34.626991 32.145322 12.233329 48.805784 -0.748249 1.317441 0.111380 -0.021933 182452.000000 0 0 1
-35.622495 31.820176 11.315629 49.086955 -0.729079 1.338182 0.071567 -0.018416 -51697.200000 0 0 1
-36.168726 32.933284 10.611229 50.053732 -0.738611 1.357179 0.100450 -0.017356 -1099790.000000 0 0 1
-37.638696 32.760322 10.225329 50.935916 -0.716213 1.368674 0.102573 0.002805 -402208.000000 0 0 1
-37.826656 31.973115 9.051729 50.349476 -0.701732 1.390036 0.070851 -0.000353 -449165.000000 0 0 1
36.689937 31.751632 8.721229 49.298858 0.713369 1.392955 0.055855 0.000432 -706673.000000 0 0 1
36.442517 31.214355 7.298129 48.535097 0.708277 1.419856 0.049905 -0.001810 -158125.000000 0 0 1
36.726827 29.854745 7.170229 47.870427 0.682549 1.420446 0.088609 -0.011374 49887.500000 0 0 1
36.515147 29.244935 5.906429 47.154088 0.675289 1.445208 0.102129 -0.011713 -221973.000000 0 0 1
36.585367 27.717565 5.955829 46.284170 0.648356 1.441759 0.125100 -0.023450 -420138.000000 0 0 1
35.523207 27.096105 6.615029 45.164762 0.651625 1.423803 0.136124 -0.030460 -385162.000000 0 0 1
35.816707 26.552315 7.878729 45.276222 0.637935 1.395891 0.128755 -0.025026 -17455.500000 0 0 1
34.769377 25.495065 8.312929 43.909141 0.632702 1.380326 0.125948 -0.024888 7942.020000 0 0 1
34.818347 24.373195 7.462929 43.151654 0.610733 1.396976 0.139391 -0.032280 94499.100000 0 0 1
33.734317 23.496955 7.665429 41.819491 0.608393 1.386456 0.141017 -0.033556 -711256.000000 0 0 1
33.918637 22.215915 6.803829 41.113415 0.579866 1.404542 0.127347 -0.034109 46963.300000 0 0 1
34.888967 21.229615 7.107629 41.454251 0.546639 1.398488 0.141678 -0.037368 -31832.400000 0 0 1
36.221147 21.702515 7.033229 42.806973 0.539807 1.405747 0.150222 -0.038699 -918468.000000 0 0 1
37.202357 20.568915 6.935029 43.071919 0.505061 1.409082 0.116578 -0.034126 -670487.000000 0 0 1
36.886677 19.729715 5.884229 42.243493 0.491156 1.431049 0.148931 -0.040279 -312358.000000 0 0 1
37.492687 18.480315 5.907929 42.215249 0.457955 1.430388 0.161653 -0.046384 -397187.000000 0 0 1
37.074787 17.402115 4.909129 41.248915 0.438852 1.451501 0.160795 -0.050552 -382861.000000 0 0 1
37.514487 17.621315 3.562229 41.599723 0.439132 1.485060 0.189274 -0.049697 302470.000000 0 0 1
36.901447 16.626015 2.776229 40.569059 0.423313 1.502311 0.157182 -0.041254 -441364.000000 0 0 1
37.806507 16.088415 1.597629 41.118383 0.402333 1.531932 0.195399 -0.035835 1298910.000000 0 0 1
-36.830006 15.365715 1.901729 39.952110 -0.395251 1.523178 0.198593 -0.052515 858746.000000 0 0 1
-35.764108 16.078315 2.429929 39.287252 -0.422493 1.508906 0.220159 -0.054556 -1158720.000000 0 0 1
-34.335525 15.565115 2.393029 37.774696 -0.425615 1.507404 0.228001 -0.055672 -289789.000000 0 0 1
-34.121106 14.540215 3.345229 37.240546 -0.402832 1.480847 0.222500 -0.052680 7710.510000 0 0 1
-32.754316 14.255515 3.550329 35.898047 -0.410500 1.471734 0.228446 -0.060409 -113063.000000 0 0 1
-32.467236 13.360015 4.765529 35.430519 -0.390374 1.435884 0.233668 -0.042842 -118065.000000 0 0 1
-32.890626 12.014115 4.758229 35.337982 -0.350217 1.435737 0.261592 -0.043225 222238.000000 0 0 1
-32.660636 11.548415 6.044929 35.165668 -0.339868 1.398040 0.218729 -0.037299 -96875.700000 0 0 1
-32.875256 10.027115 6.235129 34.931395 -0.296042 1.391338 0.256908 -0.039615 644510.000000 0 0 1
-34.232707 9.564715 6.217129 36.083441 -0.272455 1.397634 0.236658 -0.022598 588766.000000 0 0 1
-34.321156 8.162315 6.263729 35.830147 -0.233484 1.395076 0.269887 -0.026198 -563827.000000 0 0 1
-35.724942 7.567815 6.135729 37.029589 -0.208750 1.404331 0.220877 -0.014715 -873009.000000 0 0 1
-36.501296 7.833615 7.225729 38.025272 -0.211405 1.379609 0.194512 -0.010313 -324314.000000 0 0 1
-37.790406 7.263815 7.103329 39.132277 -0.189897 1.388263 0.152184 -0.016083 183737.000000 0 0 1
37.502177 6.637515 8.418129 39.004292 0.175176 1.353259 0.129126 -0.018048 -134879.000000 0 0 1
37.047887 7.427215 9.557929 38.975164 0.197853 1.323038 0.162581 -0.024011 368185.000000 0 0 1
-37.793366 8.142715 10.232129 39.991734 -0.212210 1.312063 0.170610 -0.026647 -194562.000000 0 0 1
37.404727 9.138315 11.230029 40.109051 0.239615 1.287015 0.145574 -0.033144 -255311.000000 0 0 1
36.783737 8.460415 12.303429 39.698820 0.226072 1.255688 0.130941 -0.031629 463926.000000 0 0 1
36.377737 9.344215 13.330029 39.854031 0.251431 1.229752 0.151483 -0.041582 -546393.000000 0 0 1
35.967647 8.526915 14.541429 39.721947 0.232774 1.196003 0.185986 -0.050291 -644898.000000 0 0 1
34.720707 7.914515 14.358429 38.397025 0.224119 1.187536 0.190967 -0.048126 -120740.000000 0 0 1
34.418147 7.262215 15.601829 38.480718 0.207949 1.153330 0.187816 -0.046699 332993.000000 0 0 1
32.897247 7.124015 15.889029 37.221522 0.213261 1.129759 0.193466 -0.038566 -549165.000000 0 0 1
32.195977 8.304015 16.090129 36.938189 0.252420 1.120096 0.162063 -0.036633 613745.000000 0 0 1
30.774057 8.158615 16.191429 35.717894 0.259152 1.100316 0.166354 -0.028807 884007.000000 0 0 1
30.295957 7.471515 17.505129 35.778458 0.241793 1.059550 0.165386 -0.054673 -924293.000000 0 0 1
30.131057 8.295415 18.631729 36.384555 0.268655 1.033194 0.193009 -0.058833 348393.000000 0 0 1
29.074157 7.843815 19.464129 35.856441 0.263513 0.996987 0.182731 -0.047496 88379.300000 0 0 1
29.498157 6.821515 20.506729 36.567749 0.227257 0.975460 0.184972 -0.043305 559755.000000 0 0 1
28.362157 6.476015 21.314429 36.064603 0.224485 0.938490 0.152332 -0.041476 634240.000000 0 0 1
28.741157 5.523515 22.308829 36.800097 0.189866 0.919502 0.143098 -0.036151 -367877.000000 0 0 1
27.736057 5.401415 23.463429 36.728690 0.192336 0.877818 0.140746 -0.028671 210480.000000 0 0 1
26.452657 4.970815 23.062729 35.444908 0.185747 0.862338 0.089550 -0.025922 -323669.000000 0 0 1
25.461157 5.964015 23.218029 34.970228 0.230091 0.844725 0.117890 -0.017453 278960.000000 0 0 1
24.053457 5.336215 22.930329 33.657748 0.218312 0.821287 0.103259 -0.021874 -4533.110000 0 0 1
23.869357 5.000415 21.540929 32.538623 0.206505 0.847297 0.099367 -0.028375 865989.000000 0 0 1
22.509957 5.010515 21.055329 31.227076 0.219020 0.830827 0.083959 -0.018938 -229352.000000 0 0 1
21.595557 3.892915 21.498829 30.720067 0.178349 0.795637 0.097552 -0.022155 261169.000000 0 0 1
20.421957 3.781415 20.641829 29.282086 0.183090 0.788471 0.092582 -0.020057 742905.000000 0 0 1
19.310357 4.484915 21.108429 28.958075 0.228208 0.754038 0.105104 -0.021710 -1087210.000000 0 0 1
18.068157 4.220915 20.263029 27.474802 0.229495 0.741416 0.145435 -0.023946 -306933.000000 0 0 1
17.289757 3.085415 20.615929 27.082688 0.176594 0.705601 0.136771 -0.023068 -299378.000000 0 0 1
16.261757 2.828815 19.725229 25.720257 0.172232 0.696778 0.150787 -0.029667 -953685.000000 0 0 1
15.392457 1.636915 20.130429 25.393728 0.105947 0.655518 0.173877 -0.033693 -787306.000000 0 0 1
15.900657 0.358315 20.301629 25.789832 0.022531 0.664549 0.131192 -0.041353 92810.400000 0 0 1
15.100657 -0.359585 21.265829 26.084375 -0.023808 0.617600 0.151043 -0.045490 260066.000000 0 0 1
15.296257 -1.910085 21.284129 26.279994 -0.124230 0.626817 0.121255 -0.033417 181688.000000 0 0 1
14.598857 -2.521285 20.186929 25.039880 -0.171017 0.633110 0.125747 -0.031200 374617.000000 0 0 1
14.674157 -3.937985 20.207929 25.282385 -0.262184 0.644685 0.099299 -0.017440 -26855.000000 0 0 1
14.193657 -4.622785 18.896629 24.081375 -0.314859 0.668586 0.114353 -0.027580 385127.000000 0 1 0
12.830957 -4.418085 18.568129 22.998442 -0.331615 0.631124 0.119750 -0.034173 31108.200000 0 1 0
12.519357 -4.964585 17.272929 21.902865 -0.377531 0.662243 0.119827 -0.035414 828530.000000 0 1 0
10.965857 -4.927685 17.037729 20.852250 -0.422327 0.614487 0.107686 -0.038841 757457.000000 0 1 0
10.321257 -5.645085 18.057129 21.551224 -0.500489 0.577426 0.104346 -0.030929 -249961.000000 0 1 0
8.929457 -5.722785 17.806929 20.726124 -0.569943 0.537182 0.088449 -0.045049 -156190.000000 0 1 0
8.053957 -6.337485 18.899129 21.499001 -0.666689 0.496888 0.083427 -0.041270 -439470.000000 0 1 0
8.115457 -7.784385 18.953629 22.038543 -0.764579 0.535484 0.082427 -0.037461 311568.000000 0 1 0
9.285157 -8.404485 19.490529 23.167439 -0.735655 0.571132 0.120028 -0.036399 462633.000000 0 1 0
9.526757 -9.833385 18.960629 23.387177 -0.801235 0.625402 0.135785 -0.048198 130047.000000 0 1 0
9.533557 -10.010785 17.549329 22.340177 -0.809811 0.667212 0.108030 -0.034248 111046.000000 0 1 0
9.906657 -11.347685 17.252929 22.903611 -0.853094 0.717755 0.111629 -0.040223 304734.000000 0 1 0
9.472057 -11.798985 15.839929 21.905234 -0.894359 0.762500 0.083602 -0.031780 -130645.000000 0 1 0
10.296657 -12.819385 15.371429 22.508634 -0.894101 0.819054 0.070232 -0.029309 -41090.600000 0 1 0
9.827957 -13.194585 14.070929 21.648946 -0.930601 0.863266 0.041953 -0.007220 -63669.900000 0 1 0
10.678857 -14.370285 13.541229 22.447895 -0.931713 0.923252 0.075955 -0.019297 656804.000000 0 1 0
11.943357 -13.996285 12.996229 22.526468 -0.864376 0.955829 0.061546 -0.023668 177229.000000 0 1 0
11.853157 -13.616485 11.633329 21.476507 -0.854520 0.998365 0.012016 -0.017985 -656863.000000 0 1 0
13.144557 -13.076785 11.013129 21.565498 -0.782814 1.034818 0.072604 -0.040412 -711151.000000 0 1 0
14.125157 -14.021985 10.744029 22.617920 -0.781733 1.075806 0.094523 -0.039283 -829861.000000 0 1 0
15.150957 -13.420685 10.003429 22.577309 -0.724913 1.111771 0.113244 -0.057344 -480457.000000 0 1 0
16.196357 -14.376785 9.443929 23.626293 -0.725953 1.159584 0.106152 -0.063969 -167612.000000 0 1 0
16.914657 -15.131185 10.393429 24.961606 -0.729802 1.141340 0.097951 -0.050488 95530.100000 0 1 0
16.354057 -16.424785 10.564429 25.472258 -0.787556 1.143136 0.151013 -0.045914 -96266.800000 0 0 1
16.792957 -17.259985 11.753329 26.796478 -0.799112 1.116740 0.127668 -0.034963 1569960.000000 0 0 1
18.150057 -17.800785 11.588429 27.938937 -0.775683 1.143099 0.161621 -0.046997 1675980.000000 0 0 1
18.542757 -18.407985 12.813329 29.101016 -0.781751 1.114858 0.125673 -0.038313 479171.000000 0 0 1
19.757057 -19.403885 12.712029 30.470441 -0.776380 1.140443 0.087578 -0.042645 1018180.000000 0 0 1
20.948657 -18.710185 12.349429 30.682661 -0.729015 1.156562 0.103265 -0.050103 120437.000000 0 0 1
22.029657 -19.590585 12.084429 31.861109 -0.726862 1.181773 0.087452 -0.047469 1301470.000000 0 0 1
23.216657 -18.940585 11.244029 32.002924 -0.684312 1.211790 0.145781 -0.053220 562454.000000 0 0 1
23.049057 -18.958485 9.849729 31.427700 -0.688327 1.252015 0.118578 -0.045887 335267.000000 0 0 1
21.825057 -18.498785 9.261929 30.071939 -0.703096 1.257714 0.121934 -0.050864 683636.000000 0 0 1
21.371257 -17.005485 9.405229 28.885558 -0.672124 1.239147 0.192633 -0.061087 230182.000000 0 0 1
22.334857 -16.169185 8.779329 28.937260 -0.626616 1.262546 0.199717 -0.051488 128799.000000 0 0 1
21.895757 -14.845185 8.699929 27.847665 -0.595803 1.253066 0.216144 -0.061646 35013.600000 0 0 1
-35.917298 24.931800 8.018829 44.451643 -0.606785 1.389409 0.159941 -0.030418 -496071.000000 0 0 1
-35.195340 23.947800 8.639329 43.437853 -0.597467 1.370572 0.161490 -0.041289 -563665.000000 0 0 1
-34.100017 24.529600 9.270429 43.016896 -0.623590 1.353586 0.171293 -0.034854 -133894.000000 0 0 1
-33.122456 23.447800 9.892729 41.770355 -0.616017 1.331688 0.180742 -0.059138 392755.000000 0 0 1
-32.291596 22.801000 8.931429 40.526574 -0.614806 1.348588 0.173758 -0.049071 262014.000000 0 0 1
-31.346336 21.926000 9.508229 39.417619 -0.610374 1.327176 0.169018 -0.047388 -33965.400000 0 0 1
-30.529176 21.236600 8.447929 38.136482 -0.607778 1.347425 0.155190 -0.054642 -466712.000000 0 0 1
-31.289526 20.187500 7.870029 38.059256 -0.572982 1.362510 0.169270 -0.058430 347146.000000 0 0 1
-30.798836 19.569900 6.667429 37.094527 -0.566050 1.390073 0.170340 -0.059062 -795677.000000 0 0 1
-31.897826 18.946900 5.853329 37.559523 -0.535987 1.414317 0.174804 -0.054746 -479363.000000 0 0 1
-32.685866 17.925500 6.455129 37.833293 -0.501627 1.399337 0.188079 -0.059169 152939.000000 0 0 1
-33.765566 17.578400 5.624729 38.480530 -0.479993 1.424100 0.162938 -0.059203 -301318.000000 0 0 1
-34.690837 16.454400 6.078829 38.873559 -0.442890 1.413778 0.156857 -0.049926 -574276.000000 0 0 1
-35.610008 16.786800 7.065029 39.997300 -0.440513 1.393227 0.118980 -0.039135 -217560.000000 0 0 1
-36.260996 15.575000 7.461529 40.163601 -0.405697 1.383932 0.130159 -0.041230 2069.190000 0 0 1
-37.028106 16.031700 8.759429 41.289510 -0.408594 1.357025 0.099616 -0.036081 -485052.000000 0 0 1
37.703747 16.813600 8.521529 42.153127 0.419472 1.367237 0.120825 -0.038971 -398765.000000 0 0 1
37.078317 17.182300 9.746729 42.012281 0.433946 1.336666 0.120523 -0.032100 672255.000000 0 0 1
35.933487 18.251400 9.719529 41.458393 0.469965 1.334153 0.090407 -0.030879 722707.000000 0 0 1
34.685237 17.856200 9.190529 40.079613 0.475423 1.339431 0.092545 -0.038143 62387.000000 0 0 1
33.793497 18.947800 9.228129 39.826849 0.511016 1.336965 0.095998 -0.033863 1341310.000000 0 0 1
32.349977 18.784600 8.575529 38.378665 0.526084 1.345449 0.090154 -0.041635 1188270.000000 0 0 1
31.574447 19.971000 8.740329 38.368997 0.563978 1.340982 0.097275 -0.036332 788499.000000 0 0 1
30.198857 19.993700 8.346529 37.166969 0.584812 1.344296 0.061631 -0.032254 776964.000000 0 0 1
29.930757 19.804700 6.833129 36.534477 0.584545 1.382656 0.056289 -0.021671 -944607.000000 0 0 1
30.079057 18.455900 6.421829 35.869343 0.550345 1.390792 0.065233 -0.024223 104526.000000 0 0 1
29.846857 18.250000 5.043229 35.345884 0.548800 1.427625 0.055155 -0.028015 500840.000000 0 0 1
28.381757 18.507700 4.533229 34.184927 0.577849 1.437796 0.090344 -0.028216 177811.000000 0 0 1
27.420157 17.590000 5.176529 32.985899 0.570376 1.413213 0.100890 -0.033013 2236850.000000 0 0 1
26.010657 17.909000 5.052229 31.981425 0.602983 1.412158 0.123059 -0.028686 1457260.000000 0 0 1
25.549357 19.395200 5.358529 32.521643 0.649317 1.405273 0.122517 -0.017944 -1044280.000000 0 0 1
26.008557 20.356500 4.411029 33.321004 0.664093 1.438027 0.097180 -0.024173 238509.000000 0 0 1
25.462257 21.636000 4.590429 33.727067 0.704336 1.434267 0.099831 -0.021972 -87404.900000 0 0 1
26.510857 22.653900 4.057729 35.106835 0.707109 1.454955 0.057095 -0.007362 130298.000000 0 0 1
27.535457 22.769100 5.029929 36.082316 0.690930 1.430939 0.056643 -0.018400 -39400.600000 0 0 1
28.292957 23.950400 4.779629 37.375900 0.702467 1.442565 0.067865 -0.011838 -165299.000000 0 0 1
29.649657 23.960000 5.560729 38.524089 0.679663 1.425946 0.072709 -0.019198 723627.000000 0 0 1
30.594457 22.884700 5.304129 38.572841 0.642221 1.432850 0.054641 -0.023546 825199.000000 0 0 1
31.073687 22.747200 3.953529 38.712266 0.631908 1.468492 0.054901 -0.024317 -346142.000000 0 0 1
32.125227 23.753800 3.410229 40.098664 0.636691 1.485648 0.088564 -0.034441 -218291.000000 0 0 1
31.560117 25.055800 3.146829 40.419508 0.671015 1.492863 0.070306 -0.033054 -47138.000000 0 0 1
32.285487 25.885300 2.238629 41.441681 0.675815 1.516751 0.106189 -0.026553 -1087110.000000 0 0 1
31.906107 27.408600 2.262329 42.123024 0.709719 1.517063 0.088837 -0.016950 38080.900000 0 0 1
30.617557 27.716900 1.816129 41.339565 0.735715 1.526850 0.100547 -0.015802 -3628.610000 0 0 1
29.530257 27.239400 2.581729 40.257749 0.745067 1.506622 0.081699 -0.019404 -303445.000000 0 0 1
28.095357 27.749900 2.286629 39.555464 0.779212 1.512956 0.055855 -0.011651 334518.000000 0 0 1
27.862257 29.097500 2.624129 40.371474 0.807081 1.505751 0.047043 -0.012867 -55393.800000 0 0 1
26.563857 29.467400 2.216129 39.735090 0.837172 1.514995 0.048291 -0.010594 165008.000000 0 0 1
26.085257 30.904100 2.630829 40.526847 0.869754 1.505835 0.059067 -0.018158 -163587.000000 0 0 1
25.919257 31.085200 4.040529 40.674604 0.875775 1.471294 0.036069 -0.023949 121289.000000 0 0 1
27.054257 31.136800 4.899329 41.538375 0.855441 1.452574 0.040115 -0.022919 142640.000000 0 0 1
26.599657 30.993000 6.365829 41.335597 0.861534 1.416177 0.034888 -0.027863 51751.700000 0 0 1
26.086757 29.776600 6.855129 40.176580 0.851354 1.399332 0.041155 -0.037453 1248030.000000 0 0 1
27.040457 28.636200 6.756029 39.960758 0.814051 1.400914 0.066354 -0.042345 915515.000000 0 0 1
26.330557 27.390700 7.182629 38.667025 0.805130 1.383955 0.082460 -0.037613 -587296.000000 0 0 1
25.321557 26.984600 6.323729 37.541170 0.817182 1.401542 0.047566 -0.045234 -408284.000000 0 0 1
24.865257 25.684100 6.679929 36.367231 0.801596 1.386068 0.058469 -0.041326 -293550.000000 0 0 1
23.663057 25.280100 5.801929 35.109630 0.818425 1.404783 0.065370 -0.028209 -454012.000000 0 0 1
23.882257 25.148700 4.365529 34.955360 0.811222 1.445581 0.062676 -0.030360 280705.000000 0 0 1
24.291757 26.324200 3.621429 36.002329 0.825531 1.470037 0.050093 -0.027482 -65335.200000 0 0 1
24.537257 26.033000 2.146229 35.838532 0.814967 1.510874 0.063456 -0.014392 -763461.000000 0 0 1
25.733857 25.390300 1.924029 36.202218 0.778678 1.517625 0.047551 0.003979 -682003.000000 0 0 1
25.718057 24.968300 0.545329 35.848736 0.770607 1.555584 0.060117 -0.005281 -98321.200000 0 0 1
26.989357 24.182400 0.177929 36.238730 0.730599 1.565886 0.081346 -0.009247 -845859.000000 0 0 1
28.132157 25.029900 0.075729 37.655277 0.727110 1.568785 0.104311 -0.012117 500241.000000 0 0 1
29.297957 24.452700 -0.485671 38.164652 0.695498 1.583522 0.094646 -0.004695 561614.000000 0 0 1
29.934357 23.251700 0.291229 37.905040 0.660406 1.563113 0.083106 -0.009280 -1478400.000000 0 0 1
29.225557 22.088600 0.054829 36.633897 0.647201 1.569300 0.072588 -0.007663 -121268.000000 0 0 1
29.444957 21.130400 1.098929 36.258888 0.622456 1.540484 0.068043 -0.008660 308660.000000 0 0 1
28.136657 20.379000 1.539229 34.775628 0.626840 1.526520 0.072482 -0.017503 345207.000000 0 0 1
27.590757 19.582700 0.465229 33.837087 0.617244 1.557047 0.092475 -0.029786 -469654.000000 0 0 1
26.408757 19.135700 1.033229 32.629205 0.627044 1.539125 0.107428 -0.028093 -930865.000000 0 0 1
25.691957 18.068500 0.171129 31.409817 0.612920 1.565348 0.106668 -0.026532 740728.000000 0 0 1
24.372757 17.696900 0.625829 30.126454 0.628025 1.550021 0.121369 -0.031125 962406.000000 0 0 1
23.837657 16.642100 -0.147271 29.072583 0.609479 1.575862 0.133942 -0.046311 -214873.000000 0 0 1
22.307757 16.526600 0.016529 27.762651 0.637616 1.570201 0.116524 -0.033439 -916480.000000 0 0 1
21.878057 15.436200 -0.755471 26.786123 0.614445 1.599004 0.136077 -0.033359 1688800.000000 0 0 1
20.440357 15.208400 -0.582171 25.484163 0.639674 1.593643 0.143963 -0.038200 2144620.000000 0 0 1
19.417757 16.233700 -1.221571 25.339190 0.696324 1.619024 0.161469 -0.042829 -252192.000000 0 0 1
19.385657 17.496800 -0.631271 26.121643 0.734230 1.594965 0.136763 -0.032141 -113543.000000 0 0 1
18.381357 18.247800 -1.264471 25.931745 0.781752 1.619577 0.118276 -0.034797 34422.600000 0 0 1
18.312657 19.712900 -0.748871 26.916772 0.822205 1.598622 0.113588 -0.028650 -72316.500000 0 0 1
17.778657 19.745100 0.535129 26.575101 0.837756 1.550658 0.116897 -0.029873 -227082.000000 0 0 1
17.848157 21.037300 1.154129 27.612619 0.867229 1.528987 0.131751 -0.031914 192750.000000 0 0 1
16.834857 22.177300 0.836629 27.855789 0.921495 1.540758 0.110797 -0.036554 -166167.000000 0 0 1
15.516257 21.951900 1.231529 26.910162 0.955501 1.525016 0.096034 -0.032589 -625737.000000 0 0 1
14.673557 22.970200 0.798129 27.268670 1.002329 1.541523 0.082154 -0.031241 -390789.000000 0 0 1
13.211457 22.818000 1.228629 26.395326 1.045967 1.524232 0.084746 -0.034416 -238947.000000 0 0 1
13.070157 23.093800 2.595329 26.662489 1.055783 1.473302 0.073724 -0.017772 328989.000000 0 0 1
11.722657 23.032500 3.046429 26.023018 1.100005 1.453461 0.070815 -0.027272 301093.000000 0 0 1
11.523257 23.429700 4.549029 26.503395 1.113712 1.398303 0.096875 -0.038240 -7300.280000 0 0 1
12.158157 22.486300 5.359529 26.118557 1.075128 1.364128 0.103529 -0.052118 244801.000000 0 0 1
11.490457 22.413400 6.603929 26.038491 1.097072 1.314374 0.090438 -0.041274 71041.400000 0 0 1
12.081457 21.256300 7.592329 25.601472 1.053958 1.269710 0.102584 -0.042426 1102760.000000 0 0 1
13.374357 21.430700 8.190629 26.556256 1.012863 1.257259 0.132783 -0.043091 642374.000000 0 0 1
14.496657 21.241900 7.365029 26.750982 0.971942 1.291876 0.132110 -0.037790 -992065.000000 0 0 1
15.807157 21.324200 8.096229 27.751336 0.932901 1.274749 0.140181 -0.041705 -1089790.000000 0 0 1
16.034357 20.176500 8.956429 27.283867 0.899293 1.236327 0.146477 -0.045753 -276205.000000 0 0 1
17.346857 20.123000 9.427129 28.190767 0.859353 1.229823 0.126895 -0.045694 -282272.000000 0 0 1
17.712457 21.046400 10.627029 29.489250 0.871205 1.202132 0.096836 -0.039601 -455185.000000 0 0 1
16.923657 20.670700 11.700829 29.165003 0.884740 1.157976 0.109937 -0.049583 -154717.000000 0 0 1
17.053657 21.481500 12.830729 30.280516 0.899800 1.133238 0.101831 -0.046723 -241959.000000 0 0 1
18.023957 20.960600 13.922629 30.952373 0.860585 1.104246 0.115402 -0.032402 339164.000000 0 0 1
19.389057 21.136700 13.590529 31.739535 0.828496 1.128308 0.109376 -0.037053 -186657.000000 0 0 1
20.222157 20.659200 14.618029 32.394829 0.796088 1.102636 0.098334 -0.041502 -411745.000000 0 0 1
21.671457 21.094600 14.563729 33.566895 0.771910 1.122011 0.104946 -0.046058 -935469.000000 0 0 1
22.523057 20.624300 13.590829 33.426943 0.741420 1.152085 0.115366 -0.052034 23593.500000 0 0 1
23.776057 21.302500 13.725529 34.748922 0.730581 1.164738 0.145229 -0.051539 332972.000000 0 0 1
24.856757 20.836300 12.726429 34.842098 0.697636 1.196884 0.145628 -0.045889 -297658.000000 0 0 1
24.504557 21.043800 11.394129 34.251146 0.709564 1.231669 0.147383 -0.035200 107513.000000 0 0 1
25.468957 20.546900 10.489229 34.363743 0.678839 1.260605 0.157158 -0.063759 -18930.200000 0 0 1
25.188157 21.173700 9.040029 34.124639 0.699024 1.302684 0.128217 -0.051209 -82727.800000 0 0 1
25.509257 22.529600 8.807129 35.154951 0.723452 1.317576 0.097677 -0.037088 70966.800000 0 0 1
26.843057 22.829000 8.469829 36.241564 0.704762 1.334910 0.077975 -0.038131 -324983.000000 0 0 1
27.332157 24.146700 9.130029 37.596108 0.723598 1.325499 0.114058 -0.039945 -395884.000000 0 0 1
28.628957 24.442300 8.674829 38.630246 0.706674 1.344304 0.099701 -0.033128 -136420.000000 0 0 1
29.260157 25.400400 9.491229 39.892613 0.714902 1.330573 0.113886 -0.031924 -755099.000000 0 0 1
30.587757 25.826300 8.944429 41.019647 0.701196 1.350978 0.117963 -0.042925 -814877.000000 0 0 1
30.369257 26.771300 7.926129 41.253094 0.722514 1.377460 0.117507 -0.040571 806187.000000 0 0 1
31.625187 27.084700 7.306229 42.274276 0.708214 1.397095 0.132240 -0.034900 500682.000000 0 0 1
31.532847 27.940000 6.060129 42.563943 0.725060 1.427934 0.153205 -0.013846 52062.700000 0 0 1
31.418797 29.339200 6.337229 43.452157 0.751184 1.424430 0.137617 -0.018275 14873.600000 0 0 1
31.057857 30.073300 5.218129 43.545640 0.769294 1.450676 0.145555 -0.007106 -17878.600000 0 0 1
31.243317 31.602800 5.342929 44.759677 0.791118 1.451142 0.092157 0.000690 380777.000000 0 0 1
30.186157 32.092600 6.158529 44.486701 0.816000 1.431915 0.095122 -0.010166 267714.000000 0 0 1
30.242757 33.537600 6.255629 45.590875 0.837012 1.433150 0.073324 0.003240 -95814.100000 0 0 1
28.918157 -33.514714 6.784929 44.783157 -0.858890 1.418704 0.083323 -0.018567 -369184.000000 0 0 1
27.965957 -33.442814 5.783529 43.976878 -0.874350 1.438901 0.075407 -0.009894 -784758.000000 0 0 1
26.854057 -32.690314 6.225229 42.761554 -0.883101 1.424697 0.063096 -0.021482 250758.000000 0 0 1
25.613757 -32.602014 5.308229 41.798722 -0.904867 1.443457 0.066450 -0.021448 183372.000000 0 0 1
25.853657 -31.878614 4.138329 41.252677 -0.889382 1.470311 0.042294 -0.001673 -117642.000000 0 0 1
24.786657 -32.008714 3.218329 40.611498 -0.911879 1.491466 0.040641 -0.007497 129918.000000 0 0 1
25.039757 -31.261914 1.910929 40.099231 -0.895466 1.523123 0.042625 0.008016 43225.500000 0 0 1
25.182457 -29.876314 2.093029 39.129670 -0.870444 1.517281 0.051707 0.007316 -344244.000000 0 0 1
26.023457 -29.324014 1.138029 39.222611 -0.844961 1.541778 0.049470 0.012856 -434043.000000 0 0 1
26.346757 -27.814414 1.288729 38.333459 -0.812489 1.537171 0.053543 0.004089 -549125.000000 0 0 1
25.276757 -26.937814 1.174329 36.958616 -0.817200 1.539017 0.054780 0.004370 -550225.000000 0 0 1
24.809157 -26.748114 -0.165171 36.482642 -0.822988 1.575324 0.060858 0.001677 -359104.000000 0 0 1
23.549157 -25.888114 -0.293871 34.997766 -0.832675 1.579193 0.035163 0.008002 -388448.000000 0 0 1
23.680857 -24.486714 -0.053371 34.064424 -0.802127 1.572363 0.054511 -0.004941 -252826.000000 0 0 1
23.783957 -24.082614 1.323829 33.873314 -0.791637 1.531705 0.049556 -0.000988 482654.000000 0 0 1
22.406057 -23.791514 2.003129 32.742634 -0.815379 1.509580 0.041698 -0.006423 520528.000000 0 0 1
22.507257 -22.967914 3.124429 32.308880 -0.795528 1.473940 0.052170 -0.015336 -788489.000000 0 0 1
21.260657 -22.790114 3.720829 31.388683 -0.820105 1.451976 0.045963 -0.016703 -452475.000000 0 0 1
21.274357 -22.070214 5.136029 31.081689 -0.803757 1.404792 0.054339 -0.029454 -259864.000000 0 0 1
21.561457 -20.634014 5.158929 30.286524 -0.763422 1.399624 0.087898 -0.025700 384740.000000 0 0 1
20.542857 -19.877314 4.505429 28.938132 -0.768934 1.414469 0.063671 -0.018188 -336440.000000 0 0 1
20.407957 -18.369714 4.897329 27.891126 -0.732884 1.394294 0.076041 -0.022369 71109.900000 0 0 1
20.083257 -18.181614 6.282529 27.809683 -0.735742 1.342918 0.113287 -0.037442 -729038.000000 0 0 1
18.718057 -18.356914 6.482929 27.006857 -0.775658 1.328382 0.088805 -0.031726 -794340.000000 0 0 1
20.288734 -25.894730 -12.254971 35.104901 -0.906193 1.927402 0.124720 -0.037225 191490.000000 0 0 1
19.972234 -24.519000 -12.386171 33.963049 -0.887239 1.944102 0.163671 -0.041091 -55162.200000 0 0 1
18.703234 -24.303400 -12.998571 33.308093 -0.914886 1.971702 0.136733 -0.034621 600809.000000 0 0 1
18.383234 -22.793500 -13.152871 32.101167 -0.892097 1.992956 0.132473 -0.040325 137447.000000 0 0 1
18.131834 -21.997800 -12.001371 30.930559 -0.881439 1.969268 0.147723 -0.046438 -1429930.000000 0 0 1
19.261834 -21.627600 -11.347371 31.105211 -0.843191 1.944221 0.124953 -0.048769 -1630320.000000 0 0 1
19.435334 -22.345000 -9.936371 31.237200 -0.854928 1.894515 0.143576 -0.033111 290871.000000 0 0 1
18.706634 -21.677200 -8.896771 29.983190 -0.858824 1.872058 0.127645 -0.038652 405519.000000 0 0 1
17.312934 -21.947400 -8.986871 29.363070 -0.902899 1.881848 0.117931 -0.016137 -366166.000000 0 0 1
16.434934 -21.136300 -8.063071 27.961819 -0.909883 1.863310 0.100531 -0.023604 -1344660.000000 0 0 1
16.225934 -19.781400 -8.436871 26.940035 -0.883822 1.889328 0.085717 -0.030828 918694.000000 0 0 1
15.282434 -19.156900 -7.509771 25.630768 -0.897428 1.868158 0.075876 -0.036203 542395.000000 0 0 1
13.805134 -19.424500 -7.816171 25.079582 -0.952920 1.887730 0.056619 -0.017068 -791958.000000 0 0 1
13.428034 -20.741900 -7.515871 25.826862 -0.996260 1.866079 0.061594 -0.020522 -95276.800000 0 0 1
12.045934 -20.956200 -7.774171 25.391033 -1.049101 1.881972 0.056843 -0.020714 473280.000000 0 0 1
11.569734 -22.420700 -7.540871 26.332703 -1.094408 1.861231 0.053228 -0.011432 111934.000000 0 0 1
11.623434 -22.729400 -6.190671 26.268883 -1.098084 1.808700 0.060582 -0.012153 98885.200000 0 0 1
11.079634 -24.011700 -5.960471 27.108066 -1.138481 1.792486 0.041819 -0.004609 86029.500000 0 0 1
11.279734 -24.364700 -4.445471 27.214577 -1.137222 1.734881 0.070853 -0.010717 50470.000000 0 0 1
10.572134 -25.483810 -3.980171 27.875371 -1.177548 1.714070 0.066982 -0.010414 -259619.000000 0 0 1
11.086534 -25.911750 -2.708571 28.313713 -1.166508 1.666606 0.074983 -0.019146 165444.000000 0 0 1
10.073034 -26.714240 -1.886471 28.612504 -1.210216 1.636776 0.068767 -0.018108 322316.000000 0 0 1
9.094034 -25.923640 -1.227071 27.499859 -1.233408 1.615432 0.065456 -0.015242 -221891.000000 0 0 1
8.502534 -26.671030 -0.192871 27.994180 -1.262189 1.577686 0.069399 -0.025009 -179489.000000 0 0 1
7.802434 -25.670490 0.791129 26.841719 -1.275724 1.541318 0.078717 -0.027768 -899584.000000 0 0 1
6.470534 -25.397480 0.605529 26.215767 -1.321333 1.547696 0.080070 -0.028033 -1393820.000000 0 0 1
5.799634 -25.417620 1.839029 26.135669 -1.346463 1.500373 0.082750 -0.022924 492179.000000 0 0 1
4.276234 -25.069310 1.732429 25.490347 -1.401846 1.502780 0.055264 -0.026891 506645.000000 0 0 1
3.480234 -25.970150 1.055829 26.223567 -1.437581 1.530523 0.047372 -0.032734 -1327080.000000 0 0 1
2.236734 -25.422380 0.813029 25.533535 -1.483039 1.538949 0.055024 -0.035063 -419178.000000 0 0 1
1.189434 -26.275000 0.066429 26.301992 -1.525559 1.568271 0.085469 -0.034738 39175.600000 0 0 1
0.729634 -27.493460 0.623129 27.510198 -1.544264 1.548144 0.087919 -0.029051 -232006.000000 0 0 1
1.639834 -28.647120 0.634329 28.701026 -1.513616 1.548693 0.071786 -0.025503 91949.500000 0 0 1
1.297534 -29.865080 1.457629 29.928770 -1.527377 1.522074 0.121638 -0.034210 -105983.000000 0 0 1
1.325534 -29.455290 2.818729 29.619527 -1.525825 1.475488 0.107253 -0.035080 138560.000000 0 0 1
0.537934 -30.388330 3.559829 30.600855 -1.553096 1.454201 0.145127 -0.041769 185105.000000 0 0 1
0.721134 -30.278820 5.133729 30.719410 -1.546984 1.402892 0.138993 -0.041563 -964883.000000 0 0 1
2.030834 -30.452140 5.542229 31.018920 -1.504206 1.391159 0.078124 -0.018120 -893429.000000 0 0 1
2.165834 -30.614820 6.926729 31.463274 -1.500169 1.348825 0.079247 -0.025374 -509817.000000 0 0 1
3.607434 -30.756040 7.412429 31.841666 -1.454038 1.335851 0.079822 -0.018700 -217567.000000 0 0 1
4.061934 -31.990910 6.824629 32.961996 -1.444501 1.362242 0.079195 -0.021032 202724.000000 0 0 1
5.322834 -32.409510 7.351429 33.656387 -1.408013 1.350595 0.069744 -0.016555 562956.000000 0 0 1
5.460834 33.714555 7.256329 34.916274 1.410218 1.361450 0.058352 -0.005355 -172086.000000 0 0 1
5.542334 33.254536 5.941429 34.232765 1.405650 1.396353 0.053282 -0.008329 25741.600000 0 0 1
5.513834 31.812369 5.867529 32.815500 1.399178 1.391026 0.049726 -0.009886 -607969.000000 0 0 1
5.765934 31.300675 4.403429 32.130491 1.388627 1.433315 0.054301 -0.014183 1966490.000000 0 0 1
7.150734 31.341715 3.893629 32.382039 1.346482 1.450264 0.053449 -0.012023 1521940.000000 0 0 1
7.908734 30.245535 4.336029 31.561711 1.315038 1.432978 0.047908 -0.022185 1144600.000000 0 0 1
9.390334 30.268395 3.728729 31.910147 1.269976 1.453678 0.038306 -0.021681 1459690.000000 0 0 1
10.303834 31.093465 4.431929 33.054720 1.250802 1.436313 0.045243 -0.019281 776931.000000 0 0 1
11.571034 31.081325 3.728729 33.374256 1.214410 1.458838 0.047416 -0.026479 2101360.000000 0 0 1
12.905134 31.466475 4.507329 34.307398 1.181594 1.439035 0.054122 -0.029350 1044090.000000 0 0 1
13.332534 30.419155 5.302029 33.633212 1.157720 1.412493 0.064025 -0.030266 -876480.000000 0 0 1
14.400334 30.890355 6.048029 34.614481 1.134572 1.395169 0.087415 -0.033554 -480236.000000 0 0 1
15.037534 29.789135 6.925329 34.080495 1.103317 1.366166 0.082618 -0.034690 -407400.000000 0 0 1
14.256534 29.389855 7.973029 33.624121 1.119153 1.331394 0.068603 -0.025785 -311337.000000 0 0 1
14.960534 28.348105 8.571129 33.179766 1.085201 1.309509 0.063100 -0.036962 268028.000000 0 0 1
14.739934 28.425875 10.107429 33.577614 1.092427 1.265037 0.039096 -0.009936 140412.000000 0 0 1
15.547134 29.443135 10.667729 34.963009 1.084970 1.260737 0.033528 -0.012781 -231270.000000 0 0 1
15.205934 29.751575 11.957029 35.487282 1.098311 1.227133 0.012050 -0.008433 -410214.000000 0 0 1
15.948634 30.821995 12.780829 36.982481 1.093292 1.217927 0.014656 -0.010258 1108980.000000 0 0 1
17.197234 30.291565 13.329229 37.296007 1.054448 1.205324 0.016642 -0.009466 1101800.000000 0 0 1
17.804034 31.178965 14.281629 38.640347 1.051953 1.192213 0.028427 -0.002037 164421.000000 0 0 1
18.846534 30.301185 15.051429 38.728532 1.014376 1.171642 0.045367 -0.010996 -87096.100000 0 0 1
20.031934 30.087685 14.332329 38.883966 0.983404 1.193302 0.061765 -0.022081 -316413.000000 0 0 1
20.701334 28.975635 14.860929 38.587302 0.950445 1.175453 0.050839 -0.017423 -219649.000000 0 0 1
22.052934 28.606135 14.225229 38.820098 0.914043 1.195617 0.094071 -0.029419 432727.000000 0 0 1
23.183734 28.896045 15.046829 39.985922 0.894645 1.184993 0.118291 -0.027044 1192460.000000 0 0 1
24.437534 28.578215 14.396729 40.263796 0.863343 1.205142 0.133836 -0.034222 568613.000000 0 0 1
25.676934 28.797845 15.251629 41.487745 0.842627 1.194350 0.160819 -0.045973 -418938.000000 0 0 1
25.864734 27.813775 16.246429 41.310253 0.821692 1.166602 0.149366 -0.039759 -256169.000000 0 0 1
26.959634 28.042515 17.086829 42.487224 0.805084 1.156917 0.136797 -0.040191 35550.900000 0 0 1
27.887834 26.761445 17.263829 42.331383 0.764790 1.150725 0.087259 -0.023727 69963.600000 0 0 1
27.353234 25.621395 17.891829 41.530384 0.752718 1.125403 0.108177 -0.027966 -265072.000000 0 0 1
26.901534 25.795555 19.179929 41.916260 0.764414 1.095528 0.115760 -0.027390 -21623.100000 0 0 1
26.365534 24.550995 19.873329 41.144161 0.749776 1.066699 0.130388 -0.027514 651044.000000 0 0 1
27.393734 23.547375 19.899129 41.241616 0.710035 1.067288 0.089060 -0.029549 714296.000000 0 0 1
26.810734 22.318915 20.286129 40.354386 0.694224 1.044078 0.098566 -0.030228 -362175.000000 0 0 1
27.736934 21.204315 20.022829 40.247660 0.652704 1.050093 0.064878 -0.034808 -440121.000000 0 0 1
27.022334 19.969715 20.154129 39.181437 0.636429 1.030512 0.064631 -0.016495 75729.200000 0 0 1
27.844534 18.847315 20.032129 39.138543 0.595038 1.033487 0.073229 -0.031915 -34352.400000 0 0 1
28.582634 18.424515 21.293629 40.122916 0.572573 1.011358 0.115134 -0.024474 107380.000000 0 0 1
27.638034 17.969915 22.252429 39.773727 0.576507 0.977043 0.092910 -0.016177 262212.000000 0 0 1
28.319734 17.365515 23.316929 40.586299 0.550065 0.958800 0.132152 -0.018518 -360575.000000 0 0 1
27.379834 16.774815 24.346429 40.296381 0.549684 0.922055 0.103309 -0.005542 -237231.000000 0 0 1
27.021234 15.487115 24.009129 39.324752 0.520440 0.914061 0.102936 -0.013182 -309720.000000 0 0 1
25.735334 15.189515 24.468729 38.623147 0.533197 0.884696 0.096663 -0.014088 -333258.000000 0 0 1
25.130734 13.893315 23.828529 37.314565 0.505022 0.878138 0.092317 -0.007053 811874.000000 0 0 1
23.827634 13.470815 24.273729 36.584600 0.514547 0.845315 0.075557 -0.013043 1025410.000000 0 0 1
23.242334 12.643215 23.260229 35.229182 0.498205 0.849639 0.082305 -0.015951 799054.000000 0 0 1
21.872234 11.968515 23.612329 34.339220 0.500692 0.812591 0.091315 -0.026218 745357.000000 0 0 1
20.724134 12.765915 23.700829 33.973337 0.552096 0.798712 0.119485 -0.034911 -539019.000000 0 0 1
19.532434 12.037315 23.633129 32.938393 0.552299 0.770597 0.122644 -0.037324 -89522.900000 0 0 1
18.292734 12.935515 23.834929 32.711703 0.615502 0.754468 0.120661 -0.048957 -119232.000000 0 0 1
18.154434 13.475015 25.141929 33.812366 0.638519 0.732400 0.146882 -0.030842 1080850.000000 0 0 1
16.904934 14.211515 25.195729 33.504757 0.699054 0.719698 0.147385 -0.037786 848169.000000 0 0 1
16.525434 14.504015 26.668929 34.564262 0.720345 0.689483 0.142123 -0.025743 -265914.000000 0 0 1
15.975934 13.434915 27.387729 34.435666 0.699215 0.651244 0.140339 -0.021800 -99680.400000 0 0 1
15.978334 13.561915 28.754929 35.581999 0.703779 0.629824 0.118214 -0.022541 -825733.000000 0 0 1
17.326134 13.227915 29.375229 36.579731 0.652064 0.638406 0.127355 -0.023302 -731411.000000 0 0 1
18.200334 14.312215 29.176029 37.246910 0.666375 0.670817 0.157100 -0.043288 -428650.000000 0 0 1
19.517034 13.870815 29.406829 37.921969 0.617873 0.683359 0.140058 -0.028333 -102264.000000 0 0 1
20.632034 14.953315 29.186029 38.744119 0.627152 0.717728 0.152300 -0.030552 318689.000000 0 0 1
20.687234 15.559415 27.902329 38.060439 0.644861 0.747919 0.162980 -0.040081 176757.000000 0 0 1
20.993634 14.700115 26.813029 37.091301 0.610872 0.762817 0.139275 -0.030085 -357162.000000 0 0 1
21.014834 15.582415 25.550429 36.568557 0.638036 0.797218 0.126686 -0.030849 -492526.000000 0 0 1
22.039234 16.501715 25.348129 37.424084 0.642696 0.826681 0.118608 -0.029113 -377364.000000 0 0 1
22.127534 17.031915 24.063129 36.861200 0.656000 0.859517 0.102049 -0.029355 -173140.000000 0 0 1
23.282634 18.026715 23.893329 37.920109 0.658845 0.889119 0.102065 -0.031030 -309872.000000 0 0 1
23.413534 18.366215 22.489229 37.299824 0.665173 0.923626 0.104287 -0.037847 -260415.000000 0 0 1
24.526934 19.167015 22.213229 38.240979 0.663338 0.950993 0.086763 -0.037886 -475118.000000 0 0 1
24.490334 20.623115 22.744229 39.273264 0.699885 0.953138 0.109321 -0.041125 -109880.000000 0 0 1
23.519234 21.568315 22.290629 38.925811 0.742156 0.961069 0.109497 -0.033212 360503.000000 0 0 1
23.701534 22.846435 23.021729 40.171163 0.767030 0.960524 0.137931 -0.035386 543340.000000 0 0 1
22.699634 23.911045 22.453629 39.889559 0.811382 0.972912 0.140791 -0.045553 343120.000000 0 0 1
23.049334 24.474455 21.245329 39.769772 0.815377 1.007226 0.151711 -0.041807 104642.000000 0 0 1
22.179134 25.544515 20.902529 39.766216 0.855800 1.017335 0.143101 -0.043941 36742.000000 0 0 1
22.622234 26.241295 19.596429 39.804410 0.859328 1.056045 0.144370 -0.044811 -74258.400000 0 0 1
22.555034 25.503025 18.435029 38.716716 0.846664 1.074523 0.136956 -0.044175 106858.000000 0 0 1
22.767834 26.209755 17.239029 38.762219 0.855558 1.109915 0.128822 -0.051432 -10438.200000 0 0 1
22.605634 25.392145 15.851929 37.510790 0.843388 1.134488 0.100101 -0.028754 898622.000000 0 0 1
21.203534 25.215495 15.536929 36.425365 0.871613 1.130131 0.093683 -0.027973 913617.000000 0 0 1
21.056534 24.688655 14.217429 35.426580 0.864631 1.157838 0.103609 -0.018274 -483050.000000 0 0 1
19.590534 24.561545 13.822429 34.323724 0.897514 1.156323 0.076918 -0.020723 -763981.000000 0 0 1
19.043934 25.868695 13.636629 34.897256 0.936201 1.169334 0.052251 -0.016722 164279.000000 0 0 1
17.984434 26.277485 14.482929 34.981442 0.970614 1.143933 0.062836 -0.008790 -552546.000000 0 0 1
16.572934 25.801565 14.211929 33.798843 0.999837 1.136816 0.056309 -0.015540 -1284330.000000 0 0 1
16.365334 24.375665 14.324229 32.667732 0.979538 1.116887 0.051359 -0.018256 -208698.000000 0 0 1
16.227734 23.873265 15.666229 32.843612 0.973794 1.073564 0.065240 -0.019209 77136.000000 0 0 1
15.090534 24.414425 16.599829 33.156337 1.017175 1.046443 0.095941 -0.031577 148321.000000 0 0 1
15.268034 25.798205 16.937729 34.431772 1.036409 1.056501 0.081132 -0.027377 -505345.000000 0 0 1
14.269234 26.259865 17.767329 34.768801 1.073045 1.034433 0.071979 -0.034111 -596590.000000 0 0 1
14.624334 27.611685 18.417029 36.269316 1.083717 1.038184 0.078579 -0.029477 -545562.000000 0 0 1
14.871834 28.649965 17.550729 36.742619 1.091996 1.072799 0.064293 -0.019307 346349.000000 0 0 1
15.596734 29.665495 18.208429 38.142451 1.086759 1.073126 0.045561 -0.014363 -309104.000000 0 0 1
15.583734 30.940535 17.348929 38.744739 1.104219 1.106521 0.014218 -0.008786 861745.000000 0 0 1
14.272634 31.545395 17.284429 38.698469 1.145909 1.107786 0.020579 -0.009733 1025090.000000 0 0 1
14.391334 32.686612 16.514329 39.347785 1.156053 1.137680 0.005035 -0.004550 -215389.000000 0 0 1
13.058034 33.427501 16.377929 39.448024 1.198387 1.142658 0.026451 -0.005506 -566533.000000 0 0 1
13.089634 -32.905720 15.784029 38.771903 -1.192195 1.151520 0.048195 -0.016738 465959.000000 0 0 1
13.879134 -31.810470 16.407029 38.389152 -1.159388 1.129196 0.037532 -0.013335 351607.000000 0 0 1
13.656134 -31.523360 17.915729 38.745136 -1.161995 1.090097 0.042955 -0.015412 -93051.800000 0 0 1
14.172734 -32.491620 18.858229 40.152267 -1.159480 1.081882 0.038017 -0.013942 374438.000000 0 0 1
13.969534 -32.020130 20.227529 40.368175 -1.159416 1.045954 0.041099 -0.027594 -17146.800000 0 0 1
14.894534 -32.732970 21.274129 41.783765 -1.143766 1.036601 0.063509 -0.014791 -9036.750000 0 0 1
16.226534 -32.317920 21.176629 41.907016 -1.105477 1.041039 0.071259 -0.015955 -35883.500000 0 0 1
17.171534 -32.987060 22.023529 43.220869 -1.090841 1.036126 0.077560 -0.014121 89387.600000 0 0 1
18.565334 -32.398940 21.843029 43.260616 -1.050449 1.041510 0.103517 -0.022809 -582113.000000 0 0 1
18.721634 -31.051100 22.208429 42.519228 -1.028225 1.021233 0.100512 -0.020396 1323980.000000 0 0 1
19.978334 -30.490760 21.702529 42.424286 -0.990756 1.033798 0.108439 -0.024086 1091030.000000 0 0 1
-5.120366 13.059900 18.531066 23.241763 -1.197147 0.647959 0.035772 -0.006984 -46365.500000 0 1 0
-4.748166 14.192000 17.801966 23.256568 -1.247936 0.699041 0.036113 -0.014207 760323.000000 0 1 0
-5.918766 14.939000 17.437866 23.712543 -1.193574 0.744561 0.034502 -0.019826 483747.000000 0 1 0
-5.552466 16.418500 17.108566 24.353646 -1.244687 0.791885 0.043103 -0.020564 -199406.000000 0 1 0
-4.956166 16.958000 18.230566 25.386825 -1.286454 0.769712 0.038296 -0.011341 106688.000000 0 0 1
-4.886066 18.350400 18.127566 26.252990 -1.310569 0.808623 0.044120 -0.004010 -593099.000000 0 0 1
-4.286366 19.149300 19.267766 27.501190 -1.350587 0.794536 0.046843 -0.006540 -335488.000000 0 0 1
-5.105566 19.196700 20.426966 28.492824 -1.310853 0.771428 0.036369 -0.004739 255566.000000 0 0 1
-4.643366 20.146900 21.392866 29.750851 -1.344276 0.768337 0.047843 0.000287 40394.400000 0 0 1
-5.700466 20.275600 22.505666 30.823697 -1.296722 0.752267 0.048266 0.000853 89447.500000 0 0 1
-5.936766 19.183800 23.358276 30.803773 -1.270676 0.710106 0.048625 -0.003471 -19628.400000 0 0 1
-6.593466 19.389300 24.594226 32.004604 -1.243007 0.694367 0.042397 -0.006475 578651.000000 0 0 1
-5.618266 20.050800 25.646136 33.035190 -1.297601 0.681977 0.041462 -0.008588 114237.000000 0 0 1
-5.339766 21.352800 25.240676 33.489504 -1.325749 0.717139 0.055783 -0.015345 352013.000000 0 0 1
-4.303266 22.076800 25.920106 34.318437 -1.378288 0.714712 0.058905 -0.007257 412331.000000 0 0 1
-2.830666 21.700200 25.750386 33.793398 -1.441084 0.704409 0.069004 -0.006003 -852361.000000 0 0 1
-2.411066 20.547900 26.426786 33.561949 -1.453992 0.664211 0.077027 -0.005017 -13246.800000 0 0 1
-1.150066 20.276000 25.835986 32.862395 -1.514136 0.666182 0.075314 -0.003047 -39480.300000 0 0 1
-0.375266 19.086000 26.435016 32.607151 -1.551137 0.625429 0.071455 0.000031 -519285.000000 0 0 1
-0.787166 17.775500 26.129746 31.612524 -1.526541 0.597823 0.067894 0.000019 -507228.000000 0 0 1
-0.023166 16.725500 26.649956 31.463678 -1.569411 0.560467 0.062266 -0.003915 -46504.100000 0 0 1
1.368934 16.539600 25.982026 30.830148 1.488217 0.568430 0.065379 0.003078 -140575.000000 0 0 1
1.384134 16.045900 24.633876 29.431524 1.484748 0.579038 0.047001 0.002912 -295346.000000 0 0 1
1.005334 14.706200 24.456126 28.554949 1.502541 0.542427 0.054139 0.006987 -217575.000000 0 0 1
1.001734 14.279600 22.980976 27.074632 1.500760 0.557083 0.054065 -0.009361 850827.000000 0 0 1
2.331734 14.366500 22.426116 26.735070 1.409896 0.575670 0.055385 -0.014600 646684.000000 0 0 1
2.399134 13.793000 21.133666 25.350237 1.398581 0.585081 0.051273 -0.016798 188705.000000 0 0 1
3.866934 13.614800 20.700466 25.076388 1.294060 0.599715 0.058393 -0.020193 187504.000000 0 0 1
4.545334 14.782700 20.300666 25.520684 1.272494 0.651031 0.072619 -0.019551 62572.400000 0 0 1
5.886934 14.473500 19.947266 25.338343 1.184494 0.664482 0.079975 -0.026565 472632.000000 0 0 1
6.559934 15.504200 19.008766 25.391852 1.170530 0.724823 0.093481 -0.036337 20110.700000 0 0 1
6.443334 15.172800 17.644266 24.146439 1.169211 0.751422 0.101063 -0.046046 117282.000000 0 1 0
6.965534 16.158200 16.746866 24.291225 1.163784 0.810108 0.100186 -0.037754 -39199.900000 0 1 0
7.002834 15.580300 15.308666 22.937757 1.148386 0.840084 0.101370 -0.034803 299356.000000 0 1 0
8.169934 14.876500 14.882766 22.573320 1.068580 0.850899 0.092755 -0.031691 313007.000000 0 1 0
8.335534 13.615200 15.411766 22.189577 1.021438 0.803002 0.092464 -0.035266 172339.000000 0 1 0
9.615234 12.978300 14.806566 21.911718 0.933164 0.828832 0.099760 -0.037001 710047.000000 0 1 0
10.847834 13.656700 15.049466 23.036219 0.899526 0.858867 0.095607 -0.035765 -211439.000000 0 1 0
11.849434 13.032300 14.323766 22.702868 0.832902 0.888054 0.107791 -0.027320 81773.100000 0 1 0
13.177034 13.869600 14.302166 23.886230 0.810999 0.928842 0.099984 -0.018253 100264.000000 0 1 0
13.942634 13.764400 15.492466 24.977435 0.778965 0.901724 0.090750 -0.027233 583762.000000 0 1 0
15.315934 14.117400 15.368666 25.885801 0.744700 0.935134 0.087391 -0.023502 911603.000000 0 0 1
16.266834 13.127000 14.582566 25.486845 0.678982 0.961659 0.097439 -0.023777 -233998.000000 0 0 1
17.563134 13.696100 14.508866 26.581084 0.662315 0.993412 0.092697 -0.036355 578075.000000 0 0 1
18.340234 13.175700 13.414766 26.266313 0.622971 1.034773 0.103123 -0.030375 -185416.000000 0 0 1
19.748334 13.756500 13.353466 27.523682 0.608434 1.064247 0.085341 -0.037842 -62776.000000 0 0 1
20.575934 13.528700 14.505766 28.579924 0.581630 1.038456 0.059854 -0.024554 170863.000000 0 0 1
21.933834 13.723400 14.179966 29.504173 0.559083 1.069447 0.090949 -0.043084 -311928.000000 0 0 1
22.858034 13.443300 15.351966 30.641392 0.531639 1.046019 0.100835 -0.023586 -448379.000000 0 0 1
23.136634 12.042300 15.645666 30.415583 0.479902 1.030493 0.120859 -0.020997 37568.200000 0 0 1
23.809634 11.877900 16.827766 31.482644 0.462743 1.006869 0.103508 -0.024852 -525243.000000 0 0 1
24.178934 10.410900 17.264966 31.481530 0.406585 0.990328 0.129030 -0.024395 -689379.000000 0 0 1
23.122134 9.673000 17.785866 30.733321 0.396219 0.953643 0.095387 -0.018287 -262041.000000 0 0 1
23.084534 8.332300 17.341966 30.051068 0.346394 0.955644 0.093484 -0.014377 880779.000000 0 0 1
21.673634 7.652500 17.621866 28.962688 0.339415 0.916711 0.127794 -0.008445 875209.000000 0 0 1
21.517134 6.358100 17.095066 28.207335 0.287314 0.919711 0.146871 -0.022713 354795.000000 0 0 1
20.542734 5.529400 17.710766 27.681210 0.262934 0.876543 0.153777 -0.026402 -210033.000000 0 0 1
20.504234 4.083100 17.127766 27.026944 0.196563 0.884432 0.162394 -0.018677 -473776.000000 0 0 1
19.982734 4.013700 15.835666 25.810613 0.198221 0.910269 0.172468 -0.024547 255762.000000 0 0 1
19.991634 2.679400 15.284766 25.307483 0.133232 0.922333 0.167654 -0.031029 -225884.000000 0 0 1
19.093934 1.567900 15.865266 24.874551 0.081931 0.879143 0.176478 -0.031565 -177297.000000 0 1 0
19.618734 1.089700 17.071466 26.029159 0.055487 0.855476 0.169091 -0.035402 214358.000000 0 0 1
18.597034 0.483700 17.827066 25.766022 0.026004 0.806703 0.161300 -0.030928 -124812.000000 0 0 1
19.041234 0.088300 19.231666 27.063506 0.004637 0.780428 0.144781 -0.033085 -271499.000000 0 0 1
19.705534 -1.143300 19.276666 27.589945 -0.057954 0.797239 0.143631 -0.027247 -80108.600000 0 0 1
18.870034 -2.204300 19.707366 27.373662 -0.116288 0.767082 0.101085 -0.022202 -52118.400000 0 0 1
19.061534 -3.588900 19.025266 27.169524 -0.186101 0.795059 0.092090 -0.017817 -26213.100000 0 0 1
18.517234 -3.630300 17.722066 25.887036 -0.193594 0.816752 0.123634 -0.027633 257297.000000 0 0 1
18.268534 -4.899300 17.217966 25.577350 -0.262017 0.832306 0.132370 -0.024823 -76069.300000 0 0 1
17.746634 -4.914500 15.776066 24.248290 -0.270156 0.862415 0.141295 -0.030746 212579.000000 0 1 0
16.411634 -4.516300 15.488766 23.013921 -0.268542 0.832516 0.132489 -0.034039 374796.000000 0 1 0
16.064534 -4.598200 14.119766 21.876482 -0.278779 0.869209 0.132883 -0.034314 59725.300000 0 1 0
16.349434 -3.308500 13.364066 21.374013 -0.199665 0.895347 0.127461 -0.033846 -280062.000000 0 1 0
15.585534 -2.166800 13.684266 20.853370 -0.138141 0.855006 0.130121 -0.021357 331919.000000 0 1 0
16.022534 -1.021500 12.962266 20.634568 -0.063668 0.891582 0.136846 -0.026370 587629.000000 0 1 0
14.854634 0.032000 13.071966 19.787306 0.002154 0.849147 0.124930 -0.021032 372547.000000 0 1 0
15.007234 1.372200 12.639266 19.668529 0.091182 0.872892 0.117292 -0.018070 -193237.000000 0 1 0
16.037234 2.005400 13.356266 20.966744 0.124401 0.880168 0.143890 -0.026627 -290078.000000 0 1 0
16.310634 3.455600 12.840566 21.044194 0.208775 0.914519 0.125775 -0.024921 135562.000000 0 1 0
15.261334 4.379800 13.133966 20.605631 0.279476 0.879681 0.107681 -0.016166 487796.000000 0 1 0
15.280734 5.541100 12.370466 20.426283 0.347873 0.920258 0.119203 -0.024135 -480803.000000 0 1 0
14.186634 6.557200 12.643866 20.102856 0.432961 0.890583 0.089305 -0.021797 -614969.000000 0 1 0
14.320334 7.764100 11.890466 20.167707 0.496814 0.940258 0.061238 -0.027040 171626.000000 0 1 0
13.306534 8.739700 12.003166 19.937959 0.581139 0.924761 0.044620 -0.025240 -327336.000000 0 1 0
13.543734 9.658300 13.238666 21.259769 0.619477 0.898595 0.045343 -0.028330 25413.700000 0 1 0
13.303434 9.060800 14.499966 21.663990 0.597920 0.837514 0.066621 -0.029582 210353.000000 0 1 0
13.988234 9.757800 15.504066 23.049109 0.609095 0.833007 0.099440 -0.036517 -306827.000000 0 1 0
13.574234 9.374100 16.926666 23.635685 0.604376 0.772528 0.085837 -0.032519 385746.000000 0 1 0
12.255434 9.796100 17.304266 23.358015 0.674330 0.736494 0.091223 -0.042083 503436.000000 0 1 0
11.785434 9.041100 18.415466 23.659403 0.654382 0.678751 0.117464 -0.031866 -112221.000000 0 1 0
12.513334 9.319500 19.731066 25.154554 0.640143 0.669079 0.147522 -0.031623 178682.000000 0 0 1
13.800334 8.707000 19.899966 25.734601 0.562850 0.686804 0.173299 -0.045479 700126.000000 0 0 1
14.460734 9.222000 21.046666 27.149959 0.567699 0.683764 0.148622 -0.026689 -514934.000000 0 0 1
15.964334 8.995200 21.051766 27.909683 0.513115 0.716237 0.132512 -0.029817 -682486.000000 0 0 1
16.682434 9.806800 20.173566 27.954422 0.531439 0.764600 0.136159 -0.027197 -165975.000000 0 0 1
17.805134 9.099200 19.677866 28.054173 0.472443 0.793403 0.111478 -0.021000 -206710.000000 0 0 1
18.618634 9.985000 18.709666 28.220655 0.492257 0.846007 0.116455 -0.023963 101908.000000 0 0 1
19.445134 10.875300 19.483366 29.597076 0.509941 0.852256 0.103951 -0.026542 235345.000000 0 0 1
20.400634 11.536700 18.693566 29.978838 0.514671 0.897510 0.096017 -0.027533 353522.000000 0 0 1
21.296934 12.486100 19.570666 31.503540 0.530275 0.900496 0.085391 -0.019416 125735.000000 0 0 1
20.537934 13.655600 19.817066 31.638556 0.586776 0.893924 0.083093 -0.027038 464169.000000 0 0 1
21.124534 14.367300 20.880766 32.995024 0.597261 0.885573 0.093182 -0.022023 -276197.000000 0 0 1
22.432634 15.144700 20.570166 33.995834 0.593832 0.920931 0.057120 -0.020353 290105.000000 0 0 1
23.582234 14.303200 20.517566 34.375483 0.545203 0.931207 0.028142 -0.014274 157342.000000 0 0 1
24.775434 15.026000 20.335166 35.399460 0.545176 0.958866 0.040511 -0.017570 523070.000000 0 0 1
26.137034 14.281200 20.429066 36.117087 0.500073 0.969594 0.041251 -0.021668 341718.000000 0 0 1
26.341734 13.310900 19.474366 35.359835 0.467891 0.987536 0.073478 -0.032784 -36611.400000 0 0 1
27.541534 12.611800 19.688166 36.127794 0.429420 0.994456 0.110287 -0.039562 -96696.100000 0 0 1
27.992434 11.690300 18.498666 35.530833 0.395606 1.023199 0.158724 -0.040698 55943.600000 0 0 1
28.278434 12.486400 17.347366 35.447301 0.415806 1.059412 0.165420 -0.057267 143624.000000 0 0 1
28.566934 11.698100 16.282366 34.900297 0.388667 1.085422 0.222966 -0.071641 505737.000000 0 0 1
27.394834 11.550300 15.218966 33.399151 0.399007 1.097672 0.191735 -0.062341 575365.000000 0 0 1
27.071134 12.766100 14.595866 33.299533 0.440651 1.117067 0.219053 -0.055467 77891.300000 0 0 1
26.227234 12.557100 13.483166 32.052213 0.446529 1.136621 0.212239 -0.048145 -89250.800000 0 0 1
25.936334 13.857300 12.701266 32.031865 0.490695 1.163074 0.184648 -0.054100 145053.000000 0 0 1
25.000234 14.723600 13.329866 31.929319 0.532246 1.140126 0.156523 -0.054634 360689.000000 0 0 1
25.191134 15.981500 12.747366 32.442209 0.565337 1.166986 0.150370 -0.051283 626446.000000 0 0 1
24.034934 16.998600 13.116866 32.228600 0.615572 1.151635 0.138271 -0.055379 271799.000000 0 0 1
22.787334 16.704500 12.544266 30.913776 0.632572 1.152962 0.161590 -0.067337 -617556.000000 0 0 1
21.942134 17.736800 12.867666 31.010130 0.679808 1.142908 0.126063 -0.058989 -1302640.000000 0 0 1
20.990134 18.182500 11.688666 30.129951 0.713847 1.172399 0.151392 -0.052709 594723.000000 0 0 1
19.969934 17.278200 11.307666 28.726256 0.713259 1.166214 0.138522 -0.051229 127135.000000 0 0 1
18.986934 17.054500 12.290066 28.326760 0.731832 1.122015 0.122777 -0.037670 -1649140.000000 0 0 1
17.551234 16.877300 11.873666 27.090091 0.765826 1.117087 0.116380 -0.027688 -888900.000000 0 0 1
17.464734 15.615300 11.250866 25.989162 0.729548 1.123082 0.120464 -0.032125 1418670.000000 0 0 1
16.087934 15.315000 10.885666 24.735977 0.760790 1.115115 0.115735 -0.031691 1311460.000000 0 1 0
15.937834 14.035300 10.048966 23.494381 0.722009 1.128830 0.112010 -0.038651 -116163.000000 0 1 0
16.133234 12.880600 10.845866 23.320032 0.673758 1.087062 0.104622 -0.028942 424409.000000 0 1 0
16.227034 11.742300 9.976866 22.377133 0.626407 1.108672 0.088884 -0.025394 -107674.000000 0 1 0
16.831234 10.505900 10.737866 22.560278 0.558017 1.074737 0.103116 -0.035805 -591144.000000 0 1 0
17.176534 9.446400 9.887466 21.955177 0.502812 1.103641 0.088842 -0.033334 531712.000000 0 1 0
17.844634 8.340800 10.474266 22.309419 0.437239 1.082072 0.093186 -0.031656 991546.000000 0 1 0
19.192834 8.485900 11.283466 23.826288 0.416298 1.077454 0.106492 -0.029386 362106.000000 0 1 0
19.016634 9.281200 12.494366 24.574015 0.454048 1.037426 0.097817 -0.028503 -457792.000000 0 1 0
20.146534 9.214300 13.293366 25.836016 0.428961 1.030339 0.121051 -0.030309 -2004430.000000 0 0 1
19.832334 9.657300 14.727266 26.523146 0.453151 0.982120 0.086694 -0.010013 277309.000000 0 0 1
19.001134 8.755000 15.477266 26.023814 0.431767 0.933861 0.093117 -0.014626 263200.000000 0 0 1
17.692634 8.675600 14.984466 24.755394 0.455899 0.920652 0.099115 -0.019487 -1827690.000000 0 1 0
17.051834 7.334900 15.199866 23.991701 0.406227 0.884667 0.131799 -0.028901 -542451.000000 0 1 0
16.527334 7.236900 16.483066 24.438023 0.412725 0.830530 0.152312 -0.033880 -72082.600000 0 1 0
16.156434 5.929600 16.808166 24.056287 0.351749 0.797215 0.144532 -0.014887 902403.000000 0 1 0
14.678234 5.831600 17.391566 23.493077 0.378173 0.737303 0.125057 -0.023647 1311570.000000 0 1 0
14.134434 4.518200 17.554166 22.985758 0.309394 0.701775 0.119633 -0.018704 437388.000000 0 1 0
13.790734 3.783000 16.391066 21.752298 0.267729 0.717377 0.127541 -0.020455 -504309.000000 0 1 0
13.589034 2.298300 16.696066 21.649541 0.167544 0.690077 0.130524 -0.020202 -262413.000000 0 1 0
14.766134 1.556600 16.927366 22.516603 0.105029 0.720050 0.128497 -0.015998 85374.000000 0 1 0
14.641134 0.142400 16.610866 22.142808 0.009726 0.722478 0.134278 -0.019683 -808352.000000 0 1 0
13.838434 -0.849900 17.388966 22.239620 -0.061339 0.673102 0.126514 -0.024766 -318326.000000 0 1 0
12.467034 -0.528600 17.279566 21.314074 -0.042374 0.625430 0.124722 -0.029295 -284714.000000 0 1 0
11.678134 -1.332900 18.104766 21.585597 -0.113645 0.575826 0.111734 -0.035202 -137452.000000 0 1 0
-26.312666 13.938200 28.324916 41.096602 -0.487136 0.810374 0.081034 -0.009064 -188789.000000 0 0 1
-25.365476 13.988800 29.386606 41.263380 -0.503986 0.778210 0.075400 -0.001642 411738.000000 0 0 1
-24.761066 12.731800 29.645326 40.670068 -0.474932 0.754050 0.057627 0.002686 92507.300000 0 0 1
-23.531166 12.909200 30.575106 40.684153 -0.501768 0.720428 0.066393 -0.006110 -30501.500000 0 0 1
-23.878766 13.150700 31.893142 41.956035 -0.503402 0.707243 0.064022 -0.007942 373410.000000 0 0 1
-22.772466 12.989400 32.788546 41.980930 -0.518370 0.674476 0.051579 -0.004350 336315.000000 0 0 1
-23.099466 13.264900 -33.046371 42.445324 -0.521271 2.463170 0.057895 -0.005398 52162.600000 0 0 1
-23.999166 12.317400 -32.518121 42.250521 -0.474186 2.449089 0.052011 -0.010548 40572.200000 0 0 1
-24.384266 12.622400 -31.204651 41.564981 -0.477664 2.419984 0.047501 -0.013334 120894.000000 0 0 1
-25.379416 11.664000 -30.459531 41.327311 -0.430796 2.399464 0.044145 -0.019664 -21057.200000 0 0 1
-24.977876 10.372500 -30.009531 40.398700 -0.393598 2.408090 0.059036 -0.023561 177474.000000 0 0 1
-24.449166 9.421600 -30.972351 40.568643 -0.367818 2.439443 0.054959 -0.019902 -57711.900000 0 0 1
-23.664566 8.305400 -30.320781 39.348966 -0.337533 2.450517 0.063004 -0.013115 -295263.000000 0 0 1
-24.469666 7.518200 -29.466711 39.032998 -0.298091 2.426325 0.060472 -0.011515 671971.000000 0 0 1
-23.669166 6.769800 -28.535781 37.687536 -0.278580 2.429762 0.064420 -0.007840 374603.000000 0 0 1
-24.564666 6.011700 -27.502661 37.362544 -0.240012 2.398090 0.067762 -0.004804 10958.700000 0 0 1
-25.338166 4.984600 -28.023851 38.107809 -0.194243 2.397029 0.076398 -0.009326 114278.000000 0 0 1
-25.784316 4.151500 -26.963251 37.537752 -0.159639 2.372148 0.106629 -0.008533 -339574.000000 0 0 1
-26.391206 2.756200 -27.364771 38.117228 -0.104059 2.371593 0.127037 -0.011169 976695.000000 0 0 1
-27.726436 2.581800 -27.863111 39.392561 -0.092849 2.356495 0.143310 -0.021002 791378.000000 0 0 1
-28.117406 3.369200 -28.957011 40.502450 -0.119258 2.367341 0.136100 -0.020667 -598360.000000 0 0 1
-29.583226 3.062400 -29.332121 41.772226 -0.103151 2.349268 0.144344 -0.030521 -363354.000000 0 0 1
-30.514256 3.817400 -28.624561 42.012591 -0.124456 2.320378 0.136586 -0.027332 51902.100000 0 0 1
-31.803006 3.869600 -29.208981 43.354003 -0.121079 2.310044 0.126959 -0.026588 249925.000000 0 0 1
-32.120946 5.234400 -29.879341 44.180642 -0.161539 2.313524 0.114690 -0.030959 -338683.000000 0 0 1
-31.273936 5.507700 -30.996251 44.375234 -0.174324 2.344100 0.132701 -0.032926 315934.000000 0 0 1
-31.393536 6.741500 -31.741941 45.150335 -0.211529 2.350442 0.114917 -0.026154 -702232.000000 0 0 1
-31.114786 8.071200 -30.988031 44.648989 -0.253807 2.337877 0.083619 -0.022269 758560.000000 0 0 1
-29.736786 8.395500 -30.720861 43.572149 -0.275165 2.353300 0.073391 -0.023238 1131030.000000 0 0 1
-29.015376 7.656300 -29.738061 42.247642 -0.257990 2.351668 0.066787 -0.018554 -357129.000000 0 0 1
-29.032466 8.400400 -28.320391 41.418538 -0.281653 2.323701 0.061791 -0.009475 293565.000000 0 0 1
-30.336366 8.565300 -27.769061 42.009287 -0.275181 2.292976 0.068565 -0.016817 587300.000000 0 0 1
-30.814026 7.407000 -27.081331 41.686524 -0.235902 2.277910 0.072932 -0.011409 110863.000000 0 0 1
-32.184626 7.677500 -26.368121 42.309242 -0.234169 2.243654 0.057264 -0.015586 415112.000000 0 0 1
-32.088786 8.495500 -25.232001 41.695534 -0.258812 2.220749 0.039467 -0.005799 86295.200000 0 0 1
-32.233516 7.799800 -23.996271 40.934795 -0.237414 2.197166 0.041844 -0.010082 118535.000000 0 0 1
-31.869946 8.793300 -22.795371 40.157745 -0.269214 2.174440 0.061223 -0.007447 -124021.000000 0 0 1
-32.811486 9.816500 -22.637071 41.053554 -0.290703 2.154842 0.048479 -0.004988 185571.000000 0 0 1
-32.280796 10.765500 -21.713171 40.365921 -0.321896 2.138750 0.068194 -0.009718 -369134.000000 0 0 1
-33.214126 11.874900 -21.244271 41.176577 -0.343363 2.112890 0.048569 -0.009891 -455624.000000 0 0 1
-34.131184 11.444400 -20.249971 41.303430 -0.323525 2.083200 0.061489 -0.011670 298808.000000 0 0 1
-34.596669 12.443900 -19.368171 41.556061 -0.345277 2.055644 0.041709 -0.019123 323248.000000 0 0 1
-33.524426 12.985400 -18.335371 40.357076 -0.369546 2.042415 0.058525 -0.019673 73981.700000 0 0 1
-33.028186 12.034900 -17.445571 39.243443 -0.349430 2.031465 0.103877 -0.012779 -94919.900000 0 0 1
-33.807776 11.605600 -16.334571 39.299795 -0.330677 1.999443 0.103786 -0.002103 -164978.000000 0 0 1
-34.082551 12.663100 -15.131571 39.381961 -0.355736 1.965166 0.096026 0.004189 -91397.500000 0 0 1
-34.986647 13.652100 -15.571971 40.656261 -0.372037 1.963855 0.056850 -0.008185 -138402.000000 0 0 1
-35.686020 14.174100 -14.490471 41.041088 -0.378081 1.931649 0.037506 -0.006395 -298579.000000 0 0 1
-36.377086 15.467900 -14.930371 42.254755 -0.402048 1.931937 0.019838 -0.008988 -169616.000000 0 0 1
-37.438416 15.233100 -15.810771 43.401184 -0.386427 1.943670 0.025248 -0.020942 191019.000000 0 0 1
37.710487 16.400100 -16.267471 44.223011 0.410222 1.947493 0.028078 -0.025401 -170267.000000 0 0 1
37.349467 16.313300 -17.790371 44.470257 0.411801 1.982369 0.028887 -0.019421 926190.000000 0 0 1
36.299787 15.389800 -18.176471 43.415487 0.400993 2.002769 0.072232 -0.033260 915294.000000 0 0 1
34.967167 15.825100 -18.022971 42.402406 0.424989 2.009809 0.127796 -0.037023 -457909.000000 0 0 1
33.934307 14.748800 -18.319971 41.287838 0.409997 2.030535 0.132832 -0.043487 -428081.000000 0 0 1
33.788337 14.467600 -19.665471 41.685656 0.404564 2.062078 0.132050 -0.034834 91133.800000 0 0 1
32.922197 13.373600 -19.898371 40.726765 0.385855 2.081260 0.086332 -0.026766 -76462.300000 0 0 1
33.445127 11.940700 -19.527871 40.527701 0.342918 2.073550 0.092421 -0.020921 -366179.000000 0 0 1
33.629727 11.762300 -18.114071 39.967859 0.336460 2.041166 0.127994 -0.027192 151021.000000 0 0 1
34.003707 10.453300 -17.672271 39.721942 0.298247 2.031858 0.111043 -0.034863 -260381.000000 0 0 1
34.057707 10.381700 -16.159771 39.100451 0.295879 1.996859 0.089397 -0.033171 153504.000000 0 0 1
32.759857 10.493100 -15.579271 37.762773 0.309978 1.996055 0.112981 -0.035787 481134.000000 0 0 1
32.726567 10.408600 -14.176971 37.153111 0.307931 1.962304 0.084001 -0.026550 40064.600000 0 0 1
31.770267 11.415100 -13.484071 36.352091 0.344937 1.950806 0.111847 -0.035381 661127.000000 0 0 1
30.367457 11.117300 -13.457571 35.026890 0.350939 1.965145 0.099467 -0.033609 538078.000000 0 0 1
29.696057 12.164700 -12.826671 34.559502 0.388789 1.951041 0.131974 -0.037543 258716.000000 0 0 1
28.153657 11.985000 -12.906371 33.209080 0.402463 1.969951 0.136717 -0.025606 -75950.700000 0 0 1
27.576257 10.921000 -12.106771 32.035794 0.377079 1.958338 0.137816 -0.038429 810995.000000 0 0 1
26.198457 10.615300 -12.315371 30.833619 0.384971 1.981674 0.155898 -0.023143 491465.000000 0 0 1
25.744857 10.173500 -13.752371 30.909957 0.376332 2.031878 0.122261 -0.042591 -756606.000000 0 0 1
26.217057 8.881900 -14.187371 31.104722 0.326647 2.044423 0.120488 -0.037573 1287720.000000 0 0 1
27.597257 8.820200 -14.612871 32.449045 0.309344 2.037934 0.113033 -0.043712 1292260.000000 0 0 1
28.581857 8.073600 -13.651471 32.687432 0.275300 2.001639 0.109237 -0.045149 -57428.100000 0 0 1
28.366257 6.702400 -13.638371 32.180302 0.232025 2.008445 0.119317 -0.056088 613164.000000 0 0 1
27.444057 6.323700 -12.598271 30.852583 0.226469 1.991429 0.127392 -0.049602 249379.000000 0 0 1
27.154757 4.809800 -12.864071 30.430237 0.175307 2.007263 0.136897 -0.046832 -341722.000000 0 0 1
26.456557 4.182400 -11.808671 29.272625 0.156788 1.986029 0.175032 -0.049410 427498.000000 0 0 1
26.088657 2.840700 -12.125171 28.908603 0.108459 2.003615 0.187547 -0.054708 -78876.400000 0 0 1
25.328457 2.117300 -10.971771 27.683812 0.083400 1.978306 0.247896 -0.049579 -325659.000000 0 0 1
26.106857 1.973700 -9.820171 27.962461 0.075457 1.929639 0.257020 -0.041284 267251.000000 0 0 1
25.524157 1.136200 -8.834571 27.033741 0.044485 1.903710 0.292913 -0.025131 -120386.000000 0 0 1
26.543057 0.804600 -7.680671 27.643696 0.030304 1.852347 0.336504 -0.012081 155261.000000 0 0 1
26.456157 -0.480600 -7.145471 27.408337 -0.018164 1.834548 0.301586 -0.014760 443369.000000 0 0 1
27.022057 -1.447900 -8.034871 28.228480 -0.053531 1.859424 0.253119 -0.021606 -338758.000000 0 0 1
27.100457 -2.813700 -7.282271 28.202538 -0.103454 1.831969 0.228948 -0.025276 -371211.000000 0 0 1
28.205357 -2.848700 -6.428471 29.068582 -0.100657 1.793788 0.227001 -0.035324 40802.300000 0 0 1
28.382557 -4.129000 -5.866271 29.275097 -0.144463 1.772547 0.226773 -0.049227 -689262.000000 0 0 1
29.783557 -4.360400 -5.322271 30.567955 -0.145370 1.745801 0.165319 -0.036983 -662895.000000 0 0 1
30.792157 -4.590200 -6.285671 31.760612 -0.147981 1.770019 0.150883 -0.031088 -665337.000000 0 0 1
31.927047 -4.960000 -5.592871 32.790519 -0.154122 1.742198 0.206742 -0.040989 -437273.000000 0 0 1
33.129467 -5.434600 -6.474471 34.190864 -0.162593 1.761309 0.216554 -0.051796 357869.000000 0 0 1
32.865717 -6.678300 -7.069471 34.274370 -0.200470 1.778549 0.223247 -0.047935 -123570.000000 0 0 1
33.486567 -6.688800 -8.313371 35.145445 -0.197151 1.809602 0.224040 -0.050661 -464739.000000 0 0 1
32.573137 -7.397700 -9.418971 34.705219 -0.223322 1.845643 0.197134 -0.049345 1062350.000000 0 0 1
31.434107 -6.734900 -9.949471 33.651952 -0.211064 1.870941 0.160445 -0.047516 311837.000000 0 0 1
30.448757 -6.475000 -8.962971 32.394247 -0.209531 1.851138 0.157034 -0.043191 -1128810.000000 0 0 1
29.259857 -5.706200 -9.558371 31.305948 -0.192601 1.881072 0.140697 -0.041096 836193.000000 0 0 1
28.140957 -6.439000 -10.131971 30.594624 -0.224940 1.908338 0.127489 -0.034706 1513410.000000 0 0 1
26.963457 -5.633500 -10.190571 29.370258 -0.205968 1.925134 0.175277 -0.028803 -270326.000000 0 0 1
25.641557 -6.316500 -10.338871 28.359828 -0.241529 1.943957 0.207634 -0.020913 -1593810.000000 0 0 1
25.359057 -7.342900 -9.381871 28.018198 -0.281849 1.912241 0.188592 -0.027079 1194570.000000 0 0 1
23.973757 -7.621700 -9.105671 26.753403 -0.307814 1.918091 0.161387 -0.019927 899322.000000 0 0 1
23.222957 -6.502100 -8.285771 25.499745 -0.272996 1.901740 0.181084 -0.017730 -439094.000000 0 0 1
23.027357 -5.398100 -9.098871 25.341430 -0.230263 1.938047 0.202944 -0.014720 201628.000000 0 0 1
22.556357 -4.231800 -8.419971 24.445721 -0.185454 1.922434 0.216663 -0.023295 -132510.000000 0 1 0
22.668857 -2.982700 -9.335471 24.696651 -0.130825 1.958437 0.250937 -0.023799 213492.000000 0 1 0
23.994257 -2.923300 -9.845971 26.100061 -0.121236 1.957610 0.239840 -0.035047 760125.000000 0 0 1
24.067557 -2.088000 -11.004871 26.546454 -0.086539 1.998246 0.252769 -0.038228 -461722.000000 0 0 1
25.387157 -2.083900 -11.787371 28.067641 -0.081901 2.004201 0.193639 -0.040098 494682.000000 0 0 1
26.544057 -1.543900 -11.120371 28.820708 -0.058098 1.966922 0.205053 -0.044387 202055.000000 0 0 1
27.684657 -1.672100 -11.879471 30.172139 -0.060325 1.975475 0.155877 -0.042196 -1301730.000000 0 0 1
28.681657 -0.590000 -11.504071 30.908400 -0.020568 1.952173 0.122730 -0.021022 -531778.000000 0 0 1
29.910557 -0.773000 -12.176971 32.303522 -0.025838 1.957303 0.102983 -0.020584 764381.000000 0 0 1
30.947737 0.189500 -11.849371 33.139190 0.006123 1.936454 0.114855 -0.021083 795042.000000 0 0 1
30.928897 1.548100 -12.581271 33.425763 0.050012 1.956698 0.113785 -0.019754 -395070.000000 0 0 1
31.192567 1.327600 -13.935171 34.189585 0.042536 1.990604 0.101196 -0.022849 261087.000000 0 0 1
31.383547 2.549800 -14.597371 34.706076 0.081068 2.004903 0.109103 -0.028382 -54206.500000 0 0 1
31.503767 2.462300 -16.136071 35.481305 0.078000 2.042918 0.101651 -0.012034 205857.000000 0 0 1
30.303857 2.039000 -16.747071 34.683507 0.067184 2.074707 0.093779 -0.007827 115344.000000 0 0 1
30.657957 1.840900 -18.103771 35.651728 0.059974 2.103420 0.088186 -0.014705 830929.000000 0 0 1
29.557757 1.126400 -19.013471 35.163075 0.038090 2.142092 0.062239 -0.011970 666780.000000 0 0 1
29.363157 -0.300500 -18.766171 34.849023 -0.010234 2.139451 0.070627 -0.012146 142699.000000 0 0 1
28.989657 -0.881200 -19.971271 35.214036 -0.030388 2.173825 0.043042 -0.008105 -229069.000000 0 0 1
28.839357 -2.417800 -19.847071 35.092171 -0.083641 2.171920 0.058023 -0.016166 -25103.300000 0 0 1
27.584857 -2.775800 -19.294971 33.777585 -0.100290 2.178807 0.053967 -0.011313 192094.000000 0 0 1
27.300957 -4.178100 -19.273371 33.678800 -0.151860 2.180068 0.053575 -0.010517 -10601.400000 0 0 1
28.121857 -5.090000 -18.299171 33.935329 -0.179059 2.140327 0.043641 -0.006145 -808449.000000 0 0 1
29.473157 -5.127700 -18.559571 35.205368 -0.172254 2.126075 0.056619 -0.008139 -664930.000000 0 0 1
30.250157 -5.423300 -17.363971 35.298607 -0.177397 2.085086 0.070018 -0.014964 60181.400000 0 0 1
31.755557 -5.248100 -17.560471 36.665080 -0.163785 2.070246 0.103734 -0.016970 -511032.000000 0 0 1
32.272847 -6.249600 -18.402171 37.672722 -0.191281 2.081137 0.079504 -0.016074 1319890.000000 0 0 1
33.663007 -5.920900 -18.696371 38.959073 -0.174107 2.071334 0.114094 -0.016251 1184960.000000 0 0 1
34.448997 -7.007100 -19.478271 40.189997 -0.200667 2.076765 0.105538 -0.004206 -222012.000000 0 0 1
35.005957 -7.797800 -18.474671 40.342733 -0.219178 2.046476 0.121901 -0.018141 -43463.200000 0 0 1
35.693997 -8.914500 -19.016671 41.414532 -0.244741 2.047867 0.105742 -0.012491 -626500.000000 0 0 1
36.520247 -9.626600 -17.989971 41.833466 -0.257734 2.015331 0.112179 -0.020163 -1257170.000000 0 0 1
35.845157 -10.144100 -16.869771 40.894586 -0.275786 1.996013 0.102940 -0.026495 -111506.000000 0 0 1
36.504087 -11.075700 -16.014671 41.372565 -0.294582 1.968264 0.114291 -0.037776 -561288.000000 0 0 1
37.679027 -10.504900 -15.163571 41.952304 -0.271895 1.940617 0.135523 -0.041210 -305268.000000 0 0 1
-37.816416 -11.324600 -14.063071 41.905821 0.290964 1.913025 0.125770 -0.039827 111461.000000 0 0 1
-37.296206 -12.598500 -14.312871 41.887796 0.325761 1.919517 0.109663 -0.032642 78910.100000 0 0 1
-35.797877 -12.622400 -14.785971 40.736199 0.338991 1.942248 0.125389 -0.029859 461842.000000 0 0 1
-35.589998 -12.208700 -16.140771 40.941724 0.330459 1.976035 0.145719 -0.017932 -361964.000000 0 0 1
-34.229811 -12.332400 -16.480071 39.941968 0.345806 1.996103 0.169039 -0.028421 -221205.000000 0 0 1
-33.890476 -11.678400 -17.858371 40.048356 0.331849 2.032998 0.192251 -0.029812 176522.000000 0 0 1
-33.887256 -10.287400 -17.924871 39.692288 0.294735 2.039349 0.195179 -0.033198 -1000010.000000 0 0 1
-35.150175 -9.762800 -18.086971 40.718369 0.270917 2.031074 0.180292 -0.031173 -1013800.000000 0 0 1
-35.334641 -8.233300 -18.111871 40.550758 0.228925 2.033810 0.202088 -0.028274 -311006.000000 0 0 1
-36.652746 -7.820300 -18.353571 41.730498 0.210210 2.026186 0.198311 -0.025651 -353571.000000 0 0 1
-36.768196 -6.418700 -18.301471 41.569746 0.172830 2.026684 0.181073 -0.027809 -102511.000000 0 0 1
25.864734 27.152200 -26.651701 46.005865 0.809677 2.188679 0.074992 -0.005139 89256.100000 0 0 1
26.368434 26.231000 -25.688551 45.202448 0.782785 2.175235 0.089001 -0.022089 319505.000000 0 0 1
27.533934 25.588100 -26.182001 45.807920 0.748785 2.179203 0.082507 -0.026587 -9786.640000 0 0 1
28.098934 24.468700 -25.313911 45.045105 0.716449 2.167560 0.102355 -0.033583 -471881.000000 0 0 1
28.628334 24.961900 -24.080571 44.972790 0.717089 2.135834 0.098701 -0.032123 206094.000000 0 0 1
28.766434 23.998500 -23.084871 44.003943 0.695281 2.123052 0.104419 -0.033141 -49849.800000 0 0 1
29.307034 24.573200 -21.751171 43.998385 0.697765 2.087898 0.115131 -0.021663 153752.000000 0 0 1
28.508934 25.560600 -21.140971 43.738361 0.730924 2.075275 0.101988 -0.026769 -484326.000000 0 0 1
29.269534 26.204400 -20.187271 44.169018 0.730201 2.045467 0.083673 -0.019177 -157799.000000 0 0 1
28.517434 27.299900 -19.412371 43.992826 0.763589 2.027801 0.094708 -0.017649 2848.910000 0 0 1
27.550134 26.820000 -18.488171 42.663037 0.771970 2.019007 0.112361 -0.016830 -201593.000000 0 0 1
26.777834 27.913100 -18.127671 42.717748 0.806153 2.009050 0.101978 -0.015306 -849169.000000 0 0 1
25.649334 27.677200 -17.159171 41.453020 0.823407 1.997577 0.089415 -0.008863 -727331.000000 0 0 1
24.722834 26.765100 -17.695971 40.506006 0.825042 2.022916 0.094367 -0.018824 -442154.000000 0 0 1
23.535534 26.797000 -16.949171 39.487656 0.850106 2.014433 0.077422 -0.006951 -26077.300000 0 0 1
22.483034 25.781300 -17.475571 38.412990 0.853630 2.043100 0.080650 -0.017995 -199082.000000 0 0 1
21.957334 26.085500 -18.739371 38.906836 0.871114 2.073330 0.077368 -0.023373 -212265.000000 0 0 1
21.050634 25.063300 -19.094571 37.893282 0.872196 2.098909 0.085345 -0.016501 387594.000000 0 0 1
20.167434 25.392700 -20.339971 38.278310 0.899589 2.131014 0.075139 -0.013395 475177.000000 0 0 1
19.257634 26.455800 -20.134671 38.420968 0.941579 2.122401 0.061363 -0.010690 -147761.000000 0 0 1
18.251534 26.432700 -21.141771 38.454917 0.966481 2.152898 0.061054 -0.011991 229340.000000 0 0 1
17.051434 27.353400 -20.837771 38.381931 1.013366 2.144690 0.063897 -0.010359 -58379.800000 0 0 1
16.235834 27.013400 -19.723871 37.180064 1.029621 2.129982 0.078094 -0.009004 -419638.000000 0 0 1
15.435834 28.073700 -19.405671 37.456344 1.068082 2.115410 0.070453 -0.019189 -432578.000000 0 0 1
14.831534 28.061600 -17.975671 36.476740 1.084582 2.086099 0.077840 -0.019317 163910.000000 0 0 1
13.869034 27.034300 -17.836971 35.232954 1.096790 2.101637 0.084386 -0.018219 -191253.000000 0 0 1
13.435134 27.018500 -16.531671 34.406370 1.109346 2.072002 0.107391 -0.020026 -537089.000000 0 0 1
12.399334 25.950500 -16.299871 33.058399 1.125060 2.086403 0.117578 -0.018679 -314449.000000 0 0 1
12.963334 24.674700 -15.998471 32.137827 1.087060 2.091866 0.120842 -0.019202 395661.000000 0 0 1
11.985634 23.646600 -16.095571 31.014263 1.101672 2.116446 0.124458 -0.017910 350379.000000 0 0 1
12.779934 22.349300 -16.007171 30.315795 1.051350 2.127057 0.121336 -0.019155 94281.600000 0 0 1
13.632334 22.314100 -17.133671 31.262154 1.022379 2.150845 0.109654 -0.015057 -109791.000000 0 0 1
14.492134 21.155800 -17.094871 30.819222 0.970195 2.158777 0.112229 -0.010797 170714.000000 0 0 1
13.815334 19.816700 -17.461771 29.807356 0.961982 2.196689 0.113898 -0.014929 372371.000000 0 0 1
13.073934 19.240200 -16.324671 28.418443 0.973954 2.182715 0.120566 -0.030563 239708.000000 0 0 1
12.726934 17.894300 -16.535771 27.488407 0.952574 2.216242 0.115030 -0.025601 -81962.200000 0 0 1
13.909334 16.905600 -16.657571 27.508972 0.882328 2.221231 0.131461 -0.027976 30112.100000 0 0 1
14.541734 16.616700 -15.439571 26.943591 0.851894 2.180998 0.149183 -0.039855 -3706.390000 0 0 1
15.642534 15.757100 -15.638171 27.157457 0.789047 2.184419 0.148477 -0.043432 -1007350.000000 0 0 1
16.120234 14.987100 -14.430171 26.319288 0.748988 2.151095 0.200744 -0.045073 -1000440.000000 0 0 1
16.952734 15.712000 -13.520371 26.778024 0.747433 2.100069 0.174683 -0.047660 540143.000000 0 0 1
18.253034 16.064100 -13.946571 28.030972 0.721699 2.091559 0.141855 -0.040151 -406815.000000 0 0 1
19.189334 14.848700 -14.275571 28.151489 0.658560 2.102611 0.133519 -0.041755 -1179180.000000 0 0 1
19.647534 14.035500 -13.213871 27.525029 0.620302 2.071528 0.158340 -0.049721 -384130.000000 0 0 1
20.811134 14.540300 -12.626071 28.353858 0.609839 2.032309 0.151700 -0.036850 -590159.000000 0 0 1
21.705834 13.307200 -12.312671 28.281207 0.549975 2.021241 0.176316 -0.053753 -105757.000000 0 0 1
21.178234 12.679100 -11.131971 27.077628 0.539452 1.994471 0.254103 -0.056636 856700.000000 0 0 1
21.909334 11.478000 -10.764071 26.974592 0.482574 1.981271 0.268367 -0.024694 173703.000000 0 0 1
21.610334 10.224000 -11.625071 26.583434 0.441903 2.023396 0.206320 -0.024126 -566615.000000 0 0 1
22.364334 10.148500 -12.817571 27.702809 0.425993 2.051814 0.179601 -0.019840 371793.000000 0 0 1
22.252734 8.912300 -13.572371 27.546733 0.380940 2.085990 0.161228 -0.026976 -188186.000000 0 0 1
22.849234 7.706400 -12.771071 27.286926 0.325291 2.057855 0.182831 -0.011555 -431668.000000 0 0 1
21.868634 6.996100 -12.056071 25.933211 0.309626 2.054306 0.187144 -0.029525 227580.000000 0 0 1
22.381334 6.110200 -11.079871 25.710352 0.266510 2.016341 0.202330 -0.009324 -520426.000000 0 0 1
22.398634 4.649700 -11.616471 25.656596 0.204681 2.040663 0.216931 -0.029350 924838.000000 0 0 1
21.132634 3.931400 -11.741171 24.492840 0.183932 2.070735 0.178158 -0.046834 1376170.000000 0 1 0
20.436434 4.250500 -12.957071 24.568278 0.205063 2.126322 0.126119 -0.052617 -387026.000000 0 1 0
19.688234 3.058600 -13.529971 24.084055 0.154120 2.167334 0.138255 -0.061211 -508983.000000 0 1 0
20.463434 1.919000 -13.779371 24.744813 0.093504 2.161396 0.169471 -0.084722 -32291.700000 0 1 0
20.356434 0.940100 -12.769171 24.048283 0.046149 2.130554 0.212083 -0.093479 -572725.000000 0 1 0
21.289134 -0.283900 -13.085171 24.990589 -0.013335 2.121872 0.235356 -0.081758 -561274.000000 0 1 0
22.671934 -0.053400 -12.942271 26.105973 -0.002355 2.089505 0.278008 -0.066499 51118.300000 0 0 1
23.229634 0.570000 -14.050571 27.154361 0.024533 2.114645 0.181150 -0.056879 -1082450.000000 0 0 1
23.640234 -0.394700 -15.164171 28.088584 -0.016695 2.141078 0.147933 -0.034908 -1059300.000000 0 0 1
22.624934 -0.981800 -15.904371 27.673102 -0.043367 2.183062 0.164698 -0.035061 -106103.000000 0 0 1
23.255134 -1.840900 -16.846171 28.774705 -0.078996 2.196232 0.114167 -0.022005 47596.600000 0 0 1
22.209934 -2.575900 -17.711471 28.523896 -0.115464 2.240731 0.128494 -0.024891 -125567.000000 0 0 1
21.429534 -3.469700 -16.954071 27.544587 -0.160519 2.233834 0.153305 -0.019707 361090.000000 0 0 1
20.662934 -4.225800 -17.932271 27.683579 -0.201729 2.275435 0.129512 -0.012749 215071.000000 0 0 1
19.779134 -5.334600 -17.313571 26.822226 -0.263440 2.272465 0.133743 -0.010727 -364754.000000 0 0 1
20.532534 -6.351100 -16.715671 27.227469 -0.299984 2.231822 0.136055 -0.008534 -126044.000000 0 0 1
19.798434 -7.437500 -16.224771 26.655911 -0.359350 2.225185 0.146836 0.001510 201678.000000 0 0 1
20.726534 -8.560700 -15.571771 27.301187 -0.391689 2.177752 0.180976 0.001288 330787.000000 0 0 1
21.412334 -9.337000 -16.501271 28.599992 -0.411199 2.185808 0.153058 -0.006959 150768.000000 0 0 1
22.116234 -10.345300 -15.790171 29.077182 -0.437532 2.144854 0.129845 -0.015007 -319671.000000 0 0 1
22.740434 -11.378900 -16.690771 30.416912 -0.463953 2.151645 0.112439 -0.010649 -633764.000000 0 0 1
23.759834 -10.902500 -17.505271 31.461543 -0.430200 2.160846 0.096322 -0.004633 -230306.000000 0 0 1
24.104834 -11.854100 -18.539771 32.638716 -0.457044 2.174907 0.091210 -0.011654 -89889.000000 0 0 1
23.309034 -11.674200 -19.872071 32.779524 -0.464323 2.222113 0.105189 -0.008430 298026.000000 0 0 1
21.927734 -11.955300 -19.904771 31.936728 -0.499161 2.243696 0.107920 -0.017410 51349.700000 0 0 1
21.632234 -13.329000 -20.024471 32.351124 -0.552220 2.238231 0.095442 -0.012732 -1488460.000000 0 0 1
20.172734 -13.621400 -19.840271 31.402517 -0.593913 2.254676 0.098188 -0.016312 -1283310.000000 0 0 1
19.433034 -13.058200 -20.890071 31.377611 -0.591657 2.299313 0.096861 -0.002481 1113520.000000 0 0 1
18.018434 -13.386800 -20.726871 30.552799 -0.638974 2.316372 0.098590 -0.000182 1432490.000000 0 0 1
17.237134 -12.829400 -21.948271 30.715450 -0.639836 2.366802 0.105341 -0.009366 -355816.000000 0 0 1
17.479734 -13.470200 -23.181171 32.005532 -0.656567 2.380795 0.092041 -0.005227 272339.000000 0 0 1
16.718334 -12.885200 -24.184671 32.100302 -0.656632 2.424028 0.114466 -0.023358 -281648.000000 0 0 1
16.886834 -13.687400 -25.510481 33.515589 -0.681133 2.435885 0.102566 -0.027475 -276827.000000 0 0 1
16.040134 -14.808400 -25.594161 33.639793 -0.745491 2.435387 0.100143 -0.022367 128583.000000 0 0 1
16.236134 -15.476200 -26.782811 34.934850 -0.761439 2.444404 0.097607 -0.020877 -93304.900000 0 0 1
17.273234 -16.634900 -26.837181 35.990537 -0.766575 2.412341 0.090491 -0.019127 428010.000000 0 0 1
18.636434 -16.242900 -26.825591 36.479594 -0.716882 2.396992 0.089182 -0.011194 411368.000000 0 0 1
19.466934 -17.364300 -27.123541 37.631993 -0.728372 2.375691 0.097372 -0.011800 465290.000000 0 0 1
20.994934 -17.131000 -27.049331 38.287396 -0.684396 2.355310 0.066948 0.001733 221612.000000 0 0 1
21.383434 -16.622100 -25.794431 37.401846 -0.660767 2.331811 0.071999 -0.002206 480864.000000 0 0 1
22.808134 -16.479600 -25.734051 38.131739 -0.625688 2.311588 0.072967 0.001269 517980.000000 0 0 1
23.173934 -15.944800 -24.321571 37.186108 -0.602660 2.283722 0.083022 -0.000950 -181736.000000 0 0 1
22.961834 -14.593000 -24.048471 36.311574 -0.566138 2.294656 0.088422 -0.005542 197102.000000 0 0 1
21.610434 -14.145600 -24.047371 35.290011 -0.579583 2.320499 0.108945 -0.009169 271780.000000 0 0 1
21.356634 -12.710000 -23.579671 34.258587 -0.536832 2.329919 0.114104 -0.002046 92880.500000 0 0 1
21.900734 -11.731400 -24.473571 34.874397 -0.491769 2.348666 0.121333 -0.015564 315869.000000 0 0 1
21.853034 -10.458400 -23.816571 33.972964 -0.446364 2.347658 0.137091 -0.023412 8415.370000 0 0 1
22.081634 -9.238000 -24.728971 34.416002 -0.396230 2.372484 0.150028 -0.032639 -72527.800000 0 0 1
21.945034 -8.027200 -24.060971 33.540286 -0.350669 2.370824 0.158605 -0.033914 6630.700000 0 0 1
21.700834 -6.958100 -24.954671 33.794629 -0.310281 2.401522 0.134652 -0.034013 -287027.000000 0 0 1
21.124934 -5.756300 -24.225571 32.653883 -0.266030 2.406680 0.138513 -0.041044 -492114.000000 0 0 1
19.826634 -6.041500 -23.803471 31.562642 -0.295778 2.425179 0.159655 -0.045984 -563828.000000 0 0 1
19.277534 -5.245100 -22.757771 30.282842 -0.265653 2.421140 0.150490 -0.043469 112372.000000 0 0 1
19.937934 -5.406400 -21.364471 29.718529 -0.264794 2.373006 0.138100 -0.032991 -363686.000000 0 0 1
19.481034 -6.409900 -20.548671 29.031799 -0.317875 2.357174 0.142155 -0.035298 252894.000000 0 0 1
20.029134 -7.709600 -20.905371 29.960618 -0.367439 2.343064 0.131054 -0.033682 -134018.000000 0 0 1
19.559334 -8.742200 -19.919771 29.253903 -0.420321 2.319824 0.137269 -0.028827 935520.000000 0 0 1
18.154934 -8.995100 -20.154071 28.577964 -0.460011 2.353545 0.154757 -0.026481 785585.000000 0 0 1
17.800534 -10.081200 -19.314771 28.134498 -0.515304 2.327482 0.148384 -0.013278 1305120.000000 0 0 1
16.251934 -10.096500 -18.964871 26.939395 -0.555898 2.351786 0.157985 -0.012726 1081430.000000 0 0 1
15.833334 -9.111700 -18.060971 25.688834 -0.522192 2.350498 0.169362 -0.010737 654287.000000 0 0 1
14.435334 -9.313700 -17.817071 24.750189 -0.572995 2.374420 0.153342 -0.031579 391730.000000 0 1 0
13.746534 -8.010400 -17.427171 23.597457 -0.527618 2.401667 0.178396 -0.017506 -1224720.000000 0 1 0
12.442934 -8.007600 -17.866771 23.198486 -0.571825 2.449903 0.156518 -0.030917 -1286250.000000 0 1 0
11.767834 -6.837700 -17.516171 22.182252 -0.526369 2.481031 0.147128 -0.031145 810159.000000 0 1 0
10.217134 -6.942600 -17.752071 21.626963 -0.596839 2.533660 0.127031 -0.032079 900325.000000 0 1 0
9.705134 -6.614400 -19.049471 22.379058 -0.598226 2.589099 0.115465 -0.044539 -582174.000000 0 1 0
8.333534 -6.378900 -18.948971 21.661063 -0.653316 2.635807 0.101948 -0.054293 -506962.000000 0 1 0
7.825934 -5.874400 -20.304371 22.539327 -0.643906 2.692501 0.111772 -0.061092 -91537.200000 0 1 0
7.903334 -6.802600 -21.332571 23.744823 -0.710688 2.686930 0.115322 -0.052154 -18041.600000 0 1 0
7.148634 -6.319900 -22.405371 24.352510 -0.723944 2.738988 0.125819 -0.056693 -89242.000000 0 1 0
7.156334 -7.168500 -23.704671 25.778129 -0.786247 2.737769 0.119476 -0.048711 -132006.000000 0 0 1
6.388734 -8.335200 -23.543071 25.779210 -0.916833 2.722008 0.116732 -0.041577 -28975.300000 0 0 1
6.588634 -9.254000 -24.639371 27.131996 -0.952077 2.709591 0.102312 -0.023041 -191974.000000 0 0 1
5.751534 -10.542900 -24.512871 27.296771 -1.071387 2.686030 0.105807 -0.020919 32244.700000 0 0 1
6.278834 -11.478200 -23.568071 26.956016 -1.070242 2.634821 0.092497 -0.031123 110338.000000 0 0 1
5.384734 -12.545400 -23.328671 27.029785 -1.165357 2.612118 0.114385 -0.034436 -401260.000000 0 0 1
5.922434 -13.645200 -22.391771 26.882301 -1.161302 2.555225 0.111294 -0.023605 -127316.000000 0 0 1
6.866034 -14.553400 -22.924671 28.008649 -1.129977 2.529566 0.103002 -0.011621 598353.000000 0 0 1
8.227334 -14.151100 -23.095571 28.308091 -1.044172 2.525019 0.091383 -0.016899 1149030.000000 0 0 1
9.139834 -13.871000 -21.846071 27.444344 -0.988178 2.491477 0.088642 -0.011109 -52473.200000 0 0 1
9.556134 -14.956100 -21.003471 27.498189 -1.002232 2.439996 0.083971 0.000117 30079.300000 0 0 1
8.535834 -15.423000 -20.208971 26.816634 -1.065309 2.424315 0.090253 -0.001124 -300297.000000 0 0 1
9.256034 -15.736000 -18.884071 26.266023 -1.039093 2.373093 0.085380 0.002945 579774.000000 0 0 1
10.064034 -16.911500 -18.915571 27.296198 -1.033988 2.336403 0.077541 0.006269 72799.600000 0 0 1
10.624634 -17.328900 -17.700571 26.953364 -1.020788 2.287246 0.075624 0.010477 -177282.000000 0 0 1
9.510034 -17.825800 -16.719471 26.224809 -1.080711 2.262103 0.046965 -0.008789 52758.200000 0 0 1
9.021934 -19.131700 -16.975171 27.121461 -1.130150 2.247074 0.068446 -0.018392 30810.900000 0 0 1
8.282434 -19.345700 -18.164671 27.799462 -1.166279 2.282887 0.077265 -0.013602 -1345030.000000 0 0 1
6.832234 -18.912500 -18.187171 27.113378 -1.224130 2.306059 0.090579 -0.017153 -1103660.000000 0 0 1
6.610934 -17.562300 -17.802371 25.866256 -1.210775 2.329866 0.092008 -0.017205 -350834.000000 0 0 1
5.268134 -17.218800 -18.073771 25.512771 -1.273888 2.358054 0.082089 -0.014173 96818.800000 0 0 1
5.135034 -15.790500 -17.531071 24.146364 -1.256386 2.383333 0.066924 -0.009547 -84817.500000 0 1 0
5.054634 -15.775900 -16.137171 23.126535 -1.260729 2.343086 0.023703 -0.006139 157520.000000 0 1 0
5.114534 -14.477600 -15.597071 21.886707 -1.231209 2.364033 0.018160 -0.004748 -218197.000000 0 1 0
10.710334 29.455600 -17.924071 36.105622 1.222049 2.090283 0.093239 -0.034660 -181435.000000 0 0 1
9.626334 29.269500 -18.801171 36.095069 1.253054 2.118677 0.134761 -0.037992 -188013.000000 0 0 1
8.767934 28.346300 -18.144171 34.779309 1.270816 2.119632 0.123237 -0.038976 461183.000000 0 0 1
7.605934 27.806200 -19.053771 34.555480 1.303794 2.154834 0.139445 -0.033877 318128.000000 0 0 1
6.728634 28.789100 -19.494871 35.413794 1.341196 2.153745 0.150300 -0.047247 -768119.000000 0 0 1
6.169034 28.423900 -20.710671 35.705839 1.357074 2.189569 0.138469 -0.046004 -6968.480000 0 0 1
5.224234 29.568700 -21.160571 36.733777 1.395920 2.184687 0.116552 -0.047809 -64718.400000 0 0 1
3.924534 29.463000 -20.649671 36.192254 1.438374 2.177978 0.119360 -0.034298 -411568.000000 0 0 1
3.001234 30.338600 -21.253771 37.163972 1.472193 2.179606 0.114404 -0.048853 -1027470.000000 0 0 1
1.600434 30.159000 -20.716971 36.624030 1.517780 2.172037 0.109450 -0.032814 -703805.000000 0 0 1
0.971334 28.915200 -20.978171 35.736759 1.537216 2.198169 0.111157 -0.053752 285679.000000 0 0 1
0.215734 28.861700 -22.191571 36.407555 1.563322 2.226266 0.146327 -0.069121 -339504.000000 0 0 1
-0.389266 27.480200 -22.543371 35.545977 -1.556632 2.257774 0.139497 -0.063065 401252.000000 0 0 1
-1.592966 27.394100 -21.769371 35.026844 -1.512712 2.241459 0.146753 -0.061644 197262.000000 0 0 1
-2.177666 26.133300 -22.118871 34.306502 -1.487659 2.271483 0.154939 -0.072777 -323340.000000 0 0 1
-3.299866 25.734200 -21.164971 33.482744 -1.443263 2.255077 0.121038 -0.063864 -499441.000000 0 0 1
-4.389966 26.624000 -21.137071 34.276595 -1.407379 2.235292 0.117428 -0.057054 -484747.000000 0 0 1
-5.266366 26.218200 -20.158471 33.488693 -1.372567 2.216735 0.107740 -0.054160 -7456.720000 0 0 1
-6.484166 27.164500 -19.858371 34.268198 -1.336481 2.188910 0.106561 -0.060005 630573.000000 0 0 1
-7.445066 26.462100 -19.101571 33.474494 -1.296538 2.178070 0.105801 -0.043645 -184215.000000 0 0 1
-8.459366 27.311900 -18.547971 34.081197 -1.270435 2.146266 0.102048 -0.053709 859572.000000 0 0 1
-9.708466 26.480300 -18.089871 33.506776 -1.219384 2.141099 0.120376 -0.050309 418266.000000 0 0 1
-9.509966 25.604900 -17.062371 32.205199 -1.215175 2.129163 0.121868 -0.059696 -435057.000000 0 0 1
-10.738966 24.993100 -16.729371 31.935126 -1.164971 2.122167 0.088143 -0.056089 163345.000000 0 0 1
-10.730266 24.265400 -15.334971 30.644895 -1.154444 2.094867 0.090121 -0.046189 -110604.000000 0 0 1
-10.158366 22.974100 -15.396871 29.462948 -1.154476 2.120675 0.098824 -0.041220 -303271.000000 0 0 1
-10.363166 22.336900 -14.169571 28.409665 -1.136404 2.092962 0.109833 -0.029507 -375799.000000 0 0 1
-9.789366 20.929100 -14.085271 27.060188 -1.133289 2.118252 0.128265 -0.016539 23453.100000 0 0 1
-10.551666 19.879600 -14.697271 26.880214 -1.082830 2.149297 0.107458 -0.018281 -173145.000000 0 0 1
-10.753166 19.992200 -16.088171 27.823513 -1.077315 2.187344 0.132098 -0.016001 635294.000000 0 0 1
-9.493866 19.828200 -17.026371 27.806264 -1.124247 2.229790 0.131427 -0.020567 600731.000000 0 0 1
-8.905266 18.567300 -17.084171 26.756631 -1.123584 2.263347 0.121951 -0.013612 -549211.000000 0 0 1
-7.739166 18.671800 -17.851071 26.966489 -1.177866 2.294244 0.122443 -0.019901 6955.240000 0 0 1
-7.013766 17.321300 -18.110671 26.023388 -1.186055 2.340522 0.107222 -0.016806 55666.900000 0 0 1
-7.886866 16.395600 -18.719871 26.104634 -1.122435 2.370442 0.113118 -0.026579 -333616.000000 0 0 1
-7.449766 15.827500 -19.909371 26.502676 -1.130875 2.420707 0.097734 -0.028951 -49016.000000 0 0 1
-6.256366 14.864600 -19.649071 25.420158 -1.172412 2.454309 0.071835 -0.019451 -403973.000000 0 0 1
-6.570766 13.604700 -19.113871 24.363967 -1.120859 2.472708 0.058945 -0.019195 109282.000000 0 1 0
-5.392766 12.844700 -18.898371 23.478004 -1.173301 2.506370 0.053973 -0.010264 534292.000000 0 1 0
-4.526366 13.206400 -17.654871 22.507587 -1.240604 2.472519 0.040637 -0.003590 -84026.000000 0 1 0
-3.893066 14.456000 -17.808371 23.265209 -1.307733 2.442538 0.049750 -0.011568 -771015.000000 0 1 0
-3.397066 14.829100 -16.548071 22.478454 -1.345601 2.398197 0.046474 0.000951 169924.000000 0 1 0
-2.442566 16.066300 -16.588671 23.222320 -1.419921 2.366479 0.071542 -0.005301 103752.000000 0 1 0
-3.088466 17.190800 -17.096171 24.440566 -1.393035 2.345494 0.085374 -0.005387 -244257.000000 0 1 0
-2.288066 18.315200 -16.875771 25.009467 -1.446513 2.311457 0.103828 -0.020085 108426.000000 0 0 1
-2.915566 19.609700 -17.453271 26.413207 -1.423198 2.292651 0.110485 -0.022790 334754.000000 0 0 1
-3.126366 19.698300 -18.863371 27.452212 -1.413397 2.328334 0.124443 -0.023644 221173.000000 0 0 1
-3.885666 20.883100 -19.167571 28.611152 -1.386833 2.304916 0.147112 -0.028812 813150.000000 0 0 1
-2.951366 22.152100 -19.351571 29.561959 -1.438344 2.284464 0.120760 -0.042679 -186739.000000 0 0 1
-2.159366 22.064200 -20.555371 30.232682 -1.473240 2.318430 0.137197 -0.034358 219064.000000 0 0 1
-1.061566 22.946800 -20.555071 30.825209 -1.524567 2.300739 0.122655 -0.048579 -117713.000000 0 0 1
0.113734 22.654500 -19.617471 29.968058 1.565776 2.284466 0.127622 -0.048582 -1013390.000000 0 0 1
-0.160166 22.713600 -18.266271 29.147726 -1.563745 2.248081 0.119895 -0.036053 -218724.000000 0 0 1
0.930434 22.103700 -17.574471 28.254226 1.528727 2.242106 0.121227 -0.031206 428494.000000 0 0 1
0.661734 22.150700 -16.075171 27.377044 1.540931 2.198363 0.132079 -0.024234 485671.000000 0 0 1
-0.300366 21.214700 -15.548371 26.304098 -1.556639 2.203219 0.120924 -0.014617 498863.000000 0 0 1
0.068734 20.990400 -14.184971 25.334068 1.567522 2.165082 0.116604 -0.015896 663270.000000 0 0 1
-0.951866 20.049300 -13.448271 24.160639 -1.523356 2.161107 0.101111 -0.009858 468983.000000 0 1 0
-0.793866 18.647400 -13.653471 23.125160 -1.528250 2.202371 0.070126 -0.007196 -54782.900000 0 1 0
-1.628366 17.918100 -12.788771 22.074024 -1.480167 2.188738 0.055389 -0.001676 7443.500000 0 1 0
-1.431666 16.409200 -12.980871 20.971755 -1.483769 2.238226 0.034390 0.005648 -246626.000000 0 1 0
-0.266866 16.013300 -12.286171 20.185316 -1.554133 2.225178 0.025918 0.003611 111389.000000 0 1 0
-0.078966 14.565200 -12.232571 19.020701 -1.565375 2.269360 0.016433 0.003047 491353.000000 0 1 0
0.710834 13.977000 -13.448071 19.409081 1.519983 2.336265 0.010461 0.004518 503827.000000 0 1 0
-0.195966 13.687700 -14.507771 19.946602 -1.556480 2.385220 0.015574 -0.006506 684859.000000 0 1 0
0.566234 12.984900 -15.481471 20.213960 1.527217 2.443205 0.011012 -0.006058 -219233.000000 0 1 0
-0.096066 12.739900 -16.849871 21.124214 -1.563256 2.494196 0.012611 -0.004052 -244049.000000 0 1 0
-0.277366 13.954600 -17.534071 22.410967 -1.550923 2.469287 0.022630 -0.009595 -39219.800000 0 1 0
-0.582166 13.726200 -18.923171 23.384479 -1.528409 2.513618 0.038889 -0.013608 -109819.000000 0 1 0
-1.012666 15.003100 -19.678471 24.766120 -1.503401 2.489099 0.048223 -0.005630 -73621.400000 0 1 0
0.007534 15.955600 -19.669871 25.327555 1.570324 2.460078 0.053003 -0.017908 -153371.000000 0 0 1
-0.559666 17.125200 -20.235071 26.514973 -1.538127 2.438980 0.096067 -0.025970 46440.700000 0 0 1
0.395734 18.302600 -20.457071 27.452386 1.549178 2.411607 0.114472 -0.037133 430080.000000 0 0 1
1.297134 18.067100 -21.567171 28.164615 1.499124 2.443009 0.137118 -0.048117 195126.000000 0 0 1
2.154434 19.123600 -21.810071 29.086644 1.458611 2.418603 0.143543 -0.045265 -201903.000000 0 0 1
2.918934 19.104700 -23.144671 30.152703 1.419183 2.445856 0.168704 -0.049305 -212125.000000 0 0 1
3.855634 18.089800 -23.268971 29.724599 1.360800 2.469979 0.156723 -0.046103 -696868.000000 0 0 1
4.321734 18.030900 -24.570071 30.781149 1.335549 2.495128 0.162080 -0.054215 238915.000000 0 0 1
5.380634 16.931700 -24.821771 30.524646 1.263104 2.520377 0.124673 -0.044903 -142485.000000 0 0 1
6.650534 17.119200 -24.192771 30.374114 1.200257 2.492269 0.118840 -0.031630 773101.000000 0 0 1
7.540434 16.047300 -24.640271 30.356497 1.131527 2.517848 0.131491 -0.031819 660533.000000 0 0 1
8.075234 16.089300 -26.091691 31.699390 1.105629 2.537640 0.113176 -0.035340 -464508.000000 0 0 1
9.163334 17.002900 -26.402781 32.713486 1.076494 2.510006 0.102576 -0.027950 989473.000000 0 0 1
9.561534 17.000100 -27.791511 33.952826 1.058453 2.529649 0.117864 -0.037839 223905.000000 0 0 1
10.194634 15.708200 -28.347031 33.973994 0.995124 2.557793 0.123077 -0.051632 -932477.000000 0 0 1
11.236034 15.222200 -27.575401 33.441988 0.934932 2.540245 0.121691 -0.044497 -462950.000000 0 0 1
11.450034 13.846200 -27.829171 33.125266 0.879841 2.568299 0.115450 -0.035493 4153.880000 0 0 1
10.632034 12.821100 -26.978771 31.706069 0.878466 2.588497 0.101927 -0.024035 -799904.000000 0 0 1
9.296234 12.793000 -27.307631 31.556101 0.942397 2.616680 0.106000 -0.029679 -1235690.000000 0 0 1
8.571334 11.816400 -26.540831 30.290440 0.943242 2.638740 0.118723 -0.029510 709099.000000 0 0 1
7.042034 12.072100 -26.673171 30.112852 1.042723 2.658955 0.123635 -0.039857 -64064.300000 0 0 1
6.584034 13.011300 -25.672461 29.524882 1.102341 2.625025 0.149851 -0.037111 -795359.000000 0 0 1
5.208934 13.083400 -25.544081 29.168620 1.191900 2.637759 0.166222 -0.049048 -384402.000000 0 0 1
4.293634 13.748200 -26.622371 30.268778 1.268089 2.645675 0.173819 -0.039995 -318605.000000 0 0 1
4.233534 13.106300 -27.894471 31.109475 1.258361 2.682952 0.172009 -0.052388 146009.000000 0 0 1
3.890134 14.053000 -28.899361 32.369631 1.300740 2.674303 0.148584 -0.065025 -86582.800000 0 0 1
3.933834 13.511900 -30.326851 33.432983 1.287489 2.707124 0.183808 -0.062385 1179870.000000 0 0 1
5.266534 13.118000 -30.761541 33.853961 1.189020 2.710846 0.162027 -0.054165 1082680.000000 0 0 1
5.335934 12.716200 -32.068681 34.908082 1.173494 2.735473 0.160640 -0.058891 -884160.000000 0 0 1
6.565534 11.871800 -32.360631 35.089262 1.065625 2.744625 0.169900 -0.039784 1186200.000000 0 0 1
7.851334 12.586400 -32.210731 35.462545 1.013064 2.710005 0.175433 -0.038614 1665770.000000 0 0 1
8.431834 12.646700 -30.905181 34.440747 0.982755 2.684509 0.165981 -0.044372 -319065.000000 0 0 1
8.530634 11.399700 -30.007041 33.213662 0.928371 2.698558 0.155307 -0.039061 -308437.000000 0 0 1
9.594134 10.529300 -30.346811 33.523760 0.831836 2.702724 0.128291 -0.037130 2552.410000 0 0 1
9.569234 9.384300 -29.609771 32.501905 0.775641 2.716539 0.118744 -0.033579 482677.000000 0 0 1
10.656234 8.310800 -29.999251 32.902580 0.662364 2.718345 0.081363 -0.023730 613270.000000 0 0 1
11.955934 8.531500 -29.507781 32.961189 0.619781 2.679739 0.068795 -0.024926 184771.000000 0 0 1
12.780134 7.367000 -29.552811 33.029882 0.522917 2.678622 0.032160 -0.017267 -260433.000000 0 0 1
14.151834 7.493800 -28.912721 33.051125 0.486990 2.635794 0.034261 -0.004643 -105258.000000 0 0 1
14.961434 6.351500 -28.711011 32.992548 0.401468 2.626460 0.021677 0.002926 341860.000000 0 0 1
16.008334 6.154900 -29.645681 34.249320 0.367057 2.617113 0.016212 0.003876 -577932.000000 0 0 1
16.885834 4.968500 -29.267731 34.152854 0.286165 2.600144 0.042427 -0.000608 -309298.000000 0 0 1
17.438734 5.082100 -28.017381 33.390280 0.283572 2.566401 0.032332 -0.002473 -213102.000000 0 0 1
18.433234 4.133800 -27.767851 33.584609 0.220608 2.544196 0.046313 -0.006983 -173748.000000 0 0 1
19.013434 4.262000 -26.321401 32.748915 0.220512 2.504340 0.069928 -0.002002 41182.000000 0 0 1
19.895134 5.361900 -26.160301 33.300565 0.263253 2.474431 0.094587 -0.003025 169393.000000 0 0 1
20.327234 5.470300 -24.821371 32.545677 0.262884 2.438216 0.111472 -0.012369 422695.000000 0 0 1
21.374234 6.619900 -24.555871 33.221555 0.300345 2.402611 0.114548 -0.021108 598781.000000 0 0 1
20.861934 7.830000 -25.185441 33.627899 0.359055 2.417265 0.112043 -0.008526 463557.000000 0 0 1
21.885634 8.531900 -25.863461 34.938416 0.371717 2.404251 0.110709 -0.027206 -344256.000000 0 0 1
21.880034 8.322200 -27.433941 36.064054 0.363458 2.435188 0.144351 -0.038695 887324.000000 0 0 1
20.754434 8.836000 -28.193371 36.106614 0.402498 2.466800 0.103579 -0.017353 1220540.000000 0 0 1
19.584534 8.028000 -28.186291 35.248684 0.389025 2.497493 0.097468 -0.014690 798907.000000 0 0 1
18.354334 8.573500 -29.009211 35.382493 0.436991 2.531988 0.066516 0.000272 371257.000000 0 0 1
18.619834 8.598200 -30.385141 36.659024 0.432604 2.547860 0.059202 -0.001856 618659.000000 0 0 1
17.534934 9.316100 -30.969171 36.787949 0.488364 2.571460 0.044140 0.003066 82488.200000 0 0 1
17.194034 9.028500 -32.445301 37.813307 0.483521 2.602236 0.022939 0.007196 -30125.400000 0 0 1
16.566034 7.750300 -32.492261 37.286025 0.437593 2.628912 0.018498 0.005846 -393211.000000 0 0 1
15.268734 7.936100 -32.965861 37.186878 0.479332 2.660504 0.022426 0.009172 -593287.000000 0 0 1
14.415834 6.678200 -33.181151 36.788631 0.433822 2.695038 0.036439 -0.008456 -37489.500000 0 0 1
14.168234 5.787600 -32.094131 35.556552 0.387805 2.696619 0.031023 -0.009434 279931.000000 0 0 1
13.246834 4.776700 -32.493581 35.413673 0.346079 2.732654 0.037086 -0.025099 106536.000000 0 0 1
13.136134 3.607300 -31.525331 34.342643 0.268003 2.733715 0.052660 -0.031509 -306623.000000 0 0 1
14.248234 2.758700 -31.428941 34.617928 0.191251 2.708997 0.038137 -0.033743 -327890.000000 0 0 1
14.110434 1.681400 -30.516021 33.662427 0.118601 2.705788 0.064037 -0.029929 -94470.500000 0 0 1
13.318034 0.400700 -30.949541 33.695766 0.030078 2.735065 0.079381 -0.029783 4790.690000 0 0 1
14.040434 -0.589400 -31.619851 34.601967 -0.041954 2.723381 0.083456 -0.030872 447288.000000 0 0 1
14.914434 -1.370700 -30.734231 34.189356 -0.091647 2.688143 0.084794 -0.026270 801254.000000 0 0 1
15.329634 -2.722200 -31.327131 34.982812 -0.175746 2.680351 0.097928 -0.036954 1017320.000000 0 0 1
14.215734 -3.642800 -31.258661 34.532028 -0.250853 2.702665 0.094631 -0.044896 829322.000000 0 0 1
14.558334 -4.691200 -32.120131 35.576049 -0.311729 2.697168 0.112170 -0.053416 713065.000000 0 0 1
13.596834 -5.979500 -32.156281 35.421105 -0.414315 2.708872 0.115472 -0.056826 460437.000000 0 0 1
13.755434 -6.751300 -31.033001 34.609813 -0.456268 2.682948 0.129521 -0.047137 176670.000000 0 0 1
13.267034 -8.085200 -31.135061 34.796216 -0.547317 2.678741 0.148672 -0.054631 -154280.000000 0 0 1
13.319534 -8.859900 -29.804551 33.826307 -0.586973 2.648991 0.127652 -0.057158 1604710.000000 0 0 1
14.698834 -8.909100 -29.285211 33.956610 -0.544900 2.610848 0.121663 -0.057746 1837650.000000 0 0 1
14.877734 -9.593800 -28.087901 33.201177 -0.572741 2.579218 0.126511 -0.056326 -67292.200000 0 0 1
14.821934 -11.189300 -28.190411 33.757805 -0.646639 2.559071 0.104939 -0.040610 -85329.700000 0 0 1
13.566734 -11.785700 -28.412801 33.619135 -0.715262 2.577619 0.078884 -0.037530 36213.200000 0 0 1
13.823834 -13.210700 -28.626571 34.425304 -0.762722 2.552700 0.073873 -0.031816 199323.000000 0 0 1
-10.253366 -3.335200 -18.278571 21.221716 0.314484 2.608648 0.043704 0.010199 490408.000000 0 1 0
-10.937166 -2.925200 -19.483371 22.533977 0.261338 2.615194 0.058620 0.006671 377904.000000 0 1 0
-12.020866 -3.773300 -19.859071 23.518539 0.304156 2.576242 0.066372 0.003899 145937.000000 0 1 0
-13.103766 -3.054000 -20.709871 24.696849 0.228975 2.565437 0.093594 -0.021659 15692.700000 0 1 0
-13.709266 -2.001100 -19.968671 24.304242 0.144943 2.535030 0.094304 -0.025692 -173273.000000 0 1 0
-14.832666 -1.545500 -20.695671 25.508966 0.103821 2.517185 0.090294 -0.024570 435103.000000 0 0 1
-15.612266 -0.281600 -20.169871 25.507760 0.018035 2.482805 0.084277 -0.019969 50061.900000 0 0 1
-14.955866 0.920000 -20.377571 25.293669 -0.061437 2.507550 0.099067 -0.025403 -446585.000000 0 0 1
-15.699266 1.996300 -19.906271 25.430528 -0.126480 2.469902 0.108702 -0.015856 -332471.000000 0 0 1
-15.333066 3.285100 -20.582871 25.875652 -0.211059 2.490551 0.146073 -0.033598 -316446.000000 0 0 1
-14.058566 3.771700 -20.292271 24.972890 -0.262113 2.519348 0.146173 -0.032719 -376355.000000 0 1 0
-13.766566 4.908400 -21.032971 25.612430 -0.342494 2.534310 0.158830 -0.044544 246331.000000 0 0 1
-12.377266 5.512100 -20.683071 24.725885 -0.418972 2.561651 0.132365 -0.040811 216093.000000 0 1 0
-12.330266 6.059000 -19.341471 23.724237 -0.456738 2.523978 0.128106 -0.048029 651328.000000 0 1 0
-11.024166 6.588700 -19.108871 23.023730 -0.538697 2.549840 0.091829 -0.029697 237649.000000 0 1 0
-10.904966 7.413300 -17.813071 22.162599 -0.597046 2.504359 0.074026 -0.020115 -407464.000000 0 1 0
-11.660466 8.589600 -17.749871 22.908636 -0.634898 2.457213 0.090671 -0.028363 -64510.500000 0 1 0
-12.869466 8.418800 -17.017471 22.936732 -0.579300 2.406742 0.120234 -0.022929 474115.000000 0 1 0
-13.676766 9.789500 -17.034071 23.938417 -0.621236 2.362539 0.138783 -0.029123 -21201.300000 0 1 0
-13.052666 10.740200 -16.220571 23.427140 -0.688511 2.335584 0.095873 -0.019101 203802.000000 0 1 0
-13.600866 12.087800 -16.356671 24.467103 -0.726566 2.303009 0.113127 -0.020680 234359.000000 0 1 0
-12.890666 13.242500 -15.541771 24.147044 -0.798860 2.270029 0.116811 -0.014584 -44879.200000 0 1 0
-13.206366 13.274200 -14.158671 23.475103 -0.787960 2.218223 0.114238 -0.016523 246238.000000 0 1 0
-12.785966 14.617600 -13.739471 23.789246 -0.852138 2.186520 0.100292 -0.011605 -668601.000000 0 1 0
-13.043166 14.780200 -12.198671 23.181589 -0.847748 2.124948 0.073394 -0.016159 955395.000000 0 1 0
-14.364266 15.013300 -11.700671 23.846111 -0.807487 2.083660 0.067022 -0.019563 1629280.000000 0 1 0
-15.465166 14.205800 -12.241371 24.306939 -0.742979 2.098576 0.073107 -0.013848 856011.000000 0 1 0
-16.746766 14.292400 -11.344071 24.767212 -0.706489 2.046572 0.042956 -0.010506 458668.000000 0 1 0
-17.838766 13.511200 -11.766771 25.283018 -0.648225 2.054885 0.050594 -0.014941 -165439.000000 0 0 1
-18.922366 13.680300 -10.887171 25.763094 -0.625976 2.007095 0.131493 -0.020564 -109275.000000 0 0 1
-20.303766 13.369000 -11.503171 26.894163 -0.582292 2.012765 0.124577 -0.030622 -102614.000000 0 0 1
-20.487966 11.963200 -11.355971 26.302718 -0.528507 2.017219 0.140900 -0.037904 23864.800000 0 0 1
-21.585266 11.466000 -12.068771 27.258909 -0.488292 2.029455 0.179579 -0.033177 -419332.000000 0 0 1
-22.022066 10.067800 -11.713771 26.898781 -0.428799 2.021363 0.176317 -0.032578 -140265.000000 0 0 1
-21.068966 9.071600 -12.021271 25.897996 -0.406576 2.053502 0.148444 -0.040340 284394.000000 0 0 1
-21.394466 7.944800 -11.309271 25.470427 -0.355565 2.030872 0.131232 -0.036819 292899.000000 0 0 1
-20.329566 6.783400 -11.430771 24.289263 -0.322055 2.060778 0.138062 -0.036330 257901.000000 0 1 0
-20.316166 6.163600 -12.664071 24.720745 -0.294559 2.108640 0.139288 -0.034885 342232.000000 0 1 0
-19.262766 5.233900 -12.752071 23.686772 -0.265306 2.139289 0.139423 -0.037786 -357151.000000 0 1 0
-19.667666 4.062700 -13.656771 24.286416 -0.203702 2.167987 0.168531 -0.044724 260742.000000 0 1 0
-20.629666 3.245500 -12.948571 24.571973 -0.156043 2.125822 0.162472 -0.045780 599419.000000 0 1 0
-21.412166 2.623900 -13.929871 25.678921 -0.121935 2.144163 0.142015 -0.042194 -978381.000000 0 0 1
-22.401866 1.653700 -13.380471 26.146038 -0.073686 2.108027 0.185631 -0.048873 -619744.000000 0 0 1
-23.284866 1.128800 -14.351671 27.375712 -0.048440 2.122628 0.131544 -0.041731 292139.000000 0 0 1
-23.582666 -0.239200 -14.131371 27.493544 0.010143 2.110625 0.116860 -0.049045 -145993.000000 0 0 1
-24.757866 -0.811900 -14.995271 28.956334 0.032782 2.115142 0.115623 -0.036643 111845.000000 0 0 1
-25.950366 -0.213800 -14.526771 29.740448 0.008239 2.081111 0.140767 -0.048231 302089.000000 0 0 1
-27.088006 -0.688300 -15.280171 31.108157 0.025404 2.084257 0.148413 -0.034439 1224570.000000 0 0 1
-28.398976 -0.154900 -14.572671 31.920034 0.005454 2.044895 0.137372 -0.042970 293497.000000 0 0 1
-28.604686 -0.682900 -13.339971 31.569752 0.023869 2.007059 0.152065 -0.033897 135684.000000 0 0 1
-29.807716 -0.174000 -12.800871 32.440600 0.005837 1.976422 0.201627 -0.045772 152781.000000 0 0 1
-30.175426 -0.691500 -11.397371 32.263518 0.022912 1.931849 0.188229 -0.043920 -46490.100000 0 0 1
-30.496176 -2.095100 -11.213671 32.559985 0.068593 1.922396 0.196134 -0.025804 592417.000000 0 0 1
-29.420296 -2.974000 -11.502271 31.728547 0.100744 1.941768 0.187621 -0.035295 -129114.000000 0 0 1
-29.708406 -4.367200 -10.968071 31.968115 0.145957 1.921005 0.186133 -0.034481 -489683.000000 0 0 1
-30.782966 -4.973800 -11.632471 33.281287 0.160192 1.927855 0.184578 -0.030082 -56156.800000 0 0 1
-31.144226 -6.176600 -10.984871 33.597330 0.195782 1.903878 0.187031 -0.037328 40362.100000 0 0 1
-30.483106 -7.506100 -11.579471 33.461103 0.241435 1.924162 0.187541 -0.036417 1298820.000000 0 0 1
-29.103296 -7.556000 -11.136471 32.064247 0.254019 1.925505 0.129118 -0.030156 1107980.000000 0 0 1
-28.438106 -8.659400 -11.758971 31.968492 0.295580 1.947471 0.118139 -0.032750 -813720.000000 0 0 1
-27.075156 -8.884200 -11.146171 30.597879 0.317061 1.943655 0.123667 -0.046742 -939392.000000 0 0 1
-26.153736 -7.850400 -11.525871 29.639372 0.291607 1.970201 0.113217 -0.037168 1445640.000000 0 0 1
-24.805166 -8.028100 -11.034371 28.310846 0.313007 1.971165 0.133138 -0.034052 913879.000000 0 0 1
-24.497566 -7.898500 -9.526671 27.445846 0.311896 1.925282 0.133615 -0.038710 -657199.000000 0 0 1
-24.798366 -6.644500 -8.877571 27.164675 0.261792 1.903718 0.128201 -0.032461 369025.000000 0 0 1
-26.117226 -6.147600 -8.920371 28.274998 0.231177 1.891765 0.134369 -0.040432 -430669.000000 0 0 1
-26.259506 -4.730900 -8.380771 27.967488 0.178247 1.875134 0.134647 -0.038737 -266022.000000 0 0 1
-26.153846 -4.661300 -6.989671 27.470109 0.176374 1.828072 0.141429 -0.036811 434391.000000 0 0 1
-26.586706 -3.342600 -6.620571 27.601773 0.125068 1.813018 0.177809 -0.048265 88514.700000 0 0 1
-26.189216 -3.096500 -5.114971 26.863102 0.117689 1.762375 0.174516 -0.042899 75976.500000 0 0 1
-24.790866 -3.072000 -4.903771 25.457242 0.123288 1.764636 0.133996 -0.032173 206897.000000 0 0 1
-24.489466 -2.746700 -3.561071 24.898986 0.111692 1.714309 0.115897 -0.025632 -37250.900000 0 1 0
-23.064766 -3.097000 -3.069071 23.473262 0.133476 1.701919 0.095650 -0.017794 130643.000000 0 1 0
-23.019566 -4.487000 -2.908471 23.632452 0.192507 1.694180 0.105158 -0.022452 723458.000000 0 1 0
-21.687166 -4.753500 -2.473971 22.339415 0.215773 1.681769 0.080176 -0.019233 397150.000000 0 1 0
-21.431566 -6.280300 -2.305071 22.451448 0.285059 1.673647 0.089869 -0.021893 -47416.200000 0 1 0
-22.139966 -6.905200 -1.257771 23.225888 0.302328 1.624977 0.100380 -0.015315 306072.000000 0 1 0
-22.346366 -8.298500 -1.562371 23.888620 0.355574 1.636245 0.092811 -0.021447 -64622.400000 0 1 0
-22.550066 -9.323600 -0.415571 24.405075 0.392058 1.587825 0.102281 -0.025800 129712.000000 0 1 0
-21.410366 -9.690000 0.358829 23.503800 0.425001 1.555529 0.065230 -0.019372 357790.000000 0 1 0
-21.690766 -10.465500 1.481929 24.129072 0.449539 1.509341 0.038003 -0.020279 272861.000000 0 1 0
-20.363766 -11.123600 1.949529 23.285577 0.499956 1.486976 0.051954 -0.016382 104795.000000 0 1 0
-19.943366 -12.199800 1.108329 23.405157 0.548994 1.523425 0.058070 -0.009059 226166.000000 0 1 0
-18.805466 -12.751100 1.728429 22.786478 0.595844 1.494870 0.035834 -0.015074 -424646.000000 0 1 0
-18.281366 -14.029700 1.050629 23.068260 0.654564 1.525236 0.037629 -0.006119 68830.300000 0 1 0
-19.176466 -15.145900 1.212829 24.466428 0.668501 1.521205 0.075807 -0.007165 477587.000000 0 1 0
-18.720166 -16.412000 0.784229 24.908098 0.719793 1.539306 0.071764 -0.012745 -457788.000000 0 1 0
-17.553866 -17.100900 1.527529 24.554273 0.772328 1.508546 0.083015 -0.011684 -533291.000000 0 1 0
-16.301266 -16.705000 1.022529 23.363087 0.797630 1.527015 0.078400 0.003564 434274.000000 0 1 0
-15.125666 -17.189700 1.684829 22.958881 0.849183 1.497346 0.085912 -0.009097 920147.000000 0 1 0
-14.946666 -16.872600 3.205229 22.767541 0.845852 1.429546 0.087091 -0.025091 -896226.000000 0 1 0
-14.848666 -15.455800 3.476629 21.712936 0.805430 1.409986 0.062846 -0.023525 -145331.000000 0 1 0
-14.151066 -15.257600 4.667429 21.326789 0.823007 1.350158 0.045832 -0.021753 -167416.000000 0 1 0
-14.792266 -15.654100 6.051829 22.371558 0.813697 1.296869 0.108134 -0.031703 -1500390.000000 0 1 0
-15.761166 -14.792500 6.503129 22.572618 0.753705 1.278556 0.098945 -0.029001 -595017.000000 0 1 0
-16.068066 -14.984700 7.857529 23.333768 0.750524 1.227338 0.118922 -0.032549 128592.000000 0 1 0
-16.994466 -16.207100 8.169729 24.864160 0.761688 1.236002 0.114358 -0.033479 -434420.000000 0 1 0
-16.317966 -17.419100 7.951429 25.158026 0.818025 1.249223 0.115973 -0.028294 -82851.700000 0 0 1
-16.945466 -18.578400 8.485829 26.538935 0.831333 1.245331 0.121116 -0.040738 -220288.000000 0 0 1
-16.731266 -18.855100 9.993229 27.116686 0.845009 1.193372 0.144469 -0.040378 -152352.000000 0 0 1
-15.454766 -19.385900 10.234129 26.821639 0.897755 1.179310 0.101434 -0.032266 -200028.000000 0 0 1
-15.291066 -19.734500 11.589829 27.524377 0.911587 1.136166 0.113551 -0.025737 410806.000000 0 0 1
-13.917066 -20.386300 11.920329 27.411315 0.971798 1.120904 0.098788 -0.023441 442435.000000 0 0 1
-12.811566 -19.533400 11.935129 26.232370 0.990299 1.098450 0.090322 -0.024180 -1199220.000000 0 0 1
-11.618266 -20.181300 12.144329 26.263162 1.048440 1.090086 0.096987 -0.027018 -542641.000000 0 0 1
-10.395466 -19.311500 12.474929 25.231401 1.076977 1.053628 0.099102 -0.029124 -69588.000000 0 0 1
-9.805566 -18.721000 11.338629 23.983108 1.088311 1.078358 0.088508 -0.029844 890573.000000 0 1 0
-8.641566 -17.925700 11.734129 23.101887 1.121590 1.038017 0.079946 -0.024548 1522210.000000 0 1 0
-7.787366 -17.307200 10.558729 21.717942 1.147984 1.063089 0.049591 -0.021064 436999.000000 0 1 0
-6.732566 -18.149500 10.138929 21.852452 1.215581 1.088322 0.048675 -0.024800 136325.000000 0 1 0
-6.022966 -17.543600 9.055729 20.641227 1.240090 1.116622 0.036247 -0.017047 664910.000000 0 1 0
-4.862866 -18.320400 8.336329 20.706977 1.311345 1.156457 0.037340 -0.020433 1115480.000000 0 1 0
-3.652366 -18.355800 9.100629 20.810973 1.374385 1.118203 0.051025 -0.019286 -53102.500000 0 1 0
-2.645766 -18.982400 8.369629 20.913686 1.432309 1.159063 0.051206 -0.018399 -445245.000000 0 1 0
-1.305966 -19.144000 9.091329 21.233241 1.502684 1.128335 0.060717 -0.024912 -216657.000000 0 1 0
-0.347566 -19.656800 8.173629 21.291284 1.553116 1.176785 0.065131 -0.019506 140441.000000 0 1 0
0.870134 -19.857300 8.893629 21.775356 -1.527005 1.150067 0.068308 -0.029643 -91789.800000 0 1 0
2.127734 -20.201200 8.115129 21.873981 -1.465856 1.190716 0.061881 -0.045869 -264430.000000 0 1 0
2.218834 -21.547400 7.665929 22.977818 -1.468183 1.230652 0.087816 -0.044192 -175114.000000 0 1 0
2.581134 -22.462700 8.679729 24.219266 -1.456391 1.204263 0.096566 -0.052049 -186683.000000 0 1 0
2.589634 -23.900600 8.240729 25.413667 -1.462867 1.240563 0.115415 -0.047120 87834.100000 0 0 1
2.614934 -24.776700 9.341929 26.608164 -1.465646 1.212059 0.109640 -0.049211 -63085.300000 0 0 1
2.350934 -26.034710 8.786029 27.577660 -1.480741 1.246552 0.125038 -0.049430 -1462200.000000 0 0 1
2.165334 -27.254660 9.684729 29.005157 -1.491515 1.230362 0.132916 -0.050654 493764.000000 0 0 1
1.141734 -27.233540 10.677129 29.274056 -1.528897 1.197453 0.134373 -0.054234 869552.000000 0 0 1
-0.194466 -26.985810 10.192829 28.847279 1.563590 1.209660 0.136746 -0.042411 214226.000000 0 0 1
-1.160466 -26.928300 11.403929 29.266527 1.527728 1.170536 0.124344 -0.046893 84712.000000 0 0 1
-1.226366 -28.186390 12.137729 30.713206 1.527315 1.164515 0.134901 -0.055384 -288687.000000 0 0 1
-1.533066 -27.904450 13.462929 31.020301 1.515912 1.121864 0.121547 -0.058352 -146098.000000 0 0 1
-1.414866 -29.123750 14.384829 32.513350 1.522253 1.112492 0.102869 -0.054422 46160.000000 0 0 1
-1.542066 -28.871270 15.710429 32.905103 1.517435 1.073050 0.114419 -0.053493 -79351.000000 0 0 1
-1.517366 -30.107420 16.292929 34.266874 1.520441 1.075296 0.131992 -0.055649 -1586.490000 0 0 1
-1.750766 -30.108800 17.825229 35.033467 1.512714 1.036999 0.138598 -0.051707 416706.000000 0 0 1
-3.114866 -29.841190 18.142729 35.062196 1.466792 1.026935 0.134870 -0.051015 398580.000000 0 0 1
-3.267766 -29.783020 19.557429 35.779877 1.461514 0.992493 0.131334 -0.050055 -168696.000000 0 0 1
-4.702566 -29.549080 20.052829 36.019137 1.412976 0.980356 0.137424 -0.045597 -409249.000000 0 0 1
-5.161066 -28.261130 19.773229 34.875617 1.390166 0.967980 0.110129 -0.036460 717890.000000 0 0 1
-6.488466 -28.025550 20.270229 35.191104 1.343285 0.956964 0.101270 -0.036226 910271.000000 0 0 1
-6.372166 -26.935510 21.335229 34.947363 1.338496 0.914109 0.148383 -0.036988 -332195.000000 0 0 1
-5.450466 -27.247780 22.344029 35.656763 1.373369 0.893559 0.166476 -0.036046 -56545.000000 0 0 1
-5.440466 -26.330670 23.433829 35.665771 1.367043 0.853911 0.189989 -0.037610 -333770.000000 0 0 1
-4.213466 -26.571450 24.350729 36.287095 1.413535 0.835162 0.218687 -0.037006 41327.200000 0 0 1
-4.087166 -27.739420 25.160129 37.672436 1.424507 0.839459 0.209170 -0.037966 124025.000000 0 0 1
-3.642766 -28.880580 24.422329 37.997471 1.445327 0.872732 0.207334 -0.032800 -184835.000000 0 0 1
-4.021666 -30.204160 25.110029 39.483904 1.438426 0.881550 0.198414 -0.034507 -46989.400000 0 0 1
-3.431166 -30.448830 26.374429 40.429131 1.458583 0.860100 0.189680 -0.041872 180712.000000 0 0 1
-3.905466 -31.631020 26.981129 41.758298 1.447949 0.868298 0.153349 -0.030138 -210805.000000 0 0 1
-3.562266 -31.624800 28.511329 42.728370 1.458628 0.840260 0.182809 -0.029640 -459588.000000 0 0 1
-2.230166 -31.825490 28.882329 43.035153 1.500836 0.835060 0.184536 -0.034359 -147016.000000 0 0 1
-2.125266 -31.889710 30.282529 44.028422 1.504250 0.812349 0.174448 -0.051309 -18717.100000 0 0 1
-29.319436 3.149800 -9.706671 31.044646 -0.107020 1.888797 0.222225 -0.045286 -411275.000000 0 0 1
-30.056876 2.775000 -10.794271 32.056711 -0.092064 1.914232 0.208431 -0.060764 -299685.000000 0 0 1
-30.665706 3.834200 -11.479771 32.967738 -0.124387 1.926460 0.198072 -0.058057 -170081.000000 0 0 1
-31.581856 3.379000 -12.630271 34.181208 -0.106586 1.949277 0.191681 -0.055244 -984406.000000 0 0 1
-32.828946 2.928800 -12.246071 35.160828 -0.088978 1.926540 0.201078 -0.060555 -681445.000000 0 0 1
-33.541476 2.679200 -13.453971 36.238351 -0.079708 1.951166 0.219207 -0.057927 -221156.000000 0 0 1
-34.851919 1.896100 -13.240671 37.330508 -0.054351 1.933376 0.222220 -0.051698 -271625.000000 0 0 1
-34.713474 0.580600 -12.778871 36.995431 -0.016724 1.923480 0.226882 -0.047197 196521.000000 0 0 1
-35.961416 -0.094000 -12.719271 38.144621 0.002614 1.910756 0.210034 -0.043495 364339.000000 0 0 1
-35.838813 -1.612500 -12.369771 37.947752 0.044963 1.902832 0.207894 -0.039599 292243.000000 0 0 1
-35.244910 -2.397300 -13.436771 37.795470 0.067914 1.934259 0.204029 -0.033515 274512.000000 0 0 1
-35.018548 -3.687500 -12.888171 37.496684 0.104915 1.921666 0.205789 -0.033459 83164.300000 0 0 1
-34.832192 -4.854900 -13.900571 37.816366 0.138487 1.947203 0.207470 -0.034439 33478.000000 0 0 1
-34.696671 -6.127400 -13.317271 37.666347 0.174797 1.932169 0.191939 -0.036458 220998.000000 0 0 1
-34.990994 -7.151800 -14.283371 38.464692 0.201613 1.951245 0.187703 -0.032273 -561945.000000 0 0 1
-34.924777 -8.610500 -13.712571 38.495654 0.241723 1.935006 0.162561 -0.035132 -195237.000000 0 0 1
-33.609816 -8.969800 -13.379771 37.270569 0.260802 1.937982 0.161147 -0.040046 214490.000000 0 0 1
-32.848496 -9.356700 -14.533971 37.118834 0.277495 1.973114 0.166055 -0.038040 25561.400000 0 0 1
-31.714046 -10.403800 -14.271871 36.300221 0.316988 1.974864 0.141208 -0.039592 -75653.700000 0 0 1
-32.163746 -11.662600 -13.859071 36.913366 0.347856 1.955677 0.122971 -0.038993 -140867.000000 0 0 1
-31.166026 -12.598100 -13.567471 36.250649 0.384144 1.954404 0.145658 -0.039364 -454319.000000 0 0 1
-31.567586 -13.950800 -14.220671 37.327802 0.416126 1.961639 0.161631 -0.031411 -254957.000000 0 0 1
-31.473026 -14.016900 -15.632171 37.833710 0.418991 1.996741 0.161505 -0.030723 88926.200000 0 0 1
-31.410726 -15.273100 -16.283971 38.536593 0.452578 2.007063 0.175651 -0.036581 422205.000000 0 0 1
-30.120036 -16.111000 -15.993571 37.717041 0.491171 2.008699 0.135369 -0.024709 941280.000000 0 0 1
-28.891286 -15.580800 -16.490971 36.734450 0.494584 2.036357 0.147957 -0.032204 445442.000000 0 0 1
-27.814486 -16.492800 -16.290471 36.208252 0.535225 2.037461 0.154266 -0.028080 1422550.000000 0 0 1
-26.400766 -15.932800 -16.712871 35.073845 0.542987 2.067472 0.149743 -0.029350 979448.000000 0 0 1
-26.474336 -15.710600 -18.123871 35.723775 0.535573 2.102884 0.151996 -0.034375 1789260.000000 0 0 1
-25.126056 -15.499900 -18.693071 34.942760 0.552743 2.135260 0.105027 -0.025201 1565930.000000 0 0 1
-25.174086 -15.051800 -20.179271 35.601885 0.538880 2.173417 0.116462 -0.030612 -99298.200000 0 0 1
-25.700696 -16.090900 -20.968671 36.866353 0.559381 2.175812 0.118890 -0.037304 -78166.100000 0 0 1
-27.091556 -16.061300 -21.127271 37.924653 0.535147 2.161668 0.127710 -0.045444 -592157.000000 0 0 1
-27.783306 -17.257800 -21.855971 39.337351 0.555831 2.159885 0.138002 -0.046114 -14481.000000 0 0 1
-27.316056 -17.389100 -23.181071 39.823482 0.566890 2.192100 0.122061 -0.034413 487258.000000 0 0 1
-27.926286 -18.538800 -23.853971 41.140934 0.586048 2.189293 0.116326 -0.040872 430239.000000 0 0 1
-27.067536 -18.848100 -25.119371 41.459440 0.608263 2.221666 0.097630 -0.039288 2153160.000000 0 0 1
-25.743236 -19.474200 -24.932971 40.787396 0.647634 2.228487 0.098672 -0.038138 1544320.000000 0 0 1
-25.623306 -20.755400 -24.360071 40.996993 0.680821 2.207057 0.089876 -0.041154 -587230.000000 0 0 1
-24.152966 -21.211500 -24.319371 40.307881 0.720648 2.218479 0.091240 -0.023014 -101127.000000 0 0 1
-23.505466 -21.076200 -25.527001 40.599765 0.730962 2.250738 0.081066 -0.027661 -565807.000000 0 0 1
-22.169666 -21.495100 -25.477511 40.032948 0.769951 2.260636 0.065390 -0.023393 -411630.000000 0 0 1
-21.415566 -21.414300 -26.781401 40.428234 0.785369 2.294872 0.056519 -0.017785 -547959.000000 0 0 1
-21.819666 -22.312000 -27.786221 41.785131 0.796554 2.298262 0.080567 -0.022621 -184701.000000 0 0 1
-22.083866 -21.707900 -29.039691 42.452723 0.776813 2.324094 0.081562 -0.014656 468176.000000 0 0 1
-21.033966 -21.941000 -30.218261 42.859987 0.806501 2.353284 0.076509 -0.019096 743201.000000 0 0 1
-21.017166 -23.239400 -30.769991 43.915638 0.835569 2.347120 0.079345 -0.031992 265340.000000 0 0 1
-20.134266 -23.143400 -31.892011 44.250491 0.854817 2.375630 0.076877 -0.027660 223090.000000 0 0 1
-20.136566 -24.366900 -32.786481 45.543171 0.880170 2.374453 0.089247 -0.023811 116985.000000 0 0 1
-19.314866 -24.333000 33.402536 45.616755 0.899864 0.749187 0.093991 -0.030695 153923.000000 0 0 1
-20.093066 -24.128700 32.217450 44.987660 0.876405 0.772541 0.094539 -0.023167 52903.200000 0 0 1
-19.147066 -23.937300 30.997796 43.594355 0.896126 0.779805 0.099561 -0.023353 46764.100000 0 0 1
-18.638066 -22.623400 30.914846 42.601918 0.881687 0.758792 0.073654 -0.023633 78549.400000 0 0 1
-17.682766 -22.614800 29.852036 41.415618 0.907183 0.765852 0.082424 -0.024927 253496.000000 0 0 1
-16.812166 -21.355000 29.752116 40.297312 0.903865 0.740227 0.061748 -0.022520 -22247.200000 0 0 1
-17.541666 -20.221500 29.305386 39.691620 0.856244 0.740210 0.067680 -0.026783 446877.000000 0 0 1
-16.712266 -19.056100 29.158126 38.634584 0.850833 0.715576 0.070193 -0.024549 344372.000000 0 0 1
-16.332566 -18.413200 30.515926 39.204851 0.845208 0.678729 0.071860 -0.030062 -83767.500000 0 0 1
-15.710066 -17.215500 30.293456 38.221369 0.831089 0.655769 0.082015 -0.030155 -305165.000000 0 0 1
-15.203966 -16.544800 31.434024 38.639214 0.827606 0.620606 0.077500 -0.031945 45316.300000 0 0 1
-14.589466 -15.152500 31.122856 37.564384 0.804327 0.594336 0.091514 -0.037915 -324540.000000 0 0 1
-13.395266 -15.275100 30.411206 36.573259 0.850872 0.588967 0.095700 -0.039671 -586267.000000 0 0 1
-12.945166 -14.038000 29.973176 35.539190 0.825877 0.567246 0.085198 -0.035186 1561790.000000 0 0 1
-11.372566 -13.994000 29.664156 34.714974 0.888375 0.546197 0.111925 -0.035103 1695190.000000 0 0 1
-10.902166 -12.719700 29.244576 33.703015 0.862190 0.520212 0.117992 -0.032581 -968354.000000 0 0 1
-9.609466 -12.532800 29.688446 33.627618 0.916664 0.488881 0.088088 -0.027328 -792894.000000 0 0 1
-9.294366 -11.030800 29.874806 33.174807 0.870624 0.449817 0.061599 -0.015655 -29399.400000 0 0 1
-9.966866 -10.401500 30.964646 34.151704 0.806734 0.435452 0.061298 -0.009792 158956.000000 0 0 1
-9.687866 -9.011200 30.967556 33.675599 0.749227 0.403775 0.037351 -0.004316 -311351.000000 0 0 1
-10.616666 -8.219100 31.881777 34.593567 0.658791 0.398588 0.018302 -0.004461 -602710.000000 0 0 1
-11.895266 -8.030700 31.336142 34.466553 0.593830 0.429497 0.044497 -0.014668 70290.800000 0 0 1
-12.803266 -7.332700 32.225906 35.442928 0.520120 0.429357 0.039934 -0.018592 314924.000000 0 0 1
-12.628566 -5.841200 32.618025 35.461752 0.433232 0.403204 0.022568 -0.022321 -545949.000000 0 0 1
-12.926866 -4.907500 31.591400 34.484837 0.362829 0.412565 0.019232 -0.020558 216382.000000 0 0 1
-12.991666 -3.564500 32.120270 34.831032 0.267779 0.397132 0.034960 -0.025826 -458181.000000 0 0 1
-12.419466 -2.511400 31.171696 33.648549 0.199524 0.386085 0.055664 -0.023885 54322.900000 0 0 1
-11.005766 -2.460100 31.206456 33.181649 0.219913 0.346776 0.056838 -0.021304 351969.000000 0 0 1
-10.466066 -1.363700 30.403176 32.183090 0.129567 0.334136 0.061268 -0.019074 -596995.000000 0 0 1
-9.003366 -1.103100 30.696406 32.008542 0.121913 0.287320 0.085359 -0.024164 -737955.000000 0 0 1
-8.758166 -0.712700 32.034644 33.217944 0.081197 0.267716 0.106594 -0.043043 847004.000000 0 0 1
-7.392466 -0.299000 32.208680 33.047497 0.040425 0.225789 0.132469 -0.043029 728718.000000 0 0 1
-7.037666 0.356400 33.591326 34.322484 -0.050599 0.206779 0.170985 -0.058992 -257235.000000 0 0 1
-7.660366 1.593400 -33.570701 34.470452 -0.205081 2.912610 0.162350 -0.054228 -330686.000000 0 0 1
-6.986666 2.690600 33.277716 34.109518 -0.367600 0.221296 0.167173 -0.051463 -275454.000000 0 0 1
-7.817566 3.966400 33.376836 34.508837 -0.469526 0.256843 0.154716 -0.049697 -161981.000000 0 0 1
-8.893866 4.080900 32.500864 33.942020 -0.430185 0.292449 0.129183 -0.037710 18029.900000 0 0 1
-9.678866 5.223300 32.774523 34.570691 -0.494870 0.323767 0.112097 -0.020883 1072170.000000 0 0 1
-10.806166 5.603200 31.695624 33.952638 -0.478353 0.366675 0.096690 -0.012287 1804680.000000 0 0 1
-11.898066 6.381700 32.255698 34.967415 -0.492314 0.396418 0.098052 -0.015355 1082730.000000 0 0 1
-13.000666 6.352900 31.339743 34.518924 -0.454534 0.432549 0.065000 -0.015346 506387.000000 0 0 1
-13.922266 7.592100 31.408734 35.184912 -0.499244 0.467548 0.070656 -0.022695 207526.000000 0 0 1
-14.695466 7.683200 32.611928 36.585873 -0.481743 0.470415 0.063491 -0.017714 181069.000000 0 0 1
-15.439766 8.873500 32.660639 37.200036 -0.521622 0.499184 0.074111 -0.012044 169068.000000 0 0 1
-16.364466 9.012600 -33.441711 38.306275 -0.503413 2.632134 0.070139 -0.011216 317917.000000 0 0 1
-15.574466 9.225400 -32.259241 36.990953 -0.534769 2.630243 0.069659 -0.014592 13942.200000 0 0 1
-16.287366 9.390900 -31.034441 36.285036 -0.523018 2.596918 0.066484 -0.013876 -1019400.000000 0 0 1
-15.419066 9.449900 -29.720851 34.790475 -0.549830 2.594963 0.083517 -0.025584 769639.000000 0 0 1
-14.515366 10.593200 -29.647041 34.667835 -0.630442 2.596683 0.100039 -0.026923 448262.000000 0 0 1
-13.451366 10.583000 -30.544301 35.012761 -0.666616 2.630839 0.102732 -0.031983 -794966.000000 0 0 1
-12.462666 11.759200 -30.675051 35.136243 -0.756364 2.632181 0.105520 -0.031895 142016.000000 0 0 1
-13.102566 12.896000 -31.248601 36.255470 -0.777453 2.609802 0.103864 -0.037511 350036.000000 0 0 1
-12.214166 13.978400 -31.540381 36.597502 -0.852653 2.609639 0.100853 -0.040790 206707.000000 0 0 1
-12.569666 15.299900 -30.798431 36.614571 -0.883051 2.570207 0.119911 -0.038928 320423.000000 0 0 1
-13.805266 15.902800 -31.160811 37.609580 -0.855886 2.547281 0.104225 -0.036950 352915.000000 0 0 1
-14.079466 16.946800 -30.262481 37.433182 -0.877553 2.512293 0.092250 -0.026333 -387405.000000 0 0 1
-15.506866 17.467200 -30.461651 38.385911 -0.844779 2.487439 0.062679 -0.031143 -480092.000000 0 0 1
-15.611466 18.588400 -31.306541 39.614972 -0.872225 2.482047 0.061507 -0.031630 -351925.000000 0 0 1
-16.934766 18.871700 -31.676301 40.574812 -0.839440 2.466564 0.047965 -0.031000 -146611.000000 0 0 1
-17.553066 19.957600 -30.766071 40.656697 -0.849413 2.429090 0.027405 -0.029552 -275226.000000 0 0 1
-16.992866 21.265900 -30.955131 41.221549 -0.896625 2.420289 0.037348 -0.029423 184313.000000 0 0 1
-17.589766 22.263400 -30.129941 41.386860 -0.902136 2.386207 0.021016 -0.019830 -228428.000000 0 0 1
-18.879066 22.922600 -30.636771 42.667042 -0.881830 2.371783 0.038547 -0.018875 -452157.000000 0 0 1
-19.960566 22.044400 -30.469841 42.576883 -0.834967 2.368340 0.042970 -0.018265 -311850.000000 0 0 1
-21.012766 22.359800 -31.379971 43.888490 -0.816445 2.367411 0.075866 -0.032415 -542236.000000 0 0 1
-22.301666 21.561900 -31.041101 43.884277 -0.768535 2.356524 0.088438 -0.036812 -266838.000000 0 0 1
-23.080766 22.172600 -30.017151 43.879099 -0.765332 2.324149 0.137586 -0.036170 517786.000000 0 0 1
-23.986966 23.170200 -30.505211 45.197352 -0.768080 2.311671 0.142952 -0.034904 1152.890000 0 0 1
-25.350096 22.697200 -31.089371 46.090555 -0.730240 2.311122 0.152080 -0.042974 -310610.000000 0 0 1
-25.252146 22.098300 -32.356241 46.614719 -0.718890 2.337994 0.152742 -0.038317 -177720.000000 0 0 1
-26.497486 21.703300 -32.855931 47.462218 -0.686261 2.335405 0.160768 -0.041387 -416227.000000 0 0 1
-26.429656 20.741300 33.285396 47.293190 -0.665387 0.790050 0.149733 -0.031507 -215872.000000 0 0 1
-25.832896 19.515800 33.625966 46.678802 -0.646988 0.766462 0.142933 -0.031132 194866.000000 0 0 1
-25.728116 18.705400 32.505034 45.479723 -0.628645 0.774580 0.127816 -0.037946 -253242.000000 0 0 1
-25.087486 17.361700 32.849907 44.832209 -0.605368 0.748471 0.104973 -0.018336 -538610.000000 0 0 1
-25.993946 16.383600 33.219146 45.250627 -0.562391 0.746434 0.101467 -0.016504 25030.200000 0 0 1
-26.579356 15.669200 32.126455 44.543183 -0.532682 0.765201 0.101657 -0.011553 -152244.000000 0 0 1
-27.360006 14.404000 32.522165 44.874674 -0.484592 0.760149 0.070102 -0.009292 -95485.600000 0 0 1
-28.634746 14.765900 33.013547 46.128893 -0.476100 0.773198 0.078189 -0.008533 -448529.000000 0 0 1
-29.638586 13.797000 33.035404 46.477316 -0.435675 0.780182 0.072723 -0.008072 -294442.000000 0 0 1
-29.572876 12.533100 -33.409731 46.344835 -0.400857 2.375888 0.072326 -0.011061 -687776.000000 0 0 1
-28.588296 11.631400 33.498116 45.548918 -0.386405 0.744493 0.068817 -0.013846 -447455.000000 0 0 1
-28.769976 10.266300 -33.464501 45.309836 -0.342756 2.401744 0.081661 -0.015188 -24505.800000 0 0 1
-27.514866 9.335500 -33.416231 44.281643 -0.327101 2.425885 0.072945 -0.018635 522515.000000 0 0 1
-26.798566 9.191800 32.698049 43.264474 -0.330422 0.713965 0.061247 -0.016426 1182870.000000 0 0 1
-25.724166 10.164600 32.434040 42.626503 -0.376308 0.706114 0.054552 -0.014341 468373.000000 0 0 1
-24.485966 9.444700 31.914475 41.319470 -0.368135 0.688211 0.048699 -0.009282 -613291.000000 0 0 1
-24.682566 9.115300 30.573936 40.337121 -0.353765 0.710616 0.054019 -0.008285 604805.000000 0 0 1
-23.487266 8.748200 29.862756 38.986752 -0.356547 0.698245 0.053182 -0.011490 677048.000000 0 0 1
-23.674666 8.789100 28.310526 37.937105 -0.355475 0.728387 0.076159 -0.015445 -107204.000000 0 0 1
-23.782266 10.095000 27.768766 37.929007 -0.401427 0.749360 0.078816 -0.015775 132803.000000 0 0 1
-23.710666 10.171500 26.344996 36.874299 -0.405240 0.774953 0.073775 -0.016165 -1486860.000000 0 0 1
-23.926166 11.666000 25.966316 37.186107 -0.453665 0.797804 0.077005 -0.014970 345211.000000 0 0 1
-25.240826 12.200800 26.016926 38.247082 -0.450260 0.822716 0.079950 -0.015023 454112.000000 0 0 1
-26.163966 11.514800 25.142716 38.069672 -0.414592 0.849392 0.084472 -0.014420 537683.000000 0 0 1
-27.609826 12.152200 25.233576 39.328257 -0.414625 0.874195 0.090530 -0.010585 777990.000000 0 0 1
-27.736276 13.453400 24.713276 39.510011 -0.451614 0.895032 0.096199 -0.016729 -488374.000000 0 0 1
-28.946236 14.094400 25.004566 40.764752 -0.453126 0.910454 0.089564 -0.018620 -332902.000000 0 0 1
-29.098066 15.424500 24.227896 40.885249 -0.487426 0.936535 0.103005 -0.026377 -231254.000000 0 0 1
-28.194646 16.437000 24.609556 40.874727 -0.527813 0.924702 0.113847 -0.025175 -103450.000000 0 0 1
-28.233246 17.592600 23.865176 40.940962 -0.557244 0.948482 0.092411 -0.030894 -221804.000000 0 0 1
-23.740566 -8.843200 31.517134 40.436943 0.356571 0.677066 0.102063 -0.026447 334317.000000 0 0 1
-22.710566 -8.127500 30.818406 39.135664 0.343671 0.664093 0.110755 -0.033787 619403.000000 0 0 1
-22.880766 -8.310700 29.434306 38.196538 0.348401 0.691012 0.109428 -0.037487 196651.000000 0 0 1
-21.599366 -7.968200 28.629996 36.738283 0.353420 0.677255 0.129850 -0.035724 -1033190.000000 0 0 1
-21.237966 -6.560900 28.639556 36.253562 0.299623 0.660021 0.128571 -0.033415 -704196.000000 0 0 1
-19.877366 -6.311400 28.727956 35.499843 0.307449 0.627936 0.123463 -0.029256 -254875.000000 0 0 1
-18.884066 -6.875200 27.614986 34.153532 0.349158 0.629105 0.122618 -0.038118 -731648.000000 0 0 1
-18.648766 -8.266500 27.571856 34.297503 0.417246 0.636968 0.120339 -0.035873 284802.000000 0 0 1
-18.168866 -8.902900 28.803206 35.199346 0.455623 0.612370 0.114085 -0.034681 -1708330.000000 0 0 1
-16.776666 -8.623800 29.253786 34.808195 0.474813 0.572724 0.092832 -0.033982 -1158050.000000 0 0 1
-15.695866 -9.324400 28.642476 33.966102 0.536046 0.567464 0.078651 -0.026054 1080840.000000 0 0 1
-14.433366 -8.756900 29.069526 33.616107 0.545340 0.526144 0.070860 -0.026190 2084010.000000 0 0 1
-13.150966 -9.556600 28.550656 32.854474 0.628411 0.517611 0.070126 -0.018347 998856.000000 0 0 1
-12.822366 -9.297000 27.233126 31.503816 0.627348 0.526763 0.091489 -0.026791 -764068.000000 0 0 1
-11.677866 -9.999600 26.920246 31.001035 0.708132 0.518898 0.096328 -0.029055 -431851.000000 0 0 1
-11.159866 -9.840500 25.438556 29.470293 0.722655 0.529236 0.084864 -0.030017 232285.000000 0 0 1
-12.131866 -10.331400 24.542686 29.261979 0.705418 0.575863 0.090208 -0.035074 -85136.400000 0 0 1
-11.847166 -9.973400 23.238046 27.925451 0.699737 0.587830 0.107204 -0.039035 -293395.000000 0 0 1
-12.838966 -10.526700 22.243126 27.756208 0.686759 0.641206 0.134654 -0.052186 -1005070.000000 0 0 1
-12.945666 -11.925700 22.121866 28.269940 0.744411 0.672089 0.117545 -0.045902 -16518.400000 0 0 1
-14.060266 -12.492400 21.455666 28.532380 0.726419 0.719742 0.110777 -0.045513 460523.000000 0 0 1
-15.397466 -12.304300 22.231616 29.710646 0.674199 0.725344 0.119428 -0.046353 -1103410.000000 0 0 1
-16.529966 -12.931700 21.719266 30.202568 0.663866 0.768261 0.081971 -0.032363 -611557.000000 0 0 1
-17.495466 -12.740600 22.726026 31.382901 0.629417 0.760991 0.082632 -0.026623 -650389.000000 0 0 1
-18.875666 -13.351600 22.483256 32.249849 0.615638 0.799370 0.093596 -0.026886 -785377.000000 0 0 1
-18.879066 -14.773200 22.446406 32.840641 0.663990 0.818257 0.080313 -0.016498 -38423.000000 0 0 1
-20.176566 -15.269200 22.672826 33.974981 0.647826 0.840166 0.077913 -0.010074 -28310.900000 0 0 1
-20.902066 -15.070000 24.022706 35.229131 0.624669 0.820441 0.078085 -0.014636 -431701.000000 0 0 1
-20.375266 -15.878800 25.031016 35.969980 0.662002 0.801143 0.077549 -0.008393 -120064.000000 0 0 1
-21.185666 -15.815100 26.172316 37.201343 0.641257 0.790442 0.080136 -0.016935 13482.100000 0 0 1
-20.880966 -16.889200 27.270136 38.274275 0.680103 0.777752 0.083297 -0.020106 55877.800000 0 0 1
-21.240566 -18.216300 26.883046 38.803265 0.708900 0.805427 0.089408 -0.013998 124265.000000 0 0 1
-20.980066 -19.074700 27.999136 39.849203 0.737865 0.791713 0.075230 -0.015684 -513039.000000 0 0 1
-20.861066 -20.543600 27.601866 40.237875 0.777731 0.814864 0.075423 -0.011402 881498.000000 0 0 1
-22.144466 -21.138000 27.304966 41.021379 0.762149 0.842462 0.080390 -0.008521 733667.000000 0 0 1
-22.036666 -22.521000 27.046286 41.524832 0.796268 0.861463 0.085272 -0.002412 151473.000000 0 0 1
-23.383366 -23.058400 26.517986 42.209894 0.778401 0.891506 0.088724 0.000137 216699.000000 0 0 1
-24.250466 -23.563900 27.512896 43.592452 0.771040 0.887776 0.082421 0.000436 -991693.000000 0 0 1
-25.484026 -23.871400 27.000066 44.139357 0.752736 0.912588 0.065773 0.001466 -831257.000000 0 0 1
-26.245456 -24.909600 27.864296 45.669805 0.759290 0.914578 0.040164 0.002989 -371624.000000 0 0 1
-26.705146 -24.462700 29.118216 46.469979 0.741601 0.893610 0.034005 0.010696 80681.600000 0 0 1
-27.328036 -25.554930 29.774076 47.816018 0.751882 0.898633 0.017595 0.017821 289989.000000 0 0 1
-28.483136 -25.054980 30.713976 48.809726 0.721453 0.890196 0.025973 0.005792 -236222.000000 0 0 1
-29.441386 -24.358600 30.019756 48.593439 0.691202 0.904888 0.023433 0.004521 -829347.000000 0 0 1
-30.203016 -23.560000 30.877096 49.200516 0.662460 0.892360 0.041132 -0.012863 -1098550.000000 0 0 1
-31.457686 -22.965100 30.266666 49.325986 0.630598 0.910178 0.052357 -0.020943 -762430.000000 0 0 1
-32.363536 -24.033300 30.035326 50.270456 0.638751 0.930448 0.057431 -0.020469 -293437.000000 0 0 1
-33.396266 -23.621700 29.193776 50.255068 0.615619 0.950948 0.051841 -0.021121 81229.300000 0 0 1
-34.806579 -24.242900 29.442276 51.633940 0.608375 0.964033 0.062831 -0.024771 465644.000000 0 0 1
-34.887467 -25.626620 29.203576 52.217888 0.633540 0.977299 0.068411 -0.028919 -790033.000000 0 0 1
-35.993696 -26.111050 29.870356 53.568379 0.627593 0.979290 0.073754 -0.026431 -503802.000000 0 0 1
-36.132226 -27.638540 30.106096 54.550927 0.652987 0.986168 0.081849 -0.027569 -216086.000000 0 0 1
-35.194329 -28.044820 31.058316 54.678805 0.672821 0.966706 0.077591 -0.026936 -176129.000000 0 0 1
-35.041605 -29.434700 31.165996 55.368176 0.698656 0.972922 0.077937 -0.035374 -321583.000000 0 0 1
-34.122610 -29.846430 32.305239 55.666780 0.718650 0.951659 0.080980 -0.027112 -388977.000000 0 0 1
-34.553515 -29.684950 33.641036 56.629153 0.709754 0.934701 0.087640 -0.023159 -437488.000000 0 0 1
-33.531346 -30.065770 -32.833591 55.734606 0.730959 2.200748 0.078012 -0.022786 -122101.000000 0 0 1
-33.972871 -29.879400 -31.330971 55.032392 0.721377 2.176473 0.081622 -0.024871 61714.000000 0 0 1
-34.023375 -28.542470 -30.858581 54.078782 0.698019 2.178060 0.069730 -0.017233 61302.800000 0 0 1
-32.749366 -27.916040 -30.853301 52.950471 0.705894 2.192822 0.071480 -0.018707 167653.000000 0 0 1
-32.784806 -26.402040 -30.591711 52.036179 0.677972 2.199248 0.064534 -0.019237 -41195.600000 0 0 1
-33.343256 -26.072240 -29.343491 51.503154 0.663628 2.176988 0.060886 -0.035920 -234667.000000 0 0 1
-33.316176 -24.672700 -29.187821 50.701465 0.637433 2.184232 0.063611 -0.027106 579031.000000 0 0 1
-32.008466 -24.006700 -28.628501 49.198116 0.643508 2.191862 0.077071 -0.035587 444281.000000 0 0 1
-32.055226 -22.570600 -28.597841 48.526343 0.613483 2.201021 0.078261 -0.030506 772033.000000 0 0 1
-30.895486 -22.170900 -27.833711 47.125315 0.622447 2.202638 0.101171 -0.032965 770887.000000 0 0 1
-30.565336 -20.664300 -27.996511 46.314767 0.594484 2.219914 0.106463 -0.038133 -59167.000000 0 0 1
-30.136546 -20.369400 -29.308581 46.713132 0.594370 2.249027 0.108871 -0.028387 260578.000000 0 0 1
-29.856206 -19.000800 -29.346631 45.974429 0.566762 2.263117 0.093923 -0.032963 -306642.000000 0 0 1
-29.414796 -18.434700 -30.782881 46.396704 0.559832 2.296245 0.106385 -0.021325 388806.000000 0 0 1
-30.337546 -18.250100 -31.882611 47.643821 0.541572 2.303910 0.092713 -0.024459 384925.000000 0 0 1
-31.304036 -17.262900 -31.596271 47.710321 0.503963 2.294617 0.094443 -0.027698 -1085250.000000 0 0 1
-31.892836 -16.531900 -32.758311 48.616495 0.478226 2.310150 0.084781 -0.030823 379.232000 0 0 1
-32.882546 -17.116400 -33.603081 50.033988 0.479938 2.307169 0.089649 -0.032140 335745.000000 0 0 1
-34.171124 -16.927100 -33.065881 50.473210 0.459931 2.285134 0.096887 -0.035046 -643292.000000 0 0 1
-35.346981 -17.354500 33.396816 51.632693 0.456402 0.867395 0.106994 -0.037769 -286490.000000 0 0 1
-35.686490 -18.687700 33.571436 52.438507 0.482398 0.876030 0.095168 -0.040711 91999.000000 0 0 1
-36.341716 -19.262100 32.461278 52.397360 0.487380 0.902664 0.101244 -0.045516 -408301.000000 0 0 1
-36.672686 -20.766000 32.628255 53.298364 0.515235 0.911980 0.097107 -0.039341 328597.000000 0 0 1
-35.589857 -21.649100 32.346400 52.740980 0.546496 0.910556 0.093026 -0.033886 406999.000000 0 0 1
-35.911431 -22.918500 32.872606 53.809820 0.568032 0.913595 0.095066 -0.032998 -121700.000000 0 0 1
-34.619602 -23.645700 33.266446 53.519084 0.599235 0.900037 0.095396 -0.028761 -126400.000000 0 0 1
-33.785526 -23.260400 -33.045451 52.673615 0.602947 2.248958 0.077114 -0.039595 -84280.800000 0 0 1
-32.859626 -22.224600 -33.252741 51.763236 0.594676 2.268423 0.068339 -0.034652 318449.000000 0 0 1
-31.527446 -22.261800 -32.421391 50.405497 0.614814 2.269481 0.073232 -0.023724 372762.000000 0 0 1
-30.654686 -23.313500 -32.828691 50.605849 0.650200 2.276689 0.058289 -0.022350 -207936.000000 0 0 1
-29.341916 -23.127700 -32.384951 49.443135 0.667513 2.284971 0.064264 -0.022885 -189616.000000 0 0 1
-29.074786 -23.658900 -30.962121 48.618306 0.683054 2.261190 0.073875 -0.017998 -812117.000000 0 0 1
-28.945276 -25.049910 -30.903181 49.196886 0.713380 2.249974 0.073384 -0.028358 -42505.600000 0 0 1
-28.403166 -25.509970 -29.689031 48.362557 0.731786 2.231769 0.067677 -0.034001 -117638.000000 0 0 1
-28.205536 -27.031460 -29.497641 48.952660 0.764146 2.217520 0.076467 -0.034034 88922.100000 0 0 1
-29.363806 -27.827880 -29.629931 50.145357 0.758549 2.202947 0.056042 -0.018366 287068.000000 0 0 1
-28.967916 -29.130820 -29.240821 50.425890 0.788202 2.189374 0.059445 -0.013449 287929.000000 0 0 1
-29.856216 -30.238340 -29.875171 51.944939 0.791757 2.183561 0.066658 0.003839 118378.000000 0 0 1
-29.604696 -30.249550 -31.283641 52.632114 0.796171 2.207295 0.083987 -0.023598 232610.000000 0 0 1
-29.992336 -31.488380 -31.775531 53.858543 0.809727 2.201832 0.110379 -0.012783 -432293.000000 0 0 1
-29.277896 -31.883820 -33.058641 54.466934 0.827980 2.223012 0.083940 -0.022943 213727.000000 0 0 1
-27.865056 -32.028890 -32.907431 53.714152 0.854807 2.230193 0.084486 -0.021696 336073.000000 0 0 1
-27.415466 -32.667000 33.248466 54.075883 0.872582 0.908603 0.098820 -0.024996 -40966.400000 0 0 1
-25.903086 -32.980070 33.137951 53.448841 0.905011 0.902062 0.110470 -0.025696 182595.000000 0 0 1
-25.667926 -33.529390 31.883611 52.911502 0.917427 0.924062 0.104281 -0.018267 142789.000000 0 0 1
-24.513966 33.290679 31.881829 52.207804 -0.936081 0.913888 0.102006 -0.010682 16471.200000 0 0 1
-24.524066 32.483004 30.582916 50.910609 -0.924115 0.926397 0.094734 -0.020892 -259583.000000 0 0 1
-25.689786 31.703362 30.495466 50.941552 -0.889796 0.928999 0.092370 -0.038897 -194166.000000 0 0 1
-25.556256 30.761615 29.426456 49.651943 -0.877564 0.936446 0.089663 -0.030671 -160131.000000 0 0 1
-26.862276 30.118935 28.931616 49.656525 -0.842489 0.948830 0.091422 -0.029570 -91531.000000 0 0 1
-27.457456 29.181725 29.833346 49.955114 -0.815832 0.930787 0.094726 -0.037937 -932030.000000 0 0 1
-28.688226 28.774805 29.404496 50.156037 -0.786905 0.944361 0.094572 -0.041260 -917345.000000 0 0 1
-29.383896 27.799305 30.399696 50.599962 -0.757694 0.926314 0.105150 -0.049863 -229455.000000 0 0 1
-28.710406 26.572155 30.484006 49.594772 -0.746739 0.908839 0.099399 -0.050889 33740.600000 0 0 1
-29.402676 25.484085 31.058676 49.785513 -0.714125 0.897138 0.095108 -0.043499 128391.000000 0 0 1
-30.450506 24.773275 30.204776 49.530566 -0.682954 0.914962 0.097227 -0.037274 725546.000000 0 0 1
-29.722716 24.028975 29.188596 48.091637 -0.679865 0.918595 0.076954 -0.030796 419406.000000 0 0 1
-30.632176 23.377095 28.341146 47.833454 -0.651867 0.936642 0.070647 -0.017612 270473.000000 0 0 1
-30.030736 23.097405 26.906526 46.468229 -0.655629 0.953257 0.075396 -0.030491 -233256.000000 0 0 1
-28.925706 22.264215 26.939416 45.366550 -0.655992 0.935002 0.073966 -0.030107 -522461.000000 0 0 1
-28.289156 22.059215 25.690396 44.123483 -0.662287 0.949317 0.080471 -0.024779 -166074.000000 0 0 1
-26.901276 21.402115 25.819686 42.992852 -0.672040 0.926598 0.086895 -0.025348 -263220.000000 0 0 1
-26.872516 20.120115 26.337836 42.668873 -0.642684 0.905540 0.095616 -0.033923 346567.000000 0 0 1
-25.568816 19.624215 26.599116 41.789797 -0.654611 0.880847 0.090921 -0.023707 6713.780000 0 0 1
-25.473106 18.201415 27.281976 41.526821 -0.620414 0.854000 0.107442 -0.031419 -652521.000000 0 0 1
-24.198566 17.649215 27.322586 40.541202 -0.630153 0.831259 0.098298 -0.020499 -325005.000000 0 0 1
-24.206166 16.796515 28.417146 40.934039 -0.606616 0.803463 0.090596 -0.011401 -449812.000000 0 0 1
-22.883866 16.040815 28.573666 39.967905 -0.611374 0.774293 0.080118 -0.010881 -580981.000000 0 0 1
-21.835566 16.732515 29.153026 40.083262 -0.653849 0.756400 0.113549 -0.008750 -906060.000000 0 0 1
-20.654966 15.998615 29.170386 39.159861 -0.659038 0.730404 0.093325 -0.008203 -347861.000000 0 0 1
-19.640566 16.494515 30.218866 39.635851 -0.698554 0.703763 0.079717 -0.014618 -365830.000000 0 0 1
-19.896066 16.063415 31.538805 40.602745 -0.679217 0.681283 0.070476 -0.008814 330053.000000 0 0 1
-18.798666 16.224715 32.425418 40.841632 -0.712038 0.653550 0.060786 -0.012324 -54250.900000 0 0 1
-19.243066 15.911115 -33.475041 41.761675 -0.690899 2.500718 0.052713 -0.016748 597042.000000 0 0 1
-20.044166 16.853415 -32.715061 41.905625 -0.699137 2.466556 0.064460 -0.027700 728598.000000 0 0 1
-21.443766 16.761015 -32.934131 42.724977 -0.663437 2.450955 0.073090 -0.024609 -15407.500000 0 0 1
-22.297066 17.602115 -31.984091 42.778215 -0.668266 2.415346 0.092495 -0.029215 -145955.000000 0 0 1
-22.400166 16.979115 -30.693011 41.618730 -0.648595 2.400129 0.082764 -0.031675 95761.900000 0 0 1
-23.146366 17.792615 -29.819281 41.731534 -0.655362 2.366777 0.095547 -0.032926 -839915.000000 0 0 1
-23.150766 17.294515 -28.401451 40.517905 -0.641603 2.347540 0.090618 -0.029682 23635.600000 0 0 1
-24.021166 16.202415 -28.057221 40.332893 -0.593410 2.340108 0.089190 -0.031215 283729.000000 0 0 1
-25.395446 16.404115 -28.308681 41.417449 -0.573521 2.323338 0.114609 -0.030914 -722279.000000 0 0 1
-26.336936 15.517715 -27.533701 41.140471 -0.532440 2.304010 0.111489 -0.032726 -233833.000000 0 0 1
-26.179906 14.142115 -27.884161 40.778834 -0.495280 2.323741 0.075554 -0.024016 -27722.000000 0 0 1
-27.048606 13.303715 -27.160271 40.574576 -0.457102 2.304186 0.068471 -0.024059 74187.300000 0 0 1
-26.560726 11.821215 -27.219991 39.826388 -0.418741 2.323297 0.071934 -0.023389 222816.000000 0 0 1
-25.399086 11.561815 -26.454181 38.452735 -0.427175 2.329479 0.065922 -0.029648 163812.000000 0 0 1
-24.824766 10.287215 -26.823051 37.968037 -0.392852 2.355286 0.054638 -0.020604 468757.000000 0 0 1
-23.585666 9.823415 -26.011141 36.460424 -0.394649 2.365145 0.078656 -0.022796 247155.000000 0 0 1
-24.018066 9.149015 -24.866271 35.761759 -0.363953 2.339677 0.087967 -0.010826 -67870.100000 0 0 1
-22.924866 8.549315 -24.223571 34.429953 -0.356953 2.351192 0.113950 -0.003856 -489656.000000 0 0 1
-23.219866 7.287315 -23.351971 33.728055 -0.304105 2.335552 0.115715 -0.009222 -72352.400000 0 0 1
-23.482566 6.131015 -24.102371 34.204452 -0.255387 2.352734 0.118136 -0.025891 59935.200000 0 0 1
-23.898666 5.101815 -23.305471 33.768620 -0.210320 2.332495 0.114284 -0.014318 -310185.000000 0 0 1
36.154567 24.448200 -9.673471 44.703951 0.594583 1.788911 0.044396 0.007947 485072.000000 0 0 1
36.981427 23.909400 -8.633471 44.875630 0.573928 1.764390 0.054101 0.000496 450528.000000 0 0 1
-37.798336 23.107900 -9.131571 45.233559 -0.548721 1.774069 0.074569 -0.002180 620752.000000 0 0 1
-36.878076 22.423000 -8.068471 43.907672 -0.546303 1.755606 0.131100 -0.007036 108148.000000 0 0 1
-37.453476 21.355200 -7.368871 43.739087 -0.518204 1.740077 0.070251 -0.011772 -99407.400000 0 0 1
-36.534036 20.774300 -6.455471 42.520353 -0.517033 1.723206 0.164567 -0.023767 -7150.430000 0 0 1
-37.126496 19.798100 -5.385171 42.418646 -0.489901 1.698093 0.108224 -0.010728 -73381.700000 0 0 1
-37.634586 18.609900 -6.008471 42.412170 -0.459229 1.712943 0.068790 -0.010736 409502.000000 0 0 1
37.869897 17.610600 -5.016271 42.064537 0.435282 1.690333 0.086454 -0.021070 -542258.000000 0 0 1
37.070487 16.566200 -5.735171 41.006733 0.420259 1.711116 0.064534 -0.011143 -508198.000000 0 0 1
35.816637 16.994600 -6.200971 40.126051 0.443031 1.725955 0.056300 -0.007426 -63789.900000 0 0 1
35.285517 16.108900 -7.178771 39.447422 0.428271 1.753799 0.067775 -0.013492 -516128.000000 0 0 1
34.099147 16.549600 -7.995571 38.737194 0.451849 1.778696 0.047114 -0.020359 -712382.000000 0 0 1
33.638027 15.499400 -8.775871 38.062635 0.431774 1.803454 0.066663 -0.024051 -312689.000000 0 0 1
32.999227 15.905200 -9.926171 37.953303 0.449134 1.835410 0.034098 -0.023435 -867260.000000 0 0 1
32.724577 14.674500 -10.849371 37.469290 0.421543 1.864557 0.061878 -0.034017 547673.000000 0 0 1
31.603817 13.788900 -10.613771 36.077516 0.411407 1.869408 0.068777 -0.034306 1001550.000000 0 0 1
31.425097 13.336200 -9.278571 35.376303 0.401346 1.836183 0.076441 -0.031924 -228464.000000 0 0 1
30.422157 12.152900 -9.203971 34.028131 0.380054 1.844689 0.092147 -0.024030 -58313.000000 0 0 1
31.034447 11.022400 -9.694771 34.331018 0.341270 1.857082 0.094047 -0.022900 -162608.000000 0 0 1
30.137457 9.969700 -9.776171 33.214978 0.319476 1.869551 0.142481 -0.022927 -596439.000000 0 0 1
30.649457 8.901400 -10.708671 33.664518 0.282650 1.894521 0.135836 -0.026645 361271.000000 0 0 1
31.756907 8.100000 -10.195071 34.322742 0.249738 1.872383 0.113781 -0.028929 858910.000000 0 0 1
31.415317 6.989300 -9.398671 33.527712 0.218915 1.854929 0.144454 -0.027065 -770876.000000 0 0 1
32.468827 6.657000 -8.340871 34.177631 0.202225 1.817331 0.164580 -0.023705 -849867.000000 0 0 1
33.731907 6.482000 -8.883871 35.479304 0.189848 1.823885 0.139080 -0.021901 -999931.000000 0 0 1
34.626767 6.002100 -7.932271 36.027199 0.171632 1.792790 0.135228 -0.017373 995744.000000 0 0 1
36.137877 6.293600 -8.353871 37.621041 0.172426 1.794716 0.128423 -0.016304 1190020.000000 0 0 1
36.502227 5.545600 -9.467471 38.115604 0.150772 1.821812 0.145092 -0.027390 421359.000000 0 0 1
37.891197 5.769900 -9.702171 39.536902 0.151115 1.818724 0.156896 -0.029456 -189406.000000 0 0 1
-37.386676 4.894100 -10.785171 39.217798 -0.130165 1.849393 0.149817 -0.042423 -193434.000000 0 0 1
-36.019016 4.673700 -11.050371 37.964769 -0.129036 1.866140 0.178411 -0.050841 528105.000000 0 0 1
-35.246970 5.739600 -11.637871 37.559712 -0.161423 1.885831 0.176879 -0.051283 81771.200000 0 0 1
-34.423480 6.517000 -10.576671 36.596629 -0.187104 1.863985 0.166109 -0.036442 -689414.000000 0 0 1
-35.132681 7.497600 -9.841871 37.247573 -0.210254 1.838200 0.158214 -0.027328 354240.000000 0 0 1
-35.534571 8.664300 -10.566271 38.071274 -0.239161 1.852028 0.153456 -0.032641 -102343.000000 0 0 1
-36.371866 9.643400 -9.714671 38.862355 -0.259170 1.823452 0.131221 -0.024959 339952.000000 0 0 1
-35.661832 10.347600 -8.702171 38.138784 -0.282404 1.800995 0.128741 -0.016767 829077.000000 0 0 1
-36.632526 11.200300 -8.059971 39.145266 -0.296721 1.778179 0.107681 -0.025613 670519.000000 0 0 1
-36.050136 12.092600 -6.957971 38.655616 -0.323644 1.751782 0.131589 -0.032487 73150.900000 0 0 1
-35.097199 13.034000 -7.410771 38.165666 -0.355583 1.766211 0.139423 -0.030791 -115071.000000 0 0 1
-34.975676 14.196800 -6.558771 38.312720 -0.385586 1.742834 0.167044 -0.036463 440091.000000 0 0 1
-33.937336 15.249200 -7.045371 37.867111 -0.422300 1.757942 0.134572 -0.025403 165063.000000 0 0 1
-34.513845 15.946400 -8.109571 38.874906 -0.432812 1.780947 0.109839 -0.025142 25077.000000 0 0 1
-34.422676 17.366100 -7.925071 39.361260 -0.467238 1.773524 0.093741 -0.020395 76681.200000 0 0 1
-34.954330 18.063000 -9.209671 40.409098 -0.476966 1.800728 0.087862 -0.014172 282442.000000 0 0 1
-34.133306 17.962300 -10.374371 39.941887 -0.484418 1.833546 0.072163 -0.013096 34782.500000 0 0 1
-34.924653 18.170100 -11.543771 41.026120 -0.479728 1.856024 0.062607 -0.013136 153212.000000 0 0 1
-34.211917 18.318800 -12.910571 40.898857 -0.491604 1.891960 0.032111 0.000046 -103064.000000 0 0 1
-33.468136 19.513800 -13.085971 40.891896 -0.527868 1.896540 0.038805 -0.006899 153825.000000 0 0 1
-33.029706 19.749600 -14.422771 41.097743 -0.538899 1.929369 0.011416 -0.003533 28846.100000 0 0 1
-32.167226 21.019200 -14.675771 41.132900 -0.578786 1.935625 0.022878 -0.003892 -18212.500000 0 0 1
-30.817286 20.923600 -14.249871 39.881838 -0.596463 1.936174 0.048329 -0.006205 302666.000000 0 0 1
-30.149056 22.176900 -14.198671 40.029773 -0.634205 1.933392 0.068440 -0.008733 182282.000000 0 0 1
-29.540756 22.666400 -15.557371 40.354104 -0.654477 1.966569 0.062464 -0.014425 -750169.000000 0 0 1
-30.512996 23.000200 -16.549271 41.640491 -0.645918 1.979513 0.061206 0.002161 129198.000000 0 0 1
-30.006546 23.596700 -17.699971 42.077144 -0.666384 2.004964 0.076354 -0.001198 -396049.000000 0 0 1
-29.392936 24.969800 -17.655071 42.416237 -0.704214 2.000096 0.088559 -0.004973 448766.000000 0 0 1
-30.306216 25.984900 -17.214271 43.474278 -0.708781 1.977914 0.118178 -0.014629 415920.000000 0 0 1
-29.614316 27.208900 -17.263771 43.764937 -0.743092 1.976283 0.119524 -0.023012 202521.000000 0 0 1
-30.459826 28.430500 -16.783871 44.919847 -0.750952 1.953727 0.122334 -0.022035 -4389.920000 0 0 1
-30.379536 28.827300 -15.441871 44.636093 -0.759187 1.924048 0.114182 -0.022737 740375.000000 0 0 1
-29.174646 29.548900 -15.146271 44.200758 -0.791771 1.920554 0.105437 -0.023615 467536.000000 0 0 1
-29.193996 30.167900 -13.727471 44.168258 -0.801803 1.886830 0.121855 -0.014382 -263964.000000 0 0 1
-30.243686 31.063300 -13.453971 45.394036 -0.798766 1.871698 0.109557 -0.011282 -211010.000000 0 0 1
-30.063836 31.895400 -12.280171 45.518715 -0.814950 1.843964 0.113378 -0.016443 -540003.000000 0 0 1
-29.054806 33.012600 -12.297071 45.664335 -0.849078 1.843455 0.099597 -0.028386 -327234.000000 0 0 1
-29.266086 -33.746514 -13.399371 46.635546 0.856382 1.862225 0.093785 -0.039433 -851998.000000 0 0 1
-28.519596 -32.654914 -13.205471 45.322127 0.852894 1.866454 0.099990 -0.040882 -631828.000000 0 0 1
-28.494006 -31.710614 -14.417671 45.003785 0.838775 1.896912 0.087737 -0.036037 -185393.000000 0 0 1
-27.791606 -32.358814 -15.437571 45.362813 0.861183 1.918046 0.072628 -0.041989 -208454.000000 0 0 1
-28.022186 -31.789714 -16.717871 45.555637 0.848305 1.946554 0.075127 -0.029040 -76914.000000 0 0 1
-27.154906 -32.378214 -17.855571 45.875474 0.872912 1.970579 0.077642 -0.026251 -359737.000000 0 0 1
-27.474976 -33.711214 -18.247071 47.162229 0.886970 1.968064 0.081991 -0.013760 -119165.000000 0 0 1
-26.953926 32.853500 -17.508271 45.960920 -0.883723 1.961607 0.063363 -0.034402 -705010.000000 0 0 1
-27.169486 31.450000 -18.163471 45.356313 -0.858291 1.982817 0.083485 -0.046470 373856.000000 0 0 1
-28.490106 31.002500 -18.430471 45.962195 -0.827603 1.983396 0.116583 -0.038579 439722.000000 0 0 1
-29.170816 31.671000 -19.507871 47.270982 -0.826468 1.996193 0.116303 -0.026862 -469550.000000 0 0 1
-30.675576 31.482200 -19.665971 48.154650 -0.798374 1.991488 0.124345 -0.039908 -359009.000000 0 0 1
-31.040756 30.167400 -20.068071 47.710880 -0.771131 2.004923 0.123931 -0.045128 980153.000000 0 0 1
-32.448796 30.130000 -20.358271 48.736028 -0.748361 2.001737 0.123321 -0.042714 662417.000000 0 0 1
-32.907726 28.718500 -20.746771 48.353895 -0.717525 2.014249 0.119717 -0.038436 1127620.000000 0 0 1
-34.322487 28.669000 -21.100871 49.448877 -0.695888 2.011660 0.109580 -0.036127 1621340.000000 0 0 1
-34.606241 27.389600 -21.639271 49.153231 -0.669514 2.026663 0.111224 -0.031004 428260.000000 0 0 1
-36.110966 26.916600 -21.526171 49.918747 -0.640541 2.016645 0.104444 -0.023871 598837.000000 0 0 1
-36.792086 27.594300 -22.557771 51.224565 -0.643505 2.026807 0.097018 -0.022876 -361024.000000 0 0 1
-37.745316 26.649200 -23.017271 51.620572 -0.614759 2.032968 0.095423 -0.018685 181739.000000 0 0 1
37.270647 27.204500 -24.236571 52.120987 0.630524 2.054438 0.112002 -0.019080 315705.000000 0 0 1
37.921377 26.996900 -25.472511 53.063285 0.618680 2.071497 0.112268 -0.031193 -316410.000000 0 0 1
37.189507 27.594300 -26.504181 53.357065 0.638356 2.090626 0.135611 -0.022339 27058.800000 0 0 1
37.900597 27.549500 -27.872231 54.518726 0.628545 2.107425 0.134677 -0.027721 222491.000000 0 0 1
37.901647 26.207900 -28.225461 54.037630 0.604979 2.120377 0.091464 -0.016978 -111952.000000 0 0 1
-37.481026 26.116000 -29.586981 54.426668 -0.608561 2.145531 0.071083 -0.014634 -453017.000000 0 0 1
-36.816726 24.721200 -29.853061 53.458529 -0.591318 2.163293 0.059044 -0.009607 -223273.000000 0 0 1
-35.618944 24.528100 -29.182471 52.172344 -0.603051 2.164395 0.067760 -0.008182 -252221.000000 0 0 1
-34.453270 25.093000 -29.827591 52.022799 -0.629481 2.181393 0.057750 -0.006361 106806.000000 0 0 1
-33.217756 24.721600 -28.994501 50.549559 -0.639797 2.181673 0.054162 -0.005166 -466212.000000 0 0 1
-32.653796 23.448700 -29.225811 49.701710 -0.622771 2.199410 0.069297 -0.007364 -169143.000000 0 0 1
-33.290146 22.423500 -28.536681 49.248242 -0.592772 2.188845 0.038440 0.001437 -574959.000000 0 0 1
-32.898316 21.000400 -28.869241 48.546360 -0.568137 2.207656 0.054699 -0.013966 -932591.000000 0 0 1
-31.512506 20.860600 -28.848151 47.543858 -0.584750 2.222786 0.099974 -0.017803 -524476.000000 0 0 1
-31.243876 19.477800 -28.897301 46.804043 -0.557456 2.236243 0.090648 -0.021222 -570926.000000 0 0 1
-29.793706 19.081800 -29.166641 45.852731 -0.569642 2.260222 0.121200 -0.026600 -879301.000000 0 0 1
-29.344986 19.425600 -30.443511 46.532671 -0.584746 2.283973 0.123511 -0.028003 824354.000000 0 0 1
-27.979676 19.026000 -30.649351 45.653408 -0.597172 2.306823 0.134105 -0.031402 915226.000000 0 0 1
-28.027596 17.576000 -31.267651 45.520632 -0.560105 2.327997 0.127043 -0.027004 -278247.000000 0 0 1
-28.452886 16.600500 -30.369061 44.804276 -0.528153 2.315585 0.090641 -0.021495 -31525.100000 0 0 1
-28.302466 15.285800 -30.924831 44.620964 -0.495201 2.336516 0.063255 -0.014019 -98027.700000 0 0 1
-28.965046 14.100000 -30.189581 44.149685 -0.453027 2.323755 0.066061 -0.005668 -55540.700000 0 0 1
-30.384486 14.152700 -30.232791 45.139091 -0.435905 2.304695 0.065415 -0.012742 316309.000000 0 0 1
-31.027686 12.899700 -30.128011 45.131104 -0.394008 2.301732 0.058201 -0.009274 -106323.000000 0 0 1
-30.833456 12.028300 -28.855201 43.909049 -0.371948 2.287839 0.049361 -0.014967 -802593.000000 0 0 1
-31.502316 12.476600 -27.738131 43.788873 -0.377100 2.256802 0.041484 -0.013727 1826.200000 0 0 1
-31.322776 11.610600 -26.653331 42.735493 -0.354974 2.244240 0.041703 -0.012066 -46844.000000 0 0 1
-31.161736 12.488800 -25.384201 42.087784 -0.381173 2.218210 0.035113 -0.015367 546388.000000 0 0 1
-29.836796 12.994000 -25.214521 41.168562 -0.410733 2.229978 0.055342 -0.021787 359660.000000 0 0 1
-29.691186 13.296300 -23.824171 40.323061 -0.421039 2.202887 0.055202 -0.015418 54677.500000 0 0 1
-28.248786 13.623200 -23.384671 39.120689 -0.449353 2.211497 0.087746 -0.011256 -959759.000000 0 0 1
-27.727126 14.727500 -24.070871 39.561340 -0.488263 2.224895 0.099822 -0.022570 419855.000000 0 0 1
-26.318236 14.973700 -24.014971 38.646864 -0.517274 2.241318 0.099376 -0.030775 1054110.000000 0 0 1
-25.635016 15.041200 -22.613371 37.346436 -0.530616 2.221194 0.105355 -0.022691 -802601.000000 0 0 1
-25.908086 16.273700 -22.000271 37.683871 -0.560848 2.194212 0.119495 -0.021643 164771.000000 0 0 1
-26.239636 16.263700 -20.632771 37.131357 -0.554862 2.159965 0.115055 -0.003813 803481.000000 0 0 1
-27.734896 16.512800 -20.237271 38.097823 -0.537015 2.130804 0.113571 -0.013061 1053970.000000 0 0 1
-28.722706 15.569100 -20.680971 38.666436 -0.496718 2.135133 0.106834 -0.015317 1596750.000000 0 0 1
-30.002856 15.912600 -20.080971 39.454120 -0.487647 2.104784 0.084282 -0.008857 191811.000000 0 0 1
-31.101036 14.860100 -20.265971 39.985080 -0.445731 2.102309 0.050107 -0.009753 -223804.000000 0 0 1
-31.755156 14.818300 -21.511171 41.118152 -0.436607 2.121345 0.041082 -0.010592 537204.000000 0 0 1
-32.545696 15.986900 -21.845671 42.332454 -0.456594 2.113030 0.022374 -0.000474 -262137.000000 0 0 1
-33.088376 15.991500 -23.315271 43.522070 -0.450196 2.136146 0.018697 -0.005992 -233629.000000 0 0 1
-34.146753 15.089500 -23.545971 44.137359 -0.416099 2.133495 0.027206 -0.005124 181435.000000 0 0 1
-34.600898 15.116200 -24.894871 45.226941 -0.411884 2.153692 0.019923 -0.006030 -332042.000000 0 0 1
-35.855160 14.330600 -25.250621 46.136238 -0.380231 2.149938 0.025892 -0.010318 -383460.000000 0 0 1
-35.686415 12.929900 -25.239291 45.582061 -0.347608 2.157611 0.027488 -0.015435 100544.000000 0 0 1
-35.950417 12.256300 -24.020271 44.940213 -0.328565 2.134705 0.015363 -0.009428 -140476.000000 0 0 1
-35.741252 10.727600 -24.211371 44.482682 -0.291591 2.146336 0.029121 -0.013987 -38225.900000 0 0 1
-36.742866 10.239200 -25.080471 45.649857 -0.271777 2.152454 0.045885 -0.017431 -183591.000000 0 0 1
-36.497906 9.049300 -25.701511 45.547279 -0.243039 2.170360 0.045966 -0.012634 -513740.000000 0 0 1
-37.626686 8.305600 -26.462751 46.744279 -0.217253 2.172585 0.076681 -0.015584 -132586.000000 0 0 1
37.321487 7.785800 -25.484621 45.858238 0.205665 2.160032 0.070078 -0.002664 -179035.000000 0 0 1
36.199537 7.209400 -26.111391 45.212682 0.196585 2.186488 0.088240 -0.015611 34168.200000 0 0 1
35.364397 6.419800 -25.052471 43.811878 0.179577 2.179518 0.082875 -0.017901 213622.000000 0 0 1
36.165257 5.416100 -24.502471 44.018530 0.148655 2.161132 0.064868 -0.016338 147088.000000 0 0 1
35.409787 4.714700 -23.565771 42.795174 0.132368 2.153956 0.083703 -0.012135 217787.000000 0 0 1
36.315287 3.686300 -22.856171 43.067312 0.101162 2.130232 0.065642 -0.006617 147952.000000 0 0 1
36.660707 2.577800 -23.676771 43.717753 0.070200 2.143115 0.073346 -0.008740 477278.000000 0 0 1
37.610317 1.763800 -22.957771 44.098823 0.046862 2.118348 0.101615 -0.005399 365188.000000 0 0 1
-37.843666 0.452700 -23.654671 44.630611 -0.011962 2.129409 0.124449 -0.013446 147605.000000 0 0 1
36.904267 -0.365300 -23.997971 44.022278 -0.009898 2.147343 0.089275 -0.021032 171444.000000 0 0 1
37.383187 -1.700800 -24.235471 44.584228 -0.045465 2.145503 0.109863 -0.021524 312435.000000 0 0 1
-23.595766 28.712900 26.959076 45.912771 -0.882914 0.943225 0.084123 -0.023876 903795.000000 0 0 1
-24.955446 29.106100 26.581476 46.653126 -0.862024 0.964572 0.069125 -0.028030 1883270.000000 0 0 1
-25.330086 28.915400 25.216286 45.973630 -0.851396 0.990234 0.063045 -0.024192 -266083.000000 0 0 1
-25.777256 27.503300 24.792686 45.117355 -0.817782 0.989012 0.073217 -0.019539 731432.000000 0 0 1
-27.132256 27.082500 25.078036 45.809704 -0.784480 0.991495 0.071939 -0.020933 1079600.000000 0 0 1
-27.382876 26.671100 26.409606 46.461132 -0.772231 0.966208 0.069319 -0.027730 -602490.000000 0 0 1
-26.692536 25.407400 27.039366 45.707273 -0.760736 0.937783 0.079679 -0.024959 -303340.000000 0 0 1
-25.387776 25.473400 27.525766 45.289083 -0.787082 0.917535 0.096803 -0.021970 -452438.000000 0 0 1
-25.282896 26.145200 28.788366 46.384980 -0.802164 0.901238 0.098330 -0.028042 -678714.000000 0 0 1
-23.952766 25.967100 29.487666 46.016820 -0.825728 0.875254 0.113106 -0.021168 -796753.000000 0 0 1
-22.809666 26.686000 29.035526 45.557494 -0.863555 0.879757 0.108681 -0.021118 518516.000000 0 0 1
-21.707766 26.330900 29.866936 45.349501 -0.881340 0.851847 0.128800 -0.020978 494873.000000 0 0 1
-20.895166 25.023100 29.540266 43.993077 -0.875055 0.834598 0.130854 -0.014693 -474165.000000 0 0 1
-20.089766 25.067500 28.387336 42.869792 -0.895186 0.847078 0.115304 -0.020407 -46774.200000 0 0 1
-20.425466 24.173700 27.285016 41.785638 -0.869244 0.859289 0.121331 -0.026995 8021.660000 0 0 1
-20.371166 22.638300 27.425686 40.983476 -0.838062 0.837680 0.110010 -0.013290 369073.000000 0 0 1
-21.181766 22.060500 28.450556 41.770408 -0.805717 0.821509 0.106990 -0.018071 170093.000000 0 0 1
-20.983966 20.661600 28.477676 40.965920 -0.777658 0.802160 0.108755 -0.013571 165366.000000 0 0 1
-21.182666 20.041500 29.892966 41.760705 -0.757723 0.773005 0.110775 -0.015395 -146878.000000 0 0 1
-20.188666 20.401400 30.812736 42.109667 -0.790639 0.749946 0.098972 -0.027583 -206529.000000 0 0 1
-20.445866 19.888400 32.101629 42.942944 -0.771578 0.726444 0.091523 -0.015333 -186871.000000 0 0 1
-19.427566 20.389800 33.135354 43.487078 -0.809560 0.704464 0.111365 -0.021037 -842953.000000 0 0 1
-19.564566 21.803700 33.448326 44.463064 -0.839472 0.719292 0.071015 -0.018851 -264425.000000 0 0 1
-18.774366 22.595600 32.627595 43.904418 -0.877504 0.733030 0.098843 -0.015962 53099.900000 0 0 1
-17.248666 22.606700 32.918564 43.499554 -0.919034 0.712460 0.089316 -0.014181 232796.000000 0 0 1
-16.556966 21.345300 32.817133 42.505519 -0.911066 0.688708 0.118195 -0.033471 -1111230.000000 0 0 1
-15.251866 21.545000 33.230726 42.439222 -0.954783 0.671291 0.083050 -0.030704 -876845.000000 0 0 1
-14.400266 20.247300 33.032018 41.333219 -0.952580 0.644893 0.073266 -0.028362 766553.000000 0 0 1
-13.025466 20.218700 33.430176 41.182949 -0.998489 0.623657 0.056128 -0.027367 619495.000000 0 0 1
-12.778166 20.097400 -32.522441 40.310001 -1.004460 2.509526 0.071879 -0.025714 1203890.000000 0 0 1
-11.225766 20.124200 -32.172321 39.573469 -1.061966 2.520043 0.070312 -0.027398 1438920.000000 0 0 1
-10.611266 21.364100 -32.475651 40.295057 -1.109803 2.508069 0.065976 -0.026198 -79703.500000 0 0 1
-9.286466 21.344000 -31.964161 39.541274 -1.160414 2.512182 0.068800 -0.027005 249943.000000 0 0 1
-8.475066 22.648900 -32.038581 40.140629 -1.212733 2.495028 0.069129 -0.026934 44642.500000 0 0 1
-8.630266 23.618100 -31.011291 39.924883 -1.220461 2.460271 0.066086 -0.021673 -49818.900000 0 0 1
-8.171466 23.203600 -29.697731 38.563391 -1.232195 2.449797 0.066429 -0.023863 111637.000000 0 0 1
-7.780166 24.407300 -28.809841 38.551968 -1.262215 2.414784 0.070585 -0.025828 150399.000000 0 0 1
-6.685266 25.098400 -29.377071 39.212686 -1.310478 2.417608 0.093367 -0.020925 -26712.500000 0 0 1
-6.438466 26.256100 -28.595661 39.351600 -1.330323 2.384260 0.094553 -0.019321 -30483.100000 0 0 1
-5.062366 26.895900 -28.927041 39.821987 -1.384752 2.383878 0.104559 -0.029611 -570441.000000 0 0 1
-4.010666 26.074400 -28.431151 38.785179 -1.418176 2.393579 0.108699 -0.025646 -686440.000000 0 0 1
-2.897566 26.234900 -29.230671 39.383981 -1.460795 2.407139 0.105078 -0.027367 -721576.000000 0 0 1
-1.932266 27.377200 -28.852961 39.821327 -1.500334 2.381193 0.110165 -0.037253 -968491.000000 0 0 1
-1.255766 27.242600 -27.645981 38.833445 -1.524733 2.363013 0.128685 -0.055683 103577.000000 0 0 1
-0.414866 28.369100 -27.504051 39.515197 -1.556174 2.340660 0.122981 -0.049137 -610011.000000 0 0 1
0.240934 28.553300 -26.124981 38.702243 1.562358 2.311795 0.138990 -0.062064 586327.000000 0 0 1
1.325034 27.698000 -25.709681 37.814318 1.522994 2.318413 0.192192 -0.075075 2371910.000000 0 0 1
2.580334 27.740500 -26.487101 38.441644 1.478046 2.330934 0.187731 -0.075436 1864240.000000 0 0 1
3.818634 28.093700 -25.569941 38.179311 1.435699 2.304645 0.180133 -0.077942 406781.000000 0 0 1
4.401534 26.977200 -24.948071 37.007419 1.409064 2.310592 0.191819 -0.066765 240478.000000 0 0 1
5.560734 27.271300 -24.193371 36.877700 1.369650 2.286361 0.154025 -0.057133 320377.000000 0 0 1
6.279734 26.012500 -23.609371 35.685958 1.333917 2.293730 0.150614 -0.053887 224272.000000 0 0 1
7.496534 26.352800 -22.982071 35.760924 1.293649 2.268760 0.143688 -0.054105 -327433.000000 0 0 1
8.221034 25.214400 -22.580371 34.831373 1.255619 2.276115 0.123252 -0.042449 214239.000000 0 0 1
9.671634 25.553200 -22.178771 35.190971 1.208969 2.252659 0.119923 -0.018954 -285265.000000 0 0 1
9.773634 26.018800 -20.865471 34.754421 1.211467 2.214759 0.127307 -0.019110 1396560.000000 0 0 1
11.135234 26.230900 -20.368671 35.027651 1.169342 2.191371 0.134908 -0.028539 1943670.000000 0 0 1
11.908934 24.935400 -19.854571 34.026473 1.125236 2.193833 0.099420 -0.009947 -92018.100000 0 0 1
12.235434 23.981300 -20.770471 34.003251 1.099016 2.227915 0.084960 -0.012969 -26780.700000 0 0 1
12.486934 22.723200 -20.183071 32.857628 1.068319 2.232242 0.067650 0.001674 -333816.000000 0 0 1
12.832834 21.590700 -21.193071 32.863144 1.034528 2.271674 0.072857 -0.002540 1029210.000000 0 0 1
11.782634 21.553300 -22.199371 33.108719 1.070510 2.305678 0.073133 -0.016388 1101060.000000 0 0 1
12.148634 20.530000 -23.079571 33.192421 1.036465 2.339670 0.067696 -0.011045 415060.000000 0 0 1
11.282134 20.537400 -24.377271 33.813055 1.068456 2.375958 0.085116 -0.014727 1545770.000000 0 0 1
9.855134 20.317300 -24.275471 33.154409 1.119171 2.392335 0.081192 -0.017112 1163170.000000 0 0 1
9.264734 20.152200 -25.557131 33.839524 1.139874 2.426824 0.084375 -0.021541 479652.000000 0 0 1
7.714234 20.230200 -25.445041 33.409886 1.206494 2.436578 0.100821 -0.035431 524847.000000 0 0 1
7.029234 21.465000 -25.236151 33.867679 1.254328 2.411541 0.115192 -0.043511 98799.000000 0 0 1
6.931534 21.952300 -23.870871 33.162752 1.264949 2.374324 0.122284 -0.045164 1469460.000000 0 0 1
5.412034 21.916500 -23.370071 32.492819 1.328701 2.373501 0.146554 -0.049423 1811900.000000 0 0 1
4.585234 22.972400 -23.828671 33.414983 1.373788 2.364726 0.148992 -0.052549 558098.000000 0 0 1
3.200834 22.845500 -23.507971 32.936103 1.431595 2.365627 0.167059 -0.054784 622070.000000 0 0 1
2.368534 24.044900 -23.999671 34.055123 1.472608 2.352839 0.156021 -0.049714 -497845.000000 0 0 1
0.980334 23.871300 -24.004071 33.867321 1.529752 2.358546 0.178849 -0.068048 -479032.000000 0 0 1
0.578034 24.685200 -25.071071 35.188802 1.547384 2.363813 0.177480 -0.055183 110858.000000 0 0 1
-0.954466 24.715100 -25.320311 35.395838 -1.532197 2.367917 0.183270 -0.053310 393746.000000 0 0 1
-1.406466 23.471300 -25.932761 35.005545 -1.510945 2.405085 0.197776 -0.054742 -105587.000000 0 0 1
-2.776266 23.578500 -26.259761 35.400965 -1.453590 2.406518 0.189605 -0.038588 -21483.800000 0 0 1
-3.200566 22.275000 -26.918251 35.085773 -1.428089 2.445280 0.189880 -0.040502 -355473.000000 0 0 1
-2.599566 21.994400 -28.168951 35.832962 -1.453150 2.475300 0.205059 -0.057294 -169148.000000 0 0 1
-2.983766 20.737600 -28.688631 35.524477 -1.427895 2.510823 0.177535 -0.047168 1001540.000000 0 0 1
-4.359766 20.863700 -29.485591 36.382710 -1.364796 2.515680 0.146602 -0.042926 890424.000000 0 0 1
-4.402866 21.377200 -30.868731 37.805402 -1.367676 2.526147 0.137877 -0.039999 -244464.000000 0 0 1
-3.903066 22.687700 -30.970201 38.589105 -1.400430 2.502376 0.158101 -0.036664 -54814.300000 0 0 1
-3.293866 22.919400 -32.411061 39.832466 -1.428058 2.521259 0.120813 -0.033352 -69599.000000 0 0 1
-2.089666 22.190500 -32.546101 39.446593 -1.476904 2.541118 0.114918 -0.036944 36016.200000 0 0 1
-1.731466 22.176400 33.477816 40.193965 -1.492877 0.586457 0.104347 -0.023240 -455142.000000 0 0 1
-0.581566 21.222400 33.185306 39.395342 -1.543400 0.569137 0.115933 -0.017065 -335282.000000 0 0 1
-0.917866 19.840900 32.939243 38.464237 -1.524568 0.542617 0.096324 -0.011003 -222236.000000 0 0 1
0.171634 19.198400 32.335562 37.605805 1.561857 0.535810 0.107361 -0.016369 -368777.000000 0 0 1
-0.204066 17.911100 31.650726 36.367810 -1.559404 0.514995 0.082467 -0.017488 -355513.000000 0 0 1
-1.232366 18.128100 30.742046 35.710224 -1.502920 0.533809 0.072370 -0.016729 -358338.000000 0 0 1
-1.639966 16.883400 30.262456 34.692289 -1.473965 0.510888 0.058947 -0.017114 -172025.000000 0 0 1
-2.756566 16.839600 29.184006 33.806464 -1.408540 0.529089 0.069015 -0.007568 816967.000000 0 0 1
-4.071566 17.116400 29.701386 34.521314 -1.337261 0.534785 0.054477 -0.018597 431492.000000 0 0 1
-4.455566 18.402800 29.297546 34.883539 -1.333254 0.573758 0.068118 -0.016603 -1028160.000000 0 0 1
-5.953866 18.555200 29.260246 35.155454 -1.260302 0.587534 0.055142 -0.019429 -430761.000000 0 0 1
-6.753766 17.628900 28.467406 34.158230 -1.204937 0.585568 0.053256 -0.014679 -124685.000000 0 0 1
-8.028666 18.199900 28.358446 34.639534 -1.155337 0.611700 0.063698 -0.019059 -392839.000000 0 0 1
-9.021066 17.360000 27.511906 33.758765 -1.091555 0.618143 0.062744 -0.017519 270640.000000 0 0 1
-9.429466 16.052800 27.869676 33.516057 -1.039691 0.588936 0.072056 -0.025794 333726.000000 0 0 1
-10.225366 15.952300 29.075486 34.704724 -1.000777 0.577562 0.073156 -0.025625 -138798.000000 0 0 1
-10.848266 14.584500 29.359126 34.530433 -0.931261 0.554357 0.079218 -0.025119 417356.000000 0 0 1
-9.894366 13.499800 29.489586 33.908388 -0.938312 0.516234 0.088902 -0.021312 769796.000000 0 0 1
-9.001266 13.561100 30.597886 34.657710 -0.984811 0.488880 0.079196 -0.021195 -18997.300000 0 0 1
-9.572766 13.037800 31.929122 35.792330 -0.937464 0.468900 0.099750 -0.033960 -133885.000000 0 0 1
-9.867466 11.679700 31.879545 35.356579 -0.869306 0.447208 0.107196 -0.029374 469525.000000 0 0 1
-10.632466 11.242700 33.015988 36.462352 -0.813287 0.438283 0.115804 -0.029716 102297.000000 0 0 1
-10.800466 9.714800 33.021058 36.075167 -0.732528 0.414444 0.100624 -0.025873 374710.000000 0 0 1
-9.626666 8.950700 33.368676 35.864415 -0.749028 0.375261 0.122386 -0.028291 436180.000000 0 0 1
-9.705466 8.383700 -32.650921 35.079412 -0.712458 2.767314 0.155105 -0.037270 -115745.000000 0 0 1
-8.933966 9.168700 -31.582811 34.078655 -0.798364 2.756496 0.134208 -0.044739 97065.700000 0 0 1
-9.634966 10.336000 -31.138211 34.194351 -0.820486 2.715589 0.126187 -0.038172 719784.000000 0 0 1
-8.749966 11.031500 -30.266351 33.381250 -0.900228 2.706159 0.119644 -0.035741 525228.000000 0 0 1
-7.626266 11.946800 -30.834251 33.935777 -1.002653 2.710730 0.089241 -0.036120 -161344.000000 0 0 1
-7.992266 13.222800 -31.149681 34.770985 -1.027125 2.681143 0.091821 -0.035297 -142838.000000 0 0 1
-7.019466 13.992600 -31.844111 35.483984 -1.105825 2.684687 0.072133 -0.030577 -59707.400000 0 0 1
-7.493266 15.442600 -32.122001 36.420404 -1.119032 2.650839 0.070619 -0.028021 -205867.000000 0 0 1
-8.377966 15.545300 -33.194881 37.599824 -1.076485 2.652686 0.061580 -0.032986 -378279.000000 0 0 1
-8.860966 16.827000 -33.298181 38.346232 -1.086102 2.622674 0.081854 -0.032769 -966135.000000 0 0 1
-9.473666 17.232200 32.653255 38.117373 -1.068133 0.542055 0.096807 -0.035807 713893.000000 0 0 1
-10.699766 16.710200 32.167224 37.794789 -1.001261 0.552715 0.079927 -0.035239 632631.000000 0 0 1
-11.797266 16.891000 33.071081 38.963801 -0.961121 0.557152 0.078020 -0.040002 387923.000000 0 0 1
-13.190666 16.302600 32.634924 38.791838 -0.890523 0.571144 0.093012 -0.036932 763344.000000 0 0 1
-13.266366 14.894200 32.575295 38.196642 -0.843139 0.549413 0.094066 -0.036622 531725.000000 0 0 1
-14.603666 14.501500 32.877618 38.787863 -0.781888 0.559301 0.089549 -0.027789 410282.000000 0 0 1
-14.973766 12.995700 32.727763 38.264975 -0.714793 0.544680 0.092447 -0.025446 -244901.000000 0 0 1
-14.966666 12.447600 31.409890 36.953011 -0.693767 0.554820 0.067131 -0.022947 540813.000000 0 0 1
-13.699966 12.026700 30.891746 35.869633 -0.720450 0.533126 0.071478 -0.013641 250555.000000 0 0 1
-13.666966 11.377100 29.425316 34.381297 -0.694218 0.543600 0.067497 -0.015229 100604.000000 0 0 1
-14.531466 10.257100 29.169826 34.165046 -0.614644 0.547571 0.067301 -0.015433 435592.000000 0 0 1
-14.276466 9.677300 27.915216 32.813517 -0.595705 0.553437 0.057681 -0.012694 302010.000000 0 0 1
-15.158866 8.405500 27.611546 32.601244 -0.506287 0.560579 0.067973 -0.011076 390050.000000 0 0 1
-14.644066 7.202800 28.110606 32.504387 -0.457113 0.525995 0.058914 -0.019000 248572.000000 0 0 1
-15.507666 6.141600 27.723756 32.354499 -0.377085 0.541620 0.074688 -0.012868 584952.000000 0 0 1
-14.723366 4.760900 27.696656 31.726147 -0.312745 0.509494 0.076428 -0.014603 1152510.000000 0 0 1
-13.660866 4.516800 26.744966 30.369622 -0.319323 0.493567 0.072065 -0.021970 634417.000000 0 0 1
-14.052366 4.493800 25.378456 29.355225 -0.309512 0.526583 0.067731 -0.017187 -134830.000000 0 0 1
-12.881266 4.227600 24.391276 27.905805 -0.317121 0.507304 0.056735 -0.013221 -117013.000000 0 0 1
-12.291366 2.945900 24.539226 27.603072 -0.235235 0.475632 0.064975 -0.019516 33526.300000 0 0 1
-11.554166 2.738000 23.349156 26.195009 -0.232679 0.470462 0.064303 -0.021596 152284.000000 0 0 1
-10.478266 1.593300 23.426006 25.712067 -0.150902 0.424876 0.060886 -0.027404 902226.000000 0 0 1
-9.274366 1.973800 24.103216 25.901250 -0.209695 0.374799 0.041641 -0.026150 589675.000000 0 0 1
-8.493566 0.885900 24.567166 26.009058 -0.103927 0.334539 0.030092 -0.014738 344203.000000 0 0 1
-6.969966 1.111700 24.407876 25.407887 -0.158166 0.281493 0.048342 -0.024655 -292065.000000 0 0 1
-6.465866 1.314100 23.089146 24.013391 -0.200506 0.278346 0.046848 -0.020583 -59926.500000 0 1 0
-5.098866 1.584600 22.910656 23.524616 -0.301313 0.228967 0.042052 -0.018749 -26027.400000 0 1 0
-4.590066 2.950700 23.497936 24.123191 -0.571329 0.228175 0.054713 -0.016027 -661697.000000 0 1 0
-4.286966 2.848400 24.859196 25.386435 -0.586454 0.204161 0.058114 -0.013136 165882.000000 0 0 1
-3.792766 4.153200 25.258726 25.877352 -0.830728 0.219098 0.056305 -0.015473 155078.000000 0 0 1
4.153634 -23.646100 12.898129 27.253485 -1.396912 1.077803 0.133279 -0.042855 220472.000000 0 0 1
3.717434 -24.778800 13.586029 28.502428 -1.421882 1.073942 0.153078 -0.059009 -959517.000000 0 0 1
2.503634 -25.184410 13.065629 28.482158 -1.471710 1.094231 0.125405 -0.055110 -769225.000000 0 0 1
1.971834 -26.385180 13.845029 29.862195 -1.496202 1.088708 0.117923 -0.044075 -341766.000000 0 0 1
1.737934 -26.168440 15.202429 30.313718 -1.504480 1.045461 0.160025 -0.055758 3695.940000 0 0 1
1.619534 -27.363150 15.966829 31.722303 -1.511679 1.043347 0.175562 -0.055289 12835.700000 0 0 1
1.323434 -27.218210 17.453329 32.360487 -1.522211 1.001142 0.157290 -0.057508 -316018.000000 0 0 1
2.465234 -26.885350 18.165829 32.540694 -1.479358 0.978522 0.176543 -0.055763 -453645.000000 0 0 1
2.249934 -27.042460 19.554229 33.447342 -1.487787 0.946376 0.182017 -0.058453 380961.000000 0 0 1
3.281034 -26.300040 20.441229 33.470900 -1.446684 0.913831 0.150785 -0.052462 402755.000000 0 0 1
2.825534 -24.985110 20.624529 32.520925 -1.458186 0.883833 0.142237 -0.049583 1134620.000000 0 0 1
3.858434 -24.262000 21.370529 32.561199 -1.413085 0.854867 0.115312 -0.046492 920001.000000 0 0 1
3.259534 -23.084200 22.081429 32.110658 -1.430522 0.812526 0.129689 -0.038241 -118598.000000 0 0 1
2.654234 -22.002100 21.400729 30.807930 -1.450741 0.802863 0.120003 -0.034763 308878.000000 0 0 1
3.583034 -21.379500 20.524129 29.852320 -1.404747 0.812725 0.096442 -0.030779 200368.000000 0 0 1
2.852534 -20.278500 19.774929 28.467566 -1.431045 0.802866 0.070881 -0.031860 -16394.500000 0 0 1
2.646134 -19.063200 20.459729 28.089289 -1.432869 0.754839 0.055334 -0.026653 -930892.000000 0 0 1
1.697434 -18.418400 19.762029 27.067629 -1.478896 0.752331 0.051193 -0.034382 -1143610.000000 0 0 1
1.283634 -17.086800 20.428929 26.663601 -1.495813 0.697932 0.072287 -0.038736 427118.000000 0 0 1
2.390934 -16.186700 20.371029 26.128617 -1.424147 0.676699 0.033402 -0.019203 494793.000000 0 0 1
2.014734 -14.901100 20.896829 25.744502 -1.436404 0.623738 0.046880 -0.018377 538270.000000 0 0 1
3.071334 -13.766800 20.672029 25.025800 -1.351294 0.598771 0.013228 -0.001123 65997.200000 0 0 1
3.192134 -13.301600 19.332329 23.682509 -1.335269 0.615798 0.005389 -0.003135 841236.000000 0 1 0
1.947534 -12.867300 18.716629 22.796327 -1.420581 0.607571 0.009614 0.003713 1111400.000000 0 1 0
1.273134 -11.571500 19.267629 22.511375 -1.461214 0.543495 0.008725 -0.003737 -497245.000000 0 1 0
1.959534 -10.352100 19.103229 21.816029 -1.383721 0.504014 0.009105 0.002796 -482984.000000 0 1 0
1.631634 -9.288800 19.998329 22.110568 -1.396914 0.440662 0.028440 -0.013676 -238326.000000 0 1 0
0.177934 -8.800800 20.016029 21.866119 -1.550581 0.414320 0.041887 -0.022556 -328668.000000 0 1 0
-0.124966 -8.005500 21.171029 22.634401 1.555188 0.361556 0.057714 -0.029899 -160068.000000 0 1 0
-1.423066 -7.475400 20.986329 22.323368 1.382681 0.347856 0.058475 -0.032564 -36209.600000 0 1 0
-1.966266 -6.929600 22.321629 23.455078 1.294315 0.312149 0.048307 -0.024133 -310517.000000 0 1 0
-2.216966 -7.904700 23.279629 24.684820 1.297359 0.339039 0.049632 -0.020212 -80740.500000 0 1 0
-2.617166 -7.374400 24.526129 25.744171 1.229764 0.308840 0.055021 -0.013666 -271926.000000 0 0 1
-2.983566 -8.437100 25.530329 27.053355 1.230896 0.337145 0.054091 -0.013224 -550891.000000 0 0 1
-2.000266 -9.380200 25.798029 27.523218 1.360700 0.355942 0.070150 -0.011386 -392632.000000 0 0 1
-2.280566 -10.151900 26.957329 28.895668 1.349821 0.368359 0.078393 -0.020333 -834493.000000 0 0 1
-1.152366 -11.117600 27.249029 29.452310 1.467513 0.389256 0.106984 -0.034818 -717063.000000 0 0 1
0.024534 -10.485300 27.641929 29.563802 -1.568456 0.362559 0.115538 -0.031357 -212934.000000 0 0 1
1.067234 -11.415400 27.906229 30.169653 -1.477577 0.389822 0.144459 -0.047088 200701.000000 0 0 1
2.306934 -10.873900 28.602529 30.686615 -1.361743 0.370670 0.187108 -0.057175 -141907.000000 0 0 1
1.927334 -10.489400 29.952729 31.794781 -1.389082 0.342064 0.183460 -0.062964 615515.000000 0 0 1
3.025434 -10.130900 30.785329 32.550344 -1.280593 0.330821 0.243135 -0.065859 324901.000000 0 0 1
2.473434 -9.721600 32.180729 33.707962 -1.321656 0.302172 0.229173 -0.072532 -400890.000000 0 0 1
1.837734 -10.775100 32.808529 34.581493 -1.401868 0.321600 0.229856 -0.073076 -226289.000000 0 0 1
1.982234 -10.850300 -33.139207 34.926570 -1.390100 2.820291 0.201615 -0.072902 45950.600000 0 0 1
3.390634 -11.168600 -32.560907 34.589690 -1.276053 2.797397 0.181497 -0.054052 731958.000000 0 0 1
4.432134 -10.206000 -32.813307 34.648512 -1.161102 2.814666 0.170335 -0.061792 551497.000000 0 0 1
4.863534 -9.444300 -31.683407 33.416868 -1.095244 2.818085 0.170463 -0.061157 92494.300000 0 0 1
3.984134 -8.214900 -31.283607 32.588679 -1.119230 2.857632 0.163639 -0.045331 -18602.300000 0 0 1
4.070634 -7.131500 -32.214607 33.244688 -1.052127 2.892008 0.181625 -0.056854 -15048.200000 0 0 1
3.382434 -6.041000 -31.689707 32.437202 -1.060374 2.926495 0.163775 -0.031848 -107082.000000 0 0 1
3.434834 -4.825500 -32.650207 33.183121 -0.952189 2.962132 0.165571 -0.036201 -93245.100000 0 0 1
2.577734 -4.834000 33.588529 34.032361 -1.080903 0.161678 0.176830 -0.051864 -342316.000000 0 0 1
2.830634 -3.660600 32.831929 33.156418 -0.912568 0.140019 0.167775 -0.038740 111233.000000 0 0 1
1.964234 -3.486200 31.571329 31.823900 -1.057700 0.126072 0.196552 -0.042044 -109126.000000 0 0 1
0.614434 -3.187800 31.847529 32.012571 -1.380386 0.101587 0.196097 -0.044626 -414620.000000 0 0 1
-0.121066 -3.566400 30.687729 30.894508 1.536863 0.115763 0.189384 -0.038784 812758.000000 0 0 1
-1.666766 -3.541200 30.948429 31.194927 1.130880 0.125796 0.163730 -0.037961 517739.000000 0 0 1
-2.397166 -2.518800 30.378929 30.577281 0.810136 0.113964 0.150700 -0.037721 413883.000000 0 0 1
-3.792666 -2.813300 30.278429 30.644449 0.638215 0.154712 0.108935 -0.031061 688353.000000 0 0 1
-4.692866 -1.779800 29.598829 30.021349 0.362497 0.167971 0.067650 -0.021281 -115692.000000 0 0 1
-4.515166 -1.762900 28.163629 28.577693 0.372238 0.170436 0.067158 -0.024312 -72253.300000 0 0 1
-5.557866 -1.142100 27.446229 28.026590 0.202671 0.203860 0.045374 -0.022980 42174.800000 0 0 1
-5.734266 0.420800 27.668729 28.259821 -0.073252 0.204888 0.073842 -0.028217 -30645.800000 0 0 1
-6.656466 0.800600 28.667029 29.440585 -0.119699 0.229743 0.070876 -0.024859 -166383.000000 0 0 1
-6.763566 2.208800 28.714629 29.583011 -0.315654 0.242894 0.078152 -0.024797 -380875.000000 0 0 1
-8.034466 2.651100 29.442129 30.633641 -0.318717 0.279823 0.083700 -0.029648 321437.000000 0 0 1
-9.225266 2.395200 28.704529 30.245537 -0.254026 0.320589 0.070116 -0.026830 -1336910.000000 0 0 1
-10.360366 2.869700 29.211129 31.126555 -0.270214 0.352643 0.070115 -0.019057 -1155990.000000 0 0 1
-11.588066 2.439700 28.340229 30.714883 -0.207505 0.395803 0.068621 -0.012850 30758.500000 0 0 1
-11.897866 1.071100 28.423129 30.831490 -0.089783 0.397875 0.064842 -0.016471 14152.200000 0 0 1
-12.216866 0.659500 27.123829 29.755485 -0.053930 0.423741 0.057754 -0.015437 -574734.000000 0 0 1
-12.671466 -0.845400 27.187429 30.007284 0.066618 0.436995 0.055020 -0.021627 375869.000000 0 0 1
-11.665466 -1.835600 27.430729 29.864652 0.156074 0.406522 0.057794 -0.021264 413146.000000 0 0 1
-10.461966 -1.848300 26.700629 28.736606 0.174864 0.378688 0.041869 -0.024522 -308373.000000 0 0 1
-10.410766 -2.661800 25.396929 27.576679 0.250315 0.400268 0.051739 -0.021467 -443802.000000 0 0 1
-11.141566 -2.126000 24.306829 26.823056 0.188550 0.436607 0.050676 -0.024862 219289.000000 0 0 1
-10.853166 -2.697900 23.046129 25.616283 0.243643 0.451790 0.051907 -0.022503 -311857.000000 0 0 1
-9.642066 -2.050500 22.359829 24.436365 0.209540 0.415232 0.034021 -0.024248 299801.000000 0 1 0
-8.381466 -2.516800 22.818129 24.438705 0.291715 0.366218 0.042767 -0.024763 -869692.000000 0 1 0
-7.387866 -1.981000 22.037329 23.326997 0.261980 0.334077 0.034189 -0.024524 -731919.000000 0 1 0
-5.961766 -2.265300 22.552529 23.436954 0.363122 0.275594 0.040646 -0.021134 -54391.800000 0 1 0
-5.456466 -3.559400 22.385329 23.314058 0.578009 0.283206 0.041613 -0.023914 48632.400000 0 1 0
-6.054766 -4.486500 23.281029 24.470292 0.637707 0.313047 0.050683 -0.023439 -372292.000000 0 1 0
-5.628366 -5.942400 23.003929 24.416621 0.812532 0.341832 0.053852 -0.025381 -347979.000000 0 1 0
-6.245666 -6.560000 21.887429 23.687581 0.809940 0.392373 0.042294 -0.034018 56440.300000 0 1 0
-5.808366 -6.133000 20.610629 22.274399 0.812577 0.388955 0.036707 -0.033194 -1263470.000000 0 1 0
-6.941066 -6.059400 19.663629 21.715272 0.717684 0.438191 0.042143 -0.031057 -638252.000000 0 1 0
-7.883466 -5.021300 19.847329 21.938071 0.567140 0.440126 0.043610 -0.032067 -264167.000000 0 1 0
-8.830866 -4.876800 18.831729 21.363553 0.504565 0.491791 0.051627 -0.033090 446182.000000 0 1 0
-9.691366 -3.557300 19.026429 21.646754 0.351790 0.497139 0.050679 -0.031239 174639.000000 0 1 0
-8.846466 -2.441400 19.032329 21.129362 0.269272 0.449297 0.040414 -0.019096 -352593.000000 0 1 0
-9.427666 -1.190200 18.713829 20.988208 0.125581 0.469852 0.035379 -0.021490 459017.000000 0 1 0
-8.281666 -0.241500 18.192929 19.990673 0.029153 0.427341 0.014317 -0.022846 1344960.000000 0 1 0
-7.226066 0.233500 19.086329 20.409765 -0.032302 0.362095 0.026319 -0.013172 1016670.000000 0 1 0
-7.645566 1.076100 20.117729 21.548450 -0.139830 0.366452 0.037430 -0.015506 -312866.000000 0 1 0
-7.667066 2.584400 19.833129 21.419992 -0.325117 0.387341 0.040572 -0.026598 -367784.000000 0 1 0
-8.715866 2.916800 18.963229 21.073161 -0.322939 0.451311 0.030118 -0.029202 -62418.700000 0 1 0
-8.515466 4.209700 18.517029 20.811418 -0.459125 0.473992 0.027249 -0.027636 271948.000000 0 1 0
-9.543666 4.638900 17.420029 20.397509 -0.452443 0.547118 0.021524 -0.017220 105975.000000 0 1 0
-10.824866 4.943500 17.928129 21.518219 -0.428395 0.585998 0.017967 -0.005446 -85998.700000 0 1 0
-11.643266 5.612400 16.991129 21.348610 -0.449168 0.650321 0.017238 0.007444 -46603.600000 0 1 0
-11.552966 7.158600 17.201629 21.922879 -0.554731 0.668677 0.018611 0.016076 -14450.300000 0 1 0
-10.204966 7.637100 17.230129 21.432312 -0.642458 0.636918 0.015358 0.012913 580821.000000 0 1 0
-10.145466 8.847300 16.498229 21.293116 -0.717154 0.684374 0.000595 -0.011272 258826.000000 0 1 0
-9.071866 9.854300 16.926429 21.584948 -0.826716 0.669427 0.014670 -0.000442 186138.000000 0 1 0
-9.525966 10.369700 18.148529 22.970499 -0.827781 0.659857 0.061115 0.016114 -94838.000000 0 1 0
-8.860966 11.550400 18.545829 23.577028 -0.916405 0.665504 0.086458 0.007958 -17838.600000 0 1 0
-9.181766 12.886400 17.777529 23.799258 -0.951720 0.727291 0.077993 -0.003075 74140.900000 0 1 0
-8.654566 13.013600 16.497929 22.725250 -0.983921 0.758347 0.052236 -0.018119 -282014.000000 0 1 0
-9.392066 14.014200 15.859229 23.154349 -0.980364 0.816282 0.062713 -0.036528 -136167.000000 0 1 0
-8.968366 14.204500 14.400329 22.126204 -1.007626 0.862123 0.072881 -0.037612 -323601.000000 0 1 0
-7.767966 14.893400 14.303529 22.062312 -1.090041 0.865415 0.066165 -0.024283 -683899.000000 0 1 0
-7.642866 15.296700 12.959129 21.455570 -1.107436 0.922288 0.053710 -0.038780 -128604.000000 0 1 0
-6.549166 16.397800 12.868029 21.848698 -1.190813 0.941024 0.021336 -0.028968 424810.000000 0 1 0
-5.250866 15.962300 13.266629 21.409579 -1.252992 0.902489 0.010765 -0.028619 -390509.000000 0 1 0
-4.530566 17.165800 13.314429 22.191547 -1.312751 0.927323 0.008773 -0.028344 -768619.000000 0 1 0
-3.007466 17.024200 13.279029 21.799102 -1.395942 0.915802 0.010948 -0.027370 -289916.000000 0 1 0
-2.346366 16.527000 14.448229 22.077104 -1.429767 0.857349 0.016583 -0.026939 -56775.700000 0 1 0
-2.623766 15.198600 14.809029 21.381977 -1.399849 0.805717 0.019481 -0.020051 -703667.000000 0 1 0
-1.755066 14.526100 15.894329 21.603647 -1.450558 0.744061 0.018171 -0.014239 537149.000000 0 1 0
-0.415266 14.279000 15.475829 21.060949 -1.541722 0.745407 0.021118 -0.019558 289128.000000 0 1 0
0.488534 13.744500 16.421929 21.420311 1.535267 0.697186 0.026673 -0.007621 584360.000000 0 1 0
1.468434 14.781500 17.039829 22.605416 1.471779 0.716979 0.032808 -0.014314 -25251.600000 0 1 0
0.780834 15.704600 17.869929 23.802910 1.521117 0.721606 0.017048 -0.016349 -827255.000000 0 1 0
1.565434 16.651300 18.480729 24.924962 1.477059 0.735561 0.047943 -0.016167 -1136240.000000 0 1 0
0.821834 17.846400 19.093729 26.148421 1.524778 0.752173 0.054184 -0.017507 369577.000000 0 0 1
0.117134 18.688400 18.175029 26.069172 1.564529 0.799333 0.042527 -0.013142 774742.000000 0 0 1
-0.959866 18.162100 17.369829 25.149437 -1.517996 0.808388 0.039674 -0.009559 238762.000000 0 0 1
-1.699866 19.205000 16.444929 25.340822 -1.482515 0.864593 0.035967 -0.008907 39821.100000 0 0 1
-2.378366 20.212700 17.163329 26.623106 -1.453668 0.870194 0.026962 -0.005973 -124206.000000 0 0 1
-2.955966 21.119400 16.224529 26.795562 -1.431735 0.920411 0.035598 -0.010739 -436540.000000 0 0 1
-3.667566 22.255400 16.956329 28.218274 -1.407470 0.926171 0.034946 -0.000200 127854.000000 0 0 1
-4.876666 21.829900 17.592429 28.457336 -1.351011 0.904341 0.052849 -0.001530 230035.000000 0 0 1
-5.351866 22.927200 18.319129 29.831015 -1.341474 0.909555 0.059737 -0.005426 -50827.400000 0 0 1
-6.516166 22.599500 19.260629 30.400159 -1.290078 0.884637 0.048895 -0.012898 30709.700000 0 0 1
-7.794866 22.378300 18.708729 30.192132 -1.235617 0.902492 0.039506 -0.011494 -57891.300000 0 0 1
-8.680566 21.859800 19.706829 30.684886 -1.192791 0.873389 0.023341 -0.007226 -226721.000000 0 0 1
-10.130266 22.109800 19.301629 31.048647 -1.141161 0.899939 0.037665 -0.014089 -668551.000000 0 0 1
-10.488566 23.452900 19.363429 32.171275 -1.150258 0.924936 0.045953 -0.014422 -536614.000000 0 0 1
-11.680166 23.652400 18.675029 32.320567 -1.112100 0.954758 0.037788 -0.015727 -318699.000000 0 0 1
-12.312966 25.065500 18.867729 33.702814 -1.114188 0.976620 0.042440 -0.020986 -9724.530000 0 0 1
-12.742666 25.345100 20.189829 34.819231 -1.104938 0.952255 0.043427 -0.018376 255811.000000 0 0 1
-13.466766 26.567800 20.180029 35.978263 -1.101658 0.975330 0.040247 -0.014047 -66180.400000 0 0 1
-14.433366 26.759400 21.370529 37.162980 -1.076147 0.958132 0.068970 -0.020866 640452.000000 0 0 1
-15.681966 26.032700 21.313529 37.119969 -1.028618 0.959195 0.073832 -0.022870 982770.000000 0 0 1
-16.519966 26.539100 22.376029 38.443723 -1.014014 0.949553 0.068090 -0.017252 -55456.300000 0 0 1
-17.904066 25.893800 22.322129 38.591734 -0.965837 0.954009 0.095167 -0.010752 -400409.000000 0 0 1
-17.942366 24.562700 22.730929 37.973015 -0.939911 0.929035 0.102957 -0.011367 77320.900000 0 0 1
-19.283566 24.148400 22.933929 38.483325 -0.896944 0.932355 0.118436 -0.010179 412213.000000 0 0 1
28.854834 23.283400 23.222096 43.749102 0.678943 1.011250 0.099225 -0.029880 -320818.000000 0 0 1
28.393234 22.741800 24.409976 43.808813 0.675325 0.979794 0.106125 -0.047474 -30132.200000 0 0 1
28.123434 21.364400 24.225216 42.827867 0.649658 0.969585 0.114099 -0.035263 -33432.900000 0 0 1
27.464434 20.733400 25.501566 42.831050 0.646641 0.933034 0.128326 -0.040777 269233.000000 0 0 1
26.194434 21.247000 25.845466 42.492017 0.681489 0.916951 0.134871 -0.036683 -5884.050000 0 0 1
25.964934 20.905800 27.205996 43.027857 0.677876 0.886293 0.139553 -0.043195 -448221.000000 0 0 1
24.695234 21.475600 27.831086 42.960742 0.715778 0.866069 0.161135 -0.042582 -416764.000000 0 0 1
24.629534 22.858200 28.177346 43.852869 0.748115 0.872984 0.163847 -0.055337 123516.000000 0 0 1
23.492634 23.003400 29.018556 43.853584 0.774876 0.847693 0.186755 -0.049025 252600.000000 0 0 1
23.150134 24.463500 29.333136 44.663457 0.812975 0.854283 0.175496 -0.031166 -439210.000000 0 0 1
22.473334 25.210100 28.314126 44.071415 0.842730 0.873092 0.162035 -0.042007 286640.000000 0 0 1
21.828534 26.369300 28.782166 44.724020 0.879332 0.871668 0.140382 -0.036243 214537.000000 0 0 1
20.575534 26.193600 29.695186 44.623552 0.904949 0.842687 0.134630 -0.036880 -781725.000000 0 0 1
19.463034 25.633700 29.033066 43.345302 0.921385 0.836845 0.133523 -0.031160 186487.000000 0 0 1
18.264034 25.841900 29.771936 43.448209 0.955548 0.815879 0.107627 -0.024618 258295.000000 0 0 1
17.869134 24.819400 30.816986 43.416531 0.946795 0.781584 0.083498 -0.030919 -668835.000000 0 0 1
18.643934 24.759700 31.956673 44.518176 0.925381 0.770110 0.083078 -0.029181 -172365.000000 0 0 1
17.904034 23.952400 32.856286 44.427553 0.928907 0.738398 0.095308 -0.031248 301410.000000 0 0 1
18.327634 24.009500 -32.994391 44.732405 0.918806 2.400298 0.114996 -0.041833 -603274.000000 0 0 1
18.187234 25.250200 -32.391061 44.916911 0.946588 2.376232 0.100504 -0.041432 79559.100000 0 0 1
18.734834 25.217600 -31.098431 44.204454 0.931837 2.351126 0.082468 -0.030976 28154.900000 0 0 1
18.926234 26.640800 -30.563311 44.744279 0.953109 2.322749 0.077255 -0.026719 3777.460000 0 0 1
17.678534 27.151600 -30.136431 44.248666 0.993645 2.320019 0.097118 -0.029204 416221.000000 0 0 1
17.865534 28.446900 -29.571381 44.753436 1.010020 2.292630 0.097693 -0.023806 130710.000000 0 0 1
17.345634 28.424500 -28.119521 43.583606 1.022885 2.272063 0.111466 -0.031777 297518.000000 0 0 1
18.145934 27.527800 -27.345681 42.835044 0.987991 2.263208 0.080709 -0.026944 683443.000000 0 0 1
17.623634 27.632100 -26.007861 41.839386 1.003048 2.241595 0.069646 -0.018630 -384157.000000 0 0 1
18.448534 26.854500 -24.965671 41.046282 0.968861 2.224628 0.065107 -0.022638 -149801.000000 0 0 1
19.786234 27.306700 -25.039071 42.001262 0.943755 2.209494 0.075772 -0.021337 -386642.000000 0 0 1
20.524034 26.398500 -24.213571 41.284547 0.909945 2.197533 0.073385 -0.018407 -561332.000000 0 0 1
22.027734 26.607800 -24.200371 42.176463 0.879292 2.181921 0.069656 -0.017015 -640585.000000 0 0 1
22.710634 25.854800 -23.239571 41.524947 0.850049 2.164764 0.075876 -0.015427 256675.000000 0 0 1
24.114834 25.782800 -23.482971 42.399622 0.818813 2.157776 0.087313 -0.011582 544224.000000 0 0 1
25.015034 25.784200 -22.241171 42.252178 0.800538 2.125147 0.114001 -0.018154 -77489.300000 0 0 1
24.876534 24.609600 -21.452871 41.045098 0.780004 2.120771 0.127817 -0.026574 35294.800000 0 0 1
25.548434 24.684200 -20.241771 40.887180 0.768195 2.088705 0.120013 -0.020261 -461748.000000 0 0 1
24.801334 23.772100 -19.268771 39.389141 0.764212 2.081957 0.104319 -0.014940 -433535.000000 0 0 1
24.984434 22.383700 -19.418371 38.759839 0.730549 2.095541 0.108564 -0.010462 188174.000000 0 0 1
24.662534 21.675400 -18.290671 37.584734 0.721023 2.079049 0.106509 -0.013858 -819924.000000 0 0 1
24.881734 20.130300 -18.749271 37.092652 0.680228 2.100724 0.122742 -0.018335 730505.000000 0 0 1
23.955834 19.600400 -19.715871 36.698409 0.685734 2.137958 0.115616 -0.016337 1185060.000000 0 0 1
22.547034 19.818800 -19.555271 35.826836 0.721090 2.148173 0.107681 -0.022106 362064.000000 0 0 1
21.846734 19.583400 -20.921571 36.034726 0.730822 2.190255 0.090625 -0.012296 -99311.000000 0 0 1
21.825434 20.489100 -22.045471 37.177353 0.753828 2.205552 0.088967 -0.008903 -283489.000000 0 0 1
21.673334 21.841400 -21.790371 37.704117 0.789260 2.186987 0.090612 -0.008062 -28185.300000 0 0 1
21.085234 22.563000 -23.010071 38.511549 0.819242 2.211157 0.093156 -0.024354 960897.000000 0 0 1
19.669434 22.343700 -23.115771 37.689076 0.848966 2.231064 0.091638 -0.011186 415232.000000 0 0 1
19.150234 23.040000 -24.243671 38.539962 0.877334 2.251130 0.090941 -0.017892 481433.000000 0 0 1
17.592134 22.964300 -24.236871 37.739478 0.917093 2.268181 0.083415 -0.018107 427233.000000 0 0 1
16.987234 23.920300 -23.393771 37.523531 0.953284 2.243934 0.075913 -0.026818 552151.000000 0 0 1
15.560234 23.843700 -23.470971 36.898908 0.992600 2.260215 0.075266 -0.023633 840653.000000 0 0 1
14.860234 25.113000 -22.905071 37.096248 1.036476 2.236293 0.080107 -0.022823 76091.600000 0 0 1
15.274934 26.303500 -23.547171 38.466440 1.044675 2.229571 0.069300 -0.019482 -136380.000000 0 0 1
14.386334 27.333600 -23.267271 38.671155 1.086312 2.216386 0.097493 -0.020884 -305303.000000 0 0 1
14.606734 28.626700 -24.066171 40.150034 1.098983 2.213555 0.093464 -0.022123 -52532.600000 0 0 1
14.624034 28.489700 -25.450771 40.905588 1.096558 2.242325 0.094494 -0.038284 5694.970000 0 0 1
13.956234 29.580100 -26.146631 41.873680 1.129953 2.245181 0.124451 -0.046565 198411.000000 0 0 1
14.587934 31.029100 -26.147561 43.119692 1.131323 2.222315 0.127180 -0.042386 -615901.000000 0 0 1
15.811234 31.059300 -26.774001 43.949088 1.099922 2.225854 0.101520 -0.020086 -861310.000000 0 0 1
16.584934 32.242200 -26.627191 44.984740 1.095706 2.204230 0.096859 -0.030984 -64387.100000 0 0 1
18.012434 32.113000 -27.153431 45.749332 1.059617 2.206230 0.089031 -0.008391 -496192.000000 0 0 1
18.814434 31.221300 -26.418611 45.018835 1.028456 2.197940 0.039203 -0.005367 1007740.000000 0 0 1
20.179434 31.299300 -26.924381 45.954086 0.998138 2.196783 0.056309 -0.002978 941558.000000 0 0 1
21.083434 30.272800 -26.185561 45.239775 0.962458 2.188074 0.036757 0.001376 -392719.000000 0 0 1
21.539034 30.579800 -24.886171 44.926336 0.957154 2.157877 0.037516 -0.003451 470430.000000 0 0 1
22.383334 31.742900 -24.698371 46.028631 0.956626 2.137184 0.037798 -0.004535 879012.000000 0 0 1
23.875334 31.614200 -25.174671 46.938825 0.923970 2.136878 0.031063 0.004711 402755.000000 0 0 1
23.982334 31.568900 -26.568891 47.724771 0.921127 2.161217 0.024902 0.014434 -945338.000000 0 0 1
25.280434 31.765200 -27.000461 48.756058 0.898589 2.157702 0.025085 0.022445 -915193.000000 0 0 1
25.492734 31.258300 -28.447711 49.358212 0.886645 2.185054 0.024920 0.013161 338016.000000 0 0 1
24.585834 31.843800 -29.388641 49.821512 0.913316 2.201705 0.038880 0.000985 862935.000000 0 0 1
23.368134 31.077900 -29.558391 48.842646 0.926067 2.220783 0.037241 -0.002190 143756.000000 0 0 1
22.331434 31.836200 -30.353531 49.331262 0.959099 2.233563 0.045676 -0.002012 -1230950.000000 0 0 1
21.723134 32.857500 -29.573961 49.255751 0.986635 2.214818 0.067387 -0.004848 -209188.000000 0 0 1
20.882534 33.655100 -30.349971 49.898564 1.015449 2.224629 0.079257 -0.017895 869592.000000 0 0 1
19.326634 33.342100 -30.259351 48.998395 1.045477 2.236430 0.084939 -0.029685 1085650.000000 0 0 1
18.873934 31.988000 -30.568621 48.102995 1.037739 2.259430 0.111214 -0.035223 174690.000000 0 0 1
19.253434 31.466700 -31.848501 48.735767 1.021697 2.282987 0.119955 -0.033438 -803169.000000 0 0 1
18.478434 31.921000 -33.118671 49.570648 1.046051 2.302463 0.129408 -0.043437 -342615.000000 0 0 1
18.891334 33.186000 -33.452471 50.766730 1.053289 2.290211 0.117360 -0.036066 157485.000000 0 0 1
18.452034 33.705000 32.611874 50.398799 1.069908 0.867053 0.095828 -0.031756 1882220.000000 0 0 1
16.902534 -33.552214 32.417863 49.622218 -1.104139 0.858870 0.103700 -0.035847 642879.000000 0 0 1
16.015134 33.011600 32.370873 48.929783 1.119110 0.847875 0.119430 -0.033961 -678943.000000 0 0 1
14.689834 33.419100 32.196760 48.675033 1.156655 0.848028 0.116019 -0.035970 -201631.000000 0 0 1
14.285334 -33.618214 30.788396 47.772172 -1.168986 0.870448 0.087737 -0.030465 -1427350.000000 0 0 1
14.994134 -32.521614 30.309496 46.916361 -1.138790 0.868421 0.091806 -0.023595 -208882.000000 0 0 1
14.357634 -31.851614 29.263246 45.574165 -1.147305 0.873560 0.075029 -0.018007 -427752.000000 0 0 1
14.739134 -30.432514 29.043026 44.574402 -1.119770 0.861153 0.076953 -0.012670 -329616.000000 0 0 1
14.425334 -29.538914 30.096226 44.569278 -1.116512 0.829468 0.079969 -0.010395 388350.000000 0 0 1
14.820634 -28.157714 29.915176 43.674086 -1.086297 0.816242 0.086806 -0.020075 -612334.000000 0 0 1
14.359734 -27.238714 31.096886 43.762607 -1.085641 0.780472 0.101887 -0.022340 -112584.000000 0 0 1
12.998334 -26.892514 31.059336 43.091140 -1.120562 0.765866 0.098358 -0.017328 -42322.500000 0 0 1
12.591634 -26.007814 30.014486 41.663233 -1.119910 0.766407 0.090225 -0.019920 -570807.000000 0 0 1
12.917534 -24.501714 30.146196 40.938854 -1.085619 0.743105 0.099212 -0.024407 -245638.000000 0 0 1
12.012934 -23.871614 31.000276 40.928983 -1.104567 0.711450 0.101211 -0.029710 75467.800000 0 0 1
12.563734 -22.678014 31.523535 40.815107 -1.064883 0.688264 0.100130 -0.031057 77030.300000 0 0 1
11.700734 -22.209214 32.690913 41.217134 -1.085907 0.654851 0.095131 -0.031493 -453509.000000 0 0 1
11.650634 -22.897914 -33.387781 42.128324 -1.100127 2.485736 0.104337 -0.029836 306031.000000 0 0 1
12.905134 -23.003114 -32.739171 42.042110 -1.059534 2.463425 0.101239 -0.028299 400748.000000 0 0 1
13.580034 -21.709414 -32.184191 41.128313 -1.011811 2.469517 0.098750 -0.032202 -43912.500000 0 0 1
14.089234 -20.775514 -33.148231 41.580449 -0.974875 2.493451 0.083473 -0.031253 292944.000000 0 0 1
15.039634 -19.872814 -32.620141 41.051101 -0.922961 2.489182 0.073348 -0.031216 -152341.000000 0 0 1
15.203234 -18.637314 -33.592621 41.315275 -0.886530 2.520220 0.059238 -0.028039 -550861.000000 0 0 1
15.815134 -19.032114 32.508979 40.855520 -0.877454 0.650624 0.070250 -0.015417 386534.000000 0 0 1
15.631734 -18.176514 31.391869 39.499192 -0.860527 0.652206 0.046173 -0.005335 -72209.100000 0 0 1
16.409234 -16.804614 31.494552 39.288227 -0.797302 0.640782 0.053671 -0.005981 -678601.000000 0 0 1
15.946934 -15.916814 32.496102 39.542968 -0.784453 0.606247 0.045955 -0.009742 467583.000000 0 0 1
16.653734 -14.673414 32.483645 39.342637 -0.722268 0.599425 0.075278 -0.022994 565353.000000 0 0 1
18.159434 -14.622114 32.918440 40.338504 -0.677908 0.616244 0.076941 -0.013387 329404.000000 0 0 1
18.961534 -15.528414 32.210099 40.474213 -0.686185 0.650439 0.082012 -0.008422 166445.000000 0 0 1
20.340034 -15.295814 32.552074 41.319686 -0.644783 0.663551 0.101415 -0.007267 261849.000000 0 0 1
21.247234 -15.971414 31.556019 41.259100 -0.644584 0.700026 0.127106 -0.019424 -684622.000000 0 0 1
21.384334 -15.286514 30.321986 40.129666 -0.620621 0.714226 0.106100 -0.011316 303888.000000 0 0 1
22.197134 -16.037914 29.447776 40.213169 -0.625682 0.749115 0.100800 -0.016365 -182321.000000 0 0 1
22.644334 -15.261014 28.194266 39.250236 -0.593024 0.769410 0.083508 -0.012378 -331423.000000 0 0 1
23.601534 -14.242014 28.377576 39.562030 -0.542942 0.770887 0.070446 -0.021649 287949.000000 0 0 1
23.893534 -13.625214 27.162666 38.656925 -0.518255 0.791668 0.058516 -0.021859 162513.000000 0 0 1
24.750134 -12.351614 27.434776 38.958933 -0.462889 0.789504 0.054495 -0.017362 563542.000000 0 0 1
23.939334 -11.209914 27.751046 38.325898 -0.437938 0.761096 0.062314 -0.020331 625632.000000 0 0 1
24.779134 -10.144014 28.122066 38.829848 -0.388564 0.760867 0.064328 -0.030510 -42137.200000 0 0 1
23.942134 -8.901714 28.117236 37.987435 -0.355963 0.737470 0.071060 -0.030740 379529.000000 0 0 1
22.912834 -8.870014 29.101336 38.086255 -0.369354 0.701166 0.083113 -0.036828 -275143.000000 0 0 1
22.088234 -7.771214 28.960056 37.242002 -0.338301 0.679928 0.086748 -0.038311 148173.000000 0 0 1
20.839834 -7.731914 29.888056 37.247511 -0.355273 0.639461 0.073302 -0.030611 144455.000000 0 0 1
21.144534 -7.309114 31.208886 38.399336 -0.332816 0.621947 0.086250 -0.043247 248385.000000 0 0 1
21.473334 -8.407614 32.082621 39.510588 -0.373190 0.623225 0.104849 -0.046793 -456014.000000 0 0 1
21.374034 -7.950514 33.540806 40.559162 -0.356112 0.597117 0.128950 -0.063624 32266.600000 0 0 1
20.054334 -7.688014 -33.359811 39.675671 -0.366079 2.569579 0.117314 -0.069602 231710.000000 0 0 1
19.995134 -7.202714 -32.002861 38.417022 -0.345753 2.555374 0.130119 -0.073693 845965.000000 0 0 1
18.531634 -6.845714 -31.520311 37.199667 -0.353858 2.581729 0.127098 -0.065362 1094630.000000 0 0 1
18.613234 -6.105814 -30.328671 36.104871 -0.316976 2.568109 0.130702 -0.062429 -20972.200000 0 0 1
17.308734 -5.938914 -29.864281 35.024823 -0.330530 2.591853 0.128669 -0.049272 -414136.000000 0 0 1
17.287334 -4.894714 -28.684571 33.846931 -0.275917 2.582015 0.122108 -0.044214 -338334.000000 0 0 1
17.939634 -5.108114 -27.452001 33.189390 -0.277398 2.544781 0.123901 -0.045702 134944.000000 0 0 1
17.431934 -6.090614 -26.548591 32.338763 -0.336135 2.533874 0.158588 -0.049938 -194971.000000 0 0 1
16.028834 -5.886114 -25.962301 31.074281 -0.351933 2.559823 0.148862 -0.050295 -192347.000000 0 0 1
15.999434 -4.826614 -25.040971 30.105287 -0.292992 2.553103 0.154072 -0.041566 -720497.000000 0 0 1
14.774834 -4.673114 -24.398571 28.903702 -0.306333 2.575742 0.117375 -0.041653 -540098.000000 0 0 1
14.692134 -3.449214 -23.427071 27.867248 -0.230590 2.569310 0.124870 -0.043559 14539.300000 0 0 1
14.674034 -2.225814 -24.102471 28.305664 -0.150536 2.589649 0.096535 -0.038640 138954.000000 0 0 1
14.318834 -1.211814 -23.228571 27.314172 -0.084430 2.587583 0.103268 -0.034728 -127513.000000 0 0 1
14.797834 0.112186 -23.846271 28.064802 0.007581 2.586186 0.084008 -0.027170 -231575.000000 0 0 1
14.185234 0.565186 -25.025371 28.771678 0.039822 2.625577 0.078192 -0.024945 48504.900000 0 0 1
14.794834 1.767186 -25.428751 29.472554 0.118883 2.611567 0.068639 -0.009751 5241.850000 0 0 1
14.141634 2.331186 -26.744751 30.343070 0.163376 2.649640 0.047362 -0.008057 31418.300000 0 0 1
12.896334 2.951186 -26.540261 29.654854 0.224966 2.679165 0.065554 -0.019074 -35596.600000 0 0 1
12.444934 3.468186 -27.806461 30.661115 0.271787 2.706656 0.076708 -0.025556 725634.000000 0 0 1
11.046134 4.174186 -27.641911 30.058545 0.361299 2.737864 0.090062 -0.030320 401047.000000 0 0 1
11.096234 5.440186 -27.021641 29.713483 0.455836 2.712652 0.069008 -0.027988 -417151.000000 0 0 1
9.902534 6.145186 -27.118901 29.517084 0.555405 2.735706 0.075651 -0.038116 -520122.000000 0 0 1
9.077434 4.804300 -31.228811 32.874302 0.486779 2.823859 0.101283 -0.043106 -30441.400000 0 0 1
9.105834 3.996800 -30.071261 31.672880 0.413608 2.822220 0.086852 -0.027559 617702.000000 0 0 1
8.338434 2.808200 -30.350981 31.600593 0.324847 2.859432 0.077764 -0.020355 18203.800000 0 0 1
8.243934 1.912700 -29.133521 30.337813 0.227979 2.858886 0.083948 -0.020203 739600.000000 0 0 1
9.501134 1.338400 -28.676641 30.239256 0.139947 2.818711 0.095232 -0.029322 1190670.000000 0 0 1
9.339534 0.596000 -27.551961 29.097984 0.063728 2.814151 0.107042 -0.027746 135490.000000 0 0 1
10.706334 0.138500 -26.982201 29.029019 0.012936 2.763826 0.101264 -0.038674 387633.000000 0 0 1
11.224134 -0.970100 -27.775611 29.973435 -0.086216 2.756262 0.085788 -0.030043 710643.000000 0 0 1
12.464334 -1.498400 -27.277651 30.027905 -0.119641 2.710262 0.087018 -0.033181 802903.000000 0 0 1
12.930634 -2.775900 -28.084311 31.042478 -0.211467 2.701485 0.078576 -0.033594 278122.000000 0 0 1
12.015934 -3.869600 -27.998501 30.712742 -0.311551 2.718017 0.077465 -0.031019 635463.000000 0 0 1
12.734034 -5.121300 -28.115091 31.286445 -0.382379 2.687444 0.096330 -0.028539 536415.000000 0 0 1
12.048234 -6.194700 -27.200251 30.387298 -0.474910 2.679495 0.090506 -0.040473 271348.000000 0 0 1
12.175034 -6.002200 -25.790471 29.144575 -0.458026 2.657108 0.113318 -0.035672 12520.300000 0 0 1
11.415434 -6.941600 -25.052671 28.392503 -0.546346 2.651670 0.111316 -0.041015 118883.000000 0 0 1
11.171534 -6.472700 -23.588871 26.891148 -0.525129 2.640792 0.124130 -0.040915 452424.000000 0 0 1
12.379634 -6.472700 -22.815071 26.752171 -0.481761 2.592179 0.137858 -0.045907 543790.000000 0 0 1
12.153334 -6.395000 -21.409271 25.435338 -0.484382 2.571246 0.149619 -0.053659 460378.000000 0 0 1
13.525234 -6.442900 -20.691271 25.545481 -0.444559 2.514910 0.160092 -0.053107 928641.000000 0 0 1
14.344234 -5.268200 -20.596871 25.646482 -0.351976 2.503288 0.150755 -0.052609 310406.000000 0 0 1
15.620734 -5.520800 -20.045571 26.005989 -0.339725 2.450902 0.165630 -0.045033 322498.000000 0 0 1
16.374834 -4.178700 -19.667571 25.930871 -0.249858 2.431746 0.167272 -0.037522 307026.000000 0 0 1
17.076834 -3.507600 -20.713471 27.073407 -0.202583 2.441970 0.144058 -0.039771 261797.000000 0 0 1
17.442634 -2.232200 -20.283971 26.845254 -0.127282 2.427349 0.151949 -0.016784 95691.600000 0 0 1
18.527234 -1.509300 -21.119771 28.135051 -0.081284 2.419852 0.112029 -0.020865 1094520.000000 0 0 1
19.877734 -1.988700 -20.987271 28.974899 -0.099715 2.380853 0.144553 -0.032946 923290.000000 0 0 1
20.772234 -1.273100 -21.814171 30.149039 -0.061212 2.379720 0.135819 -0.020345 114151.000000 0 0 1
22.166034 -1.910100 -21.950371 31.253805 -0.085960 2.349457 0.094220 -0.021762 -1116850.000000 0 0 1
22.977934 -1.847300 -20.820871 31.062946 -0.080222 2.305382 0.082684 -0.010693 1002300.000000 0 0 1
24.332634 -2.315000 -21.025971 32.241708 -0.094854 2.281195 0.059095 -0.018056 935862.000000 0 0 1
25.253234 -1.398800 -21.795471 33.387498 -0.055334 2.282076 0.058277 -0.020693 -1653940.000000 0 0 1
25.033034 -1.321100 -23.199371 34.155657 -0.052725 2.317502 0.071727 -0.028817 100656.000000 0 0 1
26.004334 -0.590300 -23.919871 35.337431 -0.022696 2.314338 0.076364 -0.025150 48368.600000 0 0 1
27.254334 -1.390100 -24.376371 36.591509 -0.050961 2.299865 0.078020 -0.030745 -608958.000000 0 0 1
28.203634 -1.555300 -23.309771 36.622525 -0.055090 2.260732 0.066673 -0.015024 300062.000000 0 0 1
29.322034 -2.309000 -23.694471 37.769579 -0.078584 2.248933 0.054826 -0.012390 140083.000000 0 0 1
30.413834 -1.649300 -24.564871 39.129968 -0.054176 2.249490 0.064194 -0.019608 -1025190.000000 0 0 1
29.921834 -1.454000 -25.864931 39.578086 -0.048555 2.283017 0.068973 -0.028770 80826.000000 0 0 1
30.760834 -0.700300 -26.705451 40.741876 -0.022762 2.285613 0.079473 -0.031102 -767713.000000 0 0 1
30.115534 -0.389200 -28.103651 41.193592 -0.012923 2.321610 0.080425 -0.041940 700398.000000 0 0 1
28.834434 0.255600 -28.151971 40.299173 0.008864 2.344200 0.084454 -0.040507 784928.000000 0 0 1
28.749634 1.500000 -27.438611 39.770200 0.052127 2.332187 0.071011 -0.040514 -1905490.000000 0 0 1
27.432534 2.179500 -27.665281 39.021301 0.079283 2.358846 0.091953 -0.037599 -1419260.000000 0 0 1
26.401134 1.574800 -26.976081 37.778417 0.059578 2.366078 0.104951 -0.025368 -263462.000000 0 0 1
25.119134 2.015500 -27.408481 37.232485 0.080066 2.398152 0.090640 -0.024785 15982.000000 0 0 1
23.975634 1.568900 -26.498111 35.769293 0.065344 2.405066 0.091414 -0.025490 -316822.000000 0 0 1
23.957134 2.306500 -25.285041 34.908416 0.095980 2.380851 0.106082 -0.029681 431312.000000 0 0 1
22.912234 1.848100 -24.428871 33.543340 0.080486 2.386602 0.097084 -0.017165 62182.500000 0 0 1
22.927834 2.323500 -22.944071 32.519450 0.100995 2.353994 0.092146 -0.015886 -272486.000000 0 0 1
22.465234 3.661400 -22.724271 32.163412 0.161560 2.355373 0.110863 -0.026687 471818.000000 0 0 1
22.504734 3.994700 -21.351671 31.278020 0.175675 2.322167 0.107473 -0.026376 -63272.000000 0 0 1
21.964134 5.416400 -20.976571 30.850885 0.241778 2.318469 0.121615 -0.022288 175205.000000 0 0 1
22.805434 6.448500 -21.524571 32.015279 0.275568 2.308137 0.112424 -0.021293 520596.000000 0 0 1
22.633934 7.746400 -21.045071 31.862151 0.329751 2.292286 0.116069 -0.025949 -520574.000000 0 0 1
22.860134 8.002300 -19.503771 31.096939 0.336724 2.248740 0.118500 -0.034539 -198266.000000 0 0 1
24.157834 7.702600 -19.011571 31.691810 0.308655 2.214159 0.115751 -0.033623 489469.000000 0 0 1
24.384334 7.944500 -17.634271 31.123598 0.314958 2.173156 0.111418 -0.044005 -280381.000000 0 0 1
24.335334 9.404500 -17.089971 31.188463 0.368775 2.150718 0.111049 -0.052841 -149673.000000 0 0 1
22.992034 9.835200 -16.985471 30.230299 0.404211 2.167440 0.120799 -0.055653 94684.100000 0 0 1
22.976134 11.206000 -16.702171 30.535875 0.453778 2.149535 0.091217 -0.052604 526352.000000 0 0 1
21.548234 11.918300 -16.573571 29.682579 0.505219 2.163204 0.090201 -0.054706 1368270.000000 0 0 1
20.731834 11.813400 -17.752571 29.740866 0.517932 2.210438 0.089476 -0.052423 464970.000000 0 0 1
20.113434 10.537800 -17.866271 28.892890 0.482599 2.237453 0.091234 -0.056682 -873411.000000 0 0 1
19.262234 10.350000 -19.128971 29.052946 0.493057 2.289511 0.107681 -0.032940 122934.000000 0 0 1
20.045334 9.997500 -20.243071 30.191842 0.462643 2.305654 0.112268 -0.027751 641142.000000 0 0 1
19.164034 9.758200 -21.325971 30.286626 0.470975 2.352005 0.095238 -0.020547 788492.000000 0 0 1
19.973934 9.908600 -22.711071 31.826579 0.460504 2.365403 0.100703 -0.013376 418795.000000 0 0 1
20.208134 11.245200 -22.968971 32.594429 0.507796 2.352783 0.087237 -0.014968 193011.000000 0 0 1
20.849634 11.495200 -24.208271 33.954193 0.503870 2.364519 0.098075 -0.014820 -3281.390000 0 0 1
21.462734 12.919200 -24.297271 34.898597 0.541842 2.340921 0.106072 -0.019764 -74713.100000 0 0 1
21.970834 13.145500 -25.576561 36.189531 0.539180 2.355675 0.118963 -0.017624 -137447.000000 0 0 1
22.167634 14.545600 -25.798001 36.993450 0.580696 2.342513 0.117608 -0.009077 869116.000000 0 0 1
20.932234 15.261800 -26.513141 37.067878 0.629994 2.367791 0.088258 -0.013312 1152760.000000 0 0 1
19.723734 15.207100 -25.766131 35.835389 0.656809 2.373178 0.070659 -0.012000 -495055.000000 0 0 1
18.716734 15.729200 -26.584471 36.117281 0.698884 2.398027 0.071759 -0.014342 -424539.000000 0 0 1
17.311434 15.245200 -26.213781 34.917963 0.722017 2.419955 0.072549 -0.019150 -344628.000000 0 0 1
17.211534 13.873100 -26.383071 34.420433 0.678410 2.444161 0.078187 -0.012036 -374649.000000 0 0 1
15.887034 13.437800 -26.274581 33.516055 0.702071 2.471783 0.056906 -0.011819 -417212.000000 0 0 1
15.702734 11.907700 -26.392531 32.938349 0.648805 2.500212 0.046635 -0.012311 611579.000000 0 0 1
14.335534 11.492000 -26.322611 32.100677 0.675743 2.532210 0.047375 -0.014237 615474.000000 0 0 1
14.336434 10.100800 -26.035281 31.391007 0.613776 2.548805 0.048864 -0.019906 332677.000000 0 0 1
12.904234 9.518900 -25.843641 30.414182 0.635555 2.586257 0.085813 -0.029899 184103.000000 0 0 1
12.368834 9.975700 -24.638471 29.318201 0.678703 2.568783 0.114599 -0.034464 109147.000000 0 0 1
11.118834 9.308400 -24.460571 28.435793 0.697001 2.606465 0.124891 -0.037039 347953.000000 0 0 1
10.263534 9.880100 -23.298771 27.309142 0.766365 2.592789 0.128167 -0.039337 -61097.600000 0 0 1
9.713834 11.116300 -23.668071 27.894592 0.852625 2.583907 0.136338 -0.040169 -85165.600000 0 0 1
8.923934 11.744800 -22.648471 27.028321 0.921040 2.564318 0.139031 -0.027512 351434.000000 0 0 1
9.649034 12.509200 -21.481771 26.665529 0.913768 2.507485 0.120030 -0.028082 -63748.100000 0 0 1
10.245934 11.612800 -20.564871 25.743935 0.847849 2.496134 0.143734 -0.033039 1549940.000000 0 0 1
11.337534 12.386400 -19.894171 26.033452 0.829581 2.440561 0.180595 -0.037674 2074380.000000 0 0 1
12.346134 11.503900 -19.017371 25.424931 0.750099 2.415812 0.177540 -0.038384 997415.000000 0 0 1
13.423034 10.770800 -19.617571 26.096687 0.676210 2.421472 0.146023 -0.034668 559130.000000 0 0 1
13.014834 9.684100 -20.407371 26.069685 0.639703 2.469950 0.140521 -0.039217 141424.000000 0 0 1
14.170534 8.766300 -20.965471 26.780646 0.554005 2.470044 0.143360 -0.027185 -29272.800000 0 0 1
14.905334 8.157400 -19.994371 26.239036 0.500753 2.437206 0.158352 -0.049408 -194360.000000 0 0 1
15.786134 7.199500 -20.549971 26.894909 0.427886 2.440417 0.111962 -0.043652 -226237.000000 0 0 1
16.296034 6.276800 -19.491871 26.170441 0.367660 2.411039 0.171444 -0.053326 -129067.000000 0 0 1
17.304034 6.858600 -18.677571 26.368952 0.377363 2.357907 0.128094 -0.030506 137589.000000 0 0 1
17.513234 6.084700 -17.517071 25.506562 0.334387 2.327828 0.137503 -0.053197 -171113.000000 0 0 1
18.798134 6.524400 -16.770071 26.022546 0.334068 2.271092 0.191917 -0.035076 764204.000000 0 0 1
20.030134 6.093000 -17.397871 27.221624 0.295298 2.264149 0.151922 -0.047519 1030260.000000 0 0 1
21.112234 6.478800 -16.552171 27.598472 0.297751 2.213984 0.143615 -0.065017 -329509.000000 0 0 1
22.021734 5.295800 -16.199371 27.846398 0.235999 2.191663 0.137545 -0.070702 -888978.000000 0 0 1
23.046134 5.712500 -15.301371 28.246927 0.242975 2.143255 0.124984 -0.059570 542508.000000 0 0 1
23.914234 4.693500 -14.891971 28.560293 0.193801 2.119313 0.193969 -0.074978 -22378.600000 0 0 1
24.970134 4.075700 -15.860971 29.861167 0.161796 2.130762 0.080179 -0.007983 -454746.000000 0 0 1
25.592934 2.942700 -15.266271 29.945230 0.114478 2.105756 0.092884 -0.025687 108159.000000 0 0 1
26.665134 2.541200 -16.110471 31.257548 0.095014 2.112283 0.070853 -0.028307 113765.000000 0 0 1
27.505634 1.501200 -15.360071 31.539583 0.054524 2.079459 0.084700 -0.038537 68715.100000 0 0 1
26.825934 0.206600 -15.383871 30.924697 0.007701 2.091467 0.102046 -0.040212 191201.000000 0 0 1
27.745934 -0.820900 -15.424271 31.755611 -0.029578 2.077981 0.099329 -0.029003 -598729.000000 0 0 1
27.049634 -2.121700 -15.824271 31.410060 -0.078277 2.098784 0.082384 -0.030991 238437.000000 0 0 1
26.269334 -2.792700 -14.812371 30.286687 -0.105912 2.081822 0.092428 -0.029422 565576.000000 0 0 1
25.943934 -4.117900 -15.215771 30.357281 -0.157410 2.095808 0.088053 -0.025762 -970288.000000 0 0 1
25.315034 -4.941700 -14.118871 29.404317 -0.192784 2.071637 0.102976 -0.033004 144206.000000 0 0 1
24.027034 -4.654800 -13.640671 28.018448 -0.191361 2.079272 0.145919 -0.020864 182032.000000 0 0 1
22.932234 -4.776500 -14.541071 27.570728 -0.205352 2.126345 0.157165 -0.024416 -663474.000000 0 0 1
21.642334 -4.404400 -13.793571 26.039431 -0.200767 2.129065 0.184068 -0.028089 -820509.000000 0 0 1
20.905034 -5.430000 -13.213471 25.319975 -0.254130 2.119826 0.196175 -0.029076 70439.800000 0 0 1
21.393034 -5.996500 -12.005471 25.253737 -0.273288 2.066208 0.216289 -0.022880 -403738.000000 0 0 1
20.977534 -7.427800 -11.829771 25.202631 -0.340308 2.059392 0.176694 -0.011579 426528.000000 0 0 1
19.612834 -7.641300 -11.481871 23.976782 -0.371515 2.070169 0.171797 -0.007507 781384.000000 0 1 0
19.198434 -9.011400 -11.705271 24.223925 -0.438855 2.075115 0.158067 -0.018377 -474830.000000 0 1 0
17.836934 -9.345500 -11.074071 22.981071 -0.482616 2.073593 0.153799 -0.035079 -498698.000000 0 1 0
16.897134 -8.527300 -11.725371 22.264597 -0.467368 2.125436 0.144772 -0.017168 -283904.000000 0 1 0
15.572434 -8.994700 -11.557071 21.376885 -0.523789 2.141987 0.133941 -0.024921 656658.000000 0 1 0
14.463234 -8.081300 -12.213771 20.583215 -0.509535 2.206054 0.098397 -0.008520 67886.200000 0 1 0
14.610434 -7.743600 -13.564371 21.387386 -0.487362 2.257799 0.111933 -0.002585 987318.000000 0 1 0
15.560534 -6.627200 -13.787571 21.820795 -0.402631 2.254740 0.117233 -0.000893 777277.000000 0 1 0
15.164134 -5.503900 -14.763171 21.867672 -0.348169 2.311915 0.103190 -0.007042 376937.000000 0 1 0
14.173534 -4.615200 -14.189271 20.579712 -0.314793 2.331565 0.106642 -0.013693 688630.000000 0 1 0
13.663534 -3.617500 -15.048271 20.645312 -0.258818 2.387503 0.085272 -0.023847 -504065.000000 0 1 0
14.597934 -2.402600 -15.241871 21.241158 -0.163123 2.371093 0.124715 -0.025798 -402123.000000 0 1 0
15.586134 -2.560900 -16.230471 22.647604 -0.162851 2.369788 0.118978 -0.018662 58019.500000 0 1 0
16.637234 -1.636500 -16.209971 23.286022 -0.098048 2.340781 0.127501 -0.025348 362326.000000 0 1 0
17.837734 -1.934200 -15.263671 23.556433 -0.108011 2.275702 0.162410 -0.025653 -191914.000000 0 1 0
17.543734 -1.821600 -13.860871 22.432667 -0.103461 2.236850 0.148569 -0.016936 260169.000000 0 1 0
18.530434 -2.501800 -13.084971 22.822192 -0.134199 2.181378 0.154492 -0.018293 -191591.000000 0 1 0
18.235034 -2.628000 -11.582471 21.761812 -0.143133 2.132039 0.161300 -0.017157 -151523.000000 0 1 0
18.254634 -1.396700 -10.827371 21.270035 -0.076363 2.104869 0.163897 -0.021265 405136.000000 0 1 0
17.701134 -1.640300 -9.591871 20.199622 -0.092402 2.065594 0.140343 -0.019784 -1008900.000000 0 1 0
17.699534 -0.428900 -8.668971 19.713156 -0.024228 2.026123 0.126730 -0.018023 -916359.000000 0 1 0
18.890034 0.047600 -8.132271 20.566222 0.002520 1.977320 0.138695 -0.015677 -237647.000000 0 1 0
19.798134 0.622600 -9.034271 21.770893 0.031437 1.998706 0.163433 -0.011066 -490961.000000 0 1 0
19.350534 2.015000 -9.622171 21.704598 0.103758 2.030100 0.163151 -0.019957 -596011.000000 0 1 0
19.228334 3.126700 -8.777771 21.367132 0.161198 1.994136 0.130912 -0.007184 463833.000000 0 1 0
18.642634 4.170900 -9.558771 21.361515 0.220104 2.034738 0.121856 -0.018427 -124701.000000 0 1 0
18.360234 5.519200 -8.884971 21.130605 0.292013 2.004769 0.080012 -0.006314 -379935.000000 0 1 0
18.009834 6.458300 -9.880471 21.533403 0.344314 2.047490 0.092370 -0.003356 366792.000000 0 1 0
18.664334 7.662700 -9.565271 22.328653 0.389571 2.013502 0.131189 0.002775 125829.000000 0 1 0
-27.618476 -28.489450 5.242029 40.023841 0.800920 1.439446 0.144205 -0.018113 102049.000000 0 0 1
-28.036926 -27.393770 5.966629 39.649571 0.773796 1.419738 0.113258 -0.016463 -701694.000000 0 0 1
-26.999256 -26.470670 5.921329 38.271639 0.775513 1.415454 0.150939 -0.025023 -548093.000000 0 0 1
-27.113986 -25.330230 6.948329 37.750074 0.751399 1.385680 0.111636 -0.022947 446090.000000 0 0 1
-28.328126 -24.548300 6.892629 38.113122 0.714035 1.388949 0.095819 -0.022486 961044.000000 0 0 1
-29.520016 -25.084680 7.454029 39.449145 0.704350 1.380701 0.091447 -0.018722 200816.000000 0 0 1
-29.564186 -25.317540 9.005429 39.951429 0.708174 1.343433 0.087264 -0.018843 -247842.000000 0 0 1
-28.554326 -26.210170 9.465829 39.898928 0.742620 1.331267 0.084545 -0.020411 -73721.100000 0 0 1
-28.778956 -26.645330 10.779829 40.674398 0.746921 1.302564 0.058108 -0.021251 -744229.000000 0 0 1
-27.569556 -27.279870 11.455329 40.441270 0.780117 1.283606 0.037812 -0.021498 -1307400.000000 0 0 1
-26.537346 -26.432120 11.714729 39.244395 0.783412 1.267668 0.054499 -0.010656 -1132070.000000 0 0 1
-26.705636 -25.575270 12.861329 39.149703 0.763781 1.236064 0.052347 -0.014060 -571661.000000 0 0 1
-25.348856 -25.216730 13.497229 38.218100 0.782785 1.209846 0.072907 -0.025992 -258379.000000 0 0 1
-24.653666 -26.349420 13.953029 38.688269 0.818634 1.201829 0.063324 -0.026439 280819.000000 0 0 1
-23.533266 -25.897450 14.751529 37.974993 0.833190 1.171843 0.077170 -0.028864 893604.000000 0 0 1
-22.748966 -27.065140 15.452229 38.585083 0.871828 1.158765 0.070061 -0.029315 -415492.000000 0 0 1
-23.602466 -27.782740 16.262829 39.917874 0.866571 1.151183 0.059700 -0.020162 -69394.300000 0 0 1
-22.910966 -28.865080 16.882829 40.535603 0.899893 1.141211 0.060154 -0.017662 -236170.000000 0 0 1
-23.790466 -29.713000 17.799629 42.019941 0.895644 1.133381 0.068344 -0.022993 -86586.500000 0 0 1
-24.765966 -30.412490 17.031129 42.758999 0.887375 1.161128 0.046098 -0.015688 199946.000000 0 0 1
-25.311146 -31.395560 17.844329 44.099381 0.892285 1.154212 0.063411 -0.011528 -395433.000000 0 0 1
-26.218466 -32.404270 17.145729 45.071285 0.890528 1.180553 0.052597 -0.019926 -29050.300000 0 0 1
-25.451716 -33.252030 16.322529 44.943434 0.917500 1.199118 0.055680 -0.023320 534774.000000 0 0 1
-26.292946 33.491852 15.612829 45.351776 -0.905235 1.219345 0.058086 -0.023463 -283197.000000 0 0 1
-25.569086 32.733000 14.476229 43.986233 -0.907661 1.235437 0.075285 -0.032698 -59778.600000 0 0 1
-24.515866 31.866222 14.840129 42.856892 -0.915034 1.217202 0.058427 -0.027441 937131.000000 0 0 1
-23.256066 32.556823 14.687929 42.620729 -0.950523 1.218963 0.054742 -0.020484 266966.000000 0 0 1
-22.017666 31.671285 14.500929 41.208310 -0.963304 1.211203 0.073130 -0.031714 -223774.000000 0 0 1
-21.915566 31.232735 13.182829 40.367843 -0.958940 1.238127 0.060575 -0.019538 -467756.000000 0 0 1
-20.892366 30.316805 13.018129 39.052161 -0.967400 1.230939 0.072272 -0.026613 -373532.000000 0 0 1
-20.827266 29.733085 11.634729 38.120838 -0.959752 1.260641 0.074957 -0.024800 219795.000000 0 0 1
-20.380966 30.623835 10.578229 38.276650 -0.983584 1.290789 0.067208 -0.018362 40287.000000 0 0 1
-20.722366 30.003035 9.360629 37.645981 -0.966356 1.319511 0.079437 -0.030270 42684.100000 0 0 1
-20.104666 30.726485 8.156329 37.614361 -0.991397 1.352219 0.073387 -0.033100 -854627.000000 0 0 1
-18.729666 30.639975 8.062229 36.804999 -1.022122 1.349953 0.076594 -0.038354 -1173480.000000 0 0 1
-18.315166 30.975285 6.759529 36.614270 -1.036811 1.385117 0.095408 -0.036536 591008.000000 0 0 1
-17.430366 29.895825 5.996929 35.121805 -1.042943 1.399209 0.107095 -0.046887 241368.000000 0 0 1
-18.153066 28.744175 5.549529 34.446461 -1.007509 1.408985 0.107215 -0.035286 101946.000000 0 0 1
-18.337366 27.703985 6.487429 33.850502 -0.986099 1.377954 0.086108 -0.031447 495651.000000 0 0 1
-19.665966 26.936165 6.139029 33.911574 -0.940156 1.388762 0.074945 -0.019025 657355.000000 0 0 1
-19.530766 26.238375 4.905929 33.075236 -0.930915 1.421921 0.089980 -0.031191 864461.000000 0 0 1
-20.793266 25.790635 4.385229 33.417764 -0.892266 1.439192 0.085323 -0.030216 155956.000000 0 0 1
-20.541866 25.117285 2.995329 32.585553 -0.885273 1.478744 0.102400 -0.045516 -1161480.000000 0 0 1
-20.069166 25.928165 1.905729 32.843157 -0.912093 1.512739 0.114363 -0.045735 483021.000000 0 0 1
-18.750366 26.442135 1.989529 32.476467 -0.953983 1.509497 0.116951 -0.047179 693506.000000 0 0 1
-17.560566 25.424445 2.288229 30.984058 -0.966342 1.496877 0.127395 -0.055978 -583082.000000 0 0 1
-17.380866 24.258965 1.489829 29.879951 -0.949101 1.520915 0.169124 -0.069225 279749.000000 0 0 1
-17.047066 24.534175 0.117429 29.875441 -0.963549 1.566866 0.145631 -0.060661 113025.000000 0 0 1
-16.553966 23.301215 -0.738971 28.592420 -0.953102 1.596644 0.144013 -0.061498 -617047.000000 0 0 1
-17.638066 22.462415 -0.971671 28.576312 -0.905129 1.604806 0.154157 -0.071324 -402032.000000 0 0 1
-17.492366 21.224915 -1.723471 27.558124 -0.881506 1.633377 0.148578 -0.059937 -293756.000000 0 0 1
-16.338466 20.214815 -1.477071 26.033938 -0.891050 1.627563 0.143349 -0.054008 199442.000000 0 0 1
-16.462566 19.468115 -0.289471 25.497203 -0.868852 1.582150 0.151667 -0.056731 61835.200000 0 0 1
-15.306566 18.683315 -0.163371 24.153341 -0.884419 1.577560 0.149257 -0.055295 4185.630000 0 1 0
-15.641566 17.498915 0.775029 23.483425 -0.841384 1.537787 0.115719 -0.051515 215956.000000 0 1 0
-16.340466 16.463515 0.121129 23.196397 -0.789149 1.565574 0.102374 -0.044142 306626.000000 0 1 0
-16.962866 15.595015 1.078029 23.067411 -0.743410 1.524045 0.114973 -0.063457 319996.000000 0 1 0
-17.888466 14.471515 0.556729 23.015905 -0.680196 1.546605 0.116483 -0.055683 524669.000000 0 1 0
-19.092866 14.794015 -0.143471 24.154109 -0.659213 1.576736 0.159396 -0.064517 646233.000000 0 1 0
-19.781166 13.575315 -0.391971 23.994527 -0.601455 1.587133 0.169173 -0.057830 -87167.400000 0 1 0
-21.136866 13.668615 -1.156971 25.197951 -0.574032 1.616728 0.188421 -0.051255 -170213.000000 0 0 1
-21.940666 12.536815 -1.407771 25.309017 -0.519122 1.626448 0.181196 -0.058237 500575.000000 0 0 1
-22.494166 12.055815 -0.172571 25.521754 -0.491995 1.577558 0.166944 -0.059243 -29404.700000 0 0 1
-23.932166 12.638815 0.121429 27.064792 -0.485882 1.566310 0.196886 -0.066917 237708.000000 0 0 1
-23.899866 14.070415 0.163129 27.734577 -0.532087 1.564914 0.203579 -0.066658 501459.000000 0 0 1
-25.200216 14.594015 0.451029 29.124553 -0.524927 1.555309 0.197245 -0.057846 489996.000000 0 0 1
-25.265686 16.092015 0.670029 29.962589 -0.567119 1.548432 0.193623 -0.061001 -119476.000000 0 0 1
-24.875066 16.424415 1.990629 29.874620 -0.583565 1.504114 0.186145 -0.056626 14693.400000 0 0 1
-24.878966 17.801215 2.391429 30.684933 -0.621061 1.492782 0.156774 -0.056315 329563.000000 0 0 1
-26.282466 18.425615 2.617429 32.204382 -0.611438 1.489431 0.166003 -0.051814 -1393530.000000 0 0 1
-26.998956 18.040515 3.770729 32.689787 -0.589059 1.455190 0.179261 -0.064779 -368948.000000 0 0 1
-28.216066 18.680815 3.931229 34.067195 -0.584809 1.455142 0.168529 -0.062872 181132.000000 0 0 1
-29.259616 18.644715 2.733629 34.802633 -0.567336 1.492169 0.180018 -0.061355 -538263.000000 0 0 1
-30.448706 19.428615 2.932829 36.238050 -0.567948 1.489775 0.177492 -0.056494 1123530.000000 0 0 1
-31.314356 19.395115 1.775029 36.876959 -0.554539 1.522644 0.164791 -0.049935 223636.000000 0 0 1
-32.708526 19.980515 2.005629 38.380870 -0.548371 1.518517 0.166534 -0.053747 -779740.000000 0 0 1
-33.668676 19.104615 2.546729 38.794998 -0.516127 1.505103 0.205743 -0.049591 468287.000000 0 0 1
-34.954764 19.729715 2.552529 40.219554 -0.513859 1.507289 0.189404 -0.047872 511348.000000 0 0 1
-35.347980 20.391815 3.911829 40.995222 -0.523252 1.475229 0.167803 -0.052945 -403526.000000 0 0 1
-34.589833 21.556715 4.207829 40.973825 -0.557311 1.467919 0.170139 -0.054134 409238.000000 0 0 1
-34.696293 21.903015 5.549529 41.404976 -0.563101 1.436361 0.163762 -0.055979 -58599.300000 0 0 1
-33.473226 22.773055 5.900729 40.913170 -0.597407 1.426066 0.167112 -0.056717 -83036.800000 0 0 1
-33.587716 24.054875 5.295929 41.651153 -0.621503 1.443302 0.149760 -0.046702 643453.000000 0 0 1
-32.485766 24.864905 5.693129 41.303755 -0.653290 1.432520 0.139669 -0.046787 165689.000000 0 0 1
-32.699486 26.350045 5.364229 42.336228 -0.678282 1.443749 0.138073 -0.035016 -205674.000000 0 0 1
-33.895406 26.749835 5.987429 43.592448 -0.668113 1.433011 0.143139 -0.028670 79860.600000 0 0 1
-34.088881 28.144495 5.998329 44.611034 -0.690169 1.435929 0.129495 -0.018738 161600.000000 0 0 1
-35.244426 28.549195 6.944829 45.885256 -0.680830 1.418860 0.116704 -0.014456 -52927.800000 0 0 1
-34.794112 28.387535 8.297229 45.665374 -0.684344 1.388085 0.129947 -0.018602 487292.000000 0 0 1
-35.634158 29.014965 9.248729 46.874304 -0.683367 1.372184 0.134361 -0.017587 433181.000000 0 0 1
-36.931796 28.246155 9.665929 47.489294 -0.652918 1.365825 0.129657 -0.019098 130165.000000 0 0 1
-36.608666 27.038345 10.189329 46.637849 -0.636151 1.350542 0.149961 -0.033549 -783183.000000 0 0 1
-37.590646 26.475995 10.960329 47.266942 -0.613622 1.336785 0.144086 -0.036241 -868224.000000 0 0 1
-37.246026 25.174295 11.782229 46.473998 -0.594362 1.314476 0.168229 -0.037659 -666992.000000 0 0 1
-36.317116 25.399665 12.769229 46.120810 -0.610313 1.290266 0.187117 -0.045270 -402631.000000 0 0 1
-35.898600 24.293095 13.566629 45.419350 -0.594926 1.267469 0.179390 -0.041950 -133107.000000 0 0 1
-34.548498 24.604095 14.239729 44.740698 -0.618841 1.246890 0.183413 -0.045412 -152017.000000 0 0 1
-34.689240 25.576515 15.208929 45.703534 -0.635326 1.231553 0.177703 -0.040853 -416806.000000 0 0 1
-33.441886 26.041315 15.618029 45.171148 -0.661620 1.217756 0.195801 -0.037904 -548414.000000 0 0 1
-33.431796 27.113175 16.708429 46.173378 -0.681412 1.200531 0.197953 -0.034664 -129733.000000 0 0 1
-33.500786 28.394905 16.099629 46.773618 -0.703093 1.219406 0.213093 -0.035615 103271.000000 0 0 1
-33.600486 29.404035 17.075429 47.803349 -0.718891 1.205526 0.183232 -0.030948 -15964.700000 0 0 1
-33.309896 30.800715 16.501429 48.275567 -0.746280 1.221946 0.155001 -0.021367 243539.000000 0 0 1
-31.941486 31.099455 16.295829 47.465658 -0.772042 1.220349 0.140240 -0.018693 20839.600000 0 0 1
-31.674806 32.357436 15.744429 47.939379 -0.796058 1.236162 0.111242 -0.008990 47674.800000 0 0 1
-30.251576 32.592697 15.162329 46.982315 -0.822634 1.242190 0.131982 -0.018788 337182.000000 0 0 1
-30.001826 32.002077 13.845429 45.999330 -0.817647 1.265064 0.123610 -0.019964 120577.000000 0 0 1
-29.527386 30.625605 13.748829 44.708215 -0.803653 1.258207 0.144201 -0.028741 -297464.000000 0 0 1
-30.538436 29.497095 13.553229 44.568651 -0.768054 1.261805 0.178431 -0.029918 -96654.700000 0 0 1
-30.992586 29.346545 12.180329 44.386039 -0.758125 1.292812 0.179024 -0.032973 752479.000000 0 0 1
-31.849056 28.181445 11.955129 44.175574 -0.724378 1.296751 0.176022 -0.029986 735532.000000 0 0 1
-31.944586 28.009915 10.408829 43.741921 -0.719865 1.330531 0.166729 -0.022171 -388882.000000 0 0 1
-30.776456 27.448565 9.919929 42.414843 -0.728305 1.334731 0.146828 -0.019869 -504953.000000 0 0 1
-30.758816 27.585405 8.545929 42.191139 -0.731061 1.366832 0.143509 -0.026472 -276762.000000 0 0 1
-29.679826 26.785185 7.845729 40.741793 -0.734179 1.377014 0.154783 -0.027954 -357792.000000 0 0 1
-29.466856 27.065175 6.498429 40.534539 -0.742940 1.409783 0.152328 -0.034157 -465228.000000 0 0 1
-28.308536 26.400125 6.091929 39.184836 -0.750529 1.414697 0.119496 -0.025711 -488671.000000 0 0 1
-27.914606 26.637075 4.622129 38.860302 -0.761984 1.451572 0.114505 -0.019949 -476750.000000 0 0 1
-27.420756 27.922505 4.426429 39.384736 -0.794464 1.458169 0.101813 -0.018327 167900.000000 0 0 1
-27.072796 28.115725 3.039529 39.149317 -0.804293 1.493079 0.100238 -0.017571 24563.600000 0 0 1
-26.044576 29.254055 2.735529 39.263250 -0.843372 1.501068 0.101220 -0.021506 -208826.000000 0 0 1
-24.735066 28.840975 2.970729 38.111029 -0.861886 1.492768 0.092460 -0.017647 -829035.000000 0 0 1
-23.805866 29.878895 2.820329 38.306943 -0.898043 1.497105 0.090963 -0.014057 153858.000000 0 0 1
-22.395466 29.446105 3.284029 37.140474 -0.920572 1.482259 0.063217 -0.022253 173594.000000 0 0 1
-21.349466 30.247215 2.820429 37.130156 -0.956167 1.494762 0.081873 -0.021601 136366.000000 0 0 1
-20.049866 29.684525 2.977529 35.944872 -0.976750 1.487865 0.101020 -0.036109 619649.000000 0 0 1
-18.871866 30.557655 2.515529 36.003409 -1.017549 1.500870 0.092842 -0.033169 -40722.500000 0 0 1
-18.723166 31.682336 3.351429 36.953476 -1.037046 1.479978 0.106262 -0.038560 253488.000000 0 0 1
-17.653466 32.478324 2.856729 37.076236 -1.072922 1.493670 0.104228 -0.022984 231063.000000 0 0 1
-17.285466 33.739335 3.723529 38.091924 -1.097338 1.472889 0.115860 -0.030401 209691.000000 0 0 1
-18.253966 -32.851330 3.727029 37.766492 1.063623 1.471949 0.131101 -0.036878 -21392.400000 0 0 1
-17.830566 -31.789480 4.501629 36.725533 1.059627 1.447912 0.118102 -0.049052 -158524.000000 0 0 1
-18.727766 -30.524190 4.667429 36.114267 1.020481 1.441193 0.158396 -0.041992 -8798.190000 0 0 1
-19.008766 -29.745690 3.523629 35.476122 1.002163 1.471308 0.180534 -0.043066 -217575.000000 0 0 1
-20.052366 -28.893570 3.861829 35.381485 0.964103 1.461430 0.205862 -0.051472 -458710.000000 0 0 1
-20.383266 -27.859600 2.784629 34.632196 0.939148 1.490304 0.189025 -0.064066 160246.000000 0 0 1
-19.393566 -26.844060 2.656529 33.223051 0.945160 1.490750 0.206760 -0.062395 198679.000000 0 0 1
-19.743066 -25.868220 1.693529 32.585602 0.918890 1.518801 0.171381 -0.064402 -344088.000000 0 0 1
-18.732866 -24.742000 1.597629 31.074736 0.922749 1.519361 0.148110 -0.052796 158936.000000 0 0 1
-17.455466 -25.218070 1.196129 30.693241 0.965337 1.531816 0.183952 -0.046209 -433716.000000 0 0 1
-16.538166 -24.151600 1.138129 29.293447 0.970369 1.531934 0.150293 -0.043202 519777.000000 0 0 1
-15.200766 -24.557300 0.412729 28.884158 1.016529 1.556507 0.124091 -0.039870 153436.000000 0 0 1
-15.147266 -24.695700 -0.995171 28.988060 1.020614 1.605133 0.108291 -0.031863 46791.100000 0 0 1
-15.296966 -23.442400 -1.667471 28.041465 0.992642 1.630296 0.111330 -0.039501 -286263.000000 0 0 1
-15.478366 -23.571700 -3.239571 28.384849 0.989760 1.685176 0.077485 -0.027466 226639.000000 0 0 1
-14.250166 -23.818600 -3.891571 28.027437 1.031643 1.710095 0.101453 -0.028038 115759.000000 0 0 1
-14.518766 -23.878600 -5.299171 28.444038 1.024498 1.758193 0.086375 -0.025374 142322.000000 0 0 1
-13.351366 -24.378100 -6.167671 28.470878 1.069737 1.789158 0.108473 -0.033225 83810.600000 0 0 1
-13.185066 -25.773230 -6.078871 29.581379 1.097928 1.777767 0.086233 -0.033788 -308232.000000 0 0 1
-12.252066 -26.251790 -7.005071 29.805043 1.134131 1.808045 0.102093 -0.035564 -24374.600000 0 0 1
24.125634 12.423700 27.368986 38.541613 0.475543 0.781134 0.094176 -0.014591 320956.000000 0 0 1
25.424134 11.847300 27.556156 39.320311 0.436068 0.794261 0.085847 -0.019014 900407.000000 0 0 1
25.363334 10.918700 28.607416 39.760545 0.406513 0.767725 0.099224 -0.021690 -275248.000000 0 0 1
25.436434 11.499000 30.037626 41.006074 0.424572 0.748785 0.115983 -0.029667 130298.000000 0 0 1
24.308734 12.232900 30.519856 40.890341 0.466229 0.728186 0.124582 -0.025480 385211.000000 0 0 1
24.446934 12.588400 31.893129 42.110475 0.475518 0.711523 0.098495 -0.023472 -396182.000000 0 0 1
23.369034 13.629000 32.264544 42.105370 0.527981 0.697764 0.102738 -0.024817 -66891.900000 0 0 1
22.127334 13.045000 32.547278 41.462227 0.532695 0.668122 0.130206 -0.022499 159383.000000 0 0 1
21.142834 13.994500 32.961594 41.585239 0.584697 0.655690 0.108771 -0.023069 64047.200000 0 0 1
19.928634 13.512400 -33.597251 41.334134 0.595835 2.519775 0.097672 -0.011496 -656355.000000 0 0 1
18.924634 13.017500 32.926435 40.146571 0.602532 0.609113 0.094745 -0.008473 -546340.000000 0 0 1
17.770534 12.827600 -33.622561 40.134970 0.625238 2.563923 0.074333 -0.007750 1006540.000000 0 0 1
16.398934 12.627500 32.956880 38.917024 0.656191 0.560762 0.064853 0.000675 1113550.000000 0 0 1
16.355534 11.482200 32.199203 37.896346 0.612092 0.555446 0.055956 0.009270 -834187.000000 0 0 1
15.038334 11.198100 31.851253 36.960130 0.640060 0.532041 0.075066 0.001358 -382528.000000 0 0 1
14.889134 10.078900 30.814506 35.676383 0.595074 0.528186 0.087486 -0.002460 -25556.000000 0 0 1
15.005834 8.771000 31.372105 35.865226 0.528949 0.505934 0.050190 -0.008198 -33959.800000 0 0 1
15.376734 7.997300 30.233156 34.848880 0.479591 0.520541 0.055586 -0.017558 -32927.900000 0 0 1
15.815934 6.546700 30.600746 35.062925 0.392458 0.510013 0.086899 -0.028993 -182300.000000 0 0 1
14.839934 5.611200 30.953126 34.782254 0.361499 0.473645 0.099189 -0.024727 -327945.000000 0 0 1
15.465134 4.371200 31.207706 35.102687 0.275463 0.475552 0.088903 -0.034299 448911.000000 0 0 1
14.439634 3.257600 31.680475 34.968092 0.221887 0.437102 0.067382 -0.032753 -310721.000000 0 0 1
14.973034 2.026300 31.873055 35.273067 0.134513 0.442675 0.064442 -0.038266 324547.000000 0 0 1
13.909334 1.087700 32.133777 35.031875 0.078040 0.409619 0.072041 -0.042367 585270.000000 0 0 1
14.464134 -0.295600 32.647660 35.709498 -0.020434 0.417126 0.056870 -0.044420 -61301.100000 0 0 1
15.187234 -1.057500 31.721228 35.185319 -0.069519 0.447464 0.079954 -0.045936 10113.500000 0 0 1
15.378934 -2.365000 32.155985 35.722713 -0.152586 0.450671 0.108264 -0.053242 252546.000000 0 0 1
16.209834 -3.288400 31.176766 35.292535 -0.200148 0.487768 0.121176 -0.053662 -705481.000000 0 0 1
16.314134 -4.648400 31.573192 35.841666 -0.277575 0.493020 0.131244 -0.052464 735473.000000 0 0 1
17.514234 -5.132800 32.193340 37.006826 -0.285082 0.515736 0.113623 -0.052982 639729.000000 0 0 1
18.940034 -4.835600 31.699283 37.241810 -0.249971 0.552577 0.121555 -0.047917 -347592.000000 0 0 1
19.259134 -3.425600 31.760074 37.300821 -0.176028 0.552038 0.124446 -0.052906 -78676.700000 0 0 1
20.060834 -2.898000 30.748836 36.828336 -0.143468 0.582803 0.124760 -0.058450 -350797.000000 0 0 1
19.859834 -1.371100 30.701296 36.590470 -0.068929 0.575258 0.125423 -0.053796 -54258.600000 0 0 1
20.377734 -0.636400 31.802622 37.776498 -0.031220 0.570071 0.111804 -0.048400 292734.000000 0 0 1
20.046134 0.753500 31.554462 37.391166 0.037571 0.566282 0.096998 -0.037068 -465377.000000 0 0 1
21.209434 1.643800 31.161066 37.730017 0.077349 0.599007 0.108372 -0.032169 -681471.000000 0 0 1
21.674734 1.364800 29.832266 36.900147 0.062884 0.629267 0.120168 -0.038890 432493.000000 0 0 1
22.699034 2.286900 29.430386 37.237396 0.100410 0.659425 0.097469 -0.035410 171840.000000 0 0 1
22.251734 3.745700 29.121646 36.840741 0.166769 0.659214 0.073082 -0.020239 -371730.000000 0 0 1
21.761634 4.422600 30.281966 37.551639 0.200499 0.632743 0.077180 -0.023099 204976.000000 0 0 1
21.008534 5.567500 30.050066 37.085873 0.259056 0.626161 0.074498 -0.020999 -67758.200000 0 0 1
20.296734 6.128100 31.343624 37.840901 0.293222 0.594729 0.083100 -0.017564 -135988.000000 0 0 1
19.422634 5.248100 31.965728 37.770213 0.263903 0.561756 0.082193 -0.007076 -195190.000000 0 0 1
19.116434 5.779900 33.227156 38.767115 0.293614 0.541190 0.071445 -0.014874 -335518.000000 0 0 1
17.946134 5.003600 -33.500011 38.332107 0.271907 2.634050 0.073439 -0.012413 -501572.000000 0 0 1
18.237634 3.709900 -33.166361 38.031331 0.200682 2.630233 0.070442 -0.007838 676102.000000 0 0 1
17.031334 3.001900 -32.833431 37.109459 0.174466 2.656802 0.063889 -0.014829 338613.000000 0 0 1
17.168334 1.483400 -33.017031 37.243476 0.086189 2.660562 0.059075 -0.028255 72076.600000 0 0 1
18.201334 0.817400 -32.260851 37.050225 0.044879 2.627487 0.066637 -0.024400 519277.000000 0 0 1
18.550734 -0.466000 -32.738181 37.631574 -0.025115 2.625929 0.078468 -0.026106 -85177.400000 0 0 1
19.673334 -1.076100 -31.860991 37.460923 -0.054644 2.587756 0.092052 -0.031801 -42408.300000 0 0 1
19.305134 -1.381100 -30.524781 36.143573 -0.071419 2.576506 0.096509 -0.029995 384170.000000 0 0 1
19.005034 -0.239000 -29.711051 35.270313 -0.012575 2.572483 0.074005 -0.020841 -194821.000000 0 0 1
18.628434 -0.499800 -28.241191 33.835384 -0.026824 2.558320 0.097720 -0.026157 246926.000000 0 0 1
17.366134 -1.139100 -28.050191 33.010504 -0.065499 2.586279 0.113179 -0.026902 556832.000000 0 0 1
17.003334 -1.178300 -26.672701 31.653352 -0.069188 2.572982 0.098620 -0.023543 251972.000000 0 0 1
17.882934 -2.126700 -25.726051 31.403055 -0.118367 2.530848 0.124793 -0.029526 -230633.000000 0 0 1
19.089234 -1.471900 -25.389761 31.799454 -0.076954 2.495486 0.125304 -0.026184 -55544.100000 0 0 1
20.143334 -2.407600 -25.197691 32.349251 -0.118959 2.463749 0.105788 -0.028480 75165.700000 0 0 1
20.939934 -2.799500 -26.420891 33.828708 -0.132904 2.467093 0.131709 -0.042702 -860412.000000 0 0 1
22.026534 -1.973300 -26.747191 34.705537 -0.089349 2.450719 0.125572 -0.035546 -306461.000000 0 0 1
22.418234 -2.079100 -28.101171 36.007994 -0.092477 2.466125 0.134157 -0.040384 382033.000000 0 0 1
23.862734 -1.590100 -28.427191 37.149208 -0.066537 2.442174 0.110325 -0.041710 -105501.000000 0 0 1
24.811334 -2.538700 -28.078071 37.555630 -0.101965 2.415297 0.094758 -0.045767 -817098.000000 0 0 1
26.077534 -1.959100 -28.286201 38.522526 -0.074985 2.395397 0.058795 -0.042220 164600.000000 0 0 1
27.308534 -2.795900 -27.825361 39.087386 -0.102026 2.362962 0.062777 -0.034915 21118.700000 0 0 1
27.549134 -3.907000 -28.607991 39.907851 -0.140880 2.370072 0.087816 -0.042991 513089.000000 0 0 1
28.876534 -4.404600 -28.476131 40.793930 -0.151365 2.343464 0.080100 -0.041704 334445.000000 0 0 1
29.003534 -5.660700 -27.556881 40.405819 -0.192750 2.321294 0.074244 -0.027932 -286704.000000 0 0 1
28.841534 -5.395900 -26.203191 39.339001 -0.184950 2.299746 0.061893 -0.015391 393177.000000 0 0 1
28.825334 -6.524500 -25.369221 38.949536 -0.222595 2.280140 0.035895 -0.008365 -344717.000000 0 0 1
28.827034 -6.293700 -23.821871 37.922158 -0.214953 2.250006 0.019299 0.002207 167981.000000 0 0 1
30.086434 -5.976600 -23.232571 38.479418 -0.196095 2.219014 0.024056 0.006126 686584.000000 0 0 1
29.969834 -5.518100 -21.881071 37.515618 -0.182082 2.193523 0.033538 -0.003483 -716634.000000 0 0 1
31.292834 -4.966000 -21.402771 38.235863 -0.157382 2.164888 0.039085 -0.009602 -658514.000000 0 0 1
31.806634 -3.833400 -22.121871 38.932430 -0.119944 2.175128 0.064528 -0.015275 567035.000000 0 0 1
33.096334 -3.427100 -21.676871 39.711447 -0.103181 2.148211 0.096269 -0.014306 487469.000000 0 0 1
33.760634 -2.387000 -22.571671 40.681181 -0.070586 2.158971 0.102637 -0.020150 -155705.000000 0 0 1
33.195634 -1.120100 -22.313571 40.013750 -0.033730 2.162345 0.081680 -0.014534 269406.000000 0 0 1
33.810034 -0.057900 -23.005771 40.894831 -0.001712 2.168275 0.080613 -0.013731 -558344.000000 0 0 1
33.037834 1.194400 -22.704071 40.104861 0.036137 2.172585 0.078860 -0.011818 -446009.000000 0 0 1
31.920734 1.244100 -23.549771 39.687186 0.038955 2.206054 0.062453 -0.009816 -347215.000000 0 0 1
30.920634 2.046900 -22.990771 38.585631 0.066102 2.209105 0.057499 -0.010646 251006.000000 0 0 1
29.549334 1.987300 -23.734871 37.953348 0.067153 2.246401 0.059470 -0.012923 635248.000000 0 0 1
28.523934 2.848900 -23.265171 36.918819 0.099547 2.252570 0.068859 -0.010617 103272.000000 0 0 1
27.435734 2.952000 -24.138171 36.661766 0.107185 2.289490 0.102439 -0.022863 -553776.000000 0 0 1
26.353134 3.879700 -23.596971 35.585907 0.146170 2.295747 0.100988 -0.019297 -555216.000000 0 0 1
26.806534 5.187100 -23.247771 35.860216 0.191139 2.276131 0.092616 -0.017191 -605825.000000 0 0 1
25.759734 6.049900 -23.038271 35.084571 0.230678 2.287164 0.112454 -0.029389 -750053.000000 0 0 1
26.163334 7.411100 -22.427171 35.248013 0.276032 2.260447 0.120046 -0.023712 -238027.000000 0 0 1
27.021634 8.123600 -23.271771 36.575086 0.292038 2.260455 0.116187 -0.026986 -229577.000000 0 0 1
27.531534 9.263100 -22.675171 36.850424 0.324557 2.233601 0.140946 -0.033947 28741.300000 0 0 1
28.542234 10.091600 -23.556571 38.358983 0.339849 2.232052 0.176166 -0.023598 -54395.800000 0 0 1
28.164134 10.450000 -24.886071 39.009454 0.355294 2.262629 0.184256 -0.025261 464086.000000 0 0 1
26.960334 11.221300 -24.979071 38.428260 0.394406 2.278405 0.177933 -0.028050 492569.000000 0 0 1
26.721334 11.774000 -26.404881 39.368445 0.415028 2.305964 0.159486 -0.022550 48749.900000 0 0 1
26.048134 10.905300 -27.327671 39.296723 0.396488 2.339799 0.130461 -0.018077 820620.000000 0 0 1
26.886734 9.813400 -27.803881 39.903071 0.349966 2.341702 0.133626 -0.031204 157771.000000 0 0 1
27.798934 10.139800 -28.961311 41.404756 0.349759 2.345449 0.131261 -0.029817 -1695860.000000 0 0 1
28.961234 10.787200 -28.631981 42.129646 0.356551 2.318035 0.139257 -0.027994 353375.000000 0 0 1
30.046334 10.792400 -29.594141 43.532416 0.344840 2.318311 0.152420 -0.037703 1382300.000000 0 0 1
30.666934 9.451200 -30.142151 44.026529 0.298952 2.324901 0.128360 -0.030950 -341434.000000 0 0 1
29.753934 8.794300 -31.013011 43.868475 0.287385 2.355979 0.114985 -0.028507 367030.000000 0 0 1
30.367334 7.724600 -31.718671 44.586080 0.249089 2.362289 0.118614 -0.023697 24385.500000 0 0 1
29.304334 6.930700 -32.481031 44.292166 0.232240 2.394012 0.109540 -0.033785 218183.000000 0 0 1
28.358434 6.268300 -31.660981 42.964055 0.217540 2.399296 0.109802 -0.036464 -259288.000000 0 0 1
27.292034 5.739700 -32.417231 42.763023 0.207286 2.431140 0.068350 -0.029643 336530.000000 0 0 1
25.962734 5.951700 -31.614301 41.339452 0.225347 2.441448 0.102131 -0.025462 -568605.000000 0 0 1
25.692934 7.324400 -31.522721 41.321370 0.277708 2.438533 0.095957 -0.021089 -227940.000000 0 0 1
24.696334 7.614200 -30.584471 40.041164 0.299066 2.440016 0.105643 -0.023312 -81400.600000 0 0 1
23.235634 7.421400 -31.040611 39.477733 0.309156 2.475564 0.111449 -0.022675 -536161.000000 0 0 1
22.952034 8.343700 -32.085321 40.322215 0.348675 2.490997 0.109144 -0.020688 -178617.000000 0 0 1
21.674934 8.083400 -32.627481 39.996208 0.356961 2.524846 0.105885 -0.018046 -24539.100000 0 0 1
21.285434 9.185900 33.670446 40.879694 0.407412 0.602984 0.106259 -0.009183 -146815.000000 0 0 1
21.897534 8.908100 32.430077 40.131859 0.386362 0.629897 0.091725 -0.010314 -163102.000000 0 0 1
21.976734 10.060400 31.606530 39.788958 0.429301 0.652852 0.100602 -0.021215 -978470.000000 0 0 1
20.831734 10.316100 30.641976 38.461848 0.459809 0.649006 0.092592 -0.017335 -329985.000000 0 0 1
20.582734 9.324500 29.643756 37.273952 0.425367 0.651304 0.080249 -0.022190 -401854.000000 0 0 1
21.511234 9.224100 28.604886 36.960204 0.405088 0.685761 0.100617 -0.016773 -830885.000000 0 0 1
21.138534 10.004500 27.337256 35.975731 0.442046 0.707667 0.116446 -0.014535 -605029.000000 0 0 1
19.952634 9.640700 26.724586 34.716771 0.450101 0.692286 0.098059 -0.010991 -1471310.000000 0 0 1
18.882934 10.382700 27.126236 34.643879 0.502725 0.671318 0.103651 -0.033391 -1094190.000000 0 0 1
17.493934 9.890900 26.640056 33.370050 0.514582 0.646292 0.125400 -0.032183 87033.500000 0 0 1
17.227034 9.998800 25.260556 32.168966 0.525893 0.667703 0.120655 -0.026851 116545.000000 0 0 1
16.004934 9.400100 24.860046 31.024856 0.531048 0.641341 0.145979 -0.033950 187204.000000 0 0 1
15.857934 7.843400 24.741466 30.416001 0.459322 0.620761 0.138906 -0.027546 -217288.000000 0 0 1
15.920934 7.155800 25.953066 31.276880 0.422404 0.592075 0.106608 -0.024300 -71764.600000 0 0 1
15.755634 5.770300 25.739846 30.725820 0.351066 0.577689 0.114913 -0.027678 -99390.800000 0 0 1
16.213434 4.948200 26.976476 31.860483 0.296213 0.561032 0.083748 -0.026761 1353330.000000 0 0 1
17.641434 5.001900 27.303196 32.889264 0.276280 0.591410 0.091859 -0.021173 1658460.000000 0 0 1
17.907334 4.205800 28.447156 33.876275 0.230684 0.573998 0.091460 -0.027307 -537040.000000 0 0 1
18.062034 2.731400 28.169076 33.573717 0.150086 0.575314 0.094918 -0.029915 -512313.000000 0 0 1
16.920434 1.992200 27.794866 32.600989 0.117200 0.549899 0.087803 -0.042059 302465.000000 0 0 1
16.192234 1.390300 28.868176 33.128431 0.085652 0.512744 0.071677 -0.046194 -36491.000000 0 0 1
16.275434 -0.177500 28.862736 33.135763 -0.010906 0.513471 0.094527 -0.048897 -593692.000000 0 0 1
15.695634 -0.911200 27.790656 31.929669 -0.057989 0.514841 0.102770 -0.048657 83849.900000 0 0 1
16.385134 -1.011000 26.575346 31.236897 -0.061624 0.553352 0.117237 -0.040352 -978629.000000 0 0 1
17.599034 -2.028600 26.625946 31.980966 -0.114761 0.587090 0.107614 -0.036985 454315.000000 0 0 1
18.822734 -1.754700 27.246126 33.162112 -0.092954 0.606577 0.105821 -0.046859 -133980.000000 0 0 1
19.360034 -0.490300 26.873026 33.124173 -0.025320 0.624456 0.096268 -0.039879 114457.000000 0 0 1
20.921834 -0.303100 27.139306 34.268891 -0.014486 0.656798 0.095718 -0.037546 2077510.000000 0 0 1
21.824534 -1.150000 26.406216 34.277121 -0.052644 0.691368 0.080123 -0.032492 388129.000000 0 0 1
23.172534 -0.858300 26.680766 35.349205 -0.037023 0.715482 0.076124 -0.038070 871457.000000 0 0 1
24.347134 -1.489900 25.838146 35.533259 -0.061118 0.756630 0.073709 -0.018289 610535.000000 0 0 1
24.381334 -1.109100 24.460796 34.554451 -0.045458 0.784288 0.080453 -0.006641 39415.200000 0 0 1
23.431034 -1.790600 23.676446 33.358562 -0.076272 0.781644 0.099393 0.000259 -182984.000000 0 0 1
23.336234 -1.067800 22.331226 32.317235 -0.045725 0.807924 0.100684 -0.020506 -449457.000000 0 0 1
22.655134 0.114700 22.403766 31.862156 0.005063 0.790983 0.081058 -0.015291 -235964.000000 0 0 1
22.642534 0.600200 21.073766 30.937812 0.026501 0.821443 0.076454 -0.011049 148823.000000 0 0 1
-32.133706 -26.627014 -10.258371 42.974494 0.691957 1.811832 0.057060 0.003071 -40830.600000 0 0 1
-31.938576 -25.717814 -9.226371 42.030995 0.677920 1.792112 0.060866 0.006166 -285591.000000 0 0 1
-32.121236 -26.213214 -7.909271 42.207380 0.684464 1.759301 0.082078 -0.000304 -529792.000000 0 0 1
-32.337836 -25.089814 -6.920671 41.510602 0.659851 1.738299 0.113866 -0.013006 76746.500000 0 0 1
-31.260126 -24.264114 -6.542771 40.109233 0.660059 1.734652 0.121152 -0.007157 -346366.000000 0 0 1
-30.242576 -24.915314 -5.772771 39.606958 0.689115 1.717069 0.139737 -0.018042 1066070.000000 0 0 1
-28.984846 -23.983014 -5.516871 38.022916 0.691246 1.716404 0.136677 -0.026137 607904.000000 0 0 1
-29.093746 -23.035614 -4.499471 37.380888 0.669704 1.691457 0.156230 -0.017645 534978.000000 0 0 1
-30.023466 -21.918114 -4.678971 37.466051 0.630599 1.696009 0.159933 -0.013896 631937.000000 0 0 1
-29.860936 -20.673514 -3.740471 36.511105 0.605557 1.673424 0.164175 -0.021278 -439445.000000 0 0 1
-28.798476 -19.841914 -4.076671 35.208991 0.603300 1.686842 0.189545 -0.023937 -197880.000000 0 0 1
-28.634466 -18.858714 -3.091871 34.425912 0.582399 1.660730 0.210407 -0.025503 -325650.000000 0 0 1
-27.477346 -17.938414 -3.440771 32.994396 0.578372 1.675270 0.199564 -0.019177 -265626.000000 0 0 1
-27.857966 -16.963914 -4.363971 32.907216 0.546969 1.703803 0.186260 -0.032140 267246.000000 0 0 1
-26.840856 -15.989514 -4.458271 31.559029 0.537263 1.712538 0.152445 -0.033003 1284.260000 0 0 1
-27.168976 -14.964014 -5.573871 31.514172 0.503439 1.748600 0.163806 -0.050805 400919.000000 0 0 1
-28.377976 -14.249114 -5.326171 32.198057 0.465341 1.736979 0.156159 -0.039270 371322.000000 0 0 1
-28.644156 -13.225414 -6.222071 32.157634 0.432553 1.765511 0.170873 -0.061216 1236710.000000 0 0 1
-30.162426 -12.739114 -6.144171 33.313778 0.399624 1.756292 0.152180 -0.052999 1538690.000000 0 0 1
-31.114896 -13.581414 -6.776071 34.619455 0.411564 1.767798 0.147675 -0.049963 433731.000000 0 0 1
-32.403016 -13.005814 -6.588571 35.531900 0.381693 1.757303 0.144284 -0.049523 538875.000000 0 0 1
-33.608346 -13.758514 -7.240471 37.030286 0.388565 1.767592 0.112392 -0.045813 129710.000000 0 0 1
-34.290295 -14.672514 -6.384971 37.840122 0.404317 1.740343 0.112426 -0.036527 316798.000000 0 0 1
-34.925574 -15.654914 -7.155971 38.936872 0.421386 1.755631 0.111963 -0.040252 -390571.000000 0 0 1
-36.089316 -16.452514 -6.528471 40.196329 0.427736 1.733934 0.118404 -0.042559 491637.000000 0 0 1
-37.424716 -15.953514 -6.549171 41.206985 0.402957 1.730407 0.092761 -0.034463 529515.000000 0 0 1
-37.704516 -15.038514 -5.515771 40.965976 0.379516 1.705849 0.127196 -0.034865 -447911.000000 0 0 1
36.618777 -15.036414 -5.307671 39.939954 -0.389628 1.704082 0.167461 -0.034782 -629626.000000 0 0 1
35.872077 -14.536214 -6.394671 39.230081 -0.385001 1.734531 0.210502 -0.048562 1028490.000000 0 0 1
34.445887 -14.637014 -6.418471 37.973123 -0.401809 1.740638 0.213064 -0.039425 1055520.000000 0 0 1
33.635707 -13.918614 -5.295271 36.784895 -0.392350 1.715251 0.249698 -0.050887 -669036.000000 0 0 1
33.496107 -14.566714 -4.048371 36.750070 -0.410207 1.681180 0.227419 -0.044312 472293.000000 0 0 1
32.758927 -13.844914 -3.088271 35.698268 -0.399862 1.657415 0.264149 -0.048406 -767256.000000 0 0 1
32.676927 -14.481214 -1.628271 35.779021 -0.417154 1.616321 0.257571 -0.052322 543877.000000 0 0 1
33.882297 -14.547014 -0.825471 36.882341 -0.405541 1.593179 0.273362 -0.048219 933663.000000 0 0 1
35.041967 -15.221614 -1.260671 38.225989 -0.409791 1.603782 0.224937 -0.053035 -161362.000000 0 0 1
34.929917 -16.714114 -1.700571 38.760194 -0.446304 1.614685 0.181686 -0.050214 -965491.000000 0 0 1
35.187087 -17.661614 -0.659971 39.376379 -0.465194 1.587558 0.145974 -0.037484 269856.000000 0 0 1
34.993837 -19.030214 -1.106171 39.848981 -0.498083 1.598559 0.110563 -0.035704 -191186.000000 0 0 1
36.194907 -19.548114 -1.902571 41.180333 -0.495195 1.617014 0.089490 -0.047909 -341010.000000 0 0 1
36.508597 -18.890614 -3.073771 41.221123 -0.477494 1.645433 0.049249 -0.042777 217390.000000 0 0 1
37.259617 -19.673614 -4.037171 42.327637 -0.485807 1.666321 0.078560 -0.034584 173806.000000 0 0 1
37.384257 -19.045314 -5.457271 42.309437 -0.471177 1.700141 0.103920 -0.038673 221140.000000 0 0 1
36.203577 -19.175714 -6.252071 41.442676 -0.487096 1.722235 0.094501 -0.046269 620503.000000 0 0 1
36.297417 -18.269014 -7.331671 41.291800 -0.466296 1.749300 0.117220 -0.042725 155292.000000 0 0 1
35.218377 -18.341114 -8.467771 40.600907 -0.480135 1.780900 0.117337 -0.044445 27876.100000 0 0 1
35.389277 -19.457714 -9.320071 41.447162 -0.502705 1.797602 0.117592 -0.044506 -90283.000000 0 0 1
34.466177 -19.508214 -10.355371 40.935577 -0.515052 1.826543 0.119165 -0.056188 -731494.000000 0 0 1
34.342067 -20.923914 -11.028171 41.699020 -0.547215 1.838451 0.122500 -0.044710 -105325.000000 0 0 1
33.866677 -21.931614 -10.152071 41.605433 -0.574677 1.817293 0.111582 -0.047274 264418.000000 0 0 1
33.618567 -23.180914 -10.778671 42.234376 -0.603663 1.828862 0.095862 -0.036477 -371032.000000 0 0 1
32.887207 -24.243114 -9.993471 42.061460 -0.635232 1.810683 0.120656 -0.034336 -1266020.000000 0 0 1
31.652687 -23.874314 -9.542371 40.779067 -0.646221 1.806988 0.130258 -0.041731 -751937.000000 0 0 1
30.851157 -25.008514 -9.171271 40.759439 -0.681182 1.797749 0.092098 -0.032258 150413.000000 0 0 1
29.451457 -24.693214 -8.648071 39.394571 -0.697743 1.792123 0.080948 -0.034633 -44700.400000 0 0 1
28.512857 -24.171014 -9.536771 38.576818 -0.703171 1.820601 0.078675 -0.024351 -998357.000000 0 0 1
27.281657 -23.788414 -9.047171 37.309901 -0.717104 1.815725 0.106609 -0.036471 -733869.000000 0 0 1
26.324957 -23.514514 -10.227971 36.749791 -0.729068 1.852834 0.183705 -0.051183 -485222.000000 0 0 1
25.936357 -24.699114 -10.930571 37.446204 -0.760969 1.867010 0.151161 -0.043316 499350.000000 0 0 1
25.146257 -24.400514 -12.090771 37.066239 -0.770348 1.903070 0.154696 -0.038563 239864.000000 0 0 1
24.372757 -25.580814 -12.737871 37.558790 -0.809577 1.916804 0.142631 -0.038524 -244684.000000 0 0 1
25.129057 -26.476614 -13.475971 38.911211 -0.811505 1.924448 0.141801 -0.026438 97975.500000 0 0 1
24.356957 -27.635614 -13.749171 39.319565 -0.848375 1.928023 0.133867 -0.024713 141717.000000 0 0 1
25.201157 -28.749314 -14.444771 40.868971 -0.851071 1.932043 0.120644 -0.023656 34066.200000 0 0 1
25.388857 -28.537514 -15.834071 41.348537 -0.843720 1.963775 0.127757 -0.023941 335175.000000 0 0 1
25.772857 -29.784214 -16.327471 42.637142 -0.857476 1.963773 0.129858 -0.022651 -281825.000000 0 0 1
25.559457 -29.857014 -17.858771 43.170161 -0.862793 1.997292 0.127620 -0.015348 -668916.000000 0 0 1
24.219057 -29.880814 -18.220371 42.560635 -0.889672 2.013190 0.134216 -0.018885 -598730.000000 0 0 1
24.055757 -29.715014 -19.619671 42.972002 -0.890260 2.044931 0.123385 -0.015537 -152137.000000 0 0 1
22.569957 -29.656014 -20.002871 42.296536 -0.920255 2.063398 0.096998 -0.012267 -201332.000000 0 0 1
22.319057 -29.742914 -21.411771 42.909733 -0.927040 2.093236 0.069455 -0.006996 1170320.000000 0 0 1
20.915757 -29.477014 -21.656471 42.135092 -0.953682 2.110611 0.071294 -0.013898 959958.000000 0 0 1
20.546857 -29.486514 -23.148871 42.749246 -0.962206 2.143021 0.062559 -0.012904 -359093.000000 0 0 1
21.167857 -28.433614 -23.859371 42.729593 -0.930846 2.163229 0.065347 -0.013735 328101.000000 0 0 1
21.249357 -28.668514 -25.212121 43.692904 -0.932945 2.185884 0.059233 -0.012221 30768.600000 0 0 1
21.846557 -27.443614 -26.040791 43.686918 -0.898467 2.209403 0.064370 -0.015296 153658.000000 0 0 1
20.997557 -26.348014 -26.259451 42.716203 -0.897929 2.232855 0.090989 -0.032277 -122940.000000 0 0 1
20.225557 -26.479514 -27.448231 43.169934 -0.918510 2.259864 0.107037 -0.039971 -8294.890000 0 0 1
19.330857 -25.226314 -27.715131 42.168441 -0.916946 2.287958 0.110587 -0.037817 -480811.000000 0 0 1
18.203957 -25.233414 -26.890731 41.124453 -0.945837 2.283506 0.087549 -0.017666 -682743.000000 0 0 1
17.614357 -23.963514 -27.054031 40.204927 -0.936933 2.308923 0.073273 -0.013599 562092.000000 0 0 1
16.418257 -23.667814 -26.077871 38.855887 -0.964314 2.306546 0.072192 -0.016957 120244.000000 0 0 1
15.169357 -24.252114 -26.353121 38.894233 -1.011848 2.315234 0.121229 -0.038646 314634.000000 0 0 1
14.065557 -23.872714 -25.523521 37.672224 -1.038364 2.315176 0.091097 -0.038854 840745.000000 0 0 1
14.188257 -24.360014 -24.070971 37.069240 -1.043388 2.277528 0.072780 -0.034291 -77557.300000 0 0 1
15.287357 -23.737314 -23.397171 36.668664 -0.998635 2.262785 0.037575 -0.022253 244385.000000 0 0 1
15.143757 -24.046714 -22.033971 35.959334 -1.008778 2.230328 0.055044 -0.035462 88265.600000 0 0 1
16.322457 -23.459914 -21.260271 35.620068 -0.962922 2.210381 0.037047 -0.036258 -244178.000000 0 0 1
16.216757 -22.067214 -21.131971 34.590538 -0.937042 2.228016 0.027324 -0.036607 146420.000000 0 0 1
17.227157 -21.495414 -20.305571 34.221981 -0.895182 2.206009 0.036904 -0.033809 -418736.000000 0 0 1
17.095557 -19.969514 -20.008671 33.036139 -0.862781 2.221391 0.063699 -0.020901 353757.000000 0 0 1
16.269157 -19.606714 -18.904171 31.725012 -0.878162 2.209152 0.067189 -0.022774 232499.000000 0 0 1
14.873857 -19.723314 -19.121671 31.239062 -0.924660 2.229520 0.054690 -0.019865 -370640.000000 0 0 1
14.168757 -19.746114 -17.726871 30.081633 -0.948391 2.200979 0.067828 -0.017309 -321572.000000 0 0 1
14.153857 -18.514814 -17.011971 28.853720 -0.918104 2.201352 0.092142 -0.020124 113185.000000 0 0 1
13.852357 -18.672114 -15.639771 28.020315 -0.932516 2.162961 0.077964 -0.026006 -140094.000000 0 0 1
13.666357 -17.310414 -14.839771 26.582674 -0.902498 2.163071 0.091767 -0.021910 442054.000000 0 0 1
12.435457 -16.603914 -15.068671 25.639723 -0.927969 2.199019 0.072567 -0.026445 658910.000000 0 0 1
12.560357 -15.274314 -14.572371 24.564634 -0.882594 2.205856 0.070831 -0.027929 108060.000000 0 1 0
11.226057 -14.523014 -14.296571 23.266590 -0.912747 2.232508 0.074487 -0.023698 188598.000000 0 1 0
10.479857 -14.322014 -15.466171 23.540389 -0.939090 2.287636 0.092951 -0.006998 -232865.000000 0 1 0
9.227257 -13.727014 -15.235571 22.487681 -0.978975 2.315165 0.088814 -0.011756 -91331.900000 0 1 0
8.488657 -13.247514 -16.509771 22.806281 -1.000935 2.380254 0.074446 -0.002237 -166286.000000 0 1 0
8.924057 -12.052114 -17.122771 22.761404 -0.933432 2.422300 0.072941 0.000322 372184.000000 0 1 0
10.246557 -12.156714 -17.667671 23.768134 -0.870455 2.408838 0.109619 -0.007483 467821.000000 0 1 0
10.464957 -10.866314 -18.478671 23.854840 -0.804211 2.456926 0.115464 -0.012999 -261947.000000 0 1 0
9.746457 -10.814614 -19.681171 24.480559 -0.837302 2.504706 0.117277 -0.017819 -16633.700000 0 1 0
9.816057 -9.583014 -20.407771 24.589962 -0.773386 2.549766 0.122991 -0.029577 9019.940000 0 1 0
9.384357 -9.781414 -21.908971 25.763253 -0.806112 2.587534 0.123140 -0.030065 373006.000000 0 0 1
10.470857 -10.304914 -22.667471 27.011929 -0.777411 2.566543 0.118336 -0.024647 167308.000000 0 0 1
10.216057 -10.436414 -24.088171 28.169603 -0.796068 2.596564 0.102411 -0.020675 659653.000000 0 0 1
11.457457 -11.033014 -24.871171 29.522463 -0.766528 2.572609 0.112466 -0.018046 709362.000000 0 0 1
11.583257 -12.426914 -24.606071 29.900815 -0.820521 2.537333 0.100203 -0.015896 280429.000000 0 0 1
12.662457 -13.001914 -25.337311 31.166759 -0.798624 2.520013 0.090350 -0.028416 -99199.200000 0 0 1
12.905557 -14.505314 -25.063371 31.703787 -0.843694 2.482500 0.076847 -0.018421 -509792.000000 0 0 1
11.845557 -15.375314 -25.373301 31.945608 -0.914350 2.488594 0.071470 -0.016594 -266545.000000 0 0 1
12.027657 -16.703414 -24.987471 32.373481 -0.946726 2.452542 0.061417 -0.018493 -761752.000000 0 0 1
10.815257 -17.541714 -25.254851 32.595843 -1.018300 2.457175 0.064294 -0.017578 -679887.000000 0 0 1
10.730057 -17.973714 -26.575581 33.829721 -1.032596 2.474412 0.076584 -0.032489 -308551.000000 0 0 1
9.597557 -18.743514 -26.843281 34.117358 -1.097558 2.476391 0.085889 -0.031635 -538110.000000 0 0 1
9.749657 -19.605514 -28.145131 35.659226 -1.109318 2.480433 0.093824 -0.034969 -281293.000000 0 0 1
10.411657 -20.780814 -27.735941 36.187391 -1.106331 2.444097 0.084850 -0.038845 8746.710000 0 0 1
10.382157 -21.778514 -28.705191 37.497744 -1.125949 2.442642 0.094090 -0.040284 -325705.000000 0 0 1
11.389057 -22.877814 -28.413631 38.215696 -1.108893 2.409096 0.089783 -0.038538 -242116.000000 0 0 1
11.575457 -23.837314 -29.447801 39.615423 -1.118733 2.408849 0.094940 -0.034687 37184.000000 0 0 1
12.317657 -25.006414 -29.097321 40.295155 -1.113102 2.377636 0.125591 -0.037130 631763.000000 0 0 1
11.502257 -26.066214 -28.212731 40.096229 -1.155225 2.351283 0.126928 -0.036010 559421.000000 0 0 1
11.143657 -25.482614 -26.981171 38.749558 -1.158550 2.341021 0.127617 -0.047566 -417764.000000 0 0 1
10.591457 -26.305014 -25.974861 38.455508 -1.188016 2.312374 0.119901 -0.044038 -97112.800000 0 0 1
9.686957 -25.483214 -25.069771 37.036802 -1.207535 2.314323 0.104301 -0.040562 57890.200000 0 0 1
10.373157 -24.535514 -24.257571 36.028094 -1.170806 2.309454 0.097470 -0.044257 25086.600000 0 0 1
9.641357 -23.341314 -24.395571 35.112912 -1.179083 2.338903 0.092471 -0.041633 -320552.000000 0 0 1
10.526957 -22.093914 -24.552871 34.667006 -1.126154 2.357811 0.085877 -0.029897 358048.000000 0 0 1
11.326557 -21.842314 -23.386171 33.945405 -1.092411 2.330815 0.079232 -0.031398 499211.000000 0 0 1
12.324157 -20.843014 -23.532471 33.765267 -1.036810 2.341922 0.068239 -0.033944 -460506.000000 0 0 1
13.114657 -20.485914 -22.298571 32.998381 -1.001356 2.312775 0.054957 -0.023714 226199.000000 0 0 1
12.329457 -19.938814 -21.160671 31.580782 -1.016983 2.305071 0.044006 -0.018571 384075.000000 0 0 1
11.773457 -18.640514 -21.309571 30.662369 -1.007461 2.339181 0.048812 -0.014886 369115.000000 0 0 1
12.800657 -17.461214 -21.162871 30.275698 -0.938205 2.344802 0.069130 -0.016199 799668.000000 0 0 1
13.905257 -17.528314 -22.053171 31.415606 -0.900153 2.348972 0.065100 -0.014481 176343.000000 0 0 1
14.813057 -16.451214 -21.927671 31.159137 -0.837747 2.351433 0.074544 -0.004890 -449467.000000 0 0 1
16.059257 -16.538314 -22.756171 32.392265 -0.800093 2.349727 0.050337 -0.006749 -341837.000000 0 0 1
17.223657 -17.194514 -22.270571 32.989149 -0.784551 2.311880 0.044580 -0.000642 847084.000000 0 0 1
18.373557 -16.792914 -22.996371 33.888385 -0.740481 2.316640 0.059043 0.000859 697101.000000 0 0 1
19.756857 -17.133314 -22.356571 34.404943 -0.714400 2.278127 0.061260 -0.009359 438675.000000 0 0 1
20.035257 -18.493414 -22.149171 35.128388 -0.745401 2.253020 0.064419 -0.018521 -99762.600000 0 0 1
21.369557 -18.618914 -21.720571 35.708614 -0.716720 2.224679 0.062549 -0.033153 -122993.000000 0 0 1
21.723657 -20.018914 -21.331671 36.437815 -0.744581 2.196203 0.085884 -0.038404 -197130.000000 0 0 1
21.255757 -20.464314 -20.072771 35.686292 -0.766430 2.168177 0.092191 -0.041519 172170.000000 0 0 1
21.408657 -21.837714 -19.971171 36.524841 -0.795319 2.149314 0.120183 -0.040141 -16334.200000 0 0 1
-17.004766 12.445500 27.813386 34.894655 -0.631805 0.648373 0.062454 -0.032588 246686.000000 0 0 1
-17.980966 13.413700 27.417446 35.425398 -0.640933 0.685743 0.072601 -0.025022 108726.000000 0 0 1
-18.383966 13.214200 26.094526 34.547208 -0.623225 0.714640 0.070671 -0.028518 546643.000000 0 0 1
-19.663366 13.978600 25.592386 35.171287 -0.618001 0.755907 0.093229 -0.025616 607011.000000 0 0 1
-19.481466 15.376200 25.652626 35.693308 -0.668166 0.768872 0.086657 -0.020359 130029.000000 0 0 1
-20.643266 16.080600 25.206816 36.333369 -0.661789 0.804093 0.093431 -0.019219 -288575.000000 0 0 1
-20.731866 17.582100 25.635446 37.364644 -0.703373 0.814698 0.091282 -0.011158 1010550.000000 0 0 1
-19.600266 18.437600 25.265486 36.911520 -0.754842 0.816895 0.085915 -0.017775 979827.000000 0 0 1
-18.458566 18.135300 26.063886 36.727836 -0.776565 0.781796 0.078200 -0.001044 43956.600000 0 0 1
-17.198966 18.946100 25.627806 36.215240 -0.833697 0.784626 0.083700 -0.004712 365617.000000 0 0 1
-17.396166 20.378700 25.807046 37.201097 -0.864190 0.804159 0.095071 -0.009814 -124876.000000 0 0 1
-16.253666 21.074900 25.368916 36.768396 -0.913844 0.809355 0.114216 -0.016945 -103721.000000 0 0 1
-16.326266 22.606500 25.111386 37.525758 -0.945330 0.837695 0.111970 -0.018144 -173231.000000 0 0 1
-16.076366 23.424000 26.244326 38.676840 -0.969311 0.825004 0.115760 -0.021195 66489.300000 0 0 1
-16.364066 24.780900 25.948956 39.436328 -0.987180 0.852642 0.113537 -0.022586 -222496.000000 0 0 1
-15.763766 25.823600 26.896776 40.481986 -1.022735 0.844088 0.089558 -0.010616 -58762.300000 0 0 1
-14.359466 26.005400 26.922076 40.090813 -1.066287 0.834528 0.078048 -0.012939 127085.000000 0 0 1
-13.960566 26.997400 27.876916 41.241720 -1.093556 0.828557 0.084310 -0.008257 838872.000000 0 0 1
-12.399666 27.114800 28.015436 40.912452 -1.141886 0.816514 0.099341 -0.014954 810049.000000 0 0 1
-11.746366 27.525000 26.859446 40.212344 -1.167442 0.839359 0.077915 -0.012635 -358391.000000 0 0 1
-10.357566 27.600000 27.042596 40.004264 -1.211785 0.828485 0.069152 -0.008290 -127229.000000 0 0 1
-9.531366 28.108400 25.833436 39.348386 -1.243871 0.854586 0.065967 -0.011868 699322.000000 0 0 1
-8.115566 27.934300 25.936886 38.973191 -1.288056 0.842625 0.066105 -0.010357 819152.000000 0 0 1
-7.388366 28.547300 24.899456 38.594290 -1.317542 0.869565 0.083098 -0.019437 -103408.000000 0 0 1
-5.891066 28.237500 24.998756 38.170655 -1.365121 0.856719 0.104356 -0.025147 -833875.000000 0 0 1
-5.111866 28.714300 26.029986 39.092229 -1.394617 0.842149 0.117115 -0.025478 292324.000000 0 0 1
-3.712966 28.610100 25.822706 38.718679 -1.441739 0.840713 0.126799 -0.018139 470717.000000 0 0 1
-3.004366 29.676900 24.954506 38.890513 -1.469904 0.874135 0.137626 -0.017163 -549096.000000 0 0 1
-3.017566 29.392400 23.553946 37.786337 -1.468490 0.897782 0.142630 -0.021306 125236.000000 0 0 1
-2.981866 30.614400 22.828386 38.304937 -1.473702 0.932330 0.136571 -0.021431 -281104.000000 0 0 1
-3.321066 30.406800 21.296866 37.271430 -1.462006 0.962587 0.144567 -0.027964 746953.000000 0 0 1
-4.694166 30.214900 20.977366 37.081333 -1.416669 0.969500 0.140645 -0.028492 473527.000000 0 0 1
-5.301366 28.941900 21.307666 36.328428 -1.389632 0.944030 0.150306 -0.017226 37627.200000 0 0 1
-6.804866 28.835100 20.979266 36.302876 -1.339044 0.954649 0.105996 -0.019639 -397391.000000 0 0 1
-7.003866 28.932400 19.592966 35.637371 -1.333288 0.988687 0.096606 -0.020914 184444.000000 0 0 1
-7.777366 27.888100 18.985766 34.622144 -1.298829 0.990382 0.058364 -0.020524 -640851.000000 0 0 1
-7.124266 26.452600 18.851266 33.254555 -1.307717 0.968086 0.045083 -0.016749 1564320.000000 0 0 1
-5.917366 26.287700 18.023066 32.417423 -1.349387 0.981269 0.052454 -0.015097 1085750.000000 0 0 1
-4.762366 26.834700 18.613366 33.003616 -1.395155 0.971599 0.085511 -0.010657 -836173.000000 0 0 1
-3.686266 26.955200 17.500966 32.348959 -1.434884 0.999164 0.081112 -0.016288 -54699.100000 0 0 1
-3.343466 25.796600 16.776666 30.953188 -1.441906 0.997980 0.074697 -0.012607 -56846.600000 0 0 1
-2.583466 26.150500 15.627266 30.573426 -1.472324 1.034287 0.079028 -0.020198 250198.000000 0 0 1
-2.036566 24.975400 14.770066 29.087335 -1.489433 1.038186 0.061677 -0.019611 368918.000000 0 0 1
-0.962866 24.300400 15.421966 28.797111 -1.531194 1.005651 0.064381 -0.016380 352048.000000 0 0 1
-0.349366 23.305400 14.597466 27.501813 -1.555807 1.011273 0.055710 -0.028711 99175.400000 0 0 1
0.980434 22.735100 15.118066 27.320358 1.527699 0.984400 0.050721 -0.028028 736746.000000 0 0 1
2.114334 23.612000 15.146566 28.132107 1.481490 1.002249 0.055831 -0.030854 712943.000000 0 0 1
3.342034 22.959100 15.432766 27.865027 1.426247 0.983827 0.063472 -0.035768 72695.400000 0 0 1
4.529134 23.916700 15.339166 28.771715 1.383641 1.008496 0.107959 -0.048970 289934.000000 0 0 1
5.768134 23.221300 15.443266 28.477967 1.327326 0.997638 0.109847 -0.047360 166014.000000 0 0 1
6.926434 24.018600 15.382066 29.350922 1.290036 1.019168 0.124732 -0.049418 -357752.000000 0 0 1
8.225534 23.224200 15.316766 29.010795 1.230403 1.014590 0.148701 -0.054102 -380347.000000 0 0 1
8.490834 22.412900 14.202666 27.859434 1.208666 1.035847 0.128242 -0.057508 30358.500000 0 0 1
8.844134 23.111300 12.967266 27.937446 1.205313 1.088118 0.132101 -0.056247 -27977.200000 0 0 1
9.498534 22.147700 11.907366 26.879883 1.165650 1.111872 0.113425 -0.052769 388394.000000 0 0 1
10.770334 21.598800 12.234166 27.058882 1.108226 1.101643 0.108088 -0.042827 137500.000000 0 0 1
11.346734 20.859900 11.232566 26.268886 1.072610 1.128961 0.108923 -0.049360 -1469620.000000 0 0 1
12.724834 20.477200 11.629566 26.767217 1.014779 1.121346 0.137905 -0.043735 -1280530.000000 0 0 1
12.870434 19.464800 12.658066 26.547187 0.986577 1.073770 0.124256 -0.041585 159735.000000 0 0 1
14.258434 19.242200 12.880266 27.193133 0.933081 1.077356 0.102882 -0.036455 33100.900000 0 0 1
14.507334 18.397300 14.113066 27.351454 0.903071 1.028634 0.111558 -0.036700 -977528.000000 0 0 1
15.842934 18.059800 14.243166 27.928887 0.850694 1.035635 0.109241 -0.034486 -636442.000000 0 0 1
16.124534 17.751600 15.582966 28.599803 0.833391 0.994571 0.101215 -0.043249 729229.000000 0 0 1
17.648434 17.391800 15.715666 29.341508 0.778074 1.005564 0.083314 -0.041235 474072.000000 0 0 1
18.081134 16.880000 16.944666 29.983054 0.751055 0.970192 0.080104 -0.044325 472136.000000 0 0 1
19.438834 16.504800 16.662766 30.461853 0.703950 0.992015 0.078853 -0.040096 500259.000000 0 0 1
20.192334 16.039700 17.919166 31.402211 0.671284 0.963519 0.085308 -0.046363 -467168.000000 0 0 1
20.624534 17.037600 18.857766 32.730209 0.690445 0.956776 0.114979 -0.036655 46929.100000 0 0 1
19.597134 17.788600 19.435166 32.836072 0.737061 0.937401 0.094536 -0.033175 -414501.000000 0 0 1
20.168634 18.688500 20.564666 34.335686 0.747325 0.928632 0.100890 -0.035088 67694.900000 0 0 1
19.171934 19.439800 21.203366 34.569518 0.792335 0.910496 0.122784 -0.044328 450332.000000 0 0 1
19.818734 20.459100 21.999666 35.990864 0.801296 0.913149 0.114527 -0.036357 548388.000000 0 0 1
18.794334 21.560600 22.352666 36.300525 0.853839 0.907437 0.130481 -0.038744 468074.000000 0 0 1
17.805934 21.091500 23.267246 36.100795 0.869666 0.870417 0.137914 -0.042354 -62369.200000 0 0 1
17.211734 22.128300 23.954446 36.874394 0.909730 0.863708 0.118563 -0.046957 -255752.000000 0 0 1
16.464234 21.619100 25.189886 37.053837 0.919938 0.823281 0.136153 -0.046631 -165806.000000 0 0 1
15.301534 20.875200 24.952826 35.952113 0.938264 0.803687 0.138598 -0.051972 -342682.000000 0 0 1
14.624634 20.646700 26.193116 36.417653 0.954503 0.768085 0.126326 -0.041824 1257550.000000 0 0 1
13.332634 19.694300 26.138536 35.339039 0.975688 0.738246 0.134812 -0.038815 1065110.000000 0 0 1
13.516534 18.276800 26.000906 34.536723 0.934019 0.718418 0.140673 -0.049275 -296078.000000 0 0 1
14.065134 17.793700 24.826106 33.627062 0.901902 0.740283 0.158958 -0.057790 -644802.000000 0 0 1
13.176834 17.768500 23.611136 32.354819 0.932703 0.752831 0.159811 -0.054515 -1352950.000000 0 0 1
12.975834 18.915200 22.813886 32.351668 0.969528 0.788113 0.149747 -0.054393 -125208.000000 0 0 1
14.104234 19.488100 22.158166 32.706265 0.944317 0.826452 0.157588 -0.055251 180163.000000 0 0 1
14.742134 18.434600 21.208366 31.732630 0.896239 0.838814 0.166584 -0.063658 -623034.000000 0 0 1
13.781334 18.105400 20.231166 30.447180 0.920183 0.844015 0.134958 -0.054304 194161.000000 0 0 1
14.263034 17.026900 19.442966 29.519119 0.873500 0.851764 0.104479 -0.047889 -102578.000000 0 0 1
13.142434 16.382800 18.629566 28.074551 0.894710 0.845209 0.119411 -0.040367 -408377.000000 0 0 1
12.620634 17.175300 17.617466 27.652241 0.937086 0.880056 0.142383 -0.046779 -438200.000000 0 0 1
11.673134 16.427400 16.921666 26.314717 0.952999 0.872323 0.128796 -0.043867 -182555.000000 0 0 1
11.138034 17.137300 15.629266 25.729687 0.994471 0.917961 0.115503 -0.034141 6537.270000 0 0 1
10.179034 18.150800 15.849566 26.158613 1.059696 0.919897 0.121243 -0.042445 73532.100000 0 0 1
9.830534 18.637100 14.558566 25.611184 1.085414 0.966181 0.103369 -0.026343 101381.000000 0 0 1
8.535934 19.477300 14.588666 25.788691 1.157756 0.969514 0.105683 -0.032879 813212.000000 0 0 1
7.278234 18.832500 14.822666 25.046900 1.202006 0.937511 0.073087 -0.033168 602754.000000 0 0 1
6.254334 19.787200 14.966366 25.585975 1.264653 0.945985 0.089351 -0.039009 1262800.000000 0 0 1
4.848234 19.421200 15.609766 25.384113 1.326160 0.908483 0.069146 -0.038884 1588030.000000 0 0 1
3.948934 18.861700 14.653666 24.209249 1.364415 0.920664 0.051586 -0.037891 487280.000000 0 1 0
2.760834 18.349200 15.280266 24.037510 1.421456 0.881902 0.035601 -0.035105 470999.000000 0 1 0
1.559134 18.133500 14.378566 23.194781 1.485026 0.902174 0.035484 -0.026636 -280420.000000 0 1 0
1.102734 19.321500 13.787366 23.761899 1.513785 0.951785 0.034625 -0.026333 -293061.000000 0 1 0
0.157634 19.034700 12.790866 22.933620 1.562515 0.979143 0.025854 -0.024814 -463284.000000 0 1 0
-0.442366 20.229200 12.069066 23.560106 -1.548932 1.032974 0.018839 -0.018511 262676.000000 0 1 0
-1.508666 20.857100 12.793066 24.514429 -1.498589 1.021768 0.022847 -0.011731 659887.000000 0 1 0
-2.595866 21.206300 11.932466 24.470992 -1.448992 1.061438 0.023523 -0.016097 96544.100000 0 1 0
-3.811266 21.822000 12.581066 25.475648 -1.397888 1.054288 0.022832 -0.016880 51083.000000 0 0 1
-4.630166 20.955400 13.391266 25.296111 -1.353337 1.012926 0.028281 -0.015392 106324.000000 0 0 1
-5.793966 21.587200 13.840866 26.289671 -1.308578 1.016347 0.031662 -0.011738 105175.000000 0 0 1
-6.655166 20.828600 14.919666 26.471083 -1.261528 0.972033 0.032475 -0.019845 -497150.000000 0 0 1
-7.495566 19.722300 14.558566 25.634049 -1.207601 0.966797 0.042662 -0.026483 216775.000000 0 0 1
-8.198566 19.213300 15.664366 26.110146 -1.167476 0.927378 0.040491 -0.016424 239451.000000 0 0 1
-9.270166 20.158600 16.321866 27.544663 -1.139772 0.936563 0.040838 -0.006369 163511.000000 0 0 1
-10.479866 20.249300 15.555166 27.601176 -1.093214 0.972096 0.043438 -0.022879 348124.000000 0 0 1
-11.609566 19.666500 16.139766 27.965073 -1.037523 0.955574 0.041803 -0.013157 -338288.000000 0 0 1
-12.866866 19.628100 15.272266 28.001083 -0.990541 0.993910 0.052710 -0.027758 -355949.000000 0 0 1
-13.519866 20.837000 14.953266 28.992542 -0.995237 1.028899 0.041494 -0.016706 68853.300000 0 0 1
-14.596366 20.520900 14.078666 28.850825 -0.952532 1.061021 0.047995 -0.022048 -103820.000000 0 0 1
-15.577766 21.678400 13.976166 30.132259 -0.947706 1.088486 0.040883 -0.023872 -135598.000000 0 0 1
-16.552066 21.799600 14.995666 31.209990 -0.921381 1.069598 0.032440 -0.032103 458612.000000 0 0 1
-17.609866 22.691700 14.648666 32.242891 -0.910831 1.099185 0.056357 -0.035162 1019080.000000 0 0 1
-19.045766 22.361000 15.155666 33.052227 -0.865293 1.094448 0.117752 -0.037947 -1040380.000000 0 0 1
-19.650366 21.174400 14.640866 32.385908 -0.822712 1.101706 0.117524 -0.042170 287352.000000 0 0 1
-20.828366 20.869300 15.380866 33.255369 -0.786380 1.089975 0.128944 -0.034931 351180.000000 0 0 1
-21.995266 21.855400 15.259466 34.558668 -0.782209 1.113468 0.126628 -0.037827 -1700510.000000 0 0 1
-22.664466 21.914500 13.998166 34.494521 -0.768576 1.152933 0.144868 -0.038458 783038.000000 0 0 1
-23.556766 23.064400 13.866066 35.765284 -0.774838 1.172665 0.172090 -0.048374 609754.000000 0 0 1
-22.947566 24.350700 13.227466 35.979345 -0.815055 1.194326 0.141816 -0.045295 110431.000000 0 0 1
-21.879166 24.894400 14.003966 35.979718 -0.849774 1.171013 0.102891 -0.044471 235829.000000 0 0 1
-21.362266 26.026300 13.360966 36.224717 -0.883503 1.193040 0.085756 -0.036213 -1252560.000000 0 0 1
-19.993466 26.476200 13.783966 35.926669 -0.924008 1.177030 0.064649 -0.029344 -854292.000000 0 0 1
-19.013866 25.788500 13.040066 34.592155 -0.935473 1.184278 0.067491 -0.021389 618504.000000 0 0 1
-17.680566 26.335000 13.124666 34.327708 -0.979544 1.178475 0.029286 -0.023832 992290.000000 0 0 1
-16.655866 25.529700 12.275966 32.861570 -0.992728 1.187946 0.043366 -0.025032 690779.000000 0 0 1
-15.353266 26.107800 12.429666 32.738916 -1.039194 1.181367 0.037218 -0.021938 276051.000000 0 0 1
-14.407566 25.651300 11.511766 31.592529 -1.059038 1.197827 0.045565 -0.022579 -31315.900000 0 0 1
-13.033166 26.327500 11.667766 31.609135 -1.111125 1.192727 0.045045 -0.018940 -54890.000000 0 0 1
-11.902166 25.624500 11.148866 30.373900 -1.135963 1.194956 0.030363 -0.016684 325902.000000 0 0 1
-10.641666 26.131100 11.470266 30.457289 -1.184063 1.184671 0.040948 -0.018628 -54862.700000 0 0 1
-10.191066 27.545700 11.014366 31.367813 -1.216443 1.212012 0.050802 -0.028612 -880788.000000 0 0 1
-8.910166 27.873600 11.476966 31.433253 -1.261399 1.197033 0.060029 -0.031062 -100035.000000 0 0 1
-8.448566 29.095200 10.887566 32.193913 -1.288192 1.225807 0.067507 -0.036166 244432.000000 0 0 1
-7.186066 29.721300 11.548466 32.685812 -1.333567 1.209681 0.065857 -0.036583 122553.000000 0 0 1
-5.952566 29.176200 11.194066 31.811803 -1.369537 1.211213 0.079817 -0.034211 -740166.000000 0 0 1
-4.913266 29.808500 11.885666 32.464687 -1.407437 1.195970 0.123384 -0.044742 -415630.000000 0 0 1
-3.534866 29.528800 11.266366 31.802143 -1.451654 1.208669 0.127765 -0.045523 -510079.000000 0 0 1
-3.425066 30.218500 9.997066 32.012969 -1.457935 1.253202 0.124847 -0.049018 682486.000000 0 0 1
-2.077566 30.091600 9.522566 31.630680 -1.501864 1.264998 0.139334 -0.051013 892717.000000 0 0 1
-1.826266 30.732600 8.127766 31.841617 -1.511442 1.312684 0.140964 -0.059106 252459.000000 0 0 1
-2.541966 30.041000 7.105466 30.974359 -1.486381 1.339337 0.141127 -0.051136 207724.000000 0 0 1
-2.071566 30.493300 5.879666 31.123997 -1.502965 1.380743 0.150553 -0.045699 96942.500000 0 0 1
12.395534 -33.326814 -26.717541 44.476430 -1.214712 2.215188 0.206750 -0.059278 -7085.190000 0 0 1
12.820534 -33.149814 -25.359521 43.662130 -1.201768 2.190523 0.181659 -0.052002 -405060.000000 0 0 1
13.975134 -32.397714 -25.283581 43.407093 -1.163550 2.192568 0.165202 -0.042180 -697021.000000 0 0 1
14.609634 -32.355514 -23.890571 42.791121 -1.146667 2.163140 0.122754 -0.034157 -479113.000000 0 0 1
13.965934 -31.468514 -23.001671 41.405212 -1.153105 2.159792 0.126945 -0.037840 268200.000000 0 0 1
14.453534 -31.605214 -21.650371 40.945485 -1.141876 2.127936 0.088415 -0.029151 857390.000000 0 0 1
15.965734 -31.443714 -21.274371 41.185078 -1.100963 2.113619 0.045064 -0.016566 769843.000000 0 0 1
16.891634 -32.378414 -21.810571 42.536925 -1.089944 2.109175 0.069514 -0.015953 687685.000000 0 0 1
18.159234 -32.327514 -21.143671 42.683495 -1.058994 2.089045 0.048862 -0.019025 634468.000000 0 0 1
19.162534 -33.429814 -21.577271 44.162584 -1.050303 2.081266 0.031114 -0.006390 -50687.700000 0 0 1
20.458934 -33.151814 -21.104371 44.305815 -1.017877 2.067277 0.043827 0.000873 223237.000000 0 0 1
21.307034 33.349300 -21.139871 44.867133 1.002260 2.061409 0.044305 0.003438 1016330.000000 0 0 1
22.849734 33.601600 -20.969071 45.726139 0.973607 2.047192 0.076400 0.001028 516477.000000 0 0 1
23.439534 -33.413214 -22.036571 46.383888 -0.959061 2.065864 0.066519 0.005841 -620190.000000 0 0 1
24.824134 -33.572214 -21.935571 47.164610 -0.934098 2.054527 0.067505 0.007385 -272824.000000 0 0 1
25.619234 -32.907214 -23.091371 47.670130 -0.909285 2.076473 0.092953 0.005558 -8169.080000 0 0 1
25.828234 -31.537514 -23.067971 46.838486 -0.884596 2.085757 0.097434 0.002717 -299753.000000 0 0 1
24.707534 -30.782314 -23.428571 45.901100 -0.894439 2.106463 0.069852 0.003616 -216828.000000 0 0 1
25.021634 -29.270214 -23.310871 45.013601 -0.863493 2.115147 0.066192 -0.015201 499739.000000 0 0 1
25.935634 -28.839814 -24.338771 45.790477 -0.838368 2.131196 0.075276 -0.014459 284579.000000 0 0 1
26.171334 -27.512314 -24.003271 44.922413 -0.810372 2.134508 0.090782 -0.014901 -76808.700000 0 0 1
26.753034 -26.571914 -25.039371 45.263247 -0.782002 2.156990 0.093067 -0.017050 179151.000000 0 0 1
25.795834 -26.113214 -25.975691 44.967338 -0.791512 2.186652 0.064592 -0.014635 -93550.500000 0 0 1
26.469934 -25.547514 -27.109841 45.697662 -0.767667 2.205878 0.063422 -0.013196 -756808.000000 0 0 1
25.614534 -25.146414 -28.292041 45.704333 -0.776176 2.238295 0.058324 -0.007410 -81941.400000 0 0 1
24.759834 -24.002714 -28.155981 44.518973 -0.769873 2.255507 0.068161 -0.012906 -571036.000000 0 0 1
23.552234 -24.356814 -27.590731 43.694514 -0.802190 2.254213 0.074161 -0.015070 -1109050.000000 0 0 1
22.531934 -23.193614 -27.411391 42.391227 -0.799868 2.273953 0.078151 -0.012475 166876.000000 0 0 1
22.299934 -22.459214 -28.603051 42.659558 -0.788957 2.305673 0.091864 -0.018965 -3184.960000 0 0 1
21.657734 -21.247914 -28.291121 41.483958 -0.775847 2.321259 0.076077 -0.008310 -378830.000000 0 0 1
20.600034 -20.887014 -29.326861 41.481243 -0.792315 2.356031 0.098032 -0.020422 -284307.000000 0 0 1
19.370134 -21.568714 -29.229711 41.167797 -0.839051 2.360314 0.095198 -0.027171 -22807.000000 0 0 1
18.444334 -20.992314 -30.124931 41.089928 -0.849918 2.393733 0.082104 -0.030735 735289.000000 0 0 1
17.075634 -21.785614 -30.149261 40.928818 -0.906010 2.398865 0.094769 -0.036936 546967.000000 0 0 1
17.174134 -22.999714 -30.767091 42.077923 -0.929404 2.390866 0.089476 -0.024271 -210614.000000 0 0 1
16.178134 -23.923514 -30.417831 41.944141 -0.976193 2.382119 0.103598 -0.035059 -411032.000000 0 0 1
16.456534 -25.506914 -30.666111 43.148934 -0.997817 2.361294 0.123803 -0.039307 119254.000000 0 0 1
15.482734 -26.325914 -30.036851 42.836681 -1.039160 2.347868 0.142352 -0.043943 167201.000000 0 0 1
15.704234 -27.713714 -30.358811 44.003753 -1.055253 2.332167 0.174544 -0.042803 642739.000000 0 0 1
14.782734 -28.708214 -29.502721 43.739014 -1.095276 2.311107 0.174815 -0.057315 374949.000000 0 0 1
15.015834 -28.898914 -28.138811 43.039693 -1.091593 2.283375 0.205163 -0.070184 -143358.000000 0 0 1
15.126134 -27.766214 -27.303481 41.776101 -1.071979 2.283084 0.167055 -0.062371 278181.000000 0 0 1
16.414234 -27.784214 -26.422141 41.707543 -1.037187 2.256877 0.105381 -0.033758 196844.000000 0 0 1
16.433934 -28.778514 -25.379181 41.741824 -1.051937 2.224340 0.099374 -0.039877 -301446.000000 0 0 1
17.153634 -28.471314 -24.214371 41.124186 -1.028549 2.200383 0.119173 -0.040577 -1091090.000000 0 0 1
16.546034 -27.383814 -23.252371 39.551451 -1.027275 2.199259 0.095298 -0.035156 300086.000000 0 0 1
15.389334 -27.782914 -22.558471 38.956470 -1.064953 2.188382 0.090915 -0.037023 -68247.200000 0 0 1
14.198434 -27.835714 -23.328071 38.995146 -1.099117 2.212087 0.114577 -0.038928 -379620.000000 0 0 1
12.901434 -27.881614 -22.487071 38.072296 -1.137413 2.202650 0.088365 -0.030006 3223.000000 0 0 1
12.667434 -26.617014 -22.005971 36.785759 -1.126602 2.212074 0.062231 -0.029390 279995.000000 0 0 1
11.411334 -26.395014 -21.364971 35.824256 -1.162734 2.209784 0.065586 -0.026515 -17782.300000 0 0 1
10.981234 -24.903814 -21.128171 34.455581 -1.155497 2.230902 0.069646 -0.028539 -70574.400000 0 0 1
11.662134 -24.092814 -20.185271 33.524830 -1.119990 2.216924 0.051118 -0.027432 179675.000000 0 0 1
11.028734 -22.834014 -20.208971 32.425725 -1.120844 2.243674 0.058265 -0.034476 -156874.000000 0 0 1
11.291734 -22.020014 -18.923171 31.152378 -1.096966 2.223629 0.048438 -0.023417 63225.400000 0 0 1
10.630634 -22.618814 -17.814171 30.691461 -1.131443 2.190050 0.061917 -0.033804 235660.000000 0 0 1
10.550934 -21.767414 -16.707071 29.398448 -1.119453 2.175232 0.056237 -0.028383 -336090.000000 0 0 1
9.826134 -22.389714 -15.500371 28.950193 -1.157238 2.135795 0.054025 -0.018757 -134620.000000 0 0 1
10.429334 -23.503914 -14.882471 29.710148 -1.153171 2.095460 0.043831 -0.018630 320338.000000 0 0 1
9.682234 -23.980714 -13.704371 29.268244 -1.187061 2.058087 0.029604 -0.017050 475191.000000 0 0 1
9.814134 -25.533014 -13.389871 30.455552 -1.203836 2.026008 0.041283 -0.017251 -365961.000000 0 0 1
11.143134 -25.889914 -13.133171 31.095615 -1.164357 2.006830 0.035571 -0.018115 -570728.000000 0 0 1
11.385534 -27.278014 -13.197271 32.371104 -1.175390 1.990716 0.036914 -0.021757 -485523.000000 0 0 1
12.759234 -27.683614 -12.645971 33.001532 -1.138919 1.964048 0.052626 -0.026475 230666.000000 0 0 1
13.981834 -27.263014 -13.227271 33.372508 -1.096922 1.978337 0.064490 -0.023950 370440.000000 0 0 1
14.221934 -27.473514 -14.628271 34.220516 -1.093121 2.012490 0.065011 -0.026829 -507832.000000 0 0 1
15.676334 -27.067614 -14.976171 34.679805 -1.045845 2.017330 0.063675 -0.026818 962575.000000 0 0 1
16.709534 -27.971714 -14.478571 35.654654 -1.032311 1.988954 0.109703 -0.037140 1058030.000000 0 0 1
17.967334 -27.428514 -14.899671 36.015950 -0.990872 1.997307 0.138821 -0.045202 293367.000000 0 0 1
19.152234 -28.383714 -14.761171 37.287202 -0.977211 1.977820 0.126136 -0.041739 -138675.000000 0 0 1
19.273434 -29.453814 -15.674371 38.531524 -0.991361 1.989738 0.106068 -0.033043 94933.200000 0 0 1
20.662834 -29.727914 -15.770871 39.489517 -0.963390 1.981624 0.114567 -0.023807 528246.000000 0 0 1
20.968934 -30.707414 -16.929271 40.856354 -0.971665 1.998037 0.108977 -0.024458 18453.000000 0 0 1
20.534134 -32.019714 -16.644671 41.520571 -1.000564 1.983271 0.088450 -0.014963 26546.000000 0 0 1
20.948934 -32.922814 -17.652071 42.829489 -1.004109 1.995606 0.079917 -0.015057 -59080.600000 0 0 1
20.756934 33.238900 -17.266271 42.822878 1.012573 1.985810 0.058082 -0.008039 561121.000000 0 0 1
21.783834 32.688600 -16.409471 42.571713 0.982975 1.966497 0.081661 -0.012011 593379.000000 0 0 1
21.484034 31.349500 -16.059171 41.258355 0.970000 1.970597 0.072113 -0.018281 -50622.300000 0 0 1
22.426834 30.731400 -14.967271 40.882772 0.940369 1.945613 0.066546 -0.016743 644536.000000 0 0 1
23.802034 30.656900 -15.423671 41.764482 0.910612 1.949053 0.071598 -0.009364 1149530.000000 0 0 1
24.775934 30.590900 -14.390571 41.913466 0.890041 1.921267 0.077705 -0.011726 358470.000000 0 0 1
24.655634 29.393500 -13.442571 40.651948 0.872833 1.907815 0.069915 -0.007814 -1206130.000000 0 0 1
25.041734 28.124900 -13.974071 40.166816 0.843324 1.926128 0.075650 -0.003509 26180.300000 0 0 1
24.611534 26.956900 -13.249571 38.832373 0.830847 1.918989 0.048970 -0.000299 1729480.000000 0 0 1
23.083034 26.692100 -12.814971 37.543550 0.857779 1.919134 0.043376 0.000034 931335.000000 0 0 1
22.304534 26.237800 -13.864571 37.123318 0.866249 1.953547 0.054594 -0.006291 -848299.000000 0 0 1
20.936634 26.184800 -13.609671 36.183001 0.896316 1.956417 0.064865 -0.008596 -358984.000000 0 0 1
20.142234 27.516700 -13.694271 36.747945 0.938915 1.952664 0.072424 -0.013523 -546601.000000 0 0 1
20.084134 28.163600 -14.979771 37.695548 0.951317 1.979465 0.077299 -0.018830 -250587.000000 0 0 1
19.244634 27.578000 -15.923671 37.208404 0.961531 2.013030 0.079007 -0.013233 -446794.000000 0 0 1
19.210134 28.318000 -17.275371 38.332451 0.974734 2.038315 0.070464 -0.009551 -108830.000000 0 0 1
18.614634 29.577800 -17.253771 38.974908 1.009079 2.029392 0.066998 -0.013275 -202309.000000 0 0 1
18.743134 30.204100 -18.474871 40.061373 1.015404 2.050103 0.051122 -0.010292 921902.000000 0 0 1
17.548134 31.209100 -18.906471 40.489500 1.058577 2.056632 0.036952 -0.005146 1048300.000000 0 0 1
17.553234 32.347100 -18.076871 41.002734 1.073612 2.027364 0.057102 -0.023951 -704478.000000 0 0 1
16.676734 33.281100 -18.522571 41.579210 1.106279 2.032503 0.051783 -0.016074 -763882.000000 0 0 1
16.491434 -33.167714 -17.567771 40.996234 -1.109380 2.013652 0.056360 -0.015559 569177.000000 0 0 1
15.422434 -32.271014 -17.922571 40.006104 -1.124982 2.035319 0.040145 -0.014555 348991.000000 0 0 1
15.335634 -31.220514 -16.946971 38.692402 -1.114210 2.024160 0.047845 -0.017445 651568.000000 0 0 1
14.163734 -30.198914 -17.262371 37.557625 -1.132243 2.048368 0.047140 -0.017454 796205.000000 0 0 1
12.867334 -30.723514 -17.027771 37.409191 -1.174180 2.043366 0.045215 -0.016794 -450627.000000 0 0 1
11.941434 -29.755214 -17.345571 36.453250 -1.189150 2.066704 0.027202 -0.005566 -257530.000000 0 0 1
10.550834 -30.253714 -17.816671 36.661166 -1.235240 2.078283 0.054707 -0.012055 -1160330.000000 0 0 1
9.889234 -30.985514 -16.831371 36.622317 -1.261859 2.048334 0.055176 -0.010750 796938.000000 0 0 1
8.742434 -31.681114 -17.388871 37.181931 -1.301546 2.057449 0.083565 -0.007785 1857190.000000 0 0 1
7.590634 -31.027014 -18.278071 36.801918 -1.330863 2.090544 0.091096 -0.001172 -149377.000000 0 0 1
7.878934 -30.701914 -19.631371 37.283721 -1.319590 2.125322 0.083538 0.006249 -96114.600000 0 0 1
7.560934 -31.715314 -20.591571 38.562179 -1.336765 2.134101 0.108374 -0.015270 -471966.000000 0 0 1
7.961534 -31.151014 -21.981671 38.948242 -1.320574 2.170480 0.127132 -0.015079 272109.000000 0 0 1
9.324234 -30.904014 -22.295571 39.231262 -1.277766 2.175248 0.104189 -0.016752 179977.000000 0 0 1
10.194534 -32.003414 -22.504271 40.430054 -1.262414 2.161111 0.109897 -0.017276 -260293.000000 0 0 1
9.848234 -33.261314 -23.331471 41.805027 -1.282934 2.162893 0.142107 -0.034372 -615593.000000 0 0 1
8.765834 33.616600 -22.863971 41.589383 1.315717 2.152867 0.152282 -0.044598 -36505.500000 0 0 1
8.159934 32.878400 -23.921371 41.470540 1.327526 2.185637 0.158628 -0.061035 -478486.000000 0 0 1
6.964734 31.982900 -23.573371 40.337541 1.356380 2.194940 0.165627 -0.070580 572494.000000 0 0 1
5.733234 32.721600 -23.458371 40.667779 1.397344 2.185638 0.163041 -0.070319 588496.000000 0 0 1
5.458434 33.276300 -22.213271 40.379897 1.408211 2.153289 0.133873 -0.053206 -1502430.000000 0 0 1
4.174634 -33.606314 -22.293271 40.543826 -1.447208 2.152988 0.125796 -0.044895 -627932.000000 0 0 1
2.996834 33.225200 -22.295371 40.124537 1.480842 2.159946 0.117177 -0.052311 500280.000000 0 0 1
1.900234 -33.582214 -22.601971 40.524376 -1.514272 2.162454 0.117821 -0.044098 935547.000000 0 0 1
0.429834 33.591700 -22.274771 40.308219 1.558001 2.156290 0.092639 -0.040530 1027270.000000 0 0 1
0.227234 33.655400 -20.877871 39.605847 1.564045 2.126029 0.082910 -0.035428 348551.000000 0 0 1
-0.984666 32.989300 -20.514271 38.859990 -1.540957 2.126925 0.096114 -0.042040 274462.000000 0 0 1
-1.233766 33.180400 -19.004671 38.257531 -1.533630 2.090654 0.110532 -0.031315 78203.000000 0 0 1
-0.294366 32.575500 -18.147271 37.290392 -1.561760 2.079044 0.105144 -0.039857 -29478.500000 0 0 1
-0.814866 32.492500 -16.809671 36.592234 -1.545723 2.048091 0.076248 -0.025738 -114375.000000 0 0 1
-0.022766 31.558000 -15.978171 35.372445 -1.570075 2.039480 0.043455 -0.015471 103316.000000 0 0 1
1.218134 32.066600 -15.505471 35.639449 1.532827 2.020907 0.038568 -0.011202 37034.500000 0 0 1
1.874934 30.999800 -14.821971 34.412117 1.510388 2.016086 0.051236 -0.005344 185776.000000 0 0 1
2.886334 31.582000 -13.805671 34.588296 1.479658 1.981378 0.072457 -0.018176 -6937.420000 0 0 1
4.047634 32.218700 -14.317271 35.488198 1.445821 1.986067 0.072395 -0.018929 -77907.200000 0 0 1
4.844334 32.606600 -13.214971 35.514693 1.423306 1.952065 0.085105 -0.030031 -1080970.000000 0 0 1
6.149434 33.122500 -13.758671 36.389787 1.387229 1.958530 0.081782 -0.033130 -759189.000000 0 0 1
7.036134 32.050500 -14.069871 35.702983 1.354692 1.975864 0.080600 -0.030320 -846908.000000 0 0 1
8.003534 32.406500 -14.996771 36.594275 1.328669 1.993044 0.079578 -0.023234 -586200.000000 0 0 1
8.905734 31.168600 -15.052971 35.740533 1.292484 2.005535 0.073811 -0.031979 -407304.000000 0 0 1
9.836134 31.044800 -13.999371 35.447306 1.263965 1.976793 0.066886 -0.034957 -134367.000000 0 0 1
10.757134 29.984600 -14.256471 34.900417 1.226343 1.991595 0.079605 -0.038561 197516.000000 0 0 1
10.348334 28.495400 -13.929271 33.363160 1.222448 2.001494 0.087021 -0.035066 -336760.000000 0 0 1
9.547234 27.904300 -14.953571 33.066734 1.241139 2.040054 0.103165 -0.044333 85994.100000 0 0 1
9.126434 26.652800 -14.468771 31.670316 1.240891 2.045254 0.084340 -0.030291 -217505.000000 0 0 1
8.212234 25.913500 -15.451371 31.268117 1.263899 2.087662 0.085895 -0.028607 -8724.080000 0 0 1
8.908334 25.290600 -16.511771 31.489863 1.232128 2.122750 0.108394 -0.031169 199572.000000 0 0 1
8.058534 24.386700 -17.242771 30.934839 1.251645 2.162035 0.097240 -0.028057 199175.000000 0 0 1
8.775234 23.746600 -18.445471 31.323173 1.216824 2.200464 0.115517 -0.022938 -451791.000000 0 0 1
8.121134 22.669700 -19.088071 30.728205 1.226802 2.241057 0.114909 -0.026754 67420.700000 0 0 1
8.994534 21.933200 -19.941171 30.977689 1.181624 2.270155 0.111602 -0.020775 143786.000000 0 0 1
8.185634 20.834100 -20.715371 30.499031 1.196429 2.317488 0.090933 -0.022263 403939.000000 0 0 1
7.787834 19.687300 -19.926571 29.074187 1.194109 2.325908 0.108434 -0.032187 803122.000000 0 0 1
6.841934 18.966800 -20.789271 28.961101 1.224593 2.371483 0.106364 -0.031421 754103.000000 0 0 1
25.784434 -12.634200 -9.712371 30.311552 -0.455610 1.896967 0.137677 -0.026363 -58653.300000 0 0 1
26.210034 -11.972300 -8.557471 30.058811 -0.428480 1.859480 0.150741 -0.036075 -233867.000000 0 0 1
25.140634 -11.925100 -7.696671 28.870369 -0.442906 1.840654 0.117632 -0.027027 -938007.000000 0 0 1
25.474234 -11.295700 -6.319971 28.573965 -0.417366 1.793820 0.100054 -0.029939 -371495.000000 0 0 1
25.681334 -9.886500 -6.265071 28.222773 -0.367481 1.794648 0.129195 -0.043169 509395.000000 0 0 1
26.754134 -9.352600 -7.014571 29.196901 -0.336297 1.813420 0.098496 -0.035551 -1281360.000000 0 0 1
27.029334 -7.893200 -6.672671 28.938072 -0.284123 1.803475 0.144012 -0.030455 -207279.000000 0 0 1
27.479534 -7.608300 -5.371471 29.014888 -0.270105 1.756999 0.149875 -0.042597 554445.000000 0 0 1
28.629034 -8.314900 -4.935671 30.217875 -0.282659 1.734868 0.150807 -0.054269 -488411.000000 0 0 1
29.094934 -8.056600 -3.476971 30.389362 -0.270139 1.685462 0.170286 -0.073208 166351.000000 0 0 1
29.858634 -6.838800 -3.350671 30.814513 -0.225156 1.679749 0.192678 -0.055825 770790.000000 0 0 1
30.495334 -6.851100 -2.070871 31.323976 -0.220991 1.636956 0.257173 -0.060718 306213.000000 0 0 1
31.298134 -5.620100 -1.622471 31.840087 -0.177673 1.621775 0.242823 -0.060074 -262700.000000 0 0 1
30.339534 -4.671100 -1.249271 30.722421 -0.152761 1.611471 0.237056 -0.052577 -165033.000000 0 0 1
30.837534 -3.392800 -0.918271 31.037201 -0.109581 1.600387 0.218775 -0.036233 5454.230000 0 0 1
31.699434 -3.294900 0.398029 31.872698 -0.103570 1.558308 0.193202 -0.040241 312072.000000 0 0 1
30.927634 -3.450400 1.566129 31.158892 -0.111104 1.520512 0.231549 -0.061304 762373.000000 0 0 1
31.777534 -3.249900 2.739729 32.060562 -0.101916 1.485237 0.170373 -0.042587 368326.000000 0 0 1
31.265034 -3.866200 4.031729 31.760112 -0.123034 1.443510 0.190780 -0.046479 -119233.000000 0 0 1
31.626534 -5.222900 4.195829 32.328336 -0.163666 1.440641 0.164520 -0.043997 27096.500000 0 0 1
31.503734 -5.603100 5.532729 32.472928 -0.176015 1.399581 0.160613 -0.036418 -118164.000000 0 0 1
32.110334 -6.999100 5.723829 33.359004 -0.214614 1.398360 0.120917 -0.028228 -280127.000000 0 0 1
33.503934 -6.973500 5.585929 34.674860 -0.205210 1.408997 0.130249 -0.050639 -335817.000000 0 0 1
34.049834 -8.237400 5.181729 35.413222 -0.237361 1.423947 0.128193 -0.047756 -600994.000000 0 0 1
35.534834 -8.414600 5.383629 36.912239 -0.232516 1.424425 0.199005 -0.070094 -1021230.000000 0 0 1
36.405834 -7.954000 4.393329 37.522689 -0.215101 1.453443 0.221307 -0.069535 -350928.000000 0 0 1
37.708234 -8.058600 4.927929 38.873338 -0.210542 1.443685 0.246835 -0.072301 -254313.000000 0 0 1
-37.019689 -7.936100 3.883829 38.059469 0.211179 1.468572 0.273323 -0.071233 -179771.000000 0 0 1
-36.677589 -9.109300 3.177329 37.925193 0.243436 1.486919 0.339483 -0.083952 596983.000000 0 0 1
-35.588689 -8.864500 2.277529 36.746718 0.244114 1.508777 0.360610 -0.084376 280421.000000 0 0 1
-35.200289 -10.063600 1.390229 36.636991 0.278467 1.532841 0.367255 -0.069333 -275026.000000 0 0 1
-34.500589 -10.993800 2.134029 36.272694 0.308483 1.511929 0.357639 -0.069559 -495895.000000 0 0 1
-34.040989 -12.035400 1.251229 36.127626 0.339839 1.536156 0.368849 -0.067650 129443.000000 0 0 1
-33.131189 -13.094000 1.997929 35.680810 0.376376 1.514773 0.233898 -0.070074 538563.000000 0 0 1
-31.804789 -12.742100 2.344129 34.342403 0.381053 1.502486 0.251445 -0.054218 625165.000000 0 0 1
-30.879189 -12.965000 1.259729 33.514212 0.397511 1.533200 0.268812 -0.033551 -258117.000000 0 0 1
-29.456289 -13.292600 1.729829 32.362918 0.423906 1.517320 0.269673 -0.039003 -504551.000000 0 0 1
-28.862389 -12.258600 2.452429 31.453540 0.401638 1.492747 0.250234 -0.052512 289969.000000 0 0 1
-27.471789 -12.538500 2.586629 30.308477 0.428175 1.485349 0.228756 -0.032005 269002.000000 0 0 1
-26.790989 -11.527400 3.547529 29.380657 0.406327 1.449757 0.199935 -0.038165 -798773.000000 0 0 1
-25.511989 -11.961600 3.873629 28.441984 0.438428 1.434178 0.166373 -0.027598 -782439.000000 0 0 1
-24.925589 -10.948700 4.607329 27.611347 0.413883 1.403148 0.167497 -0.026682 -251573.000000 0 0 1
-23.503789 -11.257100 5.115429 26.557824 0.446665 1.376970 0.145743 -0.015763 -34835.500000 0 0 1
-23.477089 -12.076700 6.253229 27.131591 0.475104 1.338228 0.145744 -0.020940 107338.000000 0 0 1
-22.150489 -12.358900 6.678829 26.229627 0.508928 1.313332 0.122214 -0.018844 214803.000000 0 0 1
-21.884389 -11.926400 8.136529 26.217715 0.498975 1.255241 0.147988 -0.024711 -467596.000000 0 0 1
-21.646289 -10.507400 8.326329 25.461638 0.451910 1.237653 0.136555 -0.012886 1176140.000000 0 0 1
-22.831989 -9.714000 8.617229 26.266293 0.402257 1.236535 0.167689 -0.024422 290945.000000 0 0 1
-23.505189 -9.878800 9.988729 27.383559 0.397867 1.197409 0.124035 -0.005671 -409347.000000 0 0 1
-24.199089 -11.118600 10.190329 28.514241 0.430696 1.205339 0.116352 -0.012764 1488060.000000 0 0 1
-25.563389 -11.087600 9.695829 29.503065 0.409241 1.235935 0.115532 -0.013345 546001.000000 0 0 1
-26.639889 -10.670000 10.677329 30.619241 0.380961 1.214599 0.114961 -0.010335 -988590.000000 0 0 1
-26.818889 -11.639600 11.730229 31.501291 0.409475 1.189232 0.116535 -0.007641 15825.900000 0 0 1
-27.953989 -11.268700 12.469329 32.617377 0.383190 1.178522 0.115358 -0.012049 -48042.800000 0 0 1
-28.163089 -12.016200 13.829129 33.597521 0.403280 1.146575 0.103882 -0.007151 -24664.700000 0 0 1
-28.170489 -13.427800 13.819729 34.130150 0.444803 1.153913 0.095401 -0.016342 296821.000000 0 0 1
-28.161489 -13.908700 15.164129 34.877961 0.458748 1.121006 0.075806 -0.002282 -253935.000000 0 0 1
-27.983689 -15.423300 15.279129 35.417747 0.503728 1.124755 0.083821 -0.005911 -173618.000000 0 0 1
-29.057289 -16.172400 14.786429 36.393832 0.507873 1.152407 0.097943 -0.013062 -172876.000000 0 0 1
-28.665889 -17.500400 14.979529 36.774767 0.548101 1.151266 0.066997 -0.008114 -203342.000000 0 0 1
-29.650989 -18.450900 15.658029 38.272584 0.556633 1.149308 0.055269 -0.002403 -473728.000000 0 0 1
-29.688189 -18.175200 17.075629 38.772459 0.549344 1.114745 0.065109 0.002679 -444557.000000 0 0 1
-30.224989 -19.184500 17.836929 39.996888 0.565561 1.108552 0.062668 0.006539 -539645.000000 0 0 1
-29.466189 -20.521400 18.037329 40.183695 0.608332 1.105294 0.028713 0.014004 -696972.000000 0 0 1
-28.398589 -20.432700 18.930029 39.778400 0.623692 1.074824 0.034266 0.013888 -481801.000000 0 0 1
-27.759689 -21.636700 19.037629 40.014728 0.662071 1.074962 0.023816 0.019990 -175185.000000 0 0 1
-26.320189 -21.568700 19.603729 39.271712 0.686503 1.048142 0.024417 0.017360 1222770.000000 0 0 1
-25.276389 -21.108000 18.693329 37.866661 0.695773 1.054501 0.027930 0.006872 1323100.000000 0 0 1
-23.981789 -20.985800 19.273529 37.242434 0.718871 1.026852 0.052158 0.007936 1205190.000000 0 0 1
-22.824289 -20.830400 18.214829 35.869677 0.739756 1.038161 0.062646 -0.007164 485150.000000 0 0 1
-22.458189 -21.998400 17.519529 35.989356 0.775056 1.062377 0.060198 -0.010769 539694.000000 0 0 1
-21.211989 -21.909100 16.826529 34.829430 0.801563 1.066590 0.070849 -0.017481 486608.000000 0 0 1
-21.070489 -23.093000 15.857829 35.053144 0.831162 1.101348 0.072340 -0.019885 -528649.000000 0 0 1
-21.051189 -24.393300 16.404629 36.156569 0.858809 1.099871 0.078511 -0.031270 474929.000000 0 0 1
-19.869289 -24.852700 17.061029 36.104349 0.896371 1.078617 0.100110 -0.031589 924542.000000 0 0 1
-18.483589 -24.899300 16.329529 35.046707 0.932220 1.086104 0.106330 -0.028879 525912.000000 0 0 1
-17.785689 -23.660500 16.316329 33.799003 0.926206 1.067009 0.113742 -0.036062 -302214.000000 0 0 1
-16.593489 -23.815600 15.584329 32.945379 0.962256 1.078064 0.124025 -0.036523 110778.000000 0 0 1
-15.811489 -22.471200 15.353629 31.475259 0.957636 1.061229 0.113244 -0.030326 324732.000000 0 0 1
-16.444489 -21.573200 14.403529 30.712958 0.919492 1.082669 0.127479 -0.026046 6540.670000 0 0 1
-17.428289 -20.712900 14.923329 30.910762 0.871303 1.066961 0.097356 -0.016812 -442094.000000 0 0 1
-17.018689 -19.521700 15.802229 30.338803 0.853791 1.022940 0.106172 -0.016561 -366974.000000 0 0 1
-16.245089 -18.531300 15.156829 28.931669 0.851044 1.019392 0.109933 -0.018027 96440.800000 0 0 1
-16.203589 -17.326900 15.935729 28.578405 0.818887 0.979287 0.109522 -0.023467 -316413.000000 0 0 1
-15.569589 -16.101100 15.223029 27.081324 0.802179 0.973846 0.111713 -0.018867 -225592.000000 0 0 1
-16.238989 -15.474500 14.173229 26.533852 0.761297 1.007287 0.111377 -0.025590 -196726.000000 0 0 1
-16.128089 -16.180900 12.908029 26.240312 0.787033 1.056507 0.134430 -0.024041 101712.000000 0 0 1
-16.915789 -15.356900 11.838029 25.731638 0.737132 1.092737 0.113400 -0.019331 -184640.000000 0 0 1
-18.292889 -15.512500 11.990229 26.814791 0.703336 1.107220 0.102954 -0.016433 -485616.000000 0 0 1
-19.050489 -14.658100 11.124429 26.486486 0.655823 1.137347 0.135462 -0.020439 -314089.000000 0 0 1
-20.553289 -14.492300 11.523029 27.663055 0.614146 1.141150 0.113673 -0.017868 474063.000000 0 0 1
-21.280589 -15.646200 11.169929 28.678116 0.633983 1.170715 0.123060 -0.028540 -100964.000000 0 0 1
-21.615389 -15.646000 9.800929 28.426758 0.626545 1.218794 0.158412 -0.034401 -1232230.000000 0 0 1
-22.462989 -16.829800 9.374629 29.592426 0.643004 1.248451 0.158635 -0.024755 -113684.000000 0 0 1
-21.778089 -18.069600 9.292929 29.785132 0.692599 1.253500 0.156929 -0.015787 -363136.000000 0 0 1
-22.633489 -19.029700 8.776629 30.845316 0.699115 1.282273 0.152639 -0.024774 -168014.000000 0 0 1
-22.035789 -20.423200 8.780929 31.301562 0.747436 1.286453 0.162729 -0.029531 195538.000000 0 0 1
-20.892389 -20.562600 7.956829 30.374719 0.777443 1.305748 0.187755 -0.035212 -111259.000000 0 0 1
-20.409789 -21.863200 7.931629 30.943008 0.819766 1.311573 0.180300 -0.043019 399900.000000 0 0 1
-19.004389 -22.112300 7.311829 30.059665 0.860842 1.325088 0.190942 -0.054184 810593.000000 0 0 1
-17.845089 -21.801500 8.072529 29.307308 0.884861 1.291745 0.155357 -0.051527 -112016.000000 0 0 1
-16.661089 -22.180000 7.449729 28.723557 0.926543 1.308437 0.163916 -0.049198 -1209370.000000 0 0 1
-15.416789 -21.889400 8.221729 28.007499 0.957188 1.272853 0.114302 -0.033997 -1574470.000000 0 0 1
-14.250189 -22.078900 7.499829 27.327516 0.997647 1.292787 0.109003 -0.031457 -28793.500000 0 0 1
-13.109789 -21.901900 8.358729 26.859414 1.031430 1.254338 0.094439 -0.026589 -221821.000000 0 0 1
-11.755889 -21.897700 7.718129 26.024598 1.078101 1.269697 0.084728 -0.031072 -991792.000000 0 0 1
-11.403689 -23.178900 7.319929 26.849337 1.113581 1.294671 0.064399 -0.014402 -555019.000000 0 0 1
-10.182289 -23.193700 6.616129 26.180143 1.157118 1.315310 0.082759 -0.028969 169874.000000 0 0 1
-9.717289 -24.666000 6.306629 27.250887 1.195512 1.337251 0.100177 -0.018847 134441.000000 0 0 1
-10.570289 -25.374230 5.418129 28.016757 1.176083 1.376181 0.088059 -0.029469 -316570.000000 0 0 1
-10.841189 -26.691330 5.932529 29.413489 1.184983 1.367709 0.111393 -0.029977 344029.000000 0 0 1
-10.021289 -27.843970 5.243329 30.053376 1.225322 1.395432 0.145181 -0.032799 840443.000000 0 0 1
-8.620289 -27.857300 5.522129 29.678821 1.270698 1.383643 0.146364 -0.037148 521770.000000 0 0 1
-7.888289 -29.023250 5.152429 30.514286 1.305415 1.401130 0.178260 -0.032292 273526.000000 0 0 1
-8.077289 -30.266130 5.994629 31.893836 1.309999 1.381716 0.210563 -0.039398 -479815.000000 0 0 1
-7.802289 -30.080900 7.390729 31.943061 1.317012 1.337309 0.192967 -0.035698 216497.000000 0 0 1
-7.430289 -31.350880 7.940929 33.183508 1.338086 1.329148 0.211420 -0.044712 -164805.000000 0 0 1
-7.701289 -31.373320 9.474429 33.665410 1.330083 1.285513 0.170023 -0.048235 -195564.000000 0 0 1
-6.755289 -30.619810 10.209629 32.976404 1.353656 1.256020 0.163053 -0.046113 173857.000000 0 0 1
-6.816289 -30.887130 11.562329 33.677352 1.353594 1.220340 0.129746 -0.041104 -119400.000000 0 0 1
-5.825289 -30.096880 12.478429 33.097845 1.379609 1.184223 0.114676 -0.035338 258714.000000 0 0 1
-6.096289 -28.729810 12.492929 31.916140 1.361704 1.168611 0.116162 -0.032171 -182677.000000 0 0 1
-5.278289 -28.095570 13.436629 31.587409 1.385092 1.131415 0.089700 -0.035853 -48610.700000 0 0 1
-6.104289 -27.455710 14.605829 31.692406 1.352023 1.091830 0.098870 -0.036067 199553.000000 0 0 1
-6.723289 -28.386700 15.496929 33.032744 1.338235 1.082481 0.090802 -0.030871 -199291.000000 0 0 1
-5.907289 -29.369730 16.058829 33.990632 1.372309 1.078729 0.071074 -0.038344 -173401.000000 0 0 1
-6.728289 -30.637210 16.499729 35.442200 1.354616 1.086553 0.074989 -0.034196 218230.000000 0 0 1
-7.372289 -31.205520 15.371829 35.558800 1.338801 1.123762 0.081970 -0.032677 -215320.000000 0 0 1
-7.661289 -32.582180 15.520529 36.894181 1.339854 1.136605 0.083306 -0.039091 -738480.000000 0 0 1
-6.564289 -33.626910 15.402329 37.564487 1.378011 1.148316 0.091522 -0.046022 -485209.000000 0 0 1
-6.152289 -33.698590 14.041829 37.021866 1.390217 1.181773 0.088337 -0.043792 -58075.000000 0 0 1
-4.949289 33.219296 13.916829 36.355126 -1.422896 1.177968 0.123370 -0.052983 37303.800000 0 0 1
-4.011289 33.763405 12.800729 36.330657 -1.452545 1.210726 0.150436 -0.060616 -388379.000000 0 0 1
-4.488289 33.619347 11.531329 35.824248 -1.438078 1.243075 0.147746 -0.053453 47170.400000 0 0 1
-3.673289 -33.304660 10.605629 35.145025 1.460947 1.264250 0.158355 -0.057877 -319947.000000 0 0 1
-4.367289 -33.055040 9.247529 34.600949 1.439435 1.300245 0.161016 -0.061319 -727634.000000 0 0 1
-4.441289 33.577311 8.257229 34.861765 -1.439289 1.331668 0.165868 -0.067233 303028.000000 0 0 1
-5.137289 32.371166 8.570029 33.878157 -1.413409 1.315051 0.177101 -0.069496 437730.000000 0 0 1
-6.612289 32.370978 9.108129 34.271863 -1.369302 1.301803 0.175735 -0.058206 371501.000000 0 0 1
-7.524289 32.916689 8.222629 34.752481 -1.346071 1.331926 0.177944 -0.050393 -1441240.000000 0 0 1
-8.833289 32.963838 8.673229 35.211738 -1.308978 1.321919 0.129084 -0.048420 -781242.000000 0 0 1
-9.842289 33.313021 7.585829 35.555208 -1.283520 1.355790 0.132980 -0.056552 -505484.000000 0 0 1
-9.992289 -33.019220 7.147429 35.230675 1.276937 1.366503 0.140140 -0.045409 -47279.600000 0 0 1
-10.880189 -33.131670 6.046129 35.392679 1.253499 1.399124 0.124549 -0.038528 17283.000000 0 0 1
-11.413589 -31.777490 5.511329 34.211893 1.225974 1.408997 0.105339 -0.043839 739380.000000 0 0 1
-12.607089 -31.340840 6.204729 34.346551 1.188345 1.389148 0.092250 -0.037314 1074900.000000 0 0 1
-13.310389 -30.318470 5.439729 33.555427 1.157112 1.407966 0.091608 -0.031879 558625.000000 0 0 1
-14.366689 -29.597320 6.309429 33.499432 1.118893 1.381320 0.069806 -0.027495 -464790.000000 0 0 1
-15.630589 -30.146490 6.476929 34.569882 1.092468 1.382325 0.097023 -0.030120 -415444.000000 0 0 1
-16.410589 -29.292820 7.291729 34.359075 1.060136 1.356949 0.097516 -0.033715 -79160.800000 0 0 1
34.971927 -11.928300 -12.277171 38.936473 -0.328708 1.891583 0.164379 -0.050534 -998397.000000 0 0 1
33.942557 -12.627600 -11.707571 38.060749 -0.356163 1.883468 0.191168 -0.053199 -873434.000000 0 0 1
34.057157 -14.018600 -11.590171 38.610143 -0.390483 1.875683 0.184857 -0.053128 67300.400000 0 0 1
35.083857 -14.589600 -10.572071 39.439854 -0.394095 1.842170 0.164477 -0.045050 65846.300000 0 0 1
36.439477 -14.540700 -10.894071 40.717910 -0.379676 1.841646 0.173227 -0.048898 -558490.000000 0 0 1
37.293957 -14.795100 -9.807371 41.302769 -0.377672 1.810537 0.137785 -0.037235 519500.000000 0 0 1
-37.106086 -15.135700 -10.287571 41.373725 0.387301 1.822082 0.094676 -0.041662 18234.600000 0 0 1
-36.380046 -14.063500 -10.782471 40.466671 0.368877 1.840508 0.104229 -0.050165 -1711510.000000 0 0 1
-35.072304 -14.461700 -10.822871 39.450498 0.391098 1.848700 0.089631 -0.051194 -1605420.000000 0 0 1
-34.190445 -13.346700 -11.347871 38.417380 0.372171 1.870654 0.097305 -0.054969 -646914.000000 0 0 1
-34.113433 -12.377200 -10.352771 37.737266 0.348054 1.848698 0.115360 -0.053180 412713.000000 0 0 1
-33.316976 -11.259100 -10.797471 36.788226 0.325890 1.868686 0.123412 -0.044618 -107700.000000 0 0 1
-33.640756 -9.905000 -10.196171 36.520835 0.286343 1.853744 0.138046 -0.038241 -237272.000000 0 0 1
-33.206236 -9.840000 -8.826271 35.740492 0.288086 1.820332 0.150919 -0.042364 -74073.700000 0 0 1
-33.894146 -8.879600 -8.141671 35.971478 0.256222 1.799112 0.197890 -0.050153 -435967.000000 0 0 1
-33.480716 -8.883400 -6.632071 35.268364 0.259353 1.759968 0.188610 -0.048138 -1258180.000000 0 0 1
-32.220226 -8.338700 -6.449971 33.901018 0.253247 1.762222 0.167532 -0.056668 -634364.000000 0 0 1
-31.974576 -8.128200 -5.080371 33.380403 0.248935 1.723586 0.199100 -0.050754 252452.000000 0 0 1
-31.319836 -9.366800 -4.338671 32.977161 0.290603 1.702745 0.179453 -0.046273 4956.550000 0 0 1
-32.220336 -10.448400 -4.122371 34.122032 0.313580 1.691905 0.192794 -0.041991 288772.000000 0 0 1
-32.345986 -10.834000 -2.757771 34.223437 0.323197 1.651465 0.201631 -0.046300 83449.200000 0 0 1
-33.189356 -12.144800 -2.606871 35.437625 0.350790 1.644425 0.218052 -0.046114 553036.000000 0 0 1
-34.561143 -11.892200 -2.874371 36.662774 0.331402 1.649277 0.257393 -0.059366 568195.000000 0 0 1
-35.395064 -13.036200 -2.638371 37.811560 0.352889 1.640630 0.277372 -0.063700 233274.000000 0 0 1
-36.911846 -12.754700 -2.597171 39.139648 0.332700 1.637202 0.287197 -0.063129 -55373.400000 0 0 1
-37.233716 -11.918900 -1.504671 39.123827 0.309803 1.609265 0.312463 -0.079705 -536948.000000 0 0 1
37.243717 -11.738000 -1.434671 39.075995 -0.305313 1.607519 0.321952 -0.078421 -764871.000000 0 0 1
36.749567 -10.939400 -0.216871 38.343815 -0.289322 1.576452 0.311790 -0.093039 -200936.000000 0 0 1
36.888597 -11.753400 0.931029 38.726965 -0.308450 1.546753 0.323521 -0.086822 3236.000000 0 0 1
35.982947 -11.390500 1.926629 37.791902 -0.306573 1.519794 0.327690 -0.075276 -196858.000000 0 0 1
36.341537 -11.986300 3.274129 38.407012 -0.318589 1.485445 0.273339 -0.072059 -311146.000000 0 0 1
35.478877 -11.701000 4.334529 37.609204 -0.318569 1.455288 0.222996 -0.067959 -221445.000000 0 0 1
35.911177 -12.310600 5.560329 38.367704 -0.330252 1.425362 0.218737 -0.061434 -456895.000000 0 0 1
34.881657 -12.262300 6.692629 37.575062 -0.338046 1.391727 0.161697 -0.049718 30713.700000 0 0 1
34.417167 -10.900700 6.942629 36.763660 -0.306727 1.380811 0.150664 -0.040392 113996.000000 0 0 1
34.023477 -10.797100 8.268729 36.640773 -0.307291 1.343165 0.113502 -0.032217 -308028.000000 0 0 1
33.294447 -9.484300 8.689629 35.692881 -0.277511 1.324869 0.110147 -0.044302 2071420.000000 0 0 1
31.881907 -9.494300 8.226029 34.267554 -0.289433 1.328376 0.127867 -0.036507 1894710.000000 0 0 1
31.086507 -8.669900 9.033629 33.513348 -0.271985 1.297867 0.147010 -0.028283 598872.000000 0 0 1
29.565257 -8.977200 8.745429 32.111946 -0.294793 1.294970 0.141516 -0.017833 660605.000000 0 0 1
29.341857 -8.547000 7.436729 31.453151 -0.283447 1.332098 0.151431 -0.021488 -529240.000000 0 0 1
28.256357 -9.246200 6.904229 30.521833 -0.316243 1.342615 0.181704 -0.031867 77499.000000 0 0 1
27.483557 -8.427700 5.785729 29.323142 -0.297542 1.372184 0.193043 -0.034885 585036.000000 0 0 1
26.653657 -7.356100 6.255629 28.348942 -0.269285 1.348300 0.210599 -0.041912 709935.000000 0 0 1
25.730457 -6.832200 5.288129 27.142212 -0.259541 1.374712 0.247107 -0.053411 189723.000000 0 0 1
26.172557 -5.662400 4.371029 27.132479 -0.213065 1.408992 0.245453 -0.058064 -163334.000000 0 0 1
27.174957 -5.947600 3.412829 28.026766 -0.215466 1.448723 0.233786 -0.049029 297556.000000 0 0 1
27.412757 -4.746800 2.723029 27.953644 -0.171460 1.473229 0.228128 -0.059307 268018.000000 0 0 1
27.990957 -4.894100 1.264829 28.443728 -0.173096 1.526314 0.213731 -0.064870 797382.000000 0 0 1
26.938657 -5.301600 0.353929 27.457667 -0.194319 1.557906 0.202337 -0.056795 855399.000000 0 0 1
27.349157 -5.090800 -0.968471 27.835778 -0.184035 1.605596 0.199811 -0.061437 -273869.000000 0 0 1
26.289757 -5.437400 -2.076171 26.926327 -0.203950 1.647979 0.188840 -0.041486 511652.000000 0 0 1
25.109657 -4.651200 -2.056571 25.619485 -0.183159 1.651156 0.215256 -0.038902 492038.000000 0 0 1
24.187457 -5.113200 -3.040271 24.908254 -0.208332 1.693160 0.195462 -0.036750 -79854.200000 0 1 0
22.871357 -4.311500 -3.062971 23.474875 -0.186324 1.701648 0.164019 -0.026179 -331669.000000 0 1 0
22.880957 -2.899700 -3.355271 23.306743 -0.126058 1.715260 0.187778 -0.033166 -30137.400000 0 1 0
23.319557 -2.463000 -4.601871 23.896554 -0.105229 1.764582 0.215859 -0.031397 -10410.000000 0 1 0
22.213557 -1.704500 -5.402871 22.924625 -0.076582 1.808714 0.180896 -0.012726 264159.000000 0 1 0
21.963257 -0.412600 -4.881571 22.502991 -0.018784 1.789465 0.179353 -0.005057 30533.100000 0 1 0
21.218057 0.367600 -5.747471 21.985779 0.017323 1.835287 0.177536 0.005311 -702267.000000 0 1 0
20.979257 1.801600 -5.156371 21.678633 0.085665 1.810953 0.155795 0.010275 -1214570.000000 0 1 0
22.111357 2.603300 -5.009271 22.820650 0.117196 1.792104 0.214647 0.004606 -127023.000000 0 1 0
22.641757 2.641200 -3.681371 23.090638 0.116127 1.730911 0.225126 -0.001811 367125.000000 0 1 0
23.877157 3.595900 -3.661671 24.422468 0.149477 1.721294 0.279938 -0.010054 383554.000000 0 1 0
23.472257 4.940000 -3.727971 24.274435 0.207434 1.724983 0.227201 0.006434 709350.000000 0 1 0
24.533357 5.721000 -3.213771 25.395743 0.229099 1.697684 0.233700 0.000726 45145.500000 0 0 1
24.235357 7.228800 -3.262771 25.500073 0.289873 1.699099 0.223415 -0.003979 -55412.000000 0 0 1
23.411957 7.593000 -2.160071 24.707069 0.313618 1.658335 0.240339 -0.013144 657351.000000 0 1 0
22.561857 8.688300 -2.519871 24.307894 0.367585 1.674648 0.201812 -0.010187 -400231.000000 0 1 0
21.584557 9.040700 -1.398971 23.443218 0.396650 1.630507 0.145620 -0.010756 -396844.000000 0 1 0
22.202057 9.471300 -0.214371 24.138824 0.403221 1.579677 0.129574 -0.025026 1376800.000000 0 1 0
21.170057 10.073300 0.623629 23.452752 0.444123 1.544202 0.079504 -0.025155 822693.000000 0 1 0
21.734357 10.499000 1.976129 24.218100 0.450004 1.489108 0.104257 -0.026481 276936.000000 0 1 0
22.678357 11.593800 1.966229 25.545844 0.472589 1.493751 0.126782 -0.038781 1051550.000000 0 0 1
22.123057 12.909900 1.808129 25.678094 0.528236 1.500323 0.129525 -0.032223 -12146.300000 0 0 1
21.006757 13.509700 2.724629 25.124081 0.571518 1.462136 0.117258 -0.025232 385219.000000 0 0 1
19.661157 13.091100 2.513029 23.754017 0.587427 1.464804 0.135526 -0.021542 1343580.000000 0 1 0
18.681157 13.826100 3.315129 23.476302 0.637141 1.429111 0.126980 -0.024305 714817.000000 0 1 0
18.614457 13.657300 4.830729 23.587196 0.632983 1.364534 0.123797 -0.028484 -443967.000000 0 1 0
18.185057 12.386900 5.280029 22.627645 0.597968 1.335281 0.093309 -0.021581 350548.000000 0 1 0
18.469957 12.201600 6.635629 23.109520 0.583804 1.279558 0.115014 -0.031921 -34815.700000 0 1 0
18.473257 10.796700 7.262529 22.595891 0.528907 1.243579 0.082522 -0.026247 172663.000000 0 1 0
19.479957 10.050500 6.568629 22.882923 0.476319 1.279647 0.081181 -0.038334 704131.000000 0 1 0
19.486457 8.721600 7.018729 22.473337 0.420833 1.253169 0.082523 -0.033211 -478386.000000 0 1 0
20.522557 7.862000 6.343229 22.874067 0.365845 1.289802 0.100655 -0.031322 -380128.000000 0 1 0
20.157157 7.631700 4.968429 22.118750 0.361932 1.344238 0.087088 -0.032124 446551.000000 0 1 0
21.025857 6.700800 4.418529 22.505794 0.308517 1.373184 0.094077 -0.032667 -199266.000000 0 1 0
20.702557 6.565000 2.914929 21.913281 0.307080 1.437380 0.092691 -0.023732 -39583.400000 0 1 0
21.629457 5.683100 2.331829 22.484849 0.256940 1.466903 0.101946 -0.023728 326825.000000 0 1 0
21.497957 5.743700 0.975129 22.273372 0.261076 1.527002 0.112132 -0.007996 30157.300000 0 1 0
22.453157 4.828300 0.178529 22.967120 0.211813 1.563023 0.189810 -0.017781 -59375.300000 0 1 0
22.218157 3.480400 0.404329 22.492736 0.155384 1.552819 0.157912 -0.017335 168400.000000 0 1 0
23.328357 2.671700 0.083829 23.480997 0.114029 1.567226 0.212923 -0.016436 -171651.000000 0 1 0
23.216357 1.127500 0.133829 23.244104 0.048527 1.565039 0.235934 -0.022331 -243314.000000 0 1 0
22.397757 0.693500 -0.967571 22.429370 0.030953 1.613948 0.169067 -0.026125 858450.000000 0 1 0
22.582157 -0.642000 -1.406771 22.635039 -0.028422 1.632987 0.204123 -0.033228 -1292800.000000 0 1 0
22.474157 -1.832300 -0.359971 22.551599 -0.081349 1.586759 0.222539 -0.029477 -5883.420000 0 1 0
23.451757 -2.009000 0.655929 23.546788 -0.085457 1.542936 0.235236 -0.033079 -173522.000000 0 1 0
24.737457 -2.205400 0.154329 24.836050 -0.088917 1.564582 0.250589 -0.050434 -1318120.000000 0 1 0
25.814457 -1.839300 1.181229 25.906843 -0.071131 1.525185 0.260810 -0.048842 -594469.000000 0 0 1
25.847857 -0.451600 1.555529 25.898558 -0.017470 1.510698 0.255662 -0.041070 221675.000000 0 0 1
26.604857 -0.201200 2.702729 26.742543 -0.007562 1.469559 0.248372 -0.042462 -704932.000000 0 0 1
26.442257 1.266900 3.158329 26.660327 0.047875 1.452052 0.217812 -0.040091 488522.000000 0 0 1
27.115157 2.250900 2.296629 27.305179 0.082823 1.486587 0.264582 -0.032772 -724054.000000 0 0 1
28.486657 2.230200 2.239829 28.661477 0.078130 1.492569 0.254611 -0.025661 -1273840.000000 0 0 1
28.910557 3.355900 1.283929 29.132985 0.115562 1.526711 0.286798 -0.030234 -149793.000000 0 0 1
28.617557 3.052500 -0.102271 28.780076 0.106264 1.574350 0.342572 -0.025104 54252.900000 0 0 1
29.190857 3.919100 -1.054271 29.471630 0.133460 1.606576 0.341097 -0.016820 410814.000000 0 0 1
30.649557 3.613100 -1.518471 30.899119 0.117343 1.619959 0.299097 -0.010898 267981.000000 0 0 1
31.626197 4.062600 -0.597171 31.891655 0.127757 1.589522 0.244251 -0.011783 -30642.800000 0 0 1
32.924797 3.935200 -1.143871 33.178856 0.118957 1.605279 0.203612 -0.002823 374957.000000 0 0 1
34.054417 4.394400 -0.174371 34.337217 0.128331 1.575875 0.119513 0.010446 160446.000000 0 0 1
34.109807 3.666000 1.000129 34.320821 0.107065 1.541652 0.149031 -0.001799 -235704.000000 0 0 1
33.281797 4.113200 2.018729 33.595709 0.122964 1.510671 0.135180 0.001451 -335832.000000 0 0 1
33.293627 3.289300 3.337929 33.621821 0.098477 1.471354 0.151765 -0.011208 252719.000000 0 0 1
32.435577 2.119700 3.231129 32.664965 0.065258 1.471717 0.186608 -0.020515 625880.000000 0 0 1
32.594397 1.112300 4.248029 32.888868 0.034112 1.441271 0.170817 -0.024500 -122652.000000 0 0 1
33.748367 0.092800 4.083429 33.994636 0.002750 1.450386 0.151508 -0.016717 -189278.000000 0 0 1
35.002427 0.724400 4.070129 35.245717 0.020693 1.455059 0.133961 -0.022154 -501042.000000 0 0 1
35.992657 -0.252000 4.168929 36.234166 -0.007001 1.455486 0.108575 -0.027188 84714.300000 0 0 1
37.394707 0.264800 4.683629 37.687804 0.007081 1.446200 0.163264 -0.046559 936313.000000 0 0 1
-37.658686 1.084100 3.856729 37.871180 -0.028780 1.468781 0.122214 -0.037015 290732.000000 0 0 1
-36.975646 0.358200 2.840229 37.086299 -0.009687 1.494137 0.166272 -0.023350 -351422.000000 0 0 1
-36.367646 1.263000 1.769629 36.432574 -0.034715 1.522204 0.154652 -0.024879 -9256.470000 0 0 1
-35.274230 2.031800 2.250729 35.404312 -0.057537 1.507181 0.180949 -0.054119 420259.000000 0 0 1
-34.530348 2.484600 1.115929 34.637602 -0.071830 1.538573 0.236407 -0.034431 -290364.000000 0 0 1
-33.442446 3.478500 1.511229 33.656812 -0.103642 1.525880 0.262785 -0.033258 450575.000000 0 0 1
-32.441666 2.970100 2.470829 32.670907 -0.091298 1.495096 0.264516 -0.051448 1081260.000000 0 0 1
-31.900256 4.111100 3.175129 32.320410 -0.128167 1.472398 0.271612 -0.033986 -13335.100000 0 0 1
-32.569296 4.518300 4.556529 33.195422 -0.137849 1.433098 0.280485 -0.037871 1452230.000000 0 0 1
-33.942256 5.039400 4.476229 34.605042 -0.147393 1.441081 0.273839 -0.015358 3412400.000000 0 0 1
-35.099383 4.137000 4.615629 35.642468 -0.117324 1.440934 0.255422 -0.020347 1024020.000000 0 0 1
-35.093424 3.345500 5.948129 35.750818 -0.095044 1.403642 0.206799 -0.018878 -998129.000000 0 0 1
-35.426553 4.086100 7.132929 36.367782 -0.114833 1.373383 0.205444 -0.019385 353750.000000 0 0 1
-35.273307 3.344000 8.395929 36.412637 -0.094520 1.338125 0.169132 -0.022248 -473542.000000 0 0 1
-36.116666 2.111300 8.654129 37.198993 -0.058391 1.336001 0.147636 -0.024267 -467880.000000 0 0 1
-35.700948 0.962100 7.853229 36.567151 -0.026942 1.354348 0.144623 -0.037211 959685.000000 0 0 1
-36.636676 -0.135600 7.945829 37.488673 0.003701 1.357224 0.132015 -0.031586 377180.000000 0 0 1
-36.455226 -0.983100 9.229829 37.618343 0.026961 1.322911 0.140884 -0.028676 -117424.000000 0 0 1
-35.242402 -1.688600 9.320529 36.493157 0.047877 1.312530 0.146713 -0.041534 -65575.900000 0 0 1
-35.143095 -2.506100 10.493729 36.761883 0.071191 1.281319 0.133327 -0.028098 -281913.000000 0 0 1
-33.911776 -3.423300 10.492729 35.662654 0.100606 1.272155 0.153790 -0.025135 -132674.000000 0 0 1
-34.051117 -4.407600 9.473929 35.618266 0.128725 1.301571 0.170298 -0.040046 881166.000000 0 0 1
-32.918536 -5.300900 9.447229 34.655154 0.159660 1.294695 0.194170 -0.041706 758710.000000 0 0 1
-33.049536 -6.240700 8.195529 34.617696 0.186631 1.331783 0.201983 -0.037584 253009.000000 0 0 1
-34.138889 -7.130400 8.301629 35.850012 0.205904 1.337110 0.214010 -0.047287 -112008.000000 0 0 1
-34.407229 -7.851500 7.161829 36.011043 0.224352 1.370583 0.219375 -0.060733 -540646.000000 0 0 1
-35.437744 -8.909800 7.439329 37.290238 0.246316 1.369951 0.219201 -0.071042 -334423.000000 0 0 1
-36.643776 -8.398300 7.996129 38.434826 0.225297 1.361222 0.210174 -0.066331 130680.000000 0 0 1
-37.481096 -9.480000 8.313229 39.545072 0.247732 1.358995 0.209496 -0.067720 -173722.000000 0 0 1
8.429334 -23.848500 10.795629 27.501822 -1.231048 1.167402 0.147265 -0.049029 134475.000000 0 0 1
7.845534 -24.628300 9.762629 27.629956 -1.262402 1.209663 0.143236 -0.048948 178666.000000 0 0 1
6.586834 -25.218950 10.073829 27.943941 -1.315318 1.201991 0.135600 -0.044373 701934.000000 0 0 1
6.064834 -26.084950 8.878429 28.214062 -1.342352 1.250676 0.124733 -0.042047 -299676.000000 0 0 1
5.505234 -25.412170 7.809029 27.148976 -1.357455 1.279038 0.122693 -0.039224 -426146.000000 0 0 1
5.349634 -26.286010 6.739229 27.658454 -1.370022 1.324660 0.118072 -0.035548 -620701.000000 0 0 1
4.797134 -25.778040 5.394229 26.769713 -1.386807 1.367902 0.088593 -0.032512 333900.000000 0 0 1
3.384534 -25.672380 5.317029 26.434768 -1.439717 1.368277 0.079094 -0.040672 -264435.000000 0 0 1
2.739934 -26.873370 4.957929 27.463909 -1.469190 1.389276 0.086309 -0.038007 -267404.000000 0 0 1
1.223734 -26.570640 4.838029 27.035217 -1.524773 1.390874 0.115946 -0.050510 -199489.000000 0 0 1
0.611534 -26.070470 6.019529 26.763372 -1.547344 1.343939 0.112014 -0.049829 1204420.000000 0 0 1
-0.834666 -26.091780 6.112929 26.811295 1.538818 1.340775 0.128197 -0.048791 2075650.000000 0 0 1
-1.543266 -27.511800 6.157229 28.234593 1.514760 1.350956 0.154032 -0.044764 -115252.000000 0 0 1
-1.253166 -28.176210 7.357329 29.147890 1.526350 1.315622 0.138561 -0.050566 159184.000000 0 0 1
-2.022766 -29.376610 7.481829 30.381813 1.502048 1.321977 0.179387 -0.049376 77548.000000 0 0 1
-1.822766 -30.131180 8.863229 31.460567 1.510376 1.285205 0.164324 -0.052732 -338347.000000 0 0 1
-0.511666 -30.497650 9.179329 31.853234 1.554021 1.278475 0.153499 -0.043157 -415354.000000 0 0 1
-0.301366 -30.795440 10.579329 32.563356 1.561011 1.239907 0.151021 -0.037952 -502892.000000 0 0 1
1.159934 -30.914190 10.994829 32.831674 -1.533293 1.229313 0.132479 -0.032769 -777020.000000 0 0 1
1.787034 -32.041510 10.439529 33.746638 -1.515082 1.256287 0.140986 -0.026968 -72961.300000 0 0 1
3.168334 -32.132540 10.728329 34.024043 -1.472512 1.250007 0.141312 -0.019452 317962.000000 0 0 1
3.514934 -32.771110 12.122729 35.117815 -1.463948 1.218343 0.165722 -0.018603 -210445.000000 0 0 1
3.090334 -32.042620 13.294829 34.828611 -1.474649 1.179138 0.184303 -0.030422 120791.000000 0 0 1
3.916834 -32.388450 14.380429 35.653191 -1.450448 1.155630 0.174592 -0.035067 -130994.000000 0 0 1
3.705734 -31.634430 15.703129 35.511377 -1.454185 1.112746 0.205465 -0.061166 -69357.600000 0 0 1
4.050234 -30.243450 15.608229 34.273714 -1.437667 1.097976 0.197684 -0.057451 -207125.000000 0 0 1
5.389834 -29.968440 15.898829 34.350116 -1.392848 1.089593 0.171780 -0.044652 -362371.000000 0 0 1
5.895634 -28.616180 15.347829 33.003032 -1.367615 1.087113 0.168365 -0.045152 -20672.500000 0 0 1
6.155834 -28.595690 13.930929 32.398743 -1.358761 1.126322 0.146827 -0.028410 279358.000000 0 0 1
5.002434 -28.572310 13.089829 31.823653 -1.397473 1.146890 0.150985 -0.022227 -16265.400000 0 0 1
5.484034 -28.734430 11.614929 31.474572 -1.382212 1.192836 0.121234 -0.022808 333975.000000 0 0 1
6.068334 -29.967510 11.259529 32.583022 -1.371001 1.217956 0.100660 -0.018277 298587.000000 0 0 1
7.442534 -30.117370 11.601229 33.121531 -1.328532 1.212945 0.107316 -0.009735 -37141.400000 0 0 1
7.835534 -31.460620 10.948929 34.220538 -1.326704 1.245118 0.083720 -0.009617 122791.000000 0 0 1
6.974534 -32.465240 11.463829 35.129123 -1.359182 1.238374 0.069552 -0.007974 429322.000000 0 0 1
7.576534 -33.735620 11.337829 36.387392 -1.349876 1.253934 0.084626 -0.009238 -86440.800000 0 0 1
7.113934 32.807664 12.296029 35.751129 1.357264 1.219693 0.075991 -0.001459 600883.000000 0 0 1
5.821434 32.250323 11.943029 34.879913 1.392212 1.221322 0.114259 -0.010857 972578.000000 0 0 1
5.455934 31.127875 12.675229 34.049570 1.397284 1.189355 0.125075 -0.009613 -124272.000000 0 0 1
4.925034 31.296445 14.132729 34.690884 1.414709 1.151202 0.130241 -0.030949 -19534.800000 0 0 1
5.787934 31.848270 15.104629 35.720614 1.391024 1.134203 0.096077 -0.028138 243958.000000 0 0 1
5.080534 31.607525 16.312529 35.929738 1.411421 1.099533 0.159264 -0.039837 200565.000000 0 0 1
5.619934 32.297640 17.577929 37.198183 1.398517 1.078617 0.214237 -0.036610 -191121.000000 0 0 1
5.203534 33.630280 17.689829 38.353651 1.417286 1.091416 0.248155 -0.041392 1862.190000 0 0 1
5.593234 -33.683120 18.978129 39.064130 -1.406243 1.063495 0.205061 -0.032695 -178309.000000 0 0 1
5.173134 -32.242450 19.337029 37.950726 -1.411707 1.036158 0.189671 -0.049085 -685315.000000 0 0 1
3.800234 -32.095220 19.361929 37.675313 -1.452940 1.031053 0.226351 -0.058209 -1180400.000000 0 0 1
3.310734 -30.827220 19.719029 36.743959 -1.463810 1.004322 0.193875 -0.046286 -475504.000000 0 0 1
1.893034 -30.671700 19.102829 36.183627 -1.509155 1.014622 0.205253 -0.050980 72981.400000 0 0 1
0.901834 -31.501270 19.626929 37.126266 -1.542176 1.013783 0.223860 -0.058820 -292188.000000 0 0 1
0.405634 -31.192230 20.879929 37.537863 -1.557793 0.980946 0.186981 -0.050800 -383925.000000 0 0 1
-0.572366 -32.256620 21.497929 38.768261 1.553054 0.983006 0.204994 -0.050705 66253.400000 0 0 1
-1.836766 -32.369910 20.901829 38.575526 1.514114 0.998169 0.192202 -0.047443 -237840.000000 0 0 1
-2.647566 -33.389030 21.489329 39.794826 1.491667 1.000356 0.184409 -0.034899 591701.000000 0 0 1
-3.825666 -32.848140 22.351229 39.915078 1.454853 0.976447 0.184315 -0.032661 -213256.000000 0 0 1
-4.880466 -32.408440 21.543729 39.220635 1.421327 0.989275 0.162504 -0.036436 -468633.000000 0 0 1
-6.041166 -32.258460 22.348729 39.706040 1.385667 0.972961 0.136066 -0.031027 600323.000000 0 0 1
-7.280266 -31.757540 21.506829 39.039561 1.345445 0.987356 0.087793 -0.031768 361986.000000 0 0 1
-7.892266 -32.789060 20.783429 39.615164 1.334591 1.018512 0.082131 -0.029713 -470700.000000 0 0 1
-9.118566 -32.294390 20.337029 39.238637 1.295603 1.025945 0.078306 -0.029213 -61273.500000 0 0 1
-10.268766 -33.308440 20.057729 40.214577 1.271749 1.048620 0.079352 -0.034405 188954.000000 0 0 1
-10.812566 -33.722740 21.235129 41.292438 1.260521 1.030649 0.077730 -0.028008 -683404.000000 0 0 1
-12.168266 33.570324 21.165529 41.509191 -1.223055 1.035728 0.069791 -0.028588 -194761.000000 0 0 1
-12.716966 33.303225 22.592229 42.204678 -1.206030 1.005932 0.069121 -0.024412 -479434.000000 0 0 1
-12.704266 -33.253540 23.501029 42.655535 1.205866 0.987295 0.087919 -0.025795 -218807.000000 0 0 1
-11.466266 -32.886440 24.043929 42.321433 1.235314 0.966569 0.081435 -0.024571 -618091.000000 0 0 1
-11.519266 -31.579120 24.841329 41.797439 1.221020 0.934368 0.087684 -0.028042 -117849.000000 0 0 1
-12.326766 -31.596430 26.006329 42.738890 1.198826 0.916636 0.106990 -0.026578 11174.300000 0 0 1
-13.077366 -30.448360 26.116429 42.192274 1.165126 0.903345 0.121472 -0.026648 75948.200000 0 0 1
-14.032666 -30.294140 27.329029 43.145411 1.137008 0.884835 0.097480 -0.024298 368852.000000 0 0 1
-13.262966 -30.012940 28.501329 43.462726 1.154692 0.855601 0.086794 -0.016698 579485.000000 0 0 1
-14.109466 -29.616300 29.571929 44.166744 1.126199 0.837191 0.091926 -0.015126 113563.000000 0 0 1
-13.403466 -29.078880 30.821129 44.442954 1.138886 0.804462 0.075188 -0.013827 -42834.400000 0 0 1
-14.389966 -28.572330 31.725829 45.055270 1.104247 0.789566 0.079423 -0.017718 761662.000000 0 0 1
-13.956366 -28.184230 33.069829 45.637096 1.111009 0.760305 0.072775 -0.014450 -354577.000000 0 0 1
-13.323466 -29.329420 -33.397107 46.401469 1.144397 2.374228 0.076426 -0.009567 2014170.000000 0 0 1
-11.889866 -29.464860 33.618429 46.257385 1.187253 0.757190 0.079536 -0.014371 1982290.000000 0 0 1
-11.355166 -30.728370 -33.221707 46.656771 1.216827 2.363202 0.082039 -0.016954 -127918.000000 0 0 1
-9.835066 -30.805260 -33.359707 46.460334 1.261760 2.371758 0.088528 -0.027061 -580194.000000 0 0 1
-9.145966 -29.888730 -32.574807 45.145353 1.273844 2.376840 0.129684 -0.039041 -433483.000000 0 0 1
-7.788566 -30.256450 -32.544407 45.113778 1.318848 2.376597 0.142572 -0.046811 -98843.700000 0 0 1
-6.898466 -29.506590 -31.535907 43.734896 1.341127 2.376141 0.167189 -0.046770 -266086.000000 0 0 1
-7.149966 -29.760260 -30.219007 43.011434 1.335013 2.349814 0.181581 -0.055088 -508087.000000 0 0 1
-6.313366 -28.985200 -29.438607 41.792726 1.356333 2.352367 0.179026 -0.057136 -263273.000000 0 0 1
-6.524566 -29.042350 -27.950307 40.831945 1.349808 2.324742 0.182067 -0.053093 -219685.000000 0 0 1
-6.153566 -30.281780 -27.407807 41.304242 1.370316 2.296363 0.156130 -0.052769 366460.000000 0 0 1
-7.069766 -30.728490 -26.405507 41.127515 1.344660 2.267952 0.172214 -0.051616 222223.000000 0 0 1
-6.446366 -31.822910 -25.549507 41.316226 1.370931 2.237488 0.151327 -0.054867 675799.000000 0 0 1
-5.486266 -31.382460 -24.571807 40.233464 1.397726 2.227779 0.106812 -0.050911 601031.000000 0 0 1
-4.942966 -32.467800 -23.800407 40.559220 1.419714 2.197905 0.119548 -0.054555 134445.000000 0 0 1
-4.307966 -32.042330 -22.466807 39.370381 1.437152 2.178097 0.142399 -0.065543 464004.000000 0 0 1
-5.256966 -31.604380 -21.471107 38.567875 1.405969 2.161216 0.150669 -0.054214 532527.000000 0 0 1
-5.208766 -30.202670 -21.320407 37.334867 1.400016 2.178591 0.138379 -0.041189 -52485.500000 0 0 1
-6.148566 -29.729530 -20.158707 36.442054 1.366855 2.156963 0.170811 -0.062398 1175440.000000 0 0 1
-7.574466 -29.796310 -20.355307 36.871820 1.321861 2.155624 0.194184 -0.067294 1244770.000000 0 0 1
-8.188666 -28.523910 -20.685307 36.173880 1.291234 2.179531 0.187047 -0.062956 155658.000000 0 0 1
-8.063266 -28.066500 -22.164907 36.660984 1.291039 2.220049 0.220024 -0.093187 -186915.000000 0 0 1
-6.709566 -27.822890 -22.549507 36.436407 1.334162 2.238103 0.219319 -0.063204 160023.000000 0 0 1
-6.631666 -27.693670 -23.957507 37.213982 1.335757 2.270220 0.275437 -0.073102 -345892.000000 0 0 1
-5.143566 -27.648780 -24.366007 37.210396 1.386867 2.284737 0.246802 -0.068105 -95902.800000 0 0 1
-4.447166 -26.440450 -24.073507 36.033435 1.404160 2.302433 0.209196 -0.069557 191203.000000 0 0 1
-4.053266 -26.320400 -22.686307 34.983724 1.418000 2.276385 0.142597 -0.058002 -901328.000000 0 0 1
-2.586366 -26.694930 -22.337107 34.903509 1.474212 2.265252 0.113002 -0.045060 86909.300000 0 0 1
-1.595766 -25.838660 -22.844307 34.526007 1.509116 2.293820 0.110941 -0.048236 77407.200000 0 0 1
-1.396966 -24.717000 -22.034907 33.142401 1.514338 2.298097 0.119155 -0.054927 -1120470.000000 0 0 1
-0.938566 -23.524400 -22.860907 32.816145 1.530920 2.341494 0.116570 -0.051133 444525.000000 0 0 1
-1.900866 -23.065200 -23.854107 33.236052 1.488569 2.371316 0.175624 -0.056593 624787.000000 0 0 1
-3.137566 -22.575800 -23.387107 32.656819 1.432702 2.369063 0.188979 -0.057721 -576758.000000 0 0 1
-4.026366 -22.112600 -24.525707 33.266935 1.390685 2.399772 0.193955 -0.068877 -384625.000000 0 0 1
-3.497466 -21.082300 -25.340807 33.148939 1.406398 2.440989 0.192069 -0.061375 -335216.000000 0 0 1
-4.311766 -20.839200 -26.421007 33.925406 1.366769 2.463542 0.263936 -0.062948 -437837.000000 0 0 1
-4.015266 -21.646900 -27.771007 35.439236 1.387392 2.471273 0.225888 -0.053475 -730096.000000 0 0 1
-5.013266 -21.653500 -28.715707 36.312515 1.343283 2.482901 0.239060 -0.050089 -735278.000000 0 0 1
-4.559066 -22.144200 -29.955507 37.529762 1.367753 2.495064 0.252300 -0.044247 -269149.000000 0 0 1
-5.684366 -22.424500 -30.943007 38.634698 1.322537 2.499614 0.275623 -0.064049 -505286.000000 0 0 1
-5.859266 -21.387900 -31.848907 38.808841 1.303404 2.533363 0.306213 -0.077426 -287288.000000 0 0 1
-6.589666 -21.852800 -32.953007 40.085773 1.277920 2.535820 0.303185 -0.070290 -201988.000000 0 0 1
-6.556966 -20.916800 33.163829 39.753565 1.267020 0.584052 0.261082 -0.060640 657007.000000 0 0 1
-5.252566 -20.872900 32.564729 39.034971 1.324270 0.584034 0.256184 -0.068820 352628.000000 0 0 1
-5.174266 -20.358800 31.288229 37.685635 1.321912 0.591253 0.235600 -0.058913 -748834.000000 0 0 1
-3.730166 -20.267200 30.866729 37.113724 1.388784 0.588670 0.206997 -0.062422 -1213720.000000 0 0 1
-3.066766 -21.481300 30.576429 37.493590 1.428990 0.617185 0.262222 -0.063667 -103496.000000 0 0 1
-1.758566 -21.492800 30.097429 37.025508 1.489157 0.621710 0.243627 -0.054997 407180.000000 0 0 1
-0.557466 -20.776500 30.793929 37.151579 1.543971 0.593707 0.184060 -0.057593 -127986.000000 0 0 1
-0.521766 -19.409300 30.486429 36.144371 1.543921 0.567099 0.142467 -0.065141 106420.000000 0 0 1
0.404434 -18.641400 31.247729 36.387992 -1.549104 0.537996 0.145105 -0.061074 147663.000000 0 0 1
0.004034 -18.508200 32.754729 37.622145 -1.570578 0.514328 0.140373 -0.060005 659808.000000 0 0 1
-1.254266 -17.834700 32.820029 37.373841 1.500585 0.498804 0.153231 -0.055767 277068.000000 0 0 1
-1.912066 -17.912800 -33.265007 37.829685 1.464456 2.645263 0.156158 -0.057482 1263620.000000 0 0 1
-3.285466 -17.120400 -33.233107 37.527880 1.381198 2.658490 0.161014 -0.059371 962135.000000 0 0 1
-3.121566 -15.743500 -33.562007 37.202289 1.375059 2.695521 0.144568 -0.041545 -240999.000000 0 0 1
-4.094466 -14.864800 -33.032607 36.453807 1.302014 2.704886 0.164756 -0.044489 -201532.000000 0 0 1
-3.820666 -13.345800 -33.312807 36.089486 1.291972 2.746761 0.131204 -0.047812 -943291.000000 0 0 1
-2.753166 -12.814000 -32.625007 35.159204 1.359158 2.759596 0.136612 -0.043524 -691606.000000 0 0 1
-2.610866 -11.369100 -32.663107 34.683593 1.345064 2.798578 0.125490 -0.036354 120895.000000 0 0 1
-1.897766 -10.851000 33.426729 35.195056 1.397654 0.318340 0.130804 -0.040213 -431857.000000 0 0 1
-2.832366 -10.881500 32.410129 34.305186 1.316155 0.333938 0.102981 -0.033531 -61662.800000 0 0 1
-2.192766 -10.881100 31.147329 33.066035 1.371939 0.342335 0.115133 -0.029218 135485.000000 0 0 1
-1.352166 -12.082700 30.715529 33.034281 1.459351 0.376906 0.114748 -0.044082 -262654.000000 0 0 1
-2.090166 -13.207100 30.326229 33.143272 1.413837 0.415278 0.115880 -0.049229 -176236.000000 0 0 1
-1.277766 -14.295600 30.016929 33.271803 1.481651 0.446015 0.118414 -0.051789 -222521.000000 0 0 1
-2.049466 -15.664600 30.119829 34.011529 1.440701 0.483061 0.092069 -0.040608 64991.300000 0 0 1
-2.393466 -16.200600 28.834429 33.160405 1.424118 0.516518 0.126466 -0.041738 171758.000000 0 0 1
-2.564866 -17.577500 28.912729 33.933655 1.425901 0.550932 0.154763 -0.038828 -261564.000000 0 0 1
-2.709466 -18.451400 27.588729 33.300651 1.424995 0.594419 0.172678 -0.049853 195436.000000 0 0 1
-4.023866 -18.455900 27.057429 32.998731 1.356130 0.609466 0.184097 -0.058494 118385.000000 0 0 1
-4.451666 -19.692000 26.543529 33.348930 1.348469 0.650248 0.195828 -0.052530 134347.000000 0 0 1
-4.505166 -19.754200 24.965629 32.152878 1.346570 0.681758 0.182079 -0.050991 -585324.000000 0 0 1
-5.041366 -20.901700 24.387329 32.512125 1.334123 0.722584 0.211965 -0.040601 -295256.000000 0 0 1
-4.078766 -21.899200 24.213229 32.901242 1.386654 0.743747 0.222956 -0.053152 -388026.000000 0 0 1
-30.938546 -33.245514 -0.119671 45.414449 0.821326 1.573431 0.143244 -0.024608 -128991.000000 0 0 1
-30.616966 -31.899714 -0.010271 44.215274 0.805914 1.571029 0.138451 -0.035099 -158027.000000 0 0 1
-30.375946 -31.683414 1.368829 43.913671 0.806463 1.539620 0.125689 -0.020112 -113075.000000 0 0 1
-29.810776 -30.312414 1.616929 42.545732 0.793741 1.532783 0.132553 -0.025376 -931354.000000 0 0 1
-28.489956 -30.203614 1.244429 41.538952 0.814587 1.540834 0.169817 -0.032700 -1314320.000000 0 0 1
-28.055706 -28.833714 1.388429 40.254608 0.799073 1.536298 0.170955 -0.028458 -353685.000000 0 0 1
-26.543196 -28.701614 1.398829 39.118801 0.824448 1.535030 0.178005 -0.034517 -607910.000000 0 0 1
-25.922216 -29.326914 2.495929 39.220643 0.846945 1.507115 0.155583 -0.019399 377843.000000 0 0 1
-24.539366 -29.026714 2.676629 38.103739 0.868975 1.500493 0.163132 -0.016034 549966.000000 0 0 1
-23.895466 -29.847914 3.812929 38.424337 0.895705 1.471401 0.160309 -0.021415 -124078.000000 0 0 1
-24.258866 -29.397114 5.079129 38.451014 0.880870 1.438316 0.145011 -0.016449 -236919.000000 0 0 1
-23.467766 -30.021414 6.028229 38.579281 0.907313 1.413898 0.123441 -0.014136 -212164.000000 0 0 1
-23.948166 -29.928314 7.507529 39.058695 0.895943 1.377381 0.107818 -0.006465 4599.890000 0 0 1
-23.883766 -28.613314 8.001029 38.120500 0.875247 1.359336 0.126348 -0.027274 -149311.000000 0 0 1
-24.334866 -28.593914 9.303029 38.682606 0.865693 1.327919 0.071118 -0.018068 -143905.000000 0 0 1
-23.961966 -27.341914 10.159729 37.748857 0.851184 1.298296 0.089548 -0.024917 -648554.000000 0 0 1
-22.626566 -27.451814 10.533129 37.101353 0.881456 1.282936 0.095732 -0.036094 -1054000.000000 0 0 1
-22.244466 -26.271914 11.194429 36.198688 0.868220 1.256392 0.112391 -0.038679 442777.000000 0 0 1
-20.795366 -26.429014 11.729029 35.616150 0.904132 1.235215 0.097388 -0.042191 60219.400000 0 0 1
-20.689466 -27.400614 12.782829 36.636708 0.924056 1.214391 0.082224 -0.029966 -248021.000000 0 0 1
-19.396966 -27.382514 13.355129 36.116532 0.954475 1.192025 0.094361 -0.042272 249771.000000 0 0 1
-19.180266 -28.473614 14.511329 37.272080 0.977998 1.170887 0.103197 -0.040292 252184.000000 0 0 1
-19.379166 -29.785914 13.968129 38.181951 0.993989 1.196271 0.085322 -0.031714 -34182.400000 0 0 1
-19.049366 -30.762614 14.974929 39.159485 1.016352 1.178395 0.090315 -0.030740 289712.000000 0 0 1
-18.852366 -32.183714 14.345829 39.962557 1.040903 1.203620 0.086206 -0.033273 80168.600000 0 0 1
-18.584166 -33.215314 15.230229 40.994978 1.060684 1.190157 0.084764 -0.025090 -69757.800000 0 0 1
-18.398266 33.254700 14.516229 40.682824 -1.065459 1.205940 0.077713 -0.030040 -175009.000000 0 0 1
-18.088266 32.055300 15.406529 39.900987 -1.057053 1.174376 0.075558 -0.020258 -535916.000000 0 0 1
-18.964466 31.882000 16.470129 40.587905 -1.034185 1.152954 0.079720 -0.030531 -416831.000000 0 0 1
-18.808566 30.763700 17.326729 40.004787 -1.022045 1.122849 0.046567 -0.015986 7408.690000 0 0 1
-19.671366 30.789900 18.657129 41.025225 -1.002271 1.098680 0.052839 -0.025064 499477.000000 0 0 1
-19.116466 31.723300 19.550729 41.881238 -1.028467 1.085112 0.064037 -0.018862 -26226.100000 0 0 1
-19.944366 31.834000 20.669629 42.876741 -1.011111 1.067779 0.061871 -0.009982 -188873.000000 0 0 1
-19.495666 32.848200 21.718829 43.940787 -1.035164 1.053796 0.064378 -0.007057 -402591.000000 0 0 1
-18.371766 32.508000 22.472229 43.580878 -1.056399 1.029037 0.061693 -0.011469 -426197.000000 0 0 1
-18.255466 33.104600 23.754829 44.648276 -1.066842 1.009784 0.068199 -0.015747 -199784.000000 0 0 1
-19.083366 32.500700 24.938829 45.193092 -1.039866 0.986241 0.075800 -0.016656 -809120.000000 0 0 1
-20.397866 32.864700 24.745629 45.918489 -1.015323 1.001662 0.064199 -0.023678 -842227.000000 0 0 1
-21.351566 32.014700 25.381829 46.098456 -0.982611 0.987713 0.070773 -0.021477 -198062.000000 0 0 1
-22.792366 32.255000 24.976129 46.729905 -0.955634 1.006906 0.097191 -0.036757 -653402.000000 0 0 1
-23.095566 31.827500 23.672229 45.899558 -0.943063 1.028925 0.084892 -0.026253 1357910.000000 0 0 1
-24.489066 32.088400 23.342229 46.628741 -0.918916 1.046508 0.072677 -0.028026 1234240.000000 0 0 1
-24.876266 31.601400 21.955529 45.820545 -0.903916 1.071095 0.066533 -0.025654 -202913.000000 0 0 1
-24.376166 32.428400 20.931229 45.649918 -0.926213 1.094471 0.056237 -0.021563 25430.900000 0 0 1
-24.163766 31.635100 19.771629 44.447548 -0.918504 1.109811 0.037596 -0.007831 76441.600000 0 0 1
-23.524466 32.389100 18.570029 44.128226 -0.942631 1.136448 0.034717 0.001962 -137891.000000 0 0 1
-22.396266 33.175600 18.843629 44.241333 -0.976990 1.130809 0.034726 0.000664 -304649.000000 0 0 1
-22.080466 -33.550914 17.822529 43.941477 0.988735 1.153164 0.048559 0.002922 -384429.000000 0 0 1
-20.863266 -32.704214 18.135529 42.822178 1.002947 1.133482 0.043804 -0.000002 -457353.000000 0 0 1
-21.090166 -31.677014 19.079729 42.570699 0.983402 1.106058 0.060258 -0.020069 -149595.000000 0 0 1
-19.930066 -30.990014 19.466329 41.671651 0.999278 1.084747 0.067610 -0.032192 -498610.000000 0 0 1
-20.170966 -29.895914 20.462029 41.464783 0.977248 1.054710 0.051025 -0.020558 7012.210000 0 0 1
-20.881066 -28.774314 19.875529 40.731029 0.943040 1.061034 0.080603 -0.027417 597807.000000 0 0 1
-21.279466 -27.951414 20.938729 40.896548 0.920101 1.033293 0.091311 -0.025150 -19111.000000 0 0 1
-22.207166 -26.757614 20.496529 40.363794 0.878065 1.038173 0.086992 -0.041115 -392242.000000 0 0 1
-21.526766 -25.683514 19.906429 38.978333 0.873219 1.034792 0.082669 -0.026066 548682.000000 0 0 1
-22.384466 -24.583614 19.623029 38.606757 0.832186 1.037610 0.071342 -0.008505 236853.000000 0 0 1
-23.643666 -24.702214 18.705929 38.976071 0.807290 1.070217 0.053706 -0.017224 513220.000000 0 0 1
-24.748966 -25.456814 19.198629 40.362706 0.799496 1.075090 0.053359 -0.017083 376616.000000 0 0 1
-25.452996 -26.044014 18.090529 40.662181 0.796874 1.109736 0.034801 -0.010875 -800525.000000 0 0 1
-26.980226 -25.914614 18.159229 41.584341 0.765255 1.118887 0.023107 0.002179 -332521.000000 0 0 1
-27.739986 -26.896114 18.778129 42.959585 0.769954 1.118412 0.021512 -0.004068 -179830.000000 0 0 1
-27.882336 -27.926514 17.810029 43.295635 0.786190 1.146852 0.037403 -0.003613 -1332070.000000 0 0 1
-28.601336 -29.189314 18.379429 44.809105 0.795572 1.148154 0.053720 -0.004550 355773.000000 0 0 1
-29.960966 -28.906414 18.652929 45.619864 0.767486 1.149573 0.016150 0.002942 97173.900000 0 0 1
-30.825316 -29.115314 17.542829 45.887389 0.756878 1.178510 0.023122 0.004755 -108612.000000 0 0 1
-32.262036 -28.604614 17.828829 46.657583 0.725381 1.178706 0.026424 0.002914 345690.000000 0 0 1
-32.195196 -27.192314 17.711829 45.712815 0.701355 1.172923 0.021483 0.007217 -49985.700000 0 0 1
-33.452946 -26.646514 18.020329 46.409790 0.672626 1.172024 0.044486 0.007124 -19714.100000 0 0 1
-33.903986 -25.484014 17.061629 45.716676 0.644558 1.188337 0.056727 -0.009102 -259936.000000 0 0 1
-34.246316 -25.732114 15.721129 45.630097 0.644386 1.219054 0.076350 -0.026754 74201.900000 0 0 1
-34.679376 -24.524214 15.079329 45.071969 0.615522 1.229657 0.093401 -0.030399 -452744.000000 0 0 1
-33.666756 -23.431914 14.731829 43.583619 0.608033 1.225992 0.084066 -0.026030 -346928.000000 0 0 1
-33.129746 -22.704414 15.838529 43.173250 0.600804 1.195165 0.066745 -0.010538 320931.000000 0 0 1
-32.832766 -21.293014 15.623129 42.136269 0.575341 1.190952 0.069201 -0.010287 25665.500000 0 0 1
-34.103899 -20.407114 15.617029 42.701497 0.539228 1.196384 0.085296 -0.017649 164817.000000 0 0 1
-34.472703 -20.107214 16.983429 43.371698 0.528034 1.168450 0.085624 -0.015140 903073.000000 0 0 1
-35.741908 -19.437214 16.921829 44.064017 0.498087 1.176641 0.114172 -0.028532 722430.000000 0 0 1
-36.277146 -18.789214 18.294229 44.763207 0.477893 1.149779 0.086471 -0.014741 694478.000000 0 0 1
-37.214276 -19.643914 19.027429 46.182559 0.485686 1.146143 0.093440 -0.013715 713505.000000 0 0 1
-37.338886 -19.081114 20.287729 46.581899 0.472429 1.120171 0.095236 -0.006592 -431222.000000 0 0 1
37.196047 -19.347214 21.036929 46.908560 -0.479631 1.105747 0.094883 -0.002278 -380813.000000 0 0 1
36.781327 -20.703514 21.392629 47.319616 -0.512679 1.101692 0.114685 -0.014698 152772.000000 0 0 1
37.640507 -21.452514 22.242329 48.700506 -0.518017 1.096495 0.072968 -0.001466 -126513.000000 0 0 1
37.081987 -22.867814 22.562829 49.062123 -0.552596 1.092933 0.076325 0.003498 8418.730000 0 0 1
36.149887 -22.805514 23.616329 48.832743 -0.562802 1.066014 0.101948 -0.016451 34525.000000 0 0 1
35.839737 -24.122914 24.090429 49.464639 -0.592428 1.062118 0.105604 -0.029012 -140127.000000 0 0 1
34.873367 -24.112714 25.345329 49.395955 -0.604955 1.031998 0.112031 -0.034036 1519570.000000 0 0 1
33.533447 -23.709114 24.955129 48.055932 -0.615428 1.024772 0.120083 -0.036461 818937.000000 0 0 1
32.634607 -23.804914 26.038829 48.059465 -0.630211 0.998214 0.089091 -0.032131 842167.000000 0 0 1
31.283187 -24.481714 25.582729 47.249001 -0.664031 0.998642 0.093760 -0.031036 1097220.000000 0 0 1
30.350857 -23.653714 24.843829 45.802713 -0.662017 0.997494 0.105826 -0.025498 1075200.000000 0 0 1
29.059057 -24.276714 24.856929 45.295194 -0.695972 0.989897 0.102699 -0.020532 1334680.000000 0 0 1
27.837257 -23.404814 24.370329 43.779118 -0.699113 0.980430 0.084221 -0.015876 596221.000000 0 0 1
27.811057 -22.856314 23.068829 42.755548 -0.687918 1.000892 0.093820 -0.019478 -161119.000000 0 0 1
28.851857 -21.932414 22.837329 42.836947 -0.649980 1.008510 0.108699 -0.012737 -2805.660000 0 0 1
28.934057 -21.471614 21.384929 41.898986 -0.638418 1.035155 0.115963 -0.021654 468797.000000 0 0 1
27.896557 -20.517214 21.131929 40.567627 -0.634140 1.022884 0.104697 -0.013529 264044.000000 0 0 1
28.011857 -19.889614 19.852629 39.678555 -0.617434 1.046809 0.106775 -0.020836 149820.000000 0 0 1
26.951857 -18.765914 19.629629 38.260743 -0.608222 1.032063 0.082651 -0.014649 355467.000000 0 0 1
27.266257 -17.523414 20.271129 38.228752 -0.571210 1.011891 0.074868 -0.018546 39438.400000 0 0 1
27.075857 -17.681714 21.679129 38.932373 -0.578512 0.980219 0.075720 -0.010924 -93951.100000 0 0 1
27.279757 -16.357714 22.500429 38.961895 -0.540146 0.955135 0.089123 -0.013142 475609.000000 0 0 1
26.172157 -15.442614 22.364529 37.730999 -0.533064 0.936344 0.063256 -0.016285 451895.000000 0 0 1
26.221657 -14.346814 23.294429 37.895076 -0.500642 0.908780 0.061572 -0.016813 385370.000000 0 0 1
25.008957 -13.404314 23.061729 36.564558 -0.492016 0.888325 0.055092 -0.017869 1514190.000000 0 0 1
23.706457 -13.870614 23.501029 36.148145 -0.529391 0.863040 0.055787 -0.016477 1149550.000000 0 0 1
22.704157 -12.887014 23.174529 34.908633 -0.516260 0.844825 0.057993 -0.013299 -192523.000000 0 0 1
21.371157 -13.391714 23.708529 34.614429 -0.559767 0.816286 0.065385 -0.015982 -756460.000000 0 0 1
20.831857 -14.501614 23.035529 34.276795 -0.608122 0.833830 0.083408 -0.026501 -100227.000000 0 0 1
19.810157 -15.098014 23.812229 34.458883 -0.651222 0.807879 0.098101 -0.023879 214176.000000 0 0 1
19.058857 -16.271914 23.035229 34.038757 -0.706680 0.827477 0.129126 -0.029534 314388.000000 0 0 1
19.518857 -17.619314 23.302129 35.134246 -0.734295 0.845668 0.119496 -0.027234 204905.000000 0 0 1
18.905457 -18.531114 22.435429 34.701109 -0.775399 0.867765 0.135277 -0.031492 -48296.600000 0 0 1
19.573357 -19.910414 22.596929 35.918827 -0.793935 0.890387 0.117883 -0.020193 -56887.500000 0 0 1
19.217357 -20.464514 23.859029 36.842318 -0.816817 0.866368 0.109825 -0.015762 427596.000000 0 0 1
19.720157 -21.799014 24.018429 37.960065 -0.835426 0.885724 0.098316 -0.017737 -411271.000000 0 0 1
19.137357 -22.890314 23.109229 37.739123 -0.874459 0.911777 0.089805 -0.019266 110633.000000 0 0 1
19.760757 -22.871214 21.808129 37.271631 -0.858230 0.945776 0.102952 -0.013094 113150.000000 0 0 1
20.873657 -23.732114 21.781729 38.384457 -0.849393 0.967376 0.096252 -0.021507 -399852.000000 0 0 1
21.599657 -23.902414 20.460329 38.164062 -0.835963 1.004968 0.085248 -0.019981 -413407.000000 0 0 1
20.860757 -24.561914 19.458729 37.644401 -0.866701 1.027560 0.075282 -0.024745 -206881.000000 0 0 1
21.614357 -24.929314 18.353929 37.756031 -0.856501 1.063153 0.084632 -0.013016 -9443.080000 0 0 1
20.777657 -25.847214 17.387729 37.444928 -0.893703 1.087890 0.075521 -0.018997 539293.000000 0 0 1
20.264457 -27.008314 18.116829 38.318621 -0.927100 1.078337 0.094690 -0.031534 70446.100000 0 0 1
19.640657 -27.877514 17.242329 38.212683 -0.957034 1.102664 0.102557 -0.043408 -238874.000000 0 0 1
18.717557 -28.949114 17.885629 38.836759 -0.996838 1.092200 0.087939 -0.025418 270544.000000 0 0 1
17.644157 -28.358914 18.603929 38.231538 -1.014232 1.062589 0.093850 -0.034476 11596.100000 0 0 1
16.859757 -29.309914 19.282529 38.924779 -1.048794 1.052525 0.097296 -0.041605 -488932.000000 0 0 1
15.521757 -28.768414 19.752929 38.193256 -1.076018 1.027239 0.084148 -0.030636 -677262.000000 0 0 1
14.587557 -28.431214 18.751029 37.050396 -1.096738 1.040145 0.094146 -0.040727 -366574.000000 0 0 1
13.352857 -28.161814 19.366329 36.693886 -1.128044 1.014811 0.072907 -0.039054 -295923.000000 0 0 1
12.346757 -27.638314 18.315529 35.380467 -1.150668 1.026667 0.101804 -0.052526 -378915.000000 0 0 1
11.956157 -28.682114 17.497429 35.661932 -1.175848 1.057964 0.086029 -0.042150 197143.000000 0 0 1
11.013357 -28.241814 16.529929 34.527274 -1.198969 1.071566 0.135356 -0.044413 82849.500000 0 0 1
10.939057 -29.306214 15.413629 34.872584 -1.213545 1.112971 0.099921 -0.040672 207697.000000 0 0 1
10.183357 -30.463414 15.825129 35.807193 -1.248193 1.113021 0.121812 -0.046149 151394.000000 0 0 1
9.957657 -31.273214 14.695729 35.960163 -1.262538 1.149803 0.083607 -0.024158 102913.000000 0 0 1
9.068357 -32.494814 14.987429 36.915729 -1.298649 1.152734 0.085392 -0.019716 -15581.400000 0 0 1
9.718457 -33.441214 15.764629 38.226780 -1.287973 1.145712 0.075421 -0.018003 -612257.000000 0 0 1
8.906257 33.067300 15.915329 37.763282 1.307702 1.135753 0.095938 -0.004872 -336520.000000 0 0 1
9.494857 31.799100 16.565029 37.090906 1.280635 1.107828 0.112373 -0.006793 -474967.000000 0 0 1
10.481157 31.194600 15.781629 36.496816 1.246654 1.123631 0.064507 -0.009524 -423475.000000 0 0 1
10.901657 30.004700 16.469129 35.921587 1.222294 1.094518 0.109416 -0.012522 -289945.000000 0 0 1
12.161857 29.397900 15.857529 35.547272 1.178537 1.108397 0.021818 -0.031255 -349399.000000 0 0 1
11.894257 28.534300 14.722629 34.240845 1.175857 1.126334 0.097248 -0.020919 -161482.000000 0 0 1
13.099557 27.904200 14.417029 34.030773 1.131888 1.133329 0.062637 -0.032637 -344323.000000 0 0 1
12.868457 26.676500 13.502029 32.550540 1.121336 1.143071 0.055346 -0.029960 -25339.400000 0 0 1
12.334057 25.509000 14.120029 31.657752 1.120421 1.108481 0.084207 -0.032087 229062.000000 0 0 1
12.572557 24.347700 13.373029 30.491271 1.094134 1.116772 0.091186 -0.034600 -6862.200000 0 0 1
-9.647066 -8.921800 18.994766 23.096872 0.746360 0.605187 0.105387 -0.050618 176575.000000 0 1 0
-9.683266 -9.246500 17.615966 22.126582 0.762329 0.649899 0.092888 -0.047100 5863.160000 0 1 0
-9.257366 -10.592800 17.376066 22.356965 0.852573 0.680576 0.096847 -0.045810 16263.500000 0 1 0
-9.529966 -10.936900 15.877166 21.506288 0.854032 0.740314 0.084077 -0.035020 -127199.000000 0 1 0
-10.911666 -10.971700 15.632666 21.995974 0.788142 0.780295 0.091020 -0.036618 -132861.000000 0 1 0
-11.300966 -11.532800 14.361866 21.609731 0.795551 0.843836 0.087214 -0.031943 29214.500000 0 1 0
-11.411966 -13.084700 14.250366 22.461417 0.853576 0.883516 0.070159 -0.026842 85910.000000 0 1 0
-10.189566 -13.810100 14.069266 22.192124 0.935127 0.884113 0.073767 -0.016526 393349.000000 0 1 0
-10.128766 -15.167900 14.577066 23.348403 0.982026 0.896525 0.084965 -0.017534 85810.100000 0 1 0
-10.180966 -15.358400 16.093666 24.465048 0.985411 0.852872 0.126054 -0.026418 542768.000000 0 1 0
-11.498666 -15.224500 16.621766 25.303909 0.923929 0.854116 0.139936 -0.034244 160497.000000 0 0 1
-11.419266 -15.121900 18.019766 26.149253 0.924009 0.810533 0.179123 -0.039730 -1469910.000000 0 0 1
-12.663066 -14.618900 18.645166 26.864618 0.856965 0.803708 0.123307 -0.044258 -1784800.000000 0 0 1
-13.075766 -13.345200 18.209266 26.089219 0.795596 0.798250 0.124015 -0.044841 -322579.000000 0 0 1
-13.999566 -13.419700 17.133166 25.877047 0.764253 0.847180 0.139299 -0.055095 -703445.000000 0 0 1
-15.417166 -13.306000 17.715166 26.991957 0.712030 0.854875 0.097667 -0.038213 -1073980.000000 0 0 1
-15.798366 -14.491800 18.348666 28.218330 0.742290 0.862897 0.107340 -0.025652 -936824.000000 0 0 1
-16.920466 -14.268300 19.131166 29.255564 0.700566 0.858026 0.104072 -0.031784 -680961.000000 0 0 1
-17.583366 -15.579100 19.539366 30.556013 0.725034 0.877000 0.085572 -0.017277 -473418.000000 0 0 1
-18.420866 -16.207200 18.623466 30.803167 0.721558 0.921538 0.063582 -0.008227 -106054.000000 0 0 1
-18.807366 -17.506000 19.024766 31.970592 0.749576 0.933443 0.065100 -0.015928 443031.000000 0 0 1
-20.089266 -18.179100 18.405966 32.754204 0.735525 0.974065 0.066596 -0.007551 414399.000000 0 0 1
-20.056266 -18.369000 16.980066 32.062386 0.741516 1.012674 0.069220 -0.007541 78328.500000 0 0 1
-20.546966 -17.284300 16.244566 31.381694 0.699368 1.026701 0.060976 -0.007476 -764016.000000 0 0 1
-20.075266 -17.368700 14.787266 30.386695 0.713241 1.062561 0.082810 -0.015603 182546.000000 0 0 1
-20.708966 -18.409800 14.044766 31.065052 0.726692 1.101669 0.094194 -0.018549 724458.000000 0 0 1
-20.000366 -18.454800 12.775066 30.063210 0.745228 1.131901 0.123717 -0.029292 581712.000000 0 0 1
-20.276166 -19.771600 12.028466 30.768865 0.772800 1.169155 0.147405 -0.035647 -60883.900000 0 0 1
-19.580866 -20.914400 12.498366 31.257504 0.818317 1.159441 0.133525 -0.035522 -48330.100000 0 0 1
-19.661666 -22.076000 11.661766 31.779359 0.843179 1.195057 0.123991 -0.029017 132752.000000 0 0 1
-18.574966 -23.145200 12.067566 32.036788 0.894508 1.184588 0.109017 -0.024509 475638.000000 0 0 1
-18.704166 -24.328100 11.260466 32.687924 0.915353 1.219107 0.135275 -0.046761 -152133.000000 0 0 1
-17.948566 -24.260800 10.068866 31.813825 0.933844 1.248766 0.127068 -0.041793 -341089.000000 0 0 1
-18.120266 -25.488210 9.125966 32.577233 0.952774 1.286863 0.138780 -0.048212 -144916.000000 0 0 1
-19.361666 -25.532510 8.481566 33.146947 0.921995 1.312041 0.131031 -0.052695 -579065.000000 0 0 1
-19.352666 -26.339070 7.264566 33.482028 0.937126 1.352088 0.162316 -0.059140 -177146.000000 0 0 1
-20.716666 -26.141000 6.603066 34.001950 0.900647 1.375358 0.153049 -0.054376 -20031.700000 0 0 1
-20.900366 -24.800800 6.185866 33.017721 0.870538 1.382333 0.190188 -0.058366 -275394.000000 0 0 1
-22.087866 -24.636000 5.452866 33.534162 0.839880 1.407465 0.201306 -0.052559 -79699.800000 0 0 1
-22.075366 -23.242000 4.790666 32.410844 0.811136 1.422442 0.205100 -0.054675 263246.000000 0 0 1
-23.077266 -23.097900 3.784066 32.869322 0.785845 1.455416 0.209282 -0.059370 346703.000000 0 0 1
-22.982466 -21.864500 3.122166 31.874724 0.760475 1.472688 0.199919 -0.055276 111382.000000 0 0 1
-23.336766 -22.011400 1.651366 32.122163 0.756180 1.519365 0.168994 -0.050786 433884.000000 0 0 1
-22.398466 -22.835600 0.952166 32.000977 0.795062 1.541038 0.174865 -0.061291 454197.000000 0 0 1
-22.801866 -22.984400 -0.403334 32.378548 0.789385 1.583253 0.153590 -0.055202 -254831.000000 0 0 1
-21.882766 -23.931800 -1.193734 32.450138 0.830093 1.607591 0.163574 -0.051159 -176590.000000 0 0 1
-20.515466 -23.518200 -1.137834 31.229549 0.853485 1.607239 0.144841 -0.052563 336544.000000 0 0 1
-19.769566 -23.949900 -2.261434 31.137558 0.880726 1.643488 0.123591 -0.045897 202467.000000 0 0 1
-19.439466 -25.501990 -2.370034 32.153715 0.919487 1.644573 0.148580 -0.042604 -1593830.000000 0 0 1
-20.496266 -26.213390 -2.840734 33.396235 0.907189 1.655961 0.193717 -0.046394 -1194990.000000 0 0 1
-20.133866 -27.563720 -3.103334 34.274800 0.939926 1.661463 0.180344 -0.034568 -539545.000000 0 0 1
-21.244666 -28.484840 -3.644134 35.721165 0.929973 1.672990 0.187984 -0.047204 -522121.000000 0 0 1
-21.755966 -28.012530 -4.880534 35.802842 0.910455 1.707539 0.155528 -0.040540 -38199.700000 0 0 1
-22.475166 -29.105300 -5.480334 37.179102 0.913237 1.718739 0.165822 -0.056685 -84334.500000 0 0 1
-23.103266 -28.752310 -6.844434 37.514031 0.893908 1.754274 0.146757 -0.012116 194896.000000 0 0 1
-22.248166 -28.194060 -7.876334 36.768499 0.902732 1.786684 0.149877 -0.017004 372171.000000 0 0 1
-22.878766 -28.153530 -9.136034 37.410243 0.888394 1.817503 0.139634 -0.015866 -252565.000000 0 0 1
-23.844566 -27.000210 -9.421434 37.233561 0.847383 1.826614 0.115262 -0.012678 -468917.000000 0 0 1
-23.380866 -25.712150 -9.739634 36.092105 0.832850 1.844039 0.108730 -0.019628 -142191.000000 0 0 1
-22.941766 -24.977400 -8.603734 34.988846 0.827853 1.819244 0.098452 -0.015837 -14463.600000 0 0 1
-22.538366 -23.509000 -9.018334 33.793215 0.806474 1.840938 0.076513 -0.019974 287575.000000 0 0 1
-23.616766 -22.643200 -9.335434 34.023763 0.764356 1.848741 0.089848 -0.017448 179558.000000 0 0 1
-23.115566 -21.345700 -9.711934 32.928558 0.745612 1.870189 0.103298 -0.018639 218106.000000 0 0 1
-24.202766 -20.340800 -10.130834 33.198732 0.698914 1.880900 0.119194 -0.010190 -586280.000000 0 0 1
-24.799366 -20.576400 -11.385934 34.176546 0.692599 1.910439 0.108463 -0.007132 582294.000000 0 0 1
-26.080266 -19.975100 -11.613934 34.843484 0.653605 1.910616 0.103010 -0.004277 494083.000000 0 0 1
-26.092106 -18.415800 -11.553834 33.962196 0.614608 1.917923 0.110830 -0.018415 -1074190.000000 0 0 1
-25.414846 -17.826000 -12.672734 33.530268 0.611666 1.958376 0.142033 -0.013529 510893.000000 0 0 1
-25.204016 -16.443000 -12.642434 32.641167 0.578058 1.968515 0.117792 -0.034853 111606.000000 0 0 1
-24.196866 -15.883000 -11.589834 31.178234 0.580866 1.951666 0.104217 -0.033447 -690931.000000 0 0 1
-24.773166 -15.991800 -10.320334 31.240306 0.573226 1.907474 0.134567 -0.042308 297662.000000 0 0 1
-23.829666 -16.350000 -9.335334 30.369787 0.601349 1.883244 0.129471 -0.046620 -288271.000000 0 0 1
-24.472066 -16.969100 -8.088334 30.858605 0.606287 1.836004 0.125054 -0.047056 -96045.600000 0 0 1
-25.197066 -18.141100 -8.325034 32.144950 0.624002 1.832767 0.127585 -0.035923 -666931.000000 0 0 1
-26.374246 -18.123500 -7.602434 32.891627 0.602061 1.804041 0.137684 -0.040323 -785923.000000 0 0 1
-27.105606 -19.477000 -7.518534 34.213970 0.623074 1.792355 0.144586 -0.033264 -86651.600000 0 0 1
-27.650596 -19.890000 -8.763934 35.170642 0.623584 1.822633 0.142353 -0.022271 -47775.500000 0 0 1
-28.192376 -21.214600 -8.664234 36.330955 0.645095 1.811598 0.145921 -0.011473 431652.000000 0 0 1
-27.189486 -22.396900 -8.950234 36.345508 0.689046 1.819610 0.127627 -0.010831 297562.000000 0 0 1
-27.713876 -23.638900 -8.550234 37.416080 0.706211 1.801351 0.139260 -0.004095 -283546.000000 0 0 1
-26.867856 -24.751500 -8.842134 37.585925 0.744422 1.808273 0.113350 0.007523 -185892.000000 0 0 1
-27.465116 -26.090420 -8.550534 38.834961 0.759735 1.792791 0.131967 -0.012738 -238041.000000 0 0 1
-27.265076 -26.442600 -7.180034 38.654215 0.770085 1.757632 0.164326 -0.037833 89189.100000 0 0 1
-27.717226 -27.754940 -6.952634 39.836170 0.786078 1.746225 0.164966 -0.042825 -53171.800000 0 0 1
-27.572496 -28.274680 -5.504434 39.874790 0.797971 1.709282 0.199145 -0.054373 90852.500000 0 0 1
-28.636196 -27.814000 -4.676234 40.193500 0.770834 1.687403 0.165058 -0.051339 135410.000000 0 0 1
-28.480356 -27.996610 -3.305734 40.073292 0.776833 1.653382 0.164481 -0.056714 -247020.000000 0 0 1
-28.719606 -29.421740 -2.797834 41.210222 0.797474 1.638740 0.156157 -0.040330 -71345.900000 0 0 1
-27.903896 -30.432950 -3.405634 41.429340 0.828724 1.653093 0.208778 -0.056417 99031.800000 0 0 1
-27.576586 -31.631720 -2.679834 42.050152 0.853781 1.634569 0.201515 -0.058684 456010.000000 0 0 1
-26.576066 -31.527780 -1.490434 41.261478 0.870415 1.606926 0.215223 -0.056787 1723380.000000 0 0 1
-25.241426 -31.024600 -1.784934 40.035501 0.887821 1.615395 0.218053 -0.061964 1350710.000000 0 0 1
-24.271066 -31.121910 -0.756434 39.474423 0.908450 1.589960 0.203037 -0.040052 700685.000000 0 0 1
-23.201266 -29.984070 -0.867834 37.922240 0.912245 1.593683 0.224179 -0.034985 72352.500000 0 0 1
-23.608166 -28.669030 -0.681134 37.144619 0.881906 1.589135 0.210581 -0.052750 -335604.000000 0 0 1
-24.144366 -28.021900 -1.829934 37.034118 0.859592 1.620229 0.231959 -0.064840 -137902.000000 0 0 1
-24.955706 -26.753570 -1.457534 36.615095 0.820153 1.610614 0.168869 -0.052422 1392400.000000 0 0 1
-26.330416 -26.875400 -0.983834 37.637028 0.795641 1.596939 0.193857 -0.055808 1439500.000000 0 0 1
-27.029456 -25.628250 -0.917334 37.259095 0.758795 1.595419 0.188793 -0.074822 366167.000000 0 0 1
-26.584786 -24.658000 0.213166 36.260353 0.747815 1.564918 0.198540 -0.066244 -355381.000000 0 0 1
-26.968966 -25.161310 1.482266 36.913598 0.750736 1.530631 0.168823 -0.071040 -236755.000000 0 0 1
-26.582626 -24.351200 2.561666 36.141099 0.741616 1.499857 0.179628 -0.055379 -28030.000000 0 0 1
-27.492316 -23.145000 2.914066 36.055655 0.699756 1.489887 0.180123 -0.054666 -68188.000000 0 0 1
-27.382006 -22.144500 1.943766 35.269411 0.680038 1.515656 0.176890 -0.061057 49302.700000 0 0 1
-28.256936 -21.147100 2.412166 35.376161 0.642467 1.502557 0.139799 -0.056751 175511.000000 0 0 1
-27.887056 -19.870000 1.676466 34.282872 0.619077 1.521876 0.145497 -0.039694 1522140.000000 0 0 1
-26.551816 -19.425400 2.047466 32.962664 0.631623 1.508642 0.137662 -0.035097 1109420.000000 0 0 1
-25.973936 -18.461400 1.197366 31.888906 0.617915 1.533239 0.115058 -0.036153 -577544.000000 0 0 1
-24.654566 -17.871800 1.623266 30.493997 0.627235 1.517539 0.139945 -0.039313 -879712.000000 0 0 1
-23.553366 -18.698800 1.298266 30.101356 0.671005 1.527653 0.155731 -0.047739 -480522.000000 0 0 1
-22.412966 -17.997200 1.775566 28.799182 0.676556 1.509104 0.159375 -0.040872 128471.000000 0 0 1
-21.152566 -18.874400 1.495166 28.388546 0.728544 1.518104 0.143511 -0.047220 -270856.000000 0 0 1
-20.624766 -18.889300 0.202866 27.968335 0.741506 1.563543 0.089764 -0.033797 184583.000000 0 0 1
-19.647966 -19.915400 0.066266 27.976242 0.792158 1.568428 0.107469 -0.036287 213651.000000 0 0 1
-19.409166 -20.375400 -1.397134 28.174893 0.809680 1.620405 0.109884 -0.034325 -3213.180000 0 0 1
-18.662866 -19.489900 -2.187934 27.072972 0.807072 1.651701 0.109531 -0.035957 -40882.600000 0 0 1
-18.458766 -20.004500 -3.504634 27.444280 0.825564 1.698846 0.107876 -0.032615 329781.000000 0 0 1
-17.608966 -19.030200 -4.391134 26.296506 0.824169 1.738568 0.117483 -0.023987 1017900.000000 0 0 1
-16.210366 -18.934100 -4.076934 25.256633 0.862745 1.732926 0.151506 -0.038188 638141.000000 0 0 1
-15.632066 -18.326600 -5.208134 24.644480 0.864580 1.783732 0.150393 -0.025769 -818140.000000 0 1 0
-14.159866 -17.939400 -5.149934 23.427456 0.902604 1.792431 0.171714 -0.041261 -263729.000000 0 1 0
-13.322166 -19.074700 -5.434234 23.892576 0.961131 1.800249 0.141725 -0.043986 342589.000000 0 1 0
-12.009266 -18.693600 -5.809234 22.965634 0.999764 1.826528 0.126916 -0.052954 281596.000000 0 1 0
-10.919166 -19.770800 -5.703834 23.294773 1.066199 1.818166 0.124683 -0.058971 98134.100000 0 1 0
-11.071766 -20.781500 -6.669534 24.473198 1.081277 1.846812 0.123971 -0.049949 -493642.000000 0 1 0
-9.892766 -21.511400 -6.871934 24.654221 1.139753 1.853270 0.122321 -0.041744 -259846.000000 0 1 0
-10.037766 -22.841500 -7.594634 26.080056 1.156748 1.866282 0.137747 -0.030526 -257992.000000 0 0 1
-10.564766 -22.689800 -8.939334 26.577302 1.135031 1.913837 0.127449 -0.035819 168004.000000 0 0 1
-10.447066 -23.905700 -9.728234 27.843531 1.158796 1.927716 0.153481 -0.031568 60906.600000 0 0 1
-11.282066 -23.707700 -11.016834 28.472982 1.126629 1.968088 0.177143 -0.044111 82575.400000 0 0 1
-10.699466 -22.821700 -11.982234 27.908466 1.132395 2.014559 0.157882 -0.036811 -498546.000000 0 0 1
-11.493666 -22.594700 -13.055034 28.514185 1.100222 2.046364 0.159761 -0.045094 -676064.000000 0 0 1
-10.984666 -21.376300 -13.903234 27.765248 1.096113 2.095252 0.138838 -0.024414 33365.800000 0 0 1
-11.008566 -20.178800 -13.172734 26.493271 1.071375 2.091177 0.140289 -0.030865 -81844.800000 0 0 1
-10.985766 -19.017500 -13.959834 26.023630 1.046961 2.136997 0.129914 -0.011766 -311237.000000 0 0 1
-10.635066 -17.775900 -13.122534 24.521177 1.031638 2.135483 0.132727 -0.003193 271994.000000 0 1 0
-11.604366 -17.271000 -12.171534 24.105912 0.979180 2.100085 0.148944 -0.019786 275208.000000 0 1 0
-11.165166 -16.148400 -11.441134 22.722925 0.965859 2.098449 0.133013 -0.023988 -51544.900000 0 1 0
-11.202566 -14.838500 -12.257634 22.269444 0.924124 2.153668 0.144827 -0.008275 628640.000000 0 1 0
-12.485966 -14.469900 -12.789134 22.996506 0.858865 2.160523 0.148087 -0.000054 439940.000000 0 1 0
-12.356166 -13.988700 -14.105434 23.394910 0.847287 2.217962 0.162019 -0.010404 -51201.200000 0 1 0
-13.552366 -13.208400 -14.693934 23.959135 0.772545 2.231017 0.165261 -0.012516 -49485.300000 0 1 0
-13.523566 -11.861600 -14.313934 22.988543 0.720021 2.242928 0.130151 -0.007202 -333106.000000 0 1 0
-14.671866 -11.196300 -14.734534 23.616250 0.651841 2.244539 0.135266 -0.020397 -357351.000000 0 1 0
-14.860166 -9.808500 -14.066934 22.691625 0.583410 2.239434 0.125515 -0.030688 453038.000000 0 1 0
-13.835766 -8.868000 -14.424034 21.866015 0.569985 2.291156 0.105671 -0.015308 441001.000000 0 1 0
-13.747366 -8.361600 -15.753434 22.518373 0.546451 2.345608 0.102283 -0.014206 -97823.500000 0 1 0
-12.615066 -7.310100 -15.807934 21.505075 0.525190 2.396580 0.088533 0.001774 1032710.000000 0 1 0
-11.286966 -7.870200 -15.705734 20.880750 0.608900 2.422135 0.077345 -0.004847 438322.000000 0 1 0
-10.327366 -6.883600 -15.544034 19.891089 0.587915 2.467794 0.055321 0.005982 -95590.700000 0 1 0
12.069034 21.467900 15.769966 29.244216 1.058643 1.001249 0.130788 -0.042977 334625.000000 0 0 1
13.182834 21.695700 16.630666 30.349128 1.024790 0.990851 0.145441 -0.048080 252906.000000 0 0 1
13.516834 20.427900 17.163466 29.909672 0.986251 0.959605 0.139988 -0.049770 -355968.000000 0 0 1
14.584734 20.536400 18.237566 31.097701 0.953265 0.944115 0.156802 -0.051714 -370406.000000 0 0 1
15.892434 20.662900 17.749466 31.536779 0.915165 0.973005 0.132979 -0.035779 -421194.000000 0 0 1
16.886534 20.567400 18.751866 32.554653 0.883361 0.956955 0.133933 -0.047957 -62538.500000 0 0 1
18.252034 20.963500 18.172866 33.209308 0.854431 0.991755 0.111407 -0.033530 -1054780.000000 0 0 1
18.449034 22.369800 18.183566 34.225968 0.881157 1.010686 0.117062 -0.041895 -56014.400000 0 0 1
19.501534 22.883700 17.390266 34.733196 0.865025 1.046411 0.118304 -0.038426 1130540.000000 0 0 1
20.944734 22.751300 18.051266 35.807147 0.826719 1.042428 0.106243 -0.041615 705326.000000 0 0 1
21.418534 21.431800 18.023266 35.254982 0.785708 1.034186 0.113798 -0.036356 -74052.900000 0 0 1
22.698334 21.356500 18.632766 36.311079 0.754949 1.031954 0.126021 -0.047988 113883.000000 0 0 1
23.315834 19.990400 18.380666 35.792361 0.708760 1.031496 0.107434 -0.041264 -191436.000000 0 0 1
23.637234 19.681600 17.055066 35.170435 0.694336 1.064518 0.096961 -0.044872 99964.600000 0 0 1
23.186234 18.344600 16.792166 34.001509 0.669343 1.054267 0.072186 -0.029480 -243516.000000 0 0 1
24.046834 17.123600 17.156366 34.143942 0.618797 1.044341 0.083441 -0.034470 64490.800000 0 0 1
25.245334 16.980200 16.403066 34.564645 0.592104 1.076330 0.113339 -0.048859 285242.000000 0 0 1
25.876634 15.751900 16.694866 34.589610 0.546814 1.067112 0.101820 -0.034036 -471272.000000 0 0 1
27.339634 15.735900 16.226866 35.473727 0.522263 1.095690 0.237617 -0.068340 -1166860.000000 0 0 1
28.128534 16.769800 16.826566 36.818120 0.537609 1.096156 0.200764 -0.071477 992115.000000 0 0 1
29.339334 16.203800 17.367466 37.749020 0.504599 1.092714 0.192301 -0.075066 1225420.000000 0 0 1
30.447134 15.579600 16.439466 37.947437 0.472959 1.122738 0.174447 -0.080870 -469304.000000 0 0 1
31.232134 16.579700 15.795266 38.727549 0.488025 1.150692 0.219690 -0.073166 1229770.000000 0 0 1
32.431434 16.067700 15.148166 39.235645 0.459990 1.174416 0.211541 -0.060337 1147890.000000 0 0 1
32.135634 15.393000 13.792766 38.208426 0.446708 1.201470 0.169771 -0.066003 -815196.000000 0 0 1
32.323534 16.186900 12.624666 38.291106 0.464269 1.234808 0.169940 -0.054005 -159062.000000 0 0 1
31.740634 15.786300 11.395866 37.236284 0.461528 1.259764 0.161242 -0.046260 290325.000000 0 0 1
30.194334 16.005000 11.405566 36.027001 0.487410 1.248670 0.154383 -0.055530 -20351.900000 0 0 1
29.806534 17.371700 11.211066 36.275246 0.527688 1.256597 0.164952 -0.057484 -40225.300000 0 0 1
30.150634 18.367900 12.170366 37.343785 0.547160 1.238832 0.189516 -0.068381 -214528.000000 0 0 1
29.321834 18.338900 13.531266 37.137318 0.558912 1.197853 0.188963 -0.072530 628057.000000 0 0 1
28.065034 19.010300 13.378566 36.442059 0.595373 1.194887 0.195493 -0.060793 959249.000000 0 0 1
27.239334 19.024900 14.579566 36.283493 0.609675 1.157289 0.180063 -0.061118 74187.700000 0 0 1
27.750034 19.746900 15.857766 37.569578 0.618468 1.135046 0.171338 -0.060264 -354058.000000 0 0 1
27.673334 21.148600 15.759966 38.228958 0.652542 1.145872 0.149313 -0.057866 568358.000000 0 0 1
26.450834 21.546200 16.386566 37.847125 0.683565 1.123014 0.123245 -0.042864 329844.000000 0 0 1
26.213234 23.027400 16.210166 38.472903 0.720789 1.135874 0.120166 -0.034207 -108815.000000 0 0 1
26.050834 23.410700 14.858566 38.045812 0.732071 1.169574 0.143494 -0.046186 131942.000000 0 0 1
26.040334 24.844200 14.762466 38.900690 0.761896 1.181550 0.149481 -0.046284 -492164.000000 0 0 1
25.809134 25.354700 13.322566 38.554675 0.776516 1.217972 0.136761 -0.046754 800642.000000 0 0 1
24.479234 25.065900 12.838966 37.314492 0.797239 1.219543 0.136630 -0.043264 1027310.000000 0 0 1
24.203334 25.522600 11.499966 37.006131 0.811923 1.254806 0.115543 -0.045633 -74592.800000 0 0 1
23.567034 24.435700 10.637466 35.576175 0.803492 1.267146 0.114074 -0.043116 -602300.000000 0 0 1
22.245134 24.118100 11.024266 34.613049 0.825774 1.246649 0.101193 -0.034289 -14103.000000 0 0 1
21.807334 22.847500 10.632666 33.325991 0.808687 1.246069 0.108472 -0.038363 60747.700000 0 0 1
21.592434 22.644000 9.088166 32.581877 0.809165 1.288113 0.133139 -0.036237 -1078080.000000 0 0 1
20.534634 23.375500 8.611366 32.283755 0.850005 1.300788 0.138822 -0.026572 -797934.000000 0 0 1
20.721634 23.530400 7.171866 32.163668 0.848785 1.345926 0.123010 -0.031907 805781.000000 0 0 1
19.433334 23.677500 6.237366 31.259930 0.883530 1.369916 0.121168 -0.029535 587132.000000 0 0 1
18.671234 22.438100 6.088366 29.818644 0.876773 1.365171 0.128871 -0.024441 589874.000000 0 0 1
17.875834 22.342700 4.938366 29.036686 0.896010 1.399892 0.150458 -0.037919 -420184.000000 0 0 1
16.593134 23.185500 4.864266 28.923357 0.949632 1.401816 0.124316 -0.032958 -715083.000000 0 0 1
16.745734 24.580200 4.989866 30.157994 0.972752 1.404574 0.121554 -0.038154 -389561.000000 0 0 1
15.524634 25.142200 5.372366 30.033428 1.017628 1.390949 0.118115 -0.041745 -239305.000000 0 0 1
15.473034 26.622600 4.972366 31.191378 1.044316 1.410699 0.104685 -0.045078 -166365.000000 0 0 1
15.076834 26.689000 3.636366 30.868055 1.056579 1.452719 0.094851 -0.033214 240698.000000 0 0 1
14.718634 28.015200 3.351466 31.823293 1.087051 1.465286 0.089713 -0.032701 -341251.000000 0 0 1
14.170134 28.112500 1.884466 31.538177 1.103913 1.511009 0.090976 -0.033205 -55676.500000 0 0 1
15.063334 27.890900 0.783566 31.708364 1.075601 1.546082 0.108599 -0.033983 126682.000000 0 0 1
15.356934 26.546900 0.502966 30.672892 1.046348 1.554398 0.091874 -0.030458 235252.000000 0 0 1
16.365734 26.114200 -0.618934 30.824857 1.010976 1.590877 0.098885 -0.037072 361228.000000 0 0 1
15.955634 26.533800 -1.889734 31.019283 1.029398 1.631755 0.098416 -0.029015 136310.000000 0 0 1
17.017834 26.373000 -2.837734 31.514989 0.997750 1.660962 0.092892 -0.024452 422639.000000 0 0 1
16.651734 26.732700 -4.282234 31.784509 1.013710 1.705934 0.103677 -0.024500 185573.000000 0 0 1
15.866134 25.727100 -4.966934 30.631493 1.018181 1.733667 0.133220 -0.029616 -99854.100000 0 0 1
15.660934 26.179700 -6.290134 31.148152 1.031695 1.774137 0.126090 -0.015392 -939010.000000 0 0 1
14.232834 25.961200 -6.700134 30.355383 1.069309 1.793352 0.135585 -0.029755 -899130.000000 0 0 1
13.843234 24.579000 -6.847834 29.028524 1.057865 1.808941 0.171432 -0.041327 157447.000000 0 0 1
12.589534 24.603200 -7.527734 28.644033 1.097830 1.836722 0.131301 -0.031634 78246.400000 0 0 1
12.261934 23.186200 -8.058434 27.438901 1.084339 1.868877 0.155711 -0.044599 -1319.260000 0 0 1
13.042634 22.842000 -9.167934 27.855310 1.051978 1.906175 0.159650 -0.046381 -34355.200000 0 0 1
12.348534 21.858100 -9.885934 26.981374 1.056555 1.945932 0.166102 -0.041268 86939.700000 0 0 1
13.190634 21.169800 -11.018734 27.268402 1.013574 1.986774 0.155712 -0.039116 192086.000000 0 0 1
12.485434 20.061400 -11.655734 26.347713 1.014097 2.029048 0.164470 -0.042596 67925.500000 0 0 1
12.846034 19.691300 -12.973434 26.852894 0.992756 2.075022 0.156653 -0.034895 526555.000000 0 0 1
14.296534 19.251200 -13.347834 27.443839 0.932028 2.078726 0.152084 -0.041477 566515.000000 0 0 1
15.333334 20.172300 -13.077434 28.514069 0.920851 2.047250 0.138584 -0.031145 -162422.000000 0 0 1
16.586934 19.532700 -13.275234 28.859740 0.866774 2.048782 0.138956 -0.029192 560941.000000 0 0 1
17.774734 20.490300 -12.954134 30.059993 0.856247 2.016334 0.139588 -0.019319 20736.700000 0 0 1
18.102434 21.577800 -13.827834 31.376880 0.872760 2.027176 0.122106 -0.017934 -192202.000000 0 0 1
17.147634 22.602000 -13.853434 31.572289 0.921765 2.025042 0.133251 -0.021172 -89850.000000 0 0 1
17.762134 23.924700 -14.422734 33.104380 0.932165 2.021584 0.125060 -0.022254 171108.000000 0 0 1
17.831734 24.087500 -15.831334 33.894093 0.933539 2.056785 0.103989 -0.023024 371465.000000 0 0 1
16.574634 24.213100 -16.527234 33.677028 0.970527 2.083755 0.113489 -0.019221 807796.000000 0 0 1
16.676834 24.209600 -18.085134 34.515122 0.967591 2.122310 0.091634 -0.010827 197468.000000 0 0 1
17.057134 22.917000 -18.544034 34.059007 0.930953 2.146551 0.094182 -0.005463 -138035.000000 0 0 1
17.056534 22.873400 -19.950434 34.815767 0.930057 2.180993 0.089351 -0.005902 -112742.000000 0 0 1
17.328034 21.467700 -20.610034 34.436847 0.891700 2.212409 0.091459 -0.000932 -127739.000000 0 0 1
16.353734 20.454000 -20.462434 33.234349 0.896338 2.234072 0.096364 -0.000175 -142780.000000 0 0 1
16.693834 19.289100 -21.177234 33.154619 0.857398 2.263658 0.080116 0.002958 -464753.000000 0 0 1
15.600034 18.234600 -21.351534 32.120861 0.863107 2.297922 0.079394 0.005236 -994797.000000 0 0 1
15.232134 17.546700 -20.136734 30.747238 0.855893 2.284862 0.093391 -0.002608 116158.000000 0 0 1
14.486034 16.356200 -20.343234 29.853269 0.845961 2.320526 0.087195 -0.008008 -309861.000000 0 0 1
13.029834 16.587000 -20.752734 29.590220 0.904932 2.348069 0.094380 -0.015251 -740711.000000 0 0 1
12.151334 16.860100 -19.636634 28.592225 0.946302 2.327849 0.092588 -0.013887 297102.000000 0 0 1
10.910034 17.334400 -20.150634 28.732531 1.009049 2.348041 0.087587 -0.009531 52610.300000 0 0 1
9.748734 16.932200 -19.247734 27.426493 1.048398 2.348708 0.110446 -0.022960 -856250.000000 0 0 1
9.400134 15.567700 -19.430934 26.613474 1.027571 2.389289 0.140298 -0.028917 716618.000000 0 0 1
8.054234 15.266200 -19.023534 25.687009 1.085324 2.404744 0.132072 -0.023354 1060680.000000 0 0 1
7.688034 15.386200 -17.486834 24.528155 1.107412 2.364463 0.130199 -0.032673 -253584.000000 0 1 0
7.473134 16.732400 -17.067634 25.042466 1.150751 2.320672 0.134412 -0.034334 103493.000000 0 0 1
6.704534 16.785200 -15.835434 24.030287 1.190780 2.290256 0.106221 -0.041879 308279.000000 0 1 0
6.293534 18.214200 -15.385034 24.658973 1.238110 2.244535 0.085320 -0.032821 1172290.000000 0 1 0
7.451934 19.059200 -15.002234 25.374228 1.198082 2.203391 0.087868 -0.036695 1501170.000000 0 0 1
8.004634 19.799900 -16.154134 26.778093 1.186609 2.218378 0.108176 -0.032551 238110.000000 0 0 1
9.232934 20.647200 -15.748634 27.560360 1.150293 2.179036 0.114690 -0.024309 40289.400000 0 0 1
8.970734 21.850300 -15.036234 27.999965 1.181225 2.137684 0.096202 -0.028040 -31882.200000 0 0 1
8.834334 21.652200 -13.648034 27.076412 1.183403 2.099085 0.096586 -0.034575 -993.453000 0 0 1
8.625534 22.986000 -12.857934 27.714302 1.211805 2.053241 0.096052 -0.031338 -521296.000000 0 0 1
7.508134 23.731700 -13.274934 28.209742 1.264384 2.060744 0.074056 -0.023810 -168833.000000 0 0 1
6.831134 24.525800 -12.311634 28.279951 1.299153 2.021222 0.058534 -0.024784 108755.000000 0 0 1
6.305234 23.881200 -11.017034 27.045198 1.312662 1.990354 0.056858 -0.027437 -989957.000000 0 0 1
7.236734 23.456100 -10.061934 26.529257 1.271539 1.959811 0.051914 -0.027705 -610416.000000 0 0 1
6.647634 22.703900 -9.048334 25.328452 1.285961 1.936107 0.072740 -0.039431 -374679.000000 0 0 1
7.604334 22.446700 -7.905834 24.983644 1.244158 1.892771 0.066685 -0.044599 -169137.000000 0 1 0
7.858734 23.699300 -7.282834 26.008772 1.250605 1.854606 0.064067 -0.039859 -145896.000000 0 0 1
8.746534 23.573100 -6.207734 25.898434 1.215503 1.812848 0.082626 -0.038075 -236295.000000 0 0 1
9.136434 24.869200 -5.507234 27.060694 1.218723 1.775742 0.050238 -0.030309 370455.000000 0 0 1
9.936934 25.707500 -6.388634 28.291922 1.201948 1.798572 0.062224 -0.028172 259017.000000 0 0 1
10.159434 26.927300 -5.642134 29.327927 1.210018 1.764384 0.052118 -0.020758 153070.000000 0 0 1
10.439434 28.186700 -6.504534 30.753550 1.216093 1.783911 0.054968 -0.019424 -438948.000000 0 0 1
11.652034 28.145600 -7.178034 31.296468 1.178287 1.802212 0.070529 -0.021020 -666868.000000 0 0 1
11.884634 29.320800 -7.970634 32.626444 1.185703 1.817594 0.072692 -0.015581 -4787.480000 0 0 1
13.261134 29.461900 -8.640134 33.444180 1.147850 1.832105 0.079937 -0.016504 1016300.000000 0 0 1
14.379634 29.606800 -7.719734 33.807259 1.118665 1.801174 0.083333 -0.009500 1093400.000000 0 0 1
15.557934 30.002000 -8.442834 34.834620 1.092409 1.815603 0.084830 -0.011880 1137140.000000 0 0 1
16.762434 30.468000 -7.566334 35.588308 1.067826 1.785039 0.075017 -0.004012 392830.000000 0 0 1
17.502834 29.450100 -6.947234 34.955996 1.034562 1.770871 0.083138 -0.014467 200384.000000 0 0 1
18.540134 30.033300 -6.125134 35.822520 1.017739 1.742626 0.066380 -0.001964 998374.000000 0 0 1
19.795234 29.144300 -5.906334 35.722910 0.974157 1.736896 0.065869 -0.007397 -168998.000000 0 0 1
19.516434 28.028500 -5.089134 34.530962 0.962553 1.718714 0.083485 -0.019773 -825529.000000 0 0 1
20.564934 27.178700 -4.815634 34.420758 0.923049 1.711162 0.081756 -0.019868 -851881.000000 0 0 1
20.871734 26.067800 -5.833134 33.899630 0.895646 1.743728 0.093592 -0.012442 86556.100000 0 0 1
21.576134 26.467400 -7.022834 34.862201 0.886858 1.773630 0.082710 -0.006094 357337.000000 0 0 1
21.566434 25.352100 -7.951734 34.220902 0.865910 1.805305 0.090878 -0.015570 -1251620.000000 0 0 1
22.160634 25.737700 -9.309234 35.216257 0.859940 1.838321 0.090381 -0.016256 264647.000000 0 0 1
23.558534 25.967700 -9.363934 36.290622 0.834004 1.831775 0.055860 -0.009863 -79774.900000 0 0 1
24.262734 24.775500 -9.261134 35.892538 0.795854 1.831773 0.064451 -0.010546 -828010.000000 0 0 1
25.808834 24.978400 -9.239334 37.086139 0.769048 1.822580 0.024340 -0.002580 206194.000000 0 0 1
26.215434 25.312100 -10.497634 37.922971 0.767869 1.851274 0.032708 -0.002462 261069.000000 0 0 1
27.609334 25.624900 -10.490934 39.102053 0.748138 1.842420 0.016284 0.008451 728924.000000 0 0 1
28.380934 25.650600 -11.836434 40.044124 0.734909 1.870864 0.042976 -0.005659 180230.000000 0 0 1
28.261634 26.908900 -12.405034 40.947451 0.760884 1.878583 0.039935 -0.000274 -244987.000000 0 0 1
28.787534 26.929800 -13.678334 41.725689 0.752068 1.904787 0.060561 -0.000042 -89974.100000 0 0 1
28.433134 28.070100 -14.647534 42.554952 0.778973 1.922186 0.069804 -0.012564 -76729.600000 0 0 1
29.004234 29.255300 -14.161034 43.562060 0.789708 1.901890 0.075713 -0.015180 -76808.500000 0 0 1
29.207834 30.207100 -15.179634 44.676479 0.802215 1.917466 0.096270 -0.010545 40847.100000 0 0 1
29.752834 31.576200 -14.722834 45.815384 0.815120 1.897952 0.093949 -0.021767 503335.000000 0 0 1
31.138034 31.571200 -14.382334 46.617265 0.792306 1.884433 0.092932 -0.027138 619239.000000 0 0 1
31.666934 32.871100 -14.167934 47.791571 0.804054 1.871772 0.103652 -0.030459 -38936.000000 0 0 1
16.954734 -31.713714 -27.979011 45.563667 -1.079839 2.231996 0.120792 -0.050285 380344.000000 0 0 1
18.264234 -32.095614 -27.546051 46.070550 -1.053440 2.211688 0.086715 -0.030433 654163.000000 0 0 1
18.521934 -31.837814 -26.175251 45.186859 -1.043897 2.188625 0.085865 -0.034856 -161425.000000 0 0 1
19.797634 -32.504314 -25.595171 45.864905 -1.023729 2.162837 0.018630 -0.021618 362385.000000 0 0 1
20.985434 -31.814014 -25.940981 46.102651 -0.987682 2.168419 0.039463 -0.027405 267871.000000 0 0 1
21.690034 -32.428314 -27.022221 47.457913 -0.981276 2.176564 0.048648 -0.023797 540140.000000 0 0 1
23.170234 -31.929414 -27.181831 47.908237 -0.943049 2.174108 0.057407 -0.013831 662279.000000 0 0 1
23.311834 -30.627914 -27.640061 47.386535 -0.920210 2.193569 0.061663 -0.031628 44502.800000 0 0 1
24.621234 -30.134314 -27.436081 47.613239 -0.885745 2.184902 0.044124 -0.012501 -64545.200000 0 0 1
25.023234 -29.057314 -28.424341 47.732933 -0.859854 2.208668 0.024403 -0.001947 19399.600000 0 0 1
25.383434 -29.455614 -29.717771 48.939737 -0.859519 2.223368 0.019911 -0.003888 -28769.500000 0 0 1
25.743434 -28.397114 -30.598161 49.044550 -0.834374 2.244500 0.023927 -0.013645 146100.000000 0 0 1
26.044734 -28.924514 -32.038831 50.412720 -0.837739 2.259492 0.035261 0.002549 266865.000000 0 0 1
27.284834 -29.611114 -32.076101 51.479671 -0.826262 2.243474 0.043619 -0.016269 -12111.200000 0 0 1
27.395734 -30.299014 -33.336471 52.724537 -0.835677 2.255284 0.046984 -0.020434 115353.000000 0 0 1
28.751834 -30.987114 -33.595011 53.995314 -0.822798 2.242325 0.045493 -0.027208 1190820.000000 0 0 1
29.880134 -30.106114 33.495486 54.047646 -0.789165 0.902385 0.064961 -0.033920 1499910.000000 0 0 1
31.086234 -30.799214 33.087524 54.861004 -0.780760 0.923395 0.068538 -0.020463 952887.000000 0 0 1
32.321134 -29.898714 33.250856 55.174344 -0.746485 0.923978 0.080555 -0.034249 -241343.000000 0 0 1
32.354134 -28.959814 32.185349 54.049584 -0.730095 0.932936 0.090209 -0.029770 -340202.000000 0 0 1
33.453334 -28.099614 32.105779 54.217109 -0.698639 0.937046 0.092601 -0.036128 -218345.000000 0 0 1
33.565834 -27.474814 30.690226 53.135869 -0.685941 0.955035 0.092854 -0.041267 375739.000000 0 0 1
34.720534 -26.615714 30.661786 53.423373 -0.654022 0.959488 0.103350 -0.047739 700710.000000 0 0 1
34.853134 -25.864614 29.503006 52.479963 -0.638428 0.973781 0.094438 -0.041198 -26108.700000 0 0 1
35.534634 -26.563914 28.231366 52.586707 -0.641931 1.004093 0.095043 -0.034747 -66716.500000 0 0 1
34.885734 -27.660214 27.618476 52.391622 -0.670385 1.015548 0.079723 -0.038588 158770.000000 0 0 1
33.640434 -27.332014 27.039036 51.086468 -0.682302 1.013045 0.092639 -0.034978 -229243.000000 0 0 1
33.003434 -28.447714 26.183776 50.833938 -0.711398 1.029690 0.087861 -0.022127 -271584.000000 0 0 1
31.754234 -28.007514 25.713786 49.537370 -0.722786 1.025024 0.087580 -0.014322 -109610.000000 0 0 1
31.096834 -28.905514 24.839886 49.189041 -0.748894 1.041428 0.070192 -0.007088 287920.000000 0 0 1
29.948134 -28.231814 24.043466 47.665651 -0.755907 1.042087 0.079672 -0.002507 -347210.000000 0 0 1
28.861434 -27.918314 24.823086 47.208053 -0.768790 1.017114 0.084017 -0.011229 -842248.000000 0 0 1
27.652934 -27.701614 24.139016 45.986479 -0.786278 1.018180 0.092655 -0.004025 65214.400000 0 0 1
26.438534 -27.722114 25.071436 45.783060 -0.809093 0.991287 0.091122 -0.008442 -426615.000000 0 0 1
26.484234 -26.604314 25.946356 45.633514 -0.787660 0.966016 0.081569 -0.013663 -113025.000000 0 0 1
25.443134 -26.628514 26.895186 45.604625 -0.808159 0.940051 0.082197 -0.020939 -66010.100000 0 0 1
25.255734 -25.383114 27.737986 45.294044 -0.787914 0.911706 0.074605 -0.020107 -23364.000000 0 0 1
24.021034 -25.486914 28.440446 45.115982 -0.814999 0.888747 0.072602 -0.015902 510211.000000 0 0 1
23.672934 -24.552614 29.443776 45.057459 -0.803637 0.858634 0.066723 -0.013908 -68087.200000 0 0 1
23.277534 -23.137414 29.032676 43.818715 -0.782379 0.846560 0.065038 -0.011064 -493986.000000 0 0 1
24.337634 -22.504414 28.359316 43.623616 -0.746282 0.863092 0.077241 -0.013288 -24354.800000 0 0 1
24.042634 -21.178514 27.953076 42.520021 -0.722147 0.853420 0.089470 -0.008041 -233603.000000 0 0 1
24.696634 -20.096714 28.786446 42.923899 -0.683065 0.835726 0.094713 -0.010055 -361516.000000 0 0 1
24.392734 -20.141714 30.121056 43.680340 -0.690232 0.809888 0.087939 -0.006514 47308.000000 0 0 1
25.126634 -19.137514 30.803426 44.118513 -0.650911 0.797920 0.087516 -0.006778 -173484.000000 0 0 1
24.565334 -18.717814 32.179075 44.601626 -0.651112 0.764862 0.105738 -0.005094 -42273.200000 0 0 1
24.501934 -19.759114 33.142950 45.708013 -0.678650 0.759615 0.070869 0.001672 216868.000000 0 0 1
24.041634 -19.194114 -32.979941 45.100894 -0.673746 2.390946 0.088387 -0.001602 -72507.900000 0 0 1
24.150434 -20.249914 -31.837371 44.798668 -0.697774 2.361256 0.050497 0.005584 -66535.000000 0 0 1
25.465534 -20.615614 -31.513561 45.459889 -0.680537 2.336739 0.022021 0.013534 -224838.000000 0 0 1
25.338334 -21.538514 -30.477251 45.108775 -0.704515 2.312628 0.027479 0.001535 35531.800000 0 0 1
26.627134 -21.824014 -29.683431 45.457650 -0.686588 2.282323 0.039033 0.010921 86770.100000 0 0 1
27.546834 -22.661314 -30.375651 46.851290 -0.688398 2.276201 0.024668 0.012107 -94602.300000 0 0 1
28.505634 -23.201514 -29.488541 47.121709 -0.683176 2.246947 0.043723 -0.000543 293228.000000 0 0 1
29.464534 -24.289014 -30.098511 48.621346 -0.689412 2.238315 0.046189 -0.008029 38898.400000 0 0 1
30.473934 -23.911814 -30.984031 49.602880 -0.665320 2.245469 0.047554 -0.011394 -267449.000000 0 0 1
30.003334 -23.663514 -32.289281 50.027588 -0.667810 2.272382 0.039691 -0.009970 -25488.400000 0 0 1
30.197334 -24.939914 -33.214001 51.352197 -0.690334 2.274162 0.046523 0.000936 290197.000000 0 0 1
29.197134 -25.941414 -33.043891 51.159831 -0.726420 2.272992 0.048228 -0.005301 200271.000000 0 0 1
29.508134 -27.124614 33.573156 52.284141 -0.743336 0.873524 0.062357 -0.020215 152623.000000 0 0 1
29.059734 -27.129614 32.045942 51.062966 -0.751061 0.892359 0.058985 -0.026936 5858.210000 0 0 1
29.884634 -26.328914 31.204096 50.596429 -0.722229 0.906221 0.059861 -0.035556 -109303.000000 0 0 1
29.385034 -26.033114 29.941916 49.373288 -0.724988 0.919221 0.061555 -0.045077 -527775.000000 0 0 1
30.422434 -25.428714 28.941276 49.089117 -0.696224 0.940275 0.073669 -0.040929 202355.000000 0 0 1
30.876034 -24.072314 29.076396 48.767228 -0.662205 0.932002 0.057507 -0.041374 601735.000000 0 0 1
31.501534 -23.666214 30.349816 49.734773 -0.644315 0.914441 0.061169 -0.029413 -937043.000000 0 0 1
32.094634 -22.267914 30.311216 49.443860 -0.606567 0.910890 0.065310 -0.024708 802280.000000 0 0 1
33.365734 -22.094714 29.648996 49.804734 -0.584902 0.933151 0.095962 -0.037812 1135770.000000 0 0 1
34.430434 -22.546014 30.491956 51.220474 -0.579762 0.933147 0.082890 -0.032188 554936.000000 0 0 1
35.857134 -21.936414 30.149946 51.729678 -0.549031 0.948581 0.077102 -0.035637 1223570.000000 0 0 1
36.569234 -22.525714 29.068226 51.862110 -0.552083 0.975818 0.092466 -0.042201 -494890.000000 0 0 1
37.690034 -21.790414 28.745286 52.169457 -0.524197 0.987236 0.077394 -0.037242 -566270.000000 0 0 1
-37.599189 -22.126114 27.359046 51.495449 0.531901 1.010673 0.081796 -0.031189 -141907.000000 0 0 1
-37.373289 -23.507014 27.197886 51.856219 0.561456 1.018684 0.083802 -0.026975 126034.000000 0 0 1
-36.954389 -23.795614 25.907426 51.020122 0.572088 1.038181 0.067689 -0.012386 -395339.000000 0 0 1
-36.704789 -25.263514 25.509956 51.344372 0.602823 1.050842 0.062539 -0.016650 412262.000000 0 0 1
-37.875089 -26.091914 25.682786 52.677470 0.603233 1.061517 0.079036 -0.013320 503914.000000 0 0 1
-37.780789 -27.459114 25.313026 53.123820 0.628488 1.074137 0.067511 -0.010710 -530797.000000 0 0 1
-36.969489 -28.226514 26.307176 53.437316 0.652091 1.056066 0.068356 -0.023256 -1679330.000000 0 0 1
-36.647789 -29.510714 25.820626 53.671663 0.677935 1.068905 0.068817 -0.017709 15051.300000 0 0 1
-35.505489 -30.108114 26.386166 53.510448 0.703323 1.055143 0.068519 -0.029707 -272939.000000 0 0 1
-34.196689 -29.387214 26.113636 52.105123 0.709902 1.045844 0.060054 -0.027513 -1806580.000000 0 0 1
-33.672389 -29.438114 24.783996 51.133930 0.718406 1.064790 0.057656 -0.026664 569227.000000 0 0 1
-32.335589 -28.976014 24.633466 49.920009 0.730658 1.054734 0.035245 -0.019245 260015.000000 0 0 1
-31.886189 -29.019014 23.148446 48.935496 0.738357 1.078058 0.036052 -0.012967 -456100.000000 0 0 1
-31.588689 -30.306314 22.672876 49.298856 0.764683 1.092906 0.050623 -0.014045 488477.000000 0 0 1
-31.151589 -30.302514 21.334966 48.413269 0.771583 1.114436 0.045613 -0.008010 -690628.000000 0 0 1
-31.083989 -31.734314 20.761066 49.033691 0.795750 1.133597 0.069781 -0.007990 346931.000000 0 0 1
-30.023089 -32.629214 21.115466 49.111245 0.826971 1.126357 0.076995 -0.024223 864107.000000 0 0 1
-28.734789 -32.294014 20.588966 47.880027 0.843653 1.126291 0.088289 -0.020547 958781.000000 0 0 1
-27.688989 -33.462414 20.844966 48.175988 0.879531 1.123329 0.099171 -0.013018 332463.000000 0 0 1
-27.726289 33.098000 19.872466 47.530407 -0.873485 1.139444 0.092469 -0.015380 296714.000000 0 0 1
-28.884789 32.245000 19.914966 47.651620 -0.840311 1.139632 0.108878 -0.016595 538765.000000 0 0 1
-28.923389 31.138900 21.013966 47.410761 -0.822268 1.111595 0.105338 -0.020571 -282041.000000 0 0 1
-28.146889 30.055500 20.592566 46.039485 -0.818179 1.107074 0.096616 -0.019472 -24273.700000 0 0 1
-27.971089 28.971500 21.553866 45.676019 -0.802965 1.079368 0.096120 -0.023444 -291942.000000 0 0 1
-27.135389 27.817600 21.018166 44.180442 -0.797812 1.074997 0.092837 -0.017661 -391180.000000 0 0 1
-25.773889 28.138100 21.036366 43.572637 -0.829223 1.066960 0.086666 -0.013956 -578286.000000 0 0 1
-24.919389 27.139700 20.568166 42.197022 -0.828022 1.061650 0.082498 -0.012439 -1240860.000000 0 0 1
-23.488089 27.580900 20.524866 41.637321 -0.865370 1.055326 0.059546 -0.003903 -1150490.000000 0 0 1
-22.958489 27.679400 21.853666 42.081161 -0.878358 1.024739 0.069705 -0.007454 794513.000000 0 0 1
-21.724789 28.391500 21.967166 41.959505 -0.917647 1.019805 0.089691 -0.008105 450361.000000 0 0 1
-21.195689 28.409700 23.420416 42.483928 -0.929814 0.986902 0.086740 -0.008554 -476488.000000 0 0 1
-20.943289 27.126800 23.959766 41.815727 -0.913331 0.960653 0.096451 -0.021252 397681.000000 0 0 1
-20.610389 27.154700 25.357076 42.487023 -0.921561 0.931265 0.098440 -0.021326 292882.000000 0 0 1
-19.115589 27.467500 25.660146 42.170041 -0.962804 0.916637 0.112603 -0.022663 -278888.000000 0 0 1
-18.897589 28.846400 25.517366 42.899529 -0.990837 0.933758 0.090137 -0.019537 1605780.000000 0 0 1
-17.566889 29.376900 25.873056 42.907026 -1.031861 0.923536 0.084335 -0.012942 1572250.000000 0 0 1
-17.253089 29.466600 27.382016 43.768989 -1.041097 0.894892 0.073275 -0.008525 -287710.000000 0 0 1
-17.058289 28.235300 28.073776 43.316905 -1.027333 0.865707 0.079031 -0.013499 -321269.000000 0 0 1
-17.564089 28.293900 29.357456 44.394844 -1.015242 0.848272 0.072228 -0.004500 -297644.000000 0 0 1
-17.290089 27.084400 30.248706 44.130444 -1.002635 0.815591 0.067928 -0.008819 883476.000000 0 0 1
-15.905089 26.981100 30.646876 43.819888 -1.038141 0.796263 0.073534 -0.000716 1063940.000000 0 0 1
-15.649589 25.977700 31.676674 43.853873 -1.028596 0.763640 0.088682 -0.004140 -52141.300000 0 0 1
-16.296189 26.298100 33.059291 45.277727 -1.016038 0.752263 0.084786 -0.004247 1340470.000000 0 0 1
-17.714889 26.068700 33.240916 45.807782 -0.973930 0.758802 0.079252 -0.009422 956134.000000 0 0 1
-18.119689 26.710000 -32.891831 46.082749 -0.974724 2.365642 0.081936 -0.007695 340914.000000 0 0 1
-19.473489 26.165900 -32.361161 45.946880 -0.930997 2.352257 0.060821 -0.007277 41607.400000 0 0 1
-20.553889 26.369200 -33.229201 47.137849 -0.908702 2.353130 0.061822 -0.011014 -26901.700000 0 0 1
-21.724089 25.806800 -32.638031 46.937917 -0.871084 2.339696 0.083320 -0.017998 339397.000000 0 0 1
-22.985989 25.775400 -33.535071 48.138632 -0.842541 2.341493 0.104537 -0.033440 -430064.000000 0 0 1
-22.972089 24.872900 32.652720 47.038050 -0.825106 0.803521 0.113309 -0.030634 -135377.000000 0 0 1
-23.011789 23.474900 32.965218 46.554473 -0.795360 0.783993 0.102370 -0.035678 -81152.100000 0 0 1
-23.416689 22.620800 31.685229 45.431219 -0.768112 0.798987 0.106508 -0.036915 413917.000000 0 0 1
-24.790589 22.822700 31.390697 46.052413 -0.744091 0.820809 0.114780 -0.038644 -56708.200000 0 0 1
-25.048189 22.415400 30.064456 45.096934 -0.729985 0.841074 0.127179 -0.031867 -380503.000000 0 0 1
-26.490289 22.173500 29.633256 45.514057 -0.696923 0.861791 0.111236 -0.030165 -285915.000000 0 0 1
-26.996589 20.961600 30.136586 45.567733 -0.660218 0.848168 0.118107 -0.036650 495994.000000 0 0 1
-28.236489 20.602400 29.498676 45.737622 -0.630341 0.869833 0.106891 -0.036780 526959.000000 0 0 1
-28.731889 19.214700 29.980716 45.755540 -0.589450 0.856300 0.129368 -0.037855 -419461.000000 0 0 1
-29.349789 19.286500 31.235068 47.000092 -0.581368 0.843872 0.123274 -0.034983 -12517.900000 0 0 1
-29.587889 18.108400 31.982439 47.182981 -0.549211 0.825978 0.105020 -0.029061 -359732.000000 0 0 1
-30.529689 17.031400 31.437454 47.015359 -0.508860 0.838386 0.079446 -0.024994 -395772.000000 0 0 1
-31.891589 17.401200 31.434884 48.041931 -0.499487 0.857511 0.076018 -0.028326 -383433.000000 0 0 1
-32.610289 16.381300 30.844386 47.782361 -0.465514 0.869095 0.085258 -0.015242 -212182.000000 0 0 1
-34.147089 16.573300 30.852336 48.913848 -0.451859 0.888279 0.079984 -0.022668 -142357.000000 0 0 1
-34.706789 16.392800 32.092660 50.032229 -0.441262 0.874423 0.078416 -0.020292 160042.000000 0 0 1
-36.113389 16.532000 32.100672 51.067965 -0.429305 0.891061 0.098950 -0.021190 35062.800000 0 0 1
-36.765989 16.466600 33.509086 52.399863 -0.421086 0.876964 0.088990 -0.028528 -609111.000000 0 0 1
37.779034 16.955200 33.461436 53.239101 0.421855 0.891157 0.078738 -0.026193 -769407.000000 0 0 1
37.462234 17.674600 -32.716831 52.784481 0.440832 2.239309 0.079648 -0.023725 606496.000000 0 0 1
35.907134 17.858700 -32.708861 51.750604 0.461532 2.254989 0.075443 -0.029076 553565.000000 0 0 1
35.264234 16.674800 -32.325661 50.661262 0.441695 2.262791 0.085341 -0.026950 600515.000000 0 0 1
33.932934 16.848900 -31.819281 49.475207 0.460872 2.269383 0.089133 -0.034963 918901.000000 0 0 1
32.982634 15.625700 -31.921131 48.486856 0.442432 2.289416 0.101426 -0.026594 121366.000000 0 0 1
32.417934 15.324100 -33.171641 48.847807 0.441574 2.317307 0.109068 -0.029601 159111.000000 0 0 1
31.619334 14.136700 -33.191741 47.972078 0.420432 2.334910 0.106694 -0.032630 286417.000000 0 0 1
32.378234 12.780200 -33.442371 48.270858 0.375943 2.336170 0.113366 -0.026297 -84107.700000 0 0 1
33.030434 12.335700 -32.316401 47.828118 0.357424 2.312680 0.110618 -0.026295 -20689.600000 0 0 1
33.907834 11.257700 -32.643541 48.395018 0.320558 2.311114 0.119185 -0.029340 263470.000000 0 0 1
18.446134 -20.705800 9.623429 29.353030 -0.843050 1.236768 0.072814 -0.031310 52509.600000 0 0 1
18.367734 -21.816500 10.498829 30.390109 -0.871012 1.218058 0.061533 -0.025747 485174.000000 0 0 1
19.616634 -22.496900 10.610829 31.678266 -0.853685 1.229238 0.060070 -0.023611 270413.000000 0 0 1
19.380434 -23.826500 11.383529 32.754970 -0.887939 1.215854 0.064794 -0.025506 230893.000000 0 0 1
18.606834 -24.729200 10.609429 32.715556 -0.925746 1.240532 0.056327 -0.029057 136555.000000 0 0 1
17.250834 -24.851700 10.980429 32.183351 -0.964007 1.222621 0.054438 -0.020041 90631.000000 0 0 1
16.386434 -25.734140 10.024629 32.113149 -1.003786 1.253324 0.077230 -0.029778 28910.200000 0 0 1
16.149834 -25.252060 8.760929 31.228793 -1.001806 1.286440 0.071691 -0.032161 50732.800000 0 0 1
15.416134 -26.153370 7.965529 31.386392 -1.038169 1.314201 0.088010 -0.027759 -68178.700000 0 0 1
15.152434 -25.553400 6.557229 30.423178 -1.035561 1.353558 0.090185 -0.021997 209575.000000 0 0 1
14.286034 -24.403500 6.622029 29.042604 -1.041174 1.340762 0.101635 -0.028027 439598.000000 0 0 1
13.706534 -24.009900 5.378829 28.165159 -1.052071 1.378641 0.118904 -0.026366 418444.000000 0 0 1
12.869034 -22.706800 5.607029 26.695497 -1.055186 1.359184 0.153545 -0.040491 273053.000000 0 0 1
12.135434 -22.247600 4.456029 25.730928 -1.071436 1.396741 0.150213 -0.040977 123386.000000 0 0 1
11.542134 -20.991300 4.814829 24.434363 -1.068066 1.372447 0.163474 -0.043971 476509.000000 0 1 0
10.616434 -20.446400 3.684429 23.331073 -1.091881 1.412213 0.140193 -0.043809 620.602000 0 1 0
11.374234 -19.792300 2.715729 22.988769 -1.049203 1.452387 0.128630 -0.040756 7676.010000 0 1 0
10.605434 -19.219900 1.638829 22.012849 -1.066576 1.496279 0.086325 -0.030108 206113.000000 0 1 0
11.505934 -18.870600 0.448829 22.106277 -1.023255 1.550492 0.084342 -0.019105 -264242.000000 0 1 0
12.346534 -17.854300 0.851729 21.724142 -0.965787 1.531580 0.084336 -0.016526 -183405.000000 0 1 0
13.122634 -17.334000 -0.256871 21.742517 -0.922801 1.582611 0.096744 -0.021369 645981.000000 0 1 0
14.315834 -16.408300 0.158929 21.776149 -0.853398 1.563498 0.077546 -0.006996 -92891.900000 0 1 0
15.397934 -17.094100 0.673829 23.016487 -0.837553 1.541516 0.086380 -0.018962 -846663.000000 0 1 0
16.552234 -16.284300 0.685929 23.229838 -0.777239 1.541264 0.077580 -0.024041 -386934.000000 0 1 0
17.669734 -16.991500 1.430829 24.555607 -0.765833 1.512494 0.063984 -0.016429 -511596.000000 0 1 0
18.061934 -18.212600 0.842529 25.664024 -0.789552 1.537961 0.063282 -0.016672 257418.000000 0 0 1
19.308734 -18.688500 1.329529 26.904551 -0.769076 1.521360 0.056496 -0.014911 327592.000000 0 0 1
19.740634 -20.041100 0.775729 28.141430 -0.792951 1.543227 0.030683 -0.010708 -430943.000000 0 0 1
18.943634 -21.056700 1.216329 28.350050 -0.838175 1.527879 0.048259 -0.010295 -499937.000000 0 0 1
19.089834 -22.181200 0.378429 29.267227 -0.860163 1.557866 0.045430 -0.010349 -182007.000000 0 0 1
18.129334 -23.321700 0.656829 29.546672 -0.910014 1.548564 0.058185 -0.014608 -96003.000000 0 0 1
18.448634 -23.880000 1.906729 30.236437 -0.913015 1.507694 0.040497 -0.005642 248484.000000 0 0 1
17.451334 -24.826300 2.284129 30.432080 -0.958102 1.495669 0.054139 -0.007086 -327456.000000 0 0 1
17.656534 -25.532710 3.636129 31.255302 -0.965780 1.454196 0.049121 -0.012159 475044.000000 0 0 1
18.641734 -26.567360 3.702929 32.665739 -0.958945 1.457194 0.026087 -0.005921 1520910.000000 0 0 1
20.030434 -26.139930 3.644629 33.133028 -0.916959 1.460573 0.029905 0.001750 492828.000000 0 0 1
21.008834 -27.289650 3.761929 34.644598 -0.914714 1.461995 0.038671 -0.001447 -399413.000000 0 0 1
20.945534 -28.112050 2.614229 35.154472 -0.930456 1.496364 0.028146 0.003806 34385.500000 0 0 1
21.860834 -29.191010 2.648029 36.565327 -0.928006 1.498314 0.066209 0.003645 238095.000000 0 0 1
21.196434 -30.533190 3.041229 37.293613 -0.963967 1.489157 0.064203 -0.001661 -174994.000000 0 0 1
21.418334 -30.733890 4.385429 37.716694 -0.962156 1.454260 0.087303 -0.002399 -132870.000000 0 0 1
20.730434 -31.898130 4.740529 38.336852 -0.994495 1.446824 0.070731 -0.019527 -55516.400000 0 0 1
20.522934 -32.137480 6.223329 38.635971 -1.002478 1.409015 0.083334 -0.032127 1084400.000000 0 0 1
21.770334 -32.621860 6.770429 39.799144 -0.982318 1.399850 0.074954 -0.049874 1091010.000000 0 0 1
21.443634 -33.541150 7.818229 40.570468 -1.001963 1.376876 0.066594 -0.045018 368343.000000 0 0 1
22.671334 33.361676 8.401929 41.201738 0.973919 1.365434 0.084582 -0.049439 157444.000000 0 0 1
23.647834 -33.487410 9.011929 41.974296 -0.955941 1.354410 0.088682 -0.049479 -323681.000000 0 0 1
24.727334 33.373839 9.444629 42.596422 0.933132 1.347215 0.123943 -0.050484 -994642.000000 0 0 1
25.730334 -33.483350 10.194929 43.441010 -0.915590 1.333902 0.117710 -0.043325 -1012820.000000 0 0 1
26.450934 -32.541840 9.465129 42.990835 -0.888282 1.348811 0.092516 -0.030954 68101.500000 0 0 1
27.430134 -31.838710 10.225229 43.251254 -0.859644 1.332122 0.086608 -0.025556 171618.000000 0 0 1
28.087834 -30.761900 9.396629 42.702664 -0.830806 1.348933 0.078832 -0.022891 44461.800000 0 0 1
27.192334 -29.711190 9.006229 41.270934 -0.829635 1.350804 0.064580 -0.026902 280987.000000 0 0 1
27.767134 -28.868770 8.007629 40.847787 -0.804847 1.373483 0.068325 -0.026842 -134546.000000 0 0 1
27.216834 -27.447720 7.954429 39.463988 -0.789622 1.367844 0.061526 -0.028327 -225374.000000 0 0 1
27.586034 -26.729520 9.161929 39.489207 -0.769630 1.336652 0.050488 -0.035138 128195.000000 0 0 1
27.101434 -25.403350 9.044429 38.231134 -0.753068 1.331960 0.058326 -0.034766 90562.000000 0 0 1
27.880734 -24.473400 10.040829 38.433070 -0.720407 1.306474 0.076059 -0.054278 905670.000000 0 0 1
29.254534 -24.375500 9.626729 39.276796 -0.694672 1.323174 0.091455 -0.041137 113632.000000 0 0 1
29.897734 -23.665700 10.643729 39.588241 -0.669570 1.298586 0.078347 -0.045209 -577427.000000 0 0 1
31.334934 -23.257800 10.326429 40.366304 -0.638511 1.312103 0.083720 -0.047650 -225153.000000 0 0 1
31.432634 -22.466000 9.168529 39.708860 -0.620547 1.337800 0.093041 -0.041921 -435805.000000 0 0 1
32.770934 -22.427200 8.754529 40.663930 -0.600154 1.353808 0.091772 -0.040542 9963.910000 0 0 1
32.809134 -21.706200 7.378929 40.025579 -0.584480 1.385380 0.076396 -0.012145 -49588.700000 0 0 1
32.383134 -20.367000 7.431329 38.970588 -0.561426 1.378931 0.071731 -0.002632 10376.900000 0 0 1
32.628534 -19.669800 6.217629 38.602865 -0.542505 1.409025 0.059419 -0.004298 13596.900000 0 0 1
32.244234 -18.178500 6.419729 37.568090 -0.513358 1.399071 0.077049 -0.002352 522603.000000 0 0 1
33.191234 -17.496200 7.301229 38.224115 -0.485118 1.378604 0.079423 -0.001252 800299.000000 0 0 1
32.657734 -16.252700 7.654229 37.272846 -0.461780 1.363968 0.088624 -0.012391 -127552.000000 0 0 1
33.332334 -15.544000 8.841129 37.826261 -0.436354 1.334884 0.086554 -0.035437 -290134.000000 0 0 1
34.678934 -15.167400 8.644529 38.825332 -0.412298 1.346263 0.089335 -0.033069 -152021.000000 0 0 1
35.153934 -14.596700 9.828029 39.312248 -0.393560 1.318117 0.082741 -0.048370 -792864.000000 0 0 1
36.651434 -14.408300 9.877529 40.601629 -0.374559 1.325051 0.081931 -0.051288 -742418.000000 0 0 1
37.303834 -13.456200 9.042829 40.674539 -0.346192 1.346601 0.130814 -0.043328 -47695.600000 0 0 1
-37.217089 -13.861400 8.808629 40.679750 0.356531 1.352531 0.131856 -0.043995 -7493.770000 0 0 1
-36.457989 -12.905000 7.875129 39.468236 0.340206 1.369917 0.158016 -0.059654 -167364.000000 0 0 1
-36.971989 -12.849100 6.514429 39.679530 0.334478 1.405874 0.198748 -0.073259 183648.000000 0 0 1
-36.176789 -12.098100 5.594929 38.554212 0.322725 1.425164 0.232804 -0.059841 314392.000000 0 0 1
-34.992289 -12.890600 4.962229 37.619829 0.352958 1.438506 0.246943 -0.059248 -326456.000000 0 0 1
-34.022189 -13.264000 5.832829 36.979250 0.371737 1.412402 0.208036 -0.055847 -1383490.000000 0 0 1
-33.037789 -14.105700 5.369329 36.322114 0.403527 1.422427 0.212124 -0.034906 -50330.500000 0 0 1
-32.243889 -14.801600 6.521329 36.073307 0.430355 1.389017 0.156452 -0.021284 239506.000000 0 0 1
-33.114089 -15.561400 7.306729 37.310700 0.439306 1.373688 0.117238 -0.029722 -49409.900000 0 0 1
-32.457389 -15.964000 8.473529 37.150129 0.457102 1.340682 0.110655 -0.029892 -129042.000000 0 0 1
-33.406189 -16.647500 9.427829 38.496710 0.462315 1.323380 0.063420 -0.017615 -1427600.000000 0 0 1
-34.501689 -15.881300 9.857329 39.239637 0.431390 1.316868 0.065001 -0.019650 707051.000000 0 0 1
-35.487089 -16.544100 10.677929 40.583973 0.436244 1.304555 0.068856 -0.017977 439581.000000 0 0 1
-36.093789 -17.848100 10.126929 41.519525 0.459232 1.324403 0.071742 -0.021574 -1196200.000000 0 0 1
-35.269989 -19.037200 10.112229 41.335750 0.494945 1.323652 0.097556 -0.021688 -222220.000000 0 0 1
-35.115189 -19.701000 11.357429 41.835357 0.511279 1.295867 0.090723 -0.034143 -26647.500000 0 0 1
-36.273789 -20.429600 12.097529 43.353276 0.512925 1.287997 0.090813 -0.039201 -9160.790000 0 0 1
-36.562189 -21.659300 11.513129 44.028071 0.534810 1.306225 0.108923 -0.038236 488548.000000 0 0 1
37.890634 -21.978500 11.527829 45.295093 -0.525622 1.313460 0.113980 -0.044593 702364.000000 0 0 1
37.742434 -23.487400 11.350129 45.880003 -0.556661 1.320814 0.121749 -0.047467 -220650.000000 0 0 1
-37.561689 -24.176700 12.517029 46.390401 0.571901 1.297591 0.117387 -0.045168 640036.000000 0 0 1
37.873234 -25.584290 12.559229 47.399072 -0.594110 1.302626 0.127049 -0.044995 -63808.900000 0 0 1
36.449134 -25.793000 13.093729 46.532397 -0.615838 1.285554 0.138994 -0.059092 72498.600000 0 0 1
35.357334 -25.341160 12.265629 45.196915 -0.621857 1.295968 0.127980 -0.054727 1347600.000000 0 0 1
34.114434 -25.181060 12.969729 44.340661 -0.635864 1.273954 0.134326 -0.028051 723712.000000 0 0 1
33.999134 -23.776000 13.553829 43.645682 -0.610264 1.255033 0.129163 -0.037345 -1250230.000000 0 0 1
34.907434 -23.432300 14.511829 44.476902 -0.591182 1.238433 0.130638 -0.042833 -705533.000000 0 0 1
35.034334 -22.052800 14.706629 43.931942 -0.561802 1.229446 0.121027 -0.043550 475237.000000 0 0 1
36.358934 -21.636400 15.435829 45.037437 -0.536792 1.220971 0.095049 -0.034643 320233.000000 0 0 1
36.444934 -20.346200 16.036329 44.714259 -0.509172 1.203986 0.102188 -0.017259 38187.000000 0 0 1
35.609434 -20.152000 17.164829 44.370782 -0.514982 1.173583 0.117809 -0.028118 11721.700000 0 0 1
35.695534 -18.753400 17.765629 44.062214 -0.483738 1.155792 0.111639 -0.016243 -511293.000000 0 0 1
35.379934 -17.752900 16.842029 43.018126 -0.465070 1.168524 0.074463 -0.023112 121614.000000 0 0 1
35.466334 -16.433000 17.308229 42.749025 -0.433893 1.153949 0.065756 -0.023279 942035.000000 0 0 1
36.897234 -15.861600 17.702629 43.890538 -0.406002 1.155637 0.050009 -0.026136 562873.000000 0 0 1
37.378234 -16.158000 18.955629 44.916915 -0.408024 1.135129 0.075581 -0.013715 -273092.000000 0 0 1
-37.472189 -15.247000 19.304629 44.825268 0.386431 1.125568 0.067702 -0.020631 -526856.000000 0 0 1
-37.001889 -15.250000 20.762929 45.086600 0.390929 1.092224 0.063440 -0.015685 -186969.000000 0 0 1
-36.100789 -16.299500 21.065629 44.863140 0.424100 1.082012 0.070489 -0.007161 30353.000000 0 0 1
-35.728989 -16.178900 22.402329 45.168372 0.425199 1.051840 0.062506 -0.014751 -122475.000000 0 0 1
-34.645289 -17.238700 22.697229 44.862379 0.461707 1.040336 0.066417 -0.004853 -874058.000000 0 0 1
-35.099989 -18.583900 22.751429 45.771149 0.486934 1.050578 0.067906 -0.006453 79390.200000 0 0 1
-34.155389 -19.453500 23.304029 45.695810 0.517735 1.035633 0.046778 0.004556 -47492.900000 0 0 1
-32.967589 -19.864800 22.380929 44.523906 0.542296 1.044109 0.035970 0.012026 203160.000000 0 0 1
-31.912989 -18.937700 22.299729 43.293801 0.535565 1.029696 0.050586 0.020723 230776.000000 0 0 1
-30.683989 -19.539300 21.928629 42.475360 0.567034 1.028310 0.045032 0.018178 298634.000000 0 0 1
-29.430689 -18.649300 21.951029 41.180208 0.564809 1.008597 0.058849 0.018761 13275.600000 0 0 1
-29.124289 -18.267500 23.286929 41.523569 0.560198 0.975430 0.041967 0.009646 257784.000000 0 0 1
-27.843789 -17.668000 23.376929 40.421722 0.565430 0.954121 0.063135 0.000041 124444.000000 0 0 1
-27.665289 -17.007800 24.777929 40.848246 0.551209 0.919038 0.064319 -0.015078 -360945.000000 0 0 1
-26.467289 -16.269400 24.866229 39.793719 0.551157 0.895821 0.076503 -0.024081 -63316.900000 0 0 1
-26.121589 -15.897500 26.157929 40.240591 0.546716 0.863161 0.079833 -0.031428 -86100.700000 0 0 1
-25.001289 -16.777100 26.744629 40.271711 0.591031 0.844501 0.061364 -0.020866 -546902.000000 0 0 1
-25.314589 -18.123800 26.988129 41.202665 0.621346 0.856601 0.062056 -0.012431 -339709.000000 0 0 1
-24.415389 -18.768100 27.858629 41.526570 0.655362 0.835425 0.059754 -0.011719 -881225.000000 0 0 1
-24.953189 -20.139600 28.365329 42.811879 0.679052 0.846568 0.054713 -0.004405 737781.000000 0 0 1
-26.135789 -19.938600 29.196029 43.966298 0.651697 0.844567 0.045819 -0.006493 1313270.000000 0 0 1
-26.716389 -21.192400 29.657329 45.193367 0.670603 0.854982 0.035693 -0.005025 -561255.000000 0 0 1
-27.882089 -20.882100 30.567029 46.344538 0.642824 0.850562 0.044096 -0.008673 -1532350.000000 0 0 1
-27.536189 -20.385500 31.866729 46.789943 0.637275 0.821588 0.055479 -0.011208 94134.700000 0 0 1
-28.526489 -20.324300 32.865529 48.031039 0.619047 0.817213 0.069779 -0.015509 -247402.000000 0 0 1
-29.787589 -19.505600 32.593429 48.271115 0.579758 0.829539 0.055277 -0.023656 -539978.000000 0 0 1
-30.786289 -19.931900 31.700629 48.476861 0.574565 0.858025 0.061084 -0.026535 347404.000000 0 0 1
-31.860189 -18.999200 31.650129 48.762403 0.537717 0.864437 0.081577 -0.031626 -112075.000000 0 0 1
-33.021889 -19.558300 30.818929 49.221729 0.534726 0.894223 0.068510 -0.007990 -607958.000000 0 0 1
-32.984289 -19.334800 29.429429 48.248203 0.530197 0.914787 0.060341 -0.026371 560975.000000 0 0 1
-34.218289 -19.776700 28.878429 48.948675 0.524054 0.939770 0.058628 -0.026841 297953.000000 0 0 1
-34.606389 -18.935500 27.630329 48.162126 0.500666 0.959787 0.049076 -0.019867 275501.000000 0 0 1
-35.877089 -19.284300 27.086029 48.915260 0.493204 0.983955 0.036225 -0.019853 326906.000000 0 0 1
-36.384189 -18.230900 26.345029 48.479227 0.464500 0.996280 0.067300 -0.016485 52111.200000 0 0 1
-37.571689 -18.676100 25.446529 49.070911 0.461308 1.025623 0.057254 -0.023583 324115.000000 0 0 1
37.091634 -19.078400 26.116629 49.212325 -0.475068 1.011379 0.062991 -0.026403 -439410.000000 0 0 1
36.184034 -19.477200 25.163529 48.185567 -0.493802 1.021343 0.097583 -0.022968 -1506670.000000 0 0 1
35.028634 -20.213800 25.777629 47.959244 -0.523385 1.003338 0.101260 -0.032092 -1017890.000000 0 0 1
34.148534 -19.287800 26.388329 47.270345 -0.514151 0.978530 0.103339 -0.044682 -650883.000000 0 0 1
33.201334 -20.051600 27.028729 47.275231 -0.543311 0.962182 0.101900 -0.042896 -724782.000000 0 0 1
-30.463336 -5.253500 33.170637 45.342091 0.170773 0.750183 0.078549 -0.019465 -363062.000000 0 0 1
-31.570956 -5.035400 32.353603 45.484460 0.158163 0.779435 0.087817 -0.009103 -43930.600000 0 0 1
-31.359716 -3.886600 31.477720 44.602514 0.123307 0.787331 0.092602 -0.010664 135604.000000 0 0 1
-32.389416 -3.792000 30.325226 44.531706 0.116545 0.821696 0.091143 -0.006862 209984.000000 0 0 1
-32.192766 -4.818600 29.337486 43.821013 0.148577 0.837282 0.076570 -0.004489 -630256.000000 0 0 1
-30.980386 -4.799900 28.668666 42.481946 0.153711 0.830044 0.085732 -0.012405 -613022.000000 0 0 1
-30.788226 -5.831600 27.542346 41.719339 0.187192 0.849736 0.095400 -0.013693 251360.000000 0 0 1
-31.474306 -5.655500 26.278026 41.390231 0.177789 0.882937 0.072371 -0.015093 63332.600000 0 0 1
-30.996956 -6.586400 25.344106 40.577280 0.209371 0.896192 0.079466 -0.018080 -63709.300000 0 0 1
-31.655596 -6.341000 24.009316 40.233472 0.197696 0.931352 0.084167 -0.021964 -249109.000000 0 0 1
-31.142606 -5.267100 23.254216 39.221968 0.167543 0.936156 0.101515 -0.021686 -92210.500000 0 0 1
-31.827586 -5.004700 22.062766 39.048788 0.155967 0.970357 0.096177 -0.023465 142935.000000 0 0 1
-31.167376 -3.719000 21.444766 38.014659 0.118762 0.971431 0.104398 -0.026677 397115.000000 0 0 1
-29.797756 -3.882600 21.148566 36.745648 0.129568 0.957533 0.129261 -0.022960 -178720.000000 0 0 1
-29.309186 -2.639700 20.698666 35.978204 0.089822 0.957812 0.138719 -0.023045 1439260.000000 0 0 1
-27.760906 -2.622200 20.310266 34.497112 0.094177 0.941282 0.137262 -0.025938 1295860.000000 0 0 1
-27.629636 -3.254800 19.079666 33.734614 0.117261 0.969658 0.152689 -0.025338 621609.000000 0 0 1
-26.401126 -2.872500 18.432666 32.326984 0.108376 0.964054 0.134681 -0.025845 402508.000000 0 0 1
-26.191776 -3.750600 17.153566 31.532855 0.142231 0.995611 0.142002 -0.024435 -341241.000000 0 0 1
-27.158686 -3.465700 16.199266 31.812285 0.126923 1.036525 0.142514 -0.017974 -216091.000000 0 0 1
-26.717976 -3.800300 14.903366 30.828604 0.141290 1.066231 0.156649 -0.025431 -240739.000000 0 0 1
-27.873446 -3.793400 13.906366 31.380024 0.135263 1.111676 0.174606 -0.025503 -138728.000000 0 0 1
-28.433336 -2.529200 13.593566 31.617028 0.088718 1.126365 0.172217 -0.029736 371965.000000 0 0 1
-29.674566 -2.736100 12.927566 32.483658 0.091944 1.161492 0.172208 -0.028172 385114.000000 0 0 1
-30.082056 -1.530700 12.038566 32.437636 0.050840 1.190571 0.175431 -0.025720 -23495.800000 0 0 1
-29.183106 -1.402400 10.953166 31.202440 0.048018 1.212120 0.209415 -0.036023 233957.000000 0 0 1
-29.467006 -0.257500 10.088266 31.147132 0.008738 1.240957 0.204521 -0.025333 601550.000000 0 0 1
-30.879726 -0.163000 9.396866 32.278245 0.005278 1.275398 0.205598 -0.024017 719906.000000 0 0 1
-31.075536 -1.049500 8.353166 32.195741 0.033760 1.308344 0.221360 -0.039683 -596506.000000 0 0 1
-32.403606 -1.104300 7.937166 33.379811 0.034066 1.330713 0.205776 -0.048180 -550041.000000 0 0 1
-32.657836 -2.135900 6.781866 33.422897 0.065309 1.366467 0.246524 -0.054884 -194809.000000 0 0 1
-32.214596 -1.631000 5.516266 32.724143 0.050586 1.401419 0.269938 -0.066675 499588.000000 0 0 1
-33.068226 -0.718600 4.814366 33.424573 0.021727 1.426257 0.232295 -0.056658 12255.600000 0 0 1
-32.565176 -0.391000 3.400466 32.744568 0.012006 1.466761 0.246840 -0.047528 -18302.300000 0 0 1
-32.691796 -1.495900 2.563566 32.826256 0.045726 1.492622 0.228206 -0.066409 273531.000000 0 0 1
-32.132946 -1.202800 1.307966 32.182040 0.037415 1.530142 0.228912 -0.062245 -300375.000000 0 0 1
-32.806036 -2.010200 0.216066 32.868276 0.061199 1.564223 0.205116 -0.057157 567191.000000 0 0 1
-34.170187 -1.613500 0.050966 34.208298 0.047184 1.569306 0.229836 -0.049019 662856.000000 0 0 1
-34.816894 -2.301000 -1.023834 34.907864 0.065993 1.600130 0.245132 -0.062658 1463240.000000 0 0 1
-36.376506 -1.968300 -1.079534 36.445710 0.054056 1.600421 0.230571 -0.046615 955470.000000 0 0 1
-37.097896 -2.457700 0.013266 37.179219 0.066152 1.570440 0.240112 -0.051528 -198585.000000 0 0 1
37.413247 -2.050700 -0.153434 37.469720 -0.054757 1.574891 0.190727 -0.035455 -268575.000000 0 0 1
36.299737 -2.972700 0.349366 36.422931 -0.081711 1.561204 0.206337 -0.043535 -273674.000000 0 0 1
36.275227 -3.013200 1.780466 36.443676 -0.082875 1.521922 0.199792 -0.047095 141547.000000 0 0 1
35.473657 -4.055100 2.309366 35.779286 -0.113819 1.506207 0.199662 -0.044631 -176508.000000 0 0 1
35.588177 -4.383500 3.790866 36.056956 -0.122556 1.465466 0.180420 -0.041342 263297.000000 0 0 1
34.943987 -3.402100 4.616966 35.411479 -0.097053 1.440044 0.163945 -0.039168 285021.000000 0 0 1
35.003547 -3.811500 5.949866 35.709617 -0.108462 1.403398 0.142750 -0.049751 50057.000000 0 0 1
34.374767 -2.713900 6.874566 35.160340 -0.078787 1.374008 0.131900 -0.038837 -498992.000000 0 0 1
33.019107 -2.487100 6.653566 33.774502 -0.075181 1.372500 0.162378 -0.038985 -716856.000000 0 0 1
32.681487 -1.397600 7.423866 33.543206 -0.042738 1.347626 0.164851 -0.035966 -175535.000000 0 0 1
31.163597 -1.204100 7.610066 32.101911 -0.038619 1.331458 0.160895 -0.036385 -670746.000000 0 0 1
30.439357 -0.758100 6.471866 31.128993 -0.024900 1.361364 0.213102 -0.041454 584681.000000 0 0 1
29.047757 -0.851400 6.754766 29.834944 -0.029302 1.342412 0.192857 -0.030872 473520.000000 0 0 1
28.268157 -2.200500 6.769466 29.150584 -0.077687 1.336433 0.260478 -0.051006 -609459.000000 0 0 1
28.541957 -3.135600 7.799566 29.754134 -0.109421 1.305564 0.198690 -0.051702 588561.000000 0 0 1
27.709957 -4.292300 7.621366 29.057714 -0.153680 1.305408 0.231596 -0.066004 234779.000000 0 0 1
27.995457 -5.384500 8.727666 29.814604 -0.190014 1.273714 0.192503 -0.044128 399320.000000 0 0 1
27.170857 -5.167900 9.903066 29.377429 -0.187955 1.226964 0.183267 -0.040727 747904.000000 0 0 1
27.213057 -6.323600 10.776866 29.944602 -0.228322 1.202643 0.167194 -0.032273 -581356.000000 0 0 1
26.090557 -6.425700 11.805266 29.349124 -0.241479 1.156839 0.144850 -0.033014 -581466.000000 0 0 1
24.917957 -6.917800 11.190166 28.177657 -0.270803 1.162410 0.178239 -0.042613 270848.000000 0 0 1
23.867457 -6.840400 12.176766 27.653575 -0.279118 1.114827 0.182171 -0.046301 643867.000000 0 0 1
22.997257 -8.133900 12.265166 27.303268 -0.339958 1.104905 0.177909 -0.042416 40994.900000 0 0 1
23.567857 -9.133000 13.038466 28.440414 -0.369701 1.094548 0.164299 -0.044562 387061.000000 0 0 1
22.649457 -10.219500 13.140266 28.108765 -0.423854 1.084359 0.216679 -0.062873 272520.000000 0 0 1
23.085557 -11.245200 14.270566 29.377653 -0.453282 1.063561 0.155040 -0.058661 -6100.470000 0 0 1
22.846157 -10.820200 15.618766 29.714802 -0.442315 1.017350 0.128425 -0.050535 185593.000000 0 0 1
23.222857 -11.834400 16.530366 30.864334 -0.471299 1.005600 0.118943 -0.052220 -58448.700000 0 0 1
22.833557 -11.662600 18.033466 31.346346 -0.472223 0.957829 0.115831 -0.040351 -811648.000000 0 0 1
21.456057 -11.730300 18.214466 30.491459 -0.500316 0.930588 0.100918 -0.039581 -654325.000000 0 0 1
20.956157 -11.801500 19.534866 30.984623 -0.512885 0.888638 0.094525 -0.032514 108361.000000 0 0 1
21.329157 -10.650900 20.535566 31.465601 -0.463134 0.859739 0.089676 -0.031589 -594255.000000 0 0 1
20.556557 -9.454100 20.487366 30.523502 -0.431062 0.834970 0.082637 -0.023950 -10448.100000 0 0 1
20.982657 -8.484900 19.509566 29.881241 -0.384274 0.859385 0.103550 -0.022837 -975562.000000 0 0 1
22.040957 -7.415100 20.008766 30.677976 -0.324529 0.860288 0.093365 -0.016419 845462.000000 0 0 1
23.343357 -7.893900 20.299566 31.926452 -0.326092 0.881722 0.106467 -0.018815 279872.000000 0 0 1
24.032457 -8.291100 19.132966 31.817789 -0.332210 0.925633 0.124365 -0.018693 -1764410.000000 0 0 1
25.490857 -8.683700 19.303966 33.133571 -0.328329 0.948859 0.149879 -0.026945 -453251.000000 0 0 1
25.642657 -9.985700 19.841366 33.925504 -0.371350 0.946100 0.109716 -0.035004 -449171.000000 0 0 1
26.861457 -10.570900 19.515966 34.844723 -0.374920 0.976309 0.106425 -0.038355 -410775.000000 0 0 1
26.817257 -12.107100 19.769366 35.448201 -0.424073 0.979187 0.088705 -0.031925 17834.500000 0 0 1
25.891257 -12.787500 18.935466 34.531568 -0.458750 0.990404 0.104554 -0.041145 184833.000000 0 0 1
25.842157 -14.198100 19.198166 35.184836 -0.502395 0.993647 0.084646 -0.031859 -91915.600000 0 0 1
24.750057 -14.838700 18.317666 34.180246 -0.540083 1.005207 0.107839 -0.028852 -434497.000000 0 0 1
24.929357 -14.728500 16.923066 33.537914 -0.533634 1.041883 0.140756 -0.046147 56155.400000 0 0 1
23.927157 -15.313000 16.091666 32.648714 -0.569302 1.055408 0.134434 -0.045196 132437.000000 0 0 1
23.752457 -16.839800 16.119266 33.280456 -0.616721 1.065181 0.097710 -0.039843 379603.000000 0 0 1
24.916557 -17.548300 15.675366 34.270902 -0.613594 1.095732 0.151574 -0.051823 418656.000000 0 0 1
24.664157 -18.903500 15.746866 34.837146 -0.653937 1.101775 0.115678 -0.032349 205515.000000 0 0 1
26.001657 -19.694100 15.682166 36.192182 -0.648231 1.122642 0.109740 -0.027121 21884.600000 0 0 1
26.615757 -19.575200 14.434566 36.054731 -0.634140 1.158896 0.127443 -0.046207 -446844.000000 0 0 1
27.490057 -20.660200 14.316066 37.249118 -0.644493 1.176311 0.118999 -0.044106 -258485.000000 0 0 1
27.974857 -20.818800 12.836466 37.158981 -0.639777 1.218081 0.109052 -0.061834 -278394.000000 0 0 1
26.947657 -21.185000 11.954966 36.302915 -0.666241 1.235222 0.106097 -0.052620 -119295.000000 0 0 1
27.228957 -20.860200 10.612766 35.905359 -0.653728 1.270738 0.123351 -0.046877 -511612.000000 0 0 1
26.033257 -20.838100 9.665566 34.718583 -0.675010 1.288671 0.077386 -0.042000 -290139.000000 0 0 1
25.569857 -22.110500 9.181366 35.028406 -0.712972 1.305586 0.055267 -0.042364 83504.100000 0 0 1
24.170657 -22.189200 9.390666 34.128666 -0.742683 1.292046 0.043597 -0.031428 345879.000000 0 0 1
23.365857 -23.163400 8.474066 33.975228 -0.781047 1.318716 0.036664 -0.030838 -155172.000000 0 0 1
23.575557 -24.559500 8.694866 35.136542 -0.805837 1.320739 0.031295 -0.025710 -199652.000000 0 0 1
23.331157 -25.451410 7.623766 35.358718 -0.828834 1.353478 0.031595 -0.015443 -202269.000000 0 0 1
21.845757 -25.802800 7.436166 34.616732 -0.868254 1.354295 0.039865 -0.009654 436691.000000 0 0 1
20.977157 -24.677600 7.148566 33.168163 -0.866274 1.353567 0.041755 -0.021639 -1351140.000000 0 0 1
19.671057 -25.034900 7.303866 32.665626 -0.904808 1.345295 0.044076 -0.034024 -1344340.000000 0 0 1
18.722157 -23.833800 7.339166 31.183850 -0.904941 1.333216 0.050639 -0.032583 -346429.000000 0 0 1
18.529857 -23.303200 6.056966 30.382257 -0.899011 1.370093 0.057323 -0.029416 -585581.000000 0 0 1
17.488057 -22.387600 6.087666 29.053338 -0.907656 1.359698 0.078987 -0.027254 -455110.000000 0 0 1
17.185057 -21.747700 4.698866 28.113484 -0.902059 1.402869 0.090368 -0.021840 -1532.620000 0 0 1
16.305357 -20.645500 4.866266 26.754100 -0.902320 1.387890 0.133503 -0.034269 138993.000000 0 0 1
16.036457 -19.968500 3.658166 25.870661 -0.894175 1.428919 0.155083 -0.035228 51296.100000 0 0 1
15.181257 -18.706700 3.862266 24.399350 -0.889058 1.411834 0.162786 -0.032190 1085.560000 0 1 0
15.853457 -17.673300 4.554766 24.174853 -0.839625 1.381254 0.118003 -0.030297 -518.717000 0 1 0
15.129057 -16.501100 4.634766 22.861664 -0.828749 1.366650 0.095823 -0.018745 19036.500000 0 1 0
16.166057 -15.370100 4.874666 22.832953 -0.760164 1.355648 0.089789 -0.017962 -623754.000000 0 1 0
16.836957 -15.493200 6.131366 23.687887 -0.743858 1.308976 0.126697 -0.028537 201225.000000 0 1 0
17.765657 -14.408800 6.216966 23.704066 -0.681441 1.305418 0.115008 -0.026794 507727.000000 0 1 0
19.121457 -14.720000 5.496566 24.749156 -0.656063 1.346838 0.143630 -0.050768 -1107160.000000 0 1 0
19.950957 -13.626200 5.571666 24.794303 -0.599215 1.344145 0.156708 -0.042280 -710448.000000 0 1 0
21.212157 -13.946100 5.041466 25.881763 -0.581600 1.374755 0.167325 -0.037175 275987.000000 0 0 1
22.221057 -12.730700 5.007366 26.094440 -0.520263 1.377705 0.160313 -0.031509 426660.000000 0 0 1
22.490557 -12.170100 6.274166 26.330621 -0.496000 1.330198 0.194546 -0.042918 5660.220000 0 0 1
23.261457 -11.024500 6.180466 26.473253 -0.442582 1.335161 0.182221 -0.045432 -388585.000000 0 0 1
23.597957 -10.359500 7.550066 26.854912 -0.413669 1.285812 0.208740 -0.046595 -152828.000000 0 0 1
24.562157 -11.100600 8.248166 28.187854 -0.424465 1.273837 0.217721 -0.031611 227447.000000 0 0 1
24.811657 -10.637800 9.539966 28.632011 -0.405036 1.231109 0.233510 -0.050865 -39000.200000 0 0 1
25.359557 -11.716600 10.477166 29.835496 -0.432804 1.211982 0.210480 -0.048035 -57352.500000 0 0 1
24.356257 -12.653000 10.837066 29.508772 -0.479123 1.194747 0.225396 -0.053435 92434.500000 0 0 1
24.703857 -13.646000 11.713066 30.556337 -0.504671 1.177401 0.226136 -0.060791 -985837.000000 0 0 1
23.625157 -14.677900 11.934366 30.265787 -0.555922 1.165470 0.200188 -0.067381 -179432.000000 0 0 1
22.528257 -14.096000 12.653066 29.433308 -0.559105 1.126426 0.177227 -0.059425 1169010.000000 0 0 1
21.413357 -15.054000 12.661566 29.076967 -0.612749 1.120258 0.136708 -0.054364 1227540.000000 0 0 1
20.067757 -14.477200 13.154666 28.024086 -0.624955 1.082179 0.115887 -0.052088 -291170.000000 0 0 1
20.006857 -14.153200 14.557366 28.504461 -0.615687 1.034792 0.113459 -0.060483 -169509.000000 0 0 1
19.356357 -12.951900 14.838266 27.615111 -0.589705 1.003535 0.139623 -0.068592 1027700.000000 0 0 1
17.782757 -13.016000 14.902966 26.603403 -0.631845 0.976181 0.158401 -0.068935 712713.000000 0 0 1
17.128657 -13.041600 13.604666 25.466863 -0.650751 1.007223 0.167594 -0.079706 1437180.000000 0 0 1
15.704657 -12.786300 13.621866 24.406576 -0.683323 0.978675 0.186380 -0.076188 1103000.000000 0 1 0
15.269557 -11.342000 13.608566 23.387890 -0.638868 0.949778 0.161308 -0.074456 -441758.000000 0 1 0
15.578657 -10.647600 14.795266 23.978445 -0.599548 0.905842 0.142397 -0.055727 66196.700000 0 1 0
15.343957 -9.295600 14.709366 23.199367 -0.544684 0.884028 0.135576 -0.045416 -569658.000000 0 1 0
16.080557 -8.362400 15.694766 23.975815 -0.479544 0.857132 0.156565 -0.042596 28637.100000 0 1 0
17.487357 -8.393200 15.514766 24.838708 -0.447486 0.896151 0.152409 -0.048197 125337.000000 0 1 0
18.151257 -9.169000 16.514466 26.196684 -0.467754 0.888724 0.146444 -0.042847 628942.000000 0 0 1
19.667757 -9.145800 16.088366 27.005589 -0.435270 0.932607 0.115990 -0.037302 946063.000000 0 0 1
20.325957 -7.860700 16.340166 27.238505 -0.369016 0.927430 0.106229 -0.031088 -497117.000000 0 0 1
21.508657 -7.846400 15.637766 27.725945 -0.349800 0.971560 0.095319 -0.020405 -975134.000000 0 0 1
22.224557 -6.475400 15.763466 28.006224 -0.283514 0.972960 0.081847 -0.002887 -161195.000000 0 0 1
22.781657 -6.272100 17.044266 29.135032 -0.268658 0.945905 0.119421 -0.011375 419191.000000 0 0 1
23.282257 -4.925900 17.247566 29.390585 -0.208498 0.943646 0.124744 -0.015117 95041.800000 0 0 1
-5.681566 -32.625314 -5.943371 33.645430 1.398379 1.748375 0.090391 -0.033590 254898.000000 0 0 1
-6.372266 -31.434514 -6.353371 32.697091 1.370791 1.766350 0.077575 -0.034570 218429.000000 0 0 1
-5.841366 -30.358514 -5.599071 31.418315 1.380707 1.749964 0.103103 -0.042465 -643364.000000 0 0 1
-6.569066 -29.020214 -5.845071 30.323099 1.348186 1.764770 0.100941 -0.039805 1243760.000000 0 0 1
-7.943266 -28.992314 -5.405871 30.542973 1.303380 1.748726 0.085945 -0.034858 424637.000000 0 0 1
-8.839766 -29.598014 -6.253271 31.516461 1.280569 1.770535 0.084826 -0.034064 -1508760.000000 0 0 1
-10.277166 -29.652514 -5.753771 31.906075 1.237166 1.752123 0.103093 -0.031108 -58586.100000 0 0 1
-11.211666 -30.231814 -6.661271 32.924711 1.215663 1.774521 0.084406 -0.033095 -424075.000000 0 0 1
-12.514066 -30.077214 -6.162771 33.154493 1.176518 1.757764 0.084279 -0.032643 -410307.000000 0 0 1
-13.538766 -30.738414 -7.077571 34.325505 1.155912 1.778476 0.091861 -0.035034 -331177.000000 0 0 1
-13.716166 -30.000414 -8.234071 33.999382 1.141972 1.815411 0.125606 -0.053461 -280035.000000 0 0 1
-14.732066 -30.605514 -8.982971 35.134385 1.122177 1.829342 0.121452 -0.049964 38010.500000 0 0 1
-15.297566 -29.819814 -10.217071 35.037485 1.096803 1.866700 0.153190 -0.041664 69542.800000 0 0 1
-15.946566 -28.562114 -9.937371 34.188283 1.061594 1.865719 0.152962 -0.046317 103939.000000 0 0 1
-15.082266 -27.519914 -9.516471 32.793042 1.069452 1.865230 0.139990 -0.049600 -147649.000000 0 0 1
-15.757666 -26.171314 -9.152271 31.890528 1.028836 1.861880 0.141965 -0.036581 -235445.000000 0 0 1
-16.128266 -25.357314 -10.259271 31.754795 1.004297 1.899776 0.151058 -0.043296 106429.000000 0 0 1
-16.455466 -24.062514 -9.835771 30.765717 0.970983 1.896208 0.110687 -0.028851 -338673.000000 0 0 1
-16.966466 -23.104714 -10.876071 30.659056 0.937400 1.933435 0.141760 -0.040158 384521.000000 0 0 1
-18.272766 -23.501114 -11.317071 31.847644 0.909909 1.934085 0.134908 -0.041265 160108.000000 0 0 1
-18.621866 -23.002614 -12.601571 32.166656 0.890257 1.973339 0.147769 -0.045913 -424914.000000 0 0 1
-20.130466 -23.186114 -12.873071 33.294857 0.855824 1.967780 0.113368 -0.030381 96532.800000 0 0 1
-20.456666 -24.592614 -13.080671 34.559742 0.876951 1.958966 0.140980 -0.030752 1139.980000 0 0 1
-20.542266 -25.318014 -11.868371 34.696466 0.889161 1.919908 0.147249 -0.037084 -1291040.000000 0 0 1
-20.310566 -26.840514 -12.146671 35.783710 0.923013 1.917125 0.139667 -0.037420 356341.000000 0 0 1
-19.358166 -27.303714 -13.108071 35.945138 0.954060 1.944073 0.139064 -0.040541 960755.000000 0 0 1
-17.985666 -27.020514 -12.777171 34.883355 0.983512 1.945807 0.164420 -0.051105 534255.000000 0 0 1
-17.022166 -28.155214 -13.163171 35.436412 1.027014 1.951376 0.140279 -0.052003 -345498.000000 0 0 1
-17.032466 -28.412214 -14.536271 36.175433 1.030762 1.984308 0.144642 -0.052480 -6566.820000 0 0 1
-16.104166 -29.380214 -14.992971 36.705998 1.069390 1.991564 0.179294 -0.057202 -22562.700000 0 0 1
-16.671766 -30.810914 -15.073171 38.137392 1.074812 1.977118 0.166466 -0.063265 -172487.000000 0 0 1
-16.969566 -31.470014 -13.867871 38.349000 1.076260 1.940804 0.160048 -0.057370 -21433.400000 0 0 1
-17.271466 -32.834314 -14.013871 39.658345 1.086551 1.931962 0.145183 -0.057525 -939834.000000 0 0 1
-17.895166 -33.339714 -12.677671 39.906100 1.078181 1.894086 0.182158 -0.057567 842292.000000 0 0 1
-19.263766 -32.991714 -12.379771 40.159739 1.042301 1.884163 0.209383 -0.059966 1158890.000000 0 0 1
-19.673166 -31.592814 -12.367271 39.218475 1.013845 1.891614 0.197519 -0.061374 -552267.000000 0 0 1
-18.978366 -30.669914 -11.338271 37.807121 1.016672 1.875382 0.185068 -0.054140 -355539.000000 0 0 1
-19.418666 -30.850614 -10.045771 37.812200 1.009009 1.839701 0.199784 -0.055349 -30346.500000 0 0 1
-18.891866 -29.775714 -9.267371 36.460663 1.005414 1.827790 0.173627 -0.048090 -102617.000000 0 0 1
-19.069266 -29.875614 -7.737071 36.277424 1.002698 1.785722 0.199103 -0.049155 -83476.700000 0 0 1
-18.209166 -30.794314 -7.132171 36.479191 1.036787 1.767577 0.180765 -0.046930 -209422.000000 0 0 1
-18.557366 -31.048014 -5.737371 36.623386 1.032070 1.728103 0.200784 -0.050735 139482.000000 0 0 1
-17.675066 -32.194214 -5.092471 37.078412 1.068711 1.708575 0.176364 -0.038967 183707.000000 0 0 1
-16.358366 -31.767514 -4.866371 36.061789 1.095268 1.706155 0.161111 -0.037622 -295573.000000 0 0 1
-16.196666 -31.392014 -3.474271 35.494522 1.094471 1.668835 0.144476 -0.037777 813861.000000 0 0 1
-14.823766 -30.697414 -3.058671 34.226170 1.120922 1.660282 0.133035 -0.037591 606923.000000 0 0 1
-13.746666 -31.575914 -3.085271 34.576409 1.160189 1.660146 0.082960 -0.033631 -803074.000000 0 0 1
-12.615766 -30.911914 -2.584471 33.487064 1.183310 1.648051 0.079421 -0.022626 -460421.000000 0 0 1
-11.321366 -31.706214 -2.569171 33.764745 1.227836 1.646960 0.072830 -0.031597 -1047260.000000 0 0 1
-11.378766 -32.699814 -1.632371 34.661489 1.235925 1.617908 0.081416 -0.023077 -404482.000000 0 0 1
-10.224866 -33.486714 -1.448871 35.042933 1.274447 1.612154 0.117033 -0.033546 -142099.000000 0 0 1
-9.084666 -32.758814 -0.701371 34.002397 1.300275 1.591425 0.143146 -0.037571 -790835.000000 0 0 1
-9.536866 -32.286914 0.580029 33.670953 1.283585 1.553569 0.146150 -0.036175 -207449.000000 0 0 1
-8.630766 -31.658614 1.492829 32.847930 1.304644 1.525334 0.147377 -0.036572 447507.000000 0 0 1
-7.558166 -32.600614 2.131729 33.533121 1.342980 1.507183 0.171180 -0.048004 -34184.000000 0 0 1
-8.102566 -33.658914 2.903529 34.741971 1.334565 1.487125 0.176716 -0.055470 -175576.000000 0 0 1
-7.154066 33.063500 3.421129 34.001174 -1.357708 1.470008 0.175974 -0.052466 216697.000000 0 0 1
-6.246766 33.534800 4.568129 34.416169 -1.386630 1.437671 0.186850 -0.053652 -210784.000000 0 0 1
-5.232166 -33.198214 4.238229 33.874173 1.414478 1.445351 0.210537 -0.051084 -333675.000000 0 0 1
-4.443966 -32.929314 5.385829 33.661487 1.436652 1.410106 0.214019 -0.057605 302577.000000 0 0 1
-3.117766 -32.200914 5.001429 32.735816 1.474275 1.417414 0.222102 -0.053794 167829.000000 0 0 1
-3.219366 -30.865214 4.499229 31.357118 1.466868 1.426816 0.219158 -0.050671 -204059.000000 0 0 1
-3.863166 -30.620714 3.276429 31.036868 1.445298 1.465034 0.210267 -0.063986 -217701.000000 0 0 1
-3.664566 -29.205114 2.713629 29.558950 1.445972 1.478863 0.194373 -0.060571 384323.000000 0 0 1
-2.281866 -28.947514 2.491029 29.143965 1.492131 1.485219 0.163474 -0.049814 1273.760000 0 0 1
-1.930866 -27.761214 1.787929 27.885658 1.501356 1.506636 0.147511 -0.047539 -569197.000000 0 0 1
-2.105166 -26.362814 2.413129 26.556598 1.491112 1.479803 0.139917 -0.052062 -502496.000000 0 0 1
-2.704566 -25.447114 1.551429 25.637419 1.464912 1.510245 0.141688 -0.053287 -234391.000000 0 0 1
-3.275666 -24.300414 2.162129 24.615339 1.436805 1.482846 0.118817 -0.045624 743136.000000 0 1 0
-4.639666 -24.408614 2.942429 25.019289 1.382954 1.452917 0.108226 -0.038101 389784.000000 0 0 1
-4.635066 -25.282814 4.050729 26.021394 1.389481 1.414491 0.147121 -0.042047 -39043.300000 0 0 1
-5.698166 -24.849614 4.880329 25.957466 1.345387 1.381658 0.117573 -0.040283 32468.400000 0 0 1
-6.114266 -25.815714 5.980029 27.195516 1.338239 1.349094 0.140113 -0.042578 -498701.000000 0 0 1
-5.202966 -25.910514 7.020029 27.344221 1.372627 1.311161 0.141583 -0.037837 -259327.000000 0 0 1
-5.557766 -27.014314 7.885029 28.685111 1.367893 1.292329 0.141249 -0.040231 493553.000000 0 0 1
-4.653966 -27.144114 9.156529 29.022480 1.400993 1.249815 0.139694 -0.040436 238654.000000 0 0 1
-4.478966 -25.934214 9.901129 28.118979 1.399778 1.210966 0.128477 -0.046920 304488.000000 0 0 1
-5.641966 -25.471314 10.599129 28.159566 1.352813 1.184894 0.127331 -0.042077 443866.000000 0 0 1
-5.249466 -24.461314 11.655129 27.599906 1.359400 1.134828 0.104374 -0.042627 120430.000000 0 0 1
-4.419866 -24.992214 12.667129 28.365510 1.395756 1.107870 0.091700 -0.045379 -212338.000000 0 0 1
-3.985966 -23.954414 13.496429 27.782287 1.405909 1.063527 0.085701 -0.047152 310185.000000 0 0 1
-2.982666 -24.419114 14.614529 28.614225 1.449254 1.034747 0.068568 -0.045811 112935.000000 0 0 1
-3.522466 -24.983114 15.764129 29.750152 1.430726 1.012333 0.073780 -0.051097 499538.000000 0 0 1
-2.576566 -25.888714 16.408929 30.759018 1.471598 1.008102 0.092129 -0.037491 1084540.000000 0 0 1
-3.101966 -26.077814 17.887629 31.774862 1.452402 0.972847 0.112747 -0.038382 414318.000000 0 0 1
-2.803166 -24.930114 18.657529 31.264544 1.458826 0.931335 0.119717 -0.034910 -61266.500000 0 0 1
-3.511466 -25.077414 19.862029 32.182407 1.431676 0.905655 0.163453 -0.039489 -163962.000000 0 0 1
-2.957966 -24.178014 20.969829 32.141246 1.449060 0.860013 0.148209 -0.046316 332423.000000 0 0 1
-1.684466 -24.662514 21.433629 32.718152 1.502602 0.856483 0.111763 -0.061434 625846.000000 0 0 1
-1.030066 -23.828814 22.380629 32.707277 1.527595 0.817193 0.125160 -0.053913 546268.000000 0 0 1
-0.409966 -22.480214 21.929629 31.407591 1.552562 0.797878 0.122870 -0.064039 -32052.500000 0 0 1
-1.447066 -21.504814 21.769829 30.634564 1.503607 0.780404 0.159689 -0.056902 164580.000000 0 0 1
-0.886866 -20.305314 21.339829 29.469995 1.527148 0.761038 0.166746 -0.046457 -254344.000000 0 0 1
-1.837666 -19.390814 20.519529 28.291903 1.476309 0.759356 0.149901 -0.028432 -731429.000000 0 0 1
-2.645866 -18.488214 21.227729 28.274214 1.428651 0.721553 0.160750 -0.050327 -375943.000000 0 0 1
-3.959066 -18.885514 21.482529 28.876217 1.364154 0.731831 0.178292 -0.062143 -708946.000000 0 0 1
-4.981166 -18.776914 20.371529 28.149311 1.311488 0.761654 0.163777 -0.063658 -977840.000000 0 0 1
-4.837066 -19.709314 19.294029 28.002033 1.330133 0.810657 0.157425 -0.069875 -91735.200000 0 0 1
-5.475566 -21.009414 19.551929 29.217379 1.315843 0.837680 0.163661 -0.064303 348764.000000 0 0 1
-5.624266 -21.809814 18.228529 28.975501 1.318417 0.890400 0.135483 -0.063468 59061.300000 0 0 1
-6.209566 -23.062714 18.466229 30.190216 1.307786 0.912636 0.138448 -0.061818 -201793.000000 0 0 1
-6.233766 -23.756314 17.211829 29.991155 1.314177 0.959540 0.119530 -0.054167 85634.600000 0 0 1
-6.904366 -25.162714 17.300829 31.307366 1.302998 0.985301 0.108341 -0.047655 408829.000000 0 0 1
-8.261766 -25.056014 17.678829 31.758489 1.252291 0.980431 0.125597 -0.046739 -179765.000000 0 0 1
-8.981966 -26.300014 17.617229 32.904912 1.241696 1.005817 0.121086 -0.042258 883114.000000 0 0 1
-10.522366 -26.161314 17.745829 33.317398 1.188385 1.009092 0.112277 -0.046782 -394470.000000 0 0 1
-11.221466 -25.611214 16.613429 32.524785 1.157843 1.034689 0.127153 -0.047040 13402.600000 0 0 1
-12.615966 -25.752114 16.752029 33.210909 1.115261 1.042094 0.139841 -0.047691 456597.000000 0 0 1
-13.355166 -24.986214 17.942529 33.535141 1.079930 1.006245 0.128383 -0.049121 -801572.000000 0 0 1
-13.560866 -23.617014 17.513829 32.378923 1.049564 0.999287 0.130032 -0.042991 -139681.000000 0 0 1
-13.457666 -22.640014 18.505029 32.188742 1.034490 0.958325 0.120244 -0.041039 398287.000000 0 0 1
-12.045066 -22.203514 19.015029 31.617258 1.073741 0.925528 0.133132 -0.043043 296399.000000 0 0 1
-11.319566 -23.181214 19.743929 32.485751 1.116546 0.917544 0.147294 -0.046609 -208190.000000 0 0 1
-9.960766 -22.784114 19.616629 31.672462 1.158654 0.902870 0.163231 -0.058914 237684.000000 0 0 1
-9.112866 -23.641614 20.586129 32.645964 1.202888 0.888487 0.160566 -0.062376 -39911.200000 0 0 1
-9.302666 -23.316714 21.936629 33.338033 1.191178 0.852629 0.164920 -0.056403 354601.000000 0 0 1
-8.379466 -24.024314 22.781529 34.152323 1.235199 0.840546 0.157672 -0.054065 403432.000000 0 0 1
-8.099566 -23.363414 24.161429 34.572052 1.237085 0.796978 0.173892 -0.050016 146038.000000 0 0 1
-7.037566 -23.893414 24.929629 35.240729 1.284356 0.784970 0.201604 -0.048067 -142169.000000 0 0 1
-6.863866 -23.219714 26.146129 35.635486 1.283376 0.747029 0.210988 -0.057555 -153947.000000 0 0 1
-5.830666 -23.914614 27.049629 36.573049 1.331650 0.738312 0.212971 -0.062052 -665715.000000 0 0 1
-4.528866 -23.629914 26.677229 35.924338 1.381434 0.733860 0.215291 -0.055398 -939823.000000 0 0 1
-3.592466 -23.836114 27.722029 36.736590 1.421207 0.715727 0.215822 -0.052907 633736.000000 0 0 1
-2.123166 -23.712914 27.189029 36.139361 1.481498 0.719192 0.195027 -0.046709 530381.000000 0 0 1
-1.805366 -22.346714 26.962429 35.065761 1.490183 0.693661 0.193038 -0.050984 -515991.000000 0 0 1
-0.617766 -22.141114 26.272729 34.363744 1.542902 0.700457 0.171598 -0.048205 -79749.200000 0 0 1
0.599334 -21.538314 27.016629 34.556569 -1.542977 0.673235 0.141986 -0.036341 247821.000000 0 0 1
1.299134 -22.495114 27.797329 35.782809 -1.513109 0.681173 0.130549 -0.035079 623852.000000 0 0 1
2.422434 -21.835314 28.433629 35.932164 -1.460307 0.657841 0.121838 -0.049165 769313.000000 0 0 1
3.272634 -22.865514 29.252429 37.272597 -1.428636 0.668384 0.108019 -0.047230 -258812.000000 0 0 1
4.010034 -23.767414 28.442729 37.282157 -1.403651 0.703002 0.097861 -0.048461 176907.000000 0 0 1
4.624134 -24.816514 29.192729 38.593490 -1.386576 0.712980 0.093836 -0.035986 -384613.000000 0 0 1
5.915634 -24.506214 30.026529 39.206399 -1.333934 0.698422 0.082976 -0.037055 295349.000000 0 0 1
7.097034 -24.187314 29.310829 38.659006 -1.285387 0.710265 0.087777 -0.029370 201521.000000 0 0 1
7.607234 -25.317414 28.599929 38.946084 -1.278904 0.746093 0.081871 -0.025068 -796934.000000 0 0 1
8.957534 -24.961614 27.923129 38.510008 -1.226257 0.759635 0.074808 -0.023694 152378.000000 0 0 1
8.734234 -23.915814 27.055029 37.151415 -1.220638 0.755051 0.077871 -0.028318 -146849.000000 0 0 1
9.874634 -23.533914 26.342129 36.677804 -1.173515 0.769579 0.075536 -0.017829 -344786.000000 0 0 1
9.542534 -22.378314 25.401229 35.172025 -1.167725 0.763819 0.079512 -0.015985 -19777.700000 0 0 1
8.766834 -22.898014 24.339129 34.548077 -1.205149 0.789078 0.076175 -0.017103 -185062.000000 0 0 1
8.466834 -21.890514 23.445529 33.174911 -1.201737 0.785938 0.075846 -0.014787 303459.000000 0 0 1
7.600834 -22.383214 22.201129 32.429479 -1.243437 0.816745 0.087119 -0.021037 158309.000000 0 0 1
8.328934 -23.084314 21.243129 32.458084 -1.224528 0.857303 0.078040 -0.018272 -229662.000000 0 0 1
7.677934 -23.214514 20.010429 31.595595 -1.251383 0.884948 0.078185 -0.013569 209089.000000 0 0 1
8.515034 -24.087914 18.989329 31.832814 -1.231008 0.931622 0.127380 -0.037038 1277790.000000 0 0 1
9.771534 -23.519514 18.569229 31.519307 -1.177030 0.940804 0.133640 -0.038054 339415.000000 0 0 1
10.479134 -24.440214 17.790829 31.994530 -1.165740 0.981160 0.147865 -0.043788 -45528.400000 0 0 1
11.880534 -23.890314 17.435629 31.873114 -1.109315 0.991981 0.131184 -0.044499 61268.400000 0 0 1
11.883934 -22.804714 16.525129 30.567348 -1.090398 0.999630 0.127955 -0.034422 202390.000000 0 0 1
13.171234 -22.403514 16.052929 30.546610 -1.039314 1.017467 0.126782 -0.038338 516378.000000 0 0 1
-12.423266 22.275700 11.093229 27.813739 -1.062057 1.160545 0.063966 -0.025457 676833.000000 0 0 1
-13.555966 21.447600 10.771229 27.564164 -1.007143 1.169329 0.055980 -0.032919 892322.000000 0 0 1
-13.050666 20.237800 10.282929 26.184482 -0.998039 1.167219 0.080392 -0.036245 248247.000000 0 0 1
-14.074766 19.625300 9.312429 25.883833 -0.948637 1.202767 0.103046 -0.033795 -306868.000000 0 0 1
-14.202766 20.431700 8.128729 26.177265 -0.963344 1.255050 0.111141 -0.037221 228878.000000 0 0 1
-14.982466 19.857700 7.090829 25.866627 -0.924427 1.293111 0.108707 -0.035968 -411016.000000 0 0 1
-16.503766 19.817000 7.098929 26.748506 -0.876368 1.302182 0.101787 -0.036133 -803138.000000 0 0 1
-16.946466 19.097900 8.226629 26.825174 -0.845016 1.259098 0.095670 -0.034873 647527.000000 0 0 1
-18.379866 19.093000 8.119929 27.718142 -0.804427 1.273489 0.095111 -0.034081 325198.000000 0 0 1
-19.176466 18.173800 8.996529 27.909880 -0.758560 1.242594 0.093456 -0.032494 -303493.000000 0 0 1
-19.017866 16.780100 8.618629 26.786783 -0.722968 1.243220 0.091340 -0.039944 349201.000000 0 0 1
-19.743166 15.915200 9.461229 27.066604 -0.678457 1.213702 0.109888 -0.042965 286628.000000 0 0 1
-18.742466 15.212800 10.434329 26.297995 -0.681820 1.162798 0.100894 -0.031967 572103.000000 0 0 1
-18.008366 14.108500 9.887629 24.922204 -0.664562 1.162834 0.078035 -0.020510 307595.000000 0 1 0
-17.204766 13.384800 10.801029 24.327332 -0.661163 1.110752 0.093615 -0.028574 -20865.800000 0 1 0
-17.995566 12.384200 11.621729 24.744159 -0.602749 1.081873 0.084598 -0.025958 -201761.000000 0 1 0
-18.555466 11.277900 10.845729 24.271922 -0.546131 1.107563 0.073986 -0.033308 -117832.000000 0 1 0
-19.286966 10.426600 11.633829 24.820295 -0.495600 1.082952 0.089395 -0.033335 -104536.000000 0 1 0
-20.238166 9.488500 10.793429 24.821626 -0.438412 1.120936 0.091780 -0.040725 281773.000000 0 1 0
-19.522666 8.644300 9.846429 23.511924 -0.416836 1.138690 0.071514 -0.038013 843813.000000 0 1 0
-19.183866 9.237600 8.567229 22.951065 -0.448762 1.188252 0.083626 -0.036334 -388444.000000 0 1 0
-20.412666 9.382900 7.669529 23.738943 -0.430859 1.241816 0.107917 -0.041383 -159150.000000 0 1 0
-20.965266 8.113700 7.340129 23.648510 -0.369255 1.255199 0.094630 -0.039692 177780.000000 0 1 0
-21.785866 8.216500 6.223729 24.101237 -0.360653 1.309604 0.125344 -0.044554 -339988.000000 0 1 0
-21.911366 6.871500 5.472229 23.606583 -0.303891 1.336859 0.136952 -0.040090 -466885.000000 0 1 0
-22.912166 6.079100 6.021429 24.457727 -0.259347 1.322041 0.186961 -0.043962 436994.000000 0 1 0
-22.597766 4.749500 5.654329 23.773688 -0.207160 1.330655 0.177577 -0.052004 355843.000000 0 1 0
-23.905566 3.912500 5.756329 24.898174 -0.162227 1.337491 0.219414 -0.044889 307332.000000 0 1 0
-24.865366 4.237700 4.786029 25.673929 -0.168804 1.383283 0.248650 -0.048409 -86143.000000 0 0 1
-26.041966 3.493800 4.893329 26.727052 -0.133364 1.386672 0.270029 -0.045512 -604885.000000 0 0 1
-27.003836 3.704300 3.748329 27.513251 -0.136326 1.434134 0.270406 -0.045619 -140380.000000 0 0 1
-26.556206 3.027600 2.558029 26.850362 -0.113517 1.475382 0.258747 -0.042823 1045160.000000 0 0 1
-27.716106 2.886100 1.729829 27.919606 -0.103757 1.508799 0.264716 -0.033651 541631.000000 0 0 1
-27.516776 3.107600 0.224929 27.692612 -0.112458 1.562674 0.265572 -0.032587 -464300.000000 0 0 1
-27.297476 4.495200 -0.091971 27.665276 -0.163210 1.574121 0.269806 -0.033147 275976.000000 0 0 1
-27.411596 4.771600 -1.487871 27.863552 -0.172345 1.624220 0.298406 -0.027643 22521.500000 0 0 1
-28.871726 5.016900 -1.949571 29.369145 -0.172047 1.637227 0.276467 -0.036086 235083.000000 0 0 1
-29.560206 3.771400 -1.960471 29.864238 -0.126898 1.636490 0.228536 -0.038026 869956.000000 0 0 1
-30.989246 3.843700 -1.832271 31.280419 -0.123403 1.629406 0.203194 -0.002380 862404.000000 0 0 1
-31.674736 2.438000 -2.030871 31.833272 -0.076818 1.634637 0.166793 0.003163 -143603.000000 0 0 1
-31.794926 2.100300 -3.413871 32.046577 -0.065962 1.677527 0.152214 -0.021574 434625.000000 0 0 1
-32.140926 0.727800 -3.546471 32.344184 -0.022640 1.680665 0.158034 -0.034273 -383985.000000 0 0 1
-32.272136 0.306400 -5.043871 32.665353 -0.009494 1.725827 0.162453 -0.027947 -191643.000000 0 0 1
-31.037056 0.440800 -5.713271 31.561600 -0.014201 1.752819 0.175697 -0.049287 141998.000000 0 0 1
-31.010086 -0.083600 -7.025771 31.796130 0.002696 1.793598 0.182713 -0.052962 15216.400000 0 0 1
-31.768336 0.643300 -8.178371 32.810467 -0.020247 1.822713 0.184298 -0.048627 588719.000000 0 0 1
-33.191026 0.768600 -8.119571 34.178391 -0.023153 1.810654 0.200934 -0.043820 740781.000000 0 0 1
-33.631716 1.666800 -9.101871 34.881436 -0.049520 1.834789 0.223536 -0.039805 346397.000000 0 0 1
-35.178992 1.856400 -9.035271 36.368170 -0.052721 1.821865 0.212809 -0.033823 358805.000000 0 0 1
-35.600332 2.435100 -7.814571 36.529178 -0.068295 1.786389 0.172676 -0.028581 -525679.000000 0 0 1
-36.965626 2.163000 -7.721371 37.825331 -0.058447 1.776374 0.170406 -0.020478 -595053.000000 0 0 1
-37.601866 2.979300 -6.588571 38.290806 -0.079068 1.743724 0.183023 -0.016390 1144130.000000 0 0 1
36.835937 2.743200 -6.347671 37.479385 0.074334 1.740981 0.177043 -0.009648 1569400.000000 0 0 1
36.279637 3.433900 -5.207371 36.811960 0.094370 1.712731 0.164949 -0.008979 185256.000000 0 0 1
34.857817 2.904300 -4.937571 35.325373 0.083126 1.711030 0.193128 -0.007034 -64755.600000 0 0 1
34.718447 1.684400 -4.228171 35.015499 0.048478 1.691843 0.189150 -0.009125 -534082.000000 0 0 1
33.436067 1.159400 -4.370971 33.740482 0.034661 1.700708 0.232498 -0.020846 -518284.000000 0 0 1
33.181047 -0.152900 -3.646071 33.381118 -0.004608 1.680240 0.277498 -0.031364 -399795.000000 0 0 1
34.087357 -1.178300 -3.955171 34.336273 -0.034553 1.686242 0.186366 -0.028093 207676.000000 0 0 1
33.658157 -2.365000 -3.303871 33.902512 -0.070150 1.668403 0.198964 -0.026011 -544950.000000 0 0 1
34.698567 -3.426700 -3.413671 35.034068 -0.098437 1.668390 0.162996 -0.025973 -475201.000000 0 0 1
34.270677 -4.583300 -2.665171 34.678366 -0.132949 1.647726 0.169614 -0.045576 241040.000000 0 0 1
35.262077 -5.578700 -2.698371 35.802474 -0.156906 1.646236 0.217187 -0.046663 -141761.000000 0 0 1
34.972177 -6.743100 -1.737771 35.658693 -0.190476 1.619549 0.277981 -0.067589 -177719.000000 0 0 1
35.325407 -6.580900 -0.355971 35.934932 -0.184182 1.580702 0.252892 -0.087588 141662.000000 0 0 1
35.250927 -7.742800 0.412429 36.093613 -0.216215 1.559369 0.284461 -0.086066 -680926.000000 0 0 1
34.067657 -7.785100 1.351229 34.971972 -0.224661 1.532149 0.285496 -0.068360 -999819.000000 0 0 1
32.812147 -7.757800 0.679829 33.723621 -0.232167 1.550636 0.241848 -0.058059 -21675.900000 0 0 1
31.864187 -7.411700 1.660529 32.756939 -0.228539 1.520082 0.276810 -0.067805 -614222.000000 0 0 1
31.243907 -8.563500 2.515029 32.493701 -0.267516 1.493318 0.226259 -0.062007 -724767.000000 0 0 1
30.189857 -9.326100 1.980229 31.659515 -0.299615 1.508208 0.204345 -0.054291 659659.000000 0 0 1
28.915957 -8.735000 2.278129 30.292287 -0.293366 1.495520 0.217058 -0.048644 478929.000000 0 0 1
27.634657 -9.597500 2.086729 29.328155 -0.334267 1.499585 0.166800 -0.039855 820982.000000 0 0 1
26.319757 -9.094600 2.355029 27.946154 -0.332698 1.486426 0.129657 -0.043052 1246000.000000 0 0 1
25.761157 -8.310200 1.321029 27.100585 -0.312047 1.522032 0.150065 -0.042974 -17248.600000 0 0 1
25.148557 -9.082600 0.059729 26.738495 -0.346580 1.568562 0.110622 -0.028607 -401585.000000 0 0 1
26.196557 -9.550800 -0.756571 27.893543 -0.349606 1.597923 0.114347 -0.042943 610338.000000 0 0 1
25.734157 -10.102400 -1.991871 27.717735 -0.374083 1.642721 0.097012 -0.035794 -238908.000000 0 0 1
24.962857 -11.416200 -2.068671 27.527318 -0.428931 1.646017 0.090983 -0.025609 -669210.000000 0 0 1
23.611657 -11.359200 -1.746171 26.260062 -0.448401 1.637341 0.059495 -0.001828 -601355.000000 0 0 1
23.028557 -12.611500 -2.010371 26.332602 -0.501034 1.647216 0.060819 0.000399 -1167230.000000 0 0 1
21.540957 -12.722100 -1.811171 25.082763 -0.533479 1.643067 0.048429 -0.002158 -1153930.000000 0 0 1
20.826057 -12.061100 -2.822971 24.231466 -0.524936 1.687562 0.065278 -0.005174 -44143.000000 0 1 0
19.451957 -12.023300 -2.500671 23.004167 -0.553624 1.679717 0.066969 -0.019508 -43147.900000 0 1 0
18.610157 -11.454300 -3.669271 22.158575 -0.551729 1.737154 0.065256 -0.011047 -129372.000000 0 1 0
18.444457 -12.414600 -4.692471 22.723106 -0.592430 1.778800 0.063409 -0.009421 309287.000000 0 1 0
18.015457 -11.749000 -5.859271 22.291853 -0.577894 1.836765 0.081699 -0.013248 -406209.000000 0 1 0
18.016457 -12.724900 -7.077371 23.164735 -0.614937 1.881284 0.092044 -0.020449 -150467.000000 0 1 0
17.035657 -13.749200 -7.063871 23.003312 -0.679045 1.882920 0.064934 -0.025829 716770.000000 0 1 0
17.586557 -14.749800 -7.849371 24.258116 -0.697896 1.900304 0.089159 -0.031831 16196.000000 0 1 0
16.474557 -15.711200 -8.334571 24.242893 -0.761685 1.921751 0.075666 -0.035936 85838.800000 0 1 0
15.696657 -15.149400 -9.379371 23.745777 -0.767658 1.976854 0.099005 -0.020543 168663.000000 0 1 0
14.977657 -16.144500 -10.042671 24.203932 -0.822873 1.998650 0.088579 -0.020851 97111.100000 0 1 0
14.107457 -15.766100 -11.352071 24.009576 -0.840863 2.063278 0.086896 -0.033299 451458.000000 0 1 0
12.924357 -15.054600 -11.070071 22.720617 -0.861389 2.079706 0.054560 -0.030836 -164205.000000 0 1 0
13.119157 -13.725100 -10.620871 21.755310 -0.807967 2.080819 0.048324 -0.030112 -610881.000000 0 1 0
13.428757 -12.679600 -11.695671 21.860752 -0.756712 2.135313 0.074285 -0.018005 60335.700000 0 1 0
14.685557 -12.758800 -12.348471 23.042076 -0.715307 2.136381 0.101845 -0.015751 72417.800000 0 1 0
14.564157 -12.194100 -13.607971 23.366377 -0.697056 2.192442 0.126581 -0.019603 -451758.000000 0 1 0
15.837257 -11.725300 -14.298771 24.346585 -0.637304 2.198516 0.138604 -0.023752 -613370.000000 0 1 0
16.685457 -12.738500 -14.778471 25.672496 -0.652053 2.184200 0.137163 -0.024602 34706.000000 0 0 1
17.676857 -12.123700 -15.574971 26.495944 -0.601167 2.199164 0.126617 -0.019178 -274522.000000 0 0 1
18.836857 -13.014000 -16.041771 27.955854 -0.604579 2.181965 0.111280 -0.012821 -522841.000000 0 0 1
19.630257 -13.391800 -14.973171 28.087063 -0.598681 2.133055 0.114168 -0.030902 30347.600000 0 0 1
20.608557 -14.354100 -15.393271 29.456843 -0.608381 2.120659 0.092695 -0.027764 345043.000000 0 0 1
21.810657 -14.486200 -14.429671 29.895988 -0.586279 2.074488 0.106886 -0.038579 131438.000000 0 0 1
22.637257 -13.343000 -14.321171 29.926192 -0.532609 2.069799 0.095078 -0.026893 -328359.000000 0 0 1
23.686757 -13.543200 -13.403171 30.399436 -0.519398 2.027400 0.116831 -0.039630 92289.000000 0 0 1
24.630457 -12.305400 -13.386371 30.614983 -0.463328 2.023334 0.125463 -0.031430 -334688.000000 0 0 1
24.043657 -11.083900 -12.901971 29.451844 -0.431956 2.024247 0.126076 -0.019462 37082.100000 0 0 1
24.822357 -9.900300 -13.005671 29.720579 -0.379511 2.023722 0.141507 -0.024879 -403957.000000 0 0 1
25.917857 -9.747500 -11.963271 30.164033 -0.359728 1.978614 0.146549 -0.030092 -1167970.000000 0 0 1
27.045957 -10.501500 -12.211171 31.478214 -0.370365 1.969175 0.144092 -0.044135 -714093.000000 0 0 1
27.996757 -10.168500 -11.221571 31.829867 -0.348388 1.931089 0.156142 -0.038130 44676.100000 0 0 1
29.465457 -10.566600 -11.525571 33.357232 -0.344324 1.923589 0.192117 -0.047251 282048.000000 0 0 1
30.027757 -9.983200 -12.698771 34.096763 -0.320969 1.952426 0.168270 -0.044236 -239066.000000 0 0 1
31.339827 -10.488000 -12.759671 35.425867 -0.322939 1.939257 0.160284 -0.045285 -6438.210000 0 0 1
32.169867 -9.945700 -13.975171 36.457135 -0.299841 1.964197 0.124586 -0.037263 245481.000000 0 0 1
31.724517 -10.637900 -15.149271 36.730237 -0.323538 1.995935 0.106534 -0.029495 622171.000000 0 0 1
32.417297 -10.039100 -16.253471 37.627649 -0.300317 2.017456 0.072000 -0.027976 150956.000000 0 0 1
31.980487 -10.658200 -17.606571 38.030778 -0.321695 2.052123 0.039111 -0.014640 425677.000000 0 0 1
30.742557 -10.375500 -18.250771 37.226958 -0.325493 2.083181 0.047032 -0.010354 383650.000000 0 0 1
30.562857 -9.093100 -18.770371 37.001344 -0.289181 2.102832 0.030795 -0.002880 -493992.000000 0 0 1
29.183957 -8.696400 -19.312271 36.059596 -0.289608 2.135973 0.011312 -0.000539 -304664.000000 0 0 1
28.688857 -9.372100 -20.443171 36.452846 -0.315751 2.166162 0.009589 0.009048 688148.000000 0 0 1
27.349257 -9.030800 -20.798471 35.526238 -0.318930 2.196219 0.033030 0.013485 581537.000000 0 0 1
27.014757 -9.575600 -22.248171 36.283196 -0.340641 2.230878 0.054091 0.001254 72063.100000 0 0 1
26.702457 -10.981100 -22.390571 36.536877 -0.390158 2.230422 0.053835 -0.003707 298369.000000 0 0 1
26.065457 -11.234900 -23.650471 36.945578 -0.406964 2.265481 0.079539 -0.013849 -539716.000000 0 0 1
26.211957 -12.735600 -24.130571 37.835785 -0.452280 2.262397 0.070611 -0.002467 372369.000000 0 0 1
27.438457 -13.082600 -24.730771 39.187171 -0.444914 2.253758 0.056988 -0.000364 581075.000000 0 0 1
28.617857 -13.004900 -23.920071 39.500366 -0.426534 2.221273 0.035193 0.003854 142886.000000 0 0 1
29.938957 -13.375400 -24.624571 41.007462 -0.420153 2.214910 0.036916 0.008230 16093.900000 0 0 1
30.334457 -12.577200 -25.708401 41.704761 -0.393044 2.235007 0.052294 -0.006635 -370713.000000 0 0 1
31.681737 -12.808100 -26.007951 42.944072 -0.384185 2.221346 0.035023 -0.006654 -369108.000000 0 0 1
32.192007 -12.318600 -27.330491 43.988964 -0.365469 2.241201 0.052489 -0.011967 -171502.000000 0 0 1
31.845207 -13.172400 -28.427021 44.673536 -0.392208 2.260525 0.071794 -0.017846 198828.000000 0 0 1
32.758847 -12.896500 -29.457851 45.904539 -0.375046 2.267535 0.079204 -0.026516 106628.000000 0 0 1
32.595857 -13.824200 -30.709651 46.868764 -0.401116 2.285279 0.085242 -0.028293 40759.700000 0 0 1
32.932627 -15.180200 -30.362061 47.295360 -0.431920 2.267857 0.099337 -0.022026 -80179.400000 0 0 1
33.203347 -16.088500 -31.438791 48.473700 -0.451207 2.276506 0.092460 -0.026911 829886.000000 0 0 1
31.978267 -16.623300 -32.293051 48.391991 -0.479386 2.301404 0.070386 -0.013851 657811.000000 0 0 1
31.453817 -15.755300 -33.229861 48.392104 -0.464369 2.327708 0.050192 -0.009774 -19324.800000 0 0 1
30.204557 -16.197700 33.605186 47.999888 -0.492238 0.795245 0.028958 -0.008115 196373.000000 0 0 1
29.504957 -15.092200 32.790740 46.621343 -0.472816 0.790709 0.060754 -0.012748 -306266.000000 0 0 1
29.118357 -13.963800 33.599706 46.602646 -0.447157 0.765577 0.072208 -0.019595 851496.000000 0 0 1
30.140757 -12.939000 33.600646 46.956217 -0.405495 0.773351 0.080428 -0.030930 -18722.700000 0 0 1
29.594257 -11.582700 -33.329481 46.052505 -0.373056 2.379985 0.088359 -0.038809 -107912.000000 0 0 1
28.729057 -11.012100 33.077359 45.174514 -0.366035 0.749231 0.113302 -0.045995 -136850.000000 0 0 1
28.171057 -9.790400 33.534606 44.877947 -0.334476 0.726897 0.087829 -0.046320 14772.300000 0 0 1
21.599534 -29.366214 8.855129 37.514367 -0.936625 1.332501 0.052511 -0.025264 -458123.000000 0 0 1
22.086834 -28.952914 7.640529 37.208563 -0.919120 1.363982 0.052345 -0.026078 -400734.000000 0 0 1
23.436234 -29.331414 7.610729 38.308121 -0.896656 1.370794 0.062608 -0.026311 -165373.000000 0 0 1
24.215934 -29.061514 6.304629 38.350116 -0.876099 1.405650 0.053479 -0.020734 -18486.400000 0 0 1
24.507234 -27.686214 6.020429 37.461668 -0.846231 1.409387 0.049446 -0.013369 90613.700000 0 0 1
25.210334 -27.520214 4.797129 37.628919 -0.829176 1.442963 0.037337 -0.003066 70881.300000 0 0 1
25.409134 -25.988114 4.418429 36.613231 -0.796662 1.449823 0.036650 -0.010660 141957.000000 0 0 1
26.310834 -25.239114 5.200229 36.828186 -0.764611 1.429120 0.043855 -0.011583 35878.200000 0 0 1
25.987034 -23.867414 5.025329 35.640333 -0.742908 1.429324 0.049046 -0.012462 218728.000000 0 0 1
26.773234 -22.843514 5.887829 35.683312 -0.706362 1.405036 0.050964 -0.017192 -317523.000000 0 0 1
28.130934 -22.745314 5.543329 36.598187 -0.679934 1.418747 0.046814 -0.012854 380983.000000 0 0 1
28.976834 -22.019014 6.513329 36.971845 -0.649797 1.393702 0.067824 -0.019591 867210.000000 0 0 1
28.816834 -20.502114 6.652829 35.986202 -0.618378 1.384855 0.077865 -0.018288 -396167.000000 0 0 1
29.128434 -19.812714 5.497729 35.654373 -0.597303 1.415984 0.079632 -0.003916 -159627.000000 0 0 1
28.807734 -18.439114 5.556229 34.651957 -0.569366 1.409757 0.109250 -0.007960 -307835.000000 0 0 1
28.906734 -17.712714 4.160129 34.156203 -0.549745 1.448696 0.131386 -0.000020 -575307.000000 0 0 1
30.150434 -17.753414 3.532229 35.166874 -0.532164 1.470185 0.115693 -0.000887 -448903.000000 0 0 1
30.280134 -16.862814 2.434929 34.744351 -0.508120 1.500658 0.124718 0.007414 173993.000000 0 0 1
31.250734 -15.694614 2.764829 35.079532 -0.465419 1.491898 0.137911 -0.003391 205609.000000 0 0 1
30.662134 -14.719614 3.602229 34.202479 -0.447567 1.465280 0.147282 -0.006834 242677.000000 0 0 1
31.676334 -13.791314 3.873129 34.764804 -0.410632 1.459155 0.133092 -0.014604 162823.000000 0 0 1
31.297934 -12.852414 5.010629 34.203094 -0.389651 1.423771 0.144032 -0.018529 97595.600000 0 0 1
31.298434 -13.433814 6.269029 34.631778 -0.405437 1.388773 0.125414 -0.017668 362027.000000 0 0 1
30.554134 -12.600714 7.177329 33.820810 -0.391155 1.356954 0.113435 -0.012054 265338.000000 0 0 1
30.796634 -12.967614 8.683229 34.525210 -0.398539 1.316562 0.149165 -0.019994 -169126.000000 0 0 1
30.320234 -14.218714 9.165529 34.720244 -0.438502 1.303648 0.094894 -0.011251 -115190.000000 0 0 1
29.742134 -14.146414 10.428429 34.546602 -0.443967 1.264147 0.167570 -0.017127 -299758.000000 0 0 1
30.391834 -15.069214 11.453129 35.803896 -0.460307 1.245188 0.158416 -0.028665 502859.000000 0 0 1
31.592934 -14.479714 11.996829 36.765466 -0.429752 1.238402 0.116900 -0.015108 742012.000000 0 0 1
32.220034 -15.506814 12.806329 37.981495 -0.448559 1.226884 0.131986 -0.023182 -18844.800000 0 0 1
33.180934 -14.907414 13.823429 38.913912 -0.422252 1.207635 0.121970 -0.025562 105432.000000 0 0 1
34.418434 -14.513114 13.241629 39.630794 -0.399044 1.230120 0.080205 -0.025083 772932.000000 0 0 1
35.424634 -14.331914 14.253229 40.785574 -0.384444 1.213794 0.043372 -0.023834 111284.000000 0 0 1
36.883034 -14.207814 13.829429 41.874495 -0.367694 1.234218 0.072397 -0.024121 -422441.000000 0 0 1
37.204234 -12.953314 13.194829 41.545721 -0.335042 1.247601 0.093170 -0.030340 -570108.000000 0 0 1
-37.338889 -13.015414 12.740729 41.544191 0.335405 1.259094 0.113228 -0.031803 -899509.000000 0 0 1
-36.801389 -11.596914 12.321329 40.504886 0.305271 1.261704 0.139219 -0.040390 -846883.000000 0 0 1
-35.545789 -11.739214 11.743029 39.232779 0.318979 1.266820 0.131209 -0.038338 -751135.000000 0 0 1
-34.872489 -10.497614 11.853329 38.298718 0.292400 1.256133 0.129634 -0.047834 -740194.000000 0 0 1
-33.497689 -10.462314 11.207629 36.839736 0.302729 1.261670 0.146859 -0.044870 -380852.000000 0 0 1
-32.546889 -11.410114 11.642029 36.400927 0.337187 1.245249 0.139378 -0.040644 165349.000000 0 0 1
-32.711489 -12.627214 10.957829 36.736386 0.368395 1.267903 0.138329 -0.036779 -753226.000000 0 0 1
-31.691189 -13.683714 11.389029 36.349491 0.407602 1.252109 0.100424 -0.028487 540805.000000 0 0 1
-30.462789 -13.575414 10.681129 35.019422 0.419222 1.260852 0.124703 -0.025144 -379905.000000 0 0 1
-29.521689 -14.531414 10.956529 34.680508 0.457411 1.249362 0.120695 -0.014160 16704.100000 0 0 1
-28.181889 -14.485414 10.173229 33.279734 0.474783 1.260135 0.120313 -0.010620 329296.000000 0 0 1
-28.413289 -14.671114 8.814429 33.170028 0.476639 1.301830 0.130673 -0.019578 -168684.000000 0 0 1
-27.247589 -14.454814 8.079429 31.884948 0.487748 1.314610 0.104089 -0.011899 -402770.000000 0 0 1
-27.493189 -14.333014 6.535229 31.686274 0.480565 1.363057 0.155007 -0.020253 130744.000000 0 0 1
-27.899089 -15.590614 5.927229 32.504745 0.509591 1.387421 0.154202 -0.008747 196693.000000 0 0 1
-28.183589 -15.458414 4.570229 32.467895 0.501683 1.429566 0.172766 -0.008680 -31250.400000 0 0 1
-28.871289 -16.745214 4.020929 33.617278 0.525580 1.450900 0.147144 -0.009564 1501600.000000 0 0 1
-30.321689 -16.730714 4.141729 34.878009 0.504204 1.451766 0.109958 -0.021741 1237180.000000 0 0 1
-30.858689 -17.958414 3.727829 35.897911 0.527047 1.466763 0.123367 -0.014586 -777925.000000 0 0 1
-32.352389 -18.035714 4.015229 37.257028 0.508566 1.462816 0.150988 -0.029930 -884897.000000 0 0 1
-33.049989 -17.214014 3.156229 37.397671 0.480186 1.486299 0.204304 -0.029944 -687826.000000 0 0 1
-34.414789 -17.245814 3.500629 38.652945 0.464540 1.480106 0.196344 -0.035909 -189217.000000 0 0 1
-35.369989 -16.321114 2.741629 39.050370 0.432326 1.500531 0.198772 -0.039545 14506.100000 0 0 1
-35.709289 -16.765314 1.449829 39.475702 0.438947 1.534061 0.192510 -0.037257 -11665.300000 0 0 1
-36.577889 -15.818414 0.860329 39.861063 0.408171 1.549211 0.231534 -0.045257 116408.000000 0 0 1
-37.040189 -16.268314 -0.521671 40.458692 0.413842 1.583691 0.187483 -0.044291 412395.000000 0 0 1
-35.918989 -16.263214 -1.432771 39.455275 0.425159 1.607118 0.208912 -0.038343 923843.000000 0 0 1
-36.169789 -16.981814 -2.634071 40.044649 0.438954 1.636622 0.162196 -0.030725 -777591.000000 0 0 1
-34.947789 -17.674114 -3.180471 39.291699 0.468220 1.651830 0.154866 -0.028062 -830590.000000 0 0 1
-35.239189 -18.708614 -4.097471 40.107380 0.488064 1.673137 0.124060 -0.025740 -405101.000000 0 0 1
-34.118289 -19.301114 -4.642371 39.473310 0.514826 1.688677 0.117874 -0.021972 -677656.000000 0 0 1
-34.607689 -20.444814 -5.597471 40.583423 0.533597 1.709162 0.103139 -0.021036 158224.000000 0 0 1
-35.279189 -21.551714 -5.046971 41.648163 0.548389 1.692276 0.109909 -0.024392 40629.800000 0 0 1
-35.721489 -22.436214 -6.055771 42.615500 0.560816 1.713382 0.102279 -0.015814 201647.000000 0 0 1
-36.430989 -23.706814 -5.580271 43.822019 0.576890 1.698482 0.109196 -0.021952 423244.000000 0 0 1
-35.495789 -24.526614 -4.865871 43.418689 0.604642 1.683101 0.137725 -0.022816 528115.000000 0 0 1
-36.133289 -25.764614 -4.495871 44.605412 0.619427 1.671760 0.117213 -0.020321 324674.000000 0 0 1
-35.148889 -26.811314 -3.944271 44.382972 0.651638 1.659783 0.096210 -0.019688 -688681.000000 0 0 1
-34.285489 -27.349814 -4.924671 44.133428 0.673342 1.682615 0.087884 -0.022790 321028.000000 0 0 1
-33.581689 -28.538314 -4.587371 44.308116 0.704388 1.674516 0.093537 -0.023274 -87123.600000 0 0 1
-32.565389 -28.564914 -3.431171 43.453789 0.720050 1.649840 0.127184 -0.038171 -893784.000000 0 0 1
-33.112689 -28.234614 -2.208871 43.572040 0.706049 1.621513 0.099061 -0.038511 389937.000000 0 0 1
-32.092489 -28.198414 -1.182471 42.737298 0.720900 1.598468 0.129369 -0.048509 495717.000000 0 0 1
-32.664989 -27.896414 0.216929 42.956472 0.706821 1.565746 0.102785 -0.037008 585581.000000 0 0 1
-33.594689 -28.931514 0.623129 44.339868 0.710956 1.556742 0.086897 -0.028411 249279.000000 0 0 1
-34.268389 -28.628714 1.793429 44.689396 0.695972 1.530655 0.091992 -0.019193 -228065.000000 0 0 1
-34.922889 -29.883714 2.342529 46.023168 0.707797 1.519875 0.072572 -0.015515 -763786.000000 0 0 1
-35.878889 -29.714914 3.355229 46.706834 0.691701 1.498898 0.055787 -0.012101 82673.500000 0 0 1
-36.289489 -30.952914 3.904129 47.856579 0.706201 1.489126 0.058558 -0.003320 -111008.000000 0 0 1
-37.422789 -31.710014 3.154429 49.152218 0.702951 1.506575 0.042114 0.004506 -85017.000000 0 0 1
37.795934 -32.764614 3.877929 50.170618 -0.714214 1.493424 0.061393 -0.000803 37677.700000 0 0 1
36.863234 -33.398414 3.028029 49.834938 -0.736125 1.509998 0.053863 0.001151 -1255110.000000 0 0 1
35.776234 33.416500 3.738929 49.097668 0.751308 1.494570 0.052585 0.001162 415752.000000 0 0 1
34.765134 -33.467214 4.441429 48.460244 -0.766378 1.479017 0.053479 0.008684 868736.000000 0 0 1
34.203034 -32.250614 3.962529 47.176809 -0.756026 1.486704 0.053313 0.005059 -586777.000000 0 0 1
33.218134 -32.391714 2.748229 46.478171 -0.772803 1.511632 0.058391 0.002835 -180539.000000 0 0 1
33.753034 -32.992814 1.564929 47.225439 -0.774009 1.537653 0.050782 0.005472 388788.000000 0 0 1
32.899634 -32.626114 0.444729 46.336239 -0.781224 1.561198 0.056084 0.006512 124357.000000 0 0 1
33.373534 -33.398214 -0.876971 47.222903 -0.785768 1.589368 0.043258 -0.002515 1175950.000000 0 0 1
34.548234 -32.992814 -1.612271 47.798595 -0.762373 1.604533 0.029642 0.005050 882022.000000 0 0 1
35.753134 -32.889914 -0.842671 48.587479 -0.743711 1.588141 0.033954 0.007411 -738139.000000 0 0 1
36.910934 -32.589114 -1.766271 49.270550 -0.723294 1.606652 0.024428 0.005571 -835923.000000 0 0 1
37.485834 -33.703214 -2.428671 50.467741 -0.732313 1.618938 0.014242 -0.001810 280104.000000 0 0 1
-37.650989 -33.255014 -3.590871 50.362558 0.723480 1.642157 0.027652 -0.000867 -277969.000000 0 0 1
-37.098189 33.210400 -4.367771 49.982834 -0.730158 1.658293 0.030076 -0.006839 -602235.000000 0 0 1
-36.047389 32.574900 -3.721771 48.727712 -0.734838 1.647250 0.054767 0.000154 -368470.000000 0 0 1
-35.667389 31.406100 -4.477971 47.734243 -0.721952 1.664745 0.078656 -0.015965 337866.000000 0 0 1
-34.294189 30.846900 -4.011371 46.300256 -0.732527 1.657543 0.114138 -0.028520 -207734.000000 0 0 1
-33.144989 31.598600 -4.318871 45.996896 -0.761518 1.664830 0.126580 -0.024826 -560758.000000 0 0 1
-31.948089 31.019900 -3.945071 44.704342 -0.770659 1.659159 0.185802 -0.038409 -301768.000000 0 0 1
-31.550589 31.066100 -2.392971 44.342627 -0.777661 1.624788 0.169016 -0.031614 -356686.000000 0 0 1
-32.365389 30.201900 -1.622971 44.297937 -0.750833 1.607442 0.136807 -0.016153 27936.700000 0 0 1
-32.030189 30.294700 -0.249071 44.088138 -0.757560 1.576446 0.126199 -0.012633 276017.000000 0 0 1
-33.109589 29.579400 0.646329 44.402742 -0.729145 1.556240 0.125036 -0.017735 537747.000000 0 0 1
-33.265989 28.147600 0.352029 43.577945 -0.702247 1.562718 0.126532 -0.032160 -21499.900000 0 0 1
-34.188189 27.939800 -0.679371 44.157969 -0.685162 1.586182 0.110131 -0.024747 -394569.000000 0 0 1
-34.539589 26.457500 -1.053071 43.521161 -0.653666 1.594995 0.115305 -0.015567 322780.000000 0 0 1
-34.987089 25.696700 0.102429 43.409990 -0.633483 1.568437 0.100890 -0.025540 262346.000000 0 0 1
-35.414989 24.353300 -0.248571 42.981001 -0.602393 1.576580 0.135249 -0.024700 -260494.000000 0 0 1
-35.193889 23.340800 0.928529 42.240560 -0.585603 1.548813 0.153757 -0.034711 613182.000000 0 0 1
-33.803989 23.050900 1.085729 40.929604 -0.598474 1.544266 0.158251 -0.039015 388596.000000 0 0 1
-33.252589 23.879600 2.057229 40.990269 -0.622789 1.520587 0.153622 -0.042980 186617.000000 0 0 1
-31.688189 23.718500 2.278829 39.647215 -0.642538 1.513287 0.137302 -0.047659 896076.000000 0 0 1
-30.885689 24.453700 1.464429 39.421489 -0.669689 1.533640 0.138326 -0.042719 -723199.000000 0 0 1
-30.850789 25.844900 1.640129 40.279276 -0.697333 1.530066 0.110570 -0.034078 -653392.000000 0 0 1
-30.176789 26.696100 0.582929 40.294667 -0.724273 1.556329 0.110465 -0.036490 -69127.300000 0 0 1
-28.807189 26.452300 0.390829 39.111776 -0.742809 1.560804 0.114621 -0.038607 -381128.000000 0 0 1
-28.287289 27.255500 -0.640771 39.286685 -0.766824 1.587107 0.121062 -0.028132 743746.000000 0 0 1
-27.062689 26.624200 -1.397471 37.989342 -0.777231 1.607590 0.117935 -0.029311 142127.000000 0 0 1
-27.467789 25.630600 -2.331371 37.640967 -0.750812 1.632773 0.139301 -0.040527 295268.000000 0 0 1
-26.449789 25.162000 -3.245271 36.650366 -0.760452 1.659459 0.126664 -0.021746 814480.000000 0 0 1
-25.397089 24.269800 -2.506571 35.218152 -0.762705 1.642029 0.097096 -0.024342 -134484.000000 0 0 1
-25.955189 23.085000 -2.060271 34.797037 -0.726938 1.630039 0.080649 -0.022237 -19025.400000 0 0 1
-25.035089 22.453100 -1.145271 33.648314 -0.731080 1.604839 0.087014 -0.041381 -457690.000000 0 0 1
-25.301089 20.974000 -0.739671 32.872494 -0.692161 1.593299 0.109027 -0.048650 -485536.000000 0 0 1
-26.278989 20.772400 0.254729 33.498399 -0.668895 1.563192 0.101503 -0.046175 683687.000000 0 0 1
-27.631189 21.205000 0.026329 34.830092 -0.654563 1.570040 0.094633 -0.044490 472647.000000 0 0 1
-28.372589 20.495000 -1.143671 35.019378 -0.625570 1.603460 0.123051 -0.044299 -934613.000000 0 0 1
-28.684289 19.195700 -0.755371 34.522948 -0.589759 1.592678 0.151217 -0.048607 78258.700000 0 0 1
-29.433089 18.597500 -1.815471 34.863586 -0.563515 1.622893 0.175944 -0.042792 151945.000000 0 0 1
-29.777389 17.155700 -1.399471 34.394323 -0.522684 1.611497 0.164727 -0.043743 -229080.000000 0 0 1
-30.763189 17.080500 -0.407871 35.189254 -0.506846 1.582387 0.179357 -0.043911 -120441.000000 0 0 1
-31.052289 15.705900 -0.072571 34.798351 -0.468268 1.572882 0.187227 -0.054346 59069.900000 0 0 1
-29.908789 14.845600 0.532929 33.394783 -0.460733 1.554837 0.221247 -0.056568 -218808.000000 0 0 1
-29.704689 15.088500 1.909129 33.371787 -0.469987 1.513557 0.252816 -0.051638 712498.000000 0 0 1
-28.582589 14.472500 2.573229 32.140926 -0.468707 1.490650 0.270782 -0.059303 543202.000000 0 0 1
-28.568389 12.907500 2.543029 31.451922 -0.424359 1.489853 0.303980 -0.054092 -323236.000000 0 0 1
-28.412089 12.327000 1.274429 30.997192 -0.409355 1.529670 0.279894 -0.059040 205933.000000 0 0 1
-28.217389 10.942400 1.486829 30.301284 -0.369936 1.521708 0.336009 -0.054867 -162428.000000 0 0 1
-27.944489 10.193400 0.203229 29.746280 -0.349775 1.563964 0.295036 -0.047060 1023970.000000 0 0 1
-29.164489 9.935200 -0.557871 30.815367 -0.328331 1.588901 0.275759 -0.033809 1186240.000000 0 0 1
-28.889489 9.446100 -1.889671 30.453279 -0.316016 1.632888 0.287540 -0.037194 9341.120000 0 0 1
-30.088689 8.900000 -2.714271 31.494546 -0.287592 1.657086 0.261630 -0.035732 -213300.000000 0 0 1
-29.727989 8.403700 -3.976871 31.147889 -0.275498 1.698823 0.260286 -0.033239 -199088.000000 0 0 1
-30.807189 8.134700 -4.817371 32.225196 -0.258160 1.720850 0.222801 -0.041274 -347750.000000 0 0 1
-11.581866 18.399100 -20.125971 29.626360 -1.008982 2.317641 0.181135 -0.014722 252155.000000 0 0 1
-11.905966 17.503100 -21.104071 29.891342 -0.973469 2.354667 0.181529 -0.022810 47958.800000 0 0 1
-10.781866 16.683400 -21.463971 29.245282 -0.997053 2.394885 0.181439 -0.031512 362822.000000 0 0 1
-11.060866 15.500500 -22.361271 29.370643 -0.951013 2.436186 0.164557 -0.020931 -120229.000000 0 0 1
-10.002366 14.578100 -22.269571 28.434171 -0.969445 2.470588 0.193069 -0.032951 -8168.540000 0 0 1
-10.141966 13.482700 -23.211471 28.695210 -0.925875 2.513070 0.165988 -0.032394 -121657.000000 0 0 1
-9.256266 12.337700 -22.767571 27.500174 -0.927140 2.546161 0.145003 -0.030351 -1229690.000000 0 0 1
-7.923166 12.332800 -23.095871 27.354959 -0.999749 2.576059 0.115259 -0.026595 -1222300.000000 0 0 1
-7.263966 11.432000 -22.236571 26.036914 -1.004749 2.594499 0.090463 -0.030748 -27786.200000 0 0 1
-5.732666 11.320600 -22.291671 25.650303 -1.102048 2.624097 0.069023 -0.027308 -132223.000000 0 0 1
-5.213566 11.099200 -23.553571 26.554552 -1.131661 2.661578 0.063215 -0.031987 1217660.000000 0 0 1
-3.752366 11.109700 -23.495771 26.259416 -1.245071 2.678681 0.055642 -0.029284 1487340.000000 0 0 1
-3.094166 10.769700 -24.861871 27.270367 -1.291029 2.718153 0.091081 -0.037675 -138475.000000 0 0 1
-3.124666 9.409300 -25.215711 27.094843 -1.250172 2.766971 0.103635 -0.045548 19388.800000 0 0 1
-2.667066 9.196800 -26.560211 28.233653 -1.288540 2.795569 0.116133 -0.047994 -295141.000000 0 0 1
-2.266366 7.673000 -26.777341 27.947045 -1.283594 2.851249 0.127648 -0.029040 1098820.000000 0 0 1
-0.990566 7.233700 -26.242951 27.239679 -1.434705 2.870239 0.122687 -0.034250 1069980.000000 0 0 1
-0.832266 7.382300 -24.820771 25.908718 -1.458532 2.850770 0.130457 -0.053462 -607680.000000 0 0 1
0.110134 6.332100 -24.244171 25.057682 1.553405 2.886082 0.066608 -0.042271 -210470.000000 0 0 1
1.502934 6.485500 -24.522471 25.410079 1.343078 2.876502 0.089283 -0.011280 339815.000000 0 0 1
2.266434 5.684300 -23.651871 24.430697 1.191395 2.888413 0.079555 0.007121 61329.500000 0 1 0
2.330034 6.081700 -22.135771 23.073978 1.204924 2.855448 0.068251 -0.006248 -788497.000000 0 1 0
2.975134 7.291300 -21.975471 23.343860 1.183379 2.797498 0.078862 -0.017873 14212.800000 0 1 0
2.499434 7.983300 -20.828571 22.445704 1.267381 2.759680 0.073985 -0.018269 366030.000000 0 1 0
3.072334 9.448200 -20.615171 22.884339 1.256405 2.692501 0.059259 -0.023570 50344.500000 0 1 0
2.317434 10.091000 -19.623171 22.187105 1.345057 2.656090 0.067997 -0.027103 181798.000000 0 1 0
2.806734 11.396800 -19.365471 22.644785 1.329328 2.596703 0.066415 -0.024225 268382.000000 0 1 0
4.058034 11.627700 -18.486471 22.213074 1.235015 2.553921 0.066904 -0.033287 1029890.000000 0 1 0
5.278134 11.036700 -18.948271 22.554477 1.124712 2.568285 0.077519 -0.025848 -159651.000000 0 1 0
6.322534 11.050600 -18.021271 22.064823 1.051111 2.526538 0.074914 -0.019045 252885.000000 0 1 0
7.550334 10.297700 -18.621271 22.578793 0.938130 2.540510 0.114594 -0.027941 160603.000000 0 1 0
7.384234 8.880300 -18.726871 22.001871 0.877123 2.588967 0.097008 -0.020428 172593.000000 0 1 0
6.989834 8.557400 -20.072671 22.912856 0.885885 2.638393 0.083070 -0.009641 69234.900000 0 1 0
6.902834 7.033300 -20.385071 22.642163 0.794760 2.691288 0.089317 -0.010903 -139305.000000 0 1 0
8.167434 6.441000 -20.514171 23.000536 0.667763 2.672325 0.091151 -0.013147 -93423.800000 0 1 0
8.047834 5.067100 -20.756871 22.831794 0.561917 2.711966 0.076339 0.001488 -193204.000000 0 1 0
8.191734 4.621600 -22.227671 24.135721 0.513664 2.741295 0.093371 -0.009278 -471246.000000 0 1 0
7.134134 5.019900 -23.044671 24.640457 0.613168 2.779725 0.100667 -0.009926 -172791.000000 0 1 0
7.493234 4.799800 -24.357171 25.931803 0.569704 2.791316 0.092337 -0.015974 108202.000000 0 0 1
6.459034 5.515800 -25.268601 26.657932 0.706792 2.817321 0.091264 -0.019822 206321.000000 0 0 1
6.553334 6.946800 -25.343611 27.083257 0.814535 2.781223 0.075443 -0.033409 168527.000000 0 0 1
6.069334 7.626900 -24.170771 26.062091 0.898634 2.758278 0.105393 -0.035547 -714106.000000 0 0 1
6.005734 9.179100 -24.369971 26.724898 0.991416 2.718644 0.123610 -0.046102 392701.000000 0 0 1
4.839834 9.573300 -25.075771 27.273913 1.102714 2.737361 0.121420 -0.049805 260256.000000 0 0 1
3.633734 9.594200 -24.348471 26.421596 1.208748 2.742816 0.118069 -0.047042 112312.000000 0 0 1
2.362534 9.851300 -25.227551 27.185640 1.335422 2.759733 0.146802 -0.033946 363538.000000 0 0 1
2.168334 11.188500 -25.623991 28.044128 1.379369 2.723100 0.159649 -0.049172 -449636.000000 0 0 1
1.007734 11.265800 -26.390731 28.712444 1.481583 2.736686 0.174949 -0.055742 -178045.000000 0 0 1
0.583234 12.766800 -26.696231 29.597636 1.525144 2.695111 0.156983 -0.054262 23562.900000 0 0 1
0.031834 13.398400 -25.580151 28.876673 1.568420 2.659100 0.142958 -0.051599 -117656.000000 0 0 1
-0.459666 14.665300 -25.994441 29.849510 -1.539463 2.627725 0.135816 -0.050579 -16025.800000 0 0 1
-1.024666 15.471700 -24.782271 29.233275 -1.504665 2.582510 0.133963 -0.046340 208041.000000 0 0 1
-2.183266 14.833200 -24.264171 28.522631 -1.424658 2.588110 0.111640 -0.038844 -90111.000000 0 0 1
-2.589366 15.595500 -23.142071 28.026414 -1.406264 2.542280 0.096198 -0.039088 -1060040.000000 0 0 1
-3.799666 15.118100 -22.350371 27.249468 -1.324564 2.532580 0.084217 -0.033721 293640.000000 0 0 1
-5.104066 15.456200 -22.835771 28.043146 -1.251843 2.522333 0.092599 -0.031624 456893.000000 0 0 1
-5.487666 14.913900 -24.056271 28.831286 -1.218215 2.557805 0.104385 -0.037787 -789773.000000 0 0 1
-6.944666 15.303100 -24.418271 29.642287 -1.144780 2.538816 0.093083 -0.036358 119883.000000 0 0 1
-7.236366 16.628000 -24.799171 30.722211 -1.160325 2.510201 0.104667 -0.033747 -437971.000000 0 0 1
-8.583066 16.610700 -25.187941 31.369041 -1.093863 2.503033 0.124048 -0.032124 -234187.000000 0 0 1
-9.256766 17.966000 -25.522071 32.555199 -1.095033 2.471820 0.129658 -0.028681 -164966.000000 0 0 1
-9.510166 18.799000 -24.403271 32.239189 -1.102450 2.429421 0.132357 -0.033615 -19354.400000 0 0 1
-10.831666 19.290300 -24.302171 32.863904 -1.059160 2.403093 0.124138 -0.024047 188049.000000 0 0 1
-11.011766 20.462800 -23.265871 32.882912 -1.077107 2.356803 0.098988 -0.023665 64921.300000 0 0 1
-10.332666 21.657300 -23.613171 33.665776 -1.125637 2.348156 0.138082 -0.014447 -178059.000000 0 0 1
-11.158566 22.642300 -24.145771 34.931441 -1.112910 2.333990 0.107680 -0.019828 -370904.000000 0 0 1
-10.992866 22.982200 -25.667171 36.163909 -1.124642 2.359933 0.091259 -0.015862 101229.000000 0 0 1
-11.833266 22.163500 -26.499341 36.516599 -1.080392 2.382818 0.094419 -0.018007 319068.000000 0 0 1
-11.876866 22.541700 -27.816691 37.722095 -1.085873 2.400026 0.088796 -0.014378 -320098.000000 0 0 1
-12.802466 21.647000 -28.621421 38.100938 -1.036710 2.420674 0.096952 -0.016462 -319813.000000 0 0 1
-12.224566 20.452500 -29.174181 37.667992 -1.032066 2.456734 0.126173 -0.024974 -167879.000000 0 0 1
-11.926666 19.417200 -28.236381 36.284518 -1.019978 2.462581 0.131479 -0.025496 -361669.000000 0 0 1
-10.822266 18.528200 -28.795951 35.911313 -1.042152 2.501203 0.103745 -0.023686 -1116020.000000 0 0 1
-9.600766 19.191600 -28.912261 36.005708 -1.106942 2.503093 0.087908 -0.029350 -32742.100000 0 0 1
-8.520266 18.507100 -29.565461 35.905768 -1.139345 2.538205 0.077624 -0.027510 1108510.000000 0 0 1
-7.930966 17.194900 -28.947521 34.590805 -1.138635 2.562311 0.103622 -0.040783 -459005.000000 0 0 1
-8.768966 16.067600 -29.198771 34.462019 -1.071218 2.581628 0.080659 -0.033083 72615.200000 0 0 1
-8.575366 14.917300 -28.413011 33.216892 -1.049067 2.597077 0.087644 -0.037172 387888.000000 0 0 1
-9.867866 14.033600 -28.215851 33.021977 -0.957953 2.595301 0.087356 -0.026408 599815.000000 0 0 1
-10.812566 14.560500 -27.326021 32.796816 -0.932051 2.555650 0.107768 -0.027949 -366699.000000 0 0 1
-11.828366 13.626100 -27.029371 32.498734 -0.855907 2.552968 0.152572 -0.032055 353533.000000 0 0 1
-12.983966 14.164800 -26.123451 32.429302 -0.828866 2.507401 0.135749 -0.031691 430189.000000 0 0 1
-13.744266 15.119300 -26.850411 33.740816 -0.833001 2.491098 0.143923 -0.029040 14412.900000 0 0 1
-14.926766 15.372300 -26.078031 33.751735 -0.800102 2.453790 0.109090 -0.026215 195543.000000 0 0 1
-15.597866 16.691100 -26.461121 34.958220 -0.819243 2.429407 0.085474 -0.018204 -234808.000000 0 0 1
-14.905366 17.893100 -26.345361 35.162636 -0.876241 2.417715 0.089894 -0.018592 -560832.000000 0 0 1
-15.824166 18.916000 -26.544531 36.233015 -0.874163 2.392939 0.059526 -0.014692 -172732.000000 0 0 1
-15.283366 20.319600 -26.219531 36.523023 -0.925921 2.371564 0.068344 -0.013682 -174964.000000 0 0 1
-16.274066 21.284200 -26.506161 37.688711 -0.918012 2.350814 0.024540 -0.004919 303045.000000 0 0 1
-15.807566 22.674700 -26.632041 38.383418 -0.961989 2.337607 0.035215 -0.007134 149098.000000 0 0 1
-15.115366 23.413700 -25.434061 37.730188 -0.997536 2.310547 0.012885 -0.007453 81282.700000 0 0 1
-14.637166 24.682500 -25.788991 38.581660 -1.035526 2.302887 0.032881 -0.009585 -13807.800000 0 0 1
-14.195966 25.240100 -24.569371 37.976862 -1.058455 2.274382 0.043555 -0.014257 21333.000000 0 0 1
-13.660666 26.696300 -24.663171 38.827545 -1.097828 2.259061 0.056991 -0.010763 -103766.000000 0 0 1
-14.677866 27.635000 -24.915571 39.998983 -1.082553 2.243247 0.071366 -0.015115 -1652.890000 0 0 1
-15.132666 28.280100 -23.703571 39.882589 -1.079465 2.207233 0.060059 -0.019407 -680374.000000 0 0 1
-16.373266 29.143000 -23.904471 41.095280 -1.058920 2.191594 0.051700 -0.016029 -377060.000000 0 0 1
-17.473966 28.267400 -24.087971 41.044071 -1.017126 2.197997 0.032801 -0.017441 -593173.000000 0 0 1
-18.496866 28.888100 -24.824871 42.343011 -1.001275 2.197256 0.040034 -0.011626 -177671.000000 0 0 1
-19.769866 28.048700 -24.967071 42.437387 -0.956829 2.199785 0.070771 -0.003957 -87068.100000 0 0 1
-20.423866 27.697000 -23.769071 41.823759 -0.935406 2.175253 0.067436 -0.010119 -28929.400000 0 0 1
-21.604266 26.963300 -24.049271 42.096690 -0.895295 2.178869 0.068239 -0.023108 142244.000000 0 0 1
-22.231866 26.372400 -22.740271 41.314395 -0.870382 2.153664 0.075155 -0.020171 -453684.000000 0 0 1
-22.857966 27.441600 -22.072671 41.984888 -0.876274 2.124368 0.089397 -0.016276 -236808.000000 0 0 1
-23.228966 26.985600 -20.786971 41.229912 -0.860071 2.099219 0.071889 -0.009290 -108270.000000 0 0 1
-24.409566 27.855800 -20.246671 42.210191 -0.851240 2.071067 0.055749 -0.007608 164526.000000 0 0 1
-25.623706 27.483800 -20.866271 42.980633 -0.820409 2.077709 0.090298 -0.017247 -332108.000000 0 0 1
-26.670626 28.351700 -20.493871 43.990225 -0.815941 2.055418 0.090115 -0.025814 -121857.000000 0 0 1
-28.044966 27.721900 -20.752571 44.561116 -0.779605 2.055233 0.091493 -0.024145 -237451.000000 0 0 1
-28.384986 27.563400 -22.136671 45.337409 -0.770715 2.080897 0.089089 -0.025932 13730.300000 0 0 1
-29.773956 27.389500 -22.320271 46.204628 -0.743709 2.074959 0.097788 -0.026047 -107507.000000 0 0 1
-30.184466 27.137400 -23.770071 47.037822 -0.732291 2.100572 0.090278 -0.026609 -73039.400000 0 0 1
-29.945786 25.791800 -24.097671 46.288927 -0.711008 2.118341 0.095447 -0.007277 5667.810000 0 0 1
-30.391466 25.464900 -25.400241 47.087945 -0.697425 2.140546 0.108601 -0.006069 260270.000000 0 0 1
-30.900506 24.009800 -25.704061 46.818912 -0.660561 2.151976 0.085513 -0.009041 -741153.000000 0 0 1
-29.892736 23.100700 -25.519951 45.590415 -0.657926 2.164899 0.131576 -0.017995 -506047.000000 0 0 1
-30.236246 21.868000 -26.083431 45.527853 -0.626152 2.180850 0.115077 -0.011746 -411658.000000 0 0 1
-29.069126 20.888700 -25.966361 44.222209 -0.623092 2.198366 0.127545 -0.016102 -233240.000000 0 0 1
-28.914096 20.370200 -24.629371 43.099604 -0.613745 2.179071 0.116865 -0.008916 216045.000000 0 0 1
-28.153946 19.173100 -24.465671 41.938306 -0.597867 2.193672 0.131503 -0.010090 95524.300000 0 0 1
-28.997546 17.860000 -24.373471 41.879629 -0.552039 2.191968 0.110747 -0.012168 180192.000000 0 0 1
-29.638396 17.595300 -25.633731 42.954828 -0.535749 2.210254 0.104257 -0.016870 673959.000000 0 0 1
-30.347626 16.326100 -25.596781 42.926858 -0.493560 2.209666 0.074160 -0.013303 -44397.700000 0 0 1
-31.062756 15.962400 -26.881031 44.071338 -0.474687 2.226786 0.058940 -0.015655 -18850.200000 0 0 1
-32.218836 16.710400 -27.220491 45.367896 -0.478459 2.214291 0.044645 -0.012157 38794.000000 0 0 1
-32.757256 16.068600 -28.348111 46.204471 -0.456047 2.231327 0.042247 -0.008644 -862111.000000 0 0 1
-34.023140 16.726900 -28.863311 47.649281 -0.456932 2.221498 0.042056 -0.012570 -294609.000000 0 0 1
-35.137938 16.409600 -28.030591 47.850430 -0.436905 2.196658 0.019371 -0.002531 231476.000000 0 0 1
-36.354216 16.814000 -28.636231 49.237926 -0.433204 2.191477 0.037058 -0.003958 -41621.200000 0 0 1
-37.583576 16.340600 -27.862331 49.556532 -0.410125 2.167880 0.038078 -0.010348 -430797.000000 0 0 1
37.820707 17.165700 -26.815461 49.438204 0.426068 2.144092 0.052023 -0.018717 870711.000000 0 0 1
36.655117 16.591800 -26.168841 47.996809 0.425052 2.147448 0.060989 -0.015524 770313.000000 0 0 1
36.027977 17.479700 -25.069871 47.244613 0.451714 2.130152 0.063792 -0.007341 7001.230000 0 0 1
35.328787 18.576800 -25.610131 47.424672 0.484094 2.141254 0.070995 -0.030019 253023.000000 0 0 1
34.943407 19.609100 -24.685171 47.062896 0.511377 2.122941 0.096173 -0.020316 -321864.000000 0 0 1
34.316457 20.870500 -25.282431 47.459438 0.546411 2.132604 0.111823 -0.032625 984876.000000 0 0 1
32.998657 20.803600 -25.872741 46.809185 0.562500 2.156430 0.117498 -0.041516 875886.000000 0 0 1
31.956367 21.128900 -24.968371 45.728102 0.584194 2.148400 0.137819 -0.036372 -726294.000000 0 0 1
30.622057 21.203200 -25.677001 45.239302 0.605618 2.174362 0.099089 -0.040673 -711959.000000 0 0 1
30.082757 19.927100 -25.950521 44.446497 0.585049 2.194271 0.122639 -0.052891 -359761.000000 0 0 1
28.984157 20.088900 -26.819101 44.304734 0.606080 2.220980 0.122093 -0.060723 -254485.000000 0 0 1
28.168657 18.799000 -27.103521 43.375989 0.588491 2.245737 0.130463 -0.041001 -233625.000000 0 0 1
28.878357 17.826900 -27.821951 43.884152 0.553050 2.257493 0.121758 -0.051916 876157.000000 0 0 1
29.853257 17.104300 -26.992211 43.730464 0.520289 2.236027 0.133138 -0.039974 1196860.000000 0 0 1
30.976157 16.271300 -27.702421 44.628484 0.483670 2.240475 0.105344 -0.029134 291462.000000 0 0 1
30.488757 15.187100 -28.477971 44.398278 0.462144 2.267145 0.116196 -0.041156 222671.000000 0 0 1
29.790657 14.152800 -27.754811 43.105852 0.443510 2.270349 0.130431 -0.031214 -58001.300000 0 0 1
30.525257 13.412100 -26.599181 42.651989 0.413985 2.244178 0.123516 -0.017644 -94451.300000 0 0 1
30.629257 14.157800 -25.395681 42.231922 0.432979 2.215972 0.126876 -0.025277 141681.000000 0 0 1
31.376507 13.381100 -24.482471 41.987265 0.403114 2.193327 0.098568 -0.013194 99976.700000 0 0 1
-16.174966 -30.839014 -22.694471 41.565771 1.087744 2.148366 0.128441 -0.021571 161535.000000 0 0 1
-15.302266 -29.996814 -23.459571 41.040464 1.099078 2.179276 0.140360 -0.053059 331672.000000 0 0 1
-15.612066 -29.975614 -24.851771 41.950978 1.090627 2.204831 0.122248 -0.039260 86381.700000 0 0 1
-14.740166 -28.990314 -25.671091 41.433268 1.100410 2.239000 0.144330 -0.045713 108039.000000 0 0 1
-15.122866 -27.645514 -25.456341 40.509268 1.070238 2.250301 0.142767 -0.028950 122057.000000 0 0 1
-14.235866 -26.787314 -26.136381 40.041609 1.082314 2.281979 0.139226 -0.034349 -137715.000000 0 0 1
-14.490166 -25.300414 -25.871891 38.979874 1.050674 2.296583 0.083493 -0.013808 -177227.000000 0 0 1
-14.072766 -24.776214 -24.653371 37.678803 1.054242 2.284057 0.137231 -0.040403 132911.000000 0 0 1
-14.502966 -23.419014 -24.445071 36.828626 1.016320 2.296620 0.100812 -0.032958 -74874.900000 0 0 1
-14.092066 -22.728914 -23.129671 35.357765 1.015796 2.283869 0.127599 -0.025676 862374.000000 0 0 1
-12.698966 -22.376414 -23.076771 34.561611 1.054605 2.301911 0.174536 -0.040931 659803.000000 0 0 1
-12.286666 -21.782214 -21.866571 33.220083 1.057216 2.289266 0.142490 -0.033933 -646670.000000 0 0 1
-10.791666 -21.559514 -21.835971 32.528177 1.106707 2.306750 0.158226 -0.042420 -908748.000000 0 0 1
-10.380266 -20.372114 -22.514871 32.088820 1.099551 2.348496 0.173750 -0.046689 161918.000000 0 0 1
-8.967366 -20.237414 -22.454671 31.530601 1.153688 2.363359 0.187814 -0.049190 235827.000000 0 0 1
-8.332166 -19.181114 -23.370271 31.360958 1.160996 2.411635 0.218822 -0.049835 -154691.000000 0 0 1
-8.206866 -17.884214 -22.836571 30.144763 1.140575 2.430369 0.163475 -0.041885 -161739.000000 0 0 1
-8.262066 -16.806514 -23.742371 30.239392 1.113892 2.473730 0.152390 -0.038696 -6489.500000 0 0 1
-6.995066 -16.484014 -24.558071 30.393297 1.169473 2.511562 0.180861 -0.047701 -109779.000000 0 0 1
-6.892766 -17.262714 -25.700391 31.717844 1.190905 2.515429 0.203998 -0.052373 -154976.000000 0 0 1
-5.714266 -16.896714 -26.380831 31.844937 1.244683 2.547069 0.177458 -0.052004 17875.300000 0 0 1
-5.429066 -17.768614 -27.640601 33.304672 1.274263 2.549781 0.185919 -0.041809 -771152.000000 0 0 1
-6.388266 -17.657014 -28.615431 34.226057 1.223650 2.560879 0.222562 -0.041051 -662217.000000 0 0 1
-6.276666 -18.568214 -29.691431 35.577467 1.244822 2.558125 0.222585 -0.045409 45654.700000 0 0 1
-7.420066 -18.334114 -30.726681 36.542113 1.186233 2.569660 0.236285 -0.048625 114607.000000 0 0 1
-7.319966 -17.179914 -31.520071 36.636678 1.168014 2.606736 0.183634 -0.038138 -88488.200000 0 0 1
-7.565566 -15.950014 -30.868061 35.559498 1.127895 2.622094 0.149954 -0.029711 -86036.400000 0 0 1
-8.195366 -14.907714 -31.762631 36.031496 1.068153 2.649877 0.102688 -0.027881 -173678.000000 0 0 1
-7.210366 -14.494714 -32.680241 36.470320 1.109192 2.681649 0.106519 -0.037828 25259.700000 0 0 1
-7.674366 -13.531714 -33.655591 37.076973 1.054890 2.708619 0.089633 -0.025280 -257111.000000 0 0 1
-8.105566 -12.102714 -33.194121 36.249490 0.980675 2.728074 0.064379 -0.022857 -302586.000000 0 0 1
-7.117866 -11.104514 -33.194051 35.718612 1.000782 2.763366 0.058703 -0.023599 -383670.000000 0 0 1
-6.866166 -10.652114 32.855214 35.214725 0.998239 0.368145 0.033846 -0.018992 405474.000000 0 0 1
-5.767066 -9.528914 32.914921 34.748399 1.026549 0.326298 0.068603 -0.027743 244122.000000 0 0 1
-5.591066 -8.941814 31.654970 33.365449 1.012001 0.321587 0.044278 -0.017304 326217.000000 0 0 1
-4.624766 -7.881514 31.845929 33.131102 1.040149 0.279442 0.054752 -0.032845 36029.800000 0 0 1
-4.572166 -6.800614 30.759836 31.832696 0.978892 0.260362 0.052917 -0.024464 1303970.000000 0 0 1
-5.737366 -5.918214 30.724016 31.810498 0.800913 0.262111 0.024915 -0.013936 704261.000000 0 0 1
-6.901866 -6.438014 30.163796 31.605986 0.750640 0.303254 0.032808 -0.009708 -1119840.000000 0 0 1
-8.025866 -5.428114 29.979666 31.506496 0.594661 0.312594 0.026982 0.000129 -1132730.000000 0 0 1
-9.068766 -6.079214 29.348606 31.313576 0.590546 0.356143 0.040068 0.001338 -795588.000000 0 0 1
-10.201566 -5.196114 29.398156 31.548742 0.471095 0.371365 0.041828 -0.007525 219711.000000 0 0 1
-11.272266 -5.720814 28.421246 31.105609 0.469639 0.418495 0.037977 -0.008059 -274576.000000 0 0 1
-10.920966 -5.446214 27.105666 29.726181 0.462602 0.423041 0.047130 -0.014178 -176087.000000 0 0 1
-11.716566 -6.180914 26.274296 29.424823 0.485433 0.466985 0.053337 -0.021181 -491381.000000 0 0 1
-11.362966 -6.045714 24.755936 27.902043 0.488961 0.479459 0.053564 -0.022784 -175785.000000 0 0 1
-10.187566 -6.711014 24.368136 27.251243 0.582499 0.464149 0.058767 -0.020460 -55400.700000 0 0 1
-9.611066 -6.270014 23.140216 25.829349 0.578043 0.460369 0.063765 -0.030111 -302285.000000 0 0 1
-10.396466 -6.573014 21.837066 25.062890 0.563785 0.512970 0.091635 -0.044932 729300.000000 0 0 1
-11.529466 -5.660414 21.806466 25.307920 0.456383 0.532292 0.065300 -0.037008 273388.000000 0 0 1
-12.335666 -5.856914 20.700666 24.798985 0.443281 0.583139 0.068592 -0.043434 45411.100000 0 1 0
-13.617566 -4.970914 20.679966 25.254882 0.350007 0.611391 0.082792 -0.041470 122264.000000 0 0 1
-13.332866 -3.699314 20.224166 24.504431 0.270650 0.600015 0.071755 -0.037465 1081150.000000 0 1 0
-14.445466 -2.751814 20.390766 25.140153 0.188241 0.624794 0.089891 -0.034780 1108720.000000 0 0 1
-14.105766 -1.355814 19.956066 24.475609 0.095823 0.617471 0.068993 -0.028377 256029.000000 0 1 0
-13.018866 -0.759814 20.686266 24.453830 0.058296 0.562487 0.059097 -0.030464 507364.000000 0 1 0
-13.151366 0.653186 20.695766 24.529570 -0.049626 0.566645 0.064255 -0.030754 -193494.000000 0 1 0
-12.627666 1.388186 19.396666 23.186540 -0.109492 0.579843 0.055186 -0.036213 202305.000000 0 1 0
-13.403066 1.097186 18.253566 22.672421 -0.081679 0.634952 0.065488 -0.029824 1672140.000000 0 1 0
-14.760166 1.659186 18.216766 23.504594 -0.111940 0.684034 0.065913 -0.025061 1583800.000000 0 1 0
-15.709866 1.006186 17.190466 23.309320 -0.063961 0.741445 0.090153 -0.023266 -58080.100000 0 1 0
-15.950666 -0.317814 17.637166 23.782228 0.019922 0.735327 0.079306 -0.026103 446175.000000 0 1 0
-17.004466 -0.936814 16.903266 23.994789 0.055037 0.789140 0.100612 -0.023610 173826.000000 0 1 0
-17.119966 -2.463814 17.196266 24.390063 0.142933 0.788300 0.104889 -0.024835 42647.800000 0 1 0
-17.917666 -2.745214 18.329666 25.778976 0.152030 0.779832 0.120487 -0.025714 33736.300000 0 0 1
-17.931766 -4.132714 18.520366 26.108074 0.226514 0.782188 0.145376 -0.033601 -56429.000000 0 0 1
-18.722566 -4.627514 19.731966 27.591644 0.242306 0.773968 0.134898 -0.031651 -150086.000000 0 0 1
-18.132866 -4.242314 20.950766 28.030923 0.229823 0.726632 0.129131 -0.031536 242516.000000 0 0 1
-18.970866 -4.498014 22.077666 29.454188 0.232802 0.723400 0.120662 -0.032018 -525623.000000 0 0 1
-18.949266 -6.031514 22.564176 30.076500 0.308158 0.722392 0.136835 -0.030751 609718.000000 0 0 1
-17.729966 -6.508014 23.152046 29.878473 0.351794 0.684281 0.090156 -0.034764 859298.000000 0 0 1
-16.623766 -6.581314 22.251306 28.544420 0.376965 0.676877 0.104649 -0.030000 689527.000000 0 0 1
-15.329366 -7.203614 22.951036 28.524228 0.439297 0.635769 0.110541 -0.028987 764125.000000 0 0 1
-15.486866 -8.540514 23.296416 29.249041 0.503970 0.649337 0.116368 -0.035723 91675.200000 0 0 1
-15.506866 -8.598814 24.685926 30.394036 0.506304 0.622889 0.097829 -0.030901 17081.000000 0 0 1
-16.632266 -9.542714 25.155496 31.630596 0.520892 0.651311 0.090294 -0.013688 -396238.000000 0 0 1
-16.416266 -10.950514 24.960276 31.818594 0.588270 0.668978 0.099085 -0.026865 180310.000000 0 0 1
-15.611866 -11.460614 26.040976 32.453173 0.633245 0.639462 0.090972 -0.022630 332573.000000 0 0 1
-15.557766 -12.983414 25.988326 32.954608 0.695444 0.662252 0.090953 -0.031768 -102314.000000 0 0 1
-16.750566 -13.594214 26.423226 34.111156 0.681755 0.684680 0.091178 -0.031965 -170501.000000 0 0 1
-16.805066 -14.998114 26.310886 34.635479 0.728642 0.708020 0.097000 -0.026907 286232.000000 0 0 1
-15.822066 -15.935614 27.117196 35.208293 0.788974 0.691652 0.094863 -0.023720 690652.000000 0 0 1
-14.517966 -16.096114 26.567466 34.288285 0.836902 0.684356 0.089834 -0.034332 172023.000000 0 0 1
-13.683766 -16.681614 27.534866 34.981288 0.883805 0.664652 0.099177 -0.035387 -745294.000000 0 0 1
-12.258266 -16.826914 27.016556 34.107249 0.941203 0.656545 0.116650 -0.038876 -495077.000000 0 0 1
-11.443366 -17.604614 27.906876 34.923728 0.994406 0.645032 0.147853 -0.051540 -352189.000000 0 0 1
-10.260966 -17.911614 27.210456 34.154388 1.050567 0.648998 0.146886 -0.053130 -290035.000000 0 0 1
-9.299166 -18.652114 28.174116 35.045066 1.108303 0.636906 0.178679 -0.066932 12167.200000 0 0 1
-9.862466 -19.886314 28.651616 36.244293 1.110400 0.659149 0.177751 -0.060308 -336397.000000 0 0 1
-9.085166 -20.408114 29.625526 37.103950 1.151963 0.646086 0.203501 -0.064659 -714143.000000 0 0 1
-9.332266 -21.880114 30.075376 38.345258 1.167640 0.669179 0.193416 -0.062541 -104991.000000 0 0 1
-9.072566 -22.829814 29.063296 38.055053 1.192533 0.701745 0.226188 -0.063847 117052.000000 0 0 1
-9.343366 -24.120814 29.564466 39.283200 1.201236 0.718797 0.184017 -0.053953 -143349.000000 0 0 1
-9.368966 -25.294614 28.543536 39.272490 1.216070 0.757134 0.176126 -0.037714 -572.163000 0 0 1
-10.510466 -25.368314 27.705696 39.008035 1.178011 0.780934 0.152690 -0.037138 51443.000000 0 0 1
-10.515266 -26.498514 26.828506 39.147296 1.193030 0.815750 0.133111 -0.027453 -611453.000000 0 0 1
-11.853666 -26.794014 26.139586 39.264571 1.154281 0.842325 0.109474 -0.022981 -277689.000000 0 0 1
-12.060666 -26.071814 24.957376 38.053512 1.137519 0.855489 0.120494 -0.029329 216691.000000 0 0 1
-12.274066 -24.677214 25.044276 37.240211 1.109243 0.833206 0.103677 -0.016424 -458462.000000 0 0 1
-12.541666 -23.988114 23.655266 35.948499 1.089053 0.852594 0.122468 -0.039024 511291.000000 0 0 1
-13.822466 -24.451814 23.212786 36.438787 1.056287 0.880151 0.094305 -0.026675 442463.000000 0 0 1
-14.123366 -23.800014 22.044366 35.381693 1.035230 0.898167 0.112133 -0.041892 299187.000000 0 0 1
-15.546566 -24.030714 21.456666 35.770930 0.996571 0.927501 0.093978 -0.043626 197809.000000 0 0 1
-15.709166 -25.382214 21.075566 36.540582 1.016592 0.956025 0.104324 -0.045456 1043260.000000 0 0 1
-17.040966 -25.539414 20.537666 36.938488 0.982396 0.981235 0.095390 -0.048101 1122630.000000 0 0 1
-17.577866 -26.947714 20.098066 37.935378 0.992809 1.012435 0.092447 -0.050085 -277241.000000 0 0 1
-16.994066 -27.315014 18.925066 37.323805 1.014248 1.039037 0.098954 -0.049751 -222049.000000 0 0 1
-17.073766 -28.743214 18.605366 38.260234 1.034793 1.062964 0.103114 -0.038862 181972.000000 0 0 1
-15.854366 -29.127214 17.709166 37.594814 1.072329 1.080312 0.120270 -0.040607 209177.000000 0 0 1
-15.918566 -28.755614 16.338966 36.704876 1.065208 1.109461 0.121321 -0.049850 263673.000000 0 0 1
-14.644266 -28.759514 15.713266 35.895277 1.099818 1.117698 0.115742 -0.053484 462162.000000 0 0 1
-14.894966 -28.367414 14.221666 35.054614 1.087292 1.153051 0.121240 -0.038452 220984.000000 0 0 1
-15.239466 -27.009314 14.034666 34.039921 1.057094 1.145819 0.120168 -0.046566 -105371.000000 0 0 1
-15.572366 -26.652814 12.730066 33.390502 1.042025 1.179650 0.126686 -0.038157 450238.000000 0 0 1
-14.394166 -26.746814 11.686166 32.544593 1.077086 1.203513 0.112920 -0.036153 710510.000000 0 0 1
-14.707266 -26.298114 10.389366 31.872141 1.060878 1.238759 0.096493 -0.030312 349635.000000 0 0 1
-13.573866 -26.502614 9.527566 31.263603 1.097460 1.261121 0.092799 -0.030936 661970.000000 0 0 1
-13.688066 -25.724014 8.172866 30.263572 1.081790 1.297345 0.095255 -0.033224 -287079.000000 0 0 1
-14.729566 -26.183214 7.372366 30.933357 1.058363 1.330150 0.094638 -0.043448 -243304.000000 0 0 1
-14.740566 -25.376314 6.234866 30.001919 1.044555 1.361455 0.090992 -0.045165 176914.000000 0 0 1
-15.683166 -25.775514 5.102966 30.600312 1.024185 1.403252 0.090671 -0.046193 270017.000000 0 0 1
-15.051566 -26.904714 4.540366 31.161325 1.060735 1.424571 0.049873 -0.037132 1043640.000000 0 0 1
-15.918566 -27.313114 3.450966 31.801197 1.043107 1.462065 0.115953 -0.038974 753431.000000 0 0 1
-15.336066 -28.553914 2.682966 32.522596 1.077918 1.488207 0.121180 -0.036730 -277154.000000 0 0 1
-14.105366 -28.231314 2.106666 31.629203 1.107440 1.504142 0.054839 -0.017134 -668871.000000 0 0 1
-13.639166 -29.413114 1.467366 32.454758 1.136600 1.525568 0.061193 -0.018599 -399162.000000 0 0 1
-12.248766 -29.217014 0.860866 31.692385 1.173820 1.543630 0.067963 -0.021449 -767587.000000 0 0 1
-12.099466 -28.505714 -0.358034 30.969356 1.169385 1.582358 0.078245 -0.021162 -254772.000000 0 0 1
-12.516866 -27.163814 -0.399034 29.911602 1.139004 1.584137 0.066577 -0.025429 -530684.000000 0 0 1
-12.408166 -26.576714 -1.823334 29.387223 1.133993 1.632881 0.081883 -0.029935 498126.000000 0 0 1
-11.066366 -26.556414 -2.301634 28.861828 1.175967 1.650628 0.097415 -0.032153 -235189.000000 0 0 1
-10.716766 -25.627514 -3.216734 27.963654 1.174721 1.686084 0.119583 -0.035233 1257910.000000 0 0 1
-9.258366 -25.825014 -3.812034 27.698020 1.226566 1.708863 0.112513 -0.033363 1189750.000000 0 0 1
-8.900066 -25.029714 -4.927734 27.018148 1.229159 1.754209 0.110275 -0.038619 329422.000000 0 0 1
-7.633466 -25.574714 -5.343234 27.219220 1.280737 1.768383 0.123495 -0.023932 850135.000000 0 0 1
-6.721866 -24.625114 -6.145134 26.255331 1.304320 1.807041 0.098014 -0.023767 9585.450000 0 0 1
-7.231166 -24.347614 -7.435234 26.464670 1.282097 1.855580 0.117922 -0.031430 -409329.000000 0 0 1
-6.424666 -23.384314 -8.038734 25.548458 1.302669 1.890881 0.105295 -0.021230 -303637.000000 0 0 1
-6.549066 -23.318914 -9.546834 26.034670 1.297002 1.946252 0.108521 -0.035920 -34059.200000 0 0 1
-6.005366 -24.455814 -10.188534 27.165373 1.330001 1.955253 0.090366 -0.034758 -159149.000000 0 0 1
-6.209666 -24.546414 -11.588934 27.845822 1.323018 2.000039 0.082193 -0.019264 365273.000000 0 0 1
-7.497066 -25.267114 -12.097134 28.999547 1.282358 2.001102 0.116052 -0.025604 376082.000000 0 0 1
-7.651166 -24.940514 -13.428234 29.340877 1.273134 2.046161 0.130826 -0.033780 673315.000000 0 0 1
-8.791266 -25.515514 -14.107534 30.452428 1.238989 2.052472 0.158753 -0.034649 177986.000000 0 0 1
-8.743766 -25.135014 -15.629834 30.862827 1.236019 2.101835 0.159602 -0.034519 604910.000000 0 0 1
-7.616966 -25.605314 -16.371434 31.331680 1.281657 2.120600 0.141895 -0.053422 336628.000000 0 0 1
-6.384066 -24.990314 -16.162034 30.438191 1.320684 2.130552 0.144680 -0.040865 -325928.000000 0 0 1
-5.094166 -25.716414 -16.632334 31.047045 1.375238 2.136149 0.130891 -0.036195 219008.000000 0 0 1
-4.986866 -25.624614 -17.994134 31.706128 1.378587 2.174297 0.202412 -0.050220 -82097.400000 0 0 1
-3.895666 -26.399514 -18.392134 32.409584 1.424288 2.174251 0.179008 -0.055554 -416843.000000 0 0 1
-26.566416 14.877100 -4.107771 30.724198 -0.510486 1.704896 0.177101 -0.050873 -229125.000000 0 0 1
-26.092946 13.589000 -3.895471 29.676210 -0.480143 1.702442 0.187879 -0.049950 -454131.000000 0 0 1
-24.778666 13.453000 -4.340871 28.527332 -0.497396 1.723555 0.201836 -0.045260 -519093.000000 0 0 1
-24.143466 12.053600 -4.059971 27.288818 -0.463047 1.720129 0.188156 -0.044122 117756.000000 0 0 1
-24.690866 10.958500 -4.830071 27.441887 -0.417710 1.747729 0.204450 -0.021544 717855.000000 0 0 1
-26.072486 10.650700 -4.624171 28.541109 -0.387815 1.733532 0.229636 -0.029969 391134.000000 0 0 1
-26.611326 9.784500 -5.764871 28.933248 -0.352339 1.771386 0.242946 -0.025200 -140346.000000 0 0 1
-26.801716 10.516100 -6.935071 29.614448 -0.373909 1.807170 0.285050 -0.038144 79874.300000 0 0 1
-26.866306 9.624300 -8.029871 29.646321 -0.343987 1.845078 0.267336 -0.036631 -200099.000000 0 0 1
-27.193086 10.378700 -9.385971 30.582312 -0.364603 1.882739 0.260857 -0.034464 383708.000000 0 0 1
-26.184256 11.254900 -9.908671 30.173992 -0.405958 1.905389 0.228942 -0.028652 441207.000000 0 0 1
-26.650696 11.796100 -11.142671 31.202030 -0.416699 1.935972 0.218601 -0.031363 313082.000000 0 0 1
-25.718446 12.873100 -11.812671 31.091709 -0.464079 1.960517 0.191532 -0.025652 221829.000000 0 0 1
-25.603136 14.124100 -11.215871 31.317831 -0.504113 1.937061 0.176546 -0.030146 36876.500000 0 0 1
-24.718366 14.923300 -11.963071 31.254081 -0.543160 1.963587 0.146162 -0.026707 -77852.400000 0 0 1
-24.605166 16.384500 -11.362971 31.669909 -0.587469 1.937772 0.147808 -0.034023 -137462.000000 0 0 1
-23.785066 16.546100 -10.225571 30.725642 -0.607801 1.910070 0.137311 -0.021328 94327.300000 0 0 1
-23.929466 17.854900 -9.700871 31.393052 -0.641031 1.884952 0.102507 -0.014344 129509.000000 0 0 1
-22.954766 18.083200 -8.506371 30.434877 -0.667242 1.854064 0.098753 -0.017408 24168.200000 0 0 1
-23.221066 17.433300 -7.280371 29.935625 -0.643983 1.816461 0.130037 -0.031336 -96935.000000 0 0 1
-24.117766 18.230700 -6.555871 30.935489 -0.647269 1.784336 0.126466 -0.028357 -400322.000000 0 0 1
-24.325466 17.682000 -5.158571 30.512166 -0.628548 1.740678 0.129069 -0.019416 -653908.000000 0 0 1
-23.270766 17.652500 -4.261071 29.517724 -0.648963 1.715659 0.124033 -0.036372 -349147.000000 0 0 1
-23.705066 17.137200 -3.043971 29.408834 -0.625953 1.674487 0.123406 -0.036135 -311701.000000 0 0 1
-22.509866 16.871500 -2.128471 28.211203 -0.643191 1.646316 0.132995 -0.054676 -121164.000000 0 0 1
-21.721966 18.018000 -1.816571 28.280595 -0.692462 1.635074 0.127118 -0.052155 93771.700000 0 0 1
-20.775766 17.726700 -0.829771 27.323193 -0.706372 1.601170 0.176824 -0.076119 -268722.000000 0 0 1
-20.164666 19.034200 -0.262571 27.730551 -0.756567 1.580265 0.145359 -0.058029 60264.500000 0 0 1
-21.144366 19.820700 0.413129 28.984738 -0.753097 1.556543 0.126762 -0.048342 383387.000000 0 0 1
-20.733766 21.129000 0.591429 29.608673 -0.794839 1.550820 0.141833 -0.054355 -66306.900000 0 0 1
-21.773566 21.894900 1.431029 30.911530 -0.788177 1.524485 0.112017 -0.038032 115591.000000 0 0 1
-21.707166 21.513400 2.774729 30.687564 -0.780915 1.480254 0.129292 -0.040308 -422312.000000 0 0 1
-22.930266 21.565300 3.434729 31.664754 -0.754731 1.462111 0.098231 -0.034702 -522354.000000 0 0 1
-22.891066 21.294900 4.931229 31.651077 -0.749290 1.414359 0.116282 -0.032382 -89628.100000 0 0 1
-22.282966 22.366700 5.640329 32.072000 -0.787274 1.394012 0.110851 -0.031154 65747.800000 0 0 1
-21.412866 21.933300 6.662429 31.368271 -0.797404 1.356772 0.105937 -0.029803 -47412.300000 0 0 1
-22.014866 21.452300 8.028429 31.769658 -0.772457 1.315319 0.089069 -0.041375 -846798.000000 0 0 1
-22.942866 20.401900 7.964229 31.718159 -0.726843 1.316986 0.101586 -0.038613 447682.000000 0 0 1
-23.418266 20.026600 9.290929 32.183867 -0.707488 1.277946 0.121642 -0.035617 207663.000000 0 0 1
-23.990766 21.093500 10.297929 33.563968 -0.721223 1.258951 0.142667 -0.038274 -1392130.000000 0 0 1
-25.269976 21.464000 9.927629 34.609721 -0.704138 1.279864 0.165921 -0.040309 -653985.000000 0 0 1
-25.724686 22.583900 10.707429 35.866991 -0.720474 1.267643 0.166346 -0.037608 -886479.000000 0 0 1
-27.221176 22.650700 10.447129 36.921392 -0.694009 1.283922 0.170628 -0.039454 -826807.000000 0 0 1
-28.007076 23.599000 11.164629 38.287832 -0.700187 1.274900 0.171490 -0.038318 282849.000000 0 0 1
-27.726116 24.985900 11.075829 38.932078 -0.733460 1.282321 0.157233 -0.033753 -42624.500000 0 0 1
-28.392046 25.694600 12.315329 40.224223 -0.735567 1.259632 0.172920 -0.039637 495363.000000 0 0 1
-27.620576 25.292100 13.437629 39.788898 -0.741421 1.226300 0.149283 -0.040937 280528.000000 0 0 1
-28.014206 25.975800 14.594229 40.896570 -0.747661 1.205895 0.148644 -0.029259 13032.600000 0 0 1
-26.887216 26.167800 15.633429 40.645790 -0.771839 1.175994 0.126594 -0.033702 -27144.600000 0 0 1
-26.562656 24.981100 16.350229 39.961983 -0.754724 1.149280 0.141270 -0.039897 536512.000000 0 0 1
-25.530696 25.155700 17.335629 39.813939 -0.778000 1.120296 0.120932 -0.027736 392958.000000 0 0 1
-24.919266 23.870300 17.909729 38.878265 -0.763902 1.092056 0.124327 -0.025670 456113.000000 0 0 1
-23.721466 23.919300 18.696829 38.528072 -0.789551 1.064115 0.120951 -0.037273 1003130.000000 0 0 1
-23.255466 22.637800 19.075029 37.644966 -0.771940 1.039434 0.134914 -0.045521 -415404.000000 0 0 1
-21.869766 22.570800 19.714329 37.099629 -0.801172 1.010557 0.121979 -0.039932 182508.000000 0 0 1
-20.763266 22.751700 18.785029 36.078115 -0.831062 1.023153 0.118946 -0.043255 1687700.000000 0 0 1
-19.476066 22.550800 19.414429 35.563687 -0.858429 0.993326 0.105686 -0.039941 1105920.000000 0 0 1
-18.932666 21.079400 19.464529 34.375207 -0.838999 0.968863 0.096845 -0.027789 -324447.000000 0 0 1
-19.574766 20.189500 20.384329 34.731949 -0.800856 0.943566 0.122826 -0.027382 15760.400000 0 0 1
-19.171066 20.454400 21.722829 35.465386 -0.817773 0.911567 0.109102 -0.023582 -442964.000000 0 0 1
-20.221766 20.207900 22.800129 36.566719 -0.785055 0.897558 0.115986 -0.019900 -267330.000000 0 0 1
-21.310166 21.114700 22.873429 37.724627 -0.780791 0.919364 0.123061 -0.024178 -40733.900000 0 0 1
-21.991866 20.863000 24.071729 38.708592 -0.759063 0.899667 0.114663 -0.022433 -1518650.000000 0 0 1
-23.122666 21.768600 24.240429 39.951571 -0.755244 0.918837 0.117448 -0.023103 -1867550.000000 0 0 1
-22.773866 23.138500 24.429029 40.630243 -0.793340 0.925729 0.123444 -0.028472 -118172.000000 0 0 1
-23.840666 24.028600 24.539829 41.808542 -0.789324 0.943501 0.122278 -0.031873 -253151.000000 0 0 1
-24.710966 24.315900 23.265829 41.751571 -0.777340 0.979733 0.107705 -0.032835 22413.800000 0 0 1
-25.658476 23.300900 22.990529 41.591511 -0.737282 0.985112 0.090154 -0.036351 27912.200000 0 0 1
-26.309516 23.543500 21.756529 41.470877 -0.729972 1.018525 0.089407 -0.032563 670268.000000 0 0 1
-27.545216 22.591000 21.495829 41.607246 -0.686903 1.027878 0.100921 -0.027795 696633.000000 0 0 1
-28.705156 22.934300 22.237429 42.947309 -0.674107 1.026538 0.074535 -0.035881 -238733.000000 0 0 1
-29.761646 22.150700 21.768129 43.014655 -0.639824 1.040182 0.079779 -0.035458 -935656.000000 0 0 1
-31.129506 22.615900 22.210529 44.427837 -0.628297 1.047286 0.101567 -0.025380 -1430050.000000 0 0 1
-31.686146 23.677600 21.474229 45.008701 -0.641741 1.073430 0.112595 -0.028996 116106.000000 0 0 1
-33.098416 23.714800 21.531929 46.059970 -0.621710 1.084363 0.115756 -0.027828 126412.000000 0 0 1
-33.823716 22.718600 20.598029 45.655858 -0.591463 1.102733 0.126759 -0.045619 -1519600.000000 0 0 1
-33.807656 21.338600 20.992629 45.155110 -0.563029 1.087274 0.112020 -0.044406 128060.000000 0 0 1
-34.499313 20.521200 20.101729 44.893226 -0.536609 1.106529 0.107367 -0.043398 -284615.000000 0 0 1
-36.032346 20.629200 20.169329 46.159460 -0.519968 1.118592 0.128486 -0.044695 -784076.000000 0 0 1
-36.685676 19.878600 19.201429 45.931389 -0.496574 1.139503 0.111048 -0.040564 291417.000000 0 0 1
37.742967 19.860400 19.341529 46.830138 0.484388 1.145035 0.145872 -0.054115 511202.000000 0 0 1
37.088407 18.792800 18.419729 45.475331 0.468995 1.153764 0.144295 -0.062256 -58832.500000 0 0 1
37.393697 17.404400 18.695429 45.284885 0.435617 1.145226 0.137663 -0.056470 171951.000000 0 0 1
36.820877 16.689900 17.636229 44.106307 0.425572 1.159435 0.160500 -0.070003 -339895.000000 0 0 1
36.972747 15.164400 17.649329 43.685717 0.389226 1.154903 0.172535 -0.076713 -489683.000000 0 0 1
36.108317 14.602900 16.705629 42.380813 0.384310 1.165622 0.200151 -0.067855 -7762.880000 0 0 1
36.544797 13.343000 16.234129 42.155721 0.350075 1.175481 0.188168 -0.064312 198448.000000 0 0 1
35.468317 12.648100 15.341529 40.661265 0.342545 1.183916 0.178128 -0.065746 162742.000000 0 0 1
35.286347 13.271700 14.054229 40.234135 0.359747 1.213961 0.178832 -0.062917 310762.000000 0 0 1
34.444077 12.519700 13.211829 38.957538 0.348632 1.224800 0.184843 -0.053980 -347128.000000 0 0 1
34.426007 12.999300 11.770429 38.635149 0.361049 1.261219 0.184070 -0.052771 -188463.000000 0 0 1
35.677847 12.837200 11.128429 39.516381 0.345386 1.285319 0.164110 -0.042989 446639.000000 0 0 1
35.591697 12.454100 9.770629 38.953032 0.336600 1.317258 0.161301 -0.043239 -63269.800000 0 0 1
36.954267 12.586600 9.040129 40.071989 0.328276 1.343240 0.100000 -0.016690 -287162.000000 0 0 1
37.869247 11.573100 9.362329 40.689921 0.296593 1.338627 0.161236 -0.037294 961833.000000 0 0 1
-36.688286 11.660800 8.714629 39.470867 -0.307737 1.348176 0.190347 -0.036687 1026090.000000 0 0 1
-36.636296 11.320600 7.223129 39.019838 -0.299693 1.384608 0.149485 -0.042809 -909726.000000 0 0 1
-37.043676 12.368200 6.412629 39.576863 -0.322244 1.408049 0.147098 -0.048297 187459.000000 0 0 1
-36.607056 12.203700 5.097929 38.922946 -0.321784 1.439444 0.185125 -0.055577 -221253.000000 0 0 1
-37.686706 12.762900 4.167229 40.006815 -0.326535 1.466444 0.175468 -0.060593 258676.000000 0 0 1
36.898257 12.061900 4.142929 39.040167 0.315946 1.464476 0.143198 -0.055362 354559.000000 0 0 1
35.783527 12.891800 4.235529 38.270080 0.345796 1.459894 0.134233 -0.051387 -208630.000000 0 0 1
35.554697 13.692700 5.557329 38.503382 0.367610 1.425957 0.109577 -0.040006 -1598350.000000 0 0 1
34.890477 14.932900 5.505029 38.348953 0.404404 1.426748 0.099474 -0.036812 15338.900000 0 0 1
34.617297 15.415000 6.829929 38.504901 0.418937 1.392475 0.076067 -0.029901 1059590.000000 0 0 1
33.241317 14.890300 7.434729 37.175010 0.421144 1.369446 0.126961 -0.038656 629752.000000 0 0 1
33.259247 13.483100 7.495829 36.662773 0.385148 1.364891 0.168901 -0.043181 -292272.000000 0 0 1
32.046387 12.895600 7.880829 35.431270 0.382577 1.346494 0.186846 -0.039861 -476133.000000 0 0 1
31.893187 11.479700 7.239029 34.660675 0.345504 1.360393 0.183455 -0.041161 -249662.000000 0 0 1
31.523517 11.589700 5.877329 34.096866 0.352314 1.397560 0.158381 -0.044784 413929.000000 0 0 1
31.622427 10.360200 5.211429 33.681903 0.316602 1.415447 0.174019 -0.044126 -292267.000000 0 0 1
31.239867 10.500700 3.700329 33.164536 0.324267 1.458989 0.151768 -0.050575 1035570.000000 0 0 1
29.830657 10.647500 3.409729 31.856924 0.342836 1.463558 0.148119 -0.046734 1096070.000000 0 0 1
29.561557 10.998600 2.075229 31.609515 0.356188 1.505097 0.174743 -0.057260 -224064.000000 0 0 1
28.068957 10.908900 1.713929 30.163024 0.370681 1.513944 0.194399 -0.042866 -238146.000000 0 0 1
27.781357 9.661500 1.309429 29.442537 0.334686 1.526308 0.188138 -0.037988 223009.000000 0 0 1
26.372457 9.470100 1.396829 28.056023 0.344750 1.520989 0.186395 -0.035579 286919.000000 0 0 1
26.008057 7.953300 1.432129 27.234629 0.296771 1.518187 0.209268 -0.035569 9001.750000 0 0 1
26.430457 7.136800 2.513529 27.492195 0.263732 1.479241 0.219142 -0.030996 557370.000000 0 0 1
27.843357 6.914300 2.469329 28.795098 0.243405 1.484936 0.247106 -0.038249 124194.000000 0 0 1
28.269757 6.646900 3.912929 29.303096 0.230930 1.436863 0.235727 -0.043382 -22500.000000 0 0 1
29.677957 6.441600 3.938429 30.623301 0.213735 1.441830 0.252742 -0.038597 557021.000000 0 0 1
30.054557 6.043200 5.257229 31.103619 0.198428 1.400958 0.240224 -0.029386 488351.000000 0 0 1
31.570307 5.785000 5.524029 32.567858 0.181231 1.400356 0.199777 -0.033682 580545.000000 0 0 1
32.292997 6.950400 5.904129 33.555990 0.211995 1.393927 0.196039 -0.040612 -154676.000000 0 0 1
33.608927 6.660400 6.297729 34.836508 0.195639 1.389017 0.170561 -0.037450 -145326.000000 0 0 1
34.139887 7.786600 7.204729 35.750121 0.224243 1.367876 0.131320 -0.041071 -587252.000000 0 0 1
33.459587 7.905700 8.395929 35.391181 0.232021 1.331281 0.164684 -0.040500 -82458.100000 0 0 1
34.113577 8.789600 9.253429 36.422783 0.252172 1.313925 0.192228 -0.043797 -444461.000000 0 0 1
33.734967 8.632000 10.742229 36.441116 0.250502 1.271568 0.203935 -0.043688 -84657.600000 0 0 1
32.484657 9.205700 11.108029 35.544144 0.276146 1.252958 0.204722 -0.044909 512423.000000 0 0 1
32.173867 8.919700 12.438129 35.629002 0.270442 1.214184 0.208869 -0.044145 167040.000000 0 0 1
30.710657 9.403100 12.709829 34.541316 0.297120 1.193982 0.184901 -0.042597 89960.400000 0 0 1
30.495857 10.729400 13.028329 34.854765 0.338305 1.187705 0.230085 -0.064798 53841.900000 0 0 1
30.530757 11.658400 11.950929 34.797559 0.364769 1.220217 0.222407 -0.065438 57285.500000 0 0 1
29.374457 11.664600 10.862629 33.420328 0.378004 1.239752 0.178450 -0.049823 351551.000000 0 0 1
29.286157 12.774700 9.999329 33.479225 0.411321 1.267495 0.154869 -0.033670 157009.000000 0 0 1
28.202657 12.650600 9.112229 32.225149 0.421656 1.284118 0.152418 -0.034217 -221921.000000 0 0 1
28.092157 13.775000 8.080629 32.314339 0.455898 1.318051 0.157653 -0.035964 -141420.000000 0 0 1
27.800257 14.962300 8.747229 32.760322 0.493744 1.300511 0.151404 -0.032136 290641.000000 0 0 1
27.972257 16.089000 7.996629 33.245288 0.521967 1.327880 0.144787 -0.027199 -1342060.000000 0 0 1
27.610957 17.322500 8.861129 33.778004 0.560307 1.305356 0.163190 -0.034359 1269690.000000 0 0 1
26.242057 17.793000 8.872529 32.923520 0.595831 1.297934 0.166405 -0.041390 1038950.000000 0 0 1
25.172457 16.901000 8.919129 31.604545 0.591278 1.284699 0.191250 -0.041789 -441805.000000 0 0 1
23.747557 17.535400 9.049929 30.876171 0.636041 1.273325 0.185326 -0.053683 463606.000000 0 0 1
23.293657 18.113500 7.864129 30.537483 0.660942 1.310338 0.182951 -0.044278 66775.900000 0 0 1
22.032457 18.727600 8.022729 30.008605 0.704494 1.300157 0.221474 -0.051586 25235.100000 0 0 1
21.344457 19.300100 6.758729 29.559434 0.735142 1.340107 0.194083 -0.047382 -100217.000000 0 0 1
22.046557 20.297000 6.052129 30.572000 0.744104 1.371517 0.128772 -0.028142 -124763.000000 0 0 1
21.374457 20.658800 4.871429 30.122819 0.768374 1.408364 0.156430 -0.037249 -49779.300000 0 0 1
18.805634 17.202000 32.880303 41.601382 0.740892 0.659391 0.140240 -0.044210 -22404.500000 0 0 1
18.389734 17.850400 31.716110 40.776595 0.770517 0.679636 0.132462 -0.043921 316792.000000 0 0 1
17.595134 16.980800 30.901816 39.406326 0.767632 0.669416 0.158441 -0.047971 150119.000000 0 0 1
17.040434 17.669000 29.659076 38.499750 0.803506 0.691374 0.160423 -0.054671 145106.000000 0 0 1
18.037634 17.980400 28.710276 38.378783 0.783809 0.725637 0.154328 -0.044282 684230.000000 0 0 1
17.350034 18.276500 27.472646 37.280027 0.811397 0.742284 0.140655 -0.048304 1175450.000000 0 0 1
18.440434 18.488000 26.349256 37.096348 0.786686 0.780883 0.136820 -0.042792 822162.000000 0 0 1
19.185834 19.666000 26.560226 38.213785 0.797756 0.802317 0.133836 -0.041064 -63553.700000 0 0 1
20.231534 19.935400 25.676096 38.288341 0.778026 0.835781 0.136149 -0.043739 -162471.000000 0 0 1
20.841734 21.359100 25.992746 39.575395 0.797657 0.854242 0.154032 -0.041166 98019.100000 0 0 1
20.115734 22.460300 25.451046 39.457111 0.840410 0.869733 0.127248 -0.044005 162334.000000 0 0 1
20.435934 23.678200 26.127826 40.754728 0.858763 0.874867 0.116697 -0.040617 -53190.800000 0 0 1
19.485134 24.833600 25.785776 40.758856 0.905499 0.885836 0.132553 -0.040801 -37515.600000 0 0 1
19.806334 25.328200 24.513276 40.431538 0.907136 0.919408 0.141553 -0.039457 157146.000000 0 0 1
19.191634 26.587400 24.335776 40.834283 0.945568 0.932330 0.140703 -0.045114 -531535.000000 0 0 1
19.553934 27.194500 22.976106 40.617713 0.947406 0.969554 0.129420 -0.043978 -369801.000000 0 0 1
20.735034 27.927700 22.855226 41.620421 0.932142 0.989468 0.148943 -0.042944 -444384.000000 0 0 1
20.680234 28.796600 21.717466 41.576010 0.947994 1.021185 0.139463 -0.047670 505846.000000 0 0 1
22.017134 29.600400 21.517066 42.707400 0.931267 1.042775 0.152083 -0.039421 389985.000000 0 0 1
23.071734 28.768000 21.108066 42.490625 0.894841 1.050923 0.157415 -0.044243 -363574.000000 0 0 1
24.304234 29.372100 20.813466 43.435198 0.879534 1.071071 0.157686 -0.051264 -47694.500000 0 0 1
24.450334 29.837500 19.367966 43.164955 0.884308 1.105490 0.149921 -0.049558 -560232.000000 0 0 1
23.452234 30.722500 18.942066 43.042783 0.918801 1.115114 0.127577 -0.039445 -2.022030 0 0 1
23.448434 30.785100 17.509666 42.475167 0.919861 1.145893 0.137877 -0.022619 -278716.000000 0 0 1
22.853734 32.040900 16.897266 42.830247 0.951221 1.165254 0.147428 -0.029283 -98090.700000 0 0 1
23.829834 33.086600 16.884066 44.132253 0.946624 1.178210 0.141523 -0.037434 530856.000000 0 0 1
23.754734 -33.677214 15.759266 44.122518 -0.956479 1.205559 0.132725 -0.038751 -293636.000000 0 0 1
24.714534 33.557200 14.634166 44.170722 0.935998 1.233106 0.112887 -0.034993 -263498.000000 0 0 1
24.302434 32.442900 13.892466 42.850329 0.927882 1.240621 0.144096 -0.038502 362181.000000 0 0 1
23.317234 32.738000 12.890566 42.209439 0.951904 1.260443 0.104759 -0.034483 126924.000000 0 0 1
22.857534 31.469200 12.162166 40.751634 0.942606 1.267732 0.107107 -0.044270 -327137.000000 0 0 1
23.826634 30.877300 11.337366 40.615908 0.913579 1.287902 0.129915 -0.057628 -260722.000000 0 0 1
23.366634 29.684600 10.781966 39.286459 0.903932 1.292784 0.110966 -0.054367 -207546.000000 0 0 1
24.398934 29.152200 9.692966 39.231522 0.873927 1.321140 0.108946 -0.049545 694551.000000 0 0 1
25.584734 28.662800 10.260366 39.766944 0.842079 1.309832 0.122647 -0.047802 8057.890000 0 0 1
26.571034 29.605200 10.633666 41.177209 0.839357 1.309595 0.122389 -0.046815 -176505.000000 0 0 1
28.000534 29.048000 10.867266 41.784132 0.803757 1.307690 0.128565 -0.049251 431080.000000 0 0 1
28.331134 28.537900 12.165166 42.012572 0.789034 1.277029 0.137431 -0.042461 -478108.000000 0 0 1
29.690834 28.271500 12.363166 42.821387 0.760916 1.277912 0.117085 -0.029480 -183551.000000 0 0 1
29.982634 27.113300 13.357866 42.573724 0.735186 1.251648 0.109820 -0.049712 292255.000000 0 0 1
31.070734 27.372800 14.237866 43.787870 0.722209 1.239620 0.075172 -0.052158 196060.000000 0 0 1
31.191834 26.219100 15.046266 43.436872 0.698997 1.217072 0.081785 -0.049153 166356.000000 0 0 1
32.306534 26.234100 16.139866 44.636705 0.682038 1.200831 0.088676 -0.057887 635208.000000 0 0 1
33.619534 26.251000 15.583566 45.411844 0.662940 1.220516 0.115371 -0.050231 1028210.000000 0 0 1
34.619834 26.208300 16.634366 46.498495 0.647986 1.204950 0.094068 -0.046502 741671.000000 0 0 1
36.107134 26.043800 16.301066 47.410225 0.624874 1.219804 0.123935 -0.056045 103294.000000 0 0 1
36.578934 27.070100 15.448766 48.056978 0.637100 1.243517 0.133633 -0.040825 -528071.000000 0 0 1
-37.872789 27.211300 15.526166 49.151448 -0.623029 1.249408 0.165986 -0.041660 94988.100000 0 0 1
-37.356189 28.320200 14.546066 49.082651 -0.648673 1.269919 0.133469 -0.038782 132959.000000 0 0 1
-37.875089 29.591000 14.903066 50.321477 -0.663221 1.270130 0.124705 -0.036281 -15285.300000 0 0 1
37.898434 30.506900 13.820566 50.576381 0.677761 1.294015 0.105933 -0.004551 250825.000000 0 0 1
36.863134 31.615200 14.186866 50.593267 0.708911 1.286575 0.078998 -0.013513 -445778.000000 0 0 1
36.874434 32.735800 13.328866 51.078520 0.726014 1.306792 0.043130 -0.011696 56044.900000 0 0 1
35.935534 33.706600 13.728866 51.146645 0.753404 1.299042 0.041265 -0.012579 1510850.000000 0 0 1
34.428734 33.426600 13.251666 49.782346 0.770631 1.301356 0.086794 -0.010970 1190280.000000 0 0 1
33.816734 32.412400 14.025166 48.896221 0.764197 1.279875 0.078325 -0.031311 258332.000000 0 0 1
32.746334 31.807200 13.267666 47.539997 0.770851 1.287956 0.100734 -0.020946 76661.400000 0 0 1
32.085934 30.686200 14.119166 46.588635 0.763103 1.262894 0.123454 -0.033853 -163431.000000 0 0 1
31.214434 31.197300 15.116566 46.648933 0.785124 1.240789 0.115183 -0.040260 112591.000000 0 0 1
30.801634 30.218400 15.981066 46.013985 0.775840 1.216097 0.106982 -0.045588 -125125.000000 0 0 1
29.747834 30.674200 17.012466 45.992001 0.800729 1.191894 0.095831 -0.046356 -145773.000000 0 0 1
29.560434 29.780200 18.113966 45.703341 0.789102 1.163272 0.077741 -0.034039 -153741.000000 0 0 1
30.568634 29.691800 19.100766 46.699932 0.770848 1.149427 0.067811 -0.035211 -224370.000000 0 0 1
30.404234 28.559000 20.091366 46.300075 0.754114 1.121937 0.057395 -0.029235 201912.000000 0 0 1
29.177134 28.490200 20.805266 45.780517 0.773487 1.099034 0.081467 -0.034522 334094.000000 0 0 1
29.285334 27.479500 21.761366 45.676151 0.753596 1.074210 0.063765 -0.026982 883041.000000 0 0 1
28.071434 27.506500 22.794676 45.433580 0.775234 1.045217 0.090488 -0.032462 426077.000000 0 0 1
26.818134 27.149900 22.262206 44.180711 0.791546 1.042700 0.141828 -0.040333 -728767.000000 0 0 1
25.843934 27.323400 23.226426 44.203439 0.813218 1.017560 0.169682 -0.044759 -482347.000000 0 0 1
25.457834 26.176600 24.204836 43.808558 0.799318 0.985419 0.135563 -0.044858 -511714.000000 0 0 1
26.555634 25.800300 25.025246 44.689150 0.770972 0.976429 0.106707 -0.037410 70158.000000 0 0 1
26.324634 24.800200 25.998196 44.541469 0.755589 0.947536 0.140993 -0.041964 -472246.000000 0 0 1
27.567534 24.485200 26.868716 45.622602 0.726252 0.941057 0.139402 -0.045362 261079.000000 0 0 1
27.925634 25.495200 27.830946 46.951122 0.739934 0.936310 0.174847 -0.033816 657378.000000 0 0 1
28.575634 26.670700 27.213936 47.628683 0.750931 0.962614 0.127018 -0.019218 -354709.000000 0 0 1
29.012134 27.816800 28.125486 49.056307 0.764367 0.960231 0.076038 -0.004936 792662.000000 0 0 1
30.195534 27.586900 28.928856 50.096767 0.740283 0.955183 0.062311 0.002084 766533.000000 0 0 1
30.606934 28.759500 29.585746 51.373238 0.754289 0.957094 0.070293 -0.003043 884083.000000 0 0 1
32.158434 28.998400 29.538696 52.417618 0.733773 0.972148 0.065294 0.003031 709661.000000 0 0 1
32.561134 29.478700 28.284426 52.242032 0.735754 0.998682 0.058101 0.005015 1033380.000000 0 0 1
34.007134 29.601500 28.288286 53.225568 0.716247 1.010450 0.070128 -0.004159 1212470.000000 0 0 1
34.600334 30.299600 27.077536 53.370796 0.719228 1.038692 0.070786 0.001020 -249367.000000 0 0 1
34.326234 31.676800 26.852646 53.877403 0.745279 1.049041 0.060209 0.004936 124214.000000 0 0 1
34.703634 32.108000 25.561646 53.746289 0.746568 1.075152 0.055517 -0.003779 -110663.000000 0 0 1
34.543734 33.625100 25.391086 54.485082 0.771923 1.086010 0.054374 -0.012205 -149335.000000 0 0 1
35.403934 -33.244814 26.198216 55.181543 -0.753957 1.076100 0.079053 -0.019350 452852.000000 0 0 1
34.776734 -31.959814 26.336026 54.078066 -0.743214 1.062145 0.082535 -0.013358 404929.000000 0 0 1
35.763034 -30.849614 26.785626 54.296989 -0.711770 1.054897 0.081350 -0.019563 -52777.100000 0 0 1
35.916334 -30.938114 28.196296 55.155970 -0.711072 1.034204 0.089115 -0.026294 349766.000000 0 0 1
36.920234 -30.159814 28.809756 55.702065 -0.684956 1.027207 0.085805 -0.031815 -158249.000000 0 0 1
36.523934 -29.951314 30.307736 56.121634 -0.686845 1.000316 0.102406 -0.037644 -92955.100000 0 0 1
36.656134 -31.046514 31.156146 57.256123 -0.702730 0.995416 0.100511 -0.032927 301648.000000 0 0 1
35.488234 -31.847414 31.215666 56.992020 -0.731381 0.991160 0.098145 -0.034871 -141567.000000 0 0 1
35.394334 -32.822214 32.354160 58.110655 -0.747711 0.980306 0.096548 -0.026659 -520236.000000 0 0 1
35.143334 -32.277114 33.627146 58.375088 -0.742911 0.956905 0.083063 -0.026671 223617.000000 0 0 1
35.170534 -33.132414 -32.554451 58.262472 -0.755568 2.163680 0.089947 -0.025646 -115712.000000 0 0 1
34.151234 33.344500 -32.535301 57.764247 0.773446 2.169102 0.097707 -0.023714 -18721.000000 0 0 1
34.350234 32.390700 -33.554721 57.922494 0.756046 2.188671 0.096212 -0.026212 604575.000000 0 0 1
33.385334 31.351500 -33.263511 56.603518 0.753992 2.198958 0.092479 -0.018422 816193.000000 0 0 1
33.539134 30.260800 32.996079 55.940421 0.734059 0.939932 0.091153 -0.015356 691853.000000 0 0 1
34.768634 29.524600 33.064223 56.336514 0.704014 0.943565 0.100969 -0.014762 442745.000000 0 0 1
34.971334 28.558200 32.029989 55.357792 0.684792 0.953786 0.091092 -0.012548 393797.000000 0 0 1
36.458234 28.074700 31.977949 56.035532 0.656211 0.963472 0.080730 -0.010825 482085.000000 0 0 1
36.735534 27.244300 33.109236 56.462136 0.638125 0.944193 0.068981 -0.004459 859810.000000 0 0 1
-37.737889 26.825800 33.099320 56.915172 -0.617968 0.950157 0.064748 -0.015497 930911.000000 0 0 1
-37.613589 25.373800 33.664046 56.496724 -0.593469 0.932462 0.060085 -0.018706 210398.000000 0 0 1
37.819834 24.309400 32.791955 55.647094 0.571275 0.940624 0.056200 -0.012416 100423.000000 0 0 1
37.731434 23.139900 33.521506 55.523035 0.550126 0.922611 0.056543 -0.019879 -368973.000000 0 0 1
37.465234 21.879900 32.631020 54.287726 0.528576 0.925950 0.056993 -0.025011 -575273.000000 0 0 1
-37.340689 21.502700 31.783898 53.543527 -0.522474 0.935261 0.058243 -0.021077 -223699.000000 0 0 1
-37.584189 20.240900 31.261325 52.910639 -0.494009 0.938706 0.049648 -0.017375 161580.000000 0 0 1
-36.431889 19.689600 30.373826 51.356910 -0.495481 0.937970 0.053382 -0.028341 43614.700000 0 0 1
-36.215889 20.348600 29.147056 50.746497 -0.511910 0.958967 0.052550 -0.020882 141821.000000 0 0 1
-35.051089 19.799700 28.527996 49.340181 -0.514196 0.954288 0.051899 -0.021089 432329.000000 0 0 1
-35.343189 18.668500 27.493606 48.513423 -0.485957 0.968275 0.080249 -0.023355 -935.855000 0 0 1
-35.889389 17.500300 28.063706 48.804511 -0.453693 0.958164 0.084078 -0.025813 -41242.800000 0 0 1
-36.432189 16.687100 27.070616 48.358887 -0.429513 0.976669 0.105277 -0.030729 -150255.000000 0 0 1
-36.916889 15.383700 27.726256 48.664773 -0.394830 0.964607 0.115897 -0.040600 -57615.600000 0 0 1
-35.899089 14.574900 28.263996 47.958584 -0.385665 0.940553 0.104661 -0.039769 146921.000000 0 0 1
-36.467089 13.671300 29.181256 48.665169 -0.358678 0.927754 0.105734 -0.055023 -300629.000000 0 0 1
-35.428289 12.655800 29.600566 47.869890 -0.343095 0.904149 0.113436 -0.044924 -272725.000000 0 0 1
-34.292089 13.248400 30.205536 47.579847 -0.368675 0.882996 0.114722 -0.036243 -52692.100000 0 0 1
-33.497389 12.228200 30.724416 47.070093 -0.350018 0.859604 0.094154 -0.031134 -1170740.000000 0 0 1
-32.002589 12.460400 30.818016 46.143010 -0.371297 0.839439 0.104858 -0.027669 -1913920.000000 0 0 1
-31.464189 12.504400 29.545756 44.936699 -0.378278 0.853304 0.094144 -0.029397 -1161100.000000 0 0 1
-30.130089 12.816100 29.456356 44.042611 -0.402175 0.838183 0.076124 -0.022085 -407394.000000 0 0 1
-29.083189 11.752000 29.944106 43.365780 -0.384021 0.808615 0.088430 -0.013254 -384610.000000 0 0 1
-28.898089 10.589300 29.085956 42.346495 -0.351241 0.813642 0.089486 -0.017828 309742.000000 0 0 1
-27.850589 9.699600 29.488716 41.705178 -0.335135 0.785442 0.073522 -0.007877 -6870.580000 0 0 1
-27.638089 8.439500 28.603676 40.660292 -0.296365 0.790515 0.063291 -0.012657 -159396.000000 0 0 1
-28.637589 7.454400 28.582406 41.141627 -0.254650 0.802749 0.080373 -0.026032 -362020.000000 0 0 1
-29.712989 7.731400 27.721126 41.365409 -0.254558 0.836382 0.082645 -0.026826 -263601.000000 0 0 1
-30.613889 6.490200 27.551356 41.694245 -0.208909 0.848919 0.087763 -0.029608 -459995.000000 0 0 1
-31.385889 6.262300 28.673486 42.970446 -0.196940 0.840240 0.091945 -0.030700 -375559.000000 0 0 1
-32.098289 5.055300 28.538596 43.247054 -0.156211 0.850115 0.118426 -0.031229 -200185.000000 0 0 1
-32.806189 4.659400 29.846216 44.595433 -0.141084 0.837576 0.115847 -0.025428 121840.000000 0 0 1
-33.964089 5.415700 30.163716 45.746463 -0.158123 0.850820 0.124000 -0.034773 -35442.000000 0 0 1
-34.543489 5.000300 31.363358 46.924576 -0.143755 0.838770 0.130906 -0.031346 -83879.900000 0 0 1
-35.946789 5.512100 31.703000 48.245570 -0.152155 0.853808 0.137848 -0.032122 -39256.900000 0 0 1
-35.937289 6.935900 31.950037 48.583951 -0.190656 0.853134 0.144698 -0.038510 -1001040.000000 0 0 1
-37.257789 7.331200 31.965673 49.635608 -0.194287 0.871072 0.140913 -0.040982 -729596.000000 0 0 1
-37.419989 8.766800 32.452984 50.302172 -0.230131 0.869563 0.132057 -0.038274 -57734.900000 0 0 1
-37.554089 8.764400 -33.519421 51.094773 -0.229277 2.286336 0.136412 -0.036657 122232.000000 0 0 1
-37.812289 10.118500 -33.066181 51.239882 -0.261472 2.272240 0.133165 -0.035658 -89481.900000 0 0 1
-37.895289 10.156300 -31.552921 50.346699 -0.261856 2.248124 0.120338 -0.033616 686072.000000 0 0 1
36.691134 9.653600 -31.052481 49.027420 0.257274 2.256696 0.137502 -0.032916 601454.000000 0 0 1
36.730034 9.480900 -29.689421 48.170993 0.252610 2.234875 0.124632 -0.026164 -166492.000000 0 0 1
35.371634 9.054400 -29.123021 46.704229 0.250598 2.244088 0.109636 -0.025124 -216537.000000 0 0 1
35.053834 7.686500 -29.271451 46.310597 0.215861 2.255015 0.112927 -0.030983 680447.000000 0 0 1
33.784034 7.242500 -28.777421 44.966151 0.211180 2.265268 0.127349 -0.034094 102030.000000 0 0 1
37.213487 5.763500 -19.236171 42.285834 0.153656 2.043065 0.083532 -0.013903 -305579.000000 0 0 1
36.534657 6.619600 -18.359071 41.420475 0.179242 2.030002 0.071352 -0.014495 232258.000000 0 0 1
36.981557 7.974600 -18.484271 42.105796 0.212385 2.025277 0.047331 -0.012044 441408.000000 0 0 1
-37.425516 8.328700 -17.943471 42.332076 -0.218972 2.008515 0.074288 -0.019262 729978.000000 0 0 1
-36.321706 7.919100 -18.704971 41.615555 -0.214667 2.036969 0.090649 -0.020660 -15228.100000 0 0 1
-36.064276 8.697600 -19.866371 42.082692 -0.236650 2.062444 0.073905 -0.012460 -504987.000000 0 0 1
-35.042732 8.044300 -20.857771 41.566218 -0.225647 2.096470 0.064108 -0.009688 -169737.000000 0 0 1
-35.401989 6.844600 -21.493571 41.977648 -0.190983 2.108336 0.063235 -0.003069 50496.300000 0 0 1
-36.217186 7.091800 -22.611171 43.280980 -0.193366 2.120492 0.050860 -0.000759 79924.700000 0 0 1
-36.391536 5.818000 -23.496671 43.706825 -0.158531 2.138381 0.074333 -0.008718 -249005.000000 0 0 1
-35.080273 5.537300 -23.910571 42.813580 -0.156555 2.163350 0.083095 -0.011273 119595.000000 0 0 1
-35.023285 4.334900 -24.579171 43.006482 -0.123146 2.179156 0.100044 -0.011186 -79056.500000 0 0 1
-33.655026 4.258000 -25.266661 42.298883 -0.125850 2.210972 0.104076 -0.021452 576261.000000 0 0 1
-32.480176 4.058000 -24.455471 40.859506 -0.124294 2.212456 0.106270 -0.021427 1049180.000000 0 0 1
-31.385546 3.819700 -25.349161 40.524345 -0.121107 2.246606 0.123683 -0.021521 627486.000000 0 0 1
-29.952146 4.093800 -24.822671 39.115920 -0.135836 2.258277 0.120353 -0.027034 198643.000000 0 0 1
-29.672656 5.459200 -24.777671 39.041034 -0.181946 2.258361 0.091970 -0.011190 295786.000000 0 0 1
-28.320536 5.783600 -24.509471 37.897453 -0.201449 2.274087 0.094812 -0.015635 125498.000000 0 0 1
-28.141526 7.322300 -24.666771 38.131498 -0.254551 2.274292 0.083243 -0.014465 -268497.000000 0 0 1
-28.612196 8.187100 -23.671271 38.026509 -0.278693 2.242722 0.086966 -0.012077 -165704.000000 0 0 1
-28.384856 9.584800 -24.014771 38.396323 -0.325651 2.246497 0.077793 -0.019247 38325.000000 0 0 1
-27.010716 10.101200 -23.550871 37.232466 -0.357867 2.255619 0.098828 -0.019842 -15983.300000 0 0 1
-26.948296 10.366300 -22.159971 36.396911 -0.367225 2.225396 0.082148 -0.016397 -224682.000000 0 0 1
-25.636466 10.683100 -21.778771 35.294077 -0.394832 2.235805 0.119305 -0.025157 -581205.000000 0 0 1
-25.491166 10.863000 -20.290871 34.344195 -0.402842 2.202858 0.148698 -0.040998 -1112010.000000 0 0 1
-25.995586 12.120700 -19.723471 34.809441 -0.436293 2.173185 0.135175 -0.040350 -189658.000000 0 0 1
-27.355936 12.424000 -19.750171 35.955142 -0.426309 2.152323 0.128220 -0.022807 -790110.000000 0 0 1
-28.140586 11.365100 -18.935971 35.771903 -0.383837 2.128634 0.105571 -0.019531 -1475890.000000 0 0 1
-27.759146 11.386800 -17.551871 34.760575 -0.389268 2.100104 0.125102 -0.027614 195545.000000 0 0 1
-28.546716 10.586800 -16.719471 34.735228 -0.355135 2.072980 0.127424 -0.030558 -727097.000000 0 0 1
-27.980466 10.462600 -15.267371 33.547952 -0.357828 2.043271 0.173606 -0.033122 1036380.000000 0 0 1
-26.868996 9.552400 -15.083571 32.259966 -0.341582 2.057328 0.195177 -0.035629 1817320.000000 0 0 1
-25.573566 9.905200 -15.572171 31.537482 -0.369529 2.087213 0.180633 -0.027755 -252362.000000 0 0 1
-24.501366 8.910000 -15.199071 30.178085 -0.348786 2.098610 0.123450 -0.025509 -504670.000000 0 0 1
-23.165266 9.243200 -15.510171 29.370592 -0.379654 2.127140 0.102242 -0.015984 33348.900000 0 0 1
-22.346466 8.136300 -15.250371 28.251331 -0.349179 2.141009 0.113640 -0.023245 98361.300000 0 0 1
-20.833766 8.453700 -15.104371 27.086027 -0.385470 2.162342 0.155119 -0.035768 233624.000000 0 0 1
-20.266366 8.928400 -16.323071 27.511535 -0.414970 2.205970 0.162838 -0.050126 -80830.000000 0 0 1
-18.891766 9.131700 -16.162371 26.486015 -0.450255 2.227138 0.158118 -0.049173 -333549.000000 0 0 1
-18.050466 9.550000 -17.436471 26.852418 -0.486634 2.277519 0.116090 -0.032467 302605.000000 0 0 1
-17.989666 8.653900 -18.536671 27.241994 -0.448372 2.319166 0.166417 -0.053441 349687.000000 0 0 1
-17.116066 7.555300 -18.286471 26.161752 -0.415692 2.344763 0.183266 -0.050516 -322255.000000 0 0 1
-16.796166 6.773100 -19.638171 26.714113 -0.383307 2.396645 0.173568 -0.051114 445033.000000 0 0 1
-17.796366 5.958100 -20.262671 27.618570 -0.323064 2.394491 0.164968 -0.044045 620242.000000 0 0 1
-18.916266 6.615900 -20.844771 28.915389 -0.336449 2.375880 0.142750 -0.044774 383579.000000 0 0 1
-19.998266 5.709300 -21.518471 29.926098 -0.278092 2.373236 0.124178 -0.031479 315597.000000 0 0 1
-20.696166 4.915400 -20.521371 29.557048 -0.233183 2.338239 0.122627 -0.033625 408580.000000 0 0 1
-21.316366 3.803200 -21.129071 30.253750 -0.176559 2.343949 0.086425 -0.012820 -585189.000000 0 0 1
-22.039266 3.060300 -20.009471 29.924465 -0.137974 2.303210 0.103473 -0.017957 -549047.000000 0 0 1
-22.641566 1.848300 -20.406371 30.536481 -0.081452 2.302666 0.121831 -0.012532 490826.000000 0 0 1
-23.102166 1.078000 -19.289471 30.115707 -0.046628 2.265961 0.110833 -0.015021 -610229.000000 0 0 1
-23.745066 -0.267100 -19.649271 30.821962 0.011248 2.262057 0.120869 -0.003806 -669997.000000 0 0 1
-22.875266 -1.299900 -19.981471 30.401097 0.056765 2.287976 0.089448 -0.015243 -283299.000000 0 0 1
-23.500066 -2.454500 -20.494371 31.277738 0.104069 2.285294 0.120187 -0.026858 -715157.000000 0 0 1
-23.844666 -2.375100 -22.025571 32.547426 0.099280 2.314098 0.125472 -0.025648 481131.000000 0 0 1
-22.773366 -2.265900 -22.974771 32.428392 0.099171 2.358134 0.078396 -0.018598 706072.000000 0 0 1
-21.806266 -3.338000 -22.864271 31.771534 0.151896 2.374089 0.057444 -0.027064 -339493.000000 0 0 1
-20.980166 -3.371800 -24.133471 32.155261 0.159351 2.419659 0.058958 -0.017944 -886830.000000 0 0 1
-21.639866 -3.626100 -25.327311 33.509776 0.166023 2.427700 0.053134 -0.017451 -429499.000000 0 0 1
-20.807766 -3.886600 -26.404321 33.841645 0.184658 2.465832 0.049584 -0.016452 -563778.000000 0 0 1
-21.611766 -3.912900 -27.725791 35.370873 0.179114 2.471653 0.050325 -0.026949 256860.000000 0 0 1
-22.617366 -4.916400 -27.668351 36.072896 0.214043 2.444968 0.065427 -0.030228 790486.000000 0 0 1
-23.465066 -5.103300 -28.812951 37.507854 0.214150 2.446797 0.047199 -0.024961 254048.000000 0 0 1
-22.937266 -6.343000 -29.567821 37.955340 0.269794 2.463891 0.068167 -0.034533 308492.000000 0 0 1
-21.682366 -6.113500 -30.198511 37.675588 0.274823 2.500664 0.067761 -0.040220 218068.000000 0 0 1
-21.289866 -7.276000 -30.853521 38.185577 0.329314 2.511527 0.074242 -0.037532 -58051.400000 0 0 1
-19.835866 -7.218900 -31.385201 37.823338 0.349032 2.549517 0.084362 -0.043913 -17996.600000 0 0 1
-19.544266 -6.619000 -32.642891 38.617972 0.326543 2.577880 0.078876 -0.049549 367026.000000 0 0 1
-19.501266 -7.651600 -33.660401 39.646802 0.373907 2.584899 0.089252 -0.043322 -509245.000000 0 0 1
-19.340266 -7.083200 32.249727 38.265683 0.351070 0.568361 0.081334 -0.044127 515712.000000 0 0 1
-18.018966 -6.785200 31.795372 37.170791 0.360137 0.544501 0.096059 -0.042956 446377.000000 0 0 1
-17.583966 -5.461000 32.057321 36.968773 0.301123 0.521353 0.059224 -0.044146 484403.000000 0 0 1
-16.332666 -5.173900 31.145726 35.546891 0.306781 0.502903 0.061723 -0.037627 379162.000000 0 0 1
-16.681366 -5.123700 29.806346 34.538942 0.298004 0.529662 0.066030 -0.039166 581082.000000 0 0 1
-15.552466 -4.692800 29.038886 33.273991 0.293052 0.510050 0.048696 -0.024732 469725.000000 0 0 1
-15.857066 -4.732400 27.485576 32.082690 0.290026 0.541938 0.063617 -0.027265 104122.000000 0 0 1
-16.826766 -3.766400 27.111776 32.130581 0.220204 0.566472 0.069411 -0.032720 51628.200000 0 0 1
-17.314766 -3.903600 25.794906 31.311601 0.221742 0.602691 0.094724 -0.033093 -468943.000000 0 0 1
-16.345866 -3.563200 24.673206 29.810247 0.214630 0.595844 0.095809 -0.025387 -349207.000000 0 0 1
-15.831066 -2.251600 24.867796 29.565176 0.141279 0.571450 0.088163 -0.023880 -725989.000000 0 0 1
-14.704566 -2.144100 24.071586 28.288914 0.144791 0.553063 0.089503 -0.022387 -380856.000000 0 0 1
-14.139166 -0.726600 23.957746 27.828359 0.051344 0.533738 0.088915 -0.027401 -320047.000000 0 0 1
-15.080766 0.034000 23.266796 27.726782 -0.002255 0.575087 0.087902 -0.029197 28366.900000 0 0 1
-15.394066 1.242100 23.957476 28.504047 -0.080513 0.572602 0.056584 -0.018580 314883.000000 0 0 1
-16.273666 2.300000 23.155806 28.395661 -0.140403 0.617256 0.064577 -0.021829 368799.000000 0 0 1
-15.591166 2.973400 22.114566 27.220940 -0.188448 0.622523 0.058031 -0.023540 -13663.600000 0 0 1
-16.394566 3.915700 21.529466 27.342867 -0.234449 0.664235 0.067354 -0.022166 -699260.000000 0 0 1
-15.540166 4.721500 20.609466 26.240034 -0.294963 0.667421 0.061702 -0.010885 -537771.000000 0 0 1
-14.591966 5.507400 21.252366 26.361335 -0.360897 0.633105 0.040891 -0.015241 174009.000000 0 0 1
-13.426266 5.635100 20.440266 25.096283 -0.397379 0.618975 0.026548 -0.013010 426510.000000 0 0 1
-12.487366 6.828200 20.751466 25.163107 -0.500390 0.601163 0.016031 -0.010165 -26534.100000 0 0 1
-12.940866 8.121700 20.420366 25.503321 -0.560468 0.642343 0.030460 -0.013679 115790.000000 0 0 1
-11.915066 9.093700 20.475266 25.375198 -0.651902 0.631910 0.028801 -0.014404 209337.000000 0 0 1
-12.562966 10.495600 20.290166 26.070607 -0.695980 0.678878 0.028256 -0.013878 -404392.000000 0 0 1
-12.939966 10.829000 18.972266 25.390093 -0.696819 0.726911 0.041492 -0.017958 166592.000000 0 0 1
-13.469066 12.171000 19.002466 26.280082 -0.734815 0.762553 0.029986 -0.016517 -315918.000000 0 0 1
-13.907266 12.673000 17.624966 25.780931 -0.738996 0.818053 0.047340 -0.019858 -281878.000000 0 0 1
-12.974066 13.443600 16.896066 25.189955 -0.803170 0.835582 0.045517 -0.025447 201852.000000 0 0 1
-12.608766 14.757700 17.355766 26.038304 -0.863762 0.841229 0.064463 -0.037721 -742373.000000 0 0 1
-13.500066 15.939600 16.951266 26.901079 -0.868075 0.889071 0.062570 -0.024725 -343338.000000 0 0 1
-13.615566 16.467300 15.641066 26.480154 -0.879912 0.938906 0.068536 -0.038679 56823.200000 0 0 1
-14.338466 15.644700 14.750766 25.844406 -0.828936 0.963374 0.099490 -0.039750 -357505.000000 0 0 1
-14.706066 16.246900 13.393866 25.683181 -0.835137 1.022184 0.086669 -0.040917 676442.000000 0 0 1
-15.863666 17.096100 13.555066 26.975403 -0.822773 1.044312 0.080022 -0.035244 796444.000000 0 0 1
-16.453366 17.404000 12.256766 26.904289 -0.813468 1.097785 0.085829 -0.030672 -68179.600000 0 0 1
-17.687566 18.290100 12.431266 28.318088 -0.802144 1.116326 0.086506 -0.031199 -376243.000000 0 0 1
-18.898066 17.607300 12.574266 28.727445 -0.750055 1.117747 0.098286 -0.032033 -4299.180000 0 0 1
-20.068666 18.414900 12.626266 30.021367 -0.742451 1.136716 0.105414 -0.035160 627064.000000 0 0 1
-21.358566 17.601800 12.896166 30.533961 -0.689270 1.134755 0.117178 -0.026445 102154.000000 0 0 1
-21.925166 17.136300 11.692566 30.184131 -0.663409 1.173014 0.120559 -0.034270 -733596.000000 0 0 1
-23.150566 16.535200 11.942766 30.854355 -0.620223 1.173346 0.139005 -0.038644 -438373.000000 0 0 1
-23.742966 15.852000 10.685166 30.482571 -0.588683 1.212656 0.141485 -0.037551 244852.000000 0 0 1
-22.924866 14.780500 10.171366 29.111327 -0.572666 1.213870 0.116220 -0.030040 387094.000000 0 0 1
-23.411666 14.215600 8.941766 28.812230 -0.545698 1.255239 0.130143 -0.028680 115966.000000 0 0 1
-22.650666 12.912500 8.454166 27.409091 -0.518123 1.257240 0.150953 -0.022141 -394212.000000 0 0 1
-22.741066 11.714700 9.209566 27.188350 -0.475682 1.225227 0.143302 -0.020873 -662960.000000 0 0 1
-23.933166 11.153900 9.609366 28.098858 -0.436115 1.221769 0.169389 -0.013965 -219583.000000 0 0 1
-25.064506 10.730100 8.609266 28.591677 -0.404493 1.264939 0.202982 -0.027335 548372.000000 0 0 1
-25.557026 11.899900 7.891066 29.275213 -0.435769 1.297873 0.213138 -0.030340 672430.000000 0 0 1
-26.822786 11.732600 7.253366 30.161682 -0.412336 1.327933 0.268275 -0.042376 174243.000000 0 0 1
-27.238346 12.960600 6.381366 30.832231 -0.444119 1.362319 0.264488 -0.047663 -183733.000000 0 0 1
-26.534946 13.166400 5.170666 30.069806 -0.460596 1.397982 0.262205 -0.049034 660323.000000 0 0 1
-25.196076 13.644800 5.190666 29.119853 -0.496328 1.391587 0.242931 -0.053067 17457.800000 0 0 1
-25.034216 15.172800 5.511666 29.787653 -0.544880 1.384692 0.214092 -0.054890 807343.000000 0 0 1
-23.638766 15.519500 5.752866 28.857263 -0.580950 1.370096 0.172305 -0.059585 1707030.000000 0 0 1
-23.540166 16.901700 6.138066 29.622335 -0.622701 1.362073 0.153438 -0.061209 546251.000000 0 0 1
-22.077266 17.459700 6.232166 28.828574 -0.669134 1.352896 0.127756 -0.048345 765818.000000 0 0 1
-21.421466 17.669400 4.976966 28.210939 -0.689708 1.393448 0.138313 -0.060760 544740.000000 0 0 1
-20.137766 18.252100 5.134266 27.659166 -0.736319 1.384087 0.137404 -0.045386 -221875.000000 0 0 1
-19.617766 18.639000 3.760166 27.320467 -0.759820 1.432726 0.133380 -0.043689 248187.000000 0 0 1
-18.266566 19.080300 3.937266 26.706317 -0.807183 1.422829 0.124336 -0.042884 651263.000000 0 0 1
-17.855866 20.149200 3.110266 27.101586 -0.845668 1.455780 0.134130 -0.036667 38978.000000 0 0 1
-18.316866 21.553800 3.623266 28.516696 -0.866406 1.443394 0.134323 -0.053144 -127791.000000 0 0 1
-17.783466 21.989000 4.877966 28.697776 -0.890747 1.399990 0.145814 -0.047913 181335.000000 0 0 1
-18.116566 23.323600 5.170966 29.982314 -0.910395 1.397462 0.123293 -0.048098 -136783.000000 0 0 1
-17.141266 23.734800 6.304666 29.948498 -0.945326 1.358693 0.087429 -0.034884 58772.500000 0 0 1
-17.503666 23.298000 7.559866 30.105260 -0.926467 1.316965 0.082524 -0.030884 -16331.200000 0 0 1
-16.507966 23.490800 8.539766 29.954269 -0.958233 1.281692 0.083799 -0.034920 -99789.500000 0 0 1
-16.755866 22.704100 9.842866 29.885067 -0.935013 1.235173 0.066222 -0.027624 350691.000000 0 0 1
-17.892066 23.160400 10.561366 31.113865 -0.913032 1.224472 0.064786 -0.024595 -298755.000000 0 0 1
-18.786066 22.133600 10.913766 31.014881 -0.867024 1.211209 0.063938 -0.027857 419132.000000 0 0 1
-20.157566 22.670900 11.445866 32.423834 -0.844015 1.210012 0.082405 -0.031246 1304650.000000 0 0 1
-21.071466 23.359200 10.498766 33.164484 -0.836843 1.248689 0.100092 -0.029194 1066510.000000 0 0 1
-20.528566 24.583100 10.057066 33.569263 -0.875035 1.266532 0.059022 -0.027845 -397791.000000 0 0 1
-21.596566 25.573900 9.518066 34.799851 -0.869518 1.293757 0.086387 -0.026721 162479.000000 0 0 1
-22.566566 25.968300 10.457166 35.957681 -0.855372 1.275714 0.106190 -0.038220 -146331.000000 0 0 1
-23.285666 27.040800 9.880366 37.027675 -0.859876 1.300686 0.112645 -0.026864 140012.000000 0 0 1
-24.350466 27.691200 10.834066 38.433381 -0.849504 1.285031 0.116582 -0.032454 11098.500000 0 0 1
-23.834166 28.437700 11.883566 38.961383 -0.873241 1.260849 0.127675 -0.033018 22541.500000 0 0 1
-24.859766 29.010200 12.649766 40.244456 -0.862292 1.251053 0.117965 -0.035920 -157215.000000 0 0 1
10.398334 -32.504514 27.686186 43.945349 -1.261180 0.889225 0.091294 -0.029400 -908516.000000 0 0 1
11.725034 -32.708914 27.325306 44.204319 -1.226599 0.904398 0.054335 -0.029213 -158482.000000 0 0 1
11.900934 -32.383814 25.961576 43.178085 -1.218620 0.925710 0.062022 -0.021479 301015.000000 0 0 1
13.385334 -32.632114 25.550666 43.552940 -1.181537 0.943871 0.010613 -0.002435 438892.000000 0 0 1
13.748134 33.661400 25.364736 44.333631 1.183049 0.961692 0.029470 -0.028641 -461252.000000 0 0 1
15.123834 33.491800 25.515356 44.737729 1.146639 0.963886 0.040430 -0.016106 -498151.000000 0 0 1
15.703434 32.087900 25.077316 43.647485 1.115674 0.958752 0.071481 -0.009955 114253.000000 0 0 1
15.636834 31.963300 23.678776 42.741637 1.115816 0.983638 0.063320 -0.025060 114070.000000 0 0 1
16.609634 31.050500 23.273056 42.209580 1.079602 0.986792 0.078674 -0.031692 -442993.000000 0 0 1
16.520734 30.571100 21.809266 41.026466 1.075351 1.010319 0.085549 -0.036782 266168.000000 0 0 1
15.508034 29.598500 21.474866 39.720778 1.088175 0.999592 0.071506 -0.019959 329836.000000 0 0 1
15.699134 28.238900 21.769366 38.958999 1.063404 0.977887 0.080148 -0.022104 -318480.000000 0 0 1
15.442934 27.703100 23.225056 39.310930 1.062256 0.938741 0.100876 -0.037793 -109430.000000 0 0 1
16.335734 28.107300 24.255226 40.560973 1.044321 0.929800 0.099925 -0.031334 105766.000000 0 0 1
15.921234 27.566500 25.502486 40.789391 1.047042 0.895378 0.086577 -0.032866 -316272.000000 0 0 1
16.851734 27.893100 26.718296 42.141112 1.027328 0.884056 0.098226 -0.030770 8074.890000 0 0 1
16.816334 29.258700 27.087166 43.273262 1.049153 0.894439 0.094259 -0.030306 252119.000000 0 0 1
17.491234 29.529000 28.323926 44.498875 1.036028 0.880833 0.107135 -0.032595 129554.000000 0 0 1
17.269734 30.916400 28.852496 45.678595 1.061379 0.887128 0.112070 -0.039782 -255156.000000 0 0 1
17.928634 31.861700 28.092626 46.106393 1.058254 0.915619 0.108613 -0.027129 -60761.200000 0 0 1
17.804434 33.172500 28.672286 47.323489 1.078204 0.919927 0.094970 -0.009345 -305417.000000 0 0 1
18.454034 -33.414214 27.805466 47.225046 -1.066204 0.941240 0.071358 -0.016390 -540883.000000 0 0 1
18.002934 -33.261914 26.445726 46.150157 -1.074698 0.960590 0.091563 -0.018266 -85192.400000 0 0 1
18.333534 -32.024314 25.817146 45.035544 -1.050852 0.960315 0.069980 -0.024354 -1291690.000000 0 0 1
19.753834 -31.644814 25.478636 45.174872 -1.012747 0.971574 0.091741 -0.022241 -932977.000000 0 0 1
20.412834 -30.997914 26.579526 45.651130 -0.988453 0.949326 0.072841 -0.022547 250100.000000 0 0 1
21.304234 -30.020614 26.050266 45.096829 -0.953621 0.954947 0.068249 -0.024131 21585.100000 0 0 1
21.853034 -29.126214 27.156746 45.424446 -0.927111 0.929987 0.071552 -0.024245 -516862.000000 0 0 1
20.825034 -28.417014 27.761776 44.854486 -0.938370 0.903417 0.079486 -0.014089 -77439.700000 0 0 1
21.331934 -27.600514 28.798716 45.235007 -0.912811 0.880654 0.088031 -0.017866 253201.000000 0 0 1
20.117034 -27.005814 29.557196 44.806661 -0.930558 0.850429 0.076584 -0.020040 365512.000000 0 0 1
19.353534 -26.211714 28.648126 43.385808 -0.934790 0.849564 0.087652 -0.012254 261824.000000 0 0 1
18.108934 -25.891914 29.271746 43.071566 -0.960470 0.823569 0.086310 -0.013081 197164.000000 0 0 1
17.211634 -25.137414 28.254066 41.550237 -0.970412 0.823037 0.094254 -0.008161 -872816.000000 0 0 1
16.720634 -25.958914 27.187196 41.141080 -0.998566 0.848874 0.090478 -0.006586 450084.000000 0 0 1
16.053234 -25.130514 26.191266 39.689186 -1.002339 0.850098 0.089657 -0.020471 1180410.000000 0 0 1
14.574634 -24.639814 26.609366 39.084508 -1.036645 0.821920 0.099410 -0.012697 1410980.000000 0 0 1
13.632634 -25.718814 26.711106 39.506826 -1.083387 0.828321 0.085256 -0.007969 406214.000000 0 0 1
13.226534 -26.282214 25.459646 38.908734 -1.104552 0.857483 0.079149 -0.016873 -383135.000000 0 0 1
12.235334 -27.447314 25.726396 39.558891 -1.151461 0.862776 0.069509 -0.015942 1053310.000000 0 0 1
10.843234 -27.214614 25.980156 39.155835 -1.191640 0.845300 0.069162 -0.026337 563344.000000 0 0 1
10.175334 -28.405114 26.231346 39.980888 -1.226816 0.855161 0.061456 -0.018897 -1092110.000000 0 0 1
8.721034 -28.309514 26.686886 39.870727 -1.271961 0.837483 0.063695 -0.031749 63251.800000 0 0 1
7.734534 -28.146714 25.656006 38.862465 -1.302622 0.849745 0.096684 -0.030524 295290.000000 0 0 1
7.800934 -26.915214 24.838686 37.446544 -1.288692 0.845562 0.113215 -0.035425 -972731.000000 0 0 1
6.571434 -26.636014 23.948716 36.417056 -1.328914 0.853136 0.115609 -0.038377 -364608.000000 0 0 1
6.385734 -27.536614 22.877846 36.365348 -1.342924 0.890387 0.125483 -0.044625 -42518.400000 0 0 1
5.862934 -28.839014 23.095276 37.409284 -1.370231 0.905404 0.128605 -0.035472 365432.000000 0 0 1
4.392734 -28.922814 23.616996 37.597710 -1.420070 0.891623 0.163986 -0.036612 610744.000000 0 0 1
3.286234 -28.805414 22.672836 36.805009 -1.457204 0.907109 0.166197 -0.035383 1371570.000000 0 0 1
2.081334 -28.644914 23.442846 37.073307 -1.498264 0.886229 0.195220 -0.032296 453120.000000 0 0 1
1.641434 -27.235314 23.941506 36.299481 -1.510601 0.850570 0.161617 -0.038461 -695796.000000 0 0 1
2.489334 -26.635514 24.874446 36.529241 -1.477608 0.821743 0.140522 -0.042705 -201806.000000 0 0 1
2.163334 -25.283414 25.004306 35.625080 -1.485441 0.792772 0.120795 -0.034016 269793.000000 0 0 1
3.293534 -24.427914 25.664986 35.584573 -1.436778 0.765207 0.110156 -0.026482 183388.000000 0 0 1
4.488134 -24.293214 24.868616 35.053554 -1.388108 0.782084 0.118646 -0.033062 682361.000000 0 0 1
5.543334 -23.751814 25.643576 35.390256 -1.341515 0.760351 0.101598 -0.026932 129008.000000 0 0 1
5.337634 -22.245514 25.920526 34.572054 -1.335306 0.723107 0.078600 -0.011988 -1021980.000000 0 0 1
5.152934 -21.483914 24.726926 33.159194 -1.335392 0.729206 0.074611 -0.021825 377870.000000 0 0 1
4.338734 -20.311714 24.841626 32.380499 -1.360352 0.696365 0.091123 -0.031786 242464.000000 0 0 1
4.428834 -19.420414 23.610356 30.890386 -1.346580 0.700799 0.092674 -0.036641 -309787.000000 0 0 1
5.713534 -18.896214 23.497656 30.689594 -1.277172 0.698737 0.060119 -0.014182 -644164.000000 0 0 1
5.738634 -18.048314 22.385436 29.322028 -1.262945 0.702183 0.061552 -0.017495 -177842.000000 0 0 1
7.063534 -17.334514 22.090466 28.954578 -1.183855 0.702955 0.074407 -0.017025 -481874.000000 0 0 1
7.984134 -18.261214 21.481666 29.303247 -1.158622 0.747955 0.091258 -0.021620 95925.100000 0 0 1
9.099234 -17.563414 20.956166 28.817190 -1.092790 0.756547 0.085174 -0.020494 -369744.000000 0 0 1
10.289534 -17.414814 21.891766 29.806034 -1.037132 0.745905 0.092131 -0.010093 -1201410.000000 0 0 1
10.214934 -16.635714 23.038246 30.196898 -1.020120 0.702957 0.094246 0.001386 -475563.000000 0 0 1
11.453434 -16.354214 23.626196 30.932808 -0.959845 0.701630 0.111431 -0.002208 -515863.000000 0 0 1
11.458534 -15.593814 24.999106 31.613610 -0.937086 0.658730 0.134126 -0.020320 -213531.000000 0 0 1
11.497234 -14.208314 24.796886 30.805002 -0.890476 0.635183 0.157540 -0.016634 178988.000000 0 0 1
11.517034 -13.512214 26.007526 31.489894 -0.864944 0.598998 0.154180 -0.025071 -129182.000000 0 0 1
11.557534 -11.993314 25.756526 30.672704 -0.803900 0.574026 0.159027 -0.024555 83878.800000 0 0 1
10.381334 -11.507214 25.155356 29.546235 -0.836790 0.552168 0.178715 -0.017543 -185303.000000 0 0 1
10.557534 -10.176114 24.724456 28.745670 -0.767004 0.535310 0.171812 -0.017625 -199877.000000 0 0 1
9.332834 -9.481414 24.118626 27.544639 -0.793295 0.504079 0.175457 -0.018236 230409.000000 0 0 1
8.294134 -9.153714 25.036916 27.918279 -0.834624 0.458329 0.166857 -0.027205 506837.000000 0 0 1
7.149934 -8.646314 24.355146 26.815172 -0.879846 0.431690 0.159429 -0.030249 362726.000000 0 0 1
5.788934 -8.954314 25.006496 27.184855 -0.996888 0.403051 0.146126 -0.029942 -961695.000000 0 0 1
5.419534 -8.027314 26.006596 27.751615 -0.976953 0.356511 0.155643 -0.029154 -105270.000000 0 0 1
4.176434 -8.189314 26.657766 28.198297 -1.099192 0.332075 0.163994 -0.033152 167238.000000 0 0 1
2.950334 -8.031614 25.742896 27.127624 -1.218758 0.320890 0.147151 -0.027056 -1016350.000000 0 0 1
2.847834 -6.790214 25.140486 26.196587 -1.173676 0.284915 0.153651 -0.034874 388192.000000 0 0 1
1.675734 -6.700514 24.327376 25.288855 -1.325733 0.276634 0.116437 -0.029796 608481.000000 0 0 1
1.786734 -5.422314 23.462996 24.147589 -1.252486 0.238685 0.091698 -0.032731 44000.000000 0 1 0
1.712934 -4.213114 24.216576 24.639948 -1.184637 0.185644 0.104067 -0.028658 -26901.600000 0 1 0
1.898634 -3.008414 23.484466 23.752379 -1.007817 0.150338 0.098771 -0.030551 -353068.000000 0 1 0
0.851834 -2.653114 22.351196 22.524222 -1.260124 0.124029 0.057984 -0.032295 1296120.000000 0 1 0
-0.350966 -1.940814 22.693746 22.779290 1.391895 0.086691 0.047532 -0.038722 567792.000000 0 1 0
-1.304666 -2.696114 23.415936 23.606720 1.120107 0.127222 0.056702 -0.031039 -786553.000000 0 1 0
-2.257766 -1.772814 24.133726 24.303849 0.665656 0.118390 0.048834 -0.028938 -658963.000000 0 1 0
-1.657266 -1.031814 25.127376 25.203099 0.556872 0.077537 0.070421 -0.038111 -343937.000000 0 0 1
-2.334366 0.147186 25.325486 25.433269 -0.062968 0.092096 0.058259 -0.032932 -426947.000000 0 0 1
-1.590766 1.023186 26.386326 26.454029 -0.571582 0.071559 0.096821 -0.045819 14318.600000 0 0 1
-1.637666 0.533186 27.713026 27.766491 -0.314753 0.062067 0.126294 -0.046462 163007.000000 0 0 1
-0.959766 -0.680814 27.996546 28.021264 0.616976 0.042006 0.143083 -0.052661 -860475.000000 0 0 1
0.413234 -0.579814 28.670566 28.679405 -0.951597 0.024829 0.149220 -0.048368 -251737.000000 0 0 1
1.413734 0.112186 27.934546 27.970522 0.079188 0.050724 0.134222 -0.049891 207586.000000 0 0 1
2.041134 -0.628814 26.879166 26.963887 -0.298845 0.079293 0.126743 -0.048081 316758.000000 0 0 1
3.232434 -1.568814 27.276536 27.512165 -0.451847 0.130972 0.139626 -0.053905 179334.000000 0 0 1
2.738334 -2.769814 27.860896 28.131830 -0.791113 0.138898 0.168274 -0.057262 -131698.000000 0 0 1
3.740234 -3.648114 28.262296 28.741180 -0.772931 0.182803 0.179637 -0.054962 -251705.000000 0 0 1
4.440034 -4.450614 27.167386 27.885278 -0.786588 0.227401 0.180647 -0.051618 97269.800000 0 0 1
5.412634 -3.800314 26.361876 27.178806 -0.612147 0.245802 0.158653 -0.042913 111868.000000 0 0 1
6.097734 -4.853814 25.631386 26.790107 -0.672299 0.295186 0.154271 -0.038649 -323129.000000 0 0 1
7.234834 -4.285814 24.817056 26.203001 -0.534802 0.326697 0.155112 -0.042323 -79624.900000 0 0 1
8.454234 -3.917714 25.516076 27.164180 -0.433943 0.350130 0.137704 -0.038973 1030840.000000 0 0 1
9.497134 -4.847214 25.256106 27.414630 -0.471923 0.399479 0.143414 -0.032938 149579.000000 0 0 1
10.324234 -4.683714 23.956806 26.503878 -0.425895 0.442000 0.135419 -0.025712 -910639.000000 0 0 1
9.689134 -5.117414 22.808746 25.304271 -0.485921 0.447852 0.122290 -0.033409 -410198.000000 0 0 1
10.327934 -4.759114 21.599066 24.409732 -0.431799 0.484614 0.147022 -0.028440 -71156.200000 0 1 0
10.080734 -3.371914 21.011666 23.547422 -0.322792 0.468353 0.147787 -0.045683 1489780.000000 0 1 0
8.720734 -3.178014 20.519766 22.521362 -0.349463 0.424792 0.118084 -0.051862 1094310.000000 0 1 0
8.558734 -1.948814 19.918366 21.766743 -0.223882 0.415084 0.101544 -0.049229 1443380.000000 0 1 0
7.034034 -1.464814 19.822366 21.084342 -0.205312 0.347737 0.093065 -0.038733 1508660.000000 0 1 0
6.539334 -1.165814 21.093166 22.114331 -0.176424 0.305079 0.100898 -0.031200 873461.000000 0 1 0
5.148034 -0.788814 21.036866 21.671968 -0.152044 0.242691 0.069918 -0.023262 699427.000000 0 1 0
4.543634 -0.418814 22.361666 22.822448 -0.091916 0.201287 0.073990 -0.035027 -1089430.000000 0 1 0
3.330234 0.228186 22.261076 22.509954 0.068413 0.148841 0.066022 -0.028218 -1006410.000000 0 1 0
2.832934 0.539186 23.534866 23.710887 0.188078 0.121925 0.082898 -0.031960 -861816.000000 0 1 0
1.363434 0.895186 23.479796 23.536379 0.580978 0.069355 0.076878 -0.034605 -832876.000000 0 1 0
1.193934 2.233186 23.040516 23.179257 1.079828 0.109467 0.068697 -0.028030 -316123.000000 0 1 0
-0.177866 2.481186 23.104186 23.237713 -1.499233 0.107254 0.045302 -0.015782 -486669.000000 0 1 0
-0.786766 3.804186 22.610796 22.942077 -1.366856 0.170146 0.043947 -0.016224 -151541.000000 0 1 0
-0.588966 4.954186 23.402316 23.928210 -1.452469 0.210043 0.056382 -0.018266 -465691.000000 0 1 0
-1.418666 5.982186 23.004526 23.811916 -1.337949 0.261153 0.042466 -0.019840 -439743.000000 0 1 0
-1.288266 7.313186 23.791316 24.923263 -1.396429 0.302540 0.063395 -0.017202 284900.000000 0 1 0
-0.291066 8.150186 23.227326 24.617451 -1.535099 0.337665 0.050703 -0.019445 96628.100000 0 1 0
-0.375866 9.416186 23.906686 25.696993 -1.530900 0.375484 0.051376 -0.007549 199363.000000 0 0 1
0.615534 10.467186 23.219266 25.476954 1.512058 0.424164 0.052189 -0.013465 -530986.000000 0 0 1
1.937534 10.170186 23.299756 25.496379 1.382541 0.418140 0.052443 -0.013101 -1591730.000000 0 0 1
2.662334 10.355186 24.501516 26.732792 1.319145 0.411469 0.077089 -0.015668 -648669.000000 0 0 1
3.874334 11.269186 24.327766 27.089577 1.239656 0.455482 0.071921 -0.019708 546781.000000 0 0 1
5.091634 10.745186 23.762746 26.571636 1.128285 0.463955 0.078641 -0.021344 777846.000000 0 0 1
5.003334 10.519186 22.390456 25.239238 1.126827 0.479710 0.076878 -0.026081 -79971.500000 0 0 1
6.346734 10.018186 21.738766 24.763259 1.006093 0.499413 0.103135 -0.029706 649250.000000 0 1 0
7.282134 11.066186 21.623966 25.359137 0.988781 0.549647 0.099534 -0.034813 24159.200000 0 0 1
8.463734 10.577186 20.996966 24.987681 0.895941 0.572973 0.126324 -0.042591 823749.000000 0 1 0
9.514634 11.729186 20.748266 25.663059 0.889268 0.629219 0.112567 -0.046119 -49424.000000 0 0 1
9.146634 12.545186 19.681866 25.068276 0.940809 0.667890 0.106804 -0.039338 454554.000000 0 0 1
10.083134 13.543186 19.230566 25.591056 0.930813 0.720529 0.122921 -0.044752 201119.000000 0 0 1
11.393034 13.114186 18.550166 25.414400 0.855513 0.752609 0.118646 -0.044738 -39112.100000 0 0 1
12.467034 12.998186 19.484166 26.533234 0.806253 0.746116 0.128166 -0.045426 322565.000000 0 0 1
13.609234 12.538186 18.762466 26.352371 0.744459 0.778477 0.116898 -0.049042 881891.000000 0 0 1
14.958634 12.477186 19.560666 27.605444 0.695198 0.783313 0.130726 -0.043965 710074.000000 0 0 1
15.548534 13.744186 19.796166 28.680093 0.723879 0.808975 0.140089 -0.051131 1221900.000000 0 0 1
16.924534 13.593186 20.250466 29.686629 0.676668 0.820110 0.155387 -0.047403 1481560.000000 0 0 1
17.540434 14.908186 20.721566 30.972635 0.704455 0.837896 0.171551 -0.044943 -181637.000000 0 0 1
16.932534 15.296186 21.984966 31.686318 0.734669 0.804000 0.162363 -0.052100 745840.000000 0 0 1
17.544534 16.514186 22.456796 32.936859 0.755155 0.820557 0.157508 -0.045511 23841.200000 0 0 1
-22.278966 12.667000 -24.195571 35.245296 -0.516983 2.327448 0.058167 -0.023442 163112.000000 0 0 1
-21.977566 12.436800 -25.597251 35.957011 -0.514958 2.362975 0.059350 -0.039520 -413488.000000 0 0 1
-22.674566 13.303500 -26.400711 37.257437 -0.530594 2.358312 0.068283 -0.035478 -541406.000000 0 0 1
-22.374766 13.196000 -27.930371 38.142761 -0.532865 2.392429 0.054124 -0.033911 1624850.000000 0 0 1
-21.055866 13.774600 -28.262981 37.840259 -0.579317 2.414188 0.056676 -0.023814 1487250.000000 0 0 1
-21.026066 14.316900 -29.529941 38.975460 -0.597800 2.430508 0.059406 -0.029031 -360755.000000 0 0 1
-19.585866 14.726500 -29.819111 38.596053 -0.644712 2.453714 0.048804 -0.032289 -238022.000000 0 0 1
-18.684466 13.702500 -30.284611 38.131685 -0.632768 2.488505 0.042136 -0.029091 444162.000000 0 0 1
-17.326266 14.106800 -30.137361 37.516154 -0.683331 2.503640 0.046241 -0.023328 794497.000000 0 0 1
-16.750466 13.415300 -28.825371 35.936755 -0.675284 2.501623 0.095680 -0.027117 -31247.400000 0 0 1
-17.346366 14.010900 -27.657881 35.526893 -0.679427 2.463077 0.088670 -0.021088 -254658.000000 0 0 1
-17.864566 12.916400 -26.929581 34.801989 -0.626008 2.455606 0.093171 -0.021035 -190138.000000 0 0 1
-18.567466 13.364400 -25.632771 34.356905 -0.623875 2.412942 0.088173 -0.029565 -156373.000000 0 0 1
-17.701266 13.913900 -24.653271 33.387351 -0.666170 2.401493 0.172420 -0.034891 459432.000000 0 0 1
-18.448266 14.351600 -23.508271 33.150350 -0.661143 2.359075 0.138091 -0.034648 575822.000000 0 0 1
-17.512566 15.179300 -22.568771 32.348888 -0.714148 2.342933 0.165763 -0.028767 471805.000000 0 0 1
-16.953166 16.362200 -23.131971 33.018472 -0.767661 2.347002 0.138746 -0.028431 -272557.000000 0 0 1
-15.971166 16.860300 -22.264371 32.172194 -0.812473 2.335104 0.150276 -0.023831 -486170.000000 0 0 1
-15.801766 18.374100 -22.508071 33.074410 -0.860524 2.319280 0.122642 -0.024389 934651.000000 0 0 1
-16.951066 19.189300 -22.178071 33.873806 -0.847251 2.284617 0.082335 -0.020013 1538300.000000 0 0 1
-18.055966 19.081700 -23.097771 34.980512 -0.813011 2.292020 0.064399 -0.017225 1456570.000000 0 0 1
-19.421366 19.818300 -22.815471 35.923532 -0.795513 2.258950 0.034441 -0.012272 1027020.000000 0 0 1
-19.145066 21.199600 -23.075471 36.721029 -0.836279 2.250290 0.036448 -0.008838 -55842.200000 0 0 1
-20.261666 22.040500 -22.963671 37.731273 -0.827424 2.225105 0.037806 -0.018927 -203616.000000 0 0 1
-19.880966 23.481800 -23.418871 38.666410 -0.868248 2.221397 0.034325 -0.016924 158765.000000 0 0 1
-19.120166 24.111400 -22.411771 38.068725 -0.900343 2.200269 0.037785 -0.021654 -414480.000000 0 0 1
-18.343966 25.175000 -22.819771 38.613775 -0.941095 2.203063 0.033973 -0.007777 48222.900000 0 0 1
-17.115266 25.466100 -21.853371 37.669940 -0.979055 2.189682 0.032116 -0.021116 331430.000000 0 0 1
-16.041866 24.581500 -21.863571 36.600647 -0.992596 2.210995 0.052457 -0.035378 -385930.000000 0 0 1
-16.363466 23.282300 -21.436171 35.627769 -0.958175 2.216387 0.077044 -0.020245 -1370460.000000 0 0 1
-15.194966 22.292800 -21.391071 34.430130 -0.972520 2.241183 0.111557 -0.024817 -89216.600000 0 0 1
-14.407066 22.613200 -20.253771 33.602613 -1.003537 2.217732 0.135765 -0.038401 167915.000000 0 0 1
-13.316566 21.680800 -20.079571 32.412608 -1.019994 2.238900 0.143881 -0.034478 574707.000000 0 0 1
-12.439866 22.126200 -18.885271 31.638149 -1.058617 2.210446 0.127805 -0.036526 250626.000000 0 0 1
-13.063066 21.958200 -17.586971 31.017862 -1.034131 2.173649 0.137255 -0.032562 326514.000000 0 0 1
-14.013766 22.954800 -17.209671 31.929317 -1.022696 2.140037 0.134237 -0.041741 98806.000000 0 0 1
-14.586866 22.840500 -15.796471 31.368672 -1.002448 2.098528 0.142421 -0.044098 28736.900000 0 0 1
-13.696566 23.301600 -14.802871 30.816967 -1.039399 2.071848 0.131612 -0.056352 -90328.200000 0 0 1
-14.322866 23.453900 -13.524571 30.629135 -1.022560 2.028132 0.130018 -0.048778 47132.300000 0 0 1
-13.266066 23.783600 -12.465371 29.950519 -1.061998 2.000057 0.165070 -0.043044 -111664.000000 0 0 1
-12.732366 25.082000 -12.547471 30.800307 -1.101064 1.990381 0.160227 -0.055211 360821.000000 0 0 1
-11.737966 25.364800 -11.553371 30.242905 -1.137377 1.962777 0.091867 -0.049148 246935.000000 0 0 1
-11.356266 26.813400 -11.565971 31.332011 -1.170172 1.948882 0.124441 -0.049106 297502.000000 0 0 1
-10.491266 26.933500 -12.722471 31.580712 -1.199353 1.985431 0.122709 -0.051115 327311.000000 0 0 1
-10.319166 28.303200 -13.017371 32.817804 -1.221180 1.978667 0.100743 -0.030101 -564462.000000 0 0 1
-9.646966 28.667700 -14.353471 33.480190 -1.246190 2.013867 0.136668 -0.052817 370375.000000 0 0 1
-8.236066 28.657100 -14.479971 33.147122 -1.290938 2.022878 0.097108 -0.047481 -16467.400000 0 0 1
-7.695066 27.330600 -14.579171 31.917518 -1.296346 2.045164 0.104841 -0.047187 -676445.000000 0 0 1
-6.240166 27.417300 -15.015371 31.876471 -1.347009 2.061276 0.111823 -0.044911 -300834.000000 0 0 1
-5.443466 28.214600 -14.181971 32.044083 -1.380207 2.029267 0.093285 -0.035958 -784862.000000 0 0 1
-4.082066 28.139200 -14.494771 31.915141 -1.426734 2.042232 0.106026 -0.038637 -113140.000000 0 0 1
-3.157166 29.170700 -13.797771 32.423385 -1.462985 2.010366 0.081277 -0.027997 92294.500000 0 0 1
-3.332666 30.555000 -14.170871 33.845654 -1.462155 2.002800 0.071420 -0.022401 1139190.000000 0 0 1
-4.513066 31.189400 -13.564371 34.309454 -1.427095 1.977249 0.069284 -0.023017 1365080.000000 0 0 1
-4.602366 32.684200 -13.931471 35.826311 -1.430903 1.970192 0.072424 -0.026878 853343.000000 0 0 1
-3.472066 33.432800 -13.427071 36.195215 -1.467315 1.950842 0.055625 -0.026530 778294.000000 0 0 1
-3.615566 -32.829214 -13.722371 35.764970 1.461106 1.964576 0.075884 -0.028865 514409.000000 0 0 1
-2.637666 -32.087114 -12.767371 34.634462 1.488777 1.948333 0.073208 -0.035587 245261.000000 0 0 1
-3.084366 -32.050014 -11.438271 34.169442 1.474856 1.912138 0.075615 -0.036357 257908.000000 0 0 1
-2.161366 -31.337514 -10.631171 33.162224 1.501935 1.897139 0.064990 -0.038428 -272312.000000 0 0 1
-2.555766 -31.374814 -9.150671 32.781789 1.489517 1.853694 0.065830 -0.033154 -230491.000000 0 0 1
-1.592066 -30.785914 -8.270871 31.917307 1.519128 1.832922 0.094189 -0.043643 29095.900000 0 0 1
-1.851366 -30.865614 -6.852971 31.671389 1.510887 1.788899 0.079115 -0.043163 -439231.000000 0 0 1
-0.649466 -30.359914 -6.069371 30.967458 1.549407 1.768065 0.098414 -0.046774 -187163.000000 0 0 1
-0.803766 -30.324714 -4.670671 30.692825 1.544297 1.723565 0.099380 -0.047668 140802.000000 0 0 1
0.458034 -29.901814 -4.169371 30.194568 -1.555480 1.709322 0.092657 -0.044698 -36453.000000 0 0 1
0.654134 -29.986514 -2.637071 30.109352 -1.548986 1.658492 0.095588 -0.039366 -522415.000000 0 0 1
0.812534 -31.289014 -2.158771 31.373921 -1.544833 1.639659 0.099608 -0.042551 -253265.000000 0 0 1
1.990334 -31.942814 -2.547671 32.106003 -1.508567 1.650232 0.094726 -0.044273 -1325690.000000 0 0 1
3.296434 -31.558014 -1.931871 31.788471 -1.466717 1.631606 0.086176 -0.039296 -1834580.000000 0 0 1
3.407334 -31.997114 -0.616471 32.183929 -1.464707 1.589952 0.075634 -0.034118 984967.000000 0 0 1
4.720234 -31.846414 -0.017771 32.194332 -1.423649 1.571348 0.060135 -0.030374 1100580.000000 0 0 1
5.152034 -30.438614 0.408129 30.874249 -1.403126 1.557577 0.029233 -0.030400 -568314.000000 0 0 1
5.589434 -29.682414 -0.738271 30.213118 -1.384668 1.595234 0.033246 -0.033156 166890.000000 0 0 1
5.301734 -28.281514 -0.541771 28.779262 -1.385484 1.589622 0.059215 -0.028144 -337454.000000 0 0 1
4.906634 -27.462514 -1.777971 27.953996 -1.393995 1.634443 0.041209 -0.027803 -269063.000000 0 0 1
3.718234 -27.869614 -2.388571 28.217830 -1.438164 1.655545 0.064033 -0.023876 -379917.000000 0 0 1
3.074334 -26.880314 -3.191971 27.243192 -1.456920 1.688232 0.055959 -0.022771 220195.000000 0 0 1
3.240134 -26.880114 -4.755071 27.489083 -1.450835 1.744651 0.056336 -0.020107 106156.000000 0 0 1
2.733034 -28.045314 -5.358271 28.683099 -1.473652 1.758710 0.061406 -0.031120 -164401.000000 0 0 1
3.218634 -28.030314 -6.698971 28.998868 -1.456470 1.803910 0.078236 -0.042278 -198123.000000 0 0 1
2.518234 -28.905414 -7.708071 30.021306 -1.483896 1.830458 0.080468 -0.042922 -392466.000000 0 0 1
1.221034 -28.457514 -8.031271 29.594296 -1.527915 1.845622 0.083046 -0.044257 -266922.000000 0 0 1
0.957234 -28.637314 -9.421271 30.162434 -1.537383 1.888463 0.082118 -0.031846 213789.000000 0 0 1
-0.428766 -28.067314 -9.812171 29.736117 1.555521 1.907073 0.099850 -0.039135 -788443.000000 0 0 1
-0.581566 -26.627814 -9.685671 28.340623 1.548959 1.919585 0.102557 -0.038912 -470830.000000 0 0 1
-1.897066 -26.159914 -9.830771 28.010427 1.498405 1.929401 0.111392 -0.030448 454485.000000 0 0 1
-2.924466 -26.657814 -8.744871 28.207522 1.461529 1.886009 0.111397 -0.026735 -439538.000000 0 0 1
-2.743166 -26.192914 -7.406271 27.357751 1.466447 1.844936 0.125947 -0.031397 -216956.000000 0 0 1
-1.707166 -26.897914 -6.743271 27.782799 1.507413 1.815959 0.120032 -0.032034 190721.000000 0 0 1
-1.376466 -26.556714 -5.236071 27.102955 1.519011 1.765211 0.124800 -0.026215 -342623.000000 0 0 1
-2.297766 -26.960814 -4.278371 27.394702 1.485776 1.727613 0.137091 -0.030786 -379201.000000 0 0 1
-1.855066 -26.714114 -2.940471 26.939405 1.501466 1.680166 0.136545 -0.026210 199343.000000 0 0 1
-2.992566 -27.006114 -1.925071 27.239522 1.460436 1.641527 0.139680 -0.034328 122351.000000 0 0 1
-4.037966 -26.071514 -1.938471 26.453482 1.417137 1.644141 0.121488 -0.028418 -410972.000000 0 0 1
-4.843566 -26.290314 -0.755771 26.743447 1.388605 1.599060 0.126071 -0.036158 841473.000000 0 0 1
-6.018966 -25.235314 -0.839971 25.956783 1.336657 1.603162 0.112307 -0.023331 522739.000000 0 0 1
-5.525366 -23.900414 -0.717271 24.541270 1.343605 1.600028 0.085853 -0.028451 221766.000000 0 1 0
-6.563266 -23.023514 -0.297571 23.942582 1.293094 1.583225 0.106163 -0.039510 319614.000000 0 1 0
-5.995166 -21.610914 0.026729 22.427089 1.300187 1.569604 0.080060 -0.041203 -208620.000000 0 1 0
-5.313766 -21.552114 1.239429 22.232092 1.329063 1.515018 0.073765 -0.039561 -179611.000000 0 1 0
-4.394966 -20.472914 1.258529 20.977126 1.359333 1.510765 0.040048 -0.026988 -399752.000000 0 1 0
-3.504166 -20.561414 2.498629 21.007001 1.401994 1.451571 0.033257 -0.012015 -889527.000000 0 1 0
-4.085666 -20.107814 3.689029 20.847681 1.370337 1.392908 0.030658 -0.018858 299752.000000 0 1 0
-3.163566 -19.671214 4.705629 20.472122 1.411340 1.338867 0.046809 -0.032310 481971.000000 0 1 0
-2.161666 -20.708814 5.308629 21.487423 1.466789 1.321154 0.057767 -0.039988 331662.000000 0 1 0
-1.289266 -21.282414 4.358429 21.762336 1.510291 1.369159 0.049184 -0.038056 -444676.000000 0 1 0
-0.821866 -22.530614 4.764629 23.043562 1.534335 1.362528 0.054929 -0.040323 -812644.000000 0 1 0
0.076134 -23.067014 3.614629 23.348629 -1.567496 1.415360 0.060790 -0.039059 -195478.000000 0 1 0
1.313834 -22.442614 3.476129 22.748199 -1.512321 1.417386 0.064702 -0.038357 -918128.000000 0 1 0
2.265334 -23.015614 4.311629 23.525314 -1.472686 1.386478 0.076205 -0.036689 -866220.000000 0 1 0
3.484734 -22.106514 4.666529 22.860836 -1.414449 1.365224 0.081464 -0.036168 -273421.000000 0 1 0
4.345734 -21.993014 3.593429 22.704423 -1.375713 1.411858 0.062053 -0.025163 -1140390.000000 0 1 0
5.380134 -21.120414 3.915829 22.143881 -1.321365 1.393026 0.060165 -0.025063 -295686.000000 0 1 0
5.942934 -20.450414 2.668529 21.462967 -1.287984 1.446142 0.056660 -0.027028 155319.000000 0 1 0
6.780334 -21.311314 1.905029 22.444914 -1.262766 1.485818 0.086868 -0.031152 -92903.500000 0 1 0
6.701334 -21.081414 0.507729 22.126719 -1.263019 1.547848 0.060866 -0.033166 -142323.000000 0 1 0
7.510034 -22.052014 -0.388271 23.298985 -1.242556 1.587462 0.091087 -0.024251 1060850.000000 0 1 0
8.906334 -21.743314 -0.452971 23.501057 -1.182031 1.590072 0.092220 -0.018200 444505.000000 0 1 0
9.728634 -22.683714 -1.178271 24.710029 -1.165642 1.618498 0.093504 -0.014938 913723.000000 0 1 0
11.142434 -22.073914 -1.381371 24.765292 -1.103333 1.626604 0.100795 -0.016321 284080.000000 0 1 0
11.151734 -21.030614 -2.333671 23.918485 -1.083233 1.668519 0.083250 -0.016223 -121185.000000 0 1 0
12.461234 -20.940814 -2.879871 24.537598 -1.034010 1.688433 0.086640 -0.020869 383237.000000 0 1 0
12.641834 -19.785514 -3.938871 23.807504 -1.002233 1.737007 0.064007 -0.017805 -44306.900000 0 1 0
12.631734 -18.456714 -3.398771 22.622171 -0.970619 1.721608 0.067334 -0.024815 -13466.100000 0 1 0
12.729134 -17.484914 -4.460171 22.082713 -0.941520 1.774171 0.061770 -0.021712 -454393.000000 0 1 0
13.349434 -16.168614 -3.891871 21.325528 -0.880616 1.754323 0.060620 -0.017659 51405.000000 0 1 0
14.677734 -16.245414 -3.430571 22.161186 -0.836051 1.726222 0.064460 -0.009359 -85887.400000 0 1 0
15.557534 -15.814314 -4.463171 22.628506 -0.793583 1.769335 0.059614 -0.016828 215266.000000 0 1 0
16.979034 -15.471914 -3.918471 23.302835 -0.738988 1.739753 0.064594 -0.012698 545093.000000 0 1 0
17.777634 -16.513914 -3.372371 24.497480 -0.748563 1.708897 0.078474 -0.013402 -584108.000000 0 1 0
19.065334 -16.048214 -3.200171 25.125151 -0.699684 1.698512 0.064729 -0.004058 -1105450.000000 0 0 1
19.846534 -17.004614 -2.287871 26.235018 -0.708432 1.658114 0.053438 -0.018699 396008.000000 0 0 1
21.174734 -16.505814 -2.056071 26.926542 -0.662119 1.647229 0.068910 -0.016393 696999.000000 0 0 1
21.902634 -17.462014 -1.304371 28.041910 -0.673066 1.617328 0.079679 -0.017151 9191.660000 0 0 1
23.433134 -17.475014 -1.518071 29.271017 -0.640769 1.622682 0.108784 -0.024611 -163265.000000 0 0 1
23.979134 -16.263914 -1.090771 28.994888 -0.595981 1.608425 0.096911 -0.021492 -633766.000000 0 0 1
25.276334 -16.500314 -0.654571 30.192414 -0.578339 1.592478 0.156019 -0.023403 -656523.000000 0 0 1
26.162934 -15.311714 -0.282771 30.315469 -0.529499 1.580124 0.138630 -0.021643 28491.200000 0 0 1
25.689834 -14.730914 0.907929 29.627550 -0.520642 1.540147 0.119075 -0.020336 -208339.000000 0 0 1
26.509634 -13.692114 1.340129 29.866882 -0.476757 1.525911 0.096613 -0.017660 -94192.000000 0 0 1
25.960634 -12.828714 2.529529 29.067661 -0.458965 1.483664 0.130878 -0.015493 40447.800000 0 0 1
25.612234 -13.456114 3.760429 29.175236 -0.483744 1.441546 0.148986 -0.009754 899754.000000 0 0 1
26.775334 -13.872714 4.492429 30.488566 -0.478035 1.422910 0.159878 0.001727 798490.000000 0 0 1
26.394234 -14.584014 5.846429 30.716930 -0.504795 1.379296 0.149437 -0.002786 330787.000000 0 0 1
25.658634 -15.748114 5.586029 30.619803 -0.550472 1.387337 0.155102 -0.021052 81909.000000 0 0 1
24.917134 -16.285214 6.662429 30.503438 -0.578884 1.350606 0.153361 -0.031147 43016.200000 0 0 1
24.326734 -17.687514 6.424629 30.755715 -0.628671 1.360354 0.137262 -0.030471 696447.000000 0 0 1
25.278934 -18.782814 6.355129 32.127967 -0.639020 1.371676 0.119896 -0.027830 554337.000000 0 0 1
24.544034 -19.986914 6.233529 32.260552 -0.683417 1.376349 0.081634 -0.022275 280270.000000 0 0 1
2.340834 23.172800 -3.134471 23.500704 1.470121 1.704573 0.061554 -0.036789 363847.000000 0 1 0
3.314134 24.120300 -2.702071 24.496399 1.434251 1.681326 0.078855 -0.038320 -84275.600000 0 1 0
4.026634 24.629000 -3.790771 25.242254 1.408739 1.721542 0.102641 -0.039211 205342.000000 0 0 1
5.048634 25.760500 -3.404571 26.470421 1.377266 1.699772 0.082592 -0.032745 623853.000000 0 0 1
6.207434 25.208200 -2.773871 26.109001 1.329353 1.677239 0.059409 -0.033229 39190.300000 0 0 1
6.841034 26.190400 -1.975571 27.141107 1.315301 1.643650 0.051003 -0.032836 533475.000000 0 0 1
7.983234 25.508100 -1.118871 26.751581 1.267485 1.612633 0.031800 -0.038904 1458230.000000 0 0 1
9.045734 25.001400 -1.982471 26.661311 1.223640 1.645223 0.030612 -0.041656 410633.000000 0 0 1
10.022734 24.220000 -1.357971 26.247051 1.178433 1.622557 0.029938 -0.038803 312453.000000 0 0 1
11.149834 23.781000 -2.366471 26.371480 1.132374 1.660653 0.059648 -0.037476 452485.000000 0 0 1
12.236534 24.730900 -2.352271 27.692659 1.111328 1.655841 0.059310 -0.030585 540893.000000 0 0 1
13.100234 24.622000 -3.482571 28.106713 1.081836 1.695021 0.087200 -0.037275 645714.000000 0 0 1
14.159434 23.470100 -3.569171 27.641891 1.027956 1.700280 0.100200 -0.038010 -145454.000000 0 0 1
13.611134 22.141000 -3.660371 26.246622 1.019603 1.710713 0.124877 -0.042380 30318.900000 0 0 1
13.521434 21.648300 -4.962371 26.001985 1.012488 1.762820 0.160997 -0.052037 185426.000000 0 0 1
12.459334 20.499200 -5.162271 24.537752 1.024664 1.782761 0.164506 -0.061159 633216.000000 0 1 0
11.114534 20.923400 -5.020671 24.218354 1.082500 1.779619 0.142037 -0.051269 -32607.400000 0 1 0
10.239234 19.851200 -4.756371 22.837144 1.094589 1.780606 0.121244 -0.046481 -443446.000000 0 1 0
8.783234 20.268300 -4.648771 22.573442 1.161876 1.778220 0.087933 -0.034723 -665092.000000 0 1 0
8.408434 20.742400 -3.358371 22.632445 1.185666 1.719734 0.101335 -0.035554 1218000.000000 0 1 0
7.118234 21.415000 -3.466371 22.831715 1.249891 1.723208 0.092129 -0.020919 1418200.000000 0 1 0
6.561334 22.118000 -2.192171 23.174612 1.282415 1.665532 0.075067 -0.023022 176007.000000 0 1 0
5.948834 21.291400 -1.216371 22.140278 1.298343 1.625763 0.060034 -0.026760 -281927.000000 0 1 0
5.300134 22.076000 -0.294771 22.705244 1.335170 1.583779 0.068728 -0.017023 -128134.000000 0 1 0
4.571634 21.145800 0.703229 21.645767 1.357877 1.538303 0.035635 -0.017162 441942.000000 0 1 0
3.666734 21.729200 1.652029 22.098242 1.403624 1.495968 0.033283 -0.018785 351275.000000 0 1 0
3.252734 20.888700 2.681529 21.309826 1.416320 1.444626 0.037225 -0.019193 -209591.000000 0 1 0
2.266634 21.558600 3.612129 21.976313 1.466043 1.405682 0.022530 -0.010053 -1626310.000000 0 1 0
0.946234 21.593400 3.284529 21.862260 1.527004 1.419988 0.015914 -0.012880 -1541440.000000 0 1 0
0.196334 22.262300 4.264229 22.667867 1.561977 1.381551 0.022127 -0.012707 648324.000000 0 1 0
-1.326966 22.287500 3.921229 22.668691 -1.511328 1.396942 0.019906 -0.013020 486760.000000 0 1 0
-2.216966 22.732600 4.939729 23.368504 -1.473580 1.357806 0.035166 -0.019206 -173503.000000 0 1 0
-3.479866 22.649800 4.326629 23.320434 -1.418351 1.384186 0.044019 -0.025993 -460249.000000 0 1 0
-4.757166 22.835600 5.130129 23.883331 -1.365411 1.354310 0.057298 -0.036401 -370872.000000 0 1 0
-5.090466 24.160500 5.347629 25.263407 -1.363140 1.357508 0.085172 -0.027520 -39228.100000 0 0 1
-6.402066 24.234800 5.865729 25.743325 -1.312528 1.340923 0.096368 -0.026568 200615.000000 0 0 1
-6.875566 25.603700 6.466029 27.287954 -1.308448 1.331565 0.103650 -0.040242 -377488.000000 0 0 1
-6.195866 26.032700 7.617129 27.822848 -1.337140 1.293483 0.070050 -0.048339 -400843.000000 0 0 1
-6.691066 27.184800 8.218029 29.177384 -1.329461 1.285275 0.118584 -0.035452 -415667.000000 0 0 1
-6.756466 28.574100 7.491729 30.302723 -1.338607 1.320976 0.137629 -0.045165 843086.000000 0 0 1
-7.862066 28.681700 6.559129 30.454461 -1.303254 1.353721 0.112099 -0.059265 260939.000000 0 0 1
-7.877966 29.961200 5.940229 31.543972 -1.313677 1.381349 0.143014 -0.059916 -622115.000000 0 0 1
-9.216366 30.143300 5.196029 31.946184 -1.274071 1.407421 0.140399 -0.062256 504696.000000 0 0 1
-10.343966 30.490400 5.980729 32.747996 -1.243727 1.387137 0.115064 -0.047667 21006.100000 0 0 1
-10.900366 29.415600 6.707829 32.079440 -1.215920 1.360141 0.097944 -0.049114 -1195930.000000 0 0 1
-11.807866 30.008000 7.782229 33.173316 -1.195914 1.333996 0.068470 -0.042847 -470917.000000 0 0 1
-11.152566 30.603500 8.859429 33.755643 -1.221332 1.305228 0.078904 -0.037081 -514647.000000 0 0 1
-12.081466 30.879600 9.861029 34.594095 -1.197861 1.281738 0.087451 -0.027630 -204753.000000 0 0 1
-11.434066 31.204600 11.241829 35.083382 -1.219567 1.244611 0.079904 -0.040406 -82777.800000 0 0 1
-10.746566 32.458500 11.243529 35.992497 -1.251069 1.253093 0.077329 -0.037797 55797.900000 0 0 1
-9.910666 32.523800 12.367829 36.179857 -1.275015 1.221919 0.070332 -0.046232 -84825.900000 0 0 1
-9.482966 -33.616414 12.574029 37.122718 1.295848 1.225245 0.087299 -0.049227 348786.000000 0 0 1
-10.564366 -32.712014 12.875329 36.707708 1.258419 1.212422 0.100561 -0.035946 354095.000000 0 0 1
-10.271566 -31.330214 12.825729 35.377772 1.253990 1.199808 0.105072 -0.036598 57365.800000 0 0 1
-11.374466 -30.465314 13.515529 35.216237 1.213466 1.176903 0.105862 -0.035754 352489.000000 0 0 1
-11.494266 -30.616014 14.951029 35.958194 1.211646 1.141986 0.096959 -0.037433 248222.000000 0 0 1
-10.581166 -29.794414 15.687429 35.295377 1.229550 1.110224 0.099462 -0.032026 238210.000000 0 0 1
-10.647666 -30.014514 17.230629 36.209646 1.229896 1.074858 0.088838 -0.038764 -3478.410000 0 0 1
-11.738466 -29.401914 17.881129 36.359303 1.190944 1.056652 0.111330 -0.042129 315683.000000 0 0 1
-12.404966 -30.284314 18.795929 37.740029 1.182027 1.049463 0.107417 -0.043410 181693.000000 0 0 1
-12.780766 -29.520714 20.123929 37.944605 1.162218 1.011783 0.134823 -0.047141 -69814.300000 0 0 1
-11.627866 -29.307314 20.906729 37.831432 1.193089 0.985281 0.129541 -0.046815 211548.000000 0 0 1
-11.878966 -28.527014 22.025029 37.947362 1.176223 0.951564 0.134956 -0.050499 39727.900000 0 0 1
-10.570466 -28.087314 22.729729 37.646681 1.210849 0.922581 0.142097 -0.044194 164966.000000 0 0 1
-9.916166 -29.123114 23.422129 38.666294 1.242618 0.920087 0.115891 -0.031066 -405424.000000 0 0 1
-8.700266 -28.617714 23.899129 38.286245 1.275658 0.896661 0.122495 -0.022262 -107168.000000 0 0 1
-8.142566 -29.505914 25.116329 39.594575 1.301534 0.883645 0.121588 -0.029249 180098.000000 0 0 1
-7.739966 -30.836214 24.737629 40.283117 1.324874 0.909559 0.119556 -0.013027 303284.000000 0 0 1
-7.663566 -31.693014 25.846229 41.607751 1.333544 0.900539 0.111740 -0.011480 -340911.000000 0 0 1
-7.946666 -33.187214 25.584029 42.650712 1.335772 0.927483 0.097177 -0.020350 -212994.000000 0 0 1
-7.001166 33.797400 24.756029 42.475188 -1.366534 0.948583 0.116147 -0.023339 504020.000000 0 0 1
-7.415266 32.464500 24.477529 41.328917 -1.346237 0.936934 0.096527 -0.019195 -248163.000000 0 0 1
-8.349366 32.340600 23.290029 40.719182 -1.318143 0.961894 0.095534 -0.023566 -411899.000000 0 0 1
-9.024566 31.119000 23.261729 39.886627 -1.288537 0.948139 0.088457 -0.017950 86787.000000 0 0 1
-9.811566 30.966800 22.096929 39.287197 -1.263961 0.973455 0.076748 -0.021685 -328697.000000 0 0 1
-10.589566 29.639600 22.149929 38.487195 -1.227653 0.957563 0.077921 -0.022811 -251282.000000 0 0 1
-9.792966 28.507200 21.908229 37.263027 -1.239901 0.942293 0.062184 -0.019454 -27570.800000 0 0 1
-10.334066 27.330700 22.479329 36.865707 -1.209300 0.915035 0.041469 -0.010150 -94082.800000 0 0 1
-9.563066 26.039900 22.072529 35.450320 -1.218840 0.898694 0.056680 -0.016552 -119859.000000 0 0 1
-8.241566 25.937300 22.518329 35.323393 -1.263136 0.879560 0.050820 -0.020553 -359969.000000 0 0 1
-7.768866 24.632400 22.576829 34.304863 -1.265279 0.852473 0.056258 -0.017422 441845.000000 0 0 1
-6.351166 24.588200 23.235729 34.421157 -1.318020 0.829775 0.065470 -0.022459 1074540.000000 0 0 1
-5.335266 25.222900 22.426329 34.170163 -1.362344 0.854874 0.082819 -0.015495 -494327.000000 0 0 1
-4.120266 25.139300 23.050129 34.355050 -1.408343 0.835322 0.111320 -0.011907 -769909.000000 0 0 1
-2.830466 25.549600 22.316229 34.041265 -1.460463 0.855867 0.115608 -0.010632 87540.500000 0 0 1
-2.592866 24.741600 21.181529 32.673031 -1.466380 0.865463 0.091720 -0.006918 -303425.000000 0 0 1
-1.777066 25.323900 20.222329 32.456132 -1.500738 0.898139 0.101206 -0.001169 -379091.000000 0 0 1
-1.262866 24.290200 19.214629 30.996946 -1.518852 0.902197 0.071950 0.002176 254936.000000 0 0 1
-0.160766 23.475900 19.621229 30.596346 -1.563948 0.874614 0.067803 -0.002522 138029.000000 0 0 1
0.148734 22.449500 18.720529 29.231155 1.564171 0.875737 0.059030 -0.008126 148977.000000 0 0 1
1.308834 21.482000 19.129329 28.794455 1.509945 0.844185 0.054281 -0.007076 845930.000000 0 0 1
2.547234 22.208800 19.107129 29.407509 1.456601 0.863559 0.054490 -0.011119 400959.000000 0 0 1
3.615634 21.321300 19.454829 29.088847 1.402816 0.838193 0.067279 -0.012350 113648.000000 0 0 1
4.970434 21.707800 18.890429 29.202434 1.345706 0.867312 0.068201 -0.017911 102035.000000 0 0 1
6.039734 20.775100 19.034729 28.816733 1.287875 0.849253 0.083846 -0.026517 -549285.000000 0 0 1
7.221234 21.219100 18.489329 29.056010 1.242773 0.881060 0.110829 -0.031900 -390554.000000 0 0 1
8.323834 20.124700 18.351129 28.479005 1.178610 0.870592 0.120138 -0.031223 176304.000000 0 0 1
8.878934 19.657400 19.569529 29.124137 1.146543 0.833978 0.113873 -0.038668 848232.000000 0 0 1
9.974534 18.730100 19.295229 28.681246 1.081457 0.832881 0.132662 -0.046156 1028740.000000 0 0 1
10.435734 17.984000 20.573029 29.250271 1.045004 0.790704 0.138951 -0.044509 -180595.000000 0 0 1
9.453734 17.092800 21.035729 28.706076 1.065589 0.748373 0.122783 -0.040101 343177.000000 0 0 1
10.054434 16.386900 22.135829 29.319227 1.020462 0.715152 0.117891 -0.039350 166141.000000 0 0 1
9.034034 15.352000 22.624629 28.795339 1.038906 0.666962 0.099456 -0.035969 -627691.000000 0 0 1
8.037534 15.980700 23.363229 29.424908 1.104789 0.653444 0.082644 -0.024671 -373566.000000 0 0 1
6.868434 15.202400 23.596629 28.897911 1.146447 0.615385 0.080014 -0.023112 363970.000000 0 0 1
6.934534 13.770600 24.284929 28.765865 1.104293 0.565674 0.088874 -0.020398 -775237.000000 0 0 1
7.284934 13.875200 25.625129 30.037289 1.087324 0.548878 0.100615 -0.029204 -79396.500000 0 0 1
7.681134 12.637800 26.307729 30.179636 1.024668 0.512126 0.118137 -0.042012 327993.000000 0 0 1
8.743834 12.983400 27.433029 31.584718 0.978104 0.518519 0.094957 -0.033519 2031870.000000 0 0 1
10.046934 13.507200 27.013329 31.829315 0.931262 0.557286 0.137947 -0.033392 1403280.000000 0 0 1
10.052434 14.813200 26.405429 31.901866 0.974569 0.595785 0.117832 -0.029595 -8493.440000 0 0 1
11.425334 15.080500 25.670029 31.889029 0.922434 0.635155 0.143277 -0.044614 749025.000000 0 0 1
11.688134 14.251300 24.593829 30.733833 0.883892 0.643134 0.143634 -0.051655 -138632.000000 0 0 1
13.034434 13.927300 24.324629 30.912033 0.818502 0.665030 0.179628 -0.065063 -282763.000000 0 0 1
13.094434 12.740700 23.324229 29.627847 0.771707 0.664476 0.154965 -0.064294 115462.000000 0 0 1
12.700934 11.487900 23.876329 29.383068 0.735292 0.622217 0.153879 -0.053802 943978.000000 0 0 1
11.275134 11.348600 24.011929 28.852940 0.788645 0.587701 0.153787 -0.043100 607795.000000 0 0 1
10.922034 9.866600 24.427929 28.519543 0.734672 0.542282 0.154165 -0.037656 -18718.600000 0 0 1
11.368234 8.917500 23.493129 27.580531 0.665170 0.551382 0.158476 -0.035705 227341.000000 0 0 1
10.853534 7.678600 23.876329 27.328359 0.615725 0.508074 0.161894 -0.042305 28552.500000 0 0 1
11.383534 6.581600 22.919229 26.423349 0.524212 0.520872 0.147560 -0.041816 411241.000000 0 0 1
12.799334 6.456200 22.984529 27.088633 0.467175 0.557664 0.160039 -0.029449 654760.000000 0 0 1
13.421734 5.487700 22.132229 26.459278 0.388127 0.579998 0.164252 -0.037420 294054.000000 0 0 1
13.135034 3.961600 22.488329 26.342899 0.292929 0.547791 0.145561 -0.036661 -10184.400000 0 0 1
14.056034 3.455500 23.437929 27.547216 0.241057 0.553238 0.137183 -0.028748 409035.000000 0 0 1
13.553634 2.238100 23.947429 27.607779 0.163652 0.520811 0.138441 -0.027405 -122224.000000 0 0 1
14.605834 1.611600 24.914329 28.924928 0.109895 0.532886 0.104651 -0.017105 802270.000000 0 0 1
15.679434 1.017300 24.165929 28.824845 0.064790 0.576507 0.112070 -0.022028 1003100.000000 0 0 1
16.926734 1.732200 24.164829 29.554252 0.101980 0.613491 0.097756 -0.025787 -20866.800000 0 0 1
17.963934 1.026600 23.334229 29.465965 0.057086 0.656875 0.088522 -0.030452 -576750.000000 0 0 1
18.380134 -0.236000 23.896629 30.148531 -0.012839 0.655686 0.088429 -0.034900 -338455.000000 0 0 1
19.220434 -0.921500 23.058529 30.032816 -0.047907 0.695431 0.088757 -0.022432 -376924.000000 0 0 1
19.627534 -2.367800 23.466729 30.684425 -0.120056 0.700102 0.074897 -0.014546 174280.000000 0 0 1
18.641034 -3.380800 23.208929 29.959512 -0.179413 0.684593 0.068986 -0.007640 202695.000000 0 0 1
19.116934 -4.647400 23.429529 30.594090 -0.238478 0.698483 0.076874 -0.003562 29531.000000 0 0 1
18.207934 -5.880400 23.045129 29.953062 -0.312384 0.692935 0.074729 -0.005274 178638.000000 0 0 1
18.075734 -5.930200 21.618329 28.796729 -0.317011 0.721642 0.082564 -0.009709 905809.000000 0 0 1
17.057334 -6.822000 21.111529 27.985514 -0.380459 0.716097 0.112636 -0.024294 421531.000000 0 0 1
17.616234 -8.248700 21.049629 28.661117 -0.437922 0.745968 0.121360 -0.025557 -141194.000000 0 0 1
17.487134 -9.037700 22.241529 29.701271 -0.477013 0.724485 0.105186 -0.011922 -27765.500000 0 0 1
18.012534 -10.327700 22.051029 30.287962 -0.520602 0.755329 0.097060 -0.018496 -469473.000000 0 0 1
17.626534 -11.380700 23.136829 31.233442 -0.573316 0.736579 0.114554 -0.032464 -369370.000000 0 0 1
16.415434 -11.997300 22.830629 30.571871 -0.631135 0.727581 0.133932 -0.033702 -357324.000000 0 0 1
16.103234 -13.058500 23.753029 31.528479 -0.681367 0.717604 0.146550 -0.027517 -113083.000000 0 0 1
14.862534 -13.832000 23.322929 30.922131 -0.749500 0.716290 0.165392 -0.033307 -224139.000000 0 0 1
15.239934 -14.527500 22.170129 30.574801 -0.761469 0.759601 0.167774 -0.036037 -30601.300000 0 0 1
14.167634 -15.202200 21.602029 29.974596 -0.820609 0.766017 0.168835 -0.026600 -797895.000000 0 0 1
14.547634 -16.301400 20.626529 30.047013 -0.842187 0.814166 0.150865 -0.033329 -116687.000000 0 0 1
15.263934 -17.335600 21.299329 31.419296 -0.848862 0.825886 0.167947 -0.043322 443639.000000 0 0 1
15.610534 -18.435100 20.438529 31.642932 -0.868173 0.868580 0.159270 -0.036274 30116.000000 0 0 1
-25.149326 -32.148514 25.300246 48.022057 0.906950 1.015910 0.081645 -0.030644 -292361.000000 0 0 1
-25.883096 -33.376914 25.205296 49.185973 0.911187 1.032762 0.088632 -0.026230 -797790.000000 0 0 1
-27.088456 -33.339814 25.846886 50.133713 0.888482 1.029136 0.075036 -0.039000 -1224540.000000 0 0 1
-27.044796 -33.805314 27.293566 51.177720 0.896046 1.008288 0.070607 -0.038330 -497617.000000 0 0 1
-28.183926 -33.570914 28.089476 52.061105 0.872410 1.000896 0.085190 -0.038748 185885.000000 0 0 1
-27.847536 -33.276214 29.455236 52.444281 0.873980 0.974420 0.071815 -0.030234 406666.000000 0 0 1
-29.084876 -32.682814 30.215326 53.170126 0.843582 0.966387 0.063873 -0.032330 293297.000000 0 0 1
-29.252746 -31.330214 29.815416 52.213643 0.819676 0.963040 0.037339 -0.025428 241440.000000 0 0 1
-30.051186 -30.659914 30.782606 52.826820 0.795424 0.948740 0.039190 -0.009076 -206924.000000 0 0 1
-30.279736 -29.176214 30.562456 51.982474 0.766840 0.942289 0.030318 -0.012418 51679.900000 0 0 1
-31.074806 -28.848914 29.428466 51.613351 0.748270 0.964082 0.027555 0.001431 459377.000000 0 0 1
-31.461616 -27.478114 29.418636 51.091449 0.717915 0.957210 0.026724 -0.000467 -71538.300000 0 0 1
-32.061006 -27.018114 28.079546 50.461346 0.700246 0.980681 0.021171 -0.013338 -122647.000000 0 0 1
-31.128356 -26.803314 27.035606 49.176378 0.710879 0.988710 0.033527 -0.006270 234927.000000 0 0 1
-30.500846 -25.524214 27.090166 48.121349 0.696802 0.972839 0.022191 -0.006108 290615.000000 0 0 1
-29.309146 -25.419214 26.075836 46.745178 0.714440 0.979028 0.024892 0.014867 -16035.900000 0 0 1
-29.703836 -25.505314 24.734776 46.310345 0.709497 1.007343 0.017842 0.013315 -66317.600000 0 0 1
-28.594856 -25.606414 23.908616 45.221412 0.730318 1.013727 0.024649 0.017834 -350777.000000 0 0 1
-29.125346 -25.970214 22.520036 45.054298 0.728194 1.047380 0.014583 0.020501 138688.000000 0 0 1
-29.617706 -24.830114 21.818966 44.382545 0.697694 1.056857 0.007787 0.020075 281445.000000 0 0 1
-30.009506 -25.266414 20.523766 44.274000 0.699800 1.088785 0.008610 0.018855 -207919.000000 0 0 1
-30.622906 -24.146714 19.664466 43.675135 0.667700 1.103758 0.012822 0.012961 -245166.000000 0 0 1
-31.842066 -23.664614 20.165866 44.503857 0.639127 1.100527 0.038993 0.010368 -502509.000000 0 0 1
-32.430526 -22.803314 19.302966 44.094610 0.612833 1.117688 0.047310 0.008330 -197852.000000 0 0 1
-33.912876 -22.469614 19.588566 45.151729 0.585160 1.122047 0.095464 0.003972 80793.500000 0 0 1
-34.883278 -23.320414 19.030066 46.074160 0.589289 1.145016 0.064245 -0.001400 633845.000000 0 0 1
-36.149476 -22.647314 18.942466 46.674430 0.559671 1.152896 0.082002 -0.013611 657360.000000 0 0 1
-37.080646 -23.247314 17.873366 47.274402 0.559993 1.183078 0.103967 -0.019062 30331.700000 0 0 1
-37.583026 -24.558414 18.201966 48.444929 0.578793 1.185617 0.088980 -0.023625 273610.000000 0 0 1
37.361347 -25.048214 17.211466 48.161373 -0.590604 1.205345 0.112142 -0.017897 262497.000000 0 0 1
36.890807 -26.503514 17.508366 48.681729 -0.622989 1.202904 0.111876 -0.002751 -44252.700000 0 0 1
35.757587 -26.596914 18.330866 48.187358 -0.639529 1.180559 0.116114 -0.015742 -47112.100000 0 0 1
36.039617 -26.641114 19.750166 48.976239 -0.636564 1.155720 0.121107 -0.013487 398330.000000 0 0 1
34.732157 -26.965714 20.558366 48.539869 -0.660178 1.133452 0.101315 -0.016004 -108929.000000 0 0 1
33.722847 -26.116114 20.202566 47.195609 -0.658956 1.128451 0.102887 -0.016221 -725086.000000 0 0 1
32.581067 -26.216314 21.047466 46.816844 -0.677569 1.104512 0.109035 -0.015935 284230.000000 0 0 1
31.500207 -25.155514 20.723666 45.326959 -0.673876 1.095948 0.126893 -0.008305 -64921.800000 0 0 1
31.901107 -23.747514 20.688066 44.828798 -0.639914 1.091122 0.108619 -0.011581 -58267.200000 0 0 1
32.470017 -23.236114 21.887966 45.533526 -0.621131 1.069344 0.110016 -0.022239 118242.000000 0 0 1
33.318087 -21.942314 21.736266 45.431545 -0.582377 1.071919 0.103753 -0.020883 173748.000000 0 0 1
32.572397 -20.933914 21.094266 44.092605 -0.571218 1.071955 0.110844 -0.035178 4082.030000 0 0 1
33.394187 -19.787514 20.949066 44.108738 -0.534919 1.075899 0.099043 -0.028255 -837919.000000 0 0 1
32.699747 -18.432914 20.621366 42.828571 -0.513302 1.068447 0.083477 -0.020084 217934.000000 0 0 1
32.066497 -17.728514 21.716266 42.592918 -0.505042 1.035779 0.080387 -0.021682 313800.000000 0 0 1
31.043677 -18.437114 22.357456 42.467551 -0.535929 1.016365 0.096242 -0.022559 -1079290.000000 0 0 1
30.916167 -18.068114 23.860396 43.030043 -0.528887 0.983028 0.091730 -0.019773 -125987.000000 0 0 1
30.174357 -16.898314 24.061566 42.130794 -0.510505 0.962932 0.102551 -0.025200 88642.300000 0 0 1
29.923557 -16.655614 25.455296 42.670843 -0.507900 0.931601 0.098899 -0.031377 -195477.000000 0 0 1
29.910357 -15.196014 25.862986 42.360858 -0.470068 0.914054 0.079449 -0.025044 109870.000000 0 0 1
28.955357 -14.315214 25.268886 41.010421 -0.459149 0.906941 0.105896 -0.030071 268539.000000 0 0 1
28.907757 -13.016714 25.832256 40.894971 -0.423090 0.887087 0.088969 -0.031851 153832.000000 0 0 1
29.575357 -11.952214 24.911746 40.474093 -0.384059 0.907778 0.109809 -0.041304 5978.030000 0 0 1
28.786157 -11.819514 23.737036 39.138097 -0.389608 0.919152 0.105074 -0.029104 184347.000000 0 0 1
29.227657 -10.908014 22.710396 38.587599 -0.357199 0.941543 0.109072 -0.019676 -144040.000000 0 0 1
30.516357 -11.163914 21.880266 39.174316 -0.350710 0.978177 0.105147 -0.031597 11303.600000 0 0 1
30.567157 -12.255614 20.896566 39.002790 -0.381317 1.005376 0.085931 -0.029568 -86303.700000 0 0 1
30.339857 -13.505914 21.481466 39.552117 -0.418817 0.996650 0.092745 -0.027220 -66806.300000 0 0 1
29.627657 -14.596114 20.568366 38.908897 -0.457752 1.013812 0.098183 -0.023189 226067.000000 0 0 1
30.456757 -14.881014 19.454866 39.083889 -0.454482 1.049768 0.096763 -0.027684 -91480.300000 0 0 1
29.886757 -15.905914 18.704066 38.678914 -0.489079 1.066065 0.115563 -0.041316 -143841.000000 0 0 1
30.485457 -16.050714 17.251066 38.530349 -0.484625 1.106575 0.137073 -0.045520 -433471.000000 0 0 1
29.982457 -17.054214 16.399666 38.193494 -0.517167 1.126986 0.124841 -0.051020 1580520.000000 0 0 1
28.531557 -17.029114 16.176566 36.955673 -0.538102 1.117725 0.147264 -0.059465 1609850.000000 0 0 1
27.978457 -15.789214 15.364966 35.611452 -0.513782 1.124684 0.148772 -0.047979 -416662.000000 0 0 1
27.968457 -15.888214 13.980966 35.073314 -0.516615 1.160783 0.162866 -0.052578 110625.000000 0 0 1
26.818857 -16.585714 13.517866 34.308449 -0.553864 1.165806 0.167851 -0.065368 -275280.000000 0 0 1
26.901557 -17.237714 12.175766 34.191838 -0.569859 1.206704 0.183004 -0.048776 -421305.000000 0 0 1
26.884957 -16.293414 11.107666 33.341513 -0.544850 1.231156 0.185137 -0.046439 -58448.800000 0 0 1
27.019557 -16.954714 9.888266 33.396056 -0.560394 1.270199 0.156202 -0.046265 -76207.200000 0 0 1
28.450857 -17.293314 9.460966 34.612423 -0.546158 1.293933 0.149509 -0.030573 -36878.000000 0 0 1
29.242857 -18.170314 10.273366 35.928360 -0.555977 1.280809 0.145175 -0.034132 755187.000000 0 0 1
30.563957 -18.380714 9.760266 36.976599 -0.541437 1.303673 0.121679 -0.008315 699917.000000 0 0 1
31.502357 -19.266614 10.609466 38.420849 -0.548900 1.291023 0.110676 -0.028154 86876.500000 0 0 1
31.815137 -18.629014 11.837566 38.721713 -0.529719 1.260114 0.125427 -0.052083 69335.700000 0 0 1
31.941647 -19.632314 12.839066 39.630016 -0.551108 1.240870 0.088003 -0.046948 57134.300000 0 0 1
31.808667 -19.180714 14.320766 39.809238 -0.542624 1.202813 0.112275 -0.034201 140096.000000 0 0 1
31.721117 -20.261614 15.210566 40.597088 -0.568420 1.186754 0.122943 -0.039600 3163.950000 0 0 1
31.569067 -19.794014 16.531266 40.763853 -0.560041 1.153230 0.131402 -0.049095 -69132.600000 0 0 1
31.109597 -20.985514 17.437566 41.379554 -0.593452 1.135802 0.125647 -0.043125 784826.000000 0 0 1
29.792057 -21.427914 17.081566 40.478414 -0.623528 1.135155 0.080379 -0.032813 476054.000000 0 0 1
29.328557 -22.543614 17.786266 41.045463 -0.655335 1.122611 0.111722 -0.036318 702057.000000 0 0 1
27.865457 -22.999814 17.471266 40.133779 -0.690031 1.120396 0.100397 -0.021040 222709.000000 0 0 1
26.841257 -22.153114 17.886966 39.130002 -0.690001 1.096046 0.114098 -0.019963 -146542.000000 0 0 1
25.635757 -22.898814 17.716466 38.670672 -0.729066 1.094898 0.111344 -0.024793 623628.000000 0 0 1
24.379257 -22.324114 18.447266 37.855196 -0.741422 1.061788 0.085705 -0.018864 98114.900000 0 0 1
23.813957 -21.163714 17.898766 36.542758 -0.726543 1.058932 0.088847 -0.017666 -304223.000000 0 0 1
22.672057 -20.680214 18.566766 35.866673 -0.739485 1.026682 0.085426 -0.011304 82256.000000 0 0 1
22.776557 -20.020514 20.011766 36.332675 -0.721089 0.987483 0.071652 -0.012313 -118157.000000 0 0 1
23.256957 -20.956914 20.971066 37.681081 -0.733424 0.980580 0.079892 -0.013201 -116981.000000 0 0 1
23.474257 -20.422714 22.278486 38.268249 -0.715994 0.949406 0.071380 -0.003579 173597.000000 0 0 1
23.997557 -21.439314 23.324506 39.743672 -0.729154 0.943604 0.073376 -0.006583 -299398.000000 0 0 1
22.990257 -22.261914 23.786486 39.874072 -0.769304 0.931613 0.080324 -0.007207 -555618.000000 0 0 1
23.455757 -23.188214 24.750216 41.236379 -0.779662 0.927041 0.077433 -0.007821 709178.000000 0 0 1
22.280057 -23.913914 25.537676 41.478297 -0.820753 0.907538 0.084307 -0.014916 354346.000000 0 0 1
21.476757 -24.767614 24.821286 41.119120 -0.856441 0.922733 0.087305 -0.015482 -120304.000000 0 0 1
20.547157 -25.514414 25.591286 41.570240 -0.892823 0.907630 0.084913 -0.008559 261925.000000 0 0 1
19.766757 -26.584014 24.771856 41.365194 -0.931431 0.928723 0.088575 -0.019517 117361.000000 0 0 1
18.888457 -25.994814 23.826426 40.002534 -0.942424 0.932755 0.102125 -0.025432 74074.400000 0 0 1
18.259857 -26.995114 23.099536 39.946803 -0.976076 0.954205 0.088000 -0.029653 -154069.000000 0 0 1
17.298157 -26.460214 21.988266 38.507830 -0.991795 0.963064 0.096108 -0.030112 633495.000000 0 0 1
16.175357 -25.802114 22.593436 37.919053 -1.010832 0.932493 0.091817 -0.029331 372761.000000 0 0 1
15.514757 -24.910314 21.707566 36.502737 -1.013763 0.933925 0.088542 -0.034767 4317.200000 0 0 1
14.087357 -24.480114 22.128766 35.880522 -1.048615 0.906208 0.069154 -0.026179 213496.000000 0 0 1
13.139957 -25.532114 21.985166 36.164829 -1.095502 0.917363 0.072491 -0.026771 -674618.000000 0 0 1
11.886157 -24.946214 21.887966 35.251629 -1.126148 0.900898 0.082129 -0.025370 -105098.000000 0 0 1
10.647057 -25.903414 21.977266 35.599816 -1.180818 0.905437 0.086878 -0.034077 563344.000000 0 0 1
10.420357 -26.867414 20.940366 35.622194 -1.200813 0.942403 0.105491 -0.040779 -60229.800000 0 0 1
9.060857 -27.219414 21.027966 35.569242 -1.249452 0.938270 0.125705 -0.046450 -256459.000000 0 0 1
8.628957 -28.187414 19.957666 35.599124 -1.273727 0.975659 0.142506 -0.047685 -333194.000000 0 0 1
9.234957 -29.422914 20.088466 36.804059 -1.266664 0.993426 0.133457 -0.044145 29014.600000 0 0 1
9.053857 -30.166514 18.879566 36.720960 -1.279221 1.030796 0.128508 -0.040526 -361702.000000 0 0 1
9.669657 -31.556514 18.891266 38.028881 -1.273457 1.050934 0.100647 -0.023703 -231642.000000 0 0 1
9.030357 -32.587314 19.584266 39.077153 -1.300467 1.045847 0.097264 -0.032433 -54006.000000 0 0 1
9.930757 -33.650214 19.710766 40.242653 -1.283825 1.058938 0.067429 -0.022800 63746.400000 0 0 1
9.353557 32.887000 20.633466 39.934743 1.293698 1.027828 0.088557 -0.033058 225875.000000 0 0 1
8.365757 32.060600 19.981166 38.692570 1.315552 1.028145 0.084516 -0.033122 103406.000000 0 0 1
8.105157 30.958100 20.817066 38.176534 1.314733 0.994068 0.102407 -0.042033 -195737.000000 0 0 1
7.111057 29.886500 20.336766 36.842286 1.337204 0.986041 0.092753 -0.035624 712763.000000 0 0 1
5.756257 30.312000 20.582466 37.088944 1.383131 0.982495 0.156711 -0.047246 349379.000000 0 0 1
4.899557 29.245000 20.211666 35.885751 1.404803 0.972516 0.178205 -0.036000 -63303.500000 0 0 1
3.437157 29.384900 20.641566 36.074377 1.454355 0.961617 0.182708 -0.033456 -356570.000000 0 0 1
3.202557 29.051200 21.986366 36.573609 1.461001 0.925852 0.136788 -0.033320 -797947.000000 0 0 1
1.844957 29.172500 22.231666 36.724455 1.507637 0.920573 0.135801 -0.027976 -815399.000000 0 0 1
1.467657 28.564900 23.552016 37.051383 1.519462 0.881935 0.139000 -0.012073 -212423.000000 0 0 1
1.746457 29.441100 24.649926 38.437577 1.511545 0.874608 0.152459 -0.023193 225395.000000 0 0 1
1.422657 28.873600 25.894446 38.810193 1.521564 0.840343 0.154138 -0.027122 -769834.000000 0 0 1
2.568457 28.170100 26.575396 38.812410 1.479871 0.816585 0.115844 -0.024648 -756705.000000 0 0 1
2.874957 26.865900 26.098316 37.565464 1.464191 0.802735 0.116622 -0.025313 497549.000000 0 0 1
3.828857 26.302700 26.995086 37.884388 1.426243 0.777649 0.089095 -0.012817 168391.000000 0 0 1
4.441257 24.944200 26.557586 36.704812 1.394595 0.761872 0.080987 0.001791 -351061.000000 0 0 1
3.468257 23.958800 26.436526 35.846099 1.427036 0.741434 0.090737 0.000491 -469698.000000 0 0 1
3.979757 22.679200 26.201036 34.880924 1.397085 0.720984 0.082254 0.004287 -181896.000000 0 0 1
2.875757 21.635900 26.203646 34.102979 1.438655 0.694509 0.076489 0.002257 -226105.000000 0 0 1
3.388457 20.331800 26.370056 33.470040 1.405656 0.663453 0.084178 -0.003238 130421.000000 0 0 1
4.072157 19.845200 25.207686 32.339478 1.368410 0.676975 0.080253 -0.000049 83992.100000 0 0 1
4.518257 18.360800 25.424426 31.684934 1.329509 0.639467 0.081010 -0.007696 704792.000000 0 0 1
5.569957 18.161000 26.418406 32.538877 1.273205 0.623392 0.066406 -0.009060 399241.000000 0 0 1
6.795557 17.969300 25.773116 32.145433 1.209244 0.640552 0.077915 -0.010727 -1458710.000000 0 0 1
7.975257 17.804400 26.717416 33.082045 1.149659 0.630707 0.072616 -0.022981 -513961.000000 0 0 1
8.404157 18.977100 27.378806 34.356356 1.153898 0.648639 0.080060 -0.021245 95546.200000 0 0 1
9.113157 19.909100 26.574216 34.432700 1.141526 0.689172 0.072802 -0.020798 -364433.000000 0 0 1
9.598157 21.201000 27.302126 35.874965 1.145681 0.705888 0.066590 -0.013089 272462.000000 0 0 1
10.792957 20.959800 28.025636 36.622908 1.095271 0.699369 0.084986 -0.025331 -1924.330000 0 0 1
11.232857 22.114100 28.685626 37.921968 1.100809 0.712946 0.106623 -0.043506 33949.600000 0 0 1
12.298957 21.892400 29.767396 38.944054 1.058946 0.700743 0.129650 -0.051117 305431.000000 0 0 1
13.610157 21.601800 29.316526 38.875864 1.008576 0.716504 0.114239 -0.054569 -100123.000000 0 0 1
14.470057 21.470200 30.420576 39.947008 0.977761 0.705136 0.114906 -0.045738 884171.000000 0 0 1
15.959857 21.114600 30.048616 40.043260 0.923550 0.722124 0.088852 -0.045233 1030710.000000 0 0 1
16.586757 22.150100 29.290316 40.294789 0.928042 0.756998 0.083547 -0.052643 -126776.000000 0 0 1
17.837457 21.666500 28.843026 40.243412 0.882024 0.771717 0.139474 -0.036389 71892.100000 0 0 1
-8.725166 16.720400 4.576429 19.407319 -1.089840 1.332745 0.030894 -0.013441 -167863.000000 0 1 0
-8.582466 18.086400 4.798329 20.586417 -1.127735 1.335550 0.040851 -0.016764 510688.000000 0 1 0
-7.184266 18.365600 4.829329 20.303482 -1.197916 1.330637 0.033684 -0.011722 250629.000000 0 1 0
-6.921366 19.840800 5.372929 21.689422 -1.235151 1.320469 0.038742 -0.016851 -71203.400000 0 1 0
-7.225066 20.997400 4.560829 22.669221 -1.239393 1.368223 0.047397 -0.026015 -785085.000000 0 1 0
-8.545966 21.153100 4.159329 23.190239 -1.186842 1.390464 0.061878 -0.031599 -594487.000000 0 1 0
-8.670066 22.278700 3.143029 24.112013 -1.199666 1.440073 0.113920 -0.046211 167855.000000 0 1 0
-8.062766 22.187300 1.852029 23.679411 -1.222238 1.492504 0.079417 -0.044681 15889.500000 0 1 0
-8.586866 21.138600 1.013829 22.838619 -1.184942 1.526391 0.091727 -0.042264 -860372.000000 0 1 0
-8.022966 21.035200 -0.426371 22.517314 -1.206421 1.589733 0.067971 -0.028118 186495.000000 0 1 0
-6.710666 20.542500 -0.637471 21.620216 -1.255053 1.600286 0.049574 -0.021910 -280689.000000 0 1 0
-5.779466 21.524800 -0.247471 22.288573 -1.308481 1.581900 0.055442 -0.025612 -1269940.000000 0 1 0
-4.353866 21.163000 -0.664871 21.616447 -1.367897 1.601559 0.041707 -0.025515 -530112.000000 0 1 0
-4.219366 21.321100 -2.065871 21.832549 -1.375424 1.665562 0.034505 -0.031293 786514.000000 0 1 0
-2.823466 21.402100 -2.401971 21.720758 -1.439629 1.681607 0.028873 -0.018959 713516.000000 0 1 0
-2.626866 21.489300 -3.915471 22.000485 -1.449159 1.749722 0.036172 -0.025446 121377.000000 0 1 0
-1.339866 21.987300 -4.211171 22.427005 -1.509933 1.759690 0.060797 -0.025149 18371.200000 0 1 0
-1.397266 22.705900 -5.453371 23.393365 -1.509336 1.806077 0.075003 -0.021874 -922175.000000 0 1 0
-0.054066 23.243300 -5.835971 23.964818 -1.568470 1.816792 0.077771 -0.025761 -908977.000000 0 1 0
0.853034 22.208200 -6.200371 23.073284 1.532404 1.842866 0.085992 -0.015754 -133124.000000 0 1 0
2.046734 22.765900 -6.711171 23.822576 1.481134 1.856377 0.081287 -0.010434 734633.000000 0 1 0
3.245134 21.743200 -6.865671 23.031176 1.422642 1.873501 0.068250 -0.005174 546691.000000 0 1 0
3.007234 20.723400 -7.812471 22.350335 1.426689 1.927883 0.059799 -0.009893 -896358.000000 0 1 0
3.904134 19.709600 -7.867071 21.577799 1.375245 1.943990 0.046999 -0.011240 -546395.000000 0 1 0
3.644034 18.930700 -9.184771 21.354400 1.380629 2.015412 0.035667 -0.001810 101290.000000 0 1 0
4.251534 19.490800 -10.312371 22.456888 1.356030 2.047899 0.040412 -0.002595 59019.100000 0 1 0
3.521134 19.064200 -11.468471 22.524829 1.388156 2.104991 0.035183 -0.007783 393313.000000 0 1 0
4.121534 19.394700 -12.911971 23.661370 1.361403 2.148019 0.038402 -0.005096 36025.100000 0 1 0
4.059234 20.791200 -13.196971 24.958194 1.377984 2.127939 0.086492 -0.016177 -159378.000000 0 1 0
4.523734 21.116600 -14.480271 26.001023 1.359760 2.161459 0.094438 -0.025664 -10626.600000 0 0 1
4.617034 22.618500 -14.758071 27.399164 1.369436 2.139609 0.087690 -0.032904 -238503.000000 0 0 1
3.411834 23.323000 -14.750271 27.805996 1.425540 2.129952 0.114588 -0.038094 -613083.000000 0 0 1
3.582134 24.664900 -15.211671 29.199040 1.426573 2.118777 0.099753 -0.035928 636775.000000 0 0 1
2.188834 25.256500 -15.645271 29.790205 1.484348 2.123725 0.101830 -0.034197 723987.000000 0 0 1
1.356234 25.682400 -14.593371 29.570112 1.518037 2.086926 0.129170 -0.036886 -387636.000000 0 0 1
1.698234 26.982100 -14.111871 30.496928 1.507940 2.051870 0.100516 -0.033992 -902448.000000 0 0 1
1.031634 27.323900 -12.742271 30.166625 1.533059 2.006884 0.114125 -0.041280 592489.000000 0 0 1
-0.391866 27.385400 -12.723171 30.199218 -1.556488 2.005683 0.094980 -0.038128 779344.000000 0 0 1
-1.160766 26.195000 -13.039871 29.284188 -1.526513 2.032291 0.091877 -0.035561 -517668.000000 0 0 1
-1.217466 25.007000 -12.003571 27.765410 -1.522150 2.017862 0.130491 -0.040572 -760195.000000 0 0 1
-2.066666 25.241900 -10.946871 27.590915 -1.489104 1.978777 0.123736 -0.035121 -530876.000000 0 0 1
-2.311066 24.066200 -10.238171 26.255345 -1.475060 1.971369 0.140946 -0.030817 -243551.000000 0 0 1
-3.355166 24.233000 -9.141371 26.116280 -1.433217 1.928395 0.121249 -0.027628 -328405.000000 0 0 1
-2.924466 24.671900 -7.850071 26.055302 -1.452813 1.876836 0.131794 -0.036021 -123889.000000 0 0 1
-2.484366 26.037400 -7.765171 27.283991 -1.475669 1.859391 0.134577 -0.033962 20617.400000 0 0 1
-2.233866 26.639900 -6.376271 27.483291 -1.487138 1.804935 0.127465 -0.032677 54156.900000 0 0 1
-1.084166 26.242800 -5.659771 26.868066 -1.529507 1.783037 0.111231 -0.037607 -257136.000000 0 0 1
-1.017666 26.528500 -4.292771 26.892840 -1.532454 1.731107 0.116816 -0.041645 -176731.000000 0 0 1
-2.046766 25.976900 -3.273471 26.262220 -1.492167 1.695767 0.100484 -0.031578 430345.000000 0 0 1
-3.368866 26.501300 -3.291771 26.916611 -1.444354 1.693398 0.095427 -0.031844 329930.000000 0 0 1
-4.230066 26.044100 -2.291471 26.484702 -1.409783 1.657425 0.095846 -0.025308 87928.900000 0 0 1
-5.147666 24.797900 -2.510271 25.450654 -1.366118 1.669590 0.089923 -0.028037 18454.800000 0 0 1
-6.272566 25.144400 -3.284571 26.122296 -1.326324 1.696868 0.102674 -0.032082 -429925.000000 0 0 1
-7.311566 24.205500 -3.271071 25.496375 -1.277449 1.699446 0.075619 -0.036046 435417.000000 0 0 1
-8.649366 24.887700 -3.696171 26.605842 -1.236319 1.710170 0.071874 -0.024308 19909.600000 0 0 1
-9.339866 25.476600 -2.636771 27.262480 -1.219405 1.667666 0.105457 -0.037404 607034.000000 0 0 1
-10.591966 26.029600 -3.173871 28.280794 -1.184339 1.683260 0.116459 -0.033177 1307770.000000 0 0 1
-11.504166 26.497300 -2.024671 28.957763 -1.161190 1.640771 0.130875 -0.038415 15770.700000 0 0 1
-12.152566 25.508300 -1.218871 28.281511 -1.126193 1.613907 0.136096 -0.044666 209986.000000 0 0 1
-11.247566 24.860700 -0.347371 27.288877 -1.145929 1.583526 0.145761 -0.055285 -132909.000000 0 0 1
-11.717066 23.452700 -0.076471 26.216877 -1.107465 1.573713 0.136468 -0.046181 548849.000000 0 0 1
-12.918066 23.428900 0.701329 26.763439 -1.066900 1.544589 0.167897 -0.055700 282523.000000 0 0 1
-13.370966 22.126100 0.760129 25.863581 -1.027216 1.541402 0.155565 -0.052173 -147647.000000 0 0 1
-14.217166 21.873300 2.039929 26.167353 -0.994437 1.492760 0.165579 -0.056935 37452.200000 0 0 1
-13.466866 21.750200 3.216929 25.783257 -1.016407 1.445702 0.162903 -0.049231 -61355.600000 0 0 1
-13.148566 22.964900 3.780329 26.731299 -1.050805 1.428901 0.154879 -0.062770 -28251.800000 0 0 1
-12.869466 22.919300 5.306929 26.815685 -1.059158 1.371577 0.146506 -0.055576 -139637.000000 0 0 1
-11.589566 22.475600 5.689129 25.919816 -1.094706 1.349505 0.126370 -0.048610 -70561.200000 0 0 1
-11.500066 22.249700 7.052829 26.020052 -1.093749 1.296309 0.091698 -0.038335 -322145.000000 0 0 1
-10.101466 21.969800 7.617929 25.352408 -1.139832 1.265599 0.075314 -0.028980 -482836.000000 0 0 1
-9.586766 23.127900 8.241929 26.357831 -1.177844 1.252769 0.083550 -0.034660 641317.000000 0 0 1
-8.343866 22.835100 8.919529 25.896330 -1.220472 1.219162 0.063414 -0.029869 753986.000000 0 0 1
-8.506666 22.343200 10.311829 26.036816 -1.207014 1.163587 0.054877 -0.033976 20396.200000 0 0 1
-9.253966 21.135500 10.562729 25.375510 -1.158101 1.141472 0.065453 -0.033746 102713.000000 0 0 1
-8.952966 20.597800 11.855329 25.396335 -1.160775 1.085113 0.049105 -0.027119 292493.000000 0 0 1
-9.925466 19.497500 12.466729 25.181079 -1.099924 1.052866 0.057282 -0.031745 225104.000000 0 0 1
-9.879166 18.285200 11.774529 23.886942 -1.075445 1.055345 0.070491 -0.041658 -288897.000000 0 1 0
-10.692166 17.315800 12.351929 23.806081 -1.017623 1.025284 0.083998 -0.046190 -359417.000000 0 1 0
-11.024766 16.105200 11.432529 22.619144 -0.970517 1.040909 0.088608 -0.053126 -257975.000000 0 1 0
-11.491766 14.994900 12.163729 22.469180 -0.916895 0.998752 0.085364 -0.046778 48823.600000 0 1 0
-11.705566 13.895200 11.299829 21.395864 -0.870721 1.014398 0.071459 -0.034275 -11623.800000 0 1 0
-12.191266 12.614300 11.988529 21.247879 -0.802451 0.971305 0.056760 -0.036446 500126.000000 0 1 0
-13.394566 12.892900 12.706729 22.518931 -0.766317 0.971249 0.079290 -0.029318 474445.000000 0 1 0
-14.054866 11.711400 13.104929 22.504118 -0.694697 0.949199 0.064030 -0.015840 283500.000000 0 1 0
-15.013566 11.910700 14.317629 23.922091 -0.670660 0.929155 0.075904 -0.020266 57171.100000 0 1 0
-16.036566 12.839400 14.113429 24.924095 -0.675127 0.968839 0.102462 -0.027378 -167153.000000 0 1 0
-16.885766 12.933500 15.250029 26.171892 -0.653626 0.948765 0.087646 -0.021081 303224.000000 0 0 1
-18.118366 13.893500 15.152229 27.402456 -0.654178 0.984894 0.096334 -0.020196 242284.000000 0 0 1
-19.123366 13.266800 14.388829 27.363288 -0.606518 1.017089 0.105211 -0.024131 -565273.000000 0 0 1
-20.102866 14.217500 14.051529 28.349744 -0.615567 1.052214 0.124131 -0.030364 -634384.000000 0 0 1
-21.228166 13.537400 13.274629 28.462467 -0.567686 1.085590 0.112412 -0.029658 -847343.000000 0 0 1
-22.168066 12.876700 14.070329 29.243918 -0.526232 1.068845 0.112941 -0.014938 -144571.000000 0 0 1
-23.282566 12.579400 13.244729 29.592939 -0.495360 1.106757 0.099955 -0.014448 200493.000000 0 0 1
-24.343866 11.635400 13.862429 30.334358 -0.445861 1.096191 0.117095 -0.022912 8217.990000 0 0 1
-25.043096 12.171400 14.934729 31.596610 -0.452400 1.078480 0.104951 -0.013649 341704.000000 0 0 1
-25.900726 11.238800 15.605329 32.259643 -0.409400 1.065872 0.098489 -0.014724 184158.000000 0 0 1
-26.865816 11.815200 16.652829 33.744448 -0.414327 1.054689 0.101583 -0.015890 -50968.400000 0 0 1
-27.794626 12.745100 16.119529 34.566140 -0.429938 1.085649 0.107512 -0.011433 242943.000000 0 0 1
-28.593426 13.314500 17.108529 35.882610 -0.435791 1.073795 0.103058 -0.007747 -221626.000000 0 0 1
-29.729926 14.307000 16.764029 37.007992 -0.448521 1.100687 0.091868 -0.011454 -124481.000000 0 0 1
-29.490346 15.667600 16.574229 37.280817 -0.488357 1.110093 0.090584 -0.016299 -577604.000000 0 0 1
-30.634226 16.466500 16.647529 38.558289 -0.493211 1.124365 0.086301 -0.016177 -421851.000000 0 0 1
-30.283166 17.939200 16.580029 38.907357 -0.534799 1.130573 0.123558 -0.021655 -260305.000000 0 0 1
-29.510576 18.426900 17.627729 39.002072 -0.558180 1.101825 0.116504 -0.024307 284408.000000 0 0 1
-30.292086 18.891600 18.762929 40.330516 -0.557627 1.086903 0.097196 -0.032628 426334.000000 0 0 1
-29.272646 19.249400 19.922629 40.303081 -0.581692 1.053744 0.084368 -0.034955 1337760.000000 0 0 1
-28.633686 18.155800 20.711129 39.729988 -0.565096 1.022426 0.087874 -0.028400 501854.000000 0 0 1
-27.775376 17.389900 19.884229 38.330963 -0.559383 1.025407 0.104782 -0.021935 -553693.000000 0 0 1
-27.155596 16.200900 20.606729 37.742984 -0.537912 0.993244 0.103758 -0.021382 630162.000000 0 0 1
-28.207796 15.290700 20.964129 38.327275 -0.496737 0.992048 0.086597 -0.012505 630955.000000 0 0 1
-27.683036 14.045200 21.143129 37.558622 -0.469516 0.972862 0.088612 -0.011696 -256786.000000 0 0 1
-28.767446 12.953600 21.312129 38.073200 -0.423092 0.976691 0.090885 -0.023193 -58145.300000 0 0 1
-29.503876 12.654800 20.144029 37.899929 -0.405186 1.010419 0.085716 -0.029611 112851.000000 0 0 1
-30.657396 11.949100 20.584229 38.811949 -0.371650 1.011773 0.122210 -0.031581 -60935.100000 0 0 1
-31.586276 11.581700 19.372229 38.821539 -0.351447 1.048344 0.127521 -0.033513 -349808.000000 0 0 1
-31.113236 10.959800 18.181229 37.665737 -0.338683 1.067062 0.142630 -0.034789 186303.000000 0 0 1
-30.407106 9.725900 18.362429 36.828848 -0.309572 1.048827 0.151784 -0.035191 -257850.000000 0 0 1
-29.617056 9.137000 17.184029 35.439323 -0.299241 1.064564 0.139856 -0.037888 -258337.000000 0 0 1
-30.254916 8.741700 15.934129 35.294104 -0.281275 1.102387 0.158553 -0.030264 504692.000000 0 0 1
-31.024916 9.774300 15.291329 35.943109 -0.305203 1.131358 0.151823 -0.030478 -33316.500000 0 0 1
-30.158216 10.893600 14.673929 35.263476 -0.346631 1.141619 0.139793 -0.019592 -168848.000000 0 0 1
-29.521336 10.393000 13.514329 34.090480 -0.338500 1.163176 0.153973 -0.028130 223827.000000 0 0 1
-28.657616 11.371000 12.944229 33.438177 -0.377734 1.173302 0.118301 -0.017533 32531.400000 0 0 1
-28.255216 11.117900 11.457629 32.453693 -0.374874 1.209972 0.162943 -0.011062 -62490.000000 0 0 1
-27.413526 10.005300 11.206729 31.260170 -0.349954 1.204137 0.179711 -0.019079 763890.000000 0 0 1
-28.174266 8.790400 11.134429 31.544190 -0.302430 1.210043 0.204886 -0.018406 -123305.000000 0 0 1
-27.529176 7.577500 10.466629 30.410925 -0.268602 1.219438 0.236128 -0.027702 -479984.000000 0 0 1
-27.289416 7.857000 9.104129 29.821634 -0.280332 1.260558 0.229851 -0.021329 282482.000000 0 0 1
-26.869066 6.738800 8.417229 28.951820 -0.245733 1.275804 0.273308 -0.053059 -541098.000000 0 0 1
-26.125926 7.107700 7.137529 28.000495 -0.265627 1.313045 0.280410 -0.043898 -133616.000000 0 0 1
-26.878826 7.832300 6.157929 28.665943 -0.283542 1.354292 0.282610 -0.042689 348177.000000 0 0 1
-26.027776 8.180800 5.077229 27.751556 -0.304533 1.386807 0.278505 -0.040666 225194.000000 0 0 1
-26.755326 8.867400 3.838229 28.446621 -0.320033 1.435456 0.261811 -0.041086 -55897.400000 0 0 1
-27.527566 8.071200 2.938029 28.836490 -0.285211 1.468733 0.292744 -0.039422 297676.000000 0 0 1
-26.929086 6.923300 2.328429 27.902139 -0.251644 1.487249 0.300418 -0.038503 1114370.000000 0 0 1
-25.703046 7.201000 1.309029 26.724793 -0.273158 1.521795 0.274574 -0.030858 1808200.000000 0 0 1
-24.548266 7.860100 1.867329 25.843480 -0.309875 1.498478 0.233222 -0.033918 352331.000000 0 0 1
-23.536266 7.886800 0.897929 24.838754 -0.323332 1.534638 0.225378 -0.022096 -535598.000000 0 1 0
-22.289766 8.522000 1.555729 23.913980 -0.365180 1.505695 0.162152 -0.029741 -440635.000000 0 1 0
-22.517066 9.818800 2.132529 24.657145 -0.411201 1.484201 0.171270 -0.035829 -329944.000000 0 1 0
-21.480266 10.296600 2.925429 23.999582 -0.446993 1.448597 0.138572 -0.036808 -749569.000000 0 1 0
-21.597966 11.642500 3.651429 24.806307 -0.494402 1.423062 0.124849 -0.053801 -626153.000000 0 1 0
-21.562666 12.796100 2.781829 25.227511 -0.535580 1.460302 0.191494 -0.048739 261088.000000 0 0 1
-21.706966 13.992600 3.473929 26.058653 -0.572579 1.437086 0.186996 -0.057744 1846.040000 0 0 1
-20.429966 14.499300 4.208429 25.403230 -0.617211 1.404364 0.141515 -0.052125 214432.000000 0 0 1
-19.877466 13.573000 5.129729 24.610041 -0.599112 1.360816 0.128679 -0.053687 -141516.000000 0 1 0
-19.229166 14.237500 6.175429 24.710386 -0.637336 1.318207 0.121961 -0.049915 -412104.000000 0 1 0
-18.518266 13.255300 7.097329 23.853747 -0.621249 1.268686 0.091787 -0.046117 1708.640000 0 1 0
-17.307466 12.731100 6.568129 22.467078 -0.634211 1.274119 0.078279 -0.033022 178369.000000 0 1 0
-16.745766 11.891900 7.506029 21.867292 -0.617501 1.220417 0.058289 -0.030601 -641691.000000 0 1 0
11.043834 -32.666514 -14.198971 37.291798 -1.244782 1.961407 0.043672 -0.011992 -300589.000000 0 0 1
12.268434 -32.513514 -13.513671 37.286222 -1.209982 1.941671 0.043109 -0.025099 672.945000 0 0 1
12.838934 -31.301314 -13.886471 36.571089 -1.181552 1.960281 0.047088 -0.036320 -449090.000000 0 0 1
14.177834 -31.046414 -13.190571 36.590736 -1.142413 1.939589 0.064428 -0.038423 -1277110.000000 0 0 1
15.259334 -31.718114 -13.663371 37.756771 -1.122389 1.941079 0.071356 -0.034161 -1120940.000000 0 0 1
16.438134 -31.185914 -13.098271 37.607688 -1.085704 1.926539 0.073697 -0.031772 -151300.000000 0 0 1
17.709834 -31.856414 -13.625971 38.911906 -1.063414 1.928554 0.095375 -0.028939 -183680.000000 0 0 1
17.972734 -33.163014 -13.222771 39.970568 -1.074154 1.907961 0.090232 -0.027128 -87473.700000 0 0 1
19.180234 -33.651814 -13.789171 41.115292 -1.052757 1.912803 0.087628 -0.013245 443906.000000 0 0 1
19.335534 32.562900 -13.313271 40.142851 1.034955 1.908846 0.073139 -0.020241 -27620.700000 0 0 1
19.440034 32.310600 -11.970571 39.562411 1.029156 1.878189 0.066779 -0.011174 -157050.000000 0 0 1
19.511434 30.910800 -11.753471 38.396845 1.007739 1.881895 0.058640 -0.009980 113565.000000 0 0 1
20.175034 30.508600 -10.404071 38.026982 0.986525 1.847927 0.043790 -0.007016 -857281.000000 0 0 1
21.495934 30.160500 -10.522271 38.502586 0.951586 1.847605 0.044460 -0.014652 -1316780.000000 0 0 1
22.151134 30.084900 -9.299371 38.500029 0.936129 1.814751 0.035844 -0.011259 538518.000000 0 0 1
23.447334 29.199900 -9.244971 38.573062 0.894233 1.812827 0.028859 -0.000819 622226.000000 0 0 1
24.512234 29.779200 -9.994271 39.843893 0.882108 1.824340 0.034556 -0.010779 389376.000000 0 0 1
25.715534 29.108000 -9.600271 40.009119 0.847199 1.813113 0.045191 -0.005234 -12516.500000 0 0 1
26.876034 29.343800 -10.550271 41.166589 0.829265 1.829970 0.035106 -0.007983 -678978.000000 0 0 1
27.479634 30.576800 -10.452271 42.418404 0.838695 1.819769 0.050300 -0.021755 -387036.000000 0 0 1
28.535434 30.705400 -11.365571 43.431196 0.822011 1.835571 0.055649 -0.018326 -40484.800000 0 0 1
29.195434 32.142300 -11.311971 44.871611 0.833405 1.825642 0.060315 -0.027820 91140.500000 0 0 1
28.307334 33.220700 -11.560271 45.150415 0.865085 1.829719 0.069033 -0.020376 -198387.000000 0 0 1
28.875034 -33.179214 -11.318371 45.417324 -0.854649 1.822659 0.057233 -0.023055 355612.000000 0 0 1
27.866434 -32.002914 -11.617271 43.996428 -0.854380 1.838015 0.057007 -0.014516 731660.000000 0 0 1
26.662234 -32.108214 -10.879271 43.129696 -0.877800 1.825796 0.074545 -0.024167 -64295.600000 0 0 1
25.647134 -31.156214 -11.142571 41.864568 -0.882081 1.840201 0.079235 -0.022441 178249.000000 0 0 1
25.834734 -29.701314 -10.698671 40.792930 -0.854909 1.836168 0.075391 -0.021809 -330423.000000 0 0 1
26.724534 -28.976914 -11.535071 41.072133 -0.825813 1.855475 0.061319 -0.013899 135489.000000 0 0 1
27.306634 -27.843214 -10.940671 40.504260 -0.795127 1.844305 0.045617 -0.019999 -437294.000000 0 0 1
28.259934 -27.043014 -11.825171 40.862980 -0.763397 1.864382 0.083806 -0.011666 693343.000000 0 0 1
29.525234 -27.696514 -12.077871 42.245844 -0.753451 1.860736 0.066251 -0.009868 784991.000000 0 0 1
29.474234 -28.532714 -13.248871 43.108918 -0.769168 1.883187 0.088130 -0.017948 59569.900000 0 0 1
30.876734 -29.071914 -13.634071 44.547018 -0.755301 1.881848 0.072889 -0.020209 431938.000000 0 0 1
31.246634 -30.292914 -13.009471 45.423112 -0.769902 1.861270 0.076296 -0.017181 529885.000000 0 0 1
32.563534 -30.743714 -13.328471 46.724810 -0.756660 1.860068 0.084937 -0.021306 355814.000000 0 0 1
32.994834 -32.002214 -12.558571 47.649958 -0.770128 1.837506 0.101964 -0.022572 388505.000000 0 0 1
34.304034 -32.446314 -12.953571 48.962486 -0.757574 1.838545 0.089536 -0.023522 848529.000000 0 0 1
35.105034 -32.979214 -11.903071 49.615271 -0.754185 1.813067 0.091463 -0.022561 -388.697000 0 0 1
34.605434 33.384000 -11.152871 49.360045 0.767435 1.798714 0.084419 -0.025269 -251570.000000 0 0 1
33.609634 33.665900 -10.188571 48.649844 0.786235 1.781785 0.065671 -0.030704 249150.000000 0 0 1
32.969234 32.547400 -9.567171 47.305755 0.778960 1.774442 0.056890 -0.030267 314500.000000 0 0 1
32.163134 32.980900 -8.281171 46.805820 0.797951 1.748659 0.039150 -0.024016 1684270.000000 0 0 1
31.070934 -33.707914 -8.625171 46.647829 -0.826083 1.756766 0.042667 -0.027785 641288.000000 0 0 1
30.247334 -33.510714 -7.531071 45.766649 -0.836537 1.736102 0.040771 -0.026483 166142.000000 0 0 1
29.316134 -32.281514 -7.801371 44.298908 -0.833502 1.747827 0.039474 -0.025488 -163683.000000 0 0 1
30.029734 -31.070514 -7.936271 43.933429 -0.802430 1.752437 0.030273 -0.024037 396234.000000 0 0 1
29.195934 -29.910614 -8.152371 42.585309 -0.797489 1.763422 0.026322 -0.016446 872466.000000 0 0 1
28.067034 -29.502114 -7.133171 41.340238 -0.810321 1.744212 0.035714 -0.023792 430381.000000 0 0 1
27.193934 -28.589514 -7.705471 40.202545 -0.810411 1.763656 0.042045 -0.037266 -654468.000000 0 0 1
26.186234 -28.155414 -6.850971 39.056139 -0.821619 1.747122 0.056045 -0.042687 74630.900000 0 0 1
25.122834 -27.226914 -7.538371 37.805934 -0.825569 1.771538 0.107750 -0.051731 -189000.000000 0 0 1
24.319034 -27.943414 -8.390271 37.982186 -0.854637 1.793534 0.128366 -0.049001 -232024.000000 0 0 1
23.387034 -27.160514 -9.103571 36.980020 -0.859912 1.819529 0.153071 -0.055305 171436.000000 0 0 1
22.223934 -27.863314 -9.846371 36.975918 -0.897517 1.840340 0.136591 -0.044341 -26398.900000 0 0 1
22.554734 -28.543314 -11.085371 38.030544 -0.902064 1.866576 0.144705 -0.038932 -222387.000000 0 0 1
21.535034 -29.345514 -11.641471 38.215713 -0.937715 1.880341 0.124906 -0.039699 3548.540000 0 0 1
21.123134 -30.663814 -10.925371 38.804897 -0.967585 1.856201 0.114491 -0.039373 -80345.700000 0 0 1
22.124234 -31.644714 -10.856271 40.108955 -0.960645 1.844885 0.091846 -0.029045 -381141.000000 0 0 1
21.699634 -32.865514 -10.253971 40.695946 -0.987245 1.825507 0.073308 -0.024858 1430950.000000 0 0 1
22.952434 33.774800 -10.259471 42.104728 0.973912 1.816940 0.053578 -0.014425 1140790.000000 0 0 1
23.855134 -33.687714 -9.214271 42.294589 -0.954638 1.790417 0.054811 -0.009592 -889346.000000 0 0 1
24.892434 33.028200 -9.351971 42.402295 0.924949 1.793178 0.060790 -0.013642 -333094.000000 0 0 1
26.169934 33.511000 -8.615371 43.382914 0.907789 1.770714 0.061292 -0.017431 -242292.000000 0 0 1
26.456034 33.158000 -7.256971 43.035315 0.897351 1.740234 0.056922 -0.027459 188528.000000 0 0 1
26.764934 31.801600 -6.997271 42.150507 0.871186 1.737575 0.050987 -0.020100 -320437.000000 0 0 1
26.667534 31.476200 -5.440071 41.611332 0.867913 1.701907 0.046127 -0.012817 -54863.400000 0 0 1
27.697034 31.966500 -4.585571 42.544216 0.856835 1.678790 0.055045 -0.014620 160431.000000 0 0 1
28.828134 31.176600 -4.303671 42.679776 0.824516 1.671804 0.061250 -0.012754 -70990.600000 0 0 1
28.653534 29.813800 -3.515271 41.499938 0.805240 1.655603 0.067407 -0.004785 -454043.000000 0 0 1
28.273234 30.057500 -2.158171 41.321747 0.815977 1.623049 0.067904 -0.003764 45063.400000 0 0 1
28.220734 28.810100 -1.418371 40.353977 0.795732 1.605952 0.063891 -0.005895 856591.000000 0 0 1
26.838334 28.034300 -1.504371 38.839172 0.807190 1.609539 0.070874 -0.005212 1021860.000000 0 0 1
25.829534 28.751900 -0.810371 38.658677 0.838888 1.591760 0.085620 -0.013450 -509640.000000 0 0 1
24.546834 28.460100 -1.291071 37.605734 0.859090 1.605135 0.080618 -0.007257 -330251.000000 0 0 1
23.424334 29.255000 -0.648371 37.482994 0.895632 1.588095 0.086023 -0.008844 -137385.000000 0 0 1
23.167334 28.734800 0.678329 36.917127 0.892258 1.552421 0.090572 -0.018195 236272.000000 0 0 1
21.841334 29.115900 1.015029 36.411671 0.927198 1.542916 0.065550 -0.020523 78458.200000 0 0 1
21.182134 28.477200 2.214829 35.560360 0.931257 1.508472 0.074812 -0.037322 -360043.000000 0 0 1
20.668934 27.234600 1.854829 34.239870 0.921610 1.516598 0.100194 -0.033134 322839.000000 0 0 1
19.651034 26.764500 2.748929 33.317536 0.937471 1.488195 0.132008 -0.041050 269286.000000 0 0 1
18.980534 25.488700 2.161529 31.852892 0.930719 1.502884 0.142431 -0.030663 -269572.000000 0 0 1
19.812234 24.430600 1.774129 31.504387 0.889408 1.514453 0.143944 -0.032213 -286096.000000 0 0 1
20.634134 23.825500 2.740629 31.637525 0.857056 1.484062 0.123867 -0.021555 -245695.000000 0 0 1
21.785634 22.987400 2.156529 31.744055 0.812233 1.502809 0.121483 -0.020693 -156603.000000 0 0 1
21.382434 21.965400 1.304329 30.682056 0.798846 1.528272 0.143334 -0.019982 -370934.000000 0 0 1
22.528934 21.330300 0.839929 31.036109 0.758076 1.543730 0.106789 -0.026906 -394951.000000 0 0 1
22.371234 20.242700 -0.249671 30.171201 0.735490 1.579072 0.126774 -0.020183 -215271.000000 0 0 1
22.275234 20.870700 -1.490771 30.561325 0.752857 1.619595 0.107668 -0.010440 209436.000000 0 0 1
22.233634 20.059200 -2.642571 30.061423 0.734030 1.658816 0.138204 -0.006395 -81385.500000 0 0 1
22.157334 21.013900 -3.839271 30.777775 0.758918 1.695864 0.127146 -0.016051 -233619.000000 0 0 1
23.143634 22.030100 -3.926071 32.192657 0.760753 1.693056 0.121885 -0.023255 231641.000000 0 0 1
22.988634 22.719900 -5.165671 32.731565 0.779519 1.729278 0.095295 -0.013533 303957.000000 0 0 1
24.053834 23.861800 -5.422371 34.312892 0.781390 1.729489 0.076178 -0.007731 239933.000000 0 0 1
23.906834 25.056900 -4.664371 34.944832 0.808882 1.704674 0.085831 -0.014189 -48871.100000 0 0 1
24.250434 25.020500 -3.280171 34.998121 0.801026 1.664658 0.080162 -0.011291 91877.700000 0 0 1
23.137434 24.531200 -2.284471 33.798512 0.814628 1.638439 0.095622 -0.019773 -1039350.000000 0 0 1
22.166834 25.531100 -2.101571 33.876573 0.855814 1.632872 0.103742 -0.020150 -18224.500000 0 0 1
21.017134 25.234700 -1.358271 32.868753 0.876334 1.612132 0.098082 -0.019923 24729.800000 0 0 1
20.174734 24.024400 -1.798171 31.423321 0.872277 1.628052 0.131393 -0.032753 -1616980.000000 0 0 1
19.608634 24.197600 -3.057171 31.294867 0.889773 1.668642 0.116403 -0.030584 -85376.700000 0 0 1
19.036434 22.975700 -3.529071 30.045348 0.878890 1.688526 0.126450 -0.031030 -74233.300000 0 0 1
18.406434 23.258800 -4.873071 30.058533 0.901337 1.733634 0.126748 -0.034584 7587.560000 0 0 1
17.735334 22.176300 -5.533071 28.930006 0.896212 1.763239 0.132831 -0.042409 352207.000000 0 0 1
17.090634 22.686200 -6.719971 29.187522 0.925155 1.803115 0.128135 -0.042330 -48362.100000 0 0 1
16.261234 21.690700 -7.478971 28.122041 0.927496 1.839982 0.162685 -0.042345 -221376.000000 0 0 1
17.032434 20.568300 -7.944471 27.861683 0.879160 1.859948 0.160884 -0.047676 553009.000000 0 0 1
16.252034 19.685200 -8.767671 26.990883 0.880641 1.901637 0.209924 -0.065158 18243.000000 0 0 1
17.030434 18.479700 -9.258671 26.781673 0.826188 1.923791 0.193364 -0.060077 638231.000000 0 0 1
18.214034 18.772400 -10.035871 28.015580 0.800494 1.937162 0.178924 -0.047849 902410.000000 0 0 1
18.919634 17.585200 -10.368471 27.833379 0.748859 1.952519 0.179806 -0.046615 55427.800000 0 0 1
20.448934 17.733600 -10.494871 29.030704 0.714403 1.940683 0.155311 -0.042168 -71178.300000 0 0 1
20.810434 18.414800 -11.679671 30.142889 0.724400 1.968689 0.156935 -0.039305 75555.300000 0 0 1
22.208434 18.365600 -11.877471 31.170244 0.690968 1.961730 0.136095 -0.025372 141682.000000 0 0 1
22.528434 18.553900 -13.442171 32.132064 0.688953 2.002415 0.124348 -0.027883 13391.700000 0 0 1
22.247134 17.429600 -14.275971 31.662743 0.664570 2.038543 0.110447 -0.029688 198886.000000 0 0 1
22.518834 17.803500 -15.622271 32.682072 0.668986 2.069181 0.106150 -0.026724 89668.800000 0 0 1
22.152734 16.691200 -16.547071 32.297761 0.645712 2.108691 0.102023 -0.024339 -345070.000000 0 0 1
23.091734 15.651300 -16.464771 32.392593 0.595663 2.103992 0.111275 -0.016533 35948.000000 0 0 1
23.494634 15.058200 -17.707971 33.050256 0.569966 2.136238 0.112011 -0.025098 -221958.000000 0 0 1
24.240334 15.909500 -18.747071 34.527651 0.580808 2.144752 0.121322 -0.021109 -1252180.000000 0 0 1
25.614434 15.981200 -18.474071 35.394763 0.557818 2.119924 0.135567 -0.020632 -475905.000000 0 0 1
26.234034 16.650200 -19.502571 36.685201 0.565530 2.131308 0.155963 -0.021832 -925112.000000 0 0 1
27.744234 16.718500 -19.313271 37.712772 0.542324 2.108442 0.144533 -0.025831 -475663.000000 0 0 1
28.146534 17.505900 -18.180771 37.805084 0.556407 2.072486 0.126854 -0.027899 862430.000000 0 0 1
29.569934 17.537400 -17.968171 38.791707 0.535317 2.052395 0.123263 -0.041799 1085700.000000 0 0 1
29.981534 18.637300 -16.895071 39.136744 0.556169 2.017166 0.130702 -0.038827 470937.000000 0 0 1
29.193834 18.486700 -15.693571 37.951630 0.564503 1.997108 0.105512 -0.033523 630492.000000 0 0 1
28.182634 19.488800 -15.587171 37.643513 0.605011 1.997721 0.114519 -0.028063 711111.000000 0 0 1
27.179034 19.245000 -14.387371 36.277629 0.616130 1.978596 0.106601 -0.033839 243321.000000 0 0 1
27.757634 19.520200 -13.131371 36.386225 0.612895 1.940017 0.081427 -0.027228 88626.700000 0 0 1
26.839534 19.379000 -12.087971 35.242379 0.625360 1.920900 0.091039 -0.028053 -423786.000000 0 0 1
27.483034 19.865600 -10.815771 35.594102 0.625885 1.879542 0.072786 -0.021981 -424125.000000 0 0 1
27.651034 21.260300 -10.777171 36.506540 0.655475 1.870474 0.073850 -0.023675 32638.600000 0 0 1
28.243734 21.774700 -9.581071 36.927537 0.656779 1.833255 0.059511 -0.015990 88490.100000 0 0 1
27.368134 21.736300 -8.301071 35.921989 0.671206 1.803990 0.078994 -0.017978 -238641.000000 0 0 1
27.346734 20.418200 -7.813871 35.011474 0.641348 1.795872 0.087823 -0.025259 24226.700000 0 0 1
26.487534 20.218500 -6.698071 33.988842 0.651972 1.769161 0.110084 -0.023980 1075180.000000 0 0 1
25.093234 19.635200 -7.198471 32.665417 0.663972 1.792990 0.167212 -0.029329 908790.000000 0 0 1
24.182534 20.607100 -7.640871 32.677675 0.705740 1.806807 0.115637 -0.023020 -37286.600000 0 0 1
22.959534 20.104200 -8.126171 31.580908 0.719190 1.831037 0.079218 -0.026857 745752.000000 0 0 1
21.784634 21.142100 -8.274571 31.464698 0.770431 1.836905 0.143651 -0.037876 171133.000000 0 0 1
22.060334 22.102200 -9.267071 32.573673 0.786346 1.859277 0.128030 -0.027763 -64860.000000 0 0 1
21.505234 21.850300 -10.552671 32.423287 0.793357 1.902301 0.149884 -0.026289 483656.000000 0 0 1
19.972434 22.137000 -10.576571 31.635561 0.836756 1.911686 0.159687 -0.031145 -4264.630000 0 0 1
19.674434 23.526300 -10.615371 32.453910 0.874325 1.904020 0.138375 -0.029872 43211.000000 0 0 1
18.278134 23.701100 -10.449571 31.702143 0.913869 1.906694 0.139184 -0.031646 280701.000000 0 0 1
17.844434 25.093700 -9.927871 32.352438 0.952651 1.882695 0.112168 -0.030480 50506.200000 0 0 1
18.081934 26.020300 -10.966371 33.530190 0.963490 1.903987 0.152052 -0.020923 16473.100000 0 0 1
17.931134 27.348100 -10.539571 34.358794 0.990450 1.882573 0.137564 -0.025516 75698.600000 0 0 1
21.067834 28.856500 32.912779 48.577796 0.940160 0.826401 0.074915 0.002116 78946.200000 0 0 1
19.706534 29.070600 33.176835 48.313038 0.975067 0.813849 0.096635 -0.017047 -804004.000000 0 0 1
18.992834 27.895900 33.196788 47.338522 0.973041 0.793628 0.095716 -0.023347 -247822.000000 0 0 1
17.479734 28.167800 33.311206 46.995771 1.015398 0.782983 0.119479 -0.038341 -85769.100000 0 0 1
16.844434 28.595800 32.131986 46.194364 1.038465 0.801566 0.120426 -0.033734 468814.000000 0 0 1
15.534734 29.130600 32.405574 46.260578 1.080881 0.794697 0.135029 -0.042145 906577.000000 0 0 1
14.659834 29.090400 31.130096 45.058240 1.104001 0.808083 0.144813 -0.047018 -41771.500000 0 0 1
14.322834 27.815400 30.578876 43.748231 1.095280 0.796835 0.132805 -0.048990 -1121700.000000 0 0 1
12.961734 27.865500 30.364556 43.202996 1.135412 0.791422 0.136778 -0.034726 -1183850.000000 0 0 1
12.343834 26.475600 30.082026 41.931562 1.134524 0.770722 0.108701 -0.041583 4444.530000 0 0 1
12.750534 25.826300 28.851826 40.767656 1.112199 0.784540 0.106980 -0.034730 1119070.000000 0 0 1
14.094534 25.316700 28.729416 40.804050 1.062802 0.789666 0.085839 -0.035429 778284.000000 0 0 1
14.262934 24.479600 27.451266 39.449387 1.043235 0.801179 0.089197 -0.029812 -141667.000000 0 0 1
13.882234 25.194400 26.221186 38.923320 1.067182 0.831643 0.082357 -0.031070 332072.000000 0 0 1
13.640034 24.361100 25.090136 37.537030 1.060376 0.838727 0.094289 -0.038770 298017.000000 0 0 1
12.348034 23.488800 24.996856 36.456007 1.086802 0.815270 0.101499 -0.035963 118738.000000 0 0 1
12.364334 22.959900 23.673396 35.220214 1.076811 0.833683 0.125450 -0.047928 -134277.000000 0 0 1
11.331834 22.039000 23.428416 34.103059 1.095876 0.813459 0.124453 -0.044958 -70036.700000 0 0 1
11.220134 21.680200 21.921566 32.809717 1.093224 0.839087 0.141115 -0.053099 -188373.000000 0 0 1
10.705434 22.743100 21.173166 32.865755 1.130853 0.870778 0.146390 -0.051676 2258.940000 0 0 1
10.799434 22.366600 19.784366 31.753956 1.120973 0.898158 0.155469 -0.045859 -530820.000000 0 0 1
10.628334 23.537400 18.753766 31.916679 1.146653 0.942725 0.132599 -0.047577 1039200.000000 0 0 1
9.262534 23.955900 18.566066 31.691931 1.201852 0.944893 0.136855 -0.047494 870632.000000 0 0 1
8.697734 24.733300 19.632166 32.753758 1.232643 0.928062 0.134135 -0.044250 -546077.000000 0 0 1
7.269334 25.181800 19.350366 32.579179 1.289762 0.934838 0.121440 -0.035193 -482671.000000 0 0 1
7.232534 26.133200 18.307766 32.717396 1.300798 0.976926 0.104201 -0.035588 133411.000000 0 0 1
5.923234 26.416800 17.834666 32.419243 1.350222 0.988281 0.101428 -0.039697 42452.300000 0 0 1
6.022034 27.589200 16.791866 32.854157 1.355892 1.034328 0.122591 -0.043240 253955.000000 0 0 1
6.716334 27.261900 15.612366 32.125789 1.329243 1.063317 0.106709 -0.038606 -386603.000000 0 0 1
8.024134 27.765000 15.507666 32.798928 1.289460 1.078319 0.106279 -0.035921 181006.000000 0 0 1
8.759434 27.286000 14.173166 31.970801 1.260166 1.111502 0.081967 -0.027634 248826.000000 0 0 1
8.166834 27.741300 12.986566 31.700596 1.284492 1.148712 0.117840 -0.038989 -76160.500000 0 0 1
7.336434 26.715700 12.408666 30.356661 1.302791 1.149699 0.105008 -0.043968 651227.000000 0 0 1
6.383334 27.167400 11.264066 30.094747 1.340019 1.187169 0.102082 -0.054253 -406135.000000 0 0 1
7.058934 27.521700 10.065166 30.142662 1.319722 1.230340 0.076623 -0.043436 120421.000000 0 0 1
7.665534 28.813100 10.028066 31.456593 1.310776 1.246343 0.088907 -0.044999 -238856.000000 0 0 1
7.815234 29.452800 8.633666 31.671525 1.311426 1.294702 0.063655 -0.026089 1027920.000000 0 0 1
6.553334 29.534100 7.891866 31.264849 1.352444 1.315616 0.061576 -0.029021 849538.000000 0 0 1
6.361434 28.320800 7.174566 29.899999 1.349843 1.328480 0.066063 -0.029625 -145392.000000 0 0 1
4.887034 28.000900 6.849066 29.237702 1.398005 1.334345 0.071673 -0.038197 -97245.000000 0 0 1
4.223934 28.969900 6.077966 29.900475 1.426012 1.366097 0.070358 -0.032489 -98411.800000 0 0 1
2.820934 28.748000 6.179166 29.539588 1.472983 1.360057 0.086156 -0.031540 534097.000000 0 0 1
2.084334 29.680000 5.163266 30.197784 1.500685 1.398970 0.106356 -0.035476 -259964.000000 0 0 1
2.520034 29.475800 3.855166 29.833466 1.485509 1.441211 0.079329 -0.041421 133289.000000 0 0 1
1.742534 30.132000 2.866566 30.318164 1.513031 1.476105 0.084730 -0.039602 -332142.000000 0 0 1
0.518534 29.470600 2.322366 29.566510 1.553203 1.492168 0.125963 -0.050569 -651782.000000 0 0 1
0.980034 28.509100 1.386266 28.559604 1.536434 1.522238 0.117845 -0.056209 203613.000000 0 0 1
-0.023666 27.609000 0.955466 27.625538 -1.569939 1.536203 0.119858 -0.053379 -98273.500000 0 0 1
-0.401166 27.831700 -0.540134 27.839832 -1.556383 1.590199 0.114085 -0.054002 -252129.000000 0 0 1
-1.248466 28.945200 -0.670034 28.979859 -1.527691 1.593919 0.126811 -0.054250 -255671.000000 0 0 1
-1.181266 29.553400 -1.934934 29.640223 -1.530847 1.636123 0.129685 -0.049886 -502722.000000 0 0 1
-2.263966 30.623300 -2.248234 30.789067 -1.497001 1.643882 0.158485 -0.043241 455714.000000 0 0 1
-3.503266 30.120800 -2.786734 30.451623 -1.455009 1.662438 0.143538 -0.044542 560795.000000 0 0 1
-3.453166 29.451700 -3.996934 29.921606 -1.454081 1.704777 0.104560 -0.038431 -1206430.000000 0 0 1
-4.766566 28.952000 -4.625034 29.704030 -1.407623 1.727136 0.109455 -0.024644 -82926.300000 0 0 1
-5.430766 30.035500 -5.288334 30.977265 -1.391917 1.742353 0.097914 -0.026171 4291.330000 0 0 1
-6.450966 29.600100 -6.148934 30.912623 -1.356214 1.771045 0.094133 -0.023920 -265438.000000 0 0 1
-7.116466 30.691700 -6.988734 32.271767 -1.342953 1.789085 0.096046 -0.021780 78123.400000 0 0 1
-8.126866 31.310200 -6.198334 32.936210 -1.316841 1.760117 0.088114 -0.013127 -42673.600000 0 0 1
-8.512066 32.503600 -6.858834 34.292607 -1.314667 1.772164 0.084677 -0.030782 -250345.000000 0 0 1
-9.527066 33.404400 -6.136834 35.274349 -1.292969 1.745661 0.080708 -0.039086 481014.000000 0 0 1
-10.865366 32.977300 -6.401434 35.306329 -1.252518 1.753116 0.078437 -0.027924 -17841.800000 0 0 1
-11.743766 33.614400 -5.484134 36.026652 -1.234685 1.723615 0.070873 -0.032566 -6321.380000 0 0 1
-13.203066 33.216600 -5.757634 36.205163 -1.192461 1.730502 0.100046 -0.033550 -78360.300000 0 0 1
-13.676666 33.684700 -7.041834 37.031036 -1.185111 1.762122 0.100340 -0.037388 131961.000000 0 0 1
-15.064366 33.404000 -7.135334 37.331962 -1.147132 1.763112 0.129364 -0.050832 -65701.300000 0 0 1
-15.628666 33.543800 -8.518834 37.973837 -1.134784 1.797056 0.174697 -0.053545 -21366.400000 0 0 1
-16.951466 33.085100 -8.709034 38.181453 -1.097310 1.800918 0.224699 -0.057311 47293.900000 0 0 1
-17.834266 -33.490514 -9.036434 39.004265 1.081475 1.804599 0.216398 -0.062805 718475.000000 0 0 1
-19.299266 33.612400 -9.356734 39.872341 -1.049585 1.807673 0.209553 -0.064124 1615000.000000 0 0 1
-20.059366 32.908300 -8.324334 39.428783 -1.023382 1.783520 0.191953 -0.055190 588095.000000 0 0 1
-20.315066 33.715900 -7.186534 40.013874 -1.028514 1.751377 0.155841 -0.035444 -257039.000000 0 0 1
-21.298366 33.118700 -6.113634 39.847776 -0.999293 1.724829 0.175843 -0.036600 -292266.000000 0 0 1
-21.260066 -33.789814 -4.878134 40.218629 1.009193 1.692386 0.156149 -0.039532 995276.000000 0 0 1
-22.249466 33.408700 -3.883434 40.326927 -0.983271 1.667245 0.178629 -0.033871 1505600.000000 0 0 1
-23.698266 -33.677214 -4.094234 41.382669 0.957599 1.669894 0.211194 -0.050227 358374.000000 0 0 1
-24.175866 33.688000 -5.420534 41.817891 -0.948329 1.700784 0.231005 -0.055578 598743.000000 0 0 1
-25.388306 -33.196614 -5.680134 42.176358 0.917899 1.705883 0.234785 -0.063219 1122740.000000 0 0 1
-25.796756 -33.227514 -7.200234 42.677672 0.910633 1.740319 0.263687 -0.058080 317968.000000 0 0 1
-24.914966 -32.366614 -7.943434 41.610712 0.914760 1.762874 0.268350 -0.049588 400206.000000 0 0 1
-25.364746 -32.146814 -9.249534 41.980256 0.902781 1.792950 0.219793 -0.045079 -240797.000000 0 0 1
-26.571996 -31.247114 -9.503534 42.104279 0.866080 1.798472 0.180252 -0.029484 -1155830.000000 0 0 1
-27.798076 -31.811514 -9.125734 43.220186 0.852625 1.783543 0.197678 -0.030101 -256983.000000 0 0 1
-28.950506 -31.255614 -9.720134 43.698126 0.823666 1.795111 0.111372 -0.020067 172682.000000 0 0 1
-29.226176 -29.676014 -9.669534 42.759035 0.793035 1.798910 0.077805 -0.006294 -1238320.000000 0 0 1
-28.328996 -28.814614 -10.328834 41.707299 0.793896 1.821051 0.093516 -0.004373 -315619.000000 0 0 1
-28.415236 -28.793414 -11.763534 42.129171 0.792009 1.853784 0.086745 -0.010320 -194505.000000 0 0 1
-27.221206 -28.040114 -12.379334 40.993780 0.800216 1.877566 0.121644 -0.013214 -267712.000000 0 0 1
-25.978766 -28.671014 -12.188934 40.564682 0.834622 1.875994 0.117552 -0.018214 -286460.000000 0 0 1
-25.009086 -28.018914 -12.998734 39.742685 0.842097 1.904000 0.117049 -0.027481 971523.000000 0 0 1
-23.734366 -28.987414 -13.114534 39.693593 0.884708 1.907518 0.125597 -0.039958 843605.000000 0 0 1
-23.786266 -30.117014 -13.967634 40.840125 0.902309 1.919849 0.131643 -0.045576 -185515.000000 0 0 1
-24.305366 -31.253614 -13.360134 41.785553 0.909813 1.896242 0.126932 -0.048440 -15601.200000 0 0 1
-24.367466 -32.427914 -14.363634 43.030884 0.926378 1.911126 0.132186 -0.048175 85843.700000 0 0 1
-24.868466 -33.566114 -13.670434 43.954583 0.933158 1.887055 0.130288 -0.057077 19160.500000 0 0 1
-24.930866 32.973500 -14.522434 43.814391 -0.923410 1.908640 0.150686 -0.048028 -445837.000000 0 0 1
-25.335126 31.682800 -13.809234 42.852811 -0.896269 1.898900 0.130871 -0.046656 -330323.000000 0 0 1
-24.582666 31.095400 -12.761734 41.642445 -0.901840 1.882268 0.151777 -0.053975 108362.000000 0 0 1
-24.291066 32.006200 -11.682934 41.844279 -0.921593 1.853757 0.198128 -0.048498 -137182.000000 0 0 1
-23.526566 31.557400 -10.436434 40.722082 -0.930171 1.829973 0.197847 -0.042817 279200.000000 0 0 1
-24.349766 30.730300 -9.641134 40.375908 -0.900725 1.811910 0.189287 -0.040864 365773.000000 0 0 1
-23.749466 30.693300 -8.375534 39.702209 -0.912257 1.783352 0.166325 -0.033031 92245.000000 0 0 1
-24.456566 29.669400 -7.506234 39.175764 -0.881411 1.763593 0.169107 -0.028625 -66479.000000 0 0 1
-24.349566 28.410200 -8.189834 38.302927 -0.862211 1.786277 0.170287 -0.011350 -190148.000000 0 0 1
-24.641366 27.244300 -7.486834 37.490019 -0.835523 1.771850 0.158267 -0.021592 -403228.000000 0 0 1
-23.548666 26.560700 -6.657334 36.115517 -0.845435 1.756191 0.152238 -0.024078 -515612.000000 0 0 1
-23.429766 27.148000 -5.388034 36.262912 -0.858781 1.719931 0.152572 -0.023601 668733.000000 0 0 1
-22.446566 26.481800 -4.543534 35.011109 -0.867684 1.700937 0.110158 -0.018671 1170640.000000 0 0 1
-21.034166 27.159400 -4.625934 34.662205 -0.911817 1.704653 0.087554 -0.027997 450604.000000 0 0 1
-20.423766 26.987000 -5.897834 34.354226 -0.922957 1.743328 0.101985 -0.031166 70477.900000 0 0 1
-19.106166 27.502400 -5.911534 34.005497 -0.963630 1.745525 0.100003 -0.032367 662922.000000 0 0 1
-18.195766 27.254400 -7.187834 33.549265 -0.982129 1.786717 0.116105 -0.034495 438781.000000 0 0 1
-18.651766 27.929400 -8.393334 34.617739 -0.981997 1.815695 0.138635 -0.043355 202085.000000 0 0 1
-18.361066 29.316900 -8.312434 35.576761 -1.011265 1.806624 0.154109 -0.044981 -19817.600000 0 0 1
-18.438266 29.972100 -9.734434 36.511035 -1.019289 1.840677 0.180010 -0.047359 -421040.000000 0 0 1
-17.237266 29.827300 -10.424934 35.992644 -1.046784 1.864648 0.168769 -0.049735 -583994.000000 0 0 1
-17.124566 30.770900 -11.514834 37.049838 -1.062963 1.886824 0.186962 -0.060326 -742022.000000 0 0 1
-15.697466 30.847000 -12.025934 36.641110 -1.100069 1.905203 0.170282 -0.059467 -545249.000000 0 0 1
-15.392666 31.802200 -13.045134 37.662842 -1.120020 1.924491 0.170984 -0.062351 -460217.000000 0 0 1
-15.760166 31.266200 -14.319234 37.828542 -1.103903 1.959004 0.163699 -0.061537 -197994.000000 0 0 1
-15.031766 31.863800 -15.511634 38.495020 -1.130003 1.985536 0.173445 -0.066454 -378470.000000 0 0 1
-13.656066 31.596100 -15.526534 37.760759 -1.162837 1.994546 0.171903 -0.069782 -619832.000000 0 0 1
-13.185266 31.905900 -16.794734 38.391416 -1.178916 2.023569 0.176411 -0.075379 551454.000000 0 0 1
-11.629366 32.015800 -16.956334 38.049585 -1.222377 2.032683 0.172297 -0.068225 583384.000000 0 0 1
-10.983866 30.752400 -17.033234 36.830510 -1.227747 2.051582 0.165096 -0.074270 127389.000000 0 0 1
-9.786066 30.838800 -17.804634 36.929713 -1.263518 2.073872 0.156999 -0.059196 337023.000000 0 0 1
-9.960766 30.774600 -19.352134 37.693474 -1.257769 2.109948 0.149892 -0.057084 -762208.000000 0 0 1
-10.168266 29.506900 -19.834834 36.979338 -1.238935 2.136934 0.130001 -0.065827 -123699.000000 0 0 1
-10.531866 29.495700 -21.172734 37.804778 -1.227842 2.165248 0.129705 -0.063306 -49494.500000 0 0 1
-12.063166 29.480400 -21.313034 38.325702 -1.182390 2.160486 0.122661 -0.049177 -391198.000000 0 0 1
-12.793966 30.670100 -21.129134 39.379956 -1.175595 2.137134 0.118752 -0.044141 -213227.000000 0 0 1
-14.127766 30.447100 -20.761534 39.467214 -1.136353 2.124740 0.101687 -0.043124 113982.000000 0 0 1
-15.114366 31.618700 -21.007634 40.859601 -1.124887 2.110803 0.135151 -0.052110 109545.000000 0 0 1
-15.395966 31.892900 -22.384934 41.896040 -1.121052 2.134472 0.097117 -0.036722 -193497.000000 0 0 1
-16.424766 32.845700 -22.513634 43.075245 -1.107102 2.120762 0.100934 -0.042093 25460.300000 0 0 1
-16.914266 32.883200 -23.989534 44.078283 -1.095716 2.146289 0.082991 -0.026948 -268956.000000 0 0 1
-15.960066 33.262600 -24.937834 44.531111 -1.123423 2.165193 0.107140 -0.025155 -347630.000000 0 0 1
-16.447066 33.175200 -26.264434 45.397361 -1.110543 2.187741 0.112068 -0.020418 138095.000000 0 0 1
-16.796366 -33.128614 -26.953534 45.892439 1.101561 2.198540 0.091046 -0.013365 218906.000000 0 0 1
-18.000666 -32.587514 -26.428334 45.655524 1.066128 2.188131 0.098513 -0.011553 -36432.100000 0 0 1
-18.488466 -31.643514 -27.341434 45.724057 1.042021 2.211757 0.088157 -0.006771 612410.000000 0 0 1
-20.006166 -31.348814 -27.093234 46.011283 1.002776 2.200418 0.074040 -0.021184 1329380.000000 0 0 1
-20.931866 -32.444514 -27.266034 47.267601 0.997832 2.185656 0.070745 -0.020020 1346660.000000 0 0 1
-22.327466 -32.060114 -27.225434 47.619229 0.962474 2.179412 0.063929 -0.013062 1216570.000000 0 0 1
-23.305066 -33.209314 -27.283634 48.891526 0.958888 2.162823 0.049388 0.003516 -431999.000000 0 0 1
-23.430666 33.774400 -26.037634 48.658654 -0.964284 2.135432 0.079223 -0.002062 563114.000000 0 0 1
-24.497666 32.770700 -26.037034 48.497233 -0.928866 2.137527 0.070663 0.000223 946445.000000 0 0 1
-24.410566 31.447200 -26.874334 48.031573 -0.910712 2.164596 0.080102 -0.002424 -397845.000000 0 0 1
-23.436866 30.612500 -26.338034 46.691583 -0.917387 2.170121 0.077025 -0.027222 -464006.000000 0 0 1
-23.957266 29.650400 -25.426334 45.821341 -0.891202 2.159041 0.066083 -0.024434 -61526.400000 0 0 1
32.942367 9.938700 -26.177731 43.234834 0.293015 2.221162 0.071775 -0.016971 -31924.100000 0 0 1
32.631697 8.599100 -25.855751 42.512257 0.257662 2.224581 0.061869 -0.014225 -21994.900000 0 0 1
31.240017 8.396500 -25.966781 41.481485 0.262569 2.247190 0.078026 -0.024226 90225.900000 0 0 1
30.904507 6.924300 -25.507881 40.665544 0.220415 2.248827 0.071926 -0.025420 -76196.000000 0 0 1
31.066367 6.763500 -24.137771 39.918618 0.214366 2.220153 0.055955 -0.013784 75829.700000 0 0 1
30.223257 5.779800 -23.598671 38.778197 0.188955 2.225035 0.062352 -0.015479 -110907.000000 0 0 1
30.510557 5.643700 -22.109671 38.099645 0.182908 2.189908 0.080758 -0.007090 7627.790000 0 0 1
31.818597 5.373200 -21.665071 38.867334 0.167292 2.162060 0.082250 -0.006407 87893.400000 0 0 1
31.735197 5.082000 -20.286271 38.006344 0.158789 2.133837 0.081830 -0.007753 13820.100000 0 0 1
33.053317 4.646700 -19.606571 38.710866 0.139667 2.101903 0.070700 -0.001242 -37292.300000 0 0 1
33.315117 3.269000 -19.698971 38.841123 0.097811 2.102692 0.090557 -0.003273 300712.000000 0 0 1
34.435617 2.911600 -18.913871 39.395731 0.084351 2.071564 0.102456 -0.007636 -88600.700000 0 0 1
34.900247 1.448500 -19.000371 39.763544 0.041480 2.068984 0.123839 -0.014215 -298390.000000 0 0 1
33.986747 0.579700 -18.407271 38.655693 0.017055 2.067108 0.121489 -0.016633 -85453.100000 0 0 1
34.236757 -0.765900 -18.716871 39.026444 -0.022367 2.070989 0.112567 -0.011885 -100306.000000 0 0 1
33.090627 -1.672500 -18.224371 37.814211 -0.050500 2.073670 0.112332 -0.014510 -28931.300000 0 0 1
32.960047 -1.929300 -16.843071 37.064483 -0.058468 2.042524 0.127745 -0.020678 760891.000000 0 0 1
31.647297 -1.519400 -16.420971 35.686247 -0.047974 2.048959 0.111432 -0.024612 668595.000000 0 0 1
31.216627 -1.871600 -15.014071 34.690099 -0.059884 2.018399 0.123202 -0.028270 -297727.000000 0 0 1
31.126477 -3.289800 -14.877971 34.655942 -0.105300 2.014519 0.113137 -0.026737 417920.000000 0 0 1
30.194157 -3.559200 -13.831471 33.401566 -0.117336 1.997746 0.099530 -0.022975 123833.000000 0 0 1
30.163457 -5.022000 -13.323571 33.355242 -0.164980 1.981707 0.112238 -0.024215 63379.800000 0 0 1
29.646157 -5.881600 -14.320871 33.445107 -0.195850 2.013286 0.095203 -0.021718 298716.000000 0 0 1
29.262857 -7.139300 -13.839671 33.148467 -0.239297 2.001495 0.105358 -0.028886 -118553.000000 0 0 1
28.719457 -8.158100 -14.883571 33.359893 -0.276771 2.033257 0.078315 -0.023470 561036.000000 0 0 1
27.461057 -7.693800 -15.409171 32.415224 -0.273168 2.066179 0.073690 -0.019068 571194.000000 0 0 1
27.050857 -8.446500 -16.518371 32.801658 -0.302653 2.098538 0.080204 -0.018067 -247449.000000 0 0 1
25.606957 -8.146400 -16.949271 31.770392 -0.308008 2.133521 0.049666 -0.012761 -236274.000000 0 0 1
25.321957 -6.859200 -17.462971 31.515162 -0.264531 2.158094 0.038969 -0.001555 453200.000000 0 0 1
23.968357 -6.740700 -17.913771 30.672827 -0.274152 2.194478 0.086449 -0.001962 674178.000000 0 0 1
23.796057 -7.021200 -19.426571 31.510970 -0.286916 2.235088 0.045027 -0.002024 -267189.000000 0 0 1
24.554657 -6.150200 -20.214571 32.394212 -0.245421 2.244670 0.041013 -0.009183 210103.000000 0 0 1
24.327457 -6.507600 -21.599571 33.177032 -0.261380 2.279750 0.059760 -0.012131 1643.570000 0 0 1
25.110857 -5.587500 -22.546771 34.207194 -0.218946 2.290449 0.067806 -0.018092 -275554.000000 0 0 1
24.958257 -5.969700 -23.882971 35.056357 -0.234776 2.320297 0.089879 -0.027568 166817.000000 0 0 1
25.170757 -4.959400 -24.879671 35.737385 -0.194538 2.340859 0.087980 -0.034498 -171607.000000 0 0 1
25.232657 -5.435100 -26.363501 36.895277 -0.212158 2.366776 0.122478 -0.045126 -120989.000000 0 0 1
23.958457 -5.805500 -26.867501 36.463325 -0.237733 2.399175 0.150214 -0.046763 239457.000000 0 0 1
23.921357 -5.821600 -28.266171 37.484647 -0.238723 2.425038 0.151134 -0.054010 -608372.000000 0 0 1
22.640257 -6.475100 -28.731141 37.148171 -0.278563 2.455015 0.141836 -0.061783 -458734.000000 0 0 1
22.536357 -7.894200 -28.606011 37.262711 -0.336931 2.446017 0.116216 -0.044501 702101.000000 0 0 1
21.160157 -8.273000 -28.557481 36.492800 -0.372698 2.469549 0.137777 -0.056264 510856.000000 0 0 1
21.058957 -9.807000 -28.301961 36.614995 -0.435827 2.454291 0.151289 -0.045842 322749.000000 0 0 1
19.730157 -10.197600 -27.936541 35.689220 -0.477039 2.469905 0.163749 -0.044356 839127.000000 0 0 1
19.639057 -11.354100 -27.186591 35.407892 -0.524190 2.446215 0.159234 -0.049896 -227005.000000 0 0 1
19.750457 -12.711400 -27.910021 36.477794 -0.571863 2.442030 0.135345 -0.030346 392992.000000 0 0 1
18.576857 -13.024400 -28.677931 36.567175 -0.611470 2.472288 0.127490 -0.031300 936246.000000 0 0 1
18.847357 -14.018000 -29.627271 37.808760 -0.639499 2.471250 0.097630 -0.026400 -359410.000000 0 0 1
17.640657 -14.371000 -30.490511 38.044574 -0.683612 2.500498 0.084267 -0.029587 311537.000000 0 0 1
16.565057 -15.133700 -29.939141 37.413662 -0.740274 2.498457 0.075266 -0.030351 868386.000000 0 0 1
15.589057 -15.587800 -30.844501 37.912813 -0.785358 2.521052 0.069574 -0.036994 -387968.000000 0 0 1
14.373257 -16.286600 -30.247661 37.239291 -0.847723 2.518798 0.081377 -0.038824 -174692.000000 0 0 1
14.671857 -17.510200 -29.618411 37.404822 -0.873367 2.484602 0.063206 -0.035539 -2839.560000 0 0 1
13.554257 -17.857100 -28.840381 36.528912 -0.921535 2.480826 0.066623 -0.031006 25601.700000 0 0 1
13.696457 -19.206500 -28.107031 36.694519 -0.951322 2.443351 0.067336 -0.025435 -645638.000000 0 0 1
14.635057 -19.146000 -27.118791 36.279236 -0.918148 2.415089 0.070359 -0.019834 -602285.000000 0 0 1
14.541157 -20.261600 -26.249401 36.207854 -0.948309 2.381779 0.067830 -0.016449 -195277.000000 0 0 1
15.482257 -20.097000 -25.037271 35.643437 -0.914381 2.349612 0.049591 -0.009497 -2032400.000000 0 0 1
16.767457 -20.405300 -25.344551 36.604236 -0.882951 2.335598 0.071725 -0.015879 -1611780.000000 0 0 1
17.530957 -20.137800 -24.200171 36.034895 -0.854492 2.307130 0.077855 -0.010311 361299.000000 0 0 1
19.081457 -20.386000 -24.317571 37.027493 -0.818440 2.287289 0.048646 -0.001508 700144.000000 0 0 1
19.477257 -21.728500 -24.391571 38.032091 -0.839978 2.267042 0.083763 -0.014220 104508.000000 0 0 1
19.266957 -22.541600 -23.239671 37.675212 -0.863563 2.235521 0.079630 -0.018746 -678641.000000 0 0 1
19.873757 -23.961600 -23.273571 38.868799 -0.878384 2.212764 0.073791 -0.024753 34521.500000 0 0 1
21.287157 -23.978000 -23.131571 39.536781 -0.844775 2.195756 0.076153 -0.024890 278631.000000 0 0 1
21.810557 -25.267420 -22.866971 40.460366 -0.858695 2.171435 0.087799 -0.038443 -173080.000000 0 0 1
21.778457 -25.692840 -21.400771 39.905090 -0.867670 2.136834 0.102996 -0.032320 -124368.000000 0 0 1
20.497657 -25.866900 -20.808971 39.016198 -0.900690 2.133343 0.084823 -0.026809 302734.000000 0 0 1
20.630857 -26.138120 -19.402471 38.539453 -0.902613 2.098377 0.095892 -0.034948 158747.000000 0 0 1
19.294957 -26.645260 -18.822771 37.902004 -0.944051 2.090493 0.078480 -0.027774 -447118.000000 0 0 1
19.226257 -27.994360 -19.141871 38.983898 -0.968991 2.084056 0.082314 -0.026358 317948.000000 0 0 1
18.063657 -28.695890 -18.744271 38.743999 -1.008978 2.075786 0.066051 -0.023386 1410030.000000 0 0 1
16.618057 -28.297300 -19.269771 38.055499 -1.039792 2.101754 0.060190 -0.025484 960649.000000 0 0 1
16.007857 -27.108650 -18.737271 36.636262 -1.037386 2.107657 0.068082 -0.025292 462817.000000 0 0 1
14.775757 -26.856240 -19.440871 36.297769 -1.067815 2.136007 0.052858 -0.014273 338449.000000 0 0 1
13.853757 -25.925780 -18.675271 34.825829 -1.080038 2.136782 0.037598 -0.020020 -601844.000000 0 0 1
13.195757 -26.588880 -17.572871 34.494961 -1.110122 2.105322 0.037640 -0.017898 579046.000000 0 0 1
12.207157 -25.710470 -17.009171 33.156520 -1.127517 2.109468 0.047159 -0.024032 601384.000000 0 0 1
10.739357 -25.880580 -17.460171 33.015084 -1.177462 2.128046 0.062492 -0.024587 -282984.000000 0 0 1
10.058757 -26.953580 -16.810571 33.320704 -1.213615 2.099609 0.060114 -0.007701 807300.000000 0 0 1
8.638257 -26.987530 -17.018571 33.054167 -1.261018 2.111651 0.056166 0.003505 1181650.000000 0 0 1
8.110657 -27.494090 -18.388271 34.056368 -1.283936 2.141158 0.083102 -0.003337 -368221.000000 0 0 1
8.047757 -26.578180 -19.447671 33.902477 -1.276777 2.181734 0.095197 -0.015661 -15219.300000 0 0 1
7.690057 -27.280920 -20.608571 35.044240 -1.296041 2.199471 0.094305 -0.013255 -74962.400000 0 0 1
7.490157 -26.473360 -21.940771 35.190036 -1.295071 2.244000 0.105952 -0.015808 -759533.000000 0 0 1
6.338957 -25.716220 -21.888871 34.360282 -1.329118 2.261448 0.112348 -0.018857 -638764.000000 0 0 1
6.126257 -24.820600 -22.942271 34.350269 -1.328811 2.302169 0.099545 -0.026753 340514.000000 0 0 1
4.636057 -24.348200 -23.028071 33.832232 -1.382642 2.319452 0.077164 -0.020173 155016.000000 0 0 1
3.763557 -25.377340 -23.329571 34.676254 -1.423566 2.308759 0.072520 -0.019536 -400426.000000 0 0 1
2.489457 -24.834200 -23.675171 34.401287 -1.470887 2.329810 0.061651 -0.024728 587435.000000 0 0 1
1.552957 -25.963030 -24.232071 35.548331 -1.511053 2.320833 0.032838 -0.018251 74849.400000 0 0 1
2.047257 -26.561140 -25.418621 36.821077 -1.493871 2.332739 0.033613 -0.021658 86733.000000 0 0 1
1.125157 -27.481180 -25.988191 37.840022 -1.529876 2.327861 0.042961 -0.027644 -39525.700000 0 0 1
1.787557 -28.407180 -27.024651 39.249140 -1.507953 2.330272 0.048187 -0.026105 -321796.000000 0 0 1
2.330257 -27.802070 -28.173561 39.650154 -1.487176 2.361081 0.051426 -0.020975 43737.500000 0 0 1
2.732557 -28.736360 -29.167811 41.036647 -1.475991 2.361395 0.081667 -0.035910 524052.000000 0 0 1
4.213257 -29.245130 -29.092371 41.465590 -1.427714 2.348441 0.088003 -0.027258 320446.000000 0 0 1
4.364757 -30.181630 -28.058061 41.439554 -1.427176 2.314589 0.074747 -0.038762 534335.000000 0 0 1
5.548657 -30.945080 -28.364901 42.343277 -1.393375 2.304843 0.108885 -0.048156 522013.000000 0 0 1
5.798657 -31.843960 -27.183631 42.268333 -1.390674 2.269363 0.137215 -0.070272 -701170.000000 0 0 1
4.802557 -32.813140 -27.044721 42.792331 -1.425467 2.254927 0.113899 -0.071403 -412251.000000 0 0 1
5.120357 33.589806 -26.475771 43.075045 1.419523 2.232729 0.128425 -0.073211 496538.000000 0 0 1
3.836757 32.672242 -26.282091 42.106346 1.453900 2.244882 0.159534 -0.071732 761972.000000 0 0 1
3.083357 32.378910 -27.432311 42.549178 1.475855 2.271453 0.122353 -0.068863 -167802.000000 0 0 1
1.756957 32.065663 -27.121051 42.033855 1.516059 2.272106 0.055606 -0.059401 -685372.000000 0 0 1
0.784857 32.210722 -28.277391 42.869073 1.546435 2.291112 0.068988 -0.039368 -476911.000000 0 0 1
0.920757 31.249755 -29.237941 42.804814 1.541340 2.322730 0.105433 -0.043181 625825.000000 0 0 1
-0.107643 31.405255 -30.233151 43.592947 -1.567369 2.337178 0.098517 -0.038884 618509.000000 0 0 1
0.033057 30.279355 -31.260751 43.520971 1.569705 2.372140 0.086501 -0.032051 165208.000000 0 0 1
1.128957 30.481365 -32.148721 44.316232 1.533776 2.382468 0.115833 -0.037006 146785.000000 0 0 1
1.225557 29.431615 -33.118721 44.323488 1.529180 2.414642 0.127114 -0.040143 -324789.000000 0 0 1
2.538957 29.350255 33.449166 44.572754 1.484506 0.722069 0.143235 -0.033862 -380745.000000 0 0 1
2.866657 30.446785 32.627681 44.719011 1.476920 0.753037 0.145750 -0.029762 77057.400000 0 0 1
3.647557 30.037495 31.467597 43.655073 1.449955 0.765807 0.117060 -0.021252 222763.000000 0 0 1
3.057657 29.018375 30.376456 42.120593 1.465814 0.765295 0.118945 -0.020415 18644.300000 0 0 1
2.771057 27.665455 30.874336 41.548535 1.470966 0.733119 0.132284 -0.023222 574071.000000 0 0 1
3.928757 26.805475 30.879756 41.079532 1.425267 0.720150 0.120377 -0.017824 435582.000000 0 0 1
3.712657 25.360185 31.369041 40.508511 1.425432 0.685059 0.106760 -0.015830 -47805.200000 0 0 1
2.971757 24.692505 30.370466 39.254507 1.451022 0.686166 0.124928 -0.012105 108677.000000 0 0 1
3.125157 23.286485 30.586516 38.568924 1.437389 0.655021 0.096741 -0.007226 795473.000000 0 0 1
2.138557 22.349815 29.731386 37.256448 1.475401 0.646794 0.096955 -0.001687 1278540.000000 0 0 1
0.796657 22.304815 30.207966 37.558762 1.535095 0.636324 0.095539 -0.017901 329401.000000 0 0 1
-0.061843 21.776515 29.217086 36.439793 -1.567956 0.640511 0.098333 -0.010176 1306020.000000 0 0 1
-1.535243 21.354815 29.606296 36.536527 -1.499028 0.626098 0.091657 -0.010709 898044.000000 0 0 1
-2.470243 22.396715 29.612576 37.210477 -1.460945 0.650448 0.108293 -0.018635 -159653.000000 0 0 1
-3.768743 21.892615 29.835806 37.197652 -1.400320 0.640012 0.088071 -0.021743 371509.000000 0 0 1
-4.825243 23.029975 30.023666 38.145553 -1.364264 0.664733 0.057832 -0.031701 194521.000000 0 0 1
-4.707643 23.503925 31.345807 39.460816 -1.373120 0.652855 0.073510 -0.031133 -159353.000000 0 0 1
-5.712643 24.420055 31.643926 40.377115 -1.340996 0.670181 0.052309 -0.033794 -346892.000000 0 0 1
-5.592843 24.934925 33.088105 41.807332 -1.350151 0.657631 0.081275 -0.028798 82552.400000 0 0 1
-6.822743 25.553865 33.409456 42.611519 -1.309888 0.669636 0.056931 -0.021800 129573.000000 0 0 1
-6.798643 26.078385 -32.645781 42.332620 -1.315772 2.451478 0.074641 -0.019266 -909720.000000 0 0 1
-8.133443 26.593795 -32.203541 42.549393 -1.273990 2.429278 0.091948 -0.011570 -1261560.000000 0 0 1
-8.518643 27.866825 -32.745101 43.833421 -1.274126 2.414387 0.088164 -0.019217 -413077.000000 0 0 1
-9.716643 28.315245 -32.179391 43.950875 -1.240229 2.392295 0.083712 -0.018317 -236629.000000 0 0 1
-9.704143 28.638305 -30.668261 43.068145 -1.244087 2.363262 0.089090 -0.011049 -484439.000000 0 0 1
-8.952643 29.780785 -30.312271 43.426705 -1.278773 2.343411 0.096202 -0.013895 112776.000000 0 0 1
-8.997243 30.153455 -28.911331 42.732262 -1.280825 2.313890 0.109820 -0.012711 -93965.800000 0 0 1
-8.224143 31.448505 -28.601191 43.297495 -1.315013 2.292379 0.103709 -0.014374 588493.000000 0 0 1
-6.807843 31.422495 -28.768931 43.143612 -1.357439 2.300727 0.068842 -0.018761 65356.700000 0 0 1
-6.326843 32.654342 -28.495491 43.798721 -1.379416 2.279172 0.081804 -0.014415 -579287.000000 0 0 1
-4.789143 32.678960 -28.489501 43.617680 -1.425281 2.282552 0.090967 -0.021139 -287095.000000 0 0 1
-4.231243 -33.723950 -28.059701 44.074426 1.445982 2.260934 0.102820 -0.020834 16663.100000 0 0 1
-4.112843 -32.684200 -29.006141 43.892238 1.445618 2.292746 0.111566 -0.031800 -468715.000000 0 0 1
-3.205843 -32.804950 -30.224921 44.721225 1.473381 2.312916 0.097432 -0.034004 -280979.000000 0 0 1
-3.731443 -33.722010 -31.223311 46.108489 1.460592 2.314707 0.086661 -0.019741 1058510.000000 0 0 1
-4.724243 -33.266050 -32.195481 46.534906 1.429726 2.334854 0.111426 -0.026175 764277.000000 0 0 1
-4.217543 -32.169670 -33.116481 46.361370 1.440437 2.366437 0.090229 -0.033246 -196778.000000 0 0 1
-4.342043 -30.836640 -32.665981 45.131120 1.430908 2.380092 0.078161 -0.032705 -155426.000000 0 0 1
-3.619643 -30.048620 -33.553131 45.186657 1.450914 2.407659 0.079679 -0.048622 -143314.000000 0 0 1
35.173627 18.310900 13.351766 41.841878 0.479981 1.246016 0.095644 -0.055541 303792.000000 0 0 1
36.462127 17.732000 13.186266 42.635527 0.452638 1.256362 0.098156 -0.057183 173569.000000 0 0 1
36.482837 16.374900 13.516766 42.211819 0.421888 1.244842 0.118151 -0.034371 138841.000000 0 0 1
37.851017 15.730400 13.876466 43.274719 0.393871 1.244370 0.083304 -0.047172 -12673.000000 0 0 1
-37.053216 15.463900 12.890866 42.169271 -0.395367 1.260130 0.081367 -0.029444 -244046.000000 0 0 1
-37.324376 14.347000 12.101666 41.777934 -0.366975 1.276918 0.123691 -0.050127 361878.000000 0 0 1
-36.041076 13.449300 11.900266 40.267346 -0.357162 1.270785 0.149840 -0.033543 1002730.000000 0 0 1
-35.491649 12.717900 13.016666 39.885282 -0.344081 1.238354 0.115345 -0.028207 525235.000000 0 0 1
-36.371476 11.684200 13.460466 40.504184 -0.310833 1.232031 0.122462 -0.027676 326310.000000 0 0 1
-35.783988 11.214800 14.859566 40.336983 -0.303707 1.193524 0.153575 -0.044527 317325.000000 0 0 1
-35.760061 12.195600 15.894166 40.989500 -0.328670 1.172594 0.147633 -0.037819 258280.000000 0 0 1
-35.196926 11.670000 17.087366 40.828796 -0.320156 1.138989 0.141911 -0.034163 -154411.000000 0 0 1
-35.263634 12.526200 18.366666 41.686496 -0.341314 1.114540 0.126509 -0.040540 368449.000000 0 0 1
-36.513556 12.672300 19.056566 43.092687 -0.334051 1.112721 0.133922 -0.050455 527548.000000 0 0 1
-36.393836 13.522800 20.188566 43.760206 -0.355759 1.091285 0.141626 -0.046256 223100.000000 0 0 1
-37.784226 13.618500 20.879966 45.266812 -0.345935 1.091377 0.161718 -0.063898 379896.000000 0 0 1
37.699987 12.342300 21.343466 45.046253 0.316385 1.077182 0.140610 -0.053153 1246520.000000 0 0 1
36.468887 12.361300 22.145166 44.420601 0.326801 1.048890 0.182164 -0.058559 1394450.000000 0 0 1
36.295887 10.984600 22.868176 44.283251 0.293877 1.028147 0.160704 -0.049390 -752895.000000 0 0 1
37.303187 10.637300 23.757086 45.487130 0.277785 1.021272 0.137661 -0.038877 -637898.000000 0 0 1
37.234967 11.245700 25.008206 46.241960 0.293309 0.999394 0.141133 -0.035685 121249.000000 0 0 1
-37.231606 11.349000 25.769926 46.680632 -0.295874 0.985978 0.132319 -0.035232 1373720.000000 0 0 1
-36.344506 12.413300 25.360626 46.023630 -0.329123 0.987192 0.136287 -0.041172 462330.000000 0 0 1
-35.622947 12.036200 24.172006 44.700675 -0.325835 0.999465 0.123958 -0.042503 -743494.000000 0 0 1
-34.621089 13.122000 23.733416 43.978196 -0.362288 1.000759 0.118549 -0.045527 1028180.000000 0 0 1
-33.431326 13.331300 24.547336 43.565454 -0.379443 0.972230 0.106059 -0.045365 869677.000000 0 0 1
-33.678116 13.852200 25.864476 44.666207 -0.390220 0.953219 0.102504 -0.042033 -988583.000000 0 0 1
-32.431696 14.410700 26.531146 44.310099 -0.418137 0.928843 0.090884 -0.039380 -282159.000000 0 0 1
-31.924346 15.665600 26.100406 44.111292 -0.456188 0.937637 0.085709 -0.037902 -177091.000000 0 0 1
-31.361826 16.472100 27.085196 44.592623 -0.483625 0.918023 0.079871 -0.032879 -60606.700000 0 0 1
-30.861166 17.827100 26.574416 44.456908 -0.523827 0.930096 0.081436 -0.021223 160624.000000 0 0 1
-31.912416 18.651800 26.127566 45.265237 -0.528921 0.955488 0.076619 -0.035034 209680.000000 0 0 1
-31.327676 19.770300 25.595476 45.026841 -0.562960 0.966177 0.071127 -0.034798 -355612.000000 0 0 1
-32.380326 20.700800 25.009546 45.852874 -0.568818 0.993894 0.072023 -0.022628 -408896.000000 0 0 1
-33.161526 21.298000 26.017976 47.225276 -0.570908 0.987314 0.076633 -0.027023 548667.000000 0 0 1
-34.309949 22.008600 25.558876 48.112443 -0.570351 1.010742 0.095346 -0.024439 208549.000000 0 0 1
-34.006116 23.475800 25.009786 48.301330 -0.604214 1.026535 0.097625 -0.025408 -832894.000000 0 0 1
-35.109931 24.044000 24.402426 49.054048 -0.600466 1.050128 0.107011 -0.025560 -377549.000000 0 0 1
-34.933251 25.424400 24.305056 49.572855 -0.629141 1.058374 0.115457 -0.023772 -470577.000000 0 0 1
-36.029086 26.113600 23.545476 50.342870 -0.627172 1.084107 0.125212 -0.020847 -525962.000000 0 0 1
-35.848399 25.886300 22.194466 49.475272 -0.625408 1.105601 0.147365 -0.032551 831167.000000 0 0 1
-36.898456 26.471700 21.372266 50.189847 -0.622322 1.130919 0.154450 -0.039180 774501.000000 0 0 1
-36.720316 26.228300 19.860066 49.302409 -0.620241 1.156199 0.186857 -0.058221 73179.000000 0 0 1
-36.754626 24.859800 19.523066 48.477441 -0.594692 1.156305 0.174108 -0.054882 189757.000000 0 0 1
-36.242906 24.583100 18.221466 47.433099 -0.596005 1.176508 0.178981 -0.054491 -119166.000000 0 0 1
-36.697536 23.240600 17.616066 46.873878 -0.564547 1.185517 0.166596 -0.049614 214380.000000 0 0 1
37.828797 23.273300 17.107466 47.595480 0.551541 1.203134 0.147180 -0.059400 -125315.000000 0 0 1
37.720517 22.553100 15.907966 46.739096 0.538874 1.223500 0.126371 -0.056373 268279.000000 0 0 1
36.325107 22.442300 15.213766 45.328014 0.553418 1.228515 0.128213 -0.050343 263641.000000 0 0 1
35.374607 21.640600 15.883766 44.406896 0.549018 1.205007 0.128136 -0.057671 -1144900.000000 0 0 1
34.404427 21.528000 14.906166 43.235554 0.559127 1.218806 0.129450 -0.050904 -1154330.000000 0 0 1
33.272157 20.533400 15.357966 42.006238 0.552923 1.196507 0.119328 -0.054269 249857.000000 0 0 1
32.401577 21.055200 16.326066 41.949065 0.576249 1.171047 0.114651 -0.055989 575730.000000 0 0 1
31.425197 22.054600 15.898166 41.553581 0.611941 1.178194 0.113665 -0.046855 443014.000000 0 0 1
30.597157 22.606400 17.086066 41.703345 0.636320 1.148666 0.095385 -0.045692 226937.000000 0 0 1
31.434667 23.300800 17.978966 43.061686 0.637875 1.140086 0.038731 -0.036179 -63959.000000 0 0 1
30.657357 24.042200 18.906266 43.305286 0.665046 1.119001 0.034998 -0.019161 153802.000000 0 0 1
31.425797 24.738100 20.044366 44.736237 0.666882 1.106206 0.031481 -0.024102 -435108.000000 0 0 1
32.282267 25.735800 19.642166 45.719699 0.673038 1.126723 0.053090 -0.027197 -609414.000000 0 0 1
33.230567 25.898700 20.654366 46.921382 0.662031 1.114985 0.064902 -0.025164 -751273.000000 0 0 1
34.364257 26.876600 20.339366 48.134640 0.663736 1.134538 0.094382 -0.030642 -103488.000000 0 0 1
35.367027 27.328400 21.196366 49.466695 0.657877 1.127967 0.093270 -0.021552 119335.000000 0 0 1
34.849867 28.107300 22.230806 49.987421 0.678707 1.109926 0.052016 -0.001671 26983.600000 0 0 1
35.890447 28.287600 23.385916 51.334331 0.667483 1.097794 0.055471 -0.007841 97957.200000 0 0 1
37.007017 29.032900 23.025426 52.369827 0.665233 1.115565 0.096664 -0.011882 -526318.000000 0 0 1
37.550397 29.644300 24.207926 53.617539 0.668277 1.102359 0.110096 -0.007389 362227.000000 0 0 1
-36.954546 30.416000 24.103236 53.588595 -0.688648 1.104274 0.110543 -0.017857 -138176.000000 0 0 1
-35.793987 29.655300 24.005576 52.315524 -0.691879 1.094083 0.114137 -0.022499 -529780.000000 0 0 1
-34.706631 30.525300 24.287996 52.213513 -0.721386 1.086973 0.111665 -0.018030 612934.000000 0 0 1
-33.316316 29.816200 24.120776 50.801521 -0.730014 1.076055 0.135780 -0.031756 727425.000000 0 0 1
-32.710656 29.907000 22.806266 49.845175 -0.740654 1.095567 0.132418 -0.031153 472627.000000 0 0 1
-33.107476 28.842000 21.934766 49.082582 -0.716653 1.107505 0.141751 -0.031762 118568.000000 0 0 1
-32.525166 27.380900 22.198866 47.962379 -0.699736 1.089601 0.132262 -0.025106 -1080520.000000 0 0 1
-31.157806 27.196400 22.013366 46.851268 -0.717617 1.081668 0.101389 -0.024569 -465013.000000 0 0 1
-30.621876 26.202900 22.832646 46.320848 -0.707789 1.055349 0.094299 -0.027221 -264506.000000 0 0 1
-30.488706 26.529400 24.331786 47.174210 -0.716070 1.028872 0.099094 -0.027906 -508296.000000 0 0 1
-31.668226 26.690000 25.110656 48.433229 -0.700300 1.025748 0.085089 -0.023942 250016.000000 0 0 1
-31.314466 26.897900 26.467326 49.036845 -0.709673 1.000664 0.088192 -0.030701 -529634.000000 0 0 1
-32.496206 27.175600 27.375826 50.437610 -0.696469 0.997069 0.090154 -0.027550 -530702.000000 0 0 1
-33.342816 26.089400 27.673216 50.578721 -0.663954 0.991863 0.074842 -0.028072 -41644.400000 0 0 1
-34.146250 26.506300 28.752536 51.915881 -0.660096 0.983840 0.077038 -0.015309 -541559.000000 0 0 1
-34.874419 25.326900 29.370156 52.156332 -0.628115 0.972643 0.069236 -0.007360 -165230.000000 0 0 1
-34.257085 24.652000 30.460226 52.048961 -0.623771 0.945642 0.071462 -0.016059 -78736.200000 0 0 1
-34.807715 23.367400 30.481916 51.833962 -0.591223 0.942128 0.055761 -0.029624 -96031.300000 0 0 1
-34.025000 22.371200 31.360747 51.397156 -0.581625 0.914527 0.077107 -0.050720 -580390.000000 0 0 1
-32.802186 21.952200 30.733046 50.024020 -0.589775 0.909214 0.073787 -0.040827 376591.000000 0 0 1
-32.104746 20.993700 31.500304 49.635867 -0.579121 0.883269 0.083274 -0.043622 -228222.000000 0 0 1
-31.356426 21.578100 32.723243 50.196120 -0.602732 0.860699 0.090546 -0.051862 -1135980.000000 0 0 1
-32.130876 22.150800 -33.539631 51.458313 -0.603572 2.280729 0.122691 -0.055725 259801.000000 0 0 1
-31.673356 21.908500 -32.199741 50.199673 -0.605135 2.267161 0.103287 -0.039477 165508.000000 0 0 1
-30.247986 22.412000 -31.809251 49.285564 -0.637679 2.272352 0.117841 -0.039168 179314.000000 0 0 1
-30.266296 23.679600 -31.149951 49.468086 -0.663901 2.251961 0.117904 -0.034468 337105.000000 0 0 1
-29.104586 23.914100 -30.361001 48.381313 -0.687810 2.249180 0.138079 -0.026629 87913.000000 0 0 1
-29.197736 25.233500 -29.532521 48.594311 -0.712696 2.224003 0.126657 -0.018383 -37044.000000 0 0 1
-29.263716 26.444600 -30.244561 49.703274 -0.734836 2.224968 0.115961 -0.023218 158561.000000 0 0 1
-30.556466 26.747700 -30.731221 50.926859 -0.719030 2.218602 0.107578 -0.021839 -331299.000000 0 0 1
-30.663566 27.898900 -31.682511 52.176474 -0.738224 2.223351 0.116204 -0.015233 -87861.000000 0 0 1
-30.705686 29.215700 -31.156111 52.603227 -0.760538 2.204688 0.096716 -0.019467 -144070.000000 0 0 1
-29.482636 29.908400 -31.216881 52.328117 -0.792567 2.210005 0.098249 -0.024642 -283110.000000 0 0 1
-29.547126 31.372000 -30.730321 52.930026 -0.815345 2.190242 0.084795 -0.013944 -49293.200000 0 0 1
-29.480156 31.484700 -29.333961 52.161741 -0.818267 2.168040 0.094435 -0.013769 196149.000000 0 0 1
-29.788456 32.804400 -28.932661 52.920503 -0.833544 2.149237 0.066120 -0.011222 -578330.000000 0 0 1
-29.341996 33.056700 -27.474611 52.043755 -0.844860 2.126939 0.038499 -0.010556 629751.000000 0 0 1
-27.965426 33.367800 -27.193311 51.331777 -0.873254 2.129109 0.058179 0.007966 904275.000000 0 0 1
-27.544816 -32.938214 -27.505861 50.992305 0.874335 2.140535 0.059444 0.016141 -187748.000000 0 0 1
-27.937096 -31.888314 -26.371831 49.928142 0.851348 2.127271 0.050184 0.017694 -5681.010000 0 0 1
-29.289406 -31.502114 -26.378001 50.458413 0.821780 2.120890 0.045063 0.000700 -257496.000000 0 0 1
-29.591766 -30.527614 -25.344651 49.497062 0.800963 2.108359 0.045991 0.002864 -168162.000000 0 0 1
-31.111626 -30.370714 -25.248651 50.277310 0.773348 2.096923 0.034015 -0.000088 -243426.000000 0 0 1
-31.686456 -29.624614 -26.304331 50.730337 0.751782 2.115907 0.030724 -0.001432 -803069.000000 0 0 1
-33.050016 -29.482714 -26.142331 51.429130 0.728413 2.104026 0.031224 -0.003617 -1064770.000000 0 0 1
-33.733916 -28.629014 -27.185611 51.929327 0.703722 2.121764 0.049393 -0.014760 -613433.000000 0 0 1
-35.127719 -28.670614 -27.143541 52.846311 0.684530 2.110208 0.056020 -0.019204 -611117.000000 0 0 1
-35.721070 -27.903014 -28.141111 53.352555 0.663132 2.126399 0.062794 -0.026522 -114766.000000 0 0 1
-37.224536 -28.190714 -28.311831 54.607162 0.648167 2.115850 0.053685 -0.029507 37333.600000 0 0 1
37.797887 -27.583514 -27.362881 54.205698 -0.630423 2.099943 0.051305 -0.022689 27172.600000 0 0 1
36.436337 -27.555314 -27.791961 53.472376 -0.647495 2.117348 0.057058 -0.027952 249639.000000 0 0 1
35.513407 -26.875814 -26.805281 51.981098 -0.647826 2.112590 0.068131 -0.023642 -394065.000000 0 0 1
35.320567 -27.583114 -25.631931 51.627187 -0.663008 2.090337 0.069015 -0.015996 -594937.000000 0 0 1
34.419677 -26.909214 -24.855871 50.265637 -0.663543 2.088045 0.079345 -0.001315 -566972.000000 0 0 1
34.160117 -27.524814 -23.484571 49.759964 -0.678243 2.062306 0.075045 0.008110 -9297.820000 0 0 1
33.378397 -28.686114 -23.564371 49.922841 -0.709938 2.062372 0.092392 0.002124 -13199.500000 0 0 1
32.932277 -29.312314 -22.321271 49.416452 -0.727307 2.039463 0.100501 0.001268 -54203.100000 0 0 1
33.925527 -29.518014 -21.149271 49.694529 -0.716038 2.010405 0.086576 0.005802 -890407.000000 0 0 1
35.047777 -30.309214 -21.502671 51.081895 -0.713022 2.005283 0.063707 -0.001736 1304710.000000 0 0 1
36.207157 -30.296714 -20.615771 51.515620 -0.696757 1.982515 0.047335 0.007104 1582450.000000 0 0 1
36.924527 -28.898814 -20.584271 51.208147 -0.664069 1.984466 0.034074 0.009709 -370027.000000 0 0 1
36.121047 -27.885914 -19.922571 49.792199 -0.657441 1.982438 0.032833 0.024112 149846.000000 0 0 1
36.488877 -26.627814 -20.409071 49.568223 -0.630416 1.995156 0.012119 0.020411 -225453.000000 0 0 1
35.468227 -25.500014 -20.150871 48.107208 -0.623334 2.003002 0.035120 0.024538 -501795.000000 0 0 1
34.372937 -25.562114 -20.996771 47.705187 -0.639437 2.026546 0.050778 0.018237 -943957.000000 0 0 1
33.364887 -24.710814 -20.542271 46.323049 -0.637473 2.030248 0.057221 0.003264 -193056.000000 0 0 1
32.128647 -24.697114 -21.496171 45.872462 -0.655359 2.058510 0.087188 -0.005097 -25153.000000 0 0 1
31.456257 -25.908614 -21.494471 46.073470 -0.688990 2.056155 0.104112 -0.010735 29535.000000 0 0 1
30.157657 -25.894314 -22.075671 45.467956 -0.709484 2.077756 0.123197 -0.016205 480814.000000 0 0 1
29.592757 -27.273214 -22.347271 46.032162 -0.744631 2.077698 0.121439 -0.018360 -432371.000000 0 0 1
29.101057 -27.937614 -21.267071 45.603400 -0.765004 2.055955 0.130871 -0.021932 -392799.000000 0 0 1
28.746257 -29.224614 -21.632371 46.350672 -0.793650 2.056365 0.116718 -0.020029 -466442.000000 0 0 1
28.193157 -30.060014 -20.451871 46.008016 -0.817435 2.031444 0.127746 -0.008892 -377335.000000 0 0 1
29.022257 -30.372714 -19.358571 46.255242 -0.808131 2.002607 0.126271 -0.007899 -402714.000000 0 0 1
30.011057 -31.326814 -19.614171 47.610382 -0.806846 1.995414 0.126383 -0.004075 229778.000000 0 0 1
30.804957 -31.793014 -18.361871 47.925978 -0.801181 1.963979 0.106643 0.001241 40354.500000 0 0 1
29.949457 -32.471214 -17.517671 47.520716 -0.825776 1.948334 0.123628 -0.007272 -265582.000000 0 0 1
29.582557 -31.656114 -16.414871 46.332334 -0.819245 1.932946 0.112992 -0.014586 -139367.000000 0 0 1
28.700857 -32.375314 -15.383871 45.919099 -0.845488 1.912424 0.103607 -0.013470 -231036.000000 0 0 1
27.374757 -32.555014 -15.823671 45.382759 -0.871623 1.926950 0.122677 -0.018131 -322996.000000 0 0 1
26.780957 -33.585314 -15.085771 45.527722 -0.897642 1.908534 0.100563 -0.016624 354409.000000 0 0 1
25.220657 -33.545714 -15.174571 44.628064 -0.926125 1.917738 0.098774 -0.018845 487449.000000 0 0 1
24.672257 -32.514514 -14.432071 43.292015 -0.921682 1.910668 0.098758 -0.014353 300203.000000 0 0 1
23.258357 -32.658414 -14.343971 42.582539 -0.951949 1.914367 0.095863 -0.020927 457900.000000 0 0 1
-0.110066 -7.105400 -28.823171 29.686259 1.555307 2.899867 0.169818 -0.040288 209710.000000 0 0 1
0.379434 -8.404300 -28.634021 29.844319 -1.525679 2.855828 0.167426 -0.037508 -151339.000000 0 0 1
-0.038866 -9.207800 -29.680461 31.075953 1.566575 2.840774 0.179489 -0.048711 -32641.900000 0 0 1
0.229534 -10.717200 -29.443291 31.333982 -1.549382 2.792432 0.196462 -0.043536 912842.000000 0 0 1
1.636434 -10.991700 -29.336811 31.371067 -1.423003 2.779493 0.129944 -0.044774 605784.000000 0 0 1
1.893034 -12.120800 -28.587641 31.108689 -1.415867 2.736231 0.156241 -0.044429 965909.000000 0 0 1
3.452434 -12.370800 -28.527381 31.285259 -1.298642 2.718558 0.114900 -0.032687 828892.000000 0 0 1
4.050434 -12.680300 -29.792901 32.631472 -1.261613 2.721402 0.137270 -0.042067 1268210.000000 0 0 1
5.470134 -12.963300 -29.683111 32.848996 -1.171494 2.698950 0.124783 -0.039495 1499530.000000 0 0 1
5.924834 -14.353200 -29.116131 32.997986 -1.179314 2.651652 0.129121 -0.037105 -509626.000000 0 0 1
5.732934 -14.488300 -27.713891 31.793664 -1.194007 2.629416 0.119463 -0.031246 109402.000000 0 0 1
6.342534 -15.643600 -27.151991 31.971558 -1.185609 2.585368 0.115213 -0.019120 -131625.000000 0 0 1
6.038534 -17.093500 -27.603931 33.024667 -1.231216 2.560490 0.089840 -0.028604 -163097.000000 0 0 1
6.622234 -17.406500 -28.868561 34.354534 -1.207260 2.568657 0.113386 -0.046591 333659.000000 0 0 1
6.179634 -18.716000 -29.270171 35.287667 -1.251887 2.548960 0.098246 -0.042794 -67713.000000 0 0 1
6.552634 -19.173900 -30.716961 36.798194 -1.241492 2.558459 0.114146 -0.062907 569444.000000 0 0 1
7.968634 -19.167600 -30.948701 37.265508 -1.176800 2.550786 0.110886 -0.056629 600012.000000 0 0 1
8.216234 -19.713900 -32.224151 38.659284 -1.175914 2.556285 0.112141 -0.051156 855849.000000 0 0 1
9.744534 -19.857300 -32.555571 39.359033 -1.114594 2.544802 0.098746 -0.044926 902052.000000 0 0 1
10.487534 -18.661200 -32.680911 39.067514 -1.058789 2.561704 0.112449 -0.048993 -61739.000000 0 0 1
11.544434 -18.712000 -33.589721 40.145762 -1.018004 2.562015 0.098370 -0.047395 -743314.000000 0 0 1
11.741434 -17.404600 32.992009 39.105677 -0.977310 0.566727 0.098016 -0.042153 -595310.000000 0 0 1
10.714534 -17.040400 32.122452 37.908157 -1.009489 0.559773 0.125567 -0.041418 -396659.000000 0 0 1
10.820034 -15.681800 31.820734 37.088422 -0.966831 0.539493 0.120474 -0.036037 -4629.720000 0 0 1
9.634334 -15.123400 30.999086 35.811743 -1.003580 0.524424 0.174873 -0.044441 80223.500000 0 0 1
9.736034 -15.673100 29.713856 34.976415 -1.014939 0.555684 0.163998 -0.037941 148531.000000 0 0 1
8.883634 -14.977100 28.821566 33.673656 -1.035430 0.543491 0.164718 -0.029213 85855.300000 0 0 1
8.717534 -15.715600 27.463156 32.820731 -1.064347 0.579453 0.112768 -0.016513 -325755.000000 0 0 1
8.428134 -17.088500 27.690916 33.613049 -1.112599 0.602689 0.094470 -0.023674 318817.000000 0 0 1
8.338634 -17.822700 26.512156 33.016297 -1.133185 0.638481 0.073824 -0.012652 -108107.000000 0 0 1
7.810434 -19.209600 26.875726 33.945784 -1.184622 0.657169 0.089715 -0.024542 -531513.000000 0 0 1
8.615034 -19.835000 27.799166 35.219876 -1.161046 0.661123 0.091052 -0.019716 94329.800000 0 0 1
7.964034 -20.974900 28.339546 36.145568 -1.207917 0.669649 0.095230 -0.027683 -57868.900000 0 0 1
8.581434 -21.325200 29.706566 37.561752 -1.188216 0.658563 0.107542 -0.036864 84000.500000 0 0 1
8.067134 -20.519100 30.781436 37.863028 -1.196207 0.621565 0.117855 -0.044833 221692.000000 0 0 1
8.253734 -19.064900 30.710066 37.076983 -1.162230 0.594768 0.122306 -0.049248 -123850.000000 0 0 1
7.644934 -18.207800 31.851524 37.476507 -1.173278 0.554989 0.130043 -0.050260 1017520.000000 0 0 1
6.234134 -18.375000 32.112536 37.519595 -1.243710 0.543533 0.164855 -0.064566 754447.000000 0 0 1
5.771034 -17.321700 32.917171 37.641549 -1.249195 0.506412 0.173865 -0.059306 -4680.890000 0 0 1
4.292034 -17.376300 33.351256 37.850543 -1.328638 0.492549 0.175814 -0.061206 62844.500000 0 0 1
4.171534 -18.415100 -33.068221 38.079191 -1.348028 2.622776 0.154719 -0.059071 312483.000000 0 0 1
3.141534 -18.123200 -32.120901 37.014482 -1.399159 2.621540 0.147673 -0.073453 34610.000000 0 0 1
2.624034 -19.356400 -31.318701 36.910930 -1.436054 2.583929 0.105925 -0.046100 -975695.000000 0 0 1
1.688334 -20.161200 -32.003161 37.861943 -1.487250 2.577847 0.086112 -0.036397 116626.000000 0 0 1
1.054334 -21.145200 -31.198271 37.703623 -1.520976 2.545367 0.090273 -0.041650 297778.000000 0 0 1
0.166434 -20.578200 -30.053241 36.423719 -1.562709 2.541177 0.098893 -0.046584 -274751.000000 0 0 1
-1.083966 -20.041800 -30.523811 36.531517 1.516764 2.559925 0.111955 -0.055043 691877.000000 0 0 1
-1.902666 -19.287000 -29.660211 35.430729 1.472464 2.562816 0.148094 -0.038233 76140.500000 0 0 1
-1.361166 -17.926500 -29.317411 34.390736 1.495011 2.591507 0.146069 -0.037945 -471160.000000 0 0 1
-2.367366 -17.042800 -28.844341 33.586566 1.432772 2.603731 0.172206 -0.039209 -160524.000000 0 0 1
-2.108866 -15.736900 -29.257191 33.287844 1.437582 2.644379 0.183699 -0.046953 87161.500000 0 0 1
-3.212166 -14.665300 -29.056081 32.705425 1.355170 2.664683 0.160848 -0.027327 154898.000000 0 0 1
-3.436166 -14.347600 -27.685371 31.371015 1.335730 2.651978 0.150247 -0.037097 404890.000000 0 0 1
-4.513366 -13.409900 -27.553761 30.974273 1.246136 2.667198 0.140469 -0.038020 424631.000000 0 0 1
-4.696866 -12.853700 -26.142301 29.507593 1.220460 2.659338 0.135780 -0.034253 -301203.000000 0 0 1
-5.068066 -13.864500 -25.252621 29.250718 1.220343 2.612601 0.144815 -0.034193 69627.900000 0 0 1
-4.881766 -13.663400 -23.890071 27.950950 1.227644 2.595796 0.109337 -0.034707 -409531.000000 0 0 1
-5.900566 -12.794400 -23.107571 27.064241 1.138681 2.594046 0.094207 -0.034920 936169.000000 0 0 1
-7.274766 -13.230800 -23.228471 27.704479 1.068079 2.565206 0.099842 -0.033775 855904.000000 0 0 1
-8.132266 -12.103400 -23.081271 27.301485 0.979180 2.578151 0.077702 -0.026035 -729044.000000 0 0 1
-9.543966 -12.478500 -23.435171 28.213604 0.917870 2.551041 0.116423 -0.034143 -762047.000000 0 0 1
-10.402966 -13.173600 -22.547971 28.110077 0.902378 2.501652 0.104449 -0.034930 -668422.000000 0 0 1
-11.441266 -13.743300 -23.235571 29.320174 0.876551 2.485656 0.094225 -0.027288 -867349.000000 0 0 1
-12.114166 -14.855300 -22.477871 29.541287 0.886689 2.435490 0.094533 -0.027911 161804.000000 0 0 1
-11.234666 -15.990300 -22.393771 29.721850 0.958332 2.424082 0.103759 -0.031067 183530.000000 0 0 1
-11.812866 -17.172900 -21.779871 30.146560 0.968252 2.378159 0.120834 -0.031619 449188.000000 0 0 1
-12.701866 -18.099900 -22.683371 31.677738 0.958887 2.368947 0.129683 -0.023143 3504.870000 0 0 1
-13.952266 -17.605600 -23.015071 32.160789 0.900651 2.368315 0.091933 -0.016741 -721146.000000 0 0 1
-14.595866 -18.411700 -24.013271 33.595642 0.900492 2.367096 0.062603 -0.015499 425755.000000 0 0 1
-15.740766 -17.658100 -24.746871 34.234307 0.842742 2.378740 0.068727 -0.019079 466597.000000 0 0 1
-16.886266 -17.486700 -23.922771 34.106152 0.802865 2.348186 0.077690 -0.013299 -197011.000000 0 0 1
-18.016066 -17.116400 -24.647771 35.000891 0.759796 2.352098 0.055313 -0.012030 40305.400000 0 0 1
-18.761966 -15.809600 -24.202071 34.462952 0.700206 2.349368 0.058136 -0.007635 482627.000000 0 0 1
-19.561766 -15.789400 -22.995871 34.070191 0.679089 2.311701 0.064887 -0.011641 590559.000000 0 0 1
-20.070166 -14.510900 -22.722971 33.611176 0.626002 2.313191 0.071669 -0.013132 -357419.000000 0 0 1
-20.821666 -14.392100 -21.409971 33.152091 0.604801 2.272881 0.066866 -0.017892 -427082.000000 0 0 1
-19.964466 -14.182700 -20.319871 31.821785 0.617670 2.263412 0.082543 -0.014578 -68026.500000 0 0 1
-20.482166 -14.413900 -19.027171 31.453344 0.613224 2.220478 0.080268 -0.018857 -438718.000000 0 0 1
-21.251966 -13.300900 -18.302271 31.040830 0.559222 2.201384 0.072590 -0.021467 255291.000000 0 0 1
-22.458566 -12.988200 -19.000471 32.157400 0.524324 2.202919 0.071195 -0.027208 457504.000000 0 0 1
-23.133866 -11.922800 -18.363971 31.852226 0.475878 2.185280 0.076585 -0.024690 -188673.000000 0 0 1
-24.530366 -11.512800 -18.836771 33.001626 0.438811 2.178256 0.101413 -0.026928 -183308.000000 0 0 1
-24.780766 -10.921300 -20.072271 33.708414 0.415107 2.208644 0.089206 -0.031579 -735669.000000 0 0 1
-26.124416 -10.579500 -20.100671 34.618606 0.384780 2.190301 0.108276 -0.036574 -680016.000000 0 0 1
-26.713446 -9.654900 -21.218971 35.455183 0.346816 2.212390 0.103658 -0.024418 78739.300000 0 0 1
-26.623336 -10.191800 -22.496771 36.315004 0.365604 2.238889 0.096647 -0.026374 300558.000000 0 0 1
-27.351096 -9.259200 -23.256071 37.076408 0.326421 2.248810 0.086607 -0.023366 -377819.000000 0 0 1
-27.490826 -9.511200 -24.799471 38.225936 0.333087 2.276751 0.067302 -0.018292 94945.000000 0 0 1
-26.279666 -9.431600 -25.525651 37.830342 0.344576 2.311409 0.070633 -0.026703 333350.000000 0 0 1
-25.518436 -10.629900 -25.676811 37.729086 0.394698 2.319320 0.059631 -0.013693 460206.000000 0 0 1
-24.402866 -10.399300 -26.753961 37.675187 0.402845 2.360467 0.071837 -0.018632 395471.000000 0 0 1
-24.894266 -10.545900 -28.089471 38.986650 0.400708 2.375304 0.072162 -0.012100 449727.000000 0 0 1
-23.892266 -10.162200 -29.022301 38.941040 0.402154 2.411763 0.086879 -0.011570 455503.000000 0 0 1
-24.360266 -10.460300 -30.500321 40.411756 0.405592 2.426052 0.090284 -0.016098 25332.200000 0 0 1
-25.330846 -9.544200 -30.928811 41.101519 0.360332 2.422643 0.077032 -0.024159 817.739000 0 0 1
-24.920966 -8.784500 -32.050781 41.538831 0.338895 2.452127 0.079077 -0.027785 -630395.000000 0 0 1
-26.108736 -8.040900 -32.677291 42.592575 0.298759 2.445270 0.079116 -0.028075 -462701.000000 0 0 1
-27.103996 -8.857500 -33.334141 43.866238 0.315856 2.433962 0.090534 -0.025884 940737.000000 0 0 1
-28.132736 -9.389300 -32.544161 44.031036 0.322125 2.402557 0.080986 -0.020551 -912659.000000 0 0 1
-29.076236 -8.383600 -31.880621 43.955503 0.280718 2.382256 0.061476 -0.016156 -660803.000000 0 0 1
-30.437186 -8.804300 -31.942471 44.991771 0.281576 2.360241 0.067709 -0.019862 442086.000000 0 0 1
-31.337916 -8.047100 -31.158911 44.918799 0.251354 2.337371 0.070259 -0.014752 389046.000000 0 0 1
-32.813196 -8.490700 -31.310371 46.142574 0.253205 2.316593 0.063662 -0.017328 75152.100000 0 0 1
-32.918226 -9.875800 -31.068381 46.329098 0.291466 2.305816 0.057807 -0.015665 -315369.000000 0 0 1
-34.263723 -10.227700 -30.949001 47.291111 0.290080 2.284233 0.048302 -0.018295 -685198.000000 0 0 1
-34.519398 -11.721200 -31.197371 47.981781 0.327339 2.278633 0.053084 -0.018671 -324034.000000 0 0 1
-35.828279 -12.252300 -31.167591 49.042870 0.329506 2.259475 0.074094 -0.022098 -145928.000000 0 0 1
-35.787131 -13.628700 -31.358011 49.495303 0.363869 2.256936 0.074556 -0.023648 553403.000000 0 0 1
-37.011456 -14.562000 -31.014821 50.436285 0.374843 2.233094 0.085266 -0.032589 449481.000000 0 0 1
-37.212976 -14.532200 -29.621201 49.733348 0.372302 2.208809 0.110998 -0.039205 -63869.400000 0 0 1
-37.856196 -15.681500 -29.147611 50.285030 0.392721 2.189093 0.111150 -0.047366 -282399.000000 0 0 1
-37.743986 -15.776400 -27.615061 49.356811 0.395913 2.164577 0.129240 -0.043483 -35804.000000 0 0 1
-36.424936 -15.890600 -27.121151 48.112825 0.411366 2.169654 0.120391 -0.054079 -76262.800000 0 0 1
-36.332696 -15.648100 -25.729161 47.190227 0.406680 2.147451 0.140912 -0.052721 -77649.600000 0 0 1
-34.910496 -15.141700 -25.391601 45.746554 0.409241 2.159219 0.144154 -0.050555 14553.500000 0 0 1
-33.924246 -16.166100 -25.397491 45.356695 0.444700 2.165122 0.139641 -0.049648 -674782.000000 0 0 1
-32.817246 -15.667100 -24.722171 43.972894 0.445408 2.167857 0.126947 -0.030859 139899.000000 0 0 1
-31.558956 -16.633000 -24.765071 43.427331 0.485049 2.177624 0.116825 -0.040136 633702.000000 0 0 1
-31.618946 -17.899200 -24.109771 43.605276 0.515113 2.156648 0.132257 -0.052418 -95330.400000 0 0 1
-32.364306 -18.889900 -24.786971 44.929617 0.528322 2.155179 0.122013 -0.055412 -17961.200000 0 0 1
-32.197776 -20.268500 -24.144071 45.060459 0.561829 2.136269 0.109327 -0.057556 -615202.000000 0 0 1
-30.949996 -20.809700 -24.398071 44.566935 0.591937 2.150108 0.102081 -0.044605 -794062.000000 0 0 1
-30.757896 -21.971200 -23.666671 44.597008 0.620277 2.130197 0.109284 -0.042369 -642875.000000 0 0 1
-29.359756 -22.620000 -23.784671 44.038281 0.656456 2.141341 0.103489 -0.043818 333342.000000 0 0 1
-28.268406 -21.937700 -23.166671 42.626988 0.659966 2.145367 0.107366 -0.046402 72738.700000 0 0 1
-28.320876 -21.764800 -21.776571 41.832972 0.655241 2.118303 0.127807 -0.042729 -816790.000000 0 0 1
-28.080126 -23.001500 -20.909971 41.890206 0.686302 2.093427 0.119149 -0.048717 -131498.000000 0 0 1
-28.240196 -22.856800 -19.522771 41.244158 0.680429 2.063882 0.118409 -0.036627 -13638.300000 0 0 1
-28.170166 -24.093600 -18.833871 41.578534 0.707556 2.040891 0.111261 -0.016658 27736.500000 0 0 1
-28.324776 -23.763400 -17.315471 40.826678 0.698051 2.008788 0.102938 -0.007660 -538645.000000 0 0 1
-29.591826 -23.261300 -17.077871 41.333012 0.666190 1.996737 0.111646 -0.006805 -871530.000000 0 0 1
-29.593806 -22.230100 -16.093671 40.360586 0.644252 1.980947 0.099108 -0.014056 616779.000000 0 0 1
-30.987856 -21.612800 -15.699971 40.912705 0.609019 1.964643 0.112996 0.006438 522094.000000 0 0 1
-31.463916 -20.650100 -16.587471 41.128443 0.580799 1.985926 0.123830 0.000856 -724819.000000 0 0 1
-32.518056 -19.975000 -16.011071 41.385734 0.550849 1.968036 0.126530 -0.007583 -881894.000000 0 0 1
-33.284136 -19.102600 -17.014271 41.978905 0.521026 1.988109 0.136385 -0.030119 -459271.000000 0 0 1
-34.233978 -19.874500 -17.716671 43.368668 0.525994 1.991621 0.076711 -0.020921 -261273.000000 0 0 1
-34.773374 -19.117700 -18.810871 43.914950 0.502674 2.013460 0.081095 -0.022492 -1042620.000000 0 0 1
-36.143576 -19.675800 -19.213871 45.416605 0.498517 2.007614 0.052055 -0.014835 -353330.000000 0 0 1
-37.235616 -19.353700 -18.392571 45.818593 0.479333 1.983865 0.047648 -0.004449 -25525.600000 0 0 1
-37.273906 -19.970500 -17.101671 45.613946 0.491858 1.955109 0.073486 -0.011664 -1103760.000000 0 0 1
-37.535916 -21.481600 -17.049371 46.487473 0.519799 1.946312 0.053774 0.022940 -294015.000000 0 0 1
36.958427 -21.862300 -17.025371 46.192518 -0.534174 1.948271 0.053027 -0.001111 -100561.000000 0 0 1
36.772817 -23.213200 -16.818871 46.625820 -0.563088 1.939836 0.066639 0.005219 -171710.000000 0 0 1
35.345257 -23.476300 -16.326871 45.464168 -0.586293 1.938116 0.053750 -0.002451 251569.000000 0 0 1
34.290477 -23.411700 -17.297371 44.979368 -0.599052 1.965530 0.061574 0.001140 302256.000000 0 0 1
33.072337 -23.628900 -16.637771 43.919469 -0.620366 1.959322 0.076484 -0.003461 -122768.000000 0 0 1
31.823607 -23.933700 -17.482071 43.487777 -0.644827 1.984496 0.083656 -0.020969 158144.000000 0 0 1
31.406827 -22.801700 -18.271071 42.896833 -0.627971 2.010786 0.055366 -0.020957 387685.000000 0 0 1
30.295457 -23.048600 -19.128071 42.602063 -0.650374 2.036435 0.095190 -0.021227 -48173.700000 0 0 1
36.265297 28.534500 -18.093571 49.565782 0.666657 1.944474 0.087886 -0.014243 -793852.000000 0 0 1
35.266997 28.697000 -19.036071 49.291489 0.683043 1.967298 0.085543 -0.025748 -360214.000000 0 0 1
35.733617 28.454100 -20.318671 49.993755 0.672471 1.989333 0.088792 -0.022752 -111189.000000 0 0 1
34.709167 28.765000 -21.427971 49.913019 0.692023 2.014521 0.105896 -0.028575 389404.000000 0 0 1
33.402327 28.142300 -21.354571 48.618126 0.700138 2.025538 0.093214 -0.025066 1120180.000000 0 0 1
32.651817 28.429500 -22.493271 48.788573 0.716382 2.049958 0.116290 -0.021221 -242960.000000 0 0 1
31.922567 29.803600 -22.536271 49.144566 0.751083 2.047183 0.119597 -0.009636 -434493.000000 0 0 1
32.734547 31.024000 -22.589171 50.441152 0.758576 2.035136 0.124133 -0.015724 796186.000000 0 0 1
31.858867 32.146600 -22.689871 50.628268 0.789894 2.035509 0.121005 -0.000378 257968.000000 0 0 1
32.494197 33.452700 -22.113071 51.613408 0.799932 2.013558 0.107178 0.008726 197680.000000 0 0 1
32.693787 33.517500 -20.685771 51.187964 0.797838 1.986806 0.116544 0.001821 527657.000000 0 0 1
33.844637 32.793300 -20.225571 51.282879 0.769623 1.976203 0.112353 0.001998 231567.000000 0 0 1
33.945707 32.813700 -18.693271 50.778817 0.768443 1.947795 0.084002 -0.000648 -50973.800000 0 0 1
34.367777 -33.602714 -18.187871 51.391489 -0.774143 1.932543 0.094705 0.005432 108432.000000 0 0 1
34.476957 -33.542914 -16.756071 50.936760 -0.771667 1.905997 0.067314 -0.013973 -286327.000000 0 0 1
34.406487 -32.036614 -16.295971 49.756503 -0.749746 1.904468 0.073095 0.006131 211558.000000 0 0 1
35.521497 -31.247014 -16.676971 50.162476 -0.721466 1.909706 0.070079 0.009029 -116228.000000 0 0 1
36.603027 -31.304414 -15.773771 50.680960 -0.707529 1.887290 0.075013 0.004151 953393.000000 0 0 1
37.844657 -30.470914 -16.352471 51.264978 -0.677878 1.895449 0.062427 0.006804 705659.000000 0 0 1
-37.310376 -31.065414 -17.373171 51.565019 0.694318 1.914438 0.066842 0.000712 -111293.000000 0 0 1
-36.215416 -30.234414 -17.832771 50.434947 0.695632 1.932192 0.060798 0.002206 309859.000000 0 0 1
-35.336848 -31.015514 -18.782471 50.630388 0.720363 1.950852 0.082008 -0.006553 -797371.000000 0 0 1
-34.703976 -32.053514 -18.039171 50.568818 0.745716 1.935556 0.079727 -0.012520 328785.000000 0 0 1
-33.683916 -32.789414 -18.700671 50.591175 0.771942 1.949421 0.097247 -0.019674 967899.000000 0 0 1
-32.273666 -32.138114 -18.874471 49.302064 0.783294 1.963658 0.086797 -0.020972 -465925.000000 0 0 1
-32.088096 -31.356914 -20.048271 49.140972 0.773874 1.991031 0.090687 -0.014507 980395.000000 0 0 1
-30.702636 -31.010414 -20.266271 48.114648 0.790385 2.005573 0.088853 -0.013131 1299590.000000 0 0 1
-29.881496 -32.181114 -20.868371 48.621156 0.822434 2.014407 0.082953 0.004183 -528924.000000 0 0 1
-30.521186 -32.532614 -22.051171 49.761108 0.817288 2.029895 0.075285 0.013981 -79402.800000 0 0 1
-29.810886 -33.553914 -22.721871 50.307430 0.844401 2.039422 0.069424 0.004366 -39139.700000 0 0 1
-30.605046 33.335200 -23.781271 51.121945 -0.828071 2.054642 0.065069 -0.003557 -705673.000000 0 0 1
-31.468696 32.289500 -23.354071 50.776995 -0.798271 2.048717 0.089573 -0.031024 679789.000000 0 0 1
-32.247786 31.564800 -24.357971 51.279304 -0.774696 2.065767 0.073190 -0.018224 925705.000000 0 0 1
-33.085126 32.443000 -25.331901 52.809838 -0.775599 2.071088 0.072488 -0.030905 -641522.000000 0 0 1
-32.370746 33.142700 -26.312441 53.278967 -0.797181 2.087322 0.071285 -0.024813 -100088.000000 0 0 1
-33.312326 -33.672714 -26.995171 54.518822 0.790778 2.088808 0.064578 -0.027163 722249.000000 0 0 1
-32.655246 -32.804414 -28.140411 54.169894 0.787677 2.117044 0.057880 -0.028153 -52859.000000 0 0 1
-32.607226 -33.462914 -29.429681 55.218692 0.798349 2.132898 0.069841 -0.027803 1383410.000000 0 0 1
-33.882616 -33.518214 -30.158311 56.400585 0.779992 2.134968 0.082090 -0.027017 1418690.000000 0 0 1
-33.872026 33.148100 -31.362251 56.830462 -0.774597 2.155385 0.113918 -0.025565 607620.000000 0 0 1
-33.046546 33.661600 -32.456911 57.259310 -0.794618 2.173462 0.099970 -0.027242 471979.000000 0 0 1
-33.143796 32.870500 -33.600061 57.514738 -0.781258 2.194689 0.093190 -0.038295 -449111.000000 0 0 1
-32.199396 33.200100 32.570589 56.567579 -0.800698 0.957236 0.099361 -0.040733 587930.000000 0 0 1
-30.814086 32.932100 32.776102 55.752166 -0.818612 0.942349 0.098777 -0.032929 518970.000000 0 0 1
-30.423416 31.591900 32.600739 54.648335 -0.804238 0.931595 0.108632 -0.043129 -162875.000000 0 0 1
-28.902786 31.341000 32.367494 53.528347 -0.825849 0.921433 0.105740 -0.036356 128024.000000 0 0 1
-28.186536 31.165100 33.563196 53.779479 -0.835541 0.896831 0.113619 -0.046565 -424273.000000 0 0 1
-26.827596 30.878200 33.401676 52.809612 -0.855477 0.886030 0.105678 -0.042883 -497981.000000 0 0 1
-26.467236 29.443000 33.108816 51.610062 -0.838572 0.874320 0.117724 -0.045560 -604928.000000 0 0 1
-26.763606 28.629800 -33.081981 51.287167 -0.819075 2.271864 0.125325 -0.038609 260166.000000 0 0 1
-26.469746 27.285100 -33.334481 50.559982 -0.800565 2.290691 0.110380 -0.034558 -302852.000000 0 0 1
-26.261356 26.389000 -32.059611 49.131017 -0.787823 2.281719 0.124896 -0.039496 -156905.000000 0 0 1
-25.087506 26.622600 -31.311611 48.151456 -0.815076 2.278741 0.124694 -0.031617 -96668.100000 0 0 1
-25.058536 27.861300 -30.608181 48.384326 -0.838311 2.255709 0.109274 -0.026143 951766.000000 0 0 1
-23.765466 27.995900 -29.684761 47.220259 -0.866946 2.250605 0.123057 -0.023292 857774.000000 0 0 1
-22.504166 28.089300 -30.326041 47.065008 -0.895345 2.270961 0.115849 -0.017709 -327286.000000 0 0 1
-21.474466 28.160500 -29.401001 46.028093 -0.919296 2.263685 0.073251 -0.017443 -359741.000000 0 0 1
-21.247366 29.443000 -28.513891 46.166901 -0.945691 2.236517 0.068414 -0.010027 -775492.000000 0 0 1
-20.847866 30.597500 -29.251731 47.185848 -0.972691 2.239445 0.067914 -0.001822 150594.000000 0 0 1
-20.472266 31.643200 -28.376221 47.176432 -0.996553 2.216163 0.082806 -0.005622 18407.000000 0 0 1
-19.950966 32.808300 -29.238131 48.262759 -1.024437 2.221582 0.078046 0.000860 385696.000000 0 0 1
-18.694266 32.650400 -29.886121 48.048979 -1.050799 2.242082 0.064528 0.003466 186708.000000 0 0 1
-18.318966 33.770500 -30.757011 49.214072 -1.073765 2.245881 0.070370 0.001538 42001.400000 0 0 1
-16.825566 33.743200 -31.154111 48.910958 -1.108241 2.261339 0.061961 0.005405 4840.200000 0 0 1
-16.081366 -33.331714 -30.018841 47.652327 1.121275 2.252292 0.077832 -0.008903 422592.000000 0 0 1
-14.726466 -32.956914 -30.199711 47.064313 1.150573 2.267469 0.104184 -0.010331 825853.000000 0 0 1
-13.767266 33.440400 -30.327591 47.197042 -1.180248 2.268649 0.112104 -0.014097 -761282.000000 0 0 1
-13.811166 32.587900 -29.243631 45.911975 -1.169932 2.261332 0.122598 -0.011595 -122746.000000 0 0 1
-13.212266 31.347100 -29.505761 45.031040 -1.171908 2.285285 0.103592 -0.010600 -40678.000000 0 0 1
-12.938466 30.390700 -28.319191 43.508334 -1.168301 2.279554 0.080486 -0.017673 392248.000000 0 0 1
-12.016466 30.929900 -27.359131 43.006700 -1.200237 2.260307 0.100051 -0.010812 252073.000000 0 0 1
-12.045166 30.204600 -26.147931 41.726708 -1.191337 2.248040 0.078982 -0.025440 -539940.000000 0 0 1
-11.002966 30.660200 -25.148271 41.152748 -1.226243 2.228241 0.102720 -0.018661 122892.000000 0 0 1
-9.690566 30.328400 -25.607191 40.858869 -1.261528 2.248137 0.105306 -0.014745 -317625.000000 0 0 1
-8.739166 30.889700 -24.772171 40.548823 -1.295086 2.228021 0.112525 -0.018376 -136893.000000 0 0 1
-7.275866 30.453100 -25.010971 40.073410 -1.336272 2.244812 0.100731 -0.024066 110893.000000 0 0 1
-6.984566 29.152000 -24.560671 38.753707 -1.335638 2.257205 0.097974 -0.039145 -165689.000000 0 0 1
-5.764466 28.671100 -25.053871 38.509187 -1.372387 2.279164 0.092493 -0.048432 -316224.000000 0 0 1
-5.262266 27.347000 -24.411671 37.033492 -1.380694 2.290522 0.110832 -0.037319 -389722.000000 0 0 1
-5.925066 26.185700 -24.812571 36.557639 -1.348272 2.316821 0.122070 -0.037003 -20124.200000 0 0 1
-5.588466 25.018900 -24.123471 35.201110 -1.351034 2.325818 0.119873 -0.042641 -500785.000000 0 0 1
-6.632566 23.900000 -24.278171 34.707788 -1.300095 2.345497 0.121112 -0.044758 -214811.000000 0 0 1
-6.434066 23.101600 -25.446071 34.965464 -1.299168 2.385830 0.129141 -0.041731 -259357.000000 0 0 1
-7.235166 21.987700 -25.419401 34.379536 -1.252901 2.402939 0.116450 -0.043319 -731709.000000 0 0 1
-7.176766 21.025500 -26.674401 34.714569 -1.241860 2.447121 0.108509 -0.031631 -437899.000000 0 0 1
-6.005366 20.305000 -26.896911 34.231583 -1.283236 2.474678 0.136831 -0.045592 -666930.000000 0 0 1
-5.832066 19.189300 -25.994211 32.832015 -1.275745 2.484438 0.126035 -0.043268 -594236.000000 0 0 1
-4.640866 18.284600 -26.300491 32.366341 -1.322232 2.519375 0.138125 -0.048731 -198329.000000 0 0 1
-4.710966 17.726500 -27.570821 33.114531 -1.311042 2.554563 0.140173 -0.054680 -274269.000000 0 0 1
-3.878166 16.606400 -27.702621 32.530722 -1.341374 2.589795 0.127192 -0.050011 -266924.000000 0 0 1
-3.475966 16.508200 -29.152591 33.681992 -1.363268 2.616993 0.118056 -0.050328 -836688.000000 0 0 1
-2.510066 17.395900 -29.519641 34.355887 -1.427495 2.604561 0.123748 -0.055501 -645560.000000 0 0 1
-2.001366 17.123900 -30.826911 35.320417 -1.454449 2.631663 0.110934 -0.063265 48247.600000 0 0 1
-1.070266 18.263400 -31.313971 36.266541 -1.512262 2.612845 0.119712 -0.042982 43479.100000 0 0 1
0.202734 18.239900 -30.697001 35.707715 1.559682 2.605428 0.133194 -0.049157 769031.000000 0 0 1
1.146634 19.199400 -31.304691 36.741195 1.511145 2.590652 0.122147 -0.024181 798991.000000 0 0 1
1.065234 20.653700 -30.749921 37.057626 1.519266 2.549521 0.131992 -0.033198 -75875.100000 0 0 1
1.630834 20.786600 -29.452641 36.086014 1.492501 2.525563 0.152465 -0.053978 -250149.000000 0 0 1
1.528134 22.186200 -29.047821 36.583310 1.502027 2.488187 0.163270 -0.061639 421095.000000 0 0 1
2.536634 22.568200 -27.864651 35.947141 1.458868 2.457759 0.172698 -0.063919 176161.000000 0 0 1
3.835634 22.401600 -28.368771 36.350116 1.401219 2.466152 0.151486 -0.060269 -796016.000000 0 0 1
4.871934 22.679800 -27.461661 35.947905 1.359198 2.440177 0.141898 -0.061149 -310.373000 0 0 1
5.231334 24.149700 -27.129161 36.695589 1.357471 2.402831 0.151929 -0.057684 -816888.000000 0 0 1
5.758934 24.789600 -28.233801 38.011013 1.342533 2.408009 0.143228 -0.062382 -8237.910000 0 0 1
6.038734 26.149300 -27.903441 38.715039 1.343842 2.375664 0.146217 -0.064981 27370.200000 0 0 1
7.142734 26.680900 -28.879011 39.961060 1.309220 2.378466 0.161556 -0.059623 1879250.000000 0 0 1
8.503334 26.176600 -28.652271 39.730010 1.256705 2.376293 0.154099 -0.057824 1538840.000000 0 0 1
9.357634 26.847700 -29.549221 41.006350 1.235418 2.375465 0.158627 -0.055705 -396549.000000 0 0 1
10.850734 26.686500 -29.254921 41.057985 1.184613 2.363889 0.150760 -0.048325 89881.800000 0 0 1
11.729634 27.402300 -30.117271 42.373581 1.166343 2.361368 0.156693 -0.046511 72229.500000 0 0 1
13.003934 27.614100 -29.560801 42.490961 1.130685 2.340185 0.135887 -0.053345 257784.000000 0 0 1
14.009234 28.431400 -30.423471 43.933936 1.112975 2.335720 0.144465 -0.054078 14556.900000 0 0 1
13.710634 29.801200 -30.481891 44.779891 1.139600 2.319521 0.148663 -0.054275 12194.500000 0 0 1
14.425134 30.520400 -31.463701 46.146980 1.129276 2.321037 0.186628 -0.055982 -49297.800000 0 0 1
14.091334 32.054400 -31.469371 47.078356 1.156619 2.302915 0.188279 -0.056116 211902.000000 0 0 1
12.818234 32.314200 -32.018671 47.262141 1.193160 2.315114 0.170590 -0.055217 -256.566000 0 0 1
12.249234 33.556400 -31.662021 47.734257 1.220791 2.296013 0.168095 -0.047792 469242.000000 0 0 1
10.939134 -33.769914 -32.438071 48.086382 -1.257531 2.311191 0.131259 -0.039841 336304.000000 0 0 1
11.219534 -33.239314 33.643886 48.607006 -1.245266 0.806317 0.111377 -0.029496 450217.000000 0 0 1
10.066734 -33.148214 32.810886 47.714751 -1.275959 0.812554 0.121961 -0.032441 278392.000000 0 0 1
10.396734 -32.222714 31.649033 46.347132 -1.258689 0.819113 0.118712 -0.019366 89450.100000 0 0 1
10.358934 -30.805514 31.946929 45.572947 -1.246406 0.793989 0.102309 -0.023089 67422.800000 0 0 1
10.508634 -30.028714 30.812776 44.289753 -1.234164 0.801390 0.114860 -0.022666 -76286.400000 0 0 1
9.875834 -28.619614 30.915686 43.271169 -1.238518 0.774939 0.117376 -0.030756 1505020.000000 0 0 1
8.421434 -28.594614 30.862036 42.907316 -1.284383 0.768042 0.089770 -0.026092 1003870.000000 0 0 1
7.881134 -28.044114 32.013397 43.283278 -1.296836 0.738283 0.094253 -0.036502 -325428.000000 0 0 1
6.353134 -27.821914 31.955482 42.843600 -1.346296 0.728966 0.095402 -0.038255 504658.000000 0 0 1
5.437034 -28.923214 31.824922 43.346733 -1.384983 0.746317 0.125609 -0.050173 357646.000000 0 0 1
5.648634 -29.856814 30.749446 43.230369 -1.383816 0.779461 0.129420 -0.041806 -1000840.000000 0 0 1
5.356434 -29.204614 29.345556 41.746407 -1.389402 0.791262 0.110036 -0.048264 -325588.000000 0 0 1
4.002534 -28.903514 29.136526 41.235549 -1.433192 0.786132 0.159615 -0.050145 -141671.000000 0 0 1
3.788934 -28.202714 27.923426 39.868118 -1.437250 0.794846 0.175651 -0.040699 792374.000000 0 0 1
2.369234 -28.397614 27.235216 39.418203 -1.487558 0.808022 0.161347 -0.041830 1032340.000000 0 0 1
2.123834 -29.694414 26.675086 39.972855 -1.499395 0.840178 0.176548 -0.045316 137530.000000 0 0 1
1.800234 -30.716514 27.565266 41.310882 -1.512255 0.840267 0.218640 -0.053407 -673662.000000 0 0 1
2.119834 -32.109014 26.934146 41.963445 -1.504872 0.873891 0.229014 -0.054556 786741.000000 0 0 1
3.509434 -32.482914 26.874626 42.304862 -1.463174 0.882450 0.191654 -0.046965 1145740.000000 0 0 1
4.181834 -32.006414 25.720046 41.272497 -1.440876 0.897999 0.188882 -0.057056 -209689.000000 0 0 1
5.703034 -31.836614 25.887426 41.427689 -1.393542 0.895816 0.193437 -0.038008 -7197.060000 0 0 1
6.413134 -31.637914 24.674446 40.631443 -1.370802 0.918171 0.152385 -0.043475 -109908.000000 0 0 1
7.787934 -31.605414 24.961806 41.020067 -1.329198 0.916594 0.120349 -0.043755 -100038.000000 0 0 1
8.676834 -31.357214 23.689586 40.246227 -1.300842 0.941450 0.105006 -0.028024 1384520.000000 0 0 1
10.003734 -30.784014 23.862226 40.213630 -1.256596 0.935537 0.089950 -0.003186 1624250.000000 0 0 1
10.673634 -30.677514 22.590346 39.564631 -1.235967 0.963105 0.087433 -0.015268 66869.800000 0 0 1
11.852334 -29.694014 22.556966 39.128366 -1.191024 0.956374 0.045029 -0.016633 -125664.000000 0 0 1
12.940534 -30.116314 23.347386 40.243636 -1.164964 0.951882 0.034749 -0.006686 388292.000000 0 0 1
14.100234 -29.313914 23.068586 39.878338 -1.122457 0.953940 0.040010 -0.013221 386937.000000 0 0 1
15.302434 -29.705814 23.936966 41.104479 -1.095116 0.949187 0.058469 -0.012759 -411788.000000 0 0 1
15.251634 -29.146714 25.233296 41.459167 -1.088706 0.916463 0.054905 -0.004746 150714.000000 0 0 1
16.479634 -29.029714 25.917646 42.261413 -1.054479 0.910603 0.064669 -0.009186 -149499.000000 0 0 1
-11.295266 -13.571100 25.295406 30.848263 0.876666 0.609395 0.104601 -0.048161 -405000.000000 0 0 1
-9.953066 -13.673200 24.916576 30.114044 0.941573 0.596321 0.121668 -0.043777 -1167580.000000 0 0 1
-9.299266 -14.102000 26.053536 31.050434 0.987821 0.575222 0.119706 -0.043863 232662.000000 0 0 1
-7.738166 -14.041000 25.909796 30.468777 1.067100 0.554104 0.122843 -0.042923 418015.000000 0 0 1
-7.200066 -15.132100 25.174866 30.242276 1.126684 0.587301 0.133191 -0.048317 -37971.800000 0 0 1
-7.236466 -15.022200 23.767956 29.033578 1.121881 0.611763 0.160198 -0.051479 -123863.000000 0 0 1
-6.496666 -16.208400 22.987476 28.867680 1.189582 0.649635 0.175769 -0.051714 727364.000000 0 0 1
-7.242666 -17.457700 22.932506 29.717458 1.177538 0.689311 0.188827 -0.059315 277330.000000 0 0 1
-7.467366 -18.072800 24.210336 31.121183 1.178978 0.679420 0.187974 -0.057978 -378331.000000 0 0 1
-8.280466 -19.374200 24.175456 32.068339 1.166898 0.716859 0.189465 -0.051518 -548438.000000 0 0 1
-9.603866 -19.301300 23.775436 32.094326 1.109090 0.736538 0.166375 -0.052581 -1081080.000000 0 0 1
-10.155966 -20.487800 23.281346 32.633030 1.110588 0.776417 0.149456 -0.050502 664429.000000 0 0 1
-11.718366 -20.313000 23.270706 33.037309 1.047543 0.789252 0.121645 -0.044660 631819.000000 0 0 1
-12.199866 -20.489900 24.573436 34.242174 1.033760 0.770394 0.115264 -0.047213 243763.000000 0 0 1
-13.612766 -20.334800 24.678876 34.754257 0.980882 0.781161 0.094460 -0.031962 747740.000000 0 0 1
-14.206366 -20.082200 26.111406 35.873682 0.955114 0.755585 0.087348 -0.029220 76877.400000 0 0 1
-14.148366 -21.257200 26.922946 37.106466 0.983546 0.758949 0.082666 -0.026469 -126316.000000 0 0 1
-13.107666 -21.246000 27.871196 37.416667 1.018009 0.730431 0.108659 -0.035211 99337.000000 0 0 1
-12.719366 -22.650600 28.400096 38.488925 1.059131 0.740877 0.118822 -0.033219 180349.000000 0 0 1
-13.765666 -23.174000 29.221136 39.754278 1.034790 0.745065 0.076959 -0.019246 343524.000000 0 0 1
-13.524466 -24.491400 29.643276 40.761055 1.066256 0.756497 0.082626 -0.015989 43868.400000 0 0 1
-14.736866 -25.021740 30.427696 42.060758 1.038532 0.762050 0.064435 -0.027650 76791.100000 0 0 1
-14.840766 -24.412100 31.723189 42.691447 1.024569 0.733134 0.115037 -0.028951 -306770.000000 0 0 1
-15.936366 -24.875300 32.464115 43.893816 1.001022 0.738312 0.097258 -0.026000 -404776.000000 0 0 1
-15.967266 -24.388000 -33.420521 44.347033 0.991111 2.424338 0.087124 -0.026653 52782.100000 0 0 1
-15.958666 -23.022900 -33.033421 43.312121 0.964672 2.438248 0.099434 -0.034446 135233.000000 0 0 1
-16.940966 -22.227100 33.655226 43.746023 0.919548 0.693001 0.077862 -0.033016 -230399.000000 0 0 1
-16.689566 -20.718700 -33.477571 42.761593 0.892692 2.470092 0.063682 -0.026665 -73280.900000 0 0 1
-17.020866 -20.468800 -32.155941 41.745493 0.877110 2.450085 0.057094 -0.022450 122866.000000 0 0 1
-16.989366 -19.078800 -31.889001 40.860097 0.843264 2.466171 0.046446 -0.023999 -147715.000000 0 0 1
-17.036166 -18.812000 -30.350111 39.563259 0.834895 2.445149 0.056065 -0.012288 711193.000000 0 0 1
-18.310366 -19.203300 -29.790311 39.893594 0.809197 2.413950 0.057190 -0.008113 914367.000000 0 0 1
-18.395466 -19.080800 -28.381901 38.833006 0.803683 2.390393 0.047655 -0.003612 138514.000000 0 0 1
-17.627366 -20.167000 -27.548561 38.423367 0.852493 2.370248 0.039392 -0.004709 -375758.000000 0 0 1
-16.245666 -20.010500 -27.513281 37.700429 0.888867 2.388807 0.045382 -0.012739 -751407.000000 0 0 1
-15.611266 -21.135000 -26.962301 37.647915 0.934602 2.369095 0.044869 -0.018680 349591.000000 0 0 1
-14.084966 -21.210800 -27.269181 37.308076 0.984610 2.390464 0.163916 -0.025670 151799.000000 0 0 1
-13.355866 -20.235700 -26.562561 35.964320 0.987413 2.401759 0.160919 -0.030302 592809.000000 0 0 1
-11.941366 -20.319500 -26.750561 35.652080 1.039485 2.419346 0.135953 -0.046309 864278.000000 0 0 1
-11.098066 -21.291200 -25.882191 35.303966 1.090293 2.393701 0.191404 -0.058270 -397629.000000 0 0 1
-11.189866 -22.646000 -26.224091 36.410951 1.111863 2.374923 0.198419 -0.060998 165824.000000 0 0 1
-10.452466 -23.440800 -25.300771 36.039619 1.151350 2.349036 0.255411 -0.064526 165833.000000 0 0 1
-10.394866 -24.955400 -25.637771 37.257489 1.176115 2.329697 0.245635 -0.064272 -196197.000000 0 0 1
-9.557166 -25.290660 -26.701851 37.999286 1.209492 2.349972 0.248365 -0.069080 -271030.000000 0 0 1
-9.840866 -26.510840 -27.255051 39.274738 1.215360 2.337769 0.240625 -0.058073 -226061.000000 0 0 1
-9.814866 -27.857510 -26.456601 39.652543 1.232053 2.301254 0.251077 -0.054206 -10272.000000 0 0 1
-10.825366 -28.002220 -25.460311 39.364200 1.201904 2.274162 0.210292 -0.057816 319236.000000 0 0 1
-10.573766 -29.078660 -24.612471 39.536650 1.222034 2.242759 0.204751 -0.061399 -286935.000000 0 0 1
-11.480266 -29.119980 -23.365071 39.060162 1.195265 2.212026 0.214332 -0.061929 -68752.600000 0 0 1
-11.275766 -28.053520 -22.453171 37.660161 1.188621 2.209562 0.210807 -0.067096 133590.000000 0 0 1
-12.193766 -26.989000 -22.724371 37.329493 1.146442 2.225282 0.192306 -0.060294 87541.400000 0 0 1
-12.213366 -25.792990 -21.787671 35.904696 1.128560 2.222849 0.208297 -0.064410 -35440.900000 0 0 1
-12.675566 -26.100660 -20.473571 35.511709 1.118701 2.185272 0.142970 -0.047054 203940.000000 0 0 1
-12.579366 -25.011850 -19.621571 34.188289 1.104802 2.182089 0.138983 -0.041634 26964.300000 0 0 1
-13.116666 -25.324040 -18.196071 33.829734 1.092890 2.138707 0.162237 -0.040971 -70612.800000 0 0 1
-14.507866 -25.457170 -18.078871 34.429511 1.052808 2.123627 0.179552 -0.043558 -166653.000000 0 0 1
-14.993866 -26.043160 -16.925871 34.489814 1.048413 2.083746 0.157745 -0.035752 -326421.000000 0 0 1
-16.511766 -26.041670 -16.732571 35.082558 1.005714 2.067976 0.142054 -0.042778 -1274460.000000 0 0 1
-17.191366 -24.812300 -16.798271 34.545263 0.964881 2.078611 0.115285 -0.032016 186183.000000 0 0 1
-18.534166 -24.926600 -16.363971 35.108834 0.931436 2.055666 0.116511 -0.031876 166127.000000 0 0 1
-19.592566 -25.604560 -17.261571 36.570807 0.917639 2.062359 0.112183 -0.025028 -1042640.000000 0 0 1
-19.517766 -26.951340 -17.508671 37.601482 0.944022 2.055151 0.096162 -0.025526 -50349.600000 0 0 1
-19.791666 -27.828510 -16.456771 37.907272 0.952592 2.019871 0.094702 -0.036340 -137251.000000 0 0 1
-21.259966 -28.301430 -16.252071 38.949799 0.926529 2.001221 0.106301 -0.028508 499716.000000 0 0 1
-21.765066 -29.182860 -17.234671 40.278918 0.929978 2.012946 0.082740 -0.025351 447199.000000 0 0 1
-23.160466 -29.443270 -17.076171 41.169272 0.904272 1.998497 0.089887 -0.023640 696826.000000 0 0 1
-23.794966 -30.510610 -18.042871 42.692422 0.908437 2.007136 0.071046 -0.022891 128138.000000 0 0 1
-23.261466 -31.862310 -17.840771 43.296601 0.940178 1.995509 0.069966 -0.032221 292572.000000 0 0 1
-23.621966 -32.653300 -18.941371 44.531009 0.944526 2.010148 0.055263 0.001060 196843.000000 0 0 1
-22.857966 33.600541 -18.969771 44.847911 -0.973424 2.007528 0.038331 -0.011657 408272.000000 0 0 1
-23.422266 32.700157 -18.000271 44.067137 -0.949232 1.991578 0.053868 -0.016730 303845.000000 0 0 1
-22.595266 31.559805 -17.885471 42.737073 -0.949445 2.002590 0.058815 -0.019068 103383.000000 0 0 1
-23.363666 30.268735 -17.508171 42.054646 -0.913442 2.000190 0.081204 -0.033782 387760.000000 0 0 1
-24.110266 30.161085 -16.281771 41.905752 -0.896432 1.969835 0.077895 -0.039214 214297.000000 0 0 1
-24.647266 28.895115 -15.953971 41.193987 -0.864569 1.968485 0.081824 -0.030119 -309679.000000 0 0 1
-23.729666 27.665655 -15.793271 39.722952 -0.861832 1.979680 0.093674 -0.034003 -318966.000000 0 0 1
-23.300666 27.182745 -17.046971 39.653775 -0.862145 2.015173 0.064385 -0.020824 -46176.800000 0 0 1
-22.805066 25.840605 -16.891371 38.381327 -0.847718 2.026499 0.072398 -0.018310 259262.000000 0 0 1
-21.952966 25.353385 -18.102871 38.110901 -0.857156 2.065766 0.066489 -0.012984 -688776.000000 0 0 1
-21.515666 23.983145 -18.095571 36.953549 -0.839577 2.082524 0.083906 -0.023933 421232.000000 0 0 1
-20.551566 23.592925 -19.061271 36.637754 -0.854185 2.117955 0.072740 -0.014897 134786.000000 0 0 1
-19.214666 24.342445 -19.123471 36.434395 -0.902584 2.123364 0.061251 -0.021116 -1789630.000000 0 0 1
-18.325966 23.900185 -18.131571 35.154142 -0.916648 2.112706 0.088653 -0.026486 -294102.000000 0 0 1
-17.136866 24.649515 -18.139471 35.075791 -0.963285 2.114315 0.109441 -0.038999 -387757.000000 0 0 1
-17.104566 25.974295 -17.284571 35.580705 -0.988456 2.078057 0.125247 -0.046721 -495421.000000 0 0 1
-17.952666 26.989255 -17.789471 36.975443 -0.983825 2.072723 0.091802 -0.036157 92452.100000 0 0 1
-17.696166 28.164965 -17.099171 37.400550 -1.009824 2.045630 0.112565 -0.049183 358353.000000 0 0 1
-18.793566 29.274535 -17.373371 38.884836 -1.000082 2.033971 0.098730 -0.041675 576512.000000 0 0 1
-18.848966 29.790295 -18.691971 39.901566 -1.006664 2.058334 0.062088 -0.040916 -238410.000000 0 0 1
-19.686566 29.063775 -19.509171 40.160573 -0.975429 2.078051 0.048813 -0.028296 -641570.000000 0 0 1
-19.993166 29.456445 -20.967271 41.316283 -0.974484 2.103056 0.048623 -0.025927 56660.800000 0 0 1
-20.780866 30.605925 -21.184371 42.630325 -0.974316 2.090856 0.058510 -0.019590 88639.900000 0 0 1
-21.124466 30.725505 -22.583771 43.592733 -0.968494 2.115381 0.053017 -0.016500 23899.300000 0 0 1
-21.861266 32.019763 -23.028371 45.094190 -0.971746 2.106763 0.058876 -0.011885 -314926.000000 0 0 1
-21.308966 33.179672 -22.527471 45.414200 -0.999903 2.089834 0.035369 -0.014156 -292481.000000 0 0 1
-21.515266 -33.417950 -23.490371 46.167776 0.998775 2.104592 0.051024 -0.004406 -694056.000000 0 0 1
-20.383266 -32.385500 -23.632171 44.975300 1.009043 2.124038 0.063915 -0.011620 -108149.000000 0 0 1
-20.255366 -31.552300 -22.504871 43.729814 1.000093 2.111378 0.056344 -0.019594 252527.000000 0 0 1
-19.569466 -32.219100 -21.454171 43.374138 1.024963 2.088206 0.060892 -0.032342 -680567.000000 0 0 1
-19.455366 -31.400680 -20.153671 42.079501 1.016101 2.070246 0.089495 -0.036806 104108.000000 0 0 1
-18.590566 -30.283480 -20.322071 40.935130 1.020230 2.090296 0.104251 -0.042206 239706.000000 0 0 1
-18.340266 -29.753350 -19.004971 39.784621 1.018398 2.068827 0.102490 -0.039299 6760.110000 0 0 1
-17.086466 -28.852820 -19.081171 38.581389 1.036136 2.088136 0.118594 -0.040076 897781.000000 0 0 1
-15.817366 -29.521440 -19.169271 38.589706 1.078926 2.090641 0.132470 -0.049504 861587.000000 0 0 1
-14.835066 -28.718810 -19.818271 37.915868 1.093987 2.120800 0.123520 -0.050343 -17616.300000 0 0 1
-13.581766 -29.532000 -20.284571 38.315365 1.139740 2.128702 0.205542 -0.064304 965131.000000 0 0 1
-12.644566 -30.056030 -19.309271 37.895882 1.172574 2.105440 0.195967 -0.055185 880249.000000 0 0 1
-11.981166 -28.999450 -18.571771 36.461309 1.179004 2.105232 0.159443 -0.047505 -539262.000000 0 0 1
-11.012166 -29.483880 -17.459071 35.991473 1.213343 2.077261 0.159109 -0.029357 -106811.000000 0 0 1
-11.541066 -30.064790 -16.291171 36.090027 1.204269 2.039134 0.182505 -0.045735 -131057.000000 0 0 1
-12.085266 -31.332540 -16.517071 37.424528 1.202670 2.027892 0.187520 -0.043454 128350.000000 0 0 1
-13.085866 -31.907280 -15.448271 37.788404 1.181595 1.991946 0.177974 -0.056386 344382.000000 0 0 1
-12.417866 -32.395020 -14.307871 37.528068 1.204746 1.961953 0.164705 -0.049016 -289944.000000 0 0 1
-13.372766 -32.669200 -13.355171 37.742126 1.182265 1.932484 0.165039 -0.049991 -410411.000000 0 0 1
-12.831366 -33.161820 -12.007671 37.530446 1.201606 1.896468 0.134248 -0.046119 -219435.000000 0 0 1
-12.194766 -32.269790 -11.166871 36.259490 1.209485 1.883856 0.114031 -0.040029 -60724.800000 0 0 1
-11.991366 -32.836310 -9.889571 36.329323 1.220657 1.846496 0.108036 -0.041637 -643879.000000 0 0 1
-10.698766 -32.420960 -9.173071 35.351484 1.252053 1.833282 0.106861 -0.042233 -69175.000000 0 0 1
-9.567466 -32.922570 -9.860971 35.674511 1.287981 1.850858 0.079987 -0.030199 75967.200000 0 0 1
-8.362866 -32.302140 -9.403571 34.666885 1.317463 1.845493 0.075155 -0.039261 1254090.000000 0 0 1
-7.076566 -32.959670 -10.019971 35.168415 1.359303 1.859713 0.069678 -0.043055 633220.000000 0 0 1
-6.409166 33.635594 -9.353571 35.495350 -1.382506 1.837461 0.060204 -0.022412 -225606.000000 0 0 1
-5.229666 33.288349 -10.040471 35.160697 -1.414968 1.860387 0.063752 -0.018019 61940.700000 0 0 1
-4.248166 32.472457 -9.178771 34.011133 -1.440711 1.844060 0.072881 -0.025640 -93377.100000 0 0 1
-3.766366 33.103123 -8.051571 34.275794 -1.457507 1.807918 0.092906 -0.026962 173129.000000 0 0 1
-2.987166 32.232183 -7.186071 33.158353 -1.478384 1.789249 0.095489 -0.038501 563594.000000 0 0 1
-2.630266 32.792517 -5.810371 33.407003 -1.490758 1.745612 0.110630 -0.032318 -363210.000000 0 0 1
-1.586266 33.739835 -5.794671 34.270554 -1.523816 1.740699 0.097612 -0.033329 -54148.600000 0 0 1
-1.113966 -33.533520 -4.508471 33.853570 1.537589 1.704369 0.103642 -0.039419 389289.000000 0 0 1
-0.190566 33.097611 -3.731471 33.307837 -1.565039 1.683062 0.112007 -0.042986 -452777.000000 0 0 1
1.108434 33.030679 -4.260571 33.322767 1.537251 1.699005 0.113056 -0.047974 -65388.900000 0 0 1
1.938334 32.273107 -3.348071 32.504156 1.510808 1.673984 0.104652 -0.040723 -33329.200000 0 0 1
3.365634 32.081141 -3.848371 32.485951 1.466269 1.689538 0.090923 -0.035232 -385153.000000 0 0 1
4.172634 33.239318 -3.852171 33.720948 1.445916 1.685283 0.078472 -0.028341 384416.000000 0 0 1
5.498134 32.929134 -4.337571 33.665588 1.405354 1.699998 0.073287 -0.020847 1069280.000000 0 0 1
6.385734 -33.473540 -3.931571 34.303246 -1.382292 1.685661 0.075228 -0.017771 -6999.030000 0 0 1
5.972934 -32.230270 -4.461971 33.081345 -1.387555 1.706087 0.075731 -0.021839 -341360.000000 0 0 1
6.548034 -31.150150 -3.764971 32.052825 -1.363604 1.688530 0.068310 -0.028475 17055.600000 0 0 1
6.342434 -29.779730 -4.477971 30.775168 -1.360953 1.716821 0.061773 -0.022760 489258.000000 0 0 1
7.376334 -29.627360 -5.466071 31.017232 -1.326787 1.747948 0.062176 -0.026907 398079.000000 0 0 1
7.171234 -28.515770 -6.315471 30.074256 -1.324422 1.782367 0.052983 -0.019431 169283.000000 0 0 1
7.786134 -27.182550 -5.788871 28.862188 -1.291827 1.772735 0.047195 -0.014300 291541.000000 0 0 1
6.973934 -26.581460 -4.786771 27.894855 -1.314218 1.743250 0.041427 -0.016065 -190245.000000 0 0 1
7.322434 -25.265960 -4.522871 26.691630 -1.288710 1.741067 0.040034 -0.009255 -148054.000000 0 0 1
6.426834 -24.607100 -3.442071 25.664400 -1.315325 1.705320 0.043110 -0.017265 -92701.600000 0 0 1
5.236234 -24.155300 -4.019871 25.041086 -1.357325 1.732025 0.029248 -0.016415 -224593.000000 0 0 1
4.332534 -23.498800 -3.117371 24.097353 -1.388471 1.700526 0.038775 -0.018390 867497.000000 0 1 0
3.057234 -22.913100 -3.782671 23.423608 -1.438152 1.732996 0.048555 -0.015068 228892.000000 0 1 0
2.079734 -23.845100 -4.139871 24.290998 -1.483798 1.742061 0.064781 -0.019264 -839570.000000 0 1 0
0.899134 -23.116300 -4.382671 23.545266 -1.531920 1.758026 0.079677 -0.023209 107055.000000 0 1 0
-15.738566 23.177500 17.783366 33.183536 -0.974273 1.005212 0.036971 -0.019825 -114883.000000 0 0 1
-15.877566 22.359200 18.972466 33.346445 -0.953315 0.965568 0.054309 -0.019643 329677.000000 0 0 1
-15.625166 23.144400 20.131766 34.425239 -0.976967 0.946167 0.062847 -0.015657 -936139.000000 0 0 1
-15.510866 22.277200 21.450466 34.597443 -0.962581 0.902052 0.081834 -0.017809 1078100.000000 0 0 1
-14.215366 21.635800 21.691366 33.774248 -0.989495 0.873372 0.079431 -0.021887 2330080.000000 0 0 1
-13.026566 22.451900 21.798066 33.895942 -1.045064 0.872273 0.049652 -0.017492 405144.000000 0 0 1
-13.012566 23.494500 22.955836 35.331131 -1.064998 0.863562 0.070059 -0.010823 -633325.000000 0 0 1
-12.606466 22.939000 24.243176 35.677055 -1.068287 0.823692 0.068540 -0.008282 263026.000000 0 0 1
-12.595566 23.947800 25.207436 36.980539 -1.086598 0.820794 0.088495 -0.017404 -234599.000000 0 0 1
-11.931466 23.498400 26.525026 37.391332 -1.100963 0.782164 0.085386 -0.017482 -1063650.000000 0 0 1
-10.579666 23.283100 26.422886 36.772285 -1.144296 0.769075 0.050905 -0.012418 -1153570.000000 0 0 1
-10.132866 22.588600 27.589486 37.068849 -1.149121 0.731345 0.042213 -0.017609 1246350.000000 0 0 1
-8.583966 22.177600 27.667166 36.482907 -1.201498 0.710003 0.050270 -0.026733 2626030.000000 0 0 1
-7.569166 23.150300 27.988106 37.102058 -1.254795 0.716126 0.046331 -0.024241 497467.000000 0 0 1
-7.457966 24.238400 27.027956 37.062538 -1.272298 0.753567 0.048747 -0.018177 -824368.000000 0 0 1
-6.472066 25.289200 27.541626 37.946969 -1.320252 0.758611 0.059836 -0.025172 339832.000000 0 0 1
-5.115466 24.831700 27.398086 37.328761 -1.367633 0.746652 0.073589 -0.023032 274192.000000 0 0 1
-4.283066 25.854200 27.929546 38.299398 -1.406625 0.753582 0.097292 -0.018253 -469090.000000 0 0 1
-2.803266 25.488400 27.937186 37.921013 -1.461255 0.742589 0.096619 -0.021709 -819528.000000 0 0 1
-2.211866 25.342700 26.675886 36.861195 -1.483739 0.761670 0.095471 -0.022139 278532.000000 0 0 1
-0.853766 24.951800 26.919046 36.714524 -1.536593 0.747782 0.110818 -0.011695 792939.000000 0 0 1
-0.106366 24.797400 25.559496 35.611939 -1.566507 0.770270 0.108484 -0.018701 233061.000000 0 0 1
-0.401566 23.543600 24.921726 34.286364 -1.553742 0.757043 0.093894 -0.008493 332786.000000 0 0 1
0.364434 23.513700 23.679446 33.372789 1.555299 0.781946 0.096421 -0.000144 438497.000000 0 0 1
0.049834 22.413500 22.699596 31.900456 1.568573 0.779058 0.056593 -0.003570 -81862.800000 0 0 1
0.398934 21.115400 23.130996 31.321913 1.551906 0.739965 0.074324 -0.002723 -122430.000000 0 0 1
0.047734 20.136300 22.190166 29.964584 1.568426 0.736913 0.063682 -0.002912 71604.200000 0 0 1
0.827634 18.802300 22.386456 29.246622 1.526807 0.699076 0.064968 0.002883 -417783.000000 0 0 1
2.113634 18.849300 21.872266 28.950986 1.459130 0.714390 0.069175 -0.001993 -559052.000000 0 0 1
2.863234 17.672500 22.295076 28.593457 1.410176 0.676567 0.052650 -0.004192 -152924.000000 0 0 1
4.272734 17.557100 21.736166 28.266038 1.332075 0.693544 0.066159 -0.010076 -353644.000000 0 0 1
5.165534 18.483200 22.314656 29.432215 1.298277 0.710293 0.060855 -0.006901 -206619.000000 0 0 1
6.382434 18.584300 21.574466 29.181660 1.239985 0.738742 0.079469 -0.024759 694938.000000 0 0 1
7.564934 19.170300 22.405736 30.442497 1.194939 0.743651 0.094831 -0.033753 -332914.000000 0 0 1
7.309234 20.439400 23.072216 31.678402 1.227362 0.754920 0.073938 -0.023448 41700.600000 0 0 1
6.975334 21.482700 22.172866 31.651188 1.256840 0.794645 0.094409 -0.032634 148293.000000 0 0 1
6.004934 22.566700 22.721376 32.581837 1.310726 0.799084 0.072865 -0.019087 136846.000000 0 0 1
5.740534 23.658900 21.896466 32.743740 1.332759 0.838307 0.075903 -0.022589 -555643.000000 0 0 1
4.665834 24.345600 22.425266 33.427097 1.381442 0.835414 0.054921 -0.013596 -747537.000000 0 0 1
4.341134 25.756200 21.805566 34.025138 1.403819 0.875170 0.060338 -0.009147 177240.000000 0 0 1
3.881234 25.902500 20.459866 33.235668 1.422063 0.907650 0.059458 -0.010121 -349704.000000 0 0 1
2.700834 25.244300 20.119566 32.393921 1.464214 0.900663 0.077201 -0.013650 -669693.000000 0 0 1
2.267034 25.548100 18.678866 31.729244 1.482292 0.941352 0.077406 -0.017016 -516736.000000 0 0 1
1.951434 26.928600 18.648666 32.813569 1.498456 0.966332 0.129389 -0.027717 148150.000000 0 0 1
1.641334 27.359200 17.335866 32.430727 1.510876 1.006820 0.134071 -0.023447 323621.000000 0 0 1
0.908734 28.771300 17.267366 33.567476 1.539222 1.030480 0.150624 -0.017445 108642.000000 0 0 1
1.715534 29.824200 17.665466 34.705830 1.513338 1.036767 0.180127 -0.030574 -237251.000000 0 0 1
0.994034 30.996500 17.651066 35.683767 1.538738 1.053361 0.162755 -0.039752 -200527.000000 0 0 1
1.764134 32.133400 18.366066 37.053744 1.515951 1.052202 0.179829 -0.034398 -67001.600000 0 0 1
1.778834 31.840700 19.721266 37.495637 1.514988 1.016951 0.211934 -0.040016 -151690.000000 0 0 1
2.434834 32.905400 20.332666 38.757078 1.496936 1.018530 0.226373 -0.040451 -412149.000000 0 0 1
2.708134 32.931900 21.842266 39.609704 1.488747 0.986710 0.212592 -0.064151 -326664.000000 0 0 1
1.484434 33.015600 22.500186 39.981143 1.525865 0.973063 0.206897 -0.048110 -185228.000000 0 0 1
1.661734 32.770400 23.827926 40.551579 1.520131 0.942712 0.215455 -0.060679 -486093.000000 0 0 1
0.367034 32.251600 24.428086 40.460250 1.559416 0.922593 0.205137 -0.037283 -33025.500000 0 0 1
-0.751366 33.186800 24.378046 41.185160 -1.548160 0.937366 0.203384 -0.035232 1310170.000000 0 0 1
-1.664066 33.051600 25.478196 41.765008 -1.520491 0.914689 0.198266 -0.029391 277758.000000 0 0 1
-1.102866 33.389900 26.915066 42.901311 -1.537778 0.892623 0.195280 -0.034965 -759580.000000 0 0 1
-0.347866 32.461400 27.632936 42.631475 -1.560080 0.865602 0.207045 -0.047860 203885.000000 0 0 1
0.060134 32.951800 28.952106 43.863985 1.568971 0.849921 0.198457 -0.049352 -87233.400000 0 0 1
1.205634 32.086700 29.568736 43.649972 1.533240 0.826566 0.161753 -0.040443 957140.000000 0 0 1
2.542434 32.236900 29.070236 43.482874 1.492092 0.838546 0.155249 -0.044270 784783.000000 0 0 1
2.770034 31.793800 27.717066 42.270020 1.483891 0.855668 0.157985 -0.046685 -580110.000000 0 0 1
4.303834 31.713500 27.524126 42.211925 1.435911 0.860516 0.126676 -0.036811 302376.000000 0 0 1
4.898534 30.557000 28.144766 41.831253 1.411841 0.832787 0.112536 -0.033907 1638700.000000 0 0 1
6.341534 30.513400 27.964006 41.872046 1.365885 0.839488 0.096748 -0.041917 1441860.000000 0 0 1
7.060034 29.334500 28.698316 41.640729 1.334615 0.810428 0.106014 -0.021080 108164.000000 0 0 1
6.975434 29.319200 30.084916 42.583733 1.337225 0.786272 0.125535 -0.038119 165021.000000 0 0 1
7.658934 28.210300 30.638016 42.345818 1.305692 0.761909 0.098543 -0.030039 -42871.800000 0 0 1
7.693934 28.238800 32.209139 43.520743 1.304793 0.737597 0.135630 -0.039394 -115460.000000 0 0 1
6.455234 28.114900 32.910763 43.763409 1.345106 0.719682 0.138225 -0.043971 136346.000000 0 0 1
6.473634 28.035800 -33.004121 43.785683 1.343868 2.424569 0.144159 -0.038984 -28160.500000 0 0 1
6.702134 26.521200 -32.598211 42.555094 1.323270 2.443429 0.122982 -0.033538 -430140.000000 0 0 1
7.986134 26.014100 -32.768211 42.594218 1.272937 2.448559 0.118958 -0.033020 -611181.000000 0 0 1
8.026734 24.647800 -32.359071 41.461452 1.255970 2.466200 0.122272 -0.043954 -195977.000000 0 0 1
9.456634 24.107100 -32.482571 41.541517 1.196966 2.468553 0.143963 -0.053585 -221906.000000 0 0 1
9.970334 23.886400 33.558986 42.381284 1.175375 0.656989 0.126369 -0.038920 1353760.000000 0 0 1
11.085934 22.943100 33.332966 41.956768 1.120685 0.652679 0.136880 -0.051624 947882.000000 0 0 1
10.872934 21.439600 -33.626661 41.335571 1.101451 2.520949 0.135212 -0.056017 -891705.000000 0 0 1
10.176934 20.765400 32.719618 40.066760 1.115107 0.615253 0.122381 -0.056375 98560.400000 0 0 1
9.568434 19.528800 33.078255 39.586613 1.115209 0.581587 0.118857 -0.045911 100792.000000 0 0 1
8.252134 19.570600 -33.473281 39.642990 1.171758 2.576181 0.131724 -0.057212 -582183.000000 0 0 1
8.405234 20.095500 -32.181501 38.860341 1.174645 2.546564 0.137206 -0.053989 -628738.000000 0 0 1
7.249534 20.698500 -31.724461 38.567150 1.233904 2.536725 0.154569 -0.053010 -760103.000000 0 0 1
7.327634 21.152900 -30.261851 37.641985 1.237321 2.504685 0.162548 -0.059569 643155.000000 0 0 1
8.429134 22.060400 -30.064691 38.230841 1.205821 2.475754 0.161686 -0.053528 536641.000000 0 0 1
8.406834 22.573100 -28.729231 37.491178 1.214283 2.443848 0.135503 -0.047612 344870.000000 0 0 1
9.812234 23.096700 -28.261941 37.795169 1.169067 2.415487 0.139590 -0.058466 603665.000000 0 0 1
10.748034 22.071900 -28.198361 37.387653 1.117639 2.425255 0.143820 -0.046899 -1113780.000000 0 0 1
12.072534 22.459900 -28.372091 38.146674 1.077589 2.409479 0.140252 -0.049092 365288.000000 0 0 1
13.023034 21.183100 -28.596871 37.895965 1.019577 2.425864 0.142876 -0.062766 509072.000000 0 0 1
12.860834 20.421900 -29.823521 38.365316 1.008784 2.461249 0.148569 -0.058139 341275.000000 0 0 1
11.654034 19.659600 -29.977961 37.696081 1.035694 2.490223 0.171944 -0.056145 464153.000000 0 0 1
11.567434 18.563100 -31.114411 38.032891 1.013535 2.528882 0.163169 -0.057147 -547123.000000 0 0 1
12.152934 17.376200 -30.661911 37.279739 0.960472 2.536557 0.165241 -0.050804 -31410.800000 0 0 1
12.100734 16.345000 -31.656401 37.625982 0.933511 2.570562 0.147531 -0.048432 -86133.900000 0 0 1
13.390834 16.245100 -32.503831 38.726176 0.881413 2.566836 0.125782 -0.034659 -173437.000000 0 0 1
13.642234 17.530000 -32.999461 39.779088 0.909476 2.549130 0.127108 -0.042590 -351173.000000 0 0 1
14.153534 17.578700 33.015236 39.991737 0.892922 0.599618 0.135734 -0.045233 337471.000000 0 0 1
13.284334 17.045100 31.792806 38.442053 0.908766 0.596989 0.134944 -0.048527 -85569.800000 0 0 1
13.799734 17.693100 30.640686 37.978021 0.908401 0.632080 0.121284 -0.046357 230478.000000 0 0 1
13.140934 17.374000 29.411006 36.599826 0.923240 0.637505 0.111650 -0.042680 -173055.000000 0 0 1
11.675834 17.799000 29.219076 36.150849 0.990227 0.629615 0.109484 -0.036182 -600163.000000 0 0 1
10.828534 16.999700 29.975926 36.122058 1.003626 0.591956 0.101982 -0.037499 -568766.000000 0 0 1
9.490934 17.453000 29.846806 35.854105 1.072726 0.587279 0.099288 -0.030363 -211775.000000 0 0 1
8.560834 16.438200 30.522956 35.709286 1.090656 0.545703 0.119546 -0.030295 -218245.000000 0 0 1
8.778434 16.113400 31.868251 36.773468 1.071961 0.522429 0.140232 -0.038439 -291319.000000 0 0 1
7.557534 15.782600 32.471017 36.885956 1.124210 0.494284 0.151479 -0.041835 -204661.000000 0 0 1
7.553434 15.619600 -33.363541 37.605214 1.120365 2.662048 0.157037 -0.046165 -88303.100000 0 0 1
6.911234 16.692200 -32.670681 37.333203 1.178246 2.636461 0.147737 -0.051919 220197.000000 0 0 1
6.769934 16.443000 -31.312071 36.009027 1.180226 2.625110 0.149209 -0.057554 -85043.500000 0 0 1
5.896634 17.559800 -30.716571 35.869550 1.246825 2.598939 0.138490 -0.052903 -578694.000000 0 0 1
5.848734 17.630300 -29.331681 34.718621 1.250477 2.577062 0.137709 -0.060070 -321958.000000 0 0 1
4.980034 18.581300 -28.804641 34.637736 1.308937 2.552774 0.142360 -0.060300 576273.000000 0 0 1
3.463134 18.214500 -28.795151 34.247949 1.382908 2.569527 0.155460 -0.059940 -370918.000000 0 0 1
2.997734 17.401300 -27.691871 32.842524 1.400200 2.573951 0.174342 -0.059785 895596.000000 0 0 1
1.593134 17.104500 -27.717941 32.609603 1.477923 2.586769 0.175455 -0.057659 1270860.000000 0 0 1
0.517834 18.206900 -27.472681 32.962214 1.542362 2.556136 0.174366 -0.063434 -23582.500000 0 0 1
0.484134 18.617600 -26.101601 32.064669 1.544798 2.521853 0.189297 -0.064739 -132121.000000 0 0 1
-0.277766 19.799000 -26.021281 32.698389 -1.556768 2.491119 0.210152 -0.055474 -170022.000000 0 0 1
-0.773266 20.171800 -24.652271 31.862736 -1.532481 2.455460 0.169429 -0.060954 -843952.000000 0 0 1
-1.832666 19.416800 -24.210671 31.089023 -1.476690 2.463472 0.151260 -0.051549 -901364.000000 0 0 1
-2.346966 20.045500 -23.092371 30.669006 -1.454245 2.423337 0.132013 -0.046433 -582487.000000 0 0 1
-3.447266 19.307600 -22.400071 29.772978 -1.394114 2.422437 0.113040 -0.042785 -656582.000000 0 0 1
-4.788866 19.398600 -22.784171 30.304412 -1.328769 2.421650 0.120756 -0.032757 -400171.000000 0 0 1
-5.622766 18.623400 -21.972371 29.346748 -1.277580 2.416919 0.110158 -0.034560 1674530.000000 0 0 1
-7.154966 19.101800 -21.907471 29.933419 -1.212402 2.391863 0.160662 -0.028366 1721390.000000 0 0 1
-7.496066 20.146800 -21.037971 30.077912 -1.214595 2.345423 0.100635 -0.028223 -16539.000000 0 0 1
-7.047466 21.443900 -21.444971 31.135099 -1.253270 2.330590 0.099693 -0.033044 -9348.830000 0 0 1
-7.530766 22.553400 -20.448871 31.361196 -1.248528 2.281073 0.104420 -0.038060 143682.000000 0 0 1
-6.964866 22.437200 -19.142571 30.304708 -1.269811 2.254502 0.119894 -0.040271 3703.540000 0 0 1
-7.441866 23.368900 -18.278071 30.587166 -1.262498 2.211267 0.119143 -0.042511 -336257.000000 0 0 1
-6.659966 23.248900 -16.968571 29.543170 -1.291804 2.182625 0.138771 -0.040347 73496.600000 0 0 1
-5.328366 23.674600 -17.083471 29.676980 -1.349418 2.184192 0.137692 -0.045442 -640007.000000 0 0 1
-4.584766 23.481100 -15.890771 28.721050 -1.377969 2.157093 0.124181 -0.041006 26433.400000 0 0 1
-3.086066 23.749200 -16.109971 28.863116 -1.441576 2.162952 0.116925 -0.042629 -58173.100000 0 0 1
-2.808766 25.090200 -16.260571 30.030209 -1.459314 2.142985 0.093203 -0.042927 -508687.000000 0 0 1
-1.559866 25.284900 -16.880571 30.441962 -1.509183 2.158578 0.089427 -0.044067 20884.800000 0 0 1
-1.213866 26.788400 -17.011071 31.756391 -1.525514 2.136102 0.081139 -0.052673 -45946.800000 0 0 1
-2.064566 27.446100 -17.909471 32.837478 -1.495715 2.147659 0.083011 -0.054240 -328625.000000 0 0 1
-1.478166 28.610800 -18.379371 34.037687 -1.519178 2.141199 0.091568 -0.055969 -874829.000000 0 0 1
-2.322266 29.435400 -19.380071 35.318874 -1.492066 2.151625 0.139370 -0.045384 608260.000000 0 0 1
-3.235966 30.382500 -18.788871 35.869060 -1.464689 2.122124 0.127889 -0.040867 171379.000000 0 0 1
-4.355366 29.848700 -18.120471 35.188998 -1.425904 2.111742 0.077318 -0.039030 -784949.000000 0 0 1
-5.093166 30.927900 -17.338871 35.820550 -1.407583 2.076071 0.111889 -0.031075 -9190.910000 0 0 1
-5.629666 31.988700 -18.105771 37.185871 -1.396591 2.079333 0.164499 -0.046642 112825.000000 0 0 1
-6.095866 33.014800 -17.224971 37.733755 -1.388212 2.044839 0.160872 -0.059045 160474.000000 0 0 1
-6.871066 -33.453614 -17.941671 38.577965 1.368223 2.054516 0.162585 -0.050016 2115450.000000 0 0 1
-8.313966 -33.754014 -17.998071 39.145703 1.329293 2.048534 0.163221 -0.068008 1977780.000000 0 0 1
-9.032666 -32.570014 -18.315171 38.442689 1.300265 2.067384 0.203639 -0.069196 -24942.100000 0 0 1
28.964534 -19.911900 -27.012161 44.329277 -0.602259 2.226040 0.087138 -0.014359 48855.200000 0 0 1
29.125934 -21.262600 -26.677151 44.856310 -0.630593 2.207719 0.068741 -0.019271 36486.500000 0 0 1
28.188934 -21.690200 -25.682191 43.870898 -0.655838 2.196174 0.050583 -0.015765 -100360.000000 0 0 1
28.697834 -22.815100 -24.724571 44.219892 -0.671692 2.164130 0.068320 -0.010112 263910.000000 0 0 1
28.982034 -24.091800 -25.316321 45.401423 -0.693517 2.162301 0.068790 0.001663 -617361.000000 0 0 1
30.242334 -24.088900 -25.916591 46.546144 -0.672621 2.161317 0.083726 -0.011168 -572256.000000 0 0 1
30.590634 -25.492870 -26.548281 47.859006 -0.694751 2.158821 0.080032 -0.012765 44480.600000 0 0 1
30.561734 -26.573380 -25.587861 47.905143 -0.715706 2.134282 0.106356 -0.013479 -184166.000000 0 0 1
30.818034 -27.920650 -26.088841 49.091155 -0.736111 2.131092 0.099356 -0.011166 774328.000000 0 0 1
29.627934 -28.686810 -26.809341 49.188294 -0.769261 2.147227 0.082445 -0.005781 670495.000000 0 0 1
29.216034 -28.164700 -28.105741 49.363545 -0.767078 2.176526 0.070679 -0.011247 269327.000000 0 0 1
30.175334 -28.122900 -29.176941 50.524669 -0.750207 2.186434 0.053746 -0.009238 -103100.000000 0 0 1
30.404534 -29.464240 -29.935111 51.852560 -0.769694 2.186229 0.061100 -0.007086 -329288.000000 0 0 1
31.084534 -30.542170 -29.269501 52.495486 -0.776598 2.162243 0.075833 -0.008099 663908.000000 0 0 1
32.461934 -30.426580 -28.909341 53.059437 -0.753045 2.147004 0.084699 -0.010074 1104900.000000 0 0 1
33.505634 -29.994920 -29.999221 54.058080 -0.730168 2.159092 0.088833 -0.021190 -324429.000000 0 0 1
33.461634 -28.613040 -30.269651 53.428819 -0.707447 2.173099 0.087746 -0.017614 -510645.000000 0 0 1
34.596434 -28.205480 -30.973681 54.330758 -0.683984 2.177418 0.072783 -0.018216 -385042.000000 0 0 1
34.555634 -26.782670 -31.598071 53.942945 -0.659347 2.196624 0.066875 -0.013059 -24632.500000 0 0 1
34.488534 -25.612530 -30.791981 52.854581 -0.638773 2.192695 0.068534 -0.013922 -219003.000000 0 0 1
33.357134 -25.528610 -29.957541 51.593241 -0.653229 2.190321 0.069931 -0.012333 -177064.000000 0 0 1
33.151034 -24.158400 -29.216951 50.361191 -0.629754 2.189707 0.064458 -0.010712 -543275.000000 0 0 1
34.231834 -23.937400 -28.361431 50.489487 -0.610238 2.167271 0.071590 -0.014286 -140561.000000 0 0 1
34.225434 -22.750200 -27.619891 49.515758 -0.586651 2.162529 0.069665 -0.010997 -655414.000000 0 0 1
35.418034 -22.627900 -26.697531 49.791737 -0.568519 2.136706 0.092920 -0.012148 -1044630.000000 0 0 1
35.440834 -23.319700 -25.441821 49.468650 -0.581971 2.110990 0.082284 -0.016953 553368.000000 0 0 1
34.289234 -22.972600 -24.613471 48.055331 -0.590283 2.108529 0.101007 -0.011272 953012.000000 0 0 1
34.135134 -21.558700 -23.972271 46.953750 -0.563309 2.106621 0.111541 -0.014017 -268768.000000 0 0 1
34.049334 -20.556400 -24.948171 46.950335 -0.543153 2.131018 0.114794 -0.032514 149309.000000 0 0 1
34.201134 -19.306800 -24.236371 46.150534 -0.513913 2.123698 0.099595 -0.041030 9628.050000 0 0 1
34.080634 -18.029900 -25.072971 45.991529 -0.486606 2.147382 0.085835 -0.049382 1477000.000000 0 0 1
32.738934 -17.780000 -25.593941 45.199734 -0.497518 2.172734 0.108294 -0.033962 1586150.000000 0 0 1
32.802634 -16.634500 -26.415541 45.282449 -0.469318 2.193644 0.120019 -0.034109 280485.000000 0 0 1
31.536334 -16.476400 -27.305751 44.851044 -0.481452 2.225356 0.082852 -0.020344 521388.000000 0 0 1
30.332234 -16.214400 -26.578991 43.467159 -0.490912 2.228717 0.060760 -0.012208 304749.000000 0 0 1
29.303534 -16.053500 -27.543541 43.301947 -0.501179 2.260205 0.019976 -0.002156 -9820.540000 0 0 1
27.943934 -15.789800 -26.861081 41.853302 -0.514327 2.267628 -0.019296 0.000059 53042.800000 0 0 1
27.345234 -16.890900 -26.178761 41.453490 -0.553326 2.254310 0.020191 0.011308 118475.000000 0 0 1
27.189134 -16.658900 -24.821071 40.408582 -0.549709 2.232235 0.043272 0.002796 -56179.700000 0 0 1
26.581834 -17.811800 -23.984271 39.988740 -0.590358 2.214017 0.057131 0.004911 -230603.000000 0 0 1
26.670534 -17.634000 -22.570371 39.136900 -0.584194 2.185484 0.065022 0.000177 39421.700000 0 0 1
26.012834 -18.646900 -21.808071 38.729399 -0.621935 2.168914 0.093903 -0.014283 82521.000000 0 0 1
25.855034 -18.080800 -20.389871 37.565209 -0.610266 2.144547 0.095314 -0.025490 -81121.800000 0 0 1
25.076234 -16.855100 -20.337971 36.421765 -0.591792 2.163254 0.097810 -0.033253 166376.000000 0 0 1
25.412234 -15.595400 -20.966771 36.450015 -0.550430 2.183669 0.087190 -0.023074 -201934.000000 0 0 1
26.785034 -14.921200 -20.685571 36.986120 -0.508257 2.164312 0.083971 -0.022479 184851.000000 0 0 1
26.864134 -14.336800 -19.371671 36.089987 -0.490226 2.137389 0.101609 -0.036531 -130572.000000 0 0 1
28.039034 -13.588300 -19.276471 36.638936 -0.451269 2.124828 0.088083 -0.029265 -531638.000000 0 0 1
28.100234 -12.566900 -18.072471 35.695438 -0.420537 2.101681 0.101324 -0.027561 -155226.000000 0 0 1
28.377534 -13.216900 -16.853271 35.552828 -0.435876 2.064664 0.105629 -0.029454 298284.000000 0 0 1
28.256334 -12.286400 -15.741071 34.599962 -0.410158 2.043106 0.094703 -0.024874 257549.000000 0 0 1
28.739334 -12.857500 -14.361071 34.604985 -0.420676 1.998739 0.119473 -0.041008 -856772.000000 0 0 1
27.794634 -13.655600 -13.840371 33.920096 -0.456666 1.991090 0.150538 -0.050857 -724662.000000 0 0 1
28.110634 -14.053300 -12.534871 33.835277 -0.463590 1.950309 0.161251 -0.041025 202679.000000 0 0 1
27.337934 -15.364700 -12.126971 33.622910 -0.512031 1.939789 0.161630 -0.061048 -410828.000000 0 0 1
25.994934 -15.235200 -11.795571 32.357123 -0.530124 1.943939 0.139037 -0.057362 -510190.000000 0 0 1
25.537434 -16.494200 -11.327871 32.442870 -0.573476 1.927475 0.115635 -0.052419 501736.000000 0 0 1
24.127334 -16.339000 -10.642571 31.021855 -0.595259 1.920976 0.127108 -0.048883 461630.000000 0 0 1
23.953234 -15.720200 -9.322371 30.129532 -0.580782 1.885369 0.108529 -0.043973 63589.000000 0 0 1
22.565434 -15.659900 -9.102971 28.936056 -0.606672 1.890820 0.112791 -0.047830 -235668.000000 0 0 1
22.096434 -15.382900 -7.638471 27.986287 -0.608152 1.847240 0.090587 -0.035281 -442384.000000 0 0 1
22.268234 -14.079200 -7.118871 27.290592 -0.563799 1.834703 0.099305 -0.028626 348052.000000 0 0 1
22.047534 -13.985600 -5.705471 26.725328 -0.565286 1.785938 0.082744 -0.021364 104905.000000 0 0 1
23.007234 -14.860000 -4.791571 27.804884 -0.573476 1.743989 0.087082 -0.011045 -642311.000000 0 0 1
24.299834 -14.373700 -4.908971 28.656294 -0.534157 1.742951 0.122357 -0.020026 -334110.000000 0 0 1
25.170434 -14.997700 -3.957971 29.565982 -0.537359 1.705069 0.128146 -0.027994 -1202280.000000 0 0 1
26.620734 -14.733900 -4.189871 30.713292 -0.505507 1.707642 0.137324 -0.025406 -1345640.000000 0 0 1
27.096134 -13.579800 -3.501371 30.510179 -0.464584 1.685810 0.145519 -0.030870 458077.000000 0 0 1
28.481934 -13.392600 -3.760771 31.697408 -0.439536 1.689722 0.166091 -0.044157 243160.000000 0 0 1
29.016234 -12.138400 -3.072671 31.602593 -0.396209 1.668179 0.216345 -0.049317 -777622.000000 0 0 1
29.452334 -12.352300 -1.723171 31.984193 -0.397118 1.624698 0.228426 -0.055337 537015.000000 0 0 1
29.951934 -11.126100 -1.134871 31.971806 -0.355668 1.606300 0.228628 -0.051485 403015.000000 0 0 1
31.439834 -10.802800 -1.428571 33.274682 -0.330964 1.613742 0.271955 -0.064198 -278589.000000 0 0 1
31.551334 -10.382200 -2.779971 33.331741 -0.317897 1.654296 0.273650 -0.068600 296936.000000 0 0 1
32.857534 -10.253100 -3.298371 34.577780 -0.302472 1.666331 0.309164 -0.069565 -122784.000000 0 0 1
32.764934 -9.874500 -4.831771 34.559986 -0.292717 1.711064 0.279720 -0.071935 -394681.000000 0 0 1
32.096534 -10.907000 -5.491471 34.341031 -0.327576 1.731396 0.271470 -0.062652 358848.000000 0 0 1
31.615934 -10.420000 -6.748071 33.965867 -0.318369 1.770799 0.264412 -0.063721 391712.000000 0 0 1
30.401734 -11.177500 -7.373071 33.219935 -0.352320 1.794607 0.232353 -0.047013 523013.000000 0 0 1
30.853934 -12.368500 -7.963571 34.181332 -0.381258 1.805937 0.235710 -0.040858 250359.000000 0 0 1
29.724834 -13.188100 -8.219771 33.541860 -0.417580 1.818378 0.229140 -0.038208 166182.000000 0 0 1
29.824634 -14.684400 -8.576871 34.332246 -0.457515 1.823290 0.214396 -0.039524 -144477.000000 0 0 1
30.285434 -15.045800 -9.880071 35.230660 -0.461084 1.855048 0.230726 -0.051349 290719.000000 0 0 1
30.541934 -16.431200 -9.848671 36.052606 -0.493574 1.847488 0.194090 -0.048563 -237052.000000 0 0 1
31.002734 -17.087600 -11.125171 37.106940 -0.503737 1.875294 0.162575 -0.050173 403036.000000 0 0 1
32.346834 -16.776800 -11.518471 38.215885 -0.478459 1.876962 0.177841 -0.038191 1050430.000000 0 0 1
32.710834 -17.312700 -12.833671 39.171818 -0.486785 1.904585 0.156438 -0.031101 68373.100000 0 0 1
32.117634 -16.604100 -14.102371 38.808703 -0.477137 1.942691 0.138719 -0.038242 -199353.000000 0 0 1
32.813534 -15.438600 -14.453171 39.038091 -0.439766 1.950056 0.135354 -0.045111 -148189.000000 0 0 1
32.233434 -14.724800 -15.468971 38.666562 -0.428509 1.982379 0.115009 -0.046544 -1039180.000000 0 0 1
33.177034 -13.697500 -16.082271 39.331622 -0.391544 1.992033 0.100648 -0.034720 347394.000000 0 0 1
34.280334 -14.137400 -16.872271 40.739181 -0.391155 1.997809 0.052840 -0.030655 1019910.000000 0 0 1
35.409134 -14.620300 -16.140271 41.570041 -0.391574 1.969547 0.077557 -0.031280 -81681.000000 0 0 1
36.559134 -15.116700 -17.069871 43.086719 -0.392078 1.978143 0.076524 -0.035051 -933184.000000 0 0 1
37.744134 -15.292400 -16.387271 43.897833 -0.384946 1.953365 0.085484 -0.040327 -1011220.000000 0 0 1
-37.226889 -15.787700 -17.385171 44.015189 0.401103 1.976844 0.100371 -0.043279 -691134.000000 0 0 1
-35.742089 -15.676100 -17.021771 42.579076 0.413324 1.982061 0.128428 -0.047583 -371729.000000 0 0 1
-35.273989 -16.579400 -16.023671 42.141296 0.439375 1.960849 0.119969 -0.044646 59063.900000 0 0 1
-35.590689 -16.192400 -14.731971 41.784230 0.426972 1.931115 0.090951 -0.034746 -556205.000000 0 0 1
-34.876889 -17.118400 -13.702371 41.196989 0.456280 1.909862 0.091830 -0.032963 1071390.000000 0 0 1
-33.445789 -16.932900 -13.736871 39.925499 0.468658 1.922037 0.125561 -0.040299 1148460.000000 0 0 1
-32.830289 -17.626100 -12.642671 39.349007 0.492719 1.897894 0.116680 -0.028303 278811.000000 0 0 1
-31.291389 -17.753600 -12.522271 38.093944 0.516077 1.905745 0.154631 -0.032649 153695.000000 0 0 1
-30.718689 -16.515100 -12.171871 36.939691 0.493292 1.906577 0.156190 -0.052130 -594750.000000 0 0 1
-29.641289 -16.688100 -11.320371 35.850376 0.512771 1.892061 0.161182 -0.046574 -658327.000000 0 0 1
-29.918689 -16.270300 -9.882071 35.461330 0.498084 1.853207 0.174076 -0.049028 -19596.000000 0 0 1
-30.710089 -17.244500 -9.216771 36.406472 0.511649 1.826745 0.148963 -0.042083 -10737.400000 0 0 1
-30.896189 -16.866600 -7.820871 36.058601 0.499699 1.789427 0.180336 -0.048429 192916.000000 0 0 1
-31.754289 -17.941200 -7.021071 37.141849 0.514287 1.760975 0.170476 -0.035189 596239.000000 0 0 1
-32.999889 -18.327600 -7.590071 38.503282 0.506967 1.769224 0.120073 -0.027883 233837.000000 0 0 1
-32.941189 -19.202500 -8.727471 39.115555 0.527776 1.795811 0.117336 -0.026740 -626329.000000 0 0 1
-34.264389 -19.768600 -9.269471 40.629656 0.523293 1.800969 0.079861 -0.020705 232753.000000 0 0 1
-35.171189 -18.843000 -9.903571 41.111457 0.491838 1.814085 0.083883 -0.017121 76324.400000 0 0 1
-36.393289 -19.499300 -10.069171 42.498028 0.491871 1.810004 0.074982 -0.021953 -554527.000000 0 0 1
-37.583089 -18.715400 -10.610171 43.305086 0.462025 1.818326 0.084469 -0.043425 -502518.000000 0 0 1
-37.620589 -18.603800 -12.023271 43.657406 0.459247 1.849803 0.070956 -0.046532 -12229.900000 0 0 1
37.214634 -17.693500 -12.368771 43.022964 -0.443811 1.862404 0.098130 -0.048747 -281123.000000 0 0 1
36.804334 -17.724100 -13.862971 43.137972 -0.448800 1.897965 0.088106 -0.041953 220722.000000 0 0 1
36.021334 -18.893700 -14.190771 43.080000 -0.483066 1.906470 0.061381 -0.033019 478278.000000 0 0 1
35.469634 -18.856700 -15.490771 43.053850 -0.488630 1.938850 0.055572 -0.026531 -571919.000000 0 0 1
34.350134 -19.842700 -15.754671 42.683417 -0.523831 1.948842 0.080307 -0.034942 -853145.000000 0 0 1
33.217134 -19.620000 -14.928971 41.366612 -0.533523 1.940023 0.100539 -0.033306 534210.000000 0 0 1
32.091934 -20.413100 -15.329371 41.007030 -0.566529 1.953924 0.122259 -0.036641 623290.000000 0 0 1
31.259334 -19.993200 -16.558671 40.633282 -0.569023 1.990527 0.126351 -0.039377 -137282.000000 0 0 1
30.467534 -18.786900 -16.304771 39.332732 -0.552551 1.998227 0.132665 -0.048377 547360.000000 0 0 1
29.684734 -18.395900 -17.371571 39.004667 -0.554786 2.032386 0.113719 -0.046521 -355116.000000 0 0 1
28.779634 -17.177900 -17.232971 37.687171 -0.538120 2.045712 0.111638 -0.040073 -65062.100000 0 0 1
27.675934 -17.363700 -16.364771 36.541225 -0.560319 2.035149 0.139596 -0.052643 -24901.400000 0 0 1
27.013934 -16.124600 -16.312471 35.438003 -0.538136 2.049141 0.113605 -0.048930 -1216260.000000 0 0 1
25.698534 -16.046600 -15.501771 34.032527 -0.558180 2.043729 0.117397 -0.057529 791530.000000 0 0 1
24.585934 -16.646400 -16.222071 33.833805 -0.595170 2.070839 0.123818 -0.052188 703514.000000 0 0 1
24.049734 -15.811700 -17.209971 33.534798 -0.581601 2.109702 0.114925 -0.041758 -473929.000000 0 0 1
22.901834 -16.527700 -18.013271 33.498310 -0.625126 2.138547 0.103197 -0.039657 634131.000000 0 0 1
21.669934 -16.763800 -17.354371 32.431238 -0.658433 2.135438 0.090995 -0.029441 -159472.000000 0 0 1
20.744434 -17.253900 -18.295371 32.599834 -0.693795 2.166644 0.082194 -0.034323 473861.000000 0 0 1
19.291534 -17.406600 -17.744871 31.464797 -0.734080 2.169969 0.082647 -0.024670 797922.000000 0 0 1
18.392534 -16.301700 -17.768271 30.327251 -0.725206 2.196768 0.082212 -0.014865 546414.000000 0 0 1
17.056234 -16.768700 -17.779871 29.803158 -0.776898 2.210025 0.092988 -0.012980 -177423.000000 0 0 1
15.971334 -15.733500 -17.590971 28.496820 -0.777897 2.236097 0.104005 -0.007538 -362499.000000 0 0 1
15.609334 -14.926300 -18.721471 28.582148 -0.763033 2.284987 0.094030 -0.001491 270389.000000 0 0 1
14.334034 -14.368200 -18.485971 27.452519 -0.786589 2.309567 0.105116 0.001382 592018.000000 0 0 1
13.483734 -13.915900 -19.721371 27.647709 -0.801170 2.365005 0.099704 -0.004655 574210.000000 0 0 1
13.967234 -12.608300 -20.078871 27.517520 -0.734308 2.388644 0.120430 -0.018319 497470.000000 0 0 1
13.435134 -12.171200 -21.368871 28.022662 -0.736078 2.438053 0.116658 -0.011116 224581.000000 0 0 1
13.668234 -10.691200 -21.749871 27.824077 -0.663788 2.468171 0.133072 -0.019418 -336034.000000 0 0 1
14.960434 -10.500500 -22.254671 28.798358 -0.611990 2.453999 0.131210 -0.023357 -525670.000000 0 0 1
15.130834 -9.207100 -22.689971 28.784503 -0.546645 2.478789 0.136651 -0.033526 -876617.000000 0 0 1
16.525934 -8.925200 -23.163371 29.821258 -0.495189 2.460270 0.134187 -0.034701 -935528.000000 0 0 1
16.830534 -9.425200 -24.430771 31.128184 -0.510493 2.473241 0.168013 -0.037823 274253.000000 0 0 1
18.203034 -9.272600 -24.735171 32.080527 -0.471138 2.451259 0.157921 -0.046281 -203149.000000 0 0 1
21.950034 5.363100 -6.932971 23.635417 0.239637 1.868504 0.203809 0.015041 -63158.200000 0 1 0
21.778034 6.725800 -7.251371 23.918644 0.299542 1.878812 0.222577 0.011192 564216.000000 0 1 0
21.316034 7.401900 -6.127671 23.381826 0.334219 1.835963 0.215860 0.015873 -346480.000000 0 1 0
21.016034 8.904700 -6.229771 23.659616 0.400777 1.837246 0.171638 0.020313 -935475.000000 0 1 0
19.877634 9.294100 -6.938371 23.013944 0.437365 1.877047 0.060029 -0.004805 216178.000000 0 1 0
19.530634 10.660000 -6.814271 23.270487 0.499620 1.867980 0.075821 -0.002013 -310027.000000 0 1 0
19.001334 11.183400 -5.436271 22.708416 0.531964 1.812539 0.097613 -0.007987 -988713.000000 0 1 0
19.918634 11.425100 -4.381171 23.376902 0.520773 1.759326 0.116561 0.001353 -148392.000000 0 1 0
20.496334 12.667300 -4.535571 24.517985 0.553570 1.756858 0.169771 -0.014527 -275639.000000 0 1 0
21.432634 13.105700 -3.393971 25.350271 0.548820 1.705083 0.159787 -0.026820 567062.000000 0 0 1
22.664534 12.379000 -3.360771 26.042571 0.499909 1.700206 0.149129 -0.046550 753248.000000 0 0 1
23.490734 12.756900 -2.272171 26.827520 0.497500 1.655593 0.132106 -0.052278 70173.900000 0 0 1
24.497434 11.712300 -1.789171 27.212192 0.445977 1.636593 0.154583 -0.043447 -108430.000000 0 0 1
25.673634 11.558400 -2.562471 28.271865 0.423024 1.661558 0.165388 -0.028816 220856.000000 0 0 1
26.498034 10.497700 -2.139971 28.581935 0.377199 1.645738 0.192472 -0.030411 -789474.000000 0 0 1
27.875234 10.552400 -2.741771 29.931574 0.361887 1.662526 0.206990 -0.035883 -764827.000000 0 0 1
28.747534 11.538800 -2.184971 31.053804 0.381699 1.641215 0.162593 -0.042142 1172030.000000 0 0 1
30.084334 10.977100 -2.183871 32.098803 0.349867 1.638885 0.135281 -0.039692 1180850.000000 0 0 1
31.206434 11.990000 -1.802171 33.479090 0.366826 1.624652 0.106805 -0.038778 -20136.300000 0 0 1
31.177434 12.254200 -0.455071 33.502312 0.374498 1.584380 0.148660 -0.048600 264917.000000 0 0 1
32.195434 13.165800 -0.097871 34.783528 0.388184 1.573610 0.117625 -0.045264 -41021.600000 0 0 1
33.547134 12.552100 0.434629 35.821144 0.358037 1.558663 0.119447 -0.044730 462848.000000 0 0 1
34.456134 13.543300 0.837629 37.031713 0.374509 1.548175 0.116471 -0.053198 348209.000000 0 0 1
35.449134 13.892900 -0.146071 38.074599 0.373514 1.574633 0.138026 -0.040703 -168066.000000 0 0 1
35.090234 14.989900 -1.160771 38.175503 0.403717 1.601207 0.085281 -0.017712 -485141.000000 0 0 1
34.108334 14.575200 -2.085671 37.150571 0.403835 1.626967 0.084205 -0.011462 -89714.900000 0 0 1
33.921934 15.701600 -2.999271 37.499780 0.433509 1.650863 0.052318 0.000998 -434724.000000 0 0 1
32.789434 15.509700 -3.989871 36.491326 0.441823 1.680353 0.055277 -0.012080 -1149910.000000 0 0 1
32.929534 14.476700 -4.991571 36.315903 0.414194 1.708681 0.042850 -0.016235 424375.000000 0 0 1
31.786534 14.351800 -5.837971 35.361558 0.424105 1.736649 0.052840 -0.022013 939047.000000 0 0 1
30.423534 13.904900 -5.194971 33.851520 0.428696 1.724869 0.073570 -0.017071 -76380.000000 0 0 1
29.444934 13.555400 -6.124771 32.988874 0.431439 1.757542 0.123929 -0.032775 -437069.000000 0 0 1
28.234534 13.189000 -5.542271 31.652100 0.437002 1.746803 0.128095 -0.016178 -576200.000000 0 0 1
27.057134 13.056700 -6.499771 30.737810 0.449599 1.783863 0.121016 -0.013382 -617385.000000 0 0 1
27.364734 12.156400 -7.559071 30.882783 0.418050 1.818075 0.117523 -0.008749 150643.000000 0 0 1
26.436634 12.018000 -8.619071 30.292183 0.426670 1.859314 0.148745 -0.005137 -184627.000000 0 0 1
25.927734 13.261600 -9.414671 30.606428 0.472792 1.883471 0.156446 -0.004434 -561291.000000 0 0 1
24.794334 13.784100 -8.805671 29.703539 0.507390 1.871772 0.154082 -0.017030 -463570.000000 0 0 1
24.639134 15.116100 -9.254571 30.351779 0.550287 1.880641 0.154743 -0.026476 -430622.000000 0 0 1
23.594534 15.807700 -8.343371 29.600629 0.590288 1.856533 0.156879 -0.017405 1006270.000000 0 0 1
22.182234 15.608300 -8.426171 28.401952 0.613165 1.872006 0.181310 -0.039925 1055280.000000 0 0 1
21.752634 14.242100 -8.318671 27.298622 0.579693 1.880450 0.190912 -0.043045 -1003700.000000 0 0 1
20.244034 14.045400 -8.549171 26.080309 0.606556 1.904772 0.199767 -0.037887 -388764.000000 0 0 1
19.481734 14.578900 -7.518171 25.467728 0.642436 1.870465 0.261836 -0.072547 -427064.000000 0 0 1
18.107934 14.503100 -7.811471 24.479711 0.675305 1.895576 0.261262 -0.069346 -97022.600000 0 1 0
17.228034 14.962600 -6.595271 23.752519 0.715138 1.852160 0.244469 -0.049433 90872.000000 0 1 0
17.198734 14.013400 -5.562571 22.871686 0.683696 1.816468 0.214240 -0.051511 49539.300000 0 1 0
16.593634 14.585600 -4.454871 22.537398 0.721084 1.769772 0.185694 -0.040592 -219587.000000 0 1 0
16.524834 13.739200 -3.184071 21.724964 0.693612 1.717889 0.136917 -0.023971 1133200.000000 0 1 0
17.849334 13.497600 -2.640971 22.533501 0.647455 1.688268 0.144398 -0.020736 1440260.000000 0 1 0
17.714434 12.442300 -1.663171 21.711245 0.612323 1.647476 0.139255 -0.023199 -58813.500000 0 1 0
17.415734 13.023100 -0.253571 21.747948 0.642077 1.582456 0.146363 -0.029530 600680.000000 0 1 0
16.170334 13.747100 -0.171071 21.224791 0.704577 1.578856 0.124580 -0.036890 1106750.000000 0 1 0
16.330034 14.705600 0.823129 21.990958 0.733105 1.533357 0.126190 -0.028676 898371.000000 0 1 0
14.924134 15.307800 1.252529 21.415587 0.798088 1.512276 0.120768 -0.029523 806758.000000 0 1 0
14.701834 16.464300 0.488829 22.078407 0.841889 1.548654 0.132255 -0.030157 -801048.000000 0 1 0
13.628934 17.194100 0.897129 21.958820 0.900552 1.529930 0.097694 -0.035541 -1104320.000000 0 1 0
13.500434 18.620900 0.285429 23.001763 0.943478 1.558387 0.098351 -0.039478 -518913.000000 0 1 0
13.132734 18.723800 -1.050571 22.894390 0.959136 1.616700 0.110159 -0.046567 -109999.000000 0 1 0
12.845834 20.058900 -1.369671 23.858980 1.001195 1.628235 0.109676 -0.043820 -255627.000000 0 1 0
11.377834 20.440900 -1.192671 23.424517 1.062884 1.621734 0.092639 -0.040266 -542458.000000 0 1 0
10.833834 20.393600 0.142029 23.093096 1.082473 1.564646 0.067054 -0.036466 520336.000000 0 1 0
9.439834 20.052000 0.078229 22.163017 1.130807 1.567267 0.065886 -0.041881 935269.000000 0 1 0
8.684534 20.256500 1.402929 22.084274 1.165772 1.507227 0.032134 -0.031292 -54178.300000 0 1 0
8.572734 21.648400 1.778029 23.351796 1.193744 1.494582 0.030662 -0.025213 20661.900000 0 1 0
8.014834 21.823900 3.049929 23.448289 1.218837 1.440356 0.040065 -0.019681 -181945.000000 0 1 0
7.627634 23.259100 3.435629 24.717809 1.253906 1.431351 0.039428 -0.016569 -63284.500000 0 1 0
7.460834 23.488700 4.817329 25.111546 1.263240 1.377763 0.044293 -0.024397 108415.000000 0 0 1
7.189834 24.851100 5.072329 26.362842 1.289169 1.377184 0.048811 -0.025445 201952.000000 0 0 1
7.805234 25.214500 6.432229 27.167375 1.270598 1.331764 0.061981 -0.038484 522757.000000 0 0 1
6.953534 24.684400 7.456429 26.707107 1.296214 1.287843 0.047062 -0.034893 625828.000000 0 0 1
7.622434 24.749300 8.712729 27.322903 1.272029 1.246249 0.060102 -0.035412 78439.400000 0 0 1
7.178134 23.638100 9.683529 26.534056 1.275978 1.197220 0.067826 -0.037693 -1000290.000000 0 0 1
5.997234 23.978600 10.296229 26.775967 1.325716 1.176095 0.078818 -0.038653 -723036.000000 0 0 1
5.399234 22.835300 10.925229 25.883649 1.338618 1.135047 0.077548 -0.043445 -274037.000000 0 0 1
4.114634 23.236100 11.658729 26.320573 1.395534 1.111909 0.048240 -0.039272 119757.000000 0 0 1
3.026734 23.530300 10.807429 26.069842 1.442867 1.143341 0.043325 -0.029180 627703.000000 0 0 1
1.746434 23.718100 11.424329 26.383965 1.497296 1.122975 0.050808 -0.025687 1035960.000000 0 0 1
0.667334 24.033700 10.345029 26.174104 1.543037 1.164468 0.059916 -0.022373 -28707.500000 0 0 1
0.665834 25.433100 9.924129 27.308868 1.544622 1.198878 0.066502 -0.032390 81866.600000 0 0 1
-0.156766 25.612700 8.752029 27.067194 -1.564676 1.241535 0.065283 -0.022828 357429.000000 0 0 1
-1.491966 26.293300 9.123529 27.871175 -1.514114 1.237302 0.075142 -0.036127 192302.000000 0 0 1
-2.384666 25.397500 9.778429 27.319175 -1.477177 1.204743 0.063653 -0.026679 1172980.000000 0 0 1
-3.742366 25.930700 9.776429 27.963996 -1.427464 1.213644 0.073984 -0.032452 1435900.000000 0 0 1
-4.825766 24.930300 10.347729 27.420492 -1.379591 1.183839 0.057476 -0.027282 422304.000000 0 0 1
-4.861466 24.884800 11.771129 27.954367 -1.377867 1.136157 0.042815 -0.023200 -197503.000000 0 0 1
-5.715866 25.841000 12.329229 29.196546 -1.353108 1.134833 0.055584 -0.020805 -298632.000000 0 0 1
-6.048466 25.558100 13.804929 29.671139 -1.338416 1.086863 0.046924 -0.024066 186697.000000 0 0 1
-7.200166 24.735200 13.914029 29.279220 -1.287534 1.075584 0.040748 -0.019449 -24264.700000 0 0 1
-7.642266 24.662700 15.223129 29.973266 -1.270308 1.038062 0.036040 -0.008440 910669.000000 0 0 1
-8.998366 23.855200 15.387529 29.779477 -1.210092 1.027786 0.039582 -0.014770 886035.000000 0 0 1
-10.137866 24.487700 14.833929 30.372179 -1.178281 1.060535 0.043866 -0.015944 -572539.000000 0 0 1
-11.202866 23.603700 14.944229 30.099317 -1.127655 1.051237 0.043921 -0.017464 -593123.000000 0 0 1
-12.588866 24.208900 14.716729 31.002137 -1.091269 1.076173 0.048176 -0.024014 -218938.000000 0 0 1
-13.020266 25.138000 15.689429 32.366720 -1.092891 1.064731 0.048577 -0.021306 403279.000000 0 0 1
-14.338466 25.590600 15.369929 33.116539 -1.060078 1.088160 0.042843 -0.022653 338791.000000 0 0 1
-14.838966 26.671000 16.371629 34.634772 -1.063075 1.078452 0.037785 -0.015651 -121881.000000 0 0 1
-16.106966 26.278900 16.859829 35.132162 -1.020928 1.070259 0.045569 -0.019600 153590.000000 0 0 1
-16.533366 27.256900 17.835029 36.529154 -1.025556 1.060723 0.059823 -0.023095 567834.000000 0 0 1
-17.850766 26.912800 18.623229 37.279664 -0.985141 1.047712 0.062963 -0.023782 1525620.000000 0 0 1
-19.033266 27.043800 17.789729 37.551389 -0.957529 1.077260 0.058801 -0.023731 650146.000000 0 0 1
-20.059266 26.205600 18.297029 37.734453 -0.917476 1.064560 0.075561 -0.020552 680787.000000 0 0 1
-21.336566 26.241500 17.376829 38.023934 -0.888128 1.096180 0.081025 -0.028482 286060.000000 0 0 1
-22.127366 27.386700 17.481529 39.309739 -0.891220 1.109943 0.061566 -0.025611 -86917.900000 0 0 1
-22.770666 27.608700 16.230329 39.295892 -0.881137 1.145019 0.073728 -0.027343 -435825.000000 0 0 1
-23.765066 28.755900 16.323229 40.720118 -0.880139 1.158337 0.061502 -0.023546 -425609.000000 0 0 1
-25.019476 28.485300 16.911729 41.513770 -0.850084 1.151217 0.075983 -0.030641 430679.000000 0 0 1
-25.819136 29.684400 16.825929 42.789056 -0.854926 1.166655 0.077590 -0.028845 34951.400000 0 0 1
-27.222716 29.647300 17.462629 43.874618 -0.828006 1.161447 0.090074 -0.022770 -776113.000000 0 0 1
-28.167316 29.075000 16.630629 43.764497 -0.801254 1.180997 0.122677 -0.020904 -572261.000000 0 0 1
-29.462386 29.023800 17.186429 44.786008 -0.777899 1.176947 0.162455 -0.026701 123083.000000 0 0 1
-29.803676 27.959000 18.261529 44.759896 -0.753474 1.150546 0.141796 -0.031599 -657558.000000 0 0 1
-29.946426 26.628200 17.793229 43.845735 -0.726813 1.152927 0.151968 -0.027829 71425.300000 0 0 1
-30.411466 25.808100 18.805529 44.097202 -0.703699 1.130225 0.135744 -0.032395 -186142.000000 0 0 1
-30.573556 24.356800 18.345729 43.180572 -0.672702 1.131988 0.128568 -0.038690 -138659.000000 0 0 1
-31.681426 24.144200 17.503329 43.508869 -0.651196 1.156776 0.158087 -0.042279 -56327.500000 0 0 1
-31.431966 23.174800 16.478129 42.385948 -0.635324 1.171507 0.152887 -0.038859 -48505.400000 0 0 1
-32.031266 21.746000 16.768629 42.190964 -0.596424 1.162064 0.124368 -0.032784 31113.400000 0 0 1
-33.414286 21.536100 16.643329 43.096619 -0.572512 1.174303 0.132771 -0.032304 -143349.000000 0 0 1
-33.676466 20.137100 16.624129 42.614186 -0.538916 1.170048 0.090975 -0.031959 18839.400000 0 0 1
-35.116279 19.771800 16.211929 43.438506 -0.512798 1.188324 0.085671 -0.041872 -194856.000000 0 0 1
-35.206359 20.080300 14.832629 43.159160 -0.518340 1.219971 0.074481 -0.039977 434089.000000 0 0 1
-36.374456 19.518400 14.229329 43.663976 -0.492494 1.238851 0.096556 -0.047474 363799.000000 0 0 1
-36.404746 19.804200 12.728629 43.353545 -0.498225 1.272805 0.113285 -0.043544 -69840.000000 0 0 1
-36.727226 21.164300 12.479029 44.187588 -0.522778 1.284491 0.125662 -0.049817 120605.000000 0 0 1
-37.011926 21.482800 11.086629 44.207541 -0.525905 1.317304 0.089196 -0.037799 516687.000000 0 0 1
-35.930504 21.129000 9.978429 42.860294 -0.531588 1.335827 0.116929 -0.041842 196152.000000 0 0 1
-35.844658 19.764800 9.751529 42.078250 -0.503919 1.336923 0.139588 -0.041322 324342.000000 0 0 1
-34.650764 19.506100 9.018629 40.773755 -0.512719 1.347765 0.154935 -0.042917 409261.000000 0 0 1
-33.721286 18.576300 9.841629 39.737410 -0.503517 1.320525 0.105441 -0.041788 -227197.000000 0 0 1
-33.445506 19.050500 11.117929 40.064096 -0.517765 1.289602 0.109143 -0.047931 -14881.900000 0 0 1
-32.902806 18.008800 11.889129 39.347972 -0.500794 1.263845 0.101107 -0.052548 -205155.000000 0 0 1
-32.619236 18.510800 13.364929 39.815645 -0.516165 1.228480 0.075708 -0.025310 -407295.000000 0 0 1
-31.409706 19.193500 13.507229 39.209761 -0.548519 1.219105 0.117497 -0.032301 -515716.000000 0 0 1
-31.516576 20.581400 13.189029 39.885324 -0.578505 1.233779 0.139533 -0.035054 -169741.000000 0 0 1
-30.123676 21.216800 13.129329 39.114802 -0.613621 1.228489 0.146585 -0.038423 -252306.000000 0 0 1
-29.480896 21.196500 14.351229 39.043215 -0.623358 1.194398 0.135345 -0.033265 64636.300000 0 0 1
-28.309796 22.014500 14.395429 38.643384 -0.660950 1.189073 0.166917 -0.035360 157163.000000 0 0 1
-27.651976 22.067700 15.803429 38.747433 -0.673552 1.150690 0.147873 -0.038152 -328591.000000 0 0 1
-26.969156 20.855100 15.972529 37.648271 -0.658244 1.132655 0.171108 -0.035222 -2633.750000 0 0 1
-26.327146 20.768400 17.237529 37.703813 -0.667910 1.095971 0.137595 -0.026095 -461807.000000 0 0 1
-25.375096 19.580300 17.322129 36.432675 -0.657204 1.075314 0.147237 -0.028959 -354474.000000 0 0 1
-24.545466 19.794800 18.451029 36.534292 -0.678664 1.041376 0.143097 -0.030646 260398.000000 0 0 1
-23.804666 18.574300 18.629229 35.478373 -0.662600 1.017979 0.130543 -0.033406 188296.000000 0 0 1
-23.135066 18.430100 20.020629 35.717299 -0.672683 0.975770 0.128368 -0.038104 80619.600000 0 0 1
-24.062066 18.088100 21.019229 36.714716 -0.644605 0.961243 0.124517 -0.027160 -241961.000000 0 0 1
-23.458866 18.031900 22.275329 37.035903 -0.655337 0.925479 0.126727 -0.028347 8441.780000 0 0 1
-24.274066 17.380800 23.459329 37.969233 -0.621399 0.904790 0.115164 -0.026572 113109.000000 0 0 1
-24.310166 15.972000 23.320329 37.281721 -0.581287 0.895003 0.101509 -0.030429 415432.000000 0 0 1
-25.185526 15.328900 24.265429 38.185036 -0.546748 0.882180 0.093105 -0.021390 113329.000000 0 0 1
21.688234 24.116900 33.643946 46.732424 0.838370 0.767099 0.098051 -0.032568 -754458.000000 0 0 1
22.707834 23.538900 32.879139 46.376323 0.803366 0.782768 0.112217 -0.038154 -380768.000000 0 0 1
22.795034 22.138100 32.973185 45.792357 0.770779 0.766909 0.116675 -0.039419 -139887.000000 0 0 1
21.719534 21.207800 32.344747 44.358670 0.773478 0.753697 0.101806 -0.043731 -249406.000000 0 0 1
21.878234 20.960000 30.970216 43.325893 0.763967 0.774430 0.127276 -0.047009 276013.000000 0 0 1
21.107634 19.794200 30.664216 42.162029 0.753297 0.756425 0.127493 -0.052015 137063.000000 0 0 1
21.427734 19.287600 29.256486 41.074338 0.732883 0.778053 0.148351 -0.044083 65928.000000 0 0 1
22.611334 18.523600 29.218036 41.329043 0.686350 0.785604 0.149971 -0.039115 -349855.000000 0 0 1
22.915634 18.078500 27.937576 40.403794 0.667945 0.807289 0.145836 -0.040726 -1204060.000000 0 0 1
24.063734 17.150900 27.866066 40.616921 0.619217 0.814722 0.154810 -0.033949 -1050980.000000 0 0 1
25.279334 17.810800 28.076976 41.768240 0.613780 0.833608 0.154477 -0.034302 -414255.000000 0 0 1
26.387934 16.963900 28.276686 42.233493 0.571344 0.837217 0.135198 -0.020619 646864.000000 0 0 1
27.770534 17.630100 28.544756 43.552567 0.565651 0.856072 0.104891 -0.025397 -53556.000000 0 0 1
28.458434 18.006000 27.425856 43.431280 0.564126 0.887340 0.112727 -0.019035 -88400.900000 0 0 1
29.822734 18.173500 27.818786 44.649260 0.547291 0.898158 0.108327 -0.009330 710304.000000 0 0 1
30.851134 17.834500 26.706936 44.532261 0.524148 0.927644 0.106593 -0.004468 132682.000000 0 0 1
30.767534 18.823500 25.643516 44.255567 0.549049 0.952753 0.114434 -0.010973 375043.000000 0 0 1
31.760734 18.607500 24.637856 44.294551 0.529961 0.980957 0.117037 -0.010440 173344.000000 0 0 1
32.060734 19.792500 23.745456 44.536282 0.553075 1.008452 0.131477 -0.023606 -554756.000000 0 0 1
30.983734 20.088700 22.920546 43.461466 0.575223 1.015287 0.107915 -0.030621 -492194.000000 0 0 1
31.193434 21.061100 21.956666 43.574023 0.593871 1.042696 0.090761 -0.042841 -338033.000000 0 0 1
31.958734 20.627400 20.650766 43.281687 0.573162 1.073416 0.120728 -0.038609 -549405.000000 0 0 1
31.302334 19.604400 19.955366 41.980772 0.559528 1.075440 0.134320 -0.056578 -67428.200000 0 0 1
31.876634 19.153900 18.728666 41.638379 0.541063 1.104262 0.160913 -0.056125 259500.000000 0 0 1
33.217834 18.383300 18.790866 42.361148 0.505463 1.111199 0.170648 -0.073886 105570.000000 0 0 1
32.843234 17.037900 19.036166 41.609418 0.478546 1.095619 0.189929 -0.067426 630385.000000 0 0 1
33.908234 16.215800 19.496266 42.341763 0.446077 1.092294 0.168492 -0.058980 -907901.000000 0 0 1
33.506134 14.731300 19.532666 41.487314 0.414222 1.080587 0.190563 -0.048387 124396.000000 0 0 1
32.724134 14.358600 20.665866 41.280944 0.413482 1.046487 0.162607 -0.057796 782526.000000 0 0 1
31.330934 14.589000 20.507866 40.187547 0.435785 1.035258 0.160098 -0.042880 -157531.000000 0 0 1
30.440634 14.412700 21.740166 40.087316 0.442199 0.997600 0.129557 -0.037204 -23244.100000 0 0 1
30.218634 13.072200 22.114766 39.662465 0.408280 0.979336 0.137416 -0.030599 -113689.000000 0 0 1
29.203934 12.973600 23.078276 39.418154 0.418055 0.945333 0.114207 -0.012943 -38383.500000 0 0 1
28.766634 11.523100 23.396666 38.829178 0.380999 0.924099 0.128212 -0.017083 87310.500000 0 0 1
27.893834 10.959500 22.431966 37.434873 0.374371 0.928262 0.133557 -0.012449 -109398.000000 0 0 1
27.490534 9.702500 22.871536 37.053679 0.339291 0.905549 0.134047 -0.016333 -79258.600000 0 0 1
26.508834 9.038900 21.865866 35.532184 0.328614 0.907926 0.109253 -0.035343 -1042740.000000 0 0 1
25.185834 9.385700 22.063966 34.774074 0.356716 0.883442 0.104773 -0.025854 -818892.000000 0 0 1
24.419134 8.921100 20.966366 33.398632 0.350268 0.892123 0.115648 -0.015462 -56056.300000 0 0 1
22.906334 9.191200 21.002566 32.408117 0.381585 0.865755 0.083031 -0.012287 -29786.700000 0 0 1
22.223134 8.519500 22.027466 32.429290 0.366081 0.824062 0.065944 -0.012126 101751.000000 0 0 1
20.846434 8.818300 22.131366 31.656494 0.400186 0.796645 0.094816 -0.014534 89459.300000 0 0 1
20.206734 8.223500 23.401506 31.993258 0.386499 0.750349 0.089280 -0.019028 -32915.900000 0 0 1
19.903234 6.812800 23.501286 31.541455 0.329795 0.730124 0.081178 -0.017870 279623.000000 0 0 1
19.717034 6.431600 24.835636 32.356386 0.315312 0.695762 0.086010 -0.020369 -141478.000000 0 0 1
19.839534 4.916900 25.029646 32.315108 0.242939 0.684794 0.081107 -0.028214 140413.000000 0 0 1
21.176134 4.466100 24.871406 32.969100 0.207856 0.716079 0.069858 -0.026447 324573.000000 0 0 1
21.286934 3.057900 25.214936 33.140267 0.142675 0.706167 0.063923 -0.024414 -432755.000000 0 0 1
22.653534 2.424400 24.963856 33.797255 0.106615 0.739752 0.061592 -0.029266 -759597.000000 0 0 1
23.632934 2.912000 25.845346 35.142243 0.122600 0.744466 0.057594 -0.032141 -77908.500000 0 0 1
24.876034 2.498900 25.259816 35.540398 0.100118 0.780253 0.068269 -0.034363 368533.000000 0 0 1
26.058534 2.959200 26.160686 37.043023 0.113075 0.786645 0.067117 -0.035166 -497237.000000 0 0 1
26.209934 2.230900 27.390236 37.975816 0.084912 0.765184 0.079851 -0.039343 -51413.800000 0 0 1
26.946034 2.813700 28.427206 39.269730 0.104043 0.761363 0.092216 -0.027002 1306980.000000 0 0 1
28.519934 2.878500 28.207536 40.216134 0.100589 0.793439 0.086329 -0.027714 716030.000000 0 0 1
28.968534 3.844800 27.263346 39.965591 0.131952 0.820069 0.113718 -0.028386 1528780.000000 0 0 1
30.414634 3.845700 27.068786 40.896926 0.125775 0.847475 0.123504 -0.026022 1548470.000000 0 0 1
30.894634 2.879200 26.033046 40.502934 0.092926 0.872721 0.136503 -0.022773 -523474.000000 0 0 1
30.340334 3.169900 24.769366 39.295109 0.104100 0.888802 0.149209 -0.027251 222054.000000 0 0 1
30.827034 2.201300 23.817736 39.018410 0.071287 0.914202 0.152363 -0.028023 -142197.000000 0 0 1
30.583534 2.538200 22.335286 37.956027 0.082803 0.941654 0.157015 -0.029919 896047.000000 0 0 1
31.416534 3.615100 21.734266 38.372462 0.114566 0.968662 0.162510 -0.037226 2153650.000000 0 0 1
32.850634 3.333500 21.694766 39.508724 0.101128 0.989493 0.149403 -0.038185 1558150.000000 0 0 1
33.724834 4.543800 21.310666 40.151650 0.133925 1.011306 0.170586 -0.039981 -253349.000000 0 0 1
33.565134 4.783300 19.892466 39.309139 0.141555 1.040195 0.156869 -0.045481 443243.000000 0 0 1
34.222134 6.013300 19.426166 39.808167 0.173938 1.061006 0.165057 -0.032286 943476.000000 0 0 1
35.785334 5.941000 19.265866 41.073826 0.164517 1.082576 0.132432 -0.034390 650850.000000 0 0 1
36.543034 5.951400 20.467566 42.305245 0.161443 1.065797 0.122990 -0.031565 192145.000000 0 0 1
36.627334 7.208600 21.158566 42.909328 0.194326 1.055147 0.128019 -0.028738 -229469.000000 0 0 1
37.346834 7.027900 22.522646 44.175185 0.186004 1.035788 0.136717 -0.029494 636897.000000 0 0 1
36.513134 6.223400 23.347096 43.783862 0.168820 1.008376 0.145163 -0.020836 631788.000000 0 0 1
37.360134 5.522800 24.223066 44.866890 0.146763 1.000493 0.149883 -0.020302 173570.000000 0 0 1
36.603034 4.465300 25.064496 44.586432 0.121393 0.973807 0.149134 -0.016231 -80812.800000 0 0 1
36.205334 3.325400 24.343266 43.754761 0.091591 0.980801 0.155954 -0.027925 185384.000000 0 0 1
35.842534 2.287100 25.238546 43.896495 0.063723 0.958246 0.156930 -0.034265 -133789.000000 0 0 1
35.646334 0.866600 24.502396 43.264067 0.024306 0.968732 0.121351 -0.028794 180831.000000 0 0 1
34.511734 0.800600 23.626026 41.831685 0.023194 0.970620 0.134828 -0.027179 484702.000000 0 0 1
34.358434 -0.522800 23.169006 41.443674 -0.015215 0.977559 0.117920 -0.022177 -326486.000000 0 0 1
33.123734 -0.947500 22.398916 39.997387 -0.028597 0.976399 0.135104 -0.019287 -1260710.000000 0 0 1
31.904734 -1.077100 23.006716 39.349475 -0.033747 0.946315 0.128583 -0.017367 -1226970.000000 0 0 1
30.974634 -1.694800 22.152066 38.118425 -0.054661 0.950670 0.148274 -0.017110 282840.000000 0 0 1
29.561334 -1.680800 22.810466 37.376663 -0.056797 0.914374 0.127109 -0.012023 213215.000000 0 0 1
28.874734 -0.451100 22.782596 36.783154 -0.015621 0.902849 0.142981 -0.018502 -700955.000000 0 0 1
27.509134 -0.690000 22.647216 35.638812 -0.025077 0.882186 0.119185 -0.015731 -725244.000000 0 0 1
26.724634 0.603100 22.458296 34.913391 0.022563 0.872051 0.098948 -0.015017 -413341.000000 0 0 1
26.969034 1.265600 21.225466 34.343135 0.046894 0.904548 0.117308 -0.025308 94623.000000 0 0 1
26.287334 2.500600 21.189966 33.856928 0.094840 0.894552 0.104403 -0.029689 -118042.000000 0 0 1
26.550234 3.444800 19.972566 33.401871 0.129026 0.929858 0.120284 -0.035865 -134218.000000 0 0 1
26.077634 3.052000 18.679166 32.222181 0.116505 0.952437 0.109784 -0.029177 -115614.000000 0 0 1
25.253634 4.041300 18.188066 31.382860 0.158683 0.952615 0.127346 -0.027015 -458147.000000 0 0 1
24.816034 3.806400 16.743666 30.177385 0.152199 0.982624 0.138471 -0.027946 931547.000000 0 0 1
25.946934 3.907900 15.818966 30.639105 0.149488 1.028272 0.147392 -0.014474 1270880.000000 0 0 1
25.595434 3.847100 14.458766 29.647636 0.149187 1.061358 0.129286 -0.014084 -458842.000000 0 0 1
25.101234 2.534700 13.841766 28.776573 0.100638 1.068992 0.130092 -0.000905 -1007580.000000 0 0 1
23.816434 2.157000 14.140666 27.781894 0.090321 1.036787 0.147397 0.001676 -909916.000000 0 0 1
23.561934 0.857000 13.615766 27.226609 0.036356 1.047093 0.137878 0.007511 -512046.000000 0 0 1
22.072634 0.480200 13.568966 25.914255 0.021752 1.019713 0.198709 -0.022012 -900067.000000 0 0 1
21.329034 1.167900 12.614566 24.807639 0.054702 1.037360 0.247357 -0.023684 285302.000000 0 1 0
21.390434 0.768800 11.188366 24.152044 0.035926 1.089141 0.251654 -0.026873 -813856.000000 0 1 0
21.002534 -0.713200 10.819866 23.636510 -0.033945 1.095321 0.249480 -0.025802 -235321.000000 0 1 0
21.967534 -1.721300 11.007366 24.631231 -0.078197 1.107514 0.240542 -0.047654 514474.000000 0 1 0
23.068534 -1.683100 10.094566 25.236686 -0.072832 1.159284 0.257086 -0.042651 470853.000000 0 0 1
24.324734 -2.453500 10.595366 26.645340 -0.100524 1.161848 0.253544 -0.053984 382072.000000 0 0 1
25.014534 -1.864800 11.732466 27.692149 -0.074411 1.133298 0.225570 -0.051052 623844.000000 0 0 1
26.166434 -2.599000 12.103666 28.947121 -0.099001 1.139410 0.146636 -0.040590 221046.000000 0 0 1
26.501734 -2.353400 13.629766 29.893995 -0.088569 1.097372 0.124652 -0.028955 -343255.000000 0 0 1
27.192734 -1.157200 13.844566 30.536141 -0.042530 1.100239 0.090638 -0.015973 7685.620000 0 0 1
27.241834 -0.758600 15.238066 31.223255 -0.027840 1.060958 0.103734 -0.017778 303655.000000 0 0 1
28.260734 0.432500 15.324266 32.151038 0.015303 1.073975 0.158612 -0.021539 -301326.000000 0 0 1
29.576034 0.031600 15.248266 33.275402 0.001068 1.094777 0.179483 -0.029995 -884217.000000 0 0 1
30.522234 1.012900 14.869766 33.966788 0.033173 1.117675 0.168540 -0.032875 268286.000000 0 0 1
31.978434 0.563100 15.160566 35.394633 0.017607 1.128153 0.178607 -0.038174 -67870.300000 0 0 1
32.355334 -0.460100 14.244766 35.355236 -0.014219 1.156109 0.199415 -0.036155 -294977.000000 0 0 1
33.648434 -0.869000 14.612066 36.694478 -0.025820 1.161233 0.160376 -0.035325 -257493.000000 0 0 1
34.154934 -1.943500 13.647366 36.831879 -0.056841 1.191215 0.135190 -0.039703 -293340.000000 0 0 1
34.572334 -1.313400 12.473166 36.777047 -0.037972 1.224776 0.145603 -0.044939 311546.000000 0 0 1
35.359034 -2.169300 11.652866 37.292847 -0.061274 1.253005 0.133275 -0.050172 105048.000000 0 0 1
35.210434 -1.745000 10.170466 36.691389 -0.049519 1.289929 0.163864 -0.049570 -100161.000000 0 0 1
35.835634 -0.548200 9.730666 37.137300 -0.015296 1.305683 0.127797 -0.043712 777336.000000 0 0 1
34.964134 0.530000 9.954666 36.357488 0.015157 1.293455 0.147185 -0.040337 -362151.000000 0 0 1
35.692834 1.819000 9.487466 36.977009 0.050919 1.311317 0.158004 -0.045902 -114038.000000 0 0 1
35.773634 1.959800 8.068166 36.724501 0.054729 1.349295 0.135099 -0.040312 449687.000000 0 0 1
36.162634 3.239500 7.644366 37.103461 0.089343 1.363282 0.135142 -0.035718 -158500.000000 0 0 1
36.260334 3.338400 6.082966 36.918277 0.091809 1.405273 0.118888 -0.031181 -8959.090000 0 0 1
36.886434 4.518900 5.623366 37.585259 0.121901 1.420616 0.125621 -0.016030 280939.000000 0 0 1
37.103634 4.401800 4.239866 37.603616 0.118083 1.457805 0.129607 -0.008605 -335542.000000 0 0 1
37.357334 5.804600 3.640866 37.980517 0.154148 1.474787 0.156286 -0.030888 663461.000000 0 0 1
36.205734 6.677900 3.656066 36.997518 0.182393 1.471816 0.151887 -0.036806 905712.000000 0 0 1
36.595234 8.001300 3.328066 37.607286 0.215256 1.482185 0.140104 -0.044117 -1185120.000000 0 0 1
35.449834 8.967600 3.594766 36.742767 0.247768 1.472804 0.165094 -0.051368 73310.200000 0 0 1
34.475034 9.073900 2.564366 35.741287 0.257365 1.498987 0.192041 -0.055111 440248.000000 0 0 1
33.604734 7.958300 2.467766 34.622284 0.232537 1.499459 0.197013 -0.039245 -709611.000000 0 0 1
32.421034 8.049000 1.466466 33.437410 0.243345 1.526925 0.236145 -0.039819 372885.000000 0 0 1
32.853634 7.972600 0.130966 33.807407 0.238068 1.566922 0.261660 -0.028628 930608.000000 0 0 1
31.723334 7.645600 -0.712234 32.639430 0.236499 1.592619 0.267158 -0.026479 674791.000000 0 0 1
32.110334 7.488900 -2.189534 33.044685 0.229128 1.637105 0.234168 -0.011803 188903.000000 0 0 1
31.053234 6.850400 -2.919334 31.933585 0.217124 1.662343 0.276586 -0.017672 801996.000000 0 0 1
31.407434 6.596500 -4.216534 32.368502 0.207021 1.701434 0.230966 -0.012180 43967.400000 0 0 1
30.350934 5.753500 -5.010334 31.295134 0.187343 1.731588 0.274718 -0.007216 49171.500000 0 0 1
30.581934 4.367300 -4.886534 31.276288 0.141847 1.727677 0.294727 -0.003080 463948.000000 0 0 1
29.482834 3.613300 -5.324034 30.176792 0.121948 1.748153 0.298160 -0.007663 -302636.000000 0 0 1
29.729134 2.113500 -5.142734 30.244603 0.070972 1.741665 0.331083 -0.004666 -322831.000000 0 0 1
29.544834 1.739100 -3.838534 29.843861 0.058795 1.699774 0.381833 -0.021072 280343.000000 0 0 1
29.257434 0.391000 -3.747634 29.499069 0.013363 1.698183 0.331179 -0.032380 -243161.000000 0 0 1
29.310234 0.045800 -2.259334 29.397219 0.001563 1.647728 0.325258 -0.038378 1023910.000000 0 0 1
30.617134 0.170700 -1.634634 30.661214 0.005575 1.624134 0.294486 -0.033713 1019360.000000 0 0 1
30.580834 0.037600 -0.196634 30.581489 0.001230 1.577226 0.301433 -0.029751 165963.000000 0 0 1
31.956134 0.461200 0.372866 31.961637 0.014431 1.559130 0.324109 -0.025489 99736.800000 0 0 1
33.034134 -0.316900 -0.038734 33.035677 -0.009593 1.571969 0.249533 -0.022441 -225073.000000 0 0 1
34.288434 0.211700 0.311066 34.290498 0.006174 1.561725 0.158150 -0.021132 -97682.000000 0 0 1
-2.844666 -21.301000 -8.132071 22.977278 1.438036 1.932553 0.073486 -0.007810 108049.000000 0 1 0
-3.344766 -21.841400 -6.933271 23.158248 1.418838 1.874846 0.070793 -0.008037 -324518.000000 0 1 0
-2.856166 -23.122600 -6.527671 24.195512 1.447896 1.843970 0.071124 -0.005410 -34135.500000 0 1 0
-3.339666 -23.541300 -5.155371 24.329488 1.429873 1.784313 0.081151 -0.012076 -99232.700000 0 1 0
-2.697166 -22.715200 -4.198671 23.256909 1.452611 1.752326 0.083080 -0.017291 21937.600000 0 1 0
-3.109366 -23.148900 -2.928771 23.539699 1.437275 1.695538 0.089817 -0.027695 -201842.000000 0 1 0
-2.510866 -22.445100 -1.749871 22.652792 1.459392 1.648121 0.082376 -0.036170 504709.000000 0 1 0
-1.121166 -22.730800 -1.524971 22.809467 1.521513 1.637703 0.076645 -0.023387 318463.000000 0 1 0
-0.812366 -22.301700 -0.161771 22.317077 1.534386 1.578045 0.058860 -0.031085 -467669.000000 0 1 0
0.685634 -22.353800 0.095829 22.364517 -1.540134 1.566511 0.049074 -0.030543 -352972.000000 0 1 0
1.385534 -21.329300 -0.619071 21.383217 -1.505928 1.599752 0.038612 -0.026352 -310510.000000 0 1 0
2.577934 -20.976700 0.039929 21.134552 -1.448514 1.568907 0.034947 -0.027232 184448.000000 0 1 0
3.422334 -19.913200 -0.747371 20.218963 -1.400596 1.607769 0.038127 -0.023390 345388.000000 0 1 0
4.212734 -20.477400 -1.769971 20.981035 -1.367901 1.655257 0.022058 -0.011095 -121312.000000 0 1 0
5.024634 -19.478800 -2.392171 20.258160 -1.318346 1.689157 0.035561 -0.006123 -72144.300000 0 1 0
5.831334 -19.889900 -3.615671 21.040096 -1.285607 1.743500 0.029424 -0.001053 -1114810.000000 0 1 0
6.693634 -20.931900 -3.241971 22.213949 -1.261292 1.717262 0.036978 -0.007408 -542027.000000 0 1 0
7.605734 -21.389300 -4.179371 23.082818 -1.229154 1.752860 0.030900 -0.004773 386233.000000 0 1 0
8.760634 -20.442100 -4.637171 22.718528 -1.165916 1.776355 0.062966 -0.014239 -186642.000000 0 1 0
8.307034 -19.438600 -5.550871 21.855849 -1.166939 1.827586 0.031802 -0.015080 -405802.000000 0 1 0
9.399834 -18.661400 -5.906871 21.713955 -1.104189 1.846299 0.048711 -0.028726 -559246.000000 0 1 0
9.273134 -17.657400 -7.174171 21.195365 -1.087216 1.916096 0.028974 -0.015807 415419.000000 0 1 0
10.534034 -16.977300 -7.332071 21.282712 -1.015456 1.922511 0.044395 -0.030869 925719.000000 0 1 0
10.658434 -16.263000 -8.554171 21.242910 -0.990649 1.985243 0.047825 -0.010932 -321755.000000 0 1 0
10.870134 -17.037300 -9.878771 22.494877 -1.002889 2.025456 0.041508 0.005045 -1203930.000000 0 1 0
9.853334 -17.636300 -10.574771 22.802479 -1.061301 2.053026 0.035016 -0.003577 -658017.000000 0 1 0
9.080934 -16.727400 -11.364571 22.168057 -1.073438 2.109071 0.021623 -0.014038 167870.000000 0 1 0
8.580134 -17.324800 -12.729671 23.147611 -1.110955 2.153082 0.028870 -0.021031 -300497.000000 0 1 0
7.457534 -18.131200 -12.562671 23.284671 -1.180579 2.140670 0.022673 -0.010726 -357459.000000 0 1 0
6.911934 -18.537900 -13.784371 24.113014 -1.213908 2.179320 0.033833 -0.008419 112961.000000 0 1 0
5.760334 -19.538400 -13.538271 24.458440 -1.284097 2.157383 0.035452 -0.001213 -209964.000000 0 1 0
6.238534 -20.835800 -13.293971 25.490773 -1.279877 2.119429 0.036616 -0.001083 -548641.000000 0 0 1
5.305634 -21.730400 -12.795771 25.769978 -1.331324 2.090402 0.074810 -0.012814 -354126.000000 0 0 1
5.889234 -23.165300 -12.654771 27.045469 -1.321844 2.057718 0.036076 -0.020558 -592352.000000 0 0 1
6.036234 -23.909900 -13.838971 28.277845 -1.323506 2.082190 0.054612 -0.019705 -24251.700000 0 0 1
5.382934 -25.175510 -13.774171 29.197775 -1.360152 2.062075 0.044009 -0.012122 296942.000000 0 0 1
3.844134 -25.209890 -13.795071 28.993445 -1.419477 2.066669 0.071264 -0.028017 -490479.000000 0 0 1
3.091034 -24.660900 -12.704071 27.912504 -1.446105 2.043325 0.091365 -0.035772 520369.000000 0 0 1
1.672434 -24.756000 -12.818571 27.927984 -1.503342 2.047651 0.094149 -0.051110 507819.000000 0 0 1
1.010434 -26.161330 -12.602071 29.055952 -1.532192 2.019411 0.094415 -0.034078 -709732.000000 0 0 1
1.315334 -27.138190 -13.611171 30.388738 -1.522366 2.035214 0.090109 -0.027812 152696.000000 0 0 1
0.697134 -28.385380 -13.336471 31.370005 -1.546242 2.009907 0.076950 -0.028512 991592.000000 0 0 1
-0.793966 -28.595290 -13.786671 31.755208 1.543038 2.019896 0.061580 -0.030357 592329.000000 0 0 1
-1.764266 -27.796320 -13.180871 30.813688 1.507410 2.012810 0.079218 -0.034578 -543687.000000 0 0 1
-3.027466 -28.123770 -13.705571 31.431746 1.463561 2.021992 0.097337 -0.021215 -385135.000000 0 0 1
-4.198266 -27.498980 -12.913571 30.668871 1.419296 2.005415 0.080287 -0.034169 -120152.000000 0 0 1
-4.394966 -27.917860 -11.550471 30.530902 1.414653 1.958778 0.080258 -0.038330 72233.900000 0 0 1
-4.969666 -29.214150 -11.438071 31.764659 1.402298 1.939158 0.076240 -0.042315 -943566.000000 0 0 1
-5.508766 -29.532930 -10.019471 31.669074 1.386386 1.892708 0.074289 -0.040761 -324152.000000 0 0 1
-6.792466 -29.108130 -9.623371 31.401116 1.341546 1.882274 0.088277 -0.033323 -128317.000000 0 0 1
-7.011266 -27.692510 -9.640471 30.149156 1.322824 1.896272 0.102636 -0.035189 -1428750.000000 0 0 1
-8.366966 -27.350570 -9.001271 29.984707 1.273921 1.875694 0.102514 -0.033194 317066.000000 0 0 1
-9.489166 -27.294810 -9.869371 30.536132 1.236212 1.899909 0.136092 -0.042452 -87622.400000 0 0 1
-9.898666 -28.553570 -10.336271 31.939449 1.237091 1.900350 0.139327 -0.047140 -1025290.000000 0 0 1
-11.388966 -28.662920 -10.718871 32.652193 1.192584 1.905272 0.140053 -0.044361 379.907000 0 0 1
-11.760166 -27.835750 -11.814271 32.445454 1.171058 1.943492 0.153916 -0.050590 116283.000000 0 0 1
-12.212566 -28.527030 -12.996571 33.642964 1.166299 1.967423 0.169179 -0.055221 54392.700000 0 0 1
-12.762566 -27.483580 -14.016771 33.387125 1.136056 2.004050 0.169265 -0.051260 662367.000000 0 0 1
-14.011266 -26.818620 -13.767671 33.243085 1.089354 1.997807 0.171793 -0.058389 429390.000000 0 0 1
-13.911766 -25.704520 -12.860971 31.932180 1.074720 1.985325 0.167153 -0.054695 -37640.200000 0 0 1
-14.783966 -24.505300 -13.353271 31.581406 1.027956 2.007352 0.167128 -0.050992 -357532.000000 0 0 1
-14.366666 -23.943400 -14.564471 31.493036 1.030358 2.051571 0.182190 -0.046089 159639.000000 0 0 1
-15.110166 -22.811000 -15.013771 31.210129 0.985749 2.072653 0.183066 -0.046654 -82651.700000 0 0 1
-14.496966 -22.226000 -16.313871 31.149630 0.992839 2.122015 0.172449 -0.037170 -764205.000000 0 0 1
-13.259666 -21.633700 -16.151071 30.078111 1.020933 2.137639 0.171289 -0.033346 -729130.000000 0 0 1
-12.824866 -21.119300 -17.379871 30.208640 1.025057 2.183801 0.119832 -0.029314 -283298.000000 0 0 1
-13.188866 -19.630800 -17.691771 29.534949 0.979217 2.213062 0.120699 -0.014481 321435.000000 0 0 1
-12.176166 -18.697500 -17.249571 28.202893 0.993565 2.228908 0.114542 -0.007804 550148.000000 0 0 1
-12.431666 -17.333200 -17.567971 27.633670 0.948609 2.259770 0.116286 -0.005464 323830.000000 0 0 1
-11.153866 -16.445000 -17.578471 26.530160 0.974815 2.295060 0.120208 -0.012897 328625.000000 0 0 1
-10.679866 -15.949300 -16.345371 25.211324 0.980756 2.276191 0.141662 -0.011619 -758701.000000 0 0 1
-9.422666 -15.387600 -16.459971 24.423257 1.021342 2.310334 0.110053 -0.013868 -946384.000000 0 1 0
-8.762966 -14.905500 -15.141971 22.983533 1.039320 2.290043 0.094522 -0.013461 178787.000000 0 1 0
-8.204466 -15.882200 -14.245071 22.857812 1.093971 2.243629 0.089025 -0.005322 764458.000000 0 1 0
-6.970366 -16.487900 -14.666271 23.141658 1.170828 2.257202 0.077301 -0.002487 275402.000000 0 1 0
-6.353066 -17.345100 -13.557471 22.913292 1.219697 2.203945 0.068370 -0.004652 -615868.000000 0 1 0
-5.553766 -16.650100 -12.653371 21.637420 1.248844 2.195419 0.056923 -0.007645 -7590.730000 0 1 0
-5.372966 -17.334400 -11.449271 21.457772 1.270227 2.133615 0.056491 -0.017824 -18857.700000 0 1 0
-4.384166 -18.550900 -11.418671 22.220325 1.338723 2.110503 0.066102 -0.014188 873703.000000 0 1 0
-3.041766 -18.109300 -11.711971 21.780021 1.404383 2.138550 0.059565 -0.004149 154839.000000 0 1 0
-2.118066 -19.148900 -11.770171 22.576614 1.460634 2.119221 0.050041 0.001393 52293.000000 0 1 0
-0.747366 -18.628200 -12.251271 22.308340 1.530698 2.152178 0.036986 0.003463 -1070760.000000 0 1 0
-0.579666 -18.497500 -13.656871 23.000079 1.539469 2.206539 0.047513 0.011206 -78810.500000 0 1 0
0.673434 -17.872200 -13.974271 22.696900 -1.533134 2.234059 0.046916 0.000469 910524.000000 0 1 0
1.947434 -18.703400 -13.704771 23.268657 -1.467048 2.200592 0.048888 -0.013180 -941693.000000 0 1 0
2.220734 -19.741600 -14.654871 24.686589 -1.458777 2.206367 0.079242 -0.002577 -230803.000000 0 1 0
1.408034 -20.871800 -14.512371 25.460233 -1.503437 2.177304 0.084058 -0.007491 -702275.000000 0 0 1
1.560934 -21.825200 -15.730171 26.948360 -1.499398 2.194093 0.098388 -0.015297 884325.000000 0 0 1
2.824734 -22.445900 -15.966771 27.689986 -1.445608 2.185389 0.093352 -0.021734 988570.000000 0 0 1
3.933834 -21.604500 -16.332371 27.367422 -1.390686 2.210280 0.088005 -0.024622 973732.000000 0 0 1
5.322434 -22.232400 -16.673671 28.295215 -1.335819 2.200958 0.100443 -0.020269 651884.000000 0 0 1
5.441334 -22.802600 -17.940371 29.519884 -1.336549 2.224006 0.097757 -0.023612 509997.000000 0 0 1
6.747834 -23.347100 -18.144671 30.329019 -1.289441 2.212126 0.097496 -0.029449 556605.000000 0 0 1
7.175834 -23.312000 -19.595771 31.287955 -1.272183 2.247599 0.105658 -0.024154 -163210.000000 0 0 1
7.421034 -22.004600 -20.055671 30.683938 -1.245526 2.283156 0.116532 -0.033724 -3958.430000 0 0 1
7.748734 -21.953800 -21.418971 31.635178 -1.231490 2.314559 0.101409 -0.031524 -284762.000000 0 0 1
7.919134 -20.504600 -21.999371 31.098611 -1.202232 2.356619 0.089275 -0.037402 762799.000000 0 0 1
6.679334 -19.782400 -21.999671 30.330551 -1.245175 2.382311 0.112024 -0.034236 682072.000000 0 0 1
6.944334 -18.450300 -22.299171 29.763910 -1.210816 2.417652 0.116549 -0.025539 370717.000000 0 0 1
5.634034 -17.616900 -22.513371 29.136735 -1.261267 2.453848 0.125806 -0.021506 -277307.000000 0 0 1
5.013834 -18.036800 -23.695671 30.198501 -1.299664 2.472950 0.122578 -0.022389 263955.000000 0 0 1
4.037834 -17.111800 -24.210871 29.921298 -1.339067 2.513503 0.135123 -0.023696 2217060.000000 0 0 1
2.651634 -16.879500 -23.437371 29.004465 -1.414978 2.511649 0.141527 -0.021829 1083400.000000 0 0 1
2.882434 -16.166600 -22.259271 27.661209 -1.394355 2.505984 0.142415 -0.025379 582984.000000 0 0 1
1.643734 -15.783300 -21.624471 26.822232 -1.467027 2.508522 0.126120 -0.027160 1168990.000000 0 0 1
2.033534 -15.162600 -20.290171 25.411232 -1.437477 2.495550 0.115268 -0.030268 116861.000000 0 0 1
2.687934 -13.930700 -20.425171 24.869197 -1.380188 2.534489 0.103803 -0.028083 -209800.000000 0 1 0
2.919734 -13.221000 -19.205071 23.497966 -1.353444 2.527519 0.093008 -0.027338 514620.000000 0 1 0
4.041134 -12.126400 -19.217671 23.080277 -1.249120 2.554662 0.095308 -0.029886 770345.000000 0 1 0
5.398734 -12.566200 -19.143771 23.527424 -1.165016 2.521249 0.093739 -0.036410 1242410.000000 0 1 0
6.480634 -11.650300 -19.461871 23.590093 -1.063157 2.541002 0.086637 -0.030843 999811.000000 0 1 0
6.575034 -10.295600 -18.662171 22.304866 -1.002459 2.562000 0.084169 -0.018918 -97084.500000 0 1 0
5.333934 -9.549700 -18.620671 21.595763 -1.061417 2.610466 0.056009 -0.007634 571216.000000 0 1 0
5.164534 -8.419100 -19.451871 21.815795 -1.020560 2.671755 0.070970 -0.016567 -371286.000000 0 1 0
4.514534 -8.750100 -20.815571 23.026794 -1.094478 2.699765 0.088545 -0.033479 552885.000000 0 1 0
3.096234 -8.848000 -20.620471 22.651216 -1.234178 2.714919 0.085034 -0.033288 150618.000000 0 1 0
2.471534 -9.216900 -21.820671 23.815990 -1.308807 2.729337 0.095205 -0.034216 -207372.000000 0 1 0
0.944334 -9.134600 -21.727971 23.588925 -1.467782 2.741716 0.069488 -0.036815 -392783.000000 0 1 0
0.476234 -7.819000 -21.612171 22.988029 -1.509964 2.793863 0.067627 -0.030527 -56410.900000 0 1 0
-0.941366 -7.842800 -21.753571 23.143325 1.451338 2.793280 0.074380 -0.028486 305335.000000 0 1 0
-1.338066 -6.805600 -22.788371 23.820505 1.376660 2.846140 0.062224 -0.023078 -191942.000000 0 1 0
-0.746666 -7.068400 -24.022571 25.052020 1.465552 2.853923 0.070830 -0.032864 -384707.000000 0 0 1
-1.391866 -6.418100 -25.082171 25.927680 1.357238 2.885510 0.098014 -0.040396 86830.000000 0 0 1
-1.049866 -4.911300 -25.255521 25.750037 1.360201 2.945296 0.105956 -0.038278 -6951.200000 0 0 1
-1.749666 -4.324700 -26.301651 26.712192 1.186352 2.966044 0.110365 -0.035781 -353540.000000 0 0 1
-1.240466 -3.106900 -26.796221 27.004241 1.190927 3.017390 0.092603 -0.029155 -717038.000000 0 0 1
-1.575166 -1.820600 -25.933961 26.045461 0.857549 3.049029 0.083854 -0.035518 754248.000000 0 0 1
-2.985966 -1.592700 -25.827131 26.047905 0.490005 3.011303 0.067303 -0.036591 415697.000000 0 0 1
-3.651366 -1.159700 -26.986121 27.256707 0.307531 3.000569 0.091016 -0.028807 -1492810.000000 0 0 1
-5.138366 -1.358800 -26.803681 27.325564 0.258524 2.945839 0.057881 -0.035920 -861103.000000 0 0 1
-5.710766 -0.269700 -26.109081 26.727695 0.047191 2.926024 0.067032 -0.026477 331768.000000 0 0 1
-7.114966 -0.401400 -25.900351 26.862837 0.056357 2.873094 0.102896 -0.045625 433888.000000 0 0 1
-7.776766 0.842200 -25.249431 26.433334 -0.107877 2.841171 0.110721 -0.044561 -749224.000000 0 0 1
-8.029666 1.994900 -26.062971 27.344718 -0.243511 2.834202 0.129889 -0.042768 680782.000000 0 0 1
-9.070166 2.058400 -27.059571 28.613376 -0.223162 2.810527 0.155109 -0.048857 879768.000000 0 0 1
-10.508266 1.626500 -26.649901 28.692967 -0.153564 2.761946 0.156943 -0.047818 388390.000000 0 0 1
-11.551266 2.090700 -27.541211 29.938621 -0.179055 2.738679 0.164934 -0.056096 1648320.000000 0 0 1
-12.838566 1.550600 -27.108601 30.035136 -0.120195 2.696482 0.114999 -0.032000 1058260.000000 0 0 1
-13.968866 2.059300 -28.013581 31.370856 -0.146366 2.674722 0.090693 -0.022706 -587996.000000 0 0 1
-15.214166 1.510700 -27.652161 31.597390 -0.098971 2.636523 0.072298 -0.016566 494512.000000 0 0 1
-16.396566 2.093500 -28.206961 32.693466 -0.126992 2.611520 0.069462 -0.019533 746322.000000 0 0 1
-16.882066 3.443500 -27.607791 32.543078 -0.201214 2.583650 0.064894 -0.006836 -201140.000000 0 0 1
-16.000666 4.579000 -27.763061 32.369370 -0.278726 2.601567 0.091161 -0.017138 194220.000000 0 0 1
-15.962166 5.169800 -29.050581 33.547784 -0.313217 2.617836 0.066940 -0.022523 534184.000000 0 0 1
-17.324666 5.626500 -29.703481 34.843914 -0.314022 2.591493 0.053245 -0.015536 644082.000000 0 0 1
-17.897066 6.769300 -29.156421 34.874421 -0.361604 2.560822 0.058785 -0.009723 399864.000000 0 0 1
-19.009366 7.251000 -29.922531 36.184124 -0.364408 2.544461 0.036171 -0.007650 -313758.000000 0 0 1
-19.855666 8.275100 -29.197931 36.266292 -0.394873 2.506638 0.039092 -0.015551 -879353.000000 0 0 1
-19.270566 9.418000 -28.625011 35.769326 -0.454587 2.498537 0.036306 -0.014538 230663.000000 0 0 1
-20.247666 10.341300 -28.146931 36.182319 -0.472203 2.462144 0.057184 -0.016809 -4173.110000 0 0 1
-9.109166 24.898300 30.546996 40.447759 -1.220067 0.714805 0.059300 -0.015062 -804613.000000 0 0 1
-9.975266 26.038800 30.533136 41.349697 -1.204950 0.740083 0.059664 -0.013960 87508.500000 0 0 1
-9.651566 27.097500 31.343057 42.541914 -1.228627 0.742535 0.071667 -0.020851 -262519.000000 0 0 1
-8.328166 27.853000 31.119786 42.586254 -1.280253 0.751380 0.070885 -0.024324 -60474.300000 0 0 1
-8.434266 28.652800 29.941026 42.291664 -1.284521 0.784183 0.076170 -0.010387 -93409.300000 0 0 1
-7.146266 28.768000 29.412816 41.758600 -1.327314 0.789284 0.084165 -0.006974 -307106.000000 0 0 1
-6.908766 30.006300 28.534236 41.979897 -1.344496 0.823427 0.106870 -0.010767 -152945.000000 0 0 1
-7.000066 31.168700 29.289046 43.339785 -1.349876 0.828746 0.104392 -0.015173 321406.000000 0 0 1
-6.337666 32.163500 28.543876 43.467339 -1.376243 0.854396 0.108769 -0.013206 -79134.800000 0 0 1
-6.535066 33.598900 29.005406 44.865429 -1.378692 0.867811 0.117747 -0.018751 -357629.000000 0 0 1
-5.932966 -33.721914 30.257176 45.693153 1.396641 0.847070 0.131067 -0.027328 -499399.000000 0 0 1
-6.580866 -32.869414 31.154046 45.763312 1.373196 0.821990 0.123900 -0.036743 -344205.000000 0 0 1
-7.736266 -33.468914 31.988322 46.939011 1.343638 0.821004 0.079027 -0.027823 -75320.000000 0 0 1
-7.466266 33.227700 32.980457 47.408182 -1.349767 0.801444 0.083181 -0.023962 -136100.000000 0 0 1
-7.327066 31.902800 32.462101 46.100570 -1.345043 0.789559 0.091227 -0.017015 -258093.000000 0 0 1
-7.054666 30.849800 33.522716 46.100444 -1.345984 0.756611 0.083238 -0.022702 -115361.000000 0 0 1
-5.723566 30.707100 -33.373201 45.710565 -1.386519 2.389262 0.097783 -0.030155 -254664.000000 0 0 1
-5.767266 30.359000 -32.000681 44.485659 -1.383064 2.373660 0.094650 -0.023881 362766.000000 0 0 1
-4.338266 30.266000 -31.343551 43.786636 -1.428428 2.368601 0.086043 -0.025653 1213290.000000 0 0 1
-3.621166 29.023800 -31.489661 42.977815 -1.446672 2.393071 0.094850 -0.019495 389569.000000 0 0 1
-3.182566 28.734600 -32.791931 43.716321 -1.460489 2.419021 0.093253 -0.020905 -603914.000000 0 0 1
-2.461066 27.385700 -33.059561 42.999628 -1.481170 2.447811 0.109149 -0.032868 -9218.050000 0 0 1
-1.233066 27.269900 -32.354261 42.331620 -1.525610 2.440759 0.132537 -0.029433 876035.000000 0 0 1
-0.457566 26.040400 -32.463681 41.619735 -1.553227 2.465473 0.144593 -0.031339 650485.000000 0 0 1
0.121134 25.643900 33.487966 42.179001 1.566073 0.653520 0.141736 -0.023196 -643923.000000 0 0 1
-0.846266 25.256200 32.537504 41.198070 -1.537302 0.660342 0.134188 -0.023007 -257913.000000 0 0 1
-0.544666 25.314600 31.151756 40.144209 -1.549284 0.682503 0.139458 -0.018180 -171122.000000 0 0 1
-0.408066 26.761200 30.617276 40.666275 -1.555549 0.718352 0.130116 -0.019998 -374268.000000 0 0 1
-1.603366 27.471300 30.562046 41.125196 -1.512497 0.733036 0.118684 -0.025193 -290436.000000 0 0 1
-1.376966 28.626200 29.838986 41.372943 -1.522732 0.765235 0.115729 -0.018879 137175.000000 0 0 1
-2.644266 29.505200 29.851976 42.055790 -1.481415 0.781556 0.123407 -0.027234 65445.400000 0 0 1
-2.745166 29.966200 31.182906 43.334544 -1.479443 0.767591 0.128949 -0.026282 -284012.000000 0 0 1
-3.677366 30.993300 31.295786 44.198800 -1.452698 0.784037 0.131768 -0.023362 -416428.000000 0 0 1
-3.376766 32.044300 32.477324 45.749495 -1.465806 0.781448 0.112651 -0.020173 235792.000000 0 0 1
-2.161566 32.755700 32.226510 46.001698 -1.504901 0.794628 0.207660 -0.036620 139239.000000 0 0 1
-1.391866 32.869400 33.413786 46.891533 -1.528476 0.777633 0.135984 -0.035668 -710466.000000 0 0 1
0.020134 33.287900 33.034664 46.897481 1.570191 0.789216 0.138775 -0.053211 -686331.000000 0 0 1
0.176534 -33.047714 32.457038 46.321074 -1.565455 0.794422 0.153225 -0.059818 -95573.600000 0 0 1
1.489934 -32.778614 32.035957 45.858042 -1.525373 0.797372 0.165051 -0.059578 -170832.000000 0 0 1
1.734134 -31.283814 31.661561 44.543672 -1.515421 0.780164 0.164494 -0.058010 -26483.200000 0 0 1
1.706234 -30.452114 32.757580 44.758256 -1.514825 0.749723 0.139951 -0.046192 222305.000000 0 0 1
2.347434 -29.259114 32.355064 43.685883 -1.490739 0.736789 0.148345 -0.053322 -290718.000000 0 0 1
2.196634 -28.197014 33.449476 43.803701 -1.493050 0.701892 0.153668 -0.048418 -659012.000000 0 0 1
0.854734 -27.866614 33.534676 43.610242 -1.540134 0.693578 0.136160 -0.050564 -778769.000000 0 0 1
0.487534 -27.379014 -32.558371 42.542868 -1.552991 2.442315 0.114462 -0.039138 276937.000000 0 0 1
-1.025866 -27.049514 -32.469251 42.272696 1.532889 2.446650 0.154624 -0.041935 465660.000000 0 0 1
-1.608266 -26.781914 -31.197981 41.148164 1.510818 2.431324 0.153267 -0.046188 11274.500000 0 0 1
-2.891666 -26.219114 -31.257431 40.900252 1.460952 2.440652 0.181652 -0.057116 -58743.200000 0 0 1
-3.478266 -25.601614 -29.968051 39.567980 1.435762 2.430090 0.184385 -0.063978 -109276.000000 0 0 1
-4.017966 -26.513214 -29.051921 39.536169 1.420395 2.396196 0.173957 -0.063574 34565.200000 0 0 1
-4.245366 -25.998814 -27.739101 38.254662 1.408934 2.382000 0.192758 -0.059942 -138345.000000 0 0 1
-2.969766 -25.653714 -26.957501 37.331480 1.455546 2.377646 0.172055 -0.063531 144511.000000 0 0 1
-2.241366 -24.474714 -27.349431 36.769916 1.479472 2.409533 0.172683 -0.055216 116224.000000 0 0 1
-1.049266 -24.377114 -26.610251 36.103325 1.527780 2.399503 0.138613 -0.050153 -1222370.000000 0 0 1
-0.155166 -23.161514 -27.073751 35.629591 1.564097 2.433905 0.084659 -0.038511 251910.000000 0 0 1
0.534434 -23.422814 -28.257071 36.706619 -1.547983 2.449338 0.059401 -0.043350 -466267.000000 0 0 1
1.541034 -24.394514 -28.140501 37.274051 -1.507709 2.426393 0.040908 -0.029771 -1159300.000000 0 0 1
2.324434 -24.507614 -29.495681 38.419023 -1.476234 2.446097 0.049587 -0.030896 -580957.000000 0 0 1
3.293134 -23.538714 -29.559991 37.930316 -1.431796 2.464382 0.067530 -0.035098 -986895.000000 0 0 1
4.120334 -23.879114 -30.637951 39.062428 -1.399929 2.472416 0.077334 -0.034675 -75740.100000 0 0 1
5.286734 -22.844614 -30.866741 38.763148 -1.343378 2.491935 0.093801 -0.039946 998195.000000 0 0 1
6.473434 -22.969614 -30.044851 38.369279 -1.296095 2.470342 0.077946 -0.038045 1880220.000000 0 0 1
7.469234 -23.998514 -30.313211 39.377771 -1.269062 2.449332 0.084227 -0.030176 598693.000000 0 0 1
8.224634 -23.874514 -31.648381 40.487739 -1.239035 2.468148 0.096424 -0.028342 -809918.000000 0 0 1
7.600634 -24.464214 -32.762411 41.588976 -1.269567 2.477971 0.075625 -0.032216 -244834.000000 0 0 1
7.999734 -24.063014 33.274536 41.835620 -1.249842 0.651189 0.099075 -0.032067 15311.900000 0 0 1
7.307734 -22.734214 32.797026 40.569599 -1.259786 0.629344 0.091834 -0.025590 799035.000000 0 0 1
5.879634 -22.785914 32.916781 40.463347 -1.318267 0.620658 0.094246 -0.028815 628883.000000 0 0 1
5.299334 -21.587814 32.411119 39.301365 -1.330078 0.601157 0.123045 -0.048373 459072.000000 0 0 1
3.814534 -21.460014 32.853700 39.426494 -1.394883 0.585764 0.112129 -0.047523 755841.000000 0 0 1
2.832034 -22.323414 32.290015 39.357341 -1.444607 0.608630 0.104873 -0.044515 285297.000000 0 0 1
2.272734 -23.201114 33.278846 40.631744 -1.473150 0.611068 0.095260 -0.032444 1113650.000000 0 0 1
0.832034 -23.676114 32.807606 40.467143 -1.535668 0.625412 0.121638 -0.044477 945656.000000 0 0 1
0.785634 -24.579714 31.724557 40.140093 -1.538845 0.659423 0.134921 -0.044311 -20601.400000 0 0 1
-0.507766 -24.846914 31.212616 39.898049 1.550363 0.672432 0.161774 -0.057497 24803.500000 0 0 1
-0.629166 -26.173514 30.438016 40.148742 1.546763 0.710354 0.162557 -0.057776 671609.000000 0 0 1
-1.942266 -26.409614 29.905576 39.944757 1.497385 0.724738 0.181712 -0.055160 699931.000000 0 0 1
-2.013366 -27.748814 29.343636 40.436361 1.498366 0.758782 0.192373 -0.056945 518030.000000 0 0 1
-3.288166 -27.924514 28.448656 39.998957 1.453584 0.779543 0.210860 -0.049688 1720710.000000 0 0 1
-4.531366 -27.941014 29.215646 40.679079 1.410020 0.769587 0.204139 -0.048130 1106660.000000 0 0 1
-5.625266 -28.337414 28.412416 40.520588 1.374834 0.793739 0.177926 -0.039519 482215.000000 0 0 1
-6.947866 -28.533614 29.243756 41.444387 1.331947 0.787507 0.131515 -0.028407 502776.000000 0 0 1
-7.975266 -29.067114 28.394916 41.409820 1.303012 0.815225 0.135636 -0.022723 632307.000000 0 0 1
-9.247666 -29.256914 28.995946 42.216717 1.264649 0.813670 0.118234 -0.022422 78563.400000 0 0 1
-9.374866 -30.365514 30.096896 43.769575 1.271346 0.812588 0.070011 -0.016074 -812631.000000 0 0 1
-9.430266 -31.678614 29.623786 44.385056 1.281464 0.840048 0.081367 -0.014152 -16335.700000 0 0 1
-10.734166 -32.009214 29.217386 44.648267 1.247235 0.857421 0.075537 -0.016526 -434443.000000 0 0 1
-10.862266 -33.508014 28.753276 45.470064 1.257316 0.886205 0.087975 -0.012298 -135837.000000 0 0 1
-10.731266 33.200700 29.817826 45.897160 -1.258172 0.863651 0.084314 -0.011154 297519.000000 0 0 1
-10.597066 31.894100 29.285706 44.577842 -1.250014 0.854021 0.082764 -0.015987 -180339.000000 0 0 1
-11.097966 30.828100 30.227856 44.578693 -1.225245 0.825651 0.075423 0.001158 866064.000000 0 0 1
-12.536266 30.750500 30.312196 44.961989 -1.183690 0.830951 0.074928 0.002609 909057.000000 0 0 1
-12.921666 29.447800 30.835736 44.553170 -1.157296 0.806387 0.075003 -0.003430 90026.700000 0 0 1
-13.124666 29.352000 32.376446 45.629278 -1.150317 0.781931 0.075433 -0.013637 665497.000000 0 0 1
-14.380566 29.927900 32.810064 46.679548 -1.122864 0.791360 0.089286 -0.004211 942634.000000 0 0 1
-14.515866 29.903500 -33.130251 46.931260 -1.118878 2.354534 0.090924 -0.011398 -584153.000000 0 0 1
-15.905166 30.103800 -32.546831 47.101054 -1.084731 2.333668 0.083793 -0.006080 -497718.000000 0 0 1
-15.920766 29.595300 -31.268311 45.902721 -1.077252 2.320178 0.065282 -0.000983 -456876.000000 0 0 1
-17.144866 29.809500 -30.644231 46.061064 -1.048851 2.298686 0.076338 0.003843 -401256.000000 0 0 1
-17.147866 29.211900 -29.198311 44.720530 -1.039978 2.282211 0.085251 -0.006528 16933.200000 0 0 1
-17.192166 27.826400 -29.124651 43.796397 -1.017365 2.298292 0.075422 -0.007559 183676.000000 0 0 1
-17.031766 27.350600 -27.797831 42.554151 -1.013838 2.282645 0.063728 -0.003700 -116016.000000 0 0 1
-17.671466 25.951400 -27.611371 41.810808 -0.972974 2.292132 0.047386 -0.012532 -1273360.000000 0 0 1
-19.030366 25.932700 -27.734821 42.472109 -0.937720 2.282352 0.044469 -0.010059 -1519880.000000 0 0 1
-19.544566 24.700100 -27.268961 41.661508 -0.901398 2.284365 0.035014 -0.007701 21130.000000 0 0 1
-21.036166 24.568200 -27.613441 42.527860 -0.862693 2.277463 0.050358 -0.013021 -329470.000000 0 0 1
-22.011266 24.943600 -26.688791 42.649391 -0.847767 2.246917 0.069880 -0.015688 807990.000000 0 0 1
-23.323066 24.855300 -27.272851 43.652717 -0.817191 2.245632 0.102058 -0.021456 1039810.000000 0 0 1
-24.555666 24.841800 -26.336211 43.745763 -0.791191 2.216836 0.110505 -0.020424 155646.000000 0 0 1
-24.845666 26.137900 -25.943511 44.424798 -0.810739 2.194428 0.096632 -0.016674 450987.000000 0 0 1
-25.939776 26.338900 -25.016771 44.636851 -0.793033 2.165727 0.098185 -0.016571 694240.000000 0 0 1
-25.720826 25.833400 -23.561871 43.406073 -0.787582 2.144593 0.088681 -0.014655 -874409.000000 0 0 1
-25.790996 24.400000 -23.387271 42.514702 -0.757691 2.153278 0.106082 -0.009080 -201639.000000 0 0 1
-27.097516 23.902000 -23.181171 42.929566 -0.722822 2.141211 0.111108 -0.006776 156271.000000 0 0 1
-27.772066 24.305100 -21.814971 42.870952 -0.718923 2.104647 0.086524 -0.009430 -307305.000000 0 0 1
-27.286806 23.726700 -20.576971 41.604541 -0.715724 2.088153 0.102147 -0.000385 923158.000000 0 0 1
-25.946496 24.075800 -20.186971 40.747743 -0.748018 2.089107 0.089926 0.001612 301574.000000 0 0 1
-25.437426 23.228500 -19.020171 39.349622 -0.740040 2.075289 0.080810 0.000642 -230888.000000 0 0 1
-26.087596 23.438800 -17.783771 39.321782 -0.731967 2.040097 0.074872 0.004503 161147.000000 0 0 1
-25.308646 23.084300 -16.655171 38.089463 -0.739466 2.023351 0.096527 -0.015040 -233777.000000 0 0 1
-26.010396 23.271200 -15.310671 38.111758 -0.729873 1.984203 0.102373 -0.018959 -452893.000000 0 0 1
-26.248156 24.620800 -14.989771 38.985160 -0.753418 1.965462 0.107676 -0.020381 143357.000000 0 0 1
-26.849086 24.675400 -13.685571 38.949244 -0.743236 1.929830 0.086723 -0.028428 160126.000000 0 0 1
-26.716006 26.069300 -13.051971 39.543739 -0.773147 1.907168 0.086154 -0.022488 1239690.000000 0 0 1
-25.320606 26.419300 -12.924671 38.809272 -0.806630 1.910312 0.101586 -0.024297 739742.000000 0 0 1
-25.164716 27.562900 -12.076071 39.227642 -0.830849 1.883725 0.109102 -0.025732 171196.000000 0 0 1
-23.670466 27.906400 -11.864171 38.468385 -0.867343 1.884321 0.118508 -0.029051 40108.600000 0 0 1
-22.891366 26.938800 -11.210771 37.086318 -0.866445 1.877889 0.112921 -0.031520 -1549950.000000 0 0 1
-21.958466 27.528000 -10.486371 36.741380 -0.897473 1.860231 0.107920 -0.032134 -1407980.000000 0 0 1
-20.964566 26.515500 -9.884271 35.217660 -0.901781 1.855280 0.144306 -0.034024 -249270.000000 0 0 1
-20.270066 25.779600 -10.858471 34.545184 -0.904475 1.890544 0.138044 -0.038328 442014.000000 0 0 1
-19.281766 24.940900 -10.213271 33.138285 -0.912675 1.884098 0.144190 -0.028643 585307.000000 0 0 1
-18.606966 23.869200 -11.116771 32.241906 -0.908657 1.922814 0.131718 -0.038040 -14382.600000 0 0 1
-18.098066 22.705600 -10.562771 30.897514 -0.897841 1.919697 0.100515 -0.026808 -124624.000000 0 0 1
-17.542166 21.896200 -11.551971 30.341707 -0.895354 1.961381 0.100295 -0.014639 139035.000000 0 0 1
-17.142966 20.544400 -10.944171 28.908970 -0.875408 1.959051 0.086907 -0.006490 -481784.000000 0 0 1
-18.260866 19.729200 -10.787771 28.966818 -0.824029 1.952410 0.092325 -0.003837 -479885.000000 0 0 1
-17.932666 18.392700 -10.438171 27.727736 -0.798062 1.956760 0.115753 -0.020890 -1094590.000000 0 0 1
-19.101966 17.396200 -10.276471 27.805013 -0.738696 1.949365 0.106233 -0.011615 17543.200000 0 0 1
-19.706666 16.855600 -11.420371 28.335293 -0.707577 1.985637 0.111152 -0.012098 -14384.700000 0 0 1
-20.552966 17.739500 -12.105071 29.726201 -0.712057 1.990203 0.117261 -0.017570 -386871.000000 0 0 1
-21.376666 17.094600 -13.280271 30.422899 -0.674549 2.022526 0.122461 -0.022025 517321.000000 0 0 1
-20.572766 16.931500 -14.475371 30.322446 -0.688612 2.068468 0.126776 -0.027774 399586.000000 0 0 1
-21.308866 16.546200 -15.620971 31.174657 -0.660243 2.095642 0.131327 -0.026725 -292828.000000 0 0 1
-20.469666 16.354600 -16.899571 31.178128 -0.674111 2.143651 0.136342 -0.034110 -224648.000000 0 0 1
-20.051566 17.604300 -17.471871 31.894246 -0.720499 2.150536 0.122188 -0.032662 12959.400000 0 0 1
-19.241366 17.288600 -18.599971 31.860395 -0.731992 2.194193 0.117038 -0.020611 -98092.000000 0 0 1
-18.505166 18.654800 -18.957671 32.401173 -0.789425 2.195790 0.092988 -0.020714 -363306.000000 0 0 1
-17.468066 18.943500 -18.061271 31.467428 -0.825897 2.182139 0.101845 -0.024759 97699.500000 0 0 1
-16.811066 20.154600 -18.488371 32.103578 -0.875602 2.184498 0.113567 -0.031306 264235.000000 0 0 1
34.728337 29.839600 2.869529 45.876937 0.709828 1.508207 0.078748 -0.009425 -132833.000000 0 0 1
35.819177 29.938700 1.983729 46.725522 0.696209 1.528329 0.094383 -0.012766 -10033.100000 0 0 1
35.545637 30.736600 0.830629 46.999158 0.712971 1.553122 0.066223 0.000738 -882450.000000 0 0 1
36.655547 30.779500 -0.167571 47.864756 0.698481 1.574297 0.039961 0.004895 -167891.000000 0 0 1
37.744897 31.596300 0.265629 49.224729 0.696958 1.565400 0.044758 0.006999 1296300.000000 0 0 1
-36.962066 31.604500 -0.634271 48.635800 -0.707420 1.583838 0.034394 0.005662 898774.000000 0 0 1
-36.022196 32.799500 -0.350071 48.718871 -0.738606 1.577982 0.048124 -0.000730 -49002.900000 0 0 1
-35.273572 32.664000 0.852329 48.082099 -0.747006 1.553069 0.035813 0.010062 172721.000000 0 0 1
-34.673257 -33.794514 1.267629 48.434604 0.772564 1.544621 0.036797 0.000624 -100700.000000 0 0 1
-33.795116 33.724900 2.538329 47.811315 -0.784358 1.517681 0.067601 -0.006593 -23761.100000 0 0 1
-33.457026 -32.699114 3.218229 46.893087 0.773942 1.502113 0.077080 -0.008262 228802.000000 0 0 1
-32.679576 -33.021214 4.346829 46.661014 0.790598 1.477503 0.103218 -0.006438 -238199.000000 0 0 1
-32.548036 -31.799714 5.283829 45.809555 0.773769 1.455196 0.115679 -0.012574 1447830.000000 0 0 1
-33.795226 -31.418314 5.970229 46.528179 0.748966 1.442127 0.090942 -0.009735 1585870.000000 0 0 1
-34.062697 -32.160814 7.142529 47.387773 0.756687 1.419495 0.086963 -0.022383 -1060240.000000 0 0 1
-34.993931 -31.429614 8.187529 47.743392 0.731789 1.398454 0.091285 -0.020742 -423170.000000 0 0 1
-36.310666 -31.214314 7.862029 48.524317 0.710067 1.408056 0.067792 -0.012506 -720322.000000 0 0 1
-37.120326 -32.333714 7.584729 49.808792 0.716589 1.417925 0.059153 -0.003344 -918371.000000 0 0 1
37.244647 -32.124214 7.239129 49.714523 -0.711717 1.424663 0.063242 0.001518 465167.000000 0 0 1
36.341947 -32.113714 8.350829 49.211422 -0.723711 1.400278 0.063135 0.006895 50903.300000 0 0 1
34.994607 -31.964914 8.011629 48.068331 -0.740182 1.403343 0.044106 0.014711 -298309.000000 0 0 1
34.171737 -31.645314 9.285829 47.490632 -0.747031 1.373999 0.050768 0.005906 -487618.000000 0 0 1
32.780547 -31.658614 9.088529 46.469705 -0.767989 1.373948 0.056326 0.001091 427698.000000 0 0 1
31.980197 -31.624514 10.295429 46.139341 -0.779806 1.345764 0.073425 0.005098 388833.000000 0 0 1
31.946737 -30.216014 11.076229 45.346272 -0.757564 1.324041 0.076622 -0.007301 -427860.000000 0 0 1
31.174967 -29.106014 10.549329 43.935486 -0.751090 1.328318 0.070577 -0.021805 289642.000000 0 0 1
31.794747 -28.382314 9.514829 43.669138 -0.728752 1.351150 0.060336 -0.016997 -488793.000000 0 0 1
30.897317 -27.312314 8.912929 42.190603 -0.723888 1.357939 0.054467 -0.022451 -577876.000000 0 0 1
31.200127 -27.047014 7.538429 41.974001 -0.714217 1.390219 0.057894 -0.029877 -62177.700000 0 0 1
30.611057 -25.830614 7.127729 40.682453 -0.700903 1.394683 0.038610 -0.033316 -167416.000000 0 0 1
30.777257 -25.488314 5.630329 40.355846 -0.691674 1.430823 0.032432 -0.019974 -246840.000000 0 0 1
32.139647 -25.289314 5.416229 41.253386 -0.666676 1.439124 0.059828 -0.026677 -768886.000000 0 0 1
32.306297 -24.579014 4.201829 40.810294 -0.650385 1.467654 0.051898 -0.016290 130235.000000 0 0 1
33.753447 -24.078714 3.930029 41.647626 -0.619643 1.476292 0.071222 -0.016127 119447.000000 0 0 1
34.526417 -25.166314 3.560729 42.873017 -0.629860 1.487648 0.074185 -0.011259 -1178130.000000 0 0 1
35.887377 -24.861114 3.532029 43.800160 -0.605846 1.490069 0.078685 -0.018622 -173115.000000 0 0 1
36.818107 -26.095914 3.349129 45.252474 -0.616594 1.496719 0.077616 -0.017380 190663.000000 0 0 1
36.845467 -26.822814 4.539629 45.800218 -0.629260 1.471515 0.058701 -0.018716 -247245.000000 0 0 1
37.265887 -28.163114 4.387129 46.916460 -0.647161 1.477150 0.049975 -0.015706 -1003380.000000 0 0 1
36.792937 -29.098514 5.522629 47.232861 -0.669150 1.453605 0.068034 -0.010343 1344170.000000 0 0 1
35.406837 -29.519414 5.597229 46.436719 -0.694967 1.449968 0.055833 0.002232 680485.000000 0 0 1
34.497867 -28.490514 5.754829 45.110201 -0.690313 1.442875 0.053491 -0.002041 -1834620.000000 0 0 1
33.046247 -28.893314 5.605929 44.252734 -0.718450 1.443775 0.040407 0.000626 -971130.000000 0 0 1
32.823207 -29.245614 4.248129 44.166904 -0.727823 1.474464 0.034919 -0.002377 142872.000000 0 0 1
31.636217 -28.660514 3.750829 42.852585 -0.736087 1.483156 0.036574 -0.006251 509314.000000 0 0 1
30.295257 -29.451014 3.843529 42.425671 -0.771269 1.480078 0.041480 -0.000676 510982.000000 0 0 1
30.391257 -30.762714 3.224929 43.363271 -0.791472 1.496358 0.049364 0.004360 -563977.000000 0 0 1
29.143157 -31.329514 3.486529 42.930385 -0.821537 1.489493 0.065475 0.002905 -111060.000000 0 0 1
29.020657 -32.742114 2.827729 43.843364 -0.845579 1.506255 0.071200 0.001606 -24296.900000 0 0 1
28.878357 -32.752914 1.454429 43.690139 -0.848182 1.537501 0.073152 -0.002721 59204.700000 0 0 1
28.886257 33.538900 1.049029 44.276112 0.859792 1.547101 0.073007 -0.003859 -16646.500000 0 0 1
28.679857 33.538400 -0.471171 44.131400 0.863329 1.581473 0.064898 -0.006533 402375.000000 0 0 1
29.802757 -33.566314 -1.179471 44.903150 -0.844720 1.597066 0.058479 -0.003104 540357.000000 0 0 1
29.412257 -33.486114 -2.529371 44.640771 -0.850077 1.627487 0.064636 -0.005259 -554748.000000 0 0 1
30.460857 -33.066114 -3.530071 45.096487 -0.826385 1.649155 0.048800 -0.001753 -493545.000000 0 0 1
30.788957 -31.677114 -3.484271 44.311844 -0.799615 1.649508 0.033347 -0.012915 266947.000000 0 0 1
31.521847 -31.297514 -4.655271 44.663551 -0.781827 1.675216 0.033418 -0.014969 -68639.100000 0 0 1
31.873507 -29.799514 -4.600971 43.875966 -0.751782 1.675853 0.034868 -0.001572 -392262.000000 0 0 1
30.757357 -28.972314 -4.907171 42.538104 -0.755522 1.686413 0.036917 -0.020220 249223.000000 0 0 1
30.800857 -27.581814 -4.727571 41.614891 -0.730317 1.684645 0.045655 -0.022761 -254605.000000 0 0 1
31.681427 -26.819514 -5.760371 41.906813 -0.702480 1.708690 0.080258 -0.028232 -63299.700000 0 0 1
33.055687 -26.847214 -5.468571 42.934329 -0.682125 1.698514 0.074537 -0.019169 -228323.000000 0 0 1
33.966607 -26.384514 -6.424871 43.487377 -0.660420 1.719080 0.084345 -0.021287 104408.000000 0 0 1
34.304287 -27.263514 -7.682571 44.487135 -0.671535 1.744358 0.096680 -0.009858 -234948.000000 0 0 1
33.267797 -27.319614 -8.676671 43.913463 -0.687537 1.769691 0.097886 -0.016843 285754.000000 0 0 1
33.177477 -28.379714 -9.554071 44.692655 -0.707615 1.786232 0.094048 -0.006462 -14213.600000 0 0 1
33.062607 -29.816514 -8.988771 45.419803 -0.733820 1.770016 0.091387 -0.004006 -565994.000000 0 0 1
34.230537 -30.287014 -8.396671 46.470818 -0.724351 1.752481 0.094397 -0.004200 -899745.000000 0 0 1
34.155197 -31.621114 -7.844671 47.201813 -0.746891 1.737765 0.088437 -0.016182 265822.000000 0 0 1
35.441727 -32.063414 -7.108571 48.318840 -0.735395 1.718450 0.074520 -0.011864 287866.000000 0 0 1
35.244537 -33.345214 -6.536471 48.957187 -0.757714 1.704710 0.053059 -0.012820 77878.300000 0 0 1
34.690717 -33.306414 -5.231371 48.374893 -0.765043 1.679150 0.047645 -0.011076 -172390.000000 0 0 1
34.589597 32.915200 -4.695271 47.978080 0.760599 1.668816 0.016620 -0.002578 -204808.000000 0 0 1
33.514147 32.258600 -5.305871 46.818453 0.766311 1.684369 0.029965 -0.013982 -61356.600000 0 0 1
33.515237 30.928800 -4.818671 45.859365 0.745285 1.676066 0.030270 -0.007712 550505.000000 0 0 1
32.251357 30.175400 -5.354171 44.490133 0.752156 1.691434 0.055980 -0.017924 300595.000000 0 0 1
32.254747 29.919400 -6.719471 44.504949 0.747854 1.722358 0.034545 -0.016130 -338693.000000 0 0 1
30.988857 29.437000 -7.073071 43.322910 0.759722 1.734794 0.026171 -0.009233 -340043.000000 0 0 1
30.811857 29.177600 -8.588471 43.295089 0.758163 1.770491 0.036285 -0.010001 -332700.000000 0 0 1
31.423577 27.967200 -9.031171 43.025196 0.727267 1.782273 0.054650 -0.012347 133673.000000 0 0 1
31.725547 28.068900 -10.427671 43.624647 0.724321 1.812165 0.038206 -0.016025 379994.000000 0 0 1
33.041627 28.779600 -10.840371 45.138987 0.716566 1.813322 0.068079 -0.014881 53370.200000 0 0 1
34.265427 28.131700 -10.491971 45.558682 0.687412 1.803178 0.050959 -0.018281 1426050.000000 0 0 1
35.462547 28.775100 -10.984571 46.970836 0.681667 1.806842 0.076349 -0.014038 945752.000000 0 0 1
35.924997 30.085100 -10.276471 47.972122 0.697158 1.786687 0.075710 -0.023784 -674301.000000 0 0 1
36.555257 30.099100 -8.998271 48.199704 0.688839 1.758585 0.051515 -0.020707 201002.000000 0 0 1
36.496367 31.414300 -8.551071 48.907708 0.710703 1.746541 0.044433 -0.016569 -916949.000000 0 0 1
37.472767 31.661800 -7.370271 49.608454 0.701542 1.719917 0.050052 -0.011510 -69253.400000 0 0 1
-37.007786 31.734400 -7.642771 49.346330 -0.708836 1.726303 0.068543 -0.011165 -266514.000000 0 0 1
-36.393436 30.491000 -8.058871 48.157333 -0.697378 1.738932 0.081605 -0.018807 -1515090.000000 0 0 1
-34.963465 30.702000 -8.516371 47.303121 -0.720592 1.751822 0.139219 -0.016610 -619231.000000 0 0 1
-34.119983 31.173000 -7.440371 46.811198 -0.740294 1.730418 0.125668 -0.016800 1191520.000000 0 0 1
-32.825046 31.630400 -7.903271 46.264755 -0.766866 1.742465 0.170502 -0.024582 992088.000000 0 0 1
-32.761956 33.021400 -8.652971 47.314190 -0.789342 1.754715 0.124902 -0.020273 -523055.000000 0 0 1
-32.834716 -33.405314 -7.905071 47.502881 0.794012 1.737987 0.097700 -0.020634 328719.000000 0 0 1
-31.699736 -33.055414 -7.119271 46.348869 0.806331 1.725009 0.150984 -0.034301 172620.000000 0 0 1
-31.899446 -31.743614 -6.389671 45.453928 0.782950 1.711838 0.114422 -0.036990 555645.000000 0 0 1
-32.940386 -31.623314 -5.404171 45.981606 0.765001 1.688598 0.101585 -0.043384 593699.000000 0 0 1
-32.504496 -32.225514 -4.161271 45.960224 0.781088 1.661461 0.128595 -0.041406 120637.000000 0 0 1
-33.637996 -32.480314 -3.143271 46.865400 0.767891 1.637917 0.108945 -0.033890 -114171.000000 0 0 1
-34.122695 -31.229314 -2.726171 46.336383 0.741153 1.629665 0.079260 -0.035824 -47877.800000 0 0 1
-35.137863 -31.290614 -1.751771 47.083337 0.727547 1.608011 0.075449 -0.026717 -297668.000000 0 0 1
-35.857155 -29.987714 -1.501071 46.768064 0.696493 1.602898 0.091003 -0.026072 -483594.000000 0 0 1
-36.787626 -30.008514 -0.448671 47.476749 0.684255 1.580247 0.067045 -0.016913 -552344.000000 0 0 1
-37.545666 -28.833614 -0.585871 47.343401 0.654898 1.583172 0.078845 -0.018214 -688199.000000 0 0 1
37.213207 -28.736114 0.458829 47.019119 -0.657560 1.561038 0.077702 -0.011336 -618985.000000 0 0 1
36.055197 -29.487314 0.108529 46.577792 -0.685524 1.568466 0.040011 -0.003649 977229.000000 0 0 1
34.973297 -29.475714 1.074229 45.750445 -0.700303 1.547314 0.049624 -0.004764 936348.000000 0 0 1
34.107017 -28.199514 1.132829 44.269453 -0.690867 1.545204 0.040930 -0.006187 -1563370.000000 0 0 1
33.217727 -28.058514 0.117729 43.482312 -0.701400 1.568089 0.036970 -0.006588 -699882.000000 0 0 1
32.767887 -26.715114 0.068729 42.278085 -0.683991 1.569171 0.041004 -0.008241 -156178.000000 0 0 1
31.409927 -26.593214 -0.680871 41.161221 -0.702546 1.587339 0.035885 -0.005242 866298.000000 0 0 1
30.261257 -27.156514 0.000529 40.659807 -0.731378 1.570783 0.036213 0.000352 912494.000000 0 0 1
30.017557 -28.548014 -0.087571 41.425240 -0.760311 1.572910 0.040720 -0.003501 -489568.000000 0 0 1
29.458357 -29.141614 -1.397671 41.460607 -0.779993 1.604514 0.036348 -0.011611 -1064020.000000 0 0 1
28.137057 -28.815914 -1.630171 40.307671 -0.797317 1.611251 0.052283 -0.006149 -915456.000000 0 0 1
27.829357 -29.261914 -2.936371 40.488949 -0.810485 1.643383 0.048506 -0.008295 -440052.000000 0 0 1
26.348657 -29.625014 -3.078871 39.766476 -0.843865 1.648298 0.051474 -0.013153 -402899.000000 0 0 1
25.508557 -28.494114 -3.259071 38.382581 -0.840627 1.655809 0.066215 -0.009317 -1971030.000000 0 0 1
24.277757 -29.001414 -3.476571 37.981285 -0.873826 1.662458 0.052869 -0.008118 -1859280.000000 0 0 1
23.240457 -27.852514 -3.429171 36.436803 -0.875422 1.665049 0.045533 -0.013158 -175363.000000 0 0 1
23.147257 -27.197714 -4.679071 36.019507 -0.865679 1.701068 0.057079 -0.020770 191112.000000 0 0 1
22.260157 -26.094614 -4.582071 34.604029 -0.864531 1.703601 0.067574 -0.026792 -74389.900000 0 0 1
21.908657 -25.380914 -5.900571 34.044042 -0.858692 1.744998 0.086461 -0.047654 -117497.000000 0 0 1
21.039857 -26.210214 -6.661071 34.263986 -0.894390 1.766447 0.095788 -0.045145 -505546.000000 0 0 1
20.381857 -25.404914 -7.583871 33.441663 -0.894667 1.799566 0.123820 -0.052183 -1424060.000000 0 0 1
18.936557 -25.758514 -7.703071 32.885126 -0.936862 1.807235 0.108648 -0.041864 -1498910.000000 0 0 1
18.217357 -25.402414 -6.583271 31.945175 -0.948652 1.778364 0.093916 -0.038362 189080.000000 0 0 1
16.809057 -25.611014 -6.724871 31.363870 -0.989990 1.786889 0.087410 -0.035839 642954.000000 0 0 1
15.997057 -24.684414 -5.793971 29.979930 -0.995784 1.765282 0.085650 -0.025843 -206593.000000 0 0 1
16.259057 -24.837914 -4.436971 30.016089 -0.991190 1.719160 0.073601 -0.022675 284950.000000 0 0 1
15.516457 -23.915414 -3.618471 28.736750 -0.995261 1.697049 0.090374 -0.018789 341591.000000 0 0 1
15.340857 -24.392814 -2.128471 28.894319 -1.009391 1.644527 0.087049 -0.023925 51024.200000 0 0 1
14.609157 -25.575814 -1.907871 29.515923 -1.051815 1.635480 0.090965 -0.018662 526176.000000 0 0 1
15.482957 -26.703514 -1.849571 30.922816 -1.045355 1.630645 0.095070 -0.021865 158325.000000 0 0 1
14.673957 -28.019614 -2.069371 31.697099 -1.088367 1.636129 0.092800 -0.012888 -120847.000000 0 0 1
13.682657 -28.241514 -1.126171 31.401695 -1.119636 1.606667 0.107231 -0.028556 -603410.000000 0 0 1
13.039657 -29.477914 -1.260171 32.257838 -1.154319 1.609872 0.092090 -0.021820 -255395.000000 0 0 1
13.853657 -30.703914 -0.823371 33.694689 -1.146944 1.595235 0.080231 -0.013026 62256.100000 0 0 1
14.994757 -30.881214 -1.659371 34.369254 -1.118765 1.619096 0.070124 -0.005597 -190068.000000 0 0 1
15.691457 -32.026114 -1.221771 35.684542 -1.115214 1.605041 0.064374 -0.007092 -1485230.000000 0 0 1
16.989857 -32.165114 -1.944271 36.428423 -1.084838 1.624194 0.045649 -0.003789 -1828360.000000 0 0 1
17.929357 -31.393114 -1.275271 36.174795 -1.051880 1.606057 0.041940 0.002844 -891704.000000 0 0 1
19.040357 -31.244514 -2.116071 36.650138 -1.023495 1.628565 0.036164 0.005028 -155793.000000 0 0 1
20.073157 -30.193014 -1.576271 36.290968 -0.984068 1.614244 0.031795 0.000372 94044.400000 0 0 1
19.651557 -28.878314 -1.738771 34.973762 -0.973281 1.620533 0.023229 -0.009633 -119125.000000 0 0 1
20.264957 -28.038814 -0.817971 34.605096 -0.944967 1.594436 0.021914 -0.002630 -564863.000000 0 0 1
19.688457 -26.584914 -0.703471 33.089090 -0.933346 1.592058 0.021980 -0.000651 -75135.600000 0 0 1
19.777257 -25.716114 -1.846671 32.494132 -0.915207 1.627658 0.027635 -0.000179 362297.000000 0 0 1
18.890357 -26.186914 -2.855671 32.415350 -0.945874 1.659007 0.050379 -0.011715 -576506.000000 0 0 1
33.815697 -29.016514 13.719029 46.622647 -0.709165 1.272119 0.076110 -0.044677 -330303.000000 0 0 1
34.560667 -29.022114 14.873329 47.517773 -0.698510 1.252440 0.090014 -0.039857 -89885.400000 0 0 1
34.029887 -29.938114 15.831929 48.010143 -0.721519 1.234745 0.087578 -0.033035 72653.000000 0 0 1
35.015537 -30.109814 17.019229 49.217303 -0.710213 1.217708 0.085867 -0.025096 37311.200000 0 0 1
34.447217 -30.655514 18.203329 49.575523 -0.727222 1.194817 0.083578 -0.025994 736227.000000 0 0 1
35.436867 -30.982014 19.207829 50.838936 -0.718426 1.183359 0.065350 -0.016628 174135.000000 0 0 1
36.111897 -32.360514 19.125029 52.125221 -0.730666 1.195116 0.047940 -0.007324 -552667.000000 0 0 1
37.135087 -32.327814 18.174529 52.482528 -0.716302 1.217176 0.059218 -0.003813 -97284.900000 0 0 1
37.730267 -33.605814 18.062529 53.657979 -0.727645 1.227468 0.062804 0.000523 -372832.000000 0 0 1
-37.130026 -33.750614 16.908629 52.949453 0.737757 1.245768 0.074310 0.002765 280316.000000 0 0 1
-35.876309 -33.144514 17.194529 51.781466 0.745840 1.232310 0.081238 0.000509 569380.000000 0 0 1
-34.930419 -33.057914 16.153329 50.733519 0.757864 1.246760 0.097577 0.000658 267640.000000 0 0 1
-33.698266 -32.186214 16.547429 49.450409 0.762452 1.229587 0.076954 -0.009563 507045.000000 0 0 1
-32.604136 -32.215214 15.628729 48.426304 0.779398 1.242182 0.086416 -0.014601 297580.000000 0 0 1
-32.668446 -31.281214 14.579429 47.521590 0.763709 1.258972 0.085435 -0.008348 -466890.000000 0 0 1
-31.399206 -31.149014 13.711529 46.305262 0.781398 1.270177 0.073431 -0.018188 208490.000000 0 0 1
-30.290016 -30.660714 14.447029 45.456365 0.791480 1.247365 0.059090 -0.020774 -408517.000000 0 0 1
-29.207676 -30.426014 13.588029 44.311006 0.805826 1.259123 0.050865 -0.015972 106933.000000 0 0 1
-27.954466 -29.905014 14.375329 43.386774 0.819097 1.233084 0.051926 -0.021405 877602.000000 0 0 1
-26.871546 -29.845114 13.434029 42.347184 0.837779 1.247983 0.054805 -0.014897 -464900.000000 0 0 1
-25.723416 -29.357314 14.092129 41.498604 0.851277 1.224325 0.049756 -0.023145 313893.000000 0 0 1
-24.456966 -29.416014 13.162529 40.456115 0.877190 1.239411 0.070189 -0.023115 463767.000000 0 0 1
-24.067166 -30.770914 12.953729 41.156734 0.907041 1.250612 0.083289 -0.020242 134686.000000 0 0 1
-22.792366 -30.916914 12.361229 40.350310 0.935529 1.259442 0.069792 -0.028506 122596.000000 0 0 1
-22.432666 -32.314514 12.082329 41.151367 0.963975 1.272798 0.064531 -0.024940 162589.000000 0 0 1
-23.236366 -32.929414 11.047529 41.789029 0.956294 1.303252 0.072514 -0.023380 451380.000000 0 0 1
-22.793866 33.411200 10.732429 41.845593 -0.972102 1.311421 0.101836 -0.013183 130199.000000 0 0 1
-23.638466 32.824500 9.599529 41.573740 -0.946676 1.337790 0.094095 -0.007091 104216.000000 0 0 1
-23.259166 33.296100 8.345029 41.463943 -0.961041 1.368152 0.102059 -0.009640 -634.650000 0 0 1
-24.363366 33.354800 7.460629 41.973531 -0.939938 1.392101 0.103722 -0.004241 -310634.000000 0 0 1
-24.020266 33.681000 6.010129 41.803165 -0.951286 1.426524 0.105224 -0.012910 -1591610.000000 0 0 1
-23.299066 32.651200 5.344629 40.466189 -0.951018 1.438333 0.100224 -0.015993 500791.000000 0 0 1
-21.879066 32.674200 5.425129 39.695452 -0.980757 1.433698 0.106050 -0.023187 84989.200000 0 0 1
-21.172666 -33.632014 5.122029 40.070305 1.008940 1.442620 0.112740 -0.019790 -1897110.000000 0 0 1
-21.210966 -32.619314 6.138229 39.390387 0.994240 1.414328 0.121045 -0.029809 3249.210000 0 0 1
-20.439566 -32.881414 7.298429 39.398354 1.014635 1.384473 0.113300 -0.032431 -275134.000000 0 0 1
-20.574766 -31.776314 8.387929 38.773864 0.996189 1.352743 0.111100 -0.037462 -211338.000000 0 0 1
-19.748166 -30.698314 8.026529 37.373811 0.999147 1.354347 0.113257 -0.053842 -203306.000000 0 0 1
-19.741366 -29.634814 8.969729 36.720564 0.983148 1.324030 0.109447 -0.047519 148549.000000 0 0 1
-19.002566 -29.879814 10.331629 36.886900 1.004350 1.286909 0.093786 -0.039989 95535.000000 0 0 1
-17.611566 -30.011614 10.166829 36.252292 1.040121 1.286537 0.092735 -0.042617 -586579.000000 0 0 1
-16.986066 -30.510014 11.314029 36.706875 1.062795 1.257468 0.103636 -0.047418 233485.000000 0 0 1
-15.625466 -31.164314 11.009029 36.559108 1.106038 1.264919 0.107878 -0.047316 175476.000000 0 0 1
-14.509566 -30.359814 10.684529 35.304461 1.124968 1.263335 0.107423 -0.042022 75399.200000 0 0 1
-13.529966 -31.177214 10.041929 35.438948 1.161353 1.283502 0.091085 -0.035982 217799.000000 0 0 1
-12.395166 -30.351514 9.419529 34.111319 1.183081 1.291020 0.082201 -0.023303 -220234.000000 0 0 1
-11.629366 -29.669214 10.350729 33.505851 1.197234 1.256736 0.099993 -0.030666 34711.300000 0 0 1
-10.583966 -28.889714 9.713829 32.264445 1.219624 1.264983 0.110957 -0.029668 807544.000000 0 0 1
-9.611166 -28.265314 10.732929 31.725357 1.243027 1.225678 0.133368 -0.027769 57049.800000 0 0 1
-10.207966 -27.254614 11.538229 31.307304 1.212428 1.193350 0.113919 -0.034523 -368963.000000 0 0 1
-9.432866 -26.878214 12.667029 31.174845 1.233277 1.152371 0.111589 -0.018460 169606.000000 0 0 1
-9.740666 -25.483714 13.276929 30.341014 1.205701 1.117879 0.095228 -0.029897 394.118000 0 0 1
-9.190166 -24.407314 12.566229 28.949719 1.210682 1.121790 0.095235 -0.032904 -379918.000000 0 0 1
-9.811866 -24.018914 11.350429 28.319838 1.182979 1.158413 0.085513 -0.028735 -265249.000000 0 0 1
-9.181766 -22.833214 10.639629 26.811606 1.188461 1.162736 0.090267 -0.032708 906328.000000 0 0 1
-7.963566 -23.271014 9.957629 26.535125 1.241078 1.186117 0.073144 -0.032024 809700.000000 0 0 1
-7.326666 -22.113814 9.431429 25.132701 1.250862 1.186113 0.074503 -0.026421 195220.000000 0 0 1
-6.091266 -22.230514 8.478329 24.559751 1.303356 1.218331 0.074754 -0.033758 951628.000000 0 1 0
-4.914166 -22.529214 9.216629 24.832655 1.356036 1.190550 0.081974 -0.038958 411753.000000 0 1 0
-3.782166 -22.854414 8.418729 24.647597 1.406793 1.222216 0.084042 -0.038791 -190611.000000 0 1 0
-2.579766 -23.469114 9.059029 25.288743 1.461314 1.204432 0.087817 -0.043506 -525104.000000 0 0 1
-1.945466 -22.636414 10.011729 24.827944 1.485063 1.155737 0.080862 -0.037366 -493661.000000 0 1 0
-0.928066 -23.342314 10.669029 25.681766 1.531058 1.142379 0.090115 -0.045109 -64414.700000 0 0 1
-0.170366 -22.535614 11.685029 25.385485 1.563237 1.092459 0.084269 -0.042080 -572834.000000 0 0 1
-0.685166 -22.632014 12.995229 26.106580 1.540531 1.049764 0.087819 -0.034434 -365577.000000 0 0 1
0.216034 -22.447114 14.081529 26.499228 -1.561172 1.010551 0.108648 -0.042642 -6669.910000 0 0 1
0.967034 -21.082214 14.140529 25.403730 -1.524959 0.980470 0.083483 -0.034652 218505.000000 0 0 1
2.075934 -21.005414 13.236629 24.914760 -1.472288 1.010690 0.081494 -0.037151 43420.600000 0 1 0
2.560434 -19.700714 13.085529 23.788759 -1.441554 0.988346 0.068988 -0.033095 -418034.000000 0 1 0
4.051334 -19.726214 12.750529 23.835118 -1.368235 1.006351 0.075706 -0.024584 -276085.000000 0 1 0
4.353334 -20.083014 11.431229 23.514931 -1.357332 1.063145 0.070762 -0.021540 389247.000000 0 1 0
5.784734 -20.185014 11.316829 23.853062 -1.291691 1.076469 0.105927 -0.026479 805944.000000 0 1 0
6.124834 -20.939214 10.067629 24.027514 -1.286229 1.138448 0.101119 -0.036787 -450441.000000 0 1 0
5.892234 -20.259014 8.827229 22.870637 -1.287760 1.174544 0.088409 -0.040519 -265835.000000 0 1 0
6.183934 -21.052914 7.676629 23.246438 -1.285099 1.234251 0.093279 -0.050897 11320.600000 0 1 0
7.647834 -21.538114 7.477629 24.047758 -1.229600 1.254605 0.098135 -0.039396 -250529.000000 0 1 0
8.508034 -20.601814 6.856629 23.320265 -1.179155 1.272366 0.106994 -0.047006 23856.700000 0 1 0
9.151634 -19.616314 7.647329 22.957217 -1.134280 1.231194 0.109206 -0.029347 435405.000000 0 1 0
10.070334 -20.036914 8.862329 24.112869 -1.105080 1.194439 0.097410 -0.020534 233602.000000 0 1 0
9.343534 -20.284014 10.070529 24.498131 -1.139133 1.147165 0.106951 -0.023671 -113544.000000 0 1 0
9.964734 -19.658914 11.206929 24.725778 -1.101659 1.100390 0.089831 -0.012103 564343.000000 0 1 0
9.238434 -19.995814 12.576529 25.364352 -1.137993 1.052000 0.119550 -0.020608 196263.000000 0 0 1
9.162134 -21.373614 12.902829 26.594343 -1.165825 1.064237 0.110760 -0.027864 -23568.600000 0 0 1
8.492134 -21.549814 14.145429 27.140450 -1.195412 1.022547 0.150888 -0.035009 223762.000000 0 0 1
8.607034 -22.962114 14.716329 28.599127 -1.212169 1.030287 0.156307 -0.045181 213551.000000 0 0 1
8.099034 -23.995314 13.884829 28.881793 -1.245277 1.069290 0.159206 -0.044669 -191586.000000 0 0 1
8.139034 -25.276614 14.461829 30.237321 -1.259281 1.072104 0.169517 -0.052887 163830.000000 0 0 1
8.370134 -26.361714 13.427929 30.745868 -1.263353 1.118825 0.173759 -0.061290 412140.000000 0 0 1
9.751934 -26.591314 13.175629 31.237724 -1.219292 1.135382 0.157627 -0.044174 116993.000000 0 0 1
9.834534 -27.504714 12.055329 31.599974 -1.227404 1.179380 0.149561 -0.043140 -95694.800000 0 0 1
11.236834 -27.913514 11.566329 32.236791 -1.188086 1.203822 0.127081 -0.040136 295060.000000 0 0 1
12.162634 -28.530214 12.490529 33.435252 -1.167819 1.187938 0.096049 -0.040313 -205926.000000 0 0 1
13.232934 -28.992514 11.754229 33.968196 -1.142611 1.217453 0.111150 -0.034073 -1122450.000000 0 0 1
14.155934 -29.815314 12.644729 35.344485 -1.127522 1.204932 0.080853 -0.036104 -426817.000000 0 0 1
15.051634 -28.965214 13.356129 35.269271 -1.091556 1.182416 0.079757 -0.031195 858156.000000 0 0 1
16.101134 -29.599614 14.111629 36.531107 -1.072599 1.174190 0.070952 -0.024138 66078.100000 0 0 1
17.427034 -29.848014 13.437729 37.083393 -1.042330 1.199992 0.086563 -0.021311 -814635.000000 0 0 1
18.147934 -28.602614 13.303729 36.392942 -1.005405 1.196564 0.076400 -0.024441 193205.000000 0 0 1
19.406634 -28.840114 12.719529 37.015619 -0.978488 1.220021 0.072563 -0.019881 -129563.000000 0 0 1
20.199934 -27.543414 12.337829 36.316649 -0.938014 1.224167 0.054422 -0.020348 -388221.000000 0 0 1
21.418234 -27.923214 11.769629 37.107557 -0.916478 1.248046 0.044164 -0.023587 -765637.000000 0 0 1
22.185634 -26.775814 11.682729 36.682867 -0.878876 1.246672 0.041403 -0.018108 604684.000000 0 0 1
23.675934 -26.908914 11.185229 37.546623 -0.849223 1.268302 0.047668 -0.022011 1375570.000000 0 0 1
24.581234 -27.501014 12.154729 38.836584 -0.841400 1.252477 0.065420 -0.029530 625593.000000 0 0 1
25.778934 -27.885614 11.499329 39.678653 -0.824634 1.276766 0.050795 -0.035683 -158437.000000 0 0 1
26.899734 -28.540414 12.344729 41.116217 -0.814983 1.265852 0.069945 -0.038385 109313.000000 0 0 1
27.803234 -27.678814 12.995529 41.328203 -0.783156 1.250922 0.063483 -0.043162 1137870.000000 0 0 1
28.983834 -27.479114 12.145429 41.745369 -0.758755 1.275586 0.049724 -0.042550 41715.100000 0 0 1
30.188334 -26.797214 12.759729 42.334819 -0.725960 1.264635 0.081771 -0.055557 -661003.000000 0 0 1
30.113734 -25.441014 13.042929 41.523490 -0.701485 1.251278 0.096003 -0.052424 180326.000000 0 0 1
29.588734 -25.078114 14.301529 41.339312 -0.703074 1.217540 0.106567 -0.053391 -815858.000000 0 0 1
30.672234 -24.954814 15.349729 42.416304 -0.682977 1.200510 0.113210 -0.045913 -389986.000000 0 0 1
30.963334 -26.248814 15.884029 43.589341 -0.703180 1.197806 0.124104 -0.047167 308538.000000 0 0 1
31.992234 -26.122514 16.877929 44.617858 -0.684737 1.182862 0.151785 -0.026525 339181.000000 0 0 1
32.159234 -27.454214 17.615329 45.806659 -0.706636 1.176067 0.122060 -0.010147 -506948.000000 0 0 1
30.986134 -28.031614 18.128529 45.547288 -0.735378 1.161444 0.095709 -0.020857 -426297.000000 0 0 1
31.161934 -29.071714 19.053129 46.682464 -0.750710 1.150377 0.114008 -0.028005 -145741.000000 0 0 1
29.876834 -29.822914 19.456029 46.481916 -0.784495 1.138924 0.093742 -0.016200 -760514.000000 0 0 1
29.006734 -29.100014 20.335829 45.844819 -0.787003 1.111207 0.100882 -0.015034 1143720.000000 0 0 1
27.846234 -29.794914 20.826429 45.791810 -0.819192 1.098641 0.120373 -0.017614 1458370.000000 0 0 1
26.826534 -30.424314 19.766629 45.122294 -0.848158 1.117348 0.134105 -0.028764 -526855.000000 0 0 1
27.317934 -31.545914 19.073829 45.882733 -0.857101 1.142075 0.116319 -0.022924 272116.000000 0 0 1
26.507234 -32.067214 18.000329 45.331573 -0.880036 1.162462 0.128557 -0.021512 1551.540000 0 0 1
26.829834 -31.254714 16.708729 44.450858 -0.861431 1.185437 0.124193 -0.019476 496038.000000 0 0 1
28.193134 -31.420414 16.325029 45.261483 -0.839482 1.201797 0.115914 -0.035772 483021.000000 0 0 1
28.493434 -30.319814 15.492229 44.397929 -0.816442 1.214356 0.108499 -0.054274 118901.000000 0 0 1
30.013834 -30.061714 15.226629 45.126346 -0.786195 1.226619 0.120110 -0.041606 621902.000000 0 0 1
30.652834 -30.898814 14.256329 45.799300 -0.789394 1.254258 0.148477 -0.037655 366526.000000 0 0 1
30.963934 -32.201614 14.612429 47.002471 -0.804990 1.254671 0.168282 -0.047553 -1065280.000000 0 0 1
29.987834 -33.307214 14.271629 47.035307 -0.837793 1.262513 0.155468 -0.047568 -651948.000000 0 0 1
29.955734 -33.407914 12.897529 46.688125 -0.839826 1.290908 0.146358 -0.032629 141533.000000 0 0 1
29.123834 33.139500 12.655829 45.897649 0.849804 1.291437 0.123247 -0.041926 -296941.000000 0 0 1
29.301734 32.594200 11.201029 45.237557 0.838542 1.320589 0.128299 -0.035380 -968260.000000 0 0 1
30.587634 32.110800 11.080629 45.710909 0.809687 1.325951 0.121767 -0.025270 -694448.000000 0 0 1
30.750834 31.328300 9.920629 45.005501 0.794700 1.348540 0.121787 -0.033705 176886.000000 0 0 1
32.204934 30.803800 9.714629 45.611467 0.763165 1.356166 0.107870 -0.025797 284311.000000 0 0 1
32.660634 29.851100 10.622829 45.504392 0.740484 1.335176 0.103722 -0.026486 -28460.300000 0 0 1
34.032034 29.606400 10.396629 46.290476 0.715967 1.344268 0.109997 -0.021456 -24638.900000 0 0 1
34.560434 28.702500 11.525029 46.379774 0.693065 1.319673 0.096477 -0.025424 -216148.000000 0 0 1
33.983734 27.451700 11.464229 45.165458 0.679473 1.314161 0.103482 -0.041528 153269.000000 0 0 1
34.405534 26.656400 12.583629 45.306205 0.659167 1.289349 0.110346 -0.052821 137010.000000 0 0 1
34.223334 25.157900 12.389729 44.245474 0.633903 1.286979 0.109830 -0.056618 -59898.700000 0 0 1
35.140934 24.604000 11.479629 44.407476 0.610828 1.309320 0.117657 -0.049783 -96018.300000 0 0 1
35.340934 23.212800 11.583329 43.840498 0.581158 1.303406 0.120110 -0.047451 -423043.000000 0 0 1
34.176034 22.370500 11.058929 42.317142 0.579579 1.306392 0.104731 -0.043233 -251939.000000 0 0 1
33.070534 22.324600 11.914829 41.641460 0.593791 1.280612 0.117961 -0.055362 126933.000000 0 0 1
31.855534 22.130500 11.196929 40.372086 0.607170 1.289768 0.115825 -0.046443 445324.000000 0 0 1
30.566934 22.100600 12.049529 39.597540 0.626011 1.261593 0.114096 -0.044487 101009.000000 0 0 1
30.190634 23.355100 12.570129 40.186356 0.658427 1.252661 0.120038 -0.041647 -42956.300000 0 0 1
28.890334 23.157300 13.081129 39.268663 0.675691 1.231187 0.167925 -0.040106 -280665.000000 0 0 1
24.572534 9.210900 25.030056 36.265049 0.358635 0.809034 0.067611 -0.019206 -216251.000000 0 0 1
24.689334 8.143900 25.963156 36.741962 0.318617 0.786065 0.078409 -0.024324 -53918.900000 0 0 1
23.522434 7.372900 26.067326 35.877152 0.303742 0.757477 0.049791 -0.019182 -524029.000000 0 0 1
23.659934 6.110700 26.956776 36.384075 0.252749 0.736394 0.078399 -0.018612 -161826.000000 0 0 1
23.869534 6.272400 28.352996 37.589760 0.256969 0.716248 0.062213 -0.016820 -970514.000000 0 0 1
25.199034 6.243600 28.705436 38.703694 0.242880 0.735237 0.047431 -0.016988 -1139270.000000 0 0 1
25.272534 6.352300 30.232826 39.913362 0.246251 0.711381 0.060361 -0.031417 -124975.000000 0 0 1
25.161234 7.684400 30.771016 40.484480 0.296409 0.707376 0.085452 -0.028621 35030.100000 0 0 1
25.010034 7.679000 32.136977 41.439765 0.297900 0.683273 0.075732 -0.026742 -112186.000000 0 0 1
25.174334 9.046800 32.792835 42.319755 0.344994 0.684267 0.126971 -0.029137 -15880.100000 0 0 1
26.485134 9.583300 32.626368 43.101993 0.347181 0.712152 0.100411 -0.028013 341660.000000 0 0 1
27.006934 10.170100 -33.486861 44.206055 0.360150 2.430298 0.119431 -0.029334 81606.300000 0 0 1
28.355534 10.898600 -33.555521 45.263548 0.366947 2.405856 0.105962 -0.035340 -235031.000000 0 0 1
28.359534 12.141000 33.127453 45.266933 0.404502 0.749801 0.113335 -0.038359 159474.000000 0 0 1
27.814934 13.190300 -33.448301 45.458150 0.442809 2.397650 0.100372 -0.033066 -258576.000000 0 0 1
27.333134 14.438600 33.122900 45.306731 0.485988 0.750891 0.092717 -0.031331 -504835.000000 0 0 1
28.373434 15.206800 32.557119 45.784981 0.491994 0.779753 0.082163 -0.026130 55526.300000 0 0 1
28.287234 16.624900 32.817708 46.406431 0.531339 0.785294 0.100471 -0.035028 14732.700000 0 0 1
28.773034 17.120100 -33.139821 47.108736 0.536739 2.351072 0.093193 -0.045658 336988.000000 0 0 1
27.804034 16.791800 -32.117711 45.679056 0.543307 2.350568 0.091135 -0.044303 824997.000000 0 0 1
28.412034 16.229900 -30.967581 45.051575 0.518999 2.328673 0.095213 -0.050375 -188798.000000 0 0 1
27.358134 15.769000 -29.946351 43.519108 0.522880 2.329691 0.088440 -0.039929 -60924.700000 0 0 1
26.668034 14.636500 -30.434261 43.030866 0.501953 2.356419 0.100062 -0.028611 344711.000000 0 0 1
25.564534 14.250400 -29.615541 41.637718 0.508529 2.362096 0.122285 -0.034663 312733.000000 0 0 1
24.899834 12.914500 -30.034971 41.096052 0.478462 2.390360 0.103270 -0.027653 -139901.000000 0 0 1
24.057034 13.097800 -31.210191 41.525525 0.498571 2.421266 0.120779 -0.034687 639932.000000 0 0 1
23.396434 11.980800 -31.793591 41.252456 0.473263 2.450748 0.103438 -0.025675 58133.800000 0 0 1
22.283134 11.448300 -30.896331 39.776688 0.474599 2.460277 0.094231 -0.025175 -195133.000000 0 0 1
21.078134 12.204800 -30.718041 39.202588 0.524855 2.471190 0.133651 -0.029473 1003750.000000 0 0 1
20.266834 11.681700 -29.673131 37.784936 0.522882 2.474003 0.129792 -0.021159 35845.800000 0 0 1
19.152134 12.573400 -29.092111 37.030333 0.580932 2.474509 0.087359 0.003584 385951.000000 0 0 1
18.163834 12.823500 -30.089151 37.412886 0.614735 2.505201 0.066571 0.002418 133988.000000 0 0 1
17.110834 13.667400 -29.670121 36.876748 0.673983 2.505756 0.063361 0.000998 -1077580.000000 0 0 1
16.053734 13.858400 -30.731831 37.339296 0.712137 2.537544 0.076080 -0.007613 -434212.000000 0 0 1
15.313234 12.747900 -31.207851 37.026126 0.694232 2.573373 0.080160 -0.014552 -603453.000000 0 0 1
14.299134 12.377100 -30.319101 35.733817 0.713472 2.583885 0.071892 -0.018147 -495882.000000 0 0 1
13.183834 11.780600 -31.268061 35.920574 0.729248 2.626968 0.086665 -0.022950 239899.000000 0 0 1
12.492434 12.680800 -32.107721 36.711978 0.792881 2.635374 0.104483 -0.024912 -68887.600000 0 0 1
11.706434 11.885400 -32.966811 36.947448 0.792984 2.673127 0.101797 -0.016441 206831.000000 0 0 1
11.040034 12.631400 33.180061 37.179982 0.852524 0.468122 0.124302 -0.022237 335634.000000 0 0 1
11.986334 12.830900 32.149097 36.631525 0.819416 0.499891 0.100269 -0.009113 162966.000000 0 0 1
11.359034 13.242800 30.984406 35.558864 0.861819 0.512838 0.123629 -0.032204 -537235.000000 0 0 1
12.255234 13.210800 29.762346 34.792431 0.822904 0.544424 0.123231 -0.031330 -392699.000000 0 0 1
12.593134 11.929600 29.224826 33.985185 0.758347 0.535667 0.109683 -0.028743 13062.000000 0 0 1
12.707734 11.949900 27.797206 32.817240 0.754674 0.560423 0.131297 -0.029839 -328418.000000 0 0 1
13.325734 10.659800 27.287286 32.183886 0.674705 0.558869 0.140581 -0.025173 63651.700000 0 0 1
12.551334 9.495100 27.656786 31.821231 0.647649 0.517356 0.137758 -0.037968 441186.000000 0 0 1
13.054534 8.316400 27.064306 31.177877 0.567218 0.519513 0.105154 -0.036731 -434183.000000 0 0 1
12.328834 7.000000 27.472466 30.914989 0.516387 0.476413 0.108625 -0.030927 721439.000000 0 0 1
10.928034 6.990800 27.157906 30.097260 0.569109 0.445633 0.123836 -0.043802 998455.000000 0 0 1
10.127934 5.865400 27.620536 29.997866 0.524933 0.400798 0.120401 -0.047181 441148.000000 0 0 1
10.446134 4.454500 27.096436 29.379944 0.403078 0.396867 0.117034 -0.036616 -306234.000000 0 0 1
11.621934 3.904300 27.644046 30.240803 0.324097 0.417438 0.098786 -0.034383 20756.700000 0 0 1
11.843434 2.597500 27.219066 29.797508 0.215901 0.419070 0.086636 -0.031901 -332984.000000 0 0 1
12.208934 1.663300 28.370296 30.930540 0.135403 0.409736 0.068666 -0.028067 130199.000000 0 0 1
11.165634 1.452400 29.317186 31.405067 0.129351 0.366694 0.054349 -0.031384 334962.000000 0 0 1
11.199634 0.089000 29.690376 31.732604 0.007947 0.360721 0.057976 -0.031733 240670.000000 0 0 1
10.153134 -0.072500 30.828196 32.457188 -0.007141 0.318165 0.069409 -0.029669 193272.000000 0 0 1
10.590334 0.641000 31.969206 33.683767 0.060453 0.320436 0.055204 -0.033486 180537.000000 0 0 1
9.500634 1.008000 32.789504 34.153033 0.105703 0.283523 0.062718 -0.033550 -440353.000000 0 0 1
9.741634 2.264900 33.544756 35.003998 0.228439 0.289761 0.066086 -0.034349 -180064.000000 0 0 1
9.779434 3.438300 32.813937 34.412406 0.338086 0.305989 0.044107 -0.027289 145928.000000 0 0 1
10.961034 3.655000 32.065414 34.083633 0.321859 0.345854 0.046629 -0.028692 -801872.000000 0 0 1
11.110534 4.893300 31.178466 33.458707 0.414859 0.371320 0.054397 -0.028324 -165444.000000 0 0 1
11.280534 6.036100 31.954323 34.420397 0.491324 0.380836 0.062797 -0.031243 -47527.900000 0 0 1
11.454834 7.231900 31.142896 33.961648 0.563146 0.410298 0.077721 -0.032318 -283650.000000 0 0 1
11.479034 8.538300 31.946530 35.003593 0.639532 0.421040 0.112969 -0.036457 459184.000000 0 0 1
10.232234 8.952200 32.515344 35.243270 0.718774 0.396036 0.119843 -0.036877 427884.000000 0 0 1
9.790634 8.240200 33.629006 35.981487 0.699621 0.363608 0.109202 -0.037619 -1235860.000000 0 0 1
8.462134 8.634100 -33.154591 35.289974 0.795457 2.791936 0.121593 -0.040741 -926913.000000 0 0 1
7.912534 7.803200 -32.137221 34.004398 0.778441 2.808667 0.136632 -0.036615 -778685.000000 0 0 1
6.548834 8.048600 -32.068251 33.705191 0.887781 2.828656 0.117253 -0.039555 -653795.000000 0 0 1
5.893334 7.566700 -30.769711 32.229822 0.909085 2.839436 0.116521 -0.027837 -119206.000000 0 0 1
6.307734 8.396200 -29.672061 31.475623 0.926489 2.801428 0.124172 -0.035597 5758.250000 0 0 1
5.933234 7.933300 -28.362061 30.042420 0.928647 2.805550 0.123763 -0.037270 95849.700000 0 0 1
4.466534 7.916100 -27.862961 29.308005 1.057091 2.826264 0.115637 -0.032280 149187.000000 0 0 1
3.594634 6.978200 -28.460661 29.523311 1.095123 2.872477 0.108873 -0.023322 90686.300000 0 0 1
2.336934 6.989600 -27.773861 28.735050 1.248136 2.882216 0.144775 -0.021610 110574.000000 0 0 1
1.267834 6.318700 -28.614011 29.330786 1.372778 2.920062 0.144515 -0.034748 -771435.000000 0 0 1
0.984234 7.056100 -29.770171 30.610788 1.432204 2.906697 0.123098 -0.036038 115802.000000 0 0 1
0.286334 6.283600 -30.767071 31.403475 1.525259 2.939928 0.149543 -0.027889 -109916.000000 0 0 1
-0.101166 7.098700 -32.035931 32.813147 -1.556546 2.923509 0.159408 -0.034822 62620.400000 0 0 1
0.994534 7.754800 -32.642051 33.565302 1.443245 2.906505 0.123491 -0.023506 -45729.000000 0 0 1
1.939834 7.036600 -33.396961 34.185285 1.301800 2.926421 0.125059 -0.034294 -84111.800000 0 0 1
1.534634 6.623500 32.539157 33.241880 1.343118 0.205983 0.152208 -0.041978 -414767.000000 0 0 1
0.495034 5.687700 32.467560 32.965701 1.483979 0.174064 0.151511 -0.042826 -386276.000000 0 0 1
0.049834 5.357800 31.153406 31.610808 1.561495 0.170322 0.154395 -0.040703 245496.000000 0 0 1
1.023734 4.445100 30.314346 30.655611 1.344437 0.149352 0.149071 -0.043302 474499.000000 0 0 1
0.723434 4.389700 28.927546 29.267657 1.407462 0.152599 0.132159 -0.044393 47964.400000 0 0 1
1.585234 3.430100 28.345146 28.595906 1.137881 0.132529 0.120295 -0.036507 164242.000000 0 0 1
1.612634 3.739500 26.808066 27.115620 1.163650 0.150757 0.111612 -0.031156 140919.000000 0 0 1
2.227334 4.959000 26.444976 26.997953 1.148650 0.202744 0.111172 -0.034562 488.565000 0 0 1
2.162834 5.155400 25.034186 25.650857 1.173570 0.219718 0.085055 -0.026367 -463688.000000 0 0 1
2.695934 6.529900 24.678736 25.669976 1.179253 0.278804 0.092619 -0.020037 367479.000000 0 0 1
4.086134 6.806000 24.716596 25.960128 1.030103 0.310770 0.099639 -0.016298 69789.600000 0 0 1
4.740934 6.497200 23.515006 24.852476 0.940422 0.329564 0.114690 -0.031624 -690486.000000 0 1 0
6.256334 6.825600 23.431276 25.194349 0.828886 0.376326 0.127475 -0.031645 774253.000000 0 0 1
7.129634 5.960400 24.201796 25.924602 0.696312 0.366617 0.142550 -0.033073 338919.000000 0 0 1
7.068434 4.517600 24.109696 25.527415 0.568691 0.334840 0.143909 -0.031833 -1102840.000000 0 0 1
7.304334 3.905200 22.713486 24.176565 0.490975 0.349677 0.140053 -0.036050 577283.000000 0 1 0
6.229434 4.022800 21.771466 22.999685 0.573398 0.328280 0.118543 -0.036184 920774.000000 0 1 0
4.988034 3.342800 21.996466 22.801300 0.590420 0.266486 0.106527 -0.033836 843829.000000 0 1 0
3.828934 3.773500 21.050866 21.726458 0.778107 0.250032 0.061483 -0.026037 296716.000000 0 1 0
3.300034 5.044000 21.400466 22.233131 0.991440 0.274546 0.049685 -0.018453 -42951.000000 0 1 0
2.102334 5.280500 20.677666 21.444565 1.191902 0.268243 0.031768 -0.012659 82282.400000 0 1 0
1.605134 6.727300 20.804266 21.923743 1.336575 0.320945 0.028704 -0.007624 -62469.200000 0 1 0
2.329334 7.697000 20.057066 21.609153 1.276930 0.381319 0.026055 -0.010621 -35763.700000 0 1 0
1.724034 8.980600 20.163266 22.140026 1.381131 0.425783 0.030275 -0.014706 -104648.000000 0 1 0
2.624034 10.064200 19.644666 22.228058 1.315745 0.486921 0.036977 -0.021161 -977536.000000 0 1 0
2.572934 10.221000 18.249366 21.074349 1.324190 0.523746 0.031648 -0.022813 -336302.000000 0 1 0
3.502634 11.166200 17.806166 21.307558 1.266835 0.581438 0.046282 -0.025521 499401.000000 0 1 0
5.042634 10.954100 17.903766 21.586229 1.139375 0.592751 0.062554 -0.027360 105910.000000 0 1 0
5.529234 9.873700 17.167666 20.561885 1.060311 0.582797 0.066585 -0.024242 -264592.000000 0 1 0
6.889734 9.602000 17.401866 21.035488 0.948401 0.596579 0.061840 -0.022805 -210250.000000 0 1 0
7.222334 8.154300 17.772766 20.845285 0.845933 0.549849 0.078854 -0.027846 -405756.000000 0 1 0
6.827634 7.741200 19.066466 21.681164 0.848023 0.496191 0.093864 -0.034463 -234763.000000 0 1 0
7.053334 6.407000 19.438466 21.648398 0.737417 0.455782 0.097220 -0.040877 44474.700000 0 1 0
8.516734 6.143800 19.853666 22.459944 0.624931 0.486534 0.126856 -0.032042 -394091.000000 0 1 0
9.405234 6.276800 18.781166 21.922336 0.588492 0.541932 0.123502 -0.031031 598546.000000 0 1 0
10.719434 5.677400 18.979566 22.524721 0.487075 0.568684 0.129163 -0.030621 1303130.000000 0 1 0
10.887234 4.168500 19.052966 22.336601 0.365661 0.549103 0.140279 -0.026519 -684907.000000 0 1 0
10.504834 3.621500 20.267666 23.113742 0.331987 0.501492 0.151713 -0.026806 -1666.620000 0 1 0
10.372634 2.184400 20.064566 22.692508 0.207560 0.486032 0.141439 -0.042136 128447.000000 0 1 0
9.545634 1.407500 21.129566 23.228404 0.146395 0.428371 0.148078 -0.040937 14726.000000 0 1 0
10.091634 1.444000 22.422686 24.631343 0.142124 0.426712 0.130534 -0.031839 -16327.800000 0 1 0
9.479734 0.516000 23.291516 25.152064 0.054378 0.387046 0.145153 -0.040633 -383533.000000 0 0 1
9.972434 0.647800 24.781866 26.720965 0.064868 0.383311 0.132810 -0.038641 606165.000000 0 0 1
11.333434 0.213800 24.923576 27.380231 0.018862 0.426845 0.119264 -0.036952 656307.000000 0 0 1
11.413034 -1.226600 25.016936 27.524697 -0.107063 0.430180 0.119590 -0.037767 -443248.000000 0 0 1
12.822634 -1.761400 24.698476 27.884354 -0.136512 0.482696 0.114515 -0.037159 -91980.100000 0 0 1
12.958934 -3.156400 24.870486 28.221231 -0.238917 0.492257 0.125245 -0.034076 226300.000000 0 0 1
14.252734 -3.569200 24.450326 28.525393 -0.245376 0.541100 0.117404 -0.026178 256544.000000 0 0 1
14.420834 -5.061000 24.752126 29.090237 -0.337521 0.553150 0.118412 -0.027347 11164.100000 0 0 1
13.879834 -5.791800 23.664976 28.039718 -0.395315 0.566135 0.132819 -0.028701 256027.000000 0 0 1
13.796834 -7.201500 23.931946 28.547369 -0.481067 0.576595 0.142292 -0.028870 124969.000000 0 0 1
13.552634 -8.059600 22.619646 27.573165 -0.536505 0.608774 0.160677 -0.036499 190737.000000 0 0 1
13.041234 -9.360300 22.821166 27.901516 -0.622537 0.613013 0.163133 -0.027862 -253873.000000 0 0 1
13.149034 -10.081100 21.608466 27.229606 -0.654091 0.654151 0.149462 -0.030184 292876.000000 0 0 1
12.371834 -11.448800 21.500666 27.320613 -0.746668 0.664904 0.173439 -0.028265 -92269.300000 0 0 1
10.984934 -11.360300 21.622366 26.781559 -0.802195 0.631132 0.162461 -0.027714 -724901.000000 0 0 1
10.397434 -12.631000 21.708466 27.182830 -0.882087 0.645815 0.148001 -0.027294 -556099.000000 0 0 1
8.936534 -12.657100 22.115866 27.003247 -0.956022 0.611117 0.118772 -0.019204 168365.000000 0 0 1
8.067434 -11.954900 21.190566 25.632854 -0.977169 0.597587 0.106250 -0.031034 269158.000000 0 0 1
6.715334 -11.842700 21.543666 25.484795 -1.054962 0.563569 0.081926 -0.023788 598807.000000 0 0 1
5.833634 -10.698900 20.937566 24.225594 -1.071603 0.527090 0.073640 -0.027404 561540.000000 0 1 0
6.093234 -9.443300 21.517566 24.275688 -0.997772 0.481323 0.089749 -0.018902 104355.000000 0 1 0
5.131034 -8.442200 21.169766 23.361447 -1.024673 0.436626 0.064515 -0.018000 519855.000000 0 1 0
5.728934 -7.037100 21.507566 23.343454 -0.887514 0.399249 0.090916 -0.031391 6276.180000 0 1 0
4.875834 -5.987500 21.161566 22.526335 -0.887375 0.349878 0.066590 -0.029298 -153658.000000 0 1 0
5.390734 -4.672900 21.587566 22.735853 -0.714189 0.319176 0.096470 -0.044703 466021.000000 0 1 0
-8.806566 -15.787600 -20.267271 27.158169 1.061973 2.413234 0.088901 -0.020091 -615905.000000 0 0 1
-7.887866 -15.372200 -19.324371 25.922080 1.096704 2.412050 0.070056 -0.016646 -161012.000000 0 0 1
-7.111066 -14.273200 -19.796271 25.420146 1.108581 2.463488 0.077324 -0.021211 253750.000000 0 0 1
-6.295166 -13.527100 -18.717171 23.936249 1.135231 2.468599 0.058415 -0.017506 428295.000000 0 1 0
-5.236766 -14.283100 -18.130671 23.667528 1.219374 2.443480 0.062000 -0.015230 22970.300000 0 1 0
-4.555466 -13.454500 -17.218471 22.321549 1.244328 2.451808 0.065473 -0.012593 -504835.000000 0 1 0
-3.547766 -14.295400 -16.464371 22.091188 1.327536 2.411768 0.060257 -0.012724 -369468.000000 0 1 0
-2.359166 -14.454600 -17.210371 22.598628 1.409011 2.436524 0.059849 -0.014639 -117706.000000 0 1 0
-1.440366 -15.305600 -16.562571 22.597672 1.476966 2.393419 0.064108 -0.009726 677285.000000 0 1 0
-0.113966 -15.609400 -17.356271 23.343232 1.563495 2.409122 0.063815 0.001462 713577.000000 0 1 0
-0.179866 -16.485200 -18.483971 24.767950 1.559886 2.413261 0.105355 -0.021069 -341970.000000 0 1 0
-0.467166 -17.867800 -18.274871 25.562617 1.544657 2.367286 0.092275 -0.009057 -242040.000000 0 0 1
-0.807766 -18.655900 -19.559271 27.041822 1.527525 2.379361 0.113026 -0.027781 1079410.000000 0 0 1
-2.184566 -18.474200 -19.984571 27.302957 1.453093 2.391985 0.112206 -0.027793 1013760.000000 0 0 1
-2.442766 -18.972100 -21.249771 28.591265 1.442745 2.408676 0.107091 -0.030151 755797.000000 0 0 1
-3.701866 -18.333900 -21.982271 28.862708 1.371561 2.436598 0.115336 -0.036006 898524.000000 0 0 1
-3.649166 -16.951600 -22.235571 28.197407 1.358762 2.479273 0.103640 -0.044491 -148165.000000 0 0 1
-4.088166 -16.091200 -21.157771 26.894071 1.321998 2.476254 0.081662 -0.031075 -107311.000000 0 0 1
-2.981766 -15.156500 -20.654071 25.791492 1.376545 2.499442 0.087074 -0.020815 -76399.300000 0 0 1
-2.886666 -14.009500 -21.456971 25.787604 1.367590 2.553617 0.072518 -0.026165 258954.000000 0 0 1
-2.001866 -13.010800 -20.916271 24.713938 1.418132 2.579863 0.071451 -0.021052 349402.000000 0 1 0
-1.626566 -11.844000 -21.855771 24.911860 1.434318 2.641053 0.071479 -0.031796 39041.700000 0 1 0
-2.678766 -10.951800 -22.174871 24.876547 1.330910 2.671214 0.063703 -0.032271 128241.000000 0 1 0
-2.678266 -10.656600 -23.590371 26.023870 1.324571 2.705691 0.081827 -0.030084 167851.000000 0 0 1
-3.647266 -9.454200 -23.917971 25.976023 1.202606 2.740849 0.050980 -0.018796 601746.000000 0 0 1
-5.035266 -9.616600 -23.677271 26.046997 1.088446 2.711726 0.070126 -0.027248 332107.000000 0 0 1
-5.626466 -8.344000 -23.744571 25.789224 0.977519 2.740710 0.049853 -0.025304 -289194.000000 0 0 1
-7.172166 -8.392700 -23.519971 25.982040 0.863654 2.702740 0.058371 -0.032663 236998.000000 0 0 1
-7.742966 -8.949500 -24.693771 27.383013 0.857553 2.694694 0.085739 -0.037006 23945.600000 0 0 1
-8.403866 -7.905100 -25.369501 27.869825 0.754825 2.714770 0.085362 -0.040804 -832241.000000 0 0 1
-9.505666 -8.322000 -26.331271 29.205294 0.719101 2.694233 0.070011 -0.036038 -91518.300000 0 0 1
-10.250866 -7.209400 -26.834661 29.616798 0.612935 2.704680 0.085831 -0.047983 3982.610000 0 0 1
-11.163066 -7.616600 -27.816451 30.925419 0.598750 2.689349 0.074684 -0.040600 -537351.000000 0 0 1
-12.010966 -6.530000 -28.450511 31.564787 0.497970 2.693643 0.066445 -0.046890 -141080.000000 0 0 1
-11.370566 -5.589900 -29.352891 31.970751 0.456914 2.734099 0.054974 -0.038262 -65481.500000 0 0 1
-12.257666 -5.033500 -30.284561 33.056635 0.389646 2.729143 0.078682 -0.038274 -309935.000000 0 0 1
-11.640966 -3.916900 -31.121151 33.457140 0.324576 2.765698 0.070968 -0.032405 -233819.000000 0 0 1
-10.508766 -4.321600 -31.843541 33.810079 0.390156 2.798848 0.054046 -0.025290 -64439.500000 0 0 1
-10.021566 -3.224300 -32.629311 34.285563 0.311277 2.829498 0.054826 -0.021488 -48467.900000 0 0 1
-8.983566 -3.658800 33.646976 35.017285 0.386764 0.280679 0.052857 -0.019176 986569.000000 0 0 1
-7.676766 -3.793200 -33.095841 34.185608 0.458928 2.888418 0.060614 -0.024832 1488450.000000 0 0 1
-6.640866 -4.066200 33.265496 34.164723 0.549414 0.229942 0.057063 -0.022462 788955.000000 0 0 1
-5.172466 -3.869900 33.666556 34.280716 0.642331 0.189575 0.109517 -0.036900 9360.770000 0 0 1
-4.913566 -2.509300 -33.583201 34.033382 0.472161 2.978762 0.143538 -0.045769 110413.000000 0 0 1
-3.525366 -2.220400 -33.586121 33.843550 0.562069 3.018174 0.150863 -0.048162 26410.500000 0 0 1
-3.306066 -0.708800 -33.328641 33.499713 0.211197 3.040488 0.154376 -0.052363 -125705.000000 0 0 1
-3.587666 -0.488200 -31.931481 32.136103 0.135247 3.028684 0.166111 -0.051083 74425.900000 0 0 1
-3.556266 0.852300 -31.560391 31.771555 -0.235225 3.026235 0.184633 -0.056355 -233601.000000 0 0 1
-3.990366 0.941300 -30.045671 30.324106 -0.231658 3.005975 0.201776 -0.062620 1221140.000000 0 0 1
-5.229366 0.319000 -29.665881 30.124948 -0.060926 2.966792 0.161064 -0.061030 1189570.000000 0 0 1
-6.457766 1.030200 -29.900811 30.607557 -0.158196 2.926279 0.146025 -0.059072 1918570.000000 0 0 1
-7.679466 -0.008500 -30.099201 31.063421 0.001107 2.891783 0.119584 -0.058232 1100320.000000 0 0 1
-8.158166 -0.644700 -28.936911 30.071849 0.078861 2.865982 0.099177 -0.050158 -127336.000000 0 0 1
-9.199666 -1.552300 -29.192081 30.646714 0.167160 2.832255 0.082274 -0.044143 -44820.800000 0 0 1
-9.698366 -2.271000 -27.936911 29.659513 0.230019 2.799101 0.087087 -0.044150 -32181.700000 0 0 1
-10.457166 -1.505500 -27.018761 29.010899 0.142986 2.768848 0.091986 -0.038889 280880.000000 0 0 1
-10.875366 -2.274300 -25.889461 28.172863 0.206153 2.736207 0.093086 -0.040217 287935.000000 0 0 1
-11.522566 -1.389200 -24.728371 27.316510 0.119984 2.702773 0.104610 -0.039661 3587.410000 0 0 1
-10.639666 -0.468100 -24.173871 26.415859 0.043967 2.726620 0.097516 -0.040851 -538338.000000 0 0 1
-11.202766 0.304700 -23.146271 25.716622 -0.027192 2.690683 0.112041 -0.047459 -309022.000000 0 0 1
-10.371766 1.467700 -22.576871 24.888607 -0.140576 2.707178 0.112658 -0.048341 -106583.000000 0 1 0
-10.370366 2.585300 -23.420271 25.743686 -0.244317 2.713473 0.114428 -0.045700 -266965.000000 0 0 1
-9.601466 3.661900 -22.960471 25.155136 -0.364361 2.720774 0.093076 -0.041552 -861951.000000 0 0 1
-9.661266 4.893500 -23.931771 26.268157 -0.468840 2.716635 0.128137 -0.046540 93260.700000 0 0 1
-10.963666 5.446200 -23.999071 26.941018 -0.461044 2.669900 0.147171 -0.041443 260065.000000 0 0 1
-11.768466 4.711300 -24.939471 27.976246 -0.380793 2.671335 0.132269 -0.039909 -1359480.000000 0 0 1
-13.214966 5.097300 -25.014171 28.745896 -0.368137 2.626369 0.129614 -0.026237 -973231.000000 0 0 1
-13.479766 6.391300 -25.488841 29.533605 -0.442747 2.612064 0.119473 -0.023931 252671.000000 0 0 1
-14.884566 6.601300 -25.579841 30.322528 -0.417435 2.574734 0.122512 -0.032638 391668.000000 0 0 1
-15.245866 8.059100 -25.904021 31.119187 -0.486272 2.554245 0.126558 -0.024463 -206473.000000 0 0 1
-15.063266 8.983500 -24.819271 30.390812 -0.537757 2.526414 0.167688 -0.033226 104290.000000 0 0 1
-15.719566 10.197500 -25.085971 31.311335 -0.575471 2.500058 0.132905 -0.027548 -177032.000000 0 0 1
-15.444266 11.224300 -23.965571 30.640804 -0.628462 2.468898 0.141489 -0.033516 109680.000000 0 0 1
-16.189266 11.095900 -22.745871 30.043069 -0.600851 2.429672 0.170133 -0.037388 97876.800000 0 0 1
-15.709866 11.935800 -21.733071 29.352846 -0.649721 2.404473 0.167163 -0.030901 -165646.000000 0 0 1
-16.542866 11.883600 -20.419671 28.841798 -0.622937 2.357443 0.169367 -0.036311 -575899.000000 0 0 1
-17.758766 12.499900 -20.651471 29.968392 -0.613320 2.331054 0.137581 -0.033926 -581185.000000 0 0 1
-18.398766 12.948700 -19.440071 29.733815 -0.613259 2.283396 0.130086 -0.020402 801729.000000 0 0 1
-19.931166 13.235500 -19.593171 30.924459 -0.586196 2.256970 0.113062 -0.026551 531069.000000 0 0 1
-20.214366 14.378600 -20.329271 32.072480 -0.618274 2.257322 0.088499 -0.027555 -673404.000000 0 0 1
-21.586766 14.591300 -20.306971 33.034339 -0.594393 2.232831 0.068204 -0.029499 -674458.000000 0 0 1
-21.900066 15.807000 -21.151671 34.305500 -0.625193 2.235172 0.076257 -0.026740 -180852.000000 0 0 1
-21.707066 15.592500 -22.516771 34.947500 -0.622912 2.270908 0.074740 -0.032249 137151.000000 0 0 1
-21.938866 16.800400 -23.244171 36.108984 -0.653526 2.270149 0.075594 -0.024155 -73747.700000 0 0 1
-21.662866 16.734200 -24.762271 36.911831 -0.657736 2.306150 0.062586 -0.021512 -381444.000000 0 0 1
-20.311066 16.607900 -25.110971 36.316974 -0.685427 2.334275 0.043998 -0.027124 -396006.000000 0 0 1
-20.193766 16.328300 -26.460561 37.075097 -0.679952 2.365565 0.024629 -0.023420 -261209.000000 0 0 1
-19.600166 17.462900 -27.367081 37.921979 -0.727796 2.377005 0.013316 -0.002679 -58432.000000 0 0 1
-20.326666 18.700000 -27.403601 38.907849 -0.743741 2.352262 0.025519 -0.011699 708104.000000 0 0 1
-19.495366 19.694500 -26.834421 38.574976 -0.790479 2.340111 0.009064 -0.018509 -333785.000000 0 0 1
-20.266366 21.031700 -26.858821 39.679393 -0.803928 2.314334 0.068496 -0.010138 408135.000000 0 0 1
-21.267566 21.251900 -25.881921 39.671481 -0.785030 2.281551 0.093485 -0.005582 -198665.000000 0 0 1
-22.524466 20.747900 -26.235261 40.325127 -0.744366 2.279162 0.127097 -0.012555 -970180.000000 0 0 1
-23.566966 21.003100 -25.154691 40.364472 -0.727937 2.243610 0.151120 0.002392 -199232.000000 0 0 1
-23.269566 20.230700 -23.970271 39.055445 -0.715653 2.231598 0.117022 0.001272 109487.000000 0 0 1
-24.188666 20.535700 -22.952671 39.161609 -0.703902 2.197035 0.111034 -0.011932 12237.000000 0 0 1
-23.712766 19.869000 -21.639771 37.753836 -0.697429 2.181179 0.095121 -0.003878 -321234.000000 0 0 1
-22.740666 20.668500 -21.039971 37.242518 -0.737699 2.171163 0.090044 -0.006518 -390441.000000 0 0 1
-21.927466 19.994300 -20.081971 35.831151 -0.739317 2.165739 0.069842 -0.006066 -259032.000000 0 0 1
-22.464766 19.527000 -18.709971 35.157253 -0.715551 2.131969 0.088257 -0.018013 -677770.000000 0 0 1
-23.319766 18.378300 -18.766471 35.124832 -0.667442 2.134451 0.105508 -0.022563 483410.000000 0 0 1
-23.974766 17.955300 -17.553671 34.717626 -0.642813 2.100888 0.096056 -0.026145 -123960.000000 0 0 1
-25.113306 18.870900 -17.103071 35.767360 -0.644416 2.069372 0.091968 -0.022192 -918904.000000 0 0 1
-26.141036 18.976900 -18.061671 37.009464 -0.627926 2.080626 0.090691 -0.014302 -425601.000000 0 0 1
-27.156286 19.825400 -17.620371 37.960345 -0.630609 2.053503 0.084413 -0.013131 -2156950.000000 0 0 1
-28.392316 19.653700 -18.472671 39.161602 -0.605485 2.062018 0.070977 0.007424 -472528.000000 0 0 1
-29.215306 18.533400 -18.140771 39.065440 -0.565311 2.053718 0.041379 0.002290 309617.000000 0 0 1
-29.825436 18.601100 -16.857971 38.983955 -0.557639 2.017986 0.054836 -0.000258 -1273330.000000 0 0 1
-30.794086 17.431600 -16.615671 39.092415 -0.515097 2.009798 0.048074 -0.008312 -298632.000000 0 0 1
-30.201386 16.148100 -16.342371 37.946778 -0.491006 2.016026 0.074061 -0.019870 93511.200000 0 0 1
-31.148466 15.174300 -15.948171 38.142240 -0.453323 2.002175 0.073515 -0.016761 94950.600000 0 0 1
-30.479456 14.021300 -15.182971 36.825490 -0.431159 1.995768 0.132998 -0.017026 -52918.300000 0 0 1
-29.785166 14.366700 -14.001771 35.911109 -0.449423 1.971320 0.153342 -0.015896 -330895.000000 0 0 1
-30.532376 14.313800 -12.839071 36.082580 -0.438384 1.934593 0.115292 -0.006170 93126.500000 0 0 1
-29.752186 14.963100 -11.628571 35.274787 -0.465984 1.906736 0.147389 -0.025546 401503.000000 0 0 1
-29.607586 16.361100 -11.836171 35.838383 -0.504836 1.907381 0.141251 -0.018237 8817.970000 0 0 1
-30.649586 17.221600 -11.391871 36.956127 -0.511924 1.884153 0.101324 -0.016109 142235.000000 0 0 1
-30.258156 18.681800 -11.555871 37.391226 -0.553125 1.884993 0.164437 -0.012540 -751730.000000 0 0 1
-29.216036 19.069000 -10.754971 36.508532 -0.578264 1.869821 0.123530 -0.026491 -1016110.000000 0 0 1
-29.071186 20.482600 -10.761271 37.154754 -0.613785 1.864640 0.079597 -0.026708 654795.000000 0 0 1
-27.682576 21.089300 -10.336571 36.303282 -0.651027 1.859519 0.133873 -0.026754 756132.000000 0 0 1
-27.541136 22.536300 -10.443771 37.087348 -0.685787 1.856257 0.172835 -0.029417 172578.000000 0 0 1
-26.235176 22.997700 -10.093471 36.318822 -0.719734 1.852417 0.150005 -0.018331 375386.000000 0 0 1
-26.171376 24.379000 -9.417671 36.986066 -0.749956 1.828259 0.195082 -0.005273 -66873.100000 0 0 1
-26.498366 24.477700 -8.048171 36.960712 -0.745779 1.790304 0.154699 -0.014814 -324033.000000 0 0 1
-27.861286 24.750400 -7.856771 38.086250 -0.726338 1.778577 0.200206 -0.024460 -304625.000000 0 0 1
-28.485076 24.271200 -6.510771 37.985271 -0.705693 1.743049 0.190450 -0.024813 76894.200000 0 0 1
-28.883236 22.918900 -6.521471 37.443917 -0.670766 1.745855 0.199585 -0.030997 1789.550000 0 0 1
-29.281926 22.566100 -5.236871 37.337446 -0.656586 1.711518 0.156952 -0.022151 -553317.000000 0 0 1
-29.447296 21.036800 -4.920271 36.522586 -0.620317 1.705926 0.170691 -0.031376 257468.000000 0 0 1
-28.268726 20.241100 -4.974871 35.122249 -0.621400 1.712919 0.168325 -0.029288 188977.000000 0 0 1
-27.572066 20.083000 -6.178971 34.665911 -0.629522 1.749997 0.159464 -0.025997 -384891.000000 0 0 1
-28.124376 19.014000 -7.148971 34.693234 -0.594483 1.778346 0.176988 -0.025905 -315992.000000 0 0 1
-27.576746 17.728900 -6.995271 33.522002 -0.571363 1.781018 0.173940 -0.031615 224974.000000 0 0 1
-27.824176 16.992200 -8.187471 33.614793 -0.548249 1.816839 0.141921 -0.032664 161070.000000 0 0 1
-27.514466 15.468100 -8.016671 32.566470 -0.512147 1.819516 0.191798 -0.033318 1151150.000000 0 0 1
-28.643376 14.775000 -7.417771 33.072148 -0.476228 1.797011 0.169244 -0.028505 826919.000000 0 0 1
-28.607686 13.404500 -7.829871 32.548229 -0.438183 1.813741 0.188882 -0.043053 -290870.000000 0 0 1
-29.601546 12.478800 -7.160571 32.912699 -0.398953 1.790113 0.165369 -0.037748 -893933.000000 0 0 1
-30.936606 12.822100 -7.450871 34.307365 -0.392913 1.789721 0.181845 -0.030249 -157258.000000 0 0 1
-31.844006 11.955300 -6.763871 34.680252 -0.359150 1.767090 0.192554 -0.038058 99450.100000 0 0 1
-32.252146 10.757200 -7.612171 34.840543 -0.321932 1.791059 0.158633 -0.026733 75343.800000 0 0 1
-31.163176 9.843800 -7.899671 33.622147 -0.305960 1.807968 0.193492 -0.027158 690085.000000 0 0 1
-31.651566 8.712600 -8.587471 33.933401 -0.268614 1.826647 0.148427 -0.014538 -330268.000000 0 0 1
-30.630026 7.626800 -8.877971 32.790013 -0.244035 1.844971 0.220150 -0.017848 -470093.000000 0 0 1
-29.984886 7.689100 -10.133771 32.571597 -0.251024 1.887171 0.223751 -0.043446 48986.900000 0 0 1
-28.996436 6.687100 -10.093071 31.422614 -0.226655 1.897797 0.253541 -0.054198 -683959.000000 0 0 1
-27.956116 6.801800 -11.203671 30.876061 -0.238666 1.942131 0.225078 -0.046542 -436802.000000 0 0 1
-26.955766 7.738600 -10.868171 30.076841 -0.279567 1.940508 0.249250 -0.051841 78663.500000 0 0 1
-25.954916 7.841100 -11.843071 29.587140 -0.293387 1.982616 0.207474 -0.035834 -162568.000000 0 0 1
-33.239846 25.189900 33.566426 53.536188 -0.648489 0.893118 0.100648 -0.013403 2574.180000 0 0 1
-33.570196 26.592200 33.476326 54.357774 -0.669928 0.907330 0.105233 -0.027791 167874.000000 0 0 1
-33.107136 27.213200 32.332194 53.684369 -0.687997 0.924461 0.108228 -0.036414 -263619.000000 0 0 1
-33.604796 28.662200 32.141538 54.624925 -0.706187 0.941712 0.111243 -0.035071 27632.100000 0 0 1
-33.297176 29.184700 30.866666 53.974065 -0.719674 0.962001 0.112109 -0.030714 148415.000000 0 0 1
-33.749786 30.499300 30.791436 54.930573 -0.734849 0.975744 0.122241 -0.039620 -70842.800000 0 0 1
-33.374366 31.046500 29.369886 54.224751 -0.749279 0.998418 0.112748 -0.041261 197361.000000 0 0 1
-32.013196 31.003200 28.998086 53.168902 -0.769372 0.993935 0.109458 -0.037953 30470.600000 0 0 1
-31.731236 31.836100 27.904246 52.906101 -0.787048 1.015224 0.081473 -0.030947 -299573.000000 0 0 1
-30.367136 31.413400 27.366236 51.554588 -0.802332 1.011228 0.102172 -0.037674 -672406.000000 0 0 1
-30.398106 30.191900 26.593396 50.426227 -0.781995 1.015291 0.116558 -0.037612 453228.000000 0 0 1
-29.252046 30.075300 25.750636 49.227036 -0.799274 1.020313 0.091925 -0.026117 122189.000000 0 0 1
-29.321546 30.791800 24.397876 49.021876 -0.809851 1.049859 0.109846 -0.027777 -92485.100000 0 0 1
-29.451666 32.185600 24.587366 50.078459 -0.829724 1.057586 0.096848 -0.035738 -278338.000000 0 0 1
-30.491536 32.774400 23.872826 50.732700 -0.821466 1.080870 0.105237 -0.035103 -444885.000000 0 0 1
-30.725276 -33.438714 24.247696 51.479520 0.827662 1.080354 0.092603 -0.027144 -110899.000000 0 0 1
-31.248686 -33.350814 25.580906 52.374993 0.817928 1.060520 0.089763 -0.038755 364333.000000 0 0 1
-31.173766 -32.013414 26.023676 51.709710 0.798686 1.043424 0.066859 -0.037864 -188689.000000 0 0 1
-31.447856 -31.784514 27.515306 52.500619 0.790722 1.019144 0.075299 -0.033991 538068.000000 0 0 1
-32.839836 -31.911714 27.840966 53.590407 0.771066 1.024514 0.060321 -0.039396 657357.000000 0 0 1
-33.080886 -32.151714 29.212966 54.602886 0.771155 1.006279 0.058129 -0.035192 399123.000000 0 0 1
-34.534184 -32.649514 29.499836 55.936043 0.757353 1.015276 0.077431 -0.036598 507737.000000 0 0 1
-34.827265 -33.019014 30.796956 57.023207 0.758752 1.000267 0.094698 -0.041243 -441869.000000 0 0 1
-36.206796 -33.093714 31.024966 58.040283 0.740507 1.006831 0.097305 -0.042851 -424357.000000 0 0 1
-36.659666 -33.515814 32.458956 59.336538 0.740628 0.991982 0.120030 -0.026634 31133.600000 0 0 1
-36.511046 32.743100 32.667686 58.926605 -0.731044 0.983179 0.114368 -0.024500 274268.000000 0 0 1
-37.421266 32.431000 -33.625211 59.856292 -0.714079 2.167315 0.117479 -0.022115 386388.000000 0 0 1
-37.300056 30.967300 -33.070701 58.685084 -0.692899 2.169447 0.105748 -0.024977 733413.000000 0 0 1
-36.111426 30.776700 -32.292381 57.393712 -0.705811 2.168380 0.103587 -0.025133 172524.000000 0 0 1
-35.913898 29.386300 -32.094311 56.421693 -0.685766 2.175878 0.104988 -0.025674 407695.000000 0 0 1
-35.111662 29.192900 -30.758051 55.055535 -0.693614 2.163582 0.093420 -0.019150 -93982.000000 0 0 1
-35.774465 29.506900 -29.597631 55.013537 -0.689683 2.138866 0.089852 -0.030738 -796138.000000 0 0 1
-35.449682 30.771500 -28.994471 55.174673 -0.714871 2.124103 0.083478 -0.022498 481357.000000 0 0 1
-36.415976 31.349900 -27.874521 55.551134 -0.710778 2.096453 0.076412 -0.011557 719187.000000 0 0 1
-36.050496 30.882400 -26.600351 54.414516 -0.708338 2.081563 0.064081 -0.027038 415880.000000 0 0 1
-37.159306 31.117500 -25.741651 54.879372 -0.697138 2.059021 0.091516 -0.024688 -60538.900000 0 0 1
-36.992076 30.546800 -24.298071 53.776546 -0.690256 2.039616 0.087607 -0.035571 -334386.000000 0 0 1
-36.399676 31.464600 -23.417471 53.510143 -0.712806 2.023754 0.085934 -0.030760 15774.400000 0 0 1
-36.253566 31.095600 -22.034571 52.600187 -0.708962 2.003037 0.085482 -0.036803 -558783.000000 0 0 1
-37.605606 30.979500 -21.323871 53.184758 -0.689086 1.983338 0.067353 -0.025250 300982.000000 0 0 1
37.456047 32.239000 -21.348471 53.833686 0.710682 1.978567 0.081673 -0.027807 388069.000000 0 0 1
-37.847676 33.411700 -20.732071 54.576616 -0.723227 1.960453 0.083290 -0.028787 -263854.000000 0 0 1
-37.782436 33.458000 -19.200271 53.996302 -0.724771 1.934336 0.089807 -0.022594 -128976.000000 0 0 1
-36.748346 32.597600 -18.829971 52.608101 -0.725614 1.936845 0.088897 -0.032252 -370562.000000 0 0 1
-36.621206 32.345900 -17.427571 51.875719 -0.723487 1.913408 0.090385 -0.019169 460055.000000 0 0 1
-35.391093 31.395800 -17.240971 50.353518 -0.725648 1.920265 0.103861 -0.031395 429336.000000 0 0 1
-35.058586 31.236400 -15.912871 49.578590 -0.727808 1.897542 0.078523 -0.012836 -309803.000000 0 0 1
-33.899106 30.458400 -15.784771 48.228856 -0.731987 1.904229 0.089414 -0.008381 -332068.000000 0 0 1
-33.495326 30.069400 -14.361271 47.247770 -0.731554 1.879639 0.102366 -0.008499 -64641.800000 0 0 1
-34.522242 29.487100 -13.559571 47.382869 -0.706897 1.861024 0.080809 0.004127 14757.900000 0 0 1
-34.161579 29.099000 -12.235271 46.513086 -0.705541 1.836979 0.120875 0.004238 146277.000000 0 0 1
-35.289600 28.339300 -11.467071 46.690101 -0.676598 1.818935 0.113078 -0.004989 337412.000000 0 0 1
-34.811691 27.682500 -10.313971 45.656901 -0.671812 1.798665 0.142674 -0.005857 1074640.000000 0 0 1
-35.804335 26.679700 -9.910271 45.738062 -0.640392 1.789203 0.159690 -0.018426 933100.000000 0 0 1
-35.331211 25.927600 -8.699271 44.678991 -0.633081 1.766754 0.171590 -0.016610 71289.700000 0 0 1
-35.226303 26.753300 -7.531771 44.870470 -0.649534 1.739451 0.181368 -0.023100 1367460.000000 0 0 1
-33.849516 26.639400 -7.062471 43.650039 -0.666761 1.733308 0.180089 -0.025866 1088580.000000 0 0 1
-33.494226 27.318800 -5.713471 43.598438 -0.684197 1.702222 0.189689 -0.038888 -277245.000000 0 0 1
-32.213226 26.883400 -5.330671 42.294505 -0.695453 1.697169 0.206008 -0.034045 -17663.300000 0 0 1
-31.884596 27.296900 -4.037271 42.166904 -0.708034 1.666688 0.202683 -0.035488 323422.000000 0 0 1
-30.903826 26.330800 -3.307571 40.734476 -0.705668 1.652084 0.204883 -0.041316 305224.000000 0 0 1
-31.610506 25.188500 -2.838971 40.518445 -0.672811 1.640920 0.190560 -0.029150 113415.000000 0 0 1
-30.828776 24.308800 -2.049971 39.313275 -0.667696 1.622964 0.174485 -0.030602 273277.000000 0 0 1
-31.626506 23.070200 -1.550671 39.177476 -0.630224 1.610387 0.162804 -0.037022 153761.000000 0 0 1
-31.940036 22.152600 -2.528271 38.952481 -0.606396 1.635749 0.172657 -0.034557 377215.000000 0 0 1
-32.956506 21.264200 -2.006071 39.272405 -0.573008 1.621899 0.156191 -0.034840 580933.000000 0 0 1
-33.329596 20.271300 -3.151971 39.137227 -0.546432 1.651420 0.198757 -0.025661 17674.000000 0 0 1
-32.301616 19.385300 -3.522571 37.836395 -0.540518 1.664031 0.184706 -0.031510 41907.300000 0 0 1
-32.782116 18.628200 -4.615371 37.986558 -0.516741 1.692597 0.181580 -0.026271 69897.100000 0 0 1
-31.787666 17.580700 -5.150071 36.688690 -0.505195 1.711634 0.156777 -0.035762 -278562.000000 0 0 1
-31.551346 16.481600 -4.243771 35.848852 -0.481386 1.689454 0.194785 -0.041691 261558.000000 0 0 1
-30.836646 15.455400 -4.906071 34.840173 -0.464609 1.712082 0.184999 -0.049231 -47380.900000 0 0 1
-30.504656 14.266300 -3.950171 33.906713 -0.437456 1.687563 0.192489 -0.048674 -75690.500000 0 0 1
-31.727226 13.653200 -3.641771 34.731675 -0.406377 1.675844 0.185945 -0.042787 140731.000000 0 0 1
-31.512086 12.473800 -2.865771 34.012055 -0.376917 1.655154 0.179466 -0.050147 -59579.800000 0 0 1
-32.763276 11.770300 -2.285671 34.888343 -0.344894 1.636357 0.166586 -0.036966 -408308.000000 0 0 1
-33.602986 11.232500 -3.230771 35.577628 -0.322594 1.661731 0.164788 -0.014780 -296099.000000 0 0 1
-34.591246 10.397100 -2.675471 36.218947 -0.291980 1.644733 0.169792 -0.010845 -22097.900000 0 0 1
-35.556674 9.828700 -3.737671 37.078978 -0.269689 1.671771 0.127698 -0.006421 27153.500000 0 0 1
-34.913121 8.885300 -4.600971 36.318639 -0.249207 1.697821 0.108274 -0.002326 280948.000000 0 0 1
-35.807604 8.222300 -5.459571 37.142935 -0.225712 1.718319 0.128612 -0.000920 -142029.000000 0 0 1
-35.153548 7.379400 -6.612171 36.523257 -0.206915 1.752840 0.148985 -0.012729 -566902.000000 0 0 1
-34.312310 6.391200 -6.188171 35.446798 -0.184155 1.746272 0.131334 -0.009311 -271371.000000 0 0 1
-33.876106 5.653700 -7.294871 35.110825 -0.165369 1.780088 0.131621 -0.016040 -551097.000000 0 0 1
-32.993576 4.482900 -6.836271 33.991279 -0.135045 1.773296 0.150551 -0.030348 -674028.000000 0 0 1
-31.739666 4.988600 -6.455971 32.771513 -0.155897 1.769093 0.171597 -0.033037 57326.000000 0 0 1
-30.945306 3.861100 -5.984271 31.754237 -0.124130 1.760386 0.166513 -0.035353 -39853.800000 0 0 1
-29.498506 4.263800 -5.671671 30.339903 -0.143549 1.758840 0.225046 -0.036964 -435547.000000 0 0 1
-28.730686 4.532000 -6.819171 29.874612 -0.156452 1.801086 0.226790 -0.032604 -456783.000000 0 0 1
-27.382566 4.558300 -6.436071 28.495719 -0.164955 1.798623 0.250664 -0.038668 -90412.100000 0 0 1
-26.418516 4.986400 -7.577571 27.932450 -0.186552 1.845521 0.254333 -0.049481 44653.200000 0 0 1
-26.324396 4.019300 -8.562071 27.972087 -0.151513 1.881883 0.232666 -0.059897 143964.000000 0 0 1
-25.278856 4.393300 -9.431171 27.336215 -0.172075 1.923042 0.237178 -0.057880 -16252.400000 0 0 1
-25.248096 3.529600 -10.699571 27.647879 -0.138897 1.968166 0.202904 -0.069558 218680.000000 0 0 1
-26.273946 3.954000 -11.601071 28.992054 -0.149370 1.982473 0.221242 -0.046190 684133.000000 0 0 1
-26.366736 3.147900 -12.749771 29.456250 -0.118827 2.018434 0.208819 -0.047775 -312529.000000 0 0 1
-27.256046 3.771000 -13.795371 30.780265 -0.137482 2.035535 0.177101 -0.040040 -596490.000000 0 0 1
-26.663206 4.951100 -14.348971 30.681149 -0.183599 2.057461 0.150981 -0.038353 73917.900000 0 0 1
-27.476416 5.845000 -15.018471 31.853915 -0.209603 2.061764 0.166078 -0.049842 -534272.000000 0 0 1
-28.317516 5.462300 -16.266971 33.110916 -0.190554 2.084363 0.129547 -0.011828 -633956.000000 0 0 1
-29.591736 4.979800 -16.003771 34.008674 -0.166721 2.060743 0.158289 -0.034456 -912737.000000 0 0 1
-30.141486 4.617800 -17.230271 35.024498 -0.152022 2.085123 0.159255 -0.016008 -271475.000000 0 0 1
-31.658696 4.334800 -17.102071 36.242852 -0.136077 2.062212 0.158721 -0.025801 149136.000000 0 0 1
-32.037706 3.159200 -16.378171 36.119795 -0.098291 2.041418 0.165538 -0.031872 140512.000000 0 0 1
-31.702106 1.970800 -17.062971 36.056241 -0.062086 2.063752 0.189652 -0.030440 -208118.000000 0 0 1
-31.909836 0.659900 -16.210571 35.797426 -0.020677 2.040746 0.180752 -0.037908 -113503.000000 0 0 1
-31.480006 -0.547300 -16.743971 35.660214 0.017384 2.059568 0.176926 -0.029642 171941.000000 0 0 1
-32.021476 -1.614500 -16.019971 35.841610 0.050377 2.034167 0.179741 -0.038508 -50113.500000 0 0 1
-31.819796 -3.031200 -16.653971 36.042230 0.094975 2.051122 0.163636 -0.023309 -63747.500000 0 0 1
-32.570826 -3.261400 -17.844171 37.281495 0.099800 2.069894 0.174392 -0.028856 310097.000000 0 0 1
-32.259566 -4.511400 -18.467771 37.444504 0.138946 2.086565 0.181753 -0.026274 -402472.000000 0 0 1
-33.398686 -4.938900 -19.389871 38.933688 0.146813 2.092114 0.194863 -0.027083 -384926.000000 0 0 1
-33.142296 -6.111400 -20.127471 39.253994 0.182350 2.109181 0.189653 -0.027254 126709.000000 0 0 1
-33.995443 -6.148400 -21.253071 40.560892 0.178925 2.122313 0.186529 -0.028267 -153603.000000 0 0 1
-33.640536 -7.313100 -22.289871 41.012259 0.214059 2.145389 0.180719 -0.025912 28216.000000 0 0 1
-32.382346 -7.035600 -22.872071 40.264719 0.213942 2.174922 0.174956 -0.024462 -126724.000000 0 0 1
-32.103136 -7.948400 -23.928771 40.821250 0.242709 2.197137 0.150390 -0.022398 -948796.000000 0 0 1
-30.848226 -7.739800 -24.710771 40.275796 0.245825 2.231331 0.138966 -0.017366 -1309550.000000 0 0 1
-30.871416 -6.535000 -25.424421 40.523471 0.208605 2.249006 0.134403 -0.025332 94954.100000 0 0 1
-31.056316 -6.664400 -26.837961 41.583472 0.211385 2.272343 0.099574 -0.025096 265358.000000 0 0 1
-32.520756 -6.735500 -27.377901 43.040864 0.204226 2.260218 0.133440 -0.021672 58767.100000 0 0 1
-33.184696 -7.894100 -26.983281 43.492968 0.233543 2.240056 0.115320 -0.024087 -889038.000000 0 0 1
-34.455131 -7.896400 -27.570581 44.829076 0.225289 2.233202 0.101491 -0.022087 -441188.000000 0 0 1
-35.249404 -9.093000 -27.064021 45.361485 0.252458 2.210091 0.091613 -0.027995 -692107.000000 0 0 1
-34.796074 -10.361300 -27.571341 45.588399 0.289412 2.220297 0.098840 -0.022684 33253.600000 0 0 1
-35.570039 -11.501800 -27.206211 46.235235 0.312745 2.199912 0.101892 -0.018991 -71863.400000 0 0 1
-36.887356 -11.671600 -27.997181 47.757150 0.306445 2.197207 0.083077 -0.011997 -597293.000000 0 0 1
-37.769876 -10.633700 -27.655511 48.004858 0.274435 2.184743 0.080128 -0.019911 -305554.000000 0 0 1
37.028827 -10.680900 -28.618321 48.002332 -0.280825 2.209538 0.086957 -0.022755 193184.000000 0 0 1
35.992547 -9.519400 -28.553971 46.919203 -0.258562 2.225063 0.082064 -0.014088 -49896.500000 0 0 1
34.956697 -9.739400 -27.631551 45.610625 -0.271722 2.221585 0.065110 -0.010698 -186094.000000 0 0 1
34.247707 -8.521800 -27.447281 44.708832 -0.243876 2.231803 0.026256 -0.003473 -71686.500000 0 0 1
32.882777 -8.708800 -26.751451 43.275401 -0.258900 2.237206 0.017518 -0.003708 18729.100000 0 0 1
32.995067 -9.035700 -25.409721 42.614225 -0.267297 2.209647 0.009192 0.009670 287504.000000 0 0 1
31.701777 -9.386500 -24.947371 41.418357 -0.287863 2.217209 -0.012303 0.011138 99715.600000 0 0 1
31.666197 -9.704900 -23.456771 40.585135 -0.297387 2.187029 -0.022052 0.008753 -213180.000000 0 0 1
32.410877 -10.773900 -22.977571 41.164434 -0.320925 2.162999 -0.023132 0.004189 -74688.600000 0 0 1
32.447917 -10.654400 -21.577571 40.397711 -0.317262 2.134273 -0.006877 -0.001029 157476.000000 0 0 1
33.298177 -11.771100 -20.902771 41.039654 -0.339795 2.105204 0.027168 -0.004158 75447.600000 0 0 1
34.678497 -11.736100 -21.190171 42.300798 -0.326327 2.095481 0.045925 -0.007146 -264639.000000 0 0 1
35.409467 -12.750600 -20.516971 42.864370 -0.345635 2.069911 0.089320 -0.010777 -154870.000000 0 0 1
36.868587 -12.712100 -21.018671 44.302084 -0.332030 2.065124 0.126141 -0.029250 -365681.000000 0 0 1
37.598947 -11.490000 -20.821271 44.488495 -0.296581 2.057839 0.152488 -0.024110 364981.000000 0 0 1
37.355787 -10.482100 -21.749971 44.479101 -0.273567 2.081731 0.155535 -0.015496 -921180.000000 0 0 1
-37.911556 -10.542800 -23.187571 45.673845 0.271236 2.103283 0.112393 -0.019763 -109633.000000 0 0 1
37.529327 -11.594900 -24.042271 46.053478 -0.299653 2.120050 0.127533 -0.018752 674298.000000 0 0 1
36.205137 -11.529100 -24.593871 45.261358 -0.308286 2.145248 0.163312 -0.020489 550060.000000 0 0 1
35.973727 -12.612200 -25.660141 45.952360 -0.337205 2.163261 0.120847 -0.037874 -200588.000000 0 0 1
36.041267 -13.954700 -25.198381 46.137457 -0.369412 2.148568 0.120617 -0.051803 686948.000000 0 0 1
35.138977 -14.319900 -24.137471 44.971376 -0.386974 2.137353 0.085166 -0.038502 106466.000000 0 0 1
-30.646676 8.198100 -18.651371 36.800832 -0.261384 2.102287 0.110079 -0.009698 974045.000000 0 0 1
-29.425996 7.444300 -18.848971 35.729407 -0.247785 2.126508 0.114909 -0.011292 896299.000000 0 0 1
-28.827256 7.801700 -20.090071 35.992890 -0.264305 2.162972 0.123742 -0.030490 108195.000000 0 0 1
-27.499616 7.092500 -20.419671 34.978499 -0.252412 2.194170 0.104822 -0.029970 604926.000000 0 0 1
-26.355546 7.461700 -19.633871 33.701345 -0.275897 2.192701 0.103048 -0.021445 452596.000000 0 0 1
-25.277346 6.577000 -19.826571 32.791677 -0.254549 2.220088 0.108817 -0.032026 -356106.000000 0 0 1
-24.023166 7.086800 -19.126471 31.514395 -0.286862 2.222966 0.081259 -0.029526 -361375.000000 0 0 1
-23.387766 8.135500 -19.817071 31.715773 -0.334761 2.245714 0.077670 -0.027103 -681369.000000 0 0 1
-22.181166 8.482600 -19.212571 30.546383 -0.365263 2.251016 0.074321 -0.025410 -326849.000000 0 0 1
-21.381166 9.541300 -20.029571 30.811919 -0.419729 2.278459 0.090196 -0.024894 148909.000000 0 0 1
-20.763866 8.995100 -21.210571 31.015130 -0.408803 2.323861 0.123704 -0.033875 -137925.000000 0 0 1
-20.108966 10.014100 -21.913771 31.382576 -0.462040 2.343786 0.115436 -0.032916 62339.100000 0 0 1
-19.161266 9.490200 -23.031071 31.426871 -0.459865 2.393292 0.128272 -0.031991 -58809.500000 0 0 1
-19.817866 8.586400 -23.865571 32.187568 -0.408851 2.406030 0.128705 -0.031023 -126376.000000 0 0 1
-18.945766 8.123200 -24.881371 32.311160 -0.405052 2.449724 0.107149 -0.022131 -243381.000000 0 0 1
-19.528966 7.030900 -25.807391 33.118507 -0.345577 2.464255 0.083627 -0.017341 -12292.800000 0 0 1
-19.962366 5.871800 -25.111871 32.612576 -0.286075 2.449646 0.102510 -0.016161 234695.000000 0 0 1
-20.592566 4.922400 -25.948781 33.490641 -0.234635 2.457206 0.092885 -0.013743 -500548.000000 0 0 1
-20.828066 3.533400 -25.252481 32.923867 -0.168046 2.444943 0.084307 -0.001791 239179.000000 0 0 1
-19.640566 2.808100 -24.946971 31.874576 -0.142012 2.469725 0.074781 0.001917 297527.000000 0 0 1
-18.729266 3.355000 -24.044671 30.662479 -0.177252 2.472158 0.091387 -0.009789 -594660.000000 0 0 1
-17.710866 2.283700 -23.568671 29.569787 -0.128236 2.493195 0.088491 -0.009344 230113.000000 0 0 1
-18.186966 1.355500 -22.538071 28.992546 -0.074394 2.461278 0.086018 -0.010042 1562100.000000 0 0 1
-19.504166 0.737100 -22.691771 29.931125 -0.037774 2.431241 0.054845 -0.001283 1185280.000000 0 0 1
-19.841866 -0.161800 -21.504971 29.260717 0.008154 2.396380 0.091119 -0.015286 -208763.000000 0 0 1
-18.972666 -1.243000 -21.325371 28.570589 0.065422 2.413447 0.093894 -0.018418 133046.000000 0 0 1
-19.289966 -1.865100 -20.060771 27.892936 0.096388 2.373455 0.108609 -0.023489 -108730.000000 0 0 1
-18.678966 -3.269900 -19.920971 27.503474 0.173302 2.380826 0.075130 -0.034802 -116854.000000 0 0 1
-18.988466 -4.195700 -20.949871 28.584311 0.217466 2.393393 0.072540 -0.034830 319806.000000 0 0 1
-19.163166 -5.505800 -20.498771 28.596160 0.279776 2.370051 0.091306 -0.030468 -178305.000000 0 0 1
-19.398566 -6.448600 -21.669571 29.790252 0.320934 2.385329 0.058572 -0.028727 -707375.000000 0 0 1
-18.173366 -6.809700 -22.198171 29.485624 0.358514 2.423174 0.054205 -0.024281 -535212.000000 0 0 1
-18.260166 -7.638800 -23.323871 30.590650 0.396209 2.437889 0.076055 -0.031444 92266.000000 0 0 1
-16.959366 -7.627200 -24.144471 30.475396 0.422633 2.485302 0.064541 -0.035248 -610291.000000 0 0 1
-17.156466 -8.304300 -25.323341 31.695067 0.450793 2.496373 0.097146 -0.059576 791389.000000 0 0 1
-15.963866 -8.409700 -26.135761 31.759188 0.484854 2.537355 0.101088 -0.059958 628465.000000 0 0 1
-14.834266 -9.341800 -25.652721 31.070673 0.562004 2.542105 0.089388 -0.052427 -706162.000000 0 0 1
-14.047266 -8.732700 -24.667671 29.699827 0.556198 2.550920 0.099736 -0.042693 24300.000000 0 0 1
-13.184466 -9.714300 -24.074171 29.116378 0.634999 2.544237 0.081165 -0.033349 980180.000000 0 0 1
-12.081866 -9.090300 -23.113471 27.619514 0.645030 2.562305 0.101211 -0.035109 558056.000000 0 0 1
-12.655166 -8.634800 -21.926171 26.748270 0.598757 2.531723 0.103324 -0.027977 375133.000000 0 0 1
-11.713666 -7.967800 -21.072271 25.391660 0.597323 2.549706 0.104819 -0.023074 -240567.000000 0 0 1
-12.252366 -7.676200 -19.608971 24.363010 0.559683 2.506247 0.091801 -0.019617 688172.000000 0 1 0
-13.269766 -6.676100 -19.465771 24.486184 0.466129 2.489754 0.084736 -0.012447 657258.000000 0 1 0
-14.568966 -6.968700 -19.949471 25.667079 0.446158 2.461063 0.091986 -0.019364 -345552.000000 0 0 1
-15.579466 -5.957600 -19.408671 25.591195 0.365243 2.431670 0.088511 -0.020001 -498887.000000 0 0 1
-15.839266 -5.889100 -17.976771 24.672416 0.355966 2.387099 0.081298 -0.017200 86271.700000 0 1 0
-15.276366 -4.794800 -17.373571 23.626223 0.304133 2.396981 0.090461 -0.030125 -785261.000000 0 1 0
-15.444966 -4.740400 -15.821771 22.612978 0.297795 2.345741 0.116731 -0.028642 -148792.000000 0 1 0
-16.714666 -4.428500 -15.292371 23.083506 0.258996 2.294922 0.154680 -0.033878 -104166.000000 0 1 0
-16.929466 -3.052100 -15.506071 23.159455 0.178367 2.304379 0.096864 -0.035594 -211129.000000 0 1 0
-18.103966 -2.488100 -14.659971 23.427739 0.136578 2.246892 0.093894 -0.034752 20123.300000 0 1 0
-17.871066 -2.516500 -13.270171 22.401009 0.139894 2.204821 0.110429 -0.040020 923477.000000 0 1 0
-18.781066 -1.659900 -12.593071 22.673093 0.088152 2.159663 0.116221 -0.039278 -326497.000000 0 1 0
-17.988566 -0.595600 -11.899271 21.576281 0.033098 2.154955 0.084655 -0.033631 -424348.000000 0 1 0
-17.529366 0.253900 -12.904671 21.768639 -0.014483 2.205340 0.097561 -0.033367 193918.000000 0 1 0
-16.590366 1.143200 -12.362871 20.721673 -0.068799 2.210073 0.075399 -0.024776 -806092.000000 0 1 0
-16.088466 2.249200 -13.354671 21.029619 -0.138902 2.258858 0.072787 -0.022046 263912.000000 0 1 0
-15.386066 1.807700 -14.497871 21.217612 -0.116953 2.323061 0.071810 -0.026375 313247.000000 0 1 0
-14.125666 1.244100 -14.218571 20.081085 -0.087847 2.357540 0.075906 -0.021964 -848463.000000 0 1 0
-13.514766 0.199800 -15.323171 20.432532 -0.014783 2.418768 0.068857 -0.021436 279874.000000 0 1 0
-13.117266 0.819400 -16.509471 21.102054 -0.062386 2.469247 0.089038 -0.023821 165779.000000 0 1 0
-12.712666 -0.172600 -17.452371 21.592288 0.013576 2.512002 0.053514 -0.018602 -196853.000000 0 1 0
-12.125166 0.419200 -18.744871 22.328582 -0.034559 2.567161 0.078480 -0.025023 605654.000000 0 1 0
-10.776066 0.878100 -18.518571 21.443696 -0.081307 2.613144 0.042118 -0.008440 438871.000000 0 1 0
-10.614566 2.045700 -19.242971 22.071380 -0.190391 2.629767 0.061244 -0.022830 296292.000000 0 1 0
-9.160766 2.528600 -19.061371 21.299045 -0.269319 2.679093 0.035959 -0.024189 -346789.000000 0 1 0
-8.165066 1.685100 -19.583671 21.284455 -0.203522 2.739113 0.035129 -0.015961 -478540.000000 0 1 0
-6.853966 2.086100 -19.284471 20.572299 -0.295456 2.785884 0.031006 -0.011349 86115.000000 0 1 0
-6.297466 3.251500 -20.144971 21.355331 -0.476617 2.803300 0.032564 -0.013334 -902487.000000 0 1 0
-6.068866 2.814100 -21.472171 22.490096 -0.434184 2.839577 0.031628 -0.012709 25082.800000 0 1 0
-5.864066 3.856200 -22.369671 23.444823 -0.581698 2.837574 0.047893 -0.015942 -481564.000000 0 1 0
-5.369566 3.326200 -23.718771 24.545385 -0.554601 2.881332 0.075828 -0.029605 -623378.000000 0 1 0
-4.066766 2.844800 -23.637871 24.153269 -0.610406 2.934639 0.069949 -0.035578 -798966.000000 0 1 0
-3.640566 2.348700 -24.887571 25.261854 -0.572956 2.969239 0.102792 -0.040950 -249054.000000 0 0 1
-2.236366 1.762100 -24.799371 24.962274 -0.667338 3.027285 0.090147 -0.036657 -576585.000000 0 1 0
-1.156566 2.720800 -24.691171 24.867535 -1.168855 3.022424 0.104991 -0.037297 1897770.000000 0 1 0
0.120734 2.031700 -24.929171 25.012116 1.511441 3.060131 0.099103 -0.029720 1383980.000000 0 0 1
0.682734 0.998400 -23.925471 23.956024 0.971007 3.091082 0.088572 -0.023789 -1093460.000000 0 1 0
0.105534 -0.286200 -23.837671 23.839622 -1.217523 3.128797 0.073319 -0.025580 -108393.000000 0 1 0
0.858634 -1.087400 -22.925771 22.967600 -0.902416 3.081231 0.069386 -0.016132 -79512.600000 0 1 0
0.242934 -2.503000 -22.643471 22.782686 -1.474042 3.030987 0.076117 -0.030334 336456.000000 0 1 0
-0.917866 -2.627000 -21.827371 22.004039 1.234659 3.014788 0.059246 -0.028592 1162090.000000 0 1 0
-2.203066 -2.704000 -22.503671 22.772358 0.887130 2.987826 0.066492 -0.031701 1356690.000000 0 1 0
-2.858066 -1.271700 -22.577671 22.793354 0.418647 3.003915 0.069406 -0.029938 -1632170.000000 0 1 0
-3.328966 -0.770800 -21.328271 21.600261 0.227534 2.982731 0.042438 -0.029138 181082.000000 0 1 0
-4.367266 0.189100 -21.455171 21.895961 -0.043272 2.940600 0.030266 -0.027523 905778.000000 0 1 0
-5.693866 -0.260500 -22.150671 22.872258 0.045719 2.889736 0.032222 -0.026881 -288007.000000 0 1 0
-6.429766 -1.361400 -21.605771 22.583282 0.208652 2.846294 0.040860 -0.016833 700497.000000 0 1 0
-7.803666 -1.307900 -21.955971 23.338219 0.166057 2.795700 0.045682 -0.009185 364935.000000 0 1 0
-8.731166 -2.470600 -21.626271 23.452776 0.275754 2.744321 0.044584 -0.012380 -234113.000000 0 1 0
-8.796366 -3.407900 -22.711071 24.592327 0.369616 2.747909 0.072556 -0.013980 167421.000000 0 1 0
-9.497566 -4.568600 -22.256171 24.625454 0.448356 2.699334 0.075798 -0.011265 319644.000000 0 1 0
-10.532466 -5.042200 -23.366671 26.121981 0.446487 2.678156 0.090659 -0.024636 1210880.000000 0 0 1
-11.826966 -4.433100 -23.227571 26.439545 0.358621 2.643544 0.094225 -0.034035 480573.000000 0 0 1
-12.762866 -5.002900 -24.103671 27.729167 0.373581 2.624486 0.086530 -0.048123 -191532.000000 0 0 1
-14.220566 -5.066000 -23.629871 28.040322 0.342227 2.573094 0.083504 -0.043203 38945.400000 0 0 1
-14.825266 -3.752400 -23.793271 28.284072 0.247902 2.570341 0.085653 -0.046395 761153.000000 0 0 1
-16.225966 -3.775100 -23.474471 28.785137 0.228591 2.524400 0.094032 -0.040950 981415.000000 0 0 1
-17.016866 -2.520000 -23.919571 29.463027 0.147020 2.518111 0.081562 -0.032151 -94497.100000 0 0 1
-17.205566 -2.532100 -25.310701 30.709520 0.146119 2.539579 0.058679 -0.026483 55973.900000 0 0 1
-17.451966 -1.238200 -25.891131 31.248278 0.070830 2.547330 0.067008 -0.018573 -183935.000000 0 0 1
-18.819566 -0.805200 -26.448761 32.470931 0.042759 2.522726 0.050130 -0.010257 -248622.000000 0 0 1
-19.264466 -1.400400 -27.653071 33.730892 0.072566 2.531883 0.064097 -0.019349 135259.000000 0 0 1
-18.505566 -0.972900 -28.772861 34.223968 0.052525 2.569413 0.045658 -0.023931 -113843.000000 0 0 1
-18.735566 -1.993900 -29.941981 35.376818 0.106024 2.579934 0.044641 -0.022825 -626467.000000 0 0 1
-20.027866 -2.206600 -30.398221 36.469663 0.109734 2.556246 0.045544 -0.024992 -713702.000000 0 0 1
-20.211466 -2.913500 -31.612341 37.634185 0.143165 2.568061 0.052897 -0.029145 -1041230.000000 0 0 1
-21.636066 -3.373000 -31.894211 38.687687 0.154652 2.539941 0.044594 -0.028174 -137780.000000 0 0 1
-22.567666 -2.303200 -32.106771 39.312199 0.101705 2.526487 0.045973 -0.022631 366855.000000 0 0 1
-23.220666 -1.810000 -30.979351 38.758168 0.077791 2.496924 0.036558 -0.007013 -555154.000000 0 0 1
-24.331266 -0.807400 -31.312301 39.662609 0.033171 2.480736 0.038924 -0.005769 -314444.000000 0 0 1
-23.788366 0.363800 -31.947521 39.832936 -0.015292 2.501496 0.040350 -0.011158 80265.100000 0 0 1
-24.715466 1.262600 -32.459651 40.817611 -0.051041 2.490194 0.041774 -0.015628 -385561.000000 0 0 1
-24.024566 2.574200 -32.960241 40.867882 -0.106741 2.509017 0.051587 -0.020067 -401701.000000 0 0 1
-23.579166 3.451500 -31.939901 39.850310 -0.145347 2.500591 0.041667 -0.014257 1163180.000000 0 0 1
-24.637566 4.045100 -31.133921 39.908564 -0.162732 2.465672 0.051228 -0.013458 703658.000000 0 0 1
-25.731376 4.950000 -31.773581 41.184544 -0.190050 2.451981 0.047467 -0.012680 419403.000000 0 0 1
-26.650606 4.168300 -32.565081 42.286097 -0.155148 2.449815 0.055237 -0.022330 31847.300000 0 0 1
-27.807356 4.877100 -32.870601 43.330261 -0.173623 2.431967 0.077694 -0.036849 -222402.000000 0 0 1
-28.945166 4.090000 -33.560081 44.506514 -0.140372 2.425001 0.100789 -0.042107 -27444.500000 0 0 1
-28.627936 3.649500 32.467572 43.439852 -0.126796 0.726635 0.099900 -0.033926 53199.200000 0 0 1
-29.745306 3.137700 31.791363 43.649961 -0.105097 0.754922 0.120418 -0.038994 -202308.000000 0 0 1
-29.934336 1.580800 31.792703 43.695988 -0.052760 0.755996 0.132464 -0.024825 -176507.000000 0 0 1
-30.212666 1.079800 33.104985 44.832033 -0.035725 0.740068 0.135829 -0.021124 282104.000000 0 0 1
-30.518736 -0.312400 32.997185 44.947803 0.010236 0.746423 0.114164 -0.004543 -423926.000000 0 0 1
-30.393866 -1.121700 -33.023481 44.895385 0.036889 2.397297 0.084523 -0.006738 -355603.000000 0 0 1
-29.081136 -1.401500 -32.639641 43.738116 0.048155 2.413209 0.093276 -0.018946 194266.000000 0 0 1
-28.288706 -0.355900 -32.050671 42.750708 0.012580 2.418421 0.096761 -0.014991 -211069.000000 0 0 1
-28.326426 -0.326900 -30.457061 41.594781 0.011540 2.392391 0.121003 -0.014034 -208240.000000 0 0 1
-27.457706 -1.267400 -29.819181 40.555092 0.046126 2.396870 0.102299 -0.016287 568756.000000 0 0 1
-27.431316 -0.965100 -28.425111 39.514496 0.035168 2.373675 0.115135 -0.017881 -846294.000000 0 0 1
-26.224656 -1.381500 -27.609271 38.103975 0.052631 2.381217 0.109664 -0.015675 -662752.000000 0 0 1
-26.104446 -2.747800 -27.240001 37.828695 0.104876 2.374726 0.096041 -0.014590 94689.900000 0 0 1
-25.161886 -2.878300 -26.195711 36.436525 0.113896 2.373074 0.099636 -0.016558 -42545.300000 0 0 1
-25.471276 -4.093600 -25.384131 36.192507 0.159352 2.348106 0.095146 -0.022638 445263.000000 0 0 1
-26.686186 -3.984600 -24.648371 36.545475 0.148218 2.311026 0.124820 -0.019799 270809.000000 0 0 1
-26.990626 -5.219100 -24.030271 36.512831 0.191010 2.289132 0.114542 -0.024884 -17656.500000 0 0 1
-28.242216 -5.164200 -23.135771 36.872152 0.180856 2.249082 0.129646 -0.029838 -22005.000000 0 0 1
-28.566436 -6.256700 -22.246371 36.743551 0.215618 2.221127 0.127992 -0.029982 -987301.000000 0 0 1
-29.719906 -5.971400 -21.580971 37.211137 0.198282 2.189476 0.153481 -0.024669 -1278710.000000 0 0 1
-30.052346 -7.136200 -20.604471 37.129679 0.233141 2.159078 0.159266 -0.032850 912349.000000 0 0 1
-28.989286 -7.424100 -19.608771 35.777085 0.250710 2.150866 0.148428 -0.035632 1571200.000000 0 0 1
-29.475986 -8.267100 -18.595271 35.818470 0.273444 2.116656 0.164532 -0.025083 525022.000000 0 0 1
-30.385616 -7.615100 -17.515071 35.889457 0.245558 2.080626 0.163991 -0.023652 311654.000000 0 0 1
-29.510386 -7.047000 -16.608671 34.588597 0.234407 2.071654 0.132899 -0.036872 918160.000000 0 0 1
-30.249256 -6.103400 -15.785671 34.662031 0.199097 2.043637 0.149269 -0.032328 -70066.200000 0 0 1
-29.369896 -5.509200 -14.710171 33.306624 0.185425 2.028243 0.139761 -0.032354 -670160.000000 0 0 1
-28.374746 -4.697600 -15.266171 32.561474 0.164068 2.058775 0.142649 -0.025829 17247.400000 0 0 1
-27.522326 -4.257300 -14.222171 31.270964 0.153469 2.042949 0.133729 -0.033962 -178737.000000 0 0 1
-13.957366 21.351800 -4.772971 25.951661 -0.991834 1.755767 0.092601 -0.034187 -384922.000000 0 0 1
-14.311366 20.840700 -6.004571 25.984704 -0.969051 1.803985 0.110689 -0.034385 547189.000000 0 0 1
-15.218866 19.711900 -5.860171 25.583481 -0.913323 1.801909 0.107712 -0.037294 535430.000000 0 0 1
-15.764266 19.072100 -7.134671 25.751905 -0.880068 1.851523 0.135497 -0.036974 -261679.000000 0 0 1
-14.703366 18.610800 -7.971171 25.021799 -0.902155 1.895016 0.107028 -0.028495 45053.500000 0 0 1
-14.876366 17.596400 -8.951171 24.719689 -0.868967 1.941324 0.087122 -0.027948 -896022.000000 0 1 0
-15.254866 16.188300 -8.436671 23.789691 -0.815076 1.933321 0.084656 -0.025064 -1061110.000000 0 1 0
-16.547566 16.164900 -7.971171 24.467642 -0.773701 1.902637 0.090989 -0.020691 -977713.000000 0 1 0
-16.720966 15.142000 -7.036971 23.630274 -0.735884 1.873178 0.093211 -0.013889 1054940.000000 0 1 0
-18.204566 15.033500 -6.491771 24.485821 -0.690281 1.839129 0.130220 -0.029558 1713580.000000 0 1 0
-19.213866 14.674600 -7.449271 25.298383 -0.652244 1.869683 0.114660 -0.031033 759383.000000 0 0 1
-20.505766 15.138600 -7.067871 26.450302 -0.635945 1.841296 0.103870 -0.029247 979198.000000 0 0 1
-21.691466 14.461300 -7.838071 27.222863 -0.588013 1.862853 0.109253 -0.018536 338531.000000 0 0 1
-21.895166 13.143500 -7.481671 26.610624 -0.540634 1.855792 0.147970 -0.029767 7557.360000 0 0 1
-22.905366 12.568200 -8.287071 27.409688 -0.501845 1.877944 0.173428 -0.036050 54607.200000 0 0 1
-23.306566 11.155000 -7.961571 27.037320 -0.446398 1.869693 0.199653 -0.036131 -150747.000000 0 0 1
-22.397466 10.132200 -8.343271 25.959933 -0.424833 1.897994 0.196086 -0.033845 105293.000000 0 0 1
-22.666366 8.875700 -7.692971 25.528886 -0.373227 1.876898 0.221514 -0.050273 178183.000000 0 0 1
-21.324566 8.221100 -7.268071 23.982253 -0.367964 1.878699 0.169292 -0.020046 123686.000000 0 1 0
-20.720066 7.347700 -8.170571 23.453530 -0.340783 1.926631 0.149128 -0.019029 -364765.000000 0 1 0
-19.712666 6.624300 -7.583771 22.135585 -0.324187 1.920485 0.097102 -0.014722 -640053.000000 0 1 0
-19.201766 5.377900 -8.408171 21.640863 -0.273077 1.969834 0.071258 -0.024755 -89124.300000 0 1 0
-20.193966 4.367700 -8.437371 22.317309 -0.213006 1.958500 0.105641 -0.026035 652048.000000 0 1 0
-19.950766 3.496000 -9.527171 22.383522 -0.173470 2.010458 0.097403 -0.026567 -619068.000000 0 1 0
-21.061966 2.454200 -9.546971 23.254551 -0.116000 1.993845 0.113650 -0.025267 -167156.000000 0 1 0
-20.873666 1.417900 -8.564471 22.606869 -0.067824 1.959343 0.115024 -0.031087 464667.000000 0 1 0
-21.964166 0.491800 -8.469971 23.545846 -0.022387 1.938767 0.139221 -0.028901 46058.700000 0 1 0
-21.745466 -0.813500 -9.211371 23.629990 0.037393 1.971229 0.096924 -0.040326 22872.200000 0 1 0
-20.702466 -1.600500 -8.668271 22.500947 0.077156 1.966264 0.086530 -0.027065 345061.000000 0 1 0
-20.574566 -2.874500 -9.156971 22.702987 0.138813 1.985958 0.060690 -0.020596 -113079.000000 0 1 0
-21.524966 -3.929400 -8.503671 23.475024 0.180563 1.941470 0.069913 -0.021968 185012.000000 0 1 0
-21.253166 -4.296000 -7.144371 22.829689 0.199447 1.889085 0.074792 -0.021450 -36041.100000 0 1 0
-22.294966 -4.998300 -6.505671 23.756520 0.220543 1.848188 0.096834 -0.030663 -370179.000000 0 1 0
-22.305766 -6.542100 -6.538071 24.147311 0.285291 1.844976 0.097638 -0.038960 -164942.000000 0 1 0
-21.204966 -7.163400 -5.919071 23.151680 0.325780 1.829332 0.085100 -0.037575 313584.000000 0 1 0
-21.521466 -8.538200 -5.896471 23.892315 0.377684 1.820166 0.106689 -0.044605 -452241.000000 0 1 0
-20.447666 -9.439800 -5.279471 23.132005 0.432505 1.801058 0.097566 -0.046244 -474957.000000 0 1 0
-19.486966 -9.787700 -6.260771 22.687842 0.465461 1.850377 0.097767 -0.028427 -137530.000000 0 1 0
-18.582766 -10.674100 -5.661871 22.165567 0.521390 1.829094 0.101568 -0.017032 -171658.000000 0 1 0
-17.552266 -11.303100 -6.631571 21.904790 0.572123 1.878368 0.076070 -0.023170 -302682.000000 0 1 0
-16.724066 -10.379000 -7.261071 20.979542 0.555431 1.924210 0.103160 -0.047299 354743.000000 0 1 0
-17.118466 -10.050400 -8.618871 21.641103 0.530887 1.980420 0.107844 -0.042549 -424320.000000 0 1 0
-16.097766 -10.556100 -9.669671 21.542327 0.580406 2.036295 0.106603 -0.033455 101451.000000 0 1 0
-16.081866 -12.028400 -9.887271 22.384524 0.642187 2.028290 0.113925 -0.039097 -53116.200000 0 1 0
-15.151366 -12.464500 -10.837671 22.413896 0.688409 2.075473 0.118545 -0.020427 -54828.400000 0 1 0
-15.425166 -13.893200 -11.383471 23.675729 0.733193 2.072372 0.133955 -0.022695 102985.000000 0 1 0
-16.353866 -13.883600 -12.442871 24.799764 0.703884 2.096398 0.131861 -0.021763 -138567.000000 0 1 0
-16.670266 -15.084400 -13.024671 25.982281 0.735498 2.095886 0.123373 -0.014755 128144.000000 0 0 1
-16.992266 -14.903900 -14.552671 26.882030 0.720018 2.142842 0.128136 -0.016448 -232923.000000 0 0 1
-17.521766 -16.029700 -15.073971 28.128067 0.740956 2.136376 0.125481 -0.008639 -49910.400000 0 0 1
-17.806466 -15.970200 -16.446771 29.027810 0.731087 2.173154 0.119337 -0.010053 -108993.000000 0 0 1
-18.209066 -17.301500 -17.103271 30.388054 0.759846 2.168600 0.134902 -0.025233 -159190.000000 0 0 1
-19.485666 -17.740700 -16.717271 31.207223 0.738558 2.136116 0.082168 -0.020289 -299717.000000 0 0 1
-20.314766 -18.017500 -17.837371 32.488333 0.725539 2.152011 0.079384 -0.013931 -484072.000000 0 0 1
-21.789966 -18.016700 -17.467571 33.234321 0.690891 2.124203 0.067458 -0.011295 -508257.000000 0 0 1
-22.285166 -16.738900 -17.016171 32.655313 0.644219 2.118917 0.042390 -0.003819 301868.000000 0 0 1
-22.473166 -16.838800 -15.631371 32.139199 0.643043 2.078721 0.055513 -0.010205 -196640.000000 0 0 1
-22.161166 -15.459500 -14.952671 30.881965 0.609109 2.076231 0.055352 -0.020094 401433.000000 0 0 1
-23.265366 -14.553000 -15.057271 31.301573 0.558975 2.072636 0.075708 -0.023914 757860.000000 0 0 1
-22.973266 -13.322600 -14.509271 30.261883 0.525522 2.070832 0.082989 -0.027856 -310846.000000 0 0 1
-24.284666 -12.581200 -14.212271 30.822398 0.478000 2.050033 0.098940 -0.032505 -206875.000000 0 0 1
-24.955596 -13.136500 -13.102571 31.097054 0.484540 2.005724 0.117405 -0.034692 -243399.000000 0 0 1
-26.062076 -12.375100 -12.745871 31.540959 0.443311 1.986797 0.130892 -0.038975 -678455.000000 0 0 1
-26.923016 -13.069900 -11.681371 32.126710 0.451944 1.942929 0.136916 -0.049688 -51856.700000 0 0 1
-28.034296 -12.299800 -11.261471 32.619435 0.413452 1.923289 0.134840 -0.047177 431590.000000 0 0 1
-28.835426 -12.904500 -10.255771 33.214285 0.420792 1.884702 0.158995 -0.055852 890692.000000 0 0 1
-29.863146 -11.901900 -9.601271 33.550665 0.379254 1.861026 0.141019 -0.052031 1030010.000000 0 0 1
-29.070156 -10.883700 -8.906371 32.293224 0.358240 1.850215 0.152746 -0.054395 1155060.000000 0 0 1
-29.922946 -9.926900 -8.326271 32.607558 0.320324 1.829004 0.169254 -0.053191 91788.400000 0 0 1
-29.019716 -8.798000 -7.741271 31.296581 0.294365 1.820743 0.180598 -0.039356 425326.000000 0 0 1
-28.279876 -9.226200 -6.620771 30.474723 0.315359 1.789797 0.176143 -0.038314 1451170.000000 0 0 1
-27.205206 -8.398800 -6.026971 29.103049 0.299438 1.779397 0.161553 -0.042062 994241.000000 0 0 1
-27.618766 -6.965300 -5.551371 29.019465 0.247043 1.763281 0.171104 -0.047129 -679715.000000 0 0 1
-28.557186 -6.797400 -4.532471 29.702875 0.233679 1.723988 0.197019 -0.045663 256592.000000 0 0 1
-28.113466 -7.128000 -3.198971 29.178910 0.248311 1.680650 0.190740 -0.033514 269863.000000 0 0 1
-27.100596 -6.066000 -2.602671 27.892876 0.220203 1.664242 0.202475 -0.036922 323079.000000 0 0 1
-27.712126 -4.919700 -2.043271 28.219503 0.175698 1.643266 0.238583 -0.047293 222879.000000 0 0 1
-26.818206 -4.084500 -1.329471 27.160022 0.151142 1.619765 0.194282 -0.048376 -231028.000000 0 0 1
-27.494186 -2.759200 -0.754971 27.642602 0.100021 1.598112 0.229402 -0.057490 693413.000000 0 0 1
-28.475576 -2.923800 0.311029 28.626976 0.102319 1.559931 0.231904 -0.048789 1079190.000000 0 0 1
-27.891976 -3.081900 1.601729 28.107401 0.110048 1.513779 0.214639 -0.052077 292357.000000 0 0 1
-29.001236 -3.054200 2.700629 29.286400 0.104926 1.478451 0.250818 -0.042424 764942.000000 0 0 1
-29.951246 -4.137900 2.582329 30.345803 0.137285 1.485597 0.249564 -0.049622 291080.000000 0 0 1
-30.804826 -4.116500 3.686729 31.296563 0.132845 1.452722 0.288166 -0.064237 -183700.000000 0 0 1
-31.924946 -5.178000 3.708229 32.554029 0.160793 1.456639 0.267903 -0.067444 -3703.160000 0 0 1
-31.399806 -6.489000 3.820329 32.290089 0.203789 1.452206 0.260113 -0.061769 5027.220000 0 0 1
-32.383846 -7.472400 3.786029 33.449727 0.226776 1.457368 0.303340 -0.081919 -285789.000000 0 0 1
-31.747716 -8.890800 3.790129 33.186275 0.273051 1.456339 0.266903 -0.059102 158645.000000 0 0 1
-31.154476 -9.273900 5.014429 32.889985 0.289322 1.417739 0.222381 -0.047253 131510.000000 0 0 1
-30.745716 -10.618200 4.790629 32.878494 0.332531 1.424569 0.198836 -0.036904 -95578.000000 0 0 1
-30.595216 -11.331600 6.150029 33.200832 0.354707 1.384483 0.177398 -0.042844 -799128.000000 0 0 1
-29.473136 -10.926700 6.833129 32.167533 0.355026 1.356742 0.141254 -0.032977 -564018.000000 0 0 1
-29.498156 -11.269400 8.208229 32.626915 0.364926 1.316485 0.172939 -0.044948 -378002.000000 0 0 1
-30.055516 -10.211000 9.191729 33.046731 0.327504 1.288936 0.168481 -0.051105 287403.000000 0 0 1
-29.190846 -9.080500 9.574029 32.034716 0.301585 1.267294 0.132232 -0.021065 1120600.000000 0 0 1
-29.955456 -8.126400 10.327329 32.711182 0.264907 1.249589 0.136884 -0.022371 659639.000000 0 0 1
-29.131246 -6.816200 10.763629 31.795374 0.229847 1.225444 0.162024 -0.012460 287360.000000 0 0 1
-29.011886 -5.801400 9.740129 31.148289 0.197363 1.252760 0.156408 -0.020236 462566.000000 0 0 1
-28.214256 -4.708800 10.148429 30.351403 0.165370 1.229866 0.164412 -0.028649 -116054.000000 0 0 1
-27.865756 -3.681800 9.009329 29.516504 0.131365 1.260616 0.197262 -0.041361 -263099.000000 0 0 1
-27.005066 -4.077100 8.001529 28.459108 0.149844 1.285795 0.166702 -0.033619 -24853.000000 0 0 1
-27.372216 -3.387600 6.780729 28.402330 0.123134 1.329730 0.190998 -0.049057 208704.000000 0 0 1
-26.559936 -3.881600 5.532029 27.406210 0.145118 1.367547 0.162618 -0.037457 1404520.000000 0 0 1
-25.160086 -3.469500 5.603929 26.009063 0.137033 1.353633 0.185671 -0.047663 1840050.000000 0 0 1
-24.491466 -3.877300 4.409929 25.185568 0.157009 1.394792 0.178192 -0.030990 -1063370.000000 0 0 1
-22.989966 -3.768200 4.478329 23.723265 0.162462 1.380883 0.160851 -0.023830 -886309.000000 0 1 0
-22.459566 -2.469600 4.482029 23.035182 0.109518 1.374974 0.123500 -0.027766 635544.000000 0 1 0
-21.040266 -2.391200 4.377929 21.623526 0.113163 1.366926 0.113232 -0.024523 91081.100000 0 1 0
-20.422966 -1.048200 4.647129 20.971220 0.051280 1.347346 0.095759 -0.033785 -1014430.000000 0 1 0
-20.626066 0.051500 3.747929 20.963879 -0.002497 1.391050 0.101877 -0.029089 543134.000000 0 1 0
-21.930366 0.594100 3.802629 22.265532 -0.027084 1.399170 0.088444 -0.048802 -39213.100000 0 1 0
-22.222166 1.665600 2.776029 22.456741 -0.074812 1.446863 0.138823 -0.035708 -41648.900000 0 1 0
-21.445966 2.808300 3.121429 21.853131 -0.130207 1.427469 0.117929 -0.043742 652824.000000 0 1 0
-21.731966 3.899100 2.274029 22.195777 -0.177529 1.468163 0.148098 -0.029437 79581.200000 0 1 0
-20.599066 4.162700 1.252429 21.052747 -0.199397 1.511271 0.094364 -0.015602 -355803.000000 0 1 0
-20.954366 4.959200 0.102329 21.533453 -0.232391 1.566044 0.124897 -0.010262 1252590.000000 0 1 0
-22.044766 4.457700 -0.721271 22.502512 -0.199521 1.602855 0.175092 -0.017567 645924.000000 0 1 0
-21.655566 3.286800 -1.637371 21.964689 -0.150627 1.645411 0.164400 -0.016353 -204216.000000 0 1 0
-21.197866 2.141200 -0.938771 21.326405 -0.100669 1.614830 0.098030 -0.016675 561936.000000 0 1 0
-20.748266 1.090700 -1.745771 20.850129 -0.052520 1.654624 0.089255 -0.012217 -508879.000000 0 1 0
-19.926066 0.092000 -0.939471 19.948413 -0.004617 1.617909 0.083010 -0.013871 -688691.000000 0 1 0
-20.700766 -0.549000 0.032029 20.708069 0.026515 1.569250 0.096975 -0.021121 737020.000000 0 1 0
-19.857766 -1.281900 0.947529 19.921645 0.064465 1.523216 0.074768 -0.019192 195579.000000 0 1 0
-19.094066 -2.545200 0.397629 19.267058 0.132517 1.550157 0.039762 -0.017966 -33616.600000 0 1 0
-18.340866 -3.291100 1.333429 18.681454 0.177551 1.499358 0.039456 -0.013759 929722.000000 0 1 0
-17.526066 -4.365200 0.852629 18.081619 0.244102 1.523624 0.016300 -0.008835 222553.000000 0 1 0
-18.374866 -5.615700 0.447529 19.219055 0.296603 1.547509 0.013000 -0.011215 -34871.200000 0 1 0
-18.858666 -6.202800 1.606729 19.917469 0.317764 1.490039 0.025981 -0.010703 289178.000000 0 1 0
-20.111566 -6.841400 1.520229 21.297674 0.327893 1.499356 0.059721 -0.017251 105378.000000 0 1 0
-20.719466 -7.226900 2.951429 22.141258 0.335603 1.437098 0.082353 -0.019720 11190.000000 0 1 0
-20.060166 -8.244700 3.615329 21.987631 0.389952 1.405621 0.079884 -0.015717 784046.000000 0 1 0
-20.849766 -8.598400 4.784229 23.055023 0.391148 1.361764 0.088012 -0.024542 775141.000000 0 1 0
-20.030966 -9.511500 5.751129 22.908158 0.443318 1.317030 0.078010 -0.011818 -36876.300000 0 1 0
-19.604666 -10.683200 5.255729 22.936791 0.498944 1.339603 0.093786 -0.015715 691408.000000 0 1 0
-18.474866 -11.197500 6.008529 22.423361 0.544888 1.299523 0.103952 -0.027622 869569.000000 0 1 0
-17.921166 -12.510900 5.480529 22.532798 0.609455 1.325107 0.083367 -0.023200 -804782.000000 0 1 0
-18.959566 -13.403900 5.426929 23.844941 0.615390 1.341192 0.135112 -0.034446 -436372.000000 0 1 0
-18.549666 -14.674500 4.891829 24.152868 0.669286 1.366849 0.125381 -0.031099 449682.000000 0 1 0
-19.658466 -15.784000 4.989429 25.699890 0.676513 1.375414 0.151481 -0.045098 224474.000000 0 0 1
-19.116466 -17.035800 4.785229 26.049111 0.727909 1.386047 0.149927 -0.046462 464952.000000 0 0 1
-20.050666 -18.068800 5.150829 27.478023 0.733454 1.382228 0.147636 -0.043054 415985.000000 0 0 1
-19.389066 -19.437900 5.148929 27.933480 0.786656 1.385408 0.167589 -0.056959 -171640.000000 0 0 1
-18.895866 -19.910300 3.890229 27.723774 0.811533 1.430011 0.151303 -0.055425 330359.000000 0 0 1
-18.000966 -20.996300 4.043429 27.950469 0.862056 1.425623 0.144152 -0.061655 284116.000000 0 0 1
-16.503166 -20.569400 3.992429 26.671974 0.894645 1.420545 0.136159 -0.062238 -33280.000000 0 0 1
-15.767066 -21.792100 4.010329 27.195197 0.944458 1.422792 0.111227 -0.056391 -136040.000000 0 0 1
-14.384266 -21.447500 3.975629 26.128681 0.980025 1.418047 0.109115 -0.051461 315019.000000 0 0 1
-13.458466 -22.671400 4.123629 26.685708 1.035072 1.415649 0.117224 -0.044615 -61549.600000 0 0 1
-13.621266 -23.523600 2.988729 27.346501 1.045926 1.461286 0.104621 -0.040354 -251578.000000 0 0 1
-12.824566 -24.682700 3.035029 27.980646 1.091610 1.462114 0.080704 -0.041753 -503415.000000 0 0 1
19.419934 18.668400 -23.658071 35.851741 0.765669 2.291464 0.082422 -0.014555 -433471.000000 0 0 1
18.580834 19.019700 -24.691371 36.285812 0.797069 2.319199 0.074469 -0.014616 -539037.000000 0 0 1
19.311834 19.494200 -25.786491 37.655197 0.790098 2.325133 0.081067 -0.015687 -262855.000000 0 0 1
18.491934 19.777300 -27.038111 38.264248 0.818973 2.355500 0.082513 -0.024591 -215644.000000 0 0 1
18.239034 21.155100 -27.156011 38.957022 0.859286 2.342108 0.083106 -0.024743 598106.000000 0 0 1
17.447234 21.257800 -28.380721 39.519177 0.883533 2.371937 0.074751 -0.024387 264038.000000 0 0 1
16.939634 22.638400 -28.771401 40.339086 0.928403 2.364904 0.095460 -0.039087 -189086.000000 0 0 1
16.042134 23.268400 -27.883901 39.702398 0.967194 2.349452 0.093075 -0.032643 338435.000000 0 0 1
15.816834 24.662700 -28.176071 40.648641 1.000543 2.336662 0.097994 -0.033160 -45610.800000 0 0 1
14.992034 25.445400 -27.136551 40.107628 1.038367 2.313923 0.101283 -0.030410 -268523.000000 0 0 1
13.662034 24.998800 -27.023061 39.266232 1.070638 2.329803 0.112891 -0.043235 -480606.000000 0 0 1
12.982434 25.778900 -26.095421 38.911004 1.104267 2.305873 0.100073 -0.033925 -918544.000000 0 0 1
11.499034 25.389300 -25.880701 38.034918 1.145526 2.319167 0.123588 -0.039785 142510.000000 0 0 1
10.852834 26.245400 -24.988871 37.829204 1.178695 2.292375 0.118265 -0.046626 -175948.000000 0 0 1
10.525334 27.539900 -25.531101 39.000844 1.205741 2.284489 0.132933 -0.043004 -760492.000000 0 0 1
9.978034 28.371500 -24.418671 38.739833 1.232615 2.252768 0.163157 -0.055154 16526.900000 0 0 1
11.053234 28.781400 -23.597871 38.825281 1.204123 2.224079 0.143993 -0.043174 332073.000000 0 0 1
10.576234 29.528000 -22.534471 38.620744 1.226856 2.193805 0.167423 -0.052951 24384.700000 0 0 1
11.686434 29.873500 -21.515571 38.625361 1.197901 2.161604 0.123818 -0.049152 309300.000000 0 0 1
12.550934 30.957600 -21.872171 39.928571 1.185623 2.150508 0.112513 -0.051013 555329.000000 0 0 1
13.492534 31.186700 -20.812371 39.847378 1.162475 2.120345 0.076110 -0.037957 477715.000000 0 0 1
14.815134 31.835400 -21.313371 41.076035 1.135237 2.116332 0.077012 -0.024596 133970.000000 0 0 1
15.696734 30.939400 -21.971571 41.065604 1.101296 2.135347 0.076014 -0.029437 27237.000000 0 0 1
16.726734 31.682200 -22.615271 42.367392 1.085037 2.133872 0.053950 -0.016684 49916.200000 0 0 1
17.963734 30.844800 -22.994671 42.460008 1.043425 2.143089 0.018033 -0.006900 14509.400000 0 0 1
18.754334 30.513800 -21.864271 41.962643 1.019698 2.118867 0.033560 -0.004647 -638697.000000 0 0 1
19.919434 29.915600 -22.310371 42.302241 0.983356 2.126338 0.035832 -0.009445 -797596.000000 0 0 1
20.799634 29.197000 -21.294171 41.695699 0.951804 2.106800 0.047695 -0.008899 -154247.000000 0 0 1
21.626934 30.035600 -20.511371 42.315220 0.946745 2.076848 0.045576 -0.001069 -24140.800000 0 0 1
22.452134 29.250200 -19.691971 41.802467 0.916133 2.061302 0.067166 -0.009778 -96719.900000 0 0 1
23.279534 30.110000 -18.725871 42.417061 0.912643 2.028033 0.072387 -0.012854 -210460.000000 0 0 1
24.437634 30.738900 -19.236871 43.727967 0.899107 2.026308 0.093146 -0.011447 208653.000000 0 0 1
25.035634 31.576400 -18.238971 44.232478 0.900425 1.995821 0.104531 -0.011329 266194.000000 0 0 1
26.356734 32.232100 -18.728671 45.654669 0.885345 1.993497 0.115110 -0.017661 136081.000000 0 0 1
27.443034 31.343400 -18.695771 45.662465 0.851649 1.992630 0.119670 -0.014893 -643711.000000 0 0 1
28.643434 32.053800 -18.863871 46.943988 0.841526 1.984319 0.123982 -0.009735 973882.000000 0 0 1
29.847034 31.087400 -19.300471 47.220547 0.805751 1.991859 0.136450 -0.009119 1018530.000000 0 0 1
30.288034 30.167600 -18.332071 46.513589 0.783406 1.975910 0.121827 -0.013102 -389330.000000 0 0 1
31.545334 29.686300 -18.717771 47.188340 0.755047 1.978673 0.103294 -0.013249 -209368.000000 0 0 1
32.011634 28.500500 -17.836371 46.423694 0.727440 1.965147 0.100371 -0.023379 10729.300000 0 0 1
32.374334 28.939800 -16.501771 46.453396 0.729441 1.933959 0.084687 -0.005497 56384.200000 0 0 1
32.709334 27.827400 -15.695571 45.723251 0.704928 1.921196 0.094087 -0.020441 -249721.000000 0 0 1
33.259134 28.170700 -14.281471 45.866314 0.702754 1.887432 0.094363 -0.012226 583783.000000 0 0 1
34.539834 28.805300 -14.276971 47.186623 0.695116 1.878178 0.081992 -0.015810 301185.000000 0 0 1
34.622034 30.148200 -14.661071 48.192802 0.716435 1.879913 0.091240 -0.022297 -1122880.000000 0 0 1
36.009534 30.737500 -14.716571 49.578805 0.706577 1.872170 0.089030 -0.017633 -570195.000000 0 0 1
36.647334 30.914800 -13.465371 49.800283 0.700753 1.844592 0.087140 -0.015483 639063.000000 0 0 1
37.896834 31.612100 -13.637671 51.200400 0.695227 1.840410 0.083424 -0.021319 578313.000000 0 0 1
-37.229189 31.992800 -12.388771 50.626410 -0.709896 1.818017 0.074806 -0.007917 -184854.000000 0 0 1
-37.847889 33.077700 -11.712571 51.611832 -0.718243 1.799727 0.082300 -0.024642 947999.000000 0 0 1
-36.945989 33.549900 -10.673171 51.034483 -0.737261 1.781488 0.079284 -0.008528 661678.000000 0 0 1
-37.571389 -32.890814 -9.891471 50.904382 0.719069 1.766355 0.086270 -0.005016 461519.000000 0 0 1
-36.622789 -32.183914 -9.058471 49.589201 0.720975 1.754498 0.082439 -0.006557 649453.000000 0 0 1
-36.430689 -32.790814 -7.761771 49.625373 0.732864 1.727848 0.060849 -0.006317 269522.000000 0 0 1
-36.027789 -31.716614 -6.679871 48.462004 0.721845 1.709074 0.073519 -0.025145 267041.000000 0 0 1
-37.174289 -30.945214 -6.327571 48.780859 0.694208 1.700877 0.063970 -0.012099 105093.000000 0 0 1
-37.016589 -29.864414 -5.388671 47.865947 0.678864 1.683614 0.097145 -0.012296 -513483.000000 0 0 1
37.497234 -29.237414 -4.992471 47.809975 -0.662253 1.675410 0.087396 -0.016507 -442811.000000 0 0 1
36.628634 -30.097414 -4.274771 47.600261 -0.687828 1.660723 0.053232 -0.008208 875658.000000 0 0 1
35.380634 -29.446914 -3.934871 46.199494 -0.694122 1.656071 0.056225 0.000717 421745.000000 0 0 1
35.277134 -28.394514 -2.835471 45.373610 -0.677721 1.633329 0.046767 -0.000946 -484191.000000 0 0 1
35.975434 -27.176614 -3.132671 45.195286 -0.646962 1.640166 0.084338 -0.014274 482161.000000 0 0 1
35.412934 -26.139614 -2.403471 44.080971 -0.635866 1.625347 0.067140 -0.006277 -378310.000000 0 0 1
36.055034 -24.803014 -2.830271 43.853910 -0.602573 1.635380 0.079426 -0.019959 -185344.000000 0 0 1
35.916634 -24.421314 -4.189871 43.634392 -0.597139 1.666967 0.079144 -0.024613 231807.000000 0 0 1
35.646534 -23.045714 -4.276671 42.662281 -0.573915 1.671210 0.090939 -0.027684 -197724.000000 0 0 1
35.411934 -22.562714 -5.763271 42.382737 -0.567289 1.707200 0.092393 -0.025316 -689446.000000 0 0 1
36.565834 -22.589314 -6.533471 43.474401 -0.553384 1.721651 0.092460 -0.029618 -375516.000000 0 0 1
36.253334 -22.467814 -7.927371 43.381449 -0.554811 1.754565 0.080519 -0.029222 273009.000000 0 0 1
37.490334 -22.303814 -8.880871 44.518032 -0.536677 1.771633 0.077112 -0.029631 535094.000000 0 0 1
-37.688489 -23.553914 -9.074171 45.360221 0.558573 1.772202 0.064561 -0.009377 -283950.000000 0 0 1
-36.384789 -23.374014 -9.551671 44.288055 0.571022 1.788176 0.092958 -0.011597 -282464.000000 0 0 1
-35.909589 -24.596114 -10.327671 44.733971 0.600551 1.803767 0.098535 -0.009305 -284537.000000 0 0 1
-35.389589 -25.639414 -9.523371 44.726917 0.626974 1.785361 0.121010 -0.016619 -539386.000000 0 0 1
-36.344889 -26.485814 -9.056171 45.874432 0.629752 1.769514 0.104760 -0.014495 -321453.000000 0 0 1
-35.568589 -27.731114 -8.482671 45.892209 0.662210 1.756704 0.092386 -0.003832 471085.000000 0 0 1
-34.953289 -28.472214 -9.536771 46.079815 0.683568 1.779265 0.103777 -0.007536 11124.700000 0 0 1
-34.125289 -29.459314 -9.003671 45.972303 0.712147 1.767920 0.113668 -0.019279 -262096.000000 0 0 1
-33.467589 -30.419014 -10.026371 46.324119 0.737716 1.788962 0.107688 -0.015712 -119804.000000 0 0 1
-32.347489 -29.928914 -10.724171 45.355350 0.746582 1.809505 0.079032 0.004302 42075.100000 0 0 1
-32.129589 -30.755614 -11.844071 46.027169 0.763553 1.831052 0.073590 0.003226 -310682.000000 0 0 1
-32.183289 -30.089814 -13.230771 46.002329 0.751793 1.862528 0.047056 0.005830 -380109.000000 0 0 1
-31.084089 -29.279414 -13.550171 44.800801 0.755510 1.878062 0.040780 0.001930 -192683.000000 0 0 1
-31.194789 -28.799514 -14.892471 44.992361 0.745494 1.908159 0.028346 0.012502 384772.000000 0 0 1
-30.011189 -27.835114 -15.203171 43.664647 0.747798 1.926426 0.054344 -0.007822 -210510.000000 0 0 1
-28.860289 -28.446014 -15.653471 43.441030 0.778169 1.939427 0.083093 -0.016964 -798998.000000 0 0 1
-27.807889 -27.536414 -15.908971 42.244859 0.780493 1.956908 0.101953 -0.006062 -700213.000000 0 0 1
-26.618489 -28.247114 -16.483071 42.167938 0.815073 1.972396 0.112385 -0.016602 -1378540.000000 0 0 1
-26.808089 -28.948914 -17.698471 43.242908 0.823775 1.992461 0.100520 -0.013453 -186396.000000 0 0 1
-26.961789 -28.161214 -18.879371 43.317695 0.807154 2.021762 0.080698 -0.000087 261839.000000 0 0 1
-25.722889 -27.333614 -19.359471 42.232482 0.815748 2.046993 0.094029 -0.010360 248184.000000 0 0 1
-25.407789 -26.171814 -18.601271 40.945413 0.800210 2.042376 0.103565 -0.008333 -267940.000000 0 0 1
-24.028389 -25.915214 -18.702971 39.984533 0.823159 2.057546 0.092644 -0.022301 16775.000000 0 0 1
-23.554589 -24.930314 -17.617271 38.557845 0.813765 2.045309 0.103640 -0.024460 -12448.800000 0 0 1
-23.854589 -25.384314 -16.294171 38.456531 0.816456 2.008327 0.113867 -0.019450 296832.000000 0 0 1
-23.177989 -24.601414 -15.320471 37.110181 0.815181 1.996363 0.110776 -0.019005 631.140000 0 0 1
-23.848489 -24.605014 -13.928771 36.988752 0.801010 1.956885 0.112473 -0.018358 452273.000000 0 0 1
-25.151789 -24.017814 -13.928771 37.463029 0.762340 1.951744 0.096681 -0.001735 362514.000000 0 0 1
-25.678589 -23.953114 -12.643171 37.322799 0.750647 1.916386 0.104607 -0.007356 -91835.200000 0 0 1
-27.209389 -23.748914 -12.654871 38.268884 0.717594 1.907824 0.094769 0.017079 -637945.000000 0 0 1
-27.939089 -24.985714 -12.712471 39.578852 0.729653 1.897786 0.099484 0.004744 250090.000000 0 0 1
-29.179789 -25.032214 -12.046471 40.288823 0.709040 1.874444 0.073218 0.014950 -277190.000000 0 0 1
-30.303389 -24.202114 -12.696971 40.807484 0.673924 1.887192 0.090695 0.011565 -1439140.000000 0 0 1
-30.449389 -22.790214 -12.370971 39.995000 0.642516 1.885267 0.086173 0.010386 434457.000000 0 0 1
-31.059589 -22.491414 -11.094471 39.920534 0.626743 1.852418 0.100641 0.003254 442693.000000 0 0 1
-32.595789 -22.734614 -10.922171 41.214584 0.609027 1.839008 0.064249 0.005898 698832.000000 0 0 1
-33.482289 -21.784414 -11.546571 41.580616 0.576814 1.852186 0.088749 -0.008958 533959.000000 0 0 1
-33.791089 -22.136114 -12.900071 42.405861 0.579943 1.879900 0.080811 -0.002729 -467462.000000 0 0 1
-35.227689 -21.763514 -13.330671 43.501119 0.553402 1.882252 0.043492 -0.014278 24560.800000 0 0 1
-36.186989 -22.604814 -12.707271 44.519103 0.558360 1.860256 0.069946 -0.010530 79304.300000 0 0 1
-37.475189 -22.196214 -13.128771 45.490948 0.534732 1.863563 0.089357 -0.031643 146865.000000 0 0 1
37.212434 -23.156214 -12.764571 45.649860 -0.556634 1.854194 0.087278 -0.005156 -169741.000000 0 0 1
37.244334 -24.408014 -13.396871 46.501266 -0.580126 1.863035 0.080236 0.007256 262596.000000 0 0 1
36.302934 -25.351414 -12.891671 46.117159 -0.609604 1.854113 0.088253 -0.003656 244777.000000 0 0 1
36.115734 -26.624614 -13.773571 46.935355 -0.635260 1.868639 0.072256 -0.005726 506001.000000 0 0 1
35.231634 -26.463314 -14.897371 46.513511 -0.644220 1.896822 0.069740 -0.008037 234009.000000 0 0 1
35.296734 -27.661714 -15.677371 47.505892 -0.664717 1.907109 0.070699 0.013518 8399.910000 0 0 1
34.380434 -27.518014 -16.905471 47.170439 -0.674983 1.937340 0.055515 0.004348 -175782.000000 0 0 1
33.038134 -27.792714 -16.619471 46.261864 -0.699381 1.938258 0.116274 0.004811 -112574.000000 0 0 1
32.158634 -27.478614 -17.710371 45.857488 -0.707084 1.967310 0.101368 -0.004349 898763.000000 0 0 1
30.657334 -27.825314 -17.477071 44.939607 -0.737011 1.970235 0.103677 -0.017650 708175.000000 0 0 1
30.036434 -26.759814 -16.730571 43.568188 -0.727771 1.964930 0.091300 -0.017410 -1131100.000000 0 0 1
28.668234 -26.869114 -16.731971 42.705688 -0.753015 1.973381 0.127395 -0.023461 -935915.000000 0 0 1
27.914734 -25.797814 -15.890771 41.198012 -0.746007 1.966781 0.118319 -0.027223 96682.200000 0 0 1
27.931234 -24.469514 -16.444771 40.612085 -0.719432 1.987691 0.113972 -0.031629 54597.900000 0 0 1
27.440134 -23.505614 -15.530371 39.327691 -0.708322 1.976752 0.126399 -0.031647 4305.380000 0 0 1
27.225334 -22.030214 -16.012671 38.509152 -0.680314 1.999635 0.142719 -0.037483 459991.000000 0 0 1
25.919134 -21.884414 -16.562071 37.749586 -0.701196 2.024987 0.146455 -0.045539 248031.000000 0 0 1
25.682634 -20.573914 -16.907071 36.996387 -0.675401 2.045407 0.148569 -0.043496 128403.000000 0 0 1
24.160134 -20.290514 -16.877671 35.780900 -0.698563 2.062008 0.142809 -0.048012 -14796.000000 0 0 1
23.664934 -20.110614 -15.600671 34.754091 -0.704382 2.036316 0.153858 -0.050802 -217496.000000 0 0 1
22.520634 -19.292914 -15.633071 33.522953 -0.708358 2.055944 0.137981 -0.052244 -201115.000000 0 0 1
22.290234 -18.347814 -14.441271 32.280755 -0.688688 2.034613 0.129657 -0.040386 -7268.650000 0 0 1
21.390334 -18.747214 -13.419871 31.449918 -0.719642 2.011644 0.120518 -0.045569 289537.000000 0 0 1
21.103034 -17.705314 -12.522571 30.259395 -0.698070 1.997465 0.112832 -0.053397 39428.800000 0 0 1
20.172934 -18.015414 -11.310471 29.316022 -0.728961 1.966884 0.118455 -0.045662 162646.000000 0 0 1
20.814034 -18.642114 -10.202771 29.746411 -0.730407 1.920896 0.125640 -0.052796 -68442.700000 0 0 1
19.924734 -18.717114 -9.111571 28.815727 -0.754157 1.892519 0.108739 -0.043763 15548.200000 0 0 1
20.552934 -19.191014 -7.781971 29.176655 -0.751144 1.840784 0.113841 -0.048569 -260718.000000 0 0 1
21.550034 -18.381214 -7.222271 29.230706 -0.706207 1.820460 0.110752 -0.052709 -313030.000000 0 0 1
22.158634 -19.088114 -6.140071 29.884137 -0.711093 1.777733 0.112325 -0.040883 -684124.000000 0 0 1
23.427734 -18.349214 -5.757571 30.310097 -0.664429 1.761913 0.114426 -0.034560 -1189590.000000 0 0 1
24.411334 -18.518914 -6.730271 31.371324 -0.648995 1.787013 0.111819 -0.045363 -792548.000000 0 0 1
25.279234 -17.435814 -6.615471 31.413560 -0.603799 1.782978 0.127380 -0.036008 -1246550.000000 0 0 1
26.399534 -17.511414 -7.632271 32.585834 -0.585684 1.807213 0.143698 -0.048971 -453041.000000 0 0 1
27.271134 -18.604614 -7.370371 33.825564 -0.598686 1.790452 0.168206 -0.060521 106337.000000 0 0 1
27.315734 -19.591114 -8.402571 34.649160 -0.622183 1.815743 0.175594 -0.071932 66448.000000 0 0 1
28.618434 -20.439814 -8.418271 36.161693 -0.620205 1.805747 0.169596 -0.076263 297917.000000 0 0 1
29.803334 -19.738014 -8.716271 36.794039 -0.584956 1.809963 0.154902 -0.053658 -246637.000000 0 0 1
30.906934 -20.594514 -8.580471 38.118199 -0.587776 1.797844 0.132441 -0.050581 -68296.700000 0 0 1
-30.808996 29.285600 4.145129 42.708579 -0.760054 1.473587 0.118914 -0.023359 13670.500000 0 0 1
-30.493876 30.397000 3.326329 43.184703 -0.783807 1.493694 0.131508 -0.013076 -448583.000000 0 0 1
-29.364066 31.044800 3.828429 42.903203 -0.813214 1.481443 0.116254 -0.004540 -330464.000000 0 0 1
-28.979156 32.248900 2.967529 43.457902 -0.838750 1.502458 0.132541 -0.009050 -87323.300000 0 0 1
-28.233946 31.898500 1.801229 42.637008 -0.846264 1.528538 0.138184 -0.004941 476003.000000 0 0 1
-27.680676 32.972100 1.007329 43.062674 -0.872419 1.547402 0.155218 -0.023004 372241.000000 0 0 1
-26.559396 -33.728814 1.550429 42.958564 0.903761 1.534697 0.163317 -0.011675 -360367.000000 0 0 1
-25.261876 33.479300 1.278929 41.960238 -0.924388 1.540312 0.143051 -0.017644 -326112.000000 0 0 1
-24.309966 -33.408014 2.040029 41.367035 0.941741 1.521461 0.133113 -0.015710 570710.000000 0 0 1
-22.889866 33.641400 1.857029 40.732522 -0.973341 1.525190 0.125339 -0.023357 180076.000000 0 0 1
-22.197466 -33.633314 0.668329 40.303523 0.987434 1.554213 0.144512 -0.024866 881853.000000 0 0 1
-20.861866 33.456000 0.688329 39.433427 -1.013232 1.553340 0.132737 -0.028258 241873.000000 0 0 1
-20.088966 -33.589614 -0.464971 39.141346 1.031797 1.582676 0.139786 -0.031853 -366351.000000 0 0 1
-19.799566 -32.157114 -0.561171 37.767946 1.018903 1.585655 0.158015 -0.035696 516883.000000 0 0 1
-18.873366 -31.693714 0.415029 36.889940 1.033698 1.559546 0.161025 -0.030833 -213092.000000 0 0 1
-18.582866 -30.207214 0.342929 35.467116 1.019290 1.561127 0.174548 -0.045929 379181.000000 0 0 1
-17.592366 -29.803014 -0.625171 34.613608 1.037549 1.588859 0.153794 -0.026752 649140.000000 0 0 1
-17.585766 -28.424914 -0.639671 33.431184 1.016759 1.589931 0.136321 -0.028995 -52979.100000 0 0 1
-16.588366 -27.749314 -1.603871 32.369287 1.032001 1.620366 0.108734 -0.028458 -328695.000000 0 0 1
-17.006566 -27.886614 -2.904671 32.792128 1.023168 1.659491 0.097130 -0.026235 -256862.000000 0 0 1
-16.157766 -27.232614 -3.820871 31.894948 1.035300 1.690880 0.083274 -0.016564 -265201.000000 0 0 1
-16.720066 -27.196314 -5.228671 32.350257 1.019572 1.733135 0.127030 -0.030653 13450.800000 0 0 1
-17.773166 -26.256614 -5.306771 32.147426 0.975741 1.736631 0.115699 -0.029029 -320215.000000 0 0 1
-18.243366 -26.197714 -6.653271 32.609916 0.962509 1.776265 0.127588 -0.037429 250396.000000 0 0 1
-18.905566 -24.814514 -6.796671 31.927657 0.919738 1.785315 0.094635 -0.028825 149400.000000 0 0 1
-17.829666 -23.913214 -6.803171 30.594475 0.930118 1.795037 0.084631 -0.014594 321636.000000 0 0 1
-18.309666 -22.566314 -6.858071 29.858257 0.889160 1.802553 0.067157 -0.017996 358333.000000 0 0 1
-17.125766 -21.583914 -6.758471 28.369599 0.900062 1.811339 0.082334 -0.012844 351222.000000 0 0 1
-16.221766 -21.585814 -7.859471 28.122310 0.926335 1.854043 0.115514 -0.023935 -1216150.000000 0 0 1
-15.139766 -20.830114 -7.515871 26.825258 0.942296 1.854777 0.152056 -0.049942 -571646.000000 0 0 1
-14.018966 -20.807814 -8.585571 26.518080 0.977916 1.900500 0.141167 -0.042809 220646.000000 0 0 1
-14.513966 -20.270614 -9.785871 26.782761 0.949406 1.944837 0.160503 -0.039499 -258751.000000 0 0 1
-13.578166 -20.282614 -10.847371 26.709857 0.980870 1.988999 0.148847 -0.025591 166809.000000 0 0 1
-14.063366 -19.424814 -12.049471 26.838245 0.944151 2.036405 0.164634 -0.022705 27092.000000 0 0 1
-15.151466 -20.031914 -12.735571 28.160953 0.923233 2.040074 0.148200 -0.005723 -175159.000000 0 0 1
-15.644566 -19.069414 -13.640171 28.185976 0.883739 2.075942 0.158156 -0.028556 141170.000000 0 0 1
-16.917466 -19.527914 -14.382971 29.570423 0.856902 2.078758 0.161343 -0.032512 686816.000000 0 0 1
-18.107266 -19.617014 -13.576071 29.950126 0.825397 2.041248 0.135747 -0.028523 -66336.500000 0 0 1
-19.196066 -19.830314 -14.387071 31.124237 0.801649 2.051323 0.107765 -0.024855 -904325.000000 0 0 1
-20.578566 -19.560914 -13.776371 31.557806 0.760051 2.022550 0.078480 -0.012551 -29609.900000 0 0 1
-21.602766 -20.204914 -14.512171 32.947248 0.751975 2.026915 0.095222 -0.014863 284916.000000 0 0 1
-22.902766 -19.934014 -13.966571 33.421052 0.716205 2.001926 0.088595 -0.011816 518482.000000 0 0 1
-23.937666 -20.633614 -14.889471 34.935000 0.711404 2.011090 0.086036 -0.008230 -389929.000000 0 0 1
-24.166666 -20.046414 -16.148371 35.308021 0.692476 2.045817 0.091266 -0.008397 313672.000000 0 0 1
-25.078686 -20.840314 -16.889971 36.722340 0.693358 2.048721 0.105117 -0.012687 -128308.000000 0 0 1
-25.454366 -20.249914 -18.300671 37.321553 0.672014 2.083289 0.114533 -0.019334 -476539.000000 0 0 1
-24.377666 -19.960114 -19.129871 36.859581 0.686092 2.116469 0.091936 -0.026786 -338931.000000 0 0 1
-24.800466 -19.357414 -20.345071 37.465911 0.662753 2.144836 0.113696 -0.034603 -299387.000000 0 0 1
-23.663666 -18.678614 -21.108771 36.802716 0.668205 2.181648 0.076070 -0.031290 -68881.900000 0 0 1
-22.653866 -19.508114 -21.679171 36.928994 0.710925 2.198206 0.057836 -0.023584 472522.000000 0 0 1
-21.704166 -18.650814 -22.339771 36.304119 0.709880 2.233627 0.055266 -0.022052 694336.000000 0 0 1
-20.271866 -19.265714 -22.381471 35.819639 0.759956 2.245720 0.059919 -0.017684 201285.000000 0 0 1
-20.135066 -20.435314 -23.123571 36.847286 0.792799 2.249201 0.037209 -0.009706 758276.000000 0 0 1
-18.790666 -20.970014 -23.168271 36.463672 0.840155 2.259296 0.047042 -0.008290 923352.000000 0 0 1
-18.671066 -22.436914 -23.620071 37.549055 0.876752 2.251121 0.050887 -0.009718 -230326.000000 0 0 1
-18.693266 -22.421914 -25.024871 38.450287 0.875839 2.279483 0.036922 -0.010674 198513.000000 0 0 1
-18.600266 -23.727614 -25.546351 39.516903 0.905945 2.273740 0.046317 -0.024172 -116068.000000 0 0 1
-18.620366 -23.876914 -27.082521 40.623737 0.908464 2.300525 0.055749 -0.016659 -497937.000000 0 0 1
-17.380166 -23.554414 -27.620031 40.246077 0.935102 2.327157 0.049920 -0.012143 -544502.000000 0 0 1
-17.354366 -23.841014 -29.011521 41.367092 0.941576 2.348042 0.067374 -0.014412 -264227.000000 0 0 1
-16.000066 -23.507114 -29.655141 41.085446 0.973177 2.377184 0.050609 -0.024440 11865.200000 0 0 1
-15.071066 -24.558614 -29.421181 41.180923 1.020381 2.366616 0.064019 -0.025344 212415.000000 0 0 1
-13.831866 -24.324014 -30.078311 41.081419 1.053747 2.392289 0.095687 -0.027315 468903.000000 0 0 1
-12.735266 -25.377514 -29.854251 41.200504 1.105684 2.381263 0.126159 -0.033336 -1013280.000000 0 0 1
-13.049266 -26.678414 -30.317261 42.440045 1.115881 2.366498 0.108224 -0.028193 -146534.000000 0 0 1
-12.082566 -27.674714 -30.169871 42.686055 1.159148 2.355740 0.117417 -0.028624 -176094.000000 0 0 1
-10.716166 -27.539214 -30.882071 42.742798 1.199701 2.378221 0.150758 -0.033563 63618.600000 0 0 1
-10.023966 -26.336414 -30.572121 41.578133 1.207114 2.396896 0.194200 -0.057023 -1037410.000000 0 0 1
-8.763866 -26.196414 -31.131151 41.619779 1.247956 2.415824 0.183987 -0.053123 -650017.000000 0 0 1
-8.044366 -25.129414 -30.241061 40.133789 1.260987 2.424175 0.249049 -0.065723 -21925.300000 0 0 1
-8.596366 -23.801914 -30.375281 39.535886 1.224212 2.446972 0.266768 -0.061054 -42041.300000 0 0 1
-9.166066 -23.273514 -29.237521 38.477342 1.195611 2.433899 0.237444 -0.039449 -142492.000000 0 0 1
-9.516666 -21.821014 -29.441471 37.861904 1.159541 2.461638 0.242569 -0.060251 -18069.400000 0 0 1
-10.460966 -21.527414 -30.446931 38.728245 1.118462 2.475381 0.210027 -0.055187 16283.100000 0 0 1
-10.935866 -20.192914 -30.260081 37.987096 1.074449 2.492427 0.200291 -0.054140 195966.000000 0 0 1
-11.824466 -19.759614 -31.458071 38.985517 1.031542 2.509710 0.157978 -0.051189 -21112.900000 0 0 1
-12.390766 -18.501814 -31.328061 38.435603 0.980693 2.523662 0.136802 -0.041616 -107212.000000 0 0 1
-13.130066 -18.159114 -32.471241 39.452928 0.944763 2.537535 0.117903 -0.042455 -492202.000000 0 0 1
-13.918266 -16.844014 -32.230101 38.938648 0.880221 2.545820 0.133721 -0.035254 -144048.000000 0 0 1
-13.256666 -15.535414 -32.315881 38.228320 0.864378 2.577995 0.127403 -0.034757 -268887.000000 0 0 1
-12.451766 -15.232114 -31.242211 36.920719 0.885495 2.579604 0.113422 -0.030469 -294433.000000 0 0 1
-11.871466 -13.788214 -31.398721 36.289478 0.859959 2.616404 0.084993 -0.028686 -37692.600000 0 0 1
-11.009466 -13.425514 -32.466961 36.817880 0.883954 2.650517 0.083509 -0.032994 -85586.300000 0 0 1
-11.482966 -13.509914 33.545656 37.943212 0.866322 0.486228 0.090656 -0.031310 -611932.000000 0 0 1
-12.064066 -12.181314 32.980514 37.170424 0.790234 0.479386 0.087343 -0.019737 -254745.000000 0 0 1
-13.328466 -11.824214 33.460536 37.908673 0.725664 0.489301 0.052579 -0.016004 -744664.000000 0 0 1
-13.918366 -10.938014 32.581634 37.079967 0.666065 0.497694 0.061569 -0.022788 -158584.000000 0 0 1
-15.177066 -10.284314 33.135371 37.869027 0.595549 0.505362 0.082766 -0.029229 -139698.000000 0 0 1
-14.774066 -9.283014 -33.246281 37.546805 0.560992 2.658284 0.064007 -0.028393 -396233.000000 0 0 1
-15.805466 -8.741114 -32.507221 37.187891 0.505177 2.634447 0.082201 -0.036986 -564298.000000 0 0 1
-15.267366 -7.669214 -31.505181 35.839723 0.465508 2.644678 0.077365 -0.048043 -136289.000000 0 0 1
-14.971866 -6.442314 -32.081291 35.984294 0.406347 2.671521 0.081646 -0.050262 -262953.000000 0 0 1
-16.090466 -5.611414 -32.257481 36.481997 0.335553 2.655581 0.075932 -0.047520 -161701.000000 0 0 1
-16.511266 -4.861014 -30.934721 35.400682 0.286317 2.633852 0.077351 -0.049384 -172476.000000 0 0 1
-17.151266 -5.731814 -30.034621 35.058495 0.322523 2.599634 0.080916 -0.054663 -253379.000000 0 0 1
-17.610666 -5.196414 -28.770981 34.130743 0.286930 2.573565 0.085294 -0.056564 -33931.400000 0 0 1
-16.554666 -4.692814 -27.761861 32.661910 0.276227 2.586737 0.092416 -0.052279 -134918.000000 0 0 1
-15.976366 -3.526314 -28.244791 32.641191 0.217238 2.616567 0.086344 -0.047941 474299.000000 0 0 1
-14.624966 -3.355714 -27.769111 31.563808 0.225547 2.646189 0.088757 -0.040809 833093.000000 0 0 1
-14.107566 -2.053814 -28.393581 31.771638 0.144567 2.676270 0.080602 -0.020752 -157922.000000 0 0 1
-13.962166 -2.159814 -29.796351 32.976194 0.153474 2.698830 0.073862 -0.037282 2635.540000 0 0 1
-14.074766 -0.874814 -30.383791 33.496852 0.062075 2.707053 0.090738 -0.041470 29306.100000 0 0 1
-14.171866 -0.896814 -31.943471 34.957565 0.063197 2.723287 0.073384 -0.048074 -644724.000000 0 0 1
-15.481566 -1.273814 -32.318051 35.857466 0.082094 2.693539 0.051453 -0.043717 220981.000000 0 0 1
-15.539566 -1.407814 33.654426 37.095558 0.090349 0.434131 0.049777 -0.037924 -928858.000000 0 0 1
-16.928066 -1.659814 33.111683 37.224964 0.097739 0.474542 0.038673 -0.037526 -745957.000000 0 0 1
-16.913666 -2.152814 31.785121 36.069386 0.126602 0.492356 0.049789 -0.042320 -367583.000000 0 0 1
-18.096466 -1.852814 31.121796 36.048317 0.102030 0.528954 0.049302 -0.036056 -500825.000000 0 0 1
-17.873766 -1.861814 29.611186 34.637555 0.103790 0.545464 0.060124 -0.032452 -23149.600000 0 0 1
-17.231866 -0.718814 29.081066 33.810683 0.041690 0.535302 0.053106 -0.021344 21083.100000 0 0 1
-17.492566 -0.554814 27.708626 32.772940 0.031707 0.563347 0.067976 -0.027643 -137529.000000 0 0 1
-17.093566 0.901186 27.298576 32.221334 -0.052672 0.560065 0.071783 -0.026161 205548.000000 0 0 1
-17.885666 1.945186 27.876536 33.178036 -0.108331 0.573125 0.067973 -0.021242 1160110.000000 0 0 1
-19.189866 2.201186 27.310266 33.450662 -0.114206 0.615588 0.074072 -0.023684 857561.000000 0 0 1
-19.198066 3.076186 26.041406 32.498976 -0.158884 0.641333 0.085057 -0.028734 -446791.000000 0 0 1
-18.593466 4.341186 26.129726 32.362408 -0.229370 0.631048 0.079101 -0.022647 165919.000000 0 0 1
-19.092666 5.190186 25.126396 31.981302 -0.265428 0.667036 0.084113 -0.021281 -321494.000000 0 0 1
-18.841466 6.667186 25.599096 32.477160 -0.340107 0.662888 0.079729 -0.020188 1239070.000000 0 0 1
-17.536666 7.300186 25.468706 31.772352 -0.394463 0.640830 0.066299 -0.022020 860945.000000 0 0 1
-17.147866 7.410186 24.124486 30.511489 -0.407898 0.658896 0.068798 -0.009225 -626892.000000 0 0 1
-15.956366 8.364186 24.045006 30.045424 -0.482813 0.643020 0.060313 -0.022199 179504.000000 0 0 1
-14.743766 7.822186 24.530666 29.670167 -0.487782 0.597439 0.048832 -0.021490 325525.000000 0 0 1
-13.570266 8.222186 23.851346 28.646870 -0.544744 0.587013 0.053522 -0.019713 252252.000000 0 0 1
-12.232166 7.989186 24.589926 28.602752 -0.578572 0.536105 0.045987 -0.007210 -578894.000000 0 0 1
-11.221366 8.622186 23.889256 27.766125 -0.655156 0.534793 0.043141 -0.016609 -916920.000000 0 0 1
-9.980666 8.667186 24.528576 27.863683 -0.715078 0.494289 0.048438 -0.015655 -150819.000000 0 0 1
-9.730066 10.010186 25.285846 28.883421 -0.799588 0.504441 0.063176 -0.027492 -278311.000000 0 0 1
-10.744366 10.209186 26.279766 30.171095 -0.759862 0.513512 0.055261 -0.028657 527726.000000 0 0 1
-10.683066 11.427186 26.982876 31.189486 -0.819040 0.525392 0.078072 -0.027767 -277975.000000 0 0 1
-11.160866 12.723186 26.193456 31.185598 -0.850718 0.573658 0.067336 -0.026694 28071.300000 0 0 1
-12.493966 12.723186 25.726376 31.302157 -0.794488 0.606106 0.064970 -0.027999 -3587.910000 0 0 1
-12.764866 12.076186 24.506956 30.155712 -0.757682 0.622059 0.056315 -0.025065 -1058690.000000 0 0 1
-14.248366 11.885186 24.243306 30.528863 -0.695216 0.653253 0.047577 -0.023995 -788444.000000 0 0 1
-14.851166 13.115186 23.822896 30.985409 -0.723404 0.693768 0.034426 -0.030600 -75346.700000 0 0 1
-16.116166 12.919186 23.212096 31.071491 -0.675733 0.727176 0.045002 -0.021873 37365.900000 0 0 1
-16.281566 12.182186 21.848766 29.847338 -0.642361 0.749518 0.038940 -0.016205 -476987.000000 0 0 1
-16.355066 10.810186 21.945066 29.426760 -0.584047 0.729133 0.041071 -0.015913 46262.400000 0 0 1
-16.006066 10.249186 20.693166 28.097101 -0.569548 0.742933 0.051368 -0.015015 -687959.000000 0 0 1
-16.356766 8.782186 20.530566 27.679861 -0.492741 0.735173 0.054697 -0.011119 -475229.000000 0 0 1
-17.742766 8.669186 20.439166 28.420416 -0.454489 0.768186 0.066940 -0.010925 -891756.000000 0 0 1
-18.068966 7.284186 20.326066 28.154855 -0.383204 0.764197 0.061627 -0.005797 -182863.000000 0 0 1
-19.606566 7.186186 20.239366 29.080760 -0.351315 0.801025 0.103266 -0.006894 142546.000000 0 0 1
-20.185066 7.595186 21.473666 30.434225 -0.359890 0.787560 0.087351 -0.010983 446623.000000 0 0 1
-21.614566 7.585186 21.516266 31.427284 -0.337503 0.816691 0.079740 -0.013083 614159.000000 0 0 1
-22.130566 8.161186 22.856506 32.844889 -0.353301 0.801135 0.086017 -0.012287 -526846.000000 0 0 1
-22.097466 9.587186 22.991756 33.299144 -0.409350 0.808670 0.089165 -0.016453 1309070.000000 0 0 1
-20.820766 10.287186 23.118636 32.768915 -0.458903 0.787661 0.087648 -0.019178 1230220.000000 0 0 1
-20.017366 10.049186 24.414426 33.132239 -0.465265 0.742355 0.076712 -0.024917 -117922.000000 0 0 1
-20.695866 10.545186 25.558396 34.536233 -0.471243 0.737658 0.068189 -0.016869 37996.600000 0 0 1
-20.017866 10.115186 26.700326 34.870322 -0.467885 0.698662 0.062570 -0.017441 -229278.000000 0 0 1
-32.609026 -13.981900 20.105066 40.780581 0.405063 1.055255 0.127213 -0.030323 593549.000000 0 0 1
-31.322396 -14.498800 19.721766 39.752430 0.433521 1.051678 0.120459 -0.025663 790825.000000 0 0 1
-31.401406 -15.500600 18.682666 39.690791 0.458537 1.080706 0.109772 -0.008551 -115357.000000 0 0 1
-31.363416 -14.953100 17.264166 38.798331 0.444891 1.109653 0.118674 0.000267 734554.000000 0 0 1
-32.609976 -14.305900 16.919766 39.425217 0.413415 1.127233 0.122325 -0.019064 857744.000000 0 0 1
-32.571526 -13.812900 15.582766 38.659062 0.401090 1.155914 0.115158 -0.018063 -367699.000000 0 0 1
-33.852296 -13.020800 15.276666 39.356012 0.367191 1.172156 0.110215 -0.023324 -182895.000000 0 0 1
-35.029623 -13.831200 15.239266 40.627722 0.376053 1.186297 0.118244 -0.033005 673061.000000 0 0 1
-35.808809 -13.800300 16.429566 41.745056 0.367847 1.166285 0.125115 -0.034330 -133106.000000 0 0 1
-36.742636 -12.566200 16.563766 42.217165 0.329535 1.167615 0.122756 -0.033282 -1638590.000000 0 0 1
37.897177 -12.810800 17.142266 43.522062 -0.325981 1.165952 0.054004 -0.030267 -1025900.000000 0 0 1
37.436057 -11.515400 17.589666 42.935523 -0.298416 1.148697 0.053830 -0.022173 78955.600000 0 0 1
36.542787 -11.516800 18.846066 42.698784 -0.305306 1.113669 0.060688 -0.009959 -292904.000000 0 0 1
37.262387 -12.093200 19.903666 43.941858 -0.313817 1.100720 0.068840 -0.014388 -103923.000000 0 0 1
36.783707 -11.791800 21.209066 44.067132 -0.310221 1.068671 0.056421 -0.015845 -1188280.000000 0 0 1
37.667457 -12.223300 22.421556 45.507939 -0.313785 1.055612 0.047189 -0.022767 112981.000000 0 0 1
-36.949876 -11.535000 22.609846 44.828057 0.302593 1.042146 0.053141 -0.021931 605562.000000 0 0 1
-35.936212 -12.125100 21.767966 43.729552 0.325412 1.049752 0.053890 -0.025891 -1040460.000000 0 0 1
-34.658680 -11.335200 21.744466 42.456244 0.316087 1.033096 0.076710 -0.028221 -754010.000000 0 0 1
-34.783618 -10.103000 21.050866 41.894029 0.282675 1.044333 0.101873 -0.028698 -386147.000000 0 0 1
-33.515136 -9.553500 20.826266 40.598855 0.277686 1.032147 0.134455 -0.037359 -505487.000000 0 0 1
-33.524836 -8.221200 19.992966 39.890117 0.240482 1.045810 0.134170 -0.024964 20411.900000 0 0 1
-33.916156 -8.324500 18.639066 39.585574 0.240686 1.080537 0.136451 -0.029198 384834.000000 0 0 1
-35.324562 -8.385300 18.478466 40.738086 0.233065 1.100005 0.116152 -0.030037 -168491.000000 0 0 1
-35.794727 -8.405000 17.018666 40.515941 0.230633 1.137297 0.113436 -0.023998 -163945.000000 0 0 1
-37.187796 -8.521000 16.853066 41.708098 0.225246 1.154832 0.006497 -0.021188 31386.200000 0 0 1
-37.556866 -8.328600 15.492466 41.471680 0.218228 1.187944 0.045131 -0.013510 -264204.000000 0 0 1
36.774227 -8.365700 15.283466 40.692911 -0.223681 1.185773 0.076757 -0.026101 -313582.000000 0 0 1
36.188597 -9.625300 15.505066 40.529841 -0.259958 1.178232 0.079662 -0.011973 636926.000000 0 0 1
34.767277 -9.471600 15.525866 39.236810 -0.265974 1.163970 0.064673 -0.012384 536032.000000 0 0 1
33.842767 -10.695800 15.674266 38.799686 -0.306110 1.154934 0.052246 -0.008044 176459.000000 0 0 1
33.841827 -11.241600 16.994066 39.502419 -0.320713 1.126078 0.018476 -0.013744 134887.000000 0 0 1
32.713137 -12.092300 17.104566 38.845067 -0.354069 1.114832 0.064736 -0.012624 153476.000000 0 0 1
32.653577 -12.830200 18.486666 39.656360 -0.374387 1.085838 0.056453 -0.007290 -69055.100000 0 0 1
33.731917 -13.699300 18.792666 40.971665 -0.385773 1.094293 0.047190 -0.012042 -174824.000000 0 0 1
33.721837 -13.968800 20.186566 41.710755 -0.392718 1.065616 0.058498 -0.009689 152823.000000 0 0 1
34.794437 -14.999500 20.692866 43.172127 -0.407017 1.070927 0.048359 -0.010429 251868.000000 0 0 1
35.057297 -14.844000 22.064766 44.002412 -0.400533 1.045529 0.044051 -0.018576 -177680.000000 0 0 1
35.398797 -16.065600 22.677376 45.004907 -0.426048 1.042704 0.058791 -0.014813 81054.300000 0 0 1
35.846057 -15.860400 24.153326 46.042103 -0.416565 1.018560 0.084690 -0.017056 687329.000000 0 0 1
36.996817 -15.029800 24.372896 46.783516 -0.385879 1.022807 0.075203 -0.012112 626274.000000 0 0 1
37.438547 -15.021500 25.754626 47.860119 -0.381567 1.002588 0.067799 -0.019463 580718.000000 0 0 1
-37.163626 -14.090300 25.956406 47.470060 0.362397 0.992264 0.056050 -0.016541 54441.100000 0 0 1
-35.926820 -14.501300 25.456816 46.358101 0.383636 0.989468 0.022885 -0.020513 -263318.000000 0 0 1
-34.975627 -13.466600 25.657626 45.419792 0.367533 0.970485 0.037231 -0.027308 -953528.000000 0 0 1
-33.566346 -13.849300 25.357056 44.288632 0.391317 0.961195 0.036203 -0.025515 -1819710.000000 0 0 1
-33.325176 -14.066100 23.955826 43.385529 0.399400 0.985842 0.052492 -0.023553 -309585.000000 0 0 1
-32.038566 -14.537400 23.661996 42.399242 0.425965 0.978731 0.061957 -0.031081 -266860.000000 0 0 1
-31.675446 -15.981100 24.091476 42.885063 0.467262 0.974274 0.066078 -0.025876 -861517.000000 0 0 1
-31.614576 -16.123700 25.504826 43.702989 0.471622 0.947648 0.059729 -0.026833 45297.900000 0 0 1
-31.417216 -17.460700 25.888106 44.295728 0.507261 0.946609 0.067094 -0.030066 -314103.000000 0 0 1
-30.944976 -17.564800 27.333786 44.869250 0.516266 0.915761 0.058839 -0.030254 -518066.000000 0 0 1
-29.653096 -17.115700 27.626676 43.994164 0.523484 0.891864 0.059519 -0.029733 -328612.000000 0 0 1
-29.366946 -17.369800 28.981356 44.766577 0.534127 0.866644 0.060939 -0.030010 90714.000000 0 0 1
-28.088196 -16.694200 29.504166 44.024298 0.536254 0.836346 0.065252 -0.032479 -203307.000000 0 0 1
-28.288276 -15.375000 29.918036 43.951178 0.497848 0.822064 0.082353 -0.040929 -531956.000000 0 0 1
-27.180566 -14.559100 29.711316 42.819538 0.491754 0.803943 0.070991 -0.037202 -560446.000000 0 0 1
-27.071976 -13.223500 30.515216 42.882761 0.454371 0.779029 0.087132 -0.032230 15756.000000 0 0 1
-26.381956 -13.375500 31.756541 43.398035 0.469227 0.749909 0.087077 -0.028982 215258.000000 0 0 1
-26.233946 -12.084200 32.341491 43.361502 0.431660 0.728975 0.096445 -0.027858 -228852.000000 0 0 1
-25.612416 -12.220600 -33.567451 43.955803 0.445189 2.439765 0.098229 -0.027595 -215651.000000 0 0 1
-24.223266 -12.354200 -33.396801 43.066683 0.471627 2.458251 0.086638 -0.027962 104357.000000 0 0 1
-23.706166 -13.675600 -33.606741 43.340712 0.523246 2.458157 0.076751 -0.021431 -189210.000000 0 0 1
-23.585466 -14.588100 -32.322841 42.589352 0.553926 2.432483 0.073379 -0.015827 -495328.000000 0 0 1
-22.457466 -14.253300 -31.564751 41.277449 0.565530 2.441368 0.066507 -0.015800 -235797.000000 0 0 1
-22.421066 -14.973000 -30.340531 40.588702 0.588793 2.415104 0.072382 -0.010436 -246574.000000 0 0 1
-21.184866 -14.855600 -29.441311 39.195384 0.611555 2.420587 0.070001 -0.007167 -217490.000000 0 0 1
-20.816566 -13.729000 -28.661681 37.990878 0.583041 2.425591 0.066964 -0.013197 327625.000000 0 0 1
-21.549666 -13.550000 -27.427901 37.420320 0.561313 2.393471 0.074024 -0.005285 215976.000000 0 0 1
-20.991966 -12.350900 -26.603901 36.069029 0.531819 2.400280 0.077252 -0.007742 -56415.000000 0 0 1
-19.762866 -12.678400 -25.985151 35.022004 0.570395 2.406795 0.068347 -0.010273 -19520.500000 0 0 1
-19.301566 -11.533000 -25.293541 33.842632 0.538591 2.414917 0.069276 -0.021912 -349773.000000 0 0 1
-17.938866 -11.721300 -24.636871 32.652215 0.578763 2.425724 0.087171 -0.028849 -1003730.000000 0 0 1
-17.905066 -12.569600 -23.534171 32.131657 0.612076 2.392680 0.102330 -0.029715 527499.000000 0 0 1
-16.590166 -12.682800 -22.975171 31.047471 0.652702 2.403869 0.100147 -0.031409 1164340.000000 0 0 1
-15.476966 -13.477100 -23.750571 31.388824 0.716437 2.428981 0.085907 -0.024350 -503090.000000 0 0 1
-14.854566 -12.769500 -24.749071 31.563187 0.710061 2.472060 0.083799 -0.038593 -302215.000000 0 0 1
-14.147166 -13.645300 -25.593571 32.270224 0.767342 2.486681 0.104612 -0.038258 -341912.000000 0 0 1
-13.321766 -12.888000 -26.686661 32.492274 0.768850 2.534523 0.106249 -0.037369 -72421.600000 0 0 1
-13.983166 -12.107900 -27.646121 33.263165 0.713648 2.551939 0.093384 -0.042364 -257739.000000 0 0 1
-13.054466 -11.415400 -28.476681 33.341442 0.718515 2.594600 0.099121 -0.048779 100827.000000 0 0 1
-13.675566 -10.223800 -29.291851 33.905157 0.641961 2.613828 0.077357 -0.038939 -45766.300000 0 0 1
-12.755466 -9.386100 -29.971451 33.898210 0.634383 2.655490 0.069827 -0.035650 -71274.000000 0 0 1
-12.250666 -10.013900 -31.132341 34.922480 0.685271 2.671375 0.079992 -0.029770 -258911.000000 0 0 1
-11.381866 -9.013100 -31.936661 35.081806 0.669772 2.714921 0.055909 -0.022129 808966.000000 0 0 1
-10.164766 -8.662500 -31.238371 33.973477 0.705775 2.737585 0.044696 -0.018159 443131.000000 0 0 1
-9.599866 -7.499400 -31.745401 34.002484 0.663171 2.775184 0.033550 -0.017749 -28467.200000 0 0 1
-8.056566 -7.448700 -31.567151 33.419701 0.746214 2.807070 0.056619 -0.016863 146752.000000 0 0 1
-7.530366 -7.322000 -30.216291 31.989722 0.771370 2.807056 0.056366 -0.016406 -107071.000000 0 0 1
-7.828466 -6.166900 -29.461611 31.101480 0.667229 2.815414 0.069378 -0.022027 -586341.000000 0 0 1
-7.247666 -4.791100 -29.980251 31.213759 0.584107 2.859525 0.060667 -0.028714 -385395.000000 0 0 1
-5.887366 -4.718300 -29.657831 30.602457 0.675611 2.892483 0.080011 -0.034006 -541127.000000 0 0 1
-5.401766 -3.514200 -30.226961 30.906275 0.576772 2.931541 0.115384 -0.042309 582173.000000 0 0 1
-3.888066 -3.262800 -29.915111 30.342656 0.698181 2.973523 0.131684 -0.027743 -200122.000000 0 0 1
-2.991866 -4.138300 -30.554681 30.978465 0.944820 2.975995 0.147805 -0.031180 72861.700000 0 0 1
-1.620466 -3.866200 -30.348251 30.636412 1.173902 3.004329 0.163625 -0.031141 233182.000000 0 0 1
-1.079066 -2.606900 -31.058801 31.186686 1.178342 3.051001 0.159102 -0.031716 -122686.000000 0 0 1
0.330034 -2.445100 -30.762471 30.861255 -1.436629 3.061560 0.139088 -0.028085 1110470.000000 0 0 1
0.887534 -1.366000 -31.529031 31.571086 -0.994609 3.089972 0.117693 -0.023249 486812.000000 0 0 1
1.495634 -0.221600 -30.679021 30.716255 -0.147094 3.092349 0.111426 -0.029911 60628.900000 0 0 1
0.461234 0.399100 -29.963111 29.969318 0.713303 3.121239 0.126826 -0.029759 -410336.000000 0 0 1
0.957634 1.445400 -29.250721 29.302063 0.985657 3.082386 0.152079 -0.046968 -579253.000000 0 0 1
-0.065366 2.113600 -28.356881 28.435616 -1.539880 3.067159 0.128491 -0.044615 -921430.000000 0 0 1
-1.109066 2.775000 -28.936651 29.090555 -1.190580 3.038683 0.104927 -0.058234 -1106740.000000 0 0 1
-1.548666 3.823900 -28.218631 28.518620 -1.185990 2.996420 0.139570 -0.056737 -983907.000000 0 0 1
-2.902566 4.343300 -28.658331 29.130552 -0.981674 2.961290 0.175802 -0.056082 -676775.000000 0 0 1
-2.935666 4.612100 -30.044461 30.537833 -1.003960 2.961594 0.175538 -0.058117 -91831.700000 0 0 1
-4.172266 5.155700 -30.457121 31.170904 -0.890439 2.927177 0.196329 -0.049880 -88848.600000 0 0 1
-4.094166 5.706500 -31.956281 32.718958 -0.948450 2.925255 0.184234 -0.044233 -35154.600000 0 0 1
-3.932266 4.860000 -33.078631 33.664196 -0.890526 2.954804 0.206294 -0.050893 28030.300000 0 0 1
-2.703766 4.177600 -33.145791 33.517251 -0.996388 2.992575 0.192241 -0.049764 -346832.000000 0 0 1
-2.422266 3.443500 32.833697 33.102518 -0.957771 0.127530 0.170090 -0.048915 -513981.000000 0 0 1
-3.244866 2.381100 32.418668 32.667550 -0.633056 0.123518 0.169417 -0.056993 -214865.000000 0 0 1
-3.043466 1.850500 31.093256 31.296607 -0.546299 0.114058 0.154744 -0.046223 -12183.000000 0 0 1
-2.800166 2.812800 29.909436 30.171628 -0.787649 0.131929 0.136188 -0.042440 -11000.300000 0 0 1
-3.903066 3.685600 29.798946 30.278619 -0.756749 0.178236 0.112402 -0.039496 -123422.000000 0 0 1
-3.784866 4.583600 28.727356 29.335909 -0.880556 0.204041 0.096702 -0.037295 -506321.000000 0 0 1
-4.956166 5.501800 28.443906 29.391991 -0.837525 0.254682 0.091762 -0.027437 -380885.000000 0 0 1
-4.804066 6.255100 27.244606 28.363249 -0.915859 0.281787 0.085686 -0.018999 -400064.000000 0 0 1
-6.028866 6.880900 26.971366 28.480670 -0.851302 0.327013 0.073670 -0.013964 -389072.000000 0 0 1
-6.022066 7.773400 25.699286 27.516256 -0.911673 0.365438 0.079476 -0.011754 248772.000000 0 0 1
-5.270566 8.969600 25.949786 27.957539 -1.039542 0.381289 0.082696 -0.015163 189445.000000 0 0 1
-5.422066 9.728400 24.796746 27.183068 -1.062332 0.422143 0.093724 -0.019140 259792.000000 0 0 1
-4.392566 10.903500 24.724456 27.376626 -1.187828 0.443809 0.087457 -0.015146 -894360.000000 0 0 1
-4.460466 11.720800 23.576526 26.704409 -1.207160 0.488857 0.093298 -0.021112 -78270.300000 0 0 1
-3.894766 12.962300 23.773196 27.356083 -1.278910 0.517562 0.088679 -0.016162 -240591.000000 0 0 1
-2.349766 13.061500 23.934356 27.367455 -1.392800 0.506278 0.069882 -0.006805 -530111.000000 0 0 1
-1.768566 12.421800 25.063846 28.029008 -1.429371 0.464131 0.067104 -0.001347 -182758.000000 0 0 1
-2.041766 12.964700 26.319876 29.410680 -1.414593 0.462570 0.084505 -0.007288 -507988.000000 0 0 1
-1.031666 12.402700 27.377336 30.073407 -1.487807 0.426667 0.078566 -0.010811 199172.000000 0 0 1
0.281034 12.828700 27.131796 30.013145 1.548893 0.441768 0.077440 -0.004096 -677819.000000 0 0 1
1.157634 12.255200 28.093846 30.672369 1.476615 0.412969 0.089372 -0.021890 498053.000000 0 0 1
2.631734 12.632000 27.760946 30.613127 1.365396 0.435092 0.089829 -0.018587 380550.000000 0 0 1
2.998034 13.954700 28.130906 31.544726 1.359173 0.469536 0.089353 -0.017233 -416856.000000 0 0 1
4.355834 14.153000 27.844016 31.536803 1.272229 0.488782 0.093224 -0.023377 -190815.000000 0 0 1
4.824834 15.566400 28.350576 32.700871 1.270235 0.521713 0.091947 -0.023575 -142465.000000 0 0 1
4.532234 15.881300 29.696416 33.979905 1.292804 0.507545 0.098552 -0.020633 125527.000000 0 0 1
3.523534 16.864400 29.834636 34.451833 1.364826 0.523687 0.087586 -0.020026 -53121.600000 0 0 1
3.906834 18.248500 29.347846 34.778832 1.359889 0.566393 0.089085 -0.017377 -1773.240000 0 0 1
4.923834 18.875300 30.128006 35.891752 1.315622 0.574594 0.114149 -0.011807 -30582.900000 0 0 1
5.500034 19.867800 29.317686 35.840013 1.300728 0.612844 0.097046 -0.008475 -411207.000000 0 0 1
6.738234 20.496700 29.936936 36.901743 1.253179 0.624491 0.104391 -0.007611 -456277.000000 0 0 1
6.440834 21.455300 30.925966 38.186773 1.279158 0.626882 0.115262 -0.026705 229222.000000 0 0 1
7.567034 22.277200 31.215126 39.088588 1.243348 0.645874 0.105217 -0.027646 202881.000000 0 0 1
7.548134 23.679900 30.588156 39.412527 1.262221 0.682335 0.102924 -0.017455 -27336.000000 0 0 1
7.980234 23.703900 29.237776 38.476052 1.246052 0.707644 0.081432 -0.013735 154307.000000 0 0 1
7.965134 25.020600 28.667656 38.875549 1.262597 0.741552 0.072713 -0.012028 -192930.000000 0 0 1
8.575634 24.963800 27.290636 37.967244 1.239903 0.768730 0.090595 -0.013435 -422121.000000 0 0 1
7.839534 24.167500 26.391226 36.633634 1.257122 0.766403 0.081941 -0.011821 253282.000000 0 0 1
8.386734 24.118600 25.078546 35.790748 1.236146 0.794419 0.088313 -0.024059 -198674.000000 0 0 1
31.565247 2.717800 7.428229 32.541202 0.085889 1.340494 0.200873 -0.001545 201771.000000 0 0 1
30.906247 3.716100 8.181229 32.185991 0.119663 1.313790 0.196009 -0.020314 756290.000000 0 0 1
29.544957 3.368700 8.491129 30.924940 0.113529 1.292652 0.187624 -0.010552 979245.000000 0 0 1
28.835757 4.203200 9.583729 30.675978 0.144744 1.253059 0.162153 -0.017823 -81661.200000 0 0 1
28.459057 5.509300 9.244429 30.425808 0.191222 1.262081 0.189673 -0.014642 301528.000000 0 0 1
29.546057 6.392200 8.973029 31.533236 0.213063 1.282251 0.207835 -0.033441 335533.000000 0 0 1
29.100957 7.887000 8.798629 31.408380 0.264664 1.286860 0.257967 -0.040126 127426.000000 0 0 1
28.362557 8.147800 7.643529 30.483517 0.279740 1.317349 0.203828 -0.036555 -333106.000000 0 0 1
28.585857 9.489700 7.200229 30.968515 0.320525 1.336147 0.218132 -0.063489 -549976.000000 0 0 1
27.808657 10.051400 6.017129 30.175452 0.346837 1.370046 0.188340 -0.053419 -447308.000000 0 0 1
26.466057 10.336200 6.331129 29.109662 0.372329 1.351552 0.184451 -0.041371 -635379.000000 0 0 1
25.725057 10.160900 5.179129 28.139755 0.376172 1.385691 0.197033 -0.043251 1559460.000000 0 0 1
24.154457 10.418400 5.441129 26.862366 0.407215 1.366829 0.143955 -0.046658 1829520.000000 0 0 1
23.865357 11.779500 5.604729 27.197884 0.458500 1.363237 0.132532 -0.038848 176361.000000 0 0 1
22.702657 12.082300 6.351729 26.490320 0.489073 1.328662 0.135684 -0.036892 27055.700000 0 0 1
22.569357 13.613800 6.517629 27.151260 0.542768 1.328380 0.135315 -0.021248 -145497.000000 0 0 1
22.327257 14.376900 5.336229 27.086473 0.572087 1.372492 0.125286 -0.027979 216358.000000 0 0 1
22.551557 15.773400 5.546729 28.073815 0.610348 1.371911 0.158847 -0.037777 -203463.000000 0 0 1
22.035357 16.736400 4.454929 28.026959 0.649569 1.411168 0.129663 -0.035223 442896.000000 0 0 1
20.635957 16.624000 4.191229 26.828464 0.678137 1.413931 0.148865 -0.030127 575386.000000 0 0 1
20.298857 17.523200 3.175129 27.003473 0.712142 1.452941 0.154094 -0.029235 464632.000000 0 0 1
18.801157 17.443900 2.729129 25.791884 0.747969 1.464784 0.139590 -0.032215 640862.000000 0 0 1
17.905657 17.905600 3.734829 25.596328 0.785397 1.424361 0.148274 -0.041390 1664460.000000 0 0 1
16.517857 17.648000 3.352429 24.403489 0.818464 1.432986 0.112354 -0.046588 2137720.000000 0 1 0
15.488757 18.728100 3.936729 24.619934 0.879788 1.410207 0.140908 -0.054940 1103570.000000 0 1 0
14.109957 18.529100 3.649529 23.574085 0.919974 1.415360 0.133726 -0.053751 329139.000000 0 1 0
13.340157 19.686900 3.874029 24.094438 0.975252 1.409310 0.105038 -0.048908 -675615.000000 0 1 0
11.882957 19.375500 3.580329 23.009420 1.020656 1.414559 0.087813 -0.041872 -538887.000000 0 1 0
11.204857 18.733100 4.674729 22.323328 1.031752 1.359825 0.066344 -0.048607 760124.000000 0 1 0
9.846257 19.189600 4.798929 22.095684 1.096721 1.351863 0.051960 -0.026882 1201690.000000 0 1 0
9.106157 18.781800 6.143729 21.758298 1.119351 1.284540 0.029452 -0.018739 -26050.000000 0 1 0
9.531957 19.482600 7.356329 22.902958 1.115782 1.243805 0.060221 -0.026039 215325.000000 0 1 0
8.653757 19.162000 8.422229 22.649585 1.146604 1.189796 0.055100 -0.010017 677920.000000 0 1 0
7.458257 20.121200 8.662029 23.141284 1.215830 1.187143 0.057405 -0.015417 1192580.000000 0 1 0
6.336657 20.211500 7.757029 22.557249 1.266985 1.219749 0.048038 -0.022021 794477.000000 0 1 0
6.297157 21.405000 7.014629 23.388742 1.284677 1.266193 0.056049 -0.017298 -1130380.000000 0 1 0
5.025457 21.635000 6.236729 23.070007 1.342560 1.297051 0.031806 -0.009154 -46955.200000 0 1 0
3.766357 21.743700 6.915229 23.125621 1.399282 1.267121 0.022556 -0.012084 664268.000000 0 1 0
3.576557 22.900500 7.741529 24.436774 1.415870 1.248444 0.046421 -0.026839 -692625.000000 0 1 0
3.562657 24.283800 6.986329 25.518704 1.425126 1.293483 0.078145 -0.030035 389703.000000 0 0 1
2.441057 24.296600 6.084329 25.165504 1.470663 1.326604 0.030783 -0.021089 501105.000000 0 0 1
2.509057 25.341100 5.143629 25.979293 1.472107 1.371490 0.061116 -0.030047 -642739.000000 0 0 1
1.335957 25.548200 4.190629 25.924056 1.518552 1.408434 0.064179 -0.028355 -411116.000000 0 0 1
0.242857 26.062000 4.911429 26.521858 1.561478 1.384537 0.053956 -0.029821 -402042.000000 0 0 1
-0.950443 26.201200 4.182329 26.549917 -1.534537 1.412610 0.077193 -0.032010 285231.000000 0 0 1
-2.212243 26.459400 5.057929 27.029179 -1.487381 1.382558 0.106145 -0.038192 53530.300000 0 0 1
-3.246143 26.980800 4.279629 27.510294 -1.451059 1.414597 0.118524 -0.042914 -709832.000000 0 0 1
-4.166943 27.724800 5.005329 28.479489 -1.421616 1.394127 0.130842 -0.044222 -496463.000000 0 0 1
-5.041943 28.539100 4.021729 29.258772 -1.395933 1.432906 0.147014 -0.054928 -24158.100000 0 0 1
-4.224543 29.425900 3.288529 29.908942 -1.428205 1.460622 0.153335 -0.055132 256231.000000 0 0 1
-4.861743 29.698300 2.075129 30.165075 -1.408531 1.501950 0.177181 -0.062709 1710.980000 0 0 1
-3.913343 30.345900 1.026329 30.614396 -1.442546 1.537266 0.163010 -0.056751 202744.000000 0 0 1
-3.614343 31.730200 1.229729 31.959057 -1.457377 1.532309 0.178011 -0.051947 -145993.000000 0 0 1
-2.553743 32.052100 2.091029 32.221594 -1.491290 1.505855 0.186219 -0.053688 -679725.000000 0 0 1
-1.874843 33.325600 1.653329 33.419219 -1.514597 1.521304 0.183825 -0.051420 -1062440.000000 0 0 1
-1.094843 33.105400 0.505929 33.127363 -1.537737 1.555523 0.147607 -0.049802 236366.000000 0 0 1
-0.005343 -33.633114 0.422029 33.635762 1.570637 1.558249 0.125762 -0.047460 1360200.000000 0 0 1
1.318157 33.763800 1.248829 33.812591 1.531776 1.533854 0.088978 -0.037985 478424.000000 0 0 1
1.025557 -33.726514 2.657629 33.846603 -1.540398 1.492196 0.101698 -0.039634 978853.000000 0 0 1
2.169357 33.489300 3.442829 33.735625 1.506109 1.468565 0.075345 -0.031750 938795.000000 0 0 1
1.975357 -33.703314 4.883729 34.112552 -1.512253 1.427138 0.071871 -0.030714 897388.000000 0 0 1
0.872257 33.154000 5.420229 33.605468 1.544493 1.408799 0.123517 -0.047499 620914.000000 0 0 1
0.426357 33.605000 6.680629 34.265269 1.558110 1.374572 0.146529 -0.035549 -197873.000000 0 0 1
1.371857 33.458500 7.871729 34.399380 1.529818 1.339917 0.115096 -0.024925 -358243.000000 0 0 1
1.829857 32.152100 8.115229 33.210885 1.513945 1.323942 0.117885 -0.032779 -101094.000000 0 0 1
2.691057 32.078400 9.209029 33.482410 1.487102 1.292164 0.129469 -0.027313 -487448.000000 0 0 1
3.417857 30.789900 9.456129 32.390092 1.460243 1.274536 0.124662 -0.035194 -406645.000000 0 0 1
2.634057 29.734500 9.936229 31.461205 1.482441 1.249470 0.155659 -0.041328 -303358.000000 0 0 1
3.336757 28.506000 10.015829 30.398073 1.454272 1.235034 0.108223 -0.038856 -304830.000000 0 0 1
2.835857 27.439100 11.013329 29.702521 1.467811 1.190939 0.111102 -0.044509 -1022650.000000 0 0 1
3.247857 27.712700 12.335529 30.507501 1.454131 1.154535 0.125580 -0.042871 123997.000000 0 0 1
2.674257 26.848600 13.331029 30.095105 1.471519 1.111895 0.144296 -0.033667 1676080.000000 0 0 1
1.080057 26.748700 13.420129 29.945941 1.530440 1.106107 0.108277 -0.032993 1287500.000000 0 0 1
0.449157 27.837700 14.063129 31.191520 1.554663 1.103063 0.117319 -0.029142 122299.000000 0 0 1
-0.148543 28.717800 13.074329 31.554274 -1.565624 1.143574 0.142253 -0.035796 -128197.000000 0 0 1
-0.949343 29.923000 13.599829 32.882253 -1.539081 1.144401 0.161703 -0.036849 301991.000000 0 0 1
-2.131143 29.460400 14.269629 32.803647 -1.498583 1.120757 0.140309 -0.034190 123048.000000 0 0 1
-2.785543 30.570000 14.835929 34.093826 -1.479927 1.120591 0.161857 -0.035966 -144042.000000 0 0 1
-3.957343 30.262900 15.809429 34.372107 -1.440769 1.092858 0.149841 -0.024949 569207.000000 0 0 1
-5.120143 29.881000 15.077029 33.858630 -1.401093 1.109294 0.120664 -0.030908 -438805.000000 0 0 1
-6.203343 29.670200 15.922129 34.239107 -1.364689 1.087131 0.097133 -0.026666 -957209.000000 0 0 1
-7.338643 29.098400 15.057829 33.575449 -1.323747 1.105735 0.073174 -0.031990 -912464.000000 0 0 1
-8.416343 28.726100 15.846029 33.869165 -1.285787 1.083928 0.067848 -0.031423 -709520.000000 0 0 1
-9.417643 28.101700 15.063629 33.246210 -1.247432 1.100564 0.058126 -0.025219 -64235.300000 0 0 1
-10.564443 27.603800 15.974629 33.597113 -1.205277 1.075291 0.059543 -0.020906 281617.000000 0 0 1
-11.390943 28.742000 16.355929 34.976744 -1.193469 1.084197 0.055640 -0.029167 360772.000000 0 0 1
-11.894043 28.613100 17.646629 35.659239 -1.176842 1.053113 0.069604 -0.027478 -445244.000000 0 0 1
-12.736843 29.799900 18.121729 37.130288 -1.166884 1.060933 0.065603 -0.027566 -282323.000000 0 0 1
-13.926643 29.944200 17.335329 37.297723 -1.135468 1.087407 0.063168 -0.012324 561682.000000 0 0 1
-14.728343 31.062500 17.640729 38.639337 -1.128040 1.096684 0.071248 -0.008617 203635.000000 0 0 1
-15.627543 30.936300 18.911329 39.483074 -1.103035 1.071312 0.071859 -0.009440 -740913.000000 0 0 1
-14.931443 30.795200 20.143229 39.711989 -1.119332 1.038825 0.063740 -0.017350 -32637.300000 0 0 1
-15.816343 30.639300 21.234929 40.495008 -1.094264 1.018805 0.069466 -0.016279 -52935.500000 0 0 1
-15.153343 30.746800 22.624629 41.071443 -1.112891 0.987402 0.056232 -0.005448 52134.300000 0 0 1
-14.176643 29.698800 22.847829 40.062692 -1.125435 0.963923 0.054784 -0.013754 831937.000000 0 0 1
-14.002043 29.252000 24.203229 40.466443 -1.124358 0.929660 0.059659 -0.006476 -306596.000000 0 0 1
-13.252943 30.153600 25.177829 41.458452 -1.156696 0.918135 0.057452 -0.004509 -229409.000000 0 0 1
-14.101143 31.215500 25.652029 42.793414 -1.146500 0.927997 0.062126 -0.006442 795050.000000 0 0 1
-13.471543 32.246900 26.367929 43.779136 -1.175072 0.924424 0.067608 -0.010060 72112.600000 0 0 1
-14.637243 33.204700 26.778429 45.098617 -1.155604 0.935054 0.087184 -0.016224 348017.000000 0 0 1
-15.538143 32.734600 27.702029 45.611297 -1.127617 0.918075 0.080594 -0.017245 -158456.000000 0 0 1
-14.976243 32.782000 29.023529 46.274320 -1.142266 0.892836 0.083240 -0.003891 -647837.000000 0 0 1
-15.645443 32.037200 30.140629 46.686397 -1.116510 0.868991 0.071211 -0.010807 94253.600000 0 0 1
-16.884343 32.636400 30.551529 47.787149 -1.093368 0.877176 0.070028 -0.007160 364221.000000 0 0 1
-17.325443 32.103100 31.736929 48.353001 -1.075910 0.854814 0.062881 -0.004482 -48276.600000 0 0 1
-18.801543 32.374300 32.086229 49.306384 -1.044648 0.862222 0.056330 -0.001838 47603.700000 0 0 1
-19.052543 33.647900 32.604829 50.579200 -1.055576 0.870258 0.068005 -0.002957 675363.000000 0 0 1
-20.467943 33.814300 32.787929 51.355544 -1.026486 0.878314 0.077917 -0.004419 901742.000000 0 0 1
-21.050643 -32.373514 32.788529 50.658283 0.994250 0.866826 0.090873 -0.001309 -88152.400000 0 0 1
-20.589943 -31.522214 -33.517907 50.408787 0.992183 2.298186 0.089514 -0.005738 76524.200000 0 0 1
-21.265143 -31.735314 -32.289807 50.019677 0.980436 2.272529 0.085017 -0.008089 -28783.700000 0 0 1
-20.862343 -30.824914 -31.131507 48.524050 0.975810 2.267338 0.104671 -0.016630 3435.000000 0 0 1
-21.117143 -29.471914 -31.361007 47.937879 0.949071 2.283922 0.115820 -0.020447 -10329.600000 0 0 1
-20.867243 -28.772214 -30.172607 46.622616 0.943320 2.274658 0.085746 -0.016487 23395.900000 0 0 1
-21.356343 -27.333214 -30.299307 46.056986 0.907542 2.288778 0.086513 -0.029824 -652293.000000 0 0 1
-22.729643 -27.141714 -30.280107 46.585343 0.873637 2.278370 0.087374 -0.026592 -741500.000000 0 0 1
-22.960243 -25.777214 -30.045907 45.764550 0.843133 2.287009 0.090500 -0.030479 -208958.000000 0 0 1
-24.067743 -25.555314 -29.006807 45.538173 0.815367 2.261368 0.099579 -0.038982 -442040.000000 0 0 1
-23.867743 -25.907814 -27.677107 44.798507 0.826361 2.236755 0.091269 -0.040740 894813.000000 0 0 1
-22.887743 -25.037814 -27.002907 43.357790 0.830231 2.243103 0.080273 -0.044786 836001.000000 0 0 1
-22.925643 -25.310614 -25.490307 42.614177 0.834801 2.212006 0.081158 -0.042958 -668835.000000 0 0 1
-24.099743 -24.846714 -24.938807 42.662641 0.800658 2.195132 0.078454 -0.046574 -514112.000000 0 0 1
-24.137643 -25.280914 -23.579307 42.163185 0.808528 2.164264 0.080517 -0.032126 -1073960.000000 0 0 1
-25.403143 -24.866214 -22.831207 42.248223 0.774718 2.141716 0.075942 -0.034077 42381.400000 0 0 1
-26.601743 -25.559914 -23.140407 43.548139 0.765428 2.131020 0.076869 -0.028988 60250.400000 0 0 1
-26.623343 -26.935214 -22.788407 44.199770 0.791221 2.112478 0.078254 -0.005833 -1850110.000000 0 0 1
-28.021443 -27.471614 -22.681707 45.324946 0.775490 2.094885 0.064606 -0.005078 -603080.000000 0 0 1
-28.735943 -26.943414 -21.530307 44.891604 0.753215 2.071003 0.073292 -0.002219 1407710.000000 0 0 1
-30.123543 -26.757814 -21.951607 45.883347 0.726296 2.069653 0.073353 -0.008842 1110910.000000 0 0 1
-31.028843 -26.375314 -20.781407 45.719943 0.704509 2.042649 0.086961 -0.006501 -704212.000000 0 0 1
-31.427743 -27.366614 -19.914307 46.186732 0.716434 2.016585 0.085517 0.004522 -95792.200000 0 0 1
-32.126343 -26.793914 -18.835107 45.877849 0.695142 1.993852 0.096171 0.009671 -902360.000000 0 0 1
-33.204143 -27.720014 -18.174807 46.917352 0.695624 1.968583 0.070798 0.001140 424058.000000 0 0 1
-34.450843 -27.865214 -18.877707 48.163249 0.680108 1.973549 0.069287 0.012766 1082490.000000 0 0 1
-35.213243 -26.653014 -19.124407 48.125862 0.647904 1.979460 0.050369 0.016789 -575269.000000 0 0 1
-35.828343 -25.944014 -17.875407 47.710504 0.626731 1.954831 0.061178 0.006287 -1372690.000000 0 0 1
-34.890243 -25.563914 -16.955007 46.457669 0.632334 1.944382 0.050371 0.020325 -437474.000000 0 0 1
-35.478143 -24.930414 -15.823307 46.158436 0.612534 1.920697 0.045424 0.015380 95361.600000 0 0 1
-35.078543 -25.751714 -14.545407 45.882718 0.633257 1.893374 0.056540 0.014629 -190557.000000 0 0 1
-35.707243 -26.947214 -14.411007 46.998263 0.646484 1.882445 0.083833 0.010927 -65775.100000 0 0 1
-35.257643 -27.526814 -13.188807 46.634446 0.662882 1.857521 0.083228 0.005121 -195702.000000 0 0 1
-36.003143 -28.789814 -12.799707 47.842578 0.674526 1.841633 0.103726 0.000687 -360309.000000 0 0 1
-35.767243 -29.883614 -13.638007 48.562551 0.696017 1.855459 0.087661 0.002971 352360.000000 0 0 1
-36.108943 -31.073114 -12.999307 49.379917 0.710580 1.837187 0.069744 -0.008713 -150380.000000 0 0 1
-35.523343 -32.230714 -13.881307 49.934132 0.736840 1.852500 0.068348 -0.000828 1057980.000000 0 0 1
-34.097243 -32.465014 -13.905007 49.091225 0.760881 1.857976 0.055172 -0.001546 1034690.000000 0 0 1
-33.722143 -33.194514 -15.025707 49.647060 0.777513 1.878269 0.094543 -0.026671 -38581.900000 0 0 1
-32.213143 -33.509914 -15.018107 48.848178 0.805126 1.883303 0.094144 -0.021874 77339.500000 0 0 1
-31.924843 33.292200 -16.106107 48.856657 -0.806361 1.906740 0.110069 -0.022826 -588377.000000 0 0 1
-30.554743 32.996100 -16.115707 47.770817 -0.823795 1.914902 0.108298 -0.025389 -425446.000000 0 0 1
9.960334 19.346300 -9.481671 23.735831 1.095344 1.981731 0.118100 -0.044952 -832157.000000 0 1 0
8.562534 19.422000 -9.299771 23.173623 1.155563 1.983741 0.097575 -0.041001 -123150.000000 0 1 0
7.891734 19.639400 -10.517771 23.634911 1.188712 2.031982 0.099114 -0.036290 113138.000000 0 1 0
7.755434 18.409800 -11.469271 23.035010 1.172092 2.091979 0.076318 -0.026847 222481.000000 0 1 0
9.028134 17.975400 -12.024171 23.435078 1.105351 2.109571 0.117628 -0.041302 874187.000000 0 1 0
8.972234 16.749600 -12.690771 22.849634 1.079023 2.159645 0.092530 -0.046695 -618475.000000 0 1 0
10.209934 16.387100 -13.510171 23.564900 1.013603 2.181346 0.121144 -0.044896 8344.550000 0 1 0
9.959634 15.188200 -14.148271 23.022800 0.990391 2.232590 0.121625 -0.055150 185278.000000 0 1 0
11.077934 14.948300 -14.956371 23.871852 0.933026 2.247886 0.161105 -0.057195 -380772.000000 0 1 0
11.078834 13.498200 -15.608271 23.421360 0.883522 2.300182 0.157059 -0.054847 -438502.000000 0 1 0
11.274234 12.438700 -14.646871 22.279148 0.834466 2.288193 0.149597 -0.052250 -156542.000000 0 1 0
12.501834 12.379600 -13.995171 22.481440 0.780486 2.242756 0.175786 -0.054111 -308233.000000 0 1 0
13.760734 11.786500 -14.706471 23.335802 0.708274 2.252621 0.200082 -0.051356 217365.000000 0 1 0
14.130534 12.532900 -15.813571 24.633607 0.725551 2.267837 0.159340 -0.046103 58149.300000 0 1 0
15.114134 11.814500 -16.540971 25.330282 0.663473 2.282351 0.167015 -0.054998 41607.500000 0 0 1
15.766434 12.614900 -17.730671 26.871785 0.674809 2.291382 0.122620 -0.039781 -464967.000000 0 0 1
16.817334 13.407600 -17.300271 27.602279 0.673061 2.248197 0.109229 -0.037679 -466453.000000 0 0 1
17.654934 13.734400 -18.410971 28.970576 0.661141 2.259460 0.070385 -0.017514 206708.000000 0 0 1
18.843734 14.640200 -18.042171 29.915576 0.660513 2.218182 0.070595 -0.010764 -111555.000000 0 0 1
18.427134 15.914300 -17.480371 29.973114 0.712356 2.193461 0.091933 -0.023027 274399.000000 0 0 1
18.024934 16.904200 -18.422171 30.822502 0.753323 2.211408 0.076363 -0.008399 -171085.000000 0 0 1
17.941534 18.315500 -17.861871 31.247442 0.795712 2.179283 0.089427 -0.007421 -960256.000000 0 0 1
19.041234 19.114200 -17.955471 32.408643 0.787311 2.157998 0.097019 -0.008878 -1109820.000000 0 0 1
18.745834 20.443200 -17.517471 32.805373 0.828683 2.134099 0.092066 -0.012256 -38678.600000 0 0 1
19.929534 21.456200 -17.492871 34.110928 0.822270 2.109266 0.102045 -0.015970 928767.000000 0 0 1
21.019734 21.087100 -16.600971 34.089401 0.786998 2.079429 0.099503 -0.011711 307856.000000 0 0 1
20.913934 21.306700 -15.224071 33.513288 0.794701 2.042349 0.108744 -0.013659 -689638.000000 0 0 1
21.721134 22.526600 -14.702571 34.574860 0.803600 2.010022 0.097742 -0.015302 800055.000000 0 0 1
23.091034 22.119300 -14.620471 35.159884 0.763908 1.999650 0.104958 -0.024282 23852.200000 0 0 1
23.863234 22.948800 -13.786371 35.863148 0.765866 1.965372 0.086174 -0.026617 1008130.000000 0 0 1
25.355934 22.432800 -13.604571 36.486138 0.724306 1.952896 0.070022 -0.017361 1352710.000000 0 0 1
25.964834 22.365100 -14.887371 37.363139 0.711053 1.980623 0.090999 -0.003255 152325.000000 0 0 1
26.971934 23.363100 -15.087971 38.742309 0.713824 1.970824 0.079511 -0.004443 181385.000000 0 0 1
27.430234 23.621300 -16.511871 39.787252 0.710927 1.998744 0.094185 -0.016409 -381997.000000 0 0 1
28.339734 22.668700 -16.972871 40.063560 0.674675 2.008266 0.112480 -0.024920 -151696.000000 0 0 1
28.396734 22.787600 -18.404671 40.796827 0.676247 2.038827 0.112197 -0.018747 -505385.000000 0 0 1
29.356134 21.881000 -19.175671 41.331188 0.640527 2.053247 0.110481 -0.023961 344205.000000 0 0 1
30.716334 22.334300 -19.189971 42.550783 0.628693 2.038670 0.112742 -0.016690 314776.000000 0 0 1
31.299834 21.511100 -20.213271 43.023056 0.602124 2.059888 0.131920 -0.020008 -1279880.000000 0 0 1
32.755134 21.770800 -20.432771 44.321154 0.586607 2.049936 0.138529 -0.017618 -1357940.000000 0 0 1
33.046234 23.004100 -20.920971 45.375425 0.608116 2.049990 0.123626 -0.015408 380542.000000 0 0 1
34.435534 23.299500 -21.059071 46.606407 0.594856 2.039634 0.121282 -0.006045 440599.000000 0 0 1
34.769934 24.699200 -21.717471 47.860708 0.617646 2.041781 0.106620 -0.009396 -36353.600000 0 0 1
34.747934 24.762500 -23.130471 48.534720 0.619154 2.067552 0.102610 -0.009750 574579.000000 0 0 1
33.468634 24.512700 -23.714571 47.784964 0.632147 2.090101 0.105583 -0.018443 217496.000000 0 0 1
33.364534 24.862500 -25.228531 48.660197 0.640408 2.115849 0.105444 -0.028358 -344937.000000 0 0 1
33.266934 26.248500 -25.539341 49.476566 0.668014 2.113194 0.111258 -0.030048 174791.000000 0 0 1
31.953034 26.735000 -25.794151 49.000968 0.696720 2.125158 0.107623 -0.024556 162406.000000 0 0 1
31.499034 26.534100 -27.240161 49.378882 0.700053 2.155145 0.115616 -0.022005 -251877.000000 0 0 1
31.124934 25.200400 -27.531661 48.598498 0.680599 2.173064 0.106292 -0.037428 -116230.000000 0 0 1
30.975234 24.980600 -28.883501 49.170643 0.678674 2.198655 0.100493 -0.045099 -131000.000000 0 0 1
30.099634 23.718900 -29.219111 48.190566 0.667389 2.222226 0.105215 -0.058090 949071.000000 0 0 1
28.790934 23.734400 -28.620511 47.025241 0.689425 2.225117 0.097744 -0.049220 374703.000000 0 0 1
28.109934 22.606800 -29.052841 46.317420 0.677314 2.248820 0.101456 -0.063300 -305702.000000 0 0 1
26.622534 22.580000 -28.638791 45.153029 0.703421 2.257848 0.097417 -0.053311 -142023.000000 0 0 1
26.473734 22.413500 -27.272081 44.124709 0.702535 2.237079 0.103843 -0.035686 470069.000000 0 0 1
25.140434 22.515900 -26.797061 43.093963 0.730382 2.241872 0.097979 -0.039425 -172389.000000 0 0 1
25.100134 22.555600 -25.263231 42.154509 0.732055 2.213424 0.106714 -0.037989 -489399.000000 0 0 1
25.476534 21.379600 -24.626371 41.383562 0.698184 2.208157 0.101939 -0.037554 352314.000000 0 0 1
25.434934 21.680000 -23.234071 40.703566 0.705869 2.178290 0.111676 -0.026896 -126410.000000 0 0 1
26.114534 20.593800 -22.324371 40.055599 0.667748 2.161968 0.112338 -0.019254 396949.000000 0 0 1
27.444134 20.270800 -22.689971 40.974634 0.636178 2.157665 0.112718 -0.018608 511681.000000 0 0 1
28.100934 19.163300 -22.067071 40.544422 0.598506 2.146314 0.134335 -0.020114 -5028.630000 0 0 1
29.466034 18.878400 -22.681971 41.702673 0.569798 2.145871 0.153912 -0.028354 -124886.000000 0 0 1
30.337034 18.025100 -21.956371 41.561065 0.536115 2.127384 0.166993 -0.028803 -488852.000000 0 0 1
31.381334 17.579000 -22.735971 42.552717 0.510621 2.134477 0.158621 -0.019659 -193442.000000 0 0 1
32.678934 17.154100 -21.998571 42.966417 0.483391 2.108301 0.139977 -0.018900 569017.000000 0 0 1
33.459734 18.255700 -21.517271 43.770051 0.499460 2.084720 0.120975 -0.014278 899097.000000 0 0 1
34.786434 17.892100 -21.114671 44.452813 0.475055 2.065750 0.099461 -0.008494 935780.000000 0 0 1
35.595534 18.892900 -20.248971 45.099939 0.487956 2.036420 0.088477 -0.019861 24838.000000 0 0 1
34.984934 19.157400 -19.008371 44.184497 0.500991 2.015516 0.114220 -0.024854 -228506.000000 0 0 1
35.601734 20.106100 -18.219671 44.762653 0.514097 1.989995 0.096228 -0.018681 -327987.000000 0 0 1
34.945634 20.227900 -16.830171 43.744942 0.524715 1.965716 0.101543 -0.023866 81190.900000 0 0 1
35.288534 19.133200 -15.973471 43.203145 0.496830 1.949514 0.092751 -0.032224 186160.000000 0 0 1
34.784234 19.287000 -14.706671 42.405394 0.506273 1.924966 0.080979 -0.030457 -457015.000000 0 0 1
35.089134 18.149200 -13.767971 41.835366 0.477337 1.906145 0.085908 -0.027970 -672102.000000 0 0 1
36.447634 18.067200 -13.455971 42.847601 0.460204 1.890244 0.058854 -0.022190 -592046.000000 0 0 1
36.750634 16.983900 -12.543271 42.383907 0.432903 1.871240 0.051543 -0.015139 -16100.200000 0 0 1
36.637334 17.247500 -11.024271 41.967905 0.439986 1.836599 0.054523 -0.024549 -301870.000000 0 0 1
37.536734 18.156000 -10.427371 42.981122 0.450512 1.815845 0.046803 -0.016281 -58038.100000 0 0 1
37.132634 18.644000 -9.162171 42.548521 0.465320 1.787831 0.036006 -0.016008 -261438.000000 0 0 1
36.085634 19.787400 -9.217871 42.174439 0.501572 1.791140 0.036185 -0.014194 -431001.000000 0 0 1
34.824434 19.373300 -9.614271 40.993904 0.507677 1.807531 0.031252 -0.026579 -1478670.000000 0 0 1
33.869734 20.366600 -9.464071 40.638970 0.541391 1.805836 0.015987 -0.006810 -869437.000000 0 0 1
32.472834 19.858800 -9.743471 39.291120 0.548870 1.821392 0.017287 -0.009647 -718523.000000 0 0 1
32.278234 19.409000 -11.078371 39.259699 0.541377 1.856864 0.049480 -0.022386 -1002170.000000 0 0 1
30.954334 19.088200 -11.302771 38.082579 0.552577 1.872132 0.054636 -0.028462 -1119560.000000 0 0 1
30.785534 18.357200 -12.638271 38.006076 0.537689 1.909784 0.101246 -0.029366 614781.000000 0 0 1
31.706434 17.245400 -12.897671 38.328210 0.498154 1.914000 0.099301 -0.029408 883034.000000 0 0 1
31.212034 16.519400 -14.021971 37.996017 0.486784 1.948770 0.104607 -0.034072 492315.000000 0 0 1
32.349934 15.736100 -14.753971 38.882165 0.452736 1.960002 0.112338 -0.041702 311548.000000 0 0 1
33.090834 14.840900 -13.959771 38.860402 0.421597 1.938238 0.092028 -0.038765 -162817.000000 0 0 1
34.246534 14.428700 -14.642871 39.942786 0.398748 1.946144 0.101499 -0.040717 -159044.000000 0 0 1
34.979234 13.368700 -13.802271 39.909543 0.365059 1.923929 0.078721 -0.050533 -542190.000000 0 0 1
35.885934 13.824700 -12.840571 40.543839 0.367718 1.893053 0.071625 -0.032420 8366.990000 0 0 1
36.543134 12.709400 -12.230371 40.577228 0.334706 1.876967 0.067876 -0.022725 -39010.900000 0 0 1
37.599334 13.163600 -11.225471 41.388422 0.336766 1.845459 0.083739 -0.016938 131510.000000 0 0 1
-37.095189 13.835700 -11.746871 41.297319 -0.356997 1.859225 0.069964 -0.023119 -11731.000000 0 0 1
-36.250389 13.998200 -10.639271 40.289383 -0.368513 1.838037 0.075764 -0.019619 -508633.000000 0 0 1
-34.789389 14.388700 -10.990571 39.218987 -0.392171 1.854836 0.113004 -0.026178 513771.000000 0 0 1
-33.900489 13.492000 -11.638371 38.297896 -0.378771 1.879570 0.136136 -0.024087 366935.000000 0 0 1
-33.590589 12.369500 -10.810171 37.392405 -0.352834 1.864084 0.153981 -0.020792 -443560.000000 0 0 1
-32.450989 11.411800 -11.322071 36.214433 -0.338155 1.888767 0.193387 -0.023064 339533.000000 0 0 1
-32.729589 10.625000 -12.489371 36.607390 -0.313897 1.918958 0.170717 -0.013258 198230.000000 0 0 1
-31.801989 9.561100 -12.609871 35.521683 -0.292048 1.933701 0.232071 -0.026811 -26004.300000 0 0 1
-31.914189 8.826500 -13.926471 35.921708 -0.269825 1.968920 0.223727 -0.039780 -150898.000000 0 0 1
-33.188889 8.320000 -14.224071 37.054675 -0.245625 1.964777 0.177142 -0.042104 97184.600000 0 0 1
-33.023589 7.393500 -15.316071 37.145703 -0.220253 1.995800 0.180501 -0.049094 -59798.100000 0 0 1
-34.383589 6.958100 -15.890771 38.511854 -0.199670 1.996125 0.181164 -0.052870 -271767.000000 0 0 1
-35.102589 6.168300 -14.989871 38.664401 -0.173946 1.968923 0.192947 -0.055358 -349445.000000 0 0 1
-36.192989 5.554500 -15.588171 39.796683 -0.152281 1.973270 0.148954 -0.062239 -610448.000000 0 0 1
-36.984089 4.592800 -14.657971 40.047131 -0.123551 1.945523 0.157486 -0.062778 53990.700000 0 0 1
37.752034 4.063400 -15.365671 40.961337 0.107221 1.955329 0.150276 -0.049842 -445639.000000 0 0 1
36.770234 3.646300 -14.485271 39.688395 0.098841 1.944402 0.163706 -0.050420 -805513.000000 0 0 1
35.883434 2.600100 -15.089871 39.013915 0.072333 1.967936 0.162107 -0.040060 -605916.000000 0 0 1
36.571934 1.381100 -15.338871 39.682424 0.037746 1.967674 0.173899 -0.041660 188246.000000 0 0 1
35.738134 0.193600 -15.299671 38.875849 0.005417 1.975289 0.158829 -0.036209 402611.000000 0 0 1
35.131034 -0.115600 -13.889471 37.777246 -0.003291 1.947296 0.155343 -0.040980 599326.000000 0 0 1
36.124834 -0.530700 -12.907771 38.365294 -0.014690 1.913934 0.181679 -0.039056 883352.000000 0 0 1
35.743634 -0.361000 -11.587871 37.576807 -0.010099 1.884284 0.176835 -0.032305 -405276.000000 0 0 1
35.837734 1.165200 -11.107471 37.537671 0.032502 1.871196 0.171563 -0.038411 25285.200000 0 0 1
34.788134 1.896800 -11.707971 36.754438 0.054470 1.894991 0.155006 -0.041334 319459.000000 0 0 1
34.666634 3.097800 -10.983871 36.496812 0.089123 1.876489 0.145880 -0.040236 -574767.000000 0 0 1
33.552234 4.015200 -11.455371 35.680524 0.119104 1.897638 0.136418 -0.031155 -513823.000000 0 0 1
33.804134 4.638700 -12.708071 36.410604 0.136371 1.927323 0.138329 -0.044920 782237.000000 0 0 1
32.740434 5.572600 -12.849071 35.610230 0.168590 1.939949 0.138132 -0.045035 105004.000000 0 0 1
32.895534 6.325600 -14.152671 36.365196 0.189975 1.970539 0.089683 -0.045825 -316360.000000 0 0 1
32.674434 5.567700 -15.382871 36.541081 0.168778 2.005316 0.079994 -0.031001 266968.000000 0 0 1
33.125734 6.297700 -16.574371 37.572397 0.187873 2.027655 0.082687 -0.027835 -587876.000000 0 0 1
32.135834 7.373600 -17.138971 37.159469 0.225547 2.050175 0.109851 -0.035286 158979.000000 0 0 1
31.005434 6.870400 -17.816371 36.413767 0.218064 2.082055 0.092110 -0.018753 900992.000000 0 0 1
30.018634 6.202100 -17.001771 35.052028 0.203742 2.077210 0.086232 -0.024417 -1007010.000000 0 0 1
28.590034 6.218400 -17.519771 34.102799 0.214167 2.110328 0.075229 -0.018713 -542840.000000 0 0 1
28.412634 5.153400 -18.497571 34.292790 0.179426 2.140522 0.085261 -0.010919 384040.000000 0 0 1
27.221834 5.292700 -19.254671 33.760676 0.192033 2.177702 0.078065 -0.010704 114581.000000 0 0 1
26.891234 3.997900 -20.015271 33.759928 0.147588 2.205415 0.075621 0.002837 -105513.000000 0 0 1
26.145634 3.121300 -19.198471 32.587083 0.118819 2.200795 0.075506 -0.004720 147483.000000 0 0 1
25.685134 1.956500 -19.890771 32.545303 0.076026 2.228337 0.086393 -0.007028 255453.000000 0 0 1
24.531134 1.170900 -19.192271 31.168747 0.047695 2.234138 0.094679 -0.006927 344755.000000 0 0 1
23.265934 1.792600 -19.288871 30.275033 0.076896 2.261554 0.098318 -0.016382 125138.000000 0 0 1
22.316634 1.051800 -18.526571 29.023650 0.047096 2.263119 0.117477 -0.027565 218603.000000 0 0 1
20.932134 1.731000 -18.450471 27.956582 0.082508 2.291574 0.132149 -0.041891 -541908.000000 0 0 1
20.131734 1.765900 -19.617471 28.164699 0.087493 2.341342 0.129279 -0.026610 1205390.000000 0 0 1
19.036234 2.728900 -19.558171 27.428947 0.142383 2.364633 0.129318 -0.025017 1042120.000000 0 0 1
17.788834 2.352700 -18.726271 25.935517 0.131494 2.377531 0.168329 -0.037223 -1035270.000000 0 0 1
17.902634 2.543500 -17.321071 25.039832 0.141130 2.334693 0.176290 -0.042621 415793.000000 0 0 1
16.777434 2.115700 -16.548871 23.660592 0.125442 2.345393 0.152915 -0.031980 404817.000000 0 1 0
15.668134 3.160700 -16.378671 22.885395 0.199056 2.368397 0.141763 -0.029285 5832.640000 0 1 0
14.999534 3.591900 -17.591371 23.395386 0.235041 2.421760 0.133022 -0.019388 459930.000000 0 1 0
13.934534 4.463500 -17.247971 22.618279 0.309993 2.438069 0.121526 -0.027735 -266264.000000 0 1 0
-20.638166 -21.842600 -17.082571 34.566563 0.813743 2.087703 0.118293 -0.031482 -2408.570000 0 0 1
-20.474866 -21.914000 -18.482071 35.228262 0.819336 2.123086 0.117534 -0.028936 -31252.400000 0 0 1
-21.658066 -21.596600 -19.180171 36.102131 0.783977 2.130901 0.120152 -0.031511 -203702.000000 0 0 1
-21.637266 -22.253200 -20.555671 37.227836 0.799431 2.155747 0.093764 -0.023676 -28926.800000 0 0 1
-21.685366 -23.689500 -20.423771 38.060188 0.829538 2.137220 0.069603 -0.019333 90189.700000 0 0 1
-20.935066 -24.308500 -21.434071 38.582373 0.859822 2.159809 0.068458 -0.020533 -224888.000000 0 0 1
-20.744766 -25.820230 -21.143571 39.294785 0.893967 2.138949 0.068984 -0.017552 214783.000000 0 0 1
-21.957166 -26.560150 -21.293271 40.508790 0.879988 2.124270 0.079153 -0.018239 459381.000000 0 0 1
-21.718666 -27.922010 -21.251671 41.267088 0.909719 2.111779 0.082979 -0.021367 -269706.000000 0 0 1
-23.031766 -28.690530 -21.496571 42.611164 0.894371 2.099578 0.080224 -0.009657 26124.800000 0 0 1
-23.588266 -28.550730 -22.797771 43.488950 0.880290 2.122595 0.063407 -0.005883 213296.000000 0 0 1
-23.306166 -29.567000 -23.753771 44.515463 0.903262 2.133656 0.053045 -0.007977 -408935.000000 0 0 1
-23.717266 -29.147680 -25.186441 45.237736 0.887762 2.161273 0.052495 -0.004600 -1355330.000000 0 0 1
-25.057146 -29.355900 -25.394541 46.200780 0.864237 2.152749 0.065281 0.000774 -792285.000000 0 0 1
-25.707996 -28.515890 -26.348191 46.564838 0.837135 2.172247 0.061899 0.000587 207528.000000 0 0 1
-25.170076 -28.730930 -27.807631 47.246834 0.851365 2.200074 0.076454 -0.021469 -517702.000000 0 0 1
-25.468806 -30.009430 -28.401051 48.537054 0.867061 2.195851 0.062275 -0.008070 267298.000000 0 0 1
-25.082496 -30.016910 -29.743011 49.140545 0.874715 2.220894 0.104653 -0.018888 53068.900000 0 0 1
-25.634356 -31.291900 -30.477901 50.647859 0.884457 2.216500 0.080396 -0.011241 191505.000000 0 0 1
-25.067996 -32.505770 -30.032231 50.862210 0.913873 2.202428 0.074216 -0.012254 49585.500000 0 0 1
-25.694666 -33.562260 -30.721431 52.253683 0.917397 2.199292 0.084825 -0.012172 -32172.000000 0 0 1
-24.979106 32.723763 -30.603671 51.297028 -0.918817 2.210051 0.094427 -0.017613 -87819.400000 0 0 1
-23.833966 32.598060 -31.403251 51.155211 -0.939471 2.231765 0.106058 -0.022039 -277858.000000 0 0 1
-23.317666 31.270235 -31.419091 50.086928 -0.930064 2.248866 0.110133 -0.015489 -61932.800000 0 0 1
-22.022166 31.207065 -32.257731 49.994178 -0.956269 2.272120 0.091740 -0.006562 -208259.000000 0 0 1
-21.970666 31.071515 -33.654511 50.801331 -0.955321 2.294912 0.083389 -0.009272 -41752.600000 0 0 1
-21.944466 29.744865 33.217426 49.696216 -0.935177 0.838728 0.065358 -0.000738 51045.200000 0 0 1
-22.135866 29.570285 31.653615 48.645140 -0.928202 0.862284 0.065715 -0.007151 -122705.000000 0 0 1
-21.042666 30.195815 31.049276 48.152243 -0.962172 0.870015 0.058593 -0.006808 87963.400000 0 0 1
-21.134066 29.990225 29.636276 47.163239 -0.956924 0.891332 0.082103 -0.008788 58798.300000 0 0 1
-20.707466 31.265145 28.820776 47.296359 -0.985810 0.915536 0.083383 -0.022940 -40590.700000 0 0 1
-21.638066 32.313671 28.932836 48.471519 -0.980748 0.931160 0.086751 -0.019122 72106.900000 0 0 1
-21.024866 33.561595 28.635456 48.871412 -1.011151 0.944763 0.093058 -0.032634 -226163.000000 0 0 1
-21.979166 -32.894130 28.445396 48.726256 0.981747 0.947420 0.103803 -0.037132 -230470.000000 0 0 1
-22.519566 -32.497130 29.698786 49.449087 0.964803 0.926553 0.089684 -0.021842 156984.000000 0 0 1
-23.597866 -31.565690 29.644126 49.315578 0.928846 0.925906 0.106517 -0.024430 160272.000000 0 0 1
-23.361166 -30.094620 29.326006 48.077488 0.910701 0.914769 0.117859 -0.027710 -572440.000000 0 0 1
-23.041566 -29.895710 27.915056 46.945900 0.914159 0.934001 0.109220 -0.023599 -13460.600000 0 0 1
-23.542566 -28.725770 27.387256 46.146333 0.884240 0.935412 0.090262 -0.027748 -623492.000000 0 0 1
-25.014246 -28.749090 27.010626 46.709705 0.854755 0.954195 0.088793 -0.012869 -1425110.000000 0 0 1
-25.919226 -28.533690 28.089616 47.697004 0.833375 0.941077 0.101296 -0.013705 1436920.000000 0 0 1
-27.132136 -29.343600 28.117486 48.865045 0.824536 0.957690 0.091304 -0.024622 2024830.000000 0 0 1
-28.174406 -29.153950 26.934426 48.674564 0.802483 0.984407 0.069238 -0.003266 -167413.000000 0 0 1
-27.657746 -29.828680 25.808976 48.174727 0.823145 1.005416 0.078041 -0.007220 589507.000000 0 0 1
-28.436406 -29.717010 24.615966 47.934076 0.807416 1.031493 0.069656 -0.007873 -76490.400000 0 0 1
-27.427026 -29.813830 23.458056 46.812248 0.827072 1.045916 0.048149 -0.011540 -509360.000000 0 0 1
-26.534106 -28.715460 23.386996 45.558621 0.824859 1.031726 0.044132 -0.018534 499605.000000 0 0 1
-25.804586 -28.543550 22.180266 44.413681 0.835752 1.047888 0.059781 -0.025882 -599669.000000 0 0 1
-24.700766 -29.517970 21.894066 44.280791 0.874013 1.053609 0.074018 -0.029817 -1778440.000000 0 0 1
-25.129666 -30.844650 21.678666 45.308466 0.887146 1.071887 0.070444 -0.035399 36416.800000 0 0 1
-24.129866 -31.667110 21.120766 45.068204 0.919669 1.083046 0.069317 -0.015737 214546.000000 0 0 1
-23.097366 -32.268270 22.132366 45.437552 0.949550 1.062037 0.067874 -0.016440 291542.000000 0 0 1
-22.371266 -31.293090 22.907656 44.771550 0.950144 1.033685 0.089751 -0.035826 407774.000000 0 0 1
-21.664366 -32.012050 23.922316 45.457599 0.975841 1.016605 0.100244 -0.041118 -163104.000000 0 0 1
-20.911966 -31.180980 24.971106 45.090131 0.980031 0.983870 0.106339 -0.030681 -229344.000000 0 0 1
-19.860166 -30.400050 24.378116 43.736504 0.992109 0.979562 0.111877 -0.032229 584699.000000 0 0 1
-19.027766 -29.805500 25.352796 43.510780 1.002621 0.948776 0.122777 -0.030381 -191581.000000 0 0 1
-17.949566 -30.598300 26.091856 44.036664 1.040273 0.936634 0.109996 -0.033567 -1029600.000000 0 0 1
-18.455166 -31.720420 26.772676 45.426362 1.043861 0.940525 0.121497 -0.035301 -105271.000000 0 0 1
-17.788066 -32.070900 27.965636 46.119786 1.064391 0.919309 0.114856 -0.025993 -217345.000000 0 0 1
-18.320066 -31.277360 29.253236 46.579500 1.040936 0.891780 0.122805 -0.027232 89770.900000 0 0 1
-17.832766 -29.966340 29.422176 45.625141 1.033993 0.869946 0.118436 -0.021404 175272.000000 0 0 1
-18.269066 -29.463660 30.678046 46.292640 1.015761 0.846380 0.112769 -0.017716 -44477.100000 0 0 1
-18.202066 -27.888930 30.782356 45.350425 0.992551 0.824715 0.104442 -0.020615 88486.200000 0 0 1
-19.133666 -27.067860 30.079216 44.760758 0.955469 0.833891 0.109961 -0.020875 278334.000000 0 0 1
-19.157766 -27.095830 28.622286 43.822816 0.955363 0.859077 0.120854 -0.015204 2757.920000 0 0 1
-17.809466 -26.733150 27.946496 42.577518 0.983121 0.854803 0.110657 -0.020029 107780.000000 0 0 1
-17.561666 -25.334620 27.821946 41.524881 0.964657 0.836579 0.097504 -0.014763 -412388.000000 0 0 1
-16.478966 -25.086400 26.988946 40.364427 0.989594 0.838429 0.073852 -0.009709 -549090.000000 0 0 1
-16.433566 -23.667400 26.453636 39.115250 0.963869 0.828069 0.071898 -0.009752 301796.000000 0 0 1
-17.378666 -23.511400 25.371166 38.710464 0.934270 0.856073 0.100753 -0.015691 435126.000000 0 0 1
-17.137566 -22.396100 24.544276 37.385865 0.917636 0.854611 0.086087 -0.027282 102224.000000 0 0 1
-18.006266 -21.153200 24.936346 37.329677 0.865588 0.839274 0.075170 -0.018547 -61752.400000 0 0 1
-17.740966 -20.056600 24.087966 36.017206 0.846586 0.838216 0.081811 -0.016905 201919.000000 0 0 1
-18.367966 -18.905000 24.616126 36.065702 0.799805 0.819570 0.076504 -0.009040 98607.500000 0 0 1
-17.914966 -17.713900 23.757736 34.628865 0.779755 0.814726 0.086879 -0.021854 -326230.000000 0 0 1
-16.539966 -17.475000 23.882666 33.901738 0.812880 0.789124 0.092243 -0.026330 -459902.000000 0 0 1
-16.033266 -16.612100 22.874786 32.500512 0.803127 0.790024 0.094164 -0.026577 -632429.000000 0 0 1
-14.605566 -16.141000 23.063666 31.714147 0.835295 0.756510 0.116961 -0.035903 -1499450.000000 0 0 1
-13.672366 -17.217900 22.906646 31.750655 0.899676 0.764896 0.088212 -0.035359 -200786.000000 0 0 1
-12.390966 -16.761700 23.263696 31.236039 0.934215 0.730605 0.094891 -0.035144 -204615.000000 0 0 1
-11.684766 -15.847500 22.155566 29.640278 0.935456 0.726533 0.115613 -0.040941 -760130.000000 0 0 1
-11.178066 -16.575000 21.048266 29.029455 0.977464 0.759666 0.153104 -0.042704 -160383.000000 0 0 1
-9.897266 -17.109300 21.283866 29.046290 1.046356 0.748432 0.146891 -0.044454 -623758.000000 0 0 1
-9.568066 -18.198200 20.285966 28.883261 1.086746 0.792112 0.150193 -0.043657 73129.900000 0 0 1
-9.160166 -17.819600 18.993966 27.608287 1.095972 0.812094 0.148187 -0.042651 -270721.000000 0 0 1
-8.929766 -18.977400 18.242766 27.797139 1.130987 0.854916 0.138221 -0.043765 188995.000000 0 0 1
-8.569166 -18.772500 16.760466 26.584781 1.142571 0.888659 0.127104 -0.047203 -95496.500000 0 0 1
-7.380466 -18.065700 16.555166 25.591293 1.182954 0.867276 0.122956 -0.042398 -592083.000000 0 0 1
-7.077966 -17.904000 15.176266 24.514686 1.194323 0.903241 0.124713 -0.036557 -377367.000000 0 1 0
-5.993266 -16.868300 15.089366 23.412555 1.229410 0.870429 0.102220 -0.034693 -678487.000000 0 1 0
-6.384466 -15.608400 15.584866 22.962395 1.182521 0.824788 0.111547 -0.040591 -626835.000000 0 1 0
-5.344166 -14.691900 15.748666 22.190820 1.221926 0.781734 0.078520 -0.019482 -448788.000000 0 1 0
-5.584366 -13.441200 16.654966 22.118745 1.177028 0.718218 0.064466 -0.013755 -333916.000000 0 1 0
-5.365466 -13.719900 18.051866 23.300080 1.198010 0.684468 0.076686 -0.015248 245861.000000 0 1 0
-6.273366 -14.590700 18.747366 24.570457 1.164735 0.702848 0.119294 -0.032472 1210740.000000 0 1 0
-7.696966 -14.061200 19.135366 24.962429 1.069959 0.697319 0.148980 -0.047735 726799.000000 0 1 0
-7.495066 -13.150600 20.206866 25.247410 1.052772 0.642911 0.134763 -0.046304 605839.000000 0 0 1
-8.708166 -12.689700 20.837266 25.904677 0.969366 0.636161 0.133715 -0.038902 924477.000000 0 0 1
-8.415366 -11.726800 22.026466 26.334415 0.948344 0.580089 0.127324 -0.030737 -284773.000000 0 0 1
-7.994166 -10.430200 21.657266 25.332448 0.916854 0.545396 0.103457 -0.028433 -31578.800000 0 0 1
-7.495366 -9.677000 22.747896 25.831988 0.911765 0.493649 0.088776 -0.025905 -112022.000000 0 0 1
-6.125366 -9.899000 23.396496 26.132476 1.016678 0.461684 0.086368 -0.021579 -372213.000000 0 0 1
-6.034866 -11.201600 23.863096 27.043350 1.076631 0.489854 0.094786 -0.024628 -569101.000000 0 0 1
-4.713366 -11.498100 24.222696 27.224274 1.181763 0.474007 0.080549 -0.014358 -420518.000000 0 0 1
-4.504966 -12.792800 24.963196 28.409709 1.232209 0.497695 0.095903 -0.023251 -126441.000000 0 0 1
-3.183566 -13.022400 25.446046 28.761419 1.331031 0.484885 0.086572 -0.016113 287053.000000 0 0 1
-3.025966 -14.206800 26.212316 29.967902 1.360938 0.506022 0.091710 -0.016608 -10103.600000 0 0 1
-2.590766 -15.569900 25.528296 30.013792 1.405911 0.553762 0.115915 -0.046285 422954.000000 0 0 1
-1.230766 -15.768100 25.167726 29.724774 1.492900 0.561059 0.118797 -0.044849 185798.000000 0 0 1
-1.140866 -17.019600 24.569506 29.910349 1.503864 0.606868 0.132390 -0.046801 -1031.790000 0 0 1
0.301134 -17.593600 24.497296 30.161945 -1.553682 0.622896 0.140056 -0.046524 466996.000000 0 0 1
0.878934 -17.993300 25.729466 31.409183 -1.521987 0.610834 0.148812 -0.047957 1431.780000 0 0 1
1.158134 -17.080800 26.794636 31.796973 -1.503097 0.568557 0.145431 -0.048846 -467574.000000 0 0 1
2.072934 -17.664000 27.883576 33.072764 -1.453977 0.567778 0.124111 -0.035358 -733257.000000 0 0 1
3.346334 -18.031900 27.411306 32.980707 -1.387305 0.589657 0.127758 -0.039762 33349.200000 0 0 1
4.327634 -18.209700 28.430626 34.038538 -1.337469 0.582212 0.148284 -0.052441 424240.000000 0 0 1
4.926434 -16.861100 28.955346 33.867071 -1.286531 0.545302 0.151072 -0.054586 -1224730.000000 0 0 1
4.060334 -16.032200 29.639386 33.941286 -1.322751 0.508954 0.168785 -0.059074 -111383.000000 0 0 1
4.732634 -14.884300 30.148246 33.953747 -1.262944 0.477991 0.196478 -0.066889 600641.000000 0 0 1
3.584934 -13.990900 30.713966 33.940311 -1.319960 0.439556 0.203337 -0.073565 561782.000000 0 0 1
2.968734 -14.663200 31.781068 35.126330 -1.371035 0.439969 0.200597 -0.079157 55025.500000 0 0 1
1.761134 -13.947400 32.044593 34.992677 -1.445191 0.413422 0.193480 -0.068554 328011.000000 0 0 1
0.899234 -14.421400 33.229776 36.235389 -1.508523 0.410170 0.180867 -0.063666 546755.000000 0 0 1
1.613234 -14.230900 -32.876881 35.860986 -1.457917 2.730756 0.213201 -0.058752 445083.000000 0 0 1
1.078034 -15.165400 -31.890711 35.329434 -1.499831 2.696723 0.179128 -0.073315 132756.000000 0 0 1
1.880434 -15.098000 -30.626841 34.197792 -1.446886 2.680528 0.167917 -0.052859 -182164.000000 0 0 1
1.547434 -16.267300 -29.842621 34.023545 -1.475956 2.640622 0.144091 -0.042959 119543.000000 0 0 1
2.129034 -16.186200 -28.553961 32.891557 -1.440013 2.622207 0.132488 -0.034315 -35491.100000 0 0 1
1.939934 -17.447800 -27.688241 32.784565 -1.460066 2.576523 0.133234 -0.034951 -543355.000000 0 0 1
2.700934 -18.543300 -28.019951 33.708554 -1.426158 2.552134 0.110864 -0.026728 -293291.000000 0 0 1
2.438334 -19.672100 -27.195581 33.653181 -1.447476 2.511738 0.093564 -0.044643 -1059010.000000 0 0 1
3.221834 -20.961700 -27.589301 34.798600 -1.418289 2.486232 0.070830 -0.036357 586282.000000 0 0 1
4.603634 -20.946200 -27.232111 34.663015 -1.354452 2.474501 0.082661 -0.029987 330180.000000 0 0 1
4.943834 -20.783900 -25.863801 33.546209 -1.337268 2.451191 0.100158 -0.032254 -2558060.000000 0 0 1
6.411734 -20.953400 -25.572401 33.676445 -1.273844 2.433119 0.083494 -0.031166 -721128.000000 0 0 1
7.018634 -22.272400 -25.542761 34.608577 -1.265520 2.400968 0.088930 -0.030277 190216.000000 0 0 1
7.035234 -22.897800 -26.803601 35.947695 -1.272706 2.412273 0.084510 -0.025241 -799103.000000 0 0 1
5.966634 -24.001500 -26.907871 36.547315 -1.327141 2.398305 0.067173 -0.027587 164052.000000 0 0 1
6.402434 -25.138850 -26.189531 36.862507 -1.321415 2.360955 0.096171 -0.029052 -47228.200000 0 0 1
5.668634 -26.244700 -26.637051 37.821292 -1.358073 2.352215 0.100520 -0.031801 26528.200000 0 0 1
5.988834 -27.605570 -25.914231 38.333810 -1.357164 2.313138 0.128484 -0.037949 201839.000000 0 0 1
7.373634 -27.874770 -26.016041 38.835649 -1.312192 2.304872 0.143075 -0.045864 -88096.300000 0 0 1
7.615834 -29.072640 -25.314591 39.294374 -1.314594 2.270812 0.148414 -0.056423 29957.100000 0 0 1
9.101634 -29.495680 -25.200371 39.848382 -1.271491 2.255452 0.149152 -0.060078 41640.100000 0 0 1
9.555934 -29.771690 -26.500501 40.987143 -1.260210 2.273858 0.159443 -0.058450 252516.000000 0 0 1
10.976534 -29.908310 -26.511491 41.446959 -1.219052 2.264837 0.188296 -0.054855 585914.000000 0 0 1
11.539534 -29.903410 -27.954201 42.530132 -1.202509 2.288000 0.186902 -0.059420 -105885.000000 0 0 1
11.292134 -31.066020 -28.740201 43.801929 -1.222156 2.286489 0.203346 -0.070299 -3667.070000 0 0 1
11.739434 -30.918200 -30.058021 44.690424 -1.207917 2.308490 0.186476 -0.052942 -87638.200000 0 0 1
-35.583223 -5.710000 -5.371971 36.436629 0.159112 1.718769 0.276823 -0.043944 209108.000000 0 0 1
-34.992342 -5.066600 -4.248971 35.611629 0.143792 1.690395 0.283430 -0.063083 67289.700000 0 0 1
-34.231670 -3.923800 -4.558571 34.756064 0.114127 1.702334 0.271366 -0.065835 -124790.000000 0 0 1
-34.993487 -2.699600 -5.209471 35.481975 0.076993 1.718149 0.263477 -0.042379 636481.000000 0 0 1
-36.029036 -2.127800 -4.381671 36.356815 0.058989 1.691609 0.204291 -0.033569 655208.000000 0 0 1
-36.558176 -0.965900 -4.900171 36.897762 0.026415 1.703994 0.185039 -0.031354 -199336.000000 0 0 1
-37.654966 -0.277200 -4.091571 37.877622 0.007361 1.679028 0.184707 -0.023853 21084.600000 0 0 1
-37.131536 0.602400 -3.099071 37.265508 -0.016222 1.654054 0.170249 -0.010577 529607.000000 0 0 1
37.662367 1.268700 -2.397871 37.759942 0.033673 1.634342 0.173159 -0.009333 -183080.000000 0 0 1
-37.657326 2.431700 -1.546771 37.767445 -0.064485 1.611763 0.151842 -0.005147 137792.000000 0 0 1
-37.050596 3.484300 -2.260471 37.282660 -0.093766 1.631464 0.176109 -0.026289 723337.000000 0 0 1
-35.743612 3.221700 -2.789571 35.996762 -0.089891 1.648369 0.124904 0.004040 -81470.800000 0 0 1
-35.039648 4.542500 -3.189671 35.476545 -0.128920 1.660827 0.101425 0.003950 -115188.000000 0 0 1
-34.605717 5.280400 -2.073271 35.067602 -0.151420 1.629953 0.109009 -0.001535 563339.000000 0 0 1
-33.832336 6.447300 -2.406071 34.525119 -0.188308 1.640543 0.136917 -0.021757 121987.000000 0 0 1
-33.299616 7.270600 -1.207371 34.105480 -0.214965 1.606205 0.160773 -0.029806 -399279.000000 0 0 1
-32.126266 6.844600 -0.555371 32.852001 -0.209915 1.587702 0.201378 -0.022154 131639.000000 0 0 1
-31.927886 7.331700 0.788629 32.768364 -0.225720 1.546727 0.239285 -0.038857 24958.100000 0 0 1
-31.917176 8.849900 1.136729 33.140896 -0.270482 1.536490 0.268352 -0.050152 159106.000000 0 0 1
-33.207776 9.422400 0.972329 34.532353 -0.276474 1.542636 0.220984 -0.042953 239208.000000 0 0 1
-33.229056 10.780900 1.548129 34.968481 -0.313727 1.526510 0.247143 -0.036694 184442.000000 0 0 1
-34.592660 11.522200 1.611029 36.496694 -0.321525 1.526640 0.224930 -0.044874 -708358.000000 0 0 1
-35.025319 11.870100 0.302829 36.983293 -0.326753 1.562608 0.187441 -0.042249 1394910.000000 0 0 1
-36.355966 12.447900 0.195029 38.428434 -0.329879 1.565721 0.173601 -0.035411 1537090.000000 0 0 1
-37.550316 11.506200 0.524429 39.277142 -0.297337 1.557444 0.180492 -0.044542 -454709.000000 0 0 1
-37.867776 10.658600 -0.581871 39.343523 -0.274370 1.585586 0.170047 -0.034603 193590.000000 0 0 1
36.827557 9.870800 -0.292571 38.128562 0.261873 1.578470 0.165401 -0.033396 691866.000000 0 0 1
36.383417 8.919100 -1.506171 37.490958 0.240401 1.610981 0.161749 -0.033202 41364.400000 0 0 1
35.761807 9.533900 -2.563271 37.099494 0.260535 1.639943 0.148171 -0.031879 -179787.000000 0 0 1
35.624687 8.680100 -3.631771 36.846332 0.238997 1.669522 0.148143 -0.035027 242670.000000 0 0 1
34.849867 9.289500 -4.876671 36.394916 0.260501 1.705194 0.120798 -0.032282 357597.000000 0 0 1
33.455977 9.432200 -4.698971 35.076333 0.274796 1.705164 0.157669 -0.026198 385304.000000 0 0 1
32.891927 10.095900 -5.847471 34.899842 0.297813 1.739140 0.125627 -0.009948 -274703.000000 0 0 1
31.375197 10.332800 -5.885371 33.553052 0.318143 1.747113 0.183176 -0.022850 -458153.000000 0 0 1
30.602057 9.185600 -5.938971 32.498192 0.291606 1.754577 0.210917 -0.011174 1074320.000000 0 0 1
29.240457 9.519700 -6.264471 31.382680 0.314744 1.771762 0.245599 -0.016528 981479.000000 0 0 1
28.100657 8.480200 -6.344971 30.030307 0.293089 1.783686 0.280934 -0.007391 95684.400000 0 0 1
28.289457 7.648600 -7.493071 30.247984 0.264056 1.821124 0.259185 -0.012488 317876.000000 0 0 1
27.368457 6.594900 -7.629971 29.167475 0.236459 1.835467 0.300055 -0.006715 -373356.000000 0 0 1
27.756157 5.679000 -8.801971 29.666984 0.201818 1.872024 0.276909 -0.022923 -284297.000000 0 0 1
28.870057 4.866900 -8.560471 30.503255 0.167009 1.855258 0.251475 -0.019906 -1228.000000 0 0 1
29.079557 3.764200 -9.447671 30.806628 0.128729 1.882496 0.228060 -0.027312 103599.000000 0 0 1
30.167457 2.768300 -8.956671 31.590519 0.091508 1.858263 0.187075 -0.021574 -846401.000000 0 0 1
31.492417 3.197200 -9.079371 32.930675 0.101176 1.850126 0.158327 -0.010642 587768.000000 0 0 1
32.366567 2.554800 -8.079671 33.457476 0.078770 1.814698 0.152509 -0.009629 444079.000000 0 0 1
32.518307 1.009900 -8.018971 33.507672 0.031046 1.812459 0.138232 -0.015921 -745347.000000 0 0 1
31.405017 0.306200 -7.443071 32.276433 0.009750 1.803495 0.193758 -0.017502 549017.000000 0 0 1
31.536897 -1.062900 -7.240471 32.374836 -0.033691 1.796349 0.200428 -0.025495 -153535.000000 0 0 1
31.555737 -2.047100 -8.415571 32.722729 -0.064782 1.830897 0.176236 -0.020518 124283.000000 0 0 1
32.673917 -1.934900 -9.278371 34.020829 -0.059149 1.847022 0.146612 -0.016622 256675.000000 0 0 1
32.534197 -2.901000 -10.284971 34.244275 -0.088933 1.875847 0.126919 -0.034080 -468929.000000 0 0 1
33.741197 -3.158900 -11.169871 35.682111 -0.093349 1.889187 0.149406 -0.025046 -1008700.000000 0 0 1
34.846557 -3.740800 -10.570771 36.606247 -0.106941 1.863738 0.172790 -0.015983 -373859.000000 0 0 1
35.857127 -4.124100 -11.456171 37.868002 -0.114512 1.878141 0.188064 -0.031836 -451903.000000 0 0 1
37.121807 -4.606100 -10.733771 38.916045 -0.123450 1.850238 0.220106 -0.034062 -326443.000000 0 0 1
36.869607 -5.743900 -9.911771 38.608334 -0.154547 1.830430 0.226701 -0.044078 307114.000000 0 0 1
-37.823926 -6.131100 -9.199171 39.406402 0.160698 1.806414 0.235598 -0.044797 -51983.000000 0 0 1
37.839957 -7.386600 -8.326771 39.443115 -0.192782 1.783505 0.243151 -0.044955 4468.230000 0 0 1
37.092647 -7.146200 -7.105671 38.437263 -0.190326 1.756730 0.258960 -0.043454 721352.000000 0 0 1
36.772517 -8.396400 -6.566171 38.286187 -0.224485 1.743151 0.275150 -0.053645 -662825.000000 0 0 1
36.192577 -8.296200 -5.132671 37.484315 -0.225331 1.708156 0.274732 -0.058895 -60646.300000 0 0 1
37.134587 -7.764200 -4.160571 38.165045 -0.206113 1.680029 0.315721 -0.057788 1362010.000000 0 0 1
-37.872696 -8.728600 -3.484671 39.021436 0.226517 1.660217 0.340205 -0.065766 970976.000000 0 0 1
-36.708846 -9.418900 -4.304871 38.141670 0.251166 1.683903 0.314408 -0.064252 -443613.000000 0 0 1
-37.158786 -10.390300 -5.261071 38.941142 0.272655 1.706314 0.293742 -0.060711 -188992.000000 0 0 1
-36.152436 -11.113200 -5.907071 38.280482 0.298230 1.725726 0.239691 -0.048297 -716205.000000 0 0 1
-36.648296 -11.579100 -7.257771 39.113276 0.306027 1.757436 0.241658 -0.053080 -189491.000000 0 0 1
-36.741256 -10.590800 -8.221371 39.111071 0.280646 1.782582 0.194561 -0.062841 -2724.210000 0 0 1
-37.198976 -11.191700 -9.396371 39.966358 0.292246 1.808125 0.214814 -0.048013 -264116.000000 0 0 1
-37.487186 -10.329000 -10.621071 40.308616 0.268863 1.837439 0.202458 -0.043086 641113.000000 0 0 1
37.153777 -9.531800 -10.622571 39.800720 -0.251134 1.840965 0.196765 -0.046857 984581.000000 0 0 1
36.915657 -8.891000 -11.865171 39.781879 -0.236345 1.873661 0.181324 -0.048078 -983792.000000 0 0 1
35.615357 -8.159000 -12.075871 38.481808 -0.225201 1.889997 0.188335 -0.041190 -741141.000000 0 0 1
35.753157 -7.528800 -13.361571 38.903761 -0.207545 1.921386 0.181725 -0.037106 -61126.700000 0 0 1
34.568617 -6.906100 -13.724271 37.829077 -0.197183 1.942064 0.147458 -0.034334 -651426.000000 0 0 1
34.689197 -6.238400 -15.037371 38.319454 -0.177935 1.974059 0.142645 -0.037218 450556.000000 0 0 1
35.655217 -5.180200 -14.849971 38.969868 -0.144276 1.961742 0.155933 -0.025160 470456.000000 0 0 1
36.377607 -4.944600 -16.008571 40.050639 -0.135096 1.981995 0.170591 -0.027593 51041.300000 0 0 1
37.418457 -3.783600 -15.816971 40.799915 -0.100773 1.968901 0.186929 -0.027783 198295.000000 0 0 1
-37.552526 -3.580000 -16.906471 41.338086 0.095046 1.992133 0.195679 -0.027537 880701.000000 0 0 1
-36.317056 -2.890700 -16.650271 40.056413 0.079429 1.999476 0.212093 -0.028801 685878.000000 0 0 1
-36.361206 -1.429800 -16.098271 39.791154 0.039302 1.987304 0.204532 -0.032601 -586757.000000 0 0 1
-36.655886 -0.462400 -17.070471 40.438456 0.012614 2.006595 0.183278 -0.025670 43684.000000 0 0 1
-36.543806 0.801400 -16.532471 40.117510 -0.021926 1.995555 0.185601 -0.031605 -449345.000000 0 0 1
-36.601476 1.972300 -17.514571 40.624109 -0.053834 2.016549 0.150169 -0.031686 -416710.000000 0 0 1
-35.599965 2.082200 -18.461171 40.156044 -0.058422 2.048494 0.132662 -0.023777 -455282.000000 0 0 1
-35.901186 3.136600 -19.366771 40.912165 -0.087146 2.063914 0.115620 -0.020272 -387042.000000 0 0 1
-34.870560 3.446900 -20.433871 40.563286 -0.098528 2.098734 0.107561 -0.012945 -606198.000000 0 0 1
-33.548596 3.759100 -20.061171 39.269450 -0.111584 2.106981 0.116136 -0.014775 190404.000000 0 0 1
-32.903756 4.063900 -21.300371 39.406576 -0.122886 2.141861 0.104390 -0.017025 -4141.910000 0 0 1
-31.420546 4.493900 -21.151071 38.142019 -0.142061 2.158600 0.134861 -0.020114 -178231.000000 0 0 1
-30.557636 3.485200 -20.786071 37.121105 -0.113563 2.165125 0.143576 -0.012159 -1007130.000000 0 0 1
-29.258716 3.855800 -21.100671 36.279167 -0.131028 2.191514 0.112856 -0.015373 -213803.000000 0 0 1
-28.131046 2.903100 -20.564071 34.966623 -0.102835 2.199511 0.132420 -0.019018 398018.000000 0 0 1
-27.753336 3.056900 -19.194771 33.882614 -0.109703 2.173058 0.131776 -0.014031 187355.000000 0 0 1
-26.649306 2.198100 -18.954671 32.776466 -0.082296 2.187441 0.110897 -0.020167 -2213.320000 0 0 1
-25.989306 2.552900 -17.572371 31.476174 -0.097915 2.163102 0.104365 -0.022134 -150416.000000 0 0 1
-25.157026 3.687400 -17.620971 30.934956 -0.145539 2.176832 0.094409 -0.021081 76197.000000 0 0 1
-24.406866 3.852000 -16.406771 29.659992 -0.156533 2.156951 0.105704 -0.029833 -731878.000000 0 0 1
-23.207966 4.747200 -16.555171 28.900160 -0.201767 2.180763 0.113661 -0.032271 -923545.000000 0 0 1
-22.119266 4.102400 -17.156871 28.292222 -0.183384 2.222342 0.128418 -0.037625 172025.000000 0 0 1
-20.973366 4.959900 -17.161471 27.549932 -0.232219 2.243269 0.119299 -0.038684 316109.000000 0 0 1
-19.682366 4.261800 -17.647471 26.776701 -0.213237 2.290365 0.169560 -0.047611 -310468.000000 0 0 1
-19.356766 3.123000 -16.878071 25.870964 -0.159961 2.281536 0.213389 -0.047134 134676.000000 0 0 1
-18.289966 2.376500 -17.418771 25.368961 -0.129211 2.327622 0.163520 -0.044075 -754132.000000 0 0 1
-18.061566 1.052300 -16.659571 24.594080 -0.058196 2.314993 0.189511 -0.045949 158048.000000 0 1 0
-18.904466 -0.052600 -16.975671 25.407774 0.002782 2.302488 0.130585 -0.041054 21361.200000 0 0 1
-20.248166 0.128900 -16.613371 26.191772 -0.006366 2.257896 0.140947 -0.044995 -1027330.000000 0 0 1
-21.158166 -1.009100 -17.047371 27.190055 0.047657 2.248455 0.125741 -0.047235 -829767.000000 0 0 1
-21.145866 -2.244400 -16.438171 26.877471 0.105743 2.228873 0.121033 -0.039311 -136761.000000 0 0 1
-22.110466 -3.008500 -17.062571 28.090124 0.135236 2.223608 0.113630 -0.030919 -605516.000000 0 0 1
-22.523366 -4.211100 -16.203671 28.064111 0.184832 2.186313 0.127289 -0.031277 106980.000000 0 0 1
-23.264366 -3.850300 -15.012471 27.954066 0.164015 2.137721 0.121656 -0.033160 495326.000000 0 0 1
-23.573866 -5.023300 -14.297271 28.024501 0.209948 2.106179 0.134898 -0.038219 10875.600000 0 0 1
-23.583466 -4.690800 -12.808371 27.244042 0.196340 2.060240 0.124345 -0.037962 85727.300000 0 0 1
-24.583966 -3.697900 -12.586671 27.865213 0.149300 2.039464 0.107869 -0.036467 690866.000000 0 0 1
-24.615866 -3.201400 -11.282471 27.266902 0.129328 1.997397 0.122524 -0.046625 -149700.000000 0 0 1
-25.401006 -1.861500 -11.204271 27.824665 0.073154 1.985233 0.152400 -0.044256 -56787.100000 0 0 1
-25.705046 -1.451700 -9.871271 27.573516 0.056415 1.936919 0.150905 -0.054395 415387.000000 0 0 1
-26.379246 -0.223000 -9.901171 28.177074 0.008453 1.929853 0.170311 -0.055543 -296028.000000 0 0 1
-26.548916 0.281200 -8.438171 27.859051 -0.010591 1.878518 0.194457 -0.051480 384309.000000 0 0 1
-25.299696 0.691300 -7.871171 26.504864 -0.027318 1.872315 0.177997 -0.044822 738463.000000 0 0 1
-25.346236 0.842900 -6.472771 26.173248 -0.033243 1.820694 0.169133 -0.050242 277027.000000 0 0 1
-24.049466 1.411800 -5.805571 24.780530 -0.058637 1.807274 0.118592 -0.041954 296606.000000 0 1 0
-23.866766 2.797600 -5.965471 24.759562 -0.116685 1.814127 0.166668 -0.036199 -340186.000000 0 1 0
-22.538066 3.134400 -5.710771 23.460643 -0.138185 1.816686 0.158741 -0.019839 -511233.000000 0 1 0
-22.350066 4.670300 -5.472871 23.479554 -0.205997 1.806051 0.173103 -0.026784 -252982.000000 0 1 0
-22.867266 5.216800 -4.288971 23.843702 -0.224295 1.751659 0.179642 -0.021507 439472.000000 0 1 0
-22.804966 6.652600 -4.369971 24.154093 -0.283841 1.752719 0.196915 -0.021803 -521316.000000 0 1 0
-23.180266 7.555500 -3.185171 24.587713 -0.315087 1.700705 0.192703 -0.024510 -161828.000000 0 1 0
-22.318766 7.525500 -2.055171 23.642847 -0.325211 1.657832 0.150786 -0.023509 1394950.000000 0 1 0
-20.912466 7.805200 -2.062371 22.416640 -0.357220 1.662928 0.157700 -0.021207 521339.000000 0 1 0
-20.616066 9.301500 -2.352471 22.739266 -0.423833 1.674436 0.144023 -0.027742 -892268.000000 0 1 0
-20.621566 9.686800 -3.667371 23.076670 -0.439149 1.730394 0.128332 -0.027172 534863.000000 0 1 0
-20.326166 11.083400 -3.792071 23.460064 -0.499210 1.733148 0.137838 -0.018902 -333747.000000 0 1 0
-20.225166 11.470700 -5.289571 23.845626 -0.515915 1.794483 0.129985 -0.023537 -109157.000000 0 1 0
-19.103966 10.987200 -6.005371 22.841729 -0.521929 1.836836 0.097674 -0.018037 167869.000000 0 1 0
-19.088666 11.449200 -7.353571 23.442192 -0.540265 1.889873 0.095702 -0.014610 -265406.000000 0 1 0
-17.717066 11.539100 -8.067971 22.630453 -0.577288 1.935326 0.069515 -0.000208 -223394.000000 0 1 0
-17.039866 10.323800 -8.285771 21.577578 -0.544718 1.964920 0.030057 0.001304 138135.000000 0 1 0
-17.647366 9.333300 -9.079871 21.931349 -0.486482 1.997655 0.051105 -0.012750 -666800.000000 0 1 0
-17.830166 9.619300 -10.580771 22.856038 -0.494743 2.052095 0.056092 -0.016911 102056.000000 0 1 0
-16.629066 9.720800 -11.317271 22.340555 -0.528994 2.102009 0.046619 -0.018081 48704.600000 0 1 0
-16.899866 10.289700 -12.568571 23.440400 -0.546911 2.136716 0.075983 -0.028902 -63435.000000 0 1 0
-15.929266 9.958900 -13.716471 23.260756 -0.558740 2.201463 0.047396 -0.011019 -335841.000000 0 1 0
-16.170966 8.758100 -14.401971 23.358536 -0.496367 2.235164 0.083011 -0.026517 186704.000000 0 1 0
-15.638566 7.623100 -13.701671 22.145252 -0.453561 2.237906 0.053686 -0.019155 -190779.000000 0 1 0
-15.679966 6.283400 -14.439971 22.222853 -0.381134 2.278092 0.066756 -0.024334 -266282.000000 0 1 0
-14.739766 6.200100 -15.488171 22.261747 -0.398170 2.340232 0.088218 -0.022628 475733.000000 0 1 0
-14.934166 4.925300 -16.101271 22.506417 -0.318568 2.368004 0.097752 -0.028574 204770.000000 0 1 0
34.035187 -15.866200 27.588456 46.596707 -0.436220 0.937173 0.101188 -0.025078 -217280.000000 0 0 1
33.222417 -14.722300 27.786216 45.744386 -0.417137 0.917983 0.101568 -0.026489 84805.100000 0 0 1
32.255687 -14.857700 28.818116 45.734717 -0.431653 0.889095 0.100426 -0.027834 60218.300000 0 0 1
32.670297 -14.742300 30.306596 46.937974 -0.423889 0.868892 0.090032 -0.041397 -536980.000000 0 0 1
33.151507 -13.513800 30.578896 47.081993 -0.387073 0.863894 0.080767 -0.038732 -148862.000000 0 0 1
33.222597 -13.245900 31.947841 47.956849 -0.379386 0.841723 0.065621 -0.036184 -492864.000000 0 0 1
33.615097 -11.773000 32.272557 48.063460 -0.336879 0.834623 0.067946 -0.034613 -70716.000000 0 0 1
33.248397 -11.459600 33.569906 48.618072 -0.331915 0.808641 0.058985 -0.042371 13259.400000 0 0 1
33.790047 -10.231500 -33.417481 48.612538 -0.294020 2.328734 0.068132 -0.030090 -112056.000000 0 0 1
33.318597 -9.812500 -32.010471 47.234355 -0.286408 2.315419 0.082710 -0.028831 -812785.000000 0 0 1
31.958507 -9.710800 -31.818861 46.131179 -0.294991 2.331936 0.110721 -0.038372 -960821.000000 0 0 1
31.570977 -9.296600 -30.527521 44.889674 -0.286373 2.318636 0.093257 -0.027268 -543994.000000 0 0 1
30.196857 -9.801400 -30.110131 43.755429 -0.313855 2.329727 0.085273 -0.013115 -619908.000000 0 0 1
29.978057 -9.581500 -28.775911 42.644367 -0.309356 2.311474 0.082857 -0.017049 187769.000000 0 0 1
29.059957 -10.542100 -28.303771 41.913248 -0.348006 2.312160 0.115419 -0.015414 -1202510.000000 0 0 1
28.547257 -10.271400 -26.875031 40.530418 -0.345382 2.295726 0.102659 -0.012843 -981553.000000 0 0 1
27.808257 -9.053600 -26.751491 39.634695 -0.314749 2.311695 0.083838 -0.021648 474486.000000 0 0 1
26.647457 -8.825900 -27.527941 39.316294 -0.319838 2.346427 0.081224 -0.030008 -118757.000000 0 0 1
25.451257 -9.770400 -27.175181 38.493085 -0.366539 2.354596 0.083599 -0.006892 -537746.000000 0 0 1
25.663457 -11.096300 -27.567901 39.264870 -0.408103 2.349140 0.072074 -0.014727 -401908.000000 0 0 1
24.446557 -11.774900 -27.490801 38.626759 -0.448867 2.362717 0.079817 -0.031062 -301869.000000 0 0 1
24.593557 -13.275100 -27.943821 39.521240 -0.494963 2.356126 0.061328 0.003469 90538.100000 0 0 1
24.992457 -13.369700 -29.297121 40.763869 -0.491215 2.372732 0.069803 -0.005733 260122.000000 0 0 1
26.262657 -13.855500 -29.691671 41.991634 -0.485463 2.356164 0.055454 0.001783 -58245.100000 0 0 1
26.382257 -13.994900 -31.194871 43.185653 -0.487723 2.377981 0.079619 -0.015571 134182.000000 0 0 1
25.362357 -14.770200 -31.840231 43.303675 -0.527353 2.396873 0.095664 -0.011179 386900.000000 0 0 1
25.633057 -15.172300 -33.193881 44.599170 -0.534445 2.410239 0.101804 -0.014849 -54665.400000 0 0 1
25.792557 -13.992400 33.151257 44.272441 -0.497065 0.724545 0.088113 -0.031407 625075.000000 0 0 1
24.607457 -13.198700 32.948054 43.189198 -0.492318 0.703045 0.105404 -0.026942 620960.000000 0 0 1
24.776957 -12.214400 31.903893 42.201274 -0.458011 0.713626 0.095545 -0.029300 120633.000000 0 0 1
23.700857 -11.059500 31.973598 41.308039 -0.436596 0.685617 0.110689 -0.039121 611880.000000 0 0 1
22.335757 -11.419000 31.912025 40.591340 -0.472602 0.666196 0.095416 -0.033978 381888.000000 0 0 1
21.850457 -11.828300 30.625696 39.437094 -0.496162 0.681592 0.084538 -0.031201 -354806.000000 0 0 1
20.328857 -12.123400 30.688456 38.755910 -0.537742 0.656981 0.076621 -0.020203 407127.000000 0 0 1
19.527057 -10.939700 30.771536 38.050892 -0.510666 0.628867 0.082392 -0.028892 44499.100000 0 0 1
18.469957 -11.161900 31.691698 38.341766 -0.543595 0.597831 0.058753 -0.017806 -101248.000000 0 0 1
17.704957 -9.873100 31.919025 37.812270 -0.508695 0.565829 0.066721 -0.025375 151250.000000 0 0 1
16.900157 -9.411900 30.740926 36.320843 -0.508134 0.561661 0.115696 -0.031676 1753930.000000 0 0 1
15.985657 -8.310400 31.085256 35.929056 -0.479414 0.525279 0.116186 -0.028224 1591170.000000 0 0 1
14.823357 -8.445200 32.149483 36.395639 -0.517859 0.487870 0.121434 -0.032033 -169594.000000 0 0 1
13.973357 -9.537900 31.817232 36.035572 -0.598937 0.488709 0.120017 -0.026618 179583.000000 0 0 1
12.808157 -9.649400 32.599704 36.330435 -0.645660 0.457157 0.111790 -0.029805 287676.000000 0 0 1
11.610857 -8.765100 32.134138 35.273812 -0.646633 0.425115 0.161924 -0.034254 -665292.000000 0 0 1
11.727057 -7.348800 32.365486 35.200190 -0.559787 0.404068 0.154991 -0.042482 252565.000000 0 0 1
10.631757 -6.667800 31.773668 34.162256 -0.560150 0.376163 0.173221 -0.041512 84275.000000 0 0 1
10.806857 -5.161300 31.692545 33.879855 -0.445563 0.361297 0.147711 -0.046349 -122277.000000 0 0 1
11.018157 -4.479400 32.889397 34.973951 -0.386138 0.347001 0.120683 -0.051902 377611.000000 0 0 1
11.311457 -3.065200 32.672823 34.711062 -0.264627 0.344395 0.081261 -0.048161 14959.800000 0 0 1
11.361357 -2.276100 -33.344561 35.300436 -0.197720 2.807150 0.074268 -0.042044 33942.400000 0 0 1
10.036757 -2.131400 -32.878691 34.442527 -0.209251 2.839096 0.081839 -0.029828 28898.800000 0 0 1
9.986357 -1.347800 -31.708411 33.271116 -0.134153 2.833888 0.091715 -0.027260 400971.000000 0 0 1
8.490457 -1.051700 -31.428591 32.572231 -0.123241 2.875817 0.096296 -0.019528 540227.000000 0 0 1
7.757257 -0.233900 -32.335791 33.254069 -0.030143 2.906042 0.093193 -0.023488 -1240800.000000 0 0 1
6.419657 -0.185700 -32.063791 32.700660 -0.028919 2.943910 0.109175 -0.019452 -1102290.000000 0 0 1
5.661557 0.725400 -33.056621 33.545784 0.127433 2.970610 0.139061 -0.028773 -132988.000000 0 0 1
6.186757 2.019100 -33.016161 33.651443 0.315460 2.946975 0.114057 -0.024221 -141354.000000 0 0 1
5.625357 2.865500 33.336166 33.928685 0.471131 0.187162 0.133376 -0.025266 -24516.000000 0 0 1
6.409057 4.186800 33.176278 34.048065 0.578666 0.226780 0.106096 -0.024036 159079.000000 0 0 1
5.839057 4.955500 32.189317 33.087818 0.703728 0.233576 0.137430 -0.038944 -322542.000000 0 0 1
6.688757 6.044200 32.006829 33.252202 0.734820 0.274549 0.125339 -0.039633 -122727.000000 0 0 1
6.140357 7.237800 31.180276 32.592934 0.867247 0.295497 0.150076 -0.041196 -383989.000000 0 0 1
4.914557 7.728500 31.702339 32.998801 1.004397 0.281241 0.161044 -0.045380 192195.000000 0 0 1
4.581157 9.007600 31.245043 32.838644 1.100302 0.312813 0.166792 -0.053613 92078.300000 0 0 1
4.053057 9.014900 29.753236 31.352045 1.148279 0.320733 0.160756 -0.049226 -514386.000000 0 0 1
2.736357 8.570100 29.594166 30.931358 1.261737 0.295114 0.150732 -0.048597 -657434.000000 0 0 1
2.337757 8.477200 28.245956 29.583138 1.301714 0.301813 0.102156 -0.028894 -451030.000000 0 0 1
1.025957 7.738100 28.057036 29.122638 1.438980 0.271350 0.106762 -0.030334 -675836.000000 0 0 1
-0.075643 8.553200 28.280396 29.545621 -1.561953 0.293707 0.104580 -0.023639 -304063.000000 0 0 1
-1.156343 8.372500 27.367666 28.643062 -1.433553 0.299539 0.092719 -0.018778 1138600.000000 0 0 1
-2.615543 8.516700 27.895646 29.283823 -1.272832 0.309139 0.088789 -0.018332 393367.000000 0 0 1
-2.912543 9.831200 28.377496 30.173128 -1.282779 0.346730 0.094921 -0.015768 -1838820.000000 0 0 1
-4.211443 9.863000 28.748996 30.684194 -1.167238 0.357051 0.089999 -0.011400 -1912700.000000 0 0 1
-4.590243 11.063500 29.582376 31.915331 -1.177512 0.384725 0.082618 -0.010227 -165867.000000 0 0 1
-4.782243 12.376300 29.032906 31.921032 -1.202066 0.428662 0.077685 -0.017792 -418822.000000 0 0 1
-5.813643 12.512100 28.122086 31.324157 -1.135833 0.456102 0.074558 -0.021346 -535711.000000 0 0 1
-6.076743 14.005500 27.524486 31.475040 -1.161426 0.506421 0.070612 -0.018605 679754.000000 0 0 1
-4.969443 14.494600 26.750906 30.828554 -1.240507 0.520177 0.058047 -0.010884 418974.000000 0 0 1
-5.209043 15.809500 26.314846 31.137526 -1.252510 0.564013 0.062558 -0.006400 -65486.100000 0 0 1
-3.926443 16.422700 25.734096 30.779307 -1.336115 0.580690 0.069755 -0.012537 -38179.700000 0 0 1
-3.685143 15.988300 24.383926 29.390166 -1.344263 0.592293 0.052774 0.005604 391633.000000 0 0 1
-2.841643 16.938200 23.665186 29.240701 -1.404579 0.627797 0.060234 0.005958 590587.000000 0 0 1
-2.854443 16.722700 22.161066 27.908948 -1.401733 0.653355 0.065316 -0.000100 89446.400000 0 0 1
-2.267943 15.514700 21.705166 26.776178 -1.425644 0.625595 0.051914 -0.008928 2086.480000 0 0 1
-2.372643 15.446300 20.368666 25.672946 -1.418382 0.654438 0.045485 -0.010076 -94179.500000 0 0 1
-1.571043 14.293200 19.728266 24.412460 -1.461320 0.629838 0.037697 -0.015724 -159766.000000 0 1 0
-1.914043 12.894100 20.004566 23.876851 -1.423429 0.577514 0.043245 -0.012932 -151231.000000 0 1 0
-1.170243 11.992200 19.224466 22.688376 -1.473521 0.559865 0.040832 -0.012824 -412957.000000 0 1 0
-1.852943 10.631600 18.939466 21.798341 -1.398243 0.517924 0.028431 -0.019406 -623707.000000 0 1 0
-2.137443 9.766800 20.069566 22.422010 -1.355345 0.462178 0.042127 -0.024741 -12427.600000 0 1 0
-3.067943 10.164900 21.053966 23.579800 -1.277673 0.467092 0.067168 -0.021904 317858.000000 0 1 0
-4.549843 10.265700 20.579266 23.443375 -1.153605 0.499487 0.066020 -0.019171 158795.000000 0 1 0
-5.288743 9.048600 20.447266 22.976916 -1.041865 0.473660 0.060063 -0.027578 -95142.700000 0 1 0
-6.657243 9.285500 20.655166 23.604560 -0.948785 0.505258 0.066910 -0.017877 402394.000000 0 1 0
-7.616843 8.034200 20.607266 23.392821 -0.812058 0.492988 0.073029 -0.021404 522295.000000 0 1 0
-7.468643 7.280400 21.810666 24.176228 -0.772636 0.446061 0.066866 -0.031390 -161212.000000 0 1 0
-8.167843 6.085400 21.728266 23.997152 -0.640322 0.438353 0.060984 -0.029372 -47833.000000 0 1 0
-8.005943 5.083400 22.940036 24.823000 -0.565725 0.392006 0.060083 -0.032723 -33475.300000 0 1 0
-8.691543 5.651100 24.029256 26.170269 -0.576504 0.407312 0.052240 -0.023289 106853.000000 0 0 1
-8.770943 4.732900 25.073046 26.981242 -0.494832 0.378346 0.062530 -0.016249 35907.600000 0 0 1
-9.678143 5.106800 26.281326 28.468473 -0.485532 0.394541 0.072620 -0.014834 265326.000000 0 0 1
-9.164843 6.245100 26.998486 29.187563 -0.598146 0.389762 0.062491 -0.013446 227776.000000 0 0 1
-10.075843 6.556600 28.037436 30.505892 -0.576885 0.405050 0.077991 -0.019213 142148.000000 0 0 1
-9.701443 7.764100 28.912226 31.469287 -0.674926 0.405908 0.083327 -0.017220 -413809.000000 0 0 1
-8.547943 7.484900 29.636756 31.740012 -0.719191 0.366088 0.087280 -0.017702 -369526.000000 0 0 1
-8.214743 8.602800 30.449946 32.690815 -0.808469 0.372411 0.093597 -0.023909 95820.300000 0 0 1
-7.223543 8.155700 31.571599 33.398516 -0.845935 0.332285 0.114976 -0.024108 -169859.000000 0 0 1
-5.902643 8.051900 31.103766 32.666780 -0.938216 0.310592 0.094536 -0.026931 -484750.000000 0 0 1
-5.118543 7.456900 32.130263 33.379015 -0.969245 0.274397 0.119733 -0.026817 17258.700000 0 0 1
-3.603043 7.355200 31.884703 32.919829 -1.115291 0.251436 0.098983 -0.027374 113285.000000 0 0 1
-3.020343 8.641800 31.811107 33.102110 -1.234563 0.280203 0.089439 -0.030019 583217.000000 0 0 1
-1.584843 8.668100 31.876766 33.072283 -1.389957 0.269698 0.100953 -0.032942 876386.000000 0 0 1
-0.931943 9.970300 31.375801 32.935031 -1.477595 0.308937 0.104887 -0.031984 -47893.300000 0 0 1
-1.181443 11.185300 32.154732 34.065137 -1.465562 0.336491 0.107722 -0.043384 5936.880000 0 0 1
-1.351143 12.264400 31.288463 33.633451 -1.461071 0.375626 0.086438 -0.041882 -17428.300000 0 0 1
-1.621543 13.615000 32.011619 34.824436 -1.452255 0.404680 0.081863 -0.051534 124397.000000 0 0 1
-0.421343 14.083000 32.579867 35.495861 -1.540887 0.408167 0.130979 -0.054800 -167723.000000 0 0 1
-0.716443 14.876700 -33.654921 36.803304 -1.522675 2.724952 0.121304 -0.055518 821673.000000 0 0 1
0.604457 15.251600 -32.888111 36.257475 1.531185 2.707070 0.117698 -0.055837 30368.600000 0 0 1
1.439557 16.041000 -33.612031 37.271365 1.481294 2.694757 0.125408 -0.055875 -1461000.000000 0 0 1
2.660857 16.196700 -32.985081 36.843301 1.407967 2.679856 0.142358 -0.054386 -598713.000000 0 0 1
3.532857 17.243400 33.597386 37.928884 1.368711 0.482582 0.145519 -0.043076 5676.630000 0 0 1
3.055057 18.555500 33.583256 38.489934 1.407616 0.510459 0.129190 -0.034989 -483531.000000 0 0 1
4.105757 19.373800 33.137595 38.604424 1.361963 0.538676 0.106385 -0.019483 34068.400000 0 0 1
4.033457 20.911400 33.381396 39.596376 1.380253 0.567883 0.098475 -0.024004 -28004.600000 0 0 1
3.924457 21.378000 -32.641141 39.215613 1.389243 2.554132 0.113526 -0.044122 127316.000000 0 0 1
3.748557 22.789400 -32.789861 40.107149 1.407769 2.527951 0.102741 -0.032852 34331.700000 0 0 1
3.794757 23.517800 -31.421661 39.431052 1.410818 2.492903 0.120575 -0.032312 -143710.000000 0 0 1
3.351357 24.854300 -31.492951 40.258835 1.436765 2.469085 0.124764 -0.040713 129681.000000 0 0 1
3.218357 25.422000 -30.203641 39.609290 1.444869 2.438026 0.136882 -0.046004 -122241.000000 0 0 1
2.676457 26.847500 -30.136101 40.449181 1.471434 2.411385 0.137386 -0.045838 214830.000000 0 0 1
3.704057 27.810100 -30.307081 41.299405 1.438385 2.394751 0.143727 -0.045193 261284.000000 0 0 1
3.315857 29.028200 -29.735961 41.687632 1.457060 2.364998 0.134944 -0.039493 -530967.000000 0 0 1
4.458657 30.030000 -29.556691 42.370727 1.423400 2.342801 0.150110 -0.052522 338282.000000 0 0 1
5.422757 29.579700 -28.576781 41.484905 1.389483 2.330695 0.161003 -0.065832 430909.000000 0 0 1
6.217057 30.671800 -28.129811 42.079655 1.370810 2.302972 0.186687 -0.072765 -979528.000000 0 0 1
7.386957 30.256400 -27.249341 41.382888 1.331336 2.289579 0.206708 -0.080865 282380.000000 0 0 1
8.481957 29.717000 -28.049301 41.734961 1.292765 2.307813 0.207660 -0.073116 1122190.000000 0 0 1
9.674957 30.466200 -28.207441 42.631606 1.263305 2.293821 0.215893 -0.073289 182176.000000 0 0 1
9.584957 31.847200 -28.891581 44.054954 1.278453 2.286048 0.224886 -0.072562 -1003730.000000 0 0 1
8.952557 32.848000 -28.096041 44.142122 1.304714 2.260736 0.222106 -0.073628 228342.000000 0 0 1
9.028657 -33.589014 -28.818991 45.169378 -1.308205 2.262721 0.210355 -0.071855 858679.000000 0 0 1
7.823457 -33.357214 -29.853901 45.444093 -1.340424 2.287545 0.167638 -0.048799 647770.000000 0 0 1
7.606657 33.317200 -30.879421 46.059046 1.346333 2.305586 0.152231 -0.041938 97321.200000 0 0 1
6.285657 33.312800 -31.386881 46.199442 1.384303 2.317711 0.142169 -0.030600 36659.000000 0 0 1
6.031657 32.474700 -32.666931 46.455521 1.387155 2.350667 0.150204 -0.050147 160478.000000 0 0 1
6.492357 33.223600 33.560836 47.668522 1.377814 0.789717 0.161444 -0.046590 396207.000000 0 0 1
6.044957 32.478100 32.448871 46.306562 1.386778 0.794362 0.167352 -0.046805 -30964.300000 0 0 1
6.214757 33.304600 31.168936 46.036096 1.386315 0.827044 0.138407 -0.050006 174440.000000 0 0 1
7.558057 33.345700 30.728056 45.970353 1.347905 0.838698 0.139299 -0.047938 308070.000000 0 0 1
7.629857 33.727000 29.378536 45.374262 1.348317 0.866535 0.110221 -0.060258 -257050.000000 0 0 1
19.010734 -22.065600 28.862836 41.004414 -0.859632 0.789929 0.089034 -0.009082 -1091770.000000 0 0 1
18.313134 -20.870100 29.072536 40.201297 -0.850562 0.762409 0.099394 -0.007509 672431.000000 0 0 1
16.906434 -21.111500 29.232346 39.825281 -0.895558 0.746581 0.097367 -0.008172 750081.000000 0 0 1
16.504634 -21.580800 30.644206 40.953647 -0.917901 0.725353 0.086431 -0.014455 -915119.000000 0 0 1
17.138834 -22.762500 31.075366 42.160994 -0.925415 0.742080 0.107825 -0.015289 47703.200000 0 0 1
16.961034 -22.891100 32.500789 43.220139 -0.933116 0.719732 0.101043 -0.014697 -233625.000000 0 0 1
17.919734 -23.889600 33.134621 44.606423 -0.927227 0.733521 0.095442 -0.024480 -454983.000000 0 0 1
17.698334 -25.255330 32.806308 45.025732 -0.959550 0.754502 0.114666 -0.028844 -169300.000000 0 0 1
18.517134 -26.180110 33.476766 46.357052 -0.955189 0.763890 0.110758 -0.033687 -255286.000000 0 0 1
18.034834 -27.628810 33.250296 46.842166 -0.992487 0.781530 0.102551 -0.026226 -57777.400000 0 0 1
18.354034 -28.185600 32.024152 46.441844 -0.993589 0.809924 0.097324 -0.030889 -5757.640000 0 0 1
17.897134 -29.499900 32.023905 47.075280 -1.025476 0.822665 0.101048 -0.035814 -180852.000000 0 0 1
18.395834 -30.431550 30.880346 47.096515 -1.027075 0.855711 0.108562 -0.032802 -201611.000000 0 0 1
19.674534 -30.949440 31.116716 48.095791 -1.004540 0.867187 0.103500 -0.037791 -162842.000000 0 0 1
20.342734 -31.278380 29.878256 47.800356 -0.994156 0.895584 0.080921 -0.031551 -618930.000000 0 0 1
21.765934 -31.788650 30.001196 48.829764 -0.970408 0.909166 0.074722 -0.029844 -894356.000000 0 0 1
22.686334 -30.787790 30.298606 48.791016 -0.935757 0.900795 0.067791 -0.031311 -220369.000000 0 0 1
23.994234 -31.185790 29.919696 49.431417 -0.914997 0.920683 0.069989 -0.030597 334824.000000 0 0 1
25.015434 -30.020430 30.200396 49.386861 -0.876089 0.912833 0.061851 -0.028581 -364786.000000 0 0 1
26.279534 -30.254420 29.688146 49.873137 -0.855592 0.933191 0.059688 -0.032007 -406869.000000 0 0 1
27.063034 -29.026590 29.659516 49.544299 -0.820391 0.928986 0.057125 -0.032509 487318.000000 0 0 1
28.325534 -29.174700 28.778826 49.816863 -0.800165 0.954897 0.067298 -0.027620 507311.000000 0 0 1
29.336734 -30.029450 29.333426 51.213882 -0.797066 0.960924 0.072300 -0.018700 31840.400000 0 0 1
30.526434 -29.990900 28.608886 51.476068 -0.776549 0.981507 0.071707 -0.035395 -420753.000000 0 0 1
31.537034 -31.061820 29.024466 52.932417 -0.777807 0.990430 0.079513 -0.027561 -210834.000000 0 0 1
31.170334 -32.366980 28.607236 53.268988 -0.804230 1.003880 0.053725 -0.014276 507516.000000 0 0 1
32.073834 -33.392380 29.087886 54.679859 -0.805536 1.009874 0.080368 -0.012550 55114.000000 0 0 1
31.293534 32.976409 29.542006 54.216777 0.811577 0.994542 0.067231 -0.000394 -289616.000000 0 0 1
30.538934 33.131344 30.757456 54.555783 0.826092 0.971841 0.072251 -0.002092 -300165.000000 0 0 1
29.422834 -33.711810 30.892746 54.374176 -0.853228 0.966539 0.063034 -0.002792 -114381.000000 0 0 1
28.286134 33.599841 29.841826 53.099804 0.871051 0.974001 0.067305 -0.001438 -615648.000000 0 0 1
27.602934 32.395557 30.001136 52.071703 0.865108 0.956785 0.054441 0.008905 856104.000000 0 0 1
26.334334 32.444269 29.290946 51.030258 0.888974 0.959424 0.057247 0.005624 1203300.000000 0 0 1
25.463534 31.198265 29.385416 49.852041 0.886265 0.940415 0.078277 -0.015105 -153669.000000 0 0 1
25.958634 30.116725 28.641176 49.001885 0.859415 0.946543 0.088232 -0.011635 -8750.720000 0 0 1
25.084434 29.049465 28.872046 48.028067 0.858512 0.925858 0.124277 -0.027968 -142019.000000 0 0 1
24.616934 28.524975 27.498016 46.645562 0.858806 0.940344 0.123332 -0.030166 -422479.000000 0 0 1
23.649134 29.400005 26.986566 46.388755 0.893383 0.949920 0.154919 -0.037301 -289567.000000 0 0 1
23.229434 28.987375 25.708446 45.175200 0.895224 0.965406 0.147830 -0.039776 -947388.000000 0 0 1
21.861534 29.479875 25.317846 44.586803 0.932709 0.966926 0.154673 -0.045507 -935784.000000 0 0 1
21.690234 30.886035 25.333416 45.455421 0.958551 0.979636 0.162466 -0.048173 -391615.000000 0 0 1
20.405034 31.180795 24.851926 44.790910 0.991327 0.982622 0.125008 -0.041073 -334000.000000 0 0 1
20.284134 32.637577 24.386466 45.512166 1.014720 1.005314 0.137320 -0.035810 86029.900000 0 0 1
20.887234 32.936229 23.107256 45.332295 1.005629 1.035925 0.147126 -0.034248 -125990.000000 0 0 1
22.229734 33.320933 23.198666 46.288484 0.982466 1.045839 0.148171 -0.029114 -410040.000000 0 0 1
22.784934 33.524205 21.748866 46.000420 0.973855 1.078334 0.156199 -0.034746 141870.000000 0 0 1
22.125434 -33.063160 21.054366 45.011040 -0.981051 1.084042 0.128164 -0.025489 218870.000000 0 0 1
22.822834 -32.746910 19.884366 44.594056 -0.962123 1.108620 0.144122 -0.031862 -200753.000000 0 0 1
22.512034 -31.430800 19.150366 43.144216 -0.949253 1.110885 0.129065 -0.027451 -426394.000000 0 0 1
22.940334 -30.310540 19.869266 42.892604 -0.922930 1.089157 0.123562 -0.021947 163686.000000 0 0 1
22.730734 -29.008000 19.236966 41.571759 -0.906134 1.089711 0.112972 -0.025803 71054.300000 0 0 1
23.635634 -28.613180 18.021766 41.257015 -0.880378 1.118739 0.097888 -0.022920 20515.900000 0 0 1
23.324034 -29.412800 16.892266 41.163965 -0.900345 1.147942 0.091266 -0.030213 404409.000000 0 0 1
23.879734 -28.778600 15.717466 40.564618 -0.878162 1.172914 0.086254 -0.026214 -54505.500000 0 0 1
23.461034 -29.338390 14.327466 40.204944 -0.896257 1.206426 0.067084 -0.030796 -258318.000000 0 0 1
23.916934 -30.670830 14.188666 41.400939 -0.908498 1.220992 0.109413 -0.031146 47409.200000 0 0 1
23.854034 -31.179070 12.827966 41.300194 -0.917723 1.254969 0.096955 -0.032100 183311.000000 0 0 1
22.533734 -31.220120 11.978966 40.323203 -0.945609 1.269170 0.096557 -0.030784 577818.000000 0 0 1
21.574234 -32.138540 12.516666 40.681694 -0.979601 1.258050 0.104510 -0.037984 1030740.000000 0 0 1
20.453534 -32.323350 11.596866 39.970405 -1.006623 1.276427 0.087810 -0.026248 995983.000000 0 0 1
19.381834 -33.288900 12.136366 40.386851 -1.043545 1.265576 0.078555 -0.019672 -77769.500000 0 0 1
18.821434 -32.880250 13.394266 40.184121 -1.050900 1.230971 0.074303 -0.017609 675441.000000 0 0 1
19.621934 -33.283250 14.539566 41.281884 -1.038101 1.210873 0.066065 -0.020787 -475941.000000 0 0 1
19.688334 -32.206380 15.639466 40.859201 -1.022096 1.178009 0.072076 -0.027582 807796.000000 0 0 1
18.393034 -31.750650 16.097466 40.069139 -1.045739 1.157378 0.091032 -0.037530 1411530.000000 0 0 1
17.480334 -32.669910 16.735366 40.656581 -1.079496 1.146557 0.080632 -0.019187 -191033.000000 0 0 1
18.001434 -33.327360 18.037466 41.953721 -1.075555 1.126373 0.057899 -0.015566 55215.900000 0 0 1
18.689834 33.049025 17.825066 41.943783 1.056117 1.131862 0.065221 -0.014810 457858.000000 0 0 1
19.270734 32.641043 19.078166 42.435543 1.037478 1.104501 0.068008 -0.021750 240327.000000 0 0 1
19.982934 31.290335 18.929166 41.673925 1.002456 1.099299 0.098048 -0.026152 -504243.000000 0 0 1
19.070234 30.241565 18.810066 40.398572 1.008182 1.086470 0.063588 -0.016569 -43790.200000 0 0 1
19.714934 29.049115 18.318466 39.599190 0.974526 1.089874 0.072232 -0.028057 305362.000000 0 0 1
18.782034 27.809235 18.170166 38.161149 0.976780 1.074533 0.078415 -0.024831 51899.300000 0 0 1
18.497034 27.194285 19.405966 38.187182 0.973496 1.037726 0.094155 -0.041567 -103228.000000 0 0 1
18.054734 25.881555 19.164866 36.920460 0.961689 1.025016 0.088811 -0.043922 -551617.000000 0 0 1
17.919134 24.941615 20.424766 36.882931 0.947799 0.983908 0.107378 -0.044289 -233072.000000 0 0 1
16.665234 24.888875 21.036466 36.602172 0.980776 0.958519 0.108401 -0.044538 -603051.000000 0 0 1
15.746934 24.027575 20.416366 35.243698 0.990656 0.952937 0.091824 -0.044631 -233950.000000 0 0 1
14.349834 24.116995 21.087366 35.103051 1.034055 0.926386 0.112130 -0.055843 17494.700000 0 0 1
13.765634 25.342435 20.817866 35.568458 1.073200 0.945559 0.103344 -0.043588 -700943.000000 0 0 1
12.595834 25.635705 21.506966 35.754636 1.114101 0.925400 0.105258 -0.043142 -545571.000000 0 0 1
11.722834 26.724765 20.883466 35.885332 1.157421 0.949672 0.079402 -0.037253 -258863.000000 0 0 1
12.260534 28.030935 21.033166 37.127457 1.158476 0.968529 0.067450 -0.031208 -82464.400000 0 0 1
11.748734 28.859485 20.040066 37.047359 1.184183 0.999253 0.061164 -0.030977 -365479.000000 0 0 1
12.172934 30.349425 20.044966 38.354511 1.189348 1.020871 0.037181 -0.025266 -47287.600000 0 0 1
11.735834 31.196915 21.147766 39.474109 1.210987 1.005415 0.047915 -0.019483 -308123.000000 0 0 1
12.342834 30.864985 22.391626 40.079642 1.190378 0.978005 0.049510 -0.013467 -118423.000000 0 0 1
11.898434 31.746189 23.563026 41.286916 1.212202 0.963421 0.040067 -0.016913 -1042010.000000 0 0 1
10.563134 31.572385 23.837606 40.946633 1.247934 0.949410 0.056545 -0.017826 -1279370.000000 0 0 1
10.374634 31.962877 25.158216 41.978498 1.256941 0.928155 0.060117 -0.024074 74560.100000 0 0 1
8.962134 31.786594 25.820036 41.921136 1.295983 0.907244 0.155510 -0.043239 -45279.000000 0 0 1
7.907134 32.592342 25.383426 42.060692 1.332788 0.922919 0.134069 -0.033888 317173.000000 0 0 1
7.287034 32.264668 24.108116 40.930562 1.348671 0.940975 0.131269 -0.053695 -507280.000000 0 0 1
6.250134 31.189655 24.130786 39.926853 1.373025 0.921815 0.121987 -0.044060 -856621.000000 0 0 1
6.935434 29.980555 24.377106 39.257830 1.343464 0.900844 0.101858 -0.045566 -242473.000000 0 0 1
6.122734 28.846475 24.294976 38.208020 1.361648 0.881673 0.100139 -0.037179 -491689.000000 0 0 1
6.994434 27.609955 24.684316 37.690147 1.322686 0.856710 0.092814 -0.038979 739558.000000 0 0 1
7.905434 27.197215 23.614926 36.876132 1.287920 0.875797 0.088789 -0.041024 1284510.000000 0 0 1
9.078934 28.010695 23.470296 37.654759 1.257357 0.897838 0.112227 -0.049895 30444.700000 0 0 1
10.305634 27.655835 24.345816 38.259248 1.214097 0.881054 0.104320 -0.053028 -511385.000000 0 0 1
10.143634 27.924605 25.749146 39.315332 1.222366 0.856694 0.109326 -0.046943 -214136.000000 0 0 1
11.236734 27.549745 26.530606 39.863839 1.183523 0.842592 0.086822 -0.031501 162310.000000 0 0 1
12.412534 28.565815 26.660576 40.998330 1.160886 0.862838 0.086759 -0.027702 291751.000000 0 0 1
11.948534 29.682385 27.383276 42.114786 1.188097 0.862941 0.091147 -0.034675 428694.000000 0 0 1
13.026734 30.572655 27.558456 43.172346 1.168002 0.878462 0.083114 -0.023467 -75240.000000 0 0 1
12.582034 31.710101 28.478536 44.439454 1.193066 0.875206 0.066012 -0.026684 -39134.700000 0 0 1
12.348734 31.478385 29.855066 45.107703 1.196952 0.847497 0.086789 -0.044649 369648.000000 0 0 1
10.970634 31.278265 30.117596 44.785648 1.233460 0.833237 0.130399 -0.047019 30796.300000 0 0 1
10.703134 31.115655 31.634130 45.644925 1.239495 0.805088 0.158846 -0.041495 24375.400000 0 0 1
10.897734 29.805985 32.140949 45.168550 1.220272 0.779055 0.136476 -0.042396 44706.800000 0 0 1
10.976234 29.780475 33.525976 46.166497 1.217673 0.758022 0.177095 -0.038720 -94032.500000 0 0 1
11.335734 28.360135 -33.286861 45.175338 1.190543 2.399176 0.165896 -0.038676 -385777.000000 0 0 1
12.519134 27.816545 33.552316 45.345857 1.147892 0.737845 0.170348 -0.041448 -522788.000000 0 0 1
12.650134 26.417885 -33.490461 44.492038 1.124214 2.422994 0.171731 -0.044884 279134.000000 0 0 1
14.007134 25.698305 33.565146 44.533377 1.071753 0.717111 0.162634 -0.049134 463189.000000 0 0 1
13.998734 24.321285 -33.498931 43.699746 1.048530 2.444280 0.140345 -0.047692 -234349.000000 0 0 1
14.200534 23.986545 -32.167521 42.564761 1.036265 2.427566 0.146790 -0.054292 -262995.000000 0 0 1
14.361634 22.436115 -31.937311 41.588792 1.001403 2.446401 0.130611 -0.071958 1057820.000000 0 0 1
15.638834 22.030415 -32.513371 42.273296 0.953474 2.448264 0.118669 -0.053935 1047910.000000 0 0 1
15.695834 20.627415 -32.549081 41.608798 0.920342 2.469089 0.119577 -0.054818 -1037460.000000 0 0 1
17.013934 20.233415 -33.132061 42.386300 0.871619 2.468134 0.143325 -0.063066 -1208790.000000 0 0 1
18.047134 20.481015 -32.221631 42.230374 0.848486 2.438733 0.125537 -0.059458 -1147260.000000 0 0 1
19.259534 20.052615 -32.733851 42.948131 0.805569 2.437457 0.130719 -0.059661 -751467.000000 0 0 1
20.461034 20.141115 -31.756691 42.811281 0.777519 2.406522 0.100665 -0.048228 -31632.700000 0 0 1
21.032534 21.437715 -31.782161 43.726981 0.794938 2.384494 0.085022 -0.040053 98768.700000 0 0 1
22.015934 21.553415 -30.745361 43.526179 0.774783 2.355146 0.057227 -0.021085 440800.000000 0 0 1
21.403734 21.826215 -29.321701 42.358772 0.795171 2.335361 0.062086 -0.031939 -138286.000000 0 0 1
20.793834 23.061175 -29.274441 42.675452 0.837053 2.326744 0.058218 -0.018780 -335690.000000 0 0 1
20.544834 23.444235 -27.951941 41.869241 0.851215 2.301778 0.067095 -0.018580 523293.000000 0 0 1
21.787734 24.050535 -27.154901 42.314563 0.834723 2.267560 0.056446 -0.016551 383218.000000 0 0 1
22.327034 25.223665 -27.765281 43.653643 0.846240 2.260146 0.072240 -0.015500 -506612.000000 0 0 1
21.579534 26.387465 -27.930331 44.069013 0.885299 2.257235 0.062575 -0.015232 -267714.000000 0 0 1
22.508234 27.480055 -28.632261 45.624339 0.884532 2.249219 0.066118 -0.014308 199254.000000 0 0 1
22.694234 27.475965 -30.034521 46.605035 0.880421 2.271097 0.064437 -0.009444 -48647.300000 0 0 1
23.151934 26.260025 -30.602771 46.498715 0.848217 2.289145 0.060964 -0.005604 540759.000000 0 0 1
24.577634 25.798725 -30.129151 46.662619 0.809633 2.272711 0.079553 -0.015842 252926.000000 0 0 1
25.640934 26.708785 -30.346361 47.871894 0.805794 2.257392 0.072466 -0.015219 349789.000000 0 0 1
26.893534 26.111325 -30.020011 48.023583 0.770642 2.246068 0.088424 -0.027583 -105649.000000 0 0 1
28.092634 26.961195 -30.405261 49.402247 0.764850 2.233770 0.067979 -0.013423 -553994.000000 0 0 1
28.291334 28.061805 -29.568391 49.620099 0.781325 2.209177 0.050997 -0.004013 555223.000000 0 0 1
29.434934 28.787945 -30.058461 50.977173 0.774286 2.201416 0.058281 -0.014808 761081.000000 0 0 1
29.675834 30.170005 -29.323331 51.485357 0.793655 2.176751 0.056283 -0.005388 -46402.700000 0 0 1
30.191434 30.069115 -28.023911 51.000136 0.783368 2.152546 0.089208 -0.010528 -35026.800000 0 0 1
29.157734 30.051135 -27.051361 49.849978 0.800486 2.144392 0.073339 -0.004798 143683.000000 0 0 1
29.571634 30.289175 -25.559761 49.449136 0.797384 2.114010 0.120397 -0.010748 -118216.000000 0 0 1
29.946634 29.177735 -24.721171 48.572393 0.772394 2.104767 0.111912 -0.004153 91605.400000 0 0 1
28.932034 28.255665 -24.329771 47.195158 0.773572 2.112404 0.104629 -0.009511 -69340.400000 0 0 1
27.916834 28.550955 -23.208071 46.185725 0.796627 2.097278 0.105973 -0.008643 257741.000000 0 0 1
27.070534 29.662895 -23.509771 46.533971 0.831060 2.100430 0.133436 0.001371 466591.000000 0 0 1
26.240834 29.946035 -22.381971 45.676022 0.851247 2.082904 0.095645 0.002670 257226.000000 0 0 1
3.622134 -25.738680 -19.352871 32.405757 -1.430987 2.210808 0.102662 -0.016938 4982.930000 0 0 1
3.516334 -26.888930 -18.563371 32.863017 -1.440762 2.171073 0.106741 -0.014151 211273.000000 0 0 1
3.232034 -26.498660 -17.216671 31.765370 -1.449426 2.143605 0.105841 -0.017105 -299399.000000 0 0 1
3.318934 -27.696040 -16.185271 32.249790 -1.451531 2.096558 0.092551 -0.015698 254790.000000 0 0 1
4.647634 -28.159150 -16.005271 32.721658 -1.407222 2.081893 0.083666 -0.015919 220518.000000 0 0 1
4.649934 -29.054870 -14.910671 32.986898 -1.412102 2.039823 0.077966 -0.022751 855273.000000 0 0 1
6.040634 -29.784560 -14.706271 33.762163 -1.370699 2.021484 0.097737 -0.019379 1025020.000000 0 0 1
6.991634 -28.845090 -14.170671 32.889665 -1.332997 2.016236 0.072142 -0.013678 489134.000000 0 0 1
8.305734 -29.399950 -14.020371 33.614179 -1.295463 2.001045 0.072427 -0.011909 629505.000000 0 0 1
8.626834 -30.339210 -12.874071 34.068044 -1.293762 1.958316 0.069356 -0.025749 -1040130.000000 0 0 1
8.895334 -29.780550 -11.579971 33.167813 -1.280536 1.927442 0.063599 -0.027148 -88221.200000 0 0 1
9.260734 -30.722730 -10.602071 33.794248 -1.278029 1.889909 0.064833 -0.024464 68118.300000 0 0 1
10.654134 -31.414200 -10.597471 34.823396 -1.243820 1.880021 0.064177 -0.028426 -55016.800000 0 0 1
11.616234 -30.609070 -9.954071 34.218936 -1.208084 1.865957 0.056118 -0.026084 40439.400000 0 0 1
12.656834 -31.457280 -9.460571 35.203101 -1.188266 1.842884 0.069497 -0.023722 430431.000000 0 0 1
13.754634 -30.750120 -8.618771 34.771296 -1.150187 1.821278 0.077575 -0.020270 239397.000000 0 0 1
14.569434 -29.827170 -9.312071 34.476704 -1.116422 1.844291 0.081061 -0.027994 697355.000000 0 0 1
15.841134 -29.722810 -8.662471 34.776793 -1.081128 1.822534 0.071540 -0.027604 590518.000000 0 0 1
16.960534 -29.001990 -9.444871 34.899580 -1.041624 1.844844 0.080204 -0.038445 25842.200000 0 0 1
16.821134 -27.600400 -9.751971 33.761421 -1.023455 1.863821 0.094533 -0.038316 -139139.000000 0 0 1
16.238834 -27.375530 -11.019571 33.683086 -1.035401 1.904087 0.084895 -0.035241 -209946.000000 0 0 1
15.919634 -25.866750 -11.034471 32.315368 -1.019096 1.919268 0.088936 -0.029777 -280506.000000 0 0 1
14.891534 -25.491620 -10.093871 31.200428 -1.042095 1.900240 0.060445 -0.026752 693441.000000 0 0 1
14.186034 -24.306800 -10.359171 29.989606 -1.042505 1.923488 0.049716 -0.013621 611388.000000 0 0 1
13.429834 -24.146400 -11.708371 30.008249 -1.063218 1.971614 0.021102 -0.009273 9021.970000 0 0 1
14.331034 -23.493100 -12.609571 30.270539 -1.023049 2.000457 0.031135 -0.007577 490636.000000 0 0 1
13.727134 -23.377200 -13.914871 30.472140 -1.039840 2.045014 0.036435 -0.013267 315773.000000 0 0 1
14.655134 -22.774800 -14.992471 30.955430 -0.999018 2.076387 0.057947 -0.016897 338218.000000 0 0 1
15.791234 -23.535100 -15.360371 32.236702 -0.979824 2.067451 0.060334 -0.023896 262579.000000 0 0 1
16.430134 -22.979500 -16.520371 32.725057 -0.950080 2.099974 0.064815 -0.030045 -762950.000000 0 0 1
17.441334 -23.967900 -17.108971 34.225389 -0.941724 2.094269 0.071514 -0.035871 868124.000000 0 0 1
18.744234 -24.155400 -16.508871 34.747265 -0.910871 2.065889 0.118109 -0.040227 975070.000000 0 0 1
19.579834 -23.034500 -16.784671 34.578653 -0.866289 2.077623 0.134548 -0.041518 -132756.000000 0 0 1
21.097334 -23.153700 -16.454171 35.382638 -0.831835 2.054471 0.139987 -0.040163 993159.000000 0 0 1
21.836234 -24.175900 -17.205471 36.841871 -0.836203 2.056701 0.152007 -0.040354 967595.000000 0 0 1
23.141634 -24.356200 -16.628371 37.486830 -0.810964 2.030384 0.163560 -0.024542 993835.000000 0 0 1
24.000334 -25.443170 -17.347671 39.042446 -0.814571 2.031221 0.155595 -0.026167 170127.000000 0 0 1
24.475434 -24.997290 -18.624271 39.633002 -0.795946 2.059994 0.167884 -0.025514 276445.000000 0 0 1
25.166434 -26.039280 -19.330071 41.049301 -0.802442 2.061106 0.153547 -0.034346 1125430.000000 0 0 1
26.558634 -25.703130 -20.005571 42.026596 -0.769030 2.066922 0.140182 -0.042588 986257.000000 0 0 1
26.469334 -24.845900 -21.121871 42.000926 -0.753772 2.097736 0.145932 -0.045780 -148966.000000 0 0 1
26.691134 -23.539400 -20.759171 41.200281 -0.722735 2.098858 0.139618 -0.039593 -657410.000000 0 0 1
25.472934 -22.592100 -20.687071 39.840033 -0.725534 2.116773 0.161595 -0.040251 42489.700000 0 0 1
25.005134 -21.955800 -21.876371 39.823228 -0.720556 2.152367 0.146239 -0.036461 101857.000000 0 0 1
24.421734 -22.797500 -22.827071 40.462603 -0.751014 2.170203 0.107556 -0.035028 -608223.000000 0 0 1
23.878534 -21.923000 -23.990871 40.328206 -0.742728 2.207926 0.072792 -0.021778 473450.000000 0 0 1
24.927634 -21.330700 -24.742171 41.092100 -0.707797 2.216944 0.056125 -0.004968 747837.000000 0 0 1
24.294034 -20.273100 -25.500441 40.638296 -0.695420 2.249132 0.042766 0.000275 462002.000000 0 0 1
25.051634 -19.913900 -26.793071 41.737470 -0.671632 2.267826 0.046199 0.002331 -315155.000000 0 0 1
24.434934 -18.790800 -27.429611 41.261892 -0.655559 2.297980 0.037079 0.008238 23136.300000 0 0 1
25.017334 -18.260500 -28.611631 42.165605 -0.630522 2.316588 0.046461 0.011065 -503776.000000 0 0 1
24.271434 -17.105100 -29.297501 41.713673 -0.613901 2.349487 0.099341 0.002355 -120449.000000 0 0 1
22.998234 -17.528300 -29.770281 41.502165 -0.651237 2.370743 0.096793 -0.002370 197886.000000 0 0 1
22.551234 -16.513100 -30.630751 41.466655 -0.632043 2.401912 0.119457 -0.010544 258009.000000 0 0 1
21.136234 -16.739600 -31.249511 41.273315 -0.669835 2.429714 0.092973 -0.011188 295965.000000 0 0 1
21.028934 -17.754100 -32.281561 42.420788 -0.701158 2.435626 0.082089 -0.009479 -877240.000000 0 0 1
19.754734 -18.082400 -32.668291 42.242631 -0.741229 2.454903 0.085495 -0.024256 -1032660.000000 0 0 1
19.783134 -19.138000 33.512916 43.367626 -0.768824 0.687613 0.101754 -0.009001 152960.000000 0 0 1
20.456934 -20.344500 -33.448491 44.172235 -0.782643 2.429856 0.100737 -0.004956 329407.000000 0 0 1
20.795334 -21.089000 32.696013 44.115996 -0.792409 0.736033 0.088119 -0.015787 -224881.000000 0 0 1
21.871034 -22.157700 32.921920 45.311793 -0.791909 0.757488 0.074282 -0.021971 -349475.000000 0 0 1
21.577334 -23.350800 33.650276 46.294516 -0.824851 0.757037 0.081659 -0.018580 -192879.000000 0 0 1
21.620334 -23.156300 -32.284561 45.232134 -0.819688 2.365638 0.081194 -0.016521 -65243.200000 0 0 1
20.573034 -24.094200 -31.646641 44.780465 -0.864067 2.355628 0.094154 -0.024754 -177973.000000 0 0 1
20.831034 -25.471800 -31.704731 45.693922 -0.885291 2.337618 0.105425 -0.036917 -605307.000000 0 0 1
21.798334 -25.875970 -30.805151 45.756863 -0.870722 2.309372 0.086051 -0.028785 -365874.000000 0 0 1
21.922934 -27.442860 -30.817891 46.727593 -0.896752 2.290979 0.076790 -0.035864 -336033.000000 0 0 1
20.836734 -27.960360 -30.114761 46.074396 -0.930359 2.283143 0.092115 -0.041639 -352764.000000 0 0 1
20.809034 -29.377950 -30.191201 46.984981 -0.954507 2.268646 0.087324 -0.037013 155151.000000 0 0 1
19.438534 -29.993960 -29.764241 46.512410 -0.995771 2.265191 0.119146 -0.042309 503237.000000 0 0 1
18.356734 -29.861440 -30.674781 46.579152 -1.019616 2.289689 0.133894 -0.050822 73794.300000 0 0 1
18.412134 -30.702140 -31.839291 47.910004 -1.030596 2.297707 0.132652 -0.047136 -1130940.000000 0 0 1
17.040434 -31.277010 -32.096271 47.945785 -1.071936 2.304235 0.152756 -0.052010 -203629.000000 0 0 1
16.050634 -30.376770 -32.605981 47.365821 -1.084699 2.330058 0.160222 -0.047194 -195140.000000 0 0 1
14.829134 -31.020660 -32.760271 47.491261 -1.124870 2.332032 0.128996 -0.038994 -287359.000000 0 0 1
13.680534 -30.175630 -33.340501 47.003347 -1.145149 2.359332 0.130364 -0.034193 331293.000000 0 0 1
13.057234 -29.148660 -32.557261 45.608233 -1.149646 2.365771 0.144910 -0.039622 535565.000000 0 0 1
11.928934 -28.612960 -33.255091 45.463194 -1.175801 2.391276 0.123755 -0.033490 314949.000000 0 0 1
10.962034 -27.762970 -32.419471 44.067797 -1.194743 2.397455 0.151071 -0.038936 -133505.000000 0 0 1
9.915634 -28.473320 -31.826551 43.840382 -1.235688 2.383232 0.158906 -0.042446 -364128.000000 0 0 1
9.183034 -27.712500 -30.890091 42.503041 -1.250816 2.384409 0.109615 -0.043397 -236947.000000 0 0 1
8.025034 -28.430570 -30.186831 42.236752 -1.295686 2.366999 0.091902 -0.038567 -618758.000000 0 0 1
6.917434 -28.803660 -30.913221 42.815055 -1.335102 2.377510 0.089589 -0.032498 -693153.000000 0 0 1
7.155134 -29.896740 -31.787101 44.220253 -1.335887 2.372923 0.095088 -0.038978 -123387.000000 0 0 1
5.882634 -30.439230 -32.520701 44.930480 -1.379891 2.380091 0.140205 -0.041967 858456.000000 0 0 1
4.976834 -31.156870 -31.684391 44.714875 -1.412400 2.358290 0.147542 -0.059094 -229685.000000 0 0 1
3.910134 -31.719730 -32.368771 45.488105 -1.448144 2.362552 0.168298 -0.067154 29291.500000 0 0 1
2.751534 -32.325520 -31.482141 45.206585 -1.485881 2.341174 0.132394 -0.058906 469188.000000 0 0 1
1.992734 -31.294730 -30.868321 44.002094 -1.507206 2.348324 0.096832 -0.043763 -35365.000000 0 0 1
0.618534 -31.625470 -30.982241 44.276994 -1.551241 2.345825 0.071683 -0.020538 71758.500000 0 0 1
-0.217066 -30.398590 -30.515551 43.073428 1.563656 2.358102 0.052490 -0.013409 -372736.000000 0 0 1
-0.657066 -30.470430 -29.182171 42.195710 1.549236 2.334486 0.010365 -0.016779 13810.100000 0 0 1
-1.522966 -29.373460 -28.950911 41.270750 1.518994 2.348279 0.093308 -0.024950 340409.000000 0 0 1
-2.315966 -29.487870 -27.604981 40.459030 1.492418 2.321693 0.101403 -0.035435 -79837.100000 0 0 1
-1.466166 -29.366800 -26.506971 39.587600 1.520912 2.304436 0.080963 -0.033537 -511381.000000 0 0 1
-2.155466 -29.476350 -25.323021 38.919874 1.497801 2.279230 0.110164 -0.042004 -802102.000000 0 0 1
-1.237666 -29.736580 -24.147571 38.326246 1.529199 2.252418 0.066878 -0.038422 -477906.000000 0 0 1
-1.794066 -29.644070 -22.898671 37.501182 1.510350 2.227629 0.122708 -0.046233 -337622.000000 0 0 1
-0.875666 -30.151100 -21.956271 37.308624 1.541762 2.200003 0.102362 -0.036937 241630.000000 0 0 1
-1.382566 -29.939130 -20.485771 36.303303 1.524650 2.170375 0.073652 -0.022591 152173.000000 0 0 1
-1.382566 -28.616010 -19.997871 34.938551 1.522519 2.180193 0.049726 -0.026868 1096260.000000 0 0 1
-0.064966 -28.214760 -19.533171 34.316492 1.568494 2.176337 0.082744 -0.026334 1176010.000000 0 0 1
-0.013666 -26.855390 -18.852771 32.812179 1.570287 2.182870 0.086746 -0.030973 -383664.000000 0 0 1
-0.673766 -26.802120 -17.592271 32.067048 1.545663 2.151496 0.075244 -0.028005 28506.900000 0 0 1
-0.438666 -25.639250 -16.870071 30.694671 1.553689 2.152693 0.085446 -0.033206 -288609.000000 0 0 1
-1.370066 -25.508660 -15.647271 29.956733 1.517138 2.120376 0.074377 -0.029357 -260312.000000 0 0 1
-1.493866 -24.226500 -15.096471 28.584233 1.509212 2.127205 0.062942 -0.032852 -38159.800000 0 0 1
-2.340666 -24.261300 -13.959971 28.088613 1.474617 2.090932 0.065720 -0.029753 -77554.800000 0 0 1
-2.072966 -23.161300 -12.947671 26.615506 1.481533 2.078842 0.069127 -0.022527 -489435.000000 0 0 1
-0.822866 -23.199700 -12.343071 26.291721 1.535342 2.059482 0.087061 -0.035929 -1207370.000000 0 0 1
-0.875166 -22.392100 -11.176671 25.041765 1.531733 2.033446 0.087905 -0.026083 31585.300000 0 0 1
0.461434 -22.221200 -10.433771 24.553171 -1.550034 2.009699 0.089017 -0.031265 92453.300000 0 1 0
0.425134 -21.076300 -9.612371 23.168703 -1.550628 1.998614 0.061465 -0.030392 -281099.000000 0 1 0
1.667134 -20.899500 -8.980271 22.808193 -1.491196 1.975482 0.052371 -0.033024 301587.000000 0 1 0
2.378234 -19.523900 -9.098471 21.670737 -1.449582 2.004077 0.050713 -0.028621 -814075.000000 0 1 0
2.737734 -19.211400 -10.465271 22.047561 -1.429244 2.065383 0.046537 -0.007474 279329.000000 0 1 0
3.765334 -18.225100 -10.521971 21.378584 -1.367061 2.085381 0.037207 -0.005122 -343660.000000 0 1 0
5.164434 -18.654300 -10.150471 21.856037 -1.300711 2.053781 0.050633 -0.016655 -1585800.000000 0 1 0
5.402834 -18.694400 -8.773471 21.345842 -1.289454 1.994364 0.055956 -0.025810 206673.000000 0 1 0
6.423734 -19.664000 -8.511871 22.369381 -1.255050 1.961149 0.035578 -0.009286 -33441.800000 0 1 0
5.932834 -20.555600 -7.415671 22.643396 -1.289809 1.904451 0.031984 -0.018750 -187211.000000 0 1 0
5.154334 -21.580000 -7.990171 23.581908 -1.336341 1.916465 0.059248 -0.032963 -131532.000000 0 1 0
4.950734 -22.624000 -7.063871 24.212670 -1.355365 1.866845 0.060761 -0.016005 -247207.000000 0 1 0
4.156134 -23.728200 -7.749371 25.305210 -1.397399 1.882033 0.075523 -0.019304 -70338.700000 0 0 1
4.790234 -24.308000 -8.865771 26.314009 -1.376225 1.914442 0.074285 -0.023964 -548094.000000 0 0 1
4.044334 -25.396980 -9.198371 27.312511 -1.412878 1.914294 0.080755 -0.029370 -425845.000000 0 0 1
4.648634 -26.320830 -10.247171 28.625170 -1.395985 1.936897 0.051118 -0.028084 -528568.000000 0 0 1
5.659534 -27.154040 -9.742071 29.398642 -1.365315 1.908560 0.082365 -0.033508 -201120.000000 0 0 1
6.110834 -27.989890 -10.844271 30.632898 -1.355846 1.932649 0.100954 -0.021743 47853.600000 0 0 1
5.714634 -29.476020 -10.738571 31.887453 -1.379298 1.914275 0.091801 -0.034637 65848.000000 0 0 1
4.328934 -29.746200 -10.920471 31.981756 -1.426282 1.919265 0.088805 -0.034371 325039.000000 0 0 1
4.091634 -31.141570 -10.873271 33.238033 -1.440156 1.904065 0.100916 -0.033800 -153338.000000 0 0 1
2.640734 -31.507270 -11.260071 33.562937 -1.487178 1.912923 0.093318 -0.036050 -11665.000000 0 0 1
2.423334 -31.454080 -12.636971 33.984183 -1.493905 1.951796 0.098287 -0.038762 -23974.800000 0 0 1
1.511734 -32.433420 -13.006171 34.976743 -1.524220 1.951800 0.089285 -0.033463 -523738.000000 0 0 1
1.129234 -32.443520 -14.488271 35.549503 -1.536004 1.990568 0.090965 -0.015316 -411344.000000 0 0 1
0.242234 -31.448280 -14.850171 34.779024 -1.563094 2.011954 0.082752 -0.022082 -347109.000000 0 0 1
-0.138066 -31.557410 -16.187771 35.467352 1.566421 2.044756 0.071678 -0.018690 145701.000000 0 0 1
-1.237766 -30.624880 -16.749671 34.928023 1.530401 2.070936 0.073180 -0.015861 -118431.000000 0 0 1
-2.520566 -30.794310 -16.240971 34.905757 1.489127 2.054748 0.090702 -0.024521 -98406.600000 0 0 1
-3.534866 -30.361470 -17.154671 35.051346 1.454892 2.082216 0.097086 -0.022913 992485.000000 0 0 1
-5.009766 -30.406120 -16.660071 35.031241 1.407502 2.066417 0.119631 -0.016124 402053.000000 0 0 1
-5.391466 -29.365610 -15.755171 33.758441 1.389221 2.056356 0.110522 -0.016113 430148.000000 0 0 1
-6.809066 -29.296350 -15.615771 33.889405 1.342430 2.049677 0.123721 -0.028965 456770.000000 0 0 1
-7.313466 -29.900500 -14.314471 33.947470 1.330913 2.006077 0.112262 -0.034843 -346171.000000 0 0 1
-7.446366 -31.315330 -14.400571 35.262936 1.337345 1.991472 0.110745 -0.028164 42934.100000 0 0 1
-8.243266 -31.797340 -13.328271 35.449472 1.317137 1.956250 0.112985 -0.026827 414058.000000 0 0 1
-9.046466 -33.068120 -13.777771 36.948154 1.303759 1.952923 0.137509 -0.034510 143693.000000 0 0 1
-8.267666 33.393403 -13.928771 37.114476 -1.328093 1.955508 0.120790 -0.027114 382785.000000 0 0 1
-9.053066 32.199242 -14.162071 36.322354 -1.296714 1.971319 0.150481 -0.037641 293083.000000 0 0 1
-8.068566 -21.657600 -3.460771 23.369431 1.214174 1.719433 0.118034 -0.038201 80956.300000 0 1 0
-7.733466 -20.784400 -4.484671 22.625429 1.214588 1.770331 0.091446 -0.025091 83821.500000 0 1 0
-6.383666 -20.788500 -4.926271 22.297557 1.272860 1.793568 0.084700 -0.021462 606252.000000 0 1 0
-6.157466 -19.695200 -6.077771 21.511731 1.267786 1.857230 0.078288 -0.026111 -13151.700000 0 1 0
-6.969666 -19.995800 -7.184771 22.361332 1.235408 1.897902 0.082133 -0.027643 -218943.000000 0 1 0
-6.940966 -18.972200 -8.141071 21.780689 1.220072 1.953872 0.055098 -0.028194 -349716.000000 0 1 0
-7.816666 -19.262600 -9.372071 22.803152 1.185304 1.994346 0.062743 -0.026276 177732.000000 0 1 0
-7.265266 -20.236600 -10.267071 23.826808 1.226112 2.016291 0.079267 -0.021462 -491843.000000 0 1 0
-8.106566 -20.435100 -11.344571 24.738816 1.193140 2.047186 0.104140 -0.025981 -143556.000000 0 1 0
-7.425466 -21.310400 -12.434871 25.766193 1.235509 2.074422 0.093226 -0.020628 36919.900000 0 0 1
-6.490266 -20.614900 -13.209771 25.329739 1.265787 2.119419 0.082527 -0.012970 -334717.000000 0 0 1
-6.025866 -21.473900 -14.246671 26.465205 1.297219 2.139235 0.065339 -0.012585 -462861.000000 0 0 1
-5.084866 -20.817200 -15.241371 26.296598 1.331225 2.189028 0.043694 0.001371 -498792.000000 0 0 1
-3.801166 -20.751600 -14.620371 25.667742 1.389630 2.176817 0.053956 -0.004647 235225.000000 0 0 1
-2.876666 -19.952400 -15.379771 25.355686 1.427607 2.222524 0.072249 -0.001627 69555.800000 0 0 1
-3.021266 -18.440700 -15.368271 24.194446 1.408402 2.259062 0.071864 -0.000631 -485845.000000 0 1 0
-4.157966 -17.895900 -16.062771 24.404190 1.342505 2.289218 0.065807 -0.002174 549794.000000 0 1 0
-4.100166 -18.066500 -17.464671 25.460253 1.347628 2.326716 0.093058 -0.012296 -263705.000000 0 0 1
-5.521966 -17.871700 -18.075071 26.011496 1.271123 2.339060 0.077300 -0.010221 330540.000000 0 0 1
-6.397566 -18.903400 -17.727471 26.693269 1.244462 2.297109 0.052948 -0.005671 -1534040.000000 0 0 1
-7.641366 -18.680800 -18.254071 27.213486 1.182513 2.306047 0.045325 -0.007495 -918682.000000 0 0 1
-8.594566 -19.832700 -17.749471 27.968666 1.161872 2.258313 0.108015 -0.025496 145313.000000 0 0 1
-8.259166 -21.110500 -18.223371 29.085362 1.197869 2.247912 0.117761 -0.025567 -467801.000000 0 0 1
-9.280866 -21.995000 -17.993871 29.894713 1.171509 2.216685 0.158771 -0.022807 -686141.000000 0 0 1
-8.969466 -23.399700 -18.644771 31.234992 1.204755 2.210452 0.176516 -0.029723 -488000.000000 0 0 1
-9.161366 -23.289400 -20.055071 32.070744 1.196018 2.246362 0.164082 -0.032692 185647.000000 0 0 1
-8.450066 -24.232100 -20.845771 33.062735 1.235268 2.252982 0.178537 -0.056368 1951150.000000 0 0 1
-6.839566 -24.320900 -20.828571 32.743170 1.296655 2.260255 0.146856 -0.047953 1762870.000000 0 0 1
-6.126966 -23.221900 -21.393871 32.163551 1.312831 2.298503 0.161336 -0.057795 334124.000000 0 0 1
-6.072866 -21.999000 -20.643371 30.773112 1.301452 2.306117 0.125104 -0.050432 -340608.000000 0 0 1
-5.229466 -22.061500 -19.307871 29.780043 1.338052 2.276211 0.132342 -0.031496 419632.000000 0 0 1
-3.851866 -22.294300 -19.581171 29.921479 1.399712 2.284210 0.108336 -0.040305 690928.000000 0 0 1
-3.036866 -22.066400 -18.413471 28.899904 1.434031 2.261587 0.051491 -0.034780 -1017340.000000 0 0 1
-1.646066 -22.579200 -18.432771 29.194123 1.498023 2.254136 0.082494 -0.034143 -1051210.000000 0 0 1
-0.797066 -21.819100 -19.318571 29.153312 1.534282 2.295154 0.120124 -0.031506 85840.600000 0 0 1
0.507934 -22.375200 -19.239971 29.514133 -1.548099 2.280871 0.091410 -0.032284 748789.000000 0 0 1
1.567734 -21.538300 -20.047071 29.465933 -1.498136 2.319033 0.091756 -0.030673 473545.000000 0 0 1
1.324734 -21.631700 -21.461771 30.500704 -1.509632 2.351315 0.090616 -0.042784 -124631.000000 0 0 1
2.271834 -20.917500 -22.232671 30.610369 -1.462611 2.383737 0.092535 -0.035694 75531.500000 0 0 1
1.901634 -20.978400 -23.738771 31.737024 -1.480396 2.415815 0.119761 -0.049149 456501.000000 0 0 1
1.155534 -19.945500 -24.388771 31.527295 -1.512926 2.455262 0.122851 -0.049100 775681.000000 0 0 1
-0.253466 -19.824900 -24.127671 31.228759 1.558012 2.453739 0.126239 -0.047315 426974.000000 0 0 1
-0.876966 -18.782400 -24.979971 31.265741 1.524139 2.496355 0.149246 -0.042412 -369655.000000 0 0 1
-0.512366 -17.459900 -24.667971 30.226138 1.541459 2.525450 0.102916 -0.034862 -252715.000000 0 0 1
-1.357766 -16.534400 -25.284801 30.241545 1.488863 2.560922 0.147937 -0.040541 -487.993000 0 0 1
-0.971866 -15.120400 -24.885871 29.135504 1.506609 2.594696 0.128489 -0.028027 315592.000000 0 0 1
0.342534 -14.783200 -25.292471 29.297942 -1.547630 2.612539 0.125693 -0.032929 -215311.000000 0 0 1
0.781434 -13.533200 -24.771471 28.237987 -1.513118 2.640877 0.117685 -0.032393 288571.000000 0 0 1
0.211634 -12.205300 -25.372081 28.155934 -1.553459 2.693159 0.128501 -0.028193 -73306.100000 0 0 1
0.945134 -11.099900 -24.868871 27.249987 -1.485853 2.720443 0.117642 -0.022511 226700.000000 0 0 1
0.763234 -9.969500 -25.743681 27.617215 -1.494388 2.771132 0.109970 -0.023551 -620809.000000 0 0 1
1.704634 -8.752000 -25.493061 27.007396 -1.378434 2.805131 0.115703 -0.027770 1221770.000000 0 0 1
3.092234 -8.875300 -25.875261 27.529293 -1.235540 2.793185 0.106487 -0.030138 870403.000000 0 0 1
3.365234 -9.072000 -27.236471 28.904175 -1.215583 2.800239 0.120383 -0.034639 -319645.000000 0 0 1
4.845534 -8.742900 -27.597921 29.352389 -1.064715 2.794094 0.125797 -0.039289 82811.700000 0 0 1
5.084434 -7.382000 -27.807471 29.216448 -0.967653 2.829765 0.113547 -0.031795 545445.000000 0 0 1
6.243234 -6.947700 -28.543271 30.032762 -0.838753 2.825330 0.102114 -0.033956 -329690.000000 0 0 1
7.511134 -6.773800 -27.712141 29.500241 -0.733828 2.791634 0.101843 -0.029863 -256582.000000 0 0 1
8.250934 -7.943300 -27.343531 29.645279 -0.766404 2.744934 0.086106 -0.027496 576728.000000 0 0 1
8.969234 -8.559400 -28.408671 30.996178 -0.762022 2.730092 0.083180 -0.043516 -583892.000000 0 0 1
9.391934 -9.975600 -27.963401 31.139570 -0.815525 2.686004 0.092781 -0.025680 696396.000000 0 0 1
8.274534 -10.929900 -27.910261 31.095229 -0.922795 2.685031 0.103899 -0.036748 1045860.000000 0 0 1
8.412634 -12.087300 -27.123531 30.863589 -0.962767 2.644179 0.108342 -0.035919 -449328.000000 0 0 1
9.591234 -13.051700 -27.365281 31.799327 -0.937052 2.607168 0.098666 -0.039526 -244738.000000 0 0 1
9.539234 -13.573500 -28.656491 33.112405 -0.958205 2.616806 0.122362 -0.053414 40845.800000 0 0 1
10.139534 -14.849100 -28.692431 33.860914 -0.971681 2.581793 0.101417 -0.052046 -174966.000000 0 0 1
9.572534 -15.749200 -29.784711 35.025700 -1.024653 2.587479 0.120135 -0.056758 -226232.000000 0 0 1
9.922134 -15.178800 -31.040621 35.949476 -0.991836 2.612868 0.144635 -0.062677 466314.000000 0 0 1
9.175134 -15.880400 -31.988171 36.872934 -1.046887 2.621000 0.169378 -0.059543 111562.000000 0 0 1
7.787434 -15.286800 -32.357581 36.624355 -1.099639 2.654076 0.184397 -0.056590 -141577.000000 0 0 1
7.835134 -14.206600 -33.295961 37.038329 -1.066792 2.688185 0.186336 -0.057329 -736384.000000 0 0 1
6.600634 -13.668300 -33.596391 36.866085 -1.120909 2.717248 0.218613 -0.072789 -677128.000000 0 0 1
6.708234 -12.336600 32.939589 35.807941 -1.072751 0.402981 0.237291 -0.064094 -28587.400000 0 0 1
6.890634 -12.600600 31.555848 34.670268 -1.070375 0.427101 0.236066 -0.048119 201150.000000 0 0 1
7.000634 -11.372800 30.863996 33.629387 -1.019015 0.408372 0.236846 -0.054124 -81843.600000 0 0 1
7.476034 -11.389200 29.384586 32.389178 -0.989925 0.434134 0.241610 -0.044371 444353.000000 0 0 1
6.546034 -12.038600 28.498616 31.621979 -1.072761 0.448201 0.218978 -0.043141 773583.000000 0 0 1
7.042634 -11.897800 27.168086 30.483786 -1.036334 0.470745 0.183864 -0.037714 282858.000000 0 0 1
6.205534 -12.653100 26.100496 29.662189 -1.114829 0.495092 0.159443 -0.042306 -155666.000000 0 0 1
6.463434 -14.051900 26.038146 30.285589 -1.139683 0.536009 0.138302 -0.028391 -19609.400000 0 0 1
5.796834 -14.704500 24.977626 29.558542 -1.195281 0.564190 0.089473 -0.019626 1229930.000000 0 0 1
4.234334 -14.983100 25.066856 29.508814 -1.295371 0.555816 0.106537 -0.028780 1251560.000000 0 0 1
3.546834 -13.751600 24.776556 28.558085 -1.318376 0.520472 0.103710 -0.036704 481018.000000 0 0 1
2.151834 -14.023500 24.557526 28.361259 -1.418539 0.523884 0.107036 -0.036105 757899.000000 0 0 1
1.325234 -12.717300 24.474956 27.613573 -1.466964 0.481421 0.100574 -0.032866 -740916.000000 0 0 1
1.550834 -11.949100 23.318736 26.247848 -1.441731 0.476936 0.062317 -0.021689 122593.000000 0 0 1
0.540834 -10.967100 23.104526 25.581026 -1.521522 0.443652 0.062792 -0.017696 1671970.000000 0 0 1
-0.942366 -11.472500 22.862166 25.596580 1.488839 0.466445 0.066631 -0.019843 361721.000000 0 0 1
-1.021366 -12.078400 21.600166 24.768894 1.486436 0.511384 0.062732 -0.016995 -429691.000000 0 1 0
-2.125766 -12.914300 21.419566 25.101709 1.407654 0.548493 0.079787 -0.027095 -204988.000000 0 0 1
-2.212466 -13.454400 19.965366 24.177091 1.407813 0.599183 0.097636 -0.034140 -132187.000000 0 1 0
-1.242266 -14.428200 19.708266 24.456735 1.484908 0.633700 0.120121 -0.041487 -486463.000000 0 1 0
-1.259366 -15.082400 18.473766 23.881893 1.487491 0.686377 0.126181 -0.045162 437141.000000 0 1 0
-2.323966 -16.241700 18.392666 24.647186 1.428675 0.728404 0.114046 -0.047865 706230.000000 0 1 0
-2.236966 -16.991400 17.204966 24.284203 1.439896 0.783449 0.094797 -0.049918 -534209.000000 0 1 0
-3.185066 -18.005000 17.361766 25.214194 1.395709 0.811280 0.111372 -0.041881 -354084.000000 0 0 1
-2.821566 -19.381000 16.692866 25.733949 1.426228 0.864959 0.108285 -0.048719 136143.000000 0 0 1
-1.710666 -20.022400 17.307766 26.521343 1.485566 0.859789 0.095163 -0.051732 -29919.700000 0 0 1
-1.830566 -21.409600 17.166766 27.503087 1.485502 0.896720 0.094806 -0.057614 111315.000000 0 0 1
-0.765566 -22.247600 17.912666 28.572808 1.536399 0.893212 0.100079 -0.045001 1460390.000000 0 0 1
0.569234 -22.225700 17.346866 28.199637 -1.545190 0.908226 0.119612 -0.052396 990945.000000 0 0 1
1.369834 -23.293300 17.906366 29.412450 -1.512056 0.916246 0.129736 -0.039980 -349706.000000 0 0 1
2.691934 -23.476200 17.203566 29.229115 -1.456628 0.941500 0.131174 -0.047563 -634268.000000 0 0 1
3.388834 -22.237600 17.265566 28.356565 -1.419568 0.916156 0.125805 -0.048115 386277.000000 0 0 1
4.703034 -22.324200 16.687566 28.265938 -1.363163 0.939270 0.120849 -0.039942 657602.000000 0 0 1
5.459034 -21.029500 16.864966 27.503963 -1.316813 0.910712 0.106520 -0.034564 -713523.000000 0 0 1
6.269834 -20.980700 18.018166 28.357625 -1.280406 0.882282 0.115919 -0.031424 -283692.000000 0 0 1
6.478834 -19.665300 18.480666 27.753096 -1.252540 0.842103 0.093090 -0.022179 425847.000000 0 0 1
7.553834 -18.837000 17.710966 26.936430 -1.189419 0.853287 0.092086 -0.026250 313225.000000 0 0 1
6.998634 -18.341100 16.457466 25.616889 -1.206268 0.873111 0.089349 -0.023331 296000.000000 0 0 1
7.972934 -17.561300 15.806966 24.936461 -1.144616 0.884224 0.106187 -0.023299 32211.400000 0 1 0
7.361134 -16.747200 14.669266 23.448717 -1.156671 0.894910 0.072699 -0.011133 133141.000000 0 1 0
6.894534 -17.473000 13.518166 23.142626 -1.194969 0.946996 0.076083 -0.018357 207459.000000 0 1 0
6.249334 -16.619300 12.596566 21.769905 -1.211124 0.953757 0.053827 -0.008060 -12776.300000 0 1 0
6.707734 -16.808300 11.150166 21.256501 -1.191090 1.018606 0.056569 -0.008374 1362340.000000 0 1 0
8.097534 -16.419500 10.951566 21.333233 -1.112631 1.031704 0.058444 -0.005750 1128450.000000 0 1 0
8.441134 -16.637700 9.615066 20.988456 -1.101286 1.094926 0.051902 -0.008823 87364.200000 0 1 0
9.844334 -16.038400 9.376766 21.025340 -1.020293 1.108534 0.053891 -0.013198 486228.000000 0 1 0
10.509134 -16.591300 8.213566 21.287926 -1.006171 1.174687 0.062703 -0.013125 583769.000000 0 1 0
11.879134 -16.161000 8.212866 21.673553 -0.936932 1.182151 0.071896 -0.024067 907008.000000 0 1 0
12.842734 -17.203000 7.586966 22.769301 -0.929513 1.231090 0.092754 -0.023200 28402.400000 0 1 0
12.961834 -18.441000 8.253666 24.004221 -0.958139 1.219791 0.105323 -0.030517 -184169.000000 0 1 0
13.804534 -19.284000 7.505266 24.875024 -0.949509 1.264301 0.110902 -0.035168 7310.330000 0 1 0
14.501434 -20.417100 8.254466 26.368272 -0.953218 1.252398 0.115754 -0.037481 -92554.000000 0 0 1
13.621634 -21.380800 8.767466 26.824540 -1.003546 1.237833 0.111699 -0.033149 18611.100000 0 0 1
14.355734 -22.451000 9.321166 28.231518 -1.001891 1.234314 0.086606 -0.021596 152408.000000 0 0 1
13.394434 -23.291700 10.145566 28.720144 -1.048907 1.209747 0.110993 -0.026375 -126899.000000 0 0 1
13.133634 -22.617500 11.382866 28.523907 -1.044700 1.160300 0.119580 -0.030255 -343154.000000 0 0 1
12.065234 -23.086800 12.175366 28.754299 -1.089230 1.133571 0.147462 -0.033754 -1312.950000 0 0 1
12.248734 -24.520600 12.785166 30.244863 -1.107526 1.134350 0.135335 -0.030644 34346.200000 0 0 1
13.467234 -24.666500 13.496566 31.176271 -1.071050 1.123076 0.104856 -0.029182 181116.000000 0 0 1
13.568634 -25.979570 14.072766 32.512899 -1.089483 1.123160 0.102422 -0.045077 109526.000000 0 0 1
14.848634 -26.170910 14.922666 33.586968 -1.054714 1.110404 0.085238 -0.038230 86056.400000 0 0 1
14.887234 -25.574050 16.202166 33.736804 -1.043626 1.069854 0.081836 -0.034316 286169.000000 0 0 1
16.074134 -25.954210 16.860866 34.875315 -1.016287 1.066192 0.095921 -0.037427 -175056.000000 0 0 1
15.924334 -25.405280 18.328466 35.141789 -1.010895 1.022121 0.115877 -0.037530 -1032.060000 0 0 1
16.211734 -24.088600 18.556666 34.459118 -0.978419 1.002126 0.097781 -0.025516 35790.600000 0 0 1
17.598234 -23.887500 18.762066 35.104495 -0.935853 1.006924 0.097899 -0.032964 -122899.000000 0 0 1
18.038934 -22.440100 19.032166 34.513542 -0.893700 0.986706 0.102364 -0.036827 -216473.000000 0 0 1
17.881134 -21.515700 17.924366 33.225640 -0.877393 1.000984 0.079582 -0.026114 533890.000000 0 0 1
16.617034 -20.845100 17.894266 32.106833 -0.897785 0.979624 0.098479 -0.026499 158198.000000 0 0 1
16.594034 -19.817900 16.740466 30.795362 -0.873707 0.996072 0.100066 -0.019800 436422.000000 0 0 1
17.521834 -18.780300 17.067366 30.838439 -0.820051 0.984302 0.091956 -0.021875 608376.000000 0 0 1
18.823134 -18.879800 16.503866 31.354980 -0.786901 1.016488 0.080742 -0.020965 -134872.000000 0 0 1
19.626034 -17.625000 16.722266 31.232291 -0.731732 1.005796 0.086275 -0.025223 -553543.000000 0 0 1
20.069234 -17.438200 18.027466 32.122492 -0.715366 0.974949 0.097720 -0.023874 -17877.300000 0 0 1
20.460834 -16.120800 18.247366 31.803966 -0.667310 0.959725 0.101166 -0.027461 49293.200000 0 0 1
21.051134 -15.802800 19.704266 32.880645 -0.643940 0.928212 0.093432 -0.018151 739019.000000 0 0 1
22.384334 -16.286900 19.881566 34.082227 -0.629012 0.947960 0.083154 -0.018126 246790.000000 0 0 1
22.773634 -16.291400 21.231566 35.140112 -0.620962 0.922038 0.071406 -0.018333 116386.000000 0 0 1
36.015167 -1.484100 -7.620571 36.842474 -0.041184 1.779142 0.190309 -0.026465 458702.000000 0 0 1
37.230037 -1.089300 -8.259971 38.150876 -0.029250 1.789033 0.207093 -0.026295 533780.000000 0 0 1
-37.666906 -2.116500 -8.261571 38.620318 0.056131 1.786380 0.238161 -0.029714 -7887.020000 0 0 1
-36.236076 -1.789100 -8.735071 37.316960 0.049333 1.807066 0.214629 -0.035057 -7115.300000 0 0 1
-35.364263 -2.890800 -8.657571 36.523162 0.081562 1.810118 0.235372 -0.025840 -111784.000000 0 0 1
-34.080473 -2.453100 -9.065871 35.350903 0.071856 1.830148 0.262794 -0.033934 246218.000000 0 0 1
-32.967486 -3.517800 -8.777171 34.296775 0.106303 1.829594 0.234934 -0.031951 412630.000000 0 0 1
-32.351236 -3.423100 -7.475271 33.379631 0.105418 1.796659 0.255380 -0.037480 1576440.000000 0 0 1
-31.131756 -4.213500 -7.362171 32.266722 0.134527 1.800990 0.238765 -0.049597 986968.000000 0 0 1
-30.640416 -4.325700 -5.925571 31.506494 0.140249 1.759998 0.255083 -0.068084 -328816.000000 0 0 1
-30.100006 -3.105300 -5.489271 30.753623 0.102802 1.750250 0.232067 -0.059761 423876.000000 0 0 1
-29.860876 -3.170700 -4.099271 30.307248 0.105786 1.706469 0.247184 -0.062006 -356541.000000 0 0 1
-29.641056 -1.803300 -3.427771 29.893038 0.060763 1.685717 0.247617 -0.060840 -811138.000000 0 0 1
-28.459526 -1.114000 -3.744871 28.726463 0.039123 1.701532 0.195026 -0.047541 176805.000000 0 0 1
-28.432786 0.178900 -3.163071 28.608746 -0.006292 1.681586 0.228902 -0.062717 -1008710.000000 0 0 1
-27.020656 0.670200 -2.935271 27.187880 -0.024798 1.678970 0.222669 -0.039219 -498947.000000 0 0 1
-26.256566 -0.068700 -1.984671 26.331557 0.002616 1.646240 0.202710 -0.048384 1220420.000000 0 0 1
-24.886966 0.365300 -1.874971 24.960169 -0.014677 1.645986 0.176156 -0.044570 918212.000000 0 1 0
-24.278966 -0.141200 -0.545971 24.285514 0.005816 1.593280 0.162989 -0.043982 -166560.000000 0 1 0
-24.257366 -1.605800 -0.502671 24.315655 0.066102 1.591471 0.152296 -0.045285 58072.100000 0 1 0
-23.358566 -2.071900 0.454529 23.454679 0.088468 1.551416 0.120004 -0.036512 -907178.000000 0 1 0
-23.380766 -3.598200 0.596529 23.663540 0.152698 1.545585 0.103737 -0.018016 -737920.000000 0 1 0
-24.506766 -4.268000 1.073729 24.898801 0.172427 1.527659 0.127190 -0.032586 -143473.000000 0 1 0
-24.315666 -5.637300 1.101129 24.984860 0.227814 1.526710 0.091869 -0.013727 -899900.000000 0 1 0
-25.600806 -6.330600 1.443929 26.411412 0.242418 1.516098 0.154296 -0.023728 -768327.000000 0 0 1
-25.846626 -6.501200 2.804729 26.798884 0.246418 1.465946 0.153900 -0.031370 1576520.000000 0 0 1
-27.199216 -6.971800 3.104429 28.249616 0.250921 1.460681 0.205635 -0.031521 1534890.000000 0 0 1
-27.493846 -7.169700 4.606829 28.784354 0.255094 1.410059 0.186078 -0.035324 -168422.000000 0 0 1
-26.812316 -8.290600 5.076129 28.520193 0.299884 1.391859 0.205269 -0.027389 -100913.000000 0 0 1
-27.058736 -8.538300 6.479729 29.104375 0.305658 1.346277 0.162201 -0.027579 214081.000000 0 0 1
-26.405456 -7.473400 7.437329 28.432616 0.275811 1.306140 0.136961 -0.005803 522749.000000 0 0 1
-24.983356 -7.422500 7.500729 27.120518 0.288792 1.290573 0.176630 -0.023200 509752.000000 0 0 1
-24.639666 -6.285400 8.292429 26.746659 0.249766 1.255565 0.161499 -0.028572 -491985.000000 0 0 1
-23.286266 -5.683500 7.947929 25.253157 0.239391 1.250624 0.183862 -0.039994 -164731.000000 0 0 1
-22.144466 -6.347600 8.467729 24.543265 0.279160 1.218544 0.189981 -0.045284 -104973.000000 0 1 0
-20.987766 -5.925900 7.806629 23.163464 0.275187 1.227043 0.164482 -0.033747 224718.000000 0 1 0
-19.696666 -6.405100 8.563829 22.412566 0.314401 1.178729 0.181971 -0.037827 315757.000000 0 1 0
-19.386066 -5.564100 9.625129 22.347749 0.279502 1.125530 0.151123 -0.029864 -144253.000000 0 1 0
-18.309666 -6.076300 10.346729 21.891096 0.320427 1.078506 0.146541 -0.040927 -481724.000000 0 1 0
-17.857866 -5.039100 11.437229 21.796929 0.275027 1.018413 0.119361 -0.028134 222562.000000 0 1 0
-18.867466 -5.016800 12.430029 23.144226 0.259884 1.003839 0.147773 -0.032061 505440.000000 0 1 0
-19.511266 -3.752000 12.544729 23.497601 0.189980 1.007622 0.173564 -0.029805 332602.000000 0 1 0
-20.849766 -3.755900 13.317829 25.023671 0.178230 1.009588 0.174945 -0.041039 174284.000000 0 0 1
-20.566966 -4.037100 14.673629 25.585419 0.193826 0.960006 0.178871 -0.041259 -102617.000000 0 0 1
-21.776666 -4.157200 15.352929 26.966979 0.188632 0.965114 0.149293 -0.024697 -479428.000000 0 0 1
-21.648266 -4.556800 16.814529 27.787412 0.207464 0.920888 0.143500 -0.018961 528002.000000 0 0 1
-22.829766 -4.432800 17.634529 29.186034 0.191781 0.922021 0.121971 -0.018854 1048300.000000 0 0 1
-22.620166 -5.106200 18.859129 29.889997 0.222015 0.888018 0.131540 -0.020240 -60677.000000 0 0 1
-23.655166 -4.773800 19.959329 31.316623 0.199133 0.879755 0.124347 -0.023426 -422839.000000 0 0 1
-23.539766 -3.395000 20.170129 31.184623 0.143236 0.867419 0.127060 -0.028591 227431.000000 0 0 1
-24.179166 -3.074300 21.364929 32.412090 0.126468 0.851088 0.120108 -0.031430 -402994.000000 0 0 1
-24.091866 -1.554700 21.731929 32.482485 0.064443 0.837886 0.114162 -0.027537 23164.100000 0 0 1
-24.919966 -0.726500 20.936629 32.555721 0.029145 0.872255 0.125980 -0.030226 121060.000000 0 0 1
-24.804766 0.592900 21.427729 32.783769 -0.023898 0.858455 0.119689 -0.026944 1041180.000000 0 0 1
-26.203966 1.253400 21.069229 33.647158 -0.047796 0.894150 0.136128 -0.034311 755718.000000 0 0 1
-27.246446 0.709700 21.818329 34.912920 -0.026042 0.895747 0.137232 -0.032244 662102.000000 0 0 1
-28.547926 1.210500 21.384229 35.689419 -0.042377 0.928325 0.109078 -0.028703 1039040.000000 0 0 1
-29.524486 1.112700 22.543829 37.163929 -0.037670 0.919013 0.102767 -0.018757 -679527.000000 0 0 1
-29.181546 1.954700 23.620229 37.593865 -0.066884 0.891430 0.094044 -0.015477 429803.000000 0 0 1
-30.027006 1.820200 24.772729 38.969505 -0.060545 0.881887 0.102000 -0.016232 10329.400000 0 0 1
-29.652936 2.901500 25.823929 39.428297 -0.097538 0.856668 0.118904 -0.021654 -439429.000000 0 0 1
-28.437816 2.640800 26.448329 38.925536 -0.092597 0.823770 0.107618 -0.029389 -155851.000000 0 0 1
-28.219406 3.488500 27.572029 39.607087 -0.122997 0.800791 0.094927 -0.036777 -1040330.000000 0 0 1
-26.970856 3.191300 28.330029 39.245408 -0.117776 0.764298 0.104178 -0.038535 -1008370.000000 0 0 1
-27.221936 2.245900 29.343329 40.088762 -0.082317 0.749604 0.099987 -0.036717 1297660.000000 0 0 1
-25.969996 1.952300 29.999929 39.727169 -0.075034 0.714915 0.082745 -0.038647 777915.000000 0 0 1
-26.031076 0.738100 30.996529 40.483905 -0.028347 0.698744 0.093592 -0.037875 -72799.400000 0 0 1
-26.299676 -0.434200 30.345529 40.158594 0.016508 0.714162 0.094176 -0.035030 -182346.000000 0 0 1
-26.851146 -1.367600 31.179729 41.170741 0.050889 0.711586 0.102612 -0.026121 -172518.000000 0 0 1
-27.776486 -2.385600 30.406829 41.252873 0.085675 0.742051 0.089356 -0.016079 183777.000000 0 0 1
-29.081736 -2.005900 30.047929 41.864652 0.068865 0.770245 0.119347 -0.018440 -86081.600000 0 0 1
-29.240466 -0.951200 29.060429 41.236127 0.032519 0.788751 0.115979 -0.018838 -48682.000000 0 0 1
-30.728606 -0.636200 28.696129 42.049017 0.020701 0.819694 0.112226 -0.014641 947006.000000 0 0 1
-31.492526 -0.171800 29.792629 43.352156 0.005455 0.813136 0.135118 -0.021300 167527.000000 0 0 1
-32.838106 0.148100 29.450029 44.109720 -0.004510 0.839743 0.131723 -0.030260 1206680.000000 0 0 1
-33.782626 0.558700 30.675129 45.634872 -0.016537 0.833639 0.128995 -0.018006 666883.000000 0 0 1
-34.038746 -0.590500 31.499929 46.381359 0.017346 0.824191 0.129451 -0.019439 -71270.800000 0 0 1
-35.006602 -0.398000 32.499829 47.768813 0.011369 0.822547 0.139593 -0.019191 14868.100000 0 0 1
-35.393086 -1.740100 33.114329 48.500075 0.049125 0.819251 0.144543 -0.025544 24256.900000 0 0 1
-36.056016 -2.660800 32.252629 48.449440 0.073663 0.842369 0.105990 -0.022962 53730.700000 0 0 1
-36.228306 -3.837900 33.020629 49.168909 0.105543 0.834463 0.089978 -0.016735 -413804.000000 0 0 1
-37.335516 -4.770200 32.537229 49.753059 0.127077 0.857970 0.085298 -0.016517 170216.000000 0 0 1
37.250617 -4.334200 33.048929 49.986253 -0.115832 0.848432 0.088376 -0.023302 248777.000000 0 0 1
36.150417 -4.997200 32.439429 48.827669 -0.137363 0.844151 0.082506 -0.022346 362822.000000 0 0 1
34.813067 -4.471000 33.070829 48.224674 -0.127730 0.815141 0.094256 -0.027856 -170398.000000 0 0 1
34.470067 -5.101200 -33.045907 48.023325 -0.146923 2.329694 0.099131 -0.029291 379138.000000 0 0 1
33.696057 -6.298700 -33.169307 47.700113 -0.184794 2.339733 0.088811 -0.027628 571832.000000 0 0 1
32.180897 -6.156500 -33.540007 46.887575 -0.189025 2.367890 0.076303 -0.023551 432643.000000 0 0 1
31.288847 -6.108800 -32.426107 45.472649 -0.192813 2.364693 0.096151 -0.023457 864515.000000 0 0 1
29.995657 -6.498400 -32.920407 45.008020 -0.213348 2.391219 0.100416 -0.031710 281168.000000 0 0 1
28.897957 -6.624000 -31.856907 43.518178 -0.225328 2.392103 0.098289 -0.044863 -248174.000000 0 0 1
27.645157 -7.000900 -32.371607 43.141491 -0.248027 2.419401 0.081237 -0.049022 369652.000000 0 0 1
26.582857 -6.695800 -31.432107 41.706826 -0.246751 2.424385 0.088192 -0.051527 725172.000000 0 0 1
25.190857 -6.976200 -32.110607 41.404561 -0.270163 2.458355 0.101282 -0.062337 355772.000000 0 0 1
24.938557 -8.352100 -32.377907 41.713524 -0.323166 2.459408 0.108424 -0.063936 203261.000000 0 0 1
24.534157 -8.987600 -31.184707 40.683999 -0.351148 2.444186 0.115766 -0.063807 -620821.000000 0 0 1
24.295857 -10.499400 -31.271707 40.968838 -0.407909 2.439209 0.117792 -0.056333 -761657.000000 0 0 1
23.048357 -10.860300 -31.736307 40.698477 -0.440340 2.465128 0.140035 -0.067824 -1094320.000000 0 0 1
22.992957 -12.303600 -31.715007 41.059668 -0.491334 2.453427 0.121292 -0.044664 -662341.000000 0 0 1
21.703757 -12.795800 -32.426807 41.064381 -0.532712 2.481047 0.119076 -0.036211 139746.000000 0 0 1
20.503557 -12.379300 -31.842307 39.844390 -0.543182 2.496704 0.116411 -0.034205 -380184.000000 0 0 1
20.149357 -11.043600 -32.170507 39.533520 -0.501373 2.521376 0.115103 -0.050289 -1399280.000000 0 0 1
18.772857 -10.568100 -31.682007 38.312589 -0.512728 2.544430 0.098888 -0.049289 -422972.000000 0 0 1
17.688157 -11.189800 -32.286507 38.477280 -0.564057 2.566434 0.069799 -0.029571 -329615.000000 0 0 1
16.477557 -10.866200 -31.618307 37.273335 -0.582993 2.583529 0.093308 -0.038661 1267480.000000 0 0 1
15.161957 -11.318200 -32.388607 37.510111 -0.641249 2.612892 0.081053 -0.027121 324495.000000 0 0 1
15.077557 -12.739400 -32.534507 38.054161 -0.701540 2.596256 0.098040 -0.030758 769103.000000 0 0 1
13.847757 -13.208300 -33.101507 38.235184 -0.761768 2.617412 0.078077 -0.037096 -6374.290000 0 0 1
12.600357 -13.254000 -32.246107 37.070863 -0.810675 2.625695 0.072186 -0.037625 -1018270.000000 0 0 1
12.054057 -12.001900 -32.060407 36.293465 -0.783230 2.653792 0.161223 -0.041197 -78676.900000 0 0 1
10.971157 -12.098400 -31.125707 35.150351 -0.834222 2.658370 0.150647 -0.042898 443571.000000 0 0 1
9.746457 -11.226400 -31.497307 34.829669 -0.855846 2.700590 0.150931 -0.039551 -181985.000000 0 0 1
10.086457 -9.868700 -31.603307 34.610647 -0.774486 2.721643 0.138157 -0.046696 36465.300000 0 0 1
9.155057 -9.072600 -32.285307 34.763029 -0.780874 2.761756 0.114955 -0.040516 -437116.000000 0 0 1
9.625257 -7.621900 -32.424407 34.671041 -0.669761 2.779624 0.129906 -0.042604 -300396.000000 0 0 1
9.399157 -6.860900 -31.236407 33.333605 -0.630544 2.784980 0.134296 -0.045031 341064.000000 0 0 1
9.789857 -5.509200 -31.513207 33.455564 -0.512576 2.799165 0.105517 -0.036160 -323975.000000 0 0 1
9.644957 -4.657700 -30.225607 32.067221 -0.449887 2.801040 0.093600 -0.031740 -113962.000000 0 0 1
8.386357 -4.355100 -29.662307 31.131179 -0.478974 2.833180 0.108770 -0.033266 -282914.000000 0 0 1
8.595657 -3.429800 -28.624407 30.083310 -0.379657 2.828887 0.121189 -0.032611 504020.000000 0 0 1
7.211457 -2.918100 -28.137107 29.192759 -0.384507 2.871846 0.140593 -0.033809 -164942.000000 0 0 1
6.547057 -2.228000 -29.180807 29.989122 -0.328012 2.908889 0.121903 -0.022032 139539.000000 0 0 1
5.397257 -1.472800 -28.796607 29.335032 -0.266394 2.949703 0.146143 -0.031058 185194.000000 0 0 1
4.112457 -2.305900 -28.805707 29.189009 -0.511029 2.979355 0.131855 -0.031424 -868809.000000 0 0 1
4.081057 -3.336200 -27.852707 28.347108 -0.685312 2.954553 0.137142 -0.040938 -512385.000000 0 0 1
2.896557 -4.081600 -27.797807 28.244780 -0.953615 2.963453 0.143131 -0.036276 -118420.000000 0 0 1
2.977857 -5.267700 -26.788607 27.463535 -1.056279 2.919436 0.122203 -0.038522 -79036.900000 0 0 1
2.943257 -4.734700 -25.500107 26.102406 -1.014620 2.926354 0.115756 -0.042513 -10084.100000 0 0 1
3.335857 -5.703500 -24.597807 25.469785 -1.041569 2.879170 0.100321 -0.047730 -130517.000000 0 0 1
3.203157 -5.218400 -23.127407 23.924232 -1.020277 2.882777 0.108574 -0.053087 -142937.000000 0 1 0
3.934657 -4.062100 -22.846207 23.535746 -0.801334 2.898934 0.107794 -0.050481 -250157.000000 0 1 0
3.742157 -3.496100 -21.552607 22.152682 -0.751417 2.908306 0.087428 -0.042593 171766.000000 0 1 0
4.817557 -2.403200 -21.248107 21.919541 -0.462721 2.893442 0.091428 -0.039031 1638220.000000 0 1 0
6.176057 -2.858500 -21.000407 22.075593 -0.433477 2.828207 0.091972 -0.037129 1385520.000000 0 1 0
6.974057 -1.754000 -20.501407 21.726060 -0.246393 2.804234 0.097988 -0.029570 695786.000000 0 1 0
8.395857 -2.219800 -20.082107 21.879418 -0.258478 2.733435 0.115637 -0.037131 -152768.000000 0 1 0
9.166157 -2.631400 -21.219207 23.263651 -0.279560 2.719219 0.127783 -0.049678 761488.000000 0 1 0
10.490857 -3.129600 -21.000107 23.682419 -0.289912 2.661037 0.109868 -0.045979 1240200.000000 0 1 0
11.578657 -2.180300 -20.438407 23.591259 -0.186124 2.618654 0.110860 -0.037047 -581331.000000 0 1 0
11.417957 -1.969100 -19.008507 22.261411 -0.170777 2.594186 0.091597 -0.029696 645978.000000 0 1 0
12.598557 -1.607900 -18.277907 22.257378 -0.126939 2.534319 0.107011 -0.031688 457920.000000 0 1 0
13.082157 -0.155300 -18.316407 22.509058 -0.011871 2.521346 0.098561 -0.030984 7567.420000 0 1 0
13.491457 0.207300 -19.636307 23.825342 0.015364 2.539544 0.107510 -0.037786 309824.000000 0 1 0
14.072957 1.512900 -19.521307 24.112619 0.107093 2.514248 0.142164 -0.045614 -159244.000000 0 1 0
14.364257 2.288400 -20.786007 25.369800 0.157984 2.531022 0.113786 -0.041779 320485.000000 0 0 1
15.696157 2.055500 -21.267407 26.512205 0.130215 2.501724 0.129094 -0.039495 754008.000000 0 0 1
16.028557 3.041400 -22.224207 27.569551 0.187520 2.508352 0.117049 -0.033999 -456786.000000 0 0 1
17.466257 3.045500 -22.748707 28.841790 0.172629 2.479555 0.089144 -0.019291 -397253.000000 0 0 1
17.725057 2.106100 -23.743107 29.704350 0.118266 2.496949 0.073341 -0.014257 167471.000000 0 0 1
18.946157 1.438800 -23.481407 30.206017 0.075796 2.461279 0.092281 -0.024394 -45407.700000 0 0 1
10.284434 26.513500 2.996929 28.595749 1.200769 1.465800 0.040435 -0.025174 70836.900000 0 0 1
10.170834 26.916600 4.381529 29.105790 1.209516 1.419684 0.052730 -0.027977 -74397.600000 0 0 1
11.408934 27.271400 4.944229 29.972295 1.174574 1.405079 0.048112 -0.024497 -339328.000000 0 0 1
11.327334 27.763900 6.380129 30.656952 1.183423 1.361150 0.051056 -0.031304 -46837.300000 0 0 1
11.064834 26.740300 7.308629 29.847785 1.178460 1.323418 0.053630 -0.036994 35167.900000 0 0 1
11.107334 27.385700 8.580129 30.772846 1.185481 1.288230 0.050062 -0.029263 -325635.000000 0 0 1
10.843334 26.427000 9.854929 30.217278 1.181431 1.238584 0.068540 -0.026234 912581.000000 0 0 1
12.005134 25.695700 10.324229 30.182478 1.133728 1.221688 0.070780 -0.027016 1222950.000000 0 0 1
12.647334 24.771300 9.412829 29.362795 1.098733 1.244465 0.083661 -0.036412 194893.000000 0 0 1
14.050834 24.314200 9.857729 29.762075 1.046796 1.233202 0.094877 -0.036669 44142.500000 0 0 1
15.109434 25.237200 9.762329 30.992166 1.031336 1.250347 0.097820 -0.034580 -208589.000000 0 0 1
16.262034 24.698000 10.357129 31.332333 0.988514 1.233902 0.089891 -0.032577 714117.000000 0 0 1
17.480934 25.698300 10.512029 32.809883 0.973458 1.244653 0.077820 -0.030042 122537.000000 0 0 1
18.137034 26.037800 9.283529 33.062108 0.962379 1.286179 0.064561 -0.033659 337538.000000 0 0 1
19.544234 26.106800 9.318129 33.917100 0.928175 1.292485 0.069682 -0.037745 163758.000000 0 0 1
20.304134 26.980400 10.340329 35.314618 0.925664 1.273636 0.069969 -0.035642 -912868.000000 0 0 1
20.292334 28.424400 10.160229 36.372457 0.950799 1.287691 0.078340 -0.053206 1080020.000000 0 0 1
19.043634 29.007800 10.593329 36.281278 0.989865 1.274502 0.066523 -0.030703 905710.000000 0 0 1
19.361134 30.480100 10.824329 37.696898 1.004892 1.279555 0.070934 -0.020858 -785647.000000 0 0 1
19.643134 31.250900 9.674629 38.158484 1.009640 1.314460 0.085455 -0.048229 529954.000000 0 0 1
18.567334 31.486500 8.745529 37.584969 1.037991 1.335957 0.084545 -0.050798 242854.000000 0 0 1
17.242734 32.032500 9.254329 37.537122 1.076989 1.321690 0.083198 -0.045660 -866288.000000 0 0 1
17.375034 33.340000 9.607129 38.803922 1.090375 1.320613 0.081651 -0.042694 1386100.000000 0 0 1
16.057134 -33.724814 9.810429 38.619155 -1.126433 1.313952 0.085571 -0.031411 1412640.000000 0 0 1
16.274134 -32.191714 10.070329 37.450840 -1.102728 1.298551 0.085041 -0.024804 -229702.000000 0 0 1
16.932034 -31.597714 9.012929 36.964066 -1.078872 1.324484 0.091956 -0.030469 -125582.000000 0 0 1
17.198534 -30.259814 9.208229 36.003297 -1.053965 1.312162 0.076976 -0.023285 -27534.400000 0 0 1
18.045534 -29.630414 8.075129 35.620366 -1.023770 1.342108 0.059225 -0.020882 -184663.000000 0 0 1
17.341234 -29.577814 6.858029 34.965670 -1.040517 1.373380 0.056468 -0.025741 -253734.000000 0 0 1
18.066634 -28.968514 5.834129 34.635461 -1.013158 1.401546 0.039787 -0.009934 -26944.700000 0 0 1
17.459934 -29.245414 4.448329 34.350126 -1.032575 1.440932 0.047354 -0.008916 61296.500000 0 0 1
17.675034 -30.613314 4.072929 35.583291 -1.047187 1.456083 0.042688 -0.015485 -40668.000000 0 0 1
17.485634 -30.610514 2.658529 35.352776 -1.051800 1.495525 0.043471 -0.013652 -179652.000000 0 0 1
17.640534 -32.040614 2.002729 36.630593 -1.067517 1.516095 0.046014 -0.014461 -34553.700000 0 0 1
18.966234 -32.531214 1.995929 37.709172 -1.042958 1.517842 0.055412 -0.006308 49447.100000 0 0 1
19.041334 -33.784814 1.423629 38.807381 -1.057567 1.534104 0.076381 -0.015535 -687236.000000 0 0 1
20.454534 33.315500 1.540229 39.123942 1.020172 1.531418 0.073615 -0.017087 -458247.000000 0 0 1
20.892134 33.158800 2.896529 39.298565 1.008564 1.497024 0.073057 -0.037207 765284.000000 0 0 1
22.211434 32.595000 3.012629 39.558283 0.972638 1.494566 0.064797 -0.025111 813646.000000 0 0 1
22.807634 32.531300 4.454129 39.978906 0.959334 1.459153 0.063571 -0.028102 -173203.000000 0 0 1
22.243134 31.520800 5.255629 38.935068 0.956278 1.435399 0.080105 -0.041606 -85904.200000 0 0 1
23.008034 30.344000 5.379629 38.458658 0.922042 1.430455 0.068337 -0.050262 -172993.000000 0 0 1
22.301234 29.294100 6.332229 37.357549 0.920110 1.400471 0.081550 -0.054587 81758.000000 0 0 1
21.096034 28.902900 5.737929 36.240090 0.940288 1.411796 0.082235 -0.051935 -1465920.000000 0 0 1
20.181534 28.630000 6.701629 35.663470 0.956784 1.381759 0.076898 -0.063384 -407495.000000 0 0 1
18.725634 28.654700 6.134029 34.775962 0.991970 1.393482 0.096527 -0.053403 40507.200000 0 0 1
18.046934 29.802300 5.830729 35.325152 1.026302 1.404979 0.085528 -0.055633 -238084.000000 0 0 1
18.554634 30.540000 4.703529 36.042881 1.024842 1.439925 0.096731 -0.054185 -145659.000000 0 0 1
18.441234 32.060700 4.957429 37.316802 1.048814 1.437555 0.101377 -0.048645 -558731.000000 0 0 1
17.142534 32.505800 5.136329 37.106272 1.085494 1.431928 0.093278 -0.045847 -983052.000000 0 0 1
17.120134 -33.773514 5.434529 38.252887 -1.101636 1.428246 0.089096 -0.044528 -490550.000000 0 0 1
15.706034 -33.302314 5.773829 37.270105 -1.130109 1.415251 0.079542 -0.041097 -387146.000000 0 0 1
14.891234 -33.306214 4.634129 36.776730 -1.150356 1.444453 0.078538 -0.027290 514861.000000 0 0 1
13.847634 -32.280514 4.641029 35.430604 -1.165561 1.439430 0.073622 -0.022890 999444.000000 0 0 1
13.125134 -32.072714 3.285629 34.809819 -1.182358 1.476268 0.073296 -0.019267 365370.000000 0 0 1
12.095834 -31.103214 3.521729 33.557737 -1.199901 1.465657 0.086005 -0.031504 -177365.000000 0 0 1
11.396634 -30.962414 2.349729 33.076813 -1.218107 1.499698 0.079137 -0.018117 -982906.000000 0 0 1
10.578634 -29.700014 2.249029 31.607855 -1.228624 1.499582 0.098392 -0.024927 -225321.000000 0 0 1
9.807634 -29.354314 1.114429 30.969459 -1.248345 1.534804 0.097474 -0.012243 562753.000000 0 0 1
8.770234 -30.249514 0.669629 31.502357 -1.288604 1.549538 0.076768 -0.016650 -243485.000000 0 0 1
8.979334 -30.968814 -0.740971 32.252828 -1.288587 1.593772 0.085389 -0.019809 -610322.000000 0 0 1
10.108334 -31.773114 -0.730471 33.350304 -1.262781 1.592701 0.083587 -0.024399 -696389.000000 0 0 1
10.219834 -32.545514 -1.897571 34.165132 -1.266530 1.626366 0.073659 -0.009395 -1198750.000000 0 0 1
11.435834 -33.380414 -2.054771 35.344765 -1.240737 1.628964 0.070364 -0.004052 -1073740.000000 0 0 1
11.610434 33.399500 -0.928971 35.372189 1.236241 1.597062 0.069695 -0.003663 -102124.000000 0 0 1
12.805834 32.658400 -1.012271 35.093948 1.197106 1.599645 0.076105 -0.006529 -253050.000000 0 0 1
13.122834 31.720400 0.194729 34.328275 1.178533 1.565124 0.065702 -0.015594 -354989.000000 0 0 1
13.567134 32.295600 1.369129 35.056347 1.173090 1.531731 0.069056 -0.018530 370098.000000 0 0 1
14.909734 32.778600 1.407629 36.037733 1.143907 1.531727 0.080188 -0.016749 1106390.000000 0 0 1
16.058434 31.692300 1.610929 35.565015 1.101804 1.525485 0.087624 -0.026296 96308.400000 0 0 1
16.507534 31.101000 0.417329 35.212854 1.082835 1.558944 0.088846 -0.024705 -451558.000000 0 0 1
17.330934 30.051100 0.751529 34.698627 1.047674 1.549136 0.103354 -0.027325 -725573.000000 0 0 1
18.174634 29.420500 -0.379971 34.583631 1.017425 1.581784 0.097083 -0.017969 1097100.000000 0 0 1
19.277534 30.211800 -0.889971 35.849243 1.002847 1.595624 0.082508 -0.009255 1200200.000000 0 0 1
18.749734 31.214700 -1.748971 36.455026 1.029884 1.618791 0.073915 -0.012299 596187.000000 0 0 1
19.982734 31.945600 -2.371271 37.755185 1.011820 1.633644 0.065585 -0.007855 428519.000000 0 0 1
20.670434 32.865000 -1.593371 38.857611 1.009362 1.611813 0.052578 -0.003796 -358288.000000 0 0 1
21.605434 33.546200 -2.391671 39.973271 0.998615 1.630664 0.059166 -0.001483 -769131.000000 0 0 1
22.505334 -33.221914 -1.474271 40.154192 -0.975383 1.607520 0.063203 -0.001544 1064770.000000 0 0 1
23.690634 -33.815614 -0.799971 41.296269 -0.959679 1.590169 0.052145 -0.001884 2945240.000000 0 0 1
24.754034 33.216200 -1.606271 41.456704 0.930349 1.609552 0.061683 -0.001010 1102800.000000 0 0 1
25.433034 -33.547114 -2.707471 42.185050 -0.922113 1.635021 0.060229 -0.006723 -340975.000000 0 0 1
24.535834 -33.333014 -3.794971 41.563190 -0.936262 1.662230 0.043773 -0.009871 369571.000000 0 0 1
25.230134 -32.643914 -4.822671 41.538451 -0.912806 1.687160 0.047348 -0.011867 125685.000000 0 0 1
24.371134 -32.135714 -6.016471 40.778110 -0.921953 1.718879 0.048433 -0.014840 203396.000000 0 0 1
23.238934 -31.357614 -5.634271 39.434668 -0.933020 1.714163 0.059230 -0.018209 199776.000000 0 0 1
22.806634 -30.690714 -6.760371 38.829951 -0.931718 1.745790 0.066275 -0.026051 -680396.000000 0 0 1
21.751234 -29.661814 -6.456571 37.344701 -0.938064 1.744561 0.079449 -0.029282 -1126080.000000 0 0 1
20.509834 -30.164814 -6.096471 36.982918 -0.973670 1.736398 0.066082 -0.020709 -1011220.000000 0 0 1
19.733334 -29.026014 -5.841571 35.581427 -0.973722 1.735718 0.077868 -0.032269 335950.000000 0 0 1
18.463434 -29.161214 -4.951171 34.868165 -1.006358 1.713275 0.065556 -0.017493 894204.000000 0 0 1
17.409234 -29.963214 -5.458571 35.080930 -1.044449 1.727031 0.069322 -0.019967 791003.000000 0 0 1
16.260234 -30.036614 -4.591271 34.462634 -1.074621 1.704418 0.056801 -0.011216 1299070.000000 0 0 1
15.079034 -30.980714 -5.000371 34.816456 -1.117826 1.714916 0.061113 -0.008822 440483.000000 0 0 1
15.350334 -32.357014 -4.999971 36.160874 -1.127833 1.709511 0.052784 -0.000568 -47575.000000 0 0 1
14.167434 -33.113814 -5.176571 36.387330 -1.166522 1.713544 0.063192 0.002888 282205.000000 0 0 1
14.496034 32.993400 -5.192971 36.409702 1.156824 1.713910 0.058348 0.004817 96504.700000 0 0 1
14.767834 32.415700 -3.964571 35.841099 1.143315 1.681638 0.062633 -0.003771 -243722.000000 0 0 1
15.256734 31.100000 -4.025771 34.873841 1.114721 1.686492 0.074970 -0.007079 -446531.000000 0 0 1
14.307334 29.994600 -4.497571 33.535116 1.125720 1.705317 0.079339 -0.010019 73914.400000 0 0 1
13.242134 29.620700 -3.634171 32.648847 1.150393 1.682338 0.071645 -0.012331 199208.000000 0 0 1
13.654334 28.943600 -2.463371 32.097368 1.129998 1.647619 0.079632 -0.021771 195498.000000 0 0 1
12.495734 28.137900 -1.747971 30.837318 1.152869 1.627510 0.058689 -0.018870 341264.000000 0 0 1
11.541034 28.964500 -1.147671 31.200239 1.191623 1.607589 0.046112 -0.020948 -970512.000000 0 0 1
10.702234 28.179500 -0.388371 30.145860 1.207835 1.583680 0.036180 -0.017201 -955115.000000 0 0 1
9.406734 28.933700 -0.100471 30.424591 1.256462 1.574099 0.036522 -0.011688 -421738.000000 0 0 1
8.585734 28.258900 0.814729 29.545627 1.275835 1.543218 0.033200 -0.021205 -497698.000000 0 0 1
7.276834 28.747800 0.835029 29.666237 1.322877 1.542645 0.045801 -0.017701 -226254.000000 0 0 1
6.356134 28.046700 1.882629 28.819475 1.347934 1.505425 0.045445 -0.029225 130172.000000 0 0 1
5.827234 26.835000 1.460629 27.499224 1.356966 1.517656 0.065170 -0.042447 -59674.400000 0 0 1
4.427134 26.769800 1.643429 27.183130 1.406902 1.510302 0.064617 -0.042645 44323.900000 0 0 1
3.787434 25.633200 0.851929 25.925497 1.424103 1.537930 0.074678 -0.044945 -297476.000000 0 0 1
2.432034 25.369300 1.114329 25.509957 1.475223 1.527100 0.070366 -0.038616 -25479.700000 0 0 1
2.158834 24.096400 0.481829 24.197711 1.481443 1.550883 0.070528 -0.041472 18185.900000 0 1 0
0.659634 23.712100 0.442929 23.725408 1.542985 1.552126 0.055286 -0.032153 -445545.000000 0 1 0
-0.167366 24.467600 -0.412271 24.471646 -1.563956 1.587644 0.066838 -0.048783 -1629.850000 0 1 0
-1.533466 24.110700 -0.301571 24.161298 -1.507281 1.583278 0.045984 -0.031315 440247.000000 0 1 0
-2.288466 24.674100 0.967229 24.798868 -1.478313 1.531783 0.080384 -0.048388 -2041100.000000 0 1 0
-3.646066 24.582200 0.860129 24.866005 -1.423548 1.536199 0.078479 -0.032256 -1141670.000000 0 1 0
-4.279766 25.284000 1.949829 25.717677 -1.403118 1.494907 0.077287 -0.041452 442918.000000 0 0 1
-5.831366 25.304100 1.831229 26.031821 -1.344299 1.500392 0.096872 -0.044132 415569.000000 0 0 1
-6.081866 26.240500 0.770429 26.947106 -1.343044 1.542202 0.124882 -0.044279 330060.000000 0 0 1
-7.451866 26.345000 0.389329 27.381397 -1.295140 1.556577 0.135193 -0.036716 424376.000000 0 0 1
-7.638666 27.444300 -0.726871 28.496792 -1.299334 1.596306 0.141577 -0.037739 -101326.000000 0 0 1
-7.511466 28.775500 -0.221271 29.740553 -1.315457 1.578236 0.166145 -0.054835 37348.700000 0 0 1
-7.695966 29.697600 -1.301271 30.706166 -1.317230 1.613187 0.167788 -0.052044 21151.800000 0 0 1
-7.579766 31.226400 -0.955571 32.147380 -1.332666 1.600525 0.149030 -0.052880 -598090.000000 0 0 1
-7.952066 32.083800 -2.005571 33.115373 -1.327839 1.631397 0.132390 -0.034119 -292728.000000 0 0 1
-7.189166 32.084800 -3.193671 33.035103 -1.350369 1.667623 0.118943 -0.032637 -407628.000000 0 0 1
-5.701166 32.464700 -3.157971 33.112427 -1.396958 1.666313 0.156549 -0.037227 -602847.000000 0 0 1
-5.352366 33.729700 -2.712471 34.259276 -1.413424 1.650054 0.163376 -0.048767 27754.700000 0 0 1
-4.919066 33.659200 -1.353971 34.043681 -1.425680 1.610578 0.180588 -0.053855 -352080.000000 0 0 1
-4.430966 -32.656814 -0.815571 32.966136 1.435937 1.595539 0.181248 -0.052634 -506076.000000 0 0 1
-5.428466 -31.732314 -0.562371 32.198203 1.401366 1.588263 0.161502 -0.045076 -736386.000000 0 0 1
-5.359666 -30.640114 -1.471871 31.140151 1.397625 1.618080 0.173852 -0.046894 506597.000000 0 0 1
-6.628666 -29.750614 -1.719571 30.528596 1.351570 1.627153 0.165437 -0.044038 434304.000000 0 0 1
-7.206466 -29.139914 -0.604671 30.023880 1.328355 1.590937 0.157123 -0.035691 355892.000000 0 0 1
-8.441566 -28.479114 -0.944271 29.718877 1.282634 1.602575 0.101259 -0.026927 931689.000000 0 0 1
-9.037766 -27.835914 0.338229 29.268306 1.256854 1.559240 0.094844 -0.023481 -882894.000000 0 0 1
-8.265066 -26.765114 0.782429 28.023113 1.271286 1.542872 0.113499 -0.037530 -388426.000000 0 0 1
-8.310366 -26.574614 2.180629 27.928971 1.267713 1.492639 0.111465 -0.020555 442340.000000 0 0 1
-9.100966 -25.288114 2.605829 27.001975 1.225337 1.474141 0.103175 -0.024571 299138.000000 0 0 1
-8.218666 -24.226314 2.730229 25.727707 1.243734 1.464476 0.109715 -0.037277 -426010.000000 0 0 1
-9.002766 -23.092414 3.005029 24.966770 1.199063 1.450143 0.106301 -0.044102 201736.000000 0 1 0
-8.216866 -21.787114 3.301029 23.517909 1.210148 1.429969 0.069199 -0.019819 391169.000000 0 1 0
-7.765566 -21.750814 4.679129 23.564723 1.227878 1.370903 0.076294 -0.024353 -300457.000000 0 1 0
-7.118066 -20.601714 5.109929 22.387695 1.238128 1.340519 0.045110 -0.019539 292380.000000 0 1 0
-8.002066 -19.642214 6.003629 22.042985 1.183934 1.294951 0.053252 -0.019044 497344.000000 0 1 0
-8.439066 -20.203514 7.234129 23.059324 1.175123 1.251690 0.063454 -0.021552 406204.000000 0 1 0
-9.313566 -19.370314 8.015829 22.939161 1.122613 1.213824 0.052925 -0.015076 -30655.600000 0 1 0
-28.322416 29.258200 -4.863971 41.010483 -0.801648 1.689679 0.247189 -0.010100 -3332.610000 0 0 1
-27.088006 29.937200 -4.810271 40.658760 -0.835320 1.689382 0.229317 -0.035336 -741702.000000 0 0 1
-26.179566 29.145300 -4.156371 39.396619 -0.838953 1.676494 0.203248 -0.024860 -361293.000000 0 0 1
-25.118046 29.927000 -3.367371 39.215823 -0.872541 1.656770 0.170787 -0.024015 -315167.000000 0 0 1
-25.750076 30.519000 -2.237171 39.993509 -0.869948 1.626764 0.137123 -0.031838 655343.000000 0 0 1
-24.891466 31.401900 -1.529071 40.099906 -0.900539 1.608937 0.126472 -0.029495 880103.000000 0 0 1
-23.611266 30.874500 -0.781971 38.875932 -0.917922 1.590912 0.104933 -0.019349 1368620.000000 0 0 1
-22.578066 30.288300 -1.634971 37.813005 -0.930221 1.614048 0.114581 -0.026560 434296.000000 0 0 1
-21.430666 30.090600 -0.847871 36.951814 -0.951926 1.593744 0.085847 -0.023490 -1184350.000000 0 0 1
-20.291966 29.619700 -1.683771 35.943367 -0.970152 1.617659 0.100620 -0.018519 -1535330.000000 0 0 1
-19.072066 29.602900 -1.005671 35.229062 -0.998464 1.599347 0.096152 -0.017820 -788637.000000 0 0 1
-18.137766 29.070800 -1.915071 34.318471 -1.012976 1.626628 0.098695 -0.015516 211344.000000 0 0 1
-16.698466 29.113500 -1.299771 33.587558 -1.050042 1.609504 0.115159 -0.030245 171681.000000 0 0 1
-16.401366 28.295500 -0.218371 32.706082 -1.045478 1.577473 0.112391 -0.040698 624962.000000 0 0 1
-15.247466 28.888200 0.421729 32.667892 -1.085149 1.557886 0.122754 -0.057932 492508.000000 0 0 1
-14.694566 28.088400 1.556429 31.738163 -1.088797 1.521737 0.128855 -0.061210 -433132.000000 0 0 1
-15.500566 28.074400 2.726929 32.185022 -1.066323 1.485968 0.118687 -0.063376 131648.000000 0 0 1
-14.876166 27.538400 3.914429 31.543408 -1.075510 1.446379 0.125510 -0.066946 311109.000000 0 0 1
-13.747666 28.390100 4.560529 31.871532 -1.119835 1.427212 0.115685 -0.064620 54102.700000 0 0 1
-14.092066 29.622400 5.165729 33.207795 -1.126758 1.414604 0.094063 -0.047030 -458438.000000 0 0 1
-14.154966 30.758800 4.347129 34.137434 -1.139499 1.443108 0.094357 -0.037443 15609.700000 0 0 1
-13.910866 32.054800 5.166329 35.322986 -1.161351 1.424010 0.096943 -0.039343 240665.000000 0 0 1
-14.967966 32.369700 6.073829 36.176358 -1.137673 1.402102 0.101856 -0.049682 276727.000000 0 0 1
-14.726866 33.648600 6.639729 37.325526 -1.158246 1.391957 0.090451 -0.044391 408287.000000 0 0 1
-15.902966 -33.406214 7.501929 37.751270 1.126493 1.370745 0.092418 -0.041143 548909.000000 0 0 1
-16.124666 33.392000 8.643129 38.075376 -1.120930 1.341800 0.086411 -0.046284 -6258.110000 0 0 1
-17.328966 33.768500 9.279129 39.073097 -1.096669 1.331024 0.085885 -0.040448 -416908.000000 0 0 1
-17.486066 32.940700 10.557529 38.759691 -1.082786 1.294926 0.076431 -0.024630 700095.000000 0 0 1
-16.624966 33.262000 11.671129 38.973907 -1.107294 1.266670 0.085929 -0.026265 -267645.000000 0 0 1
-15.265766 32.973800 11.639029 38.154713 -1.137212 1.260807 0.096653 -0.032230 -678967.000000 0 0 1
-14.618966 33.096800 13.018029 38.452327 -1.154863 1.225421 0.086306 -0.027512 -260271.000000 0 0 1
-15.017766 31.989800 13.809029 37.941665 -1.131882 1.198287 0.068763 -0.021964 39733.900000 0 0 1
-14.115466 30.921500 13.920529 36.731005 -1.142555 1.182096 0.056261 -0.028563 -233377.000000 0 0 1
-14.725566 29.617600 13.281029 35.643096 -1.109399 1.188975 0.056905 -0.029963 288189.000000 0 0 1
-14.536566 29.571700 11.907329 35.036862 -1.113915 1.224037 0.061432 -0.026080 235784.000000 0 0 1
-15.767166 29.240900 11.300829 35.090490 -1.076270 1.242904 0.042048 -0.023876 -6501.190000 0 0 1
-15.719966 29.193300 9.747229 34.559725 -1.076842 1.284876 0.062634 -0.024365 -206704.000000 0 0 1
-15.005766 28.068700 9.375129 33.180084 -1.079847 1.284342 0.055014 -0.025907 -126929.000000 0 0 1
-14.791866 27.842000 7.992729 32.524760 -1.082440 1.322510 0.061793 -0.036967 -5466.500000 0 0 1
-13.874666 26.578300 7.810829 30.982599 -1.089681 1.315943 0.070928 -0.036486 860683.000000 0 0 1
-12.486966 26.791800 8.076029 30.642244 -1.134656 1.304087 0.063930 -0.034365 928848.000000 0 0 1
-11.652166 25.625700 7.907229 29.239934 -1.144036 1.296961 0.081683 -0.037783 818394.000000 0 0 1
-10.607366 25.779400 6.726729 28.676516 -1.180444 1.334017 0.116438 -0.051852 69043.000000 0 0 1
-11.162666 25.977900 5.437129 28.792686 -1.164953 1.380818 0.125578 -0.060128 -92407.300000 0 0 1
-10.167666 25.777600 4.506229 28.074405 -1.195094 1.409589 0.143577 -0.050417 -442007.000000 0 0 1
-10.570366 26.376900 3.109529 28.585708 -1.189649 1.461801 0.151423 -0.055687 35928.100000 0 0 1
-10.558966 27.783600 3.080829 29.881628 -1.207612 1.467512 0.147559 -0.048102 42669.200000 0 0 1
-10.692866 28.268400 1.800829 30.276770 -1.209169 1.511282 0.155144 -0.055446 -191867.000000 0 0 1
-10.190366 29.679600 1.585029 31.420289 -1.240062 1.520329 0.176415 -0.058526 18386.600000 0 0 1
-10.993266 30.692900 2.180529 32.675078 -1.226862 1.504013 0.147154 -0.060916 100957.000000 0 0 1
-10.638066 31.978400 1.738529 33.746244 -1.249648 1.519256 0.139775 -0.049967 -132687.000000 0 0 1
-11.329566 33.086600 2.624429 35.070925 -1.240889 1.495894 0.115781 -0.046376 184170.000000 0 0 1
-12.640766 33.466100 2.284129 35.846702 -1.209644 1.507034 0.122897 -0.045661 -240617.000000 0 0 1
-12.707666 -33.396814 1.119729 35.750325 1.207208 1.539470 0.108618 -0.035671 -1394550.000000 0 0 1
-14.097066 -33.373614 0.532429 36.232704 1.171129 1.556101 0.114285 -0.029061 -756919.000000 0 0 1
-14.625666 32.997700 0.269529 36.094750 -1.153584 1.563329 0.097111 -0.026174 286196.000000 0 0 1
-15.666166 32.916600 -0.713971 36.461501 -1.126585 1.590379 0.113178 -0.027802 -102330.000000 0 0 1
-15.227166 32.783700 -2.195871 36.214078 -1.135971 1.631469 0.110710 -0.031120 -177529.000000 0 0 1
-14.515466 31.627200 -2.569871 34.893879 -1.140520 1.644511 0.107490 -0.030623 -257750.000000 0 0 1
-13.142266 31.694100 -2.312671 34.388713 -1.177717 1.638098 0.136916 -0.028845 -874785.000000 0 0 1
-12.391466 30.420900 -2.712471 32.959628 -1.183984 1.653186 0.112825 -0.031844 16234.400000 0 0 1
-12.252766 30.186300 -4.111071 32.836624 -1.185210 1.696323 0.097557 -0.020845 570638.000000 0 0 1
-10.875866 29.847900 -4.341271 32.062879 -1.221372 1.706612 0.087195 -0.026940 1008190.000000 0 0 1
-10.675466 29.149200 -5.757471 31.571980 -1.219732 1.754183 0.082855 -0.022351 142377.000000 0 0 1
-11.132866 27.790700 -5.843671 30.502659 -1.189776 1.763567 0.078565 -0.018711 174885.000000 0 0 1
-10.726366 27.241500 -7.142971 30.135963 -1.195689 1.810099 0.068979 -0.013780 483768.000000 0 0 1
-11.294266 25.811500 -7.317371 29.109069 -1.158329 1.824900 0.088074 -0.025050 596765.000000 0 0 1
-10.615866 24.859200 -6.494471 27.800263 -1.167199 1.806587 0.060690 -0.014880 -137204.000000 0 0 1
-11.269566 23.658900 -6.662771 27.039586 -1.126259 1.819769 0.081652 -0.022039 -181218.000000 0 0 1
-10.737566 22.432900 -5.853771 25.549892 -1.124372 1.801961 0.073482 -0.024796 226031.000000 0 0 1
-9.463766 21.952700 -6.341771 24.732609 -1.163772 1.830106 0.079520 -0.022527 714848.000000 0 1 0
-9.021466 20.778800 -5.666371 23.350656 -1.161187 1.815908 0.080249 -0.023904 -408384.000000 0 1 0
-8.629466 20.771400 -4.200971 22.881584 -1.177043 1.755440 0.087301 -0.036462 -202417.000000 0 1 0
-9.639366 20.858900 -3.189471 23.198789 -1.137907 1.708718 0.088099 -0.032779 1038.860000 0 1 0
-10.445766 19.707800 -3.114371 22.521339 -1.083413 1.709526 0.085593 -0.029884 -290803.000000 0 1 0
-11.773366 19.740400 -2.333671 23.102848 -1.033021 1.671981 0.075817 -0.025570 -148398.000000 0 1 0
-11.754566 19.718400 -0.930471 22.975006 -1.033233 1.611307 0.087153 -0.026616 -69771.000000 0 1 0
-11.249166 18.470000 -0.457471 21.630856 -1.023748 1.591947 0.072415 -0.016118 -214812.000000 0 1 0
-11.094266 18.290900 1.065429 21.419031 -1.025578 1.521034 0.075354 -0.023479 25065.700000 0 1 0
-12.283466 18.422900 1.832429 22.218114 -0.982736 1.488228 0.102026 -0.026782 -64400.800000 0 1 0
-12.146866 18.657300 3.207629 22.492890 -0.993682 1.427702 0.097246 -0.015078 140294.000000 0 1 0
-13.478166 18.535700 3.994929 23.263547 -0.942083 1.398216 0.107033 -0.028320 383681.000000 0 1 0
-13.977766 17.199500 4.168629 22.551679 -0.888369 1.384879 0.077799 -0.025006 1059880.000000 0 1 0
-15.263666 17.200200 4.824129 23.496779 -0.844980 1.364016 0.102673 -0.034584 1005310.000000 0 1 0
-15.755566 15.803000 5.340029 22.945339 -0.786901 1.335914 0.079499 -0.032216 20251.900000 0 1 0
-14.965866 15.281100 6.401729 22.326471 -0.795820 1.279982 0.075089 -0.026457 114757.000000 0 1 0
-15.254166 15.886300 7.647229 23.314035 -0.805695 1.236600 0.067540 -0.024405 -458817.000000 0 1 0
-14.190366 15.642700 8.783029 22.873613 -0.834042 1.176693 0.069071 -0.023817 840257.000000 0 1 0
-13.002066 16.405300 8.743529 22.685610 -0.900613 1.175131 0.073767 -0.030037 362325.000000 0 1 0
-12.121766 16.183400 7.642529 21.615918 -0.927920 1.209422 0.067178 -0.028455 -539936.000000 0 1 0
-11.028866 17.249800 7.525029 21.813243 -1.001936 1.218584 0.077557 -0.028879 166007.000000 0 1 0
-9.971566 17.283100 8.457929 21.671969 -1.047494 1.169871 0.068056 -0.029433 -395274.000000 0 1 0
-9.208566 18.390100 8.358229 22.200303 -1.106561 1.184790 0.057512 -0.030103 -1315290.000000 0 1 0
-7.923366 18.474800 9.125229 22.076408 -1.165649 1.144669 0.050292 -0.028113 -1426910.000000 0 1 0
-6.914266 17.561900 8.695829 20.780877 -1.195726 1.139055 0.037546 -0.025362 705989.000000 0 1 0
-5.746766 17.696800 9.550329 20.914369 -1.256804 1.096582 0.036059 -0.025164 1176760.000000 0 1 0
-4.788166 18.862900 9.146329 21.503276 -1.322206 1.131452 0.023099 -0.018406 -1404500.000000 0 1 0
-5.242066 20.160700 9.332829 22.826187 -1.316415 1.149586 0.033928 -0.024706 -261934.000000 0 1 0
-4.731366 21.053100 8.347429 23.136517 -1.349734 1.201681 0.033151 -0.027413 772774.000000 0 1 0
-3.304866 21.704400 8.477529 23.534478 -1.419690 1.202295 0.027700 -0.019916 1125950.000000 0 1 0
-2.209166 20.785300 8.349429 22.508267 -1.464909 1.190765 0.019833 -0.003371 988129.000000 0 1 0
-1.030466 21.583800 8.084429 23.071200 -1.523090 1.212785 0.021082 -0.004677 201343.000000 0 1 0
0.280334 20.878000 7.829029 22.299399 1.557370 1.212065 0.017490 0.004234 -265757.000000 0 1 0
0.737434 20.325200 9.039829 22.257046 1.534530 1.152553 0.013749 0.002343 -167677.000000 0 1 0
2.104734 19.951600 9.005829 21.990935 1.465693 1.148863 0.009762 0.003558 114471.000000 0 1 0
2.647134 19.430900 10.324529 22.162200 1.435397 1.086188 0.005712 -0.014079 -1052670.000000 0 1 0
3.981034 19.037900 10.298429 22.007906 1.364656 1.083835 0.032016 -0.005875 -414231.000000 0 1 0
4.401634 18.385200 11.528629 22.142702 1.335808 1.023183 0.031151 -0.020229 1592630.000000 0 1 0
5.971234 18.380700 11.793729 22.640623 1.256687 1.022880 0.058089 -0.025287 1753330.000000 0 1 0
6.793334 17.456800 11.060229 21.753573 1.199677 1.037433 0.049963 -0.028947 145327.000000 0 1 0
7.773434 16.925700 11.918329 22.112263 1.140262 1.001557 0.060096 -0.025173 19347.500000 0 1 0
8.992034 16.281900 11.206929 21.715253 1.066211 1.028522 0.068567 -0.029879 174170.000000 0 1 0
10.011434 17.189500 10.861529 22.664522 1.043407 1.071019 0.078453 -0.042560 -649482.000000 0 1 0
11.119234 16.498500 10.385229 22.443058 0.977765 1.089716 0.076930 -0.040104 -1064190.000000 0 1 0
12.165434 17.417500 9.853629 23.419247 0.961104 1.136525 0.084893 -0.036382 -289611.000000 0 1 0
13.003634 16.861900 8.803329 23.041632 0.913875 1.178770 0.088803 -0.034453 45011.100000 0 1 0
13.830234 17.903400 8.304429 24.099184 0.913055 1.218990 0.112970 -0.031114 -229195.000000 0 1 0
14.853634 17.308300 7.339029 23.959738 0.861573 1.259485 0.117929 -0.037482 552684.000000 0 1 0
16.068734 16.756200 7.916729 24.528536 0.806339 1.242157 0.133535 -0.041703 1125300.000000 0 1 0
17.009834 16.634600 6.845329 24.756876 0.774246 1.290644 0.140039 -0.030157 -1679730.000000 0 1 0
18.411634 16.648000 7.267229 25.864199 0.735137 1.285985 0.145437 -0.031747 -2035880.000000 0 0 1
18.776134 15.433600 7.912329 25.560598 0.688000 1.256075 0.157488 -0.038067 823715.000000 0 0 1
20.015734 15.491600 8.647529 26.746945 0.658667 1.241572 0.158930 -0.040965 650967.000000 0 0 1
20.264534 14.331100 9.636829 26.625181 0.615543 1.200444 0.152154 -0.045691 -50222.800000 0 0 1
20.782334 13.096200 9.136929 26.208765 0.562301 1.214697 0.176877 -0.057861 358892.000000 0 0 1
20.984934 12.140000 10.125529 26.273055 0.524468 1.175159 0.163449 -0.053595 -444735.000000 0 0 1
21.965534 10.997900 9.777329 26.439264 0.464199 1.191999 0.149500 -0.038610 -1273020.000000 0 0 1
23.288734 11.361800 10.103029 27.812351 0.453894 1.199035 0.153224 -0.045071 326627.000000 0 0 1
24.223334 10.752100 9.241129 28.067348 0.417748 1.235289 0.161774 -0.038070 -333213.000000 0 0 1
24.365734 9.188300 9.303729 27.652726 0.360610 1.227653 0.171390 -0.042349 -695520.000000 0 0 1
23.307134 8.472200 8.642929 26.262157 0.348653 1.235444 0.176265 -0.049060 862870.000000 0 0 1
23.301334 7.072700 8.922729 25.934347 0.294694 1.219569 0.167148 -0.043847 -528330.000000 0 0 1
24.372234 6.187700 8.298029 26.479251 0.248630 1.252048 0.178354 -0.038576 -84516.700000 0 0 1
24.105134 6.111800 6.928129 25.814929 0.248315 1.299089 0.162777 -0.023273 1085600.000000 0 0 1
25.238434 5.519400 6.287029 26.588890 0.215301 1.332082 0.184425 -0.025885 387976.000000 0 0 1
24.822834 5.096300 4.883129 25.806788 0.202493 1.380430 0.188010 -0.036347 198064.000000 0 0 1
23.950034 3.959100 4.988129 24.782253 0.163825 1.368134 0.177933 -0.027764 951863.000000 0 1 0
23.360234 3.566000 3.732229 23.923763 0.151483 1.414151 0.186518 -0.033938 -535087.000000 0 1 0
22.432034 2.391300 3.736729 22.866517 0.106201 1.406645 0.178267 -0.031219 -911627.000000 0 1 0
23.020634 1.149900 3.791729 23.359133 0.049909 1.407752 0.205805 -0.038915 -165098.000000 0 1 0
22.115834 0.113600 3.626829 22.411535 0.005137 1.408253 0.191894 -0.038689 -536735.000000 0 1 0
22.793234 -1.250200 3.829929 23.146552 -0.054795 1.404567 0.225089 -0.046040 -513082.000000 0 1 0
22.907934 -1.599000 5.212829 23.547905 -0.069688 1.347576 0.217456 -0.047130 635676.000000 0 1 0
23.006034 -2.984500 5.438329 23.827721 -0.129006 1.340531 0.204579 -0.047493 -357742.000000 0 1 0
23.187434 -3.302300 6.930029 24.425143 -0.141466 1.283120 0.243827 -0.053028 -46123.700000 0 1 0
23.371134 -4.703600 7.045529 24.859068 -0.198604 1.283439 0.227730 -0.052959 403500.000000 0 1 0
23.335434 -5.112600 8.409929 25.326035 -0.215684 1.232303 0.266017 -0.060607 -316077.000000 0 0 1
22.839934 -6.509300 8.537429 25.237299 -0.277636 1.225701 0.240742 -0.060583 138920.000000 0 0 1
21.430034 -6.553300 8.403229 23.933373 -0.296769 1.212041 0.241989 -0.066727 400338.000000 0 1 0
20.809934 -7.514800 9.192729 23.958962 -0.346543 1.177011 0.212011 -0.065865 -340843.000000 0 1 0
-28.478596 -32.129814 5.101529 43.236339 0.845568 1.452529 0.112312 -0.017864 231851.000000 0 0 1
-29.284656 -33.232814 5.514229 44.636507 0.848467 1.446944 0.122105 -0.020640 181510.000000 0 0 1
-29.070626 -33.583114 6.882829 44.947750 0.857297 1.417062 0.097541 -0.003525 2873.220000 0 0 1
-29.852736 32.798900 7.277929 44.943542 -0.832388 1.408145 0.107363 -0.008931 1113210.000000 0 0 1
-31.279246 32.954800 7.391429 46.033068 -0.811477 1.409530 0.112395 -0.009867 826729.000000 0 0 1
-31.973646 31.780500 7.765429 45.745121 -0.782369 1.400216 0.135544 -0.023238 1011970.000000 0 0 1
-33.533476 31.942600 7.714129 46.950309 -0.761106 1.405744 0.124067 -0.020090 757162.000000 0 0 1
-34.078567 32.060000 6.396229 47.223978 -0.754887 1.434934 0.121759 -0.021572 -533812.000000 0 0 1
-35.452773 32.266600 6.481129 48.373936 -0.738383 1.436412 0.094703 -0.017797 -635202.000000 0 0 1
-36.198536 32.204400 5.127629 48.721145 -0.727073 1.465357 0.080082 -0.009429 -108236.000000 0 0 1
-36.158616 30.822400 4.777929 47.752429 -0.705898 1.470572 0.090734 -0.012876 483091.000000 0 0 1
-37.018276 30.684200 3.655329 48.220684 -0.692112 1.494919 0.080794 0.002183 8832.320000 0 0 1
-36.627476 29.420200 2.832429 47.065304 -0.676706 1.510579 0.082201 -0.010288 54679.100000 0 0 1
-36.875426 28.254100 3.566929 46.591997 -0.653791 1.494165 0.117445 -0.025927 340743.000000 0 0 1
-36.228876 27.117000 2.983529 45.351567 -0.642535 1.504962 0.106774 -0.020796 -95974.100000 0 0 1
-36.496706 25.769600 3.717829 44.831954 -0.614795 1.487773 0.139919 -0.029676 883163.000000 0 0 1
-37.858416 25.365500 3.455529 45.701301 -0.590313 1.495113 0.143120 -0.033692 801414.000000 0 0 1
37.582397 24.268000 4.269429 44.939964 0.573366 1.475650 0.163530 -0.037498 1682160.000000 0 0 1
36.033357 23.890400 4.110229 43.428654 0.585465 1.476011 0.169018 -0.042787 1623070.000000 0 0 1
35.649707 22.928500 3.104229 42.500047 0.571552 1.497691 0.143073 -0.039773 318795.000000 0 0 1
36.007407 21.617000 3.546929 42.147464 0.540676 1.486541 0.137247 -0.039983 -720278.000000 0 0 1
35.475847 20.471900 2.638329 41.043820 0.523385 1.506471 0.133918 -0.029239 635391.000000 0 0 1
34.050757 20.333900 2.700129 39.751883 0.538332 1.502819 0.121274 -0.039379 1147780.000000 0 0 1
33.516027 19.595200 3.860829 39.015406 0.529057 1.471678 0.099212 -0.030032 -75789.300000 0 0 1
33.619447 18.087600 3.779429 38.362906 0.493591 1.472118 0.115406 -0.038169 -973816.000000 0 0 1
32.753827 17.503400 2.852029 37.246695 0.490782 1.494150 0.089419 -0.047743 111505.000000 0 0 1
32.905907 16.068500 2.686429 36.718011 0.454257 1.497567 0.102678 -0.043429 -102810.000000 0 0 1
32.072217 15.173400 3.652729 35.667935 0.441898 1.468207 0.121642 -0.046470 1057500.000000 0 0 1
30.649357 15.162900 3.428529 34.366429 0.459416 1.470866 0.082699 -0.039594 901131.000000 0 0 1
29.969257 14.100600 4.038229 33.366009 0.439772 1.449471 0.088305 -0.046166 -170291.000000 0 0 1
28.443057 14.275000 4.054729 32.081520 0.465150 1.444069 0.098724 -0.044109 -430004.000000 0 0 1
27.861057 14.041200 2.825829 31.326971 0.466820 1.480469 0.114122 -0.053833 644813.000000 0 0 1
26.459657 14.376000 2.913029 30.253406 0.497698 1.474359 0.093690 -0.036961 1025550.000000 0 0 1
25.590757 14.045200 1.676229 29.239771 0.501951 1.513438 0.107879 -0.031510 -362042.000000 0 0 1
26.017357 14.624700 0.453729 29.849465 0.512096 1.555595 0.116051 -0.031949 97507.900000 0 0 1
27.064457 13.836700 -0.088671 30.396496 0.472607 1.573713 0.112711 -0.031071 -698191.000000 0 0 1
27.868157 14.405000 -1.286271 31.397336 0.477075 1.611775 0.134915 -0.030927 269469.000000 0 0 1
28.528557 15.654600 -1.101171 32.560062 0.501871 1.604622 0.073212 -0.012166 420538.000000 0 0 1
29.563557 15.652700 -0.134771 33.451892 0.486936 1.574825 0.082180 -0.022110 -622525.000000 0 0 1
30.201657 17.074800 0.058929 34.694270 0.514559 1.569098 0.077193 -0.015910 -165507.000000 0 0 1
31.001817 17.472100 -1.003771 35.600484 0.513212 1.598995 0.065243 -0.016962 -521581.000000 0 0 1
31.497007 18.729100 -0.805671 36.653646 0.536462 1.592779 0.042690 -0.007180 -175275.000000 0 0 1
32.579597 19.116400 -1.832071 37.818294 0.530627 1.619259 0.043109 -0.000496 -80978.500000 0 0 1
33.036057 20.485000 -1.905571 38.918472 0.555054 1.619779 0.005313 0.007171 222225.000000 0 0 1
32.114667 21.403100 -2.442071 38.670509 0.587859 1.633989 0.030832 -0.000805 -501942.000000 0 0 1
32.721507 22.819300 -2.517771 39.971948 0.608965 1.633826 0.042681 0.000158 91193.200000 0 0 1
33.032137 23.510200 -1.317071 40.565826 0.618560 1.603270 0.041024 0.001658 215210.000000 0 0 1
34.254557 23.151800 -0.706871 41.350697 0.594351 1.587892 0.058589 0.007599 -52287.700000 0 0 1
34.941357 24.204600 0.233429 42.506653 0.605824 1.565305 0.085032 -0.015919 -20650.700000 0 0 1
35.568277 25.290600 -0.375871 43.644680 0.618099 1.579408 0.100500 -0.009660 -276992.000000 0 0 1
36.557347 25.743400 0.505829 44.714853 0.613534 1.559484 0.113434 -0.016745 -23286.800000 0 0 1
37.256357 27.064000 0.147329 46.049082 0.628243 1.567597 0.075807 -0.011069 -42796.400000 0 0 1
37.826317 27.101600 -1.126671 46.546712 0.621697 1.595004 0.069398 -0.013173 428430.000000 0 0 1
36.869457 27.532700 -2.093271 46.062872 0.641425 1.616256 0.049903 -0.015578 159885.000000 0 0 1
37.127557 27.011700 -3.535271 46.049816 0.628970 1.647643 0.064002 -0.009434 -46515.100000 0 0 1
-37.749346 27.820400 -4.205571 47.081574 -0.635114 1.660241 0.066897 -0.014431 445597.000000 0 0 1
-37.580786 27.497100 -5.594571 46.901015 -0.631673 1.690366 0.082512 -0.013684 17862.000000 0 0 1
37.057647 27.808300 -6.539271 46.790307 0.643761 1.711012 0.052157 -0.002121 -32113.900000 0 0 1
35.923657 27.074000 -6.216071 45.410903 0.645835 1.708112 0.050701 0.003170 -1541280.000000 0 0 1
34.944067 27.260200 -7.164271 44.894689 0.662494 1.731061 0.031457 -0.005331 -466788.000000 0 0 1
33.603807 26.601300 -6.791671 43.393223 0.669608 1.727957 0.029725 0.011176 -367725.000000 0 0 1
33.676087 25.166000 -6.802571 42.587338 0.641768 1.731216 0.017117 0.009379 -272249.000000 0 0 1
34.391197 24.501200 -5.787671 42.621126 0.619017 1.707011 0.024947 -0.002677 -263212.000000 0 0 1
34.842757 23.098800 -6.103071 42.247127 0.585421 1.715765 0.025403 -0.004446 248657.000000 0 0 1
33.915477 22.088200 -5.718271 40.875993 0.577269 1.711150 -0.009875 0.006093 360451.000000 0 0 1
34.500077 20.868500 -5.931771 40.754576 0.544002 1.716864 0.004840 0.004980 380835.000000 0 0 1
33.469297 19.836900 -5.374571 39.275723 0.535027 1.708069 0.013226 -0.004874 937962.000000 0 0 1
32.303447 19.707000 -6.201871 38.345035 0.547783 1.733248 -0.009111 -0.006678 -4393.780000 0 0 1
31.445757 18.762500 -5.635171 37.048916 0.537962 1.723490 0.048580 -0.013562 -447723.000000 0 0 1
30.191957 18.567400 -6.486671 36.033033 0.551360 1.751803 0.030140 -0.015440 -363449.000000 0 0 1
30.324057 17.536900 -7.468371 35.817145 0.524323 1.780851 0.016966 -0.019849 -3017.020000 0 0 1
29.204357 17.581600 -8.341271 35.093930 0.541903 1.810777 0.049890 -0.029623 107790.000000 0 0 1
29.187057 16.413900 -9.311171 34.756270 0.512290 1.842008 0.053692 -0.031309 -63221.600000 0 0 1
28.371757 16.637800 -10.460871 34.513806 0.530375 1.878732 0.085009 -0.031267 248614.000000 0 0 1
28.402157 15.557000 -11.350871 34.315376 0.501107 1.907927 0.084353 -0.030684 243020.000000 0 0 1
27.383357 15.788000 -12.505271 33.992513 0.523002 1.947528 0.097599 -0.020279 872659.000000 0 0 1
25.968457 15.696700 -12.228771 32.715287 0.543687 1.953892 0.093991 -0.023157 1314850.000000 0 0 1
25.177057 15.646700 -13.422671 32.540306 0.556054 1.995986 0.090844 -0.028796 -14622.000000 0 0 1
25.125057 14.307300 -14.180671 32.203396 0.517648 2.026782 0.090822 -0.040893 -688975.000000 0 0 1
26.373057 13.817600 -14.614171 33.166824 0.482607 2.027092 0.110064 -0.049981 -96675.800000 0 0 1
26.758657 14.190000 -15.907571 34.211586 0.487589 2.054404 0.122347 -0.041926 -658707.000000 0 0 1
28.161057 13.777800 -16.334771 35.351063 0.455011 2.051128 0.139263 -0.045532 -420332.000000 0 0 1
28.430057 12.413500 -16.574271 35.172000 0.411682 2.061487 0.138116 -0.054261 327068.000000 0 0 1
29.807557 12.126800 -16.789671 36.296594 0.386386 2.051687 0.128042 -0.036358 478268.000000 0 0 1
29.930257 10.765600 -17.463471 36.286240 0.345281 2.072899 0.098967 -0.029062 -162920.000000 0 0 1
29.776257 10.902400 -18.856171 36.892316 0.350984 2.107276 0.104652 -0.029906 278039.000000 0 0 1
29.766157 9.618900 -19.418871 36.819015 0.312557 2.126350 0.089427 -0.014686 987788.000000 0 0 1
31.121837 9.340000 -20.220971 38.271294 0.291558 2.127463 0.100549 -0.015519 282612.000000 0 0 1
31.242587 10.110400 -21.428471 39.210952 0.312974 2.148966 0.098386 -0.010366 799924.000000 0 0 1
32.004937 9.486900 -22.510271 40.262011 0.288169 2.164090 0.075690 -0.013265 -141989.000000 0 0 1
33.393087 8.866200 -22.296471 41.119829 0.259522 2.143887 0.064172 -0.007235 -975029.000000 0 0 1
34.358897 9.866200 -22.192471 42.075901 0.279628 2.126380 0.067030 -0.005342 -767913.000000 0 0 1
35.623527 9.295000 -22.154771 42.968204 0.255232 2.112514 0.028666 -0.004403 281721.000000 0 0 1
36.876787 10.178100 -21.806271 44.034130 0.269298 2.088876 0.055398 -0.010225 672225.000000 0 0 1
36.676227 10.536200 -20.443171 43.290650 0.279743 2.062616 0.036369 -0.016334 364395.000000 0 0 1
37.477547 11.659500 -20.150971 44.119974 0.301615 2.045114 0.019442 -0.002073 -185368.000000 0 0 1
37.226107 12.188900 -18.740871 43.423180 0.316427 2.017047 0.008983 -0.010622 -35641.300000 0 0 1
-37.905506 11.439600 -17.765071 43.396884 -0.293101 1.992552 0.026685 -0.015216 410517.000000 0 0 1
37.555467 11.874100 -16.480271 42.696682 0.306229 1.967071 0.038367 -0.025367 -152106.000000 0 0 1
-37.684566 10.953900 -15.471371 42.183857 -0.282878 1.946321 0.053671 -0.024173 -192180.000000 0 0 1
37.301517 9.849400 -15.230771 41.477587 0.258156 1.946798 0.040025 -0.020083 253762.000000 0 0 1
37.849197 8.850000 -14.418571 41.458164 0.229696 1.926005 0.056523 -0.023856 35098.500000 0 0 1
36.869077 7.638900 -14.293471 40.273874 0.204299 1.933611 0.099386 -0.024034 1632740.000000 0 0 1
35.585057 7.868300 -13.631971 38.910629 0.217611 1.928731 0.110514 -0.031865 1677490.000000 0 0 1
35.722617 7.707900 -12.277671 38.552020 0.212513 1.894912 0.113323 -0.034269 -635521.000000 0 0 1
34.652317 8.453700 -11.455671 37.463055 0.239284 1.881560 0.127559 -0.034680 -371429.000000 0 0 1
34.846827 9.861900 -11.376871 37.960395 0.275795 1.875178 0.130406 -0.046963 -5533.710000 0 0 1
34.019727 10.448300 -10.409071 37.079071 0.297980 1.855347 0.103470 -0.037899 -839154.000000 0 0 1
34.450047 10.245900 -8.891271 37.024841 0.289082 1.813310 0.114753 -0.028648 -526547.000000 0 0 1
35.583617 10.938300 -8.473471 38.179051 0.298229 1.794600 0.116009 -0.026452 -364725.000000 0 0 1
35.430177 12.351500 -8.273871 38.422831 0.335441 1.787834 0.103390 -0.034204 -385388.000000 0 0 1
35.205927 12.803800 -6.804771 38.074919 0.348812 1.750482 0.081636 -0.026565 -637549.000000 0 0 1
36.370967 12.822400 -6.038771 39.034958 0.338940 1.726122 0.109682 -0.030922 -394689.000000 0 0 1
36.138137 13.025800 -4.692671 38.699581 0.345949 1.692354 0.099909 -0.028971 -105561.000000 0 0 1
37.390247 12.926000 -3.785771 39.742221 0.332844 1.666199 0.130443 -0.038304 -251053.000000 0 0 1
-37.658586 14.036800 -3.916371 40.379931 -0.356786 1.667937 0.139127 -0.033212 -1015760.000000 0 0 1
-36.441316 13.816000 -3.266171 39.109069 -0.362387 1.654408 0.155688 -0.040388 -444276.000000 0 0 1
-35.680495 15.134400 -3.179071 38.887714 -0.401163 1.652638 0.148760 -0.034584 -300473.000000 0 0 1
-36.245606 16.030300 -2.262371 39.696761 -0.416406 1.627819 0.175104 -0.028559 -200502.000000 0 0 1
-35.405945 17.100300 -1.960371 39.368061 -0.449938 1.620613 0.179931 -0.033084 -179893.000000 0 0 1
-36.067406 18.160300 -1.040571 40.394765 -0.466452 1.596559 0.180855 -0.028796 27032.300000 0 0 1
-37.065216 18.884300 -1.728271 41.634528 -0.471210 1.612319 0.165953 -0.026534 -160769.000000 0 0 1
-37.860826 19.564100 -0.812471 42.624597 -0.476948 1.589859 0.149822 -0.027156 231093.000000 0 0 1
37.086847 20.670700 -1.458171 42.483389 0.508476 1.605126 0.114121 -0.021372 426401.000000 0 0 1
37.906647 21.789200 -1.793871 43.759583 0.521693 1.611802 0.134143 -0.017863 363350.000000 0 0 1
37.454087 22.555600 -2.889871 43.816835 0.542050 1.636798 0.076230 -0.008022 -474612.000000 0 0 1
-37.455166 23.699400 -3.231271 44.440884 -0.564146 1.643570 0.097099 -0.015908 -444878.000000 0 0 1
-36.199296 23.281400 -3.696471 43.198108 -0.571541 1.656471 0.146524 -0.022466 -319361.000000 0 0 1
-35.459918 24.332900 -4.276271 43.217847 -0.601410 1.669905 0.165738 -0.025250 -155442.000000 0 0 1
-34.050245 23.901000 -4.689671 41.864902 -0.612022 1.683051 0.194395 -0.034660 -258293.000000 0 0 1
-34.074390 23.048700 -5.816471 41.546817 -0.594727 1.711256 0.168545 -0.017747 169910.000000 0 0 1
-32.762186 22.885800 -6.333871 40.462805 -0.609748 1.727978 0.202455 -0.016583 71325.800000 0 0 1
-32.686436 21.958800 -7.613171 40.106762 -0.591549 1.761778 0.183554 -0.023011 569385.000000 0 0 1
-33.602346 22.340900 -8.662971 41.270819 -0.586752 1.782275 0.170457 -0.024494 575524.000000 0 0 1
-33.132416 21.771500 -9.884471 40.859001 -0.581354 1.815137 0.119554 -0.022061 -239067.000000 0 0 1
-34.046059 21.979900 -11.061671 42.007270 -0.573271 1.837266 0.104896 -0.011107 -428591.000000 0 0 1
-33.949266 23.304600 -11.544171 42.765932 -0.601577 1.844125 0.112240 -0.007818 1802.330000 0 0 1
-34.452522 23.438800 -12.868271 43.611306 -0.597397 1.870322 0.075667 -0.004778 -880401.000000 0 0 1
-34.580809 24.934900 -13.310271 44.662567 -0.624722 1.873412 0.084171 -0.005303 -367012.000000 0 0 1
-33.413566 25.688100 -13.282671 44.190205 -0.655420 1.876097 0.086077 -0.001160 -400349.000000 0 0 1
-32.377006 25.403600 -14.227071 43.543346 -0.665291 1.903642 0.084355 -0.002486 849602.000000 0 0 1
-31.038776 26.124000 -13.794471 42.850396 -0.699630 1.898555 0.100649 -0.010861 829178.000000 0 0 1
-30.188656 25.496300 -12.812271 41.539987 -0.701331 1.884341 0.109454 -0.016489 435768.000000 0 0 1
-30.730756 25.205700 -11.498671 41.375429 -0.686944 1.852415 0.145403 -0.016829 -4965.030000 0 0 1
-31.146676 26.447500 -10.626671 42.219804 -0.703987 1.825231 0.178127 -0.006058 374634.000000 0 0 1
-30.033016 27.144900 -10.098871 41.723073 -0.734930 1.815270 0.210993 -0.003001 32958.600000 0 0 1
-30.373816 28.457800 -9.657871 42.728089 -0.752842 1.798798 0.181987 -0.009719 1598880.000000 0 0 1
-29.035696 29.216000 -9.204071 42.206175 -0.788493 1.790637 0.191148 -0.011407 1662890.000000 0 0 1
-29.420406 30.371700 -8.519571 43.134482 -0.801307 1.769615 0.161018 -0.020223 -104571.000000 0 0 1
-28.326376 31.213400 -8.241971 42.948690 -0.833849 1.763897 0.207377 -0.021077 122774.000000 0 0 1
36.435857 -24.257500 33.385976 55.051079 -0.587374 0.919202 0.092421 -0.023228 -378387.000000 0 0 1
35.814197 -23.043700 33.404406 54.125069 -0.571738 0.905655 0.092693 -0.022222 259836.000000 0 0 1
34.667717 -23.074400 -33.081451 53.185157 -0.587255 2.242097 0.066774 -0.017763 387046.000000 0 0 1
33.999287 -21.726400 -32.825771 52.014605 -0.568621 2.253751 0.056960 -0.015893 118576.000000 0 0 1
33.431497 -21.180600 33.328926 51.740700 -0.564726 0.870881 0.046762 -0.012311 167454.000000 0 0 1
32.916347 -19.870100 33.534926 51.018604 -0.543102 0.853556 0.047391 -0.011816 83429.100000 0 0 1
32.810147 -18.993500 32.268468 49.784664 -0.524754 0.865630 0.050376 -0.018430 -438562.000000 0 0 1
34.053347 -18.590600 31.778634 50.150996 -0.499710 0.884522 0.076755 -0.028728 -239688.000000 0 0 1
33.980357 -18.411100 30.391856 49.166026 -0.496538 0.904413 0.088648 -0.030170 402760.000000 0 0 1
35.362437 -18.134100 29.727106 49.629108 -0.473841 0.928563 0.084716 -0.031334 426326.000000 0 0 1
36.086997 -16.934500 30.029786 49.908282 -0.438762 0.925169 0.086987 -0.037349 788635.000000 0 0 1
37.301657 -16.891500 29.288866 50.344553 -0.425209 0.949895 0.075702 -0.030486 406229.000000 0 0 1
-37.386256 -16.063100 29.923396 50.509058 0.405805 0.936717 0.039896 -0.025065 -365719.000000 0 0 1
-36.247226 -16.061500 29.136406 49.201253 0.417109 0.937025 0.047166 -0.025060 -139264.000000 0 0 1
-35.186093 -15.346500 29.769966 48.578051 0.411279 0.911163 0.047931 -0.026072 -903130.000000 0 0 1
-33.883266 -15.281800 28.946346 47.111570 0.423696 0.909144 0.062712 -0.030699 -401428.000000 0 0 1
-32.819086 -14.664800 29.573056 46.547979 0.420221 0.882368 0.061458 -0.022363 -389062.000000 0 0 1
-32.330936 -15.189800 30.810226 47.172974 0.439215 0.859082 0.064815 -0.033146 -1388830.000000 0 0 1
-31.135156 -14.432500 31.378733 46.500751 0.434059 0.830102 0.073529 -0.034888 -380959.000000 0 0 1
-31.499956 -13.339300 32.205298 46.982607 0.400574 0.815543 0.078554 -0.028970 326812.000000 0 0 1
-30.379766 -12.591300 32.642432 46.335724 0.392912 0.789111 0.073399 -0.030174 -118497.000000 0 0 1
-30.565616 -11.885800 -33.379061 46.794132 0.370868 2.365016 0.055408 -0.013600 -363259.000000 0 0 1
-30.575816 -12.890000 -32.415121 46.387204 0.398966 2.344507 0.075957 -0.020498 354485.000000 0 0 1
-30.948236 -12.350100 -31.186571 45.639023 0.379693 2.323112 0.079705 -0.011951 -570763.000000 0 0 1
-30.958086 -13.331200 -29.961061 45.097551 0.406622 2.297435 0.079208 -0.017796 -456942.000000 0 0 1
-32.017876 -14.229200 -30.047371 46.156895 0.418199 2.279675 0.075614 -0.017027 -300679.000000 0 0 1
-32.276036 -14.759100 -28.785261 45.696441 0.428889 2.252251 0.104258 -0.022262 812663.000000 0 0 1
-33.570866 -15.658600 -28.766041 46.900745 0.436436 2.231077 0.093540 -0.034005 631576.000000 0 0 1
-33.389016 -16.898100 -29.424061 47.604070 0.468514 2.237119 0.096807 -0.032549 -77062.100000 0 0 1
-34.522963 -17.684100 -29.170701 48.533413 0.473393 2.215603 0.103527 -0.030886 -320953.000000 0 0 1
-34.345578 -19.137800 -29.807861 49.339464 0.508364 2.219480 0.088813 -0.033535 897195.000000 0 0 1
-35.571596 -19.902800 -29.896811 50.549769 0.510118 2.203631 0.081257 -0.038787 1073700.000000 0 0 1
-35.300210 -21.201000 -30.493861 51.239270 0.540854 2.208220 0.074477 -0.040613 63064.400000 0 0 1
-36.627786 -21.844500 -30.933321 52.684411 0.537762 2.198322 0.093455 -0.041052 102882.000000 0 0 1
-37.462046 -22.229600 -29.869691 52.818164 0.535545 2.171859 0.068172 -0.036595 10893.700000 0 0 1
37.365877 -23.184300 -30.125701 53.303643 -0.555333 2.171437 0.079208 -0.028941 301650.000000 0 0 1
37.880577 -24.628500 -30.343891 54.426582 -0.576489 2.162191 0.066882 -0.024748 -110933.000000 0 0 1
-37.189476 -24.819700 -31.495681 54.690516 0.588500 2.184488 0.090490 -0.024587 -340777.000000 0 0 1
-36.528126 -26.066760 -31.449721 54.798402 0.619801 2.182077 0.082492 -0.019699 -16981.600000 0 0 1
-36.797386 -27.011990 -32.671531 56.134874 0.633230 2.192005 0.089406 -0.022571 79593.200000 0 0 1
37.714347 -27.463780 -32.716691 56.982567 -0.629406 2.182365 0.091534 -0.023247 -235841.000000 0 0 1
37.500637 -28.723560 -33.384021 57.843180 -0.653630 2.186027 0.089045 -0.024172 104261.000000 0 0 1
-37.649616 -29.960800 -32.785571 58.224022 0.672162 2.168921 0.082391 -0.022782 11504.000000 0 0 1
37.627257 -30.275360 -31.518741 57.670086 -0.677547 2.149018 0.093405 -0.028093 460785.000000 0 0 1
-37.467656 -31.308670 -30.824391 57.742542 0.696085 2.133913 0.083770 -0.031948 387820.000000 0 0 1
37.674497 -31.814840 -29.515731 57.469384 -0.701273 2.110160 0.066696 -0.029709 839043.000000 0 0 1
36.562377 -32.687130 -29.833501 57.404648 -0.729496 2.117302 0.095012 -0.026120 724580.000000 0 0 1
36.131297 -33.353270 -28.669201 56.919542 -0.745439 2.098649 0.110167 -0.023669 206437.000000 0 0 1
34.960207 33.241791 -28.732301 56.149602 0.760208 2.107970 0.103891 -0.028300 193625.000000 0 0 1
33.823487 -33.750060 -29.208611 56.002122 -0.784312 2.119478 0.111241 -0.028380 10619.500000 0 0 1
32.613287 33.166564 -28.956641 54.791737 0.793809 2.127612 0.098486 -0.024044 1291820.000000 0 0 1
31.303337 33.729055 -29.595911 54.712576 0.822681 2.142344 0.062275 -0.009126 571679.000000 0 0 1
31.096037 33.178383 -30.887671 54.971054 0.817785 2.167465 0.066678 -0.001644 334286.000000 0 0 1
29.815557 33.668947 -31.290271 54.787283 0.846022 2.178669 0.058837 0.007539 355761.000000 0 0 1
29.518357 33.029705 -32.664831 55.038949 0.841478 2.206179 0.051661 -0.002886 13760.100000 0 0 1
29.309557 31.636145 -32.597381 54.060013 0.823554 2.218034 0.035915 0.004534 -41246.500000 0 0 1
29.109157 31.188425 33.460496 54.218683 0.819868 0.905694 0.046143 -0.000753 -109873.000000 0 0 1
29.122057 29.656315 33.368426 53.301435 0.794487 0.894342 0.060160 -0.010936 504995.000000 0 0 1
30.411257 29.029765 33.527546 53.774233 0.762161 0.897601 0.063941 -0.010855 393328.000000 0 0 1
30.318157 27.643545 33.479516 52.955020 0.739286 0.886374 0.055963 -0.012769 647896.000000 0 0 1
31.688227 26.925255 -33.631701 53.480878 0.704316 2.250876 0.077155 -0.020753 576942.000000 0 0 1
32.224897 27.189655 -32.350511 53.143926 0.700853 2.225260 0.082175 -0.020815 -212275.000000 0 0 1
33.393837 26.433855 -32.069001 53.313392 0.669585 2.216197 0.086642 -0.020577 472235.000000 0 0 1
33.969597 26.767375 -30.652881 53.009668 0.667369 2.187379 0.095505 -0.030662 117004.000000 0 0 1
34.803107 27.910545 -30.508351 54.046408 0.675932 2.170605 0.076826 -0.020190 320744.000000 0 0 1
34.073417 29.115295 -30.297691 54.098504 0.707093 2.165239 0.097538 -0.022273 224241.000000 0 0 1
33.450937 29.280835 -28.909811 53.029328 0.719021 2.147384 0.100192 -0.017649 149500.000000 0 0 1
34.401627 29.657805 -27.910431 53.310875 0.711480 2.121798 0.094989 -0.018488 -227108.000000 0 0 1
33.881277 29.699115 -26.656961 52.350472 0.719715 2.105054 0.099933 -0.011797 -784471.000000 0 0 1
34.679787 30.361775 -25.555091 52.702824 0.719107 2.077034 0.109147 -0.016758 -451760.000000 0 0 1
34.810377 31.729371 -25.691881 53.652475 0.739128 2.070149 0.103941 -0.014314 181176.000000 0 0 1
35.573887 32.235198 -24.610671 53.947145 0.736201 2.044516 0.098352 -0.021902 -561109.000000 0 0 1
35.738037 33.764925 -24.720971 55.030935 0.757017 2.036688 0.110210 -0.016382 -1140290.000000 0 0 1
34.573047 -33.155880 -24.711771 53.900645 -0.764477 2.047068 0.114836 -0.006926 -774269.000000 0 0 1
34.755937 -31.785770 -24.528671 53.103352 -0.740792 2.050937 0.102206 -0.015279 -606423.000000 0 0 1
35.298687 -31.004230 -25.828281 53.613055 -0.720718 2.073451 0.094890 -0.019734 806136.000000 0 0 1
36.631317 -31.375620 -26.165471 54.871803 -0.708270 2.067861 0.108830 -0.025412 447261.000000 0 0 1
37.668907 -30.766240 -25.381331 54.860915 -0.684874 2.051777 0.109891 -0.021848 114012.000000 0 0 1
-36.782426 -31.271220 -25.881291 54.778438 0.704591 2.062890 0.070938 -0.020146 114749.000000 0 0 1
-36.345706 -32.583680 -25.584961 55.111675 0.730874 2.053571 0.063223 -0.018908 -18302.300000 0 0 1
-36.306686 -32.915570 -24.183171 54.648293 0.736448 2.029207 0.075709 -0.016981 -328477.000000 0 0 1
-35.067774 -32.372260 -23.429571 53.166312 0.745450 2.027157 0.057512 -0.015350 -37633.700000 0 0 1
-35.138488 -30.992410 -23.325271 52.338428 0.722785 2.032710 0.026199 -0.009892 -26833.000000 0 0 1
-34.308005 -30.443940 -22.302271 51.002588 0.725794 2.023365 0.069607 -0.015126 -211290.000000 0 0 1
-34.196486 -28.846450 -22.378171 50.022993 0.700738 2.034605 0.069867 -0.002357 773749.000000 0 0 1
-35.409953 -28.053500 -22.463171 50.452529 0.669997 2.032232 0.041189 0.010717 679524.000000 0 0 1
-35.945963 -27.947310 -23.756371 51.356884 0.660858 2.051693 0.043052 -0.002002 468768.000000 0 0 1
-37.223306 -27.066750 -23.936371 51.876134 0.628713 2.050385 0.041416 0.001442 530196.000000 0 0 1
-36.870966 -25.716700 -23.854571 50.890641 0.609032 2.058662 0.037680 0.008213 -139257.000000 0 0 1
-37.865476 -24.820900 -24.271771 51.371103 0.580233 2.062898 0.049158 -0.004356 -134154.000000 0 0 1
-37.389786 -24.058700 -25.570601 51.290084 0.571761 2.092720 0.063497 -0.012259 -467770.000000 0 0 1
-36.270126 -23.232000 -25.483951 50.046774 0.569687 2.105054 0.051002 -0.014701 -408289.000000 0 0 1
-36.014906 -22.565500 -26.726581 50.205431 0.559720 2.132164 0.053316 -0.031524 28167.400000 0 0 1
-34.940589 -21.463700 -26.716871 48.942071 0.550862 2.148244 0.067969 -0.041434 -117969.000000 0 0 1
-35.279394 -20.274400 -26.002861 48.289085 0.521595 2.139432 0.072512 -0.034870 290340.000000 0 0 1
-36.366366 -19.491400 -26.503491 49.039395 0.492010 2.141772 0.101140 -0.037440 -16382.000000 0 0 1
-37.526296 -19.399400 -25.500261 49.343925 0.477119 2.113889 0.112425 -0.039900 -428642.000000 0 0 1
-37.364896 -18.778400 -24.213471 48.322416 0.465700 2.095644 0.095994 -0.046399 -244951.000000 0 0 1
-36.635926 -19.521900 -23.232471 47.571455 0.489590 2.081017 0.068417 -0.038707 -188566.000000 0 0 1
-37.229696 -20.850400 -22.746371 48.354801 0.510525 2.060547 0.065605 -0.026512 -2024.020000 0 0 1
37.717827 -20.587500 -21.702471 48.140179 -0.499636 2.038478 0.068567 -0.023717 -205979.000000 0 0 1
37.035647 -21.674500 -21.130971 47.832426 -0.529491 2.028368 0.056312 -0.004629 -33647.800000 0 0 1
35.913047 -21.256100 -20.159471 46.346229 -0.534425 2.020807 0.062697 -0.005568 142049.000000 0 0 1
34.722917 -20.862300 -20.836371 45.552945 -0.541024 2.045877 0.084845 0.004293 96414.500000 0 0 1
33.683197 -20.724200 -19.866671 44.257596 -0.551571 2.036316 0.070212 0.008924 -365743.000000 0 0 1
32.392367 -20.245600 -20.505371 43.354584 -0.558608 2.063454 0.080829 -0.009123 -1114700.000000 0 0 1
31.905167 -21.169300 -21.461871 43.894086 -0.585812 2.081678 0.076880 -0.008465 1208700.000000 0 0 1
30.592157 -20.768900 -21.948571 42.999616 -0.596422 2.106489 0.107497 -0.017608 1097770.000000 0 0 1
30.421657 -19.489900 -22.876971 42.763175 -0.569780 2.135267 0.101415 -0.024682 -447057.000000 0 0 1
30.735757 -18.304500 -22.160471 42.081206 -0.537137 2.125407 0.108406 -0.021868 69993.600000 0 0 1
30.480957 -17.168200 -22.945771 41.837115 -0.512954 2.151312 0.092598 -0.022063 -236586.000000 0 0 1
31.171157 -15.940500 -22.390671 41.558184 -0.472715 2.139783 0.084792 -0.022397 -611271.000000 0 0 1
30.640057 -15.470200 -21.163871 40.324305 -0.467561 2.123325 0.065800 -0.026467 208905.000000 0 0 1
31.538707 -14.678600 -20.401571 40.328345 -0.435599 2.101206 0.048429 -0.028942 116665.000000 0 0 1
32.669197 -15.497100 -19.687871 41.170970 -0.442930 2.069398 0.065287 -0.030758 573386.000000 0 0 1
33.656477 -16.009500 -20.608971 42.588639 -0.443998 2.075911 0.060890 -0.034633 85317.300000 0 0 1
34.435147 -16.967400 -19.899571 43.239622 -0.457819 2.049035 0.044619 -0.024519 -144955.000000 0 0 1
35.617277 -17.436300 -20.775471 44.768685 -0.455250 2.053372 0.056303 -0.038538 556216.000000 0 0 1
36.583187 -16.348500 -20.969771 45.225372 -0.420261 2.052932 0.067330 -0.042820 312654.000000 0 0 1
37.445207 -16.825800 -21.978371 46.565006 -0.422309 2.062347 0.092281 -0.038183 99838.500000 0 0 1
-37.361296 -15.732900 -22.459071 46.344368 0.398564 2.076717 0.120427 -0.041625 450735.000000 0 0 1
-36.437726 -15.334600 -21.451471 44.978033 0.398345 2.067957 0.144421 -0.043980 276103.000000 0 0 1
-35.756345 -14.107400 -21.834171 44.207080 0.375793 2.087373 0.158244 -0.046279 -8088.400000 0 0 1
-34.595344 -13.782600 -20.844771 42.676719 0.379122 2.081091 0.162696 -0.042656 227710.000000 0 0 1
-33.422696 -14.545000 -20.938671 42.036431 0.410464 2.092211 0.170145 -0.052359 -44001.300000 0 0 1
-33.564896 -15.839400 -20.358471 42.331503 0.440919 2.072511 0.152160 -0.053727 -449069.000000 0 0 1
-32.330186 -16.711600 -20.676671 41.857415 0.477079 2.087456 0.114522 -0.050819 12232.500000 0 0 1
-32.283536 -17.970200 -20.031571 42.028783 0.507924 2.067597 0.123212 -0.057350 366847.000000 0 0 1
-31.203636 -18.832800 -20.470071 41.801496 0.543022 2.082539 0.123940 -0.052628 484792.000000 0 0 1
-31.122136 -20.190700 -19.831371 42.065841 0.575501 2.061715 0.118856 -0.017218 -115994.000000 0 0 1
-32.154876 -21.007300 -20.358171 43.470654 0.578703 2.058185 0.101897 -0.027908 273203.000000 0 0 1
-32.178486 -22.299800 -19.737071 43.843905 0.606015 2.037748 0.083556 -0.005696 89702.100000 0 0 1
-33.233346 -23.265100 -20.291371 45.359231 0.610761 2.034594 0.058565 -0.018054 10113.400000 0 0 1
-32.802976 -23.625200 -21.581271 45.825065 0.624165 2.061163 0.068066 -0.026037 540182.000000 0 0 1
-33.699756 -24.561700 -22.198471 47.241113 0.629820 2.059971 0.051525 -0.010924 47906.600000 0 0 1
-33.587236 -24.644000 -23.698871 47.927712 0.633007 2.088023 0.052838 -0.008729 701642.000000 0 0 1
-32.368376 -25.338860 -24.025371 47.612898 0.664182 2.099713 0.066168 -0.021039 439156.000000 0 0 1
-32.256446 -25.580050 -25.397741 48.372125 0.670471 2.123569 0.059369 -0.012680 78717.800000 0 0 1
-30.867346 -26.132490 -25.792501 47.968252 0.702521 2.138502 0.068429 -0.024015 494894.000000 0 0 1
-29.840506 -25.136340 -25.638721 46.686565 0.700040 2.152163 0.078997 -0.040109 195146.000000 0 0 1
-28.570806 -25.697370 -25.909641 46.346038 0.732499 2.164033 0.073480 -0.036326 45426.500000 0 0 1
-27.447526 -24.679600 -26.152891 45.237407 0.732348 2.187226 0.087312 -0.049948 -171782.000000 0 0 1
-27.464866 -23.869300 -27.314361 45.498754 0.715470 2.214713 0.096210 -0.052081 323702.000000 0 0 1
-26.494146 -22.801100 -27.226881 44.307256 0.710621 2.232550 0.107588 -0.046894 619185.000000 0 0 1
-26.346286 -21.975600 -28.509891 44.607932 0.695194 2.264152 0.083161 -0.039200 -3878.750000 0 0 1
-25.937426 -22.797700 -29.570421 45.463116 0.721063 2.278942 0.072940 -0.025619 151713.000000 0 0 1
-25.657826 -22.133000 -30.790821 45.785023 0.711776 2.308389 0.065134 -0.009814 -427074.000000 0 0 1
-25.065866 -22.941200 -31.888371 46.598975 0.741170 2.324460 0.060124 -0.027619 -134840.000000 0 0 1
-25.978846 -23.804600 -32.536351 47.960124 0.741752 2.316385 0.041388 -0.030614 16601.800000 0 0 1
-25.273246 -24.798900 -33.240771 48.566153 0.775925 2.324636 0.068302 -0.015087 154413.000000 0 0 1
-20.653766 -15.565600 -11.437271 28.278563 0.645830 1.987174 0.054662 -0.016357 -332136.000000 0 0 1
-20.671066 -14.541700 -10.505071 27.369883 0.613058 1.964724 0.075268 -0.020580 -203711.000000 0 0 1
-19.822566 -14.945500 -9.468471 26.569795 0.646033 1.935168 0.075139 -0.028087 -355775.000000 0 0 1
-20.098366 -14.350100 -8.122971 25.997160 0.620056 1.888574 0.105840 -0.042650 468422.000000 0 0 1
-21.245266 -14.922100 -7.439671 27.007019 0.612317 1.849877 0.137081 -0.043828 1029210.000000 0 0 1
-21.525966 -14.279300 -6.207671 26.566911 0.585705 1.806638 0.120348 -0.044209 365209.000000 0 0 1
-22.833366 -14.810800 -5.538871 27.774115 0.575424 1.771568 0.135646 -0.042354 295817.000000 0 0 1
-22.630766 -16.120800 -4.983371 28.228810 0.618960 1.748261 0.108439 -0.040288 445177.000000 0 0 1
-22.201566 -16.108700 -3.630871 27.669170 0.627679 1.702400 0.122426 -0.037980 -128983.000000 0 0 1
-22.086066 -17.476800 -2.961671 28.319681 0.669416 1.675568 0.095101 -0.020157 -235395.000000 0 0 1
-23.347766 -18.076000 -2.905271 29.669859 0.658814 1.668873 0.106221 -0.020480 -86344.000000 0 0 1
-23.316566 -19.195200 -1.980471 30.266156 0.688754 1.636278 0.099483 -0.021253 624131.000000 0 0 1
-24.558866 -20.172200 -1.996871 31.844042 0.687643 1.633545 0.126858 -0.040587 654333.000000 0 0 1
-24.465366 -21.147600 -3.056571 32.482576 0.712789 1.665035 0.118824 -0.042895 344724.000000 0 0 1
-25.577286 -22.015000 -2.911371 33.872317 0.710687 1.656854 0.133208 -0.038227 295358.000000 0 0 1
-25.351116 -23.227700 -3.888871 34.602434 0.741715 1.683421 0.136331 -0.045371 714289.000000 0 0 1
-24.207166 -24.021600 -3.481971 34.280435 0.781551 1.672545 0.147777 -0.042261 405134.000000 0 0 1
-23.739866 -24.898000 -4.484671 34.692995 0.809205 1.700426 0.139493 -0.039079 1317200.000000 0 0 1
-22.307666 -24.408000 -4.984971 33.439981 0.830328 1.720426 0.108704 -0.028347 726168.000000 0 0 1
-22.316366 -23.213900 -5.761471 32.712381 0.805109 1.747845 0.077096 -0.020918 61062.700000 0 0 1
-22.032166 -22.049700 -5.013171 31.571149 0.785796 1.730261 0.079805 -0.025697 -416190.000000 0 0 1
-22.153866 -20.724900 -5.792171 30.884697 0.752085 1.759455 0.079920 -0.016315 116928.000000 0 0 1
-21.040666 -20.438100 -6.620071 30.070765 0.770872 1.792764 0.059268 -0.013338 83419.300000 0 0 1
-21.124166 -19.163600 -7.200471 29.416334 0.736772 1.818087 0.053897 -0.013259 652959.000000 0 0 1
-19.876666 -18.849100 -8.112471 28.568910 0.758870 1.858720 0.069289 -0.019172 395187.000000 0 0 1
-19.764666 -19.642900 -9.257571 29.363040 0.782308 1.891548 0.054435 -0.019103 753025.000000 0 0 1
-18.512566 -19.671300 -9.987271 28.799665 0.815735 1.924937 0.109374 -0.019700 1047310.000000 0 0 1
-18.054866 -18.315600 -10.644571 27.834264 0.792567 1.963218 0.094326 -0.016285 -109325.000000 0 0 1
-17.580766 -17.219300 -9.850071 26.506820 0.775012 1.951534 0.103404 -0.021815 696159.000000 0 0 1
-16.233466 -17.245400 -9.372971 25.471196 0.815615 1.947635 0.135418 -0.018688 469899.000000 0 0 1
-15.995066 -16.026200 -8.444471 24.165891 0.786370 1.927767 0.114320 -0.022323 274356.000000 0 1 0
-16.795666 -16.149800 -7.253871 24.403464 0.765797 1.872605 0.108245 -0.021429 616829.000000 0 1 0
-16.684566 -14.926800 -6.503871 23.312752 0.729850 1.853532 0.108769 -0.022405 230014.000000 0 1 0
-17.436266 -15.181800 -5.134171 23.682697 0.716391 1.789321 0.117052 -0.030221 235100.000000 0 1 0
-17.743666 -14.072900 -4.368171 23.064369 0.670533 1.761338 0.095376 -0.023985 210862.000000 0 1 0
-18.535366 -14.417400 -3.265271 23.708294 0.661077 1.708962 0.094747 -0.010005 68723.700000 0 1 0
-19.407866 -13.261500 -2.659771 23.656014 0.599433 1.683470 0.115225 -0.017407 -592678.000000 0 1 0
-20.493166 -12.917500 -3.454171 24.469633 0.562424 1.712431 0.132673 -0.040749 -304845.000000 0 1 0
-21.264066 -12.046500 -2.629071 24.580290 0.515437 1.677960 0.137966 -0.024663 -889974.000000 0 1 0
-22.702166 -11.909800 -3.090171 25.822100 0.483142 1.690755 0.123534 -0.018727 -817203.000000 0 0 1
-22.883766 -11.197300 -4.271571 25.832007 0.455061 1.736919 0.144775 -0.047192 -1111910.000000 0 0 1
-24.201366 -10.860800 -4.437071 26.895180 0.421829 1.736530 0.148278 -0.036374 -1228170.000000 0 0 1
-24.670766 -10.761300 -5.934271 27.562072 0.411316 1.787801 0.155476 -0.052664 -549620.000000 0 0 1
-25.331656 -11.911700 -6.372771 28.708772 0.439549 1.794641 0.155370 -0.058529 -234677.000000 0 0 1
-25.519366 -11.843700 -7.744571 29.180295 0.434523 1.839419 0.168268 -0.055650 -146733.000000 0 0 1
-24.356566 -12.158900 -8.718571 28.584867 0.463011 1.880742 0.153957 -0.061461 -870353.000000 0 0 1
-23.356266 -11.238800 -8.719671 27.347000 0.448487 1.895315 0.151252 -0.057159 -521802.000000 0 0 1
-22.255666 -11.654100 -9.543971 26.874153 0.482385 1.933856 0.122874 -0.055010 585335.000000 0 0 1
-21.059366 -10.670000 -9.319371 25.381026 0.468964 1.946770 0.128235 -0.054407 -13898.900000 0 0 1
-21.360766 -9.366200 -9.791971 25.296061 0.413230 1.968275 0.128258 -0.052073 25045.500000 0 0 1
-20.399366 -8.446600 -9.402071 23.997461 0.392570 1.973377 0.133271 -0.043464 -628379.000000 0 1 0
-20.461366 -7.066600 -10.210271 23.934368 0.332538 2.011520 0.148836 -0.048433 -27467.400000 0 1 0
-19.973466 -7.216800 -11.551271 24.175471 0.346723 2.068956 0.144165 -0.041925 430200.000000 0 1 0
-19.672466 -5.955000 -12.091771 23.846988 0.293939 2.102563 0.133663 -0.053260 -125506.000000 0 1 0
-18.948566 -6.031400 -13.475171 24.020952 0.308164 2.166360 0.156061 -0.048657 -82953.200000 0 1 0
-19.683366 -6.643000 -14.524271 25.347954 0.325490 2.180953 0.146325 -0.053464 406648.000000 0 0 1
-19.105766 -6.371600 -15.825971 25.614233 0.321892 2.236813 0.156624 -0.053582 -232517.000000 0 0 1
-19.688966 -7.223800 -16.942171 26.960634 0.351647 2.250296 0.130320 -0.041949 -98924.100000 0 0 1
-21.085466 -7.069700 -17.094271 28.049806 0.323509 2.226132 0.121464 -0.045415 417217.000000 0 0 1
-21.524966 -7.846000 -18.255171 29.293944 0.349540 2.243589 0.128252 -0.046025 565782.000000 0 0 1
-22.969766 -7.663000 -18.840671 30.680655 0.322002 2.232028 0.125117 -0.043638 234352.000000 0 0 1
-23.090266 -6.366200 -19.436671 30.845957 0.269025 2.252505 0.131910 -0.048462 696195.000000 0 0 1
-24.136266 -6.274500 -20.425971 32.235833 0.254332 2.257048 0.118753 -0.043302 1152200.000000 0 0 1
-25.543226 -5.965400 -19.805671 32.868024 0.229429 2.217529 0.135087 -0.044972 231013.000000 0 0 1
-25.847636 -4.651600 -19.418371 32.662069 0.178056 2.207469 0.137915 -0.041565 381411.000000 0 0 1
-27.025076 -4.576300 -18.622271 33.137384 0.167744 2.167564 0.149936 -0.033157 -37485.100000 0 0 1
-27.278186 -3.224100 -17.969271 32.823603 0.117648 2.150110 0.151242 -0.034397 -115748.000000 0 0 1
-27.649276 -2.264000 -18.948571 33.595483 0.081701 2.170044 0.155141 -0.030802 -203208.000000 0 0 1
-28.991546 -1.935200 -19.122571 34.784011 0.066652 2.152863 0.162557 -0.023886 -655607.000000 0 0 1
-29.195386 -0.715400 -20.013271 35.403578 0.024499 2.171580 0.173288 -0.026516 -353354.000000 0 0 1
-28.734756 -0.691300 -21.345671 35.802259 0.024053 2.209569 0.164239 -0.023091 22815.300000 0 0 1
-29.372646 -1.450900 -22.343871 36.933806 0.049356 2.220525 0.172621 -0.018272 -128176.000000 0 0 1
-28.450226 -1.542200 -23.600271 36.996845 0.054154 2.262564 0.177820 -0.025734 -30071.500000 0 0 1
-28.428056 -0.361700 -24.399071 37.464648 0.012723 2.280034 0.188428 -0.020602 347480.000000 0 0 1
-27.937676 0.924900 -23.890071 36.770976 -0.033094 2.277985 0.160040 -0.018179 171256.000000 0 0 1
-26.438236 1.008800 -23.498771 35.386300 -0.038138 2.297038 0.153834 -0.018671 -29191.200000 0 0 1
-25.517686 0.994900 -24.572471 35.439363 -0.038969 2.336947 0.129062 -0.016941 -757389.000000 0 0 1
-24.259166 1.239200 -24.038471 34.174418 -0.051037 2.350974 0.102094 -0.014248 -113718.000000 0 0 1
-23.078066 0.642000 -24.898171 33.954796 -0.027811 2.393921 0.077695 -0.008428 277934.000000 0 0 1
-23.046766 1.272400 -26.174291 34.897936 -0.055154 2.418895 0.051467 -0.001057 456821.000000 0 0 1
-22.259266 0.538800 -27.139161 35.104120 -0.024201 2.454518 0.027356 -0.001566 86374.200000 0 0 1
-22.161966 1.245000 -28.486951 36.113836 -0.056118 2.479667 0.033219 0.005242 -202978.000000 0 0 1
-21.388666 2.436800 -28.424431 35.656154 -0.113440 2.493409 0.036774 0.007508 339007.000000 0 0 1
-21.336666 3.178100 -29.605501 36.631125 -0.147863 2.511896 0.033178 -0.000890 -76483.400000 0 0 1
-20.655666 2.530900 -30.863311 37.223728 -0.121920 2.548346 0.025727 -0.002048 352700.000000 0 0 1
-19.237666 2.406600 -30.784441 36.380782 -0.124452 2.579559 0.016924 -0.001589 532856.000000 0 0 1
-18.671266 1.951800 -32.018731 37.116368 -0.104157 2.611298 0.014891 -0.004932 -759072.000000 0 0 1
-17.186166 1.689200 -31.992731 36.355914 -0.097974 2.646631 0.029071 -0.020896 -1033920.000000 0 0 1
-16.453366 2.882500 -31.948591 36.051831 -0.173432 2.659842 0.040241 -0.017780 -893873.000000 0 0 1
-15.115766 2.612000 -32.221931 35.686997 -0.171110 2.697274 0.056003 -0.024145 -546429.000000 0 0 1
-14.348966 3.852000 -32.735971 35.949611 -0.262268 2.715547 0.085455 -0.023990 -226961.000000 0 0 1
-14.128266 4.870100 -31.740771 35.082792 -0.331951 2.701563 0.089531 -0.033113 144355.000000 0 0 1
-13.554266 6.024500 -32.360651 35.598096 -0.418248 2.711808 0.114557 -0.022283 -161175.000000 0 0 1
-13.044466 7.079300 -31.368541 34.702448 -0.497225 2.699665 0.119751 -0.025286 630635.000000 0 0 1
-11.823366 6.749700 -30.658641 33.545531 -0.518731 2.723687 0.145538 -0.043392 908006.000000 0 0 1
-11.953066 5.742700 -29.634691 32.466433 -0.447875 2.720834 0.152199 -0.052529 -272575.000000 0 0 1
-10.602666 5.079200 -29.235701 31.510966 -0.446747 2.759254 0.169717 -0.063990 125461.000000 0 0 1
-10.132766 4.246200 -30.288971 32.219946 -0.396826 2.793629 0.155444 -0.058790 -207576.000000 0 0 1
-10.887566 3.096200 -30.559211 32.588202 -0.277065 2.786857 0.154319 -0.049153 -505181.000000 0 0 1
-10.547566 2.279400 -31.822961 33.602792 -0.212834 2.814664 0.140135 -0.060921 140732.000000 0 0 1
-11.484666 1.200700 -31.990671 34.010914 -0.104170 2.795190 0.141556 -0.055742 455478.000000 0 0 1
-11.299266 0.424000 -33.113281 34.990606 -0.037507 2.812536 0.129456 -0.044686 -641408.000000 0 0 1
-11.817766 0.866600 32.810890 34.885026 -0.073199 0.346569 0.132778 -0.035423 -1358300.000000 0 0 1
-13.174766 0.897200 32.672730 35.240413 -0.067995 0.384095 0.065314 -0.034853 -1490230.000000 0 0 1
-13.435666 1.352300 31.357407 34.141365 -0.100312 0.406633 0.069896 -0.025799 143239.000000 0 0 1
-14.916266 1.225500 30.922706 34.354193 -0.081975 0.450764 0.068610 -0.019687 131337.000000 0 0 1
-15.809766 2.207400 31.419997 35.242553 -0.138726 0.470072 0.075964 -0.013089 -1235570.000000 0 0 1
-17.068966 1.820800 31.075966 35.501839 -0.106271 0.504670 0.071468 -0.009661 -1423710.000000 0 0 1
-18.105066 2.959600 31.001306 36.022682 -0.162035 0.534340 0.062445 -0.008948 -444188.000000 0 0 1
-18.349366 3.686500 32.182968 37.229464 -0.198267 0.526743 0.052886 -0.017590 531776.000000 0 0 1
-17.336766 4.676700 32.408351 37.050454 -0.263485 0.505962 0.050612 -0.012233 -273234.000000 0 0 1
-17.641766 5.606200 33.611636 38.371910 -0.307688 0.503408 0.032337 -0.008389 744368.000000 0 0 1
-18.963166 6.159300 33.671786 39.132184 -0.314054 0.534619 0.033038 -0.009321 282685.000000 0 0 1
-19.978766 5.374700 -33.112601 39.044626 -0.262799 2.583130 0.025318 -0.005250 -35186.300000 0 0 1
-21.387166 5.996000 -33.313311 40.039225 -0.273338 2.553530 0.020791 -0.004406 53991.600000 0 0 1
-21.470866 7.335300 -32.792731 39.876909 -0.329208 2.536323 0.027061 -0.011877 51639.200000 0 0 1
-21.084966 8.321000 33.662886 40.583306 -0.375878 0.592627 0.019373 -0.015556 -416627.000000 0 0 1
-21.051866 9.756100 -33.094121 40.417612 -0.433967 2.530122 0.028620 -0.003682 -483619.000000 0 0 1
-20.000666 9.919500 -32.145241 39.137445 -0.460409 2.534557 0.030277 -0.014548 503393.000000 0 0 1
-19.653366 11.279200 -31.818041 39.062295 -0.521012 2.522743 0.044167 -0.015260 45531.400000 0 0 1
-18.753466 11.949000 -32.865311 39.681227 -0.567297 2.546744 0.032430 -0.019472 -736825.000000 0 0 1
-19.461366 12.073400 33.293446 40.409965 -0.555269 0.602552 0.041696 -0.015256 250537.000000 0 0 1
-18.615566 12.269300 32.146567 39.121309 -0.582738 0.606382 0.050749 -0.013896 456828.000000 0 0 1
-19.325466 11.865200 30.790376 38.240082 -0.550626 0.634807 0.064246 -0.015963 315803.000000 0 0 1
-19.617966 10.475700 30.575496 37.808277 -0.490465 0.628860 0.050584 -0.015785 266140.000000 0 0 1
-18.477866 9.662100 30.326896 36.803645 -0.481800 0.602328 0.056486 -0.021860 230738.000000 0 0 1
-18.767466 8.130600 30.478396 36.705000 -0.408820 0.591041 0.053443 -0.018221 99249.900000 0 0 1
-19.546366 7.568100 29.438566 36.138148 -0.369412 0.618737 0.047686 -0.007883 120345.000000 0 0 1
-19.800666 6.251200 29.684136 36.225568 -0.305803 0.610389 0.044581 -0.013377 -432646.000000 0 0 1
-20.476266 5.572800 28.531236 35.557910 -0.265723 0.639511 0.058028 -0.016544 -125693.000000 0 0 1
-21.840866 5.920900 28.362116 36.283469 -0.264730 0.673439 0.076862 -0.018733 93818.400000 0 0 1
-22.547666 4.864600 27.732146 36.071228 -0.212490 0.693808 0.079516 -0.022379 679376.000000 0 0 1
-24.001166 5.251100 27.287916 36.718665 -0.215391 0.733013 0.075875 -0.015390 464764.000000 0 0 1
-24.082366 5.947700 26.039516 35.963758 -0.242128 0.761142 0.088788 -0.025389 -296857.000000 0 0 1
-25.320136 6.574600 25.989836 36.875550 -0.254049 0.788657 0.084927 -0.020847 -916747.000000 0 0 1
-25.691606 7.183300 24.573386 36.269956 -0.272635 0.826420 0.083094 -0.014187 -52215.800000 0 0 1
-25.926276 6.225300 23.517436 35.552720 -0.235654 0.848005 0.085035 -0.012233 715129.000000 0 0 1
-27.149266 5.501800 23.681236 36.443839 -0.199942 0.863474 0.088942 -0.011153 77484.700000 0 0 1
-27.398716 4.714000 22.363806 35.679844 -0.170384 0.893368 0.099411 -0.022676 -204988.000000 0 0 1
-27.940266 5.560500 21.410566 35.636918 -0.196447 0.926298 0.083880 -0.021771 -133038.000000 0 0 1
-27.893346 4.888300 20.159166 34.760987 -0.173488 0.952146 0.110646 -0.021706 -76430.900000 0 0 1
-28.631056 5.552000 18.923366 34.765728 -0.191538 0.995229 0.120883 -0.029671 483431.000000 0 0 1
-30.025296 5.319300 18.876166 35.862557 -0.175341 1.016497 0.121170 -0.029768 -56919.600000 0 0 1
-30.652036 5.744400 17.691966 35.854583 -0.185258 1.054760 0.119929 -0.028000 -310331.000000 0 0 1
-32.143166 5.932000 18.008466 37.318582 -0.182496 1.067221 0.123971 -0.027387 -344424.000000 0 0 1
-32.444756 7.062800 18.816866 38.165688 -0.214343 1.055226 0.136682 -0.023839 1667220.000000 0 0 1
-33.866776 7.088700 19.168966 39.555751 -0.206333 1.064883 0.136333 -0.023136 1688750.000000 0 0 1
-34.202095 8.213500 20.199466 40.561845 -0.235683 1.049515 0.158476 -0.024115 -40165.300000 0 0 1
-33.679746 7.900400 21.440566 40.699379 -0.230408 1.015961 0.124538 -0.021957 -210.934000 0 0 1
-34.164581 8.768100 22.432686 41.801000 -0.251221 1.004329 0.147736 -0.027450 -55200.300000 0 0 1
-0.396266 33.338700 11.753029 35.351940 -1.558911 1.231888 0.183348 -0.051324 -436197.000000 0 0 1
-0.643066 33.050500 13.148529 35.575735 -1.551342 1.192226 0.194464 -0.044562 8817.800000 0 0 1
-0.309966 -33.466014 13.962429 36.263199 1.561534 1.175556 0.183820 -0.053613 35435.400000 0 0 1
-0.509166 -33.719114 15.472329 37.102977 1.555697 1.140643 0.198602 -0.054973 142094.000000 0 0 1
-1.868666 -33.726814 15.845229 37.310336 1.515447 1.132180 0.172976 -0.051166 -268859.000000 0 0 1
-1.955966 33.772700 17.279129 37.986700 -1.512945 1.098567 0.173862 -0.057786 333403.000000 0 0 1
-3.326666 -33.563014 17.937629 38.200801 1.472002 1.082002 0.158985 -0.047248 207927.000000 0 0 1
-4.291866 33.065200 17.901629 37.844364 -1.441718 1.078066 0.168101 -0.047169 2972.410000 0 0 1
-5.294566 33.317800 18.870529 38.654950 -1.413203 1.060794 0.124065 -0.034865 63201.700000 0 0 1
-6.482066 32.366700 19.055129 38.114543 -1.373142 1.047262 0.116988 -0.032638 258007.000000 0 0 1
-7.452966 32.431100 18.027029 37.845697 -1.344909 1.074321 0.103621 -0.033556 329159.000000 0 0 1
-8.549666 31.541400 18.191429 37.401669 -1.306095 1.062854 0.085450 -0.036158 124094.000000 0 0 1
-9.597666 31.647400 17.088529 37.224870 -1.276343 1.093857 0.073092 -0.045131 -164378.000000 0 0 1
-10.234866 32.931500 17.026229 38.459442 -1.269468 1.112182 0.075188 -0.033181 -549431.000000 0 0 1
-11.200166 32.926000 16.052129 38.304518 -1.242913 1.138380 0.071884 -0.037653 -494418.000000 0 0 1
-12.123666 -33.472414 15.976329 39.020878 1.223296 1.148967 0.080994 -0.037677 -90188.200000 0 0 1
-13.313666 -33.619914 16.713829 39.835969 1.193738 1.137829 0.072611 -0.034785 -779258.000000 0 0 1
-14.257066 -32.687214 16.271229 39.197842 1.159506 1.142738 0.069001 -0.029698 101699.000000 0 0 1
-15.597766 -32.994114 16.979729 40.251871 1.129190 1.135326 0.086182 -0.031347 52636.200000 0 0 1
-15.322166 -32.868314 18.340729 40.638371 1.134578 1.102557 0.076923 -0.025269 -219161.000000 0 0 1
-16.443866 -33.141714 19.146129 41.657511 1.110219 1.093242 0.081554 -0.030797 40767.700000 0 0 1
-16.258466 -32.858714 20.632229 42.068060 1.111318 1.058192 0.081207 -0.041912 -24757.100000 0 0 1
-16.241366 -31.455114 20.881629 41.100470 1.094167 1.037862 0.088788 -0.034542 90828.500000 0 0 1
-16.220266 -31.101914 22.255829 41.542124 1.090081 1.005411 0.091005 -0.031186 199324.000000 0 0 1
-15.846766 -29.615614 22.562029 40.462943 1.079479 0.979308 0.095873 -0.037753 -63363.500000 0 0 1
-15.924866 -29.204014 23.935729 40.980421 1.071571 0.947054 0.109825 -0.048301 -73009.100000 0 0 1
-15.672766 -27.841614 24.181829 40.069339 1.058083 0.922914 0.094908 -0.020556 -523.354000 0 0 1
-16.782866 -26.825114 23.772129 39.577335 1.011737 0.926482 0.102801 -0.022399 -545319.000000 0 0 1
-17.876066 -26.838614 24.605729 40.562382 0.983215 0.919001 0.103418 -0.022448 -549422.000000 0 0 1
-18.846066 -25.934214 24.113229 40.114904 0.942383 0.925914 0.093950 -0.023222 -1570150.000000 0 0 1
-19.972866 -25.526314 25.063929 40.972047 0.906853 0.912548 0.098950 -0.014251 -303045.000000 0 0 1
-20.897966 -26.475914 25.539629 42.308057 0.902602 0.922714 0.115435 -0.019888 263554.000000 0 0 1
-21.532866 -27.188314 24.491429 42.458201 0.900959 0.955946 0.098846 -0.026298 -1190620.000000 0 0 1
-23.012666 -26.765714 24.266029 42.834874 0.860651 0.968542 0.063496 -0.012801 6727.730000 0 0 1
-23.130066 -25.424514 23.723529 41.763761 0.832618 0.966673 0.072592 -0.014856 -125494.000000 0 0 1
-24.410466 -25.298414 23.168629 42.103040 0.803259 0.988092 0.064787 -0.009469 -256521.000000 0 0 1
-24.903566 -23.857314 22.792829 41.338506 0.763945 0.986790 0.065937 0.005699 58958.500000 0 0 1
-25.429606 -23.077814 23.834529 41.801138 0.736953 0.964061 0.057331 0.008685 252938.000000 0 0 1
-26.052566 -21.858214 23.380829 41.269612 0.698076 0.968497 0.048264 0.009925 587617.000000 0 0 1
-26.685756 -21.013714 24.572829 41.922902 0.667042 0.944506 0.049262 0.015158 622974.000000 0 0 1
-27.926556 -21.503714 25.066229 43.250643 0.656185 0.952611 0.036608 0.017675 640660.000000 0 0 1
-28.431876 -20.660414 26.140229 43.801094 0.628398 0.931297 0.034026 0.007059 393361.000000 0 0 1
-29.735206 -21.098514 26.897229 45.307734 0.617104 0.935201 0.032017 0.004560 1599170.000000 0 0 1
-31.022506 -20.889914 26.276029 45.707922 0.592635 0.958353 0.036462 -0.005268 1163340.000000 0 0 1
-31.321086 -21.840014 25.307829 45.809201 0.608908 0.985482 0.032423 0.004243 408025.000000 0 0 1
-32.835456 -22.325414 25.384229 47.126960 0.597121 1.001980 0.032659 -0.002540 1292210.000000 0 0 1
-33.371716 -22.924414 24.241229 47.189378 0.601908 1.031303 0.023650 -0.002615 12036.800000 0 0 1
-32.853906 -24.201514 24.054929 47.368049 0.634896 1.038132 0.014253 0.002780 -406391.000000 0 0 1
-33.273986 -24.875314 22.717829 47.350176 0.641957 1.070388 0.016766 0.011277 -102758.000000 0 0 1
-34.628528 -25.242514 22.712029 48.499028 0.629893 1.083432 0.038605 0.000889 -187064.000000 0 0 1
-35.096189 -25.760314 21.489729 48.550435 0.633177 1.112270 0.045583 0.000363 93662.000000 0 0 1
-36.387126 -26.605614 21.576829 49.974406 0.631348 1.124356 0.079300 -0.012113 -271649.000000 0 0 1
-36.347476 -27.723014 22.424829 50.917359 0.651593 1.114734 0.069115 -0.010582 416735.000000 0 0 1
-35.460048 -28.836114 22.234029 50.826062 0.682738 1.118032 0.037867 0.004914 -288667.000000 0 0 1
-35.895507 -29.735814 21.043729 51.142395 0.691819 1.146726 0.058403 -0.002546 -92646.900000 0 0 1
-35.744433 -29.190614 19.768329 50.205013 0.684810 1.166086 0.048717 -0.000796 388821.000000 0 0 1
-36.144266 -30.163514 18.850129 50.710679 0.695445 1.189936 0.059124 0.000706 -265794.000000 0 0 1
-36.608646 -29.606814 17.471329 50.219555 0.680047 1.215467 0.059456 -0.003770 -134082.000000 0 0 1
-35.574700 -29.178114 16.587729 48.908838 0.686933 1.224777 0.068414 0.000472 161161.000000 0 0 1
-35.943241 -28.529214 15.402629 48.405306 0.670906 1.246965 0.070015 -0.012693 -107819.000000 0 0 1
-36.616866 -29.451514 14.310229 49.121983 0.677367 1.275190 0.070517 -0.014603 99733.700000 0 0 1
-35.761669 -30.454114 13.805829 48.958666 0.705414 1.284929 0.075890 -0.019379 -73973.900000 0 0 1
-36.344296 -31.385014 12.906129 49.724191 0.712307 1.308236 0.090248 -0.021761 -16496.100000 0 0 1
-36.772656 -30.864314 11.452729 49.355842 0.698266 1.336618 0.095939 -0.024481 -544576.000000 0 0 1
37.920917 -30.117814 11.570529 49.789113 -0.671211 1.336261 0.098974 -0.030720 -570978.000000 0 0 1
37.631787 -29.468514 10.326929 48.899797 -0.664335 1.358009 0.085046 -0.016837 -232257.000000 0 0 1
36.555387 -28.400514 10.469929 47.460562 -0.660507 1.348364 0.114171 -0.009369 -336910.000000 0 0 1
36.512427 -27.524014 9.345329 46.669732 -0.645945 1.369189 0.135885 -0.053100 50341.900000 0 0 1
35.363097 -26.729414 9.427029 45.319743 -0.647239 1.361255 0.108975 -0.046874 -318469.000000 0 0 1
35.245017 -25.724314 8.264129 44.409992 -0.630494 1.383618 0.102546 -0.051535 -10019.700000 0 0 1
36.014167 -24.548014 8.385529 44.384032 -0.598284 1.380723 0.121676 -0.056490 72306.800000 0 0 1
36.134277 -23.811414 7.224429 43.873247 -0.582655 1.405377 0.104441 -0.045277 -225374.000000 0 0 1
36.888467 -22.513714 7.347729 43.836234 -0.547972 1.402384 0.110286 -0.041068 -247257.000000 0 0 1
36.156087 -21.590014 8.109629 42.885399 -0.538309 1.380551 0.098467 -0.040011 61061.900000 0 0 1
36.774477 -20.306314 7.930529 42.750460 -0.504519 1.384208 0.101984 -0.025393 133449.000000 0 0 1
36.203397 -19.130914 8.657029 41.852383 -0.486131 1.362445 0.078754 -0.012556 -24432.800000 0 0 1
36.462127 -19.197614 10.075029 42.421001 -0.484629 1.331004 0.064244 -0.029166 -69420.000000 0 0 1
35.811687 -18.161714 10.766329 41.572089 -0.469347 1.308831 0.077689 -0.027509 -50848.900000 0 0 1
36.080667 -18.229914 12.259629 42.242666 -0.467842 1.276341 0.075221 -0.039466 746621.000000 0 0 1
37.323807 -17.632114 12.681229 43.183001 -0.441332 1.272740 0.030501 -0.032931 767486.000000 0 0 1
37.700567 -18.069714 13.944429 44.071469 -0.446947 1.248859 0.046051 -0.024694 -992187.000000 0 0 1
-37.002816 -17.276114 14.512429 43.339164 0.436808 1.229343 0.068102 -0.030454 -957952.000000 0 0 1
-35.787265 -17.582814 13.898829 42.226309 0.456675 1.235392 0.063610 -0.022268 -762552.000000 0 0 1
-34.710786 -16.898214 14.435029 41.215997 0.453055 1.212981 0.081339 -0.024479 -880593.000000 0 0 1
-33.423746 -16.946014 13.641429 39.879854 0.469236 1.221685 0.090089 -0.023120 -185789.000000 0 0 1
-32.792136 -18.256814 13.529129 39.895774 0.508006 1.224824 0.088275 -0.026863 911708.000000 0 0 1
-31.632386 -18.242514 12.685129 38.656302 0.523114 1.236450 0.099003 -0.026058 372404.000000 0 0 1
-30.928916 -19.526314 12.255929 38.575674 0.563137 1.247482 0.073503 -0.018581 -205673.000000 0 0 1
-31.705056 -20.446114 11.557129 39.456576 0.572771 1.273530 0.076616 -0.022058 -508339.000000 0 0 1
-30.883736 -21.392114 10.865429 39.108634 0.605787 1.289265 0.069299 -0.026136 -355493.000000 0 0 1
-31.544966 -22.275514 9.841429 39.851438 0.614842 1.321262 0.064288 -0.022017 165455.000000 0 0 1
-32.279476 -23.425514 10.282629 41.188005 0.627773 1.318476 0.064478 -0.014164 872953.000000 0 0 1
-33.638946 -23.126414 10.661829 42.191046 0.602280 1.315323 0.083730 -0.026410 752500.000000 0 0 1
-34.550251 -24.379814 10.798529 43.642908 0.614497 1.320770 0.118520 -0.030077 -115460.000000 0 0 1
-34.736400 -24.961514 9.494529 43.815987 0.623099 1.352373 0.106291 -0.025398 42087.500000 0 0 1
-35.414711 -26.212714 9.608329 45.095766 0.637177 1.356085 0.117373 -0.020904 219376.000000 0 0 1
-35.690636 -26.791514 8.190829 45.372860 0.643923 1.389279 0.117650 -0.025755 229146.000000 0 0 1
-34.532581 -27.382714 7.622029 44.725915 0.670429 1.399544 0.099461 -0.026325 25594.400000 0 0 1
-34.703471 -27.806214 6.284329 44.911126 0.675504 1.430408 0.103630 -0.026085 11661.700000 0 0 1
-33.420156 -28.246414 5.534129 44.106613 0.701696 1.444993 0.095455 -0.019227 83651.000000 0 0 1
-32.788876 -27.156214 4.904829 42.855895 0.691710 1.456096 0.100686 -0.010400 -258657.000000 0 0 1
-31.490606 -27.547514 4.501229 42.080695 0.718708 1.463625 0.116828 -0.023384 99889.700000 0 0 1
-30.734176 -26.420114 3.775529 40.704627 0.710060 1.477909 0.098680 -0.020163 -10409.200000 0 0 1
-31.173726 -26.021514 2.473029 40.682137 0.695560 1.509970 0.116378 -0.023860 70754.200000 0 0 1
-30.319626 -25.013614 1.927829 39.353235 0.689799 1.521789 0.123952 -0.036815 60950.900000 0 0 1
-30.939746 -24.398414 0.625229 39.407378 0.667738 1.554930 0.137059 -0.041585 91419.800000 0 0 1
-30.785136 -25.336414 -0.429171 39.872831 0.688614 1.581560 0.139424 -0.049440 -324988.000000 0 0 1
-30.942256 -24.857614 -1.746471 39.728760 0.676783 1.614770 0.148294 -0.043134 1314220.000000 0 0 1
-32.364976 -24.369314 -2.296971 40.578704 0.645389 1.627432 0.143956 -0.033772 1265050.000000 0 0 1
-32.951806 -23.246614 -1.731571 40.363658 0.614390 1.613709 0.131451 -0.028064 -288785.000000 0 0 1
-34.224666 -22.985214 -2.260971 41.288737 0.591409 1.625584 0.129514 -0.020846 -86856.800000 0 0 1
-34.824340 -21.555314 -2.065371 41.007706 0.554253 1.621183 0.131589 -0.021206 62711.600000 0 0 1
-35.185346 -21.321614 -0.662871 41.146801 0.544805 1.586907 0.131698 -0.026612 441643.000000 0 0 1
-35.860270 -20.068614 -0.469871 41.096582 0.510209 1.582230 0.131558 -0.023466 -38896.900000 0 0 1
-36.223936 -19.925114 1.084129 41.356487 0.502885 1.544579 0.139871 -0.028758 -414422.000000 0 0 1
-37.124666 -20.875714 1.520529 42.618638 0.512248 1.535111 0.108100 -0.033313 -156108.000000 0 0 1
-37.288226 -20.700014 2.947929 42.750353 0.506777 1.501785 0.107604 -0.029548 -1409330.000000 0 0 1
37.622887 -21.719014 3.673229 43.596901 -0.523548 1.486442 0.128959 -0.021307 595730.000000 0 0 1
36.282017 -21.609614 3.222729 42.352640 -0.537179 1.494630 0.092711 -0.020321 111436.000000 0 0 1
35.621287 -20.396314 3.610729 41.205862 -0.520020 1.483057 0.081887 -0.029267 -803104.000000 0 0 1
34.363967 -20.166714 2.701729 39.935923 -0.530699 1.503093 0.071304 -0.016469 1043700.000000 0 0 1
33.260687 -21.011314 3.082629 39.462022 -0.563414 1.492600 0.070554 -0.016402 174523.000000 0 0 1
32.055797 -20.496814 2.561429 38.134688 -0.568895 1.503578 0.085700 -0.014466 450193.000000 0 0 1
30.752657 -21.271914 2.907929 37.505683 -0.605140 1.493185 0.077767 -0.001935 281942.000000 0 0 1
30.541757 -22.376714 2.127529 37.921532 -0.632311 1.514663 0.054892 -0.011658 85358.500000 0 0 1
29.318757 -23.082514 2.266729 37.383553 -0.666946 1.510125 0.054705 -0.009187 205671.000000 0 0 1
29.074357 -24.173114 1.178729 37.829183 -0.693610 1.539632 0.052901 -0.006208 -49124.100000 0 0 1
28.671857 -23.651714 -0.066071 37.168311 -0.689747 1.572574 0.068854 -0.011848 -163766.000000 0 0 1
28.078257 -24.607414 -0.827471 37.344317 -0.719615 1.592956 0.055700 -0.008140 -66596.800000 0 0 1
27.171857 -24.003014 -1.966171 36.308681 -0.723555 1.624974 0.057408 -0.015892 383116.000000 0 0 1
27.934757 -23.488014 -3.065971 36.625642 -0.699139 1.654605 0.064836 -0.036647 385611.000000 0 0 1
28.281357 -24.519514 -4.011471 37.644835 -0.714273 1.677560 0.065672 -0.033700 -225558.000000 0 0 1
27.192057 -24.959014 -5.053071 37.254448 -0.742606 1.706852 0.069753 -0.038332 191308.000000 0 0 1
26.790557 -23.971014 -6.004671 36.447216 -0.729910 1.736301 0.070478 -0.052898 1312600.000000 0 0 1
25.553157 -23.346914 -5.545071 35.054101 -0.740311 1.729650 0.096058 -0.049904 868687.000000 0 0 1
24.907857 -22.356814 -6.566271 34.107835 -0.731477 1.764521 0.113812 -0.059504 -210665.000000 0 0 1
24.280057 -22.962014 -7.659371 34.284708 -0.757506 1.796103 0.116364 -0.072436 61871.100000 0 0 1
23.220757 -22.211314 -8.210871 33.165711 -0.763183 1.820969 0.114794 -0.069014 -104843.000000 0 0 1
23.537457 -20.938614 -9.046771 32.776234 -0.727032 1.850443 0.121707 -0.052707 -412349.000000 0 0 1
24.261557 -21.097814 -10.277371 33.754485 -0.715763 1.880183 0.120986 -0.049736 198457.000000 0 0 1
24.190257 -19.961714 -11.096771 33.268256 -0.689917 1.910868 0.118760 -0.050538 -186008.000000 0 0 1
25.228957 -19.885314 -12.216371 34.368091 -0.667501 1.934199 0.102079 -0.049220 -482032.000000 0 0 1
26.572357 -19.721814 -11.855471 35.150993 -0.638486 1.914815 0.135729 -0.044974 -474812.000000 0 0 1
27.260957 -19.472714 -13.035871 35.948300 -0.620264 1.941883 0.139398 -0.051604 274031.000000 0 0 1
28.792857 -19.783114 -12.963771 37.262039 -0.602005 1.926135 0.109706 -0.043581 545361.000000 0 0 1
28.921457 -21.167714 -13.220471 38.200833 -0.631818 1.924184 0.087773 -0.031563 510832.000000 0 0 1
29.603857 -21.814614 -12.102771 38.713599 -0.635054 1.888750 0.121281 -0.039754 223164.000000 0 0 1
29.774957 -23.340514 -12.298271 39.781593 -0.664845 1.885090 0.104841 -0.034473 -175638.000000 0 0 1
30.780957 -23.534314 -13.276271 40.958401 -0.652763 1.900899 0.083986 -0.029406 240917.000000 0 0 1
31.145577 -24.854414 -13.386071 42.035411 -0.673525 1.894888 0.066760 -0.020722 -144525.000000 0 0 1
-3.452466 -8.932200 -27.295121 28.926239 1.201965 2.804170 0.073356 -0.027095 53442.700000 0 0 1
-3.822966 -7.718500 -26.756411 28.108643 1.110917 2.830151 0.076917 -0.026997 37953.300000 0 0 1
-5.010966 -7.161800 -27.291021 28.656604 0.960285 2.831635 0.076826 -0.025670 8858.610000 0 0 1
-5.169066 -5.676500 -26.838011 27.914525 0.832151 2.862971 0.063407 -0.024442 -334647.000000 0 0 1
-5.722966 -5.548800 -25.603301 26.815490 0.769948 2.839766 0.055010 -0.024807 -73630.200000 0 0 1
-5.308566 -4.305100 -25.034171 25.950423 0.681396 2.875069 0.050394 -0.022877 156314.000000 0 0 1
-5.669266 -4.253100 -23.548471 24.591867 0.643631 2.849250 0.031675 -0.026701 -124823.000000 0 1 0
-4.922066 -5.178300 -22.801771 23.894817 0.810761 2.837958 0.029483 -0.030959 375061.000000 0 1 0
-5.451766 -5.248600 -21.498271 22.791340 0.766414 2.803126 0.026698 -0.023307 312181.000000 0 1 0
-4.704866 -6.311000 -20.593871 22.047040 0.930180 2.776492 0.025513 -0.022419 -324733.000000 0 1 0
-5.390066 -7.537600 -20.579671 22.569693 0.950014 2.718510 0.029758 -0.021654 174182.000000 0 1 0
-4.599966 -8.630800 -20.166071 22.412514 1.081121 2.690035 0.032792 -0.018273 -967392.000000 0 1 0
-5.345466 -9.990100 -20.087271 23.062405 1.079483 2.628023 0.056205 -0.015166 1255970.000000 0 1 0
-6.429566 -10.190700 -19.109271 22.591014 1.007948 2.579008 0.061237 -0.017652 1089060.000000 0 1 0
-7.599066 -9.480200 -19.452771 22.935350 0.895097 2.583292 0.057975 -0.018399 -295181.000000 0 1 0
-8.723066 -9.542400 -18.356571 22.452460 0.830225 2.527983 0.062291 -0.009438 576071.000000 0 1 0
-9.393466 -10.821400 -18.325671 23.263063 0.855919 2.477958 0.091229 -0.016611 152265.000000 0 1 0
-10.208966 -11.043100 -17.184471 22.835916 0.824628 2.422676 0.093840 -0.014082 512753.000000 0 1 0
-11.330066 -12.062900 -17.597571 24.156954 0.816715 2.386880 0.107672 0.001161 6297.490000 0 1 0
-12.370466 -11.630200 -18.415071 25.048050 0.754564 2.396743 0.124383 -0.005285 -127928.000000 0 0 1
-12.098466 -11.912700 -19.775671 26.064582 0.777662 2.432139 0.128953 -0.020360 -575108.000000 0 0 1
-13.395866 -11.868200 -20.614271 27.299296 0.725004 2.426635 0.118417 -0.021931 122531.000000 0 0 1
-14.295466 -12.944100 -20.558671 28.188100 0.735828 2.388151 0.112961 -0.017427 -34062.300000 0 0 1
-15.066366 -12.961800 -19.356971 27.743395 0.710451 2.342999 0.106697 -0.013966 -49468.000000 0 0 1
-16.362566 -13.851500 -19.373471 28.895138 0.702480 2.305645 0.112088 -0.007949 638854.000000 0 0 1
-16.163166 -15.204300 -19.482771 29.529596 0.754839 2.291310 0.119507 -0.012677 90050.100000 0 0 1
-17.113466 -15.770900 -20.404171 30.950318 0.744594 2.290625 0.111630 -0.014527 277845.000000 0 0 1
-16.844666 -17.251500 -20.865171 31.885927 0.797330 2.284145 0.097987 -0.008856 103089.000000 0 0 1
-17.271866 -18.281500 -19.993671 32.129075 0.813788 2.242464 0.117144 -0.009863 116387.000000 0 0 1
-16.690766 -19.467800 -20.444771 32.795816 0.862049 2.243874 0.103621 -0.011408 21645.100000 0 0 1
-17.211366 -20.728900 -19.661171 33.353861 0.877846 2.201202 0.103711 -0.018355 51927.000000 0 0 1
-16.779566 -21.964700 -20.159971 34.211493 0.918437 2.200957 0.096642 -0.018674 -403260.000000 0 0 1
-17.574366 -23.016400 -19.762671 35.059608 0.918674 2.169640 0.096258 -0.016974 -350182.000000 0 0 1
-17.059566 -24.431000 -20.192771 35.995146 0.961229 2.166373 0.092219 -0.022454 5779.760000 0 0 1
-17.343166 -24.666300 -21.517071 37.043165 0.957985 2.190587 0.061273 -0.021900 330340.000000 0 0 1
-16.740766 -25.906270 -21.926471 37.843866 0.997093 2.188780 0.064315 -0.018606 -88929.000000 0 0 1
-17.184566 -26.264370 -23.367171 39.129926 0.991410 2.210763 0.065556 -0.024936 259381.000000 0 0 1
-18.557066 -26.600620 -23.526571 40.068157 0.961671 2.198347 0.082214 -0.022132 206081.000000 0 0 1
-18.798066 -27.989560 -23.363071 41.019700 0.979379 2.176764 0.088287 -0.021108 -480267.000000 0 0 1
-19.845266 -28.566930 -24.359671 42.465252 0.963641 2.181736 0.088259 -0.020527 -490328.000000 0 0 1
-19.602766 -28.755620 -25.734101 43.282768 0.972457 2.207512 0.091566 -0.020693 -182205.000000 0 0 1
-19.410366 -27.543270 -26.435701 42.828032 0.956908 2.236042 0.092800 -0.034334 -101217.000000 0 0 1
-17.998966 -27.453450 -27.034961 42.526977 0.990482 2.259728 0.101261 -0.039807 -427695.000000 0 0 1
-18.006066 -27.815580 -28.412141 43.648306 0.996295 2.279610 0.102793 -0.028269 -545417.000000 0 0 1
-16.726566 -27.831100 -28.951961 43.503611 1.029640 2.298969 0.078546 -0.012658 -662709.000000 0 0 1
-16.655366 -27.907950 -30.481391 44.557492 1.032736 2.324153 0.096690 -0.018143 34025.900000 0 0 1
-16.987666 -29.177180 -31.065801 45.879980 1.043550 2.314625 0.084569 -0.015035 165343.000000 0 0 1
-17.177266 -28.990300 -32.459381 46.787897 1.035897 2.337487 0.078656 -0.013782 -16667.500000 0 0 1
-17.414866 -30.350970 -33.168931 48.214488 1.049877 2.329450 0.079806 -0.014563 508055.000000 0 0 1
-16.150666 -30.946600 -33.452291 48.348648 1.089792 2.334910 0.085265 -0.013353 341978.000000 0 0 1
-16.304966 -32.016930 32.969156 48.763726 1.099768 0.828340 0.080684 -0.012955 58259.800000 0 0 1
-14.989066 -32.482030 32.309853 48.204574 1.138456 0.836230 0.060049 -0.013520 376069.000000 0 0 1
-14.199166 -33.353160 33.133664 49.110989 1.168314 0.830280 0.081502 -0.013164 326987.000000 0 0 1
-13.068366 33.778875 32.438668 48.621618 -1.201651 0.840399 0.087426 -0.016070 200329.000000 0 0 1
-12.139066 32.929775 33.315776 48.390783 -1.217618 0.811414 0.089746 -0.017669 153379.000000 0 0 1
-11.338766 33.643135 -33.083281 48.527637 -1.245722 2.320936 0.101574 -0.025332 63925.800000 0 0 1
-10.793966 32.804500 -32.073191 47.131035 -1.252915 2.319256 0.098624 -0.029454 -471375.000000 0 0 1
-9.798066 33.628120 -31.249201 46.940016 -1.287280 2.299263 0.088898 -0.032759 -524929.000000 0 0 1
-10.340166 -33.084800 -30.389001 46.097878 1.267879 2.290588 0.128165 -0.029802 -450241.000000 0 0 1
-9.376366 -32.334030 -29.693791 44.890165 1.288553 2.293582 0.136422 -0.033422 -515663.000000 0 0 1
-9.997666 -31.284490 -28.763251 43.657728 1.261481 2.290066 0.150521 -0.034615 252278.000000 0 0 1
-10.550866 -31.674120 -27.499401 43.252603 1.249250 2.259823 0.174573 -0.040287 671479.000000 0 0 1
-11.572166 -32.693730 -27.446581 44.227930 1.230601 2.240267 0.154210 -0.033657 62652.700000 0 0 1
-12.024266 -32.912300 -25.960501 43.609059 1.220519 2.208436 0.155040 -0.031341 306949.000000 0 0 1
-10.994866 -33.328710 -25.046471 43.116304 1.252146 2.190636 0.173149 -0.053393 125654.000000 0 0 1
-11.363066 -33.153520 -23.708371 42.312669 1.240603 2.165561 0.171041 -0.058986 809600.000000 0 0 1
-10.065266 -32.954700 -22.848471 41.344582 1.274368 2.156319 0.190665 -0.074742 960183.000000 0 0 1
-9.302266 33.530480 -22.613871 41.499547 -1.300175 2.147088 0.155848 -0.054225 -316127.000000 0 0 1
-8.237166 33.730375 -21.720971 40.955948 -1.331278 2.129809 0.162692 -0.056685 232157.000000 0 0 1
-7.303366 32.527723 -21.380471 39.604500 -1.349932 2.141055 0.155050 -0.042667 -175496.000000 0 0 1
-6.238266 32.416472 -22.284171 39.828732 -1.380679 2.164579 0.130846 -0.054497 -303526.000000 0 0 1
-5.420866 31.314215 -21.929171 38.611583 -1.399383 2.174801 0.109013 -0.040694 427246.000000 0 0 1
-3.903066 31.601285 -22.164471 38.796119 -1.447909 2.178893 0.105106 -0.047699 246868.000000 0 0 1
-3.526966 31.768687 -23.502271 39.674244 -1.460229 2.204807 0.106639 -0.047349 -521651.000000 0 0 1
-2.589866 30.817305 -23.892871 39.080468 -1.486954 2.228595 0.098057 -0.056201 -432727.000000 0 0 1
-2.230566 30.928755 -25.397791 40.082553 -1.498801 2.257042 0.099056 -0.015891 -336868.000000 0 0 1
-1.432466 32.027000 -25.802211 41.152579 -1.526099 2.248478 0.099742 -0.045011 -104059.000000 0 0 1
-1.944566 33.310401 -25.570881 42.038483 -1.512485 2.224679 0.106882 -0.038034 -413094.000000 0 0 1
-1.071566 -33.250890 -26.246781 42.375269 1.538581 2.238761 0.028657 -0.013088 -640595.000000 0 0 1
0.153934 -33.090120 -25.607831 41.841854 -1.566144 2.229402 0.074031 -0.032147 -1067480.000000 0 0 1
0.816834 -32.100070 -26.302121 41.507629 -1.545355 2.257084 0.046350 -0.020382 -483554.000000 0 0 1
2.192134 -31.685150 -25.769821 40.900340 -1.501721 2.252432 0.072050 -0.013128 -558693.000000 0 0 1
2.132934 -30.949500 -24.566371 39.571802 -1.501989 2.240565 0.072509 -0.011000 750511.000000 0 0 1
3.383934 -30.283880 -24.350171 39.006348 -1.459517 2.244982 0.065619 -0.013786 329240.000000 0 0 1
3.403334 -29.493020 -23.006871 37.559779 -1.455910 2.230066 0.068217 -0.013119 -110506.000000 0 0 1
3.584134 -30.377660 -21.913171 37.627587 -1.453353 2.192437 0.078076 -0.012074 418406.000000 0 0 1
3.848834 -29.624120 -20.746071 36.370337 -1.441598 2.177803 0.078385 -0.010415 -241913.000000 0 0 1
3.854234 -30.358320 -19.440871 36.255071 -1.444514 2.136755 0.082856 -0.001159 217755.000000 0 0 1
2.638634 -30.970030 -18.995471 36.427092 -1.485802 2.119364 0.092541 -0.012185 607987.000000 0 0 1
2.443734 -32.338720 -19.243971 37.710675 -1.495373 2.106336 0.099947 -0.005237 -59502.300000 0 0 1
3.244434 -33.263440 -18.251771 38.080309 -1.473566 2.070650 0.064693 -0.014840 1037410.000000 0 0 1
4.639734 -33.397920 -18.547271 38.483106 -1.432757 2.073685 0.057576 -0.005413 481251.000000 0 0 1
5.246234 33.268584 -17.706771 38.050642 1.414391 2.054823 0.049675 -0.017646 735287.000000 0 0 1
6.277934 32.367978 -18.516271 37.814689 1.379220 2.082494 0.075242 -0.022055 -352952.000000 0 0 1
7.479434 32.978288 -18.707071 38.645360 1.347770 2.076097 0.125900 -0.021531 -777509.000000 0 0 1
8.409734 32.184126 -19.510971 38.564486 1.315210 2.101257 0.106058 -0.028320 1147130.000000 0 0 1
9.822934 32.809999 -19.658571 39.489814 1.279901 2.091872 0.093768 -0.035055 458084.000000 0 0 1
10.556534 32.979070 -18.448571 39.235306 1.261004 2.060317 0.079178 -0.029209 -509264.000000 0 0 1
11.747834 33.659124 -18.618171 40.219205 1.234991 2.052080 0.082448 -0.017076 -374387.000000 0 0 1
12.574534 33.734475 -17.289571 39.938239 1.213999 2.018512 0.052694 -0.016921 -74835.900000 0 0 1
13.172134 32.530209 -16.845371 38.929245 1.186056 2.018301 0.056730 -0.024072 -62666.200000 0 0 1
13.723934 32.710835 -15.542471 38.728716 1.173548 1.983750 0.052525 -0.033975 387438.000000 0 0 1
15.024034 31.890461 -15.285171 38.423424 1.130524 1.979923 0.055655 -0.026966 579192.000000 0 0 1
14.762934 30.525535 -14.988471 37.072992 1.120334 1.987006 0.077655 -0.028794 609922.000000 0 0 1
16.041234 29.863535 -14.951071 37.049783 1.077871 1.986179 0.085476 -0.026613 765579.000000 0 0 1
15.980334 28.558595 -14.054671 35.615982 1.060641 1.976447 0.103076 -0.021252 -24540.200000 0 0 1
15.694834 28.785955 -12.673071 35.150615 1.071626 1.939639 0.095708 -0.023344 284704.000000 0 0 1
14.341334 29.131655 -12.374371 34.748413 1.113333 1.934901 0.112547 -0.028262 729640.000000 0 0 1
13.480534 27.872255 -11.921671 33.177004 1.120311 1.938352 0.123168 -0.024682 -225532.000000 0 0 1
13.025734 27.008775 -12.977471 32.673512 1.121427 1.979245 0.106158 -0.033489 23057.300000 0 0 1
12.685034 25.672775 -12.502071 31.245851 1.111876 1.982443 0.139606 -0.039431 366818.000000 0 0 1
11.758234 25.484725 -11.251171 30.237660 1.138516 1.952057 0.124841 -0.034547 -48910.000000 0 0 1
10.448434 25.974675 -11.458771 30.251561 1.188348 1.959277 0.095939 -0.030920 -173900.000000 0 0 1
9.802534 26.103545 -10.230971 29.701136 1.211565 1.922464 0.068757 -0.017694 928774.000000 0 0 1
8.569034 27.091765 -10.333071 30.235152 1.264456 1.919582 0.067850 -0.023425 1084810.000000 0 0 1
9.186034 28.347765 -10.527971 31.604069 1.257426 1.910408 0.064230 -0.025725 591980.000000 0 0 1
8.215734 29.374665 -10.387471 32.222178 1.298077 1.899029 0.055038 -0.031512 268260.000000 0 0 1
8.782934 30.807865 -10.719471 33.781230 1.293076 1.893699 0.079427 -0.037832 -316620.000000 0 0 1
9.799134 31.142555 -9.775671 34.079986 1.265950 1.861728 0.064142 -0.032309 81896.100000 0 0 1
10.319334 32.442645 -10.135471 35.521002 1.262837 1.860155 0.077413 -0.036677 109678.000000 0 0 1
11.301234 32.470465 -11.339471 36.202660 1.235863 1.889380 0.068006 -0.038593 -114191.000000 0 0 1
12.635834 32.128874 -10.983171 36.229254 1.196091 1.878801 0.061198 -0.029676 309178.000000 0 0 1
13.621034 32.508916 -11.930471 37.211534 1.174024 1.897172 0.076152 -0.032481 533154.000000 0 0 1
15.056034 32.397255 -11.347071 37.483627 1.135759 1.878342 0.080514 -0.031438 291722.000000 0 0 1
15.395434 33.386184 -10.397171 38.206777 1.138724 1.846401 0.076401 -0.028034 -51330.900000 0 0 1
16.795334 33.548439 -10.521471 38.965142 1.106645 1.844213 0.067112 -0.022229 31666.700000 0 0 1
17.519834 -33.202580 -9.512171 38.727733 -1.085263 1.818952 0.074726 -0.020646 74681.300000 0 0 1
17.767034 33.798045 -8.231371 39.060604 1.086815 1.783121 0.074338 -0.011416 63358.800000 0 0 1
18.077634 -32.904950 -7.205771 38.229043 -1.068422 1.760420 0.062028 -0.016267 -646980.000000 0 0 1
18.314334 -33.577020 -5.817571 38.686887 -1.071459 1.721745 0.061953 -0.005424 685924.000000 0 0 1
19.398834 33.127650 -5.787171 38.823283 1.041048 1.720418 0.049419 -0.012107 -82900.400000 0 0 1
20.694334 33.649522 -5.868471 39.937260 1.019423 1.718273 0.058332 -0.016619 -1015810.000000 0 0 1
21.592734 32.740436 -6.760571 39.798086 0.987763 1.741496 0.055947 -0.009224 133270.000000 0 0 1
21.827034 31.457385 -6.166871 38.781655 0.964203 1.730489 0.063350 -0.006702 -94563.800000 0 0 1
22.706734 31.471195 -5.050171 39.134845 0.945781 1.700203 0.056888 -0.006960 -534265.000000 0 0 1
23.245434 30.069125 -4.664571 38.291783 0.912695 1.692916 0.059155 -0.013614 171576.000000 0 0 1
24.085734 29.508855 -5.702671 38.515134 0.886243 1.719406 0.053548 -0.009255 356973.000000 0 0 1
24.309734 28.120015 -5.445871 37.568017 0.857945 1.716269 0.068749 -0.012667 25783.500000 0 0 1
25.427934 27.530515 -6.361671 38.012892 0.825080 1.738943 0.047133 -0.002516 496026.000000 0 0 1
26.706434 28.031535 -6.004671 39.179799 0.809602 1.724662 0.039932 0.005174 460493.000000 0 0 1
27.809634 27.393405 -6.658571 39.599380 0.777858 1.739747 0.017103 0.002739 586791.000000 0 0 1
28.621734 26.389525 -5.796271 39.359972 0.744843 1.718597 0.013242 0.008112 517056.000000 0 0 1
29.718934 26.991515 -5.068071 40.465322 0.737341 1.696371 0.033154 0.004850 577946.000000 0 0 1
30.379334 26.045165 -4.267671 40.242609 0.708735 1.677045 0.036049 -0.000876 652554.000000 0 0 1
31.721134 26.533975 -3.599371 41.511897 0.696590 1.657612 0.033416 -0.000249 664779.000000 0 0 1
31.521934 27.575855 -2.645671 41.964981 0.718725 1.633883 0.052813 -0.006747 862062.000000 0 0 1
32.719334 27.849575 -1.876871 43.007863 0.705170 1.614450 0.060589 -0.015239 860103.000000 0 0 1
32.525534 29.106095 -0.939271 43.657271 0.729973 1.592313 0.062278 -0.009147 169887.000000 0 0 1
32.530734 30.327835 -1.659271 44.505948 0.750367 1.608087 0.047320 0.000683 351540.000000 0 0 1
31.649334 31.246105 -0.992771 44.485784 0.778987 1.593115 0.076892 -0.004416 171013.000000 0 0 1
34.709957 21.968200 18.694066 45.131486 0.564266 1.143718 0.143287 -0.050703 -131315.000000 0 0 1
34.761607 21.893000 20.136166 45.750824 0.562046 1.115056 0.141691 -0.049369 -64532.400000 0 0 1
35.506467 23.021100 20.539266 47.037662 0.575224 1.118918 0.161437 -0.042840 -36415.200000 0 0 1
35.487817 23.301900 22.061066 47.844062 0.581013 1.091558 0.123749 -0.020534 863345.000000 0 0 1
34.210537 23.768900 22.553546 47.370707 0.607216 1.074573 0.096326 -0.016865 1097070.000000 0 0 1
34.317887 23.920700 23.914846 48.185445 0.608732 1.051455 0.103926 -0.014385 -471431.000000 0 0 1
32.956897 24.340200 24.428066 47.700448 0.636130 1.033152 0.076909 -0.012232 -476616.000000 0 0 1
32.818067 25.743100 24.346746 48.295929 0.665168 1.042438 0.054673 -0.005185 269818.000000 0 0 1
31.613147 26.237200 24.908706 48.043994 0.692736 1.025752 0.060899 -0.009044 64859.800000 0 0 1
31.625937 27.744700 25.147316 49.013832 0.720118 1.032044 0.038744 0.004153 -221505.000000 0 0 1
31.550967 28.427700 23.903136 48.733536 0.733372 1.058149 0.030155 -0.001831 200983.000000 0 0 1
31.458217 29.837700 24.035636 49.574384 0.758967 1.064616 0.034794 0.002143 -198354.000000 0 0 1
31.651637 30.661100 22.747496 49.592114 0.769503 1.094274 0.028656 -0.009317 676836.000000 0 0 1
33.031157 30.858900 22.399846 50.448807 0.751411 1.110726 0.019491 -0.005555 606347.000000 0 0 1
33.218077 31.696500 21.295066 50.612139 0.761963 1.136524 0.028121 -0.009453 -229808.000000 0 0 1
34.679787 32.118800 21.170066 51.792631 0.747078 1.149716 0.021657 -0.023999 -165887.000000 0 0 1
35.177487 33.127300 22.056066 53.116322 0.755392 1.142589 0.043621 0.002555 581589.000000 0 0 1
36.593167 33.275200 22.006366 54.134822 0.737945 1.152165 0.039790 0.005977 231350.000000 0 0 1
37.143787 -33.206214 22.740056 54.766994 -0.729485 1.142618 0.049920 0.005170 -515076.000000 0 0 1
36.663077 -31.975614 22.282606 53.508276 -0.717212 1.141278 0.045796 0.005986 2406.980000 0 0 1
36.851707 -30.902414 23.134006 53.368434 -0.697816 1.122448 0.061779 0.002448 -835741.000000 0 0 1
35.930007 -29.671514 22.970266 51.951874 -0.690284 1.112808 0.063842 -0.001706 575152.000000 0 0 1
34.541037 -29.835314 23.255386 51.225405 -0.712431 1.099568 0.063643 -0.001662 743438.000000 0 0 1
33.808757 -30.347914 22.148566 50.542921 -0.731507 1.117187 0.070193 -0.000122 -396673.000000 0 0 1
33.109567 -31.734114 22.479646 51.074768 -0.764190 1.115051 0.063308 0.001863 -25979.900000 0 0 1
32.011417 -31.735614 23.355886 50.767878 -0.781072 1.092742 0.078735 -0.007891 80235.400000 0 0 1
31.511017 -33.032114 23.524396 51.356226 -0.808961 1.094981 0.074592 -0.003570 -141406.000000 0 0 1
30.631457 -33.189114 24.780496 51.515788 -0.825452 1.068970 0.064022 -0.007215 -70542.100000 0 0 1
30.161457 33.123600 24.864606 51.236071 0.832170 1.064096 0.068436 -0.012245 -100525.000000 0 0 1
29.267557 32.902600 25.902976 51.089482 0.843801 1.039082 0.073183 -0.003583 -703464.000000 0 0 1
28.793057 31.427100 25.991096 49.922338 0.829111 1.023207 0.064602 -0.001795 47404.900000 0 0 1
28.099857 30.909900 24.884886 48.623877 0.832982 1.033537 0.064846 0.001187 154930.000000 0 0 1
26.738157 31.292700 24.821436 48.065224 0.863722 1.028141 0.079207 -0.004722 -98715.200000 0 0 1
26.199457 31.158800 23.344746 46.928238 0.871646 1.050132 0.117634 -0.028734 365106.000000 0 0 1
26.776257 32.160000 22.457956 47.493087 0.876494 1.078254 0.123150 -0.035765 194911.000000 0 0 1
27.948857 31.828600 21.771966 47.625801 0.850210 1.096012 0.087617 -0.023378 -289168.000000 0 0 1
28.309857 32.930600 20.696066 48.106128 0.860708 1.126063 0.112003 -0.038850 13452.000000 0 0 1
29.658557 32.953100 20.290666 48.757029 0.837968 1.141580 0.102603 -0.039343 90151.100000 0 0 1
29.750257 -33.744914 19.223966 48.921957 -0.848228 1.166957 0.095709 -0.041855 -266823.000000 0 0 1
31.202417 -33.405214 18.856766 49.447717 -0.819480 1.179543 0.101386 -0.045931 -183648.000000 0 0 1
31.973047 33.141700 18.462666 49.613688 0.803344 1.189495 0.089714 -0.048562 -718185.000000 0 0 1
33.081217 33.528200 17.723666 50.325296 0.792109 1.210895 0.095459 -0.040137 -591880.000000 0 0 1
33.755597 32.278500 17.114766 49.741905 0.763033 1.219547 0.071071 -0.040221 -208607.000000 0 0 1
34.416947 31.476800 18.061066 50.015170 0.740808 1.201337 0.042712 -0.032030 -81709.300000 0 0 1
35.305317 30.552900 17.451166 49.844642 0.713362 1.213107 0.068068 -0.034199 123428.000000 0 0 1
36.307287 30.017600 18.491866 50.608542 0.690849 1.196744 0.074683 -0.039618 -190219.000000 0 0 1
37.263347 30.975200 18.890566 52.008399 0.693508 1.199073 0.083689 -0.034011 75168.800000 0 0 1
-37.744776 30.379500 19.882366 52.372613 -0.677701 1.181397 0.113181 -0.033192 167300.000000 0 0 1
-36.556486 31.228100 20.371566 52.216584 -0.706952 1.170017 0.139971 -0.030050 -816084.000000 0 0 1
-35.539063 31.378500 19.421166 51.232967 -0.723304 1.181999 0.142950 -0.029324 -60146.200000 0 0 1
-34.331120 31.926300 19.903866 50.932095 -0.749119 1.169304 0.125510 -0.020026 113583.000000 0 0 1
-34.322269 33.294800 20.634766 52.080279 -0.770204 1.163410 0.100153 -0.011198 -840822.000000 0 0 1
-34.672370 33.212600 22.045466 52.832307 -0.763898 1.140354 0.103523 -0.015286 365102.000000 0 0 1
-34.605404 -33.188214 22.699146 53.049437 0.764497 1.128643 0.079168 -0.010250 -138957.000000 0 0 1
-34.655217 -33.303614 24.233406 53.827249 0.765512 1.103799 0.082670 -0.018061 -638062.000000 0 0 1
-35.910305 -33.565214 24.760046 55.038473 0.751657 1.104179 0.078782 -0.012192 -782273.000000 0 0 1
-35.761989 33.667300 26.042146 55.593168 -0.755237 1.083270 0.078998 -0.015297 923053.000000 0 0 1
-37.131066 33.432300 26.787106 56.692008 -0.733028 1.078668 0.069409 -0.018416 948320.000000 0 0 1
-36.971446 32.838500 28.099246 56.875500 -0.726264 1.054056 0.084292 -0.020433 521287.000000 0 0 1
37.602927 32.784200 28.763966 57.586019 0.717044 1.047780 0.095220 -0.024892 643379.000000 0 0 1
37.642967 31.680600 29.912966 57.579848 0.699602 1.024526 0.096232 -0.015962 -38281.300000 0 0 1
37.479197 30.256500 29.593636 56.532551 0.679169 1.019867 0.089722 -0.010647 107800.000000 0 0 1
-37.387946 29.698500 28.754946 55.737836 -0.671276 1.028743 0.090156 -0.012771 -281440.000000 0 0 1
-37.659686 28.221400 28.457216 54.995568 -0.643104 1.026933 0.094293 -0.008735 -266472.000000 0 0 1
37.219987 28.026100 27.433726 54.068466 0.645409 1.038645 0.082829 0.002626 339664.000000 0 0 1
37.091387 26.741600 26.892426 53.047966 0.624658 1.039159 0.081675 -0.003886 126585.000000 0 0 1
36.501197 25.586100 27.820016 52.544640 0.611374 1.012838 0.075612 -0.006656 94732.600000 0 0 1
37.506457 25.045600 28.693506 53.454033 0.588764 1.004170 0.068645 -0.003195 405399.000000 0 0 1
37.522757 23.610800 28.833166 52.884578 0.561642 0.994158 0.067860 0.001413 102293.000000 0 0 1
-37.789356 22.801500 27.558286 52.032710 -0.542904 1.012627 0.084228 -0.001540 -106714.000000 0 0 1
37.153057 22.751300 26.463276 50.973290 0.549463 1.024929 0.087806 0.001170 -120283.000000 0 0 1
37.517377 22.067400 25.294376 50.342121 0.531691 1.044367 0.096176 -0.022161 -357557.000000 0 0 1
37.310737 20.565300 25.370926 49.585346 0.503756 1.033679 0.106635 -0.019114 -928122.000000 0 0 1
36.019257 20.161000 25.073416 48.296262 0.510282 1.024930 0.133594 -0.003043 -392471.000000 0 0 1
35.588127 18.873500 25.541406 47.697874 0.487617 1.005717 0.132084 0.000712 -248940.000000 0 0 1
35.624327 18.554700 27.098436 48.453016 0.480183 0.977288 0.109157 0.013498 495203.000000 0 0 1
34.491157 18.992000 27.887576 48.249900 0.503330 0.954543 0.097401 -0.004894 888196.000000 0 0 1
34.426137 20.396600 28.045706 48.864525 0.534867 0.959477 0.110047 -0.024179 -1004890.000000 0 0 1
33.512087 20.816500 29.203186 49.083731 0.555836 0.933572 0.108445 -0.019546 683344.000000 0 0 1
32.100997 20.655100 28.982236 47.927833 0.571751 0.921400 0.118794 -0.021994 1032160.000000 0 0 1
31.441827 21.475100 28.032816 47.282208 0.599232 0.936162 0.105218 -0.008749 -392950.000000 0 0 1
31.116787 22.889100 28.471656 47.987504 0.634213 0.935627 0.105303 -0.015558 235501.000000 0 0 1
32.238847 23.698500 28.064786 48.873248 0.633891 0.959125 0.091155 -0.026222 684741.000000 0 0 1
32.353547 24.978700 28.691496 49.938856 0.657467 0.958763 0.073681 -0.011566 106601.000000 0 0 1
32.754597 25.096300 30.213696 51.142500 0.653784 0.938778 0.081389 -0.018268 723044.000000 0 0 1
34.104147 24.718500 30.524176 52.017520 0.627174 0.943688 0.060931 -0.004747 445367.000000 0 0 1
34.363407 24.651400 31.883586 52.963179 0.622291 0.924799 0.078697 -0.007422 -68174.100000 0 0 1
34.036717 23.410400 32.681032 52.674422 0.602490 0.901500 0.083898 -0.010236 -438419.000000 0 0 1
34.373007 23.556800 -33.322571 53.355601 0.600811 2.245335 0.090816 -0.030387 26582.200000 0 0 1
34.117627 22.431600 -32.609581 52.254893 0.581614 2.244709 0.077678 -0.034537 -447547.000000 0 0 1
34.602487 22.404400 -31.126501 51.654122 0.574601 2.217545 0.083158 -0.045209 -214831.000000 0 0 1
33.954567 23.380900 -30.374691 51.207430 0.603030 2.205786 0.071875 -0.051794 55020.700000 0 0 1
34.126047 23.223900 -28.978251 50.434865 0.597541 2.182872 0.099927 -0.063445 154486.000000 0 0 1
35.401767 23.860500 -28.313721 51.227681 0.593057 2.156401 0.090892 -0.028526 462869.000000 0 0 1
35.763817 23.185100 -27.172211 50.546300 0.575168 2.138350 0.097233 -0.030006 -478538.000000 0 0 1
36.857157 23.812300 -26.550351 51.287394 0.573607 2.114931 0.093140 -0.012164 -446061.000000 0 0 1
37.607737 23.020500 -25.510191 50.941684 0.549285 2.095287 0.081208 -0.007223 -456337.000000 0 0 1
-37.428706 22.095700 -26.192451 50.746157 -0.533287 2.113142 0.056205 -0.000914 -177357.000000 0 0 1
-37.388156 20.880400 -25.475231 49.828232 -0.509328 2.107448 0.030422 -0.000718 -335492.000000 0 0 1
-36.366956 19.847400 -26.022031 48.924645 -0.499577 2.131615 0.034949 0.009139 -602959.000000 0 0 1
-35.081100 20.202200 -25.633831 47.915611 -0.522489 2.135279 0.033556 0.008189 -1114460.000000 0 0 1
-34.221699 19.103900 -25.650621 46.840560 -0.509147 2.150308 0.016942 0.007410 471309.000000 0 0 1
-32.900516 19.482700 -24.880671 45.618717 -0.534642 2.147668 0.035944 0.006879 474725.000000 0 0 1
-33.111336 19.719500 -23.507671 45.142329 -0.537142 2.118520 0.044336 0.011106 388663.000000 0 0 1
-31.866006 19.999800 -22.877971 44.032214 -0.560482 2.117148 0.076258 0.004285 190304.000000 0 0 1
-32.015056 20.346500 -21.342871 43.525418 -0.566135 2.083292 0.064305 -0.003379 48328.800000 0 0 1
-32.609346 19.286400 -20.656371 43.151134 -0.534100 2.069968 0.029934 -0.000356 -22988.700000 0 0 1
-33.043676 19.692900 -19.365771 43.066552 -0.537448 2.037193 0.026271 0.003882 -859677.000000 0 0 1
-33.656696 18.603200 -18.516971 42.681734 -0.504940 2.019545 0.020636 -0.001265 -71928.200000 0 0 1
-34.293357 18.991100 -17.294571 42.846218 -0.505743 1.986291 0.020220 -0.001651 536616.000000 0 0 1
-35.483994 19.755100 -17.502171 44.223340 -0.507998 1.977700 0.009881 -0.000680 -965907.000000 0 0 1
-36.495446 19.447400 -16.427071 44.496827 -0.489598 1.948916 0.026276 -0.006578 -628459.000000 0 0 1
-36.278066 20.293100 -15.285571 44.289464 -0.510014 1.923172 0.035209 -0.006002 626564.000000 0 0 1
-37.359136 20.094200 -14.362071 44.785612 -0.493479 1.897249 0.042036 -0.009657 -223751.000000 0 0 1
-37.298316 20.943800 -13.065571 44.727131 -0.511646 1.867236 0.039733 -0.007899 -79189.200000 0 0 1
-37.307816 22.368700 -13.102571 45.430268 -0.540104 1.863363 0.056062 -0.011880 425155.000000 0 0 1
37.270457 22.859000 -13.557971 45.775970 0.550162 1.871488 0.057823 -0.009610 558548.000000 0 0 1
37.253707 24.337400 -14.044871 46.662684 0.578683 1.876524 0.059463 -0.014557 -28044.100000 0 0 1
37.579797 25.252800 -13.000571 47.105837 0.591671 1.850412 0.068768 -0.010704 -60227.500000 0 0 1
37.315147 26.598300 -13.353971 47.730685 0.619266 1.854359 0.088619 -0.004655 162544.000000 0 0 1
-37.482616 27.349800 -14.225571 48.531690 -0.630360 1.868284 0.081223 0.000924 101930.000000 0 0 1
-37.428586 26.961900 -15.553571 48.680147 -0.624257 1.896004 0.082688 0.000686 42126.200000 0 0 1
-36.437736 27.699100 -16.253871 48.570949 -0.649982 1.912021 0.104362 -0.008102 -626571.000000 0 0 1
-36.221276 27.359200 -17.768371 48.746504 -0.646907 1.943898 0.104766 -0.013212 -174671.000000 0 0 1
-35.574289 26.101000 -17.935671 47.628568 -0.632990 1.956891 0.095058 -0.016986 1096020.000000 0 0 1
-34.190821 25.973100 -17.563171 46.390507 -0.649649 1.959073 0.097729 -0.011469 480440.000000 0 0 1
-33.526456 24.807900 -18.299771 45.544887 -0.637038 1.984274 0.074494 -0.006996 -323756.000000 0 0 1
-33.488616 24.986600 -19.738771 46.210785 -0.641015 2.012131 0.077667 -0.007525 1183980.000000 0 0 1
-32.481796 24.206900 -20.467871 45.386945 -0.640451 2.038641 0.069126 0.001628 814517.000000 0 0 1
-32.785776 24.295800 -22.006371 46.362413 -0.637747 2.065374 0.065677 0.000358 -373877.000000 0 0 1
-33.880096 23.462000 -22.273871 46.844975 -0.605675 2.066306 0.062911 0.000185 -60288.300000 0 0 1
-33.909946 23.027800 -23.624871 47.310660 -0.596552 2.093652 0.054323 0.001265 -89223.800000 0 0 1
-34.637008 23.917500 -24.672771 48.790519 -0.604334 2.100975 0.053451 0.001967 -263516.000000 0 0 1
-33.958667 25.121900 -24.846171 49.006460 -0.636927 2.102495 0.056735 -0.000249 -9240.850000 0 0 1
-34.802100 26.010600 -25.551421 50.404490 -0.641826 2.102413 0.074338 -0.007578 513784.000000 0 0 1
-34.173236 27.508800 -25.720101 50.853394 -0.677771 2.101070 0.073257 -0.009778 612730.000000 0 0 1
-32.969226 27.588200 -26.448401 50.473721 -0.696773 2.122341 0.076088 -0.018950 -366974.000000 0 0 1
-32.653756 28.901300 -26.902791 51.237809 -0.724513 2.123579 0.075603 -0.015655 -361127.000000 0 0 1
-31.257376 28.977400 -27.505561 50.727400 -0.747565 2.143877 0.081944 -0.016136 -910237.000000 0 0 1
-30.244726 28.657400 -26.579181 49.421077 -0.758456 2.138634 0.069887 -0.016622 -753398.000000 0 0 1
-29.077476 28.337200 -27.284211 48.917529 -0.772505 2.162480 0.105223 -0.017057 151090.000000 0 0 1
-27.998086 29.497300 -27.222411 48.939178 -0.811468 2.160663 0.088871 -0.024483 -353968.000000 0 0 1
-27.381266 29.580300 -25.971881 47.950667 -0.823985 2.143180 0.065762 -0.022945 -121924.000000 0 0 1
-28.113846 30.130100 -24.867871 48.131302 -0.820002 2.113750 0.072764 -0.014822 -443083.000000 0 0 1
-27.201586 30.550600 -23.712871 47.281769 -0.843323 2.096154 0.038037 -0.015800 -148960.000000 0 0 1
-26.922366 31.940600 -23.689171 48.022834 -0.870445 2.086664 0.034296 -0.005821 58386.800000 0 0 1
-26.081766 32.204100 -22.588171 47.197331 -0.890054 2.069844 0.041967 0.010477 -83443.200000 0 0 1
-25.574346 33.610100 -22.456171 47.832684 -0.920348 2.059491 0.035198 0.030314 -129497.000000 0 0 1
-26.528156 -33.148414 -21.950471 47.795225 0.895882 2.047959 0.015115 0.020205 28456.300000 0 0 1
-25.891146 -31.915814 -21.737171 46.491668 0.889244 2.057313 0.033266 0.025338 100797.000000 0 0 1
17.471234 7.850500 -25.044771 31.529588 0.422304 2.488694 0.043319 0.003738 -1096890.000000 0 0 1
16.238634 7.499300 -24.554371 30.378444 0.432639 2.512026 0.035368 0.003506 -956429.000000 0 0 1
15.853934 6.269700 -25.112871 30.353132 0.376592 2.545182 0.033558 0.001916 10815.000000 0 0 1
14.349334 5.914400 -25.107071 29.516919 0.390956 2.587920 0.035081 -0.010439 53737.200000 0 0 1
13.819934 5.797600 -23.798771 28.124442 0.397211 2.579601 0.068660 -0.035353 146141.000000 0 0 1
12.551434 5.167900 -23.821071 27.416949 0.390584 2.623660 0.086745 -0.032284 -264385.000000 0 0 1
11.843934 5.485200 -22.540171 26.046602 0.433713 2.616702 0.116354 -0.039371 -1183510.000000 0 0 1
12.443834 4.829000 -21.473371 25.283866 0.370174 2.585438 0.095986 -0.029272 -166759.000000 0 0 1
11.857834 4.789200 -20.206271 23.913135 0.383851 2.577336 0.126927 -0.033906 -713957.000000 0 1 0
11.746434 6.202700 -19.622171 23.695607 0.485835 2.546494 0.112292 -0.037410 -225706.000000 0 1 0
11.278134 6.138400 -18.312271 22.365498 0.498437 2.530067 0.104120 -0.037443 -298061.000000 0 1 0
11.210434 7.363100 -17.619271 22.143346 0.581146 2.490945 0.102147 -0.042369 -660491.000000 0 1 0
12.506734 8.038300 -17.199071 22.734131 0.571239 2.428788 0.088165 -0.035211 -646597.000000 0 1 0
13.117134 7.328100 -16.147771 22.056989 0.509472 2.392186 0.115911 -0.045513 266669.000000 0 1 0
14.345834 8.000500 -15.877871 22.845519 0.508727 2.339231 0.112364 -0.042837 126661.000000 0 1 0
15.329634 7.388600 -14.861771 22.593391 0.449129 2.288681 0.128342 -0.046273 -127855.000000 0 1 0
16.313534 8.347900 -14.531571 23.387719 0.472977 2.241240 0.095380 -0.049380 500884.000000 0 1 0
17.126234 8.081900 -13.378271 23.186270 0.440917 2.185836 0.101772 -0.045732 420432.000000 0 1 0
17.946534 9.354100 -13.036871 24.073580 0.480479 2.143067 0.144066 -0.054177 -247271.000000 0 1 0
17.174734 10.333400 -12.427371 23.583685 0.541641 2.125802 0.178675 -0.057978 274843.000000 0 1 0
17.970134 11.465000 -12.131071 24.526207 0.567895 2.088190 0.231329 -0.075586 -257696.000000 0 1 0
17.141934 12.714600 -11.819071 24.396668 0.638184 2.076536 0.240535 -0.070881 -1209690.000000 0 1 0
16.374334 12.588700 -10.649171 23.237879 0.655429 2.046842 0.261153 -0.058226 35299.100000 0 1 0
15.563334 13.660000 -10.264971 23.112391 0.720359 2.031002 0.155567 -0.050845 512933.000000 0 1 0
14.311834 13.789000 -11.249171 22.836571 0.766795 2.085865 0.134606 -0.067096 -295390.000000 0 1 0
13.371134 14.782200 -10.898471 22.717336 0.835477 2.071158 0.166733 -0.068200 71274.600000 0 1 0
13.835634 16.107900 -11.125971 23.972410 0.861138 2.053432 0.207305 -0.063529 -58472.100000 0 1 0
13.156034 17.114000 -10.141571 23.849983 0.915416 2.010005 0.195844 -0.053707 36683.300000 0 1 0
13.653134 17.100900 -8.815571 23.591591 0.897040 1.953763 0.212612 -0.041755 366059.000000 0 1 0
12.660534 17.225000 -7.800471 22.756034 0.936959 1.920678 0.188599 -0.033170 198523.000000 0 1 0
13.253034 17.035300 -6.366671 22.502863 0.909630 1.857641 0.177584 -0.030461 -24708.100000 0 1 0
14.327234 17.851400 -6.018971 23.667914 0.894482 1.827930 0.227317 -0.030407 -77258.500000 0 1 0
14.797234 17.700500 -4.686271 23.542026 0.874499 1.771195 0.221654 -0.028849 -549646.000000 0 1 0
15.945034 18.645700 -4.350971 24.916605 0.863315 1.746318 0.202889 -0.031825 -1113280.000000 0 1 0
17.135634 18.248700 -4.925871 25.512923 0.816844 1.765090 0.218989 -0.051937 -624906.000000 0 0 1
18.044034 19.322700 -5.059771 26.917563 0.819604 1.759894 0.140531 -0.043171 -124939.000000 0 0 1
19.269634 18.947400 -5.896271 27.660238 0.776967 1.785612 0.142542 -0.021096 228316.000000 0 0 1
20.458134 18.501600 -5.256471 28.079796 0.735221 1.759105 0.132867 -0.029063 401693.000000 0 0 1
20.647834 17.026000 -5.170771 27.257194 0.689556 1.761656 0.181574 -0.054302 -6849.930000 0 0 1
21.852934 16.665200 -4.280171 27.813656 0.651521 1.725298 0.164975 -0.048031 1027670.000000 0 0 1
23.135034 17.051400 -4.832671 29.143348 0.635154 1.737390 0.118849 -0.040910 940596.000000 0 0 1
24.169634 16.251200 -4.309471 29.442219 0.591948 1.717695 0.121347 -0.042596 312618.000000 0 0 1
25.605234 16.768500 -4.605371 30.951899 0.579802 1.720142 0.128841 -0.036534 346830.000000 0 0 1
26.034834 17.897600 -3.891571 31.832075 0.602252 1.693356 0.120118 -0.032569 383580.000000 0 0 1
27.447234 17.871800 -3.718771 32.963330 0.577171 1.683852 0.090637 -0.023621 364735.000000 0 0 1
28.040234 19.141600 -3.035771 34.086236 0.598985 1.659976 0.105377 -0.016509 -85009.600000 0 0 1
28.134434 20.207400 -3.941271 34.862860 0.622866 1.684089 0.088366 -0.021855 196810.000000 0 0 1
28.189034 21.416800 -3.188271 35.545268 0.649716 1.660613 0.114371 -0.017398 -554263.000000 0 0 1
28.221534 22.712100 -4.069371 36.453453 0.677648 1.682661 0.072141 -0.016015 -36968.400000 0 0 1
29.442034 23.199100 -4.586871 37.763355 0.667355 1.692561 0.041754 -0.003012 12334.900000 0 0 1
29.998234 22.371200 -5.561971 37.832528 0.640776 1.718347 0.038471 -0.000079 86982.500000 0 0 1
30.805934 23.060700 -6.732871 39.065752 0.642592 1.744008 0.016698 0.003785 -99689.600000 0 0 1
29.964034 23.763800 -7.596271 38.990574 0.670506 1.766874 0.002079 0.007114 278165.000000 0 0 1
30.658834 24.722600 -8.449471 40.281070 0.678618 1.782129 0.011904 0.004229 693279.000000 0 0 1
31.751534 24.255600 -9.507371 41.071695 0.652350 1.804397 0.011147 -0.005332 699139.000000 0 0 1
31.271834 23.627500 -10.680071 40.623273 0.647045 1.836828 0.023061 0.002164 304239.000000 0 0 1
32.377934 23.321400 -11.532971 41.535861 0.624212 1.852157 0.023687 0.000274 329672.000000 0 0 1
32.106134 22.448200 -12.783171 41.208433 0.610180 1.886208 0.034047 0.002042 9146.470000 0 0 1
31.629034 23.356200 -13.770871 41.659870 0.636063 1.907688 0.071097 -0.009681 55365.800000 0 0 1
31.460434 22.702200 -15.030771 41.606164 0.625083 1.940418 0.088644 -0.017323 86531.500000 0 0 1
31.682434 23.739900 -16.133871 42.751155 0.643058 1.957773 0.096976 -0.012290 -500380.000000 0 0 1
32.990634 24.164200 -16.323871 44.031344 0.632178 1.950594 0.104238 -0.008395 -761084.000000 0 0 1
33.288834 24.575600 -17.656771 44.987422 0.635941 1.974125 0.125176 -0.010302 -58089.600000 0 0 1
34.738834 25.073300 -17.808771 46.396221 0.625185 1.964749 0.115096 -0.014396 195680.000000 0 0 1
35.660334 24.017200 -17.573071 46.446724 0.592718 1.958808 0.110402 -0.003975 -361937.000000 0 0 1
37.002434 24.397300 -17.752571 47.744760 0.582915 1.951768 0.092115 -0.008845 168033.000000 0 0 1
-37.897589 23.159700 -17.785971 47.842865 -0.548551 1.951698 0.065918 -0.021356 132208.000000 0 0 1
-37.898389 22.470800 -19.072971 48.010446 -0.535199 1.979333 0.047767 -0.010315 800257.000000 0 0 1
-36.586289 22.594200 -19.648771 47.277147 -0.553231 1.999408 0.072652 0.008326 700120.000000 0 0 1
-36.468289 21.837000 -20.939271 47.384003 -0.539532 2.028519 0.066265 0.007592 -48696.100000 0 0 1
-36.231889 20.486500 -20.673671 46.474155 -0.514610 2.031795 0.046950 0.009977 86202.000000 0 0 1
-36.145389 19.749600 -21.852071 46.626696 -0.500070 2.058570 0.026298 0.016559 -55879.200000 0 0 1
-35.958989 18.197700 -21.657371 45.752015 -0.468490 2.063903 0.016056 0.006102 -296944.000000 0 0 1
-37.095089 17.465600 -21.307871 46.207339 -0.440043 2.050071 0.017525 0.001243 -128138.000000 0 0 1
-36.837889 16.141700 -21.605571 45.655068 -0.412983 2.063756 0.009279 -0.006138 -189332.000000 0 0 1
37.750134 15.294700 -21.410271 46.015217 0.384943 2.054755 0.008224 -0.004181 -289666.000000 0 0 1
36.762634 15.555400 -22.371471 45.759638 0.400286 2.081614 0.071107 0.005093 712907.000000 0 0 1
35.616834 14.667300 -22.332771 44.524614 0.390644 2.096223 0.105839 0.002936 611978.000000 0 0 1
35.733934 13.410500 -23.290871 44.712640 0.359023 2.118703 0.062088 -0.010984 -276661.000000 0 0 1
35.843234 13.555200 -24.687971 45.584831 0.361556 2.143115 0.083720 -0.010940 230541.000000 0 0 1
36.160734 12.284800 -25.192381 45.751186 0.327494 2.153926 0.063739 -0.008042 -136498.000000 0 0 1
36.140134 12.138300 -26.743581 46.568946 0.324030 2.182520 0.070361 -0.006960 845755.000000 0 0 1
34.826234 12.293400 -27.327741 45.943440 0.339338 2.207829 0.074421 -0.010223 976442.000000 0 0 1
34.641434 13.565600 -28.030871 46.580942 0.373244 2.216508 0.090700 -0.010646 32337.500000 0 0 1
35.074034 13.706300 -29.553781 47.869369 0.372535 2.236209 0.091825 -0.029795 622850.000000 0 0 1
36.488634 13.738900 -29.766771 49.053424 0.360107 2.222854 0.085707 -0.017170 209674.000000 0 0 1
36.871834 13.752500 -31.113831 50.167060 0.357000 2.239800 0.092374 -0.028720 -79094.400000 0 0 1
-37.441589 13.931100 -31.195501 50.686363 -0.356204 2.233768 0.079624 -0.030185 419328.000000 0 0 1
-36.560389 12.942500 -30.676821 49.449344 -0.340237 2.240009 0.082999 -0.025391 215459.000000 0 0 1
-36.520089 12.867000 -29.244261 48.523225 -0.338746 2.217659 0.057747 -0.018562 -634194.000000 0 0 1
-35.394589 11.894500 -28.819691 47.168110 -0.324197 2.228119 0.066027 -0.020507 100536.000000 0 0 1
-35.665389 10.527300 -29.102821 47.220951 -0.287018 2.234847 0.071489 -0.026837 -210043.000000 0 0 1
-34.576689 9.689400 -28.873231 46.077059 -0.273221 2.248017 0.076302 -0.025249 -341247.000000 0 0 1
-34.871389 8.305600 -29.477471 46.410322 -0.233822 2.258998 0.084976 -0.023856 -554510.000000 0 0 1
-34.946389 8.370800 -30.888761 47.386031 -0.235103 2.280823 0.095526 -0.028693 39083.100000 0 0 1
-35.364489 7.223200 -31.567541 47.951343 -0.201479 2.289387 0.104170 -0.028173 -467643.000000 0 0 1
-36.764889 6.661100 -31.299641 48.741100 -0.179237 2.268111 0.116061 -0.025624 -702320.000000 0 0 1
-36.978589 6.059100 -29.985001 47.991968 -0.162411 2.245662 0.114123 -0.034030 -1207000.000000 0 0 1
37.699334 5.383700 -29.953961 48.450632 0.141847 2.237294 0.101651 -0.020419 -1496040.000000 0 0 1
37.409934 4.799400 -28.591401 47.328697 0.127595 2.219436 0.101943 -0.029699 -330588.000000 0 0 1
-37.504989 3.831100 -28.226191 47.095853 -0.101796 2.213466 0.106761 -0.025931 250244.000000 0 0 1
37.841834 3.021000 -27.167781 46.682107 0.079663 2.191951 0.102137 -0.021496 -235505.000000 0 0 1
-37.327589 1.655900 -27.085951 46.149102 -0.044332 2.198049 0.148165 -0.025336 216226.000000 0 0 1
-35.986889 1.785500 -26.609621 44.791920 -0.049575 2.206908 0.139299 -0.020525 425430.000000 0 0 1
-35.216689 0.630300 -26.849911 44.289165 -0.017896 2.222122 0.161312 -0.017640 532716.000000 0 0 1
-33.903289 0.650000 -25.981861 42.718995 -0.019170 2.224592 0.159468 -0.022008 326357.000000 0 0 1
-34.104289 0.682000 -24.587071 42.048682 -0.019995 2.195342 0.154147 -0.015265 -312284.000000 0 0 1
-32.883989 0.691200 -23.928971 40.674686 -0.021016 2.199753 0.187288 -0.012394 -508922.000000 0 0 1
-33.079489 0.407800 -22.399671 39.952023 -0.012327 2.165984 0.165455 -0.004721 -246444.000000 0 0 1
-33.362589 -0.944100 -22.180971 40.074295 0.028291 2.157353 0.181336 -0.022191 272010.000000 0 0 1
-33.604189 -1.289900 -20.797071 39.540150 0.038366 2.124656 0.165881 -0.021474 -282783.000000 0 0 1
-34.993989 -1.009900 -20.214371 40.425486 0.028851 2.094442 0.159227 -0.013894 -411363.000000 0 0 1
-36.011189 -1.816700 -20.752871 41.602737 0.050405 2.093050 0.162747 -0.016516 1161930.000000 0 0 1
-37.329389 -1.544900 -20.212971 42.478632 0.041362 2.066714 0.156133 -0.016301 1380250.000000 0 0 1
37.594534 -2.726500 -19.912171 42.629536 -0.072397 2.056802 0.162996 -0.028892 110625.000000 0 0 1
36.982434 -3.509900 -20.929971 42.638990 -0.094624 2.083878 0.141430 -0.020237 521556.000000 0 0 1
37.910134 -4.411300 -21.504871 43.807503 -0.115841 2.083913 0.135074 -0.019605 140785.000000 0 0 1
37.333334 -5.297300 -22.657571 43.990962 -0.140951 2.111863 0.127654 -0.021557 -521322.000000 0 0 1
36.540034 -6.388300 -22.263471 43.262531 -0.173081 2.111353 0.144116 -0.020067 202839.000000 0 0 1
36.070834 -7.138000 -23.356571 43.561284 -0.195364 2.136698 0.141264 -0.014416 280415.000000 0 0 1
34.728934 -6.611400 -23.961671 42.707975 -0.188120 2.166460 0.100034 -0.010079 -174362.000000 0 0 1
34.782134 -5.500700 -24.817871 43.081101 -0.156848 2.184713 0.099571 -0.013205 -413929.000000 0 0 1
33.477034 -5.129600 -25.138361 42.177740 -0.152045 2.209319 0.052159 -0.008495 -419831.000000 0 0 1
33.296634 -3.986000 -26.194511 42.552396 -0.119145 2.233921 0.080853 -0.032905 -218025.000000 0 0 1
33.405634 -4.424200 -27.522771 43.508767 -0.131672 2.255676 0.088698 -0.036788 330356.000000 0 0 1
33.267434 -3.376100 -28.402191 43.872596 -0.101137 2.274937 0.088220 -0.036336 -307120.000000 0 0 1
32.710734 -3.737700 -29.805341 44.410819 -0.113772 2.306526 0.102871 -0.033222 93894.100000 0 0 1
32.368834 -2.541700 -30.519431 44.560490 -0.078362 2.325261 0.095994 -0.046737 65297.100000 0 0 1
31.696434 -2.888000 -31.702271 44.922583 -0.090863 2.354220 0.103485 -0.052068 -798987.000000 0 0 1
31.045134 -1.656000 -32.417721 44.916047 -0.053291 2.377110 0.104233 -0.049367 -220608.000000 0 0 1
29.968534 -1.024200 -31.702411 43.637196 -0.034163 2.384011 0.089588 -0.043880 1311740.000000 0 0 1
28.750434 -1.773900 -31.526371 42.704171 -0.061622 2.401269 0.086333 -0.047011 301546.000000 0 0 1
27.937034 -2.138800 -32.791541 43.131630 -0.076409 2.434520 0.088963 -0.045484 -1882080.000000 0 0 1
28.606534 -2.971000 -33.619261 44.242687 -0.103486 2.433929 0.095890 -0.052477 -521647.000000 0 0 1
27.901234 -3.227200 32.517688 42.968520 -0.115153 0.712424 0.082240 -0.050321 -203809.000000 0 0 1
28.340134 -4.499100 31.694448 42.754451 -0.157440 0.735771 0.071638 -0.051837 229383.000000 0 0 1
29.661634 -4.724600 31.207286 43.313151 -0.157956 0.766268 0.076505 -0.042523 337813.000000 0 0 1
29.961634 -4.112500 29.972476 42.578885 -0.136406 0.789883 0.088594 -0.036659 -127282.000000 0 0 1
30.489634 -2.634400 30.093026 42.920252 -0.086189 0.793804 0.074928 -0.032229 -202418.000000 0 0 1
31.779434 -2.660500 30.684596 44.255566 -0.083523 0.804669 0.085623 -0.029805 188596.000000 0 0 1
32.272234 -1.377700 30.982326 44.758236 -0.042664 0.806242 0.089451 -0.026753 -67150.600000 0 0 1
33.651134 -1.194200 31.646291 46.209443 -0.035473 0.816406 0.095345 -0.030727 185437.000000 0 0 1
34.705734 -1.444200 30.745926 46.388421 -0.041589 0.846254 0.103292 -0.025704 -742090.000000 0 0 1
35.981934 -1.363800 31.264099 47.686512 -0.037884 0.855797 0.099561 -0.022794 77251.000000 0 0 1
37.145534 -1.885500 30.336756 47.996506 -0.050716 0.886585 0.104885 -0.016460 596204.000000 0 0 1
37.273434 -1.143600 29.134216 47.322502 -0.030672 0.907583 0.109447 -0.013422 -318875.000000 0 0 1
-37.557289 -1.685300 28.361726 47.093287 0.044843 0.924485 0.097651 -0.012092 -274063.000000 0 0 1
-37.302889 -1.114200 26.942106 46.028513 0.029860 0.945503 0.112545 -0.012689 262252.000000 0 0 1
37.662234 -1.589100 25.933426 45.754909 -0.042168 0.968192 0.097232 -0.030585 122275.000000 0 0 1
-37.590589 -1.399300 24.634896 44.965414 0.037208 0.990988 0.121735 -0.021897 -109189.000000 0 0 1
-28.025496 15.018500 11.412729 33.782158 -0.491943 1.226183 0.138453 -0.028424 525590.000000 0 0 1
-29.145036 14.270500 11.918229 34.570573 -0.455323 1.218823 0.086376 -0.005082 1188500.000000 0 0 1
-30.114886 15.146500 12.529829 35.962751 -0.466011 1.214921 0.100026 -0.014190 986968.000000 0 0 1
-31.359556 14.421800 13.157729 36.939625 -0.431044 1.206603 0.093287 -0.009855 819865.000000 0 0 1
-32.286636 15.252700 13.831529 38.293380 -0.441337 1.201243 0.083077 -0.020238 66391.700000 0 0 1
-33.370566 14.504100 14.367629 39.120230 -0.410005 1.194726 0.104490 -0.026590 348585.000000 0 0 1
-34.425782 15.334000 15.159829 40.621256 -0.419040 1.188341 0.103168 -0.028965 65274.900000 0 0 1
-33.936656 15.999700 16.320729 40.915196 -0.440554 1.160488 0.088263 -0.019043 -77107.700000 0 0 1
-34.974294 16.182700 17.240729 42.217576 -0.433367 1.150120 0.087680 -0.040141 -206935.000000 0 0 1
-34.370552 16.395300 18.647929 42.401486 -0.445092 1.115427 0.105701 -0.030020 -265188.000000 0 0 1
-33.771566 15.254700 19.197529 41.734514 -0.424269 1.092810 0.089104 -0.035657 -315796.000000 0 0 1
-32.418146 15.480400 19.506529 40.878890 -0.445505 1.073355 0.100334 -0.031544 -191689.000000 0 0 1
-32.234086 15.913900 20.938129 41.601608 -0.458593 1.043382 0.108834 -0.047958 -529444.000000 0 0 1
-32.780586 17.183400 21.259429 42.682542 -0.482815 1.049410 0.095550 -0.044671 4144.760000 0 0 1
-32.954096 17.461000 22.593329 43.604100 -0.487248 1.026113 0.084452 -0.052283 -177918.000000 0 0 1
-33.959218 16.591400 23.431329 44.469430 -0.454461 1.015837 0.087094 -0.053170 -695052.000000 0 0 1
-35.263105 16.404600 23.046129 45.207539 -0.435427 1.035861 0.145753 -0.044564 -982931.000000 0 0 1
-36.115826 17.502900 23.229729 46.371594 -0.451278 1.046103 0.145445 -0.049004 -320569.000000 0 0 1
-37.602906 17.078700 23.063429 47.303090 -0.426329 1.061495 0.093910 -0.058530 236448.000000 0 0 1
37.739847 16.290400 24.128429 47.663973 0.407490 1.040001 0.110117 -0.041249 2737.880000 0 0 1
36.504897 15.706100 23.744829 46.293693 0.406306 1.032217 0.140351 -0.046376 568230.000000 0 0 1
35.811237 14.872200 24.915529 46.091329 0.393621 0.999683 0.143127 -0.030252 -591850.000000 0 0 1
35.099557 15.590500 25.825029 46.281473 0.418003 0.978823 0.122196 -0.024159 -264386.000000 0 0 1
34.670857 14.837600 26.962429 46.359414 0.404372 0.950108 0.125085 -0.018348 470178.000000 0 0 1
33.552287 13.765900 26.816229 45.103948 0.389339 0.934099 0.132745 -0.023389 -199821.000000 0 0 1
34.078417 12.555800 26.443629 44.924961 0.353006 0.941448 0.126487 -0.023672 107987.000000 0 0 1
33.233977 11.518300 26.949029 44.310480 0.333627 0.917023 0.121652 -0.017803 393556.000000 0 0 1
33.817407 10.120500 26.639929 44.223606 0.290786 0.924302 0.143287 -0.033753 -59165.300000 0 0 1
34.870347 9.739500 27.476729 45.450738 0.272365 0.921610 0.137531 -0.023567 -276959.000000 0 0 1
35.567867 8.597300 27.076129 45.520364 0.237166 0.933763 0.140259 -0.017985 -577832.000000 0 0 1
36.741637 8.228600 27.930729 46.880522 0.220323 0.932553 0.133655 -0.028807 -357216.000000 0 0 1
-37.894126 8.930200 27.761129 47.816248 -0.231439 0.951356 0.131427 -0.032862 619795.000000 0 0 1
-36.787206 8.322700 28.439529 47.237408 -0.222493 0.924724 0.135704 -0.038178 1173000.000000 0 0 1
-35.474374 9.152500 28.576429 46.463015 -0.252497 0.908365 0.136605 -0.041430 646855.000000 0 0 1
-34.859991 9.474300 27.312029 45.287176 -0.265372 0.923433 0.124496 -0.036814 901693.000000 0 0 1
-33.517746 9.911900 27.625929 44.551959 -0.287526 0.901947 0.116333 -0.030933 1153950.000000 0 0 1
-32.694216 10.441400 26.413929 43.308547 -0.309127 0.914861 0.109234 -0.026475 -38014.900000 0 0 1
-32.285026 9.512600 25.503029 42.228154 -0.286536 0.922368 0.102251 -0.023528 -257574.000000 0 0 1
-31.422156 10.151400 24.617729 41.187807 -0.312481 0.930174 0.099477 -0.019870 -305032.000000 0 0 1
-30.594706 9.093400 23.822629 39.827674 -0.288906 0.929615 0.103313 -0.018189 -493144.000000 0 0 1
-29.615846 9.660900 23.026029 38.737958 -0.315323 0.934271 0.095002 -0.024538 -1112590.000000 0 0 1
-28.866266 8.648000 22.513329 37.615146 -0.291079 0.929147 0.077669 -0.013343 -332635.000000 0 0 1
-27.852186 9.321900 21.513529 36.407060 -0.322973 0.938602 0.073522 -0.009212 -457415.000000 0 0 1
-26.728316 9.856500 22.184929 36.107126 -0.353294 0.909146 0.072151 -0.009757 859675.000000 0 0 1
-25.679576 10.513900 21.433929 35.062744 -0.388606 0.913091 0.078904 -0.003688 828475.000000 0 0 1
-24.857166 9.596600 20.570529 33.661850 -0.368440 0.913355 0.079418 -0.004030 -1045520.000000 0 0 1
-25.519946 9.371500 19.332029 33.358957 -0.351935 0.952662 0.076139 -0.010635 282212.000000 0 0 1
-24.695866 8.698000 18.416829 32.011258 -0.338638 0.957797 0.093871 -0.027286 -99697.600000 0 0 1
-24.802166 7.155200 18.418029 31.710694 -0.280865 0.951067 0.096015 -0.022025 77898.500000 0 0 1
-24.070566 6.590700 19.535229 31.693133 -0.267257 0.906650 0.105383 -0.012251 491076.000000 0 0 1
-24.310066 5.183700 19.704329 31.719247 -0.210086 0.900510 0.131940 -0.020681 -311211.000000 0 0 1
-23.931966 4.205300 18.572629 30.583756 -0.173943 0.918175 0.112119 -0.035482 -339973.000000 0 0 1
-24.941766 4.206600 17.597629 30.813369 -0.167084 0.962947 0.146783 -0.034801 217175.000000 0 0 1
-24.718066 3.337200 16.489729 29.900349 -0.134199 0.986648 0.139935 -0.033007 -195858.000000 0 0 1
-24.728666 1.792700 16.648329 29.864487 -0.072368 0.979470 0.138335 -0.033788 -362970.000000 0 0 1
-23.582766 1.248000 17.259229 29.250391 -0.052871 0.939674 0.115964 -0.028584 43250.900000 0 0 1
-23.836566 0.117600 18.030329 29.887932 -0.004934 0.923208 0.134972 -0.035572 -369441.000000 0 0 1
-22.645166 -0.815600 18.334229 29.148117 0.036001 0.890527 0.133058 -0.029771 -65793.800000 0 0 1
-21.613066 -0.248700 19.134829 28.867424 0.011506 0.846175 0.119895 -0.028400 304566.000000 0 0 1
-20.604966 -1.234100 19.321029 28.273482 0.059822 0.818438 0.122978 -0.027863 -54049.400000 0 0 1
-19.509666 -0.798900 20.298029 28.165143 0.040926 0.766015 0.120411 -0.023487 -191369.000000 0 0 1
-19.857166 -0.772300 21.622029 29.366914 0.038873 0.743252 0.111464 -0.027692 499828.000000 0 0 1
-18.701566 -0.516300 22.451429 29.224678 0.027600 0.694716 0.105449 -0.035624 465491.000000 0 0 1
-19.068266 -0.729900 23.939629 30.614333 0.038260 0.672969 0.104528 -0.034273 200065.000000 0 0 1
-19.904966 0.210700 24.560329 31.614266 -0.010585 0.681109 0.092184 -0.036837 -189802.000000 0 0 1
-21.283266 0.000700 24.357429 32.345970 -0.000033 0.718144 0.150737 -0.037868 -273447.000000 0 0 1
-22.195866 0.959600 25.161329 33.565902 -0.043206 0.723324 0.117640 -0.037932 -278328.000000 0 0 1
-22.038966 2.287000 24.700229 33.182039 -0.103401 0.731182 0.109361 -0.035698 126920.000000 0 0 1
-23.186066 2.736500 24.008029 33.488320 -0.117480 0.771440 0.102978 -0.026458 -801374.000000 0 0 1
-22.863066 3.959500 23.028129 32.690858 -0.171482 0.789189 0.111897 -0.025841 245727.000000 0 0 1
-22.160266 3.616200 21.840829 31.323731 -0.161758 0.799226 0.126090 -0.022617 540907.000000 0 0 1
-20.838666 3.153300 22.040629 30.495617 -0.150180 0.763027 0.105279 -0.021228 -535111.000000 0 0 1
-20.145866 2.506500 20.817929 29.077906 -0.123782 0.772832 0.093080 -0.020411 209436.000000 0 0 1
-19.525566 3.353400 19.814429 28.019719 -0.170085 0.785323 0.087652 -0.016347 367772.000000 0 0 1
-19.297766 2.668200 18.572929 26.916106 -0.137394 0.809265 0.096182 -0.027150 48685.000000 0 0 1
-18.849666 3.606200 17.461029 25.946139 -0.189030 0.832577 0.077093 -0.018584 -895973.000000 0 0 1
-17.493466 3.865800 17.393829 24.970204 -0.217490 0.800172 0.089191 -0.030156 -890257.000000 0 1 0
-17.122266 4.745000 16.315429 24.122194 -0.270340 0.827979 0.082755 -0.024303 -979235.000000 0 1 0
-15.688766 5.137100 16.080229 23.045628 -0.316436 0.798536 0.072426 -0.021245 -1162770.000000 0 1 0
-15.076866 5.829500 17.160029 23.574596 -0.368947 0.755537 0.056605 -0.024286 128408.000000 0 1 0
-15.348166 7.267800 17.361729 24.286143 -0.442247 0.774341 0.047267 -0.032466 -916196.000000 0 1 0
-14.969366 8.249000 16.273929 23.600184 -0.503656 0.809904 0.014060 -0.018572 -295660.000000 0 1 0
-15.562466 8.184300 14.987829 23.104288 -0.484152 0.864917 0.036965 -0.018134 -589408.000000 0 1 0
-16.925766 8.468300 14.940029 24.112199 -0.463904 0.902557 0.052213 -0.007549 -623305.000000 0 1 0
-17.623766 7.901500 13.704829 23.682339 -0.421475 0.953670 0.064604 -0.012864 -129621.000000 0 1 0
-17.393866 6.503900 13.676929 23.063081 -0.357823 0.935989 0.054993 -0.009951 280121.000000 0 1 0
-18.061166 5.952900 12.565129 22.793096 -0.318384 0.986912 0.061661 -0.009918 84930.200000 0 1 0
-17.673666 4.448800 12.365129 22.023776 -0.246596 0.974666 0.065944 -0.019707 242994.000000 0 1 0
-18.281966 3.667400 13.363829 22.940620 -0.197974 0.948946 0.090520 -0.019467 224930.000000 0 1 0
-17.787966 2.340100 13.262429 22.310980 -0.130804 0.934233 0.075140 -0.024929 -379599.000000 0 1 0
-18.459566 1.341700 14.193129 23.323822 -0.072556 0.916596 0.080821 -0.029837 501519.000000 0 1 0
-19.852666 1.161600 13.924829 24.277120 -0.058444 0.959929 0.103293 -0.024956 606241.000000 0 1 0
-20.479666 0.312600 14.884829 25.319411 -0.015263 0.942358 0.113680 -0.035447 -210965.000000 0 0 1
-21.984066 0.108300 14.688129 26.439592 -0.004926 0.981790 0.125050 -0.036132 -593490.000000 0 0 1
-22.337766 -0.673200 13.561029 26.140591 0.030128 1.025381 0.146162 -0.035463 413719.000000 0 0 1
-23.744166 -0.544100 13.421829 27.280524 0.022911 1.056419 0.177569 -0.044349 74795.200000 0 0 1
-24.337466 -1.393500 12.255229 27.284515 0.057195 1.104967 0.191005 -0.047824 -10400.500000 0 0 1
-24.145666 -2.771100 12.571929 27.363216 0.114266 1.093425 0.174240 -0.034654 311931.000000 0 0 1
-24.484566 -3.670600 11.555529 27.322107 0.148807 1.134112 0.203465 -0.031815 -218650.000000 0 0 1
-24.254066 -5.172200 11.966429 27.535555 0.210104 1.121223 0.174544 -0.035139 -471846.000000 0 0 1
-25.134536 -5.616200 12.931729 28.818678 0.219834 1.105456 0.140796 -0.026897 -196944.000000 0 0 1
-25.256126 -7.008000 12.852029 29.191756 0.270668 1.114906 0.143238 -0.030170 -20020.500000 0 0 1
-26.232586 -7.729700 13.802929 30.633604 0.286551 1.103380 0.130045 -0.018578 -410873.000000 0 0 1
-27.568316 -7.349000 13.730129 31.662854 0.260516 1.122273 0.149793 -0.024695 -164301.000000 0 0 1
-28.296916 -7.659200 14.934929 32.900318 0.264339 1.099609 0.145786 -0.010956 1653660.000000 0 0 1
-29.828756 -7.147200 14.893329 34.097631 0.235174 1.118775 0.164019 -0.025067 1899920.000000 0 0 1
-30.707476 -7.725100 13.926229 34.591417 0.246456 1.156450 0.155905 -0.018789 607819.000000 0 0 1
-30.980586 -9.106300 13.909629 35.159624 0.285884 1.164060 0.161132 -0.027508 -523409.000000 0 0 1
-31.467856 -9.792600 15.231729 36.306013 0.301694 1.137861 0.155642 -0.030761 109819.000000 0 0 1
-30.413246 -9.886300 16.211529 35.854123 0.314291 1.101619 0.161259 -0.019857 582668.000000 0 0 1
-30.697986 -10.676100 17.363929 36.849036 0.334694 1.080125 0.149699 -0.016462 133199.000000 0 0 1
-29.556456 -10.546000 18.432229 36.394358 0.342728 1.039724 0.175970 -0.017585 1124810.000000 0 0 1
-28.463666 -11.394400 18.040129 35.573289 0.380777 1.038950 0.149534 -0.015566 -699002.000000 0 0 1
-27.382326 -11.390500 18.859329 35.145548 0.394206 1.004386 0.141468 -0.022511 -1123970.000000 0 0 1
-26.308356 -12.382200 18.416229 34.418105 0.439899 1.006201 0.096480 -0.009278 -268498.000000 0 0 1
-25.587886 -11.982900 17.269929 33.114653 0.437971 1.022166 0.089275 -0.001863 85059.200000 0 0 1
-24.609966 -12.906600 16.866829 32.507240 0.483013 1.025275 0.089784 -0.007577 -275731.000000 0 0 1
-24.308066 -12.847000 15.411929 31.519122 0.486193 1.059887 0.094970 -0.001059 120411.000000 0 0 1
-23.476766 -11.764700 14.997929 30.240777 0.464544 1.051867 0.091209 -0.010965 42657.900000 0 0 1
-23.069066 -11.802300 13.644329 29.285556 0.472890 1.086138 0.088290 -0.002920 843041.000000 0 0 1
-21.692966 -11.106500 13.337929 27.781999 0.473191 1.070036 0.123652 -0.020189 344492.000000 0 0 1
-21.699766 -9.673900 13.287329 27.221633 0.419361 1.060866 0.146468 -0.030288 710798.000000 0 0 1
-20.389466 -9.098800 13.193929 25.934499 0.419731 1.037075 0.169398 -0.039726 645500.000000 0 0 1
-19.625666 -9.119100 11.851429 24.673490 0.434971 1.069765 0.169701 -0.032118 -364498.000000 0 1 0
-19.183866 -10.379300 11.411929 24.616716 0.495941 1.088760 0.154943 -0.035290 -1795.070000 0 1 0
-18.867366 -10.334400 10.080329 23.756901 0.501106 1.132595 0.158115 -0.030560 -355925.000000 0 1 0
-18.057566 -11.646600 9.703229 23.576930 0.572832 1.146636 0.105630 -0.019624 242304.000000 0 1 0
-16.658466 -11.704400 9.790229 22.590840 0.612475 1.122566 0.119358 -0.029024 24941.400000 0 1 0
-16.127666 -11.621000 11.125129 22.779766 0.624394 1.060567 0.124947 -0.025082 758008.000000 0 1 0
-14.590266 -11.981900 10.992229 21.846530 0.687550 1.043549 0.111782 -0.024122 1105830.000000 0 1 0
-14.345566 -13.344600 10.633429 22.292228 0.749265 1.073556 0.114276 -0.029038 909180.000000 0 1 0
-12.928366 -13.602400 10.582229 21.544176 0.810798 1.057344 0.110277 -0.030534 1069180.000000 0 1 0
-12.597466 -15.099200 10.566429 22.323338 0.875480 1.077723 0.114282 -0.030416 -22974.200000 0 1 0
-12.789866 -15.734600 9.363829 22.334717 0.888269 1.138177 0.103242 -0.032030 124769.000000 0 1 0
-12.642766 -17.143600 9.521329 23.332344 0.935367 1.150453 0.105358 -0.036666 33326.800000 0 1 0
-12.971366 -18.006400 8.264229 23.680884 0.946526 1.214311 0.111379 -0.038920 21845.500000 0 1 0
-12.114466 -17.814500 7.127929 22.691938 0.973596 1.251270 0.092397 -0.041044 -62857.400000 0 1 0
-12.549666 -18.462900 5.983629 23.112261 0.973809 1.308919 0.074160 -0.041183 -324136.000000 0 1 0
-11.669966 -18.321600 4.729229 22.231391 1.003649 1.356431 0.070256 -0.033365 -298595.000000 0 1 0
-12.114566 -19.153900 3.715129 22.965992 1.006832 1.408316 0.088390 -0.040819 -59878.600000 0 1 0
-11.302966 -19.079600 2.566729 22.324342 1.035976 1.455567 0.099131 -0.041215 -76831.100000 0 1 0
-11.732066 -19.967500 1.412029 23.202074 1.039576 1.509901 0.108684 -0.039705 -241704.000000 0 1 0
-11.278866 -21.325900 1.530829 24.173338 1.084312 1.507427 0.079908 -0.048096 -202475.000000 0 1 0
-11.505666 -22.191500 0.432829 25.000607 1.092481 1.553483 0.083153 -0.047035 -508560.000000 0 0 1
-10.683866 -21.928700 -0.783971 24.405480 1.117434 1.602925 0.103256 -0.047306 -336304.000000 0 1 0
-11.213866 -20.859600 -1.596371 23.736514 1.077533 1.638101 0.121730 -0.055233 16520.600000 0 1 0
-12.166066 -21.265600 -2.569971 24.634197 1.051144 1.675312 0.130773 -0.040556 99544.700000 0 1 0
-13.430966 -20.369800 -2.388071 24.515760 0.987871 1.668361 0.151919 -0.035775 -76211.900000 0 1 0
-14.096966 -20.621500 -1.170471 25.006813 0.971158 1.617620 0.140251 -0.036208 485414.000000 0 0 1
-15.151266 -19.666900 -0.939671 24.844130 0.914370 1.608628 0.149819 -0.024198 689521.000000 0 1 0
27.437234 -19.262900 -4.133971 33.777964 -0.612115 1.693491 0.144414 -0.038594 -43815.700000 0 0 1
26.226134 -19.403800 -3.424171 32.803087 -0.636983 1.675372 0.138956 -0.035501 146408.000000 0 0 1
26.140934 -20.686500 -2.811971 33.454251 -0.669441 1.654950 0.117350 -0.031986 1067.480000 0 0 1
24.777334 -20.967600 -2.151571 32.529768 -0.702308 1.636986 0.087178 -0.022632 994535.000000 0 0 1
23.724734 -21.581100 -2.953671 32.207624 -0.738119 1.662633 0.083436 -0.026581 1064870.000000 0 0 1
22.691334 -22.143900 -2.137371 31.777622 -0.773189 1.638107 0.054553 -0.013217 572775.000000 0 0 1
21.702934 -23.017900 -2.952171 31.773517 -0.814794 1.663843 0.065494 -0.025083 714052.000000 0 0 1
20.727434 -22.240400 -3.669671 30.622351 -0.820595 1.690921 0.088930 -0.036122 -453442.000000 0 0 1
19.819334 -22.977600 -4.380671 30.658871 -0.859061 1.714171 0.099126 -0.034236 -618129.000000 0 0 1
19.009334 -22.078300 -5.333271 29.618404 -0.859953 1.751850 0.089129 -0.009718 -155381.000000 0 0 1
17.915934 -21.334800 -4.857371 28.279824 -0.872282 1.743413 0.085238 -0.009203 140335.000000 0 0 1
18.288134 -20.245800 -3.996571 27.573916 -0.836158 1.716249 0.078782 -0.021710 -375941.000000 0 0 1
17.079934 -19.680800 -3.235571 26.258845 -0.856032 1.694329 0.099197 -0.007728 -130883.000000 0 0 1
16.664234 -20.538500 -2.191271 26.539185 -0.889163 1.653458 0.103027 -0.018104 -40716.100000 0 0 1
15.778334 -19.828700 -1.359571 25.376792 -0.898663 1.624397 0.113671 -0.015187 -266992.000000 0 0 1
15.552334 -20.466900 0.030929 25.705448 -0.921004 1.569593 0.111494 -0.022556 -41556.300000 0 0 1
14.661734 -21.552900 -0.053271 26.067159 -0.973437 1.572840 0.130069 -0.035079 -21847.200000 0 0 1
14.057334 -21.782100 1.208329 25.952429 -0.997689 1.524220 0.118459 -0.029472 381540.000000 0 0 1
13.249634 -23.117900 1.422529 26.683584 -1.050366 1.517460 0.134114 -0.036366 337198.000000 0 0 1
14.072234 -24.243200 1.484129 28.070681 -1.044868 1.517901 0.111660 -0.027323 121985.000000 0 0 1
13.293434 -25.399900 1.176129 28.692396 -1.088631 1.529794 0.092532 -0.025319 251722.000000 0 0 1
13.765134 -26.656610 1.878429 30.059645 -1.094125 1.508266 0.095707 -0.025001 -58523.300000 0 0 1
13.486734 -26.648610 3.257229 30.044133 -1.102284 1.462168 0.116224 -0.034886 89169.000000 0 0 1
13.809734 -27.906020 3.803229 31.367487 -1.111265 1.449250 0.106818 -0.029324 -236194.000000 0 0 1
13.320934 -28.109340 5.210629 31.539387 -1.128248 1.404825 0.113838 -0.027761 -276415.000000 0 0 1
13.882134 -29.145860 5.976329 32.831559 -1.126289 1.387746 0.101245 -0.021380 -286197.000000 0 0 1
13.130034 -29.379950 7.149029 32.964949 -1.150520 1.352192 0.097810 -0.025316 161366.000000 0 0 1
13.564634 -30.673630 7.879729 34.452300 -1.154427 1.340040 0.079407 -0.013636 140416.000000 0 0 1
12.932034 -30.862690 9.133729 34.686714 -1.174003 1.304334 0.070858 -0.012125 106336.000000 0 0 1
12.206934 -32.110780 9.169929 35.555576 -1.207518 1.309944 0.067154 -0.010950 368149.000000 0 0 1
11.784134 -32.457830 10.558829 36.109076 -1.222535 1.274045 0.054522 -0.005221 -462242.000000 0 0 1
12.824734 -33.088530 11.233029 37.222380 -1.201035 1.264235 0.037021 -0.012664 -124243.000000 0 0 1
12.532434 -33.374830 12.557929 37.797391 -1.211583 1.232115 0.044133 0.000902 401704.000000 0 0 1
11.461934 33.181175 12.984129 37.429319 1.238194 1.216535 0.040266 -0.000591 369146.000000 0 0 1
11.855034 31.890115 12.546929 36.262194 1.214881 1.217486 0.043638 -0.014863 45480.200000 0 0 1
10.782034 30.996315 12.629729 35.164383 1.236039 1.203426 0.025167 -0.003776 -225859.000000 0 0 1
10.910734 29.858565 11.582929 33.834040 1.220456 1.221384 0.048704 -0.013384 -231590.000000 0 0 1
10.683434 30.124025 10.222229 33.557214 1.229987 1.261256 0.055949 -0.017005 -117032.000000 0 0 1
11.418234 31.164505 9.560129 34.539810 1.219599 1.290349 0.019859 -0.011152 108149.000000 0 0 1
10.876734 31.479765 8.132129 34.284260 1.238123 1.331317 0.036134 -0.007740 687848.000000 0 0 1
9.591234 32.119448 8.180529 34.504663 1.280614 1.331432 0.037662 -0.000873 313974.000000 0 0 1
9.072834 32.500633 6.922229 34.445968 1.298568 1.368459 0.043357 -0.016478 -223987.000000 0 0 1
9.710634 33.720725 6.219129 35.637919 1.290410 1.395389 0.056674 -0.007902 -182494.000000 0 0 1
9.283234 -32.713250 6.784129 34.675057 -1.294290 1.373877 0.067371 -0.005978 -1301.120000 0 0 1
9.737434 -31.594940 6.109229 33.621132 -1.271837 1.388073 0.085722 -0.020439 17716.800000 0 0 1
8.854634 -30.400720 6.507029 32.325682 -1.287373 1.368116 0.091653 -0.021371 195791.000000 0 0 1
9.175034 -30.074820 7.889729 32.417956 -1.274691 1.324952 0.096149 -0.020579 63335.300000 0 0 1
8.719234 -28.780990 8.218729 31.175598 -1.276634 1.304016 0.113599 -0.021107 -110508.000000 0 0 1
9.571434 -27.568820 7.748129 30.194133 -1.236633 1.311283 0.118929 -0.034899 19394.400000 0 0 1
10.186134 -26.913810 8.877329 30.115070 -1.208985 1.271571 0.120096 -0.027625 288969.000000 0 0 1
11.053234 -25.818070 8.528529 29.351022 -1.166286 1.275974 0.119496 -0.037225 536276.000000 0 0 1
10.439334 -24.651700 7.667629 27.847415 -1.170220 1.291848 0.126212 -0.045996 95410.900000 0 0 1
10.018434 -24.963100 6.350229 27.637851 -1.189144 1.338959 0.131257 -0.048360 -96248.000000 0 0 1
9.135634 -24.090800 5.663129 26.379869 -1.208334 1.354436 0.127638 -0.043763 332821.000000 0 0 1
8.874834 -24.512200 4.168629 26.400532 -1.223420 1.412233 0.112544 -0.036200 -288846.000000 0 0 1
8.103634 -25.635000 3.946929 27.173523 -1.264621 1.425032 0.106087 -0.032742 -691947.000000 0 0 1
8.691034 -26.936050 4.059529 28.593087 -1.258687 1.428339 0.118686 -0.034303 -67538.900000 0 0 1
7.774034 -28.118410 3.586129 29.392871 -1.301059 1.448485 0.110968 -0.031801 -55144.500000 0 0 1
6.616934 -28.192060 4.408729 29.291858 -1.340260 1.419712 0.102553 -0.028606 53168.500000 0 0 1
5.552134 -28.962020 3.886029 29.744344 -1.381390 1.439774 0.079705 -0.021825 158611.000000 0 0 1
5.635434 -30.532560 4.025029 31.308085 -1.388279 1.441878 0.069439 -0.017635 -555237.000000 0 0 1
6.628234 -31.108720 3.246029 31.972217 -1.360869 1.469095 0.075854 -0.020463 -465757.000000 0 0 1
6.563334 -32.478230 3.572629 33.326813 -1.371398 1.463390 0.066147 -0.014944 -59358.300000 0 0 1
7.669334 -33.352150 2.948729 34.349375 -1.344775 1.484845 0.064824 -0.015307 -70230.400000 0 0 1
7.640634 -33.556070 1.522029 34.448595 -1.346916 1.526599 0.069624 -0.015458 453187.000000 0 0 1
8.687834 33.164711 1.152129 34.303118 1.314593 1.537203 0.058947 -0.014261 337768.000000 0 0 1
8.414234 32.619544 -0.246071 33.688196 1.318349 1.578101 0.064910 -0.010577 587189.000000 0 0 1
7.273934 31.783824 -0.388571 32.607860 1.345814 1.582713 0.057156 -0.011078 575133.000000 0 0 1
5.974934 32.347400 -0.551471 32.899213 1.388144 1.587560 0.058652 -0.020225 1965980.000000 0 0 1
4.762634 31.336235 -0.156671 31.696480 1.419966 1.575739 0.054381 -0.025205 1388380.000000 0 0 1
4.451034 30.265515 -1.082571 30.610211 1.424777 1.606170 0.066815 -0.018974 143005.000000 0 0 1
3.367934 29.451315 -0.658871 29.650582 1.456935 1.593019 0.087420 -0.039910 152025.000000 0 0 1
3.084434 28.467525 -1.782671 28.689573 1.462868 1.632973 0.093933 -0.030443 -130447.000000 0 0 1
2.585034 29.097595 -2.949971 29.360769 1.482189 1.671439 0.106836 -0.043433 -462.983000 0 0 1
2.398934 28.176255 -3.962671 28.554491 1.485861 1.710021 0.114404 -0.048854 -147254.000000 0 0 1
2.192734 28.838945 -5.361171 29.414877 1.494909 1.754081 0.129909 -0.053732 482928.000000 0 0 1
0.880334 29.375505 -5.500471 29.899004 1.540837 1.755819 0.132484 -0.054104 404500.000000 0 0 1
0.843734 30.278645 -6.622671 31.005935 1.542938 1.786048 0.123428 -0.045546 73390.800000 0 0 1
0.808034 29.702395 -8.028871 30.779018 1.543599 1.834704 0.112330 -0.038782 -143444.000000 0 0 1
-0.444966 29.054165 -8.292871 30.217779 -1.555482 1.848800 0.117194 -0.032938 776923.000000 0 0 1
-0.655266 28.663805 -9.645971 30.250419 -1.547940 1.895334 0.115314 -0.027981 94186.800000 0 0 1
-1.040166 29.897865 -10.509171 31.708152 -1.536020 1.908620 0.096223 -0.031214 -613531.000000 0 0 1
0.110534 30.667615 -10.731371 32.491185 1.567192 1.907402 0.090781 -0.034010 -332773.000000 0 0 1
-0.032866 31.964825 -11.253171 33.887829 -1.569768 1.909295 0.081411 -0.030551 8451.230000 0 0 1
-0.422066 33.059456 -10.238471 34.611155 -1.558030 1.871104 0.084291 -0.037468 -809193.000000 0 0 1
0.600434 33.178374 -9.347871 34.475320 1.552701 1.845381 0.076880 -0.045475 -921087.000000 0 0 1
0.378634 -33.530160 -8.339971 34.553872 -1.559504 1.814565 0.098195 -0.044977 -524721.000000 0 0 1
1.497334 -33.285090 -7.336771 34.116967 -1.525842 1.787537 0.099276 -0.045514 322450.000000 0 0 1
2.664534 -32.562790 -7.737571 33.575363 -1.489151 1.803340 0.089943 -0.045368 -82206.500000 0 0 1
3.578134 -32.442900 -6.688471 33.317869 -1.460950 1.772917 0.088280 -0.053013 -576157.000000 0 0 1
4.836134 -31.699050 -7.188671 32.861755 -1.419400 1.791335 0.061968 -0.042154 -220238.000000 0 0 1
5.481034 -32.281290 -8.318271 33.783384 -1.402610 1.819578 0.063130 -0.035897 625067.000000 0 0 1
6.571634 -33.099690 -7.829671 34.642165 -1.374804 1.798782 0.084018 -0.022276 -145603.000000 0 0 1
6.930034 33.402121 -8.765171 35.221517 1.366226 1.822298 0.087303 -0.021320 195162.000000 0 0 1
6.025434 32.295133 -8.678171 33.979289 1.386343 1.829053 0.076041 -0.028198 735457.000000 0 0 1
4.817534 32.452892 -9.453171 34.143246 1.423426 1.851329 0.086780 -0.036712 313470.000000 0 0 1
4.086034 31.143265 -9.518271 32.820666 1.440340 1.865032 0.082887 -0.043110 -218857.000000 0 0 1
4.800334 30.073625 -10.117771 32.091048 1.412512 1.891551 0.069779 -0.040454 -56516.000000 0 0 1
3.991034 28.927215 -10.138771 30.911273 1.433694 1.904978 0.062941 -0.032804 102400.000000 0 0 1
4.498634 27.859775 -11.148371 30.342889 1.410704 1.947022 0.069465 -0.038535 3836.510000 0 0 1
4.263734 28.314555 -12.469871 31.231252 1.421335 1.981523 0.068272 -0.034962 1325800.000000 0 0 1
5.513334 28.325215 -13.240871 31.749572 1.378556 2.000983 0.055516 -0.033820 1406010.000000 0 0 1
5.373634 29.067045 -14.620671 32.977766 1.387990 2.030128 0.065647 -0.027022 14746.100000 0 0 1
4.409634 28.456485 -15.469371 32.688191 1.417058 2.063762 0.062429 -0.024852 132301.000000 0 0 1
4.424334 28.981405 -16.789471 33.784358 1.419305 2.090888 0.102880 -0.025464 -258182.000000 0 0 1
3.354334 28.382935 -17.691671 33.613059 1.453161 2.125079 0.093188 -0.031617 -61569.400000 0 0 1
3.620134 27.034115 -18.039271 32.701132 1.437678 2.155126 0.106811 -0.027811 -61956.100000 0 0 1
2.613034 26.655995 -18.945271 32.806909 1.473081 2.186433 0.106628 -0.041804 175590.000000 0 0 1
3.121934 25.551035 -19.856571 32.509771 1.449215 2.227851 0.117946 -0.044533 185887.000000 0 0 1
3.340534 24.295065 -19.238971 31.169654 1.434155 2.236019 0.109854 -0.047251 -354362.000000 0 0 1
4.432334 23.614555 -19.780771 31.121884 1.385260 2.259569 0.113714 -0.044843 -72635.600000 0 0 1
4.887334 22.464215 -18.834771 29.719952 1.356574 2.257177 0.110635 -0.039782 434510.000000 0 0 1
3.924634 21.416015 -18.799371 28.765687 1.389550 2.283041 0.118645 -0.035072 91614.700000 0 0 1
4.541334 20.350015 -18.112471 27.618986 1.351233 2.286035 0.097069 -0.022618 -24913.300000 0 0 1
3.713034 19.073115 -17.951171 26.454014 1.378527 2.316624 0.087289 -0.028635 284050.000000 0 0 1
2.673634 19.328515 -16.986771 25.870643 1.433343 2.287104 0.090579 -0.023147 269055.000000 0 0 1
1.834434 18.210015 -16.687471 24.767750 1.470397 2.310079 0.063985 -0.013937 240409.000000 0 1 0
2.359634 17.126015 -15.647971 23.317960 1.433878 2.306447 0.034358 -0.006110 235654.000000 0 1 0
3.525534 16.389815 -15.992871 23.169534 1.358920 2.332637 0.040365 -0.018076 -170858.000000 0 1 0
3.318734 15.224815 -16.753871 22.880148 1.356172 2.392409 0.059697 -0.029754 -89617.000000 0 1 0
3.097534 15.412015 -18.243271 24.081982 1.372457 2.430346 0.076000 -0.030360 -848572.000000 0 1 0
4.273434 15.872315 -18.789871 24.965013 1.307795 2.422871 0.098279 -0.030488 -1032540.000000 0 1 0
4.236634 16.205415 -20.172571 26.220167 1.315086 2.448624 0.113292 -0.029233 -367628.000000 0 0 1
4.401734 14.926915 -21.104171 26.221633 1.284038 2.506199 0.133797 -0.039623 -63830.700000 0 0 1
3.336434 14.031915 -21.224571 25.661427 1.337357 2.544725 0.121344 -0.041265 -286484.000000 0 0 1
2.196734 14.486515 -21.940471 26.383120 1.420303 2.552797 0.123005 -0.039125 65878.500000 0 0 1
1.484134 13.363615 -22.724271 26.404191 1.460192 2.607304 0.120219 -0.033604 -272777.000000 0 0 1
0.749434 12.580015 -21.848671 25.222665 1.511293 2.618407 0.111530 -0.024381 -576200.000000 0 0 1
-0.096466 11.716815 -22.527371 25.392430 -1.562563 2.661969 0.064542 -0.015225 -579557.000000 0 0 1
-0.659266 10.641215 -21.647671 24.130722 -1.508921 2.683958 0.038600 -0.012591 -604643.000000 0 1 0
-1.614266 11.191815 -20.726171 23.610098 -1.427548 2.642155 0.037629 -0.015778 175494.000000 0 1 0
-2.038366 10.359115 -19.702971 22.353372 -1.376508 2.649681 0.024513 -0.013393 301244.000000 0 1 0
-3.019066 9.186515 -20.009171 22.223270 -1.253275 2.691416 0.033099 -0.019448 -55767.600000 0 1 0
-2.423666 8.178315 -20.827471 22.506500 -1.282689 2.752881 0.035280 -0.017266 -360941.000000 0 1 0
-3.380766 7.225515 -21.192571 22.644264 -1.133163 2.781577 0.040719 -0.012688 -140378.000000 0 1 0
-2.827066 5.884115 -21.788271 22.745194 -1.122905 2.850492 0.042793 -0.027846 -356529.000000 0 1 0
-2.010266 5.105715 -20.977371 21.683163 -1.195708 2.885747 0.045698 -0.021336 -98307.600000 0 1 0
-1.735466 3.862415 -21.643371 22.053698 -1.148507 2.948389 0.064698 -0.025785 -457044.000000 0 1 0
-0.894466 2.911815 -20.837971 21.059434 -1.272761 2.996440 0.059933 -0.023922 -510567.000000 0 1 0
0.474934 3.196215 -20.910771 21.158962 1.423283 2.988277 0.063229 -0.021005 -781705.000000 0 1 0
1.251934 2.173015 -20.361971 20.515828 1.048115 3.019046 0.052217 -0.005146 -164116.000000 0 1 0
2.766934 2.406515 -20.449371 20.775562 0.715843 2.964155 0.038560 -0.006470 -284211.000000 0 1 0
3.352134 2.225915 -21.679971 22.050230 0.586174 2.958078 0.062467 0.002987 -1078150.000000 0 1 0
4.732134 2.239515 -21.485971 22.114598 0.442025 2.902588 0.084057 -0.006215 -581445.000000 0 1 0
5.447634 1.564815 -22.674271 23.371947 0.279716 2.896641 0.086293 -0.001869 195997.000000 0 1 0
6.842534 1.377615 -22.461671 23.521155 0.198675 2.840308 0.097939 -0.018640 433261.000000 0 1 0
7.473134 0.776015 -23.592871 24.760321 0.103470 2.833290 0.104204 -0.022108 -259457.000000 0 1 0
8.973534 0.599715 -23.389571 25.059050 0.066732 2.774510 0.102489 -0.030947 -373229.000000 0 0 1
9.764634 1.731615 -23.303871 25.326211 0.175511 2.739255 0.091915 -0.038512 907334.000000 0 0 1
11.191434 1.517815 -23.395171 25.978567 0.134800 2.691844 0.098969 -0.033941 1227740.000000 0 0 1
12.943834 -20.103200 22.433286 32.786183 -0.998743 0.817249 0.102042 -0.011082 -218460.000000 0 0 1
12.587534 -21.453900 22.145166 33.303516 -1.040195 0.843370 0.103891 -0.003631 950453.000000 0 0 1
11.414534 -21.442700 21.262166 32.282513 -1.081623 0.851802 0.093994 0.001353 922383.000000 0 0 1
11.506434 -20.961500 19.768666 31.025516 -1.068774 0.879970 0.131031 -0.028254 -222668.000000 0 0 1
11.755234 -19.561700 19.516966 30.029279 -1.029692 0.863302 0.154489 -0.029995 -10614.700000 0 0 1
11.635134 -19.336100 18.180366 28.979075 -1.029105 0.892636 0.139413 -0.039809 151370.000000 0 0 1
11.913334 -17.888900 17.705466 27.846432 -0.983281 0.881719 0.150051 -0.045459 67662.700000 0 0 1
10.954634 -17.060200 18.300266 27.312161 -0.999983 0.836532 0.165975 -0.049449 -358806.000000 0 0 1
11.036934 -15.761500 17.793066 26.207479 -0.959905 0.824491 0.173597 -0.048437 -424535.000000 0 0 1
9.906834 -14.911500 18.318166 25.613539 -0.984382 0.773922 0.149665 -0.044796 -604308.000000 0 0 1
8.650734 -15.419900 17.971366 25.210682 -1.059539 0.777247 0.126218 -0.034672 -237912.000000 0 0 1
7.598934 -14.564000 18.410266 24.673706 -1.089891 0.728537 0.104697 -0.029739 335903.000000 0 1 0
6.133634 -15.000400 18.311566 24.452953 -1.182643 0.724473 0.051464 -0.007396 35998.300000 0 1 0
5.658334 -14.894300 16.970166 23.277531 -1.207737 0.753883 0.028539 -0.011771 -71297.500000 0 1 0
4.282534 -15.128000 16.762866 22.982388 -1.294928 0.753383 0.009853 -0.001794 -95012.400000 0 1 0
3.788534 -16.538700 16.595966 23.734103 -1.345611 0.796455 -0.000878 -0.001991 -554116.000000 0 1 0
2.425834 -16.553200 16.276366 23.341233 -1.425284 0.799141 0.008818 -0.000152 -594964.000000 0 1 0
1.917034 -17.852200 16.134566 24.139185 -1.463823 0.838744 0.024378 -0.020728 1218810.000000 0 1 0
0.428334 -17.945200 15.619266 23.794435 -1.546932 0.854726 0.047764 -0.013016 692034.000000 0 1 0
0.241534 -17.510600 14.256066 22.581294 -1.557004 0.887540 0.042313 -0.015871 -28113.100000 0 1 0
-1.091666 -17.650300 13.809166 22.436976 1.509025 0.907821 0.057120 -0.018602 51296.500000 0 1 0
-1.530866 -18.873200 12.983166 22.958742 1.489860 0.969757 0.052414 0.000044 99098.800000 0 1 0
-2.935266 -19.035800 12.857866 23.158199 1.417804 0.982170 0.059542 -0.013885 18651.600000 0 1 0
-3.282466 -20.155500 12.135966 23.755008 1.409357 1.034588 0.075235 -0.024087 685593.000000 0 1 0
-4.839466 -20.268200 12.002266 24.047344 1.336413 1.048225 0.075819 -0.032170 794462.000000 0 1 0
-5.441766 -20.824900 13.155866 25.226297 1.315201 1.022172 0.081990 -0.034843 656163.000000 0 0 1
-6.861166 -20.952500 12.946866 25.567639 1.254338 1.039818 0.098046 -0.042406 888207.000000 0 0 1
-7.573966 -21.637100 14.136466 26.932670 1.234081 1.018220 0.108016 -0.043568 -678008.000000 0 0 1
-8.932066 -21.406700 14.281566 27.239525 1.175503 1.018909 0.109167 -0.042689 -814426.000000 0 0 1
-9.503766 -22.316300 15.256966 28.655083 1.168192 1.009322 0.107720 -0.038781 329038.000000 0 0 1
-10.992266 -21.990200 15.496466 29.060957 1.107252 1.008370 0.121486 -0.042324 29712.900000 0 0 1
-11.126766 -20.615700 15.902066 28.314090 1.075878 0.974441 0.118588 -0.038612 -344883.000000 0 0 1
-12.428766 -20.104700 15.715966 28.384234 1.017100 0.984012 0.117871 -0.035599 174139.000000 0 0 1
-12.875166 -18.902800 16.588666 28.253665 0.972851 0.943283 0.120114 -0.032581 -100410.000000 0 0 1
-13.077866 -19.279300 17.944466 29.406221 0.974758 0.914449 0.122454 -0.037928 -26657.300000 0 0 1
-13.675666 -18.218100 18.670266 29.453384 0.926871 0.884221 0.129836 -0.040509 -11604.900000 0 0 1
-14.152166 -18.618100 20.076566 30.821842 0.920844 0.861402 0.115023 -0.041379 1037880.000000 0 0 1
-15.354866 -19.429200 19.902066 31.770394 0.901999 0.893826 0.094895 -0.029014 885254.000000 0 0 1
-15.869066 -19.886100 21.131766 33.073188 0.897277 0.877677 0.095292 -0.022023 -1145500.000000 0 0 1
-17.202766 -20.507900 20.899966 33.960531 0.872819 0.907879 0.106391 -0.024114 -2116420.000000 0 0 1
-17.128966 -21.591000 19.998066 34.051364 0.900131 0.943088 0.114333 -0.030082 342672.000000 0 0 1
-18.386966 -21.915700 19.433166 34.583614 0.872731 0.974093 0.090573 -0.021036 -97124.300000 0 0 1
-19.458966 -22.503600 20.319566 36.027047 0.857827 0.971564 0.087694 -0.025383 -1167440.000000 0 0 1
-20.066066 -21.630900 21.248366 36.359811 0.822909 0.946666 0.094941 -0.022668 -5765.470000 0 0 1
-20.889966 -22.395600 22.122766 37.780555 0.820168 0.945226 0.070314 -0.010346 -108911.000000 0 0 1
-21.390666 -21.468800 23.238336 38.190185 0.787221 0.916640 0.070108 -0.008247 283359.000000 0 0 1
-22.364266 -20.506400 22.782186 37.943390 0.742089 0.926763 0.064286 0.000619 632647.000000 0 0 1
-22.605966 -19.464900 23.691656 38.094705 0.710875 0.899611 0.073156 -0.001144 153839.000000 0 0 1
-23.563166 -18.384700 23.099156 37.772887 0.662570 0.912807 0.073465 -0.003453 441309.000000 0 0 1
-22.998166 -17.414800 22.216456 36.411012 0.648109 0.914537 0.065151 0.002671 -407136.000000 0 0 1
-24.036966 -16.625600 21.750066 36.431465 0.605112 0.931024 0.069272 -0.004765 -262706.000000 0 0 1
-23.780866 -16.124400 20.304566 35.182400 0.595836 0.955595 0.064774 -0.001033 267567.000000 0 0 1
-22.817866 -15.068500 20.289166 34.049448 0.583639 0.932443 0.085427 -0.006230 81217.500000 0 0 1
-22.398566 -14.852800 18.942066 32.880135 0.585539 0.956854 0.073271 -0.000229 416344.000000 0 0 1
-21.392766 -13.670500 18.715266 31.540358 0.568621 0.935551 0.075133 -0.013922 345985.000000 0 0 1
-20.925766 -13.683900 17.381966 30.451101 0.579130 0.963297 0.070641 -0.016897 176185.000000 0 0 1
-20.099466 -12.541700 17.094066 29.214549 0.557867 0.945766 0.088460 -0.028428 -183867.000000 0 0 1
-19.412666 -12.786400 15.715366 28.059158 0.582441 0.976314 0.104005 -0.034296 156326.000000 0 0 1
-18.718966 -11.663800 15.200566 26.786211 0.557232 0.967358 0.109231 -0.032095 609344.000000 0 0 1
-17.470766 -11.267700 15.771766 26.094776 0.572814 0.921780 0.143291 -0.051429 -91817.200000 0 0 1
-16.881766 -10.073500 15.007966 24.732741 0.537996 0.918761 0.132930 -0.045462 -134584.000000 0 1 0
-17.439166 -8.835000 15.364766 24.864789 0.468928 0.904686 0.156553 -0.046775 -63695.900000 0 1 0
-16.782266 -7.783100 14.743366 23.655611 0.434245 0.897904 0.134181 -0.040059 -940412.000000 0 1 0
-16.926666 -6.390600 15.451666 23.792977 0.361001 0.863973 0.152739 -0.039941 209860.000000 0 1 0
-16.105466 -6.175600 16.595566 23.936100 0.366156 0.804699 0.128360 -0.037312 -171540.000000 0 1 0
-14.753266 -6.109700 16.249666 22.782426 0.392624 0.776666 0.122865 -0.041499 -768867.000000 0 1 0
-13.682466 -6.254000 17.353066 22.966307 0.428727 0.714245 0.102282 -0.037055 127593.000000 0 1 0
-13.944466 -7.416700 18.120966 24.037990 0.488821 0.716899 0.102134 -0.049357 203517.000000 0 1 0
-13.664766 -8.707900 17.478066 23.833509 0.567361 0.747575 0.118785 -0.045586 -472395.000000 0 1 0
-13.866466 -9.940400 18.438066 25.120762 0.621956 0.746637 0.118589 -0.047536 1673010.000000 0 0 1
-15.262166 -10.256000 18.693366 26.221388 0.591678 0.777164 0.135929 -0.056159 1291950.000000 0 0 1
-16.043366 -9.375500 19.508666 26.942116 0.528859 0.761074 0.118180 -0.056999 -164711.000000 0 0 1
-17.455866 -10.039700 19.772666 28.221643 0.521945 0.794529 0.110022 -0.047531 1423690.000000 0 0 1
-18.494866 -9.894600 18.796566 28.165121 0.491248 0.840124 0.105201 -0.041219 481841.000000 0 0 1
-18.825566 -8.537000 18.480166 27.727222 0.425743 0.841294 0.108744 -0.040521 -310576.000000 0 0 1
-19.984166 -8.544600 17.414766 27.850514 0.404044 0.895288 0.138805 -0.044642 1199710.000000 0 0 1
-21.297866 -8.834200 17.902566 29.191506 0.393193 0.910590 0.125138 -0.033665 957739.000000 0 0 1
-22.271766 -8.768000 16.851366 29.272477 0.375048 0.957370 0.130062 -0.025467 930234.000000 0 0 1
-23.769766 -8.971400 17.215566 30.689795 0.360899 0.975258 0.115841 -0.017048 260785.000000 0 0 1
-24.308866 -7.935000 17.945866 31.240027 0.315519 0.958863 0.125711 -0.017303 407841.000000 0 0 1
-25.710166 -8.097000 18.113466 32.475709 0.305101 0.979119 0.132942 -0.012126 486148.000000 0 0 1
-26.480946 -6.969200 18.891266 33.266953 0.257342 0.966882 0.134939 -0.013996 112066.000000 0 0 1
-26.305086 -7.182600 20.301766 33.995720 0.266552 0.930808 0.141040 -0.025878 215520.000000 0 0 1
-26.970696 -6.171200 20.991166 34.729399 0.224939 0.921758 0.128294 -0.027200 -703197.000000 0 0 1
-27.138996 -6.428400 22.480636 35.822178 0.232583 0.892379 0.132379 -0.029328 587905.000000 0 0 1
-26.090996 -5.886800 23.312476 35.480502 0.221910 0.853897 0.142854 -0.031339 473484.000000 0 0 1
-24.974636 -6.767300 23.330406 34.840158 0.264613 0.837071 0.149349 -0.035254 -363126.000000 0 0 1
-23.929566 -6.405400 24.425086 34.788476 0.261546 0.792450 0.144134 -0.028789 -48847.700000 0 0 1
-23.160466 -5.269200 24.143766 33.868763 0.223701 0.777225 0.127642 -0.031879 42701.700000 0 0 1
-22.327566 -4.939900 25.235066 34.054829 0.217739 0.736219 0.131108 -0.036738 -117409.000000 0 0 1
-21.660866 -3.570600 24.976786 33.253302 0.163372 0.721059 0.126631 -0.039925 65291.700000 0 0 1
-20.630266 -3.177200 25.875586 33.245276 0.152806 0.678805 0.112974 -0.034948 -44779.400000 0 0 1
-20.901666 -3.115000 27.258576 34.490764 0.147942 0.659473 0.116518 -0.040860 -251703.000000 0 0 1
-21.883166 -2.100700 27.928956 35.543107 0.095703 0.666845 0.114989 -0.042200 23144.900000 0 0 1
-23.181166 -2.196800 27.415956 35.969807 0.094484 0.704101 0.118748 -0.042841 -681966.000000 0 0 1
-24.086066 -1.286800 27.982346 36.943282 0.053374 0.711412 0.110495 -0.036686 91078.400000 0 0 1
-25.338306 -1.066000 27.120266 37.130512 0.042046 0.751883 0.128247 -0.044918 -615589.000000 0 0 1
-25.080646 -0.403400 25.911326 36.063809 0.016083 0.769174 0.106995 -0.042199 229183.000000 0 0 1
-26.220066 0.153400 25.254126 36.404481 -0.005850 0.804170 0.128888 -0.034498 86139.800000 0 0 1
-27.203176 -0.815100 24.583176 36.674374 0.029954 0.836171 0.128219 -0.033574 -715144.000000 0 0 1
-28.030386 -1.413300 25.542266 37.948746 0.050378 0.832441 0.109646 -0.026608 351078.000000 0 0 1
-28.854536 -2.521600 25.120246 38.340181 0.087169 0.856357 0.095118 -0.026526 604745.000000 0 0 1
-28.105926 -3.908800 25.136276 37.908497 0.138187 0.845874 0.119159 -0.029815 227882.000000 0 0 1
-27.836496 -4.273500 26.461696 38.643947 0.152332 0.816527 0.111909 -0.027670 -101112.000000 0 0 1
-26.973646 -5.393200 26.420736 38.140785 0.197341 0.805548 0.115881 -0.031794 -146330.000000 0 0 1
-26.444306 -5.821300 27.796476 38.805063 0.216678 0.772296 0.098704 -0.023011 505239.000000 0 0 1
-27.444166 -6.454900 28.623326 40.176395 0.231003 0.777825 0.118834 -0.016816 1035470.000000 0 0 1
-26.824266 -7.159800 29.724316 40.673565 0.260834 0.751300 0.116658 -0.019232 485418.000000 0 0 1
-27.944176 -7.695700 30.678666 42.205228 0.268734 0.757010 0.097445 -0.018256 345023.000000 0 0 1
-28.843386 -8.505000 29.975856 42.459720 0.286742 0.786986 0.069729 -0.014822 -108247.000000 0 0 1
-30.029346 -8.770600 30.684836 43.820591 0.284164 0.795066 0.068817 -0.009668 817351.000000 0 0 1
-31.183096 -9.475600 29.839276 44.187723 0.295003 0.829446 0.041668 -0.015813 570810.000000 0 0 1
-30.910736 -10.820900 29.500366 44.077625 0.336737 0.837554 0.044509 -0.022547 -25361.000000 0 0 1
-31.783976 -11.358100 28.551716 44.208913 0.343210 0.868678 0.024893 -0.014616 -523009.000000 0 0 1
-31.218706 -12.651200 27.958596 43.776061 0.385019 0.878024 0.041211 -0.027134 -788134.000000 0 0 1
-30.270206 -12.274900 27.017206 42.389715 0.385248 0.879738 0.062201 -0.028214 -893082.000000 0 0 1
-29.487596 -13.393400 26.653466 41.944114 0.426345 0.882203 0.069046 -0.040125 462461.000000 0 0 1
-28.175616 -12.807600 25.987126 40.413248 0.426642 0.872342 0.098651 -0.037291 737467.000000 0 0 1
-27.212736 -12.133200 26.814626 40.084557 0.419410 0.837999 0.095393 -0.044047 405379.000000 0 0 1
-27.617066 -10.917800 27.488006 40.465926 0.376472 0.824005 0.096036 -0.048820 -824754.000000 0 0 1
-27.928296 -9.610300 26.624086 39.764174 0.331415 0.837194 0.103029 -0.035312 -29256.800000 0 0 1
-26.802266 -9.005300 26.031686 38.433131 0.324140 0.826677 0.114849 -0.035732 350265.000000 0 0 1
-26.138906 -9.773100 24.962036 37.441409 0.357798 0.841029 0.105723 -0.038280 167329.000000 0 0 1
-26.882686 -9.790200 23.600556 37.087910 0.349253 0.881051 0.118304 -0.031830 -156281.000000 0 0 1
-28.045036 -10.603200 23.592216 38.151599 0.361466 0.904116 0.105064 -0.036885 -266041.000000 0 0 1
-28.624006 -10.522400 22.335166 37.800982 0.352274 0.938669 0.126965 -0.033655 -856488.000000 0 0 1
-29.917746 -11.320300 22.222196 38.949284 0.361731 0.963631 0.119666 -0.040427 364569.000000 0 0 1
-31.134026 -10.760700 22.739186 40.027376 0.332772 0.966612 0.104859 -0.037308 536829.000000 0 0 1
-31.191986 -10.654600 24.170986 40.874161 0.329155 0.938063 0.101846 -0.036186 -1916220.000000 0 0 1
-32.552366 -10.331000 24.671056 42.131308 0.307311 0.945207 0.052021 -0.027794 -2001210.000000 0 0 1
-32.994396 -9.022400 24.421406 42.029025 0.266927 0.950765 0.060693 -0.027201 -327388.000000 0 0 1
-34.357924 -8.833300 24.732386 43.245636 0.251646 0.961970 0.046223 -0.017588 -185144.000000 0 0 1
-34.752216 -8.860300 26.161996 44.392245 0.249638 0.940558 0.024833 -0.010815 -920572.000000 0 0 1
-34.700526 -10.130200 26.846726 45.027704 0.284039 0.932003 0.012873 -0.022390 115654.000000 0 0 1
-35.299526 -9.950900 28.145836 46.230564 0.274769 0.916231 0.029720 -0.022424 -541386.000000 0 0 1
-35.823765 -11.215800 28.798256 47.312534 0.303416 0.916399 0.040678 -0.016352 423663.000000 0 0 1
-36.966626 -11.878700 28.244176 48.014252 0.310914 0.941909 0.027382 -0.023669 696946.000000 0 0 1
37.655697 -11.279300 28.621856 48.624939 -0.291033 0.941439 0.052421 -0.026993 -349823.000000 0 0 1
36.381447 -11.950200 28.107036 47.501815 -0.317367 0.937625 0.070849 -0.027913 -74367.600000 0 0 1
36.314887 -11.788600 26.714386 46.598288 -0.313890 0.960279 0.062281 -0.020683 -144204.000000 0 0 1
35.101397 -12.265800 26.170186 45.469072 -0.336175 0.957507 0.086625 -0.018028 -159784.000000 0 0 1
34.889217 -11.829300 24.673916 44.339507 -0.326890 0.980657 0.069651 -0.019216 -139207.000000 0 0 1
34.433477 -10.503700 24.496576 43.543935 -0.296077 0.973303 0.079623 -0.029964 19118.000000 0 0 1
34.318697 -10.148900 23.074496 42.581750 -0.287530 0.998116 0.066704 -0.022857 -367341.000000 0 0 1
33.809937 -8.721700 22.756706 41.677902 -0.252459 0.993198 0.087144 -0.009955 323738.000000 0 0 1
32.453447 -8.490700 23.112316 40.736928 -0.255891 0.967506 0.115537 -0.021367 -50981.900000 0 0 1
32.189697 -7.151600 22.832236 40.107767 -0.218620 0.965176 0.133515 -0.013442 1070390.000000 0 0 1
30.612857 -7.028400 22.858386 38.846508 -0.225679 0.941683 0.139803 -0.001870 796144.000000 0 0 1
30.132357 -7.565000 21.670566 37.878775 -0.245975 0.961729 0.143365 0.000942 627292.000000 0 0 1
28.730157 -7.281100 21.503866 36.617654 -0.248205 0.943134 0.142195 -0.018507 923138.000000 0 0 1
15.580934 -17.158000 24.783086 33.931752 -0.833532 0.751918 0.123462 -0.002879 -20069.600000 0 0 1
15.039434 -18.443300 24.896146 34.440644 -0.886710 0.762848 0.130975 -0.004589 899590.000000 0 0 1
16.084734 -19.434700 25.074346 35.568934 -0.879434 0.788443 0.108616 -0.005727 266095.000000 0 0 1
15.505334 -20.773800 25.513126 36.371496 -0.929610 0.793353 0.102838 -0.015124 598305.000000 0 0 1
14.780434 -20.944100 26.785596 37.075392 -0.956249 0.763438 0.097833 -0.010512 655287.000000 0 0 1
13.457734 -20.440200 26.703586 36.221456 -0.988542 0.741833 0.100664 -0.014075 -435344.000000 0 0 1
12.767834 -20.701500 28.068136 37.140139 -1.018145 0.714019 0.086945 -0.016140 95876.300000 0 0 1
13.263034 -19.961800 29.196316 37.773091 -0.984350 0.687335 0.086177 -0.012761 195921.000000 0 0 1
12.260034 -19.070700 29.646806 37.322019 -0.999448 0.652857 0.073512 -0.014493 213137.000000 0 0 1
12.387034 -17.584200 29.080116 36.170372 -0.957096 0.636845 0.098035 -0.013825 -72526.300000 0 0 1
13.366134 -16.737700 29.611026 36.546094 -0.896931 0.626239 0.086870 -0.007212 -531844.000000 0 0 1
13.252134 -15.446600 29.066556 35.483534 -0.861715 0.610858 0.107639 -0.013037 -369411.000000 0 0 1
14.165534 -14.377000 29.600266 35.826474 -0.792807 0.598446 0.089116 -0.004011 -464536.000000 0 0 1
13.956234 -13.162100 28.874736 34.666521 -0.756122 0.586417 0.133343 -0.008986 418012.000000 0 0 1
14.815334 -12.107100 29.308356 35.000796 -0.685141 0.578356 0.125111 -0.002963 -35522.600000 0 0 1
14.423634 -10.703900 28.752196 33.901378 -0.638431 0.558383 0.122746 -0.002900 -132429.000000 0 0 1
14.699534 -10.348700 27.408396 32.777920 -0.613416 0.580507 0.172324 -0.015081 -303506.000000 0 0 1
16.068434 -10.247200 27.131476 33.155944 -0.567696 0.612351 0.154582 -0.018229 -453336.000000 0 0 1
16.396334 -8.923600 26.239606 32.202287 -0.498413 0.618349 0.139623 -0.015576 -47940.000000 0 0 1
16.360134 -7.759700 27.031626 32.535761 -0.442881 0.590202 0.137604 -0.025548 374230.000000 0 0 1
17.583234 -7.441700 27.690556 33.635040 -0.400368 0.603657 0.131076 -0.029944 253415.000000 0 0 1
18.279134 -6.177200 27.103706 33.270038 -0.325888 0.618657 0.122236 -0.032023 -161155.000000 0 0 1
19.621634 -5.963100 27.446306 34.261739 -0.295035 0.641703 0.096773 -0.040740 -312585.000000 0 0 1
20.000234 -4.667300 27.126946 34.024465 -0.229259 0.648025 0.092652 -0.038066 461260.000000 0 0 1
21.523734 -4.481500 26.807746 34.670019 -0.205279 0.686884 0.087958 -0.035313 -366516.000000 0 0 1
21.770234 -5.287700 25.632346 34.042914 -0.238273 0.718275 0.088781 -0.029984 1766340.000000 0 0 1
23.169634 -5.374500 25.208016 34.657773 -0.227932 0.756357 0.081541 -0.023297 1942210.000000 0 0 1
24.259334 -5.771800 26.246016 36.203347 -0.233578 0.759818 0.078436 -0.029079 -732122.000000 0 0 1
24.784434 -4.708500 27.035386 36.977699 -0.187741 0.750824 0.077970 -0.033422 -494576.000000 0 0 1
25.628634 -5.170400 28.012456 38.317850 -0.199071 0.750929 0.089062 -0.039961 -643500.000000 0 0 1
26.142834 -3.931900 28.770186 39.072128 -0.149282 0.743158 0.084214 -0.035180 -67613.900000 0 0 1
27.082534 -3.193300 27.980986 39.071683 -0.117368 0.772533 0.075256 -0.028838 398404.000000 0 0 1
27.185134 -1.819400 28.289996 39.276782 -0.066827 0.766601 0.063901 -0.034135 -400651.000000 0 0 1
28.052634 -1.037600 27.258146 39.128422 -0.036971 0.800103 0.080550 -0.035915 692464.000000 0 0 1
29.430134 -1.407600 27.409336 40.241593 -0.047792 0.821506 0.103608 -0.034246 361968.000000 0 0 1
30.201734 -0.730300 26.421756 40.134614 -0.024176 0.852200 0.115955 -0.023216 -659176.000000 0 0 1
31.682334 -0.824300 26.719976 41.453671 -0.026012 0.870330 0.107193 -0.022016 -761231.000000 0 0 1
32.102034 0.162800 27.682576 42.389764 0.005071 0.859193 0.102524 -0.018920 -396680.000000 0 0 1
33.495634 0.167200 27.789726 43.523032 0.004992 0.878241 0.115302 -0.021451 -466609.000000 0 0 1
33.997334 1.317000 28.645556 44.476073 0.038719 0.870994 0.129336 -0.019714 -200095.000000 0 0 1
33.830234 2.564300 28.026056 44.005911 0.075654 0.880364 0.132231 -0.019530 446632.000000 0 0 1
34.308034 3.568300 28.933336 45.021238 0.103635 0.872832 0.127297 -0.016372 -129059.000000 0 0 1
34.276234 4.973200 28.287796 44.719038 0.144086 0.885933 0.131546 -0.020214 -198359.000000 0 0 1
34.337934 6.051900 29.220736 45.492534 0.174454 0.873276 0.145100 -0.023222 108767.000000 0 0 1
33.278534 6.194600 30.147906 45.329131 0.184038 0.843183 0.133212 -0.019514 -266873.000000 0 0 1
33.502634 7.261100 31.270434 46.400324 0.213431 0.831285 0.121173 -0.022716 56030.000000 0 0 1
34.159734 6.645000 32.374318 47.530410 0.192128 0.821493 0.122289 -0.024967 254268.000000 0 0 1
34.419234 7.589400 33.399846 48.557516 0.217026 0.812286 0.115042 -0.032883 -115219.000000 0 0 1
34.536534 6.856000 -32.594101 47.980749 0.195967 2.317627 0.137152 -0.033418 148930.000000 0 0 1
33.350934 6.213900 -32.132891 46.727080 0.184206 2.329074 0.113774 -0.031262 384066.000000 0 0 1
33.118834 4.875100 -32.580741 46.713258 0.146151 2.342647 0.127522 -0.027850 -73478.700000 0 0 1
33.560934 3.783000 -31.586221 46.242153 0.112247 2.322742 0.130061 -0.035144 -65232.300000 0 0 1
33.560034 2.507900 -32.121751 46.522815 0.074590 2.332909 0.117333 -0.034912 219732.000000 0 0 1
34.106034 1.641300 -31.139031 46.212062 0.048086 2.310175 0.092033 -0.033928 68142.100000 0 0 1
34.523134 0.239300 -31.633711 46.825161 0.006931 2.312535 0.079065 -0.035697 -749896.000000 0 0 1
35.621834 0.253800 -32.544831 48.250860 0.007125 2.311073 0.099434 -0.030185 743555.000000 0 0 1
36.482434 -0.897500 -32.359511 48.774086 -0.024596 2.296226 0.102831 -0.024238 552688.000000 0 0 1
37.329434 -1.027200 -31.114731 48.607286 -0.027510 2.265457 0.111777 -0.034913 -2217750.000000 0 0 1
36.517334 -1.162000 -30.006431 47.278450 -0.031810 2.258384 0.089764 -0.038181 -371319.000000 0 0 1
37.125334 -1.323000 -28.740181 46.968487 -0.035621 2.229261 0.099533 -0.037725 33643.400000 0 0 1
36.026134 -1.026100 -27.660251 45.431538 -0.028474 2.225386 0.102218 -0.035190 335820.000000 0 0 1
35.597534 0.330500 -27.605691 45.048505 0.009284 2.230394 0.084694 -0.031748 159806.000000 0 0 1
34.573034 0.513000 -26.670171 43.667561 0.014837 2.227810 0.081101 -0.021091 -440538.000000 0 0 1
34.015134 1.922300 -26.513841 43.170688 0.056453 2.232121 0.052118 -0.024231 229269.000000 0 0 1
33.087134 2.292200 -27.534611 43.106466 0.069167 2.263680 0.076625 -0.039714 563660.000000 0 0 1
32.262234 3.366000 -27.151561 42.301170 0.103956 2.267722 0.072481 -0.031173 36789.300000 0 0 1
31.287234 3.863200 -28.244111 42.326648 0.122853 2.301359 0.104464 -0.039188 -570748.000000 0 0 1
30.432434 4.877900 -27.874771 41.556345 0.158934 2.306044 0.089330 -0.035189 -381356.000000 0 0 1
29.537834 5.162900 -28.921571 41.660490 0.173041 2.338133 0.074420 -0.035371 -298849.000000 0 0 1
28.435934 6.120100 -28.408031 40.658015 0.211990 2.344385 0.068414 -0.027815 585817.000000 0 0 1
27.292434 5.421600 -27.834581 39.357777 0.196096 2.356354 0.088577 -0.036316 720896.000000 0 0 1
26.372934 6.303500 -27.279301 38.463307 0.234612 2.359201 0.100500 -0.034832 -1363010.000000 0 0 1
25.087234 5.594400 -26.971661 37.257712 0.219408 2.380266 0.118943 -0.035338 -1105150.000000 0 0 1
24.294634 5.430500 -28.125331 37.560003 0.219912 2.417062 0.129879 -0.031337 -226626.000000 0 0 1
23.073434 4.813200 -27.812491 36.456617 0.205654 2.438572 0.121448 -0.022197 -259226.000000 0 0 1
22.193134 4.497500 -29.043361 36.827700 0.199945 2.479371 0.108387 -0.016497 -135490.000000 0 0 1
22.348434 3.168900 -29.578861 37.207572 0.140856 2.489753 0.104053 -0.020825 926814.000000 0 0 1
21.434034 2.849400 -30.687811 37.540360 0.132163 2.527787 0.075788 -0.023815 752702.000000 0 0 1
21.697734 3.631600 -32.028451 38.856169 0.165835 2.539730 0.081334 -0.021158 491572.000000 0 0 1
22.998834 3.304400 -32.516951 39.965204 0.142700 2.521168 0.087026 -0.028807 470153.000000 0 0 1
23.086734 3.682100 33.438506 40.800598 0.158158 0.610155 0.075181 -0.020043 -103494.000000 0 0 1
24.456734 3.355700 32.818408 41.066293 0.136358 0.644905 0.064049 -0.018496 -33150.200000 0 0 1
24.585034 2.014900 32.496392 40.798274 0.081774 0.649289 0.090073 -0.032500 74854.600000 0 0 1
25.901234 1.772000 32.026136 41.227264 0.068307 0.681197 0.079527 -0.030811 12140.300000 0 0 1
26.250834 0.232200 31.896410 41.310303 0.008845 0.688630 0.071926 -0.028139 -278879.000000 0 0 1
25.721134 -0.507800 30.790346 40.123310 -0.019740 0.696031 0.067414 -0.029033 524019.000000 0 0 1
24.314834 -0.709200 30.699286 39.168358 -0.029159 0.670071 0.088152 -0.036880 233338.000000 0 0 1
23.754234 -1.878500 31.531164 39.522230 -0.078916 0.647145 0.082551 -0.041365 -471364.000000 0 0 1
24.221334 -3.146500 31.172206 39.601514 -0.129183 0.664627 0.063532 -0.045573 -4777.570000 0 0 1
23.803534 -4.084300 32.127390 40.192772 -0.169929 0.644613 0.087954 -0.052329 -79516.700000 0 0 1
23.998934 -5.591300 31.767927 40.204635 -0.228898 0.659733 0.086433 -0.050513 620368.000000 0 0 1
25.349134 -6.057700 31.631795 40.985909 -0.234571 0.689173 0.081689 -0.052982 509269.000000 0 0 1
25.336834 -7.482900 31.434252 41.061675 -0.287173 0.698920 0.110255 -0.063136 -659232.000000 0 0 1
26.718234 -7.982300 31.071696 41.749628 -0.290317 0.731402 0.087435 -0.054843 -693154.000000 0 0 1
26.984434 -7.714500 29.690246 40.855647 -0.278459 0.757275 0.109272 -0.054007 895256.000000 0 0 1
28.259934 -8.358500 29.389856 41.620332 -0.287573 0.786762 0.095704 -0.046876 1399960.000000 0 0 1
28.619734 -8.077300 27.915596 40.787405 -0.275074 0.816992 0.093095 -0.043272 557011.000000 0 0 1
27.519334 -8.595300 27.168666 39.614761 -0.302736 0.815064 0.089526 -0.037844 314479.000000 0 0 1
27.734334 -8.197100 25.819236 38.768785 -0.287376 0.841990 0.105308 -0.029308 212370.000000 0 0 1
26.993534 -9.026500 24.745166 37.715405 -0.322706 0.855154 0.093636 -0.025630 325281.000000 0 0 1
25.622634 -8.642900 24.625666 36.573795 -0.325330 0.832114 0.092408 -0.023285 -74421.400000 0 0 1
25.048034 -9.546400 23.754496 35.816390 -0.364129 0.845670 0.096953 -0.027701 36088.200000 0 0 1
23.552534 -9.263400 23.454286 34.505593 -0.374724 0.823410 0.063492 -0.017306 180895.000000 0 0 1
22.669634 -9.449200 24.547166 34.724099 -0.394923 0.785662 0.049240 -0.018453 594515.000000 0 0 1
21.405034 -8.897100 24.135366 33.464156 -0.393928 0.765219 0.066920 -0.010578 501473.000000 0 0 1
20.357734 -8.645200 25.204996 33.533097 -0.401586 0.720243 0.070030 -0.015862 -473914.000000 0 0 1
19.652834 -9.760400 25.719936 33.808496 -0.460957 0.706323 0.094614 -0.014702 58885.600000 0 0 1
20.367034 -10.752600 26.514876 35.120836 -0.485750 0.715201 0.070549 -0.023324 -179909.000000 0 0 1
19.534334 -11.886500 27.101006 35.459041 -0.546641 0.700856 0.083086 -0.020937 -280059.000000 0 0 1
19.066034 -12.787100 26.103766 34.762482 -0.590772 0.721346 0.107853 -0.019451 278028.000000 0 0 1
18.169934 -13.783400 26.604646 35.041915 -0.648972 0.708677 0.105443 -0.017017 245305.000000 0 0 1
18.750734 -14.773300 27.672246 36.545774 -0.667306 0.711790 0.112534 -0.009594 -169682.000000 0 0 1
17.846234 -15.843100 27.655546 36.528360 -0.726009 0.711937 0.091673 -0.007536 184641.000000 0 0 1
18.333034 -16.994800 28.290136 37.752551 -0.747536 0.723706 0.087625 0.000881 17501.000000 0 0 1
19.054534 -18.018400 27.364186 37.901671 -0.757457 0.764139 0.097291 -0.009690 469048.000000 0 0 1
20.293334 -17.613300 26.788526 37.943021 -0.714815 0.786934 0.097995 -0.010758 429814.000000 0 0 1
20.822134 -18.677200 26.043686 38.218747 -0.731148 0.821071 0.088295 0.000736 -469735.000000 0 0 1
22.034434 -18.169300 25.244776 38.117430 -0.689554 0.846926 0.091636 -0.011213 -14335.900000 0 0 1
23.193734 -18.008700 26.060266 39.260668 -0.660213 0.844941 0.077855 -0.008960 488452.000000 0 0 1
24.196234 -17.235200 25.362606 39.061127 -0.618939 0.864125 0.058725 -0.011621 643158.000000 0 0 1
25.434134 -16.966500 26.331326 40.349672 -0.588286 0.859814 0.072030 -0.013589 672084.000000 0 0 1
26.175934 -18.101100 26.663686 41.518447 -0.605010 0.873415 0.078089 -0.011528 -30000.000000 0 0 1
26.944234 -18.724100 25.661646 41.654576 -0.607309 0.907068 0.076360 -0.019312 -766742.000000 0 0 1
27.593834 -20.035000 26.144816 42.969434 -0.628008 0.916688 0.072154 -0.024414 405353.000000 0 0 1
28.569934 -19.926100 27.194016 44.190554 -0.609012 0.907927 0.071152 -0.023821 523186.000000 0 0 1
29.268934 -21.088900 27.597106 45.420397 -0.624366 0.917770 0.072194 -0.023123 248197.000000 0 0 1
28.433434 -22.169800 28.354376 45.868626 -0.662245 0.904390 0.067050 -0.018064 -99741.700000 0 0 1
28.075134 -21.815000 29.692376 46.322182 -0.660572 0.875000 0.075321 -0.015810 -386179.000000 0 0 1
27.345834 -22.936700 30.127086 46.706832 -0.697935 0.869740 0.077731 -0.015104 -331818.000000 0 0 1
26.507534 -22.677000 31.389781 46.927753 -0.707674 0.838074 0.065946 -0.014255 -216451.000000 0 0 1
26.056934 -23.846600 32.020605 47.675395 -0.741135 0.834379 0.061859 -0.015734 -15854.200000 0 0 1
25.795734 -23.643300 33.391326 48.367408 -0.741888 0.808798 0.046938 -0.004074 -229034.000000 0 0 1
25.775334 -24.945600 -33.135161 48.832260 -0.769041 2.316584 0.055205 -0.012592 81445.300000 0 0 1
24.676134 -25.827440 -33.147121 48.730892 -0.808191 2.318842 0.074629 -0.023353 -496347.000000 0 0 1
24.503834 -26.454440 32.958075 48.851919 -0.823658 0.830302 0.070727 -0.023926 699644.000000 0 0 1
23.098634 -27.136800 32.763350 48.408572 -0.865610 0.827377 0.083800 -0.024331 780421.000000 0 0 1
23.110434 -28.487530 33.158694 49.448261 -0.889235 0.835815 0.079367 -0.026266 409584.000000 0 0 1
21.774234 -28.960740 33.286446 49.201923 -0.926110 0.827760 0.103511 -0.031487 78968.500000 0 0 1
21.697934 -30.500720 33.427136 50.184337 -0.952466 0.841846 0.080872 -0.034638 -126542.000000 0 0 1
22.168834 -31.124480 -32.685731 50.284664 -0.951887 2.278399 0.051883 -0.029187 147665.000000 0 0 1
23.515134 -31.519880 -32.815151 51.218146 -0.929834 2.266198 0.031723 -0.017322 -320069.000000 0 0 1
24.075134 -32.311510 -31.578611 51.194281 -0.930442 2.235516 0.025750 -0.012671 -115926.000000 0 0 1
25.353834 -32.880440 -31.860451 52.335729 -0.913933 2.225306 0.021707 -0.000670 804741.000000 0 0 1
25.999334 -33.488350 -30.736101 52.365474 -0.910631 2.198087 0.019833 0.013298 73311.300000 0 0 1
26.746034 -32.554210 -29.746711 51.575127 -0.883032 2.185559 0.020337 0.012507 -450500.000000 0 0 1
27.187634 -33.186720 -28.570381 51.544083 -0.884438 2.158306 0.051541 0.011130 -83200.400000 0 0 1
27.778534 -32.171610 -27.767121 50.770783 -0.858546 2.149467 0.062418 0.007182 -353344.000000 0 0 1
27.630534 -32.532070 -26.244541 50.105468 -0.866690 2.122086 0.084845 0.004252 184.661000 0 0 1
28.178534 -33.705800 -25.688411 50.892093 -0.874478 2.099903 0.084486 0.023358 -16015.800000 0 0 1
29.590734 -33.703870 -25.665831 51.674919 -0.850291 2.090564 0.083917 0.007751 43116.200000 0 0 1
-28.275326 -30.379914 9.158829 42.500793 0.821263 1.353595 0.097846 -0.010730 -230799.000000 0 0 1
-27.929976 -31.557914 9.862829 43.281184 0.846309 1.340899 0.099759 -0.012365 -520833.000000 0 0 1
-26.725556 -31.532114 10.557229 42.661278 0.867717 1.320732 0.088434 -0.008786 -528154.000000 0 0 1
-26.723476 -32.693214 11.595229 43.788580 0.885535 1.302799 0.082427 -0.009291 161129.000000 0 0 1
-26.734896 33.647100 11.037829 44.370212 -0.899377 1.319390 0.091226 0.001597 -652368.000000 0 0 1
-28.047246 33.211900 10.867629 44.808299 -0.869508 1.325817 0.073924 -0.020684 -600979.000000 0 0 1
-28.202636 31.665500 10.632729 43.716673 -0.843175 1.325113 0.085956 -0.016930 34505.600000 0 0 1
-27.860236 31.267200 9.317729 42.902805 -0.842955 1.351869 0.124198 -0.030863 -65494.800000 0 0 1
-27.820956 29.861700 9.134229 41.822971 -0.820762 1.350619 0.139204 -0.027675 -446418.000000 0 0 1
-26.935696 29.519800 7.975629 40.749981 -0.831139 1.373804 0.118251 -0.023141 -2329170.000000 0 0 1
-25.600026 29.593100 8.133929 39.965907 -0.857620 1.365843 0.106117 -0.015067 -1899290.000000 0 0 1
-25.044586 29.665200 6.857429 39.424355 -0.869655 1.395968 0.094492 -0.009881 302418.000000 0 0 1
-23.617566 29.027100 6.785729 38.031672 -0.887794 1.391413 0.115642 -0.012890 308156.000000 0 0 1
-23.611666 27.610300 6.803429 36.961143 -0.863305 1.385671 0.099044 -0.016714 377078.000000 0 0 1
-24.339166 26.961500 5.744929 36.773927 -0.836471 1.413931 0.077148 -0.021451 -337023.000000 0 0 1
-24.409466 25.406200 5.927529 35.727198 -0.805404 1.404115 0.095012 -0.021154 235468.000000 0 0 1
-25.441356 25.084200 6.898329 36.387727 -0.778329 1.380064 0.114051 -0.023956 768185.000000 0 0 1
-25.623416 23.763900 7.296729 35.700485 -0.747764 1.364958 0.129893 -0.036452 -176117.000000 0 0 1
-26.278366 22.851400 6.223529 35.376141 -0.715758 1.393952 0.121128 -0.046191 -18651.300000 0 0 1
-27.629386 23.258900 5.982929 36.608126 -0.699724 1.406628 0.117059 -0.046208 355981.000000 0 0 1
-28.098396 22.502000 4.871729 36.326211 -0.675246 1.436280 0.108816 -0.037349 17476.500000 0 0 1
-27.718406 23.118600 3.468929 36.260353 -0.695162 1.474983 0.089442 -0.036536 313996.000000 0 0 1
-26.313466 23.141000 3.227929 35.189827 -0.721337 1.478938 0.089644 -0.038543 520991.000000 0 0 1
-26.114906 23.998500 2.105629 35.529565 -0.743191 1.511497 0.082764 -0.034562 582241.000000 0 0 1
-24.779566 24.817300 2.085029 35.132216 -0.786159 1.511413 0.072663 -0.025409 590682.000000 0 0 1
-24.495166 25.352700 0.806729 35.262209 -0.802599 1.547916 0.065542 -0.022918 -533350.000000 0 0 1
-23.240766 25.958700 0.723529 34.849832 -0.840585 1.550033 0.089964 -0.027975 -600610.000000 0 0 1
-22.825566 26.334900 -0.731871 34.857841 -0.856663 1.591794 0.111735 -0.022124 82754.700000 0 0 1
-22.459066 25.281000 -1.613971 33.854741 -0.844440 1.618488 0.094610 -0.026484 970397.000000 0 0 1
-21.186566 24.618900 -1.378671 32.509407 -0.860191 1.613217 0.090375 -0.040991 1017280.000000 0 0 1
-20.894566 23.386300 -2.309771 31.445778 -0.841610 1.644315 0.100430 -0.055996 202501.000000 0 0 1
-21.838066 22.342000 -2.071471 31.310655 -0.796804 1.637003 0.096633 -0.036904 140172.000000 0 0 1
-21.694366 21.337500 -3.098371 30.586506 -0.777105 1.672269 0.099025 -0.032982 -558286.000000 0 0 1
-22.693266 21.342500 -4.219571 31.437103 -0.754733 1.705425 0.092399 -0.031374 -584727.000000 0 0 1
-22.646366 22.431000 -5.045771 32.271775 -0.780621 1.727793 0.094155 -0.029650 844936.000000 0 0 1
-23.868166 22.500700 -5.808371 33.312280 -0.755916 1.746053 0.112130 -0.030544 997518.000000 0 0 1
-23.518966 23.014100 -7.200171 33.684314 -0.774549 1.786213 0.139206 -0.029096 284990.000000 0 0 1
-22.703566 22.083700 -7.924371 32.648696 -0.771559 1.815961 0.104913 -0.026581 391475.000000 0 0 1
-22.174666 22.638200 -9.105771 32.971487 -0.795742 1.850604 0.113067 -0.030113 -407256.000000 0 0 1
-21.929766 21.503400 -10.168671 32.352940 -0.775582 1.890520 0.098358 -0.028850 359423.000000 0 0 1
-23.123766 21.031500 -10.778471 33.063696 -0.738049 1.902856 0.081894 -0.024409 288593.000000 0 0 1
-22.864066 20.663100 -12.125371 33.117274 -0.734876 1.945648 0.060552 -0.014589 85800.900000 0 0 1
-24.139366 20.613000 -12.976771 34.292876 -0.706763 1.958874 0.057173 -0.028767 329859.000000 0 0 1
-25.042056 19.543600 -12.809571 34.251160 -0.662694 1.954103 0.069476 -0.021992 -268377.000000 0 0 1
-26.264516 19.626900 -13.472971 35.448003 -0.641757 1.960676 0.083423 -0.028701 -146313.000000 0 0 1
-26.945316 18.253900 -13.605571 35.275579 -0.595426 1.966756 0.136454 -0.034851 -89972.100000 0 0 1
-26.330206 17.374000 -14.525971 34.729518 -0.583269 2.002325 0.118549 -0.030864 -29159.600000 0 0 1
-27.153606 16.258400 -14.748771 34.916760 -0.539505 2.006886 0.140058 -0.030563 -131380.000000 0 0 1
-26.850186 15.518600 -16.050871 34.919764 -0.524063 2.048397 0.150435 -0.026003 242333.000000 0 0 1
-25.651136 14.762800 -15.958471 33.624304 -0.522227 2.065319 0.160238 -0.027721 204853.000000 0 0 1
-25.326806 14.096800 -17.171771 33.690304 -0.507893 2.105626 0.157513 -0.037830 -261731.000000 0 0 1
-24.346466 12.971400 -16.907571 32.355426 -0.489529 2.120644 0.152051 -0.030529 535588.000000 0 0 1
-23.006766 13.361900 -16.584471 31.351177 -0.526168 2.128207 0.151821 -0.040077 941244.000000 0 0 1
-22.128666 12.260600 -16.366371 30.130686 -0.505955 2.145016 0.145452 -0.027600 866363.000000 0 0 1
-20.885766 12.530100 -15.447571 28.841742 -0.540372 2.136012 0.140081 -0.034446 558938.000000 0 0 1
-19.831066 13.236500 -16.063071 28.748884 -0.588554 2.163659 0.116941 -0.024091 131370.000000 0 0 1
-18.647066 13.121800 -15.297671 27.457484 -0.613200 2.161734 0.101139 -0.014398 216769.000000 0 0 1
-17.712366 14.350800 -15.505771 27.569953 -0.680938 2.168101 0.092853 -0.007046 -103976.000000 0 0 1
-17.149566 14.453700 -16.796871 28.020563 -0.700301 2.213608 0.121893 -0.018211 265584.000000 0 0 1
-16.255666 15.559800 -16.827171 28.098180 -0.763530 2.212886 0.109557 -0.014191 322400.000000 0 0 1
-15.374366 15.644900 -18.116471 28.448911 -0.794119 2.261146 0.141591 -0.019964 362743.000000 0 0 1
-14.353266 14.677800 -18.248071 27.467183 -0.796577 2.297432 0.136968 -0.013511 -371718.000000 0 0 1
-13.693066 14.768600 -19.459671 28.005185 -0.823169 2.339021 0.176531 -0.019604 -449654.000000 0 0 1
-12.535466 13.781500 -19.593671 27.036634 -0.832710 2.381407 0.158400 -0.019178 -469900.000000 0 0 1
-12.771366 12.448400 -19.904271 26.725464 -0.772593 2.410983 0.171214 -0.024108 -103021.000000 0 0 1
-11.608566 11.611700 -19.891371 25.792577 -0.785533 2.451529 0.142255 -0.012016 316234.000000 0 0 1
-11.757066 10.226100 -20.582671 25.815655 -0.715868 2.493595 0.158255 -0.030803 -49830.600000 0 0 1
-11.569166 10.295200 -21.999571 26.903863 -0.727197 2.528219 0.168838 -0.042905 -283728.000000 0 0 1
-11.918866 9.101000 -22.661971 27.174482 -0.652135 2.557011 0.162676 -0.024569 79968.300000 0 0 1
-11.797066 9.117600 -24.187771 28.413899 -0.657978 2.589189 0.144290 -0.033904 -362909.000000 0 0 1
-10.469266 9.229000 -24.619771 28.300408 -0.722518 2.625885 0.139406 -0.032150 -579691.000000 0 0 1
-10.201466 8.324600 -25.697851 28.874702 -0.684433 2.668093 0.104574 -0.033875 2847.100000 0 0 1
-9.953866 9.162700 -26.995371 30.195771 -0.744035 2.677017 0.151655 -0.042075 -398109.000000 0 0 1
-8.748966 9.871600 -27.054341 30.098675 -0.845615 2.687946 0.115227 -0.044422 -346332.000000 0 0 1
-8.571966 11.019800 -26.309741 29.784510 -0.909696 2.653729 0.092902 -0.030017 -238142.000000 0 0 1
-7.123666 11.552300 -26.320381 29.613590 -1.018228 2.665503 0.091560 -0.033982 121108.000000 0 0 1
-6.631066 12.083300 -27.526101 30.784142 -1.068891 2.677359 0.090379 -0.052780 293081.000000 0 0 1
-5.272466 12.470900 -27.469091 30.624715 -1.170806 2.683637 0.110753 -0.048847 93234.300000 0 0 1
-4.661566 12.978100 -28.775381 31.908993 -1.225961 2.694702 0.115474 -0.042521 554394.000000 0 0 1
-3.232366 12.967400 -28.839561 31.785561 -1.326506 2.707653 0.136449 -0.054932 761155.000000 0 0 1
-2.734366 13.091200 -30.163911 32.995724 -1.364886 2.724267 0.134303 -0.053537 227976.000000 0 0 1
-1.229066 12.784600 -30.322241 32.930152 -1.474954 2.740935 0.162876 -0.068013 -122500.000000 0 0 1
-0.881466 11.483700 -29.950081 32.088311 -1.494189 2.774471 0.138101 -0.045380 -1150980.000000 0 0 1
0.454134 11.183700 -30.003221 32.023033 1.530212 2.784526 0.156001 -0.053684 -701575.000000 0 0 1
1.186834 10.810500 -31.343451 33.176609 1.461449 2.807614 0.168371 -0.040596 39718.700000 0 0 1
1.369734 11.822400 -32.328791 34.449906 1.455451 2.788851 0.167103 -0.055714 -59279.300000 0 0 1
1.769934 11.227200 -33.492291 35.368294 1.414436 2.814430 0.176847 -0.044962 -102539.000000 0 0 1
2.184034 12.168000 32.668616 34.929482 1.393197 0.361766 0.169003 -0.054691 -1279720.000000 0 0 1
3.477734 12.604800 32.780314 35.291990 1.301588 0.379550 0.173477 -0.057469 -1501540.000000 0 0 1
3.887534 13.116800 31.542659 34.381720 1.282666 0.409236 0.156875 -0.053714 521244.000000 0 0 1
5.434934 13.152200 31.380455 34.456521 1.178934 0.425757 0.147158 -0.050347 302534.000000 0 0 1
6.062034 11.926100 31.135036 33.887617 1.100531 0.405835 0.162305 -0.053508 92274.000000 0 0 1
7.476734 12.059400 31.067396 34.154264 1.015806 0.428428 0.146709 -0.037609 312437.000000 0 0 1
8.151534 10.758800 30.711716 33.547113 0.922410 0.414097 0.109108 -0.029441 -319814.000000 0 0 1
7.919234 10.410000 29.386916 32.166336 0.920461 0.418764 0.111698 -0.036631 -331009.000000 0 0 1
8.735634 9.395200 28.915706 31.633829 0.821760 0.417574 0.109090 -0.027989 -231029.000000 0 0 1
7.999034 8.704200 27.784226 30.194550 0.827590 0.402273 0.112187 -0.031176 -225100.000000 0 0 1
7.109134 7.742200 28.270526 30.161301 0.827999 0.355963 0.123487 -0.035065 -593220.000000 0 0 1
6.457834 7.073100 27.247326 28.881640 0.830838 0.338019 0.149992 -0.042788 -87915.600000 0 0 1
5.576334 5.916700 27.752206 28.918640 0.815005 0.284988 0.160160 -0.045034 126249.000000 0 0 1
6.349634 4.872700 28.271396 29.382527 0.654544 0.275887 0.120888 -0.039003 385295.000000 0 0 1
5.478134 3.968300 28.977046 29.756118 0.626908 0.229334 0.125106 -0.042099 313240.000000 0 0 1
6.190734 2.689900 29.438266 30.202189 0.409893 0.225393 0.124071 -0.034920 62574.000000 0 0 1
6.278534 1.653600 28.488796 29.219272 0.257525 0.224074 0.116322 -0.033158 1106340.000000 0 0 1
7.657334 1.289600 28.245016 29.292981 0.166848 0.268293 0.120386 -0.026972 916402.000000 0 0 1
7.788934 -0.146700 27.767776 28.839875 -0.018832 0.273521 0.121924 -0.030633 -174403.000000 0 0 1
7.636034 -1.094800 28.798276 29.813559 -0.142402 0.261723 0.101655 -0.044209 67082.300000 0 0 1
7.735134 -2.389000 28.232066 29.369868 -0.299557 0.279261 0.115351 -0.044248 -363926.000000 0 0 1
8.880134 -3.174200 28.881586 30.382204 -0.343296 0.315605 0.103098 -0.036073 1125880.000000 0 0 1
10.206934 -2.615000 28.659896 30.535379 -0.250804 0.352305 0.075454 -0.027762 726195.000000 0 0 1
11.103634 -3.638800 28.320536 30.636323 -0.316683 0.391310 0.119786 -0.033123 -898843.000000 0 0 1
12.551734 -3.163600 28.502586 31.304182 -0.246902 0.426295 0.093956 -0.031228 -48139.300000 0 0 1
13.612234 -4.069500 28.270066 31.639380 -0.290501 0.465697 0.120739 -0.041338 300159.000000 0 0 1
13.706434 -5.189700 29.211676 32.682125 -0.361951 0.465021 0.134432 -0.040697 -860605.000000 0 0 1
13.317534 -6.581900 28.654376 32.276173 -0.459019 0.478281 0.154857 -0.033836 120084.000000 0 0 1
11.912934 -6.644500 28.487546 31.584927 -0.508778 0.446567 0.156014 -0.036888 -115315.000000 0 0 1
11.482934 -7.912800 28.103316 31.373022 -0.603368 0.460614 0.183904 -0.035637 402908.000000 0 0 1
9.964534 -7.976900 27.777526 30.569819 -0.675063 0.430736 0.197797 -0.036806 724127.000000 0 0 1
9.132134 -7.684200 28.927336 31.292708 -0.699507 0.391307 0.223379 -0.043612 -332530.000000 0 0 1
7.800534 -7.656300 28.514106 30.537215 -0.776067 0.366047 0.215720 -0.038465 -590456.000000 0 0 1
6.834034 -7.256600 29.639946 31.271211 -0.815378 0.324423 0.184918 -0.051010 -133667.000000 0 0 1
6.785534 -8.201800 30.670736 32.465474 -0.879616 0.334061 0.207363 -0.064288 199302.000000 0 0 1
5.826934 -7.637400 31.560117 32.989756 -0.919060 0.295474 0.200793 -0.056255 -60163.100000 0 0 1
6.351434 -6.831200 32.752656 34.054992 -0.821776 0.277447 0.176204 -0.032700 -332392.000000 0 0 1
6.719734 -5.541900 32.408826 33.558895 -0.689633 0.262556 0.172225 -0.037106 -191064.000000 0 0 1
7.059934 -4.813800 33.504516 34.576985 -0.598439 0.249714 0.134622 -0.021899 -356030.000000 0 0 1
7.343734 -3.397300 33.009601 33.986848 -0.433292 0.240385 0.122578 -0.049363 697601.000000 0 0 1
6.187534 -2.874200 32.297864 33.010583 -0.434858 0.208177 0.138598 -0.056874 801067.000000 0 0 1
6.314034 -1.579500 31.744363 32.404728 -0.245126 0.202229 0.111593 -0.031858 565134.000000 0 0 1
5.044734 -1.164400 30.869446 31.300605 -0.226842 0.166172 0.160375 -0.055741 -105368.000000 0 0 1
4.075534 -0.702900 31.693913 31.962605 -0.170788 0.129756 0.146560 -0.037792 -1621120.000000 0 0 1
3.183534 0.096300 30.987476 31.150727 0.030240 0.102423 0.155077 -0.046759 -97932.200000 0 0 1
2.093934 0.752000 31.903527 31.981011 0.344788 0.069625 0.144131 -0.041917 641291.000000 0 0 1
2.616434 1.783300 32.793082 32.945593 0.598254 0.096258 0.141551 -0.036195 1039910.000000 0 0 1
1.544334 2.113500 -33.628071 33.729794 0.939762 3.063909 0.117854 -0.041930 965690.000000 0 0 1
1.962834 3.220700 -32.604871 32.822298 1.023462 3.026426 0.114032 -0.035936 -666240.000000 0 0 1
2.971434 2.835500 -31.772561 32.036933 0.761994 3.013035 0.096063 -0.013929 -891122.000000 0 0 1
3.375634 3.865100 -30.922741 31.345650 0.852894 2.977140 0.090151 -0.019817 -24713.400000 0 0 1
4.414534 3.415200 -29.869371 30.386362 0.658451 2.956864 0.094898 -0.016762 180786.000000 0 0 1
3.810934 2.686800 -28.784071 29.159301 0.614090 2.980994 0.098214 -0.025283 -63335.900000 0 0 1
4.736434 2.539300 -27.759061 28.274499 0.492125 2.950357 0.104703 -0.029969 -541711.000000 0 0 1
4.267034 1.924600 -26.422661 26.834095 0.423718 2.966254 0.094445 -0.029133 -213064.000000 0 0 1
4.360434 0.510600 -26.475471 26.837001 0.116568 2.977265 0.119442 -0.028578 262220.000000 0 0 1
3.803834 -0.153900 -25.334421 25.618855 -0.040437 2.992441 0.118167 -0.024502 -377547.000000 0 0 1
4.269234 -1.596600 -25.131171 25.541167 -0.357874 2.962174 0.132385 -0.038538 191981.000000 0 0 1
5.614834 -1.728700 -24.705171 25.394098 -0.298671 2.908127 0.123929 -0.043557 89371.400000 0 0 1
6.085934 -3.059700 -24.786471 25.705437 -0.465845 2.873395 0.129113 -0.044662 395080.000000 0 0 1
7.551534 -3.261200 -24.256171 25.612944 -0.407666 2.814647 0.134888 -0.055497 492740.000000 0 0 1
8.448734 -2.723600 -25.148741 26.669426 -0.311849 2.802270 0.123643 -0.047160 -1489790.000000 0 0 1
9.752534 -3.152400 -24.930271 26.954924 -0.312638 2.751536 0.117610 -0.039039 -355475.000000 0 0 1
-30.834776 -3.287000 17.164966 35.443248 0.106199 1.065240 0.154552 -0.028839 89216.800000 0 0 1
-32.195776 -3.467300 17.491966 36.804334 0.107281 1.075526 0.145414 -0.006766 -129117.000000 0 0 1
-32.541556 -4.755100 18.025266 37.502987 0.145097 1.069417 0.134763 -0.021303 -20011.400000 0 0 1
-33.984849 -4.725400 18.556866 39.008417 0.138158 1.075020 0.101192 -0.018043 -207859.000000 0 0 1
-34.970432 -4.870300 17.550466 39.429301 0.138379 1.109497 0.096005 -0.014495 -517080.000000 0 0 1
-36.188846 -4.498600 18.113066 40.717971 0.123675 1.109798 0.099371 -0.010617 -1029170.000000 0 0 1
-37.292666 -4.490700 17.067666 41.257903 0.119841 1.144301 0.075530 -0.015352 -693977.000000 0 0 1
37.275347 -4.213300 17.544166 41.412572 -0.112554 1.133333 0.083883 -0.008828 -1228590.000000 0 0 1
36.326597 -4.251200 16.584666 40.159002 -0.116497 1.145078 0.075266 -0.019384 -436958.000000 0 0 1
34.899247 -4.631600 17.047766 39.115668 -0.131942 1.119837 0.072712 -0.010117 54160.700000 0 0 1
34.232977 -3.707300 17.866766 38.792552 -0.107876 1.092157 0.086647 -0.013265 99912.800000 0 0 1
32.995317 -4.298400 18.206766 37.929586 -0.129543 1.070125 0.141943 -0.012333 327450.000000 0 0 1
32.165647 -3.595100 19.364366 37.716472 -0.111306 1.031632 0.157678 -0.019964 475863.000000 0 0 1
31.259517 -2.524900 19.097466 36.718465 -0.080597 1.023822 0.168910 -0.014781 479438.000000 0 0 1
31.814267 -1.254400 18.705266 36.927064 -0.039408 1.039622 0.157774 -0.013513 -68510.700000 0 0 1
30.696657 -0.200700 18.627266 35.906824 -0.006538 1.025389 0.164707 -0.014589 -31327.700000 0 0 1
31.141437 1.070100 18.289566 36.130907 0.034349 1.040020 0.164596 -0.026645 184443.000000 0 0 1
30.162457 2.061100 18.588266 35.490077 0.068227 1.019538 0.151599 -0.037109 380503.000000 0 0 1
30.680357 3.515400 18.254266 35.872839 0.114084 1.036936 0.156952 -0.033085 308147.000000 0 0 1
30.726157 3.828500 16.829466 35.241808 0.123962 1.072941 0.169850 -0.015153 199653.000000 0 0 1
29.436957 4.137200 16.329466 33.916107 0.139630 1.068469 0.186730 -0.027448 226986.000000 0 0 1
29.454357 4.524200 14.829066 33.285563 0.152409 1.109052 0.176021 -0.017411 87724.300000 0 0 1
28.836457 5.782000 14.552966 32.814045 0.197886 1.111299 0.205827 -0.034181 300622.000000 0 0 1
28.322757 5.956300 13.261166 31.835744 0.207280 1.141150 0.169876 -0.018151 -145446.000000 0 0 1
27.584157 7.253100 12.877766 31.294249 0.257124 1.146691 0.189701 -0.003684 544175.000000 0 0 1
26.232957 7.351700 13.335766 30.332461 0.273237 1.115584 0.143517 -0.008932 614363.000000 0 0 1
25.606457 8.548400 12.961466 29.946041 0.322204 1.123170 0.187306 -0.027740 57218.100000 0 0 1
24.153457 8.784000 13.481666 29.022464 0.348805 1.087698 0.168268 -0.031451 477889.000000 0 0 1
23.128357 7.911300 13.034866 27.702297 0.329584 1.080901 0.163551 -0.017192 650520.000000 0 0 1
23.190557 6.595500 13.545366 27.654647 0.277088 1.058931 0.166040 -0.014892 -269349.000000 0 0 1
21.834357 5.812800 13.354366 26.246273 0.260188 1.036994 0.177080 -0.011306 458702.000000 0 0 1
21.541957 5.671500 11.999266 25.302257 0.257435 1.076699 0.185648 -0.023566 253056.000000 0 0 1
20.671757 4.618100 11.731966 24.213372 0.219792 1.064977 0.178918 -0.021836 -361159.000000 0 1 0
20.291857 4.382600 10.263666 23.158356 0.212711 1.111637 0.190768 -0.028387 -621918.000000 0 1 0
21.337757 3.796000 9.574666 23.693537 0.176059 1.154797 0.197094 -0.034057 -76015.800000 0 1 0
20.959257 3.352300 8.314066 22.795878 0.158600 1.197466 0.212813 -0.033326 87975.300000 0 1 0
22.062457 2.623100 7.474666 23.441486 0.118339 1.246265 0.217537 -0.033073 -509627.000000 0 1 0
22.423757 1.312000 7.950066 23.827500 0.058443 1.230623 0.234797 -0.040192 1192150.000000 0 1 0
23.422757 0.710200 7.119666 24.491214 0.030312 1.275835 0.228737 -0.033793 381959.000000 0 1 0
24.897657 1.213300 7.057866 25.907120 0.048693 1.294879 0.192212 -0.024760 -30688.600000 0 0 1
25.710957 0.750500 8.125266 26.974738 0.029182 1.264827 0.178080 -0.009275 449849.000000 0 0 1
25.628657 1.424400 9.332666 27.312188 0.055521 1.222068 0.183855 -0.017199 -654818.000000 0 0 1
26.627657 0.860300 10.343866 28.579149 0.032297 1.200451 0.146564 -0.010978 -290561.000000 0 0 1
27.994657 1.118000 10.130566 29.792266 0.039915 1.223837 0.155877 -0.028415 -123422.000000 0 0 1
28.711357 0.449200 11.128566 30.795921 0.015644 1.201065 0.132579 -0.015811 -270286.000000 0 0 1
30.243657 0.573100 11.047266 32.203250 0.018947 1.220636 0.180403 -0.021452 86331.700000 0 0 1
30.740357 1.795600 11.648666 32.922411 0.058346 1.209142 0.178840 -0.025877 -45168.800000 0 0 1
32.131177 1.876700 11.486266 34.174096 0.058341 1.228012 0.167808 -0.031895 -589323.000000 0 0 1
32.754877 3.209200 12.037066 35.043856 0.097665 1.220170 0.168017 -0.036321 816670.000000 0 0 1
34.102937 3.492200 11.617266 36.196224 0.102046 1.244061 0.158033 -0.043458 1062150.000000 0 0 1
34.592557 4.652100 12.322066 37.015136 0.133681 1.231427 0.144216 -0.042493 -672610.000000 0 0 1
35.997317 4.972300 11.824766 38.214600 0.137261 1.256202 0.174111 -0.035433 -975143.000000 0 0 1
36.914837 4.092600 12.434466 39.167212 0.110415 1.247735 0.173910 -0.040011 277911.000000 0 0 1
-37.656496 4.215300 11.804266 39.687796 -0.111477 1.268799 0.170692 -0.030566 -33562.400000 0 0 1
-36.631786 3.241600 12.366666 38.798584 -0.088262 1.246396 0.162641 -0.023623 -1096230.000000 0 0 1
-36.664556 1.879000 11.960266 38.611763 -0.051204 1.255859 0.144528 -0.019005 466391.000000 0 0 1
-37.785826 1.042600 12.268166 39.741207 -0.027585 1.256969 0.140703 -0.027328 60865.000000 0 0 1
37.603927 0.892700 13.720466 40.038774 0.023735 1.221029 0.136559 -0.021260 -237123.000000 0 0 1
-37.301946 0.177400 14.501766 40.022092 -0.004756 1.200015 0.117603 -0.024456 421429.000000 0 0 1
-37.574706 0.167700 15.911266 40.805086 -0.004463 1.170237 0.116378 -0.030614 762183.000000 0 0 1
-36.436656 -0.717400 16.615066 40.052528 0.019686 1.143038 0.101405 -0.020545 1144570.000000 0 0 1
-35.162343 -0.050300 16.694966 38.924475 0.001430 1.127514 0.108447 -0.025975 116444.000000 0 0 1
-34.304182 -0.817000 17.485066 38.511971 0.023812 1.099528 0.107745 -0.016167 -429145.000000 0 0 1
-34.452869 -0.904100 19.010766 39.360218 0.026236 1.066725 0.080371 -0.022292 127807.000000 0 0 1
-35.611358 -1.626700 19.479566 40.623496 0.045648 1.070695 0.072808 -0.029617 732290.000000 0 0 1
-35.701169 -1.353400 20.899066 41.390532 0.037891 1.041503 0.066968 -0.035708 10266.200000 0 0 1
-36.337846 -2.516200 21.649066 42.372779 0.069134 1.034543 0.058954 -0.028551 -405032.000000 0 0 1
-35.470780 -3.648900 21.665266 41.723787 0.102510 1.024818 0.078112 -0.031785 377393.000000 0 0 1
-36.014916 -4.816000 22.263256 42.613620 0.132934 1.021081 0.069936 -0.029722 -82937.700000 0 0 1
-36.260156 -4.862700 23.812876 43.652008 0.133310 0.993791 0.076035 -0.031155 -150233.000000 0 0 1
-35.090411 -4.756200 24.567296 43.098845 0.134720 0.964264 0.091392 -0.027537 -694552.000000 0 0 1
-35.399531 -4.355500 25.864616 44.057639 0.122423 0.943370 0.099880 -0.029886 -56579.300000 0 0 1
-34.210741 -3.756500 26.656806 43.532418 0.109367 0.911775 0.113808 -0.028645 154764.000000 0 0 1
-33.848406 -2.408700 26.323226 42.946812 0.071042 0.911038 0.108387 -0.022335 380459.000000 0 0 1
-33.062236 -2.173300 25.149916 41.597511 0.065639 0.921531 0.101776 -0.019128 -81506.300000 0 0 1
-32.995406 -0.694400 24.831246 41.300966 0.021042 0.925761 0.100287 -0.023928 -352697.000000 0 0 1
-34.229409 -0.159800 24.460696 42.071411 0.004668 0.950337 0.105206 -0.037497 -142733.000000 0 0 1
-34.085566 1.248300 24.273896 41.864138 -0.036606 0.952282 0.111168 -0.023041 382566.000000 0 0 1
-35.423590 1.986100 23.928946 42.794506 -0.056009 0.977425 0.106691 -0.025930 408603.000000 0 0 1
-35.936835 1.517300 22.702376 42.534177 -0.042196 1.007774 0.116576 -0.028107 522226.000000 0 0 1
-37.137896 2.164800 22.236926 43.340403 -0.058225 1.032032 0.133849 -0.026894 919017.000000 0 0 1
-36.859396 3.567700 21.615366 42.878521 -0.096492 1.042449 0.122349 -0.019397 313533.000000 0 0 1
-36.072186 3.591800 20.401066 41.596960 -0.099245 1.058195 0.098642 -0.025701 375603.000000 0 0 1
-36.916066 3.300000 19.268266 41.772623 -0.089155 1.091375 0.136525 -0.034167 208155.000000 0 0 1
-36.105226 2.836000 18.077266 40.477374 -0.078387 1.107833 0.133878 -0.029343 112035.000000 0 0 1
-35.343008 3.819900 17.321766 39.544449 -0.107663 1.117387 0.126817 -0.034019 474839.000000 0 0 1
-34.823791 3.220200 16.147766 38.520338 -0.092209 1.138231 0.145517 -0.025193 -175727.000000 0 0 1
-33.805946 4.075400 15.371566 37.359549 -0.119974 1.146753 0.153530 -0.029414 33483.700000 0 0 1
-34.432144 5.194000 14.706966 37.800066 -0.149719 1.171172 0.167662 -0.031058 412546.000000 0 0 1
-33.506156 6.151900 14.173866 36.897247 -0.181583 1.176516 0.186167 -0.028467 -110781.000000 0 0 1
-34.126573 7.354500 13.455566 37.413419 -0.212260 1.202908 0.194456 -0.039841 -507018.000000 0 0 1
-33.213256 8.103100 12.694366 36.468171 -0.239297 1.215259 0.216494 -0.030309 -320202.000000 0 0 1
-33.615336 9.313300 12.163766 36.941651 -0.270276 1.235266 0.204801 -0.038596 -495821.000000 0 0 1
-32.498426 10.044600 11.394766 35.873143 -0.299766 1.247556 0.227249 -0.037583 68738.900000 0 0 1
-32.960176 11.247600 10.760066 36.450799 -0.328857 1.271138 0.195476 -0.020650 -516634.000000 0 0 1
-32.015366 11.812500 9.953866 35.547127 -0.353468 1.286983 0.196000 -0.037155 -793189.000000 0 0 1
-32.449836 13.185900 9.456766 36.280714 -0.385966 1.307095 0.170405 -0.025690 -103049.000000 0 0 1
-31.611846 13.783800 8.499766 35.518277 -0.411178 1.329144 0.170344 -0.028138 -47834.500000 0 0 1
-31.743656 15.200700 8.577466 36.225597 -0.446591 1.331747 0.136748 -0.026711 -227450.000000 0 0 1
-30.726056 15.944000 7.723766 35.467707 -0.478659 1.351268 0.154224 -0.023457 -1026200.000000 0 0 1
-29.401696 15.847800 8.112666 34.371905 -0.494366 1.332522 0.191049 -0.021509 -518704.000000 0 0 1
-28.525796 16.714400 7.386966 33.877123 -0.530017 1.350979 0.169564 -0.049977 583304.000000 0 0 1
-27.126626 16.783700 8.076866 32.905656 -0.554068 1.322807 0.171033 -0.035654 73585.200000 0 0 1
-27.225846 17.281000 9.422166 33.595489 -0.565564 1.286524 0.153751 -0.033408 295003.000000 0 0 1
-27.682336 18.616200 9.656766 34.729350 -0.592026 1.289025 0.149094 -0.045120 -17431.400000 0 0 1
-27.800306 18.853900 11.181066 35.402582 -0.595938 1.249469 0.157690 -0.033281 -406994.000000 0 0 1
-26.534856 19.019600 11.750266 34.697443 -0.621898 1.225315 0.154353 -0.027534 -146887.000000 0 0 1
-26.484426 19.296500 13.161866 35.313092 -0.629663 1.188859 0.148133 -0.033900 -26161.700000 0 0 1
-27.086306 18.189400 14.073066 35.532709 -0.591365 1.163575 0.132741 -0.024784 -150369.000000 0 0 1
-26.241626 17.087300 14.123766 34.352286 -0.577185 1.147087 0.140077 -0.026951 372264.000000 0 0 1
-26.627766 16.207900 15.228766 34.693649 -0.546780 1.116367 0.136855 -0.023666 192839.000000 0 0 1
-25.345026 15.392700 15.443466 33.433609 -0.545789 1.090644 0.139600 -0.016947 910102.000000 0 0 1
-24.234466 16.028200 16.128366 33.231562 -0.584334 1.064053 0.128441 -0.016082 1129120.000000 0 0 1
-23.107266 15.156700 16.276066 32.071508 -0.580531 1.038524 0.103297 -0.034000 402585.000000 0 0 1
-23.064666 14.065900 17.392066 32.129617 -0.547628 0.998803 0.132578 -0.020832 -430958.000000 0 0 1
-23.090066 14.530300 18.710566 33.081204 -0.561677 0.969642 0.118650 -0.019631 200663.000000 0 0 1
-23.482466 13.517600 19.601866 33.442262 -0.522320 0.944509 0.110599 -0.021021 -285259.000000 0 0 1
-22.998666 13.832600 21.046366 34.106143 -0.541487 0.905764 0.105600 -0.020617 957913.000000 0 0 1
-21.595966 13.769000 21.355266 33.346941 -0.567589 0.875782 0.109067 -0.023953 1040320.000000 0 0 1
-20.951366 15.073600 21.291566 33.458989 -0.623665 0.881041 0.107269 -0.014748 448428.000000 0 0 1
-19.480866 15.162400 21.788666 32.926410 -0.661383 0.847661 0.105305 -0.022267 501228.000000 0 0 1
-18.451866 14.630000 21.001366 31.552585 -0.670381 0.842500 0.083281 -0.022061 -56136.500000 0 0 1
-17.985266 15.490400 19.948566 31.005928 -0.711008 0.871892 0.088340 -0.026266 -1157590.000000 0 0 1
-16.807166 14.849800 19.181866 29.511716 -0.723646 0.863245 0.088475 -0.019969 821308.000000 0 0 1
-15.573766 14.607100 19.864066 29.163173 -0.753380 0.821484 0.082448 -0.020938 354608.000000 0 0 1
-14.897666 15.755400 20.255766 29.672700 -0.813373 0.819427 0.075150 -0.022702 -926241.000000 0 0 1
-13.814166 15.419100 21.334566 29.727824 -0.840244 0.770355 0.045867 -0.022549 993453.000000 0 0 1
-12.543966 14.947900 20.835466 28.546584 -0.872618 0.752656 0.029217 -0.014850 476316.000000 0 0 1
-11.775666 14.462500 21.891366 28.758688 -0.887444 0.705621 0.039152 -0.011088 -398845.000000 0 0 1
-10.574066 13.648100 21.427566 27.517669 -0.911633 0.678231 0.046393 -0.012963 -999027.000000 0 0 1
-10.148566 12.852700 22.500626 27.829183 -0.902426 0.629153 0.057433 -0.019011 1096450.000000 0 0 1
-8.909866 12.082400 22.452876 27.009290 -0.935392 0.589350 0.067923 -0.005088 1450550.000000 0 0 1
-7.616766 12.938800 22.557556 27.097435 -1.038745 0.587262 0.069143 0.000174 -489040.000000 0 0 1
-7.330166 13.574700 21.396266 26.378097 -1.075673 0.624702 0.062959 -0.005558 -578294.000000 0 0 1
-6.585066 14.745700 21.563066 26.940018 -1.150794 0.642817 0.053976 -0.001568 -141062.000000 0 0 1
-7.316166 16.018300 22.187366 28.326515 -1.142353 0.670885 0.060746 -0.008660 587368.000000 0 0 1
-8.364266 16.545500 21.390566 28.306728 -1.102734 0.714119 0.030819 -0.009523 -305301.000000 0 0 1
-7.888366 17.262500 20.305466 27.794463 -1.142165 0.751658 0.037046 -0.006676 -946872.000000 0 0 1
-8.901666 17.400000 19.152766 27.364724 -1.097920 0.795529 0.038277 -0.010701 178456.000000 0 0 1
-9.986266 18.270800 19.292966 28.386021 -1.070591 0.823491 0.033442 -0.008247 189171.000000 0 0 1
-11.036566 17.766700 20.141166 29.036666 -1.014939 0.804258 0.031432 -0.010081 -452751.000000 0 0 1
-12.315366 18.607400 20.134866 30.055223 -0.986134 0.836683 0.031863 -0.010660 -233588.000000 0 0 1
-13.131566 18.415200 18.991366 29.533533 -0.951344 0.872330 0.039767 -0.013445 -104988.000000 0 0 1
-14.232266 19.280100 19.077366 30.630468 -0.934900 0.898450 0.039513 -0.014998 32351.200000 0 0 1
-15.255066 19.289300 17.917866 30.427686 -0.901656 0.941140 0.058304 -0.009034 107479.000000 0 0 1
-16.049366 18.125600 17.733766 30.010098 -0.846077 0.938589 0.078904 -0.014544 654852.000000 0 0 1
-16.984166 18.351800 16.647466 30.039783 -0.824083 0.983418 0.097110 -0.029453 -178598.000000 0 0 1
-17.998066 17.175500 16.426466 29.812027 -0.762017 0.987233 0.097116 -0.038062 98571.200000 0 0 1
-18.898766 16.870100 17.410766 30.739200 -0.728743 0.968662 0.102276 -0.032457 -699704.000000 0 0 1
-19.858766 17.871300 17.623666 32.005430 -0.732771 0.987658 0.111450 -0.027186 -1084550.000000 0 0 1
36.046467 -9.566900 11.816629 39.121683 -0.259424 1.263956 0.073098 -0.035213 -739854.000000 0 0 1
34.676117 -9.752300 11.641429 37.855823 -0.274158 1.258211 0.070559 -0.024088 -373925.000000 0 0 1
34.284577 -10.987700 12.133029 37.991738 -0.310143 1.245743 0.069502 -0.024900 921832.000000 0 0 1
32.774307 -11.454700 12.048029 36.749426 -0.336231 1.236777 0.101922 -0.018353 1305990.000000 0 0 1
31.864847 -10.628600 12.801229 35.947282 -0.321948 1.206693 0.119990 -0.009631 -197264.000000 0 0 1
30.537657 -11.025900 12.737129 34.876259 -0.346493 1.196939 0.128633 -0.017800 -444473.000000 0 0 1
30.058857 -11.868600 13.941229 35.195971 -0.376055 1.163528 0.125619 -0.016950 -613266.000000 0 0 1
29.860457 -11.066200 15.118829 35.251761 -0.354905 1.127542 0.134737 -0.014858 91123.400000 0 0 1
28.888057 -11.567500 16.021029 35.000004 -0.380873 1.095341 0.143857 -0.025914 163884.000000 0 0 1
27.435557 -11.150300 15.745229 33.540292 -0.386027 1.082137 0.142546 -0.045912 -301020.000000 0 0 1
27.185857 -9.780900 16.116229 33.082770 -0.345360 1.061974 0.143404 -0.032668 -431209.000000 0 0 1
26.256157 -9.191400 15.256429 31.727374 -0.336734 1.069161 0.153824 -0.030870 -61502.900000 0 0 1
25.976257 -7.748500 15.638229 31.294718 -0.289889 1.047534 0.171577 -0.035391 -126041.000000 0 0 1
27.005757 -6.938200 15.145629 31.730736 -0.251477 1.073197 0.155937 -0.024230 -211233.000000 0 0 1
26.962857 -5.708100 15.762929 31.749771 -0.208622 1.051265 0.158134 -0.017482 13295.500000 0 0 1
28.299057 -4.933800 15.853029 32.810022 -0.172610 1.066517 0.160967 -0.015783 -112505.000000 0 0 1
28.656557 -4.439700 14.612629 32.472113 -0.153706 1.104025 0.172093 -0.020968 152584.000000 0 0 1
29.945457 -3.849200 14.656329 33.561208 -0.127839 1.118864 0.165301 -0.015576 145335.000000 0 0 1
30.452957 -3.209000 13.347229 33.404023 -0.104988 1.159749 0.166787 -0.027574 -16148.100000 0 0 1
30.996757 -4.079000 12.347229 33.613855 -0.130843 1.194664 0.137838 -0.032371 305001.000000 0 0 1
31.280297 -3.380800 11.183929 33.391122 -0.107663 1.229258 0.144798 -0.043287 -12204.700000 0 0 1
31.747087 -4.255300 9.982829 33.550588 -0.133243 1.268676 0.149890 -0.039204 589102.000000 0 0 1
33.016987 -4.890400 10.173029 34.893093 -0.147049 1.274951 0.138314 -0.042356 716521.000000 0 0 1
33.417247 -5.694900 9.035029 35.082418 -0.168796 1.310324 0.137363 -0.043995 444617.000000 0 0 1
34.878077 -6.231400 9.171929 36.598290 -0.176797 1.317485 0.119841 -0.040773 1061760.000000 0 0 1
35.923317 -5.223300 9.025729 37.406301 -0.144390 1.327102 0.119127 -0.044944 325046.000000 0 0 1
37.148867 -5.890900 8.949029 38.662981 -0.157266 1.337216 0.142495 -0.052743 -77607.700000 0 0 1
-37.514096 -4.990700 8.490729 38.785396 0.132259 1.350093 0.151850 -0.056246 312183.000000 0 0 1
-37.569886 -4.568200 7.138029 38.513845 0.120998 1.384382 0.167885 -0.053142 -580032.000000 0 0 1
-36.413546 -3.860500 6.873129 37.257076 0.105624 1.385255 0.180522 -0.045657 -565163.000000 0 0 1
-36.444566 -3.104200 5.518729 36.990523 0.084971 1.421044 0.181212 -0.051712 -190172.000000 0 0 1
-36.235706 -4.077600 4.532729 36.745052 0.112058 1.447125 0.224920 -0.075389 82422.200000 0 0 1
-36.184846 -3.563000 3.193729 36.499835 0.098150 1.483184 0.240713 -0.067579 -115011.000000 0 0 1
-35.489671 -4.504800 2.205629 35.842360 0.126258 1.509220 0.354616 -0.076747 -270790.000000 0 0 1
-36.132706 -5.707200 1.923029 36.631170 0.156657 1.518275 0.317280 -0.067771 -267714.000000 0 0 1
-36.950726 -5.772300 0.788429 37.407181 0.154964 1.549718 0.274140 -0.060817 -332113.000000 0 0 1
-36.141746 -5.875500 -0.505671 36.619708 0.161158 1.584605 0.334358 -0.066567 -931315.000000 0 0 1
-35.415732 -7.107700 -0.621171 36.127266 0.198062 1.587991 0.337980 -0.086841 269553.000000 0 0 1
-34.429615 -7.038000 -1.618771 35.178861 0.201639 1.616828 0.302286 -0.077251 -249587.000000 0 0 1
-33.191896 -6.159600 -1.425871 33.788692 0.183488 1.613009 0.294109 -0.074361 -988762.000000 0 0 1
-32.283616 -6.770900 -0.521371 32.990131 0.206735 1.586601 0.321074 -0.073672 182835.000000 0 0 1
-31.084386 -6.000300 -0.371771 31.660399 0.190687 1.582539 0.296947 -0.063399 89401.100000 0 0 1
-30.063946 -6.847200 0.371429 30.836066 0.223935 1.558751 0.253810 -0.061897 -721946.000000 0 0 1
-29.681356 -7.930300 -0.455571 30.725886 0.261083 1.585624 0.224555 -0.038281 219053.000000 0 0 1
-29.041616 -8.930500 0.298529 30.385167 0.298330 1.560971 0.269786 -0.055965 -119041.000000 0 0 1
-28.891006 -10.303900 -0.448371 30.676728 0.342584 1.585413 0.210032 -0.031516 -74745.900000 0 0 1
-28.068526 -10.336000 -1.601371 29.953955 0.352832 1.624283 0.176645 -0.031347 408502.000000 0 0 1
-27.332366 -11.531500 -1.773971 29.718356 0.399241 1.630525 0.160325 -0.016445 -26969.000000 0 0 1
-28.080426 -12.708500 -2.488471 30.922626 0.424993 1.651358 0.167942 -0.020430 213273.000000 0 0 1
-29.033576 -13.420200 -1.681171 32.029309 0.432978 1.623309 0.214308 -0.032663 816759.000000 0 0 1
-29.439266 -14.644900 -2.293171 32.960614 0.461615 1.640426 0.179139 -0.028751 394374.000000 0 0 1
-30.522826 -15.462400 -1.447671 34.246525 0.468902 1.613081 0.221242 -0.032980 486679.000000 0 0 1
-30.036716 -15.981900 -0.210471 34.024546 0.488980 1.576982 0.196890 -0.026006 1117700.000000 0 0 1
-31.117246 -16.555200 0.586429 35.251972 0.488939 1.554160 0.197119 -0.022794 878296.000000 0 0 1
-31.695676 -17.930500 0.105429 36.416065 0.514823 1.567901 0.188405 -0.028759 361.754000 0 0 1
-30.866596 -19.109800 0.204329 36.303897 0.554352 1.565168 0.207555 -0.036657 155219.000000 0 0 1
-31.462266 -20.381700 -0.060971 37.487219 0.574837 1.572423 0.167658 -0.032668 24339.600000 0 0 1
-32.454886 -21.006600 0.933529 38.671286 0.574443 1.546654 0.146049 -0.031369 -276776.000000 0 0 1
-31.805316 -21.193800 2.166929 38.281208 0.587790 1.514160 0.136739 -0.024816 -137753.000000 0 0 1
-32.660216 -21.670400 3.167929 39.323424 0.585814 1.490148 0.101225 -0.019103 -154710.000000 0 0 1
-31.917886 -21.982900 4.472529 39.012855 0.603124 1.455901 0.099843 -0.020152 196711.000000 0 0 1
-31.320926 -20.852700 5.094629 37.970920 0.587385 1.436219 0.093646 -0.019522 9420.560000 0 0 1
-30.564966 -21.179300 6.239529 37.705591 0.605963 1.404551 0.095730 -0.018566 245661.000000 0 0 1
-29.983866 -19.925900 6.924329 36.660879 0.586539 1.380780 0.107055 -0.020017 -162000.000000 0 0 1
-29.098766 -20.084700 7.988729 36.248492 0.604135 1.348584 0.094000 -0.019806 -376338.000000 0 0 1
-28.710966 -18.786600 8.405929 35.325848 0.579417 1.330537 0.108738 -0.026056 -558827.000000 0 0 1
-27.555276 -18.765200 9.373429 34.630725 0.597862 1.296709 0.120148 -0.025958 -819273.000000 0 0 1
-27.828126 -19.269900 10.689229 35.496384 0.605648 1.264913 0.101807 -0.027483 -439148.000000 0 0 1
-26.716116 -19.670900 11.431029 35.090791 0.634671 1.238985 0.094089 -0.023427 -685677.000000 0 0 1
-26.089666 -18.521600 12.209929 34.246207 0.617353 1.206241 0.079685 -0.016783 -856212.000000 0 0 1
-25.039256 -17.794600 11.598029 32.834835 0.617850 1.209782 0.097185 -0.011372 106288.000000 0 0 1
-24.693166 -16.646800 12.355429 32.241666 0.593163 1.177524 0.097316 -0.008195 173943.000000 0 0 1
-23.931966 -16.881000 13.670129 32.319956 0.614324 1.134084 0.070974 -0.006600 -825653.000000 0 0 1
-24.768066 -17.165300 14.733529 33.543725 0.606041 1.116051 0.075031 -0.006767 -331414.000000 0 0 1
-24.012066 -17.433800 15.896529 33.663279 0.627992 1.078987 0.074671 -0.006639 -495040.000000 0 0 1
-24.846866 -17.843000 17.120829 35.055131 0.622783 1.060544 0.057434 0.005473 198700.000000 0 0 1
-25.720576 -16.805800 17.571029 35.393841 0.578761 1.051300 0.078324 0.003022 236391.000000 0 0 1
-26.791726 -17.346200 18.301329 36.791655 0.574578 1.050161 0.067188 0.015070 -301753.000000 0 0 1
-27.723616 -16.368000 19.059629 37.413631 0.533330 1.036274 0.088054 -0.000193 -78075.600000 0 0 1
-27.173886 -15.755900 20.231729 37.362967 0.525447 0.998586 0.089106 -0.008844 87738.900000 0 0 1
-28.097056 -14.892300 20.831629 38.015548 0.487382 0.990853 0.096544 -0.018070 -147287.000000 0 0 1
-27.470166 -14.244700 22.078129 38.012699 0.478379 0.951074 0.094084 -0.020689 -25428.500000 0 0 1
-26.471326 -13.331300 21.694729 36.730314 0.466534 0.938933 0.088147 -0.017296 258694.000000 0 0 1
-25.426766 -13.249800 22.681229 36.558389 0.480382 0.901530 0.090931 -0.025689 770872.000000 0 0 1
-24.210966 -12.422300 22.164429 35.096244 0.474061 0.887268 0.092309 -0.022324 299210.000000 0 0 1
-24.679666 -11.152800 21.654429 34.675426 0.424435 0.896319 0.112753 -0.023985 -276173.000000 0 0 1
-23.771066 -10.545400 20.824229 33.315425 0.417538 0.895584 0.124197 -0.031459 -1306520.000000 0 0 1
-23.460266 -9.070200 21.223829 32.910538 0.368919 0.869911 0.138704 -0.026788 315957.000000 0 0 1
-22.613366 -9.008000 22.412929 33.088484 0.379082 0.826624 0.130655 -0.030009 67723.300000 0 0 1
-21.259666 -9.208800 22.126329 32.036695 0.408760 0.808401 0.093665 -0.027961 -807681.000000 0 0 1
-20.404366 -9.267800 23.412629 32.409589 0.426347 0.763532 0.101813 -0.026428 104861.000000 0 0 1
-20.792166 -10.376600 24.172129 33.530282 0.462898 0.765690 0.108353 -0.024086 400078.000000 0 0 1
-20.069366 -10.377800 25.434229 34.020262 0.477231 0.726325 0.114825 -0.029491 -159642.000000 0 0 1
-20.354066 -11.659800 26.228129 35.187408 0.520216 0.729686 0.106962 -0.033358 1168290.000000 0 0 1
-21.612566 -11.671300 26.922929 36.444017 0.495152 0.739586 0.107840 -0.031198 1040650.000000 0 0 1
-22.765566 -12.198200 26.251529 36.826755 0.491890 0.777259 0.101746 -0.028153 964585.000000 0 0 1
-23.971466 -12.453400 27.200329 38.335053 0.479133 0.781948 0.090131 -0.027100 123890.000000 0 0 1
-23.898266 -13.584200 28.033929 39.262690 0.516874 0.775588 0.081970 -0.024347 9331.090000 0 0 1
-23.057066 -13.524800 29.198729 39.586794 0.530493 0.741306 0.086453 -0.014371 247000.000000 0 0 1
-23.326866 -14.509500 30.297229 40.897315 0.556445 0.736518 0.071960 -0.016642 -399926.000000 0 0 1
-23.233866 -15.807200 29.860729 41.004186 0.597417 0.755052 0.069524 -0.020614 -96751.900000 0 0 1
-23.346966 -16.765600 30.899529 42.201269 0.622775 0.749258 0.073897 -0.023394 -472444.000000 0 0 1
-24.759166 -17.163300 31.351029 43.479676 0.606154 0.765479 0.075211 -0.018484 -422972.000000 0 0 1
-25.365206 -16.254300 32.232329 44.119372 0.569888 0.751639 0.073878 -0.021486 -644686.000000 0 0 1
-26.547986 -16.752500 32.761329 45.373412 0.562922 0.764053 0.077639 -0.016930 -805541.000000 0 0 1
-27.356256 -15.725400 33.552029 46.058567 0.521712 0.754718 0.082109 -0.018327 -58368.700000 0 0 1
-26.834666 -15.568300 -32.478307 44.914493 0.525701 2.379097 0.090334 -0.016587 265673.000000 0 0 1
-27.603496 -14.614500 -31.775207 44.555587 0.486924 2.364790 0.090181 -0.019890 -130939.000000 0 0 1
-27.043166 -14.328100 -30.399007 43.136144 0.487221 2.352828 0.085206 -0.013330 -87847.800000 0 0 1
-27.404846 -15.288900 -29.445907 43.032981 0.508881 2.324390 0.091066 -0.005312 305181.000000 0 0 1
-26.721266 -15.017100 -28.230007 41.671005 0.512002 2.315086 0.099799 0.000827 -175263.000000 0 0 1
-27.332426 -15.855900 -27.089707 41.621188 0.525668 2.279517 0.091705 -0.000178 8315.620000 0 0 1
-28.593366 -15.443500 -26.610107 42.002143 0.495217 2.256918 0.105491 -0.008041 38209.900000 0 0 1
-28.733896 -14.206300 -25.959607 41.247508 0.459165 2.251528 0.097454 -0.010129 -604027.000000 0 0 1
-27.898036 -13.969800 -24.649607 39.762531 0.464243 2.239438 0.113495 -0.019782 490859.000000 0 0 1
-26.522156 -13.708700 -24.945407 38.905354 0.477058 2.266834 0.093265 -0.016032 659081.000000 0 0 1
-25.630056 -14.035800 -23.913707 37.759354 0.501022 2.256630 0.081182 -0.018262 -95059.400000 0 0 1
-24.992886 -15.461300 -24.009607 37.949405 0.554004 2.255798 0.070304 -0.003829 -583969.000000 0 0 1
-24.004666 -15.583800 -25.023607 38.016572 0.575812 2.289260 0.081282 -0.002241 180678.000000 0 0 1
-23.506466 -16.867100 -24.936007 38.194992 0.622409 2.282151 0.078785 -0.005742 18677.700000 0 0 1
-22.536966 -17.227300 -26.108407 38.553127 0.652655 2.314755 0.066329 -0.001546 378117.000000 0 0 1
-23.202666 -17.327200 -27.366907 39.843985 0.641435 2.327945 0.078374 -0.000402 621533.000000 0 0 1
-23.844066 -18.595300 -27.657407 40.978736 0.662346 2.311654 0.085492 -0.011281 -360419.000000 0 0 1
-24.604866 -18.491900 -28.945507 42.251534 0.644495 2.325504 0.083743 -0.006554 -651709.000000 0 0 1
-23.843566 -18.635300 -30.124707 42.699977 0.663399 2.353921 0.082960 -0.012272 295650.000000 0 0 1
-24.513366 -18.119700 -31.276007 43.673988 0.636538 2.369030 0.077257 -0.009093 379590.000000 0 0 1
-23.620866 -18.189000 -32.594307 44.172094 0.656204 2.400740 0.075466 -0.013119 175757.000000 0 0 1
-22.350266 -17.589900 -32.622407 43.280023 0.666770 2.424549 0.076577 -0.007871 611088.000000 0 0 1
-21.178166 -18.344900 -32.306307 42.763858 0.713834 2.427149 0.068720 -0.012663 387453.000000 0 0 1
-20.805666 -19.437600 -33.355307 43.855131 0.751416 2.435001 0.063167 -0.014429 -818956.000000 0 0 1
-20.586566 -19.006800 32.675029 43.043265 0.745520 0.708835 0.059153 -0.017490 -932.278000 0 0 1
-20.570466 -20.056100 31.703029 42.784031 0.772738 0.736236 0.052053 -0.021826 667455.000000 0 0 1
-21.890466 -20.844000 31.349929 43.548627 0.760915 0.767162 0.060720 -0.014983 376964.000000 0 0 1
-22.513666 -21.583800 32.380229 44.957812 0.764315 0.766654 0.054232 -0.012833 -186803.000000 0 0 1
-23.812166 -22.039100 32.084929 45.630953 0.746747 0.790993 0.056278 -0.002113 -11292.700000 0 0 1
-23.937766 -23.181500 31.060029 45.553529 0.769349 0.820527 0.067464 0.000913 -693731.000000 0 0 1
-23.216266 -24.301500 31.502629 46.064884 0.808233 0.817735 0.061166 0.001074 -73393.900000 0 0 1
-23.263366 -25.401140 30.632129 46.094788 0.829299 0.843910 0.081741 0.002094 -49401.900000 0 0 1
-22.622466 -26.624370 31.368429 46.953289 0.866482 0.839174 0.103833 -0.006928 -196524.000000 0 0 1
-23.363966 -27.210780 32.414629 48.342628 0.861314 0.835889 0.088907 -0.009213 -584141.000000 0 0 1
-22.844266 -28.360590 32.987529 49.136144 0.892715 0.834768 0.092141 -0.017290 -1194330.000000 0 0 1
-23.837966 -28.989900 -33.399107 50.241052 0.882614 2.297992 0.096580 -0.023578 -24283.700000 0 0 1
-24.966776 -29.637660 33.370629 51.140294 0.870731 0.859877 0.081961 -0.020104 364661.000000 0 0 1
-26.015616 -28.866530 32.839829 50.877728 0.837298 0.869163 0.079624 -0.016292 -1560670.000000 0 0 1
-27.114686 -28.508690 -33.597407 51.737195 0.810454 2.277573 0.065654 -0.014578 -1234040.000000 0 0 1
-28.149876 -27.719010 33.163929 51.581055 0.777686 0.872455 0.049883 -0.014260 134596.000000 0 0 1
-29.072966 -27.468300 -33.132907 51.937793 0.757025 2.262609 0.044087 -0.010031 -721060.000000 0 0 1
-30.214156 -26.575560 -33.558307 52.395759 0.721414 2.265916 0.038670 -0.014392 -563882.000000 0 0 1
-31.222136 -27.255610 33.044429 53.005890 0.717672 0.897699 0.039555 -0.015470 408380.000000 0 0 1
-32.277486 -26.306250 32.810129 53.012824 0.683822 0.903443 0.050619 -0.022381 311759.000000 0 0 1
