# x y z rho theta phi s1 s2 stress_xx np intf bulk
-0.742973 -10.668212 -14.450418 17.977134 1.501265 2.504489 0.000076 0.006161 -1843810.000000 1 0 0
2.178427 -13.368112 -13.040418 18.801715 -1.409259 2.337238 0.002188 0.011817 298592.000000 1 0 0
2.182827 -11.035612 -14.687718 18.500771 -1.375519 2.487989 0.005737 0.007058 1438100.000000 1 0 0
-5.541173 -6.116512 -16.416418 18.374305 0.834711 2.675752 0.013543 -0.010356 -1570110.000000 1 0 0
4.433627 -14.078312 -11.463318 18.688595 -1.265703 2.231137 -0.005426 0.006025 -276647.000000 1 0 0
13.963927 -10.745112 -7.971018 19.338713 -0.655859 1.995641 0.049254 -0.010606 762818.000000 1 0 0
7.083927 10.885788 -10.779018 16.878082 0.993894 2.263526 0.033259 -0.017788 742460.000000 1 0 0
5.907627 -4.111812 -12.612018 14.521366 -0.608048 2.622994 -0.001698 -0.001432 1392330.000000 1 0 0
13.666827 0.549188 -9.986818 16.935770 0.040162 2.201469 0.007624 0.002621 915321.000000 1 0 0
14.169927 5.035688 -10.293218 18.223483 0.341458 2.171027 -0.000008 0.001004 -533917.000000 1 0 0
4.122227 4.438888 -13.517418 14.812734 0.822370 2.720282 0.010444 -0.001895 672010.000000 1 0 0
10.280227 -4.965112 -13.749618 17.871413 -0.449937 2.448641 0.009267 -0.004284 -1942230.000000 1 0 0
2.627827 -7.412012 -12.039218 14.380062 -1.230086 2.562969 -0.000853 0.000576 1896360.000000 1 0 0
-5.558273 -1.985412 -15.193318 16.299484 0.343074 2.771061 0.013748 -0.011216 517729.000000 1 0 0
10.652627 0.057488 -9.682918 14.395856 0.005397 2.308538 0.004944 0.002225 1241600.000000 1 0 0
-1.727673 -9.424012 -16.891018 19.419149 1.389483 2.625618 0.027379 -0.007378 639362.000000 1 0 0
8.634327 1.928988 -18.047218 20.099122 0.219800 2.685796 0.011062 -0.003203 -1058700.000000 1 0 0
16.441727 -6.015712 -8.818118 19.603020 -0.350752 2.037377 0.066097 -0.003858 -1215630.000000 1 0 0
10.183127 7.603288 -9.935218 16.131170 0.641357 2.234327 0.016346 -0.003950 194527.000000 1 0 0
13.800727 -2.284912 -10.610518 17.557448 -0.164076 2.219723 0.021477 -0.000550 -20205.400000 1 0 0
7.374127 -1.792312 -13.747018 15.702568 -0.238431 2.637189 0.003812 0.000304 370914.000000 1 0 0
-2.791873 6.667088 -13.832118 15.606797 -1.174228 2.660064 0.007897 -0.009583 933785.000000 1 0 0
11.273327 1.849188 -13.961918 18.040027 0.162584 2.455838 0.005545 0.003745 1197400.000000 1 0 0
-2.423173 10.797188 -13.035618 17.099075 -1.350028 2.437745 0.009576 -0.004782 -1146900.000000 1 0 0
2.968427 -1.090312 -15.386418 15.708030 -0.352006 2.938888 0.012287 -0.005310 975812.000000 1 0 0
-9.052673 0.528588 -15.351418 17.829647 -0.058324 2.608039 0.023514 -0.002282 -1278600.000000 1 0 0
2.369527 -1.830712 -18.090518 18.336658 -0.657813 2.977559 0.016871 -0.011798 2343430.000000 1 0 0
1.027727 7.883388 -13.174618 15.387482 1.441161 2.598647 0.010434 -0.007707 800472.000000 1 0 0
9.295327 -9.084212 -9.889518 16.331827 -0.773912 2.221236 0.008468 -0.001753 427716.000000 1 0 0
3.941227 7.357988 -13.529818 15.897460 1.079045 2.588812 0.013702 -0.006289 707129.000000 1 0 0
-2.766973 9.109388 -15.539718 18.224158 -1.275903 2.591926 0.007723 -0.007852 406495.000000 1 0 0
5.573327 -7.702412 -15.257318 17.977066 -0.944418 2.584338 0.007035 -0.003617 745376.000000 1 0 0
4.268527 7.286688 -16.416218 18.460996 1.040885 2.666473 0.023485 -0.006699 -56987.000000 1 0 0
-0.228173 5.095088 -13.462418 14.396134 -1.526043 2.779454 0.013141 -0.007028 2645160.000000 1 0 0
8.826527 4.391188 -16.610418 19.315696 0.461645 2.605956 0.010343 -0.002799 -1305630.000000 1 0 0
5.417427 0.344388 -14.488918 15.472423 0.063485 2.783123 0.004638 0.001481 -10230.800000 1 0 0
6.263327 7.998388 -11.650118 15.457320 0.906462 2.424464 0.011509 -0.004817 742953.000000 1 0 0
2.753927 -8.330612 -15.003918 17.381046 -1.251527 2.612439 0.004556 -0.000900 515189.000000 1 0 0
4.116827 11.504488 -13.799218 18.431493 1.227150 2.416859 0.028189 -0.018352 -1943980.000000 1 0 0
0.738427 -4.482112 -13.758418 14.488916 -1.407513 2.822697 0.010711 -0.004634 1591480.000000 1 0 0
8.598127 -0.032312 -11.684418 14.507049 -0.003758 2.507198 -0.004510 0.002181 -32234.500000 1 0 0
-0.896873 -4.989112 -16.223618 16.997100 1.392930 2.838752 0.006731 -0.015075 279385.000000 1 0 0
4.552927 0.896688 -11.774018 12.655461 0.194459 2.766165 0.002620 -0.000333 323958.000000 1 0 0
-2.940673 -7.068512 -15.578618 17.358132 1.176553 2.684824 0.009515 -0.007092 528931.000000 1 0 0
11.349427 -3.728612 -11.411318 16.520600 -0.317420 2.333298 0.013495 -0.004251 1289850.000000 1 0 0
6.563827 -7.056812 -12.521118 15.800659 -0.821576 2.485600 0.000813 -0.002441 -1784600.000000 1 0 0
3.618427 -3.959912 -14.718218 15.665244 -0.830428 2.792099 0.016140 -0.003291 3356770.000000 1 0 0
-0.643173 -1.528712 -18.343718 18.418540 1.172549 3.051425 0.024955 -0.020308 444333.000000 1 0 0
14.936627 2.890488 -8.410518 17.383744 0.191154 2.075805 -0.001842 0.001618 -1159960.000000 1 0 0
6.986927 4.386388 -14.322018 16.528090 0.560610 2.618996 0.006593 -0.000134 4389240.000000 1 0 0
10.133527 -9.655212 -13.978018 19.781215 -0.761232 2.355522 0.023161 -0.014716 -1610560.000000 1 0 0
9.026327 -3.234112 -15.644918 18.349320 -0.344048 2.591767 0.013524 -0.005330 -46289.400000 1 0 0
-5.188073 -2.028512 -18.079918 18.918626 0.372720 2.842715 0.009747 -0.008730 -2156310.000000 1 0 0
5.050327 -8.995712 -11.072918 15.134007 -1.059231 2.391547 -0.010330 0.003991 1291480.000000 1 0 0
-2.486273 3.999288 -17.109218 17.745456 -1.014589 2.873004 0.012469 -0.006128 720808.000000 1 0 0
9.608927 9.429588 -14.442818 19.744458 0.775979 2.391297 0.049735 -0.015023 159651.000000 1 0 0
9.886927 10.068388 -11.574818 18.251032 0.794491 2.257771 0.029250 -0.014503 761429.000000 1 0 0
12.035627 -5.951412 -9.699218 16.563528 -0.459224 2.196388 0.020073 -0.001672 -72853.600000 1 0 0
8.224227 7.034788 -13.640818 17.412584 0.707606 2.470895 0.014307 -0.002768 467623.000000 1 0 0
4.013727 -4.229512 -17.632318 18.571414 -0.811569 2.822222 0.025909 -0.013254 1195610.000000 1 0 0
9.382727 -7.496212 -12.350318 17.226698 -0.674093 2.370183 0.009539 -0.006746 1673170.000000 1 0 0
11.937827 -8.710212 -8.846718 17.223354 -0.630337 2.110226 0.031053 -0.007802 612230.000000 1 0 0
-2.848873 -2.520812 -13.911318 14.422044 0.724379 2.874670 0.007620 -0.010456 -1473580.000000 1 0 0
-0.385473 6.175488 -17.584018 18.640894 -1.508457 2.803242 0.025740 -0.007590 3609640.000000 1 0 0
1.013727 -8.372412 -17.522518 19.446428 -1.450303 2.693018 0.014381 -0.009507 653770.000000 1 0 0
0.035527 8.550288 -15.975218 18.119500 1.566641 2.650162 0.020844 -0.011709 -689449.000000 1 0 0
1.868027 3.367388 -14.945418 15.433546 1.064321 2.889419 0.017741 -0.004252 3293770.000000 1 0 0
-1.867673 -0.510212 -15.857118 15.974878 0.266674 3.020097 0.017394 -0.012329 2451710.000000 1 0 0
14.183027 -4.335512 -8.476918 17.082537 -0.296662 2.090051 0.033989 -0.001936 165506.000000 1 0 0
0.689327 0.587188 -14.671218 14.699136 0.705554 3.079950 0.012814 -0.007695 2517860.000000 1 0 0
8.828627 2.783188 -12.536718 15.583969 0.305384 2.505566 -0.001951 0.002787 3420050.000000 1 0 0
6.006627 1.045588 -17.254518 18.300033 0.172345 2.801933 0.019021 0.003098 -248282.000000 1 0 0
15.343727 1.536688 -12.252018 19.695262 0.099818 2.242192 0.024525 -0.004447 -1804640.000000 1 0 0
8.750827 -11.216612 -11.878918 18.533701 -0.908266 2.266514 0.013977 -0.006863 749053.000000 1 0 0
-4.633673 0.785688 -15.113218 15.827116 -0.167963 2.840099 0.012348 -0.010470 1980870.000000 1 0 0
2.363427 5.125788 -17.273718 18.172530 1.138762 2.825767 0.028904 -0.007508 938597.000000 1 0 0
5.917527 -11.685512 -12.339118 17.995059 -1.102043 2.326354 -0.002097 0.005753 655613.000000 1 0 0
12.869227 7.163588 -8.578618 17.044844 0.507930 2.098206 0.013050 -0.003102 1478310.000000 1 0 0
-4.949573 3.652588 -15.652418 16.817784 -0.635751 2.767136 0.009261 -0.007471 -171144.000000 1 0 0
-0.554573 -4.377812 -19.148818 19.650700 1.444789 2.915099 0.024150 -0.022526 -2043970.000000 1 0 0
9.843327 4.477288 -10.281318 14.921217 0.426884 2.330960 0.001838 0.001182 1207310.000000 1 0 0
13.364427 3.639488 -12.786618 18.850766 0.265879 2.316253 0.008829 -0.003568 529875.000000 1 0 0
-6.270173 5.902488 -17.056318 19.106868 -0.755202 2.674053 0.010716 -0.006713 -821140.000000 1 0 0
-10.061373 3.231188 -15.469918 18.734732 -0.310744 2.542300 0.023189 -0.010154 -468997.000000 1 0 0
10.641427 13.610388 -8.255318 19.147661 0.907214 2.016552 0.055291 -0.014541 536668.000000 1 0 0
7.437927 13.413688 -12.299018 19.660001 1.064503 2.246679 0.057908 -0.024254 1922460.000000 1 0 0
5.202027 15.072488 -11.407618 19.605477 1.238463 2.191809 0.036131 -0.021079 -258312.000000 1 0 0
14.145527 9.434988 -9.771218 19.611008 0.588229 2.092378 0.043287 -0.016837 125643.000000 1 0 0
8.407927 -17.349012 -1.933918 19.375797 -1.119517 1.670774 0.037956 0.001393 419544.000000 1 0 0
0.768227 -15.995312 -0.083718 16.013969 -1.522805 1.576024 0.009448 -0.007034 2444700.000000 1 0 0
-9.129673 -11.708312 7.600082 16.679231 0.908519 1.097681 0.037647 -0.012237 -719181.000000 1 0 0
2.053727 -15.918612 -2.625218 16.263818 -1.442491 1.732920 0.010569 -0.005432 2498990.000000 1 0 0
-1.307973 -11.075912 -9.471318 14.631900 1.453249 2.274841 0.004643 0.004037 841413.000000 1 0 0
-4.749373 -12.619012 -12.965318 18.705493 1.210828 2.336617 0.027587 -0.006420 1974910.000000 1 0 0
-8.160273 -17.994812 -1.735718 19.834718 1.145053 1.658417 0.020140 -0.011222 156571.000000 1 0 0
-11.261573 -7.098012 -8.845818 15.982906 0.562391 2.157303 0.021832 -0.007611 2179510.000000 1 0 0
-13.590873 -11.524912 -4.595018 18.402435 0.703325 1.823163 0.013553 -0.002307 616808.000000 1 0 0
-5.771873 -13.395212 9.780782 17.561603 1.163947 0.980098 0.026275 -0.015233 568722.000000 1 0 0
0.148127 -14.039212 -3.695318 14.518154 -1.560246 1.828159 0.012401 -0.001991 -454766.000000 1 0 0
-14.767573 -11.743212 2.020882 18.975463 0.671809 1.464094 0.005116 0.002555 434329.000000 1 0 0
-4.012873 -16.512712 -7.434318 18.548366 1.332400 1.983194 0.006159 -0.006967 1273280.000000 1 0 0
0.519027 -15.335912 -9.207618 17.895246 -1.536965 2.111254 0.003303 0.004219 1322970.000000 1 0 0
4.565727 -14.198612 -2.612018 15.141634 -1.259678 1.744169 0.009318 0.000073 1642370.000000 1 0 0
-3.563173 -18.138612 -2.286918 18.626203 1.376825 1.693887 0.014226 -0.014271 529699.000000 1 0 0
-0.874573 -13.558612 0.723882 13.606059 1.506382 1.517568 0.007646 -0.001543 2349860.000000 1 0 0
-8.487073 -11.385912 -10.531418 17.679937 0.930245 2.208897 0.016593 -0.008156 2281950.000000 1 0 0
-3.671773 -14.142812 -0.376718 14.616530 1.316783 1.596573 0.003751 0.000134 5265290.000000 1 0 0
-1.577273 -14.989912 -7.266218 16.732698 1.465960 2.020005 0.001987 0.002171 381924.000000 1 0 0
-14.144173 -7.939012 -1.758518 16.314960 0.511471 1.678792 0.003040 -0.001165 1136470.000000 1 0 0
-10.645473 -7.221612 -11.612318 17.329850 0.596064 2.305108 0.030462 -0.009473 -1546760.000000 1 0 0
-9.476373 -14.749812 6.784582 18.798647 0.999730 1.201555 0.036800 -0.008648 899683.000000 1 0 0
-2.470873 -14.286412 -12.306318 19.017157 1.399538 2.274593 0.022508 0.001507 -526745.000000 1 0 0
2.279827 -17.780412 -4.833418 18.566168 -1.443271 1.834165 0.022921 -0.011976 560841.000000 1 0 0
-6.564473 -9.675812 -9.198518 14.877042 0.974686 2.237378 0.010760 -0.007428 717404.000000 1 0 0
-10.982973 -15.499612 0.433382 19.001355 0.954324 1.547986 0.018664 -0.010119 168359.000000 1 0 0
-12.638773 -11.156512 4.112382 17.352753 0.723186 1.331533 0.020203 -0.005813 1916640.000000 1 0 0
-16.970973 -8.870612 -1.531318 19.210586 0.481637 1.650593 0.002073 -0.006443 6624.740000 1 0 0
-1.555373 -19.328612 -4.018818 19.803165 1.490499 1.775154 0.015936 -0.011501 76082.800000 1 0 0
3.218227 -14.228012 -8.743118 17.006923 -1.348350 2.110745 -0.001253 0.005249 1249290.000000 1 0 0
-4.198373 -7.898512 -13.040818 15.813784 1.082236 2.540377 0.008902 -0.002330 1182680.000000 1 0 0
5.599627 -16.538712 1.299482 17.509240 -1.244334 1.496511 0.019037 -0.000306 3084750.000000 1 0 0
-2.804673 -13.852912 -3.215518 14.495134 1.371036 1.794492 0.005672 0.000622 425213.000000 1 0 0
-0.357573 -14.000812 3.671682 14.478669 1.545262 1.314404 0.008808 -0.002205 -3504140.000000 1 0 0
1.271127 -16.159012 7.136982 17.710617 -1.492294 1.156028 0.025583 -0.014958 1521800.000000 1 0 0
-5.488873 -10.224412 -14.543318 18.605763 1.078113 2.468114 0.024557 -0.009580 381692.000000 1 0 0
-0.376673 -17.313912 -5.880018 18.289014 1.549044 1.898115 0.020873 -0.009749 -73221.300000 1 0 0
-6.496373 -13.489812 -1.263318 15.025773 1.121996 1.654972 0.005517 -0.000904 2710690.000000 1 0 0
-1.633973 -17.717112 -0.165718 17.793071 1.478831 1.580110 0.008275 -0.007718 776025.000000 1 0 0
-9.512173 -9.885112 -4.892918 14.564941 0.804622 1.913397 0.012346 -0.002521 1784080.000000 1 0 0
-0.681073 -16.726012 4.896682 17.441354 1.530099 1.286220 0.023440 -0.009495 3121770.000000 1 0 0
-6.747973 -9.923012 -6.305818 13.555982 0.973597 2.054621 0.011005 -0.004127 3319660.000000 1 0 0
-6.146473 -14.571712 -8.539418 17.973191 1.171632 2.065896 0.020701 -0.004547 68053.300000 1 0 0
-5.733973 -12.267612 -10.272718 16.997102 1.133561 2.219784 0.021655 -0.006956 -209311.000000 1 0 0
-10.664373 -12.211212 -8.728718 18.412851 0.852915 2.064688 0.017157 -0.015690 124432.000000 1 0 0
4.148327 -16.976912 6.819782 18.759893 -1.331141 1.198742 0.029114 -0.014033 1120240.000000 1 0 0
-6.684373 -14.451812 -4.121618 16.447597 1.137573 1.824087 0.008320 -0.004549 -251261.000000 1 0 0
-2.821273 -12.302312 -7.137618 14.500071 1.345366 2.085466 0.005929 0.000924 4351540.000000 1 0 0
-7.012273 -12.886312 4.500382 15.345437 1.072444 1.273149 0.009937 -0.003129 1959030.000000 1 0 0
2.646527 -16.352512 2.372482 16.734319 -1.410345 1.428544 0.011583 -0.005919 2409700.000000 1 0 0
-6.184773 -11.958812 7.236082 15.284812 1.093505 1.077631 0.013586 -0.007820 1921880.000000 1 0 0
-11.214573 -12.931712 -0.902518 17.140897 0.856393 1.623474 0.008627 0.002432 2318980.000000 1 0 0
-14.193973 -8.756612 4.641282 17.311517 0.552771 1.299372 0.022393 -0.006320 -770110.000000 1 0 0
-7.835373 -15.697012 4.508182 18.113888 1.107818 1.319273 0.024325 -0.000437 1430400.000000 1 0 0
-16.411573 -9.254612 1.225882 18.880952 0.513458 1.505824 -0.009565 0.003295 -364672.000000 1 0 0
-6.458673 -17.150812 2.406082 18.483886 1.210640 1.440254 0.020003 -0.008765 2626890.000000 1 0 0
-11.588473 -15.009012 -4.559118 19.502531 0.913300 1.806750 0.024357 -0.000562 -430404.000000 1 0 0
-10.118973 -9.949712 -12.547118 18.942559 0.776964 2.294784 0.025849 -0.006996 150200.000000 1 0 0
-4.341973 -16.062712 -4.475818 17.230682 1.306792 1.833569 0.001064 -0.003861 27874.800000 1 0 0
-11.849573 -8.299812 0.104682 14.467557 0.611015 1.563561 0.001146 0.001856 1944270.000000 1 0 0
-9.633673 -11.358412 3.496682 15.298626 0.867375 1.340196 0.011558 0.002514 2927600.000000 1 0 0
-14.249173 -13.023412 -0.581118 19.312842 0.740484 1.600891 0.012474 0.002527 1035250.000000 1 0 0
5.606727 -14.916512 -7.161718 17.470774 -1.211260 1.993169 0.009424 -0.005958 555614.000000 1 0 0
-7.509773 -10.621512 -1.300118 13.073007 0.955365 1.670412 0.002883 0.004192 1041020.000000 1 0 0
-11.584473 -8.233212 -6.045018 15.444353 0.617878 1.972956 0.013864 -0.008311 -841502.000000 1 0 0
-14.314773 -6.632012 -9.278218 18.302503 0.433858 2.102424 0.038748 -0.010633 2061270.000000 1 0 0
-3.758573 -16.470212 1.465282 16.957058 1.346434 1.484277 0.012111 -0.009027 512301.000000 1 0 0
-7.952773 -15.702912 0.213282 17.603225 1.102000 1.558680 0.023504 -0.008763 2381290.000000 1 0 0
1.179527 -18.538412 3.713182 18.943382 -1.507256 1.373504 0.019330 -0.012737 515675.000000 1 0 0
-14.060773 -8.706712 -4.556318 17.154364 0.554432 1.839630 0.010137 -0.008828 2302.020000 1 0 0
-3.335473 -14.502412 11.129582 18.582597 1.344733 0.928638 0.011701 -0.018862 -810021.000000 1 0 0
-10.866673 -12.217812 -3.748218 16.775239 0.843862 1.796136 0.010345 -0.003964 1172610.000000 1 0 0
-10.009973 -10.713812 0.510382 14.671258 0.819348 1.536001 0.005179 0.003519 1182020.000000 1 0 0
-0.038073 -13.208112 -11.076518 17.237892 1.567914 2.268641 0.002653 0.004929 1932070.000000 1 0 0
-5.927873 -12.688212 -6.313518 15.361996 1.133735 1.994328 0.006159 -0.002907 2113900.000000 1 0 0
1.790127 -15.869212 10.038982 18.863128 -1.458466 1.009598 0.028808 -0.014888 681237.000000 1 0 0
-9.039373 -15.769712 -5.527818 18.998707 1.050308 1.866024 0.030822 -0.004504 640848.000000 1 0 0
-3.171873 -15.545112 5.925282 16.935768 1.369516 1.213366 0.010418 -0.006149 -2213810.000000 1 0 0
-17.447873 -5.538212 -6.525218 19.433953 0.307356 1.913212 0.033760 -0.010922 370835.000000 1 0 0
18.796727 5.541488 -3.051618 19.832736 0.286690 1.725278 0.031331 -0.007280 869489.000000 1 0 0
12.882227 -12.607612 -5.886018 18.961774 -0.774625 1.886426 0.050342 -0.004084 -202256.000000 1 0 0
11.030827 -13.541712 -1.562818 17.535664 -0.887227 1.660037 0.035370 -0.009671 2415510.000000 1 0 0
18.671627 -2.893812 4.677582 19.464932 -0.153761 1.328113 0.050166 -0.017502 1200300.000000 1 0 0
8.806127 -16.756112 4.986582 19.575014 -1.086920 1.313215 0.032299 -0.022198 -794817.000000 1 0 0
18.230227 -0.973712 6.779282 19.474290 -0.053361 1.215237 0.076470 -0.018367 468417.000000 1 0 0
17.959927 -4.207712 -5.027518 19.119094 -0.230133 1.836883 0.059225 -0.007569 141163.000000 1 0 0
5.311127 -11.862512 14.807882 19.702808 -1.149837 0.720370 0.009264 0.001748 -715936.000000 1 0 0
16.014927 -8.897412 -0.827018 18.339187 -0.507109 1.615907 0.053382 -0.004040 -50647.500000 1 0 0
13.832527 -12.536712 -1.305418 18.713954 -0.736296 1.640609 0.046917 -0.006997 -441279.000000 1 0 0
11.128227 -1.884912 13.944082 17.939558 -0.167789 0.680463 0.011605 -0.000874 -678091.000000 1 0 0
17.016627 -6.116112 -1.344218 18.132274 -0.345042 1.644998 0.049728 -0.007169 -353231.000000 1 0 0
17.677627 3.645688 -1.127418 18.084817 0.203380 1.633177 0.023835 -0.004934 -1030320.000000 1 0 0
9.784627 -11.064012 9.453282 17.536129 -0.846687 1.001458 0.011982 -0.007177 1024190.000000 1 0 0
9.116527 -11.084712 4.340382 14.994026 -0.882521 1.277119 0.005642 -0.005910 -2089450.000000 1 0 0
14.078227 -10.261012 6.754282 18.684356 -0.629832 1.200927 0.021809 -0.014232 88542.100000 1 0 0
16.212527 -0.548112 -4.617018 16.866041 -0.033795 1.848082 0.017652 0.000599 -29187.300000 1 0 0
15.857927 -0.534312 -1.611318 15.948533 -0.033681 1.672001 0.020110 -0.000749 1659470.000000 1 0 0
12.885027 -5.130912 -0.296618 13.872208 -0.378960 1.592180 0.012787 -0.003478 1559960.000000 1 0 0
14.296027 -7.415212 1.069582 16.140191 -0.478488 1.504480 0.031821 -0.004963 1896630.000000 1 0 0
15.597827 2.455688 3.663682 16.209417 0.156156 1.342804 0.033898 -0.010450 1264950.000000 1 0 0
15.899427 -7.056512 5.023182 18.105759 -0.417704 1.289672 0.041987 -0.017525 -958983.000000 1 0 0
13.810327 -12.116012 3.204982 18.649257 -0.720140 1.398083 0.024897 -0.010690 1174640.000000 1 0 0
13.930427 -0.999312 9.222282 16.736365 -0.071613 0.987195 0.034874 -0.008939 -279606.000000 1 0 0
14.109727 -2.808712 -1.606218 14.475953 -0.196494 1.681983 0.008600 0.001671 104176.000000 1 0 0
15.084727 1.801588 8.963682 17.639226 0.118868 1.037741 0.053594 -0.012046 -1853840.000000 1 0 0
14.435327 -10.258812 -2.993018 17.960514 -0.617854 1.738222 0.058980 -0.004925 -125498.000000 1 0 0
7.270727 -12.602712 6.124082 15.785950 -1.047522 1.172395 0.003266 -0.007182 152481.000000 1 0 0
12.341827 -4.677712 6.981182 14.931128 -0.362284 1.084269 0.014189 -0.005025 2878680.000000 1 0 0
14.996027 -9.163812 -5.609718 18.447906 -0.548529 1.879773 0.072835 -0.006095 -702689.000000 1 0 0
14.308727 -4.522512 4.703382 15.726239 -0.306131 1.267069 0.024288 -0.011651 1153620.000000 1 0 0
17.220827 -4.177812 1.000182 17.748560 -0.238004 1.514414 0.039872 -0.009688 -2566910.000000 1 0 0
10.253627 -14.434812 1.202482 17.746736 -0.953164 1.502986 0.029811 -0.007041 -1088830.000000 1 0 0
16.432627 -2.533612 8.584982 18.712358 -0.152977 1.094167 0.055424 -0.014806 1459080.000000 1 0 0
16.085627 -2.569012 3.202482 16.601299 -0.158371 1.376674 0.031255 -0.007573 1392010.000000 1 0 0
7.812527 -15.149312 2.686482 17.255562 -1.094666 1.414473 0.012635 -0.007436 2983630.000000 1 0 0
16.621727 -7.060812 7.857482 19.694591 -0.401696 1.160407 0.048238 -0.013010 358004.000000 1 0 0
10.270227 -8.484312 5.173782 14.290876 -0.690459 1.200347 0.008875 -0.010297 1258900.000000 1 0 0
10.974427 -11.811212 2.251182 16.279146 -0.822106 1.432066 0.018168 -0.010018 1183380.000000 1 0 0
12.451427 -7.190612 11.861382 18.639617 -0.523706 0.881035 0.013173 -0.014608 -86713.700000 1 0 0
15.252927 -9.852912 4.312582 18.663602 -0.573536 1.337620 0.029864 -0.015814 -129431.000000 1 0 0
7.341727 -10.222712 7.799082 14.806434 -0.947974 1.016040 0.003821 -0.002311 1121880.000000 1 0 0
15.201027 -3.386812 -4.343518 16.168113 -0.219221 1.842785 0.031689 0.000308 683190.000000 1 0 0
11.781227 -9.010712 9.702782 17.723832 -0.652929 0.991491 0.007199 -0.010931 -2564360.000000 1 0 0
16.975027 -6.625912 2.407982 18.380768 -0.372145 1.439413 0.047679 -0.009964 1473330.000000 1 0 0
17.524527 3.932288 1.912282 18.061804 0.220732 1.464723 0.038238 -0.008002 -821654.000000 1 0 0
14.759027 -4.949212 8.705882 17.835806 -0.323551 1.060870 0.033842 -0.014991 1055510.000000 1 0 0
12.874527 -12.767012 5.927582 19.075803 -0.781205 1.254827 0.013446 -0.010576 -691672.000000 1 0 0
18.273427 0.727988 -0.814618 18.306057 0.039818 1.615311 0.039448 -0.002616 -332808.000000 1 0 0
11.675127 -2.033412 11.047482 16.201550 -0.172436 0.820469 0.009628 -0.003221 1159050.000000 1 0 0
5.931927 -12.453712 10.642682 17.422669 -1.126273 0.913659 0.009884 -0.003117 -1661830.000000 1 0 0
10.805427 -4.872912 10.997082 16.169055 -0.423659 0.822854 0.007767 -0.004447 1185080.000000 1 0 0
17.872527 1.296988 5.071882 18.623464 0.072442 1.294974 0.059750 -0.011046 92161.400000 1 0 0
12.347627 -7.802612 7.101882 16.241348 -0.563554 1.118234 0.012276 -0.013013 -1547560.000000 1 0 0
10.870227 -7.828512 14.155282 19.488957 -0.624141 0.757839 0.033102 -0.014158 -1344700.000000 1 0 0
14.153727 -0.291312 3.823482 14.663965 -0.020579 1.307008 0.014142 -0.004420 1951430.000000 1 0 0
11.713527 -7.662012 2.585082 14.233615 -0.579264 1.388165 0.013214 -0.005610 1907040.000000 1 0 0
9.238827 6.124988 3.563282 11.643384 0.585433 1.259771 0.008509 -0.003845 1107260.000000 1 0 0
-3.865073 14.767388 -9.945318 18.218778 -1.314808 2.148239 0.009550 -0.005756 981340.000000 1 0 0
8.871127 -6.365012 9.248982 14.309226 -0.622373 0.867986 0.004643 -0.003031 -689865.000000 1 0 0
5.829527 -10.529812 -8.470418 14.717619 -1.065177 2.184047 -0.004567 -0.000566 -547198.000000 1 0 0
5.380327 1.084388 0.554282 5.516434 0.198882 1.470148 0.001840 0.001166 3425680.000000 1 0 0
-0.580373 9.941588 10.975782 14.820249 -1.512484 0.736843 0.003291 0.007207 1681280.000000 1 0 0
-6.319273 -5.267412 1.118082 8.302346 0.694864 1.435715 0.003346 0.000546 2193750.000000 1 0 0
-1.000073 3.982488 -10.912518 11.659477 -1.324766 2.781702 0.011612 -0.008796 2784430.000000 1 0 0
10.845627 5.801188 1.221382 12.360145 0.491166 1.471819 0.004808 -0.002718 2124930.000000 1 0 0
-10.072873 -1.737812 -13.593318 17.007676 0.170842 2.496836 0.026102 -0.006567 1379270.000000 1 0 0
7.394327 10.926388 -6.078518 14.526198 0.975852 2.002537 0.002249 -0.002065 1852250.000000 1 0 0
-12.402773 -2.938312 -9.657418 15.991503 0.232619 2.219193 0.024176 -0.005197 1134270.000000 1 0 0
-3.925873 -8.689112 2.469182 9.849366 1.146434 1.317399 0.008187 -0.000502 -961467.000000 1 0 0
7.993327 -6.675312 -5.938618 11.988338 -0.695786 2.089053 -0.004528 -0.001771 239247.000000 1 0 0
14.270227 3.178288 -4.198818 15.210883 0.219145 1.850468 0.012141 -0.001753 1459260.000000 1 0 0
-2.422873 -5.004312 9.878982 11.336125 1.119903 0.512625 0.002247 -0.003107 1514430.000000 1 0 0
3.486527 -1.877512 -4.679718 6.130309 -0.493975 2.439317 0.001061 -0.000184 -1767150.000000 1 0 0
-3.975773 8.423088 -3.498618 9.949649 -1.129791 1.930111 0.001054 -0.000866 62851.400000 1 0 0
5.870327 0.054188 11.747182 13.132401 0.009231 0.463442 -0.005452 0.000115 527187.000000 1 0 0
7.134827 4.769388 12.308882 15.005379 0.589247 0.608865 -0.001899 0.000650 1393250.000000 1 0 0
1.075327 -14.560112 12.546982 19.250453 -1.497076 0.860873 0.010707 -0.009654 363928.000000 1 0 0
2.941127 8.746188 -9.195818 13.027245 1.246400 2.354477 0.008338 -0.001967 -91447.600000 1 0 0
-4.403573 -8.899212 -4.591718 10.939438 1.111295 2.003955 0.009286 0.000857 1084750.000000 1 0 0
5.765827 -6.607912 -4.044718 9.657588 -0.853348 2.002933 -0.001273 -0.004375 1249430.000000 1 0 0
-3.092473 3.384488 8.661182 9.799705 -0.830453 0.486829 0.001102 0.004836 767771.000000 1 0 0
-3.781773 3.134088 -11.149418 12.183343 -0.692018 2.726642 0.005986 -0.009926 593634.000000 1 0 0
3.022727 -6.075312 8.521982 10.893598 -1.109116 0.672458 0.000044 -0.000296 -4818.730000 1 0 0
-5.182273 -8.665312 10.457982 14.536608 1.031813 0.767824 0.008897 -0.006597 1319280.000000 1 0 0
-13.181873 -2.465412 6.536182 14.918502 0.184894 1.117284 0.024675 -0.002128 89273.500000 1 0 0
3.989227 -5.859012 -8.326418 10.934861 -0.973025 2.436353 -0.003455 -0.002683 3004090.000000 1 0 0
3.063827 -0.562012 12.420682 12.805320 -0.181418 0.245719 -0.003047 -0.000651 707754.000000 1 0 0
1.436627 -1.417312 -7.638318 7.900416 -0.778630 2.883289 0.008591 -0.005099 -820453.000000 1 0 0
3.633327 -3.535912 3.402482 6.105786 -0.771811 0.979720 0.001451 -0.002010 1899900.000000 1 0 0
1.637527 0.362688 -11.912418 12.029910 0.217966 3.001717 0.012684 -0.007550 -17411.600000 1 0 0
4.075627 3.587588 -10.740118 12.034603 0.721798 2.673513 0.003416 0.001024 3343900.000000 1 0 0
2.829427 3.216688 3.385082 5.459993 0.849362 0.902080 -0.007436 0.003955 -37047.500000 1 0 0
-5.331873 0.795288 2.520682 5.951066 -0.148066 1.133416 -0.000973 0.002992 844913.000000 1 0 0
-9.497873 -9.394412 5.703982 14.525838 0.779922 1.167254 0.012809 -0.001449 -1017700.000000 1 0 0
-3.069773 3.847188 -0.653818 4.965062 -0.897321 1.702864 -0.000956 -0.001017 -126122.000000 1 0 0
-15.842073 -6.573712 5.021982 17.871913 0.393330 1.285962 0.044024 -0.011336 -192702.000000 1 0 0
0.992127 6.696888 -8.109018 10.563560 1.423719 2.445948 0.003547 -0.000919 224376.000000 1 0 0
-1.612673 6.591688 -9.529918 11.699163 -1.330857 2.522803 0.004584 -0.004038 24419.500000 1 0 0
2.082627 -0.367212 5.215482 5.627915 -0.174528 0.385218 -0.001263 0.000076 3237280.000000 1 0 0
-3.443973 -0.578212 -6.391718 7.283498 0.166340 2.641549 0.009069 -0.006940 637074.000000 1 0 0
1.970227 -1.094412 -2.482218 3.352751 -0.507037 2.404391 0.004149 -0.000456 785875.000000 1 0 0
2.463227 -8.552012 -7.585118 11.693520 -1.290358 2.276619 -0.003744 0.001475 2208340.000000 1 0 0
-2.520273 14.010388 -5.556718 15.281357 -1.392814 1.942955 0.005778 0.002864 2832310.000000 1 0 0
6.951927 -5.091912 -8.258018 11.935314 -0.632172 2.334911 -0.004659 -0.003506 3898290.000000 1 0 0
-14.099073 -5.017612 -2.145018 15.118247 0.341906 1.713159 0.005863 0.000469 505250.000000 1 0 0
-2.738273 6.906488 -6.844418 10.101672 -1.193330 2.315227 0.003059 -0.001461 -3297780.000000 1 0 0
-5.732773 -1.055312 -8.080018 9.963185 0.182046 2.516634 0.010082 -0.008971 -270502.000000 1 0 0
-5.719373 -10.605412 3.509482 12.549998 1.076214 1.287377 0.003676 0.000223 -3602800.000000 1 0 0
8.070827 -7.529612 6.713982 12.919399 -0.750720 1.024317 0.006340 -0.006656 273596.000000 1 0 0
8.940427 -5.947912 13.172282 16.994643 -0.587044 0.683948 0.014128 -0.002852 1123400.000000 1 0 0
-4.709673 9.550288 -0.815818 10.679634 -1.112648 1.647261 0.001836 0.000785 1326230.000000 1 0 0
2.782927 6.577388 12.124882 14.071939 1.170532 0.532313 -0.002894 0.003976 1656590.000000 1 0 0
6.038627 -2.810112 10.950382 12.816888 -0.435550 0.546456 -0.002064 -0.000124 -172079.000000 1 0 0
-9.680173 -6.511112 -1.093718 11.717361 0.592115 1.664274 0.004393 0.000943 -197870.000000 1 0 0
0.952727 -13.301612 6.232482 14.720204 -1.499293 1.133605 0.010033 -0.003220 -447219.000000 1 0 0
-0.453573 -3.230612 8.749882 9.338255 1.431310 0.356875 -0.000442 -0.002345 2032940.000000 1 0 0
4.206327 0.699688 3.372782 5.436765 0.164833 0.901588 -0.004642 0.002113 1352220.000000 1 0 0
-10.316273 5.582488 8.335182 14.389750 -0.496011 0.952995 0.007508 -0.002557 909842.000000 1 0 0
9.272827 7.946988 -0.025618 12.212313 0.708555 1.572894 0.003138 -0.002096 -724224.000000 1 0 0
4.287727 2.873388 8.151982 9.648615 0.590405 0.564444 -0.005414 0.000669 3199210.000000 1 0 0
1.333527 2.553488 -9.859318 10.271551 1.089517 2.857322 0.010593 -0.005214 1257100.000000 1 0 0
-1.416573 -10.226912 3.042282 10.763451 1.433158 1.284241 0.008393 -0.003317 -1462140.000000 1 0 0
-10.012073 9.568188 9.114282 16.578961 -0.762732 0.988732 0.013054 -0.011018 1871250.000000 1 0 0
9.849427 -2.045612 -7.679918 12.656101 -0.204777 2.222844 0.004978 0.001553 1217140.000000 1 0 0
-5.129273 -1.956512 6.749382 8.700088 0.364405 0.682841 0.001106 -0.000070 759435.000000 1 0 0
3.172027 -7.777812 -4.825518 9.687195 -1.183558 2.092241 -0.003996 -0.000704 3771140.000000 1 0 0
-5.064273 4.918888 -13.078518 14.862367 -0.770836 2.646607 0.003527 -0.010815 2832740.000000 1 0 0
-5.613273 9.645788 5.367582 12.383900 -1.043762 1.122498 0.004121 -0.000013 1406330.000000 1 0 0
-0.454573 -1.820012 -9.405218 9.590475 1.326040 2.944721 0.011034 -0.008948 427493.000000 1 0 0
-16.763873 0.100888 6.331082 17.919827 -0.006018 1.209700 0.036502 -0.011736 39003.300000 1 0 0
-5.917573 -2.961512 4.152282 7.812149 0.464016 1.010407 -0.003193 0.002516 1581830.000000 1 0 0
1.014927 -5.585912 -5.130118 7.651837 -1.391063 2.305602 0.002717 -0.002531 1814110.000000 1 0 0
-7.054073 1.466288 -8.482118 11.129073 -0.204946 2.437437 0.005193 -0.007132 -318398.000000 1 0 0
7.978527 1.981488 4.825882 9.532698 0.243428 1.039971 0.002172 -0.000555 -1227810.000000 1 0 0
0.533127 -8.112512 -0.513018 8.146181 -1.505174 1.633815 0.005064 -0.000925 1655250.000000 1 0 0
5.451627 5.564688 -3.373818 8.489325 0.795661 1.979499 -0.001117 0.003696 685674.000000 1 0 0
-0.725873 -0.363812 -1.224418 1.469167 0.464612 2.556046 0.004532 -0.000524 2154970.000000 1 0 0
8.983527 6.417488 -6.386718 12.754532 0.620300 2.095251 0.003666 -0.000155 82207.900000 1 0 0
-14.899673 -7.173912 2.516482 16.727162 0.448723 1.419780 -0.001006 0.000470 349196.000000 1 0 0
-6.474073 6.847188 8.903082 12.963891 -0.813400 0.813774 0.006757 0.002392 591761.000000 1 0 0
-9.360173 -3.154312 -9.592318 13.768627 0.325041 2.341555 0.011199 -0.004227 1180190.000000 1 0 0
14.813327 3.463488 -1.263118 15.265185 0.229683 1.653636 0.009108 -0.002231 633577.000000 1 0 0
11.964427 1.686888 -5.866718 13.431735 0.140069 2.022813 0.005167 0.002871 -215641.000000 1 0 0
1.687127 -9.479712 12.719382 15.952868 -1.394668 0.647971 -0.001711 -0.000346 -917695.000000 1 0 0
-3.634973 6.313088 7.946382 10.780218 -1.048373 0.741988 0.002097 0.003608 2657050.000000 1 0 0
-4.116073 13.025088 -12.388518 18.440997 -1.264716 2.307422 0.002171 -0.009021 -109741.000000 1 0 0
-10.263973 7.813688 6.510882 14.449721 -0.650677 1.103372 0.004751 -0.004010 1380640.000000 1 0 0
8.026527 -9.292212 -7.153918 14.210872 -0.858350 2.098339 0.001255 -0.001712 -862564.000000 1 0 0
5.911327 -3.791212 -0.415418 7.034888 -0.570268 1.629882 0.002698 -0.003901 -1086530.000000 1 0 0
-1.735773 -4.448812 4.262882 6.401328 1.198797 0.842047 0.002212 -0.002037 390825.000000 1 0 0
9.968827 -1.985812 -2.593418 10.490319 -0.196628 1.820607 0.002635 0.000640 -933833.000000 1 0 0
13.474427 7.113488 1.419182 15.302810 0.485737 1.477923 0.008982 -0.008609 -944965.000000 1 0 0
5.436027 -3.736312 -3.295618 7.373705 -0.602168 2.034140 0.000285 -0.003470 -1906280.000000 1 0 0
-12.190873 -5.955912 1.971982 13.710543 0.454450 1.426466 0.005606 0.002262 1620060.000000 1 0 0
3.800027 -5.705012 -0.268918 6.860006 -0.983196 1.610007 0.004271 -0.004057 -271509.000000 1 0 0
-5.215273 3.785488 -8.699418 10.826304 -0.627863 2.504023 0.004647 -0.007740 1696660.000000 1 0 0
-1.795073 -9.200512 7.163082 11.797519 1.378111 0.918304 0.003900 -0.002296 2237830.000000 1 0 0
-7.491873 -7.478612 2.573582 10.894086 0.784512 1.332305 0.002153 0.000323 -4115980.000000 1 0 0
-5.796373 13.059388 -8.612718 16.683059 -1.153071 2.113269 0.007787 -0.010089 1416110.000000 1 0 0
9.253727 -13.936412 -4.103618 17.224829 -0.984645 1.811348 0.028614 -0.001378 64814.900000 1 0 0
-6.481773 -5.121612 -6.744418 10.664495 0.668710 2.255467 0.008510 -0.003584 904713.000000 1 0 0
3.427427 0.394888 -6.358418 7.234133 0.114708 2.644446 0.002539 -0.001579 1202390.000000 1 0 0
-3.597573 5.721388 5.005982 8.410509 -1.009474 0.933275 -0.000031 0.005621 503965.000000 1 0 0
-2.621673 -10.814612 -2.847718 11.486449 1.332965 1.821329 0.011613 0.000069 1126360.000000 1 0 0
-12.558273 -0.468612 1.834682 12.700231 0.037298 1.425829 0.006611 0.001311 531505.000000 1 0 0
8.436827 -12.020612 -6.046118 15.881773 -0.958821 1.961345 0.010611 -0.004505 20273.200000 1 0 0
6.077027 3.952288 1.059182 7.326166 0.576632 1.425713 -0.000508 -0.000036 -1076000.000000 1 0 0
3.612127 -4.730912 -11.018018 12.523007 -0.918701 2.646284 -0.002984 -0.002720 -201174.000000 1 0 0
-7.761873 4.281388 8.668482 12.398368 -0.504065 0.796570 0.005401 0.006770 1505910.000000 1 0 0
8.173327 8.817388 4.087182 12.698609 0.823287 1.243102 0.009764 -0.004499 2418890.000000 1 0 0
0.229027 10.531388 -6.353918 12.301824 1.549053 2.113557 0.000964 0.002844 965100.000000 1 0 0
5.368727 8.017088 3.325582 10.205706 0.980724 1.238880 -0.001180 -0.001047 2175040.000000 1 0 0
8.075727 6.711088 -3.785318 11.161752 0.693371 1.916791 0.002243 0.001177 996898.000000 1 0 0
10.460727 2.580988 -8.289418 13.594218 0.241900 2.226573 0.001794 0.002694 975885.000000 1 0 0
3.340527 -12.483912 -0.370818 12.928445 -1.309335 1.599483 0.003300 0.000749 -2741180.000000 1 0 0
0.597427 2.144288 5.242682 5.695665 1.299074 0.401518 -0.003505 0.003789 382352.000000 1 0 0
-4.872273 13.400988 1.436582 14.331409 -1.222079 1.470388 0.002130 -0.000010 2484360.000000 1 0 0
8.173827 4.126888 -8.071018 12.205900 0.467552 2.293266 0.001284 0.001539 221716.000000 1 0 0
-13.910573 -0.568512 -3.667018 14.397023 0.040846 1.828341 0.007461 -0.004857 474238.000000 1 0 0
-8.624673 0.034288 -0.544718 8.641925 -0.003976 1.633870 -0.000471 0.001661 -1030880.000000 1 0 0
1.866727 -3.780512 -1.155018 4.371614 -1.112140 1.838180 0.004710 -0.001821 -2131500.000000 1 0 0
8.141227 -5.634312 -0.314518 9.905755 -0.605385 1.602553 0.002448 -0.003496 419863.000000 1 0 0
-2.266173 -1.237112 7.375382 7.814233 0.499693 0.336732 -0.000873 0.000520 2309220.000000 1 0 0
-5.859573 8.830288 -11.774918 15.841631 -0.984936 2.408771 0.001269 -0.011107 -1255370.000000 1 0 0
-6.212773 9.199288 -8.929018 14.246151 -0.976804 2.248194 0.006996 -0.003610 -1067780.000000 1 0 0
-1.560573 13.854788 -8.323018 16.237708 -1.458631 2.108976 0.010552 -0.001908 59127.900000 1 0 0
-1.469173 7.234388 9.810582 12.277718 -1.370439 0.645073 0.001928 0.003060 2376110.000000 1 0 0
9.986127 2.330788 -3.912318 10.975497 0.229298 1.935272 0.000245 0.003364 -1285420.000000 1 0 0
-2.992073 -7.540712 -6.998518 10.714201 1.193061 2.282600 0.009738 -0.000199 1360440.000000 1 0 0
-5.569373 -5.056812 -1.585518 7.687856 0.737200 1.778524 0.006253 0.000418 617297.000000 1 0 0
5.606727 7.448888 -8.902518 12.890933 0.925574 2.333119 0.002008 -0.000849 614235.000000 1 0 0
-9.606673 5.240888 -7.485318 13.258396 -0.499418 2.170711 0.005551 -0.002741 266830.000000 1 0 0
-0.503073 6.103088 -5.382318 8.152921 -1.488553 2.291842 0.001101 0.000483 -2152710.000000 1 0 0
-8.312473 2.798488 -6.323718 10.812870 -0.324743 2.195470 0.003965 -0.004472 2094290.000000 1 0 0
3.672227 1.481688 -2.038718 4.453877 0.383507 2.046248 0.001003 0.000434 2949480.000000 1 0 0
-6.832273 12.360488 -3.486818 14.547148 -1.065843 1.812844 0.009389 0.000186 2520250.000000 1 0 0
-6.511473 3.155388 -2.367018 7.613050 -0.451243 1.886953 0.003102 -0.000389 -1546630.000000 1 0 0
12.082327 4.059488 -0.765818 12.769047 0.324136 1.630807 0.001673 -0.001094 115102.000000 1 0 0
2.230127 12.406288 -5.601318 13.793630 1.392938 1.988957 0.003653 -0.000872 201994.000000 1 0 0
-9.163973 -1.449812 -4.348618 10.246503 0.156907 2.009096 0.004041 0.000566 1250090.000000 1 0 0
-1.185173 5.747088 3.341082 6.752517 -1.367426 1.053202 -0.004088 0.002846 -75002.300000 1 0 0
11.584327 2.771088 11.993282 16.903088 0.234798 0.781962 0.023345 0.000372 -686652.000000 1 0 0
-6.980173 -2.355712 -5.762018 9.352702 0.325483 2.234553 0.011499 -0.004046 -120301.000000 1 0 0
7.574927 -7.383012 10.863782 15.162788 -0.772569 0.772058 0.007409 -0.000432 -96940.800000 1 0 0
-5.454273 -1.880112 -10.914818 12.345735 0.331949 2.655353 0.014137 -0.008071 -989700.000000 1 0 0
0.699227 -6.132212 4.487782 7.631063 -1.457261 0.942096 -0.002061 -0.002994 1272020.000000 1 0 0
-4.877473 -9.271712 7.415882 12.835485 1.086519 0.954810 0.003144 -0.004612 2117110.000000 1 0 0
-8.744173 9.330788 1.621482 12.890049 -0.817841 1.444669 0.009043 -0.003796 2245560.000000 1 0 0
-8.094573 7.178388 -9.067918 14.116604 -0.725483 2.268368 0.008562 -0.006738 415528.000000 1 0 0
-1.177973 -10.681312 -0.100518 10.746541 1.460957 1.580150 0.007260 -0.000038 -313627.000000 1 0 0
-4.032773 10.290188 7.787882 13.520441 -1.197288 0.956960 0.005173 0.002845 2084700.000000 1 0 0
-7.504773 12.078388 1.938382 14.351529 -1.014834 1.435318 0.002484 -0.006679 820393.000000 1 0 0
-8.152873 -8.312012 -2.852418 11.987292 0.795063 1.811055 0.009838 0.000576 1355670.000000 1 0 0
5.365127 4.587788 -8.143918 10.777560 0.707455 2.427422 0.002460 0.001793 -806423.000000 1 0 0
-8.995473 -0.063612 -10.258918 13.644339 0.007071 2.421707 0.012448 -0.008908 -987307.000000 1 0 0
-15.273373 -2.229212 -1.582918 15.516151 0.144931 1.672992 0.012169 -0.004178 -1331060.000000 1 0 0
-7.152373 -5.715612 8.865182 12.744258 0.674205 0.801511 0.005033 -0.001746 -1433820.000000 1 0 0
8.086327 3.484888 -0.918118 8.853026 0.406908 1.674690 -0.001676 0.003846 887013.000000 1 0 0
11.833527 7.257388 -5.861818 15.068608 0.550135 1.970352 0.000849 -0.003470 253868.000000 1 0 0
3.745927 13.364188 -9.491618 16.814408 1.297513 2.170615 0.010463 -0.006935 1449870.000000 1 0 0
-9.803173 5.395588 -0.544618 11.203177 -0.503144 1.619428 0.004238 0.000181 2542220.000000 1 0 0
11.272427 -1.278612 -5.246518 12.499137 -0.112946 2.003967 0.011019 0.000076 -680401.000000 1 0 0
10.595727 1.763988 -1.230318 10.811789 0.164968 1.684837 0.000764 0.001069 1603800.000000 1 0 0
14.612327 5.068088 4.767282 16.184332 0.333854 1.271800 0.026854 -0.013653 3433860.000000 1 0 0
0.973027 -0.863112 10.384282 10.465422 -0.725607 0.124605 -0.001641 -0.000874 1140670.000000 1 0 0
-7.972573 1.442588 -12.637318 15.011489 -0.179007 2.571485 0.006977 -0.009131 -1655810.000000 1 0 0
3.142427 -11.510212 -7.809618 14.260083 -1.304279 2.150356 -0.005173 0.004184 237092.000000 1 0 0
2.866627 4.973188 -6.890618 8.968320 1.047898 2.447022 0.001921 0.001513 -1247940.000000 1 0 0
6.481327 8.020988 0.689282 10.335326 0.891169 1.504055 0.001497 -0.002237 -298773.000000 1 0 0
-9.037673 -5.486212 6.787482 12.563756 0.545579 1.000070 0.003152 -0.000028 -419846.000000 1 0 0
-0.207673 -6.826912 -11.855918 13.682567 1.540386 2.618940 0.003665 0.001163 1743920.000000 1 0 0
6.440227 -13.564412 -4.651018 15.719471 -1.127521 1.871169 0.011098 0.000345 3354680.000000 1 0 0
-3.215373 -0.396912 10.062482 10.571173 0.122821 0.311485 0.004571 0.002148 1010160.000000 1 0 0
8.537327 8.555988 6.927482 13.931292 0.786490 1.050358 0.003876 -0.004143 -821295.000000 1 0 0
-7.908573 5.746488 -2.692818 10.139966 -0.628366 1.839586 0.004901 -0.001599 665604.000000 1 0 0
-5.376373 5.839388 -6.469918 10.240297 -0.826657 2.254682 0.004235 -0.002760 -118673.000000 1 0 0
3.392527 -13.569112 2.532182 14.214147 -1.325800 1.391695 0.007787 -0.004019 -2851760.000000 1 0 0
-11.252773 -7.140212 6.550782 14.849925 0.565422 1.113936 0.020322 -0.003564 -457106.000000 1 0 0
-12.866473 -3.822812 -6.770518 15.033294 0.288807 2.037974 0.012236 -0.005950 -715777.000000 1 0 0
6.121327 0.370088 -7.354518 9.575832 0.060385 2.446554 -0.005196 0.003087 1377200.000000 1 0 0
-1.532273 2.150088 -2.560618 3.677975 -0.951627 2.340891 0.002978 -0.001438 3123670.000000 1 0 0
7.569427 0.959888 -4.978118 9.110394 0.126138 2.148882 -0.001216 0.004794 274079.000000 1 0 0
3.714827 -4.505012 10.896982 12.362819 -0.881235 0.491911 -0.002166 0.001063 -33355.000000 1 0 0
6.011327 -2.555612 2.027082 6.839318 -0.401983 1.269889 0.003067 -0.003052 -680822.000000 1 0 0
-6.269473 7.685488 1.073982 9.976294 -0.886522 1.462934 0.003564 -0.000749 1652710.000000 1 0 0
6.079127 -3.403812 7.976182 10.590619 -0.510426 0.717979 -0.000647 -0.002233 265216.000000 1 0 0
6.829027 -2.293412 -7.882518 10.678457 -0.323998 2.401150 -0.002832 -0.002066 -73966.600000 1 0 0
12.082327 -8.194212 -5.818218 15.715578 -0.595944 1.950042 0.028147 -0.006033 1169690.000000 1 0 0
5.612527 -9.646212 10.036682 15.009492 -1.043839 0.838352 0.004051 0.003280 2754620.000000 1 0 0
-6.691773 7.557788 -4.477418 11.042973 -0.846098 1.988272 0.008823 -0.001812 1948890.000000 1 0 0
-1.309273 -7.571312 9.658382 12.341933 1.399564 0.672019 0.003362 -0.004279 -321094.000000 1 0 0
10.157727 -9.228212 0.794482 13.746655 -0.737487 1.512970 0.009087 -0.004251 762780.000000 1 0 0
11.154427 6.150888 9.715682 16.020273 0.503941 0.919193 0.020168 -0.008680 925130.000000 1 0 0
-15.222573 -4.361712 -4.962718 16.594572 0.279053 1.874500 0.013348 -0.008965 1827020.000000 1 0 0
-4.705073 -4.681712 7.968782 10.370999 0.782909 0.694503 0.001820 -0.003188 -1262510.000000 1 0 0
2.855727 10.957488 -11.048418 15.820533 1.315849 2.343899 0.011313 -0.005747 -88524.200000 1 0 0
9.863627 -1.329712 1.494782 10.064475 -0.134002 1.421724 0.003148 -0.001622 456062.000000 1 0 0
-1.579173 -2.744312 0.584582 3.219747 1.048635 1.388222 0.004140 -0.000688 -438104.000000 1 0 0
1.544727 2.978288 0.871082 3.466290 1.092330 1.316772 -0.003243 0.002182 -251777.000000 1 0 0
-8.883673 -2.517312 4.298882 10.185131 0.276125 1.135064 -0.000506 0.002247 3565030.000000 1 0 0
9.937027 4.925388 -2.666518 11.406765 0.460170 1.806746 0.001730 0.001783 2111540.000000 1 0 0
2.552327 8.395688 2.485482 9.120284 1.275670 1.294783 -0.006554 0.001756 1472210.000000 1 0 0
-8.164073 -0.158012 2.424182 8.517846 0.019352 1.282207 -0.001395 0.001954 1521560.000000 1 0 0
6.960727 2.104288 13.711282 15.520277 0.293573 0.487636 -0.005088 -0.002715 -169497.000000 1 0 0
6.783627 4.397488 3.806882 8.935762 0.575144 1.130699 -0.001902 0.001179 1138070.000000 1 0 0
-0.293973 3.285188 7.776582 8.447136 -1.481550 0.401137 -0.003437 0.003552 -737749.000000 1 0 0
2.716127 -10.264812 9.296782 14.112897 -1.312119 0.851649 0.007179 -0.003192 1988190.000000 1 0 0
1.408227 -4.498212 6.816482 8.287427 -1.267398 0.604988 -0.000749 -0.002170 665522.000000 1 0 0
-0.186973 10.821188 -2.035418 11.012538 -1.553520 1.756693 0.001754 -0.002847 1204380.000000 1 0 0
8.770027 5.630488 7.991782 13.133330 0.570741 0.916613 0.003957 -0.003726 945360.000000 1 0 0
2.548827 11.407588 -3.013318 12.071026 1.350974 1.823097 0.002152 -0.005236 2451950.000000 1 0 0
1.476027 2.443188 -6.759918 7.337869 1.027338 2.742046 0.003500 -0.001694 1240310.000000 1 0 0
-13.638973 -2.349712 3.675882 14.319736 0.170605 1.311190 0.013824 -0.001904 1208360.000000 1 0 0
-0.932973 -10.675512 -5.334118 11.970372 1.483624 2.032652 0.004647 0.000170 1133900.000000 1 0 0
-5.671273 2.793488 0.474782 6.339742 -0.457684 1.495836 0.003249 0.001739 417860.000000 1 0 0
3.743227 7.239388 -5.060818 9.593350 1.093591 2.126491 0.001265 0.001093 -1593870.000000 1 0 0
2.920127 9.768788 -6.537618 12.111846 1.280327 2.140961 0.003012 -0.000428 1017200.000000 1 0 0
-12.233973 1.680788 -2.592518 12.618094 -0.136532 1.777730 0.005596 -0.000246 1479550.000000 1 0 0
-2.553873 9.637288 -5.805618 11.537105 -1.311751 2.098109 -0.000969 0.001421 785400.000000 1 0 0
-1.350673 3.319588 1.672982 3.955104 -1.184373 1.134050 -0.003885 0.003006 240567.000000 1 0 0
12.940227 3.789988 9.619982 16.563742 0.284916 0.951103 0.039688 -0.007928 1423520.000000 1 0 0
-2.566673 -9.634012 11.499982 15.220104 1.310426 0.714260 0.000525 -0.007225 1917640.000000 1 0 0
-0.420173 -8.913112 -7.523618 11.671544 1.523690 2.271312 0.004170 0.000323 1699120.000000 1 0 0
2.322627 7.683888 -0.519518 8.044043 1.277256 1.635426 -0.003027 0.003059 1198020.000000 1 0 0
-11.859873 -1.354412 -5.594118 13.182760 0.113709 2.009041 0.004804 0.000249 752835.000000 1 0 0
-6.154373 -7.176412 -10.981218 14.490147 0.861916 2.430793 0.009739 -0.003454 1533660.000000 1 0 0
-4.754473 -2.256612 -1.376118 5.439762 0.443146 1.826549 0.002051 -0.000491 -950808.000000 1 0 0
-10.500973 3.739588 4.546782 12.038612 -0.342115 1.183503 0.002713 -0.001388 3541440.000000 1 0 0
6.714427 9.362888 -3.641518 12.083371 0.948665 1.876921 -0.000802 0.003137 1834130.000000 1 0 0
1.286727 -2.709212 -11.519618 11.903659 -1.127393 2.886887 0.009056 -0.006316 -296177.000000 1 0 0
1.246227 8.708488 7.648082 11.656929 1.428656 0.855160 -0.007092 0.005784 272088.000000 1 0 0
10.330627 0.515288 10.569382 14.788482 0.049838 0.774596 0.006744 0.000922 715029.000000 1 0 0
-5.247773 -0.837912 -3.927518 6.608072 0.158334 2.207255 0.007293 -0.004810 504011.000000 1 0 0
11.674927 5.640088 5.353482 14.027626 0.450032 1.179228 0.008794 -0.004944 1879490.000000 1 0 0
9.931827 -3.369312 3.597882 11.087750 -0.327061 1.240322 0.009353 -0.005243 -1929530.000000 1 0 0
7.318027 -1.718712 -3.497018 8.290756 -0.230679 2.006223 -0.001081 0.002790 -2916490.000000 1 0 0
2.423827 9.254888 10.501982 14.206319 1.314652 0.738845 -0.002058 0.006710 3218450.000000 1 0 0
2.428127 -10.694912 6.340082 12.667817 -1.347545 1.046635 0.000307 0.001383 738800.000000 1 0 0
5.893027 -7.504612 -1.219618 9.619482 -0.905112 1.697925 0.001499 -0.004024 810009.000000 1 0 0
-0.206873 -5.530512 -2.310518 5.997321 1.533408 1.966284 0.004938 0.001583 1128930.000000 1 0 0
7.746927 -5.022112 2.680682 9.613665 -0.575159 1.288210 0.003999 -0.006031 1150120.000000 1 0 0
-2.687173 -12.525012 4.663182 13.632391 1.359456 1.221681 0.007094 -0.003001 -545562.000000 1 0 0
4.870927 -10.217412 -1.130818 11.375420 -1.125939 1.670370 0.003089 -0.002867 1574380.000000 1 0 0
0.880027 0.159488 1.113782 1.428424 0.179285 0.676565 -0.000694 0.001156 -1145200.000000 1 0 0
-1.582773 8.568088 2.405282 9.038954 -1.388127 1.301450 -0.006321 0.004760 -1225370.000000 1 0 0
-7.554373 0.640888 -3.132518 8.203167 -0.084634 1.962612 0.001525 -0.000003 -391384.000000 1 0 0
4.541627 -6.382812 12.868482 15.065341 -0.952367 0.546828 0.006235 -0.000686 180187.000000 1 0 0
-5.179273 13.049788 8.435682 16.379333 -1.192978 1.029766 0.010795 -0.003206 2509340.000000 1 0 0
0.670827 6.063188 8.401982 10.382945 1.460605 0.627990 -0.003967 0.005517 876168.000000 1 0 0
7.937127 -0.519412 -0.780218 7.992279 -0.065348 1.668574 0.000143 0.001272 4165710.000000 1 0 0
2.455727 -9.157012 -2.425518 9.785939 -1.308782 1.821264 -0.000979 -0.001047 342912.000000 1 0 0
-7.237373 12.118788 4.845382 14.923884 -1.032436 1.240130 0.011470 -0.009184 108109.000000 1 0 0
-14.938773 0.243688 0.218182 14.942353 -0.016311 1.556194 0.008792 -0.002623 2590840.000000 1 0 0
6.844527 -0.456012 3.916782 7.899157 -0.066526 1.051985 0.000017 0.000737 -444387.000000 1 0 0
-4.259273 -5.147312 5.221882 8.479639 0.879525 0.907377 -0.001090 -0.001187 -67347.600000 1 0 0
2.853127 5.053688 6.831782 8.964002 1.056841 0.704192 -0.007413 0.001741 -720773.000000 1 0 0
2.058427 -7.145212 1.811982 7.653395 -1.290306 1.331771 0.003460 -0.003369 3170970.000000 1 0 0
-2.453573 6.481988 -1.718018 7.140572 -1.208942 1.813780 -0.001629 -0.000550 2320990.000000 1 0 0
2.667427 -3.779612 -6.597318 8.057620 -0.956228 2.530057 0.000909 -0.004943 -2023340.000000 1 0 0
-5.195373 0.920888 -12.248818 13.336922 -0.175429 2.734850 0.008924 -0.006947 -218251.000000 1 0 0
-7.499973 6.296888 -11.875018 15.392090 -0.698418 2.451994 0.006337 -0.012380 3287680.000000 1 0 0
-1.074473 11.099688 -9.097018 14.391432 -1.474295 2.255074 0.005451 -0.001180 2442650.000000 1 0 0
4.602627 5.891788 -0.549018 7.496584 0.907628 1.644098 -0.001144 0.002797 2559150.000000 1 0 0
-2.678673 13.371888 3.465182 14.070898 -1.373092 1.321971 -0.000335 0.001158 866378.000000 1 0 0
1.482027 -7.927912 10.198582 13.002279 -1.385991 0.669118 -0.000471 -0.001168 773666.000000 1 0 0
13.075227 -0.188012 -1.006218 13.115235 -0.014378 1.647593 0.010107 0.000180 624294.000000 1 0 0
-1.056873 3.065988 -5.413818 6.310839 -1.238843 2.601888 0.004401 -0.003203 588462.000000 1 0 0
6.569427 1.097788 7.309382 9.888861 0.165576 0.738984 -0.003668 0.001425 1054980.000000 1 0 0
5.483527 -6.060812 6.843282 10.659879 -0.835362 0.873736 0.001366 -0.002568 1728940.000000 1 0 0
12.202527 -4.731412 2.579282 13.339439 -0.369893 1.376213 0.011098 -0.005477 270359.000000 1 0 0
4.439527 -9.204312 13.892282 17.245992 -1.121383 0.634215 0.002967 0.000666 606586.000000 1 0 0
-2.709273 -4.365612 -1.438518 5.335547 1.015372 1.843785 0.008687 -0.001305 2359420.000000 1 0 0
-9.282473 -5.077512 -7.555618 13.001261 0.500537 2.190931 0.012262 -0.004464 1110200.000000 1 0 0
-10.594273 -3.171112 7.868582 13.572367 0.290836 0.952374 0.008770 0.001063 -74086.700000 1 0 0
12.036027 -0.556212 1.668582 12.163860 -0.046179 1.433187 0.009949 -0.002745 1399170.000000 1 0 0
-7.586973 4.731488 4.393482 9.962521 -0.557616 1.114083 0.006102 0.002300 3057850.000000 1 0 0
-1.133973 10.465588 6.980882 12.631197 -1.462865 0.985232 -0.005257 0.007336 1435860.000000 1 0 0
7.456527 -9.942712 1.910282 12.574041 -0.927328 1.418283 0.004384 -0.005014 3716840.000000 1 0 0
-4.294773 -1.800012 1.713282 4.961900 0.396877 1.218251 -0.003078 0.004130 2278120.000000 1 0 0
6.772627 -15.004512 -0.916318 16.487677 -1.146801 1.626401 0.026464 -0.002755 -420868.000000 1 0 0
-10.412773 1.670388 2.423682 10.820826 -0.159062 1.344897 0.001946 0.002829 2763980.000000 1 0 0
-3.033673 8.330388 -11.508118 14.527055 -1.221555 2.485178 0.001991 -0.004908 -1689830.000000 1 0 0
-1.198073 -5.154112 -6.933418 8.721957 1.342402 2.489702 0.003397 -0.003086 -4512.900000 1 0 0
12.817727 -0.541412 6.523082 14.392285 -0.042214 1.100406 0.018391 -0.008102 1190380.000000 1 0 0
5.918427 -13.229212 3.763982 14.973556 -1.150127 1.316695 0.004795 -0.004719 425314.000000 1 0 0
-5.540973 3.433788 -4.996818 8.213493 -0.554785 2.224798 0.005192 -0.003613 1719200.000000 1 0 0
-4.361173 8.033288 3.335982 9.730484 -1.073430 1.220860 0.002329 0.002237 963005.000000 1 0 0
13.952527 6.229488 -3.987718 15.791815 0.419921 1.826078 0.017706 -0.002466 -531622.000000 1 0 0
-6.785673 -8.503212 5.275482 12.090520 0.897268 1.119278 0.006326 -0.000827 -101989.000000 1 0 0
1.650527 11.261488 2.687782 11.694850 1.425269 1.338897 -0.005207 0.000801 239538.000000 1 0 0
-7.358373 7.301488 5.971082 11.962909 -0.781518 1.048198 0.005157 -0.000362 1021770.000000 1 0 0
-17.400973 -4.127912 5.286882 18.648985 0.232918 1.283360 0.054761 -0.013068 -512481.000000 1 0 0
7.556727 -13.034212 -8.575918 17.336124 -1.045391 2.088269 0.012018 -0.005091 -381322.000000 1 0 0
-2.308773 12.904188 -2.756918 13.395861 -1.393753 1.778081 0.002467 0.001633 428315.000000 1 0 0
-5.572173 13.834988 -5.791818 16.000036 -1.187913 1.941196 0.012976 -0.001238 2432650.000000 1 0 0
-5.669773 2.515788 7.527082 9.753588 -0.417619 0.689248 0.004758 0.004717 1381980.000000 1 0 0
-7.474673 5.061088 1.414682 9.137104 -0.595190 1.415343 0.004879 0.000598 1284820.000000 1 0 0
10.717627 -5.736012 -5.035718 13.157805 -0.491405 1.963532 0.010307 -0.002492 3334800.000000 1 0 0
-9.406973 -0.834312 6.858282 11.671471 0.088459 0.942693 0.002629 0.002410 2051200.000000 1 0 0
-11.162873 -4.613512 -2.518318 12.338401 0.391911 1.776345 0.000595 0.000577 374421.000000 1 0 0
6.611427 -4.267312 13.472582 15.602288 -0.573166 0.528627 0.004214 -0.006305 -587539.000000 1 0 0
0.160627 10.308388 -11.744018 15.627240 1.555215 2.421143 0.004171 -0.000932 -53744.400000 1 0 0
-11.750473 -3.228612 1.514882 12.279756 0.268147 1.447117 0.005977 0.000736 3110060.000000 1 0 0
5.195827 5.944688 5.468382 9.604121 0.852517 0.965046 -0.004926 0.000997 -4143560.000000 1 0 0
-6.988773 0.012688 8.208182 10.780415 -0.001815 0.705330 0.004477 0.002841 710498.000000 1 0 0
1.733527 2.008688 9.670882 10.028255 0.858795 0.267770 -0.003270 0.001147 3394210.000000 1 0 0
10.473227 -4.904912 -2.062318 11.747332 -0.437991 1.747267 0.006435 -0.002499 1719050.000000 1 0 0
-9.645173 -2.377212 -1.755718 10.087767 0.241650 1.745731 0.002875 0.001024 -1749040.000000 1 0 0
-1.926373 -5.237912 -9.947718 11.406302 1.218375 2.630325 0.010091 -0.005396 1724750.000000 1 0 0
7.615927 -1.575112 6.521982 10.149856 -0.203943 0.872950 -0.000459 -0.002370 1430130.000000 1 0 0
1.494427 -11.788912 -2.578918 12.159876 -1.444703 1.784504 0.003543 0.001951 -2849430.000000 1 0 0
-0.773073 -1.476312 4.768782 5.051576 1.088407 0.336189 0.001387 -0.000630 2192970.000000 1 0 0
7.637727 1.489388 9.901682 12.593509 0.192587 0.666075 -0.003211 0.001330 -395232.000000 1 0 0
-3.911973 10.753488 -8.034018 13.981648 -1.221893 2.182926 0.007295 0.003060 1983580.000000 1 0 0
-9.595073 12.598488 6.304982 17.045237 -0.919909 1.191898 0.009995 -0.014672 1637900.000000 1 0 0
-2.548773 -2.463412 -11.091618 11.644253 0.768369 2.832270 0.013828 -0.010079 -1219840.000000 1 0 0
1.157427 -11.988712 11.041282 16.339485 -1.474552 0.828825 0.000327 0.001433 863890.000000 1 0 0
1.340727 3.482388 -1.968318 4.218869 1.203286 2.056184 -0.001399 0.001518 3149260.000000 1 0 0
-1.804573 -9.419012 -12.114318 15.450921 1.381502 2.471963 0.001972 0.003085 875027.000000 1 0 0
1.276227 -2.695212 1.559682 3.365343 -1.128559 1.088907 0.006737 -0.002072 4151430.000000 1 0 0
-1.020273 -2.236312 -6.642718 7.082920 1.142774 2.787179 0.008657 -0.008275 966330.000000 1 0 0
1.764827 5.830488 4.106882 7.346815 1.276874 0.977615 -0.008766 0.003321 -110150.000000 1 0 0
-11.036373 8.623288 3.622682 14.466736 -0.663266 1.317688 0.003001 -0.005110 4111910.000000 1 0 0
-16.403573 -1.611512 3.945282 16.948139 0.097927 1.335855 0.034808 -0.008300 1982770.000000 1 0 0
-12.091373 0.304788 6.825882 13.888371 -0.025202 1.057006 0.001280 0.003183 1102310.000000 1 0 0
-5.141673 3.008188 4.657382 7.561561 -0.529362 0.907232 -0.000585 0.005761 2826270.000000 1 0 0
5.185627 -6.069612 3.932282 8.899088 -0.863777 1.113109 0.001575 -0.004750 2283370.000000 1 0 0
9.918027 3.477088 6.312082 12.259681 0.337194 1.029946 0.003193 0.000735 1065770.000000 1 0 0
-12.216473 5.835588 3.252582 13.923921 -0.445634 1.335021 0.004309 -0.003289 1424260.000000 1 0 0
-4.854073 12.323988 -1.305318 13.309642 -1.195584 1.669027 0.003666 0.003325 1329580.000000 1 0 0
-1.718173 -12.237412 10.295682 16.084385 1.431305 0.876162 0.009289 -0.008203 1291350.000000 1 0 0
5.274827 6.391088 13.908482 16.189987 0.880793 0.537328 -0.001419 0.004734 217749.000000 1 0 0
12.921227 -3.795012 -5.954718 14.724772 -0.285670 1.987121 0.012408 0.000403 65833.300000 1 0 0
3.620127 -2.511012 6.383082 7.755916 -0.606435 0.604132 -0.002487 -0.000273 408990.000000 1 0 0
7.239627 -11.816412 -0.592418 13.870499 -1.021109 1.613520 0.008815 0.000592 105238.000000 1 0 0
-6.052173 -6.592712 -4.087118 9.838556 0.828120 1.999199 0.011655 -0.000098 -669906.000000 1 0 0
0.230027 -8.916712 5.035082 10.242691 -1.545005 1.056895 0.004885 -0.003877 2182710.000000 1 0 0
-10.274073 2.479888 -0.406418 10.576937 -0.236843 1.609231 0.003236 0.001928 -492038.000000 1 0 0
-1.833373 9.053088 -0.406918 9.245823 -1.370985 1.614822 -0.000501 -0.000282 341804.000000 1 0 0
-3.518673 2.291288 -6.648218 7.863197 -0.577204 2.578270 0.010300 -0.007023 -10560.100000 1 0 0
-12.735373 2.960588 6.468982 14.587753 -0.228413 1.111349 0.005305 -0.003200 883213.000000 1 0 0
11.349227 1.654288 8.003182 13.985441 0.144743 0.961548 0.017669 -0.007013 -1585630.000000 1 0 0
6.008227 2.717888 -3.226818 7.341530 0.424816 2.025871 -0.000949 0.003795 1586070.000000 1 0 0
10.455227 -2.429612 6.417582 12.506004 -0.228330 1.031934 0.012958 -0.006691 3631290.000000 1 0 0
-0.949273 10.963788 4.115482 11.749168 -1.484429 1.212928 -0.001905 0.004698 3314280.000000 1 0 0
-1.535773 -12.205912 7.401082 14.356841 1.445632 1.029195 0.007319 -0.003058 -855795.000000 1 0 0
8.017327 8.634188 -7.895518 14.183298 0.822427 2.161177 0.001849 -0.001213 3713240.000000 1 0 0
-4.636873 -5.938912 -8.735818 11.536281 0.907897 2.429884 0.008762 -0.004195 -332971.000000 1 0 0
-8.471773 -5.259612 -11.633718 15.322462 0.555602 2.432970 0.011344 -0.003651 1929860.000000 1 0 0
6.197727 -0.645312 -10.013418 11.793930 -0.103747 2.584946 -0.003176 0.001368 512847.000000 1 0 0
-11.119973 -5.489512 -5.348718 13.505455 0.458565 1.977998 0.006044 -0.004974 -97533.100000 1 0 0
3.811927 8.911188 -2.831318 10.097347 1.166583 1.855009 0.002522 -0.001402 1384570.000000 1 0 0
11.736627 -10.471612 -4.022818 16.235336 -0.728498 1.821186 0.023442 -0.003489 -260248.000000 1 0 0
3.909027 -11.193212 3.870282 12.471871 -1.234806 1.255266 0.002918 -0.001628 -714472.000000 1 0 0
-1.017173 0.898588 3.253782 3.525507 -0.723577 0.395183 -0.000499 0.002116 -397553.000000 1 0 0
-10.552373 -5.181712 4.589782 12.620175 0.456460 1.198574 0.006172 -0.000483 3330450.000000 1 0 0
4.617327 -8.614712 2.743582 10.151858 -1.078779 1.297139 0.002855 -0.002356 5299910.000000 1 0 0
-3.783773 -5.762712 2.742582 7.419403 0.989798 1.192164 0.003148 -0.002355 483644.000000 1 0 0
10.019627 5.184488 12.259782 16.660555 0.477497 0.743865 0.014888 0.002984 1100620.000000 1 0 0
1.626127 -12.302112 -5.287218 13.488548 -1.439375 1.973577 0.002485 0.002767 963761.000000 1 0 0
9.895727 -10.716612 -1.687018 14.683910 -0.825202 1.685939 0.011124 -0.002760 1651310.000000 1 0 0
9.619727 -4.509212 -9.254018 14.089322 -0.438334 2.287378 0.002556 -0.001643 386979.000000 1 0 0
-7.313073 -3.048012 -13.056718 15.272501 0.394896 2.596187 0.011460 -0.005252 2621560.000000 1 0 0
0.421027 6.280888 -2.544418 6.789763 1.503863 1.954916 -0.001954 0.000461 1140590.000000 1 0 0
-6.050873 -9.562512 1.055382 11.365233 1.006629 1.477802 0.003519 0.001417 -245005.000000 1 0 0
-8.918973 -4.009912 0.546582 9.794193 0.422516 1.514961 -0.003342 0.003572 3897100.000000 1 0 0
1.876127 3.771488 12.060982 12.775416 1.109191 0.336011 -0.001215 -0.000123 407151.000000 1 0 0
6.673527 4.310088 9.512082 12.393245 0.573451 0.695831 -0.005007 0.000122 3300360.000000 1 0 0
-8.413773 9.791588 -3.605818 13.404055 -0.860936 1.843161 0.005521 -0.000112 2090410.000000 1 0 0
16.384927 2.106188 -5.906118 17.543777 0.127843 1.914154 0.017007 0.001242 171337.000000 1 0 0
-11.028773 2.643688 -5.144418 12.453431 -0.235269 1.996643 0.003451 0.000116 655063.000000 1 0 0
-13.759773 3.979388 1.514582 14.403501 -0.281523 1.465448 0.003120 -0.000070 -79390.300000 1 0 0
-17.589373 10.381588 3.310382 20.691110 -0.533197 1.410115 0.061253 -0.015686 -379218.000000 1 0 0
-14.344973 2.869088 -1.108718 14.671031 -0.197402 1.646440 0.006989 -0.001798 860678.000000 1 0 0
-14.448373 5.021088 5.146882 16.138686 -0.334463 1.246211 0.005206 -0.002698 1800410.000000 1 0 0
-17.557473 7.423588 3.154382 19.321610 -0.400020 1.406806 0.032173 -0.006010 -2277270.000000 1 0 0
-15.046573 12.495588 -3.451818 19.860869 -0.693041 1.745483 0.047903 -0.014188 -287172.000000 1 0 0
-8.580773 12.444988 -9.589618 17.901625 -0.967155 2.136114 0.016476 -0.019635 1005570.000000 1 0 0
-12.594673 8.728788 -9.843618 18.213027 -0.606049 2.141793 0.015452 -0.002946 -1100600.000000 1 0 0
-13.875973 -3.537012 -12.269018 18.856879 0.249587 2.279222 0.042769 -0.001345 65686.000000 1 0 0
-14.866073 5.631688 -7.641818 17.638407 -0.362123 2.018891 0.026457 0.002578 450258.000000 1 0 0
-10.923973 13.503088 -8.317118 19.257233 -0.890593 2.017390 0.024095 -0.017952 478746.000000 1 0 0
-10.965573 13.461988 3.914082 17.798566 -0.887241 1.349074 0.017196 -0.013139 84708.900000 1 0 0
-15.257073 3.193488 3.045082 15.882354 -0.206333 1.377874 0.006698 0.001779 493783.000000 1 0 0
-11.147173 9.294588 -12.408818 19.095224 -0.695018 2.278169 0.032204 -0.020217 490966.000000 1 0 0
-13.132773 11.592388 -9.117818 19.748108 -0.723178 2.050714 0.023873 -0.014350 1352090.000000 1 0 0
-8.879273 14.554088 -3.488718 17.402130 -1.022992 1.772641 0.011747 -0.007401 -178695.000000 1 0 0
-16.741673 8.200988 -4.049818 19.077233 -0.455499 1.784709 0.036449 -0.000893 -1328370.000000 1 0 0
-16.998473 6.579388 0.313882 18.230056 -0.369300 1.553578 0.028961 -0.000049 249960.000000 1 0 0
-10.450073 2.811688 -12.619418 16.624059 -0.262835 2.432735 0.013656 -0.012286 1241580.000000 1 0 0
-17.006473 0.772888 2.361382 17.187018 -0.045415 1.432967 0.030262 -0.005176 1734500.000000 1 0 0
-12.628073 1.092388 -7.023718 14.491175 -0.086290 2.076804 0.010940 -0.005566 1257790.000000 1 0 0
-12.417773 8.965388 -5.497418 16.272703 -0.625326 1.915407 0.011000 -0.000916 -1007740.000000 1 0 0
-9.697573 13.912888 1.290182 17.008114 -0.962073 1.494867 0.023127 -0.009595 -782391.000000 1 0 0
-12.307473 11.158588 2.719182 16.833951 -0.736478 1.408556 0.012887 -0.009673 1463850.000000 1 0 0
-12.574873 6.820788 -3.694418 14.774955 -0.497000 1.823524 0.003201 0.001380 1072600.000000 1 0 0
-15.981673 3.661388 -9.415318 18.906820 -0.225213 2.092070 0.043829 -0.004807 -1004860.000000 1 0 0
-15.135573 5.817488 -4.704018 16.883617 -0.366950 1.853147 0.013214 0.006145 1352610.000000 1 0 0
-18.019273 5.267088 7.511182 20.220145 -0.284380 1.190204 0.027973 -0.014569 336758.000000 1 0 0
-15.808773 9.934088 -1.970918 18.774662 -0.561034 1.675968 0.035528 -0.007598 -1729170.000000 1 0 0
-8.803073 9.918688 -8.401418 15.698990 -0.844917 2.135489 0.009793 -0.008435 1854350.000000 1 0 0
-17.066473 4.071288 -1.344318 17.596791 -0.234178 1.647266 0.012974 0.001379 -146348.000000 1 0 0
-10.246673 5.399688 -4.587618 12.457816 -0.484990 1.947925 0.005948 -0.001970 1032550.000000 1 0 0
-18.080273 2.766088 6.033082 19.259948 -0.151812 1.252188 0.034913 -0.009027 -634838.000000 1 0 0
-10.432873 10.120288 -5.789618 15.645598 -0.770191 1.949857 0.008331 -0.003508 1024300.000000 1 0 0
-15.414973 0.431588 -5.941018 16.525839 -0.027991 1.938527 0.015074 -0.003699 1553710.000000 1 0 0
-16.390073 -4.232512 -8.883018 19.116921 0.252715 2.054056 0.042389 -0.014873 -844999.000000 1 0 0
-10.038673 9.533588 -1.063118 13.885045 -0.759598 1.647437 0.003576 -0.002493 2531170.000000 1 0 0
-17.310373 -3.016612 -3.253518 17.869928 0.172534 1.753884 0.024477 -0.006301 -428265.000000 1 0 0
-11.924873 5.007588 -11.576818 17.358031 -0.397567 2.300895 0.019812 -0.009986 -1366830.000000 1 0 0
-16.441373 6.994288 5.880282 18.810011 -0.402216 1.252852 0.020887 -0.010194 -709408.000000 1 0 0
-12.160973 5.969688 -8.848918 16.181155 -0.456332 2.149412 0.015505 -0.001510 2400680.000000 1 0 0
-14.645273 8.170588 0.023382 16.770303 -0.508888 1.569402 0.025948 -0.005196 1949880.000000 1 0 0
-15.031473 11.768588 3.724982 19.450458 -0.664245 1.378095 0.030318 -0.018356 1280280.000000 1 0 0
-17.251173 4.065788 -4.145118 18.202077 -0.231458 1.800540 0.013892 0.000299 -170652.000000 1 0 0
-13.815273 13.421488 -0.898218 19.282243 -0.770941 1.617396 0.036442 -0.008681 -149075.000000 1 0 0
-10.037973 6.859588 -13.020618 17.814358 -0.599473 2.390445 0.006115 -0.017485 829599.000000 1 0 0
-15.951173 -1.225412 -8.341818 18.042380 0.076672 2.051435 0.028095 -0.009554 500140.000000 1 0 0
-11.424273 11.830788 -0.069918 16.446472 -0.802877 1.575048 0.026142 -0.011625 815773.000000 1 0 0
-12.037273 7.366488 -0.906318 14.141517 -0.549177 1.634929 0.002984 0.001716 1712100.000000 1 0 0
-11.514373 0.242488 -11.725418 16.435480 -0.021056 2.365165 0.020296 -0.008857 1218730.000000 1 0 0
-19.114073 -1.215112 -4.779618 19.740036 0.063486 1.815355 0.031038 -0.008544 -609402.000000 1 0 0
-17.970373 1.430388 -5.251118 18.776436 -0.079430 1.854242 0.016892 0.001148 -1261790.000000 1 0 0
-13.409773 -0.154912 -9.539718 16.457589 0.011552 2.189101 0.023040 -0.007714 1516890.000000 1 0 0
-6.207873 11.177688 -13.333218 18.473037 -1.063831 2.377147 -0.004374 -0.009456 -1687190.000000 1 0 0
16.480127 5.863688 6.917582 18.810379 0.341836 1.194204 0.056486 -0.018802 -642667.000000 1 0 0
14.787427 10.276888 -5.385518 18.795910 0.607345 1.861395 0.044644 -0.010056 251383.000000 1 0 0
2.445827 16.932288 4.394682 17.663456 1.427341 1.319354 0.014358 -0.004390 1746990.000000 1 0 0
-4.060573 18.123888 -5.917918 19.493212 -1.350391 1.879253 0.018178 -0.011159 2177930.000000 1 0 0
5.388727 14.520288 5.696482 16.502335 1.215434 1.218352 0.012918 -0.007469 -1276730.000000 1 0 0
9.946927 6.009288 15.097582 19.052293 0.543454 0.656016 0.026102 0.002120 -327673.000000 1 0 0
4.607327 12.658188 -1.174018 13.521668 1.221722 1.657731 0.000447 -0.004250 1973160.000000 1 0 0
3.649227 13.786688 12.993582 19.293076 1.312038 0.831884 0.022511 -0.002803 -743525.000000 1 0 0
-0.818273 12.356988 9.189782 15.421310 -1.504673 0.932392 0.002671 0.009402 1073140.000000 1 0 0
-7.820873 13.899488 8.306982 17.982429 -1.058275 1.090604 0.018742 -0.016354 756735.000000 1 0 0
11.411427 12.801888 -4.138118 17.641798 0.842761 1.807566 0.045245 -0.010548 419822.000000 1 0 0
-5.807373 16.135088 0.925782 17.173343 -1.225310 1.516862 0.006814 -0.000505 1081080.000000 1 0 0
3.169727 10.564888 6.787882 12.951423 1.279317 1.019135 -0.003094 0.005336 2620490.000000 1 0 0
-1.199973 15.562888 2.356182 15.785912 -1.493844 1.420978 0.007422 -0.003626 -1623060.000000 1 0 0
9.904727 8.938088 9.444982 16.346275 0.734143 0.954758 0.021505 -0.008146 2065790.000000 1 0 0
7.167727 12.277388 6.245882 15.528091 1.042362 1.156844 0.012670 -0.008787 1090190.000000 1 0 0
11.753127 13.970588 -1.489918 18.317565 0.871389 1.652225 0.046351 -0.009513 -391994.000000 1 0 0
9.645727 16.043388 -1.141518 18.754557 1.029475 1.631700 0.029587 -0.009017 616986.000000 1 0 0
10.011527 13.707388 3.022282 17.241153 0.939974 1.394591 0.029296 -0.014157 2047750.000000 1 0 0
-6.081973 14.540488 6.256982 16.957771 -1.174633 1.192891 0.001666 -0.006436 767733.000000 1 0 0
-1.011973 18.199788 -6.213018 19.257673 -1.515250 1.899298 0.026918 0.000384 844996.000000 1 0 0
-3.622973 15.697388 5.338382 16.971513 -1.343967 1.250814 0.003420 -0.006139 2293140.000000 1 0 0
7.055327 12.320988 10.554882 17.691521 1.050747 0.931530 0.010609 -0.000129 3893390.000000 1 0 0
1.448827 14.649788 6.251682 15.993715 1.472219 1.169205 0.002548 0.002787 1287660.000000 1 0 0
17.363227 7.625188 -1.450318 19.019163 0.413801 1.647126 0.037420 -0.009752 1613080.000000 1 0 0
2.083227 16.190788 -3.219818 16.638770 1.442832 1.765538 0.010840 -0.011822 1865030.000000 1 0 0
6.686527 11.214988 0.603982 13.070975 1.033166 1.524572 0.006767 -0.005062 2887580.000000 1 0 0
12.657127 9.340288 3.184882 16.049527 0.635742 1.371029 0.019707 -0.010599 -2263770.000000 1 0 0
6.078927 14.222188 -3.428318 15.842265 1.166873 1.788925 0.003601 -0.004348 55530.400000 1 0 0
3.036527 16.473388 1.534982 16.821093 1.388513 1.479416 0.013762 -0.013555 -1814070.000000 1 0 0
2.666527 19.032488 -2.528018 19.383933 1.431598 1.701587 0.020292 -0.016369 1417620.000000 1 0 0
3.954027 11.909588 10.700982 16.491926 1.250243 0.864709 0.009558 0.001121 3126330.000000 1 0 0
7.900727 11.590488 3.394082 14.431933 0.972488 1.333394 0.009591 -0.005167 956412.000000 1 0 0
0.776127 12.494888 0.144982 12.519809 1.508760 1.559216 0.001206 -0.003599 -970930.000000 1 0 0
11.989227 9.879588 -4.499418 16.173824 0.689228 1.852707 0.027476 -0.004043 996045.000000 1 0 0
-1.399773 16.462288 9.894282 19.257806 -1.485971 1.031211 0.011741 0.002853 -1125570.000000 1 0 0
8.069827 14.895288 -8.006918 18.737728 1.074293 2.012318 0.028166 -0.004449 1390240.000000 1 0 0
14.449527 7.633188 -1.353518 16.397756 0.486004 1.653433 0.021213 -0.006012 264396.000000 1 0 0
12.543827 8.317588 5.994582 16.200768 0.585517 1.191768 0.020320 -0.010979 -309841.000000 1 0 0
-3.125673 14.230988 10.167982 17.767349 -1.354591 0.961507 0.010725 0.000562 2914060.000000 1 0 0
-4.789873 17.126288 -3.162718 18.062542 -1.298085 1.746802 0.029203 -0.007721 1564090.000000 1 0 0
-7.248873 16.444088 -1.713918 18.052471 -1.155603 1.665880 0.018795 -0.006229 218896.000000 1 0 0
8.332927 11.249488 -1.864918 14.123264 0.933249 1.703229 0.010649 -0.003246 -590852.000000 1 0 0
8.566327 12.887288 -4.198418 16.034053 0.984149 1.835729 0.025132 -0.003142 2328630.000000 1 0 0
2.600827 14.852488 -7.306718 16.755561 1.397443 2.022031 0.004697 -0.000416 -905343.000000 1 0 0
11.460727 11.430788 9.710082 18.875828 0.784090 1.030466 0.041358 -0.011790 -1245830.000000 1 0 0
8.503527 15.703488 1.419982 17.914404 1.074498 1.491448 0.014756 -0.011273 1174980.000000 1 0 0
6.009827 10.004788 7.695782 13.979945 1.029866 0.987849 0.005473 0.005278 2011640.000000 1 0 0
14.510827 11.280888 2.464182 18.544399 0.660815 1.437522 0.039940 -0.014237 1249310.000000 1 0 0
12.058327 12.588088 1.147082 17.469374 0.806889 1.505087 0.037187 -0.012914 4839740.000000 1 0 0
5.005527 16.023588 8.247482 18.703787 1.268016 1.114137 0.021010 -0.001603 -1423520.000000 1 0 0
11.625827 14.935188 5.008982 19.578294 0.909354 1.312076 0.040219 -0.017081 326881.000000 1 0 0
5.927827 16.731088 1.686582 17.830115 1.230296 1.476063 0.010158 -0.018244 448124.000000 1 0 0
-0.636973 16.094988 -4.181418 16.641473 -1.531241 1.824783 0.012212 -0.005511 641621.000000 1 0 0
15.942727 6.338188 2.415082 17.325582 0.378401 1.430947 0.013776 -0.011724 -1263700.000000 1 0 0
7.594227 16.717588 -3.161718 18.631868 1.144401 1.741316 0.016061 -0.009670 -770625.000000 1 0 0
14.880027 8.175688 7.397082 18.519555 0.502413 1.159912 0.050101 -0.017771 -1023730.000000 1 0 0
2.029427 12.911588 8.614882 15.653877 1.414893 0.988031 0.004876 0.006476 1814820.000000 1 0 0
15.891827 7.500688 -5.760818 18.493175 0.440985 1.887579 0.019110 -0.000000 -1317150.000000 1 0 0
-3.015773 17.079988 0.680782 17.357544 -1.396030 1.531565 0.009908 -0.004613 1915500.000000 1 0 0
-3.003373 18.515788 4.631782 19.321182 -1.409991 1.328713 0.015027 -0.007210 1283450.000000 1 0 0
-0.937073 19.046388 0.779182 19.085338 -1.521636 1.529959 0.021764 -0.017980 1148260.000000 1 0 0
6.921627 16.815888 -6.025818 19.157074 1.180320 1.890777 0.022784 -0.010027 -518702.000000 1 0 0
10.927327 10.040488 0.821082 14.862438 0.743128 1.515523 0.018430 -0.007761 -2063860.000000 1 0 0
9.134027 8.589088 14.298282 19.016933 0.754660 0.719901 0.021021 -0.003281 334786.000000 1 0 0
6.372727 12.479788 -8.364218 16.319219 1.098670 2.108934 0.025144 -0.008967 1708970.000000 1 0 0
6.399327 8.977988 13.277782 17.258480 0.951545 0.692976 0.008550 -0.000338 508527.000000 1 0 0
16.640527 9.296388 2.800082 19.265784 0.509467 1.424940 0.029489 -0.015429 -1715020.000000 1 0 0
2.565627 14.689088 -0.760818 14.930860 1.397879 1.621774 0.006009 -0.007296 747384.000000 1 0 0
9.138627 12.867388 8.276782 17.821035 0.953247 1.087795 0.024868 -0.012689 2663350.000000 1 0 0
7.140727 9.463288 10.468082 15.815326 0.924376 0.847453 0.005407 -0.000036 1467970.000000 1 0 0
4.319327 15.755488 -5.198718 17.144056 1.303223 1.878884 0.015725 -0.010831 1219070.000000 1 0 0
0.250927 16.256188 -8.126018 18.175775 1.555362 2.034294 0.007300 0.000943 298658.000000 1 0 0
-2.487373 15.715988 -2.006518 16.037625 -1.413828 1.696238 0.006298 -0.002282 -892284.000000 1 0 0
13.326227 10.457288 7.672182 18.595848 0.665351 1.145517 0.046922 -0.018140 1439590.000000 1 0 0
-1.101573 15.892488 6.980682 17.392946 -1.501593 1.157805 0.005619 -0.000162 2779600.000000 1 0 0
13.432727 13.226688 6.541782 19.954407 0.777670 1.236784 0.052284 -0.021119 -1217630.000000 1 0 0
5.386227 17.301288 4.523882 18.676496 1.268987 1.326140 0.017085 -0.011930 741662.000000 1 0 0
10.739027 9.469988 -1.845718 14.436553 0.722685 1.698998 0.011031 -0.000705 433194.000000 1 0 0
3.138927 12.716488 4.732982 13.927062 1.328795 1.224049 -0.000865 0.001127 1629400.000000 1 0 0
-0.221873 18.057888 3.530282 18.401072 -1.558510 1.377748 0.012077 -0.007197 3460370.000000 1 0 0
-7.748573 15.889688 -5.827218 18.613947 -1.117079 1.889206 0.033802 -0.010924 1666770.000000 1 0 0
-12.448873 -9.153112 8.292382 17.536177 0.633998 1.078248 0.037775 -0.009312 -571625.000000 1 0 0
-13.401773 -11.752612 6.926682 19.123554 0.719930 1.200162 0.049115 -0.007975 -604517.000000 1 0 0
-6.560973 -12.271712 12.348182 18.604270 1.079821 0.845004 0.035741 -0.014307 -1099210.000000 1 0 0
-1.823073 -10.610712 14.280782 17.884394 1.400643 0.645988 0.001293 -0.009183 -339867.000000 1 0 0
-8.901173 2.883988 11.122482 14.534712 -0.313328 0.699389 0.012840 0.001363 2622160.000000 1 0 0
0.528227 10.073588 15.221882 18.260939 1.518407 0.585246 0.007322 -0.006010 429398.000000 1 0 0
1.066327 -6.792412 16.498582 17.873923 -1.415079 0.394853 -0.000802 -0.009446 1835390.000000 1 0 0
5.954727 2.469388 17.733782 18.869120 0.393109 0.348661 0.002308 -0.012263 -102251.000000 1 0 0
-5.208773 -2.913412 17.708982 18.687625 0.509977 0.325060 0.039443 -0.016413 2072150.000000 1 0 0
-4.322173 8.253188 13.081082 16.059607 -1.088371 0.618872 0.011265 0.005298 588335.000000 1 0 0
0.193727 -4.904112 18.621082 19.257013 -1.531314 0.257708 0.017530 -0.015190 1466860.000000 1 0 0
-11.717773 2.049488 11.243882 16.368613 -0.173153 0.813558 0.019327 -0.006076 1559440.000000 1 0 0
-3.380673 -6.004112 14.393182 15.957506 1.057982 0.446487 0.020123 -0.011020 1178940.000000 1 0 0
-7.483673 -2.186812 14.661982 16.606060 0.284296 0.488730 0.024252 -0.007883 930418.000000 1 0 0
-6.096273 -1.083712 10.786282 12.437156 0.175929 0.521119 0.010805 -0.001502 1057410.000000 1 0 0
-3.890873 2.365588 11.252082 12.138544 -0.546269 0.384539 0.004522 0.005770 1477580.000000 1 0 0
-6.515173 6.334988 13.590182 16.348474 -0.771377 0.589387 0.012245 0.001758 1403490.000000 1 0 0
-8.984073 5.492288 12.555482 16.386547 -0.548713 0.697879 0.017571 -0.002160 -1320020.000000 1 0 0
-12.372973 -2.283612 15.757782 20.164648 0.182511 0.673801 0.031113 -0.007947 568062.000000 1 0 0
-3.353273 -7.508812 16.966682 18.854575 1.150792 0.451323 0.040385 -0.018389 -895461.000000 1 0 0
-0.482273 -5.304412 14.366082 15.321674 1.480126 0.355043 0.004655 -0.004819 3014420.000000 1 0 0
-14.398073 -2.286712 13.576182 19.921001 0.157505 0.820985 0.037405 -0.009904 127301.000000 1 0 0
-6.471173 1.558288 12.248682 13.940393 -0.236306 0.497776 0.011685 0.001980 2578140.000000 1 0 0
2.250327 -2.231612 14.546782 14.888013 -0.781222 0.214513 0.000394 -0.001991 790279.000000 1 0 0
-12.730973 4.010088 9.211982 16.217863 -0.305149 0.966705 0.005065 -0.003442 783820.000000 1 0 0
-9.047373 -3.026012 12.602982 15.806545 0.322767 0.647943 0.013808 -0.000094 612119.000000 1 0 0
-7.074573 -7.221312 15.300182 18.338279 0.795662 0.583880 0.037928 -0.015656 -624947.000000 1 0 0
-3.130073 5.986788 19.474182 20.612684 -1.089052 0.333914 0.023598 -0.011084 -366215.000000 1 0 0
0.735427 5.522588 16.177782 17.110244 1.438408 0.331661 0.002661 -0.000067 1549540.000000 1 0 0
3.382227 1.560988 16.798082 17.206153 0.432398 0.218224 -0.011193 -0.004237 1216090.000000 1 0 0
-11.907773 11.304188 7.674682 18.124030 -0.759401 1.133542 0.017655 -0.025150 662555.000000 1 0 0
0.636627 -9.480212 15.402582 18.097493 -1.503744 0.552740 -0.011889 -0.000487 525622.000000 1 0 0
-2.486673 -3.666912 18.858382 19.371844 0.974894 0.230753 0.036812 -0.021126 2175950.000000 1 0 0
-12.931773 2.346788 13.865882 19.104995 -0.179521 0.758640 0.028982 -0.013541 401250.000000 1 0 0
-5.373073 -0.596612 15.809782 16.708532 0.110584 0.329482 0.022754 -0.003892 2273010.000000 1 0 0
-4.412973 -6.034012 11.705882 13.889251 0.939339 0.568329 0.009043 -0.005295 302739.000000 1 0 0
2.457127 1.825288 13.955082 14.286828 0.638912 0.215921 -0.001892 -0.004794 -28594.300000 1 0 0
0.127727 3.333488 14.308782 14.692505 1.532499 0.229048 0.004777 -0.003483 209519.000000 1 0 0
-13.157073 7.136188 12.241082 19.335921 -0.496977 0.885278 0.022800 -0.003037 427825.000000 1 0 0
0.878327 1.537288 18.325782 18.411111 1.051711 0.096314 0.002481 -0.001866 435662.000000 1 0 0
-2.018673 6.533788 12.572482 14.311978 -1.271141 0.498169 0.004054 0.003347 458451.000000 1 0 0
-13.468773 -2.645412 10.866482 17.506755 0.193942 0.901158 0.035251 -0.009701 -918167.000000 1 0 0
-2.534673 3.708988 13.556582 14.281529 -0.971308 0.319989 0.005568 0.001611 -4628.260000 1 0 0
3.627827 6.212488 16.270782 17.790292 1.042257 0.416309 -0.002183 0.000854 -75232.300000 1 0 0
-3.812473 12.357888 12.342982 17.877403 -1.271555 0.808722 0.021560 -0.002176 -406742.000000 1 0 0
3.777227 -1.385212 16.985482 17.455453 -0.351498 0.232576 0.000308 -0.009565 -428143.000000 1 0 0
-15.826973 0.452488 9.021282 18.223099 -0.028582 1.052908 0.034232 -0.010445 625790.000000 1 0 0
-4.691673 4.664588 15.250482 16.623699 -0.782503 0.409314 0.011686 -0.000869 1204580.000000 1 0 0
-8.052973 -8.147312 10.611882 15.615412 0.791221 0.823610 0.026534 -0.008500 3398330.000000 1 0 0
-2.597473 -0.439012 14.739382 14.972941 0.167433 0.176859 0.010303 -0.002078 1739290.000000 1 0 0
-1.815873 0.989488 17.254482 17.377964 -0.498927 0.119282 0.002377 -0.003465 1940320.000000 1 0 0
-0.613573 -2.460712 14.408882 14.630361 1.326432 0.174222 0.009571 -0.003361 -33478.300000 1 0 0
5.024227 -8.269012 16.531582 19.154963 -1.024809 0.529531 0.003195 0.000144 226950.000000 1 0 0
-4.591173 10.029588 10.647982 15.331374 -1.141506 0.803041 0.007547 0.000407 -1023440.000000 1 0 0
-6.129873 2.060388 15.304382 16.614591 -0.324259 0.399794 0.014165 -0.000068 -6062.500000 1 0 0
-4.922173 6.885388 17.372882 19.324942 -0.950159 0.453344 0.017667 0.005569 -252534.000000 1 0 0
-4.095273 9.200588 15.800882 18.737394 -1.152016 0.567438 0.022912 -0.001543 1069830.000000 1 0 0
-4.558273 -9.847012 18.392682 21.354911 1.137259 0.533002 0.061502 -0.026919 -639164.000000 1 0 0
-6.801073 -4.064212 11.196682 13.716344 0.538641 0.615816 0.012178 -0.002474 1107730.000000 1 0 0
-2.370873 -0.833312 19.596982 19.757458 0.337992 0.127541 0.025556 -0.008857 -1432400.000000 1 0 0
-5.734773 -4.491912 15.352582 16.993136 0.664460 0.443028 0.029338 -0.011828 3231670.000000 1 0 0
-12.977373 0.006488 9.715482 16.211195 -0.000500 0.928161 0.018365 -0.002440 286596.000000 1 0 0
-14.433873 8.931688 10.494082 19.955888 -0.554129 1.017066 0.009063 -0.012146 -2072640.000000 1 0 0
-8.448173 10.475888 12.840482 18.600909 -0.892141 0.808872 0.018400 -0.015464 -2050620.000000 1 0 0
-10.514673 7.225588 10.831582 16.735908 -0.602077 0.866883 0.017125 -0.003807 -67577.500000 1 0 0
-9.831173 -6.477812 14.868482 18.965383 0.582610 0.669745 0.040212 -0.016520 190572.000000 1 0 0
-0.871173 -13.403712 14.482482 19.752486 1.505893 0.747784 0.002331 -0.015034 1037920.000000 1 0 0
3.888127 -5.626412 16.888982 18.221190 -0.966103 0.384764 0.006909 -0.006283 2698620.000000 1 0 0
-7.388073 9.400788 10.275882 15.765538 -0.904713 0.860849 0.010518 -0.003439 1710980.000000 1 0 0
-10.378373 -6.714712 11.938482 17.185032 0.574257 0.802790 0.042287 -0.015448 2839770.000000 1 0 0
-10.854873 -3.938212 10.712482 15.751033 0.348037 0.822880 0.024873 -0.001858 -248373.000000 1 0 0
-10.115773 -10.188112 9.887582 17.432463 0.788961 0.967702 0.048495 -0.016822 1477150.000000 1 0 0
-9.901573 -3.595812 15.254882 18.538674 0.348346 0.604356 0.035295 -0.018897 872363.000000 1 0 0
5.667727 -3.342012 16.068082 17.363048 -0.532779 0.388658 0.004776 -0.005459 -206702.000000 1 0 0
-11.400373 0.343788 15.374982 19.143583 -0.030147 0.638249 0.031460 -0.009569 244977.000000 1 0 0
-3.100173 3.132688 18.748182 19.259261 -0.790615 0.230890 0.008652 -0.006748 -347291.000000 1 0 0
0.491427 7.439788 13.988482 15.851485 1.504838 0.489706 0.004597 0.000071 1786360.000000 1 0 0
-13.239273 -7.331212 12.262982 19.478340 0.505716 0.889796 0.058873 -0.023065 156397.000000 1 0 0
-1.434673 -1.049112 12.118182 12.247826 0.631396 0.145629 0.004499 -0.000587 62672.400000 1 0 0
2.125127 -4.872612 13.127282 14.162770 -1.159530 0.384765 -0.000147 -0.000940 1872100.000000 1 0 0
-14.646173 -4.074712 8.589582 17.461230 0.271348 1.056499 0.047183 -0.013685 -1775400.000000 1 0 0
8.072727 0.976888 16.147282 18.079213 0.120425 0.466516 0.016587 -0.010087 -60643.500000 1 0 0
-1.299773 11.392788 13.479182 17.696705 -1.457200 0.704898 0.014449 0.004106 1137490.000000 1 0 0
2.890227 -12.185312 -13.837618 18.663197 -1.337911 2.406008 0.007137 0.012686 -942228.000000 1 0 0
0.743227 -10.636112 -14.038718 17.628524 -1.501032 2.492055 0.001445 0.010196 -2076630.000000 1 0 0
3.318327 -14.370412 -12.552318 19.367001 -1.343860 2.275922 0.005592 0.012871 -978346.000000 1 0 0
-5.227273 -10.142212 -16.118618 19.748385 1.094907 2.525598 0.026746 -0.013384 -118374.000000 1 0 0
-1.060373 -12.064712 -15.252518 19.476164 1.483131 2.470492 0.010720 0.007836 334535.000000 1 0 0
5.690427 -14.915412 -11.952018 19.942448 -1.206328 2.213455 -0.001559 0.001397 -278305.000000 1 0 0
2.100227 -11.619912 -16.185218 20.034835 -1.391983 2.511298 0.009476 0.004509 -448591.000000 1 0 0
1.258527 -14.240312 -14.045718 20.041272 -1.482648 2.347370 0.016797 0.017387 31941.600000 1 0 0
-1.165973 -10.623412 -15.986918 19.230131 1.461479 2.552324 0.012847 -0.001929 60007.100000 1 0 0
-5.798873 -5.558012 -14.961018 16.980886 0.764193 2.648875 0.013409 -0.007409 -289419.000000 1 0 0
-6.349973 -7.482812 -16.441018 19.147368 0.867111 2.603440 0.014977 -0.010052 232033.000000 1 0 0
4.856027 -12.539312 -11.493418 17.689376 -1.201317 2.278033 -0.008697 0.009373 -11302.300000 1 0 0
-1.844773 -15.426912 -13.253118 20.421507 1.451780 2.277037 0.014070 0.007126 135284.000000 1 0 0
15.760427 -7.443812 -8.775418 19.514338 -0.441251 2.037215 0.052302 0.002415 379107.000000 1 0 0
19.314727 -3.551212 -4.411018 20.127764 -0.181830 1.791740 0.060442 -0.010890 1356200.000000 1 0 0
14.861827 -11.656012 -8.931218 20.892659 -0.665089 2.012501 0.057998 -0.013948 304855.000000 1 0 0
17.798227 -3.553412 -6.488118 19.274317 -0.197059 1.914121 0.060075 -0.005467 564231.000000 1 0 0
9.538127 -9.135412 -15.378218 20.271192 -0.763835 2.431995 0.037796 -0.024581 304467.000000 1 0 0
1.357127 1.895688 -15.316518 15.492939 0.949477 2.990537 0.015208 -0.008862 -1085.820000 1 0 0
5.000627 -4.301212 -13.924318 15.407574 -0.710348 2.699205 0.004468 -0.000267 779473.000000 1 0 0
13.175827 -5.499812 -8.697318 16.718065 -0.395430 2.117922 0.029345 -0.002599 -1368950.000000 1 0 0
3.075227 0.799588 -12.296118 12.700035 0.254377 2.888712 0.008004 -0.003296 -4298540.000000 1 0 0
0.661627 6.327488 -12.941218 14.420471 1.466611 2.684682 0.014878 -0.007056 102948.000000 1 0 0
3.208727 -1.122812 -16.946118 17.283737 -0.336607 2.943614 0.017578 -0.003910 -168956.000000 1 0 0
13.257227 4.274588 -11.333318 17.957457 0.311910 2.253793 -0.003916 0.000364 218709.000000 1 0 0
-3.853673 9.417688 -16.660518 19.522205 -1.182388 2.593296 0.002248 -0.003610 -297511.000000 1 0 0
-0.256373 -5.097012 -17.708618 18.429336 1.520540 2.861005 0.016759 -0.017062 548722.000000 1 0 0
-0.560473 -8.492412 -17.432618 19.399262 1.504895 2.687416 0.018464 -0.013011 -1996950.000000 1 0 0
5.573627 -10.148112 -12.072918 16.727368 -1.068546 2.377118 -0.003654 0.004001 462832.000000 1 0 0
1.558527 -9.713312 -18.226818 20.712179 -1.411700 2.646669 0.019655 -0.007107 -221350.000000 1 0 0
11.105627 8.818388 -14.458018 20.251746 0.671100 2.365869 0.053287 -0.022952 226482.000000 1 0 0
10.916427 -3.792712 -12.933918 17.344719 -0.334385 2.412378 0.010849 -0.005417 284495.000000 1 0 0
4.899527 7.516288 -12.288518 15.215375 0.993118 2.510932 0.005085 -0.003851 -874347.000000 1 0 0
9.689027 -5.941412 -12.634518 16.994372 -0.550076 2.409015 0.009503 -0.005341 -1346210.000000 1 0 0
-3.225873 0.382088 -15.810418 16.140681 -0.117896 2.938952 0.013687 -0.011259 525100.000000 1 0 0
-0.846973 10.817088 -12.886718 16.846194 -1.492656 2.441780 0.004974 -0.003802 -1257960.000000 1 0 0
6.707027 -5.456112 -12.410918 15.125616 -0.682914 2.533122 -0.002597 -0.002725 -221340.000000 1 0 0
17.902927 -6.187112 -8.169418 20.628489 -0.332743 1.977981 0.063098 -0.007248 484684.000000 1 0 0
13.309627 4.879488 -13.813318 19.793012 0.351398 2.343242 0.020055 -0.008444 183287.000000 1 0 0
14.242727 0.787688 -11.435818 18.282606 0.055248 2.246572 0.011281 0.003753 -670746.000000 1 0 0
15.280227 6.000088 -10.939618 19.727180 0.374172 2.158613 0.027177 -0.014775 449967.000000 1 0 0
8.386927 1.578688 -11.662018 14.451141 0.186055 2.509845 -0.007251 0.004750 354544.000000 1 0 0
9.876127 1.215588 -8.946918 13.381438 0.122468 2.303130 -0.002200 0.002624 191659.000000 1 0 0
-0.021773 -5.722812 -13.027618 14.229191 1.566992 2.727684 0.006610 -0.003559 358777.000000 1 0 0
10.595727 -5.726912 -9.070918 15.078081 -0.495515 2.216294 0.005796 -0.003404 -1278270.000000 1 0 0
10.320627 8.573188 -11.188218 17.469720 0.693173 2.265861 0.028398 -0.015017 497284.000000 1 0 0
8.483027 8.301488 -14.567118 18.790354 0.774583 2.457898 0.033490 -0.009990 355417.000000 1 0 0
8.635527 10.514388 -10.662818 17.286422 0.883198 2.235508 0.036174 -0.016531 -584316.000000 1 0 0
7.055627 1.942488 -18.094618 19.518462 0.268655 2.757267 0.016257 0.005870 -1595420.000000 1 0 0
12.200327 2.571688 -12.897718 17.939139 0.207747 2.373117 0.003625 -0.000940 -1186810.000000 1 0 0
2.628627 -1.050212 -19.526818 19.730921 -0.380100 2.997633 0.022350 -0.009007 -111053.000000 1 0 0
10.403527 -2.387212 -15.625318 18.923074 -0.225557 2.542289 0.018918 0.001407 263083.000000 1 0 0
8.353427 -0.686112 -13.126018 15.573787 -0.081951 2.573312 -0.001917 0.002374 263937.000000 1 0 0
0.590827 4.317188 -14.588518 15.225375 1.434787 2.851339 0.016078 -0.005676 837500.000000 1 0 0
4.025327 -7.669312 -15.710718 17.940130 -1.087458 2.637743 0.012370 -0.006345 -81428.100000 1 0 0
11.452427 -5.784112 -14.386718 19.276714 -0.467684 2.413322 0.032359 -0.008545 -1458800.000000 1 0 0
-5.676373 4.418888 -16.836018 18.308449 -0.661475 2.737797 0.009424 -0.009668 -342943.000000 1 0 0
11.444527 7.827788 -9.020518 16.541500 0.599891 2.147575 0.022029 -0.006861 -415370.000000 1 0 0
9.626027 6.299588 -13.385118 17.649550 0.579485 2.431625 0.013294 -0.000184 -567840.000000 1 0 0
12.082527 0.658188 -10.064318 15.738843 0.054421 2.264589 0.004830 0.004682 -1559470.000000 1 0 0
5.576127 -7.272912 -13.737018 16.513452 -0.916694 2.553262 0.003847 -0.003224 -809602.000000 1 0 0
8.510027 -10.213712 -10.718218 17.076905 -0.876139 2.249320 0.003537 -0.002336 -238857.000000 1 0 0
10.194327 4.684588 -15.874118 19.438552 0.430750 2.526345 0.025076 -0.004644 -1179580.000000 1 0 0
10.017727 -0.370812 -11.064318 14.930221 -0.036999 2.405457 -0.001376 0.003902 -1024370.000000 1 0 0
-1.677773 5.542288 -14.044018 15.190995 -1.276844 2.750508 0.011664 -0.011030 622574.000000 1 0 0
1.463227 -0.760812 -14.953418 15.044088 -0.479484 3.031747 0.015116 -0.008348 -719510.000000 1 0 0
11.434027 -10.493712 -14.388118 21.163008 -0.742542 2.318383 0.052788 -0.016028 25026.700000 1 0 0
9.342327 -7.777912 -10.781418 16.248507 -0.694273 2.296327 0.008434 -0.004146 -480546.000000 1 0 0
14.041327 -0.975912 -9.734818 17.113678 -0.069391 2.175882 0.012478 0.003806 1055280.000000 1 0 0
3.959627 11.285088 -12.207218 17.089413 1.233344 2.366441 0.026139 -0.013234 76625.300000 1 0 0
-1.241073 3.032588 -16.983618 17.296825 -1.182345 2.951001 0.012874 -0.008933 -490387.000000 1 0 0
6.015327 -0.470312 -17.757118 18.754216 -0.078027 2.814043 0.009686 0.003304 23660.600000 1 0 0
6.441627 -6.662112 -16.136018 18.607777 -0.802223 2.620278 0.014502 -0.004159 131893.000000 1 0 0
-1.687073 -5.205312 -19.836018 20.576907 1.257373 2.872431 0.024817 -0.025107 -1677890.000000 1 0 0
0.141327 -4.283212 -15.228318 15.819847 -1.537813 2.867268 0.010514 -0.009670 116770.000000 1 0 0
0.627527 0.797588 -13.094818 13.134085 0.904168 3.064247 0.013633 -0.008020 858904.000000 1 0 0
15.659327 0.598588 -13.511718 20.691529 0.038207 2.282345 0.034427 -0.004239 567048.000000 1 0 0
-0.070473 7.041088 -16.317218 17.771705 -1.560788 2.734200 0.022027 -0.008751 -188279.000000 1 0 0
-4.806673 -0.465412 -18.238518 18.867015 0.096525 2.882755 0.010558 -0.014562 -313972.000000 1 0 0
10.543627 -8.452312 -13.020418 18.765419 -0.675747 2.337620 0.015920 -0.015549 1762890.000000 1 0 0
4.171427 8.686288 -17.225218 19.737288 1.123088 2.631552 0.045008 -0.018882 -416480.000000 1 0 0
9.251727 0.895288 -16.980418 19.357960 0.096469 2.640754 0.007879 0.004027 -359639.000000 1 0 0
3.256327 5.016988 -18.636518 19.572778 0.995082 2.831041 0.028939 -0.003708 -157261.000000 1 0 0
1.545727 -8.134812 -16.017418 18.031143 -1.383021 2.664469 0.006321 -0.002359 -211739.000000 1 0 0
4.620827 7.731088 -14.915718 17.424133 1.032074 2.598352 0.019257 -0.008174 590812.000000 1 0 0
-5.713673 -0.399112 -15.213718 16.256155 0.069739 2.781529 0.010372 -0.008878 -100209.000000 1 0 0
2.975327 3.364288 -13.777218 14.490781 0.846675 2.826467 0.011693 -0.003821 -273001.000000 1 0 0
-2.486073 -10.146512 -18.144718 20.937122 1.330513 2.619202 0.041169 -0.008130 118949.000000 1 0 0
6.223527 -9.147712 -15.271718 18.858375 -0.973389 2.514626 0.003489 -0.010947 -57183.000000 1 0 0
-1.831873 5.468588 -17.284118 18.220921 -1.247564 2.819536 0.013872 -0.007836 1890000.000000 1 0 0
10.051327 -12.098412 -11.558618 19.519283 -0.877557 2.204538 0.040484 -0.019598 493578.000000 1 0 0
10.894327 3.656988 -9.410018 14.852891 0.323859 2.256927 0.000552 -0.000108 -1264940.000000 1 0 0
4.928127 -0.388412 -10.992318 12.052733 -0.078653 2.718976 0.001521 -0.001816 750577.000000 1 0 0
6.260127 9.597188 -11.323218 16.109329 0.992815 2.350260 0.024578 -0.016304 335044.000000 1 0 0
10.779127 -9.604012 -9.493518 17.278701 -0.727811 2.152484 0.024767 -0.008863 -277177.000000 1 0 0
3.432427 -2.410612 -14.662418 15.250545 -0.612271 2.862972 0.012117 -0.003918 64932.800000 1 0 0
9.209127 -4.523112 -14.804618 18.012309 -0.456547 2.535564 0.012512 -0.005806 -260834.000000 1 0 0
-4.018273 -6.440112 -16.527818 18.187642 1.012956 2.711049 0.006679 -0.012164 -2862660.000000 1 0 0
5.984227 -7.728012 -11.159818 14.834914 -0.911889 2.422293 -0.004947 0.000606 60763.400000 1 0 0
5.468527 6.371888 -16.947818 18.913865 0.861545 2.681593 0.019600 -0.010141 -1756650.000000 1 0 0
9.118027 1.504288 -19.480118 21.560990 0.163507 2.698638 0.028024 -0.006604 229879.000000 1 0 0
13.163827 5.747588 -9.266818 17.093713 0.411671 2.143753 0.000511 -0.001468 564862.000000 1 0 0
-1.761373 -0.959512 -17.369118 17.484546 0.498805 3.026623 0.019433 -0.013596 237062.000000 1 0 0
-0.611973 -0.555112 -19.617118 19.634510 0.736716 3.099500 0.021214 -0.018596 -161322.000000 1 0 0
2.906327 6.452988 -16.580418 18.027703 1.147623 2.738160 0.026043 -0.004407 -436806.000000 1 0 0
7.711927 3.842388 -15.621018 17.839674 0.462238 2.637542 0.008181 0.001875 -355431.000000 1 0 0
3.178527 -9.846612 -14.734318 18.004414 -1.258552 2.529370 0.008375 0.000295 -287843.000000 1 0 0
9.054527 -10.560712 -13.294618 19.242141 -0.862034 2.333546 0.023153 -0.008738 -424047.000000 1 0 0
3.922727 0.073488 -14.865418 15.374454 0.018732 2.883548 0.009554 -0.002930 -2510070.000000 1 0 0
-1.079973 -2.900512 -18.915918 19.167453 1.214361 2.979409 0.021672 -0.018105 -78051.300000 1 0 0
9.436527 10.257388 -13.117018 19.139442 0.827055 2.325866 0.051313 -0.018742 433435.000000 1 0 0
4.702327 2.162988 -10.837518 12.010087 0.431124 2.696029 0.000903 0.000331 196357.000000 1 0 0
-0.571873 7.104988 -18.894218 20.194043 -1.490481 2.780845 0.031001 -0.006843 118567.000000 1 0 0
0.802627 -1.694112 -17.714218 17.813134 -1.128348 3.036159 0.021626 -0.015135 -866913.000000 1 0 0
-4.395873 -2.215912 -14.120618 14.954124 0.466914 2.806143 0.011273 -0.011155 -1986350.000000 1 0 0
10.224727 6.067588 -10.430918 15.816597 0.535569 2.290939 0.007764 0.004470 31738.300000 1 0 0
8.244627 5.706588 -17.320418 20.013393 0.605444 2.616827 0.033883 -0.013928 -750887.000000 1 0 0
11.559127 0.269388 -13.902718 18.082355 0.023301 2.447846 0.010065 0.016585 520756.000000 1 0 0
6.796627 12.055388 -11.792618 18.182199 1.057432 2.276514 0.044509 -0.022487 -652323.000000 1 0 0
-0.802373 0.539888 -15.305618 15.336141 -0.592281 3.078491 0.013548 -0.011476 174377.000000 1 0 0
-4.147873 -2.846212 -18.946418 19.602871 0.601395 2.882069 0.012427 -0.017174 -590316.000000 1 0 0
5.611327 -12.016512 -13.878318 19.196126 -1.133922 2.378895 -0.004457 0.001804 -762501.000000 1 0 0
2.319927 -4.619112 -14.043218 14.964299 -1.105354 2.788906 0.010641 -0.004546 58238.300000 1 0 0
11.749227 2.368588 -15.405018 19.518431 0.198929 2.480391 0.020002 -0.001657 105519.000000 1 0 0
9.716927 2.260888 -13.785418 17.016699 0.228608 2.515138 0.001117 0.002474 866561.000000 1 0 0
-2.151373 -4.029712 -16.442218 17.064979 1.080415 2.870603 0.002294 -0.013587 -1261890.000000 1 0 0
-2.938873 10.208388 -14.400318 17.894617 -1.290488 2.506015 0.009312 -0.008254 -62267.700000 1 0 0
3.529727 5.876588 -13.598418 15.228599 1.029905 2.674659 0.014945 -0.005205 -671402.000000 1 0 0
-5.080473 -2.562212 -16.580418 17.529586 0.467102 2.811010 0.012242 -0.010939 463158.000000 1 0 0
-4.300973 6.178588 -13.630818 15.571529 -0.962686 2.636993 0.003249 -0.009430 -193998.000000 1 0 0
6.049327 -1.086712 -14.257118 15.525486 -0.177746 2.734571 0.004405 0.005380 -1615370.000000 1 0 0
6.991627 -2.976212 -12.769918 14.859727 -0.402448 2.604821 0.000373 -0.000713 261686.000000 1 0 0
2.824627 -3.360512 -18.225518 18.746762 -0.871823 2.905227 0.023423 -0.017961 -401793.000000 1 0 0
7.427227 -12.069412 -11.953318 18.539585 -1.019148 2.271487 0.003923 0.000231 -828781.000000 1 0 0
-6.169373 -5.205912 -17.580618 19.345305 0.700902 2.711146 0.034157 -0.013558 348551.000000 1 0 0
0.483827 8.726988 -11.917718 14.779256 1.515413 2.508804 0.005862 -0.003425 -70107.500000 1 0 0
0.314627 8.591388 -14.432018 16.798633 1.534191 2.604341 0.011868 -0.009863 250701.000000 1 0 0
7.853627 -2.351012 -15.096518 17.178812 -0.290864 2.644111 0.005325 -0.004385 -840821.000000 1 0 0
14.367127 1.449388 -8.878118 16.950990 0.100542 2.122046 0.005038 0.005391 326848.000000 1 0 0
2.880727 10.954288 -14.645118 18.514170 1.313642 2.483274 0.028236 -0.005581 -831064.000000 1 0 0
6.261327 1.056688 -15.674618 16.911962 0.167189 2.756693 0.010404 0.003470 570026.000000 1 0 0
16.657427 -5.625012 -10.363518 20.408654 -0.325665 2.103426 0.078734 -0.006849 697158.000000 1 0 0
5.039327 -4.043712 -11.225018 12.951736 -0.676221 2.619306 -0.001519 -0.002190 -484229.000000 1 0 0
8.683427 -3.625112 -17.176118 19.584749 -0.395480 2.640410 0.001950 -0.007190 298341.000000 1 0 0
13.197227 -9.699112 -8.942118 18.660146 -0.633790 2.070550 0.053260 -0.011477 -67167.100000 1 0 0
2.403427 -7.629412 -13.600618 15.778505 -1.265616 2.609942 -0.000340 0.001065 -30217.800000 1 0 0
-6.700773 -2.234412 -18.459118 19.764412 0.321861 2.776127 0.010031 -0.011674 -1559800.000000 1 0 0
-1.527973 -6.341112 -15.717718 17.017375 1.334341 2.748236 0.007050 -0.010921 -83683.600000 1 0 0
1.522727 -7.211612 -18.470518 19.886832 -1.362704 2.761907 0.027960 -0.015614 -345123.000000 1 0 0
5.387927 10.733888 -14.359618 18.720170 1.105586 2.445053 0.044874 -0.032812 -757378.000000 1 0 0
5.428027 -3.406412 -17.524318 18.659283 -0.560438 2.791014 0.016333 -0.008881 657005.000000 1 0 0
4.332927 13.043988 -14.090718 19.684212 1.250086 2.368621 0.030086 -0.017654 16247.600000 1 0 0
9.580827 10.482188 -15.669618 21.147233 0.830294 2.405321 0.069752 -0.021997 94889.600000 1 0 0
2.625327 3.945688 -16.282818 16.958507 0.983695 2.858357 0.017649 -0.004291 664005.000000 1 0 0
16.637227 1.739188 -11.362518 20.221991 0.104158 2.167464 0.037539 -0.002703 -703992.000000 1 0 0
9.962927 -3.683412 -10.579318 14.991645 -0.354126 2.354180 0.005757 -0.000186 615243.000000 1 0 0
14.757127 -2.090212 -11.893018 19.067923 -0.140705 2.244287 0.041585 -0.002270 634200.000000 1 0 0
-2.751573 -8.556112 -16.051518 18.396452 1.259650 2.631160 0.014408 -0.003050 -505329.000000 1 0 0
14.037027 8.198288 -8.832718 18.500459 0.528607 2.068527 0.036800 -0.009597 -201582.000000 1 0 0
-8.305073 0.104588 -16.665518 18.620544 -0.012593 2.679243 0.017863 -0.005413 -814988.000000 1 0 0
-3.413173 3.952388 -15.818218 16.657945 -0.858475 2.822722 0.012979 -0.010366 -1961770.000000 1 0 0
15.032927 3.906588 -9.606918 18.263165 0.254245 2.124719 0.001409 0.003347 78456.800000 1 0 0
5.445127 1.129088 -13.111018 14.241596 0.204460 2.740447 0.000081 0.002159 510579.000000 1 0 0
7.929627 -7.681912 -12.979518 17.039914 -0.769532 2.436749 0.007909 -0.007166 -2857150.000000 1 0 0
3.435627 -6.047412 -11.900918 13.784287 -1.054151 2.612704 0.000368 -0.001729 -1084020.000000 1 0 0
-3.313973 3.648088 -18.483218 19.129044 -0.833352 2.881004 0.018885 -0.006134 74081.000000 1 0 0
0.850127 5.116588 -17.731018 18.474068 1.406149 2.857009 0.031251 -0.015971 -416587.000000 1 0 0
6.384427 7.209588 -10.275618 14.082876 0.846024 2.388611 0.003859 -0.000385 300468.000000 1 0 0
9.837027 3.789588 -11.727218 15.768821 0.367715 2.409379 0.005023 0.002220 657234.000000 1 0 0
4.599427 1.725388 -17.555418 18.229767 0.358886 2.868748 0.020357 -0.002444 -770792.000000 1 0 0
2.611327 8.160288 -13.275518 15.800276 1.261089 2.568463 0.015128 -0.007325 -783801.000000 1 0 0
14.362027 -3.583712 -9.857318 17.784194 -0.244533 2.158287 0.032439 -0.000646 386768.000000 1 0 0
-1.321673 9.286188 -16.201218 18.720566 -1.429419 2.616791 0.017526 -0.008130 -1894650.000000 1 0 0
-5.212373 2.089388 -15.775418 16.745095 -0.381240 2.799611 0.013181 -0.010702 419620.000000 1 0 0
4.572827 4.361088 -12.029118 13.587845 0.761702 2.657903 0.002650 -0.002512 233906.000000 1 0 0
9.185727 3.377588 -17.763018 20.280791 0.352355 2.638000 0.015771 0.001100 741726.000000 1 0 0
-4.348973 14.321188 -13.365718 20.066201 -1.275972 2.299739 0.009464 -0.012840 -453890.000000 1 0 0
15.617027 -4.881412 -8.047518 18.234096 -0.302949 2.027893 0.052735 -0.003198 -36101.500000 1 0 0
1.300127 9.121188 -16.779118 19.142236 1.429211 2.639442 0.028891 -0.014371 -488488.000000 1 0 0
0.502327 -3.187812 -12.795218 13.195912 -1.414504 2.894530 0.008334 -0.004896 133110.000000 1 0 0
7.498927 3.605888 -13.006718 15.440565 0.448214 2.572468 -0.000850 0.002651 846038.000000 1 0 0
-3.008973 7.593688 -15.101218 17.168716 -1.193530 2.645770 0.010195 -0.008688 472386.000000 1 0 0
12.118627 -5.091712 -11.050618 17.172735 -0.397760 2.269856 0.024076 -0.005032 -1106990.000000 1 0 0
0.821327 -4.425512 -19.976718 20.477524 -1.387295 2.919977 0.032821 -0.025641 -312118.000000 1 0 0
3.613627 -4.649612 -16.148418 17.188618 -0.910120 2.791915 0.020043 -0.011444 637314.000000 1 0 0
-5.652973 4.138388 -14.318218 15.940318 -0.631929 2.686543 0.004762 -0.007113 319714.000000 1 0 0
12.150827 -7.521312 -9.819618 17.338905 -0.554270 2.172848 0.018432 -0.004355 -187738.000000 1 0 0
-1.887873 -1.807712 -14.922418 15.149602 0.763711 2.968193 0.012228 -0.010688 150030.000000 1 0 0
7.172427 5.992788 -14.236318 17.030266 0.696034 2.560644 0.010807 -0.003729 18681.900000 1 0 0
4.205927 -5.524512 -18.551118 19.807929 -0.920089 2.783452 0.032456 -0.014062 164965.000000 1 0 0
7.657727 7.499188 -12.278118 16.298184 0.774939 2.423927 0.013340 -0.007874 81712.400000 1 0 0
12.272227 -2.457612 -11.090318 16.722517 -0.197644 2.295878 0.014262 -0.000006 -18370.000000 1 0 0
7.569727 -0.786512 -10.778418 13.194456 -0.103531 2.526795 -0.005029 0.002294 -1914850.000000 1 0 0
5.361427 4.175888 -14.441718 15.960770 0.661727 2.701767 0.008209 -0.002392 528055.000000 1 0 0
14.820727 2.965488 -12.759818 19.780319 0.197483 2.271920 0.019900 -0.010438 341055.000000 1 0 0
-6.732873 6.691388 -15.731918 18.373881 -0.782308 2.598687 0.009268 -0.006177 562760.000000 1 0 0
-10.981273 3.931488 -16.589518 20.279474 -0.343799 2.528800 0.040255 -0.022174 81088.600000 1 0 0
-5.088073 6.666688 -17.837118 19.710302 -0.918895 2.702092 0.010097 0.002494 113944.000000 1 0 0
-10.059873 1.666788 -15.763318 18.773956 -0.164195 2.567412 0.042085 -0.011365 -474877.000000 1 0 0
-7.598173 5.759588 -17.912618 20.292042 -0.648616 2.652461 0.013747 -0.010173 -500705.000000 1 0 0
-8.557273 3.783988 -15.483118 18.090672 -0.416345 2.598011 0.009686 -0.008678 -844068.000000 1 0 0
9.004727 13.486388 -11.816418 20.064783 0.982086 2.200510 0.075620 -0.036227 466285.000000 1 0 0
13.693127 8.988088 -11.304118 19.901521 0.580857 2.174873 0.022027 -0.017364 413530.000000 1 0 0
8.331427 16.062588 -9.090618 20.249907 1.092313 2.036354 0.056834 -0.018821 41779.500000 1 0 0
7.391627 13.522088 -13.925018 20.769910 1.070541 2.305601 0.067927 -0.024947 -306156.000000 1 0 0
4.524827 15.660288 -12.716018 20.674037 1.289520 2.233273 0.054220 -0.030330 -134242.000000 1 0 0
11.077527 11.062588 -11.180618 19.237949 0.784723 2.190968 0.059812 -0.026884 -172572.000000 1 0 0
15.717227 9.834888 -9.676318 20.913809 0.559131 2.051808 0.054977 -0.007565 799069.000000 1 0 0
13.300827 10.710388 -9.227118 19.410413 0.677929 2.066180 0.070544 -0.019505 76251.800000 1 0 0
10.291827 12.059288 -8.394218 17.939092 0.864311 2.057742 0.038999 -0.003695 207412.000000 1 0 0
5.205627 16.238088 -10.288118 19.915307 1.260566 2.113664 0.037484 -0.018463 81311.400000 1 0 0
6.735027 14.696188 -11.648618 19.925583 1.141075 2.195191 0.049696 -0.011926 -498598.000000 1 0 0
10.778927 14.233388 -9.709618 20.323663 0.922640 2.068887 0.071285 -0.011194 -676620.000000 1 0 0
8.203827 -18.716612 -1.148518 20.467864 -1.157700 1.626939 0.058268 0.005319 -213557.000000 1 0 0
7.652827 -17.459512 -3.343318 19.354020 -1.157699 1.744413 0.048501 -0.001763 -274158.000000 1 0 0
4.713327 -18.179712 5.891182 19.683074 -1.317119 1.266835 0.030982 -0.003291 329704.000000 1 0 0
9.970727 -17.220512 -2.348618 20.036902 -1.045959 1.688281 0.058920 -0.004266 53640.200000 1 0 0
-9.684073 -12.297512 -9.973318 18.560095 0.903735 2.138091 0.020844 -0.008161 65479.900000 1 0 0
-5.057173 -6.889612 -12.119818 14.830096 0.937595 2.527410 0.006293 -0.003265 754249.000000 1 0 0
-10.892073 -9.574412 -5.596418 15.544340 0.721106 1.939096 0.011433 -0.003940 -1249790.000000 1 0 0
-4.538173 -11.389212 -13.966918 18.584509 1.191616 2.421183 0.025539 -0.009131 136945.000000 1 0 0
-2.944473 -15.516712 7.514582 17.490203 1.383265 1.126697 0.010843 -0.005981 417953.000000 1 0 0
-4.747873 -11.989612 -11.498118 17.277147 1.193744 2.298974 0.017945 -0.005003 388164.000000 1 0 0
-14.363373 -12.838712 -4.229118 19.723703 0.729407 1.786892 0.019793 -0.004114 -953963.000000 1 0 0
-3.165073 -12.285812 -3.290318 13.106680 1.318659 1.824552 0.010192 -0.001145 848041.000000 1 0 0
-2.436573 -17.353012 -1.487618 17.586271 1.431296 1.655487 0.004438 -0.008187 -1049040.000000 1 0 0
-5.811273 -12.160212 3.714182 13.979871 1.124991 1.301886 0.004309 -0.002905 652729.000000 1 0 0
-8.911973 -10.857012 -11.959618 18.448047 0.883471 2.276128 0.021451 -0.004771 822869.000000 1 0 0
-9.796273 -12.010912 -7.428418 17.187506 0.886607 2.017726 0.016020 -0.009003 -357378.000000 1 0 0
-10.763473 -15.026312 5.895582 19.401038 0.949209 1.262034 0.060907 -0.023275 -1337730.000000 1 0 0
-9.477673 -15.843812 0.721582 18.476291 1.031706 1.531732 0.028565 -0.006339 -1247980.000000 1 0 0
-14.764773 -7.727412 -8.217318 18.580520 0.482167 2.028907 0.023156 -0.011170 217682.000000 1 0 0
-2.275173 -16.658212 5.246682 17.612499 1.435057 1.268309 0.020972 -0.008218 939945.000000 1 0 0
4.575227 -15.603112 6.149582 17.384107 -1.285566 1.209222 0.023704 -0.011498 -480142.000000 1 0 0
4.057927 -14.628412 -10.022418 18.190824 -1.300200 2.154311 -0.007133 0.004047 -279655.000000 1 0 0
-7.586573 -14.222212 -0.309318 16.122130 1.080763 1.589983 0.011125 0.002314 1149120.000000 1 0 0
2.904427 -14.721112 9.775282 17.908182 -1.376001 0.993386 0.023859 -0.016350 30274.700000 1 0 0
2.585027 -17.168112 10.512182 20.296118 -1.421348 1.026355 0.046337 -0.021708 -404304.000000 1 0 0
-8.283873 -17.150712 -5.922018 19.945921 1.120837 1.872245 0.030856 -0.005791 -87628.700000 1 0 0
-6.429273 -9.164112 -7.689718 13.581173 0.959017 2.172690 0.011341 -0.006298 247051.000000 1 0 0
-6.097373 -13.150112 -4.819418 15.275149 1.136629 1.891787 0.003766 -0.001861 -103654.000000 1 0 0
2.033327 -19.382112 -4.934918 20.103584 -1.466271 1.818806 0.018348 -0.014522 -246740.000000 1 0 0
-5.457173 -12.800812 8.346482 16.226684 1.167813 1.030526 0.016335 -0.011177 813069.000000 1 0 0
2.345227 -17.411412 3.535982 17.920952 -1.436907 1.372183 0.016905 -0.010623 1101350.000000 1 0 0
-17.553073 -9.981812 -2.558418 20.354175 0.517060 1.696825 0.014904 -0.014175 668709.000000 1 0 0
-3.467873 -15.414012 2.664482 16.022402 1.349499 1.403723 0.007413 -0.005199 -35590.200000 1 0 0
-10.266373 -10.187712 -14.137218 20.224955 0.781552 2.344793 0.041635 -0.011479 -189805.000000 1 0 0
6.245327 -14.735512 -5.708218 16.991856 -1.169919 1.913398 0.012701 -0.003345 293734.000000 1 0 0
-7.225573 -12.347212 -10.741318 17.889619 1.041331 2.214825 0.018438 -0.010511 -2303370.000000 1 0 0
-7.103573 -14.371412 3.978682 16.517510 1.111731 1.327527 0.011929 -0.002925 820885.000000 1 0 0
3.218627 -14.926412 -3.118318 15.584648 -1.358415 1.772245 0.008702 -0.002063 -121112.000000 1 0 0
-7.604673 -11.362512 7.715682 15.699346 0.980988 1.057025 0.020399 -0.015424 -1904090.000000 1 0 0
-12.784373 -12.521312 -0.973118 17.921228 0.775003 1.625123 0.005828 0.006748 120521.000000 1 0 0
-1.882873 -13.691812 4.016482 14.392465 1.434135 1.287973 0.006235 -0.000589 -2005930.000000 1 0 0
-2.931673 -14.042812 5.245582 15.274534 1.364986 1.220240 0.008019 -0.002985 -879935.000000 1 0 0
-14.453673 -10.229812 -4.349518 18.233925 0.615919 1.811658 0.010532 -0.007545 430039.000000 1 0 0
-6.127173 -8.689212 -10.358818 14.844183 0.956624 2.343169 0.010178 -0.003556 119705.000000 1 0 0
1.033427 -19.424012 2.409182 19.600112 -1.517643 1.447568 0.024075 -0.012487 264078.000000 1 0 0
6.402327 -14.020612 -8.205618 17.461372 -1.142437 2.060008 0.009797 -0.001100 -1860820.000000 1 0 0
-3.939673 -16.808012 -5.839718 18.224505 1.340560 1.896982 0.003588 -0.005367 -350827.000000 1 0 0
-3.590673 -13.665712 -13.174318 19.318573 1.313854 2.321223 0.034609 -0.000805 -2081920.000000 1 0 0
-8.222373 -14.715912 -4.593118 17.471755 1.061268 1.836811 0.013370 -0.002911 324089.000000 1 0 0
-4.559873 -14.353612 10.181182 18.178974 1.263198 0.976347 0.021228 -0.011360 -1891960.000000 1 0 0
-0.226873 -12.162012 -9.913218 15.691969 1.552144 2.254590 0.005274 0.004389 537168.000000 1 0 0
2.556927 -17.094712 6.953782 18.631214 -1.422323 1.188305 0.025537 -0.020002 -813686.000000 1 0 0
-2.890273 -19.248412 -3.182418 19.722648 1.421753 1.732863 0.011726 -0.016272 -946140.000000 1 0 0
0.622627 -15.409012 -3.127918 15.735603 -1.530412 1.770909 0.007259 -0.003783 -289616.000000 1 0 0
5.957827 -17.885912 0.501982 18.858779 -1.249254 1.544175 0.023476 -0.000867 -553807.000000 1 0 0
-6.805073 -16.832112 3.975582 18.585862 1.186596 1.355227 0.017412 -0.005248 577802.000000 1 0 0
-5.298373 -13.601212 -9.485618 17.408121 1.199330 2.147062 0.019871 -0.004489 -78733.900000 1 0 0
5.722927 -15.208712 -2.148518 16.391246 -1.210893 1.702252 0.019632 -0.000359 594147.000000 1 0 0
-8.950873 -10.355212 -0.607818 13.701021 0.858011 1.615174 -0.000012 0.005404 -245431.000000 1 0 0
-7.435773 -18.429112 -3.052518 20.105739 1.187294 1.723209 0.021991 -0.015075 -110039.000000 1 0 0
7.943227 -16.054412 -1.105518 17.946063 -1.111342 1.632438 0.028503 0.000765 -633138.000000 1 0 0
-8.036673 -10.165812 -9.612318 16.134699 0.901839 2.209001 0.015180 -0.007955 -585901.000000 1 0 0
-9.318573 -15.045112 -6.956918 19.015517 1.016252 1.945347 0.028869 -0.008799 -266443.000000 1 0 0
-11.507073 -10.392012 -11.869718 19.526824 0.734524 2.224168 0.046247 -0.003160 -335737.000000 1 0 0
6.578627 -16.160312 2.516082 17.628519 -1.184197 1.427579 0.018639 -0.004674 -48312.800000 1 0 0
-2.215873 -11.270312 -6.118818 13.014221 1.376661 2.060273 0.006641 0.000177 451187.000000 1 0 0
-12.435773 -15.302012 -3.202318 19.976357 0.888366 1.731796 0.014101 -0.009005 -54106.200000 1 0 0
-0.346273 -19.997412 -3.136718 20.244886 1.553482 1.726362 0.032239 -0.007656 774590.000000 1 0 0
-5.875973 -15.661112 -4.625718 17.354963 1.211855 1.840593 0.004081 -0.005846 -2144710.000000 1 0 0
2.037627 -15.917912 -1.061618 16.082875 -1.443480 1.636854 0.012492 -0.007786 726367.000000 1 0 0
-13.187773 -12.019012 5.365982 18.632438 0.739064 1.278668 0.031575 -0.007370 365193.000000 1 0 0
2.007527 -15.259312 -8.630618 17.645519 -1.439987 2.081867 0.007435 0.005005 -1098040.000000 1 0 0
-11.876373 -16.805912 0.051782 20.578863 0.955602 1.568280 0.045107 -0.019299 805300.000000 1 0 0
-7.587273 -16.724612 -0.989918 18.391827 1.144904 1.624646 0.024108 -0.007835 323602.000000 1 0 0
-2.968873 -14.500512 -1.796018 14.909887 1.368845 1.691548 0.003673 -0.001110 576532.000000 1 0 0
-1.828473 -10.473412 -13.304418 17.030655 1.397956 2.467389 0.004891 0.003816 -220795.000000 1 0 0
1.730127 -19.479612 4.897382 20.160183 -1.482211 1.325418 0.037721 -0.019107 5490.200000 1 0 0
-17.457173 -9.411312 2.444382 19.982509 0.494443 1.448163 0.036554 -0.005047 294531.000000 1 0 0
-2.804573 -15.629712 -8.046618 17.801730 1.393247 2.039817 0.002262 -0.002528 -53660.300000 1 0 0
-10.490773 -12.201012 0.333582 16.094480 0.860624 1.550068 0.008720 0.003288 512807.000000 1 0 0
-6.845773 -11.463212 -6.607118 14.897109 1.032442 2.030315 0.009526 -0.003000 -127972.000000 1 0 0
-2.253573 -13.711012 -6.638218 15.399233 1.407891 2.016480 0.000801 0.000037 574122.000000 1 0 0
-14.442973 -14.552112 -1.044518 20.529356 0.789162 1.621698 0.038405 -0.002397 275021.000000 1 0 0
-9.618673 -11.373312 -4.307118 15.505559 0.868790 1.852278 0.012733 -0.002752 1061880.000000 1 0 0
9.423327 -15.184412 -5.068118 18.575556 -1.015373 1.847138 0.032331 -0.006589 -103335.000000 1 0 0
-5.600873 -10.962812 -9.406518 15.493083 1.098469 2.223257 0.013491 -0.007714 -265579.000000 1 0 0
-10.417273 -16.069312 -4.772818 19.736316 0.995637 1.815047 0.026293 -0.000920 -681645.000000 1 0 0
2.243827 -17.355612 -3.276318 17.804109 -1.442224 1.755871 0.018089 -0.008640 389502.000000 1 0 0
-0.415073 -14.530612 -8.205718 16.692657 1.542239 2.084696 0.001554 0.002843 -1461880.000000 1 0 0
-0.615273 -18.269912 -7.154218 19.630361 1.537132 1.943835 0.019297 -0.010096 193611.000000 1 0 0
-1.792473 -10.092412 -10.661618 14.789856 1.395023 2.375858 0.005587 0.001938 340712.000000 1 0 0
-4.892373 -17.431812 2.035182 18.219367 1.297178 1.458858 0.015033 -0.008514 553406.000000 1 0 0
0.249227 -12.813012 -2.643118 13.085162 -1.551348 1.774189 0.005498 -0.000246 -906438.000000 1 0 0
2.626127 -14.894912 3.001982 15.419690 -1.396280 1.374860 0.011895 -0.003024 -1064940.000000 1 0 0
-9.491273 -13.109012 6.790982 17.551293 0.944126 1.173505 0.034372 -0.010407 64860.500000 1 0 0
-1.028473 -17.912612 -4.549118 18.509833 1.513443 1.819108 0.017774 -0.009303 89130.300000 1 0 0
-9.751173 -17.711012 -2.017018 20.318309 1.067515 1.670231 0.037660 -0.014969 873169.000000 1 0 0
1.387927 -16.401812 1.334682 16.514453 -1.486377 1.489889 0.007442 -0.006893 1395860.000000 1 0 0
-0.271573 -18.067012 4.139782 18.537218 1.555766 1.345574 0.019402 -0.012740 -487450.000000 1 0 0
-17.379273 -9.336012 -0.084618 19.728340 0.492957 1.575086 0.007714 -0.001792 1593720.000000 1 0 0
-14.731073 -7.219112 -10.709618 19.591223 0.455664 2.149159 0.055213 -0.011993 571129.000000 1 0 0
2.744027 -12.683912 -8.806318 15.683193 -1.357740 2.167010 -0.007725 0.005281 449753.000000 1 0 0
-11.590173 -14.865612 1.771882 18.932989 0.908579 1.477072 0.022666 -0.005960 335838.000000 1 0 0
-2.388973 -15.638612 10.537282 19.008095 1.419207 0.983205 0.028023 -0.016086 -352994.000000 1 0 0
-6.990873 -15.973712 1.441682 17.496006 1.158261 1.488302 0.024476 -0.007401 -793890.000000 1 0 0
-12.591673 -15.181412 -5.760218 20.547642 0.878376 1.854939 0.022250 -0.001725 -337396.000000 1 0 0
0.952427 -13.719912 -5.075618 14.659639 -1.501488 1.924347 0.008738 0.000561 579142.000000 1 0 0
5.718027 -16.443512 -7.648018 19.015181 -1.236138 1.984721 0.025040 -0.012094 85731.600000 1 0 0
-6.460573 -12.915612 5.999282 15.637884 1.106977 1.177064 0.017181 -0.005501 375893.000000 1 0 0
-2.500173 -13.581912 0.613782 13.823745 1.388753 1.526381 0.005801 -0.001323 1837860.000000 1 0 0
-4.221473 -15.546412 0.211182 16.110753 1.305650 1.557688 0.007055 -0.002778 436127.000000 1 0 0
-17.580773 -7.429612 -1.956818 19.186241 0.399835 1.672965 0.003455 -0.005934 333463.000000 1 0 0
1.257927 -12.768312 -11.909718 17.505815 -1.472594 2.319008 0.002331 0.011574 82846.200000 1 0 0
1.178727 -17.002712 -5.665118 17.960378 -1.501581 1.891699 0.023901 -0.013555 -1073490.000000 1 0 0
-12.707473 -6.477012 -9.177618 16.960549 0.471378 2.142560 0.026601 -0.003940 630387.000000 1 0 0
-11.556173 -13.571112 -8.667718 19.820433 0.865416 2.023404 0.027000 -0.011831 547218.000000 1 0 0
-4.275273 -9.927012 3.493082 11.358924 1.164132 1.258212 0.005883 -0.000081 -4630650.000000 1 0 0
-7.026973 -14.402812 9.605282 18.683704 1.116884 1.030839 0.030517 -0.014714 -387611.000000 1 0 0
-5.403073 -15.859712 -7.945518 18.543325 1.242449 2.013611 0.013586 -0.011321 -38092.500000 1 0 0
-0.232873 -13.516112 2.189882 13.694345 1.553569 1.410195 0.007267 -0.002827 363339.000000 1 0 0
-10.987973 -13.533212 -4.582618 18.024532 0.888825 1.827862 0.023254 -0.002455 -765355.000000 1 0 0
-9.812373 -10.605912 6.727182 15.938099 0.824243 1.135056 0.032995 -0.005623 -519490.000000 1 0 0
-15.461873 -8.052312 -4.892918 18.106625 0.480137 1.844426 0.016357 -0.007922 -604958.000000 1 0 0
-14.506173 -7.377612 5.487082 17.174582 0.470491 1.245607 0.029696 -0.009607 -34944.500000 1 0 0
-1.484773 -19.313812 0.066282 19.370913 1.494071 1.567375 0.022736 -0.010146 -357003.000000 1 0 0
-15.399873 -12.191412 -1.351018 19.687861 0.669633 1.639472 0.011996 0.004100 692538.000000 1 0 0
-4.438973 -12.263812 -6.819918 14.717909 1.223509 2.052597 0.004989 -0.002668 2062460.000000 1 0 0
-7.255473 -18.476312 2.012682 19.951613 1.196607 1.469746 0.031072 -0.009414 61588.800000 1 0 0
-2.477973 -11.851512 -8.655418 14.883378 1.364681 2.191428 0.004475 0.002922 527257.000000 1 0 0
-1.736073 -20.291612 -5.283018 21.039813 1.485448 1.824609 0.029353 -0.014656 -193670.000000 1 0 0
-5.232373 -8.793812 -13.864818 17.232006 1.034057 2.505793 0.014312 -0.004809 343801.000000 1 0 0
-8.081573 -19.237212 -0.703218 20.877659 1.173082 1.604486 0.026130 -0.008192 314183.000000 1 0 0
-17.055673 -7.427912 5.589682 19.424582 0.410739 1.278906 0.053849 -0.015623 -1034850.000000 1 0 0
-3.674073 -14.651112 -4.280518 15.699577 1.325092 1.846945 0.002941 -0.001089 -3633850.000000 1 0 0
-2.984373 -14.883712 -10.925618 18.702954 1.372908 2.194648 0.013203 -0.002745 -302101.000000 1 0 0
0.105527 -16.716212 6.240582 17.843423 -1.564484 1.213501 0.032523 -0.018323 -1544220.000000 1 0 0
-11.164473 -11.734312 3.782482 16.632700 0.810278 1.341377 0.019952 -0.002763 108299.000000 1 0 0
-0.123573 -14.665912 -0.153518 14.667236 1.562371 1.581263 0.001956 -0.001436 878409.000000 1 0 0
-7.206473 -9.569412 -2.459618 12.229334 0.925331 1.773302 0.009517 0.005020 478273.000000 1 0 0
-11.079173 -14.498112 -0.800618 18.264291 0.918281 1.614646 0.013962 -0.009096 320082.000000 1 0 0
0.403727 -14.654712 -10.629018 18.107998 -1.543254 2.198119 0.000869 0.004812 245001.000000 1 0 0
-1.376173 -14.143712 -3.881018 14.730945 1.473802 1.837404 0.004033 -0.000035 -3266690.000000 1 0 0
-11.241573 -8.122712 -7.595618 15.812806 0.625707 2.071846 0.015323 -0.009756 560343.000000 1 0 0
-0.200073 -17.179312 -0.491118 17.187495 1.559151 1.599374 0.007512 -0.010914 -1516970.000000 1 0 0
-12.848373 -9.641712 4.663482 16.726965 0.643772 1.288252 0.023022 -0.001571 -628493.000000 1 0 0
4.044827 -16.715012 1.692082 17.280492 -1.333373 1.472721 0.017798 -0.007031 132369.000000 1 0 0
-3.880973 -17.972012 -8.110318 20.095582 1.358117 1.986230 0.018529 -0.012626 164723.000000 1 0 0
-13.374573 -11.378712 2.714782 17.768633 0.704942 1.417411 0.007983 -0.001296 -339259.000000 1 0 0
-8.489973 -12.278112 4.210982 15.510127 0.965817 1.295846 0.018510 -0.003414 873690.000000 1 0 0
-8.288773 -9.620112 -5.898618 14.001572 0.859601 2.005655 0.010674 -0.005304 827318.000000 1 0 0
3.766527 -17.446312 -5.406918 18.649271 -1.358167 1.864946 0.011361 -0.002438 428408.000000 1 0 0
-2.615673 -13.101112 11.313182 17.506255 1.373735 0.868154 0.009007 -0.010445 255199.000000 1 0 0
0.166127 -16.842712 -9.609218 19.391793 -1.560933 2.089241 0.013726 0.002129 -332565.000000 1 0 0
-7.044673 -10.585912 -14.265818 19.110273 0.983618 2.413583 0.026602 -0.012352 -206058.000000 1 0 0
-4.575173 -18.832412 -1.291018 19.423148 1.332472 1.637313 0.024919 -0.021278 -954190.000000 1 0 0
-2.350873 -17.108212 1.138182 17.306443 1.434240 1.504982 0.011805 -0.012156 -328981.000000 1 0 0
4.082027 -14.518812 -7.389318 16.794668 -1.296718 2.026373 0.005178 -0.004036 -453029.000000 1 0 0
-1.068273 -15.933912 -6.112918 17.099665 1.503853 1.936373 0.003988 -0.002841 -878614.000000 1 0 0
-9.699973 -15.295912 8.293982 19.920957 1.005641 1.141375 0.055156 -0.016647 -214196.000000 1 0 0
-7.172573 -12.105912 -1.768218 14.181872 1.035921 1.695803 0.005708 0.001126 947334.000000 1 0 0
-7.399673 -15.150412 -9.400718 19.304498 1.116460 2.079414 0.030245 -0.003945 143655.000000 1 0 0
-5.056373 -13.284412 -0.544018 14.224573 1.207104 1.609051 0.005357 -0.000178 2197680.000000 1 0 0
-6.593273 -13.732012 -7.296618 16.890235 1.123163 2.017508 0.015617 -0.004370 119709.000000 1 0 0
5.721927 -15.349012 0.242482 16.382656 -1.213966 1.555995 0.014569 0.001868 536686.000000 1 0 0
-14.564773 -12.951812 0.993782 19.515882 0.726847 1.519853 0.008261 -0.000113 844520.000000 1 0 0
0.790727 -15.491512 11.268482 19.172660 -1.519798 0.942537 0.023548 -0.007649 802735.000000 1 0 0
-9.343773 -10.842612 1.994882 14.451570 0.859512 1.432315 0.008732 0.002312 80882.400000 1 0 0
-9.441773 -8.980512 -3.549218 13.505318 0.760365 1.836721 0.008994 0.000349 49932.700000 1 0 0
-12.111673 -7.300512 -12.258518 18.715271 0.542451 2.284980 0.046805 -0.008198 -642432.000000 1 0 0
-13.333373 -8.380112 -0.467618 15.755119 0.561117 1.600481 0.001765 -0.002816 -1196060.000000 1 0 0
-11.302873 -9.774212 0.471382 14.950330 0.712998 1.539261 -0.001473 0.006542 565941.000000 1 0 0
-15.857973 -12.228912 3.064782 20.258689 0.656902 1.418931 0.037621 -0.002045 -138825.000000 1 0 0
-10.455673 -12.533012 -2.246418 16.475554 0.875517 1.707571 0.015786 -0.002413 717910.000000 1 0 0
-3.237973 -8.748212 -12.082118 15.264117 1.216302 2.484117 0.006109 -0.000516 -739833.000000 1 0 0
-0.174373 -15.539112 3.893482 16.020412 1.559575 1.325305 0.016476 -0.009657 -659016.000000 1 0 0
-15.664473 -7.807412 1.316182 17.551744 0.462379 1.495737 -0.006858 0.001829 122000.000000 1 0 0
-6.186373 -13.353812 -13.358218 19.875550 1.136965 2.307828 0.032324 -0.007616 1320730.000000 1 0 0
-15.417173 -10.499912 1.184482 18.690649 0.597896 1.507381 -0.001315 0.003623 248338.000000 1 0 0
-9.830973 -8.393212 -12.274218 17.825557 0.706668 2.330317 0.020177 -0.012081 -9474.870000 1 0 0
-13.256673 -11.742612 -6.169318 18.753368 0.724908 1.906010 0.018771 -0.005982 -164541.000000 1 0 0
-12.234673 -11.398612 -3.689518 17.123905 0.750037 1.787959 0.007677 -0.001089 -296967.000000 1 0 0
-11.695973 -10.987712 -8.926218 18.363087 0.754185 2.078413 0.025169 -0.016297 674433.000000 1 0 0
-13.108573 -8.464312 -5.825418 16.655772 0.573352 1.928105 0.009287 -0.010461 -2377580.000000 1 0 0
-13.408173 -8.189512 -3.161418 16.026284 0.548312 1.769363 0.007304 -0.004240 357037.000000 1 0 0
-4.291573 -17.025112 -3.183518 17.843958 1.323867 1.750165 0.001609 -0.010325 130890.000000 1 0 0
-15.397673 -8.907912 -1.743618 17.873987 0.524478 1.668502 0.002040 -0.004189 -2237850.000000 1 0 0
-9.207173 -15.806412 3.636882 18.650512 1.043347 1.374537 0.027623 -0.011649 -497346.000000 1 0 0
4.812327 -17.100912 8.268182 19.594961 -1.296483 1.135196 0.037455 -0.022960 -49557.600000 1 0 0
-8.196973 -15.547012 6.063582 18.592121 1.085597 1.238582 0.027202 -0.001284 1328080.000000 1 0 0
0.921727 -16.072412 8.694782 18.296755 -1.513511 1.075595 0.026617 -0.016317 473365.000000 1 0 0
-10.685873 -7.783112 -10.163518 16.675185 0.629504 2.226226 0.023332 -0.008485 832265.000000 1 0 0
-4.696773 -15.851212 5.724982 17.495600 1.282734 1.237432 0.016732 -0.014690 -2359900.000000 1 0 0
-1.334973 -13.224212 -12.029318 17.926696 1.470188 2.306391 0.003554 0.004522 -354641.000000 1 0 0
-6.381373 -14.434512 -2.537018 15.984790 1.154539 1.730185 0.006733 -0.001295 222998.000000 1 0 0
-17.742573 -6.879312 -7.363118 20.404395 0.369883 1.939986 0.051203 -0.016864 264812.000000 1 0 0
-17.389573 -4.319512 -10.133718 20.585132 0.243469 2.085507 0.068436 -0.018014 556215.000000 1 0 0
-15.189673 -5.305212 -9.041418 18.455857 0.336019 2.082765 0.031347 -0.016160 487498.000000 1 0 0
-16.128873 -5.524712 -5.577418 17.937965 0.330010 1.886966 0.024180 -0.011297 1070970.000000 1 0 0
-15.349773 -4.171112 -12.253918 20.079149 0.265331 2.227211 0.078784 -0.016975 -354062.000000 1 0 0
-18.722573 -5.185912 -5.632418 20.227520 0.270213 1.852980 0.040858 -0.017044 -294202.000000 1 0 0
-17.225973 -4.374012 -7.547018 19.308641 0.248664 1.972364 0.032526 -0.018441 311148.000000 1 0 0
12.278827 -7.878112 8.704782 16.988451 -0.570448 1.032826 0.012272 -0.010926 464900.000000 1 0 0
16.139727 -3.273412 1.777882 16.564024 -0.200103 1.463255 0.033426 -0.009550 479919.000000 1 0 0
11.912427 -2.102112 12.590982 17.460172 -0.174666 0.765370 0.010375 -0.001735 95513.700000 1 0 0
9.727427 -10.002812 5.284382 14.919912 -0.799355 1.208756 0.005216 -0.007947 350321.000000 1 0 0
16.959227 -1.786012 7.324082 18.559294 -0.104925 1.165130 0.053185 -0.021091 828413.000000 1 0 0
5.294927 -12.850512 9.205182 16.670551 -1.179954 0.985817 0.012814 -0.000523 -183096.000000 1 0 0
15.242327 -9.160312 -2.190618 17.917552 -0.541139 1.693364 0.053360 -0.002541 167029.000000 1 0 0
11.163727 -8.539912 6.464982 15.471099 -0.653013 1.139692 0.012940 -0.012282 -3182400.000000 1 0 0
19.935427 -3.302112 3.736682 20.549647 -0.164150 1.387942 0.072450 -0.019726 1164260.000000 1 0 0
13.627727 -8.730012 6.768782 17.542647 -0.569743 1.174670 0.018527 -0.013882 -863372.000000 1 0 0
8.311027 -11.086412 8.772382 16.399280 -0.927514 1.006378 0.005095 -0.001843 138759.000000 1 0 0
16.897427 0.026888 -0.496518 16.904742 0.001591 1.600172 0.022995 -0.001047 -640423.000000 1 0 0
12.508027 -12.319012 2.297082 17.705519 -0.777785 1.440691 0.020009 -0.011258 -135353.000000 1 0 0
10.365027 -11.622912 3.685682 16.003441 -0.842544 1.338405 0.008383 -0.008349 -1993270.000000 1 0 0
16.371227 2.915688 2.332782 16.791670 0.176250 1.431421 0.027661 -0.008842 -338242.000000 1 0 0
18.420327 -3.329912 0.467182 18.724717 -0.178842 1.545844 0.043269 -0.008370 -857733.000000 1 0 0
13.439827 -11.396912 -0.236218 17.623120 -0.703329 1.584201 0.043665 -0.008967 -631006.000000 1 0 0
16.945227 -7.600012 -0.791918 18.588385 -0.421610 1.613412 0.051875 -0.007323 -310763.000000 1 0 0
10.140627 -5.540612 9.721982 15.101246 -0.500058 0.871360 0.009278 -0.007916 -490359.000000 1 0 0
11.384627 -13.370012 5.835082 18.504463 -0.865429 1.249988 0.009785 -0.013993 -470284.000000 1 0 0
13.079727 -1.669112 10.367482 16.773487 -0.126925 0.904489 0.021636 -0.002870 -136073.000000 1 0 0
15.517927 -2.111112 -1.338618 15.717976 -0.135213 1.656064 0.012455 -0.000472 -665037.000000 1 0 0
10.601327 -12.249912 8.748882 18.411720 -0.857418 1.075628 0.014537 -0.020188 106653.000000 1 0 0
14.594327 1.213488 3.468182 15.049758 0.082957 1.338259 0.020378 -0.007811 1301660.000000 1 0 0
15.045627 -5.742312 5.366882 16.974936 -0.364597 1.249112 0.033786 -0.016006 -923669.000000 1 0 0
14.268227 -3.444412 -3.047918 14.991200 -0.236872 1.775538 0.014592 0.000096 1100880.000000 1 0 0
14.122927 0.610588 9.489782 17.026035 0.043207 0.979583 0.039645 -0.007698 541264.000000 1 0 0
15.325227 -3.378612 4.387082 16.294910 -0.216990 1.298203 0.032617 -0.011692 -596194.000000 1 0 0
18.569627 4.973588 -4.518018 19.747914 0.261692 1.801625 0.038211 -0.004071 326984.000000 1 0 0
18.234827 -5.772612 -5.112918 19.798331 -0.306589 1.832007 0.073451 -0.005012 684811.000000 1 0 0
17.372427 0.179588 6.110782 18.416708 0.010337 1.232578 0.060156 -0.008373 821352.000000 1 0 0
16.980027 -6.616812 3.960382 18.649079 -0.371580 1.356803 0.043669 -0.018386 555.693000 1 0 0
9.833827 -6.672612 14.264682 18.566342 -0.596175 0.694602 0.016347 -0.002663 -1211340.000000 1 0 0
8.601027 -12.322912 5.268282 15.924403 -0.961434 1.233613 0.004537 -0.007349 -946670.000000 1 0 0
16.803127 -10.234512 -0.386118 19.678400 -0.547072 1.590419 0.056062 -0.005916 76783.200000 1 0 0
14.929327 -8.702112 0.326482 17.283465 -0.527741 1.551905 0.044915 -0.007650 -22338.000000 1 0 0
10.082427 -12.894912 1.535482 16.440553 -0.907195 1.477264 0.018999 -0.009673 92456.900000 1 0 0
16.823327 -8.393512 8.713982 20.722183 -0.462784 1.136784 0.047651 -0.014271 607335.000000 1 0 0
19.156527 -0.115512 -1.837418 19.244791 -0.006030 1.666418 0.059087 -0.003957 -341451.000000 1 0 0
13.358127 -1.325212 7.790582 15.520597 -0.098883 1.044943 0.019709 -0.009289 -250525.000000 1 0 0
12.897627 -9.892812 -3.078118 16.543619 -0.654309 1.757948 0.031818 -0.000904 -1803290.000000 1 0 0
8.925527 -15.193112 1.514982 17.685894 -1.039640 1.485031 0.028388 -0.002100 -975524.000000 1 0 0
11.526627 -8.189712 11.066382 17.955482 -0.617741 0.906731 0.016924 -0.009402 -149930.000000 1 0 0
13.920527 -3.974012 -0.560218 14.487501 -0.278082 1.609475 0.014118 -0.003081 -642795.000000 1 0 0
7.314927 -13.282412 10.711682 18.565311 -1.067398 0.955779 0.015432 -0.002728 -188316.000000 1 0 0
15.467027 -6.643112 1.833082 16.932810 -0.405677 1.462328 0.036829 -0.009934 -575517.000000 1 0 0
16.034027 -6.172612 -2.631418 17.381471 -0.367482 1.722773 0.062121 -0.005396 22333.500000 1 0 0
11.219827 -8.448512 3.873282 14.569289 -0.645417 1.301708 0.016609 -0.012092 696855.000000 1 0 0
10.801527 -14.501112 -0.278818 18.084053 -0.930583 1.586215 0.045483 -0.007755 756112.000000 1 0 0
13.590227 -12.959312 4.526782 19.316568 -0.761639 1.334249 0.018800 -0.009044 200805.000000 1 0 0
12.820727 -11.203812 6.387582 18.185094 -0.718197 1.211887 0.009867 -0.013238 704277.000000 1 0 0
10.945327 -10.435812 1.417582 15.189335 -0.761573 1.477333 0.013434 -0.006355 100437.000000 1 0 0
14.035427 -7.533512 11.752682 19.795771 -0.492613 0.935151 0.020611 -0.017264 710058.000000 1 0 0
15.269527 -1.850512 -4.792918 16.110708 -0.120602 1.872868 0.019059 0.002497 203479.000000 1 0 0
12.898427 -11.642712 -7.165118 18.795241 -0.734275 1.961912 0.053122 -0.004677 539025.000000 1 0 0
17.733427 -5.255912 2.004282 18.604198 -0.288136 1.462854 0.054448 -0.012193 607869.000000 1 0 0
10.504127 -9.709312 9.145482 16.977846 -0.746097 1.001937 0.002430 -0.010704 -2242820.000000 1 0 0
16.512727 1.694288 9.626982 19.189048 0.102247 1.045243 0.070852 -0.015316 -784648.000000 1 0 0
18.031227 3.801388 0.416182 18.432279 0.207780 1.548215 0.023116 -0.004164 242121.000000 1 0 0
13.209827 -4.022712 5.770682 14.966045 -0.295602 1.174955 0.023619 -0.013575 -606053.000000 1 0 0
12.183327 -6.245712 6.593382 15.195890 -0.473712 1.121988 0.017259 -0.013276 -267654.000000 1 0 0
16.617327 -10.175212 3.548782 19.805665 -0.549433 1.390643 0.034717 -0.014710 -431030.000000 1 0 0
16.301727 -8.304412 -5.481618 19.098631 -0.471155 1.861907 0.076154 -0.004108 -552969.000000 1 0 0
13.956627 -0.495012 5.429182 14.983608 -0.035453 1.200018 0.021850 -0.005341 -4530.680000 1 0 0
18.128327 -4.184112 5.465182 19.391010 -0.226833 1.285084 0.049405 -0.014533 -45960.100000 1 0 0
13.565727 -13.643712 7.057882 20.493744 -0.788264 1.219205 0.021870 -0.009161 -208312.000000 1 0 0
14.829627 -13.588012 -0.588618 20.122087 -0.741734 1.600053 0.041078 -0.004617 402194.000000 1 0 0
17.886927 -6.111812 8.068582 20.552334 -0.329254 1.167353 0.065235 -0.012682 -363928.000000 1 0 0
14.431927 3.287088 9.227982 17.442509 0.223945 1.013314 0.047446 -0.012464 1007190.000000 1 0 0
18.792727 3.854088 2.854982 19.395141 0.202279 1.423059 0.066106 -0.011950 -865034.000000 1 0 0
14.739727 -10.729912 8.105682 19.952259 -0.629245 1.152446 0.017789 -0.015728 -388312.000000 1 0 0
14.925227 -4.843612 10.305582 18.773066 -0.313802 0.989682 0.034449 -0.016354 186412.000000 1 0 0
17.898227 -7.815512 1.931282 19.625458 -0.411709 1.472230 0.076654 -0.013656 -39439.100000 1 0 0
18.506327 -5.829512 -1.936018 19.499116 -0.305162 1.670248 0.052717 -0.006244 473211.000000 1 0 0
14.312727 -13.294012 -5.632818 20.330115 -0.748514 1.851537 0.069381 -0.007479 -375714.000000 1 0 0
15.390127 -1.569412 9.306082 18.053316 -0.101624 1.029231 0.057954 -0.013933 -1336290.000000 1 0 0
12.964427 -10.039812 10.050582 19.232483 -0.658943 1.020918 0.003454 -0.022268 -1034590.000000 1 0 0
16.646327 2.268988 4.823082 17.478863 0.135471 1.291231 0.046667 -0.011293 -1332400.000000 1 0 0
14.982327 2.453188 -0.035218 15.181881 0.162299 1.573116 0.010348 -0.002334 -1689300.000000 1 0 0
14.963127 -9.945912 -6.974618 19.273340 -0.586636 1.941079 0.067645 -0.008730 1239100.000000 1 0 0
16.170627 -0.123612 -3.119018 16.469145 -0.007644 1.761333 0.016386 -0.000137 -13481.000000 1 0 0
12.044927 2.770588 13.535282 18.329219 0.226088 0.740022 0.037958 -0.004963 -127052.000000 1 0 0
17.657527 -2.985612 9.550382 20.295614 -0.167500 1.080867 0.059551 -0.018833 566755.000000 1 0 0
8.000427 -18.117312 4.605982 20.333689 -1.154958 1.342293 0.045701 -0.014215 -120568.000000 1 0 0
6.786027 -11.150112 6.592982 14.623357 -1.024073 1.103076 0.004974 -0.004733 258077.000000 1 0 0
17.868627 2.117188 -1.500818 18.056101 0.117936 1.654012 0.020015 -0.000005 325459.000000 1 0 0
17.518927 -2.191212 3.751482 18.049594 -0.124431 1.361427 0.032868 -0.009861 -671103.000000 1 0 0
12.611027 -13.382812 -1.860218 18.482372 -0.815081 1.671615 0.042748 -0.006987 -526816.000000 1 0 0
15.078727 -8.250712 4.401582 17.743060 -0.500672 1.320105 0.029926 -0.012408 -865107.000000 1 0 0
11.704627 -2.781912 15.148082 19.344294 -0.233347 0.671197 0.023176 -0.001001 -218373.000000 1 0 0
11.977127 -13.821312 -6.445118 19.391230 -0.856761 1.909615 0.031093 -0.010053 -291807.000000 1 0 0
10.591227 -12.048112 -1.186318 16.085349 -0.849661 1.644615 0.027597 -0.007751 -951185.000000 1 0 0
13.252427 -7.943412 2.191782 15.605401 -0.539973 1.429880 0.021933 -0.006472 102512.000000 1 0 0
8.859327 -7.771512 10.005982 15.459746 -0.720082 0.866854 0.009666 0.001616 -1994660.000000 1 0 0
15.716127 -3.870812 8.012682 18.060535 -0.241489 1.111121 0.047309 -0.019955 265904.000000 1 0 0
10.335227 -17.125012 5.205782 20.668409 -1.027795 1.316183 0.037533 -0.020656 -1132620.000000 1 0 0
15.178627 -6.408912 8.280682 18.440026 -0.399524 1.105083 0.033688 -0.009796 1148840.000000 1 0 0
16.655827 -4.986812 -0.253218 17.388186 -0.290909 1.585359 0.035834 -0.004328 -598745.000000 1 0 0
14.032627 -10.557012 3.489082 17.903598 -0.644984 1.374660 0.029410 -0.014687 902562.000000 1 0 0
14.971527 -10.270112 -4.511118 18.707539 -0.601252 1.814336 0.070324 -0.007923 33798.200000 1 0 0
13.715427 -6.504912 -0.092218 15.180096 -0.442858 1.576871 0.028076 -0.004620 52168.500000 1 0 0
17.759927 -0.910512 -4.870518 18.438167 -0.051223 1.838123 0.039821 -0.004071 169140.000000 1 0 0
14.495127 0.252888 -1.465518 14.571219 0.017445 1.671543 0.011410 0.000202 -2958880.000000 1 0 0
4.998527 -12.953912 11.775782 18.205992 -1.202530 0.867405 0.011200 -0.001281 -942566.000000 1 0 0
12.137427 -7.311712 13.386182 19.492771 -0.542190 0.813822 0.022920 -0.013535 -395837.000000 1 0 0
12.138627 -5.684912 11.357582 17.568698 -0.437994 0.867852 0.013573 -0.010436 483315.000000 1 0 0
13.224827 -4.712012 8.346482 16.332877 -0.342277 1.034421 0.021656 -0.010465 -449633.000000 1 0 0
15.307427 -1.183012 3.142582 15.671396 -0.077130 1.368898 0.028284 -0.005501 504490.000000 1 0 0
15.306527 -10.426112 5.788382 19.403581 -0.597966 1.267869 0.032552 -0.016889 -195016.000000 1 0 0
13.699227 -8.201612 -5.730918 16.964041 -0.539457 1.915404 0.049664 -0.002203 444102.000000 1 0 0
9.555827 -2.172512 13.792682 16.919566 -0.223550 0.617737 0.001740 0.002541 -352113.000000 1 0 0
10.224327 -9.126912 13.560782 19.280358 -0.728749 0.790701 0.034099 -0.006502 -420789.000000 1 0 0
20.267827 6.266788 -3.016818 21.427987 0.299875 1.712054 0.083052 -0.015761 1211700.000000 1 0 0
11.259327 -3.461212 10.465382 15.756797 -0.298240 0.844397 0.009267 -0.004317 856502.000000 1 0 0
10.309627 -14.175412 -2.883018 17.763516 -0.941989 1.733817 0.035169 -0.002241 1276130.000000 1 0 0
15.003927 -12.773912 2.345382 19.844180 -0.705290 1.452330 0.032588 -0.007772 191918.000000 1 0 0
11.339227 -0.365012 14.360382 18.301144 -0.032179 0.668631 0.030272 -0.003274 235004.000000 1 0 0
19.145427 -1.872712 5.807382 20.094281 -0.097505 1.277607 0.082710 -0.020858 994542.000000 1 0 0
19.128327 -0.217112 7.859282 20.681111 -0.011350 1.180976 0.098086 -0.021546 141932.000000 1 0 0
19.135127 0.916888 0.527682 19.164348 0.047880 1.543258 0.064686 -0.010154 135092.000000 1 0 0
18.496227 0.684388 3.725482 18.880096 0.036985 1.372170 0.055545 -0.017110 219115.000000 1 0 0
16.668727 -3.938712 -4.165718 17.627057 -0.232037 1.809379 0.038818 -0.003812 -1261910.000000 1 0 0
11.385827 -8.190012 15.672782 21.032105 -0.623573 0.729986 0.049922 -0.013130 743000.000000 1 0 0
16.709227 -7.568112 6.373182 19.418858 -0.425288 1.236404 0.052895 -0.016114 1297920.000000 1 0 0
19.007027 2.159288 5.852982 20.004675 0.113120 1.273872 0.074096 -0.017614 578872.000000 1 0 0
15.344227 1.675088 7.401882 17.118384 0.108737 1.123651 0.044235 -0.012164 -336000.000000 1 0 0
8.733627 -15.476612 3.964982 18.207769 -1.057032 1.351274 0.018992 -0.018520 652453.000000 1 0 0
11.393127 -15.033512 2.177382 18.988176 -0.922291 1.455873 0.032732 -0.005728 233625.000000 1 0 0
8.233727 -16.108912 6.322282 19.164096 -1.098285 1.234596 0.024648 -0.013989 -174627.000000 1 0 0
14.626627 -11.744512 -2.434518 18.915567 -0.676540 1.699859 0.056585 -0.006115 507072.000000 1 0 0
13.662227 -4.890212 3.241382 14.868664 -0.343728 1.351031 0.016653 -0.007448 -414914.000000 1 0 0
-1.091273 10.138888 -5.596418 11.632189 -1.463577 2.072722 -0.000380 0.003794 -2324410.000000 1 0 0
8.316027 -1.778012 -8.016718 11.686976 -0.210634 2.326709 -0.003144 0.000115 -3377880.000000 1 0 0
2.999027 -10.146312 7.744682 13.111899 -1.283401 0.938919 0.002494 -0.002654 799644.000000 1 0 0
-6.293773 1.407288 8.491282 10.662734 -0.219982 0.649558 0.003960 0.004493 -268298.000000 1 0 0
7.402827 -6.253112 -7.300218 12.132454 -0.701405 2.216437 -0.005519 -0.001721 -233933.000000 1 0 0
-11.378373 -4.619112 -4.048418 12.930323 0.385630 1.889246 0.002304 -0.000608 -187746.000000 1 0 0
2.110027 -3.282912 2.861582 4.839254 -0.999549 0.938093 0.002727 -0.000128 1882230.000000 1 0 0
-3.512773 -4.352212 8.952482 10.555958 0.891727 0.558412 0.001654 -0.002801 -2285160.000000 1 0 0
-4.776873 -1.024812 -2.425918 5.454707 0.211333 2.031679 0.003321 -0.001651 19442.100000 1 0 0
5.059627 -5.219812 -3.674818 8.145585 -0.800980 2.038841 0.000646 -0.003504 20515.200000 1 0 0
2.677127 14.362888 -8.810918 17.061414 1.386519 2.113466 0.013258 -0.003525 -209886.000000 1 0 0
5.632127 -5.507712 13.656782 15.765895 -0.774230 0.523203 0.003195 -0.002345 -454858.000000 1 0 0
-4.703373 -0.991912 9.996082 11.091765 0.207848 0.448228 0.007153 0.000797 -1798160.000000 1 0 0
-0.993673 12.064388 -2.595718 12.380412 -1.488618 1.782027 0.001979 -0.000750 -945541.000000 1 0 0
3.039627 9.424488 -10.640518 14.535506 1.258805 2.392103 0.011197 -0.005321 -723182.000000 1 0 0
-10.667173 2.567388 1.145582 11.031428 -0.236189 1.466762 0.003760 0.002223 -92141.900000 1 0 0
5.594427 -8.929512 -0.601118 10.554390 -1.011112 1.627781 0.002249 -0.003470 447216.000000 1 0 0
-7.142473 5.501988 9.421582 13.040437 -0.656379 0.763400 0.006516 0.004443 -113524.000000 1 0 0
-5.631573 -1.887412 5.253482 7.929439 0.323383 0.846607 -0.001887 0.001296 128648.000000 1 0 0
6.678627 -3.804312 -7.394818 10.665842 -0.517785 2.336879 -0.005113 -0.002741 458583.000000 1 0 0
6.230627 4.837588 10.982982 13.522162 0.660197 0.622847 -0.002000 -0.000930 680678.000000 1 0 0
3.748127 -9.913112 3.014082 11.018300 -1.209312 1.293712 -0.001303 -0.001089 1277710.000000 1 0 0
-6.647473 6.557288 -5.733718 10.957301 -0.778569 2.121490 0.005727 -0.003549 619328.000000 1 0 0
-11.021573 8.497788 5.256282 14.876692 -0.656815 1.209675 0.006862 -0.005753 17151.700000 1 0 0
-9.121173 -5.626312 5.191682 11.908179 0.552711 1.119674 0.000584 -0.000517 -1083470.000000 1 0 0
3.281427 9.791388 -8.082318 13.113463 1.247426 2.234880 0.006791 -0.003644 706463.000000 1 0 0
-8.133873 -8.638012 6.062482 13.323994 0.815448 1.098419 0.005109 -0.001597 -2179750.000000 1 0 0
-7.766573 -5.598112 -7.519218 12.173625 0.624547 2.236566 0.007726 -0.005100 -1027190.000000 1 0 0
9.155727 -1.647112 7.034982 11.663245 -0.177996 0.923320 0.004543 -0.006288 2117070.000000 1 0 0
-4.043773 -0.403512 -4.905718 6.370321 0.099457 2.449778 0.007641 -0.005737 -110977.000000 1 0 0
8.992327 1.144588 -4.321418 10.042245 0.126604 2.015648 -0.001999 0.004553 -2893950.000000 1 0 0
-1.895073 -10.737912 10.614482 15.217138 1.396111 0.798845 0.000282 -0.005647 31677.200000 1 0 0
-12.951073 0.286588 -2.688918 13.230370 -0.022125 1.775460 0.009678 -0.002531 -582854.000000 1 0 0
-9.786273 -5.032012 -6.042718 12.554152 0.474936 2.072970 0.008273 -0.004672 -1387310.000000 1 0 0
-5.523573 8.310088 -0.152718 9.979516 -0.984168 1.586100 0.003245 0.001182 359492.000000 1 0 0
6.292527 9.651688 0.542682 11.534534 0.993044 1.523731 0.003153 -0.002792 314703.000000 1 0 0
-0.537573 -12.170912 0.003282 12.182779 1.526656 1.570527 0.007291 0.000035 -503497.000000 1 0 0
6.052627 4.726688 2.417482 8.051093 0.663005 1.265823 -0.000444 -0.000432 535253.000000 1 0 0
3.502227 -7.437412 -8.222918 11.627428 -1.130704 2.356326 -0.003817 -0.001783 1089470.000000 1 0 0
-6.571873 -9.917312 4.608982 12.758734 0.985568 1.201198 0.006087 -0.001306 -2385710.000000 1 0 0
-0.100173 6.528988 -9.185218 11.269692 -1.555455 2.523590 0.005341 -0.003231 -3574970.000000 1 0 0
-17.278773 -2.945012 4.272082 18.041058 0.168819 1.331728 0.054746 -0.013015 805177.000000 1 0 0
-8.253573 1.020888 -9.364818 12.524516 -0.123065 2.415417 0.011056 -0.008545 -418370.000000 1 0 0
-9.987773 -5.790612 -11.836518 16.534508 0.525412 2.368662 0.019673 -0.002712 194855.000000 1 0 0
2.143527 9.343988 6.468682 11.564976 1.345296 0.977214 -0.006667 0.003996 466874.000000 1 0 0
-11.300473 1.627288 -1.306918 11.491596 -0.143019 1.684771 0.005038 0.000439 -1468100.000000 1 0 0
-6.119373 -5.393012 -3.049818 8.708197 0.722388 1.928606 0.011539 -0.000539 657875.000000 1 0 0
-7.003173 -8.358512 1.344582 10.987131 0.873399 1.448111 0.005088 0.001601 -669540.000000 1 0 0
0.000527 10.834088 -7.907418 13.412857 1.570748 2.201286 0.004651 0.000866 992180.000000 1 0 0
-2.892373 9.211588 -4.322118 10.578274 -1.266552 1.991699 -0.000713 -0.001632 -412853.000000 1 0 0
3.455427 -4.781212 9.357282 11.061586 -0.944991 0.562497 0.001200 -0.002868 -810579.000000 1 0 0
-8.951173 1.587688 -0.367918 9.098330 -0.175546 1.611245 0.000261 0.002372 -1708430.000000 1 0 0
2.435427 3.454688 -10.585518 11.398218 0.956747 2.761686 0.009111 -0.002351 1447920.000000 1 0 0
-13.628973 0.489988 1.132582 13.684726 -0.035936 1.487939 0.009527 -0.000796 377717.000000 1 0 0
9.453027 -12.609212 -4.991918 16.530916 -0.927492 1.877560 0.024612 -0.004196 -2272780.000000 1 0 0
-4.750973 9.428188 -8.395118 13.488531 -1.104024 2.242588 0.006429 -0.002403 -1489380.000000 1 0 0
-2.385473 7.231488 8.466182 11.386884 -1.252163 0.732503 0.002389 0.003808 733513.000000 1 0 0
-10.759473 -1.473412 -4.487718 11.750609 0.136094 1.962662 0.004520 -0.001807 -1777410.000000 1 0 0
2.771927 -7.160012 9.629582 12.315770 -1.201425 0.673104 0.001551 0.000750 -379849.000000 1 0 0
-16.047673 -6.585912 3.451482 17.686570 0.389437 1.374389 0.026375 -0.005029 -158512.000000 1 0 0
-10.646373 -0.025612 6.245382 12.343043 0.002406 1.040274 0.005258 0.002887 -833622.000000 1 0 0
-8.529273 10.081888 9.397582 16.208254 -0.868629 0.952310 0.012514 -0.007668 -143450.000000 1 0 0
0.188627 -5.983012 -3.814718 7.098175 -1.539280 2.138174 0.002497 -0.000011 402729.000000 1 0 0
4.837327 1.604688 -3.113118 5.972124 0.320307 2.119141 -0.000599 0.002610 -96837.400000 1 0 0
0.247827 5.386988 3.843082 6.621959 1.524824 0.951633 -0.005665 0.003499 -1789600.000000 1 0 0
6.082727 -11.163812 -1.525118 12.804540 -1.071907 1.690187 0.001215 -0.000697 -1137840.000000 1 0 0
6.224627 -13.471412 5.290682 15.754880 -1.137957 1.228329 0.005357 -0.007234 -451567.000000 1 0 0
8.057127 -8.275212 -5.948918 12.991769 -0.798750 2.046427 -0.004353 -0.002665 727726.000000 1 0 0
-13.225373 -1.418912 -4.776018 14.132733 0.106878 1.915524 0.007330 -0.002641 -2498340.000000 1 0 0
-6.868373 -1.478412 -7.060318 9.960338 0.212014 2.358653 0.006446 -0.005476 -263657.000000 1 0 0
-5.767373 12.746188 -4.613518 14.731342 -1.145883 1.889333 0.008394 0.001488 399831.000000 1 0 0
-4.265573 6.910288 -6.732218 10.548457 -1.017769 2.262978 0.003091 -0.001692 -4311440.000000 1 0 0
-9.309873 -3.560012 -8.033218 12.801563 0.365235 2.249158 0.008104 -0.004381 552347.000000 1 0 0
-2.174173 -6.377712 9.131882 11.348723 1.242250 0.635691 0.002494 -0.003592 -717939.000000 1 0 0
7.522827 -5.990112 10.036682 13.899977 -0.672455 0.764014 0.005251 -0.001668 -113684.000000 1 0 0
9.793827 -4.952012 12.261682 16.455708 -0.468138 0.730063 0.011008 -0.001953 -35409.200000 1 0 0
-6.519173 2.916588 -8.973518 11.468658 -0.420678 2.469368 0.003317 -0.006546 -421710.000000 1 0 0
7.373727 5.574288 8.817882 12.774959 0.647309 0.808965 -0.002719 -0.002769 431004.000000 1 0 0
12.685227 3.475788 11.141282 17.237293 0.267439 0.868008 0.034660 -0.002977 -1145680.000000 1 0 0
-7.398673 -7.392912 -3.921818 11.170325 0.785009 1.929534 0.010704 -0.001316 -1100110.000000 1 0 0
2.366927 1.475888 -5.877318 6.505648 0.557553 2.698471 0.000346 0.000472 -210229.000000 1 0 0
12.824027 6.929788 -7.017718 16.177948 0.495424 2.019483 0.008000 -0.002157 -662250.000000 1 0 0
0.841527 -7.840312 1.006382 7.949306 -1.463872 1.443856 0.003378 -0.002789 1166190.000000 1 0 0
-10.178473 -5.978412 -8.581518 14.594011 0.531072 2.199401 0.013750 -0.003899 50309.800000 1 0 0
-6.671573 0.104088 3.004482 7.317624 -0.015600 1.147705 -0.002430 0.002036 -615912.000000 1 0 0
10.778227 -7.865312 1.303982 13.406479 -0.630409 1.473377 0.008053 -0.005375 -154838.000000 1 0 0
6.286827 1.039988 10.547282 12.322781 0.163939 0.543474 -0.002961 0.000155 -1392540.000000 1 0 0
-12.912973 5.276688 1.921182 14.081166 -0.387928 1.433933 0.005483 -0.002147 -23043.700000 1 0 0
2.023027 7.359188 3.589282 8.434052 1.302525 1.131204 -0.008621 0.003443 -36015.900000 1 0 0
10.151227 -9.424112 -0.781418 13.873425 -0.748271 1.627151 0.006110 -0.003365 718086.000000 1 0 0
6.831227 -11.640812 -9.003518 16.224596 -1.040114 2.159075 -0.001821 -0.004143 -367735.000000 1 0 0
10.292327 3.666788 11.817182 16.094195 0.342244 0.746233 0.009934 0.001176 -1334190.000000 1 0 0
-10.974373 -3.173712 -1.933718 11.586569 0.281513 1.738474 -0.000600 0.001667 -1610690.000000 1 0 0
12.291327 0.917788 6.905882 14.128350 0.074531 1.060087 0.017527 -0.006237 298030.000000 1 0 0
-9.581573 9.195888 3.031782 13.622136 -0.764861 1.346354 0.005448 -0.003409 2925580.000000 1 0 0
-6.586173 7.674988 -8.873518 13.454458 -0.861599 2.290980 0.005586 -0.006468 -738389.000000 1 0 0
8.487027 5.544688 12.011282 15.717636 0.578701 0.701010 0.006482 0.001137 -1796230.000000 1 0 0
1.293827 4.951688 -2.631418 5.754786 1.315220 2.045705 -0.002457 0.001620 430726.000000 1 0 0
1.492527 0.402488 9.520782 9.645461 0.263403 0.160961 -0.002509 0.000347 828565.000000 1 0 0
2.607827 12.612288 -4.061618 13.504344 1.366901 1.876290 0.003843 -0.004568 276119.000000 1 0 0
2.215227 0.585888 13.063682 13.263117 0.258562 0.173636 -0.004176 -0.003838 -424752.000000 1 0 0
-12.251373 -1.798212 0.914482 12.416359 0.145736 1.497078 0.004703 0.000510 22566.500000 1 0 0
3.236527 8.772288 -1.322918 9.443424 1.217341 1.711347 0.000959 0.000527 330729.000000 1 0 0
3.643227 -2.850012 -5.869818 7.473315 -0.663840 2.474198 0.000571 -0.002183 -1445900.000000 1 0 0
-7.824273 -7.021712 9.475782 14.153237 0.731392 0.837243 0.011788 -0.002879 -300092.000000 1 0 0
-7.167873 10.804288 -3.533818 13.438709 -0.985039 1.836883 0.008212 0.002473 473493.000000 1 0 0
0.381727 0.557888 2.516382 2.605596 0.970729 0.262438 -0.001242 0.002311 -1265280.000000 1 0 0
-6.997273 4.620688 -2.075318 8.638260 -0.583621 1.813417 0.004343 -0.000582 -359288.000000 1 0 0
-6.714773 -3.879612 -5.858318 9.719025 0.523915 2.217762 0.009900 -0.003572 270156.000000 1 0 0
3.071327 -6.132912 13.422482 15.073443 -1.106513 0.472414 -0.000359 -0.002953 -867464.000000 1 0 0
-5.549873 -0.531512 -11.771518 13.025062 0.095479 2.699268 0.012634 -0.010579 -835077.000000 1 0 0
11.894427 2.499088 -0.583518 12.168128 0.207094 1.618769 0.001032 -0.000509 -543092.000000 1 0 0
6.209827 -10.882512 10.870082 16.587637 -1.052257 0.856200 0.009529 -0.000316 608227.000000 1 0 0
-8.141073 6.294388 -10.393818 14.626272 -0.658162 2.361185 0.003237 -0.008968 395432.000000 1 0 0
2.894627 7.871388 11.197182 13.989800 1.218405 0.642864 -0.003645 0.005385 786713.000000 1 0 0
-6.371373 -10.257312 -0.325818 12.079445 1.014967 1.597773 0.011137 0.003376 -789792.000000 1 0 0
11.302027 4.268088 6.016482 13.496312 0.361082 1.108743 0.008973 -0.004274 685816.000000 1 0 0
-7.851573 10.633788 1.407982 13.293121 -0.934786 1.464679 0.001006 -0.002429 672372.000000 1 0 0
4.339827 -2.678812 -3.647618 6.270188 -0.553016 2.191662 0.001658 -0.001901 -4182570.000000 1 0 0
6.351027 6.456288 6.330382 11.049567 0.793617 0.960747 -0.000214 -0.000617 -5713210.000000 1 0 0
-0.451973 10.313188 -10.304318 14.585784 -1.527000 2.355285 0.001818 -0.001011 -577088.000000 1 0 0
13.935827 6.577488 -2.427318 15.600080 0.440985 1.727028 0.010108 -0.001278 623339.000000 1 0 0
1.367627 9.442888 -6.225318 11.392679 1.426965 2.148894 0.003215 -0.000469 -470932.000000 1 0 0
0.645127 7.279788 7.374082 10.382128 1.482408 0.780919 -0.007909 0.005456 -85145.200000 1 0 0
12.181327 6.347388 1.871682 13.862801 0.480365 1.435368 0.007184 -0.007508 -1729720.000000 1 0 0
-6.840473 6.808588 -3.142218 10.149999 -0.783062 1.885546 0.004067 -0.001383 149345.000000 1 0 0
1.046127 9.886488 11.084082 14.889389 1.465375 0.731118 0.001019 0.006594 1654340.000000 1 0 0
-3.576073 13.597588 -11.006618 17.855765 -1.313627 2.234982 0.003112 -0.004685 53181.800000 1 0 0
-9.972073 -5.608712 -2.387318 11.687565 0.512345 1.776505 0.003665 0.001331 -1099210.000000 1 0 0
-3.949173 3.902388 -12.536018 13.710447 -0.779440 2.724673 0.006265 -0.009418 -271859.000000 1 0 0
-3.124773 8.344988 2.394082 9.226844 -1.212509 1.308324 -0.002310 0.003393 -3195390.000000 1 0 0
7.006527 8.958488 7.060682 13.386529 0.907059 1.015204 0.009868 0.000669 -1484600.000000 1 0 0
-1.387773 -2.263312 -8.170818 8.591319 1.020756 2.827429 0.009988 -0.008709 -1221500.000000 1 0 0
0.847127 -1.365312 4.791782 5.053996 -1.015465 0.323535 0.001053 -0.000922 1201910.000000 1 0 0
2.751027 -8.754412 -6.020918 10.975397 -1.266323 2.151465 -0.004806 -0.000264 270298.000000 1 0 0
5.294527 3.978688 8.709582 10.941608 0.644442 0.650129 -0.002981 0.000306 775794.000000 1 0 0
6.225727 -7.485812 -2.782718 10.126232 -0.877040 1.849181 0.000742 -0.003847 950743.000000 1 0 0
1.760227 2.229988 -8.330818 8.801919 0.902587 2.812938 0.006625 -0.003217 -26771.500000 1 0 0
-5.393073 10.972788 -0.640018 12.243240 -1.113976 1.623095 0.001824 0.000915 605244.000000 1 0 0
-5.402973 3.217588 -3.431418 7.163771 -0.537120 2.070307 0.002496 -0.000609 -1195900.000000 1 0 0
1.910427 13.741788 -6.405418 15.281225 1.432659 2.003326 -0.001020 0.000572 745219.000000 1 0 0
-5.184973 -2.665912 2.732482 6.438749 0.474912 1.132518 -0.004146 0.003437 113273.000000 1 0 0
10.447727 -3.302712 -1.891118 11.119318 -0.306177 1.741702 0.002381 -0.000089 -135905.000000 1 0 0
2.433227 -3.317512 7.018882 8.135796 -0.937972 0.530180 -0.001177 -0.001547 -1888040.000000 1 0 0
-3.013173 9.909588 -11.803118 15.703272 -1.275613 2.421333 0.005181 -0.003801 -2635320.000000 1 0 0
0.622727 -2.120012 9.385782 9.642362 -1.285095 0.231208 -0.000358 -0.001524 1419290.000000 1 0 0
9.336427 2.731588 5.019282 10.946398 0.284629 1.094453 0.003268 -0.003635 -1711840.000000 1 0 0
13.295827 2.237488 -5.133018 14.426824 0.166723 1.934563 0.006159 -0.002391 -171259.000000 1 0 0
-6.494973 3.844888 7.810182 10.861251 -0.534501 0.768309 0.003571 0.006241 149643.000000 1 0 0
10.541027 0.108688 1.796882 10.693636 0.010311 1.401963 0.002982 -0.000082 2374670.000000 1 0 0
15.318027 6.788488 -4.481018 17.343732 0.417159 1.832126 0.018278 -0.002193 -1529730.000000 1 0 0
8.108027 -4.974712 -9.381218 13.360207 -0.550326 2.349246 -0.001640 -0.000767 -167656.000000 1 0 0
4.463627 5.629588 -2.103718 7.486111 0.900408 1.855649 -0.001089 0.002311 303955.000000 1 0 0
-1.639873 -10.488512 1.453382 10.714961 1.415703 1.434736 0.007165 -0.000321 -600508.000000 1 0 0
-2.887873 12.262088 -12.969418 18.080498 -1.339499 2.370738 0.005090 -0.007275 -1166760.000000 1 0 0
8.363327 4.315988 -9.642118 13.473806 0.476414 2.368307 0.003397 0.000220 -514485.000000 1 0 0
4.038927 7.666288 -9.077018 12.548991 1.085906 2.379404 0.008269 -0.003556 -2136310.000000 1 0 0
-1.695673 -5.019312 -2.476818 5.848370 1.245005 2.008108 0.007312 -0.000212 -1033960.000000 1 0 0
-3.358473 -8.853712 7.301082 11.957146 1.208235 0.913973 0.003271 -0.002181 -1206280.000000 1 0 0
1.086027 7.337088 -1.511418 7.569458 1.423845 1.771821 -0.001506 0.000900 399230.000000 1 0 0
0.519227 -0.522912 -2.244818 2.362677 -0.788934 2.824405 0.001966 -0.002225 -1342520.000000 1 0 0
4.107527 -6.631112 7.478782 10.806276 -1.016211 0.806433 0.003235 -0.000500 -6193.440000 1 0 0
-14.012873 3.722788 5.939382 15.668312 -0.259671 1.182006 0.003559 -0.001704 -671650.000000 1 0 0
4.249427 6.344088 12.689482 14.809728 0.980611 0.541698 -0.000687 0.005997 -1471390.000000 1 0 0
8.203327 10.097288 -7.226618 14.881996 0.888523 2.077840 0.013353 -0.004421 199259.000000 1 0 0
12.477127 5.320388 9.368082 16.484726 0.403065 0.966372 0.035556 -0.008363 -163272.000000 1 0 0
7.485527 4.111588 0.412982 8.550370 0.502284 1.522478 0.001313 0.001380 -1950110.000000 1 0 0
-10.881073 -7.544512 -0.947218 13.274586 0.606256 1.642213 0.004518 -0.001133 -701444.000000 1 0 0
10.273727 6.756888 0.109382 12.297031 0.581760 1.561901 0.006340 -0.003998 -843973.000000 1 0 0
14.642527 3.600088 4.177082 15.646477 0.241083 1.300553 0.023836 -0.011727 419882.000000 1 0 0
2.165127 5.494088 8.262682 10.156017 1.195401 0.620522 -0.005597 0.003604 -109831.000000 1 0 0
4.303427 0.164388 11.742682 12.507481 0.038181 0.351514 -0.003271 -0.001247 -2344420.000000 1 0 0
-1.200873 -1.759212 -0.702618 2.242899 0.971830 1.889424 0.001790 -0.002318 -1138220.000000 1 0 0
3.234227 -5.170312 -9.550518 11.331582 -1.011810 2.573304 -0.003144 -0.003370 479779.000000 1 0 0
-3.981673 -5.323012 -1.435418 6.800632 0.928569 1.783467 0.007768 -0.000678 -140411.000000 1 0 0
-1.157273 -8.648212 8.473582 12.162748 1.437770 0.800033 0.002855 -0.001207 -506377.000000 1 0 0
3.873227 8.592588 -5.988618 11.166826 1.147307 2.136828 0.004967 0.000616 35551.600000 1 0 0
-14.291773 -1.774812 -2.720818 14.656315 0.123552 1.757521 0.010581 -0.004433 -1007290.000000 1 0 0
8.811627 -10.601312 -6.647318 15.304229 -0.877329 2.020108 -0.001737 -0.003141 258232.000000 1 0 0
14.631227 6.059188 1.618382 15.918723 0.392625 1.468955 0.009778 -0.007585 -2145710.000000 1 0 0
-5.800973 0.484488 -8.434118 10.247944 -0.083325 2.537479 0.010184 -0.008750 -546151.000000 1 0 0
-7.915073 -4.547612 -12.938118 15.834268 0.521497 2.527152 0.014759 -0.005657 678881.000000 1 0 0
0.951727 -10.694312 11.992082 16.096090 -1.482036 0.730215 -0.001482 -0.000190 -475521.000000 1 0 0
0.270327 11.724188 3.328782 12.190589 1.547743 1.294222 -0.001672 0.001855 -591364.000000 1 0 0
5.096327 -13.257312 -3.826118 14.709455 -1.203796 1.833935 0.004886 0.000824 679719.000000 1 0 0
-7.670273 1.541488 -7.041018 10.525455 -0.198327 2.303594 0.000339 -0.004628 724869.000000 1 0 0
1.443127 2.755888 4.085482 5.135046 1.088406 0.650786 -0.005129 0.002970 -1153740.000000 1 0 0
17.137327 5.434988 1.946782 18.083612 0.307109 1.462933 0.026730 -0.014210 -646186.000000 1 0 0
2.605127 -8.019612 -3.419118 9.098969 -1.256705 1.956024 -0.002615 -0.000729 122293.000000 1 0 0
-0.335373 -9.450312 -0.615718 9.476285 1.535323 1.635817 0.009172 -0.000050 -1552870.000000 1 0 0
0.758327 11.842388 -5.653218 13.144432 1.506849 2.015383 0.003185 0.000183 -1491160.000000 1 0 0
6.003327 -5.002012 7.854582 11.079464 -0.694663 0.782814 0.000625 -0.001780 -1254170.000000 1 0 0
-6.074373 -1.759412 -9.443718 11.365621 0.281930 2.551523 0.011708 -0.008484 -638595.000000 1 0 0
2.201927 -1.270812 11.285082 11.567909 -0.523438 0.221583 -0.006007 -0.001210 -801138.000000 1 0 0
17.962927 2.143588 -5.597318 18.936518 0.118772 1.870862 0.027111 -0.002394 -393413.000000 1 0 0
-9.046573 4.735388 7.827182 12.865813 -0.482228 0.916790 0.008545 0.001315 -428534.000000 1 0 0
11.621227 -7.037712 -4.770518 14.399311 -0.544520 1.908479 0.011825 -0.002899 493326.000000 1 0 0
10.876827 0.657488 9.075782 14.181237 0.060375 0.876317 0.010639 -0.002514 -73134.600000 1 0 0
-8.484473 -7.464712 -1.527318 11.403548 0.721547 1.705134 0.004736 0.000253 -753462.000000 1 0 0
10.369027 -10.540912 -3.204318 15.129283 -0.793618 1.784208 0.016333 -0.002537 226231.000000 1 0 0
7.732127 -13.951312 -3.734218 16.381980 -1.064717 1.800765 0.021920 -0.003765 -1530620.000000 1 0 0
1.827827 -1.216212 -11.709118 11.913168 -0.587116 2.956243 0.010346 -0.006988 561442.000000 1 0 0
-11.860973 -2.659112 -6.471718 13.770864 0.220543 2.060039 0.007863 -0.003557 -626544.000000 1 0 0
2.754627 -12.081312 -6.369618 13.932627 -1.346621 2.045610 -0.000907 0.003029 298874.000000 1 0 0
-5.536073 1.382788 1.109782 5.813073 -0.244770 1.378706 -0.002136 0.002616 375247.000000 1 0 0
0.094127 6.796288 -4.051518 7.912850 1.556947 2.108328 0.000804 0.000553 1112040.000000 1 0 0
5.394727 -11.699312 3.736282 13.414052 -1.138738 1.288528 -0.000352 -0.005096 -2808530.000000 1 0 0
-4.494373 -9.224912 1.096482 10.319916 1.117441 1.464346 0.006793 0.001016 -641632.000000 1 0 0
7.150127 -6.211512 -4.697518 10.572317 -0.715266 2.031214 -0.001236 -0.003841 -863109.000000 1 0 0
-7.031673 -6.062512 2.233982 9.549301 0.711518 1.334666 0.002350 0.000181 -230213.000000 1 0 0
-5.952173 -0.700712 7.209882 9.375593 0.117184 0.693513 0.003608 0.001917 17669.300000 1 0 0
4.167427 -5.022212 3.211682 7.273580 -0.878147 1.113466 0.001050 -0.003017 -583231.000000 1 0 0
-2.540673 10.492288 -8.773418 13.911003 -1.333223 2.253228 -0.000043 0.001009 -348930.000000 1 0 0
-2.484973 -4.819112 2.856882 6.128679 1.094708 1.085863 0.002720 -0.001231 -353343.000000 1 0 0
15.191627 5.119188 6.280082 17.217173 0.325024 1.197425 0.042052 -0.017593 528293.000000 1 0 0
6.795727 0.348688 0.031882 6.804742 0.051265 1.566111 0.001391 0.000693 4167810.000000 1 0 0
-9.801573 9.197188 0.453282 13.448590 -0.753597 1.537085 0.000874 -0.006052 -1879550.000000 1 0 0
7.167827 10.483288 -2.588818 12.960673 0.971068 1.771893 0.001474 0.000124 -483131.000000 1 0 0
1.561627 -4.159212 -5.515518 7.082278 -1.211620 2.463511 0.003222 -0.003707 -1674540.000000 1 0 0
0.941027 -8.126612 -7.883218 11.361007 -1.455514 2.337665 -0.003135 0.000374 356835.000000 1 0 0
-10.483173 0.407488 -10.474518 14.824928 -0.038851 2.355404 0.014966 -0.010726 -2502140.000000 1 0 0
5.947627 -2.467612 0.468982 6.456262 -0.393276 1.498092 0.001507 -0.001522 -425702.000000 1 0 0
-3.395773 5.333988 -1.141518 6.425400 -1.003878 1.749402 0.000886 -0.000722 1099310.000000 1 0 0
-0.434973 4.500288 -5.143418 6.848105 -1.474441 2.420480 0.001539 -0.000694 -815907.000000 1 0 0
3.999427 -9.744512 10.080182 14.579472 -1.181332 0.807377 0.002646 -0.000042 -829941.000000 1 0 0
7.312727 -13.460312 -0.684718 15.333780 -1.073127 1.615465 0.016734 -0.002743 473098.000000 1 0 0
12.997727 0.014088 0.573982 13.010402 0.001084 1.526665 0.004693 -0.003805 111995.000000 1 0 0
9.250827 2.434888 -0.705218 9.591862 0.257370 1.644385 0.001514 0.002243 -499588.000000 1 0 0
-0.867173 -5.764312 4.483982 7.354276 1.421478 0.915101 0.000450 -0.001960 -413763.000000 1 0 0
11.443627 -3.602812 3.318382 12.447832 -0.305007 1.300950 0.012790 -0.004798 -2747330.000000 1 0 0
1.710527 -8.247812 11.782382 14.483675 -1.366304 0.620661 -0.002765 -0.000072 504328.000000 1 0 0
9.496627 -6.241412 -5.933718 12.819913 -0.581437 2.052006 -0.000609 -0.000616 -2348300.000000 1 0 0
3.063227 6.310788 -0.229818 7.018705 1.118901 1.603546 -0.005414 0.002527 477912.000000 1 0 0
6.446927 -1.408012 11.594982 13.341251 -0.215024 0.517401 -0.005334 0.002229 414566.000000 1 0 0
-4.837673 -7.555112 -3.850618 9.762687 1.001258 1.976235 0.012406 0.000776 -766638.000000 1 0 0
-3.425773 -8.474712 -5.792718 10.821841 1.186645 2.135636 0.010049 0.002108 -288467.000000 1 0 0
9.670427 5.403588 2.250582 11.304028 0.509555 1.370361 0.005502 -0.002280 419534.000000 1 0 0
8.809927 -1.451412 0.237582 8.931845 -0.163281 1.544194 0.000023 0.001237 991216.000000 1 0 0
-4.014573 9.568788 9.264882 13.911022 -1.173552 0.841949 0.005121 0.002286 -91176.100000 1 0 0
-14.306173 -3.675312 -6.070418 15.969486 0.251466 1.960729 0.015591 -0.005238 -299480.000000 1 0 0
10.511027 6.361788 -6.013418 13.679007 0.544270 2.025960 -0.002509 -0.001956 -1577490.000000 1 0 0
-1.839673 4.506288 2.603382 5.519839 -1.183202 1.079646 -0.003750 0.004388 494751.000000 1 0 0
6.887627 -3.707612 2.668082 8.264651 -0.493816 1.242078 0.003717 -0.003912 -1783200.000000 1 0 0
8.337527 -11.074312 -1.522218 13.945318 -0.925460 1.680170 0.012719 -0.004463 -775575.000000 1 0 0
4.498327 0.530588 1.769282 4.862801 0.117410 1.198409 0.000577 0.000385 161299.000000 1 0 0
-10.832973 2.406288 3.765682 11.718527 -0.218578 1.243648 0.002805 0.000659 97095.900000 1 0 0
-0.985173 -3.052912 4.449382 5.485238 1.258647 0.624671 0.003468 -0.001340 226810.000000 1 0 0
8.599527 -8.686112 -8.503618 14.889994 -0.790407 2.178637 0.002100 -0.002643 -748878.000000 1 0 0
12.083327 -4.576112 0.986282 12.958408 -0.362022 1.494611 0.008615 -0.002710 345625.000000 1 0 0
2.844927 4.821988 3.472282 6.588013 1.037769 1.015658 -0.006594 0.001258 -102588.000000 1 0 0
6.132427 7.403588 2.101182 9.840465 0.879033 1.355615 -0.001170 -0.001750 -213235.000000 1 0 0
-1.617573 -1.370912 -10.377718 10.592119 0.703048 2.940048 0.013310 -0.009868 512993.000000 1 0 0
-1.134473 -8.612612 5.849382 10.472792 1.439828 0.978182 -0.000464 -0.003717 328397.000000 1 0 0
-4.189973 -0.283312 2.215682 4.748198 0.067514 1.085312 -0.003067 0.003968 642527.000000 1 0 0
-8.443773 6.198288 -7.897718 13.118309 -0.633225 2.216847 0.006145 -0.005946 -1277250.000000 1 0 0
6.468727 11.267588 -9.405018 16.039244 1.049638 2.197373 0.022060 -0.010482 -125305.000000 1 0 0
-11.037573 -5.733612 3.140682 12.828336 0.479097 1.323458 0.004644 0.001779 1092620.000000 1 0 0
1.526627 -6.284012 3.092382 7.168139 -1.332475 1.124745 0.001240 -0.003804 762684.000000 1 0 0
10.069027 2.263688 7.320682 12.653141 0.221140 0.953826 0.009247 -0.002241 -1428790.000000 1 0 0
-4.023173 -2.363812 -10.556618 11.541911 0.531214 2.725397 0.011938 -0.009519 -3381480.000000 1 0 0
-8.328773 11.712988 5.878882 15.528161 -0.952678 1.182519 0.011128 -0.010266 -753032.000000 1 0 0
6.880027 6.098688 -2.900718 9.640692 0.725269 1.876415 0.002146 0.002202 -1892510.000000 1 0 0
3.867227 -9.844212 -2.326918 10.829520 -1.196475 1.787353 -0.001756 -0.003303 -1940570.000000 1 0 0
8.597327 -12.867812 -7.365918 17.139177 -0.981784 2.015035 0.012797 -0.005661 1018480.000000 1 0 0
-1.174973 9.468788 3.657882 10.218542 -1.447338 1.204709 -0.004573 0.004655 -82778.000000 1 0 0
0.612227 -13.240412 4.681782 14.057113 -1.524590 1.231255 0.009231 -0.003392 -1267070.000000 1 0 0
-11.126873 -7.032412 -5.107518 14.119095 0.563632 1.940936 0.007849 -0.005132 189763.000000 1 0 0
3.546527 10.303788 -3.499518 11.445197 1.239301 1.881536 0.003575 -0.003290 -601844.000000 1 0 0
11.613527 -8.138612 -7.340918 15.968723 -0.611254 2.048460 0.029734 -0.004166 124637.000000 1 0 0
11.670927 -4.741412 -5.909518 13.914522 -0.385890 2.009428 0.013673 -0.003029 157607.000000 1 0 0
1.314627 -10.228012 -2.773218 10.678540 -1.442965 1.833508 -0.000068 0.002190 -876225.000000 1 0 0
2.377727 -11.967012 -3.887418 12.805272 -1.374661 1.879244 0.002273 0.002387 -951422.000000 1 0 0
-7.584473 -5.725512 7.318782 11.994594 0.646629 0.914517 0.002023 -0.000472 -2319580.000000 1 0 0
-7.142973 -0.829112 9.596082 11.991425 0.115557 0.643092 0.010044 0.000978 183180.000000 1 0 0
16.173527 2.612988 -7.442518 17.994493 0.160176 1.997201 0.011848 0.001527 -615833.000000 1 0 0
-2.033673 6.301588 -5.568618 8.651898 -1.258625 2.270028 0.002429 0.000605 -2361950.000000 1 0 0
7.704227 1.087788 8.397482 11.447974 0.140266 0.747289 -0.000222 -0.000303 -742307.000000 1 0 0
7.907727 8.279588 -3.735718 12.043227 0.808366 1.886192 0.003236 0.003210 469901.000000 1 0 0
7.947627 0.681688 3.950082 8.901271 0.085563 1.110999 -0.001024 -0.001908 78313.400000 1 0 0
-6.944273 5.805788 5.446082 10.563612 -0.696342 1.029146 0.007412 -0.001256 77061.100000 1 0 0
-6.003773 -2.053612 -4.557718 7.812516 0.329578 2.193689 0.008997 -0.004073 -1179550.000000 1 0 0
-15.140973 -2.298512 3.154582 15.635971 0.150657 1.367650 0.018252 -0.002797 -291971.000000 1 0 0
1.138427 1.181988 -10.642418 10.768202 0.804169 2.988597 0.013912 -0.009890 429845.000000 1 0 0
1.444327 -9.277812 9.390582 13.279567 -1.416361 0.785344 0.003256 -0.003433 -327191.000000 1 0 0
-0.093373 -6.740712 -1.190818 6.845726 1.556945 1.745636 0.005475 0.000777 622405.000000 1 0 0
-0.420273 -10.197112 -8.501518 13.282829 1.529605 2.265344 0.001550 0.003021 71749.300000 1 0 0
-4.383473 6.509888 3.868582 8.749823 -0.978177 1.112821 0.002269 0.003625 -261897.000000 1 0 0
10.787927 -1.220912 -8.687718 13.904907 -0.112694 2.245665 0.007152 0.001883 455342.000000 1 0 0
3.114127 -1.019912 6.257582 7.063663 -0.316502 0.482402 -0.003866 -0.000146 705265.000000 1 0 0
2.013127 -12.224212 6.637482 14.054900 -1.407578 1.078950 0.009206 -0.003059 -164578.000000 1 0 0
2.972727 -4.905812 -1.325318 5.887323 -1.026006 1.797856 0.005875 -0.002944 -1962240.000000 1 0 0
-1.061073 9.541088 -1.707718 9.750617 -1.460041 1.746844 0.000202 -0.001823 -393417.000000 1 0 0
4.515727 -2.596012 2.523882 5.788009 -0.521746 1.119588 0.001487 -0.000858 -1852120.000000 1 0 0
17.658627 6.631188 -2.701218 19.055087 0.359227 1.713034 0.028262 -0.010670 428779.000000 1 0 0
-7.061573 3.435788 -5.552118 9.617508 -0.452828 2.186206 0.005144 -0.003462 143458.000000 1 0 0
-13.727673 -6.069412 2.391082 15.198817 0.416290 1.412820 -0.001283 0.000093 423288.000000 1 0 0
6.679227 -6.060512 3.267582 9.592652 -0.736871 1.223205 0.002553 -0.006503 1575960.000000 1 0 0
-4.721873 1.911988 3.551882 6.210285 -0.384742 0.961933 -0.001368 0.003061 664675.000000 1 0 0
6.940227 -12.204212 -5.416618 15.048232 -1.053729 1.939011 0.009132 -0.001551 775749.000000 1 0 0
2.890027 -12.275612 3.301682 13.036258 -1.339578 1.314738 0.003322 -0.001961 -694209.000000 1 0 0
3.240827 11.323088 -6.269518 13.342494 1.292035 2.059964 0.003491 0.000013 -466823.000000 1 0 0
-5.630573 -8.309312 6.348382 11.876446 0.975248 1.006838 0.003788 0.000736 -421692.000000 1 0 0
-3.972973 6.429588 6.397582 9.902180 -1.017304 0.868361 0.003745 0.003840 252263.000000 1 0 0
4.274127 4.253988 -7.082018 9.301589 0.783037 2.436231 0.001795 0.001349 -1806670.000000 1 0 0
-0.333673 -3.022012 1.545982 3.410858 1.460828 1.100385 0.004609 0.001086 559097.000000 1 0 0
-13.125873 -0.911912 6.543182 14.694671 0.069363 1.109314 0.014234 -0.001200 525960.000000 1 0 0
-0.506573 -9.278312 -5.971818 11.045646 1.516253 2.142005 0.003097 0.001748 293708.000000 1 0 0
2.073327 -1.707412 -3.951718 4.778077 -0.688915 2.544639 0.004839 -0.001189 -623116.000000 1 0 0
11.337227 -1.889612 1.049482 11.541437 -0.165155 1.479739 0.007816 -0.004841 1366960.000000 1 0 0
0.585127 -4.164312 -1.954518 4.637242 -1.431200 2.005876 0.004185 -0.000822 -1724570.000000 1 0 0
1.218227 -7.207412 -11.243918 13.411061 -1.403355 2.565149 -0.001110 0.000858 24255.400000 1 0 0
-4.441273 4.106788 -10.056418 11.735508 -0.746288 2.600065 0.003866 -0.008421 234043.000000 1 0 0
-1.037573 5.826588 -2.121318 6.286945 -1.394568 1.914967 -0.000688 -0.000320 -1090830.000000 1 0 0
-11.433573 1.727588 -3.956818 12.221602 -0.149963 1.900493 0.003943 -0.000687 -355374.000000 1 0 0
-1.701673 -11.381812 4.129782 12.226873 1.422388 1.226257 0.011915 -0.003547 -645574.000000 1 0 0
-3.471773 -5.564312 -9.713018 11.719961 1.012963 2.547682 0.006478 -0.003342 -1547580.000000 1 0 0
-12.815773 -3.827812 -8.374418 15.780591 0.290245 2.130197 0.025925 -0.005013 115773.000000 1 0 0
11.317627 4.431088 0.577782 12.167870 0.373176 1.523294 0.003857 -0.000828 453352.000000 1 0 0
-8.806373 -2.350112 -3.075418 9.619430 0.260787 1.896219 0.006628 -0.000294 -313097.000000 1 0 0
-2.389973 -6.144212 -6.420618 9.202589 1.199826 2.342974 0.005535 -0.001321 975779.000000 1 0 0
-0.149973 2.807988 -1.971418 3.434207 -1.517438 2.182244 -0.001043 0.000487 1522220.000000 1 0 0
8.028927 6.074088 -5.214118 11.337780 0.647664 2.048666 0.001292 0.002160 -1021150.000000 1 0 0
-9.763073 -0.914612 -1.105418 9.867931 0.093408 1.683053 0.000368 0.001943 -1112820.000000 1 0 0
6.287027 0.513988 -8.918218 10.923622 0.081572 2.525973 -0.002113 0.002097 486256.000000 1 0 0
-4.164473 2.462188 8.001082 9.350001 -0.533951 0.543835 0.000944 0.006989 -2156680.000000 1 0 0
-10.131073 -3.382712 1.431082 10.776334 0.322256 1.437604 0.001998 0.001300 1195960.000000 1 0 0
-1.747873 -8.116112 -7.828418 11.410980 1.358678 2.326832 0.004641 -0.001427 -583080.000000 1 0 0
-9.507973 -9.960312 4.222882 14.402850 0.808629 1.273227 0.006131 0.000422 -176516.000000 1 0 0
-1.220573 -10.682212 7.376082 13.038636 1.457028 0.969503 0.007050 -0.004606 447128.000000 1 0 0
9.499227 3.820688 -3.713618 10.891462 0.382410 1.918741 0.000780 0.002245 -601383.000000 1 0 0
12.794227 -0.736412 3.088582 13.182333 -0.057495 1.334301 0.010622 -0.004512 364993.000000 1 0 0
6.539327 12.061288 -6.846518 15.333371 1.073981 2.033659 0.007394 -0.000446 73252.800000 1 0 0
-11.738773 -0.098212 -6.533518 13.434854 0.008366 2.078659 0.007874 -0.001277 388074.000000 1 0 0
-7.592173 -6.568112 -11.357718 15.158461 0.713205 2.417749 0.014002 -0.006117 -1379500.000000 1 0 0
4.061427 6.009588 6.592282 9.801455 0.976480 0.833104 -0.005228 0.001407 -2423010.000000 1 0 0
-4.301173 -1.400712 -7.496218 8.755305 0.314827 2.598649 0.009027 -0.009985 -945865.000000 1 0 0
9.564527 9.242688 0.885282 13.330086 0.768287 1.504335 0.014132 -0.005454 -2146140.000000 1 0 0
-8.954073 4.021688 4.908182 10.974500 -0.422144 1.107125 0.006820 0.002282 967067.000000 1 0 0
-6.967973 7.782688 -12.213218 16.071266 -0.840575 2.434019 0.003199 -0.013666 -857032.000000 1 0 0
11.049227 -3.729712 7.219082 13.715368 -0.325544 1.016494 0.012388 -0.004598 496333.000000 1 0 0
11.854527 6.890088 6.353482 15.111911 0.526496 1.136879 0.018755 -0.009411 334323.000000 1 0 0
-9.903273 -0.758512 -14.853618 17.868411 0.076443 2.552199 0.025471 -0.001825 537454.000000 1 0 0
1.670927 -13.164112 12.034682 17.914224 -1.444541 0.834167 0.005961 -0.003703 547928.000000 1 0 0
2.965627 3.076988 13.012482 13.696258 0.803825 0.317318 -0.003930 -0.001643 -587029.000000 1 0 0
-2.431673 -1.443412 10.969682 11.328300 0.535692 0.252291 0.004943 -0.001326 -891196.000000 1 0 0
2.588427 -10.019812 -8.154418 13.175398 -1.317992 2.238154 -0.010410 0.005041 -921817.000000 1 0 0
13.880827 3.659088 -7.479218 16.186568 0.257744 2.051117 0.003241 0.000528 -2392560.000000 1 0 0
7.372027 -1.527212 4.955482 9.013099 -0.204274 0.988661 -0.000705 -0.001695 245835.000000 1 0 0
-1.296873 8.754488 10.189282 13.496088 -1.423728 0.715172 0.005173 0.005179 26159.600000 1 0 0
-12.173373 -4.674012 0.951482 13.074506 0.366597 1.497958 0.003972 0.000025 -6111.710000 1 0 0
-4.864473 4.824388 -5.375218 8.708087 -0.781261 2.236061 0.004857 -0.003256 -287894.000000 1 0 0
-11.268673 0.314788 2.237982 11.493069 -0.027928 1.374820 0.003750 0.004986 -2689030.000000 1 0 0
-1.399073 2.180988 -4.109018 4.857792 -1.000430 2.578974 0.004139 -0.002322 677043.000000 1 0 0
3.189627 -9.785012 13.061082 16.628651 -1.255687 0.667363 0.002997 -0.001779 -1916170.000000 1 0 0
8.876027 4.649588 -1.532518 10.136624 0.482535 1.722565 0.001097 0.000130 -1321180.000000 1 0 0
4.014327 2.246888 3.795482 5.963976 0.510273 0.880973 -0.006548 0.004006 -164764.000000 1 0 0
-5.420073 -3.318912 7.546882 9.866498 0.549442 0.699911 0.000652 -0.001548 -419307.000000 1 0 0
1.740227 -5.769812 7.663782 9.749496 -1.277864 0.666372 -0.000020 -0.002613 -1037510.000000 1 0 0
-5.722673 -6.260812 -9.796018 12.957960 0.830275 2.427953 0.013874 -0.005204 -1213890.000000 1 0 0
-11.711973 -5.842612 5.572682 14.225372 0.462734 1.168272 0.011799 -0.001112 -484185.000000 1 0 0
10.458327 6.234388 4.553682 12.999239 0.537560 1.212901 0.007845 -0.006414 -1719620.000000 1 0 0
1.534727 -3.660912 0.389282 3.988634 -1.173832 1.473043 0.007671 -0.002701 -984268.000000 1 0 0
8.809827 4.448588 6.936282 12.062960 0.467606 0.958184 0.003330 0.000058 -68354.500000 1 0 0
-7.962073 12.138788 3.458382 14.923310 -0.990271 1.336927 0.007655 -0.007167 -504810.000000 1 0 0
-6.227173 13.123488 -7.072618 16.156285 -1.127751 2.023905 0.013615 -0.009689 420660.000000 1 0 0
4.452727 -6.938112 -0.980218 8.302109 -1.000223 1.689141 0.002877 -0.005522 -1420510.000000 1 0 0
-1.966973 -8.273312 10.923982 13.843773 1.337381 0.661470 0.002068 -0.005127 -827505.000000 1 0 0
11.603227 8.841688 -5.697218 15.661054 0.651139 1.943122 0.016719 -0.004396 534631.000000 1 0 0
-3.392873 -2.948812 -1.858418 4.864236 0.715490 1.962818 0.007847 -0.002256 -2093090.000000 1 0 0
-2.047373 5.964488 4.656282 7.838866 -1.240138 0.934775 -0.002642 0.004684 -265568.000000 1 0 0
0.405327 -11.436412 -5.718018 12.792636 -1.535369 2.034180 -0.000547 -0.000318 -1224950.000000 1 0 0
-8.871873 6.242088 -1.545518 10.957300 -0.613126 1.712317 0.005006 -0.000788 -327123.000000 1 0 0
2.878427 -0.077612 3.855782 4.812320 -0.026957 0.641446 -0.002415 0.000527 -23582.600000 1 0 0
-10.075473 3.904388 -1.054818 10.856889 -0.369697 1.668106 0.006924 -0.000146 21027.700000 1 0 0
6.496127 5.523088 13.563682 16.021162 0.704617 0.561213 0.000821 0.004517 -1850770.000000 1 0 0
-8.651873 -1.742212 5.737182 10.526417 0.198711 0.994375 0.001626 0.001663 171497.000000 1 0 0
12.934227 -1.719512 -1.481218 13.131830 -0.132168 1.683833 0.009813 -0.000328 -1597640.000000 1 0 0
5.353127 -5.462012 5.371282 9.345599 -0.795466 0.958511 0.000090 -0.005208 261059.000000 1 0 0
-8.953973 -1.287212 3.252182 9.612868 0.142781 1.225670 -0.001829 0.003712 51680.800000 1 0 0
1.877427 5.426188 5.637382 8.046634 1.237695 0.794574 -0.003946 0.001746 -1006460.000000 1 0 0
9.182927 3.142688 -7.486418 12.257614 0.329738 2.227812 0.002369 0.001320 -1695120.000000 1 0 0
2.330227 -2.292512 -1.557118 3.620799 -0.777240 2.015342 0.004778 -0.001339 74177.100000 1 0 0
-6.252073 0.371888 -3.976518 7.418855 -0.059412 2.136490 0.002285 -0.001086 -2339360.000000 1 0 0
-3.968373 4.129688 4.955482 7.573579 -0.805316 0.857524 -0.000860 0.004973 1225670.000000 1 0 0
-6.482173 1.815788 -12.426318 14.132552 -0.273120 2.645122 0.006703 -0.008687 -3775270.000000 1 0 0
-0.057073 3.199088 6.210182 6.985970 -1.552958 0.475748 -0.004839 0.003995 914892.000000 1 0 0
-8.851973 9.261188 -2.139718 12.988665 -0.807986 1.736288 0.002885 -0.000714 599235.000000 1 0 0
-1.289173 -3.739412 -6.163618 7.323616 1.238804 2.571051 0.004477 -0.003905 -54498.600000 1 0 0
-3.306773 7.101688 -2.930218 8.363904 -1.135019 1.928731 0.001374 0.000552 877377.000000 1 0 0
7.022527 -0.431212 -4.408518 8.302823 -0.061327 2.130537 -0.000956 0.003919 -311939.000000 1 0 0
-5.154873 -10.783112 6.938082 13.819739 1.124862 1.044839 0.004106 -0.005807 412699.000000 1 0 0
9.664127 8.379788 -1.460518 12.874367 0.714339 1.684485 0.005049 0.001853 -432969.000000 1 0 0
13.693327 4.669088 -4.299218 15.092742 0.328613 1.859650 0.002103 -0.005173 962401.000000 1 0 0
4.716527 1.052888 -6.980018 8.489691 0.219633 2.536019 -0.001119 0.000390 -809839.000000 1 0 0
9.019927 -4.691112 3.524582 10.760497 -0.479585 1.237089 0.003664 -0.005553 -901208.000000 1 0 0
-8.707873 -3.181012 -0.780018 9.303457 0.350242 1.654737 0.000256 0.002738 -38296.400000 1 0 0
-8.470873 -4.230912 -10.393818 14.060148 0.463220 2.402737 0.009979 -0.005616 -7895.710000 1 0 0
10.428727 -1.075212 10.744882 15.012226 -0.102738 0.773110 0.007140 -0.001635 925867.000000 1 0 0
2.231627 -11.670012 9.923982 15.480787 -1.381850 0.874929 0.004738 -0.002529 80119.500000 1 0 0
-6.432273 -10.694612 2.108082 12.656732 1.029311 1.403458 0.005354 0.002220 -662066.000000 1 0 0
-3.608173 -1.562112 6.542182 7.632775 0.408574 0.541149 0.000032 -0.000644 -1482420.000000 1 0 0
4.621927 -7.560212 3.978182 9.713133 -1.022074 1.148817 0.000155 -0.002067 298354.000000 1 0 0
11.497027 -9.496812 -5.218218 15.798762 -0.690409 1.907410 0.020964 -0.004589 440406.000000 1 0 0
11.320227 1.263788 11.545282 16.218454 0.111179 0.778652 0.010942 0.002303 -74195.500000 1 0 0
-10.160073 -3.581712 4.420082 11.644435 0.338925 1.181446 0.004490 0.001596 1175590.000000 1 0 0
2.055727 8.762688 9.017482 12.740710 1.340363 0.784461 -0.005398 0.006378 -244418.000000 1 0 0
6.553627 8.724188 4.153682 11.675383 0.926526 1.207065 0.003118 -0.002006 1123040.000000 1 0 0
-4.303573 3.508488 0.322882 5.561877 -0.683971 1.512711 0.001562 0.000295 -1831450.000000 1 0 0
4.798127 6.954688 4.284282 9.473372 0.966873 1.101516 -0.003497 0.000659 -1417020.000000 1 0 0
-8.332373 13.122088 1.089582 15.582196 -1.005047 1.500814 0.004813 -0.003736 -285967.000000 1 0 0
8.892027 8.104388 -9.165018 15.124378 0.739090 2.221789 0.005603 -0.004309 -1071530.000000 1 0 0
7.071527 2.024188 6.107682 9.560733 0.278790 0.877820 -0.003585 0.001594 -1142320.000000 1 0 0
11.561727 -6.122112 3.027582 13.428330 -0.486980 1.343379 0.011097 -0.005188 12974.700000 1 0 0
11.429327 4.833888 -2.028818 12.574263 0.400122 1.732852 0.000571 -0.000711 731356.000000 1 0 0
-4.052273 14.354188 -5.918818 16.046683 -1.295651 1.948568 0.009963 0.000260 282512.000000 1 0 0
7.142927 -3.034112 6.854282 10.354150 -0.401677 0.847334 0.000527 -0.002978 -862964.000000 1 0 0
-8.104073 -0.513512 0.839782 8.163634 0.063280 1.467745 -0.002490 0.003659 155877.000000 1 0 0
-3.239173 0.992088 10.830082 11.347561 -0.297207 0.303162 0.004661 0.003994 -586324.000000 1 0 0
7.079927 -1.250912 -1.951118 7.449632 -0.174879 1.835795 0.002598 0.001276 -1125180.000000 1 0 0
-7.824073 5.363788 2.932082 9.928919 -0.600962 1.271019 0.005224 0.001052 739969.000000 1 0 0
9.403027 -2.140312 2.777682 10.035605 -0.223806 1.290352 0.002502 -0.004283 -2176960.000000 1 0 0
0.229127 3.456488 1.657682 3.840276 1.504604 1.124467 -0.003340 0.002445 -2685510.000000 1 0 0
-7.481173 -3.189012 3.897082 9.018037 0.402947 1.123929 -0.001829 0.002726 -227171.000000 1 0 0
-2.267673 8.412388 -6.846318 11.080735 -1.307491 2.236812 -0.001235 -0.001368 -269619.000000 1 0 0
4.465027 9.756188 7.373682 13.018865 1.141590 0.968684 -0.001324 0.004585 547499.000000 1 0 0
-11.765073 -3.116612 6.823682 13.953238 0.258956 1.059808 0.016583 -0.002426 -2064720.000000 1 0 0
-4.746073 2.253188 -5.665318 7.726441 -0.443243 2.393868 0.006838 -0.004781 -1181460.000000 1 0 0
-2.774873 2.936188 -1.946518 4.484423 -0.813637 2.019793 0.001776 0.000033 224383.000000 1 0 0
2.388127 5.172888 11.428782 12.770238 1.138286 0.462467 -0.000532 -0.000142 356395.000000 1 0 0
-0.750973 1.694888 4.554182 4.917029 -1.153711 0.386575 -0.001703 0.003421 -213184.000000 1 0 0
5.121127 1.573888 7.765882 9.434616 0.298170 0.603901 -0.005318 0.003221 -311180.000000 1 0 0
3.444827 -8.008012 1.863382 8.914442 -1.164553 1.360214 0.003526 -0.003292 2267690.000000 1 0 0
5.062527 6.456288 -4.648518 9.429823 0.905811 2.086284 0.003028 0.001237 -2508320.000000 1 0 0
-4.051073 2.872788 -8.011218 9.425695 -0.616836 2.586656 0.009765 -0.009163 940117.000000 1 0 0
-8.633473 -2.106112 -12.950718 15.706485 0.239274 2.540196 0.016347 -0.005017 1173820.000000 1 0 0
-7.794773 8.117188 1.196182 11.317158 -0.805658 1.464902 0.006205 -0.000960 -844034.000000 1 0 0
7.403127 0.956188 -6.549918 9.930862 0.128449 2.291019 -0.002463 0.003623 788295.000000 1 0 0
8.978927 9.026288 5.482782 13.862031 0.788029 1.164157 0.010307 -0.006418 944440.000000 1 0 0
9.418527 -1.016712 -1.424818 9.579795 -0.107532 1.720082 0.000739 0.001167 1992810.000000 1 0 0
5.393427 0.079788 4.235482 6.858187 0.014792 0.905134 -0.004670 0.002249 -2005440.000000 1 0 0
-4.197373 -7.304212 -7.999918 11.617579 1.049224 2.330359 0.008835 -0.004930 -358473.000000 1 0 0
-2.163573 7.502688 -0.530818 7.826439 -1.290040 1.638672 -0.001255 0.000954 214115.000000 1 0 0
13.444227 -3.340912 -7.407318 15.709147 -0.243568 2.061820 0.021028 -0.002086 1574380.000000 1 0 0
-4.810973 -5.087412 1.696482 7.204531 0.813319 1.333090 0.001487 -0.000276 689103.000000 1 0 0
-8.836673 1.272488 2.624182 9.305501 -0.143018 1.284915 0.000881 0.003757 675487.000000 1 0 0
-1.098273 11.190088 10.190382 15.174589 -1.472963 0.834508 0.003390 0.005930 291206.000000 1 0 0
-8.365773 0.201088 7.436782 11.195192 -0.024032 0.844261 0.004950 0.001504 -900319.000000 1 0 0
-6.154973 12.838888 -2.106518 14.392990 -1.123763 1.717681 0.005065 0.001242 1105670.000000 1 0 0
-13.108573 -0.877712 3.301182 13.546323 0.066857 1.324622 0.010334 -0.001925 414212.000000 1 0 0
-6.765573 12.742388 8.629082 16.810785 -1.082696 1.031763 0.012955 -0.007584 178307.000000 1 0 0
-8.111873 0.939288 -14.131318 16.321118 -0.115278 2.617604 0.009428 -0.007503 -714978.000000 1 0 0
7.280527 2.910788 3.775582 8.702516 0.380338 1.122035 0.000571 0.001132 -601111.000000 1 0 0
-1.760973 0.642888 -1.982918 2.728790 -0.350041 2.384252 0.003875 -0.002626 969834.000000 1 0 0
-6.296073 9.632388 -10.463918 15.553682 -0.991869 2.308731 0.003901 -0.009478 -301571.000000 1 0 0
-10.117673 13.672188 5.276782 17.808438 -0.933714 1.269972 0.002507 -0.010301 195090.000000 1 0 0
-5.730273 8.126888 2.490882 10.251187 -0.956655 1.325355 0.002641 0.000161 -250382.000000 1 0 0
-2.373773 -10.711812 -1.227918 11.040176 1.352717 1.682250 0.009469 0.001238 685225.000000 1 0 0
-2.260773 -12.467612 8.809782 15.432586 1.391414 0.963248 0.004446 -0.003621 663927.000000 1 0 0
-14.677173 -6.408212 -1.635218 16.098401 0.411664 1.672548 0.008957 -0.001819 309864.000000 1 0 0
-2.784573 -9.412912 3.238582 10.336594 1.283174 1.252117 0.006757 -0.002348 -987583.000000 1 0 0
4.718727 -2.685912 7.536182 9.288409 -0.517466 0.624333 -0.002113 0.000014 -1826310.000000 1 0 0
-14.997173 -1.272112 -0.320618 15.054443 0.084621 1.592095 0.009090 -0.004412 179508.000000 1 0 0
5.416927 8.767788 -2.893118 10.704548 1.017376 1.844470 0.001394 0.001553 -312190.000000 1 0 0
-5.599773 -5.725312 8.722082 11.841088 0.796483 0.742775 0.002474 -0.001931 -3893260.000000 1 0 0
3.406327 3.499588 6.939082 8.485343 0.798902 0.613266 -0.005638 0.001578 586388.000000 1 0 0
3.303827 2.370788 9.352182 10.198001 0.622433 0.410152 -0.004481 -0.000499 1768330.000000 1 0 0
9.920227 -3.172812 5.156382 11.621786 -0.309551 1.111093 0.009162 -0.005262 -514249.000000 1 0 0
6.499327 10.012788 -5.057918 12.964556 0.995052 1.971574 0.003444 0.000701 381185.000000 1 0 0
-4.526873 12.114388 -8.568018 15.513282 -1.213186 2.155920 0.002188 -0.003242 -809702.000000 1 0 0
-3.345273 -7.202812 2.297182 8.267309 1.135999 1.289227 0.005781 -0.003665 1064410.000000 1 0 0
-7.388473 -4.049912 1.165882 8.505915 0.501413 1.433296 0.001390 0.002004 3158970.000000 1 0 0
-2.007973 -3.966712 -10.923418 11.793550 1.102196 2.755055 0.011906 -0.007299 -601015.000000 1 0 0
-5.263973 8.289588 -4.383418 10.753652 -1.005031 1.990644 0.009334 -0.001865 -821305.000000 1 0 0
-10.874173 -3.128812 -10.127518 15.185642 0.280161 2.300856 0.024910 -0.002283 199831.000000 1 0 0
4.717527 -11.421212 -7.822218 14.624850 -1.179091 2.135136 -0.002581 0.002690 -3025510.000000 1 0 0
-9.362173 -4.001712 7.307582 12.532547 0.403931 0.948271 0.003435 -0.000237 -623843.000000 1 0 0
-5.688373 -9.691312 -5.126418 12.351489 1.040023 1.998788 0.009726 -0.001997 11179.800000 1 0 0
4.809627 4.348588 -9.572818 11.562075 0.735099 2.546238 0.001704 0.006378 32131.600000 1 0 0
-3.247573 -7.092112 -14.007518 16.032946 1.141381 2.633494 0.003734 -0.002553 -172713.000000 1 0 0
0.555427 -0.740712 -8.814318 8.862808 -0.927387 3.036940 0.011614 -0.009771 -84945.100000 1 0 0
-7.713973 2.231288 -2.921718 8.545201 -0.281568 1.919749 0.003561 -0.000892 -121525.000000 1 0 0
-2.353773 7.573488 -12.638418 14.920710 -1.269469 2.581185 0.004587 -0.007988 -642298.000000 1 0 0
-9.883573 8.866588 7.680782 15.339355 -0.731213 1.046361 0.008062 -0.009076 -191248.000000 1 0 0
-10.578573 -3.141212 -14.162918 17.954433 0.288648 2.479692 0.033428 -0.003161 -415888.000000 1 0 0
-3.143373 4.776288 7.985782 9.821733 -0.988734 0.621386 0.001535 0.003545 -654672.000000 1 0 0
8.745427 -2.330512 -3.539018 9.717944 -0.260431 1.943542 -0.001607 0.002426 -4505240.000000 1 0 0
1.998127 -8.470512 -1.084418 8.770294 -1.339139 1.694760 0.000612 -0.001019 -362026.000000 1 0 0
-13.644973 -2.933912 5.123182 14.867418 0.211793 1.218993 0.031130 -0.007089 299201.000000 1 0 0
7.032027 2.815688 -1.976018 7.828292 0.380859 1.825977 -0.001022 0.002649 674633.000000 1 0 0
-11.232873 4.468688 8.965782 15.050975 -0.378628 0.932666 0.005952 -0.001214 -2127110.000000 1 0 0
-1.720973 -2.553012 8.072382 8.639616 0.977669 0.364380 0.000536 -0.003115 -759839.000000 1 0 0
2.983327 12.022188 -9.788718 15.787725 1.327558 2.239566 0.005821 -0.007293 536264.000000 1 0 0
3.623327 -5.017912 -7.039718 9.373664 -0.945406 2.420387 -0.004516 -0.003951 521367.000000 1 0 0
8.278127 -13.835112 -9.746018 18.839389 -1.031597 2.114514 0.013292 -0.001826 3182.470000 1 0 0
-6.242173 -5.827812 -0.373518 8.547961 0.751082 1.614507 0.008255 0.000017 -348269.000000 1 0 0
-1.047373 -4.166612 9.914382 10.805212 1.324526 0.408908 0.000190 -0.003337 937752.000000 1 0 0
2.797427 3.116588 1.789382 4.554186 0.839313 1.167003 -0.006788 0.002931 -1236600.000000 1 0 0
-9.137973 13.210888 7.721182 17.822647 -0.965663 1.122731 0.012171 -0.023945 2618.640000 1 0 0
3.957027 -11.030112 -0.056718 11.718560 -1.226350 1.575636 0.002844 -0.000276 538346.000000 1 0 0
-12.557673 -1.441312 -9.121318 15.587526 0.114275 2.195883 0.020394 -0.004833 369977.000000 1 0 0
-4.289273 0.975788 -13.556418 14.252245 -0.223688 2.827826 0.009987 -0.008787 575145.000000 1 0 0
3.938427 -2.980612 4.884982 6.946820 -0.647841 0.790912 -0.002065 -0.000492 -332415.000000 1 0 0
1.689227 -1.242612 1.096782 2.366538 -0.634228 1.088907 0.002640 0.000573 482292.000000 1 0 0
8.212627 -8.955312 7.405282 14.229654 -0.828631 1.023463 0.006987 -0.004901 -1141120.000000 1 0 0
-0.058573 2.251888 -6.333618 6.722288 -1.544792 2.799880 0.005594 -0.004621 -486633.000000 1 0 0
-3.717473 -9.721712 -3.353518 10.935144 1.205564 1.882492 0.012338 0.002045 721174.000000 1 0 0
-9.512373 2.297688 -5.386418 11.170412 -0.237008 2.073965 0.004259 -0.001614 -1373920.000000 1 0 0
8.923727 -7.610712 5.354482 12.892879 -0.706154 1.142518 0.004703 -0.006666 1413710.000000 1 0 0
-5.552073 -4.331112 4.785682 8.513918 0.662482 0.973872 -0.002006 0.000488 -806431.000000 1 0 0
-0.157973 -12.546812 10.322582 16.248173 1.558206 0.882390 0.010464 -0.002887 -1323400.000000 1 0 0
-14.157873 -8.409112 3.131882 16.762076 0.535961 1.382848 0.005777 -0.002258 -1067170.000000 1 0 0
10.943927 -1.277212 -3.693818 11.620891 -0.116180 1.894268 0.008386 0.001323 137621.000000 1 0 0
-13.699873 2.936088 2.731182 14.274680 -0.211121 1.378279 0.004922 -0.001237 -915423.000000 1 0 0
-6.370673 6.122388 0.926282 8.884093 -0.765527 1.466344 0.003870 0.000390 817417.000000 1 0 0
7.146927 -6.877212 -0.434618 9.927916 -0.766168 1.614588 0.001222 -0.004282 238179.000000 1 0 0
-6.964173 7.849088 10.053982 14.532393 -0.845065 0.806772 0.009836 -0.000155 191662.000000 1 0 0
-12.530973 -5.144712 -1.906218 13.679437 0.389576 1.710600 0.001904 -0.000678 -1842200.000000 1 0 0
-9.284073 -5.491512 0.088382 10.786961 0.534145 1.562603 0.000160 0.001431 -1250270.000000 1 0 0
-1.835073 1.878788 2.280182 3.478012 -0.797168 0.855820 -0.000595 0.003708 133591.000000 1 0 0
-7.060273 7.335788 7.516682 12.655502 -0.804534 0.934842 0.006376 -0.000220 -116578.000000 1 0 0
5.560227 7.174188 -0.327418 9.082527 0.911466 1.606853 0.001174 0.001055 -986275.000000 1 0 0
0.010327 -4.019212 7.451982 8.466771 -1.568227 0.494630 -0.000119 -0.002194 -147771.000000 1 0 0
6.480727 0.697988 13.112282 14.643051 0.107289 0.461330 -0.004569 -0.001843 604711.000000 1 0 0
5.596827 6.140588 -8.058118 11.574306 0.831692 2.340897 -0.002184 0.002760 -339490.000000 1 0 0
10.002627 5.346788 8.991082 14.473432 0.490895 0.900507 0.008587 -0.003234 -1447980.000000 1 0 0
-1.141373 -5.065412 -8.524918 9.981751 1.349171 2.594519 0.009448 -0.004200 1034500.000000 1 0 0
9.985127 -3.610212 -8.003018 13.296041 -0.346935 2.216687 0.004720 -0.003806 320220.000000 1 0 0
8.383127 -5.406212 1.248782 10.053030 -0.572776 1.446255 0.003673 -0.004687 1177320.000000 1 0 0
15.724427 3.116788 -4.852818 16.748786 0.195677 1.864753 0.010113 -0.002100 -607988.000000 1 0 0
-6.894673 3.594788 1.198182 7.867315 -0.480610 1.417903 0.003917 0.001412 1215670.000000 1 0 0
-1.790073 3.754888 0.245182 4.166972 -1.125936 1.511923 -0.000883 -0.001052 -1281970.000000 1 0 0
-2.654573 9.999088 6.937982 12.456489 -1.311301 0.980054 0.001019 0.006033 528621.000000 1 0 0
5.548127 -5.752512 -8.755318 11.854480 -0.803482 2.401737 -0.005022 -0.003515 730069.000000 1 0 0
-1.192373 -0.968612 6.253082 6.439021 0.682220 0.240903 -0.002047 0.001051 -333030.000000 1 0 0
-5.667173 5.086288 -7.872818 10.953010 -0.731432 2.372844 0.004225 -0.005553 -17026.000000 1 0 0
6.812327 -1.260712 2.535782 7.377492 -0.182993 1.219922 -0.000899 0.000398 -1384870.000000 1 0 0
8.908027 7.626288 3.270782 12.174204 0.708033 1.298790 0.008164 -0.004536 430535.000000 1 0 0
-5.184673 -4.859612 -7.689618 10.470286 0.753047 2.395612 0.010717 -0.005757 1429500.000000 1 0 0
-2.195273 7.953788 -10.173418 13.098870 -1.301497 2.460148 0.001784 -0.004177 572360.000000 1 0 0
-2.749973 -2.248812 1.552082 3.876656 0.685476 1.158880 -0.001729 0.002198 510155.000000 1 0 0
6.089727 -2.060012 -9.284418 11.292867 -0.326193 2.535972 -0.003912 -0.000742 1057760.000000 1 0 0
0.969227 -7.510512 5.137982 9.151287 -1.442456 0.974660 0.000761 -0.002477 428922.000000 1 0 0
1.781927 11.796088 1.192882 11.989409 1.420869 1.471137 -0.001406 -0.001774 513792.000000 1 0 0
-0.981173 7.078588 2.461182 7.558209 -1.433063 1.239118 -0.006097 0.004484 579759.000000 1 0 0
8.695427 7.896788 -6.693418 13.519303 0.737302 2.088747 0.005203 -0.001919 -14195.800000 1 0 0
3.646227 -10.721212 5.342382 12.521198 -1.242973 1.129992 0.005758 0.001283 -95301.400000 1 0 0
8.061827 -7.031512 12.359982 16.346387 -0.717241 0.713418 0.012203 -0.000146 420477.000000 1 0 0
-8.695473 0.049988 -4.070418 9.601148 -0.005749 2.008600 0.001843 0.000509 -712390.000000 1 0 0
-3.118373 -5.187812 11.292482 12.812408 1.029571 0.492040 0.006432 -0.006157 187341.000000 1 0 0
-8.318573 0.192888 -11.684018 14.344063 -0.023183 2.522757 0.009082 -0.009757 -1889090.000000 1 0 0
1.325827 -4.917312 5.315782 7.361746 -1.307435 0.763990 -0.000929 -0.003502 -486657.000000 1 0 0
6.640727 3.774088 -7.872118 10.968739 0.516803 2.371271 0.000618 0.002340 -2450640.000000 1 0 0
16.225127 4.181288 -1.408318 16.814318 0.252217 1.654652 0.019953 -0.002482 -1905610.000000 1 0 0
7.824827 7.402188 0.169982 10.772614 0.757649 1.555017 0.003789 -0.003155 -3506520.000000 1 0 0
5.415827 -10.482812 13.947282 18.268749 -1.093926 0.702158 0.007203 -0.001580 149854.000000 1 0 0
-5.426673 -9.011512 8.938782 13.804273 1.028766 0.866448 0.006111 -0.006921 189798.000000 1 0 0
-12.527373 -3.231812 2.919782 13.262911 0.252475 1.348832 0.012433 -0.000289 114338.000000 1 0 0
-2.106773 -1.304412 -5.956518 6.451363 0.554383 2.747372 0.007959 -0.007326 -421591.000000 1 0 0
-2.537373 13.029188 -4.326918 13.961383 -1.378458 1.885906 0.005680 0.003410 704539.000000 1 0 0
3.936627 -0.401712 -5.051618 6.416950 -0.101693 2.477101 0.000737 0.000723 -112940.000000 1 0 0
-8.948973 3.787688 -7.349118 12.183605 -0.400391 2.218300 0.004335 -0.005461 -56941.500000 1 0 0
-4.555273 7.991788 -11.427518 14.669947 -1.052732 2.463825 0.004067 -0.007888 -3019950.000000 1 0 0
-10.085973 -6.515212 7.473582 14.143170 0.573535 1.014054 0.007848 0.000526 -554129.000000 1 0 0
8.017027 5.369888 4.199382 10.523461 0.590176 1.160316 0.002592 -0.001160 -1641680.000000 1 0 0
-6.735573 -7.591112 3.985982 10.903255 0.845044 1.196543 0.004611 0.000195 -722807.000000 1 0 0
-4.200973 11.838188 8.077182 14.934247 -1.229793 0.999349 0.006516 0.002667 -23460.000000 1 0 0
-7.218973 9.967488 -8.014118 14.686404 -0.943979 2.148000 0.006485 -0.005818 -490008.000000 1 0 0
13.047127 5.494688 4.582282 14.880068 0.398598 1.257761 0.008990 -0.009018 821264.000000 1 0 0
5.537927 4.071088 -3.805718 7.856582 0.633915 2.076472 -0.002009 0.004496 217360.000000 1 0 0
-2.923473 -4.300712 5.291582 7.419141 0.973781 0.776695 -0.000059 -0.000032 -1766400.000000 1 0 0
12.378027 -2.425812 -5.380718 13.713214 -0.193525 1.974008 0.012024 -0.000873 -972016.000000 1 0 0
-5.248973 9.793388 6.916782 13.088317 -1.078788 1.013999 0.003401 0.001557 -841079.000000 1 0 0
1.733827 3.773988 -0.489818 4.181993 1.140140 1.688191 -0.002563 0.001587 416955.000000 1 0 0
-0.118773 9.506188 7.732682 12.254635 -1.558303 0.887954 -0.007021 0.006963 -674314.000000 1 0 0
-5.595073 2.169988 5.964482 8.461012 -0.369979 0.788462 0.002366 0.004656 798755.000000 1 0 0
8.810527 0.935488 10.792682 13.963614 0.105782 0.687374 0.007921 0.001312 -1882790.000000 1 0 0
0.467227 -2.921212 -10.169418 10.590980 -1.412197 2.858500 0.009975 -0.006706 -1552910.000000 1 0 0
1.109427 10.610388 -2.893618 11.053696 1.466614 1.835661 0.004103 -0.003289 165750.000000 1 0 0
2.327327 -4.258512 11.677682 12.645933 -1.070635 0.393862 -0.000517 -0.001076 324294.000000 1 0 0
6.587527 -2.908912 9.428482 11.863960 -0.415829 0.652256 -0.002377 -0.000693 534753.000000 1 0 0
-10.673573 -8.337212 5.674282 14.684404 0.663115 1.174054 0.011507 -0.002008 -1549220.000000 1 0 0
-2.926573 0.815888 -6.962818 7.596798 -0.271883 2.730154 0.009895 -0.006757 905781.000000 1 0 0
10.802327 2.450688 -5.187818 12.231500 0.223090 2.008804 0.001239 0.002823 -3050070.000000 1 0 0
-2.039173 -4.217212 0.041182 4.684528 1.120407 1.562005 0.003985 -0.000773 1112810.000000 1 0 0
-1.213573 -6.508612 -10.650818 12.540922 1.386457 2.585426 0.005470 -0.002981 773208.000000 1 0 0
0.312627 6.750488 -6.621318 9.460903 1.524518 2.345999 0.002552 0.001686 -2508160.000000 1 0 0
1.980727 3.834488 -6.290918 7.629039 1.093992 2.540294 0.000439 0.000503 -1828990.000000 1 0 0
1.620827 -14.700312 6.566782 16.181745 -1.460982 1.152927 0.018214 -0.008090 -14835.200000 1 0 0
-1.720773 5.406788 -10.615018 12.036321 -1.262671 2.650707 0.007880 -0.005803 69306.300000 1 0 0
13.643127 4.358088 -0.684018 14.338610 0.309190 1.618519 0.004903 -0.004176 -893352.000000 1 0 0
-2.417973 3.333788 -6.179318 7.425948 -0.943296 2.553725 0.007684 -0.005884 -1455920.000000 1 0 0
5.818627 7.865188 14.208082 17.250716 0.933858 0.603027 0.002555 0.002911 -37158.400000 1 0 0
15.797727 0.638888 -5.658318 16.792645 0.040420 1.914474 0.009004 -0.000245 182130.000000 1 0 0
6.234127 -8.260212 10.573082 14.794780 -0.924283 0.774673 0.006643 0.005063 1391380.000000 1 0 0
0.142727 -5.833212 -6.397418 8.658735 -1.546333 2.402143 0.002532 -0.001754 -1319520.000000 1 0 0
8.552727 5.530588 -7.618318 12.719093 0.574014 2.213007 0.002422 0.001461 -508171.000000 1 0 0
-15.985973 -0.793912 5.232982 16.839410 0.049622 1.254806 0.032662 -0.011137 -68624.000000 1 0 0
-0.307373 3.958688 -12.349618 12.972230 -1.493307 2.830515 0.010819 -0.006454 391404.000000 1 0 0
-11.407373 3.659088 5.892382 13.350552 -0.310397 1.113684 0.004481 -0.002075 56070.400000 1 0 0
5.283527 -9.427312 -9.549218 14.421423 -1.059966 2.294487 -0.011971 0.000344 309837.000000 1 0 0
1.462527 11.230488 -11.694018 16.279217 1.441297 2.372210 0.006030 -0.002892 -2436920.000000 1 0 0
5.935427 2.390888 1.277082 6.525073 0.382932 1.373806 0.001633 0.000900 -269853.000000 1 0 0
5.658727 4.531088 4.951182 8.778733 0.675183 0.971578 -0.006402 0.002247 31639.500000 1 0 0
0.450527 -1.570812 -6.432218 6.636555 -1.291482 2.892800 0.005274 -0.005076 -639105.000000 1 0 0
12.612327 6.883788 -4.538618 15.068390 0.499612 1.876748 0.005316 -0.003712 26403.600000 1 0 0
7.515827 3.253988 12.754982 15.158023 0.408586 0.570803 -0.000209 -0.000991 -431978.000000 1 0 0
-2.542273 -0.193012 8.556482 8.928258 0.075776 0.289595 0.001351 0.002440 1066770.000000 1 0 0
2.177727 -15.168012 13.531782 20.443097 -1.428197 0.847413 0.011156 -0.009559 121138.000000 1 0 0
18.765227 4.387988 -1.981518 19.373038 0.229709 1.673258 0.021902 -0.005431 245312.000000 1 0 0
-0.234473 -13.079112 7.233982 14.948199 1.552871 1.065649 0.008150 -0.005777 -2407300.000000 1 0 0
4.374827 1.601988 -0.598518 4.697202 0.351019 1.698564 0.001577 0.001332 578748.000000 1 0 0
2.716727 -0.466012 -7.521718 8.010869 -0.169881 2.790330 0.003613 -0.002836 540412.000000 1 0 0
7.243127 -11.229512 0.906282 13.393513 -0.997938 1.503079 0.002731 -0.001578 569975.000000 1 0 0
-11.828773 -7.380912 1.425082 14.015298 0.557865 1.468940 0.005986 0.001993 67244.700000 1 0 0
0.173527 -7.036612 9.969182 12.203631 -1.546141 0.614776 0.001599 -0.002169 -838336.000000 1 0 0
-4.587873 -7.210212 10.677482 13.676416 1.004111 0.674976 0.007087 -0.002386 -1628760.000000 1 0 0
11.890627 0.830888 -1.584718 12.024505 0.069764 1.702972 0.002431 0.000925 1945310.000000 1 0 0
6.514527 -9.657612 -7.344118 13.771151 -0.977357 2.133290 -0.006811 -0.003061 -1745690.000000 1 0 0
-10.942673 4.966588 3.646082 12.557985 -0.426070 1.276215 0.004064 -0.002532 -65087.100000 1 0 0
6.100327 -9.040212 2.105182 11.107260 -0.977185 1.380111 0.003280 -0.004117 3610240.000000 1 0 0
11.604527 -1.406712 5.927782 13.106582 -0.120632 1.101482 0.016149 -0.009128 -37430.900000 1 0 0
-6.518273 3.585288 4.073682 8.481571 -0.502871 1.069802 0.002451 0.003777 -292514.000000 1 0 0
9.509227 6.352188 -3.185618 11.871136 0.588927 1.842476 0.004327 0.001623 -78511.600000 1 0 0
-2.306573 6.605288 11.030682 13.062391 -1.234834 0.565238 0.004381 0.001274 302208.000000 1 0 0
1.840327 9.721488 3.024482 10.346092 1.383705 1.274133 -0.007246 0.001858 -30672.100000 1 0 0
2.880527 6.041788 -5.656818 8.763574 1.125907 2.272464 -0.000360 0.002321 -1479890.000000 1 0 0
11.913427 0.107388 -5.762918 13.234520 0.009014 2.021330 0.005953 0.001834 565752.000000 1 0 0
-2.543773 -12.542912 6.236782 14.237025 1.370705 1.117348 0.008063 -0.003297 -182105.000000 1 0 0
10.923127 1.816888 -2.761818 11.412424 0.164825 1.815224 0.000928 0.001641 36553.900000 1 0 0
-8.904373 5.279888 0.785582 10.381821 -0.535223 1.495055 0.004081 -0.000921 -468933.000000 1 0 0
1.121827 -10.097212 5.654982 11.627167 -1.460147 1.062878 0.003114 -0.002458 -443581.000000 1 0 0
9.417827 -5.767912 -1.187118 11.107364 -0.549521 1.677878 0.006285 -0.003953 -915316.000000 1 0 0
-7.872773 8.628788 -4.535418 12.530226 -0.831181 1.941164 0.007232 -0.002214 -228964.000000 1 0 0
-7.507673 -0.060712 -1.667018 7.690760 0.008086 1.789287 -0.000054 0.001323 -1858690.000000 1 0 0
4.121327 8.763688 2.692382 10.051691 1.131212 1.299632 -0.003600 -0.001501 -42988.000000 1 0 0
-1.344473 -10.494812 -3.757018 11.227817 1.443382 1.911995 0.008921 0.000839 -1059250.000000 1 0 0
3.110327 7.809688 -3.727518 9.195638 1.191786 1.988166 0.003868 0.000464 -636836.000000 1 0 0
-4.420873 1.661288 -11.092318 12.055850 -0.359457 2.739075 0.007294 -0.008879 -290498.000000 1 0 0
1.316627 2.734988 11.016682 11.427202 1.122138 0.268857 -0.001022 0.000164 62983.800000 1 0 0
2.105627 5.552288 -8.169218 10.099391 1.208317 2.513045 0.002445 0.000236 -181921.000000 1 0 0
15.574227 6.026188 3.943982 17.158860 0.369192 1.338872 0.025302 -0.012440 -74405.700000 1 0 0
-4.367473 9.071288 4.557782 11.051537 -1.122089 1.145697 0.003134 0.003012 -70395.900000 1 0 0
-0.744173 -8.229412 -12.410118 14.909328 1.480613 2.554172 0.002193 -0.000525 339222.000000 1 0 0
14.255927 -4.271512 -5.267518 15.786831 -0.291118 1.910985 0.030090 -0.001019 300187.000000 1 0 0
-5.974073 -6.168112 -5.642418 10.274825 0.801377 2.152143 0.008124 -0.001692 750142.000000 1 0 0
-8.875173 2.711588 -12.285318 15.396443 -0.296518 2.494653 0.009232 -0.010890 118125.000000 1 0 0
10.605327 5.486088 13.694782 18.169127 0.477388 0.717063 0.026626 0.003979 847379.000000 1 0 0
-0.474473 10.799488 5.593882 12.171507 -1.526890 1.093265 -0.006259 0.008557 530567.000000 1 0 0
0.452327 11.153488 -0.629018 11.180365 1.530264 1.627087 0.000943 -0.001454 -442861.000000 1 0 0
-1.454173 -0.597812 3.627882 3.953925 0.390040 0.408949 -0.000335 0.002050 47143.400000 1 0 0
-4.893373 6.658988 8.875082 12.126595 -0.937060 0.749735 0.006110 0.002334 -894897.000000 1 0 0
3.510427 -8.631612 -11.430518 14.747358 -1.184532 2.457653 -0.010121 0.005259 1167210.000000 1 0 0
6.727327 -3.842012 11.922582 14.218507 -0.518902 0.576225 0.004343 -0.002615 -574412.000000 1 0 0
-2.491673 -1.884712 -12.549518 12.932555 0.647587 2.897603 0.010822 -0.011856 956945.000000 1 0 0
-16.047173 -5.034712 5.464182 17.683816 0.304018 1.256662 0.041152 -0.011790 1534570.000000 1 0 0
-8.941673 7.264588 5.761882 12.881267 -0.682281 1.107044 0.004775 -0.001935 -1429250.000000 1 0 0
-12.735373 1.487088 6.014782 14.162583 -0.116242 1.132171 0.003129 -0.000020 274724.000000 1 0 0
-3.297673 3.457288 10.233782 11.294148 -0.809023 0.436791 0.001472 0.006719 769502.000000 1 0 0
2.031727 -12.194112 -1.130118 12.413761 -1.405697 1.661960 0.004309 0.000649 -3621650.000000 1 0 0
10.219927 -5.170012 -3.608018 12.008069 -0.468337 1.875978 0.009646 -0.001286 557463.000000 1 0 0
3.205227 -13.387612 0.938782 13.797933 -1.335802 1.502706 0.002867 0.001790 546816.000000 1 0 0
10.044427 -1.652012 -6.160418 11.898337 -0.163011 2.115021 0.005228 0.002662 -662393.000000 1 0 0
11.924327 -5.398612 -1.595918 13.186415 -0.425130 1.692121 0.013331 -0.001829 -67297.100000 1 0 0
1.393127 0.902788 5.858982 6.089622 0.574989 0.276101 -0.002314 0.000294 322370.000000 1 0 0
-10.786473 11.582688 6.586582 17.143212 -0.820977 1.176445 0.008140 -0.016561 -693715.000000 1 0 0
4.777827 -14.037812 3.063482 15.141754 -1.242740 1.367070 0.005780 -0.004228 -4937850.000000 1 0 0
5.259927 -3.423012 -1.805218 6.530135 -0.576918 1.850889 0.001842 -0.002524 -1645800.000000 1 0 0
2.115427 -2.853512 -7.849118 8.615464 -0.932860 2.716620 0.002144 -0.005309 17175.900000 1 0 0
-2.741573 14.810588 -8.810718 17.449885 -1.387759 2.100080 0.009087 -0.004942 -1286240.000000 1 0 0
-2.439273 6.199188 -8.235218 10.592394 -1.195921 2.461422 0.005549 -0.003898 -212393.000000 1 0 0
2.680727 -3.491212 -11.372118 12.194258 -0.915969 2.772291 0.003169 -0.002474 -648887.000000 1 0 0
14.344527 2.805588 -2.659718 14.856342 0.193148 1.750796 0.006072 0.000693 280867.000000 1 0 0
-3.480173 13.078588 2.162182 13.705331 -1.310726 1.412372 -0.001276 0.000475 -751761.000000 1 0 0
7.990027 -4.884712 13.962282 16.812087 -0.548724 0.590808 0.007171 -0.003845 -556255.000000 1 0 0
-11.537673 7.270288 2.957582 13.954292 -0.562283 1.357229 0.003521 -0.003676 1169400.000000 1 0 0
-2.297973 11.918088 4.024582 12.787445 -1.380320 1.250625 -0.001824 0.002222 1589890.000000 1 0 0
1.663027 1.415988 0.529782 2.247521 0.705336 1.332839 -0.000122 0.001560 -844616.000000 1 0 0
-6.796973 8.591888 5.212082 12.131990 -0.901511 1.126730 0.002480 -0.002476 -1251390.000000 1 0 0
-1.128473 9.216588 1.044182 9.343942 -1.448963 1.458813 -0.004191 0.003435 193914.000000 1 0 0
4.885127 13.042888 -8.419918 16.275024 1.212426 2.114550 0.015007 -0.013039 -1876920.000000 1 0 0
8.888427 6.971688 7.086682 13.335278 0.665129 1.010516 0.002907 -0.003733 -1465510.000000 1 0 0
7.183727 -13.692412 2.910382 15.733989 -1.087624 1.384751 0.011813 -0.006732 -225407.000000 1 0 0
4.267027 -13.323512 -1.350318 14.055136 -1.260855 1.667018 0.001742 0.003766 -2229350.000000 1 0 0
12.144827 -11.899512 -4.645218 17.625926 -0.775196 1.837491 0.029546 -0.004635 -769074.000000 1 0 0
3.069027 0.005888 -2.055718 3.693906 0.001919 2.160983 0.001747 -0.000072 811831.000000 1 0 0
-13.510973 -3.226612 -10.755318 17.567990 0.234423 2.229650 0.031650 -0.008503 77754.000000 1 0 0
-6.607573 13.626288 5.050082 15.963680 -1.119290 1.248919 0.010744 -0.010786 682287.000000 1 0 0
7.362027 -4.333312 -0.717618 8.572748 -0.531997 1.654604 0.000502 -0.002267 -1655350.000000 1 0 0
11.681727 2.145088 -7.354918 13.969931 0.181604 2.125254 0.009049 0.001780 -1078660.000000 1 0 0
-7.450873 -4.402212 9.736182 13.026443 0.533651 0.726631 0.011237 -0.002075 331565.000000 1 0 0
1.006027 2.776588 8.491582 8.990467 1.223184 0.334698 -0.001669 0.001586 -1978530.000000 1 0 0
1.589727 8.017388 -8.793618 12.005560 1.375050 2.392728 0.005576 -0.001421 -820875.000000 1 0 0
-8.556573 -2.221912 -5.564618 10.445899 0.254062 2.132594 0.009838 -0.003414 -579011.000000 1 0 0
6.557727 -0.468912 6.980982 9.589462 -0.071384 0.755418 -0.002725 -0.000367 209799.000000 1 0 0
-10.945073 6.559688 7.205082 14.653919 -0.539925 1.056775 0.008112 -0.006177 101890.000000 1 0 0
-6.003973 11.101488 4.763582 13.490087 -1.075024 1.209895 0.001739 -0.001670 264941.000000 1 0 0
6.081027 -1.198012 -6.990818 9.342680 -0.194517 2.416242 -0.003995 0.001166 -382982.000000 1 0 0
4.512527 -5.798612 11.394482 13.558061 -0.909485 0.572736 0.002168 0.000449 -1520530.000000 1 0 0
-9.038573 -7.494612 2.773182 12.064640 0.692283 1.338862 0.002078 0.000886 -3197470.000000 1 0 0
-1.208073 12.655588 -9.327518 15.767877 -1.475627 2.203779 0.009499 -0.002790 689719.000000 1 0 0
-4.568973 9.419088 -2.382118 10.736350 -1.119159 1.794532 0.001231 -0.000527 759026.000000 1 0 0
-3.254573 9.764588 -0.176318 10.294198 -1.249072 1.587925 -0.000174 0.000301 -796922.000000 1 0 0
-3.532873 10.757788 -6.470218 13.041277 -1.253491 2.089936 0.008981 0.000944 1010670.000000 1 0 0
4.989627 -4.850512 0.331382 6.966610 -0.771262 1.523211 0.002976 -0.004590 -1459510.000000 1 0 0
-2.220773 2.947388 -10.974018 11.577910 -0.925077 2.817189 0.012146 -0.009569 -990395.000000 1 0 0
-3.592973 12.115488 -2.243918 12.834706 -1.282498 1.746532 0.001865 0.001876 -805702.000000 1 0 0
-0.368773 0.258188 0.156982 0.476757 -0.610812 1.235266 0.001908 0.000816 -1413100.000000 1 0 0
-4.852573 -1.775912 0.171782 5.170187 0.350833 1.537565 -0.003198 0.002562 467070.000000 1 0 0
2.484927 2.522388 -2.520318 4.346183 0.792879 2.189393 -0.002608 0.001702 1587720.000000 1 0 0
6.051227 -9.671012 8.513882 14.234887 -1.011688 0.929668 0.005873 0.000647 -540894.000000 1 0 0
-4.240273 -5.611512 6.719782 9.727510 0.923697 0.808199 0.000973 -0.003416 301850.000000 1 0 0
-6.245773 5.260788 -12.004218 14.518499 -0.700004 2.544231 0.002714 -0.009264 1391290.000000 1 0 0
-13.057973 3.023388 8.012082 15.615537 -0.227527 1.032022 0.007464 -0.003856 541101.000000 1 0 0
4.795027 -7.483112 -4.939218 10.167848 -1.000930 2.078038 -0.004341 -0.003724 1667380.000000 1 0 0
-6.021073 2.431288 -1.013818 6.572085 -0.383775 1.725676 0.003373 0.000342 -536741.000000 1 0 0
-6.796073 -2.733812 -14.561218 16.299982 0.382456 2.675492 0.012972 -0.006817 -681905.000000 1 0 0
2.794727 -6.064012 0.901582 6.737625 -1.138939 1.436581 0.004350 -0.003905 476006.000000 1 0 0
4.941527 -7.936312 13.090982 16.086564 -1.013890 0.620163 0.003656 0.000037 74294.600000 1 0 0
-10.023073 -1.708312 8.074682 12.983867 0.168816 0.899628 0.009652 0.001533 98126.800000 1 0 0
-4.412673 13.219788 -0.091718 13.937105 -1.248632 1.577377 0.001562 0.002165 690433.000000 1 0 0
6.771327 2.248488 -4.540218 8.456959 0.320604 2.137509 -0.002128 0.004229 -1378430.000000 1 0 0
4.971527 4.465088 0.057082 6.682541 0.731782 1.562254 -0.001997 0.002204 -936267.000000 1 0 0
-5.931673 12.249288 1.843282 13.734172 -1.119831 1.436179 0.001564 -0.000636 -702398.000000 1 0 0
6.529627 -7.239512 6.626082 11.787770 -0.836909 0.973856 0.003372 -0.004763 -1821800.000000 1 0 0
-0.314873 4.876888 8.013682 9.386281 -1.506322 0.547621 -0.003897 0.002269 -1274670.000000 1 0 0
-5.803673 -3.466412 -1.550918 6.935703 0.538416 1.796317 0.003758 0.000831 -500674.000000 1 0 0
2.407527 -6.424212 -5.048218 8.517699 -1.212238 2.205171 -0.001899 -0.001297 557244.000000 1 0 0
-14.325573 -4.843712 -3.732918 15.576208 0.326049 1.812807 0.009694 -0.007589 -228192.000000 1 0 0
-12.377373 -5.266112 -6.339718 14.870216 0.402263 2.011235 0.015388 -0.009380 -598418.000000 1 0 0
-14.753773 -3.763212 -1.356618 15.286464 0.249743 1.659660 0.003951 -0.002425 535042.000000 1 0 0
12.031427 2.954388 8.640982 15.104642 0.240792 0.961763 0.025157 -0.006952 -1527550.000000 1 0 0
8.742227 -6.450812 7.657982 13.292261 -0.635706 0.956818 0.007831 -0.007836 37834.600000 1 0 0
-8.871573 -1.572612 -9.719018 13.252820 0.175442 2.394040 0.007700 -0.004732 -228900.000000 1 0 0
-8.794173 5.219988 -3.916018 10.950842 -0.535681 1.936493 0.005957 0.000586 -279266.000000 1 0 0
-4.130473 -6.372212 4.225082 8.690064 0.995687 1.063064 0.003729 -0.002476 -1200320.000000 1 0 0
-0.172673 -9.277712 3.511382 9.921470 1.552187 1.209040 0.004885 -0.003315 1231120.000000 1 0 0
8.033627 -10.405712 3.372082 13.571623 -0.913338 1.319700 0.003573 -0.006983 274514.000000 1 0 0
0.033727 6.542488 9.769282 11.757727 1.565641 0.590106 -0.000525 0.000822 1603860.000000 1 0 0
0.015927 3.423188 -9.763718 10.346432 1.566144 2.804377 0.010438 -0.005373 -332484.000000 1 0 0
4.489227 -3.149012 11.043582 12.330050 -0.611705 0.460874 -0.002746 -0.000456 -2219400.000000 1 0 0
8.657627 -9.017512 1.325282 12.570855 -0.805756 1.465175 0.004097 -0.004423 358084.000000 1 0 0
-0.185273 -0.379812 11.378782 11.386626 1.116955 0.037121 0.004631 -0.000665 -1347250.000000 1 0 0
10.904727 6.118488 11.275782 16.837227 0.511315 0.837000 0.023922 -0.004115 511441.000000 1 0 0
-6.233373 -2.937712 -11.835218 13.695163 0.440415 2.614334 0.010727 -0.007475 362080.000000 1 0 0
-1.676573 2.768688 8.344182 8.949966 -1.026308 0.370036 0.000799 0.003934 -1449910.000000 1 0 0
-1.790473 13.378388 -6.805118 15.116107 -1.437754 2.037774 0.007717 -0.002331 318041.000000 1 0 0
7.696627 3.073288 9.741582 12.789902 0.379906 0.704922 -0.001226 0.001510 625273.000000 1 0 0
6.395827 8.435688 -8.032218 13.288490 0.922076 2.219871 0.010069 -0.001604 941722.000000 1 0 0
6.686227 -3.073612 -3.975018 8.363821 -0.430885 2.066060 -0.001277 0.000347 -2152280.000000 1 0 0
1.919027 8.196788 0.965382 8.473604 1.340819 1.456620 -0.003579 0.002032 1063870.000000 1 0 0
-17.755373 6.281588 6.364882 19.880225 -0.340043 1.244896 0.031420 -0.010634 -670591.000000 1 0 0
-14.687973 3.038788 -10.159018 18.115640 -0.204011 2.166133 0.038098 -0.008791 -373047.000000 1 0 0
-18.360973 0.117188 -4.419818 18.885811 -0.006382 1.807016 0.036063 -0.006016 121006.000000 1 0 0
-13.114373 7.643888 0.239182 15.181337 -0.527724 1.555041 0.005990 -0.004025 471926.000000 1 0 0
-12.780573 -4.526412 -12.963118 18.758302 0.340379 2.333751 0.052020 0.003894 380528.000000 1 0 0
-17.476973 -0.782212 -8.658918 19.520074 0.044727 2.030397 0.037603 -0.014807 591579.000000 1 0 0
-16.710273 -2.132712 -2.149718 16.982431 0.126943 1.697722 0.024620 -0.005539 -2248440.000000 1 0 0
-15.347773 4.096588 1.717082 15.977626 -0.260836 1.463120 0.007642 0.000176 -965612.000000 1 0 0
-13.244173 5.875688 4.454282 15.158247 -0.417555 1.272542 0.003563 -0.004044 67656.500000 1 0 0
-10.149273 14.156488 2.764582 17.636802 -0.948795 1.413396 0.028918 -0.013179 -280726.000000 1 0 0
-11.813973 2.344088 -6.527118 13.699196 -0.195873 2.067420 0.006620 0.001886 125567.000000 1 0 0
-16.070973 10.523888 3.790082 19.580427 -0.579769 1.376002 0.034640 -0.015547 224778.000000 1 0 0
-12.819673 1.025088 -8.630418 15.488025 -0.079792 2.161844 0.017375 -0.006222 700849.000000 1 0 0
-12.354973 14.291688 4.102182 19.331984 -0.857952 1.356974 0.037172 -0.017540 578417.000000 1 0 0
-10.411173 11.074688 -1.009218 15.233508 -0.816270 1.637095 0.010394 -0.004661 -179698.000000 1 0 0
-17.310373 5.726688 8.895882 20.287451 -0.319491 1.116876 0.030221 -0.010785 544508.000000 1 0 0
-11.780673 12.490588 -9.261218 19.508183 -0.814639 2.065459 0.024780 -0.016801 -19901.300000 1 0 0
-17.328773 -0.635812 3.020782 17.601584 0.036675 1.398323 0.039992 -0.006012 1274500.000000 1 0 0
-13.158073 14.903688 -0.859818 19.899600 -0.847524 1.614018 0.045262 -0.011677 123943.000000 1 0 0
-16.468773 4.793388 -10.468218 20.094294 -0.283234 2.118765 0.054322 -0.009971 453378.000000 1 0 0
-12.138373 7.573488 -8.886318 16.842341 -0.557829 2.126590 0.015141 -0.003654 -20604.600000 1 0 0
-14.869273 13.275588 -2.092918 20.042874 -0.728834 1.675409 0.056913 -0.021014 710523.000000 1 0 0
-11.961273 10.532688 -5.477118 16.852548 -0.721974 1.901811 0.015012 -0.006881 900834.000000 1 0 0
-17.723573 2.691688 -0.948018 17.951851 -0.150719 1.623630 0.022424 -0.000142 -701929.000000 1 0 0
-9.457373 15.336188 0.664582 18.030037 -1.018209 1.533928 0.027440 -0.012166 193727.000000 1 0 0
-8.215673 13.148688 -3.751518 15.951776 -1.012320 1.808199 0.007395 -0.002915 -66284.800000 1 0 0
-18.001473 11.399088 2.138782 21.414169 -0.564496 1.470753 0.100627 -0.012558 118629.000000 1 0 0
-8.214573 15.489388 -7.304518 18.993587 -1.083176 1.965547 0.047028 -0.026977 -513221.000000 1 0 0
-6.318773 15.172688 -5.511118 17.335218 -1.176184 1.894325 0.015517 -0.004226 -406439.000000 1 0 0
-17.513673 5.140688 -0.201518 18.253658 -0.285505 1.581836 0.032419 -0.000279 871324.000000 1 0 0
-5.444173 12.151288 -12.343618 18.156479 -1.149580 2.318350 -0.004418 -0.010726 -751302.000000 1 0 0
-11.164073 3.688888 -11.444118 16.407689 -0.319131 2.342678 0.014306 -0.011699 70363.500000 1 0 0
-11.865273 10.960288 1.213082 16.198277 -0.745771 1.495837 0.014659 -0.009388 -179001.000000 1 0 0
-13.016173 0.208288 -11.087118 17.099366 -0.016001 2.276269 0.028386 -0.009873 1643690.000000 1 0 0
-13.977373 -2.107312 -13.029218 19.224158 0.149639 2.315498 0.051029 -0.010167 190828.000000 1 0 0
-18.671773 -2.295012 -3.691418 19.171039 0.122300 1.764558 0.024468 -0.005377 919691.000000 1 0 0
-18.187273 4.808288 -5.243518 19.529235 -0.258463 1.842628 0.029091 -0.003153 38035.800000 1 0 0
-8.295273 15.366488 -2.218618 17.602919 -1.075796 1.697169 0.019502 -0.008180 -183002.000000 1 0 0
-16.222173 9.165288 -5.201518 19.344694 -0.514275 1.843033 0.032405 -0.000085 -136001.000000 1 0 0
-18.392173 1.551288 2.077982 18.574082 -0.084146 1.458686 0.050148 -0.007280 318353.000000 1 0 0
-15.712773 -2.769312 -8.810018 18.225716 0.174454 2.075312 0.025427 -0.008438 291559.000000 1 0 0
-9.775473 10.458288 -7.224418 16.035207 -0.819132 2.038161 0.012812 -0.008854 697608.000000 1 0 0
-14.006473 12.130588 -7.839618 20.119445 -0.713750 1.971052 0.030261 -0.009447 335298.000000 1 0 0
-11.002873 6.509488 -3.778218 13.330851 -0.534233 1.858154 0.004891 -0.001394 -802626.000000 1 0 0
-13.017573 5.027088 -12.733618 18.891105 -0.368534 2.310479 0.043525 -0.019603 -322624.000000 1 0 0
-17.845473 8.923188 2.718082 20.136339 -0.463668 1.435399 0.047745 -0.013876 971563.000000 1 0 0
-13.545473 8.735388 -6.583418 17.410578 -0.572777 1.958569 0.011106 -0.001162 -807125.000000 1 0 0
-15.771773 6.978088 -3.797318 17.659619 -0.416551 1.787517 0.011157 0.004406 -1283780.000000 1 0 0
-14.996173 -0.343412 -9.252218 17.624037 0.022896 2.123485 0.031187 -0.013543 730549.000000 1 0 0
-10.167473 5.805788 -6.112418 13.207813 -0.518835 2.051934 0.002687 -0.001636 354078.000000 1 0 0
-12.709373 12.270788 -0.935818 17.691132 -0.767843 1.623719 0.028531 -0.011696 -235665.000000 1 0 0
-10.623373 3.509588 -14.020618 17.937419 -0.319076 2.468088 0.019039 -0.011975 62720.300000 1 0 0
-10.916473 6.158088 -11.885918 17.273288 -0.513611 2.329677 0.010761 -0.013836 -1602090.000000 1 0 0
-5.773273 11.581288 -14.832418 19.683941 -1.108349 2.424210 0.003653 -0.018518 -298097.000000 1 0 0
-15.750173 13.141488 3.264782 20.770784 -0.695350 1.412960 0.048006 -0.015361 -24107.200000 1 0 0
-15.119873 10.932188 -3.064018 18.907974 -0.626019 1.733563 0.038610 -0.008199 803413.000000 1 0 0
-18.193773 7.708088 -4.498018 20.264752 -0.400740 1.794623 0.039099 -0.000414 -226391.000000 1 0 0
-3.991273 16.220988 -10.668718 19.821005 -1.329533 2.139159 0.012650 -0.006278 -112881.000000 1 0 0
-15.692573 4.329788 -4.396418 16.862159 -0.269215 1.834571 0.011779 0.004101 -145540.000000 1 0 0
-18.718273 -1.846012 -6.203918 19.805810 0.098303 1.889396 0.034172 -0.010197 430221.000000 1 0 0
-10.902573 8.573288 -5.834718 15.046970 -0.666365 1.969004 0.006555 -0.001452 198755.000000 1 0 0
-11.329473 13.400288 -6.785618 18.814071 -0.868941 1.939779 0.024102 -0.013400 -202811.000000 1 0 0
-9.540173 10.492988 -4.496518 14.877378 -0.832924 1.877837 0.001196 -0.002275 -666096.000000 1 0 0
-11.133473 6.204388 -0.224218 12.747506 -0.508410 1.588386 0.002515 0.000510 -1032570.000000 1 0 0
-14.685673 9.130088 -1.233818 17.336372 -0.556223 1.642026 0.028780 -0.004035 -797486.000000 1 0 0
-18.403473 3.376788 4.591682 19.265878 -0.181468 1.330148 0.029483 -0.008474 187392.000000 1 0 0
-14.646073 13.228688 0.427482 19.740526 -0.734594 1.549140 0.029567 -0.008404 -30052.400000 1 0 0
-17.030673 2.481588 -9.287418 19.556539 -0.144695 2.065648 0.045307 -0.006223 -294580.000000 1 0 0
-9.143773 8.423588 -8.940318 15.313220 -0.744425 2.194235 0.007676 -0.004752 -1154930.000000 1 0 0
-17.653573 4.567388 -2.706118 18.434553 -0.253172 1.718125 0.017111 0.002992 693951.000000 1 0 0
-13.549273 5.813388 -4.500318 15.415289 -0.405301 1.867049 0.005802 0.004905 -674419.000000 1 0 0
-12.251973 9.650988 3.280782 15.937877 -0.667201 1.363466 0.005507 -0.002971 1428460.000000 1 0 0
-17.532773 2.484588 -4.144618 18.186510 -0.140774 1.800712 0.020825 0.000863 848409.000000 1 0 0
-11.282773 1.467888 -12.622318 16.993486 -0.129373 2.408000 0.024064 -0.008315 118190.000000 1 0 0
-11.202673 11.991088 3.540282 16.787485 -0.819378 1.358313 0.014500 -0.009823 240856.000000 1 0 0
-16.385973 12.983388 -4.205918 21.325061 -0.670057 1.769327 0.057776 -0.013890 556270.000000 1 0 0
-11.152873 4.099988 -4.554618 12.725605 -0.352282 1.936825 0.001496 0.000038 -313684.000000 1 0 0
-11.212273 15.004988 -8.769418 20.682539 -0.929066 2.008655 0.039979 -0.022689 202429.000000 1 0 0
-15.544273 6.945988 -0.285018 17.027989 -0.420233 1.587535 0.021695 -0.000019 -999190.000000 1 0 0
-12.814073 8.333088 -4.074218 15.818978 -0.576591 1.831285 0.004367 0.000389 649766.000000 1 0 0
-19.277273 1.961288 -6.006418 20.286374 -0.101392 1.871384 0.050517 -0.004158 221301.000000 1 0 0
-12.793373 10.078588 -9.002618 18.609015 -0.667256 2.075762 0.019713 -0.007358 496385.000000 1 0 0
-16.560773 10.850388 -0.922618 19.820225 -0.580012 1.617362 0.038616 -0.008205 102946.000000 1 0 0
-10.638273 6.600488 -14.505118 19.160839 -0.555319 2.429535 0.023410 -0.021354 -364845.000000 1 0 0
-13.722973 12.747388 -4.328618 19.223757 -0.748559 1.797914 0.034157 -0.013969 3868.510000 1 0 0
-17.978673 7.704788 -0.273818 19.561989 -0.404875 1.584794 0.050229 -0.005230 -358107.000000 1 0 0
-12.787273 6.644288 -2.111318 14.564291 -0.479206 1.716274 0.002414 0.003157 255755.000000 1 0 0
-13.928373 8.402088 -10.679118 19.458628 -0.542795 2.151738 0.031917 -0.006372 -819392.000000 1 0 0
-14.990473 1.403388 -0.907418 15.083341 -0.093347 1.630993 0.008222 -0.002240 -512420.000000 1 0 0
-13.357573 2.852188 -2.380918 13.864649 -0.210367 1.743378 0.003071 0.003095 931778.000000 1 0 0
-11.448173 9.018388 -10.867818 18.179699 -0.667232 2.211550 0.020733 -0.014032 -1332240.000000 1 0 0
-15.507173 4.203988 -7.964518 17.932637 -0.264736 2.031005 0.031515 -0.002000 630233.000000 1 0 0
-18.572473 10.537788 4.568582 21.836979 -0.516094 1.360026 0.088089 -0.022084 492377.000000 1 0 0
-15.323173 6.123488 -6.218418 17.634213 -0.380181 1.931180 0.018404 0.005894 503837.000000 1 0 0
-7.761073 11.246488 -13.033318 18.883462 -0.966753 2.332558 0.006236 -0.012833 -1526950.000000 1 0 0
-16.882173 9.024088 -2.694918 19.331438 -0.490891 1.710658 0.044778 -0.007459 379249.000000 1 0 0
-20.714773 -1.033712 -4.698118 21.265998 0.049861 1.793556 0.057195 -0.013563 797283.000000 1 0 0
-15.528073 4.359888 4.157582 16.655784 -0.273727 1.318511 0.011490 -0.001308 39701.600000 1 0 0
-6.987673 12.541088 -9.507818 17.219322 -1.062456 2.155749 0.009170 -0.013173 -774313.000000 1 0 0
-17.079773 1.568488 5.840082 18.118646 -0.091576 1.242612 0.027593 -0.012487 -209573.000000 1 0 0
-10.421273 14.258288 -3.268318 17.960613 -0.939637 1.753787 0.027721 -0.013896 -778479.000000 1 0 0
-9.906273 8.414188 -12.764518 18.217182 -0.704134 2.347154 -0.000635 -0.017725 -1081670.000000 1 0 0
-13.829273 11.672788 2.728482 18.301568 -0.701038 1.421154 0.028638 -0.011052 -565607.000000 1 0 0
-17.009673 6.626488 1.915982 18.355116 -0.371484 1.466222 0.024581 -0.000438 551710.000000 1 0 0
-9.376773 13.203788 -8.459518 18.270942 -0.953286 2.052178 0.025651 -0.020413 -1271380.000000 1 0 0
-5.716073 9.704988 -13.064618 17.249479 -1.038517 2.430106 0.004571 -0.013231 -349490.000000 1 0 0
-16.014273 1.780488 3.165482 16.420942 -0.110727 1.376811 0.012170 -0.001473 72798.700000 1 0 0
-18.605573 -4.987212 4.725782 19.833624 0.261893 1.330211 0.070701 -0.006558 -435144.000000 1 0 0
-5.240173 14.412388 -9.208618 17.887845 -1.222068 2.111568 0.004451 -0.006067 -63260.500000 1 0 0
-15.481673 -0.899512 -6.817318 16.940104 0.058036 1.984973 0.022605 -0.007813 928720.000000 1 0 0
-9.000873 10.908088 -9.637918 17.114075 -0.880904 2.168998 0.010630 -0.014406 331085.000000 1 0 0
-16.778773 1.229388 -6.230318 17.940331 -0.073140 1.925465 0.016631 -0.001439 -831809.000000 1 0 0
-11.391573 8.733488 -1.428318 14.425042 -0.654080 1.669975 -0.001184 -0.001246 -357956.000000 1 0 0
-10.728773 10.869588 -12.538018 19.759970 -0.791918 2.258179 0.035595 -0.022268 -293956.000000 1 0 0
-13.992073 11.750288 -10.475318 21.061331 -0.698532 2.091363 0.046220 -0.017034 -12977.200000 1 0 0
-13.276673 5.526988 -7.748218 16.335621 -0.394473 2.064981 0.016924 0.004208 124845.000000 1 0 0
-8.874673 15.455588 -4.733618 18.440232 -1.049560 1.830403 0.022354 -0.008721 1129590.000000 1 0 0
-8.658073 6.076488 -12.970218 16.736561 -0.611953 2.457453 0.004184 -0.012936 -913707.000000 1 0 0
-16.475473 7.344188 4.304582 18.544749 -0.419326 1.336541 0.028095 -0.006116 -180913.000000 1 0 0
-12.687473 5.383388 -10.233218 17.166001 -0.401284 2.209472 0.021718 -0.002946 503796.000000 1 0 0
-12.429473 9.065688 -13.390518 20.395697 -0.630167 2.287014 0.053540 -0.024765 -88604.000000 1 0 0
-10.778173 5.243588 -8.530818 14.711869 -0.452790 2.189353 0.005220 -0.000707 -1548740.000000 1 0 0
-17.650973 -4.466212 -2.627918 18.395919 0.247828 1.714140 0.018553 -0.008279 344433.000000 1 0 0
-9.022773 13.146388 -10.986918 19.363634 -0.969303 2.174141 0.031041 -0.019070 -27727.200000 1 0 0
-15.184173 6.045988 6.114782 17.450032 -0.378934 1.212780 0.012749 -0.011482 -615714.000000 1 0 0
-16.249673 -3.185612 -4.466518 17.150795 0.193587 1.834260 0.012519 -0.008170 768575.000000 1 0 0
-11.136173 -1.101512 -12.562018 16.823554 0.098592 2.413872 0.025956 -0.004437 394997.000000 1 0 0
-15.454173 6.790288 -8.633418 18.959836 -0.413989 2.043565 0.027313 0.001467 101295.000000 1 0 0
-15.021873 9.019288 1.330782 17.572000 -0.540721 1.494991 0.031541 -0.010251 -341025.000000 1 0 0
-19.628173 5.229388 7.774582 21.749846 -0.260374 1.205255 0.068041 -0.023505 760491.000000 1 0 0
-16.361973 0.422688 0.959482 16.395531 -0.025828 1.512242 0.023744 -0.002533 739900.000000 1 0 0
-17.507673 3.813288 7.059682 19.258735 -0.214457 1.195476 0.023446 -0.008001 551945.000000 1 0 0
-15.473973 3.951488 -1.327218 16.025592 -0.250020 1.653710 0.006042 0.001377 -1369620.000000 1 0 0
-10.813573 13.211988 0.456382 17.079176 -0.884896 1.544072 0.027053 -0.015320 -1435450.000000 1 0 0
-13.461573 3.304588 0.127882 13.861840 -0.240723 1.561571 0.004093 0.000094 -567193.000000 1 0 0
-15.135973 0.137988 -4.390218 15.760416 -0.009116 1.853091 0.012444 -0.002422 -395572.000000 1 0 0
-18.928673 6.751388 3.630082 20.421885 -0.342609 1.392092 0.033624 -0.006394 9937.770000 1 0 0
-14.108773 1.248688 -6.427118 15.553924 -0.088274 1.996778 0.013469 -0.000832 548856.000000 1 0 0
-14.484973 12.042588 5.238682 19.552037 -0.693587 1.299547 0.026724 -0.017650 337597.000000 1 0 0
17.697527 5.638288 5.939282 19.500457 0.308425 1.261308 0.049466 -0.021148 -1245160.000000 1 0 0
18.567627 7.508888 -0.330718 20.031215 0.384300 1.587307 0.049170 -0.010522 1317550.000000 1 0 0
16.775927 5.174688 8.324582 19.429560 0.299199 1.128020 0.065978 -0.017653 299156.000000 1 0 0
11.654327 12.446788 10.951782 20.265424 0.818267 0.999864 0.043472 -0.008026 358227.000000 1 0 0
-2.334173 16.376088 -0.578818 16.551727 -1.429215 1.605774 0.005580 -0.002676 -376691.000000 1 0 0
15.143727 12.555288 3.199182 19.929940 0.692220 1.409577 0.048623 -0.016716 100579.000000 1 0 0
13.654527 11.630888 6.672182 19.137442 0.705537 1.214671 0.051692 -0.015562 684535.000000 1 0 0
-0.797073 15.860688 8.535782 18.029318 -1.520584 1.077605 0.004904 0.006108 -54301.200000 1 0 0
0.642927 12.943488 9.425882 16.024808 1.521165 0.941958 -0.000964 0.007750 -685164.000000 1 0 0
0.753127 15.490988 -3.766118 15.959999 1.522217 1.809015 0.008705 -0.005925 -890199.000000 1 0 0
5.478427 10.249988 13.596782 17.887087 1.079946 0.707260 0.013437 -0.003052 133343.000000 1 0 0
-1.458373 16.482988 -2.914818 16.802140 -1.482549 1.745157 0.008118 -0.002831 -968530.000000 1 0 0
8.497627 10.130088 3.195382 13.602897 0.872811 1.333676 0.015158 -0.006268 327163.000000 1 0 0
12.659527 13.595688 -4.803418 19.187996 0.821039 1.823822 0.068668 -0.020268 848386.000000 1 0 0
2.310227 11.573088 7.745482 14.116161 1.373766 0.989993 -0.000130 0.007514 658119.000000 1 0 0
-0.303173 14.811088 -8.487818 17.073468 -1.550330 2.091090 0.007613 -0.003334 -1819890.000000 1 0 0
2.340527 15.784688 0.323082 15.960540 1.423591 1.550552 0.012891 -0.011937 -1364670.000000 1 0 0
1.806727 13.381888 5.374082 14.533408 1.436595 1.192030 0.001659 0.004073 757396.000000 1 0 0
17.511527 9.107588 -2.107818 19.850558 0.479591 1.677181 0.036317 -0.009661 416300.000000 1 0 0
-7.343773 14.927288 7.178382 18.118612 -1.113594 1.163435 0.017248 -0.014737 -482129.000000 1 0 0
8.478327 15.888088 -0.115518 18.009073 1.080610 1.577211 0.014550 -0.014793 -1020760.000000 1 0 0
15.617427 10.216288 1.994982 18.768498 0.579294 1.464301 0.034576 -0.018086 -500250.000000 1 0 0
14.227827 7.319088 8.585782 18.158077 0.475117 1.078290 0.048589 -0.019451 -1309380.000000 1 0 0
4.142327 18.717388 -1.865118 19.260793 1.352998 1.667783 0.025293 -0.016751 425105.000000 1 0 0
-0.427973 17.522988 -4.862718 18.190225 -1.546378 1.841413 0.018054 -0.005267 624591.000000 1 0 0
1.271627 13.711188 -0.768018 13.791431 1.478317 1.626513 0.001294 -0.005540 192321.000000 1 0 0
10.295627 14.813788 4.116682 18.503927 0.963432 1.346443 0.032548 -0.019447 340400.000000 1 0 0
-1.599573 15.244288 -5.163518 16.174327 -1.466250 1.895725 0.008669 -0.001077 713715.000000 1 0 0
15.068627 8.846388 -6.091218 18.504730 0.530860 1.906222 0.033645 -0.006345 349650.000000 1 0 0
-2.465473 18.559188 0.855182 18.741754 -1.438726 1.525151 0.018094 -0.012648 -207327.000000 1 0 0
-3.789373 19.392688 3.528382 20.072000 -1.377826 1.394092 0.018596 -0.013860 12018.500000 1 0 0
1.824227 17.678288 -2.658718 17.969932 1.467970 1.719295 0.016965 -0.015646 -249320.000000 1 0 0
2.804227 12.120388 3.314182 12.874444 1.343432 1.310442 -0.001485 0.000892 -411243.000000 1 0 0
-2.589573 16.217388 1.923582 16.535106 -1.412454 1.454199 0.008819 -0.004323 -1164440.000000 1 0 0
11.782627 12.764488 -2.568518 17.560175 0.825376 1.717592 0.035520 -0.005160 288878.000000 1 0 0
7.000327 11.691288 4.744282 14.429103 1.031286 1.235764 0.012089 -0.004721 126570.000000 1 0 0
6.989527 15.546988 1.862082 17.147294 1.148296 1.461988 0.008126 -0.013999 -1254090.000000 1 0 0
5.467727 12.234688 10.191382 16.835911 1.150520 0.920608 0.010062 0.003176 1641220.000000 1 0 0
-1.352073 14.155988 3.062682 14.546481 -1.475573 1.358664 0.002404 -0.001343 -472062.000000 1 0 0
4.534327 16.024688 1.464782 16.718144 1.295046 1.483068 0.007546 -0.013557 -3334450.000000 1 0 0
7.113027 13.142188 11.905782 19.106541 1.074706 0.898063 0.013915 -0.000186 138954.000000 1 0 0
0.602827 16.988388 -9.531818 19.489081 1.535327 2.081837 0.010860 -0.000243 198421.000000 1 0 0
9.815727 9.547888 15.395582 20.604238 0.771567 0.726950 0.026985 -0.007469 -427455.000000 1 0 0
13.464327 7.645488 -0.086518 15.483833 0.516431 1.576384 0.006707 -0.005756 47711.600000 1 0 0
12.199327 13.667288 0.017282 18.319898 0.842089 1.569853 0.039983 -0.014143 514554.000000 1 0 0
9.185027 12.495788 3.638882 15.929561 0.936932 1.340326 0.016977 -0.007906 -310142.000000 1 0 0
-0.661773 12.863488 0.749282 12.902275 -1.519396 1.512690 0.003677 -0.002617 -403154.000000 1 0 0
15.916627 7.311088 -0.842218 17.535688 0.430591 1.618844 0.023954 -0.008139 -1341600.000000 1 0 0
-4.424473 18.469088 -2.402118 19.142971 -1.335667 1.696611 0.028661 -0.011509 79285.400000 1 0 0
11.538627 9.120488 -3.174718 15.046663 0.668879 1.783386 0.016082 -0.002287 40617.300000 1 0 0
14.762827 9.682388 7.806682 19.303730 0.580486 1.154459 0.048191 -0.016583 1148700.000000 1 0 0
4.360327 13.722988 4.795182 15.176515 1.263146 1.249327 0.005524 -0.002001 -825398.000000 1 0 0
2.182927 15.941588 5.610582 17.040482 1.434710 1.235287 0.006646 0.003114 136695.000000 1 0 0
6.156227 18.344888 5.452382 20.103794 1.247023 1.296145 0.025569 -0.021014 -667146.000000 1 0 0
10.724827 17.127088 -0.645418 20.218200 1.011341 1.602724 0.058511 -0.020853 -920577.000000 1 0 0
10.019927 13.503788 -4.509918 17.409497 0.932429 1.832834 0.043951 -0.010999 213659.000000 1 0 0
16.482427 7.833188 2.228982 18.384711 0.443648 1.449256 0.014971 -0.014252 -219225.000000 1 0 0
3.910727 13.905388 -0.466918 14.452391 1.296640 1.603109 0.002158 -0.006821 -98294.100000 1 0 0
5.625027 13.106188 -2.373718 14.458480 1.165383 1.735718 0.001206 -0.004022 278824.000000 1 0 0
-6.356773 16.795988 -2.971418 18.202832 -1.208987 1.734769 0.027803 -0.006497 -577774.000000 1 0 0
18.096027 9.690188 2.248982 20.650033 0.491633 1.461671 0.044871 -0.021276 167343.000000 1 0 0
7.997327 12.984488 9.402482 17.915380 1.018757 1.018284 0.020411 -0.004776 873650.000000 1 0 0
-2.670273 15.660488 6.631982 17.215238 -1.401910 1.175329 0.002600 -0.000446 636145.000000 1 0 0
11.285527 15.904688 6.212582 20.467496 0.953675 1.262397 0.041378 -0.020185 -82402.900000 1 0 0
13.555227 11.847088 1.281282 18.048251 0.718256 1.499745 0.043000 -0.013471 2867020.000000 1 0 0
17.401127 7.919788 -5.461618 19.883449 0.427112 1.849055 0.037833 0.004142 -649813.000000 1 0 0
9.379427 9.413588 7.985282 15.503355 0.787216 1.029709 0.016595 -0.004877 186381.000000 1 0 0
-2.080573 14.197488 -1.870418 14.470519 -1.425287 1.700416 0.003637 -0.001591 471522.000000 1 0 0
10.862427 11.622388 0.684982 15.922984 0.819184 1.527765 0.022716 -0.004932 275931.000000 1 0 0
11.689427 9.683788 -0.550618 15.189524 0.691833 1.607054 0.014757 -0.002547 -1395620.000000 1 0 0
-0.341173 16.234488 11.065682 19.650046 -1.549784 0.972618 0.013745 0.002912 -333659.000000 1 0 0
1.862527 20.090888 -1.617418 20.241760 1.478355 1.650787 0.032320 -0.028511 -298911.000000 1 0 0
9.214427 14.315488 1.781982 17.117661 0.998885 1.466505 0.017418 -0.010885 -122930.000000 1 0 0
8.509327 11.662288 -5.174718 15.336079 0.940450 1.914972 0.018365 -0.002438 -606957.000000 1 0 0
10.667927 10.137888 10.237882 17.927512 0.759928 0.962986 0.026672 -0.007269 1008090.000000 1 0 0
-5.187873 15.751988 5.755682 17.554687 -1.252638 1.236747 0.000562 -0.002860 686712.000000 1 0 0
14.464327 9.021188 -2.059618 17.170924 0.557653 1.691034 0.033472 -0.007413 -684830.000000 1 0 0
12.219827 9.543888 6.982782 17.004976 0.663058 1.147650 0.024693 -0.013181 -1674690.000000 1 0 0
3.059227 12.950688 9.826682 16.542154 1.338827 0.934726 0.007417 0.002463 -167990.000000 1 0 0
8.529227 12.592688 -2.648718 15.438239 0.975457 1.743218 0.016189 -0.004167 -1310770.000000 1 0 0
9.296127 16.958088 2.150282 19.458120 1.069350 1.460062 0.013818 -0.017183 276668.000000 1 0 0
9.478127 14.359988 -7.418818 18.737209 0.987397 1.977888 0.050134 -0.015423 853563.000000 1 0 0
6.202327 11.510888 7.288582 14.969730 1.076575 1.062273 0.004999 0.000206 -594567.000000 1 0 0
5.422827 16.867188 -5.481918 18.546172 1.259732 1.870861 0.027501 -0.009627 -1576270.000000 1 0 0
-4.204073 17.201088 -4.632418 18.303304 -1.331088 1.826671 0.019320 -0.005526 378098.000000 1 0 0
-0.239373 18.282788 -0.482118 18.290710 -1.557704 1.597158 0.017635 -0.023936 -940685.000000 1 0 0
6.688927 15.501588 -2.681018 17.094702 1.163433 1.728280 0.009404 -0.008869 243590.000000 1 0 0
-0.860373 20.621988 0.630782 20.649565 -1.529099 1.540245 0.030105 -0.023290 -132138.000000 1 0 0
-1.424773 18.784388 4.329482 19.329450 -1.495093 1.344896 0.012039 -0.008170 991856.000000 1 0 0
7.266027 13.798688 -4.405918 16.205279 1.086116 1.846144 0.014840 -0.001941 -68450.000000 1 0 0
-1.057473 11.866388 7.704982 14.187888 -1.481916 0.996710 -0.000495 0.007367 537750.000000 1 0 0
7.658627 10.889488 10.876882 17.191337 0.957856 0.885767 0.009060 0.000000 441077.000000 1 0 0
1.575327 16.097388 -7.247118 17.723664 1.473245 1.992039 0.009944 -0.001271 -132003.000000 1 0 0
8.854527 7.104688 14.759182 18.620223 0.676190 0.655665 0.016935 0.000120 -218666.000000 1 0 0
11.346427 11.305688 -4.730418 16.701403 0.783600 1.857962 0.040796 -0.008111 -836444.000000 1 0 0
-3.406473 16.992988 4.434082 17.889292 -1.372955 1.320323 0.008921 -0.005606 -393177.000000 1 0 0
3.967527 15.325988 -6.680918 17.183185 1.317482 1.970131 0.021503 -0.009116 -1180550.000000 1 0 0
-4.559673 14.082288 9.435582 17.553679 -1.257661 1.003294 0.013972 -0.004724 -53731.200000 1 0 0
6.096027 17.704088 0.398582 18.728458 1.239183 1.549513 0.012430 -0.018984 -275127.000000 1 0 0
9.815027 10.704088 -2.094218 14.673037 0.828699 1.714011 0.019743 -0.002456 -918877.000000 1 0 0
6.930527 18.096488 -2.675118 19.561987 1.205051 1.707977 0.016472 -0.013751 -332959.000000 1 0 0
3.595727 10.375888 10.404382 15.127441 1.237201 0.812367 0.002542 0.004944 744438.000000 1 0 0
-0.040673 18.605788 2.045882 18.717976 -1.568610 1.461277 0.016236 -0.015300 599930.000000 1 0 0
-0.872273 17.091888 -7.335518 18.619971 -1.519806 1.975732 0.015473 0.001905 411932.000000 1 0 0
9.979827 8.624888 12.922582 18.465610 0.712699 0.795652 0.024479 -0.009433 -306547.000000 1 0 0
3.642827 11.449888 5.539382 13.230831 1.262769 1.138814 -0.002249 0.001827 659470.000000 1 0 0
13.231427 13.877388 7.974282 20.766361 0.809222 1.176672 0.057204 -0.020278 -52092.000000 1 0 0
-0.642873 17.360388 6.620582 18.591086 -1.533782 1.206688 0.007580 -0.003174 -617902.000000 1 0 0
12.203327 13.567488 5.593682 19.086309 0.838283 1.273357 0.036791 -0.017150 -636407.000000 1 0 0
4.855027 14.501188 -4.379518 15.907103 1.247725 1.849717 0.010865 -0.006520 -1177110.000000 1 0 0
3.820527 17.612888 4.718582 18.629956 1.357189 1.314728 0.016897 -0.006589 -1480950.000000 1 0 0
7.024927 11.817488 2.080182 13.904308 1.034466 1.420626 0.010891 -0.003794 393996.000000 1 0 0
6.375027 8.732288 11.675482 15.912596 0.940184 0.747007 0.004269 0.002290 523677.000000 1 0 0
-5.365273 14.871588 1.834482 15.915892 -1.224556 1.455279 0.004311 0.000258 103298.000000 1 0 0
6.734627 13.782288 6.095082 16.506262 1.116275 1.192585 0.014711 -0.008889 -333196.000000 1 0 0
5.805327 15.817688 4.938682 17.558236 1.219045 1.285674 0.011471 -0.011751 537202.000000 1 0 0
1.234327 18.010188 4.243682 18.544521 1.502368 1.339913 0.015221 -0.005427 1302410.000000 1 0 0
7.104727 18.206288 -6.843018 20.706834 1.198736 1.907599 0.029329 -0.009333 303638.000000 1 0 0
-2.530273 18.645188 -6.075218 19.772546 -1.435914 1.883104 0.025115 -0.005162 -263008.000000 1 0 0
13.559827 10.208188 -4.407218 17.535666 0.645307 1.824849 0.034070 -0.003101 -1340510.000000 1 0 0
-1.708373 18.022188 9.739682 20.556731 -1.476286 1.077201 0.015861 0.000870 -242376.000000 1 0 0
3.371827 11.791088 -1.705618 12.381765 1.292266 1.708988 0.001097 -0.005224 270410.000000 1 0 0
4.328927 13.904588 -10.908218 18.195230 1.268977 2.213685 0.020798 -0.021980 -543161.000000 1 0 0
11.413627 13.130088 2.524682 17.579651 0.855219 1.426684 0.034239 -0.023472 166227.000000 1 0 0
15.910927 6.570288 -7.055218 18.603827 0.391613 1.959765 0.007300 0.003267 -146940.000000 1 0 0
2.527627 16.091288 3.042282 16.570272 1.414989 1.386150 0.009279 -0.005285 121631.000000 1 0 0
13.518827 10.653888 3.493682 17.563309 0.667429 1.370541 0.030664 -0.008245 -811631.000000 1 0 0
-5.001573 19.440488 -5.801418 20.895089 -1.318981 1.852138 0.021249 -0.013487 265464.000000 1 0 0
5.379827 12.013888 0.072582 13.163636 1.149773 1.565282 0.002216 -0.003311 919733.000000 1 0 0
4.225627 15.679088 9.593682 18.860765 1.307544 1.037171 0.015078 0.006193 -394958.000000 1 0 0
7.841927 9.377688 13.821982 18.452210 0.874350 0.724140 0.012523 -0.003351 -2251550.000000 1 0 0
-5.025973 13.647988 7.006982 16.143908 -1.217950 1.121832 0.002371 0.000787 -1489960.000000 1 0 0
-4.622573 17.162688 0.624282 17.785268 -1.307701 1.535688 0.015779 -0.005433 -409408.000000 1 0 0
-0.660773 16.529988 3.475982 16.904425 -1.530843 1.363693 0.011346 -0.006770 -964216.000000 1 0 0
7.822727 16.742288 -4.779918 19.087873 1.133695 1.823907 0.023788 -0.012974 -488435.000000 1 0 0
3.065227 16.425288 -4.493718 17.302578 1.386302 1.833522 0.012695 -0.010725 51819.700000 1 0 0
9.613127 14.380488 7.894582 19.014076 0.981537 1.142637 0.036943 -0.014128 328811.000000 1 0 0
12.790027 10.988488 9.052782 19.138561 0.709779 1.078089 0.048665 -0.021188 -1534330.000000 1 0 0
3.814027 12.370388 12.224582 17.804879 1.271725 0.814013 0.016544 0.000737 568342.000000 1 0 0
-3.468473 19.088588 6.052482 20.323313 -1.391053 1.268399 0.021799 -0.007736 -20352.400000 1 0 0
-2.775073 15.786588 10.228182 19.014024 -1.396787 1.002819 0.013323 0.002543 -944368.000000 1 0 0
1.984427 14.289288 7.747382 16.375092 1.432804 1.077968 0.007276 0.003336 56444.400000 1 0 0
4.522827 17.431088 7.762082 19.609914 1.316926 1.163831 0.029198 -0.006345 -55749.900000 1 0 0
-2.014173 13.391088 9.334582 16.447266 -1.421504 0.967274 0.007353 0.003931 -420664.000000 1 0 0
5.798827 17.668688 3.007682 18.837598 1.253675 1.410446 0.010402 -0.018310 364180.000000 1 0 0
7.084327 15.564888 -6.933318 18.453301 1.143670 1.955972 0.024450 -0.002808 -248436.000000 1 0 0
10.970027 7.739688 9.443782 16.414301 0.614428 0.957778 0.021448 -0.010600 599040.000000 1 0 0
9.029327 16.666188 -2.476318 19.116033 1.074290 1.700703 0.032227 -0.002328 -306779.000000 1 0 0
14.433127 11.296288 -6.589318 19.476663 0.664080 1.915926 0.063181 -0.011536 154657.000000 1 0 0
11.096327 6.488388 16.127082 20.623056 0.529118 0.672940 0.047511 -0.008969 79949.000000 1 0 0
8.521327 8.618688 10.210682 15.847802 0.791078 0.870693 0.008737 -0.001485 1244660.000000 1 0 0
16.533727 9.369488 4.400082 19.506721 0.515566 1.343271 0.045896 -0.013276 30277.100000 1 0 0
-3.403073 14.307788 4.536782 15.390779 -1.337288 1.271579 -0.001868 -0.001507 -862758.000000 1 0 0
4.795627 14.881588 12.731982 20.163409 1.259052 0.887388 0.025652 0.006356 -445815.000000 1 0 0
16.111327 10.761188 -4.626018 19.919289 0.588875 1.805174 0.057610 -0.013332 226343.000000 1 0 0
14.680227 13.936088 5.885782 21.079992 0.759400 1.287823 0.048927 -0.018802 -1513230.000000 1 0 0
6.206927 9.539188 9.203482 14.636466 0.993946 0.890781 0.004675 0.001949 35951.400000 1 0 0
10.540727 12.164888 8.688282 18.291464 0.856808 1.075842 0.034978 -0.012614 669167.000000 1 0 0
8.015227 11.486288 -0.312118 14.009857 0.961543 1.593077 0.008732 -0.004533 877951.000000 1 0 0
7.338927 13.696788 -8.784618 17.850249 1.078910 2.085330 0.028763 -0.008582 -413380.000000 1 0 0
2.887727 15.317888 -2.187618 15.740468 1.384463 1.710228 0.009582 -0.008211 421414.000000 1 0 0
12.113127 13.819188 -7.638218 19.900758 0.851092 1.964721 0.060173 -0.022035 242144.000000 1 0 0
-8.143673 14.653588 9.686682 19.361788 -1.063552 1.046852 0.030635 -0.016049 -10183.200000 1 0 0
11.482127 9.667388 2.270082 15.180610 0.699803 1.420695 0.026564 -0.008482 -2648270.000000 1 0 0
12.035427 8.745088 4.524982 15.550033 0.628364 1.275530 0.017020 -0.008964 642687.000000 1 0 0
14.116627 8.035288 6.027982 17.325749 0.517470 1.215444 0.030133 -0.014871 -2030160.000000 1 0 0
16.279427 7.475988 7.122082 19.277816 0.430502 1.192385 0.057912 -0.018383 -624467.000000 1 0 0
13.549927 8.215488 2.541282 16.048454 0.545048 1.411776 0.014812 -0.008311 -2373600.000000 1 0 0
-4.409273 17.246688 -7.236518 19.216064 -1.320499 1.956906 0.020040 -0.015767 230011.000000 1 0 0
2.809227 19.683888 -3.983918 20.278531 1.429037 1.768542 0.021171 -0.013892 314876.000000 1 0 0
-0.157673 14.834188 6.248982 16.097446 -1.560168 1.172122 0.003392 0.004214 420717.000000 1 0 0
6.577527 16.230688 8.493382 19.463726 1.185770 1.119236 0.028083 -0.006497 -330352.000000 1 0 0
12.727427 15.114988 -2.042318 19.865078 0.870942 1.673788 0.070807 -0.017677 -508527.000000 1 0 0
12.711327 15.684988 4.066882 20.594568 0.889738 1.372016 0.051484 -0.019133 -114685.000000 1 0 0
2.954327 18.075188 1.288382 18.360294 1.408782 1.500566 0.023154 -0.018960 -455779.000000 1 0 0
10.301227 14.605788 -1.383218 17.926450 0.956533 1.648034 0.033635 -0.004201 -1076480.000000 1 0 0
-6.400173 15.763288 -0.516318 17.020871 -1.185113 1.601135 0.009587 -0.004782 247143.000000 1 0 0
-3.958773 15.930988 -2.501618 16.605010 -1.327235 1.722027 0.015153 -0.003748 -1538150.000000 1 0 0
-6.928273 16.936988 1.726482 18.380513 -1.182503 1.476728 0.012817 -0.009852 -241030.000000 1 0 0
-0.078573 19.383088 -6.639518 20.488862 -1.566743 1.900809 0.031660 -0.004213 -460472.000000 1 0 0
4.741427 14.986288 7.041782 17.223724 1.264377 1.149612 0.015386 -0.001322 -786042.000000 1 0 0
8.637127 12.208288 6.877982 16.460525 0.955067 1.139722 0.023345 -0.012600 -167509.000000 1 0 0
-7.760573 17.516788 -5.694418 19.987265 -1.153748 1.859701 0.044079 -0.012291 122065.000000 1 0 0
-8.007373 17.770588 -1.282218 19.533456 -1.147446 1.636486 0.048497 -0.012627 -103108.000000 1 0 0
-13.757973 -9.155312 9.199182 18.913659 0.587163 1.062857 0.057830 -0.022107 -484352.000000 1 0 0
-12.851473 -12.971312 7.776682 19.846714 0.790039 1.168169 0.069802 -0.011836 429234.000000 1 0 0
-3.829573 -14.979212 12.593382 19.940805 1.320499 0.887261 0.018539 -0.019038 181268.000000 1 0 0
-2.296173 -14.019112 14.940482 20.616156 1.408449 0.760201 0.029830 -0.016271 -189949.000000 1 0 0
-7.279673 -13.653812 12.637682 19.978269 1.080974 0.885928 0.043757 -0.022478 -367663.000000 1 0 0
-9.827673 -11.520912 9.019282 17.625607 0.864546 1.033617 0.045861 -0.014414 656605.000000 1 0 0
-10.668473 -10.635612 11.349882 18.861399 0.783856 0.925104 0.071065 -0.023200 466624.000000 1 0 0
-6.094873 -12.265512 10.847682 17.471762 1.109623 0.900945 0.030679 -0.012182 439120.000000 1 0 0
-12.550373 -10.487712 7.390982 17.947996 0.696104 1.146368 0.035438 -0.005566 -436189.000000 1 0 0
-7.599573 -11.081912 12.613782 18.430132 0.969689 0.817001 0.035322 -0.019452 -133611.000000 1 0 0
-14.954873 -11.555612 7.320982 20.267638 0.657871 1.201225 0.060691 -0.012617 334646.000000 1 0 0
-11.146773 -9.205312 9.214482 17.143366 0.690292 1.003332 0.042757 -0.010090 -859603.000000 1 0 0
-5.307673 -12.081912 13.334482 18.760394 1.156870 0.780192 0.031172 -0.014195 -430518.000000 1 0 0
3.902827 -12.553612 14.543982 19.604914 -1.269376 0.734965 0.005410 -0.005743 -684704.000000 1 0 0
6.513327 -12.874212 14.445682 20.416819 -1.102424 0.784788 0.020571 0.001924 76666.700000 1 0 0
6.541727 -8.751312 16.236982 19.570877 -0.928888 0.592316 -0.001747 0.005694 -37507.000000 1 0 0
0.741727 -1.667212 14.496282 14.610679 -1.152199 0.125219 0.004434 -0.002162 -1516760.000000 1 0 0
-0.108373 -6.391312 15.464182 16.733246 1.553842 0.391968 0.004419 -0.007137 398569.000000 1 0 0
-1.354073 -4.609912 18.295382 18.915755 1.285101 0.256817 0.031033 -0.024248 -882209.000000 1 0 0
-5.202373 12.659488 13.048682 18.910193 -1.180889 0.809260 0.019135 -0.002088 -919672.000000 1 0 0
-4.105573 8.948488 11.659382 15.260156 -1.140648 0.701243 0.007405 0.006301 -124862.000000 1 0 0
-0.523473 -3.862612 15.081282 15.576869 1.436094 0.252926 0.008865 -0.004044 -206810.000000 1 0 0
-4.410473 9.304788 14.251082 17.581942 -1.128164 0.625702 0.014906 0.000444 208902.000000 1 0 0
-13.506773 -2.735212 16.765182 21.702203 0.199805 0.688011 0.032924 -0.007505 -1011550.000000 1 0 0
-0.211673 0.868488 17.381882 17.404853 -1.331732 0.051382 0.002160 -0.001134 -401247.000000 1 0 0
-3.246873 -7.205612 15.419182 17.326690 1.147441 0.473650 0.025966 -0.014189 287426.000000 1 0 0
-7.447073 5.583688 12.566382 15.638108 -0.643362 0.637520 0.011667 0.002401 -3781650.000000 1 0 0
-9.704573 9.858188 13.532382 19.351691 -0.793250 0.796397 0.026188 -0.015507 -1445170.000000 1 0 0
-5.506673 2.303688 11.200782 12.692042 -0.396220 0.489636 0.009822 0.004750 25065.800000 1 0 0
-6.995773 -7.357912 16.910982 19.724630 0.810623 0.540690 0.044352 -0.024949 -120876.000000 1 0 0
-4.675973 2.867088 18.546182 19.340263 -0.550035 0.287550 0.014671 -0.006090 -303698.000000 1 0 0
1.038527 -8.397412 16.523582 18.564047 -1.447749 0.473264 -0.000521 -0.005709 576786.000000 1 0 0
-15.218773 -3.703212 13.684382 20.798729 0.238693 0.852712 0.061030 -0.018606 816251.000000 1 0 0
-14.377373 2.313788 13.153382 19.623300 -0.159564 0.836191 0.023355 -0.004162 -690292.000000 1 0 0
-5.408273 0.952688 16.153182 17.061135 -0.174365 0.327709 0.021514 -0.003978 140310.000000 1 0 0
4.705827 5.756488 15.247882 16.964076 0.885486 0.453695 -0.003316 0.004602 -846705.000000 1 0 0
-0.999873 -11.894912 13.894482 18.317896 1.486935 0.709758 -0.001118 -0.011517 -377011.000000 1 0 0
-5.960073 -4.045012 16.868682 18.342219 0.596277 0.403572 0.037971 -0.015049 -130484.000000 1 0 0
-13.027473 -1.565112 9.791282 16.371738 0.119566 0.929718 0.022500 -0.000903 -732498.000000 1 0 0
-14.647573 10.476188 10.332482 20.762035 -0.620866 1.049895 0.018928 -0.008161 86476.400000 1 0 0
-3.665073 -3.455212 17.809082 18.507691 0.755933 0.275633 0.033071 -0.014295 328599.000000 1 0 0
-7.970473 9.455288 11.734782 17.048050 -0.870401 0.811604 0.009151 -0.005615 -300803.000000 1 0 0
-4.104373 10.666888 16.497182 20.069514 -1.203482 0.605879 0.022559 -0.005533 297660.000000 1 0 0
-12.627073 12.734288 8.027982 19.648245 -0.789626 1.149893 0.026145 -0.025690 207629.000000 1 0 0
-12.674373 3.130488 10.537382 16.777249 -0.242147 0.891719 0.013739 -0.004997 618629.000000 1 0 0
-10.110873 -3.447012 13.718482 17.387018 0.328564 0.661605 0.027304 -0.005974 -1234290.000000 1 0 0
-4.141373 -6.356812 17.782282 19.333121 0.993377 0.403268 0.046504 -0.018953 -510861.000000 1 0 0
1.089327 -3.680212 18.065982 18.469171 -1.283017 0.209334 0.005797 -0.007929 -785905.000000 1 0 0
-5.908973 1.851688 13.745982 15.076363 -0.303676 0.423254 0.012040 0.001985 -555531.000000 1 0 0
-10.647373 8.687988 10.283482 17.163848 -0.684406 0.928375 0.018791 -0.014316 -90877.000000 1 0 0
4.447227 2.608488 17.358782 18.108267 0.530466 0.288714 -0.006256 -0.005524 -2240610.000000 1 0 0
0.586027 -5.341512 13.191582 14.244052 -1.461521 0.386825 0.002517 -0.003032 -167413.000000 1 0 0
-4.022673 5.674988 20.747682 21.882726 -0.954160 0.323494 0.039678 -0.015594 -281270.000000 1 0 0
-11.097173 10.753788 8.924882 17.845019 -0.769685 1.047044 0.026933 -0.019822 804251.000000 1 0 0
0.723127 4.157688 13.082082 13.745914 1.398594 0.312048 0.004969 -0.000483 -2584160.000000 1 0 0
-3.140173 7.267488 13.398482 15.562660 -1.162940 0.533686 0.008458 0.005888 -1639850.000000 1 0 0
0.849027 8.949688 14.134682 16.751328 1.476213 0.566481 0.005831 -0.000998 188735.000000 1 0 0
-4.237073 -6.608312 13.155382 15.319486 1.000651 0.538000 0.019198 -0.008479 93691.000000 1 0 0
-5.129573 8.280888 16.608282 19.254107 -1.016200 0.530441 0.025704 0.004218 190481.000000 1 0 0
1.519027 -10.759812 15.710382 19.102280 -1.430547 0.605118 -0.011271 -0.001106 -471932.000000 1 0 0
-15.304473 -1.150712 14.236182 20.933702 0.075047 0.822951 0.044156 -0.011574 290186.000000 1 0 0
-13.792773 -5.397412 8.282282 16.969644 0.373003 1.060925 0.055074 -0.017259 265928.000000 1 0 0
-14.286773 -1.965012 12.008282 18.766246 0.136683 0.876445 0.036791 -0.010034 93193.100000 1 0 0
9.368727 1.342088 16.923982 19.390601 0.142284 0.509901 0.036452 -0.011968 -1690070.000000 1 0 0
5.077327 -6.661612 16.588682 18.583344 -0.919547 0.467575 0.007809 -0.009413 512952.000000 1 0 0
-6.080373 -2.619712 11.306682 13.102476 0.406813 0.529732 0.010523 -0.002963 81233.200000 1 0 0
0.650927 -6.238512 17.923882 18.989689 -1.466832 0.336626 0.012247 -0.018423 -203518.000000 1 0 0
-8.825773 11.914188 12.148482 19.168405 -0.933223 0.884371 0.024558 -0.010741 -6175.820000 1 0 0
-6.590873 -5.800812 14.890882 17.286624 0.721727 0.532756 0.033493 -0.014001 -942160.000000 1 0 0
-4.155973 -8.929212 17.117582 19.748786 1.135181 0.522115 0.047853 -0.022764 237335.000000 1 0 0
2.520327 -6.201512 16.218982 17.546116 -1.184780 0.391434 -0.000357 -0.005938 -272535.000000 1 0 0
2.316127 5.393088 15.917482 16.965143 1.165152 0.353270 0.001035 -0.001151 -1275370.000000 1 0 0
0.882427 -8.884912 13.932082 16.547605 -1.471803 0.569929 -0.002809 -0.002507 -673375.000000 1 0 0
-9.890173 -2.789712 11.252282 15.238499 0.274926 0.740085 0.011027 -0.000982 -202410.000000 1 0 0
-1.192073 10.143188 12.447182 16.100858 -1.453809 0.687121 0.008706 0.004510 -293175.000000 1 0 0
-12.302473 -3.644612 11.320882 17.111294 0.288013 0.847842 0.029783 -0.004023 -1079190.000000 1 0 0
-1.690673 6.472088 19.979082 21.069172 -1.315281 0.323082 0.028016 -0.016158 -620450.000000 1 0 0
0.181027 -13.539912 15.672982 20.712420 -1.557427 0.712554 0.001714 -0.012962 -702053.000000 1 0 0
4.064527 -8.763212 15.357382 18.142862 -1.136512 0.561477 0.004156 -0.002017 -527811.000000 1 0 0
4.407927 -4.317412 16.157582 17.295587 -0.775025 0.364779 0.003963 -0.003264 -573014.000000 1 0 0
8.094527 1.744688 14.770082 16.932827 0.212291 0.510961 0.004682 -0.001763 306726.000000 1 0 0
-6.263373 0.018388 11.952282 13.493970 -0.002936 0.482689 0.013560 0.001507 186945.000000 1 0 0
-3.521573 -11.054612 18.444982 21.790440 1.262399 0.561474 0.056505 -0.017237 -333270.000000 1 0 0
3.368027 -1.511512 13.675282 14.164802 -0.421841 0.263666 -0.002062 -0.000510 373781.000000 1 0 0
-2.546073 8.684788 16.001482 18.383565 -1.285622 0.514735 0.022332 -0.000999 510507.000000 1 0 0
-3.233873 4.157688 14.901982 15.805485 -0.909736 0.339756 0.007395 0.002702 -1064950.000000 1 0 0
-4.427573 -9.035412 19.778182 22.190506 1.115161 0.470614 0.068799 -0.030431 -145142.000000 1 0 0
-5.790873 -2.875212 19.192982 20.252694 0.460850 0.324922 0.047107 -0.019881 -715389.000000 1 0 0
-6.597473 -8.505012 11.181382 15.520476 0.911039 0.766377 0.020143 -0.011453 -808041.000000 1 0 0
-11.757673 2.490088 12.797582 17.556238 -0.208700 0.754013 0.030266 -0.013010 -130831.000000 1 0 0
-11.733573 -7.535412 11.793282 18.263096 0.570879 0.868799 0.052830 -0.014988 -1143590.000000 1 0 0
-11.010573 -7.260312 15.651082 20.467076 0.582951 0.700228 0.049766 -0.032042 495543.000000 1 0 0
0.454627 5.727788 17.737382 18.644810 1.491590 0.313271 0.001966 -0.005854 -190062.000000 1 0 0
-2.154573 -0.061212 13.217182 13.391782 0.028403 0.161656 0.007648 0.000360 489337.000000 1 0 0
-6.086273 -10.323412 18.309182 21.882452 1.038089 0.579556 0.070809 -0.028244 -196430.000000 1 0 0
0.371227 2.765288 19.222582 19.424013 1.437349 0.144140 0.002218 -0.007167 -662275.000000 1 0 0
-0.798573 10.895588 14.880082 18.459913 -1.497634 0.633306 0.018306 -0.003053 -464914.000000 1 0 0
-12.953673 -2.398212 14.270282 19.421380 0.183065 0.745466 0.036548 -0.008644 22201.700000 1 0 0
-13.716073 8.575188 11.910782 20.088087 -0.558738 0.936107 0.015144 -0.007344 403836.000000 1 0 0
-18.110573 -0.625612 6.901482 19.391098 0.034530 1.206909 0.070543 -0.018897 762674.000000 1 0 0
-1.953073 -7.799712 17.649482 19.394695 1.325438 0.427474 0.034974 -0.019649 -2178490.000000 1 0 0
5.761827 2.840588 14.513182 15.871359 0.458033 0.416709 -0.004688 -0.004365 -1405110.000000 1 0 0
-14.148473 -6.604612 11.133582 19.176987 0.436743 0.951368 0.062287 -0.023786 986719.000000 1 0 0
3.327627 7.769088 16.214282 18.284823 1.166120 0.480505 0.003422 -0.012669 -168564.000000 1 0 0
1.050027 2.088988 14.633482 14.819083 1.105032 0.158434 0.002341 -0.005376 -2046070.000000 1 0 0
-14.401173 0.640188 9.698782 17.374406 -0.044425 0.978555 0.020418 -0.004310 -2835020.000000 1 0 0
-9.505273 -5.108112 15.592982 18.962703 0.493116 0.605360 0.039518 -0.014705 21837.400000 1 0 0
-2.545473 -0.113012 18.170582 18.348358 0.044368 0.139317 0.013664 -0.008557 201783.000000 1 0 0
6.712927 3.868288 17.564082 19.196979 0.522769 0.415437 0.013359 -0.005557 -405844.000000 1 0 0
-4.151273 -0.839712 14.759582 15.355241 0.199585 0.279447 0.019166 -0.003634 547863.000000 1 0 0
4.494227 -8.806312 17.963882 20.504884 -1.098910 0.503129 0.000071 0.001107 -310740.000000 1 0 0
1.848027 6.805988 13.426882 15.166339 1.305659 0.483640 0.001795 0.003270 -426521.000000 1 0 0
-3.757073 -0.924012 20.366882 20.731118 0.241153 0.187730 0.040510 -0.013109 -1557450.000000 1 0 0
-10.761973 1.372688 16.437882 19.695387 -0.126865 0.583380 0.032414 -0.007417 -64760.600000 1 0 0
-3.875073 7.057388 18.565582 20.236199 -1.068659 0.409188 0.021968 -0.000532 -281458.000000 1 0 0
-12.692673 1.019988 14.683282 19.435614 -0.080188 0.714405 0.037768 -0.012469 801678.000000 1 0 0
-16.192973 -4.393212 8.512782 18.814360 0.264926 1.101272 0.070538 -0.017660 -1575790.000000 1 0 0
-2.264773 0.764088 15.723082 15.903721 -0.325388 0.150863 0.008128 -0.001338 217338.000000 1 0 0
-13.816573 -8.810712 12.525682 20.625689 0.567674 0.918157 0.074704 -0.035384 534845.000000 1 0 0
6.118427 -3.180912 14.508582 16.064006 -0.479433 0.443691 0.002305 -0.005058 747764.000000 1 0 0
-15.694273 0.283088 7.457182 17.378144 -0.018036 1.127286 0.032707 -0.013279 -247420.000000 1 0 0
-14.297273 6.039188 12.200682 19.741845 -0.399668 0.904586 0.032821 -0.015506 -848676.000000 1 0 0
0.463827 9.501188 16.699482 19.218751 1.522017 0.517788 0.005907 -0.014805 -124988.000000 1 0 0
-10.444373 -5.493212 10.888682 16.056889 0.484191 0.825579 0.032375 -0.009585 176628.000000 1 0 0
-3.092673 -11.023912 15.147782 18.988063 1.297285 0.647237 0.024420 -0.012663 -1414360.000000 1 0 0
-3.435473 2.737288 12.702682 13.440734 -0.672769 0.332931 0.005366 0.003978 -1505060.000000 1 0 0
-12.417473 -7.861812 7.358282 16.436120 0.564421 1.106616 0.036852 -0.011475 -352526.000000 1 0 0
-8.160273 -1.865612 13.222382 15.649343 0.224759 0.564388 0.017905 -0.002559 -748877.000000 1 0 0
-9.945673 6.446888 9.563982 15.229856 -0.575116 0.891847 0.012007 -0.002466 -801145.000000 1 0 0
-18.022073 -3.461612 6.622182 19.509771 0.189765 1.224487 0.079715 -0.020008 654410.000000 1 0 0
-1.406573 0.039988 20.493682 20.541934 -0.028422 0.068555 0.014655 -0.009509 -1348520.000000 1 0 0
-2.666773 2.637488 20.216782 20.561768 -0.779877 0.183440 0.014242 -0.009295 -466128.000000 1 0 0
-3.883673 11.335088 11.092382 16.328137 -1.240708 0.823931 0.011015 -0.000874 -1029040.000000 1 0 0
-4.148373 -4.783712 15.037182 16.315935 0.856409 0.398548 0.020233 -0.010560 1499360.000000 1 0 0
-0.350073 -14.341612 13.263982 19.538106 1.546392 0.824563 0.017052 -0.021318 390985.000000 1 0 0
-12.143973 0.448888 8.430582 14.790277 -0.036947 0.964280 0.009873 0.001335 -349567.000000 1 0 0
-7.706173 2.032388 15.626482 17.541455 -0.257863 0.471624 0.018133 0.000952 -279865.000000 1 0 0
3.496127 -2.068412 18.391482 18.834751 -0.534242 0.217382 0.001041 -0.007154 -306491.000000 1 0 0
-2.087973 4.979788 12.704482 13.804411 -1.173772 0.401897 0.003272 0.002144 -420446.000000 1 0 0
-10.372073 -6.116612 13.410582 18.023222 0.532826 0.731651 0.032261 -0.014538 4466.320000 1 0 0
2.384527 -3.799412 14.297082 14.984260 -1.010326 0.304023 -0.001855 -0.000850 -1017630.000000 1 0 0
6.712427 1.271588 16.977082 18.300134 0.187219 0.382585 0.001064 -0.010152 116934.000000 1 0 0
-1.943373 -5.689312 13.800882 15.053548 1.241639 0.410839 0.009343 -0.007795 -915434.000000 1 0 0
-13.022673 3.678888 14.776182 20.036461 -0.275324 0.741488 0.028067 -0.003688 894.914000 1 0 0
-13.403373 -6.510712 13.645382 20.204856 0.452184 0.829355 0.056042 -0.025327 -128214.000000 1 0 0
-9.455073 6.915188 11.954282 16.736878 -0.631473 0.775247 0.014442 -0.002495 -676788.000000 1 0 0
-0.976173 -2.388012 12.841682 13.098256 1.182744 0.198256 0.006036 -0.000339 497562.000000 1 0 0
0.125727 6.737388 15.375882 16.787672 1.552137 0.413044 0.003532 0.001705 244545.000000 1 0 0
-16.584673 -0.760912 9.792282 19.274832 0.045848 1.037895 0.057389 -0.010295 294948.000000 1 0 0
-1.294873 2.810788 13.926782 14.266481 -1.139097 0.218660 0.006742 -0.001884 -2742650.000000 1 0 0
-11.179773 -3.271712 16.138282 19.903154 0.284696 0.625210 0.027535 -0.016419 -712080.000000 1 0 0
-5.130973 -1.433612 17.111682 17.921824 0.272456 0.301824 0.030824 -0.009398 294277.000000 1 0 0
-11.966373 6.734588 11.275382 17.767470 -0.512612 0.883295 0.020544 -0.002003 -1278940.000000 1 0 0
-2.874373 4.674588 18.602382 19.394907 -1.019498 0.286858 0.017557 -0.007223 274144.000000 1 0 0
5.207927 -1.873512 16.447582 17.353832 -0.345327 0.324601 0.001615 -0.004826 -10737.100000 1 0 0
-7.976073 -4.159112 12.267982 15.212473 0.480659 0.632686 0.019574 -0.004477 -1288100.000000 1 0 0
-11.947373 -0.866812 16.246882 20.185446 0.072426 0.635321 0.055984 -0.008575 419866.000000 1 0 0
2.028727 2.127988 17.420682 17.667038 0.809273 0.167194 -0.005096 -0.005582 -1505680.000000 1 0 0
-9.004773 -7.569812 11.759082 16.633219 0.699038 0.785601 0.035628 -0.011541 981173.000000 1 0 0
-7.215773 6.953088 14.933082 17.983596 -0.766861 0.591021 0.015667 0.001458 -676617.000000 1 0 0
-5.576973 3.490588 15.843882 17.155624 -0.559241 0.393589 0.013402 0.001203 171948.000000 1 0 0
-9.430673 4.307588 11.612582 15.567433 -0.428464 0.728831 0.010230 -0.001100 -155964.000000 1 0 0
-10.284573 -0.155912 14.335582 17.643856 0.015159 0.622373 0.018593 -0.000799 -446711.000000 1 0 0
8.110227 -0.632712 15.924282 17.881803 -0.077856 0.472287 0.001664 -0.003300 98881.400000 1 0 0
-8.553873 -7.392212 14.766582 18.597459 0.712677 0.653418 0.041248 -0.015821 -2402990.000000 1 0 0
0.041327 4.224888 15.591082 16.153427 1.561015 0.264638 0.004931 -0.003381 -12787.500000 1 0 0
-8.040273 3.147288 9.760382 13.031364 -0.373106 0.724258 0.006019 0.007413 -237624.000000 1 0 0
-2.203673 -9.677212 13.070882 16.411964 1.346897 0.649438 0.002565 -0.005237 453801.000000 1 0 0
-6.143873 10.367588 10.596082 16.047149 -1.035833 0.849566 0.016788 -0.003126 -1727880.000000 1 0 0
-8.618273 -2.768312 15.689882 18.113823 0.310804 0.523284 0.031683 -0.015939 243120.000000 1 0 0
4.228027 5.775288 17.684982 19.078489 0.938857 0.384572 0.002413 -0.004493 80577.000000 1 0 0
-6.833573 -0.947012 15.260582 16.747534 0.137705 0.424576 0.020299 -0.004434 -299205.000000 1 0 0
-0.925273 -9.863112 15.389782 18.302527 1.477259 0.571934 -0.004730 -0.007522 -137390.000000 1 0 0
-4.416373 5.894688 16.255182 17.846082 -0.927800 0.425447 0.013055 0.002897 -154959.000000 1 0 0
3.781427 0.125788 17.398882 17.805508 0.033252 0.214124 -0.003602 -0.005996 -511970.000000 1 0 0
1.514627 0.406888 19.306782 19.370376 0.262443 0.081054 -0.001101 -0.005699 -83408.600000 1 0 0
-6.351173 6.466588 17.988882 20.143337 -0.794402 0.466732 0.021685 0.005171 -424135.000000 1 0 0
-12.217773 0.545188 11.002682 16.450842 -0.044593 0.838174 0.019752 -0.005031 -115237.000000 1 0 0
-5.445273 5.186588 13.908582 15.811399 -0.761072 0.495659 0.012659 0.002172 -213617.000000 1 0 0
-8.692673 -9.461512 9.944882 16.247567 0.827723 0.912103 0.037305 -0.013721 -77550.700000 1 0 0
6.949327 -3.644812 16.967282 18.694022 -0.483043 0.433190 0.009621 -0.005545 -177541.000000 1 0 0
-16.604873 1.867088 9.229482 19.089032 -0.111972 1.066151 0.039735 -0.013639 494744.000000 1 0 0
-4.171673 -9.673712 11.193982 15.371688 1.163654 0.755074 0.007583 -0.007600 1307310.000000 1 0 0
-11.134873 -3.849112 9.171182 14.930225 0.332822 0.909336 0.018920 -0.001270 -480493.000000 1 0 0
3.882027 -5.350812 18.465282 19.612954 -0.943159 0.343790 0.006322 -0.007037 14493.300000 1 0 0
2.619127 -1.876612 16.054282 16.374415 -0.621716 0.198065 0.000475 -0.005131 -918236.000000 1 0 0
-3.092073 -4.339912 20.192482 20.883775 0.951748 0.258016 0.055763 -0.024235 -431297.000000 1 0 0
-6.334673 -3.268312 14.449782 16.112298 0.476318 0.458275 0.025589 -0.007035 -157040.000000 1 0 0
-9.627073 5.269888 14.018182 17.803417 -0.500847 0.664237 0.029423 -0.006009 -82305.200000 1 0 0
-5.767673 -5.176412 11.738882 14.066365 0.731425 0.583507 0.012348 -0.004325 214108.000000 1 0 0
6.039927 2.087288 19.293682 20.324459 0.332733 0.319846 0.019233 -0.018240 316973.000000 1 0 0
-2.805873 11.943988 13.474582 18.223505 -1.340061 0.738608 0.023350 -0.007041 -1198000.000000 1 0 0
3.383127 1.476588 15.189382 15.631480 0.411534 0.238398 -0.004685 -0.004915 -877483.000000 1 0 0
-5.683873 7.452988 12.845582 15.901648 -0.919261 0.630361 0.006728 -0.001324 -458902.000000 1 0 0
-1.788373 -1.705712 15.186182 15.385963 0.761745 0.161325 0.009310 -0.005344 -102122.000000 1 0 0
-7.254473 10.650088 13.909782 18.961376 -0.972823 0.747214 0.030977 -0.016471 239547.000000 1 0 0
-10.194473 2.018288 10.750982 14.952738 -0.195451 0.768437 0.009391 -0.000326 -477191.000000 1 0 0
-13.808273 5.227788 9.261382 17.429038 -0.361922 1.010572 0.010845 -0.005287 343308.000000 1 0 0
0.358227 -5.145712 20.194682 20.843029 -1.501292 0.250075 0.014566 -0.017343 -296821.000000 1 0 0
-14.318373 -2.892412 7.576282 16.455452 0.199325 1.092337 0.034526 -0.007733 510833.000000 1 0 0
-2.156573 2.483388 17.643882 17.947830 -0.855717 0.184299 0.000811 -0.003024 -659280.000000 1 0 0
-6.199673 -8.384612 14.589782 17.933193 0.934107 0.620543 0.028815 -0.014150 -25762.200000 1 0 0
-7.998473 2.073588 12.151982 14.695101 -0.253664 0.597151 0.012765 0.000931 480216.000000 1 0 0
-14.439973 -3.590812 10.094482 17.980693 0.243728 0.974712 0.030949 -0.011129 -306208.000000 1 0 0
-0.596473 7.165488 12.845582 14.721038 -1.487745 0.510295 0.007684 0.004404 -1373490.000000 1 0 0
-1.828373 -2.287612 19.320382 19.541066 0.896513 0.150431 0.028654 -0.013369 13422.300000 1 0 0
-12.925173 10.220288 7.058382 17.925823 -0.669061 1.166083 0.015235 -0.026094 47893.500000 1 0 0
-19.516473 2.222588 6.609982 20.724972 -0.113394 1.246188 0.071548 -0.018239 1720420.000000 1 0 0
-16.207173 8.322988 6.802282 19.447766 -0.474419 1.213469 0.021567 -0.010548 525692.000000 1 0 0
-12.661173 7.161488 13.721782 19.996987 -0.514761 0.814555 0.041175 -0.006153 -48247.900000 1 0 0
-15.899573 8.339388 10.487182 20.792373 -0.483058 1.042137 0.015763 -0.004829 -1246840.000000 1 0 0
1.776027 11.104188 15.193582 18.902439 1.412198 0.637158 0.007618 -0.001631 -226202.000000 1 0 0
2.188427 14.363388 12.701182 19.298087 1.419598 0.852427 0.015454 -0.000651 -637491.000000 1 0 0
-3.209173 13.653788 11.678982 18.251667 -1.339947 0.876447 0.007450 -0.003247 121214.000000 1 0 0
9.158427 4.845788 15.859482 18.944171 0.486661 0.578709 0.028098 0.003603 120438.000000 1 0 0
-0.455873 12.648988 12.999182 18.143413 -1.534772 0.772070 0.008695 0.003136 -880647.000000 1 0 0
3.731727 13.518888 14.530782 20.194795 1.301465 0.767670 0.017425 0.000432 188120.000000 1 0 0
-2.757773 -4.107412 -13.769918 14.631705 0.979515 2.796669 0.004842 -0.009737 -403813.000000 1 0 0
5.412627 -11.615112 16.411482 20.821722 -1.134718 0.662933 -0.003096 -0.001152 179376.000000 1 0 0
7.647827 -13.541712 7.378882 17.213806 -1.056691 1.127787 -0.007120 -0.008250 -264604.000000 1 0 0
-0.184573 15.533088 1.174782 15.578543 -1.558914 1.495314 0.006423 -0.006754 -3407840.000000 1 0 0
-13.628273 8.355588 9.274682 18.481488 -0.550001 1.045076 0.006534 -0.005785 -448099.000000 1 0 0
-15.408773 -9.750512 4.958482 18.896807 0.564181 1.305290 0.032863 -0.008899 -1387490.000000 1 0 0
9.632927 -11.144112 11.028182 18.401231 -0.858004 0.928148 0.016130 -0.005755 -52449.000000 1 0 0
-4.552073 -10.760712 -16.371718 20.113365 1.170598 2.521754 0.023597 -0.020506 3164.870000 1 0 0
-1.588873 -12.643012 -14.715118 19.465482 1.445780 2.427915 0.015195 0.000218 2371.460000 1 0 0
5.499927 -15.614012 -12.566918 20.783984 -1.232125 2.220116 0.010689 0.000329 169388.000000 1 0 0
2.852827 -11.375712 -16.711118 20.415850 -1.325082 2.529655 0.023853 -0.002918 309448.000000 1 0 0
1.608527 -14.327112 -14.924618 20.750849 -1.458993 2.373489 0.057022 0.031453 126864.000000 1 0 0
-6.270273 -6.203012 -14.446918 16.926521 0.780006 2.593477 0.008916 -0.006441 -112043.000000 1 0 0
-6.107573 -8.050612 -17.163018 19.916927 0.921784 2.609466 0.012482 -0.012666 -54152.000000 1 0 0
-2.000173 -16.304812 -12.925218 20.902365 1.448732 2.237452 0.015497 -0.002712 59615.500000 1 0 0
16.418127 -8.128812 -8.750618 20.302852 -0.459730 2.016402 0.079256 -0.004813 -38932.500000 1 0 0
19.172927 -2.787312 -3.864218 19.756073 -0.144366 1.767662 0.064278 -0.014941 140301.000000 1 0 0
14.728227 -12.577712 -8.743618 21.250185 -0.706804 1.994853 0.005207 0.011022 72890.000000 1 0 0
18.483727 -3.886612 -7.055218 20.162590 -0.207253 1.928278 0.153254 -0.004965 -238285.000000 1 0 0
9.201627 -9.809312 -15.957018 20.869091 -0.817352 2.441255 0.049095 -0.006119 87611.100000 1 0 0
-4.393673 10.185688 -16.515118 19.894766 -1.163553 2.550126 0.000989 0.007672 381636.000000 1 0 0
2.305527 -9.534512 -18.785918 21.192760 -1.333542 2.660373 0.030560 0.003967 321883.000000 1 0 0
11.134327 7.951288 -14.845018 20.188383 0.620142 2.396942 0.055007 -0.041794 424254.000000 1 0 0
18.527227 -6.741712 -8.622518 21.518751 -0.348987 1.983075 0.064049 -0.000431 164444.000000 1 0 0
12.436027 5.118888 -14.099718 19.484862 0.390481 2.379835 0.019508 -0.001081 116338.000000 1 0 0
16.163827 5.882488 -10.611018 20.210559 0.349030 2.123539 0.025643 -0.017024 217141.000000 1 0 0
3.428727 -0.538912 -19.497818 19.804331 -0.155900 2.965427 0.027368 -0.002121 187564.000000 1 0 0
10.805327 -2.225612 -14.779718 18.443116 -0.203133 2.500375 0.019146 0.002486 301589.000000 1 0 0
12.179527 -6.009812 -13.818618 19.375576 -0.458382 2.364846 0.029585 -0.005725 224975.000000 1 0 0
10.213627 6.749488 -12.789518 17.704393 0.583952 2.378052 0.026063 -0.009050 537834.000000 1 0 0
10.589127 5.326488 -16.452618 20.277814 0.466057 2.517272 0.026885 -0.011098 250339.000000 1 0 0
12.095927 -10.086212 -14.934318 21.704308 -0.695044 2.329637 0.065880 -0.024675 405839.000000 1 0 0
-1.374073 2.137188 -17.271918 17.457801 -0.999404 2.995535 0.010989 -0.014852 351519.000000 1 0 0
6.438927 -1.012412 -17.101918 18.301923 -0.155956 2.777460 0.015339 0.005342 64880.100000 1 0 0
7.234727 -6.467512 -15.650618 18.414990 -0.729465 2.586563 0.011502 -0.010180 201476.000000 1 0 0
-2.023673 -4.569012 -20.455818 21.057341 1.153852 2.901997 0.034730 -0.032547 257749.000000 1 0 0
16.111327 -0.191912 -13.241118 20.855189 -0.011911 2.258685 0.034067 0.000977 -22369.200000 1 0 0
-3.915073 -0.376612 -18.554418 18.966709 0.095900 2.932706 0.010649 -0.017617 38511.000000 1 0 0
3.585527 8.613188 -17.969418 20.247049 1.176332 2.662705 0.049472 -0.022175 74328.800000 1 0 0
9.489827 0.045488 -17.331918 19.759916 0.004793 2.640639 0.018847 -0.001341 -21567.000000 1 0 0
4.158027 4.852888 -18.386118 19.465073 0.862359 2.807078 0.024649 -0.004662 308672.000000 1 0 0
-2.404273 -11.079612 -18.302718 21.529696 1.357110 2.587000 0.047074 -0.007412 193155.000000 1 0 0
6.740027 -9.311612 -16.052018 19.743388 -0.944255 2.520138 0.028497 -0.010852 214415.000000 1 0 0
9.687627 -12.958412 -11.383318 19.782581 -0.928837 2.183916 0.009830 0.019840 214792.000000 1 0 0
6.248127 6.907688 -16.860118 19.261849 0.835491 2.636876 0.039564 -0.021546 82416.800000 1 0 0
8.481627 1.437988 -20.182318 21.939275 0.167945 2.738666 0.029692 -0.008418 56554.200000 1 0 0
-1.111673 -0.899912 -20.347818 20.398024 0.680514 3.071417 0.028275 -0.018931 -84464.400000 1 0 0
-1.087473 6.751688 -19.609518 20.767790 -1.411101 2.806037 0.023624 -0.009365 -10923.600000 1 0 0
8.690527 6.156888 -18.028218 20.939178 0.616381 2.607990 0.043246 -0.022773 1066.770000 1 0 0
12.268927 0.052688 -13.309718 18.101877 0.004294 2.396857 0.010778 0.008072 90619.900000 1 0 0
-4.246073 -2.636712 -19.867718 20.486767 0.555701 2.895136 0.013276 -0.020356 449726.000000 1 0 0
5.315727 -11.190112 -14.241818 18.876042 -1.127317 2.425676 -0.013237 -0.006759 -207375.000000 1 0 0
11.058927 2.168088 -16.026118 19.591757 0.193593 2.528727 0.010456 0.002426 -260195.000000 1 0 0
-2.799073 -4.335812 -17.066118 17.829371 0.997541 2.847934 0.001449 -0.013921 231156.000000 1 0 0
-6.759273 -4.500412 -17.342418 19.149437 0.587411 2.703673 0.028200 -0.020305 31443.000000 1 0 0
3.080327 10.176888 -15.153318 18.511632 1.276884 2.529737 0.025404 -0.024305 291554.000000 1 0 0
16.937227 -6.369112 -10.883518 21.116018 -0.359684 2.112289 0.074029 -0.008040 -74719.700000 1 0 0
9.477727 -3.611112 -17.697018 20.397350 -0.364030 2.621179 -0.000138 -0.012160 283414.000000 1 0 0
-7.131073 -1.390412 -18.529118 19.902604 0.192563 2.767911 0.009575 -0.013855 435409.000000 1 0 0
1.951627 -7.502012 -19.266818 20.767747 -1.316290 2.759075 0.034256 -0.023259 250488.000000 1 0 0
6.164727 11.255688 -14.523618 19.381173 1.069722 2.417902 0.046458 -0.004357 438060.000000 1 0 0
6.161827 -3.807412 -17.975118 19.379612 -0.553480 2.758538 0.024740 -0.016293 496074.000000 1 0 0
4.139427 13.389788 -14.954118 20.495047 1.270968 2.388600 0.050656 -0.017061 99272.700000 1 0 0
9.989827 11.308488 -15.440618 21.589146 0.847233 2.367711 0.097312 -0.027481 116417.000000 1 0 0
17.102327 0.927688 -11.196318 20.462349 0.054190 2.149772 0.049415 0.000748 195457.000000 1 0 0
14.927527 -2.925512 -12.311918 19.569696 -0.193528 2.251232 0.044923 -0.002834 109834.000000 1 0 0
-8.874073 0.081888 -17.425918 19.555523 -0.009228 2.670559 0.038696 -0.013408 325477.000000 1 0 0
-3.095773 4.220588 -19.209218 19.909576 -0.937944 2.875566 0.016594 -0.005960 46604.300000 1 0 0
4.695427 2.657788 -17.400518 18.217818 0.515073 2.840919 0.024990 0.002853 384044.000000 1 0 0
-5.131773 14.328588 -13.903818 20.614550 -1.226880 2.311038 0.007453 -0.016673 89549.700000 1 0 0
1.074227 9.552088 -17.595118 20.049552 1.458807 2.641591 0.034672 -0.014029 480101.000000 1 0 0
1.104527 -5.303912 -20.201718 20.915566 -1.365483 2.879578 0.029521 -0.004842 488084.000000 1 0 0
3.855027 -6.336912 -18.205618 19.658642 -1.024264 2.754703 0.029146 -0.016074 28181.500000 1 0 0
-6.853573 7.599888 -15.982118 18.977825 -0.836988 2.572049 0.001512 -0.004530 99357.900000 1 0 0
-11.585873 3.309388 -16.976718 20.818104 -0.278231 2.524352 0.062026 -0.022696 228139.000000 1 0 0
-4.313573 6.676388 -17.287018 19.026877 -0.997172 2.710615 0.006744 0.001898 324687.000000 1 0 0
-8.244773 5.319788 -17.373118 19.952485 -0.573016 2.627470 0.021843 -0.022825 349606.000000 1 0 0
-8.393773 4.497488 -14.877618 17.664267 -0.491885 2.572228 0.002196 -0.025812 516762.000000 1 0 0
9.477727 14.297888 -11.958218 20.910665 0.985423 2.179582 0.080671 -0.041228 521309.000000 1 0 0
14.382727 9.030388 -11.956118 20.769196 0.560656 2.184215 0.071314 -0.024690 -37632.800000 1 0 0
8.553927 15.756288 -9.962018 20.510292 1.073428 2.077970 0.052208 -0.022631 53246.600000 1 0 0
8.205127 13.640488 -14.401118 21.465769 1.029254 2.306201 0.073290 -0.033421 159971.000000 1 0 0
3.634127 15.383488 -12.896418 20.400397 1.338814 2.255141 0.048616 -0.027116 251980.000000 1 0 0
10.843827 11.982288 -11.223718 19.675763 0.835232 2.177830 0.062167 -0.022444 9678.110000 1 0 0
15.880627 10.680588 -9.275718 21.267539 0.592068 2.022106 0.057367 -0.034910 233548.000000 1 0 0
13.728227 11.490988 -9.559618 20.295155 0.696918 2.061254 0.096868 -0.022455 -9032.650000 1 0 0
10.905827 11.416388 -8.729218 18.040794 0.808266 2.075856 0.052309 -0.006279 -55739.600000 1 0 0
5.896227 16.151488 -9.641518 19.712811 1.220770 2.081853 0.056636 -0.027228 -236522.000000 1 0 0
11.634327 14.117788 -10.106518 20.900029 0.881538 2.075519 0.097205 -0.033687 -326424.000000 1 0 0
7.877027 -19.404912 -1.715918 21.012914 -1.185189 1.652548 0.045743 -0.001080 58595.700000 1 0 0
8.086927 -17.047712 -4.081218 19.304901 -1.127862 1.783812 0.052816 -0.007494 139002.000000 1 0 0
4.057227 -18.662612 5.402582 19.847974 -1.356729 1.295120 0.036865 -0.018084 54000.700000 1 0 0
10.511227 -17.976012 -2.547518 20.978864 -1.041676 1.692529 0.061380 -0.005036 751622.000000 1 0 0
-3.250973 -14.749312 7.983082 17.083343 1.353850 1.084560 0.032873 -0.037874 42953.900000 1 0 0
-15.262173 -12.867512 -4.535218 20.471321 0.700474 1.794190 0.019644 0.000410 -77720.700000 1 0 0
-9.109173 -12.660812 -7.338918 17.237544 0.947117 2.010589 0.013346 -0.005765 126929.000000 1 0 0
-11.551873 -14.680112 6.296882 19.712995 0.904090 1.245671 0.063016 -0.022769 114360.000000 1 0 0
-14.792573 -7.430312 -7.315418 18.098207 0.465486 1.986908 0.046682 -0.027599 -61373.200000 1 0 0
5.511227 -15.539012 6.298982 17.649694 -1.229967 1.205861 0.030588 -0.014037 214698.000000 1 0 0
2.878627 -14.313312 8.917682 17.107964 -1.372329 1.022471 0.020104 -0.006134 221914.000000 1 0 0
3.017827 -17.531012 9.748282 20.284789 -1.400325 1.069491 0.032899 -0.016175 64777.600000 1 0 0
-7.745873 -17.438912 -5.193918 19.776020 1.152800 1.836551 -0.001277 -0.013602 142452.000000 1 0 0
2.065627 -19.853712 -4.110818 20.379782 -1.467127 1.773900 0.035430 -0.014300 127071.000000 1 0 0
-16.923873 -10.580112 -2.943918 20.174808 0.558714 1.717240 -0.073651 -0.017531 -113924.000000 1 0 0
-4.297073 -14.967612 2.789082 15.820026 1.291224 1.393569 0.010880 -0.002010 194615.000000 1 0 0
-11.191573 -10.351312 -14.278018 20.886904 0.746414 2.323462 0.064081 -0.011048 46876.000000 1 0 0
1.477127 -20.263312 2.443882 20.463535 -1.498028 1.451084 0.039509 -0.011709 109797.000000 1 0 0
5.331027 -18.594012 0.591982 19.352198 -1.291579 1.540202 0.016039 0.005992 89766.700000 1 0 0
-7.513273 -19.353712 -3.256518 21.014765 1.200496 1.726387 0.012597 -0.014673 74675.500000 1 0 0
-9.061073 -15.538812 -7.726618 19.576985 1.042877 1.976514 0.032725 -0.008461 -172694.000000 1 0 0
-11.904673 -11.203412 -12.163118 20.375945 0.755060 2.210472 0.045822 -0.002070 421747.000000 1 0 0
-13.161473 -14.695212 -3.115418 19.971967 0.840401 1.727426 0.015012 -0.022363 86153.800000 1 0 0
-0.628573 -20.575612 -2.437818 20.729059 1.540256 1.688673 0.036952 -0.015649 259511.000000 1 0 0
-11.890273 -16.964712 -0.884718 20.735544 0.959478 1.613476 0.032802 -0.008794 79142.900000 1 0 0
1.081927 -20.107312 5.194682 20.795655 -1.517041 1.318326 0.043867 -0.022223 31007.600000 1 0 0
-18.225473 -8.871712 2.299482 20.400067 0.453012 1.457837 0.061333 0.000137 -325443.000000 1 0 0
-14.865973 -15.070212 -0.369818 21.171802 0.792221 1.588265 0.041590 -0.010706 6779.470000 1 0 0
10.255627 -15.185012 -5.526118 19.138978 -0.976787 1.863703 0.037599 -0.007290 -229941.000000 1 0 0
-0.080773 -19.054212 -7.112718 20.338640 1.566557 1.928063 0.030501 -0.011089 118373.000000 1 0 0
-10.288173 -18.476912 -2.182618 21.260447 1.062738 1.673638 0.034365 0.039882 538369.000000 1 0 0
-14.412673 -6.758312 -11.476918 19.624463 0.438471 2.195463 0.048237 -0.008902 -68109.900000 1 0 0
-11.528373 -15.440512 2.525582 19.434283 0.929455 1.440473 0.029861 -0.016366 71570.300000 1 0 0
-2.842373 -16.337912 10.081282 19.407182 1.398546 1.024576 0.031343 -0.026566 175571.000000 1 0 0
-12.537273 -14.504512 -6.424518 20.219755 0.858018 1.894136 0.022117 -0.003332 272436.000000 1 0 0
4.949427 -17.001812 -7.655618 19.291629 -1.287514 1.978864 0.021396 -0.009267 -46970.400000 1 0 0
-17.520073 -7.401912 -2.904418 19.239982 0.399736 1.722333 -0.000348 -0.009849 31828.500000 1 0 0
-12.414473 -13.405012 -8.295718 20.065703 0.823743 1.997012 0.051399 -0.038843 274183.000000 1 0 0
-7.854873 -14.126212 9.980382 18.996234 1.063320 1.017626 0.050202 -0.012507 523568.000000 1 0 0
-15.994273 -8.522712 -5.523618 18.946338 0.489589 1.866633 0.038771 -0.002424 335040.000000 1 0 0
-0.673373 -19.374812 0.556582 19.394498 1.536055 1.542094 0.020672 -0.014990 42451.800000 1 0 0
-14.986673 -11.398512 -1.672218 18.902983 0.650236 1.659375 0.004410 0.001046 256046.000000 1 0 0
-6.734173 -19.107612 1.530882 20.317321 1.231955 1.495376 0.029264 -0.019308 10886.700000 1 0 0
-2.644273 -20.558112 -5.364418 21.410398 1.442874 1.824047 0.034763 -0.016998 101898.000000 1 0 0
-8.866773 -19.314412 -0.174118 21.253152 1.140421 1.578989 0.028998 -0.024653 134044.000000 1 0 0
-17.725173 -7.541712 4.925482 19.882644 0.402277 1.320462 0.059200 -0.013338 -47343.800000 1 0 0
-3.399273 -15.736612 -10.980518 19.487632 1.358055 2.169365 0.018331 0.002680 -23841.600000 1 0 0
-3.209173 -18.484112 -7.675718 20.270122 1.398892 1.959157 0.013270 -0.002762 146179.000000 1 0 0
4.133327 -18.200812 -5.852618 19.560345 -1.347488 1.874659 0.020182 0.030073 542936.000000 1 0 0
0.700627 -17.550412 -9.268618 19.859887 -1.530897 2.056353 0.011449 0.004930 -21072.900000 1 0 0
-7.654873 -10.124312 -14.828918 19.519108 0.923410 2.433668 0.020863 -0.010434 567416.000000 1 0 0
-5.091473 -19.521112 -1.693018 20.245079 1.315661 1.654520 0.029421 -0.017981 341346.000000 1 0 0
-10.442473 -15.018712 8.817682 20.306611 0.963233 1.121616 0.066746 -0.042011 217621.000000 1 0 0
-7.273873 -15.240012 -10.338018 19.800046 1.125483 2.120132 0.029161 -0.007972 309804.000000 1 0 0
-12.527673 -8.154412 -12.274718 19.341813 0.577016 2.258314 0.053216 -0.011475 198490.000000 1 0 0
-15.691673 -13.133812 3.301282 20.727375 0.696894 1.410844 0.041617 -0.004348 178837.000000 1 0 0
-6.438673 -14.113112 -12.846018 20.140919 1.142783 2.262444 0.031999 -0.006601 507974.000000 1 0 0
-13.900773 -11.297412 -6.707318 19.127235 0.682448 1.929081 0.024503 -0.018918 315078.000000 1 0 0
-11.249973 -10.229512 -9.285118 17.816235 0.737925 2.119006 0.009786 -0.004055 173928.000000 1 0 0
-9.476673 -14.924812 3.407482 18.004674 1.005066 1.380393 0.020589 -0.006861 321325.000000 1 0 0
5.619427 -17.599112 8.322082 20.262373 -1.261727 1.147557 0.058317 -0.035085 263104.000000 1 0 0
-4.982273 -16.723912 5.968782 18.442848 1.281255 1.241226 0.021027 0.010454 555830.000000 1 0 0
-18.552373 -7.336812 -7.170218 21.199797 0.376591 1.915822 0.051763 -0.016344 213773.000000 1 0 0
-17.105873 -4.974412 -10.760618 20.812173 0.282997 2.114179 0.077991 -0.006053 -176007.000000 1 0 0
-15.975873 -3.839012 -12.886618 20.881366 0.235829 2.235893 0.084736 -0.018340 473147.000000 1 0 0
-18.996573 -4.308912 -5.873818 20.345472 0.223052 1.863669 0.022875 -0.018656 65169.600000 1 0 0
5.545427 -13.712412 8.894082 17.259394 -1.186495 1.029417 0.025875 -0.004558 247488.000000 1 0 0
19.706927 -3.348112 2.815782 20.186665 -0.168288 1.430853 0.043572 -0.014641 -94360.700000 1 0 0
18.291027 -2.425512 0.727682 18.465490 -0.131837 1.531378 0.043774 -0.016946 263217.000000 1 0 0
14.106527 -11.034112 0.335082 17.912510 -0.663792 1.552089 0.042194 -0.007898 -70275.400000 1 0 0
11.224327 -13.828312 5.018482 18.503862 -0.888967 1.296144 0.014083 -0.005963 519582.000000 1 0 0
10.542227 -12.024212 7.827982 17.804424 -0.850976 1.115571 0.029278 -0.042663 5346.920000 1 0 0
17.705627 5.204788 -4.838418 19.078505 0.285909 1.827202 0.018600 0.004329 -59774.600000 1 0 0
19.072727 -5.909112 -4.686418 20.509731 -0.300441 1.801330 0.077387 -0.009206 -50315.400000 1 0 0
17.533727 -10.091712 0.204182 20.231558 -0.522255 1.560704 0.063854 -0.004899 262670.000000 1 0 0
17.657627 -8.815312 8.545282 21.506356 -0.463036 1.162183 0.082437 -0.020532 -79563.400000 1 0 0
19.678327 0.355888 -2.476118 19.836693 0.018083 1.695948 0.060399 -0.004552 118965.000000 1 0 0
7.610727 -13.258512 11.614182 19.198972 -1.049695 0.921109 0.021092 -0.005365 358918.000000 1 0 0
16.500427 -6.472712 -3.402718 18.048230 -0.373830 1.760466 0.075335 -0.003543 194046.000000 1 0 0
14.439927 -7.283112 10.930382 19.519950 -0.467140 0.976459 0.028374 -0.046942 442376.000000 1 0 0
17.140727 1.260788 9.061082 19.429290 0.073423 1.085623 0.118318 -0.034054 373359.000000 1 0 0
16.485327 -10.275712 2.613382 19.600664 -0.557394 1.437067 0.022473 -0.013515 197018.000000 1 0 0
16.217127 -7.442612 -5.872218 18.784851 -0.430260 1.888729 0.072790 -0.003573 312354.000000 1 0 0
18.695227 -4.911112 5.694682 20.150929 -0.256889 1.284291 0.143604 -0.025956 -212644.000000 1 0 0
12.983627 -13.637912 7.808682 20.384865 -0.809970 1.177687 0.013598 -0.017503 243432.000000 1 0 0
15.196427 -14.187412 -1.227818 20.825984 -0.751073 1.629787 0.048746 -0.009173 146723.000000 1 0 0
18.679627 -6.489412 7.705982 21.223174 -0.334362 1.199211 0.083336 -0.022132 249468.000000 1 0 0
19.490127 3.638588 2.246882 19.953768 0.184564 1.457953 0.073874 -0.014629 97585.900000 1 0 0
15.674427 -10.654812 8.258182 20.673903 -0.597011 1.159880 0.043515 -0.029121 379016.000000 1 0 0
14.312327 -4.247312 10.719482 18.379055 -0.288481 0.948079 0.029179 -0.012242 -48275.300000 1 0 0
18.826827 -7.640712 2.029882 20.419362 -0.385532 1.471222 0.082612 -0.013179 191648.000000 1 0 0
18.964727 -5.226212 -1.362818 19.718809 -0.268901 1.639964 0.054894 -0.007985 220341.000000 1 0 0
14.881027 -13.549812 -6.349818 21.103615 -0.738609 1.876420 0.086047 -0.016514 415345.000000 1 0 0
13.847927 -9.722512 10.196382 19.754962 -0.612128 1.028455 0.010607 -0.013761 550468.000000 1 0 0
14.376327 2.360788 0.690582 14.585233 0.162761 1.523431 0.007038 -0.002245 -116808.000000 1 0 0
12.962927 3.003088 13.610482 19.034212 0.227651 0.774096 0.039570 -0.010527 259824.000000 1 0 0
18.110327 -3.722712 9.157482 20.632547 -0.202733 1.110921 0.062502 -0.019472 35660.400000 1 0 0
7.484227 -18.474812 5.318882 20.630629 -1.185897 1.310036 0.045865 -0.023009 429392.000000 1 0 0
12.633627 -2.607712 15.243882 19.969593 -0.203552 0.702306 0.021246 0.008774 241096.000000 1 0 0
11.220227 -13.549012 -6.950618 18.915082 -0.879142 1.947077 0.029947 -0.018313 119410.000000 1 0 0
10.606527 -17.874412 4.688882 21.306774 -1.035250 1.348915 0.024030 -0.008557 549945.000000 1 0 0
18.149427 -0.872312 -5.736118 19.054283 -0.048026 1.876580 0.047545 0.000229 346521.000000 1 0 0
4.262827 -13.471012 11.469682 18.198721 -1.264322 0.888926 0.010964 -0.014151 184815.000000 1 0 0
9.327727 -2.812312 14.456782 17.433133 -0.292833 0.592995 0.010808 -0.000042 307532.000000 1 0 0
9.443727 -9.433212 14.007182 19.348659 -0.784841 0.761306 0.042256 -0.004318 298329.000000 1 0 0
20.985027 5.650588 -2.925618 21.928515 0.263029 1.704611 0.101066 -0.013491 477729.000000 1 0 0
14.757327 -13.485012 1.765782 20.068439 -0.740379 1.482694 0.033587 -0.009745 167613.000000 1 0 0
10.544027 0.125288 14.532682 17.955251 0.011882 0.627695 0.009930 -0.016904 -106960.000000 1 0 0
19.916727 0.159288 7.486182 21.277789 0.007998 1.211270 0.137803 -0.026537 113769.000000 1 0 0
19.997527 1.312988 0.485482 20.046464 0.065563 1.546576 0.083450 -0.010068 363041.000000 1 0 0
17.839127 0.305788 3.153282 18.118255 0.017140 1.395867 0.048964 -0.010647 43039.700000 1 0 0
10.624627 -8.352612 16.217382 21.110479 -0.666242 0.694748 0.049437 -0.004404 293780.000000 1 0 0
19.144827 3.015788 5.465982 20.136940 0.156241 1.295907 0.071253 -0.012582 226597.000000 1 0 0
15.634027 2.507588 7.047582 17.331452 0.159038 1.152028 0.052456 -0.013798 42072.400000 1 0 0
11.660027 -15.927112 1.996282 19.839715 -0.938859 1.470005 0.027293 -0.002243 261282.000000 1 0 0
8.927027 -15.818212 6.902982 19.430872 -1.057002 1.207606 0.026843 -0.016903 237570.000000 1 0 0
6.093827 6.907188 7.125982 11.645754 0.847878 0.912342 0.002538 -0.002514 -759890.000000 1 0 0
18.390427 2.744188 -6.196518 19.599368 0.148125 1.892474 0.033395 -0.000782 315547.000000 1 0 0
14.210627 4.454488 -7.077818 16.488781 0.303761 2.014459 0.002957 -0.004556 325675.000000 1 0 0
-10.463273 -3.950512 -13.678918 17.669166 0.361013 2.456197 0.024565 -0.008577 -199112.000000 1 0 0
7.698627 -14.324912 -10.317718 19.259472 -1.077656 2.136159 0.005484 0.002559 -84748.200000 1 0 0
1.876427 -15.825312 14.147982 21.310253 -1.452776 0.844768 0.011001 -0.016086 315953.000000 1 0 0
-9.488173 -8.231212 2.375982 12.783723 0.714580 1.383849 0.003858 0.002305 441912.000000 1 0 0
-13.892673 3.256688 -9.687318 17.246927 -0.230260 2.167216 0.032373 -0.006052 324019.000000 1 0 0
-13.138873 -5.247512 -13.467118 19.532783 0.379979 2.331543 0.064526 0.003071 180806.000000 1 0 0
-18.146573 -1.445212 -8.780118 20.210819 0.079473 2.020198 0.074268 -0.028691 418429.000000 1 0 0
-12.200173 15.226188 4.030182 19.922936 -0.895286 1.367102 0.039120 -0.023281 506747.000000 1 0 0
-17.842073 6.397788 9.307482 21.116355 -0.344297 1.114339 0.049258 -0.012745 190814.000000 1 0 0
-12.900773 15.058688 0.041482 19.829164 -0.862426 1.568704 0.048061 -0.032337 132911.000000 1 0 0
-15.753673 5.258188 -10.886518 19.858072 -0.322148 2.151026 0.034649 -0.006844 54636.900000 1 0 0
-18.282173 2.652288 -0.180618 18.474444 -0.144070 1.580573 0.048700 -0.002694 75578.800000 1 0 0
-9.788073 15.396288 -0.224018 18.245609 -1.004509 1.583075 0.026207 -0.016379 -132560.000000 1 0 0
-18.792873 11.913488 2.246582 22.364042 -0.565000 1.470172 0.139558 -0.024722 51653.300000 1 0 0
-8.724573 16.180188 -7.710918 19.934265 -1.076272 1.967974 0.061543 -0.034914 -150396.000000 1 0 0
-14.582373 -1.514512 -12.599118 19.330730 0.103488 2.280707 0.047737 -0.031640 56090.000000 1 0 0
-18.973673 5.172088 -4.854018 20.256166 -0.266127 1.812783 0.053058 -0.002076 -51923.200000 1 0 0
-16.620873 10.027388 -5.219218 20.100800 -0.542843 1.833458 0.030362 0.014069 -80016.400000 1 0 0
-19.195073 1.171888 2.415682 19.381942 -0.060976 1.445836 0.064180 -0.014452 487016.000000 1 0 0
-13.889573 11.705988 -6.997918 19.465900 -0.700293 1.938524 0.028356 -0.010789 135814.000000 1 0 0
-13.472173 4.209888 -12.901018 19.122209 -0.302874 2.311302 0.076104 -0.039887 62537.500000 1 0 0
-14.239473 9.379088 -6.664218 18.306875 -0.582445 1.943385 0.021705 -0.002923 359977.000000 1 0 0
-6.422673 11.288088 -15.460718 20.191718 -1.053500 2.442919 0.009720 -0.037010 155738.000000 1 0 0
-15.224273 13.824188 2.864782 20.762794 -0.737237 1.432378 0.061900 -0.028027 -149745.000000 1 0 0
-18.637373 8.425488 -4.935018 21.040316 -0.424578 1.807553 0.065463 -0.006742 125145.000000 1 0 0
-4.597673 16.232388 -11.399818 20.361357 -1.294785 2.165031 0.009380 -0.000690 -4342.830000 1 0 0
-19.482373 -1.890012 -6.766618 20.710435 0.096709 1.903633 0.049471 -0.014088 -227536.000000 1 0 0
-12.263073 13.541688 -6.681518 19.452582 -0.834907 1.921413 0.053146 -0.017246 98816.900000 1 0 0
-19.161273 3.115688 4.081782 19.837410 -0.161193 1.363554 0.050244 -0.007189 -41284.100000 1 0 0
-15.033073 12.362988 0.484982 19.469770 -0.688243 1.545884 0.032482 -0.013775 50911.200000 1 0 0
-16.814273 1.749688 -8.721718 19.022343 -0.103687 2.047101 -0.005712 -0.009990 174835.000000 1 0 0
-16.415773 13.908588 -4.419218 21.964879 -0.702907 1.773374 0.033380 0.030106 221874.000000 1 0 0
-10.521273 15.623388 -8.563118 20.690926 -0.978125 1.997485 0.033556 -0.022886 -183925.000000 1 0 0
-19.426373 1.585388 -6.866018 20.664937 -0.081430 1.909489 0.069097 -0.015657 92051.500000 1 0 0
-17.193373 10.369588 -0.401818 20.082377 -0.542707 1.590806 0.051944 -0.006848 -33987.100000 1 0 0
-11.581173 6.647488 -14.611318 19.794021 -0.521076 2.401147 0.038311 -0.024838 480821.000000 1 0 0
-12.958073 12.239188 -4.085418 18.286607 -0.756876 1.796108 0.032736 -0.013679 470775.000000 1 0 0
-18.885273 7.663288 0.007282 20.380863 -0.385480 1.570439 0.062852 -0.008800 5578.170000 1 0 0
-14.687573 8.765788 -10.238718 19.934773 -0.538076 2.110184 0.034013 -0.008361 541609.000000 1 0 0
-18.501573 11.388888 4.984582 22.290380 -0.551785 1.345269 0.073639 -0.026274 138616.000000 1 0 0
-8.227973 12.011288 -13.348718 19.752439 -0.970195 2.312847 0.009970 -0.018775 537307.000000 1 0 0
-21.262273 -1.792612 -4.862118 21.884650 0.084111 1.794836 0.064619 -0.027081 376353.000000 1 0 0
-10.865073 13.839088 -3.996218 18.042725 -0.905207 1.794135 0.027712 0.007027 524904.000000 1 0 0
-18.599273 -4.958512 3.776282 19.615812 0.260537 1.377075 0.055234 -0.010486 -55898.900000 1 0 0
-11.499773 11.409888 -12.664818 20.562780 -0.781475 2.234337 0.053355 -0.026839 340863.000000 1 0 0
-14.923673 11.847188 -10.316218 21.667862 -0.670981 2.067019 0.049536 0.002573 293024.000000 1 0 0
-12.735373 9.856788 -13.818418 21.220148 -0.658666 2.279952 0.072965 -0.028913 331210.000000 1 0 0
-17.988173 -5.002312 -3.336018 18.966457 0.271236 1.747607 -0.003069 -0.010190 -311106.000000 1 0 0
-9.569173 12.595288 -11.534918 19.577147 -0.921089 2.200869 0.031698 -0.019060 -26480.600000 1 0 0
-16.091073 7.389888 -8.263018 19.539973 -0.430523 2.007415 0.036919 0.002247 59625.700000 1 0 0
-14.618273 8.673088 2.118082 17.128999 -0.535482 1.446824 0.029501 -0.006883 -3126.120000 1 0 0
-19.980573 6.105588 7.671782 22.256633 -0.296565 1.218881 0.078772 -0.024862 279727.000000 1 0 0
-18.957673 5.827288 3.411882 20.124403 -0.298217 1.400434 0.033340 -0.006651 201885.000000 1 0 0
-15.132673 12.558588 5.704082 20.475655 -0.692708 1.288482 0.054757 -0.026281 106855.000000 1 0 0
17.937027 6.405888 5.433382 19.806413 0.343014 1.292909 0.039950 -0.022243 133905.000000 1 0 0
18.348127 7.604188 0.588582 19.870176 0.392892 1.541171 0.052818 -0.009855 -127018.000000 1 0 0
16.237427 5.476288 9.046682 19.377467 0.325283 1.085053 0.039562 0.004403 5117.260000 1 0 0
12.466927 12.934388 10.885882 21.005359 0.803799 1.026001 0.069645 -0.017374 129861.000000 1 0 0
15.571127 12.278988 4.001382 20.229795 0.667735 1.371687 0.051825 -0.018327 187502.000000 1 0 0
5.473927 10.490488 14.515782 18.727577 1.089862 0.683920 0.013229 0.004087 258974.000000 1 0 0
12.352827 14.401088 -5.203118 19.673742 0.861808 1.838451 0.041807 0.017592 363514.000000 1 0 0
17.721527 9.228688 -3.026318 20.208409 0.480118 1.721117 0.040774 -0.013276 -176121.000000 1 0 0
14.354627 7.714888 9.440082 18.833214 0.493157 1.045758 0.044992 -0.015610 34042.600000 1 0 0
4.777027 19.361888 -2.155518 20.058638 1.328904 1.678465 0.023946 -0.013819 434426.000000 1 0 0
-4.488773 18.905188 3.109282 19.677979 -1.337677 1.412123 0.012560 -0.028311 261794.000000 1 0 0
6.638727 12.693088 12.595682 19.074548 1.088903 0.849525 0.021128 0.003138 -28138.900000 1 0 0
-0.018473 17.577488 -9.943618 20.195147 -1.569745 2.085615 0.011242 0.019418 -8647.700000 1 0 0
10.759627 9.450988 15.442782 21.061108 0.720738 0.747726 0.047805 -0.015769 -64861.800000 1 0 0
-1.043273 12.134888 1.224882 12.241089 -1.485034 1.470565 0.000385 -0.000612 353403.000000 1 0 0
-4.871973 19.222688 -2.768518 20.022801 -1.322574 1.709509 0.027125 -0.005597 31921.700000 1 0 0
6.458127 18.107688 6.321382 20.237481 1.228209 1.253120 0.033962 -0.024395 -33186.400000 1 0 0
11.539727 17.204988 -1.127518 20.747246 0.979993 1.625169 0.070117 -0.023139 336791.000000 1 0 0
18.536227 10.449788 2.611982 21.438569 0.513338 1.448657 0.046645 -0.015414 280628.000000 1 0 0
11.608227 16.790988 6.099382 21.304710 0.965908 1.280441 0.051529 -0.009029 -263805.000000 1 0 0
17.781027 8.370788 -6.206418 20.609577 0.439992 1.876687 0.035421 0.015509 316153.000000 1 0 0
0.012127 15.352588 11.068682 18.926643 1.570006 0.946138 0.009998 0.005985 429426.000000 1 0 0
1.010927 20.358988 -1.942218 20.476391 1.521182 1.665791 0.036373 -0.017171 405794.000000 1 0 0
14.685527 9.717288 -1.452118 17.669155 0.584550 1.653073 0.044356 -0.009861 26048.000000 1 0 0
10.245227 16.971088 2.109782 19.935739 1.027670 1.464769 0.041256 -0.032221 367169.000000 1 0 0
0.557427 17.837488 -0.218518 17.847534 1.539556 1.583040 0.016680 -0.004974 99570.900000 1 0 0
-0.266073 21.044588 1.239582 21.082743 -1.558154 1.511966 0.033858 -0.021175 218585.000000 1 0 0
6.190927 17.154088 -0.370118 18.240814 1.224443 1.591088 0.014288 -0.030386 -156041.000000 1 0 0
7.441127 18.884488 -2.530518 20.454774 1.195444 1.694827 0.022996 -0.016863 45859.300000 1 0 0
9.814927 9.446888 12.475682 18.472118 0.766293 0.829318 0.015879 -0.014212 -146169.000000 1 0 0
12.471927 14.445788 8.024182 20.703074 0.858597 1.172787 0.047741 -0.024194 292662.000000 1 0 0
0.167627 17.602188 7.053282 18.963489 1.561274 1.189698 0.009223 0.000610 211134.000000 1 0 0
7.246927 18.127488 -7.779018 21.015159 1.190483 1.949980 0.042201 -0.015231 120855.000000 1 0 0
-1.011673 18.491988 9.296582 20.722054 -1.516142 1.105562 0.028700 -0.005927 222908.000000 1 0 0
16.036127 7.164688 -7.785618 19.212131 0.420176 1.988043 0.029369 0.005458 -190397.000000 1 0 0
-5.444073 19.719288 -6.594518 21.493625 -1.301428 1.882639 0.029756 -0.015302 296133.000000 1 0 0
3.315527 15.949688 9.561482 18.889341 1.365841 1.040042 0.017624 0.003157 244497.000000 1 0 0
8.900227 14.999388 7.788082 19.101045 1.035264 1.150829 0.028401 -0.003448 213260.000000 1 0 0
-2.768973 19.292088 6.662182 20.597003 -1.428241 1.241419 0.021856 -0.006271 65326.600000 1 0 0
4.671227 18.179988 8.327482 20.534831 1.319293 1.153238 0.027619 -0.006366 -68615.700000 1 0 0
13.591627 11.733488 -6.646818 19.146469 0.712158 1.925333 -0.023669 -0.021121 125243.000000 1 0 0
11.860827 6.872688 15.714282 20.853098 0.525168 0.717319 0.058197 -0.010877 234890.000000 1 0 0
17.211627 8.873088 4.843382 19.960715 0.475993 1.325704 0.043897 -0.018328 203529.000000 1 0 0
5.144827 15.036588 11.862282 19.831338 1.241128 0.929595 0.016928 -0.014769 502413.000000 1 0 0
16.030227 10.513288 -3.712518 19.526398 0.580471 1.762089 0.065177 -0.023504 261990.000000 1 0 0
15.514027 13.582188 6.172082 21.523370 0.719101 1.279951 0.056845 -0.013048 266508.000000 1 0 0
12.562427 14.532588 -8.076218 20.838330 0.857983 1.968786 0.088602 -0.029525 253307.000000 1 0 0
-8.104873 15.587688 9.518082 19.981463 -1.091314 1.074303 0.024843 -0.013411 252769.000000 1 0 0
-4.190073 17.624588 -8.080118 19.836107 -1.337389 1.990340 0.011380 0.033987 -27873.100000 1 0 0
2.052927 19.453588 -4.510718 20.074939 1.465656 1.797425 0.020655 -0.027112 92664.900000 1 0 0
6.719227 16.759088 9.270082 20.296538 1.189488 1.096478 0.023109 -0.004574 497987.000000 1 0 0
13.437227 15.172688 -1.413618 20.316689 0.845983 1.640432 0.087480 -0.028547 40818.400000 1 0 0
13.348327 16.111388 4.628082 21.428341 0.878916 1.353101 0.076643 -0.036533 151877.000000 1 0 0
3.359627 18.320488 0.464982 18.631790 1.389431 1.545837 0.042769 -0.023421 133410.000000 1 0 0
-7.486773 17.573588 1.296082 19.145824 -1.168059 1.503049 0.013766 0.000890 392401.000000 1 0 0
0.342427 19.821388 -5.909218 20.686313 1.553522 1.860490 0.037356 -0.004175 184627.000000 1 0 0
-7.511673 18.091888 -6.408518 20.610937 -1.177259 1.886966 0.054043 -0.018233 121955.000000 1 0 0
-7.533673 18.570688 -1.477018 20.094981 -1.185407 1.644365 0.051633 -0.013902 133159.000000 1 0 0
-14.473373 -9.601112 8.761182 19.452973 0.585713 1.103608 0.057999 -0.016693 272051.000000 1 0 0
-13.438673 -13.717612 7.750482 20.708471 0.795669 1.187191 0.070102 -0.011570 45098.800000 1 0 0
-3.794973 -15.928512 12.578082 20.647699 1.336906 0.915775 0.039623 -0.019148 20909.500000 1 0 0
-2.406673 -14.961212 14.888782 21.243958 1.411302 0.794211 0.031308 -0.026036 503230.000000 1 0 0
-7.299173 -13.909712 13.552382 20.746688 1.087542 0.858952 0.024970 -0.013233 36209.400000 1 0 0
-10.003473 -10.956612 11.947582 19.048924 0.830841 0.892837 0.063317 -0.019056 -51164.700000 1 0 0
-7.337973 -10.439612 13.262982 18.404837 0.958129 0.766093 0.036671 -0.013965 322032.000000 1 0 0
-15.351673 -12.149212 7.947682 21.129194 0.669471 1.185162 0.056610 0.001796 396696.000000 1 0 0
-4.476873 -12.432612 13.035682 18.561822 1.225160 0.792195 0.023085 -0.020022 362208.000000 1 0 0
3.904927 -13.307012 13.965282 19.681314 -1.285361 0.781908 0.007845 0.015313 359453.000000 1 0 0
6.599527 -13.644312 14.995282 21.320870 -1.120287 0.790747 0.025094 0.004904 238731.000000 1 0 0
6.852627 -9.429512 16.825082 20.468453 -0.942361 0.605881 0.008189 0.003054 555009.000000 1 0 0
-5.163073 12.917088 13.962182 19.709160 -1.190541 0.783552 0.014750 0.000491 499230.000000 1 0 0
-13.256373 -2.401212 17.618582 22.179082 0.179193 0.652813 0.031888 -0.006584 332901.000000 1 0 0
-10.454673 10.256488 13.106582 19.653962 -0.775829 0.840800 0.031372 0.007466 173041.000000 1 0 0
-7.397173 -8.164812 17.211582 20.435774 0.834686 0.569394 0.054333 -0.022499 255200.000000 1 0 0
-4.934973 1.953088 18.549282 19.293635 -0.376850 0.278679 0.021125 0.000152 508100.000000 1 0 0
-15.333773 -4.011512 14.575582 21.532868 0.255878 0.827254 0.046964 -0.015830 113097.000000 1 0 0
-14.691073 3.169688 12.885982 19.797047 -0.212499 0.862021 0.028912 0.007734 36195.200000 1 0 0
-13.852173 10.920888 10.064082 20.308477 -0.667620 1.052316 -0.037186 0.017478 -97301.100000 1 0 0
-4.831073 11.211188 16.217482 20.298688 -1.163926 0.645262 0.046390 0.002977 187023.000000 1 0 0
-13.306573 13.035388 7.436282 20.057031 -0.775104 1.190973 0.028349 -0.041762 212123.000000 1 0 0
-4.058473 -6.447212 18.724282 20.214759 1.008973 0.386410 0.058352 -0.020744 339490.000000 1 0 0
0.687227 -3.009012 17.527282 17.796967 -1.346258 0.174309 0.010380 -0.022502 146836.000000 1 0 0
-4.081673 6.451488 21.291782 22.619057 -1.006699 0.344275 0.035276 -0.009277 236336.000000 1 0 0
2.074427 -10.777612 16.480882 19.801001 -1.380646 0.587506 -0.009745 -0.004144 276807.000000 1 0 0
-15.042073 -0.304412 13.893482 20.478903 0.020235 0.825174 0.020179 -0.005595 -17896.900000 1 0 0
-14.362273 -5.967212 7.778782 17.389420 0.393778 1.107020 0.053023 -0.012354 153029.000000 1 0 0
10.164427 1.135088 16.448082 19.368619 0.111212 0.556303 0.038013 -0.000167 452953.000000 1 0 0
-8.069173 12.487388 12.109082 19.174886 -0.997107 0.887301 0.033413 -0.001976 293882.000000 1 0 0
-1.670573 7.212888 20.573482 21.865149 -1.343200 0.345442 0.039184 -0.009617 453049.000000 1 0 0
0.981827 -13.029712 15.642282 20.381814 -1.495586 0.695922 -0.001647 -0.020773 459650.000000 1 0 0
-3.575473 -11.615112 17.679882 21.453975 1.272172 0.602213 0.050026 -0.024281 397943.000000 1 0 0
-2.078973 9.078888 16.728882 19.146901 -1.345688 0.508014 0.026914 -0.010722 434969.000000 1 0 0
-4.409073 -9.517912 20.596282 23.113576 1.136987 0.471054 0.086778 -0.032227 267884.000000 1 0 0
-6.694473 -3.157912 19.270582 20.643248 0.440768 0.366729 0.045574 -0.018326 378609.000000 1 0 0
-10.671773 -8.010812 16.124882 20.930161 0.643920 0.691307 0.060842 -0.029504 268446.000000 1 0 0
-0.323273 6.252888 17.885082 18.949387 -1.519143 0.336748 0.012142 -0.009706 94180.100000 1 0 0
-6.274973 -11.055712 18.884282 22.764449 1.054558 0.592492 0.088411 -0.033955 566832.000000 1 0 0
0.003127 3.479788 18.716182 19.036922 1.569898 0.183825 0.003012 -0.009124 -29217.000000 1 0 0
-18.173473 -0.924212 7.801182 19.798680 0.050811 1.165789 0.048626 -0.013395 -68414.100000 1 0 0
-1.698273 -8.692612 17.448982 19.568153 1.377857 0.469702 0.029180 -0.016504 174817.000000 1 0 0
5.885327 3.561288 15.119682 16.610979 0.544171 0.426976 -0.002830 -0.003493 292206.000000 1 0 0
-13.679573 -6.597312 10.307382 18.354764 0.449367 0.974521 0.047613 -0.019612 129923.000000 1 0 0
3.879527 8.293088 16.782982 19.117911 1.133237 0.499407 0.005355 -0.005939 84800.000000 1 0 0
6.250927 4.618688 17.918882 19.531838 0.636347 0.409251 0.018426 -0.015251 -73789.700000 1 0 0
4.200927 -9.709512 17.990082 20.870205 -1.162455 0.531598 -0.018910 -0.000484 391235.000000 1 0 0
-4.526573 -0.786412 19.826982 20.352334 0.172015 0.227705 0.035504 -0.014041 765666.000000 1 0 0
-11.420973 1.833688 16.943582 20.515506 -0.159196 0.599015 0.054373 -0.012296 182463.000000 1 0 0
-16.719673 -3.879712 9.113882 19.433540 0.228010 1.082664 0.064654 -0.015564 369051.000000 1 0 0
-13.108873 -9.444412 12.520782 20.440387 0.624326 0.911512 0.071306 -0.037363 69489.400000 1 0 0
-15.075273 6.134688 11.663982 20.023654 -0.386472 0.948983 0.042775 -0.044072 389105.000000 1 0 0
1.277227 9.536988 17.188982 19.698897 1.437665 0.510325 0.011201 -0.013910 271082.000000 1 0 0
-3.794573 -10.406012 14.980282 18.630424 1.221129 0.636676 0.033677 -0.017416 507953.000000 1 0 0
-18.555273 -4.071812 7.117982 20.286534 0.216018 1.212294 0.127225 -0.010956 -142219.000000 1 0 0
-0.585573 -0.391812 20.698682 20.710670 0.589692 0.034026 0.022682 -0.019138 348619.000000 1 0 0
-1.769873 2.820188 20.471082 20.740084 -1.010349 0.161235 0.010814 -0.008495 128542.000000 1 0 0
-7.867673 1.929688 16.556982 18.432515 -0.240520 0.455028 0.017186 0.011560 622732.000000 1 0 0
2.603327 -1.932312 18.686182 18.965351 -0.638521 0.171792 -0.004178 -0.009318 -95409.200000 1 0 0
-12.568873 4.428088 14.408482 19.626229 -0.338728 0.746391 0.015169 -0.001770 239750.000000 1 0 0
-13.611473 -5.588212 13.554582 20.005674 0.389569 0.826388 0.063832 -0.015536 23705.100000 1 0 0
-17.396173 -0.705112 10.283082 20.220430 0.040510 1.037297 0.066246 -0.010777 335511.000000 1 0 0
-7.379673 7.885688 14.856182 18.367084 -0.818534 0.628606 0.025513 -0.000494 115031.000000 1 0 0
-9.439673 0.267388 14.432382 17.247393 -0.028318 0.579409 0.020573 0.003384 271830.000000 1 0 0
7.404927 -0.917412 15.355082 17.071998 -0.123264 0.452331 -0.003387 -0.002120 81977.400000 1 0 0
3.576727 5.215888 18.091682 19.165266 0.969707 0.336298 -0.004832 -0.035853 124899.000000 1 0 0
1.681027 0.612288 20.219282 20.298278 0.349299 0.088253 -0.000428 -0.001781 153499.000000 1 0 0
-6.957473 7.196688 17.944982 20.548020 -0.802297 0.508821 0.021922 0.005688 576791.000000 1 0 0
7.477827 -2.890612 17.200182 18.976823 -0.368865 0.436165 -0.002054 0.013158 408177.000000 1 0 0
-16.130773 2.628488 8.916382 18.617536 -0.161529 1.071368 0.021932 -0.016925 111573.000000 1 0 0
4.599127 -5.846012 18.843382 20.258353 -0.904211 0.375965 0.021506 -0.015601 114047.000000 1 0 0
-3.636873 -3.710712 20.650582 21.294195 0.795447 0.246489 0.053807 -0.020650 415806.000000 1 0 0
-9.682573 6.006388 14.615582 18.532246 -0.555234 0.662175 0.029028 -0.003470 -54768.400000 1 0 0
6.711627 2.651488 19.658382 20.941067 0.376240 0.351818 0.040748 -0.025877 88436.800000 1 0 0
-7.556673 11.140088 14.665382 19.906740 -0.974761 0.742613 0.037627 -0.018481 339800.000000 1 0 0
-14.659473 4.935288 9.565482 18.186689 -0.324743 1.016952 0.015444 -0.006452 357010.000000 1 0 0
0.894327 -5.908812 20.375482 21.233797 -1.420582 0.285298 0.017037 -0.015626 324721.000000 1 0 0
-5.954873 -8.224212 13.685982 17.041252 0.944101 0.638301 0.019657 -0.008993 199326.000000 1 0 0
-12.834373 10.030388 6.132082 17.404949 -0.663374 1.210749 -0.001498 -0.023532 116419.000000 1 0 0
-19.433673 1.840088 7.475582 20.903059 -0.094404 1.205066 0.048611 -0.017377 87997.600000 1 0 0
-15.711773 9.000088 6.356682 19.190331 -0.520198 1.233175 0.014895 -0.017932 128442.000000 1 0 0
-13.439673 7.166088 14.266082 20.868606 -0.489857 0.818093 0.047505 -0.013663 339511.000000 1 0 0
-16.504873 9.068188 10.557682 21.589523 -0.502402 1.059832 0.023989 -0.017258 13236.900000 1 0 0
2.642327 10.800988 15.438882 19.026358 1.330871 0.624172 0.012830 -0.010065 590916.000000 1 0 0
1.601827 14.443588 13.444182 19.797200 1.460345 0.824267 0.018799 -0.011085 583466.000000 1 0 0
8.698927 5.017188 16.673082 19.463688 0.523156 0.542104 0.026424 -0.003974 163950.000000 1 0 0
-0.194773 13.211088 13.719082 19.046889 -1.556054 0.766591 0.006372 0.020040 284652.000000 1 0 0
4.339327 14.139988 14.914782 21.005231 1.273037 0.781226 0.032292 0.024444 149642.000000 1 0 0
-3.515273 -4.603812 -13.482818 14.674420 0.918675 2.735819 0.001114 -0.011368 82065.600000 1 0 0
4.974027 -12.220712 16.997582 21.517540 -1.184256 0.660084 -0.038613 0.022293 175656.000000 1 0 0
8.558927 -13.715612 7.584282 17.857620 -1.012896 1.132157 0.000199 -0.006248 262203.000000 1 0 0
-0.450573 15.196488 0.327182 15.206686 -1.541155 1.549279 0.005827 -0.005007 -444219.000000 1 0 0
-14.093673 7.904788 8.579982 18.295720 -0.511154 1.082682 0.007185 -0.009570 110022.000000 1 0 0
-16.152673 -9.649712 4.376182 19.317783 0.538510 1.342276 0.042377 -0.008017 120345.000000 1 0 0
9.063427 -10.487212 11.411182 17.953896 -0.858095 0.882034 0.006526 0.000344 118828.000000 1 0 0
-25.968143 6.099988 30.792318 40.739676 -0.230720 0.713874 0.071151 -0.025260 942508.000000 0 0 1
-24.662873 5.517288 30.559278 39.655608 -0.220085 0.690988 0.070925 -0.022443 901655.000000 0 0 1
-23.955873 5.437688 31.764248 40.154947 -0.223206 0.658286 0.056452 -0.024313 -384864.000000 0 0 1
-22.566973 4.797488 31.714268 39.218350 -0.209470 0.628927 0.057617 -0.024615 -384929.000000 0 0 1
-22.439773 3.375688 31.530138 38.846986 -0.149314 0.623826 0.050945 -0.028292 113213.000000 0 0 1
-21.116373 2.961688 31.222938 37.809320 -0.139347 0.599177 0.056701 -0.023914 198141.000000 0 0 1
-20.753173 1.764388 32.131756 38.291736 -0.084814 0.575114 0.051575 -0.020993 249206.000000 0 0 1
-21.528873 0.535888 32.012068 38.581758 -0.024886 0.592190 0.061042 -0.018903 570212.000000 0 0 1
-21.486373 -0.298612 33.150840 39.506096 0.013897 0.575110 0.055481 -0.012371 -284694.000000 0 0 1
-22.154773 -1.691012 32.984740 39.770423 0.076180 0.592802 0.063273 -0.029315 -725019.000000 0 0 1
-21.367173 -2.733112 32.453470 38.951941 0.127221 0.585986 0.090961 -0.019193 95849.000000 0 0 1
-21.881673 -4.087512 32.431338 39.335824 0.184672 0.601525 0.096403 -0.029406 -1019890.000000 0 0 1
-23.323373 -4.404912 31.982038 39.827550 0.186664 0.638463 0.060611 -0.019485 -198773.000000 0 0 1
-24.294773 -3.990512 32.916282 41.105253 0.162800 0.642199 0.043422 -0.014703 -6799.120000 0 0 1
-24.368773 -4.791412 -33.925738 42.044624 0.194144 2.509679 0.033343 -0.013862 -979708.000000 0 0 1
-25.650933 -4.474112 -33.141418 42.146668 0.172686 2.475651 0.034246 -0.011123 -150286.000000 0 0 1
-25.669273 -4.974412 -31.852348 41.209567 0.191416 2.454252 0.045096 -0.013905 118347.000000 0 0 1
-26.825093 -4.527012 -31.189708 41.386922 0.167185 2.424337 0.060026 -0.017880 -283722.000000 0 0 1
-26.896133 -5.062612 -29.709168 40.393894 0.186051 2.397181 0.054976 -0.021607 -341595.000000 0 0 1
-27.024393 -6.456112 -29.472568 40.504709 0.234504 2.385662 0.049235 -0.010334 553461.000000 0 0 1
-26.838003 -6.916612 -28.165468 39.514700 0.252229 2.364257 0.039599 -0.018202 -194387.000000 0 0 1
-27.048673 -8.451312 -28.142548 39.938182 0.302838 2.352730 0.039014 -0.011080 -1233450.000000 0 0 1
-28.384993 -8.754312 -28.168108 40.936391 0.299158 2.329656 0.039004 -0.009188 -1266730.000000 0 0 1
-28.591193 -10.104012 -28.341648 41.506582 0.339697 2.322416 0.035961 -0.001862 752075.000000 0 0 1
-29.946253 -10.703712 -27.818498 42.251821 0.343279 2.289484 0.066544 -0.005679 782895.000000 0 0 1
-29.968453 -11.208712 -26.491858 41.539884 0.357909 2.262364 0.074632 -0.013981 -295387.000000 0 0 1
-31.249543 -11.570612 -26.025128 42.281441 0.354613 2.233844 0.070681 -0.012889 -79591.000000 0 0 1
-31.126323 -12.357012 -24.686118 41.604665 0.377914 2.206010 0.064823 -0.010912 -229494.000000 0 0 1
-30.600363 -11.566712 -23.679918 40.384521 0.361392 2.197356 0.067917 -0.014907 84901.000000 0 0 1
-30.706553 -12.224212 -22.434018 39.945074 0.378866 2.167141 0.077896 -0.019637 -363040.000000 0 0 1
-30.143113 -11.397112 -21.315018 38.637176 0.361486 2.155163 0.088372 -0.024492 -202468.000000 0 0 1
-30.198433 -11.917712 -19.976918 38.118951 0.375883 2.122417 0.094727 -0.025298 122416.000000 0 0 1
-29.151843 -12.815712 -19.682818 37.436423 0.414188 2.124412 0.090089 -0.028150 -176601.000000 0 0 1
-28.957143 -12.947312 -18.160018 36.550448 0.420456 2.090759 0.090026 -0.038192 -107594.000000 0 0 1
-28.417153 -11.814712 -17.506018 35.405969 0.394018 2.087983 0.084962 -0.035729 210314.000000 0 0 1
-27.977373 -12.142312 -16.202318 34.535261 0.409473 2.059128 0.102343 -0.039341 -221657.000000 0 0 1
-27.547883 -10.864312 -15.509118 33.428309 0.375651 2.053247 0.092126 -0.028905 -1006280.000000 0 0 1
-26.286443 -10.305612 -15.677218 32.294858 0.373635 2.077663 0.082297 -0.027768 -373485.000000 0 0 1
-26.182593 -8.939112 -15.343818 31.636508 0.329006 2.077164 0.089100 -0.035107 122229.000000 0 0 1
-24.685073 -8.551512 -15.448418 30.350203 0.333486 2.104825 0.097733 -0.032362 202106.000000 0 0 1
-23.814273 -9.050712 -14.480318 29.303832 0.363194 2.087646 0.079640 -0.024604 345585.000000 0 0 1
-22.496373 -8.543012 -14.702818 28.200048 0.362929 2.119259 0.131897 -0.051111 617926.000000 0 0 1
-21.409073 -9.097812 -13.738818 27.016175 0.401829 2.104285 0.111911 -0.028739 -230839.000000 0 0 1
-20.884373 -10.273312 -14.260118 27.295585 0.457158 2.120498 0.108012 -0.013271 489873.000000 0 0 1
-19.680773 -10.547412 -13.534218 26.110453 0.491973 2.115711 0.113479 -0.009485 906945.000000 0 0 1
-18.686973 -11.599512 -14.163718 26.160324 0.555521 2.142921 0.103589 -0.003093 639657.000000 0 0 1
-17.978073 -11.151612 -15.327818 26.124922 0.555205 2.197789 0.124127 -0.016710 435966.000000 0 0 1
-18.756773 -11.183512 -16.502518 27.371894 0.537649 2.217928 0.113309 -0.025352 -211866.000000 0 0 1
-18.013173 -10.535412 -17.644518 27.327611 0.529222 2.272692 0.131554 -0.028453 -276407.000000 0 0 1
-18.743173 -10.762712 -18.798418 28.644773 0.521248 2.286648 0.101386 -0.023501 388924.000000 0 0 1
-18.123073 -10.227612 -19.949818 28.827852 0.513788 2.335098 0.103091 -0.026911 -104404.000000 0 0 1
-18.862673 -10.786212 -21.236618 30.383165 0.519447 2.344739 0.109308 -0.024629 61830.300000 0 0 1
-19.934073 -9.896712 -21.370918 30.854956 0.460821 2.335919 0.099552 -0.035197 63469.300000 0 0 1
-21.184673 -10.502812 -21.695618 32.090486 0.460261 2.313221 0.106543 -0.018294 681296.000000 0 0 1
-22.171373 -9.535012 -22.392518 32.922805 0.406148 2.318767 0.075363 -0.021544 -400694.000000 0 0 1
-21.639573 -8.991412 -23.550218 33.222423 0.393803 2.358684 0.085073 -0.033087 84302.600000 0 0 1
-22.552573 -8.390812 -24.441218 34.298650 0.356187 2.363994 0.072838 -0.026366 -187865.000000 0 0 1
-21.778473 -7.592512 -25.505688 34.387327 0.335449 2.406424 0.077909 -0.034434 179512.000000 0 0 1
-20.986673 -8.458912 -26.323678 34.712097 0.383142 2.431564 0.080885 -0.034539 162471.000000 0 0 1
-20.123273 -7.734012 -27.140408 34.660681 0.366927 2.470321 0.077518 -0.039527 -275105.000000 0 0 1
-19.008973 -8.573912 -27.783158 34.738407 0.423723 2.497729 0.084057 -0.037475 -6391.300000 0 0 1
-19.525773 -9.396612 -28.849028 36.080723 0.448529 2.497374 0.082486 -0.029507 497075.000000 0 0 1
-18.445873 -9.960612 -29.558388 36.237582 0.495127 2.524706 0.069356 -0.027415 -21059.900000 0 0 1
-18.861873 -11.114512 -30.494278 37.539361 0.532484 2.518929 0.069279 -0.020806 -491958.000000 0 0 1
-19.550573 -10.744612 -31.613518 38.692197 0.502521 2.527075 0.076741 -0.018807 61301.700000 0 0 1
-19.959073 -11.930712 -32.331858 39.825313 0.538770 2.518096 0.062461 -0.013303 -71187.900000 0 0 1
-20.493773 -11.607212 -33.710368 41.123120 0.515330 2.531758 0.064811 -0.011446 -461389.000000 0 0 1
-19.537773 -11.473912 33.289828 40.268945 0.531005 0.597602 0.069083 -0.020026 -234969.000000 0 0 1
-20.027673 -11.401312 31.968648 39.409289 0.517523 0.624602 0.061624 -0.018601 -462011.000000 0 0 1
-19.471573 -12.494912 31.024368 38.701116 0.570518 0.640763 0.067628 -0.021678 -829823.000000 0 0 1
-18.096573 -12.344312 30.825288 37.816219 0.598635 0.617836 0.079035 -0.028231 -219685.000000 0 0 1
-17.467073 -13.189512 29.889488 37.046503 0.646762 0.632064 0.073035 -0.026610 -110391.000000 0 0 1
-17.442373 -14.722012 30.270948 37.911797 0.701022 0.646068 0.067131 -0.015630 699497.000000 0 0 1
-18.754073 -15.355712 30.074638 38.626377 0.686096 0.678359 0.053226 -0.014160 1499110.000000 0 0 1
-19.014773 -16.537612 30.744858 39.752994 0.715834 0.686613 0.069729 -0.014353 -285783.000000 0 0 1
-19.235573 -16.462012 32.310907 41.048749 0.707858 0.664646 0.038443 -0.016164 -497061.000000 0 0 1
-18.089473 -16.179812 33.063879 41.015064 0.729731 0.633197 0.062293 -0.011755 -290134.000000 0 0 1
-18.450873 -15.724212 -33.685468 41.501763 0.705782 2.517791 0.054427 -0.004380 -27528.900000 0 0 1
-17.251673 -15.359712 -32.790708 40.109494 0.727448 2.527905 0.056425 -0.003170 -466198.000000 0 0 1
-16.699873 -14.198412 -33.287608 39.856562 0.704616 2.559266 0.058040 -0.008378 -500359.000000 0 0 1
-15.486173 -13.797312 -32.697238 38.720753 0.727789 2.576310 0.065773 -0.008189 -186624.000000 0 0 1
-15.526173 -13.314812 -31.232498 37.333835 0.708874 2.561795 0.072800 -0.003685 -552565.000000 0 0 1
-15.824073 -14.356312 -30.313898 37.086890 0.736804 2.527636 0.059130 -0.005535 -155084.000000 0 0 1
-16.239873 -13.858712 -29.082378 36.077446 0.706451 2.508345 0.052134 -0.006787 -358598.000000 0 0 1
-16.501773 -15.029812 -28.090338 35.878557 0.738750 2.470155 0.058391 -0.002863 -415119.000000 0 0 1
-15.401573 -15.694112 -27.573408 35.267640 0.794806 2.468397 0.074361 -0.020832 -619276.000000 0 0 1
-14.645173 -16.535912 -28.437098 36.008138 0.845961 2.481183 0.075864 -0.019037 -391651.000000 0 0 1
-13.434073 -17.112612 -27.698718 35.221226 0.905245 2.475790 0.103134 -0.022135 176338.000000 0 0 1
-12.305173 -16.233812 -27.824308 34.483997 0.922197 2.509641 0.079474 -0.023922 216681.000000 0 0 1
-11.173073 -16.730712 -27.145198 33.787809 0.981997 2.503783 0.092718 -0.028593 495964.000000 0 0 1
-9.821373 -16.022812 -27.407348 33.231801 1.020901 2.540525 0.085822 -0.039893 465314.000000 0 0 1
-9.768473 -14.669312 -26.949438 32.200683 0.983316 2.562430 0.083052 -0.032544 1778750.000000 0 0 1
-8.362973 -14.224012 -27.007978 31.649529 1.039286 2.593165 0.103692 -0.039341 2015490.000000 0 0 1
-8.199473 -12.696912 -27.179488 31.099317 0.997390 2.634083 0.098336 -0.046293 -54289.600000 0 0 1
-8.196473 -12.300412 -28.543138 32.143320 0.983008 2.663765 0.109431 -0.044970 207268.000000 0 0 1
-7.736273 -10.999612 -28.739788 31.730377 0.957844 2.703942 0.089608 -0.041414 -227738.000000 0 0 1
-6.678173 -10.741612 -29.810178 32.382510 1.014566 2.740319 0.086158 -0.031209 -1494140.000000 0 0 1
-5.348073 -10.960312 -29.473708 31.897175 1.116836 2.749267 0.099458 -0.030606 -137271.000000 0 0 1
-4.432073 -10.772712 -30.552778 32.698117 1.180487 2.777338 0.084358 -0.028683 200185.000000 0 0 1
-4.343173 -9.287812 -31.129078 32.774168 1.133386 2.823409 0.074072 -0.019290 -957933.000000 0 0 1
-3.149273 -8.952612 -31.800178 33.186119 1.232544 2.851570 0.066865 -0.028351 80224.800000 0 0 1
-3.275473 -7.609412 -32.327298 33.371936 1.164318 2.890724 0.056171 -0.026342 793633.000000 0 0 1
-1.902973 -6.926912 -32.710238 33.489746 1.302689 2.925413 0.069221 -0.028199 837299.000000 0 0 1
-1.303473 -7.475212 -33.864648 34.704355 1.398159 2.921165 0.072836 -0.035975 33053.800000 0 0 1
-0.355373 -6.603412 33.576535 34.221559 1.517032 0.194463 0.071523 -0.032942 93163.300000 0 0 1
0.283527 -7.167012 32.293678 33.080630 -1.531257 0.218558 0.051320 -0.031571 -403041.000000 0 0 1
-0.487473 -7.037712 31.133168 31.922425 1.501641 0.222831 0.045015 -0.024937 -79744.700000 0 0 1
0.097527 -7.799012 30.054488 31.050062 -1.558292 0.253915 0.037140 -0.028963 136772.000000 0 0 1
-0.130373 -7.071812 28.749428 29.606708 1.552363 0.241232 0.038935 -0.030726 107723.000000 0 0 1
0.739827 -5.958312 28.626418 29.249285 -1.447261 0.206742 0.034726 -0.030573 142728.000000 0 0 1
0.706727 -5.515312 27.240998 27.802700 -1.443352 0.201353 0.039067 -0.026326 593483.000000 0 0 1
-0.508373 -4.574112 26.793068 27.185464 1.460109 0.170111 0.048166 -0.017870 781365.000000 0 0 1
-1.714373 -5.284712 26.764138 27.334710 1.257105 0.204678 0.055729 -0.022139 -1270990.000000 0 0 1
-2.779973 -4.389412 26.650798 27.152537 1.006225 0.192539 0.061572 -0.021828 -163008.000000 0 0 1
-4.108373 -5.037912 27.100548 27.869320 0.886681 0.235426 0.067639 -0.018156 -42090.600000 0 0 1
-4.678173 -6.020112 26.278988 27.362607 0.910181 0.282370 0.073719 -0.018633 -29931.100000 0 0 1
-6.025573 -6.264912 26.652388 28.034023 0.804869 0.315260 0.061021 -0.021574 530095.000000 0 0 1
-6.360173 -7.753212 26.641148 28.466030 0.883783 0.360012 0.080146 -0.022889 104479.000000 0 0 1
-5.685873 -8.457212 27.648658 29.466963 0.978897 0.353134 0.071444 -0.025923 -122337.000000 0 0 1
-6.018973 -9.836312 27.615958 29.926948 1.021663 0.395565 0.067679 -0.031157 171465.000000 0 0 1
-5.433373 -10.477712 28.875748 31.194756 1.092407 0.388019 0.067513 -0.032309 47386.900000 0 0 1
-5.524873 -11.891412 28.723298 31.574638 1.135859 0.428247 0.072036 -0.033644 38644.400000 0 0 1
-5.002373 -12.562612 29.840548 32.761277 1.191847 0.425462 0.072789 -0.033467 -176207.000000 0 0 1
-5.045073 -14.125712 29.786268 33.349817 1.227761 0.466503 0.082113 -0.039156 176262.000000 0 0 1
-6.361773 -14.655612 29.721908 33.743902 1.161256 0.493230 0.092421 -0.038342 87573.000000 0 0 1
-6.395973 -16.054812 29.755288 34.409921 1.191684 0.526184 0.086954 -0.035597 158660.000000 0 0 1
-6.289273 -16.640912 31.168168 35.887736 1.209450 0.518647 0.093444 -0.029929 -842109.000000 0 0 1
-7.567073 -16.615012 31.683178 36.566966 1.143431 0.522764 0.088325 -0.034973 -993782.000000 0 0 1
-7.708773 -16.782712 33.065036 37.873225 1.140212 0.509384 0.096077 -0.029318 -207857.000000 0 0 1
-9.183873 -16.865312 33.519407 38.630725 1.072153 0.520264 0.103212 -0.020687 627164.000000 0 0 1
-9.901173 -18.097612 33.242956 39.123534 1.070184 0.555395 0.101457 -0.013722 536895.000000 0 0 1
-10.384273 -18.218112 31.886228 38.163651 1.052730 0.581731 0.106515 -0.022086 -375689.000000 0 0 1
-11.021673 -19.578812 31.628918 38.796851 1.058074 0.617645 0.124494 -0.017159 157101.000000 0 0 1
-12.311973 -19.824312 32.179319 39.750429 1.015039 0.627439 0.120887 -0.013623 468231.000000 0 0 1
-12.713173 -21.177212 32.147691 40.541006 1.030139 0.655132 0.106164 -0.010151 23614.600000 0 0 1
-12.141873 -21.989212 33.366712 41.764674 1.066285 0.645296 0.101607 -0.003363 603775.000000 0 0 1
-10.732373 -22.222712 33.213204 41.378131 1.120885 0.639029 0.086010 -0.008706 603659.000000 0 0 1
-10.119973 -23.052812 -33.850838 42.186790 1.157135 2.502109 0.069545 -0.005774 292612.000000 0 0 1
-10.464073 -24.581612 -33.992448 43.234697 1.168344 2.475482 0.083625 -0.006195 -279998.000000 0 0 1
-9.967373 -25.261442 32.939308 42.690596 1.194981 0.689472 0.077087 -0.008388 -209097.000000 0 0 1
-10.116073 -26.654272 33.147788 43.721402 1.208061 0.710311 0.075482 -0.006939 -661672.000000 0 0 1
-9.402873 -27.514032 32.031486 43.260283 1.241492 0.737077 0.060930 -0.007328 1245480.000000 0 0 1
-7.971273 -27.442352 32.106370 42.981890 1.288102 0.727297 0.083616 -0.015685 923661.000000 0 0 1
-7.244873 -27.987752 33.219889 44.038205 1.317498 0.716144 0.076504 -0.013166 321226.000000 0 0 1
-5.699173 -27.747132 33.153406 43.606562 1.368217 0.707045 0.090970 -0.023565 708759.000000 0 0 1
-5.236273 -26.583232 33.749495 43.279501 1.376310 0.676445 0.089310 -0.014991 61971.700000 0 0 1
-5.144273 -25.463762 32.830911 41.865684 1.371456 0.669397 0.087789 -0.012145 -79028.400000 0 0 1
-4.892873 -24.139412 33.539393 41.611805 1.370813 0.633422 0.094188 -0.022445 -489138.000000 0 0 1
-3.651773 -24.086512 -33.879708 41.729248 1.420332 2.518185 0.079536 -0.025450 -523612.000000 0 0 1
-3.325173 -22.785112 -33.423408 40.587465 1.425883 2.538333 0.070145 -0.026881 49748.000000 0 0 1
34.831369 -15.507112 2.583882 38.214804 -0.418860 1.503130 0.127156 -0.044966 -147271.000000 0 0 1
35.503429 -16.633912 3.072682 39.327114 -0.438144 1.492585 0.128618 -0.043420 22806.000000 0 0 1
35.432579 -16.609312 4.488682 39.388897 -0.438343 1.456590 0.119284 -0.046599 162643.000000 0 0 1
36.718569 -16.341612 5.319282 40.541292 -0.418730 1.439210 0.103752 -0.019406 -28905.700000 0 0 1
-36.268563 -17.336012 5.350482 40.553343 0.445885 1.438474 0.101380 -0.018760 -267944.000000 0 0 1
-35.685234 -17.370512 6.651382 40.241912 0.453008 1.404749 0.099329 -0.013123 332571.000000 0 0 1
-34.430719 -18.297012 6.656282 39.554534 0.488463 1.401711 0.062764 -0.025260 -63046.100000 0 0 1
-34.688324 -19.680012 6.596082 40.423891 0.516057 1.406891 0.085955 -0.028472 -194907.000000 0 0 1
-33.602663 -20.328912 7.183582 39.925023 0.544073 1.389884 0.075218 -0.019659 -191451.000000 0 0 1
-33.915383 -21.845012 7.320282 41.000540 0.572219 1.391293 0.065906 -0.015989 -125353.000000 0 0 1
-33.691683 -22.590112 6.108782 41.021456 0.590648 1.421324 0.081467 -0.015591 82702.200000 0 0 1
-34.088093 -23.922612 6.267182 42.113739 0.611925 1.421426 0.099235 -0.021110 -225153.000000 0 0 1
-33.789373 -24.839512 5.075982 42.243208 0.633915 1.450344 0.093371 -0.017773 -78897.300000 0 0 1
-34.410319 -24.548412 3.836882 42.443094 0.619664 1.480272 0.092716 -0.018211 3994.710000 0 0 1
-33.644233 -25.114122 2.832682 42.079420 0.641233 1.503428 0.076889 -0.011014 -354794.000000 0 0 1
-34.243318 -24.831312 1.453882 42.323901 0.627402 1.536438 0.083046 -0.013882 -265202.000000 0 0 1
-35.307755 -25.719632 1.126182 43.696742 0.629560 1.545021 0.078165 -0.011487 346376.000000 0 0 1
-35.875116 -25.468512 -0.164618 43.996547 0.617354 1.574538 0.060267 -0.011213 70488.800000 0 0 1
-36.812803 -24.251912 -0.242418 44.083970 0.582530 1.576295 0.072091 -0.020723 -2416710.000000 0 0 1
35.885839 -24.437212 0.178782 43.416618 -0.597840 1.566678 0.062958 -0.010509 -1718540.000000 0 0 1
35.286619 -23.178612 0.308682 42.219532 -0.581187 1.563485 0.085176 -0.021441 8566.660000 0 0 1
33.745019 -23.156012 0.333782 40.927236 -0.601408 1.562641 0.058838 -0.005107 247263.000000 0 0 1
33.056899 -23.306812 -0.890418 40.456877 -0.614108 1.592807 0.043324 -0.010995 -340251.000000 0 0 1
31.704229 -22.954312 -0.824418 39.150201 -0.626662 1.591856 0.033216 -0.003353 -276649.000000 0 0 1
31.114769 -22.992812 -2.216818 38.751936 -0.636403 1.628033 0.037495 -0.005376 -236598.000000 0 0 1
31.497349 -21.868312 -2.982518 38.460389 -0.606884 1.648422 0.060849 -0.015422 76141.800000 0 0 1
30.812879 -21.769912 -4.201718 37.960730 -0.615088 1.681710 0.060768 -0.030954 -4851.280000 0 0 1
30.919669 -20.323512 -4.777518 37.308119 -0.581490 1.699205 0.053137 -0.030201 825897.000000 0 0 1
30.043049 -19.491112 -3.944818 36.028459 -0.575512 1.680508 0.062640 -0.033970 649901.000000 0 0 1
30.072389 -18.114912 -4.297318 35.368992 -0.542165 1.692597 0.058921 -0.028784 -352087.000000 0 0 1
29.219309 -17.286412 -3.326218 34.112341 -0.534227 1.668459 0.076066 -0.023582 -358922.000000 0 0 1
29.688419 -16.923512 -2.029218 34.233393 -0.518097 1.630107 0.078958 -0.024451 -252984.000000 0 0 1
30.249659 -17.904712 -1.235018 35.173084 -0.534441 1.605916 0.072715 -0.018922 -458177.000000 0 0 1
29.422479 -19.142612 -0.837818 35.111591 -0.576805 1.594660 0.059755 -0.022160 -160642.000000 0 0 1
28.367079 -18.947212 0.070082 34.112944 -0.588876 1.568742 0.054667 -0.000972 -247216.000000 0 0 1
27.668279 -20.096112 0.307882 34.197693 -0.628175 1.561793 0.046961 -0.000126 -176615.000000 0 0 1
26.670379 -19.955912 1.494882 33.343399 -0.642375 1.525948 0.054338 0.004769 -371831.000000 0 0 1
26.029679 -21.130712 1.974782 33.584981 -0.681891 1.511963 0.041762 0.010709 1051730.000000 0 0 1
24.937579 -20.936212 2.934482 32.692798 -0.698393 1.480916 0.051286 0.003218 1844070.000000 0 0 1
23.585579 -20.415712 2.321982 31.280544 -0.713482 1.496497 0.045131 -0.003895 -52915.300000 0 0 1
23.422179 -19.074412 1.985682 30.271680 -0.683444 1.505154 0.081955 -0.018575 87166.600000 0 0 1
23.478779 -18.114412 3.047982 29.810656 -0.657134 1.468373 0.110702 -0.028171 -271380.000000 0 0 1
23.257379 -16.640512 2.557282 28.711531 -0.621049 1.481610 0.099143 -0.021487 115360.000000 0 0 1
21.961279 -16.452612 2.034182 27.515889 -0.642966 1.496801 0.096382 -0.026066 -194523.000000 0 0 1
21.808179 -15.149812 1.507582 26.596735 -0.607150 1.514083 0.117806 -0.041629 -66386.100000 0 0 1
20.423979 -14.896112 0.903682 25.295251 -0.630150 1.535063 0.091974 -0.026184 194421.000000 0 0 1
19.297379 -14.881912 1.801082 24.435713 -0.656924 1.497022 0.074487 -0.025710 855448.000000 0 1 0
18.328879 -13.889112 1.577882 23.050921 -0.648457 1.502291 0.077764 -0.025638 -48454.400000 0 1 0
18.806279 -12.534712 2.176482 22.705335 -0.587899 1.474791 0.107797 -0.028762 103229.000000 0 1 0
19.840379 -11.845012 1.463882 23.153572 -0.538222 1.507529 0.113876 -0.028749 706051.000000 0 1 0
20.211179 -10.629612 2.045882 22.927408 -0.484174 1.481444 0.105623 -0.025681 -153040.000000 0 1 0
21.268279 -9.796312 1.284282 23.451158 -0.431639 1.516005 0.121620 -0.024179 -239436.000000 0 1 0
20.847379 -9.309612 0.008982 22.831605 -0.419990 1.570403 0.128722 -0.017727 276331.000000 0 1 0
21.768679 -8.532212 -0.732618 23.392537 -0.373547 1.602120 0.126779 -0.009482 -507591.000000 0 1 0
21.151279 -7.908112 -2.020018 22.671465 -0.357791 1.660014 0.151587 -0.012132 -129756.000000 0 1 0
22.042379 -7.453512 -3.030218 23.464943 -0.326074 1.700296 0.130661 -0.015268 186678.000000 0 1 0
22.989679 -8.403512 -3.495618 24.725770 -0.350446 1.712647 0.115688 -0.014361 -553675.000000 0 1 0
22.560779 -9.546412 -4.474218 24.902638 -0.400296 1.751446 0.102447 -0.016802 -416470.000000 0 1 0
21.986779 -9.198512 -5.720618 24.510336 -0.396238 1.806365 0.113685 -0.024918 -1002430.000000 0 1 0
20.626979 -9.033112 -5.643618 23.214647 -0.412769 1.816363 0.109373 -0.012475 -1100850.000000 0 1 0
19.857579 -8.955912 -7.035318 22.891647 -0.423691 1.883184 0.108956 -0.016480 114119.000000 0 1 0
19.743679 -10.220112 -7.677318 23.520306 -0.477660 1.903302 0.101935 -0.010016 410120.000000 0 1 0
20.909279 -10.602712 -8.384318 24.898037 -0.469297 1.914255 0.100806 -0.003562 -123657.000000 0 1 0
20.831479 -11.954912 -9.110018 25.687796 -0.520997 1.933329 0.087507 -0.010621 447700.000000 0 0 1
19.764879 -12.074812 -10.087018 25.262610 -0.548412 1.981535 0.107845 -0.024902 782095.000000 0 0 1
19.722479 -13.314612 -10.673818 26.080366 -0.593817 1.992446 0.104530 -0.018773 -180854.000000 0 0 1
18.456079 -13.732012 -11.458518 25.700052 -0.639674 2.032926 0.122972 -0.020165 -10360.100000 0 0 1
18.334179 -15.123212 -11.763218 26.518427 -0.689719 2.030393 0.115824 -0.029907 -540381.000000 0 0 1
17.218579 -15.271412 -12.551118 26.214997 -0.725538 2.070057 0.122839 -0.029967 -930486.000000 0 0 1
16.975979 -16.661212 -13.107818 27.158696 -0.776041 2.074461 0.110857 -0.031221 -345735.000000 0 0 1
16.483779 -17.461212 -12.067618 26.874455 -0.814185 2.036483 0.101154 -0.033542 213466.000000 0 0 1
16.492079 -18.855912 -12.437018 27.968080 -0.852172 2.031620 0.099604 -0.031047 -129315.000000 0 0 1
15.473279 -19.749212 -11.667718 27.669286 -0.906205 2.006099 0.088778 -0.023272 -688094.000000 0 0 1
14.179579 -19.513212 -12.075418 26.974833 -0.942397 2.034937 0.072527 -0.019676 -1370880.000000 0 0 1
13.244079 -20.121512 -11.246818 26.585180 -0.988675 2.007603 0.061942 -0.006575 696078.000000 0 0 1
11.766679 -20.092512 -11.783318 26.096175 -1.041014 2.039280 0.056105 -0.020822 864199.000000 0 0 1
10.857479 -20.869412 -11.035018 25.984396 -1.091074 2.009403 0.059193 -0.020839 6699.310000 0 0 1
9.578879 -20.894912 -11.658418 25.773455 -1.140953 2.040186 0.038653 -0.014775 429032.000000 0 0 1
8.498179 -21.563112 -10.768218 25.556631 -1.195380 2.005727 0.025410 -0.010351 -102581.000000 0 0 1
8.613879 -22.921312 -10.492318 26.639711 -1.211323 1.975624 0.049304 -0.015085 29643.800000 0 0 1
7.720779 -23.233112 -9.420018 26.232130 -1.249960 1.938102 0.047487 -0.030599 272126.000000 0 0 1
7.699379 -24.745312 -9.324918 27.542059 -1.269146 1.916193 0.058976 -0.025213 537103.000000 0 0 1
8.985679 -25.299332 -9.079718 28.341488 -1.229519 1.896915 0.059761 -0.017702 -148916.000000 0 0 1
9.102179 -26.626062 -9.612218 29.735359 -1.241398 1.899968 0.048921 -0.014206 856135.000000 0 0 1
10.529379 -27.234612 -9.382618 30.669618 -1.201879 1.881707 0.048415 -0.007767 822958.000000 0 0 1
10.938179 -27.275212 -8.047618 30.468756 -1.189402 1.838095 0.056092 -0.016513 1561710.000000 0 0 1
12.386879 -27.493872 -7.938418 31.182788 -1.147500 1.828207 0.076724 -0.010360 1688220.000000 0 0 1
12.850779 -27.855812 -6.486218 31.355379 -1.138559 1.779162 0.067803 -0.018057 101548.000000 0 0 1
12.348179 -29.062632 -5.860718 32.116384 -1.169026 1.754308 0.077558 -0.023776 -673890.000000 0 0 1
10.968879 -29.077692 -5.695918 31.595442 -1.210075 1.752064 0.074716 -0.024097 -1110350.000000 0 0 1
10.508779 -30.162392 -4.798818 32.299117 -1.235542 1.719923 0.077169 -0.025480 -168451.000000 0 0 1
10.653079 -31.557462 -5.193418 33.709540 -1.245231 1.725476 0.095448 -0.029367 -107340.000000 0 0 1
9.623879 -31.915462 -6.091318 33.886870 -1.277925 1.751533 0.108603 -0.035857 159452.000000 0 0 1
9.643279 -33.439922 -6.414618 35.388820 -1.290037 1.753065 0.109673 -0.030981 128840.000000 0 0 1
9.383079 33.878220 -5.264318 35.545591 1.300604 1.719444 0.097971 -0.031097 -92931.300000 0 0 1
9.847579 32.545813 -5.379118 34.425858 1.276978 1.727691 0.099996 -0.025299 57649.400000 0 0 1
9.365579 31.616886 -4.236718 33.245923 1.282810 1.698580 0.084852 -0.021138 1204010.000000 0 0 1
7.945179 31.374406 -4.320418 32.651880 1.322773 1.703503 0.083890 -0.021409 477649.000000 0 0 1
7.513479 30.456756 -3.355218 31.548754 1.328932 1.677348 0.064091 -0.019415 -219189.000000 0 0 1
6.114179 29.979246 -3.742418 30.824408 1.369608 1.692507 0.061687 -0.023033 -288508.000000 0 0 1
6.067579 29.202706 -4.957618 30.235601 1.365937 1.735506 0.060055 -0.018196 93741.400000 0 0 1
5.493679 29.937996 -6.033918 31.030184 1.389313 1.766496 0.072267 -0.022896 29767.500000 0 0 1
5.741979 29.253536 -7.389918 30.714013 1.376977 1.813785 0.088686 -0.029866 262038.000000 0 0 1
4.884779 28.133126 -7.686418 29.570507 1.398879 1.833752 0.088558 -0.026100 443544.000000 0 0 1
5.229279 26.956416 -6.914918 28.316247 1.379186 1.817494 0.076265 -0.024868 -133154.000000 0 0 1
4.325179 25.757896 -7.226118 27.099690 1.404432 1.840711 0.072751 -0.027880 1173630.000000 0 0 1
2.917179 25.714966 -6.898118 26.783455 1.457836 1.831284 0.072679 -0.030548 1126490.000000 0 0 1
2.025779 26.353816 -7.811718 27.561755 1.494079 1.858161 0.071236 -0.030195 350371.000000 0 0 1
1.618979 25.598006 -9.117918 27.221599 1.507634 1.912350 0.066229 -0.022618 -257753.000000 0 0 1
2.647079 25.583826 -10.068018 27.620720 1.467696 1.943902 0.055487 -0.025143 6319.300000 0 0 1
2.185479 24.926156 -11.271318 27.443254 1.483342 1.994033 0.071838 -0.027173 -276450.000000 0 0 1
1.994379 23.349046 -11.296518 26.014743 1.485587 2.019985 0.070805 -0.016427 -180826.000000 0 0 1
0.961579 22.980906 -10.412718 25.248196 1.528978 1.995899 0.080565 -0.014673 -192699.000000 0 0 1
0.953779 21.576106 -10.156718 23.866231 1.526620 2.010386 0.039294 -0.005195 -924773.000000 0 1 0
-0.183421 21.051106 -9.321218 23.023202 -1.562083 1.987624 0.048723 -0.006639 -497632.000000 0 1 0
-1.422121 20.939706 -9.979418 23.239676 -1.502985 2.014639 0.052774 -0.008582 -531199.000000 0 1 0
-2.441721 20.477306 -9.143318 22.558421 -1.452116 1.988122 0.045723 -0.007552 895773.000000 0 1 0
-3.789021 20.195806 -9.932218 22.822713 -1.385338 2.021046 0.035944 -0.014894 1573570.000000 0 1 0
-4.814221 19.508106 -9.180918 22.091451 -1.328850 1.999384 0.042955 -0.023516 870975.000000 0 1 0
-5.877521 19.083606 -10.048618 22.354060 -1.272027 2.037025 0.050557 -0.025676 485636.000000 0 1 0
-6.890021 18.142506 -9.276018 21.509706 -1.207848 2.016672 0.053734 -0.031497 -102956.000000 0 1 0
-7.994621 18.750406 -8.664618 22.148754 -1.167765 1.972733 0.077360 -0.020415 -483880.000000 0 1 0
-9.134421 18.414406 -9.437918 22.618627 -1.110316 2.001228 0.083216 -0.036150 361878.000000 0 1 0
-10.441621 18.583606 -8.582218 22.978954 -1.058884 1.953556 0.101190 -0.042024 587596.000000 0 1 0
-10.443221 17.666706 -7.495518 21.848482 -1.036929 1.920978 0.071418 -0.035038 70550.500000 0 1 0
-11.576421 18.035906 -6.710818 22.457571 -1.000169 1.874254 0.091260 -0.024083 356202.000000 0 1 0
-11.948121 16.954106 -5.665018 21.500971 -0.956901 1.837421 0.064848 -0.026021 427635.000000 0 1 0
-13.138221 17.341106 -4.976918 22.318076 -0.922427 1.795687 0.086035 -0.016251 305429.000000 0 1 0
-13.479621 16.346506 -4.074618 21.575703 -0.881224 1.760789 0.077175 -0.015013 142318.000000 0 1 0
-14.705021 16.642906 -3.171918 22.434015 -0.847138 1.712660 0.072238 -0.016326 -161737.000000 0 1 0
-15.946521 16.581506 -3.814418 23.319255 -0.804917 1.735108 0.109987 -0.026712 -576499.000000 0 1 0
-16.933921 17.108306 -2.979718 24.255526 -0.790521 1.693954 0.112973 -0.019294 -99768.100000 0 1 0
-18.314321 17.190106 -3.692818 25.388009 -0.753745 1.716769 0.107235 -0.026823 78868.600000 0 0 1
-18.425721 18.179506 -4.766918 26.319672 -0.778672 1.752918 0.113018 -0.026960 -1257410.000000 0 0 1
-19.718821 18.490206 -5.067518 27.502716 -0.753254 1.756110 0.073974 -0.024460 -1201650.000000 0 0 1
-19.785421 19.452806 -6.279018 28.448209 -0.776922 1.793346 0.073717 -0.011502 -12048.800000 0 0 1
-19.419121 20.806706 -5.999818 29.086407 -0.819879 1.778564 0.076111 -0.027164 49470.600000 0 0 1
-19.734221 21.596706 -7.080618 30.099707 -0.830430 1.808261 0.073185 -0.012064 -232435.000000 0 0 1
-19.749221 23.104336 -6.929418 31.174652 -0.863531 1.794946 0.067394 -0.014195 195627.000000 0 0 1
-18.455721 23.665466 -6.736318 30.757859 -0.908458 1.791597 0.084256 -0.011531 370574.000000 0 0 1
-18.173821 23.831866 -5.360518 30.446359 -0.919289 1.747783 0.065755 -0.018046 -687953.000000 0 0 1
-16.710321 24.226616 -5.201518 29.886779 -0.966982 1.745728 0.067798 -0.015475 -954396.000000 0 0 1
-16.412821 24.777976 -3.923218 29.978666 -0.985757 1.702040 0.053233 -0.021283 983677.000000 0 0 1
-15.068821 25.287166 -3.771818 29.677209 -1.033391 1.698236 0.069126 -0.019501 960167.000000 0 0 1
-14.720621 26.562896 -4.636118 30.720966 -1.064750 1.722286 0.072761 -0.015416 -492799.000000 0 0 1
-15.353421 27.727496 -4.171818 31.967885 -1.065097 1.701670 0.084257 -0.019087 -183665.000000 0 0 1
-14.865221 28.875396 -4.784818 32.827699 -1.095374 1.717073 0.067453 -0.014490 -403187.000000 0 0 1
-15.568421 30.186666 -4.418518 34.251042 -1.094637 1.700161 0.070974 -0.012588 -547213.000000 0 0 1
-16.822821 30.273596 -5.020118 34.995707 -1.063593 1.714742 0.087295 -0.021551 -810005.000000 0 0 1
-17.429521 31.509046 -4.851918 36.333859 -1.065531 1.704734 0.096324 -0.018478 -359565.000000 0 0 1
12.867127 -8.520612 18.753338 24.286858 -0.584904 0.688563 0.070909 -0.005220 80521.100000 0 1 0
12.640827 -9.911812 18.886438 24.793791 -0.664977 0.704801 0.053755 -0.007462 -316405.000000 0 1 0
13.288727 -10.603512 17.884438 24.675451 -0.673479 0.760072 0.064735 -0.014880 -505071.000000 0 1 0
13.837627 -11.903012 18.385238 25.907115 -0.710381 0.781781 0.105141 -0.028178 -506240.000000 0 0 1
14.972827 -11.749912 19.222838 27.051128 -0.665372 0.780430 0.091383 -0.020569 357598.000000 0 0 1
15.443227 -12.934712 19.863838 28.290849 -0.697231 0.792413 0.101044 -0.022507 -377818.000000 0 0 1
16.219927 -13.902612 19.000238 28.589818 -0.708620 0.843864 0.101197 -0.026483 -966045.000000 0 0 1
15.545927 -14.544512 17.919438 27.826695 -0.752130 0.871126 0.107722 -0.032399 248921.000000 0 0 1
16.165927 -15.735312 17.456738 28.524988 -0.771901 0.912234 0.119923 -0.034230 -349215.000000 0 0 1
15.313727 -16.245912 16.279038 27.630545 -0.814927 0.940767 0.115488 -0.040891 117829.000000 0 0 1
13.952627 -16.474612 16.636838 27.255697 -0.868095 0.914233 0.152792 -0.044029 515721.000000 0 0 1
13.087627 -16.236812 15.531438 26.002800 -0.892379 0.930668 0.152878 -0.042881 -188088.000000 0 0 1
12.791327 -17.540912 14.675038 26.204168 -0.940722 0.976378 0.118432 -0.032321 -674128.000000 0 0 1
13.858627 -18.172712 14.031438 26.817723 -0.919276 1.020177 0.119105 -0.034969 34251.500000 0 0 1
13.348227 -19.322312 13.380638 27.029029 -0.966258 1.052907 0.105499 -0.033933 241835.000000 0 0 1
14.490327 -20.144812 12.716638 27.883614 -0.947229 1.097232 0.110922 -0.033109 62427.700000 0 0 1
15.336627 -20.740012 13.680338 29.197806 -0.934068 1.083159 0.111277 -0.026204 -51879.000000 0 0 1
15.553927 -22.066312 13.313738 30.101535 -0.956808 1.112641 0.083943 -0.031302 -570061.000000 0 0 1
16.363327 -22.846712 14.326038 31.543083 -0.949266 1.099352 0.082836 -0.033072 -946213.000000 0 0 1
17.683627 -22.443612 14.367838 31.982201 -0.903469 1.104876 0.042029 -0.025704 -627622.000000 0 0 1
18.425127 -22.955712 15.469838 33.253059 -0.894449 1.086918 0.037644 -0.025828 -249089.000000 0 0 1
19.833027 -22.431712 15.739538 33.826968 -0.846807 1.086828 0.017054 -0.018208 145166.000000 0 0 1
20.808827 -23.115012 14.928038 34.498658 -0.837854 1.123296 0.020411 -0.019047 82018.200000 0 0 1
22.014027 -22.358012 14.940738 34.752320 -0.793150 1.126391 0.020810 -0.011522 -176486.000000 0 0 1
23.157827 -23.220012 14.412738 35.821515 -0.786739 1.156715 0.015443 -0.015036 -479022.000000 0 0 1
23.645227 -24.218212 15.358138 37.168414 -0.797369 1.144827 0.022041 -0.014657 239159.000000 0 0 1
24.644627 -25.006212 14.753838 38.083383 -0.792681 1.172977 0.028749 -0.023569 -169133.000000 0 0 1
24.978827 -26.171082 15.654838 39.420062 -0.808703 1.162410 0.038106 -0.024938 -295516.000000 0 0 1
25.579527 -25.747172 16.844638 40.012135 -0.788664 1.136262 0.054573 -0.023361 74647.700000 0 0 1
26.129227 -26.869542 17.494438 41.361385 -0.799366 1.134081 0.069349 -0.009403 -42.113600 0 0 1
26.527327 -26.653072 18.959238 42.113395 -0.787763 1.103813 0.065589 -0.006257 748908.000000 0 0 1
25.388027 -26.425182 19.821738 41.662255 -0.805413 1.074955 0.070240 0.001024 1081170.000000 0 0 1
25.827227 -26.003472 21.120838 42.300308 -0.788799 1.047998 0.073408 0.001186 618712.000000 0 0 1
24.531027 -25.850782 21.963238 41.861893 -0.811587 1.018481 0.066753 -0.008220 353161.000000 0 0 1
23.852327 -27.027752 22.270838 42.372434 -0.847727 1.017379 0.069768 -0.002178 -874803.000000 0 0 1
22.675927 -26.685612 22.911138 41.847817 -0.866451 0.991438 0.061586 -0.002344 -702061.000000 0 0 1
21.769227 -27.939532 23.147418 42.312169 -0.908896 0.991945 0.058343 0.000205 -109864.000000 0 0 1
22.356927 -28.987842 23.965408 43.754634 -0.913832 0.991156 0.060119 -0.006079 513176.000000 0 0 1
22.540027 -30.207432 23.283178 44.301785 -0.929748 1.017425 0.076633 -0.011119 483480.000000 0 0 1
23.728127 -31.091792 23.859308 45.814737 -0.918924 1.023034 0.060652 -0.005207 758615.000000 0 0 1
23.533227 -31.483962 25.216508 46.700374 -0.928918 1.000402 0.047700 -0.006603 376081.000000 0 0 1
24.797527 -31.901632 25.679728 47.875672 -0.910043 1.004650 0.039851 -0.005346 -447746.000000 0 0 1
24.693927 -32.165802 27.236268 48.849188 -0.916058 0.979355 0.034301 -0.013403 179300.000000 0 0 1
24.124427 -33.416882 27.553028 49.576661 -0.945508 0.981512 0.029399 -0.009159 852996.000000 0 0 1
22.744827 -33.582792 27.190968 48.831136 -0.975485 0.980224 0.034655 -0.010433 -34423.600000 0 0 1
22.178627 33.182449 27.624478 48.539451 0.981606 0.965368 0.070429 -0.029629 -187127.000000 0 0 1
21.944927 33.125108 29.026078 49.207376 0.985693 0.939895 0.067840 -0.035193 104273.000000 0 0 1
21.295727 31.885086 29.310458 48.262508 0.981947 0.918122 0.072287 -0.045561 -19455.300000 0 0 1
20.838927 31.856446 30.822238 48.980654 0.991509 0.890178 0.061395 -0.044565 -266715.000000 0 0 1
21.932427 32.125406 31.666718 50.158291 0.971767 0.887522 0.052081 -0.039832 -186815.000000 0 0 1
21.594227 32.343101 33.008525 51.009309 0.982106 0.867011 0.051459 -0.039943 167464.000000 0 0 1
22.840127 32.405296 33.957196 52.200247 0.956838 0.862530 0.034968 -0.029994 160739.000000 0 0 1
23.344827 31.164466 -33.806978 51.566624 0.927881 2.285771 0.041821 -0.027253 -182895.000000 0 0 1
24.586627 31.236916 -33.147978 51.759402 0.903970 2.265847 0.031907 -0.024794 -166367.000000 0 0 1
25.238527 29.900096 -32.787848 51.049408 0.869740 2.268261 0.034739 -0.018873 -96405.200000 0 0 1
25.652827 29.156056 -33.940748 51.576328 0.849229 2.289047 0.039308 -0.015314 1356040.000000 0 0 1
24.598627 28.175646 33.775986 50.396198 0.853074 0.836306 0.052966 -0.022308 988204.000000 0 0 1
24.811127 27.378976 32.453574 49.177585 0.834560 0.850076 0.079129 -0.021959 144134.000000 0 0 1
26.090627 26.765636 32.485270 49.521843 0.798168 0.855318 0.071915 -0.022807 675365.000000 0 0 1
26.114327 25.819426 31.402208 48.318729 0.779720 0.863347 0.090598 -0.027191 305427.000000 0 0 1
27.388727 24.925276 31.572488 48.664503 0.738343 0.864818 0.078197 -0.023628 286595.000000 0 0 1
27.382927 24.057136 32.662349 48.942820 0.720834 0.840142 0.084792 -0.023712 156479.000000 0 0 1
28.022627 24.535936 33.812134 50.304475 0.719156 0.833688 0.084320 -0.033147 -1019720.000000 0 0 1
27.928527 23.604436 -33.031988 49.277625 0.701685 2.305442 0.068765 -0.027669 145793.000000 0 0 1
26.700327 23.645016 -32.316078 48.128195 0.724785 2.306971 0.075130 -0.028747 1254820.000000 0 0 1
25.509627 23.130806 -32.930848 47.646784 0.736531 2.333869 0.069829 -0.023099 85493.800000 0 0 1
25.407127 21.565506 -32.859888 46.801340 0.703796 2.349159 0.055050 -0.014167 -482549.000000 0 0 1
25.134327 21.113506 -31.500188 45.494796 0.698675 2.335594 0.030260 -0.020981 568244.000000 0 0 1
25.066327 19.711806 -31.436198 44.778462 0.666384 2.349052 0.028688 -0.014279 -533453.000000 0 0 1
24.871727 19.151306 -29.994938 43.417412 0.656181 2.333461 0.027399 -0.007254 -1066550.000000 0 0 1
23.775927 19.574506 -29.292068 42.502721 0.688782 2.331154 0.022064 -0.011265 -642607.000000 0 0 1
23.546827 18.664906 -28.229708 41.228003 0.670257 2.325018 0.032335 -0.008486 -482750.000000 0 0 1
22.417427 19.026006 -27.279268 40.108458 0.703748 2.318747 0.047250 -0.016634 -387967.000000 0 0 1
22.509127 18.249706 -26.089938 38.992274 0.681273 2.303801 0.058404 -0.011118 338555.000000 0 0 1
23.229127 19.026106 -25.118878 39.147709 0.686257 2.267436 0.055989 -0.006341 95551.800000 0 0 1
23.479127 18.227106 -23.787318 38.070111 0.660129 2.245709 0.083030 -0.015647 111641.000000 0 0 1
24.450927 17.188806 -23.885318 38.259787 0.612731 2.245023 0.070448 -0.016684 398628.000000 0 0 1
24.278427 16.160906 -22.941818 37.107195 0.587298 2.237321 0.087656 -0.023452 27780.400000 0 0 1
25.351927 15.029106 -23.095918 37.443500 0.535123 2.235493 0.110709 -0.021644 -105296.000000 0 0 1
26.595027 15.439406 -22.606318 38.166954 0.525986 2.204708 0.128413 -0.030988 -436872.000000 0 0 1
27.548727 14.415906 -22.380318 38.309651 0.482104 2.194685 0.124806 -0.036097 -87934.700000 0 0 1
27.346327 13.348706 -21.232818 37.105824 0.454111 2.180011 0.116688 -0.027397 -281833.000000 0 0 1
26.142827 12.606006 -21.357718 36.034857 0.449304 2.205198 0.106744 -0.023693 41441.000000 0 0 1
25.722627 12.025406 -20.141718 34.813112 0.437314 2.187767 0.080275 -0.033425 -59919.000000 0 0 1
24.228927 11.677706 -20.290418 33.691406 0.449123 2.217104 0.089528 -0.029264 -60296.000000 0 0 1
23.355327 12.775606 -20.184118 33.407874 0.500545 2.219523 0.118219 -0.029986 -245208.000000 0 0 1
22.106827 12.511606 -20.790218 32.825071 0.515015 2.256689 0.099828 -0.025681 457975.000000 0 0 1
21.071027 13.670406 -20.651118 32.516717 0.575515 2.258924 0.102754 -0.029299 -369741.000000 0 0 1
21.523627 14.834106 -21.311018 33.726499 0.603442 2.254770 0.097467 -0.025261 216178.000000 0 0 1
20.621227 15.927906 -21.286118 33.645684 0.657686 2.255773 0.086081 -0.027595 496100.000000 0 0 1
19.325427 15.754506 -22.155118 33.354548 0.683954 2.297261 0.068370 -0.009889 666895.000000 0 0 1
18.340727 14.838606 -21.646418 32.017713 0.680236 2.313221 0.053465 -0.010334 858396.000000 0 0 1
17.261527 14.655506 -22.564718 31.967338 0.703929 2.354444 0.058750 -0.018266 265736.000000 0 0 1
15.997927 13.987106 -22.008118 30.592975 0.718438 2.373712 0.032181 -0.008149 -85102.900000 0 0 1
14.899927 14.043806 -22.872418 30.698271 0.755828 2.411439 0.040983 -0.008854 158203.000000 0 0 1
13.670827 13.582606 -22.318618 29.487276 0.782161 2.429337 0.057932 -0.007133 521785.000000 0 0 1
12.412627 13.871206 -23.159918 29.713053 0.840835 2.464588 0.057256 -0.003966 -174590.000000 0 0 1
12.100127 15.262506 -23.163718 30.264088 0.900461 2.442438 0.054470 -0.006319 -114763.000000 0 0 1
11.338127 15.638206 -24.283518 31.028952 0.943470 2.469641 0.064740 -0.024882 -1053870.000000 0 0 1
11.170727 17.154506 -24.411618 31.858897 0.993590 2.443768 0.066202 -0.021422 1524450.000000 0 0 1
12.457927 17.854206 -24.275218 32.607650 0.961576 2.410528 0.048935 -0.019079 2540960.000000 0 0 1
13.605527 17.476406 -25.095568 33.471222 0.909298 2.418504 0.061605 -0.025332 433307.000000 0 0 1
13.376827 17.689906 -26.651468 34.672367 0.923349 2.447549 0.077020 -0.042354 -518211.000000 0 0 1
14.596427 17.540406 -27.318558 35.595297 0.876751 2.445692 0.065997 -0.046028 7249.280000 0 0 1
14.239227 17.303606 -28.642058 36.366714 0.882244 2.477684 0.083296 -0.051214 -20321.000000 0 0 1
15.388327 17.577006 -29.638608 37.738559 0.851694 2.474085 0.064043 -0.038629 72694.100000 0 0 1
16.501527 16.735306 -29.418308 37.653788 0.792432 2.467517 0.038700 -0.033001 -165387.000000 0 0 1
17.218427 16.517106 -30.597178 38.800469 0.764612 2.479289 0.034291 -0.019016 510945.000000 0 0 1
18.537227 15.675106 -30.444058 38.938136 0.701935 2.468435 0.044115 -0.013374 -62464.100000 0 0 1
19.650327 16.299106 -29.904838 39.320422 0.692446 2.434944 0.046557 -0.011924 -598767.000000 0 0 1
20.798627 15.517006 -30.045978 39.700393 0.640974 2.429228 0.053676 -0.008804 51857.800000 0 0 1
21.964827 16.256006 -30.770458 41.152551 0.637130 2.415413 0.055238 -0.013857 -69216.000000 0 0 1
21.758927 16.449206 -32.155008 42.166004 0.647314 2.438091 0.057625 -0.011425 -72747.400000 0 0 1
22.750227 17.272306 -32.674688 43.399777 0.649372 2.423219 0.045816 -0.003476 -542077.000000 0 0 1
22.577927 17.605306 33.859201 44.341348 0.662275 0.701921 0.042593 0.012474 -250384.000000 0 0 1
23.620927 18.423806 33.369752 44.843341 0.662413 0.731549 0.041861 0.012304 332526.000000 0 0 1
23.583927 18.523206 31.983808 43.843754 0.665785 0.753213 0.068301 0.002785 -523012.000000 0 0 1
24.320327 19.781806 31.549678 44.476740 0.682850 0.782217 0.078839 0.000877 690287.000000 0 0 1
25.745427 19.662606 31.670828 45.304376 0.652232 0.796703 0.059322 0.003114 768013.000000 0 0 1
26.423127 20.866506 31.345898 46.001718 0.668433 0.821113 0.071657 -0.011559 616396.000000 0 0 1
27.955127 20.733006 31.110108 46.681747 0.638138 0.841386 0.067328 -0.011870 790005.000000 0 0 1
28.689827 20.270906 32.255184 47.690804 0.615111 0.828014 0.062387 -0.011105 289439.000000 0 0 1
30.093227 20.169506 32.130242 48.422761 0.590468 0.845261 0.059786 -0.004569 361923.000000 0 0 1
30.739827 19.553706 33.422536 49.440372 0.566544 0.828452 0.029467 0.002640 50013.800000 0 0 1
30.801127 20.402506 -33.499758 49.871891 0.585039 2.307319 0.026922 -0.007365 442035.000000 0 0 1
29.633227 20.222606 -32.687938 48.534351 0.598837 2.309731 0.035773 -0.017693 251336.000000 0 0 1
29.908027 20.348806 -31.133528 47.726938 0.597436 2.281446 0.057076 -0.025247 -134122.000000 0 0 1
30.831827 19.345106 -30.797288 47.679216 0.560352 2.273033 0.063317 -0.030988 -132963.000000 0 0 1
31.214127 19.455806 -29.447398 47.116870 0.557377 2.245910 0.049040 -0.032856 -88934.600000 0 0 1
32.581627 18.780606 -29.176458 47.597682 0.522899 2.230624 0.089735 -0.022435 947199.000000 0 0 1
33.662927 19.576106 -29.741118 48.999497 0.526730 2.223036 0.047864 -0.018172 922363.000000 0 0 1
34.847627 19.531206 -28.938698 49.328221 0.510849 2.197720 0.078240 -0.018094 505730.000000 0 0 1
35.956227 20.450306 -29.501338 50.807423 0.517129 2.190323 0.073423 -0.021929 -27877.200000 0 0 1
36.639427 20.001406 -30.659618 51.793012 0.499689 2.204290 0.053125 -0.019486 -94836.000000 0 0 1
-36.331425 20.919806 -30.989488 52.134049 -0.522439 2.207340 0.050069 -0.024969 -30072.500000 0 0 1
-35.272425 20.481306 -32.033738 51.863169 -0.526078 2.236558 0.053710 -0.028110 259224.000000 0 0 1
-34.434925 19.388606 -31.583928 50.588799 -0.512808 2.245065 0.090870 -0.023611 634578.000000 0 0 1
-33.635725 19.071006 -32.715118 50.649227 -0.515791 2.273018 0.093159 -0.015405 227194.000000 0 0 1
-32.745225 17.793206 -32.661388 49.554154 -0.497749 2.290424 0.076337 -0.006918 630758.000000 0 0 1
-33.571325 16.609406 -32.812138 49.795006 -0.459439 2.290211 0.080941 -0.010659 485992.000000 0 0 1
-32.840025 15.439506 -33.039018 49.075679 -0.439478 2.309359 0.063819 -0.008696 -377000.000000 0 0 1
-33.730225 14.209206 -33.040158 49.308028 -0.398699 2.305108 0.064685 -0.004855 102878.000000 0 0 1
-33.005625 12.984306 -33.193478 48.577469 -0.374801 2.323083 0.075736 -0.014601 475186.000000 0 0 1
-33.917725 11.939706 -32.973518 48.787514 -0.338473 2.312927 0.073782 -0.018559 -296286.000000 0 0 1
-33.239225 10.612706 -32.952958 47.993469 -0.309052 2.327617 0.072890 -0.013380 -400972.000000 0 0 1
-32.561325 10.292506 33.908891 48.124718 -0.306158 0.788931 0.060170 -0.018090 -40349.300000 0 0 1
-32.904025 9.014706 33.453523 47.781566 -0.267408 0.795210 0.088001 -0.025169 -340537.000000 0 0 1
-31.965325 8.472506 32.373989 46.277862 -0.259095 0.796019 0.101032 -0.028945 -1868970.000000 0 0 1
-30.795725 8.058606 32.868635 45.756584 -0.255940 0.769388 0.073765 -0.017574 -2196870.000000 0 0 1
-30.067725 7.435306 31.855478 44.431108 -0.242422 0.771360 0.079093 -0.019020 -346278.000000 0 0 1
20.803327 -4.394312 -31.308138 37.845580 -0.208171 2.545010 0.087452 -0.038986 -888750.000000 0 0 1
21.783627 -4.247812 -32.277398 39.171428 -0.192583 2.539238 0.093450 -0.044462 -883393.000000 0 0 1
22.936527 -3.599112 -31.871998 39.431741 -0.155647 2.512026 0.083775 -0.037862 -531825.000000 0 0 1
22.816027 -2.057112 -31.740028 39.143738 -0.089918 2.516414 0.086483 -0.028686 -349467.000000 0 0 1
23.985627 -1.333212 -31.346308 39.492769 -0.055527 2.487701 0.076751 -0.022954 440353.000000 0 0 1
23.957927 0.014388 -31.815278 39.827056 0.000601 2.496154 0.067325 -0.021462 581617.000000 0 0 1
25.105027 0.928788 -31.224348 40.075990 0.036979 2.464071 0.070606 -0.015134 521731.000000 0 0 1
26.336427 0.846488 -31.880478 41.360474 0.032130 2.450886 0.087958 -0.021640 -610526.000000 0 0 1
27.363527 1.463488 -31.146268 41.484870 0.053432 2.420048 0.091286 -0.019450 447470.000000 0 0 1
28.775527 1.241888 -31.773048 42.884727 0.043131 2.405197 0.076815 -0.022459 477509.000000 0 0 1
29.230527 2.088988 -32.842798 44.016326 0.071345 2.413057 0.072972 -0.014541 31988.000000 0 0 1
30.035027 1.425888 -33.786368 45.228914 0.047439 2.414347 0.062622 -0.008139 175034.000000 0 0 1
30.725327 2.319188 33.155128 45.262423 0.075338 0.748796 0.077151 -0.009380 -19169.200000 0 0 1
29.804227 2.885188 32.272220 44.023999 0.096504 0.747987 0.083303 -0.005805 148770.000000 0 0 1
29.488827 4.228188 32.720833 44.250666 0.142412 0.738554 0.069445 -0.005056 36862.200000 0 0 1
28.618927 4.999888 31.701938 43.000637 0.172960 0.741815 0.065507 -0.003820 -123902.000000 0 0 1
28.518327 6.302388 32.129570 43.420322 0.217499 0.737776 0.071169 -0.017323 162204.000000 0 0 1
27.805127 7.062088 31.187838 42.375458 0.248726 0.743671 0.066207 -0.016625 -314331.000000 0 0 1
28.195527 8.579188 31.275528 42.973816 0.295374 0.755716 0.063417 -0.016582 -139315.000000 0 0 1
29.495727 8.881888 30.855318 43.599731 0.292488 0.784566 0.076095 -0.022591 -337128.000000 0 0 1
29.606527 10.294488 30.950258 44.050442 0.334633 0.791738 0.071510 -0.026574 1294580.000000 0 0 1
31.085327 10.784888 30.609978 44.939761 0.333950 0.821487 0.069311 -0.023823 766100.000000 0 0 1
32.017527 10.545088 31.673048 46.254761 0.318165 0.816533 0.082701 -0.033372 535196.000000 0 0 1
33.330027 10.697688 31.115728 46.835027 0.310576 0.844147 0.078462 -0.031089 396161.000000 0 0 1
33.880227 12.136288 31.123968 47.580045 0.343971 0.857752 0.075464 -0.020001 -844066.000000 0 0 1
34.235827 12.602788 32.420446 48.805814 0.352723 0.844274 0.073391 -0.023394 133192.000000 0 0 1
34.906527 13.851588 32.412097 49.607219 0.377761 0.858763 0.069489 -0.008784 -276721.000000 0 0 1
34.021727 15.085788 32.275310 49.262101 0.417365 0.856382 0.055951 -0.000072 -749668.000000 0 0 1
33.810627 15.211688 30.909428 48.269522 0.422778 0.875841 0.060150 -0.009295 1031490.000000 0 0 1
32.806927 16.188988 30.459028 47.603889 0.458404 0.876502 0.058586 -0.005471 2239830.000000 0 0 1
31.286727 15.778388 30.653778 46.556105 0.467094 0.852070 0.052756 0.003072 800187.000000 0 0 1
30.749627 14.741488 29.880418 45.339723 0.447035 0.851263 0.060043 0.003048 106544.000000 0 0 1
29.374427 14.569988 30.168768 44.556662 0.460450 0.826998 0.048737 0.004097 361769.000000 0 0 1
28.589027 13.987788 28.943068 43.019669 0.455028 0.832827 0.047301 0.003227 53430.000000 0 0 1
28.613827 12.598788 28.734018 42.463212 0.414762 0.827552 0.064079 -0.002412 -398264.000000 0 0 1
27.734327 12.226188 27.739808 41.087341 0.415204 0.829639 0.052320 -0.008568 -306275.000000 0 0 1
27.589527 10.675688 27.611188 40.466406 0.369203 0.819860 0.055470 0.003285 4760.670000 0 0 1
28.776427 9.969188 27.282028 40.887364 0.333496 0.840288 0.067610 -0.003516 202767.000000 0 0 1
28.506327 8.571688 27.108728 40.261243 0.292094 0.832105 0.067055 -0.000626 -133028.000000 0 0 1
29.788027 7.820888 26.752098 40.794211 0.256756 0.855579 0.065538 -0.011953 -190822.000000 0 0 1
30.296127 8.131988 25.446438 40.391902 0.262236 0.889258 0.073112 -0.007196 280254.000000 0 0 1
31.307427 7.229488 25.031718 40.730915 0.226941 0.908964 0.096336 -0.006827 378022.000000 0 0 1
31.905827 7.517188 23.577678 40.378173 0.231386 0.947246 0.105149 -0.010724 57024.900000 0 0 1
32.637327 8.726688 23.364748 41.076291 0.261272 0.965734 0.092176 -0.015058 896372.000000 0 0 1
31.760127 9.851988 23.100708 40.489629 0.300788 0.963640 0.103735 -0.020850 810988.000000 0 0 1
30.973927 9.935588 21.756238 39.133540 0.310404 0.981293 0.096565 0.004273 593608.000000 0 0 1
31.943727 10.069488 20.700838 39.374116 0.305366 1.017203 0.105529 -0.011077 599266.000000 0 0 1
31.468927 9.889088 19.392438 38.264267 0.304478 1.039324 0.102818 -0.015515 -825663.000000 0 0 1
32.366127 10.522788 18.309038 38.646037 0.314338 1.077238 0.114296 -0.039938 135560.000000 0 0 1
33.588027 9.975588 17.907538 39.349052 0.288701 1.098318 0.120262 -0.031803 665781.000000 0 0 1
34.664027 10.026888 18.885738 40.728422 0.281574 1.088630 0.109152 -0.021254 502661.000000 0 0 1
36.011927 9.477788 18.374238 41.524692 0.257349 1.112424 0.113408 -0.022333 -18205.700000 0 0 1
35.923027 8.071088 18.309838 41.120026 0.221007 1.109312 0.095980 -0.022516 1038150.000000 0 0 1
-36.814225 7.486488 17.867538 41.600283 -0.200623 1.126852 0.115210 -0.020878 517012.000000 0 0 1
36.900927 6.019188 17.467538 41.267711 0.161693 1.133741 0.119497 -0.019555 -452899.000000 0 0 1
36.189727 5.898188 16.264838 40.112716 0.161559 1.153294 0.104807 -0.017357 79119.100000 0 0 1
36.063427 4.535888 15.939738 39.689045 0.125118 1.157516 0.123440 -0.022525 -163024.000000 0 0 1
34.669527 3.888888 16.138838 38.439064 0.111703 1.137511 0.097700 -0.017962 -84323.300000 0 0 1
34.565527 3.246288 17.370238 38.820603 0.093642 1.106886 0.101722 -0.006073 -135295.000000 0 0 1
33.439027 2.418788 17.390138 37.768188 0.072209 1.092301 0.078384 -0.007065 -265117.000000 0 0 1
33.305927 1.526388 18.660538 38.207726 0.045797 1.060545 0.084547 -0.017597 -341884.000000 0 0 1
34.126427 0.422388 18.710038 38.921164 0.012377 1.069325 0.095424 -0.018341 -357526.000000 0 0 1
34.004427 -0.310612 19.936538 39.419070 -0.009134 1.040535 0.106711 -0.025532 -58212.200000 0 0 1
34.828427 -1.598512 19.966138 40.177373 -0.045865 1.050716 0.106490 -0.020628 -108379.000000 0 0 1
34.488627 -2.344712 21.096038 40.496987 -0.067881 1.022858 0.125577 -0.013697 116882.000000 0 0 1
34.921827 -3.695112 20.962238 40.897473 -0.105419 1.032638 0.088151 -0.014491 -141799.000000 0 0 1
34.433527 -4.575612 22.138538 41.191248 -0.132109 1.003377 0.095172 -0.020927 12996.900000 0 0 1
34.917627 -4.075012 23.342988 42.198833 -0.116178 0.984636 0.086898 -0.019039 45702.100000 0 0 1
34.242027 -4.678912 24.366298 42.286229 -0.135801 0.956697 0.094788 -0.021584 -98761.800000 0 0 1
34.580827 -3.991412 25.659138 43.245305 -0.114914 0.935595 0.070873 -0.019395 511509.000000 0 0 1
33.597427 -4.279412 26.656458 43.100664 -0.126691 0.904002 0.083612 -0.015315 297085.000000 0 0 1
33.973327 -3.711912 27.850338 44.086354 -0.108828 0.887023 0.084761 -0.016098 168953.000000 0 0 1
33.124427 -4.158612 29.076348 44.271388 -0.124892 0.854262 0.087591 -0.016810 218709.000000 0 0 1
33.338627 -5.523612 29.374978 44.775704 -0.164191 0.855227 0.087642 -0.022839 -185348.000000 0 0 1
32.547527 -5.846312 30.462218 44.960734 -0.177729 0.826398 0.101780 -0.029248 -329530.000000 0 0 1
32.553627 -7.335812 30.813278 45.420380 -0.221643 0.825211 0.095379 -0.027195 162228.000000 0 0 1
33.743727 -7.591112 31.532148 46.803210 -0.221280 0.831568 0.085940 -0.020533 -112873.000000 0 0 1
34.181027 -8.899712 31.268968 47.173042 -0.254715 0.846169 0.075221 -0.017435 -154182.000000 0 0 1
35.521227 -9.170612 31.976648 48.665838 -0.252656 0.853877 0.067017 -0.014957 -30715.500000 0 0 1
35.421627 -9.228612 33.399819 49.552062 -0.254870 0.831139 0.054525 -0.021640 269504.000000 0 0 1
36.680427 -9.533212 33.982472 50.903284 -0.254274 0.839831 0.038440 -0.017722 116226.000000 0 0 1
36.611127 -10.056112 -32.607458 50.047441 -0.268063 2.280397 0.043219 -0.017682 -377900.000000 0 0 1
36.145927 -9.200212 -31.527518 48.838063 -0.249237 2.272542 0.038872 -0.015633 481208.000000 0 0 1
-36.958125 -8.119212 -31.362028 49.146733 0.216252 2.262864 0.037550 -0.010493 -212377.000000 0 0 1
36.354327 -6.965112 -30.602468 48.027710 -0.189296 2.261635 0.044147 -0.016156 -224586.000000 0 0 1
36.525627 -6.996512 -29.221788 47.296781 -0.189258 2.236788 0.030537 -0.010763 653123.000000 0 0 1
35.606227 -6.087212 -28.601528 46.074993 -0.169322 2.240508 0.048980 -0.019835 375682.000000 0 0 1
36.073027 -5.745912 -27.135638 45.504084 -0.157959 2.209723 0.053571 -0.018223 195318.000000 0 0 1
-36.645925 -5.095712 -27.100268 45.861908 0.138167 2.202983 0.047417 -0.014770 73721.900000 0 0 1
-36.192825 -4.801912 -25.749588 44.676842 0.131905 2.185054 0.044026 -0.011498 917252.000000 0 0 1
-34.641525 -4.582912 -25.685038 43.367724 0.131532 2.204659 0.085002 -0.011239 273387.000000 0 0 1
-34.264225 -4.231012 -24.353318 42.249529 0.122860 2.185133 0.093484 -0.014551 1833290.000000 0 0 1
-32.837625 -4.195912 -24.023018 40.902576 0.127089 2.198543 0.116477 -0.011536 2056190.000000 0 0 1
-31.936025 -3.117012 -24.707618 40.498047 0.097294 2.226976 0.133601 -0.015707 -187006.000000 0 0 1
-31.704725 -3.391412 -26.051208 41.174709 0.106563 2.255830 0.124900 -0.007059 -144058.000000 0 0 1
-30.685925 -2.581512 -26.581568 40.680093 0.083929 2.282902 0.130468 -0.013334 -54600.000000 0 0 1
-30.179725 -3.199312 -27.934828 41.248103 0.105614 2.314800 0.110504 -0.014445 164694.000000 0 0 1
-31.153125 -3.210812 -28.981008 42.669958 0.102703 2.317455 0.109381 -0.014511 -8321.920000 0 0 1
-30.869825 -4.116212 -29.998498 43.241175 0.132559 2.337477 0.077066 -0.009189 -1194420.000000 0 0 1
-32.019225 -4.409312 -30.984558 44.774051 0.136848 2.335080 0.059430 -0.007696 -548612.000000 0 0 1
-33.015825 -5.354212 -30.564378 45.308868 0.160771 2.311190 0.053484 -0.006866 595408.000000 0 0 1
-33.859625 -4.866612 -29.520768 45.184443 0.142751 2.282783 0.064205 -0.013210 -1002730.000000 0 0 1
-35.006125 -3.988212 -30.044188 46.303216 0.113440 2.276878 0.081838 -0.016932 -1251330.000000 0 0 1
-34.700025 -2.710512 -30.611928 46.352225 0.077954 2.292174 0.088991 -0.010823 -178225.000000 0 0 1
-34.244425 -1.764012 -29.660328 45.337925 0.051467 2.283928 0.107502 -0.009309 -196022.000000 0 0 1
-33.909025 -0.451812 -30.347778 45.508392 0.013323 2.300785 0.104733 -0.017590 25536.000000 0 0 1
-35.021625 0.143688 -30.978418 46.756788 -0.004103 2.295006 0.109464 -0.010651 25518.900000 0 0 1
-34.709225 1.463488 -31.423608 46.843519 -0.042139 2.306111 0.124507 -0.009956 112341.000000 0 0 1
-35.928725 2.228388 -31.966218 48.142269 -0.061943 2.296945 0.086213 -0.006825 -33191.300000 0 0 1
-36.393125 1.914888 -33.246088 49.329795 -0.052568 2.310346 0.076584 -0.000161 -479723.000000 0 0 1
36.277827 2.366488 -33.435238 49.392268 0.065140 2.314384 0.052831 -0.003751 -482026.000000 0 0 1
35.542627 1.890988 33.299071 48.740972 0.053153 0.818682 0.032118 -0.002925 -83633.400000 0 0 1
36.001627 2.395588 32.070257 48.273776 0.066443 0.844184 0.055154 -0.004923 629293.000000 0 0 1
-36.934625 1.496288 31.628978 48.649745 -0.040490 0.863032 0.041473 -0.003738 190230.000000 0 0 1
-36.751325 1.616688 30.087708 47.524139 -0.043962 0.885240 0.074209 -0.007223 -167724.000000 0 0 1
-36.293225 2.889388 29.714268 46.994515 -0.079445 0.886288 0.091497 -0.011298 85958.100000 0 0 1
-35.911225 2.968288 28.392658 45.875591 -0.082469 0.903448 0.111339 -0.016393 69835.200000 0 0 1
-35.259325 4.339788 28.015988 45.243224 -0.122466 0.903034 0.110226 -0.019348 -186605.000000 0 0 1
-34.838125 4.426588 26.675018 44.100411 -0.126384 0.921194 0.110980 -0.016065 219385.000000 0 0 1
-34.331025 5.743088 26.407868 43.691851 -0.165751 0.921769 0.110655 -0.020242 -181895.000000 0 0 1
-33.459725 5.784688 25.151678 42.256629 -0.171193 0.933266 0.118727 -0.020173 -932480.000000 0 0 1
-32.290225 5.027388 25.208778 41.272458 -0.154454 0.913739 0.108679 -0.013386 -482667.000000 0 0 1
-31.572825 5.220988 24.032458 40.020758 -0.163880 0.926670 0.106011 -0.021605 -204100.000000 0 0 1
-32.094125 4.474488 22.757838 39.597640 -0.138525 0.958526 0.124313 -0.029079 -188329.000000 0 0 1
-31.845725 3.079888 22.747338 39.256557 -0.096413 0.952739 0.134577 -0.028546 -98019.500000 0 0 1
-32.408825 2.487088 21.600038 39.026647 -0.076591 0.984273 0.152417 -0.027318 -251252.000000 0 0 1
-31.857725 1.051888 21.425138 38.406479 -0.033006 0.979001 0.136605 -0.032080 -75939.400000 0 0 1
-30.637625 0.834788 20.736538 37.004931 -0.027240 0.975961 0.124752 -0.020519 108653.000000 0 0 1
-30.587825 1.303988 19.373938 36.230718 -0.042605 1.006599 0.147961 -0.026085 -530656.000000 0 0 1
-29.227325 1.118288 18.670938 34.700015 -0.038243 1.002654 0.152362 -0.022580 -242153.000000 0 0 1
-28.963125 -0.271812 18.465238 34.349694 0.009384 1.003248 0.151423 -0.025270 684352.000000 0 0 1
-27.918225 -0.714412 17.562438 32.990558 0.025584 1.009425 0.152675 -0.028827 342654.000000 0 0 1
-27.984725 -0.287412 16.116938 32.295249 0.010270 1.048294 0.168910 -0.024738 -289839.000000 0 0 1
-27.631125 1.058588 15.920038 31.906853 -0.038293 1.048405 0.174381 -0.025150 141692.000000 0 0 1
-27.909225 1.427388 14.581938 31.521345 -0.051099 1.089865 0.181282 -0.020974 -116263.000000 0 0 1
-27.211725 2.675788 13.998638 30.718068 -0.098017 1.097623 0.170994 -0.014036 231531.000000 0 0 1
-25.833825 2.478988 13.691038 29.342400 -0.095666 1.085358 0.163100 -0.022068 406741.000000 0 0 1
-25.366625 3.631088 13.018738 28.742617 -0.142178 1.100734 0.162744 -0.025243 -760181.000000 0 0 1
-23.857225 3.568088 12.818138 27.316718 -0.148460 1.082365 0.126015 -0.033608 -493889.000000 0 0 1
-23.164725 4.005088 14.009938 27.366468 -0.171203 1.033357 0.090899 -0.020131 342631.000000 0 0 1
-21.795825 4.239788 13.725038 26.103840 -0.192124 1.017157 0.067574 -0.016865 444225.000000 0 0 1
-20.938825 4.741288 14.957138 26.165439 -0.222680 0.962296 0.045954 -0.016171 41587.800000 0 0 1
-21.153825 6.073488 15.437438 26.882821 -0.279590 0.959110 0.032252 -0.006833 543910.000000 0 0 1
-20.397025 6.320288 16.630338 27.065713 -0.300481 0.909117 0.022941 0.003892 -22729.700000 0 0 1
-20.561425 7.743988 17.152538 27.873843 -0.360196 0.907950 0.020514 -0.003532 -128807.000000 0 0 1
-20.018725 8.671288 16.189738 27.167043 -0.408761 0.932369 0.021650 -0.010718 592222.000000 0 0 1
-20.417125 10.048488 16.313038 27.999041 -0.457356 0.948837 0.033012 -0.007529 -326192.000000 0 0 1
-19.937825 10.899588 17.482638 28.669854 -0.500290 0.914999 0.036668 -0.009272 -359934.000000 0 0 1
-20.408825 10.490288 18.747738 29.631807 -0.474791 0.885775 0.043100 -0.012828 488725.000000 0 0 1
-19.847325 11.323988 19.764238 30.212152 -0.518487 0.857696 0.050649 -0.009321 -78330.300000 0 0 1
-12.587273 -33.932630 -20.292218 41.492613 1.215582 2.081804 0.146868 -0.046439 -405404.000000 0 0 1
-13.401773 -34.041330 -19.186718 41.310408 1.195740 2.053812 0.171860 -0.045748 -491651.000000 0 0 1
-14.514573 -33.179430 -19.196718 40.988552 1.158422 2.058211 0.144575 -0.069763 -278139.000000 0 0 1
-15.732973 -33.752130 -18.474018 41.569485 1.134608 2.031315 0.133365 -0.056340 -721111.000000 0 0 1
-16.355273 33.290588 -19.236618 41.782839 -1.114142 2.049237 0.120741 -0.064435 893584.000000 0 0 1
-17.248073 32.464888 -18.427918 41.122416 -1.082436 2.035461 0.123386 -0.058557 1612890.000000 0 0 1
-18.654973 33.069988 -18.019718 42.027876 -1.057188 2.013912 0.113291 -0.049106 402593.000000 0 0 1
-18.554473 34.056588 -16.979418 42.336985 -1.071944 1.983463 0.121211 -0.043910 1000750.000000 0 0 1
-19.895173 -33.671230 -16.632418 42.499494 1.037120 1.972901 0.079800 -0.032246 742529.000000 0 0 1
-20.315073 33.763488 -15.294118 42.268018 -1.029137 1.941034 0.083618 -0.032752 -722591.000000 0 0 1
-20.505073 32.385988 -15.299118 41.271943 -1.006360 1.950549 0.098944 -0.040661 269471.000000 0 0 1
-20.902073 31.885088 -13.959918 40.600921 -0.990534 1.921792 0.084611 -0.032678 -246337.000000 0 0 1
-20.923673 30.338288 -13.740618 39.332129 -0.967031 1.927672 0.074738 -0.032168 428359.000000 0 0 1
-19.647473 29.699388 -13.693618 38.152222 -0.986348 1.937908 0.094470 -0.042835 193524.000000 0 0 1
-19.736973 28.299788 -13.624818 37.095307 -0.961801 1.946892 0.093060 -0.040720 -831893.000000 0 0 1
-18.533573 27.570888 -13.092618 35.708036 -0.978962 1.946210 0.100002 -0.037790 -380806.000000 0 0 1
-17.339873 27.914888 -13.771918 35.631137 -1.014956 1.967645 0.135496 -0.046783 407712.000000 0 0 1
-16.241573 27.035188 -13.525418 34.316571 -1.029821 1.975925 0.148057 -0.049858 921968.000000 0 0 1
-14.893573 27.399288 -14.205518 34.268590 -1.072899 1.998228 0.131828 -0.049052 275683.000000 0 0 1
-14.808273 27.277388 -15.613618 34.743718 -1.073438 2.036883 0.112492 -0.039282 264646.000000 0 0 1
-13.763173 28.093888 -16.168118 35.215047 -1.115262 2.047807 0.130337 -0.047325 504333.000000 0 0 1
-13.866973 28.119188 -17.725718 36.016423 -1.112644 2.085362 0.143105 -0.057028 132945.000000 0 0 1
-13.535073 26.869888 -18.303518 35.216585 -1.104172 2.117345 0.119136 -0.052192 270245.000000 0 0 1
-13.989173 26.813088 -19.665918 36.074742 -1.089917 2.147357 0.100994 -0.049772 -194880.000000 0 0 1
-13.343873 25.658488 -20.444018 35.417154 -1.091232 2.186135 0.071262 -0.030611 -842148.000000 0 0 1
-12.065573 26.101888 -20.728118 35.447729 -1.137803 2.195370 0.052348 -0.026069 -993158.000000 0 0 1
-11.237373 25.076488 -21.255518 34.740551 -1.149504 2.229176 0.052771 -0.023385 738255.000000 0 0 1
-10.027773 25.654488 -22.071418 35.296692 -1.198178 2.246327 0.065004 -0.030587 339574.000000 0 0 1
-10.424973 26.273788 -23.272218 36.614043 -1.193067 2.259594 0.054670 -0.028042 -361768.000000 0 0 1
-9.305373 26.595688 -24.031718 37.033013 -1.234226 2.276970 0.056452 -0.031110 -522643.000000 0 0 1
-9.591673 27.280388 -25.421848 38.503118 -1.232700 2.291954 0.054750 -0.027769 -50454.900000 0 0 1
-10.374973 26.386288 -26.225068 38.621632 -1.196170 2.317231 0.053457 -0.017165 202979.000000 0 0 1
-10.765573 27.048988 -27.448088 40.011784 -1.192013 2.326774 0.066089 -0.008924 -58490.500000 0 0 1
-12.038373 26.480788 -28.101678 40.445752 -1.144117 2.338937 0.047985 -0.007799 -64417.300000 0 0 1
-12.289673 27.083188 -29.302788 41.751509 -1.144808 2.348771 0.054350 -0.006395 -987334.000000 0 0 1
-13.553773 26.755088 -29.732798 42.232438 -1.101893 2.351849 0.051836 0.000315 -948502.000000 0 0 1
-13.907173 26.990788 -31.274048 43.588739 -1.095018 2.370974 0.048953 -0.006253 -362091.000000 0 0 1
-13.167973 26.325788 -32.246518 43.660973 -1.106994 2.401737 0.052967 -0.014748 -153859.000000 0 0 1
-13.095273 24.931288 -32.103318 42.704547 -1.087150 2.421514 0.040469 -0.015061 146871.000000 0 0 1
-12.273873 24.253788 -33.233248 42.934170 -1.102312 2.456012 0.033337 -0.013462 207431.000000 0 0 1
-12.960973 24.315988 33.571958 43.431906 -1.081081 0.687273 0.040047 -0.013262 -141343.000000 0 0 1
-12.200073 23.783088 32.538008 42.109370 -1.096825 0.687709 0.035473 -0.016706 -994828.000000 0 0 1
-12.802073 23.824088 31.135198 41.241736 -1.077711 0.715228 0.041629 -0.006954 -12266.300000 0 0 1
-13.994473 23.032788 31.049978 41.115152 -1.024815 0.714844 0.061429 -0.015829 306762.000000 0 0 1
-14.384073 22.917588 29.688138 40.168432 -1.010298 0.739076 0.077275 -0.013752 -480613.000000 0 0 1
-15.650173 22.142788 29.402268 39.996554 -0.955532 0.744953 0.075214 -0.021018 -350416.000000 0 0 1
-15.389773 20.793188 29.714458 39.397345 -0.933639 0.716323 0.048343 -0.014433 -249457.000000 0 0 1
-16.573673 20.058988 29.742688 39.518061 -0.880255 0.718741 0.056825 -0.021081 -263252.000000 0 0 1
-16.342573 18.526888 29.862568 38.756912 -0.847959 0.691156 0.043315 -0.022501 -68724.800000 0 0 1
-15.789473 18.036888 28.665438 37.367688 -0.851740 0.696459 0.052140 -0.024648 95347.800000 0 0 1
-15.460373 16.697388 28.725938 36.647038 -0.823846 0.669947 0.036394 -0.023750 26699.200000 0 0 1
-14.944673 16.074088 27.391168 35.099796 -0.821793 0.675523 0.044500 -0.023474 -301695.000000 0 0 1
-13.855573 16.694588 26.806548 34.485899 -0.878062 0.680403 0.023369 -0.018822 -486823.000000 0 0 1
-13.345173 16.001488 25.660818 33.054786 -0.875667 0.682003 0.010448 -0.014880 436842.000000 0 0 1
-12.155573 16.725388 24.963138 32.413806 -0.942326 0.691737 0.019578 -0.008624 247096.000000 0 0 1
-12.523373 17.849488 24.156808 32.542134 -0.958991 0.734264 0.019877 -0.006841 -115988.000000 0 0 1
-12.985473 19.013788 24.791578 33.834435 -0.971605 0.748468 0.021127 -0.010503 287209.000000 0 0 1
-11.922573 19.775188 25.667148 34.525473 -1.028243 0.732617 0.011373 -0.005834 518425.000000 0 0 1
-11.470873 19.200488 26.913568 34.993997 -1.032272 0.693379 0.021400 -0.008078 225153.000000 0 0 1
-12.423673 19.397588 27.951308 36.220018 -1.001146 0.689273 0.047449 -0.007501 -3329.820000 0 0 1
-11.978173 18.913888 29.313678 36.885004 -1.006250 0.652231 0.035775 -0.003961 -573583.000000 0 0 1
-10.869173 19.612888 29.799198 37.293384 -1.064746 0.645086 0.024174 -0.006858 -427033.000000 0 0 1
-11.055973 20.108888 31.107068 38.655551 -1.068103 0.635585 0.026295 -0.017540 42812.900000 0 0 1
-9.813473 20.867088 31.608108 39.125594 -1.131202 0.630280 0.012565 -0.017859 544781.000000 0 0 1
-8.674773 20.077888 31.948478 38.717936 -1.162964 0.600312 0.026036 -0.026209 -374478.000000 0 0 1
-7.639273 20.857488 32.414192 39.294696 -1.219710 0.600771 0.031769 -0.023285 -1028230.000000 0 0 1
-6.471973 20.063088 32.940059 39.108329 -1.258754 0.569302 0.043169 -0.019388 -929684.000000 0 0 1
-6.704073 19.345788 -33.867208 39.575142 -1.237208 2.597833 0.040447 -0.028512 -415668.000000 0 0 1
-5.538373 18.896688 -33.239658 38.634612 -1.285694 2.606771 0.040089 -0.028271 7443.250000 0 0 1
-4.752273 17.758688 -33.964798 38.620754 -1.309320 2.645490 0.031872 -0.023401 140573.000000 0 0 1
-5.546773 16.576288 33.931693 38.169357 -1.247887 0.475689 0.025435 -0.017615 276460.000000 0 0 1
-5.103673 15.810388 32.823524 36.788580 -1.258551 0.468558 0.034484 -0.010757 160229.000000 0 0 1
-5.932473 14.488888 32.690994 36.246699 -1.182170 0.446642 0.045056 -0.012712 -291455.000000 0 0 1
-5.410173 13.443488 33.453725 36.457497 -1.188190 0.408774 0.053658 -0.013953 -421176.000000 0 0 1
-5.947173 12.140388 33.231221 35.875785 -1.115288 0.386363 0.061004 -0.011598 -303134.000000 0 0 1
-5.155773 10.878688 33.641812 35.730930 -1.128219 0.343648 0.080023 -0.030463 -8113.720000 0 0 1
-5.170973 10.581588 -33.011248 35.049272 -1.116249 2.798898 0.076803 -0.038335 -491121.000000 0 0 1
-4.248973 9.583288 -32.734278 34.371880 -1.153467 2.831667 0.092727 -0.040494 -215993.000000 0 0 1
-4.288773 9.149388 -31.273888 32.865802 -1.132460 2.829077 0.092203 -0.037874 -376561.000000 0 0 1
-5.451473 8.500088 -30.888868 32.497573 -1.000531 2.825630 0.093973 -0.033940 -539199.000000 0 0 1
-5.708273 8.548888 -29.451248 31.193651 -0.982064 2.805779 0.122003 -0.034600 -19347.100000 0 0 1
-6.791573 7.631388 -28.885348 30.638650 -0.843560 2.801653 0.094410 -0.036789 106170.000000 0 0 1
-6.293673 6.293088 -28.569108 29.923356 -0.785352 2.839590 0.096715 -0.023696 201811.000000 0 0 1
-7.313873 5.593088 -27.900608 29.380594 -0.652858 2.822840 0.104948 -0.047864 -633215.000000 0 0 1
-6.898973 5.115088 -26.475998 27.834123 -0.637992 2.827919 0.101633 -0.047190 -56958.600000 0 0 1
-7.032773 6.076888 -25.438318 27.083140 -0.712612 2.791286 0.076513 -0.029728 -389930.000000 0 0 1
-5.855773 6.802688 -25.353178 26.895172 -0.860064 2.801328 0.074436 -0.023853 -758675.000000 0 0 1
-5.992173 8.000088 -24.385418 26.354433 -0.927927 2.752588 0.039261 -0.004087 113535.000000 0 0 1
-6.094973 7.501388 -23.043018 24.988001 -0.888472 2.744433 0.030258 -0.003618 -829529.000000 0 1 0
-7.391873 7.548088 -22.549918 24.902053 -0.795854 2.703458 0.038420 -0.003142 -825875.000000 0 1 0
-7.448873 7.761688 -20.988418 23.584809 -0.805961 2.667950 0.028601 -0.004655 -243360.000000 0 1 0
-7.292573 9.122888 -20.583918 23.666567 -0.896439 2.625485 0.019019 0.003124 -109806.000000 0 1 0
-7.176473 9.256888 -19.156918 22.453936 -0.911325 2.592820 0.017012 0.000820 -16336.000000 0 1 0
-8.451173 9.278788 -18.256718 22.154593 -0.832043 2.539338 0.025043 -0.004992 -380449.000000 0 1 0
-8.149673 9.244588 -16.872618 20.894134 -0.848262 2.510747 0.019578 -0.006654 -323860.000000 0 1 0
-9.201273 9.523688 -15.976818 20.751452 -0.802615 2.449502 0.022453 -0.017993 -55740.500000 0 1 0
-9.756173 10.988988 -16.038218 21.752361 -0.844755 2.399875 0.049159 -0.028110 -17237.100000 0 1 0
-8.697873 11.924488 -15.825118 21.639796 -0.940602 2.391018 0.025758 -0.028772 521928.000000 0 1 0
-9.148273 13.285488 -15.881418 22.636575 -0.967768 2.348412 0.054563 -0.036641 534060.000000 0 1 0
-7.919173 14.213588 -15.592018 22.535537 -1.062476 2.334894 0.054193 -0.031867 516754.000000 0 1 0
-7.380773 14.307988 -14.263818 21.509320 -1.094549 2.295810 0.046922 -0.035840 456121.000000 0 1 0
-8.167173 15.148388 -13.410318 21.817722 -1.076326 2.232742 0.046847 -0.043961 -599370.000000 0 1 0
-7.295973 15.646288 -12.235818 21.160170 -1.134465 2.187376 0.022276 -0.043881 -39911.300000 0 1 0
-6.700573 16.933088 -12.410018 22.037144 -1.193995 2.168978 0.034446 -0.048233 369499.000000 0 1 0
-6.032773 17.280588 -13.634018 22.823223 -1.234917 2.211020 0.036811 -0.028346 -522989.000000 0 1 0
-5.976073 18.781288 -13.960518 24.152563 -1.262733 2.187089 0.063881 -0.014030 337463.000000 0 1 0
-5.130873 19.602188 -13.158218 24.160098 -1.314790 2.146739 0.054468 -0.027414 -82001.700000 0 1 0
-5.376873 20.966988 -13.472918 25.495978 -1.319761 2.127550 0.061215 -0.013981 -91276.100000 0 0 1
-4.615773 22.057888 -12.665818 25.851088 -1.364516 2.082832 0.057640 -0.013533 -688104.000000 0 0 1
-4.923173 23.441588 -12.825618 27.170612 -1.363786 2.062400 0.064405 -0.014682 44607.100000 0 0 1
-6.212673 24.039188 -12.848618 27.956517 -1.317891 2.048333 0.068524 -0.016117 790562.000000 0 0 1
-7.154473 23.843688 -11.587818 27.458796 -1.279287 2.006455 0.061400 -0.024699 275337.000000 0 0 1
-7.502473 22.511288 -11.346418 26.301832 -1.249097 2.016832 0.064596 -0.024954 -262291.000000 0 0 1
-8.188473 22.193788 -10.149218 25.741444 -1.217337 1.976076 0.074486 -0.027196 15592.200000 0 0 1
-7.581673 22.622688 -8.785318 25.425373 -1.247424 1.923604 0.069244 -0.023659 5550.910000 0 0 1
-7.645373 24.033188 -8.623918 26.653664 -1.262802 1.900280 0.055102 -0.013875 -264396.000000 0 0 1
-7.161673 24.367888 -7.359818 26.443344 -1.284947 1.852845 0.060046 -0.019014 -73513.400000 0 0 1
-7.187673 25.901588 -7.094118 27.800745 -1.300108 1.828827 0.067592 -0.021633 -114.066000 0 0 1
-6.278973 26.776688 -7.710718 28.563468 -1.340464 1.844138 0.059216 -0.023648 -361474.000000 0 0 1
-6.265973 26.735788 -9.103418 28.929863 -1.340585 1.890907 0.057259 -0.020873 -194240.000000 0 0 1
-5.595273 27.957988 -9.734318 30.128278 -1.373274 1.899795 0.044180 -0.014943 450883.000000 0 0 1
-6.453273 29.102188 -9.871318 31.401035 -1.352582 1.890582 0.036190 -0.009864 232608.000000 0 0 1
-7.293973 29.182188 -11.026918 32.037401 -1.325868 1.922171 0.040181 -0.010424 174471.000000 0 0 1
-8.416473 30.199888 -10.751918 33.143235 -1.299001 1.901182 0.050436 -0.015302 -566366.000000 0 0 1
-9.475473 29.670288 -10.002718 32.713376 -1.261675 1.881542 0.068171 -0.012069 -392772.000000 0 0 1
-10.405873 30.727288 -9.812718 33.893035 -1.244266 1.864522 0.070201 -0.025598 -89060.300000 0 0 1
-11.668773 30.346888 -9.043118 33.747176 -1.203712 1.842078 0.086568 -0.027690 -286976.000000 0 0 1
-12.559473 29.505588 -9.733418 33.512080 -1.168363 1.865488 0.100944 -0.032045 -1031890.000000 0 0 1
-13.753773 29.530188 -9.014518 33.800293 -1.134920 1.840763 0.104487 -0.023615 3870.150000 0 0 1
-14.669873 28.349188 -9.533918 33.313319 -1.093270 1.861044 0.114058 -0.028533 478479.000000 0 0 1
-14.376073 27.095288 -8.870118 31.929690 -1.082989 1.852301 0.104272 -0.026806 194758.000000 0 0 1
-15.340473 26.213588 -9.415318 31.798279 -1.041322 1.871398 0.128639 -0.027545 233607.000000 0 0 1
-15.256373 24.743888 -8.851318 30.386884 -1.018281 1.866369 0.106946 -0.024912 458537.000000 0 0 1
-14.236773 23.853288 -9.331618 29.304337 -1.032698 1.894878 0.113827 -0.027168 295714.000000 0 0 1
-14.457673 22.569288 -8.813818 28.214898 -1.001064 1.888496 0.108964 -0.021792 -158037.000000 0 0 1
-13.517273 21.501388 -9.355018 27.065526 -1.009562 1.923721 0.119703 -0.024630 -326303.000000 0 0 1
-13.671073 21.234488 -10.725918 27.438058 -0.998782 1.972421 0.123919 -0.019914 168766.000000 0 0 1
-12.911173 20.104988 -11.154418 26.369110 -0.999933 2.007562 0.116368 -0.023990 34733.600000 0 0 1
-13.089573 19.754588 -12.661318 26.868004 -0.985608 2.061494 0.122721 -0.020918 -146543.000000 0 0 1
-14.428873 19.421488 -12.909818 27.423530 -0.931833 2.060945 0.134194 -0.020773 -315409.000000 0 0 1
-14.535573 18.908788 -14.209218 27.761971 -0.915421 2.108102 0.141088 -0.024947 342052.000000 0 0 1
-16.020773 18.591788 -14.539018 28.525476 -0.859542 2.105615 0.134599 -0.017592 275682.000000 0 0 1
-16.831273 19.740488 -14.578818 29.757697 -0.864779 2.082792 0.111029 -0.017159 -124051.000000 0 0 1
-18.174573 19.312488 -14.756018 30.348433 -0.815744 2.078555 0.093085 -0.013842 341571.000000 0 0 1
-19.092273 20.320388 -15.550018 31.925477 -0.816549 2.079531 0.067929 -0.011397 196027.000000 0 0 1
-19.551173 21.395388 -14.758018 32.523992 -0.830407 2.041774 0.075036 -0.017573 173251.000000 0 0 1
-19.941073 22.418088 -15.633818 33.832430 -0.843808 2.051153 0.075115 -0.018763 -101929.000000 0 0 1
-20.409673 23.701688 -14.868918 34.632492 -0.859890 2.014552 0.074380 -0.019442 45044.800000 0 0 1
-21.627873 23.464888 -14.192818 34.925663 -0.826114 1.989276 0.078662 -0.023742 48305.800000 0 0 1
-21.994573 24.529288 -13.381818 35.560094 -0.839826 1.956613 0.073891 -0.033205 -153772.000000 0 0 1
-26.341603 -0.857612 3.816982 26.630525 0.032546 1.426970 0.198582 -0.045713 -190525.000000 0 0 1
-26.922343 -0.191112 4.901982 27.365644 0.007099 1.390695 0.191873 -0.043868 -229851.000000 0 0 1
-28.277493 -0.502912 5.085782 28.735600 0.017783 1.392874 0.172127 -0.048117 -250524.000000 0 0 1
-28.760753 0.238088 6.385882 29.462129 -0.008278 1.352313 0.192275 -0.038142 -353091.000000 0 0 1
-28.958663 1.610388 6.191082 29.656820 -0.055553 1.360492 0.205380 -0.043366 148874.000000 0 0 1
-29.478893 2.157388 7.391582 30.467933 -0.073054 1.325749 0.222963 -0.037791 132501.000000 0 0 1
-28.418173 2.519988 8.492382 29.766818 -0.088444 1.281480 0.227769 -0.034918 611389.000000 0 0 1
-27.730983 1.380088 9.109682 29.221539 -0.049726 1.253767 0.202256 -0.040635 795854.000000 0 0 1
-26.817963 1.851088 10.109182 28.719770 -0.068915 1.211096 0.202613 -0.049280 -385162.000000 0 0 1
-25.720693 0.888488 10.521482 27.803687 -0.034530 1.182707 0.192641 -0.039659 -737233.000000 0 0 1
-24.824873 0.524088 9.532282 26.597244 -0.021108 1.204250 0.190061 -0.034747 100081.000000 0 0 1
-25.183943 -0.735212 9.027882 26.763299 0.029185 1.226724 0.161853 -0.035437 -1019160.000000 0 0 1
-24.044973 -1.398312 8.299882 25.475557 0.058089 1.238941 0.157647 -0.040461 -1015140.000000 0 0 1
-23.038373 -1.741112 9.226482 24.878225 0.075431 1.190855 0.153902 -0.054829 -414362.000000 0 1 0
-21.921673 -2.071412 8.434082 23.579318 0.094212 1.205003 0.163889 -0.044203 -221019.000000 0 1 0
-20.663873 -2.431612 9.274382 22.779871 0.117136 1.151486 0.134858 -0.038080 95926.500000 0 1 0
-19.963073 -1.313912 9.823282 22.287833 0.065722 1.114366 0.111486 -0.026793 972239.000000 0 1 0
-20.644573 -0.564312 10.872182 23.339262 0.027328 1.086221 0.125128 -0.024663 -477320.000000 0 1 0
-20.169573 0.889388 10.885182 22.936649 -0.044067 1.076314 0.084042 -0.020435 -386923.000000 0 1 0
-20.490373 1.791388 9.836682 22.799666 -0.087204 1.124708 0.096526 -0.021749 -306711.000000 0 1 0
-21.846073 1.978688 9.608082 23.947470 -0.090328 1.157954 0.115201 -0.024758 -1000290.000000 0 1 0
-22.094573 3.429888 9.161782 24.163454 -0.154007 1.181909 0.105026 -0.035772 -325847.000000 0 1 0
-22.027973 4.429088 10.223382 24.685339 -0.198421 1.143790 0.085740 -0.030770 453734.000000 0 1 0
-22.404773 5.687788 9.775282 25.097428 -0.248613 1.170715 0.078947 -0.022140 -330005.000000 0 0 1
-22.492173 6.734488 10.923382 25.895394 -0.290920 1.135337 0.074633 -0.023347 -712901.000000 0 0 1
-23.635373 6.588688 11.687482 27.177912 -0.271862 1.126264 0.094029 -0.023058 -415545.000000 0 0 1
-23.670573 7.513788 12.719582 27.902344 -0.307371 1.097457 0.104464 -0.022532 -604062.000000 0 0 1
-24.439973 7.087588 13.908782 29.000007 -0.282257 1.070583 0.133891 -0.025785 -510227.000000 0 0 1
-25.833463 7.097688 13.655682 30.070295 -0.268132 1.099406 0.162011 -0.032390 -126246.000000 0 0 1
-26.441103 6.724688 14.890482 31.081824 -0.249047 1.071197 0.158618 -0.035312 853198.000000 0 0 1
-28.000263 6.572888 14.681082 32.291667 -0.230569 1.098828 0.158419 -0.031703 968065.000000 0 0 1
-28.295473 5.705288 13.616582 31.915441 -0.198965 1.130016 0.171235 -0.016808 1264240.000000 0 0 1
-29.682313 5.869688 13.188082 33.006339 -0.195232 1.159757 0.193440 -0.021301 1442150.000000 0 0 1
-30.242143 4.755588 12.292382 32.989475 -0.155973 1.188971 0.201252 -0.025655 -174223.000000 0 0 1
-30.784563 3.682388 13.031982 33.631560 -0.119052 1.172886 0.185102 -0.033922 401846.000000 0 0 1
-31.396563 2.730188 12.149782 33.775957 -0.086740 1.202832 0.175296 -0.025045 161624.000000 0 0 1
-32.590043 1.943988 12.754682 35.050990 -0.059579 1.198356 0.143559 -0.014648 127213.000000 0 0 1
-32.275483 0.806688 13.533082 35.007168 -0.024989 1.173876 0.148431 -0.013505 438279.000000 0 0 1
-33.529163 0.218988 13.885382 36.291274 -0.006531 1.178177 0.121138 -0.014321 556525.000000 0 0 1
-33.420923 -1.000012 14.775682 36.555148 0.029913 1.154690 0.108558 -0.017700 -55679.400000 0 0 1
-33.079193 -2.196512 14.118182 36.033050 0.066304 1.168196 0.103637 -0.017370 87090.000000 0 0 1
-33.408113 -3.195312 15.007782 36.763372 0.095355 1.150286 0.110370 -0.011997 -162272.000000 0 0 1
-33.194753 -4.686112 14.621782 36.573867 0.140244 1.159511 0.091917 -0.012877 -358231.000000 0 0 1
-34.159538 -5.230012 13.772782 37.201029 0.151926 1.191544 0.059220 -0.009229 -823572.000000 0 0 1
-33.984363 -6.626112 13.637582 37.213249 0.192560 1.195583 0.060469 -0.007360 -1256690.000000 0 0 1
-34.922561 -7.249412 12.595782 37.825824 0.204678 1.231319 0.061012 -0.010050 482366.000000 0 0 1
-36.310193 -7.058912 12.821482 39.149058 0.192011 1.237135 0.047433 -0.006898 339502.000000 0 0 1
-36.856203 -5.756312 13.001282 39.503774 0.154931 1.235430 0.052823 -0.009336 -1915920.000000 0 0 1
35.616899 -5.690512 12.682082 38.233240 -0.158431 1.232688 0.070388 -0.013284 74514.700000 0 0 1
34.777689 -6.432312 13.567482 37.880587 -0.182888 1.204495 0.063137 -0.005312 -759534.000000 0 0 1
33.447039 -6.282112 13.250082 36.520324 -0.185660 1.199511 0.090599 -0.015785 -848269.000000 0 0 1
32.401959 -7.320512 13.645482 35.912060 -0.222198 1.181033 0.094614 -0.019246 -15626.700000 0 0 1
32.100419 -7.320612 15.008282 36.183930 -0.224219 1.143098 0.088710 -0.010443 348019.000000 0 0 1
31.030039 -8.208112 15.330282 35.570409 -0.258599 1.125213 0.091261 -0.009391 319896.000000 0 0 1
30.470389 -8.137212 16.758382 35.714174 -0.260963 1.082371 0.108919 -0.017803 23835.200000 0 0 1
31.382419 -8.549112 17.768182 37.062809 -0.265963 1.070817 0.081340 -0.011433 122837.000000 0 0 1
30.770459 -8.696612 19.039382 37.214920 -0.275445 1.033743 0.096437 -0.022944 -927622.000000 0 0 1
31.674669 -9.384212 20.046182 38.641914 -0.288030 1.025387 0.093346 -0.018448 230792.000000 0 0 1
32.888069 -8.724012 20.372282 39.658081 -0.259292 1.031307 0.088430 -0.018913 215600.000000 0 0 1
33.965239 -8.917312 19.455382 40.145583 -0.256748 1.064867 0.026364 -0.002866 -753854.000000 0 0 1
35.185909 -8.179212 20.010182 41.295945 -0.228401 1.064941 0.015883 -0.003061 -248094.000000 0 0 1
35.653679 -8.724712 21.251382 42.413756 -0.239991 1.045986 0.011455 -0.006211 -268209.000000 0 0 1
36.711819 -8.039812 21.848982 43.471534 -0.215594 1.044188 0.004047 -0.000149 -373727.000000 0 0 1
-36.934593 -8.679612 23.238282 44.491769 0.230812 1.021244 0.015831 -0.004521 -320534.000000 0 0 1
36.615849 -7.961912 24.352482 44.689550 -0.214111 0.994496 0.033072 -0.007411 180174.000000 0 0 1
36.592669 -8.914012 25.393482 45.423694 -0.238947 0.977574 0.040297 -0.019175 -130947.000000 0 0 1
36.160929 -8.379812 26.779782 45.771069 -0.227717 0.945816 0.059103 -0.018673 734666.000000 0 0 1
-36.860693 -7.397212 27.264482 46.441160 0.198050 0.943354 0.038887 -0.026189 950518.000000 0 0 1
36.563729 -6.707412 28.423782 46.795374 -0.181427 0.918005 0.053147 -0.028198 1058740.000000 0 0 1
-36.231453 -6.210412 29.338582 47.032327 0.169760 0.897206 0.057453 -0.017023 951942.000000 0 0 1
-35.649851 -7.149512 30.205582 47.269489 0.197923 0.877588 0.058883 -0.018726 34936.800000 0 0 1
-34.305004 -6.888612 30.562882 46.458325 0.198169 0.852828 0.041297 -0.027753 434085.000000 0 0 1
-33.772793 -7.596012 31.833482 47.028412 0.221234 0.827255 0.033443 -0.018960 55566.500000 0 0 1
-33.767333 -8.992412 31.665782 47.157375 0.260265 0.834576 0.041547 -0.016678 453489.000000 0 0 1
-33.145823 -9.583512 32.825382 47.623471 0.281456 0.810317 0.034428 -0.009963 -152251.000000 0 0 1
-33.329473 -11.142712 32.891282 48.133670 0.322638 0.818480 0.043907 -0.014956 -330177.000000 0 0 1
-34.632198 -11.548912 33.223582 49.361654 0.321876 0.832452 0.040615 -0.020755 61931.600000 0 0 1
-34.726132 -12.997212 33.195282 49.767042 0.358137 0.840603 0.049083 -0.025223 931726.000000 0 0 1
-36.245023 -13.352812 33.401382 51.065170 0.352975 0.857813 0.039976 -0.025707 926756.000000 0 0 1
-36.611303 -14.728912 33.234582 51.593272 0.382492 0.870865 0.037656 -0.036422 143607.000000 0 0 1
36.006359 -14.944812 33.584882 51.456288 -0.393422 0.859670 0.026272 -0.031810 83878.700000 0 0 1
35.488739 -16.367612 33.718182 51.616520 -0.432133 0.858935 0.026545 -0.026381 -188410.000000 0 0 1
35.802659 -16.889412 -33.044575 51.565750 -0.440782 2.266368 0.033604 -0.037663 248093.000000 0 0 1
35.495949 -18.263212 -33.055775 51.828482 -0.475192 2.262424 0.032616 -0.042433 -353701.000000 0 0 1
35.987209 -19.023412 -31.812575 51.662456 -0.486277 2.234169 0.031929 -0.030606 -70342.200000 0 0 1
35.227729 -18.686912 -30.650175 50.295395 -0.487718 2.226104 0.030014 -0.028585 80935.800000 0 0 1
35.562109 -19.539012 -29.542575 50.191636 -0.502408 2.200117 0.025536 -0.022973 -706703.000000 0 0 1
34.462709 -19.581412 -28.434075 48.781212 -0.516702 2.193077 0.014641 -0.015907 483126.000000 0 0 1
33.219629 -20.169612 -28.730975 48.330383 -0.545667 2.207403 0.021297 -0.010290 257616.000000 0 0 1
32.413829 -19.463112 -29.669775 48.060010 -0.540755 2.236164 0.014360 -0.007066 -911873.000000 0 0 1
30.986399 -20.050412 -29.764075 47.413881 -0.574314 2.249456 0.015789 -0.006858 305685.000000 0 0 1
30.134689 -19.203312 -30.553975 47.015020 -0.567359 2.278219 0.013561 -0.000012 728912.000000 0 0 1
28.787179 -19.664612 -30.514575 46.330745 -0.599296 2.289786 0.018718 -0.003671 700273.000000 0 0 1
27.872079 -19.157212 -31.681975 46.342196 -0.602169 2.323553 0.023993 0.009320 384187.000000 0 0 1
28.180279 -19.748612 -32.922875 47.624064 -0.611260 2.334093 0.017890 -0.000308 -171163.000000 0 0 1
27.203079 -19.331012 -33.836175 47.524544 -0.617817 2.363100 0.053842 -0.007930 -106579.000000 0 0 1
27.539379 -19.465812 32.677382 46.958988 -0.615299 0.801165 0.058697 -0.010348 326585.000000 0 0 1
28.557479 -18.586612 32.166782 46.858229 -0.576972 0.814173 0.051377 -0.014154 655474.000000 0 0 1
28.885549 -18.765412 30.798682 46.206866 -0.576127 0.841240 0.055170 -0.011909 -106185.000000 0 0 1
27.973279 -17.917512 29.904882 44.697243 -0.569684 0.837861 0.066373 -0.011907 -84492.100000 0 0 1
28.039979 -16.508912 30.161982 44.368117 -0.532116 0.823290 0.076015 -0.020127 326895.000000 0 0 1
27.070479 -15.876312 29.342682 42.963486 -0.530419 0.818978 0.096888 -0.021412 135101.000000 0 0 1
26.762779 -14.469512 29.813682 42.596582 -0.495643 0.795528 0.107071 -0.032723 -93694.700000 0 0 1
27.919779 -13.663412 29.785182 43.050667 -0.455116 0.806730 0.100730 -0.025494 49702.800000 0 0 1
27.820379 -12.529012 30.650182 43.247928 -0.423148 0.783130 0.114116 -0.027633 -221334.000000 0 0 1
29.147499 -11.767012 30.845482 44.039562 -0.383697 0.794833 0.093993 -0.020166 -15848.400000 0 0 1
29.432349 -11.054812 29.654582 43.218819 -0.359297 0.814613 0.086362 -0.027231 292389.000000 0 0 1
30.824739 -10.811212 29.502582 44.016465 -0.337326 0.836234 0.075639 -0.018897 330477.000000 0 0 1
31.210969 -10.100112 28.195882 43.256729 -0.312972 0.860806 0.078267 -0.023204 -159656.000000 0 0 1
30.860109 -8.760912 28.111382 42.653836 -0.276613 0.851230 0.084792 -0.017682 67260.700000 0 0 1
31.318029 -8.150312 26.896582 42.079361 -0.254596 0.877356 0.087157 -0.021156 102108.000000 0 0 1
31.021059 -6.640112 26.874582 41.576921 -0.210870 0.867963 0.095509 -0.026812 -15931.900000 0 0 1
29.660519 -6.428812 26.594382 40.352660 -0.213445 0.851243 0.106752 -0.018416 -366755.000000 0 0 1
29.286449 -5.060112 26.431682 39.773542 -0.171091 0.843899 0.118064 -0.018253 568912.000000 0 0 1
27.758479 -4.923012 26.174682 38.469250 -0.175527 0.822481 0.091174 -0.009413 181532.000000 0 0 1
27.361279 -5.207412 24.862782 37.335167 -0.188071 0.842050 0.115432 -0.017426 388443.000000 0 0 1
25.999679 -4.838812 24.663182 36.161720 -0.184005 0.820269 0.112987 -0.015065 401148.000000 0 0 1
25.385679 -5.378312 23.328282 34.893663 -0.208777 0.838534 0.118807 -0.020324 36917.500000 0 0 1
25.791679 -4.587312 22.196882 34.335925 -0.176019 0.867858 0.132565 -0.015363 -244537.000000 0 0 1
24.953279 -4.734312 21.120882 33.032885 -0.187498 0.877092 0.128808 -0.009745 -450396.000000 0 0 1
25.340479 -3.835012 19.949882 32.478377 -0.150200 0.909360 0.148490 -0.012798 -47451.800000 0 0 1
24.851379 -2.506312 20.043182 32.025018 -0.100512 0.894562 0.127571 -0.001614 -10880.400000 0 0 1
25.252379 -1.642112 18.998882 31.643905 -0.064937 0.926800 0.139837 -0.015369 386989.000000 0 0 1
24.126579 -0.572212 18.636782 30.491784 -0.023713 0.913212 0.096722 -0.009628 1785160.000000 0 0 1
23.012379 -1.306812 18.035282 29.266854 -0.056726 0.906842 0.116476 -0.010222 1232500.000000 0 0 1
21.925379 -0.496012 17.529582 28.075871 -0.022619 0.896478 0.115504 -0.012702 1035940.000000 0 0 1
20.839079 -1.421312 16.926082 26.884561 -0.068099 0.889779 0.089445 -0.010699 56907.700000 0 0 1
21.314979 -2.096712 15.803482 26.617186 -0.098053 0.935107 0.118314 -0.015596 158363.000000 0 0 1
20.256879 -2.918912 15.373982 25.597276 -0.143110 0.926532 0.107891 -0.021341 -53576.900000 0 0 1
20.392379 -3.502312 13.924582 24.940114 -0.170087 0.978436 0.113225 -0.031154 -64271.700000 0 1 0
19.306179 -4.313712 13.539182 23.971777 -0.219826 0.970609 0.095899 -0.024803 482372.000000 0 1 0
19.486479 -4.525412 12.168182 23.415099 -0.228189 1.024329 0.094176 -0.030533 -80655.500000 0 1 0
18.532879 -5.558712 11.541082 22.529169 -0.291400 1.032967 0.068605 -0.027136 -201302.000000 0 1 0
18.711879 -6.830112 12.087082 23.299837 -0.349988 1.025394 0.093925 -0.031009 706198.000000 0 1 0
17.516979 -7.602612 12.159382 22.638349 -0.409481 1.003784 0.064327 -0.012935 -107072.000000 0 1 0
17.642179 -9.127112 12.395982 23.413907 -0.477428 1.012870 0.082944 -0.031302 -554891.000000 0 1 0
18.285079 -9.775412 11.323382 23.624601 -0.490952 1.070934 0.070059 -0.040379 442108.000000 0 1 0
18.133879 -11.134912 11.384182 24.133451 -0.550679 1.079558 0.081418 -0.037438 28250.100000 0 1 0
18.736879 -11.788812 10.130982 24.345092 -0.561597 1.141599 0.080458 -0.044922 136647.000000 0 1 0
18.039379 -11.418712 8.965282 23.155614 -0.564323 1.173230 0.065813 -0.039305 260752.000000 0 1 0
18.689279 -11.980412 7.863482 23.551089 -0.570044 1.230369 0.089160 -0.050303 43205.800000 0 1 0
18.503879 -11.236812 6.509982 22.606180 -0.545746 1.278686 0.090997 -0.039425 -492622.000000 0 1 0
19.182479 -10.036812 6.507582 22.606498 -0.482057 1.278801 0.100202 -0.026152 333008.000000 0 1 0
19.338079 -9.410412 5.261782 22.140540 -0.452891 1.330847 0.065059 -0.034550 -479978.000000 0 1 0
20.061279 -8.038512 5.349082 22.263991 -0.381108 1.328166 0.094589 -0.025208 -248719.000000 0 1 0
20.389379 -7.574512 4.092982 22.132612 -0.355693 1.384796 0.086063 -0.025601 386700.000000 0 1 0
21.195779 -6.435312 4.179382 22.541995 -0.294768 1.384313 0.121955 -0.020989 -271176.000000 0 1 0
21.889079 -6.080812 2.837882 22.894577 -0.270969 1.446522 0.127961 -0.023123 573545.000000 0 1 0
20.935579 -5.662612 1.835582 21.765409 -0.264157 1.486361 0.096194 -0.033510 1093250.000000 0 1 0
21.606979 -4.882112 0.882482 22.169243 -0.222219 1.530979 0.108602 -0.023848 208557.000000 0 1 0
-26.339773 -15.297812 0.439982 30.463097 0.526173 1.556353 0.140350 -0.022265 -715143.000000 0 0 1
-25.404343 -14.585912 -0.293418 29.295316 0.521196 1.580812 0.149543 -0.018452 69300.900000 0 0 1
-24.040873 -14.976312 -0.183818 28.324676 0.557125 1.577286 0.154213 -0.014906 652209.000000 0 0 1
-23.336473 -14.417912 1.050582 27.451245 0.553425 1.532516 0.171202 -0.025860 -683270.000000 0 0 1
-23.713673 -15.126412 2.228982 28.215509 0.567806 1.491715 0.146277 -0.006433 358138.000000 0 0 1
-22.825973 -14.829112 3.303182 27.419675 0.576136 1.450035 0.121440 0.001910 426306.000000 0 0 1
-23.380573 -15.461712 4.592082 28.404277 0.584282 1.408415 0.115192 -0.001363 -37702.200000 0 0 1
-23.217973 -16.867412 4.440182 29.039612 0.628278 1.417293 0.140989 -0.017884 373864.000000 0 0 1
-23.789373 -17.568612 5.566582 30.092810 0.636105 1.384744 0.134586 -0.022121 140810.000000 0 0 1
-23.840873 -19.096412 5.413182 31.021971 0.675347 1.395403 0.105845 -0.015809 -21053.000000 0 0 1
-24.392273 -19.817512 6.468782 32.086787 0.682287 1.367802 0.091329 -0.025740 -129065.000000 0 0 1
-24.645373 -21.101812 6.057882 33.005739 0.708093 1.386210 0.108664 -0.034429 -193316.000000 0 0 1
-25.219763 -22.006112 7.142182 34.224496 0.717454 1.360565 0.097150 -0.025976 -522799.000000 0 0 1
-24.350973 -22.345912 8.171482 34.045305 0.742487 1.328412 0.084902 -0.018546 -623037.000000 0 0 1
-24.819573 -23.316412 9.093382 35.247069 0.754181 1.309855 0.079483 -0.016695 59033.100000 0 0 1
-23.867873 -23.560212 10.330882 35.092536 0.778911 1.271979 0.075454 -0.023189 522638.000000 0 0 1
-23.926673 -22.499012 11.209982 34.703817 0.754656 1.241879 0.075576 -0.022364 -56410.800000 0 0 1
-23.030573 -22.691412 12.273182 34.582343 0.777980 1.207992 0.082021 -0.024422 -547610.000000 0 0 1
-23.229273 -21.813512 13.548882 34.626588 0.753977 1.168768 0.062882 -0.014912 -433388.000000 0 0 1
-24.415473 -22.147812 14.220282 35.900659 0.736736 1.163530 0.056593 -0.009011 -104254.000000 0 0 1
-24.705373 -21.337412 15.341282 36.069315 0.712380 1.131472 0.055118 0.000754 440366.000000 0 0 1
-26.164193 -21.536612 15.861382 37.416227 0.688688 1.133030 0.046572 -0.002501 350690.000000 0 0 1
-27.256463 -21.294312 15.000082 37.700994 0.663208 1.161603 0.052085 -0.002002 399791.000000 0 0 1
-27.706153 -22.356112 14.142282 38.307059 0.678935 1.192667 0.040340 -0.005702 -96706.000000 0 0 1
-28.670123 -23.372012 14.837282 39.854383 0.683943 1.189324 0.034901 -0.015731 -301905.000000 0 0 1
-28.134933 -24.215112 15.811482 40.347851 0.710661 1.168123 0.032158 -0.010710 -636533.000000 0 0 1
-29.018863 -25.227222 16.183982 41.718442 0.715615 1.172408 0.032411 -0.012995 -208582.000000 0 0 1
-29.141073 -26.531912 15.303182 42.276848 0.738567 1.200410 0.045829 -0.010302 423393.000000 0 0 1
-29.972563 -26.414922 14.117082 42.372097 0.722389 1.231133 0.056958 -0.023073 1006220.000000 0 0 1
-31.274223 -27.003422 14.225282 43.699204 0.712245 1.239227 0.071001 -0.029507 473035.000000 0 0 1
-31.915443 -27.394752 12.887982 43.990544 0.709324 1.273463 0.096648 -0.037851 -187187.000000 0 0 1
-31.224413 -28.461992 12.291482 44.001471 0.739149 1.287687 0.093704 -0.036868 153242.000000 0 0 1
-31.695013 -28.770802 10.992082 44.194556 0.737074 1.319438 0.092235 -0.025178 -91618.900000 0 0 1
-30.954103 -29.955462 10.409082 44.315180 0.769004 1.333693 0.078851 -0.031080 -50650.800000 0 0 1
-31.364593 -31.192902 11.002482 45.582775 0.782654 1.327015 0.090956 -0.018360 40813.200000 0 0 1
-30.825703 -32.318192 10.352182 45.846016 0.809030 1.343029 0.092865 -0.022436 -352137.000000 0 0 1
-30.953863 -33.580892 11.197782 47.023486 0.826083 1.330355 0.101191 -0.021305 793313.000000 0 0 1
-32.301963 -34.042482 11.399682 48.293479 0.811627 1.332497 0.094112 -0.017378 774698.000000 0 0 1
-32.368693 32.762020 11.889082 47.565035 -0.791437 1.318163 0.106468 -0.021228 -226185.000000 0 0 1
-33.772833 32.284883 12.317582 48.318120 -0.762877 1.313024 0.111256 -0.018368 1055590.000000 0 0 1
-34.801551 32.073706 11.300282 48.657650 -0.744631 1.336416 0.071708 -0.018207 1178670.000000 0 0 1
-35.436722 33.246886 10.758282 49.768035 -0.753526 1.352908 0.089728 -0.017253 629388.000000 0 0 1
-36.892503 32.842327 10.289182 50.453369 -0.727384 1.365421 0.078034 -0.014438 703856.000000 0 0 1
36.896819 32.145564 9.084382 49.771865 0.716690 1.387247 0.061326 -0.017041 400337.000000 0 0 1
35.512979 32.038966 8.779782 48.628712 0.734016 1.389253 0.052929 -0.019809 101160.000000 0 0 1
35.207109 31.540986 7.352082 47.837511 0.730529 1.416496 0.056579 -0.019819 3646.730000 0 0 1
35.620879 30.198766 7.264582 47.260837 0.703205 1.416472 0.066918 -0.023305 117685.000000 0 0 1
35.325409 29.787166 5.980882 46.593248 0.700546 1.442077 0.091523 -0.021109 28264.600000 0 0 1
35.579269 28.291996 5.679482 45.810239 0.671796 1.446498 0.095759 -0.020534 -305464.000000 0 0 1
34.650269 27.467916 6.287682 44.661645 0.670285 1.429542 0.096426 -0.028249 -448127.000000 0 0 1
35.106589 27.034486 7.522182 44.943512 0.656222 1.402635 0.078291 -0.026189 -149430.000000 0 0 1
34.199039 25.988846 8.179082 43.725185 0.649826 1.382631 0.082414 -0.022849 -215012.000000 0 0 1
34.015059 24.892056 7.297482 42.777237 0.631748 1.399365 0.090151 -0.030519 691983.000000 0 0 1
33.012969 23.971566 7.827082 41.542212 0.628046 1.381251 0.089051 -0.027858 24460.600000 0 0 1
33.129489 22.614406 7.165082 40.746937 0.598957 1.394034 0.079434 -0.030324 859987.000000 0 0 1
34.175559 21.732306 7.623682 41.211437 0.566401 1.384735 0.091284 -0.028707 17335.200000 0 0 1
35.493269 22.132006 7.380982 42.474425 0.557560 1.396135 0.087959 -0.032761 -1283660.000000 0 0 1
36.451309 20.992206 7.316782 42.695503 0.522508 1.398575 0.069563 -0.025399 -770797.000000 0 0 1
36.210799 20.213306 6.205382 41.932166 0.509126 1.422265 0.082295 -0.025840 -146993.000000 0 0 1
36.812339 18.975406 6.350782 41.899246 0.475942 1.418637 0.090483 -0.032686 -188174.000000 0 0 1
36.311209 17.935806 5.321982 40.847528 0.458793 1.440136 0.087329 -0.028383 53268.300000 0 0 1
-36.906153 17.950506 4.118082 41.246132 -0.452694 1.470788 0.090505 -0.022809 138920.000000 0 0 1
36.544699 16.974206 3.261382 40.426172 0.434828 1.490034 0.085724 -0.018197 -246057.000000 0 0 1
-36.512103 16.619806 2.038982 40.168508 -0.427158 1.520014 0.099562 -0.013641 374415.000000 0 0 1
-35.520731 15.662106 2.356382 38.891856 -0.415285 1.510171 0.108638 -0.032727 247270.000000 0 0 1
-34.233527 16.211106 2.525282 37.961973 -0.442260 1.504226 0.113021 -0.034609 -397234.000000 0 0 1
-33.027293 15.343406 2.833182 36.527375 -0.434902 1.493155 0.106861 -0.026758 -258109.000000 0 0 1
-32.798523 14.695506 4.085382 36.171693 -0.421234 1.457611 0.120474 -0.034786 -497203.000000 0 0 1
-31.480803 14.278906 4.253182 34.828403 -0.425823 1.448373 0.110840 -0.036972 -567730.000000 0 0 1
-31.360073 13.318506 5.464882 34.506546 -0.401613 1.411754 0.123996 -0.027720 -180651.000000 0 0 1
-31.848613 12.033306 5.328082 34.460456 -0.361248 1.415559 0.142942 -0.034022 51448.100000 0 0 1
-31.372943 11.134106 6.341582 33.888723 -0.341029 1.382557 0.147927 -0.022129 -173964.000000 0 0 1
-31.790443 9.701206 6.253882 33.820951 -0.296185 1.384815 0.165707 -0.038808 -473092.000000 0 0 1
-33.121783 9.327906 6.463982 35.012075 -0.274514 1.385110 0.159436 -0.018543 -514257.000000 0 0 1
-33.216243 7.926006 6.356682 34.735396 -0.234238 1.386756 0.185604 -0.028964 406018.000000 0 0 1
-34.683432 7.398006 6.357182 36.028942 -0.210152 1.393421 0.172279 -0.028294 365627.000000 0 0 1
-35.299574 7.236006 7.606882 36.827766 -0.202188 1.362746 0.162976 -0.030580 -483662.000000 0 0 1
-36.440003 6.438806 7.464282 37.749802 -0.174891 1.371754 0.122674 -0.024866 -45237.500000 0 0 1
36.889409 5.984606 8.795082 38.392675 0.160830 1.339662 0.101228 -0.024868 -26933.000000 0 0 1
36.280159 6.881306 9.642482 38.165165 0.187445 1.315377 0.112034 -0.021991 83104.900000 0 0 1
-36.724913 7.522406 10.436082 38.912949 -0.202037 1.299282 0.131561 -0.028901 -174440.000000 0 0 1
36.602269 8.488606 11.423882 39.271970 0.227886 1.275638 0.105873 -0.025985 -182270.000000 0 0 1
35.907719 7.914706 12.550982 38.852722 0.216949 1.241856 0.093250 -0.035126 748404.000000 0 0 1
35.390149 8.992906 13.307682 38.864244 0.248841 1.221311 0.103001 -0.032569 -485262.000000 0 0 1
34.710619 8.509706 14.610382 38.609655 0.240420 1.182716 0.111975 -0.033921 -1373090.000000 0 0 1
33.433389 8.054806 14.458082 37.305597 0.236416 1.172815 0.097994 -0.035666 -1193440.000000 0 0 1
33.041639 7.532706 15.710082 37.353691 0.224145 1.136716 0.097390 -0.024995 -247547.000000 0 0 1
31.560469 7.178006 15.853682 36.040619 0.223632 1.115327 0.088353 -0.011843 -145313.000000 0 0 1
30.635359 8.257406 15.833282 35.459876 0.263282 1.107932 0.069421 -0.014022 1074160.000000 0 0 1
29.246879 7.954006 16.000482 34.273336 0.265539 1.085072 0.072959 -0.010794 1012440.000000 0 0 1
28.621679 7.357506 17.297082 34.242115 0.251613 1.041251 0.069993 -0.013051 -282651.000000 0 0 1
28.822579 8.188606 18.420182 35.172396 0.276810 1.019595 0.090606 -0.018750 95389.400000 0 0 1
27.937179 7.927606 19.486582 34.972272 0.276497 0.979785 0.088157 -0.008550 -234678.000000 0 0 1
28.248379 6.735506 20.425982 35.504348 0.234068 0.957814 0.081697 -0.009528 -86894.200000 0 0 1
27.488779 6.739706 21.613582 35.611846 0.240437 0.918615 0.064760 0.001003 42172.900000 0 0 1
27.979179 5.743106 22.512882 36.368222 0.202452 0.903294 0.071869 0.000382 -202197.000000 0 0 1
27.050479 5.541506 23.721282 36.402417 0.202062 0.861051 0.078781 0.010434 -477485.000000 0 0 1
25.830179 5.039906 23.285982 35.140230 0.192696 0.846433 0.056123 0.001337 -314882.000000 0 0 1
24.698979 5.665406 23.888782 34.825426 0.225478 0.814877 0.063595 0.014598 1409870.000000 0 0 1
23.274879 5.246606 23.354282 33.386665 0.221713 0.796086 0.056746 0.007069 572266.000000 0 0 1
23.114779 5.354506 21.914982 32.299074 0.227634 0.825075 0.063693 0.005005 790260.000000 0 0 1
21.797279 5.257406 21.358282 30.966723 0.236675 0.809698 0.068913 -0.002223 136420.000000 0 0 1
21.011379 3.918506 21.491182 30.310125 0.184376 0.782656 0.082996 -0.005612 259180.000000 0 0 1
19.743279 3.885206 20.859882 28.983212 0.194304 0.767393 0.071519 -0.012209 1654930.000000 0 0 1
18.614879 4.468706 21.622282 28.879164 0.235603 0.724674 0.086520 -0.018787 1756670.000000 0 0 1
17.233779 4.259806 20.885882 27.411114 0.242321 0.704478 0.117803 -0.021945 579109.000000 0 0 1
16.635779 3.019706 21.143182 27.072161 0.179564 0.674541 0.104532 -0.011961 -142428.000000 0 0 1
15.483879 2.829806 20.361982 25.736523 0.180763 0.658076 0.111633 -0.017953 -766643.000000 0 0 1
14.535079 1.786506 20.848682 25.477984 0.122297 0.612346 0.116969 -0.017009 -544769.000000 0 0 1
15.027679 0.433806 20.713682 25.594452 0.028859 0.627831 0.093066 -0.016208 362334.000000 0 0 1
14.196779 -0.338194 21.540982 25.800713 -0.023817 0.582848 0.097923 -0.022174 -100291.000000 0 0 1
14.490379 -1.813594 21.364382 25.878505 -0.124511 0.599594 0.073604 -0.007493 10222.200000 0 0 1
13.993679 -2.431494 20.162882 24.663273 -0.172039 0.613693 0.067640 -0.011106 160778.000000 0 1 0
13.988879 -3.833994 20.301482 24.950720 -0.267505 0.620370 0.040763 -0.002227 -108210.000000 0 1 0
13.702679 -4.573794 19.006782 23.873432 -0.322160 0.649894 0.044171 -0.002872 -97453.700000 0 1 0
12.343579 -4.893994 18.846482 23.054392 -0.377469 0.613776 0.044955 -0.005988 -301788.000000 0 1 0
11.985779 -5.146294 17.485182 21.814555 -0.405563 0.640934 0.042549 -0.008660 190474.000000 0 1 0
10.456579 -5.244494 17.300882 20.884570 -0.464887 0.594542 0.040384 -0.007177 192334.000000 0 1 0
9.857379 -6.246694 18.079582 21.518838 -0.564836 0.573191 0.044037 -0.000276 -1026580.000000 0 1 0
8.492979 -6.371394 17.844282 20.764001 -0.643626 0.536730 0.030506 -0.013159 -588187.000000 0 1 0
7.806979 -7.116494 19.019382 21.756155 -0.739163 0.506996 0.026625 -0.011735 -383971.000000 0 1 0
7.755479 -8.552994 18.989882 22.224238 -0.834261 0.546272 0.021169 -0.005424 233854.000000 0 1 0
9.013879 -9.095694 19.375882 23.225126 -0.789916 0.584000 0.055187 -0.013926 573519.000000 0 1 0
9.162279 -10.534294 18.819382 23.432623 -0.854943 0.638271 0.073796 -0.026290 182611.000000 0 1 0
9.098379 -10.555094 17.425782 22.312516 -0.859383 0.674552 0.054316 -0.021328 85494.500000 0 1 0
9.736679 -11.719694 16.921082 22.770093 -0.877557 0.733064 0.070101 -0.031193 131823.000000 0 1 0
9.569779 -11.978494 15.402682 21.732639 -0.896718 0.783093 0.058907 -0.027081 103881.000000 0 1 0
10.290079 -13.159294 15.044982 22.481197 -0.907151 0.837631 0.052717 -0.024230 28555.300000 0 1 0
10.052779 -13.447594 13.721082 21.683271 -0.928864 0.885638 0.040353 -0.012142 -517705.000000 0 1 0
10.865179 -14.577394 13.062982 22.387363 -0.930281 0.947767 0.064037 -0.020429 258807.000000 0 1 0
12.151179 -14.249794 12.564682 22.551696 -0.864721 0.979846 0.040979 -0.026813 52216.600000 0 1 0
12.132379 -13.374694 11.446082 21.379660 -0.834064 1.005848 -0.000125 -0.026174 -235903.000000 0 1 0
13.540379 -13.069994 10.807782 21.701953 -0.767723 1.049494 0.019977 -0.035209 834540.000000 0 1 0
14.133079 -14.277994 10.351182 22.599823 -0.790499 1.095029 0.032244 -0.031254 -52274.300000 0 1 0
15.411779 -14.024494 9.812682 23.032544 -0.738305 1.130690 0.046231 -0.038428 407729.000000 0 1 0
16.289379 -15.302194 9.414882 24.251619 -0.754160 1.172101 0.046785 -0.043543 834954.000000 0 1 0
16.928579 -15.911694 10.553982 25.517549 -0.754443 1.144395 0.053214 -0.036419 187259.000000 0 0 1
16.033179 -16.713594 11.269282 25.756626 -0.806173 1.117947 0.077510 -0.029320 343493.000000 0 0 1
16.768279 -17.349394 12.528882 27.187305 -0.802429 1.091860 0.087543 -0.030374 -136204.000000 0 0 1
17.889879 -18.110994 12.226182 28.240669 -0.791540 1.123058 0.116803 -0.038868 -470367.000000 0 0 1
18.358879 -18.852594 13.323982 29.495715 -0.798665 1.102097 0.087112 -0.033087 -2109.950000 0 0 1
19.724479 -19.540594 13.127282 30.711812 -0.780715 1.129143 0.044570 -0.033500 698640.000000 0 0 1
20.799679 -18.609194 12.922282 30.755717 -0.729872 1.137176 0.052728 -0.035166 478226.000000 0 0 1
22.052879 -19.196594 12.616482 31.843591 -0.716264 1.163420 0.044857 -0.030863 323771.000000 0 0 1
22.759279 -18.721994 11.347282 31.579402 -0.688376 1.203251 0.078977 -0.031752 -739589.000000 0 0 1
22.199479 -19.139494 10.140282 31.015519 -0.711511 1.237730 0.076187 -0.031689 77804.800000 0 0 1
20.925779 -18.664894 9.732882 29.681568 -0.728354 1.236706 0.078897 -0.034473 158545.000000 0 0 1
20.694479 -17.120394 9.577482 28.514865 -0.691163 1.228260 0.139326 -0.048166 -370823.000000 0 0 1
21.539479 -16.471094 8.655982 28.463523 -0.652839 1.261794 0.134958 -0.043878 -144741.000000 0 0 1
21.320379 -15.087094 8.728182 27.538339 -0.615833 1.248288 0.146308 -0.052564 19677.200000 0 0 1
-35.492872 24.726888 8.286882 44.043562 -0.608489 1.381516 0.099165 -0.025272 -365421.000000 0 0 1
-34.572193 23.980488 9.015382 43.029960 -0.606441 1.359718 0.104513 -0.032968 105967.000000 0 0 1
-33.444513 24.814888 9.298082 42.670463 -0.638343 1.351130 0.111542 -0.025755 -699189.000000 0 0 1
-32.390213 24.057388 10.046582 41.579052 -0.638836 1.326755 0.126238 -0.032701 -845509.000000 0 0 1
-31.802463 23.069688 9.196582 40.350765 -0.627574 1.340860 0.135163 -0.034969 -337013.000000 0 0 1
-30.956733 22.222088 9.888382 39.369031 -0.622601 1.316906 0.128725 -0.029480 -332472.000000 0 0 1
-30.127563 21.320088 8.933582 37.974005 -0.615849 1.333315 0.116843 -0.032506 10056.900000 0 0 1
-30.913023 20.389088 8.158882 37.919615 -0.583069 1.353938 0.128766 -0.044317 641062.000000 0 0 1
-30.194243 19.689988 7.141982 36.747732 -0.577858 1.375200 0.123350 -0.044425 877417.000000 0 0 1
-31.309723 18.999388 6.230882 37.149689 -0.545420 1.402276 0.115844 -0.040070 867823.000000 0 0 1
-32.026063 17.938988 6.868082 37.344967 -0.510593 1.385834 0.110558 -0.037158 45518.600000 0 0 1
-32.951143 17.458088 5.926582 37.758271 -0.487216 1.413183 0.075304 -0.034740 -402222.000000 0 0 1
-33.794613 16.320888 6.495282 38.087215 -0.449910 1.399422 0.095188 -0.029196 -226974.000000 0 0 1
-34.691514 16.727888 7.526882 39.242545 -0.449298 1.377796 0.070130 -0.028075 83191.400000 0 0 1
-35.601372 15.702288 7.807082 39.685892 -0.415393 1.372783 0.078552 -0.032280 -469028.000000 0 0 1
-36.464223 16.065688 8.998282 40.849908 -0.414999 1.348698 0.083619 -0.031330 -453075.000000 0 0 1
36.598669 17.105588 8.758082 41.337244 0.437215 1.357309 0.095074 -0.030668 -118526.000000 0 0 1
35.984049 17.575888 9.970382 41.269506 0.454353 1.326790 0.115589 -0.025624 -103689.000000 0 0 1
34.951579 18.662688 9.728582 40.798948 0.490444 1.330025 0.093452 -0.021519 -523918.000000 0 0 1
33.692719 18.238988 9.297482 39.424652 0.496165 1.332725 0.092676 -0.022859 -236430.000000 0 0 1
32.857919 19.316588 8.895082 39.139442 0.531462 1.341527 0.096339 -0.032130 -17415.900000 0 0 1
31.363899 19.011188 8.689182 37.691131 0.544928 1.338167 0.093373 -0.033534 -198209.000000 0 0 1
30.688779 20.237188 8.583582 37.749475 0.582978 1.341407 0.090737 -0.029201 -126314.000000 0 0 1
29.402649 20.186788 7.983482 36.548026 0.601651 1.350583 0.080836 -0.036022 179646.000000 0 0 1
29.125959 19.901188 6.488682 35.867559 0.599416 1.388888 0.054756 -0.019057 -900159.000000 0 0 1
29.277629 18.542688 6.094482 35.187406 0.564574 1.396718 0.059642 -0.022794 240570.000000 0 0 1
28.892039 18.242188 4.746382 34.497181 0.563182 1.432771 0.058861 -0.023210 -196093.000000 0 0 1
27.463079 18.551088 4.289282 33.417982 0.594088 1.442089 0.067907 -0.020209 -944267.000000 0 0 1
26.440379 17.763988 4.893582 32.227319 0.591583 1.418361 0.074860 -0.026315 2030710.000000 0 0 1
25.042979 18.031388 4.572982 31.196056 0.624035 1.423678 0.086434 -0.027781 1484050.000000 0 0 1
24.495279 19.438888 4.930982 31.657600 0.670812 1.414400 0.086417 -0.024759 -896794.000000 0 0 1
25.102579 20.468588 4.180882 32.658573 0.684060 1.442426 0.079957 -0.030374 2577.180000 0 0 1
24.571179 21.745188 4.459482 33.113185 0.724459 1.435712 0.070773 -0.024569 -319260.000000 0 0 1
25.466579 22.980988 4.188882 34.557477 0.734138 1.449283 0.050751 -0.013047 -292917.000000 0 0 1
26.669879 22.918588 4.903082 35.504709 0.709894 1.432257 0.054809 -0.023624 60495.800000 0 0 1
27.474879 24.083788 4.751682 36.843946 0.719721 1.441468 0.060907 -0.017803 639113.000000 0 0 1
28.801179 24.082788 5.648682 37.965724 0.696412 1.421458 0.067108 -0.022258 799984.000000 0 0 1
29.752269 23.025988 5.503182 38.022081 0.658637 1.425550 0.056973 -0.023179 689296.000000 0 0 1
30.321569 22.943088 4.169382 38.251361 0.647749 1.461580 0.056214 -0.024881 -303135.000000 0 0 1
31.269509 24.111888 3.718982 39.661016 0.656868 1.476889 0.075509 -0.035904 -397911.000000 0 0 1
30.593489 25.326288 3.560982 39.875595 0.691483 1.481375 0.070028 -0.028710 -215640.000000 0 0 1
31.421389 26.267588 2.888982 41.056499 0.696297 1.500372 0.108568 -0.025053 -537799.000000 0 0 1
30.878679 27.742388 2.864682 41.609366 0.731948 1.501895 0.101601 -0.016993 697537.000000 0 0 1
29.652099 27.962888 2.167182 40.815031 0.756088 1.517674 0.126928 -0.017016 199213.000000 0 0 1
28.522779 27.525488 2.884282 39.743182 0.767607 1.498159 0.103345 -0.014286 -1304720.000000 0 0 1
27.251479 28.149788 2.338282 39.249475 0.801611 1.511186 0.060885 -0.002913 -618052.000000 0 0 1
26.986179 29.459388 2.704882 40.042800 0.829186 1.503195 0.062570 -0.011555 92342.500000 0 0 1
25.634479 29.733088 2.378382 39.329884 0.859289 1.510287 0.046456 -0.004198 159286.000000 0 0 1
25.210279 31.139488 2.782282 40.161760 0.890234 1.501464 0.058266 -0.014280 41750.100000 0 0 1
24.977179 31.310888 4.169382 40.269280 0.897450 1.467073 0.028216 -0.024575 -449953.000000 0 0 1
26.220679 31.431888 4.759982 41.208555 0.875543 1.455028 0.054124 -0.030254 -476087.000000 0 0 1
26.043479 31.294888 6.306082 41.199508 0.876730 1.417130 0.039524 -0.031545 243431.000000 0 0 1
25.454379 30.067288 6.776582 39.973608 0.868291 1.400447 0.034361 -0.034105 395010.000000 0 0 1
26.320479 28.957888 6.681482 39.698477 0.833073 1.401686 0.068698 -0.039121 -73002.500000 0 0 1
25.564579 27.716388 7.085582 38.366018 0.825762 1.385046 0.078528 -0.038875 -426199.000000 0 0 1
24.528279 27.383888 6.216082 37.284762 0.840351 1.403295 0.043196 -0.041463 -398615.000000 0 0 1
23.974679 26.155888 6.619882 36.093470 0.828881 1.386343 0.059303 -0.036739 504799.000000 0 0 1
22.756479 25.731388 5.690282 34.818687 0.846675 1.406634 0.063483 -0.022902 458451.000000 0 0 1
23.032479 25.410488 4.375582 34.573599 0.834448 1.443898 0.065820 -0.029523 142654.000000 0 0 1
23.197479 26.616588 3.590982 35.488885 0.853928 1.469437 0.057963 -0.028109 -248912.000000 0 0 1
23.427679 26.293288 2.109582 35.279505 0.842968 1.510964 0.053985 -0.016372 32232.400000 0 0 1
24.630779 25.595788 1.846382 35.570055 0.804609 1.518865 0.039177 0.002353 99100.100000 0 0 1
24.794279 25.182088 0.545182 35.343897 0.793158 1.555371 0.045383 -0.000727 -906276.000000 0 0 1
26.191579 24.633288 0.350482 35.957204 0.754748 1.561049 0.066102 -0.006143 -1910840.000000 0 0 1
27.146679 25.653088 0.278482 37.351047 0.757118 1.563340 0.080455 -0.006127 2443.820000 0 0 1
28.329279 25.434688 -0.461618 38.074723 0.731611 1.582921 0.082589 0.006218 135053.000000 0 0 1
29.266039 24.327188 0.031482 38.056722 0.693503 1.569969 0.080564 -0.005176 -1326470.000000 0 0 1
28.808179 22.998688 -0.263718 36.863537 0.673727 1.577950 0.075120 -0.010651 494467.000000 0 0 1
29.282879 22.097988 0.728182 36.692484 0.646463 1.550949 0.070760 -0.011878 -178062.000000 0 0 1
28.089879 21.319288 1.273982 35.287057 0.649215 1.534685 0.069308 -0.017796 -127123.000000 0 0 1
27.535179 20.295088 0.472582 34.209648 0.635168 1.556982 0.080202 -0.028647 1057990.000000 0 0 1
26.217579 19.978988 0.960282 32.976409 0.651166 1.541672 0.086464 -0.026340 554801.000000 0 0 1
25.618179 18.733588 0.256382 31.738055 0.631400 1.562718 0.085841 -0.032751 238680.000000 0 0 1
24.329179 18.370188 0.761982 30.495137 0.646737 1.545807 0.095769 -0.034152 478498.000000 0 0 1
23.947279 17.220788 0.130282 29.496520 0.623438 1.566379 0.111029 -0.046743 734489.000000 0 0 1
22.454179 16.859388 0.492182 28.083294 0.644035 1.553270 0.102524 -0.035707 96175.200000 0 0 1
21.998279 15.766488 -0.253818 27.066046 0.621856 1.580174 0.112757 -0.035602 160346.000000 0 0 1
20.629379 15.443288 -0.111618 25.769728 0.642609 1.575128 0.123585 -0.036540 222847.000000 0 0 1
19.637179 16.327488 -0.901818 25.554236 0.693630 1.606094 0.137192 -0.041255 -526763.000000 0 0 1
19.482379 17.608088 -0.322218 26.262363 0.734908 1.583066 0.098463 -0.032527 413294.000000 0 0 1
18.496079 18.351388 -1.061218 26.076897 0.781471 1.611503 0.091076 -0.034386 380648.000000 0 0 1
18.293879 19.693688 -0.417218 26.882735 0.822231 1.586317 0.079733 -0.028421 -264879.000000 0 0 1
17.528279 19.664088 0.784982 26.353996 0.842761 1.541006 0.081177 -0.030509 166391.000000 0 0 1
17.559479 20.934488 1.427382 27.361022 0.872851 1.518604 0.087887 -0.034023 572640.000000 0 0 1
16.556179 22.035688 0.879082 27.576283 0.926441 1.538913 0.077416 -0.039000 459593.000000 0 0 1
15.225579 21.921488 1.320782 26.722918 0.963737 1.521351 0.065739 -0.036094 35895.800000 0 0 1
14.419179 23.026388 0.900482 27.183417 1.011333 1.537664 0.049640 -0.031557 1482660.000000 0 0 1
12.931479 23.079488 1.447882 26.494948 1.060078 1.516122 0.039963 -0.031539 1052690.000000 0 0 1
12.767479 23.163988 2.862382 26.603987 1.067049 1.462995 0.038018 -0.015415 287054.000000 0 0 1
11.371279 23.065188 3.137082 25.906566 1.112759 1.449406 0.027977 -0.021594 630851.000000 0 0 1
11.027579 23.400088 4.616182 26.277001 1.130402 1.394206 0.041416 -0.018321 -338383.000000 0 0 1
11.600479 22.472088 5.441782 25.868491 1.094259 1.358850 0.041903 -0.035053 -64860.200000 0 0 1
10.926079 22.544488 6.678182 25.927423 1.119508 1.310288 0.034058 -0.019806 -206389.000000 0 0 1
11.589979 21.644388 7.769782 25.752217 1.079175 1.264307 0.039629 -0.014925 839886.000000 0 0 1
12.888079 21.972288 8.278082 26.784523 1.040317 1.256590 0.050449 -0.011646 951280.000000 0 0 1
13.945579 21.558788 7.401982 26.721711 0.996630 1.290123 0.060847 -0.013888 -911823.000000 0 0 1
15.326179 21.608788 7.984982 27.669323 0.953885 1.278047 0.076481 -0.017660 -987472.000000 0 0 1
15.561979 20.523988 8.935582 27.262683 0.922046 1.236866 0.078394 -0.016340 968756.000000 0 0 1
16.912879 20.278388 9.380282 28.022280 0.875644 1.229463 0.080040 -0.023485 1092630.000000 0 0 1
17.352779 20.985188 10.708882 29.260506 0.879863 1.196106 0.064703 -0.015009 -150786.000000 0 0 1
16.554979 20.514588 11.740782 28.857609 0.891810 1.151791 0.070885 -0.023918 -145428.000000 0 0 1
16.678879 21.317488 12.895882 29.982063 0.906877 1.126171 0.073098 -0.012349 -14724.700000 0 0 1
17.683079 20.827188 13.980982 30.690893 0.866861 1.097816 0.077016 -0.004846 530979.000000 0 0 1
19.044679 21.080488 13.662982 31.524020 0.836091 1.122518 0.063182 -0.005584 200690.000000 0 0 1
19.897579 20.518388 14.678182 32.130467 0.800757 1.096367 0.047178 -0.010637 832881.000000 0 0 1
21.369579 20.982488 14.406482 33.233574 0.776259 1.122432 0.047307 -0.006808 739548.000000 0 0 1
22.008479 20.406588 13.212682 32.792941 0.747649 1.156100 0.054550 -0.017337 234687.000000 0 0 1
23.141979 21.217488 12.951982 33.963022 0.742041 1.179534 0.069431 -0.014147 -20846.300000 0 0 1
24.059279 20.721588 11.829282 33.884584 0.711002 1.214180 0.073697 -0.013542 -198314.000000 0 0 1
23.696579 21.086888 10.485982 33.408689 0.727190 1.251530 0.083016 -0.018625 404418.000000 0 0 1
24.678479 20.641988 9.564482 33.564838 0.696567 1.281836 0.089987 -0.026337 -216051.000000 0 0 1
24.655779 21.522888 8.331382 33.772090 0.717659 1.321529 0.085476 -0.028108 -110817.000000 0 0 1
25.071479 22.869688 8.417282 34.963586 0.739503 1.327664 0.076272 -0.021197 187688.000000 0 0 1
26.474579 23.036088 8.414882 36.088432 0.716060 1.335456 0.073442 -0.031036 -334366.000000 0 0 1
26.889779 24.352788 9.053582 37.390986 0.735929 1.326233 0.094042 -0.030282 -443135.000000 0 0 1
28.170379 24.784788 8.667282 38.509450 0.721552 1.343783 0.081874 -0.028898 -71344.300000 0 0 1
28.625479 25.702788 9.659282 39.665515 0.731653 1.324805 0.088010 -0.024431 234870.000000 0 0 1
29.970269 26.380888 9.304482 40.996850 0.721787 1.341845 0.079799 -0.032009 52356.500000 0 0 1
29.846949 27.311088 8.242982 41.287803 0.741061 1.369799 0.091866 -0.041059 -403355.000000 0 0 1
31.069659 27.753688 7.728982 42.371312 0.729086 1.387359 0.100400 -0.040937 -585109.000000 0 0 1
31.054929 28.623888 6.440682 42.722570 0.744685 1.419463 0.120469 -0.030165 54957.000000 0 0 1
30.848779 30.029888 6.590282 43.553108 0.771948 1.418897 0.117531 -0.035462 118175.000000 0 0 1
30.585599 30.631888 5.318482 43.612816 0.786154 1.448544 0.142250 -0.027633 78149.000000 0 0 1
30.548329 32.173988 5.476282 44.702971 0.811311 1.447984 0.102381 -0.030137 741726.000000 0 0 1
29.320509 32.729088 5.994782 44.348877 0.840276 1.435208 0.094811 -0.038922 705978.000000 0 0 1
29.324099 -34.018130 6.223782 45.341719 -0.859369 1.433098 0.067360 -0.033885 -816347.000000 0 0 1
28.016079 -33.430130 6.709482 44.130392 -0.873282 1.418167 0.064874 -0.040720 -485630.000000 0 0 1
27.049679 -33.450330 5.654482 43.388742 -0.890802 1.440103 0.057280 -0.036249 613393.000000 0 0 1
25.808879 -32.905430 6.195882 42.275934 -0.905680 1.423708 0.043555 -0.038384 325693.000000 0 0 1
24.771279 -32.981630 5.104582 41.562736 -0.926615 1.447669 0.030534 -0.032937 -886277.000000 0 0 1
25.224079 -32.349330 3.898982 41.206012 -0.908531 1.476033 0.023095 -0.014349 -677996.000000 0 0 1
24.329779 -32.455530 2.873182 40.663925 -0.927529 1.500081 0.027585 -0.018251 -591760.000000 0 0 1
24.833579 -31.713230 1.610682 40.311660 -0.906466 1.530830 0.033099 -0.009905 70243.600000 0 0 1
24.771779 -30.328230 1.770282 39.199190 -0.885901 1.525620 0.039690 -0.006835 -25526.100000 0 0 1
25.393679 -29.752830 0.642482 39.121384 -0.864281 1.554373 0.037633 -0.003395 -302377.000000 0 0 1
25.672379 -28.209130 0.846582 38.151577 -0.832444 1.548605 0.037848 -0.011261 41866.200000 0 0 1
24.607879 -27.263830 0.895782 36.737809 -0.836556 1.546411 0.043175 -0.007956 -202000.000000 0 0 1
23.927279 -27.078630 -0.318918 36.136804 -0.847104 1.579622 0.055643 -0.012947 -200834.000000 0 0 1
22.717179 -26.137030 -0.202418 34.630270 -0.855285 1.576641 0.061056 -0.007682 -206488.000000 0 0 1
23.055479 -24.812930 0.114582 33.871076 -0.822096 1.567413 0.063604 -0.015057 -402818.000000 0 0 1
23.164379 -24.573830 1.537382 33.805697 -0.814914 1.525304 0.050547 -0.004461 -112285.000000 0 0 1
21.907379 -24.313830 2.391582 32.814864 -0.837415 1.497851 0.055879 -0.012290 -149215.000000 0 0 1
22.081679 -23.353130 3.406982 32.319913 -0.813375 1.465186 0.056314 -0.012209 17360.100000 0 0 1
20.932979 -23.237830 4.238282 31.561835 -0.837531 1.436104 0.057249 -0.011624 267331.000000 0 0 1
21.165979 -22.246630 5.416482 31.180916 -0.810286 1.396199 0.056962 -0.012309 -69949.700000 0 0 1
21.343679 -20.836830 5.173182 30.273552 -0.773383 1.399072 0.088408 -0.018314 482426.000000 0 0 1
20.250279 -20.192830 4.511182 28.951252 -0.783978 1.414339 0.065413 -0.013344 -68519.800000 0 0 1
20.072779 -18.752930 4.982782 27.918041 -0.751417 1.391356 0.075443 -0.011922 34018.600000 0 0 1
19.569079 -18.618730 6.259582 27.727033 -0.760517 1.343076 0.095609 -0.020331 404628.000000 0 0 1
18.159179 -18.771330 6.468782 26.906575 -0.801972 1.328002 0.059787 -0.017503 710544.000000 0 0 1
19.316627 -26.253682 -12.248518 34.819737 -0.936466 1.930257 0.100750 -0.024282 155625.000000 0 0 1
19.137227 -24.875312 -12.197718 33.671931 -0.915041 1.941479 0.119716 -0.024870 -459735.000000 0 0 1
17.923327 -24.462912 -12.754918 32.899357 -0.938477 1.968926 0.098966 -0.024267 -346342.000000 0 0 1
17.983727 -22.991812 -13.158818 32.018625 -0.907016 1.994318 0.102770 -0.029381 31590.300000 0 0 1
18.141627 -21.963012 -12.104218 30.951650 -0.880397 1.972589 0.116015 -0.034157 -657007.000000 0 0 1
19.393127 -21.706712 -11.532018 31.309139 -0.841631 1.948006 0.105516 -0.036003 -864736.000000 0 0 1
19.637927 -22.450012 -10.178618 31.515956 -0.852114 1.899659 0.109220 -0.028600 240818.000000 0 0 1
18.856527 -21.999212 -9.060518 30.358309 -0.862168 1.873867 0.103037 -0.028184 1069520.000000 0 0 1
17.438327 -22.205112 -9.137618 29.675888 -0.905065 1.883796 0.104516 -0.007026 641908.000000 0 0 1
16.599827 -21.626212 -7.972818 28.404456 -0.916139 1.855308 0.092608 -0.018675 -369290.000000 0 0 1
16.407427 -20.249612 -8.171018 27.313293 -0.889831 1.874608 0.084667 -0.024903 724406.000000 0 0 1
15.491827 -19.556612 -7.276518 25.988565 -0.900859 1.854579 0.082599 -0.034210 719796.000000 0 0 1
14.011127 -19.657612 -7.706218 25.340071 -0.951559 1.879802 0.075474 -0.017332 -248192.000000 0 0 1
13.412327 -20.905012 -7.529918 25.953992 -1.000360 1.865154 0.067899 -0.017871 -242721.000000 0 0 1
12.065927 -20.853112 -7.971418 25.376808 -1.046249 1.890328 0.068049 -0.019311 334520.000000 0 0 1
11.295327 -22.208012 -7.788718 26.104489 -1.100281 1.873778 0.065964 -0.016904 135809.000000 0 0 1
11.134827 -22.512412 -6.386418 25.914849 -1.111471 1.819800 0.065481 -0.019509 394801.000000 0 0 1
10.526727 -23.809212 -6.153018 26.749770 -1.154508 1.802896 0.052913 -0.018987 637488.000000 0 0 1
11.181027 -24.480212 -4.871518 27.350098 -1.142354 1.749869 0.060921 -0.015761 774634.000000 0 0 1
10.246327 -25.331402 -4.196318 27.645546 -1.186424 1.723175 0.055300 -0.017953 556951.000000 0 0 1
10.919727 -25.987222 -3.099918 28.358167 -1.173002 1.680328 0.057834 -0.017183 112093.000000 0 0 1
9.922427 -26.877402 -2.330118 28.745065 -1.217143 1.651947 0.053276 -0.012656 327559.000000 0 0 1
8.949227 -26.094302 -1.628118 27.634255 -1.240409 1.629747 0.037938 -0.002126 -144967.000000 0 0 1
8.342827 -26.964342 -0.696118 28.234077 -1.270736 1.595454 0.034458 -0.006429 -43772.100000 0 0 1
7.598827 -26.298472 0.477682 27.378458 -1.289512 1.553348 0.043002 -0.002884 922390.000000 0 0 1
6.322827 -25.735412 0.103482 26.500949 -1.329882 1.566891 0.044795 -0.009658 669749.000000 0 0 1
5.668827 -25.167602 1.239382 25.827889 -1.349251 1.522792 0.049859 -0.011290 -809701.000000 0 0 1
4.289027 -24.631712 0.948882 25.020339 -1.398399 1.532863 0.039467 -0.018538 -398228.000000 0 0 1
3.386527 -25.744812 0.815482 25.979394 -1.440005 1.539402 0.039243 -0.017363 -388772.000000 0 0 1
2.075227 -25.319222 0.621482 25.411726 -1.489017 1.546337 0.040018 -0.015533 -372285.000000 0 0 1
1.045527 -26.392712 0.224982 26.414371 -1.531203 1.562279 0.061120 -0.015945 -5917.510000 0 0 1
0.696827 -27.376242 1.139582 27.408810 -1.545348 1.529207 0.061040 -0.015540 -221607.000000 0 0 1
1.360827 -28.612432 0.977582 28.661451 -1.523271 1.536682 0.050828 -0.020139 -361257.000000 0 0 1
0.830827 -29.729322 1.933382 29.803705 -1.542857 1.505880 0.074619 -0.027244 -32523.600000 0 0 1
1.220627 -29.649552 3.261182 29.853328 -1.529651 1.461338 0.047859 -0.025966 64026.800000 0 0 1
0.332427 -30.446282 4.007582 30.710703 -1.559878 1.439928 0.075035 -0.032650 81219.800000 0 0 1
0.547127 -30.265792 5.537782 30.773114 -1.552721 1.389855 0.062714 -0.031348 -66989.100000 0 0 1
1.881127 -30.521352 5.938282 31.150518 -1.509241 1.378991 0.041604 -0.017346 -44935.200000 0 0 1
2.126427 -30.387992 7.342882 31.334800 -1.500934 1.334260 0.043429 -0.013161 340362.000000 0 0 1
3.556327 -30.817512 7.764182 31.978884 -1.455905 1.325555 0.055790 -0.016118 323936.000000 0 0 1
3.776227 -32.238952 7.605782 33.338534 -1.454195 1.340632 0.060681 -0.020876 -248221.000000 0 0 1
5.055827 -32.660302 8.019282 34.008317 -1.417215 1.332751 0.047387 -0.019155 -82384.000000 0 0 1
5.262727 33.966589 7.620682 35.206538 1.417080 1.352613 0.042611 -0.020961 -140194.000000 0 0 1
5.130827 33.785546 6.236782 34.737386 1.420083 1.390277 0.040201 -0.021084 17269.200000 0 0 1
4.858127 32.436481 5.927482 33.329593 1.422128 1.392001 0.042768 -0.022372 -759827.000000 0 0 1
5.084027 32.010076 4.522682 32.725326 1.413286 1.432151 0.046697 -0.023493 945558.000000 0 0 1
6.432927 31.878946 4.012482 32.768122 1.371678 1.448037 0.043839 -0.018367 648405.000000 0 0 1
7.213927 30.881096 4.545682 32.036637 1.341308 1.428426 0.036064 -0.021655 -818900.000000 0 0 1
8.569627 30.641736 3.870282 32.052045 1.298092 1.449751 0.020949 -0.015348 -781181.000000 0 0 1
9.604327 31.350636 4.446882 33.088975 1.273522 1.435997 0.026287 -0.012872 -1089520.000000 0 0 1
10.696127 31.441256 3.555482 33.400617 1.242884 1.464145 0.027878 -0.016841 -226293.000000 0 0 1
11.898827 31.922596 4.385082 34.349137 1.214009 1.442785 0.059516 -0.026223 -258257.000000 0 0 1
12.533627 30.947176 5.205182 33.792210 1.185986 1.416146 0.060863 -0.017915 214314.000000 0 0 1
13.701927 31.434216 5.860982 34.787985 1.159736 1.401512 0.084302 -0.017991 929732.000000 0 0 1
14.462227 30.294206 6.677982 34.227042 1.125398 1.374428 0.069984 -0.019331 422487.000000 0 0 1
13.743127 29.977076 7.886682 33.907203 1.140934 1.336050 0.061671 -0.015128 400796.000000 0 0 1
14.398927 28.946486 8.609782 33.456786 1.109205 1.310527 0.059891 -0.019475 209711.000000 0 0 1
14.088527 28.914096 10.096882 33.711402 1.117397 1.266618 0.050859 -0.002687 213343.000000 0 0 1
14.779327 29.960066 10.796582 35.108407 1.112522 1.258209 0.060300 -0.005652 229311.000000 0 0 1
14.449027 29.866466 12.137882 35.328577 1.120203 1.220079 0.054515 -0.004276 -368748.000000 0 0 1
15.160627 30.871406 13.027582 36.777796 1.114302 1.208712 0.058077 -0.005182 611064.000000 0 0 1
16.463627 30.443426 13.436782 37.126814 1.075048 1.200474 0.060775 -0.009805 1173840.000000 0 0 1
17.198827 31.405906 14.278682 38.548818 1.069774 1.191351 0.058111 -0.003141 797787.000000 0 0 1
18.390227 30.787216 15.062982 38.896614 1.032340 1.173142 0.061891 -0.011031 416819.000000 0 0 1
19.493927 30.370206 14.286882 38.813369 1.000153 1.193840 0.048566 -0.013322 19812.900000 0 0 1
19.993627 29.092636 14.594282 38.198425 0.968685 1.178767 0.045011 -0.009105 -132226.000000 0 0 1
21.376427 28.870036 13.941782 38.533154 0.933444 1.200585 0.068956 -0.010221 54316.900000 0 0 1
22.421327 29.279196 14.798182 39.736299 0.917274 1.189192 0.065259 -0.015017 -220321.000000 0 0 1
23.718827 29.049256 14.305782 40.138479 0.886073 1.206373 0.056919 -0.009639 291970.000000 0 0 1
24.802527 29.095476 15.441082 41.232743 0.864880 1.186954 0.067805 -0.014863 64344.400000 0 0 1
24.904827 28.012846 16.275882 40.864096 0.844064 1.161141 0.063925 -0.009281 288660.000000 0 0 1
25.993827 28.192566 17.193182 42.025056 0.825953 1.149310 0.065731 -0.008441 108567.000000 0 0 1
26.820427 26.900716 17.411782 41.787008 0.786893 1.141007 0.042022 0.001412 311104.000000 0 0 1
26.086327 25.808826 18.037382 40.889352 0.780051 1.113943 0.046568 -0.001171 307572.000000 0 0 1
25.716127 25.976266 19.392182 41.378042 0.790431 1.083024 0.060715 0.000525 -215985.000000 0 0 1
25.206027 24.673196 19.979682 40.537614 0.774716 1.055414 0.068742 -0.005997 -473250.000000 0 0 1
26.157427 23.670786 20.187582 40.645487 0.735535 1.051033 0.056661 -0.000835 -353569.000000 0 0 1
25.570227 22.456206 20.597182 39.778909 0.720649 1.026529 0.063130 -0.013712 -384999.000000 0 0 1
26.420827 21.224906 20.303482 39.506811 0.676774 1.031044 0.041538 -0.021115 -640633.000000 0 0 1
25.722427 20.037106 20.138982 38.323720 0.661788 1.017498 0.034922 -0.012202 -59019.500000 0 0 1
26.546827 18.870206 20.002882 38.222166 0.617956 1.020040 0.040009 -0.026566 237793.000000 0 0 1
27.390727 18.434506 21.222682 39.249015 0.592388 0.999505 0.084213 -0.014859 -342483.000000 0 0 1
26.642027 17.915806 22.278682 39.078298 0.592005 0.964164 0.063051 -0.005773 -24678.600000 0 0 1
27.411227 17.638906 23.428282 40.142132 0.571787 0.947600 0.091525 -0.001942 -3030.300000 0 0 1
26.489027 16.954906 24.455282 39.839656 0.569365 0.909877 0.055436 0.011792 214767.000000 0 0 1
25.964927 15.737706 23.995682 38.699426 0.544903 0.901987 0.054272 -0.002977 271851.000000 0 0 1
25.093327 15.074806 24.917482 38.442239 0.540970 0.865605 0.047947 0.008077 576125.000000 0 0 1
24.341527 13.893906 24.170482 37.010306 0.518665 0.859159 0.045967 0.013577 220177.000000 0 0 1
23.357927 13.108906 24.820182 36.516813 0.511416 0.823454 0.029842 0.015437 176372.000000 0 0 1
22.860427 12.207406 23.893882 35.249645 0.490474 0.825966 0.039387 0.008752 -164814.000000 0 0 1
21.613227 11.405206 24.339582 34.490949 0.485558 0.787414 0.038691 0.000390 503728.000000 0 0 1
20.452027 12.231106 24.368782 34.084057 0.538976 0.774228 0.048261 -0.000971 -41296.500000 0 0 1
19.271927 11.526206 24.624582 33.326126 0.539009 0.739364 0.053169 -0.007551 -498979.000000 0 0 1
18.032327 12.386306 24.749782 33.032365 0.601876 0.723854 0.041670 -0.016135 -431450.000000 0 0 1
17.970127 13.001806 26.014982 34.187011 0.626340 0.706003 0.059651 -0.012056 623089.000000 0 0 1
16.691127 13.648106 26.027982 33.798230 0.685433 0.691800 0.081107 -0.016069 454147.000000 0 0 1
16.390527 14.191106 27.422582 34.957615 0.713602 0.668984 0.062517 -0.000567 47831.300000 0 0 1
15.756927 13.156106 28.202482 34.881856 0.695686 0.629173 0.076987 -0.003826 105893.000000 0 0 1
15.915427 13.446006 29.568982 36.172097 0.701491 0.613822 0.065201 -0.001983 -376373.000000 0 0 1
17.242427 13.082306 30.240482 37.187831 0.649063 0.621197 0.056565 0.002451 146045.000000 0 0 1
18.306927 13.948606 29.834082 37.679963 0.651093 0.657086 0.075885 -0.006789 724950.000000 0 0 1
19.604927 13.433206 30.087382 38.341293 0.600721 0.668544 0.063562 0.004190 229222.000000 0 0 1
20.776527 14.380006 29.781682 39.056334 0.605423 0.703579 0.060877 0.003994 -383539.000000 0 0 1
20.732427 15.098806 28.524182 38.359307 0.629448 0.732350 0.068455 -0.005530 98514.500000 0 0 1
20.737427 14.338806 27.310082 37.168304 0.604962 0.745472 0.062619 -0.000066 -353830.000000 0 0 1
20.413127 15.305406 26.129682 36.520015 0.643362 0.773472 0.064557 0.002944 -20107.400000 0 0 1
21.496827 16.150506 25.779882 37.249896 0.644331 0.806431 0.065703 0.000621 186861.000000 0 0 1
21.318327 16.733806 24.529782 36.554091 0.665496 0.835166 0.050131 0.000953 530552.000000 0 0 1
22.387327 17.818206 24.041682 37.372227 0.672240 0.871991 0.054429 -0.010347 531105.000000 0 0 1
22.146327 18.305106 22.779582 36.666689 0.690723 0.900445 0.051015 -0.018293 4325.870000 0 0 1
23.232127 19.073506 22.309982 37.433483 0.687413 0.932298 0.053693 -0.017038 29451.100000 0 0 1
23.341027 20.571706 22.871682 38.614926 0.722417 0.936884 0.069603 -0.027811 -313590.000000 0 0 1
22.442327 21.472106 22.285482 38.227635 0.763308 0.948420 0.066488 -0.019701 -44088.700000 0 0 1
22.554227 22.726106 22.923082 39.378125 0.789194 0.949454 0.082573 -0.019341 -20347.400000 0 0 1
21.557127 23.836966 22.538482 39.254221 0.835579 0.959210 0.079631 -0.026657 11095.500000 0 0 1
21.988327 24.426436 21.310082 39.169592 0.837879 0.995544 0.082905 -0.024829 200616.000000 0 0 1
21.182627 25.510406 20.965382 39.230495 0.877820 1.006980 0.080462 -0.029088 -279674.000000 0 0 1
21.859727 26.340226 19.845182 39.566229 0.878088 1.045385 0.076505 -0.024233 -217773.000000 0 0 1
21.924627 25.742816 18.604582 38.594201 0.865328 1.067796 0.071648 -0.016016 -119980.000000 0 0 1
22.327227 26.602596 17.609882 38.939840 0.872554 1.101529 0.070225 -0.021394 -355928.000000 0 0 1
22.331327 26.007856 16.159982 37.897781 0.861309 1.130277 0.057093 -0.012723 -528609.000000 0 0 1
21.042527 25.749786 15.666682 36.759820 0.885660 1.130519 0.040450 -0.011386 -480868.000000 0 0 1
21.068227 25.066006 14.423682 35.780127 0.871838 1.155873 0.049082 -0.002958 -160667.000000 0 0 1
19.725527 24.469716 13.852582 34.347598 0.892335 1.155670 0.062768 -0.000765 999520.000000 0 0 1
18.716927 25.395696 13.441782 34.292073 0.935660 1.168014 0.060201 -0.000921 -83494.600000 0 0 1
17.997627 25.794956 14.559782 34.659510 0.961603 1.137262 0.056677 -0.010488 -1762360.000000 0 0 1
16.558827 26.295576 14.309182 34.211179 1.008811 1.139267 0.051097 -0.006393 -414744.000000 0 0 1
15.626427 25.302396 13.911582 32.831823 1.017546 1.133245 0.056586 -0.007586 240155.000000 0 0 1
15.221627 24.378776 14.932882 32.388480 1.012643 1.091612 0.073250 -0.015771 -829345.000000 0 0 1
14.213927 24.997406 15.903282 32.860621 1.053773 1.065620 0.090079 -0.024006 -1146160.000000 0 0 1
14.735427 26.011096 16.759982 34.272539 1.055369 1.059830 0.079666 -0.022635 250435.000000 0 0 1
13.860727 26.434876 17.820782 34.763526 1.087871 1.032553 0.075449 -0.023413 -139355.000000 0 0 1
14.441627 27.571646 18.619682 36.269117 1.088302 1.031683 0.078766 -0.028866 -504082.000000 0 0 1
14.475027 28.813606 17.989582 36.923913 1.105256 1.061908 0.068797 -0.019278 96577.000000 0 0 1
14.833027 29.908906 18.786482 38.307875 1.110402 1.058239 0.054568 -0.009402 -132312.000000 0 0 1
15.008927 31.216876 17.929282 39.002826 1.122630 1.093148 0.043782 -0.007851 -15789.300000 0 0 1
13.670927 31.596636 17.665882 38.695285 1.162447 1.096696 0.055203 -0.004876 302460.000000 0 0 1
13.551027 32.919091 17.039982 39.467175 1.180290 1.124363 0.053558 -0.000096 -674852.000000 0 0 1
12.111227 33.419191 17.038082 39.418529 1.223115 1.123826 0.058227 -0.004345 -410631.000000 0 0 1
11.795727 -33.395722 16.533982 39.086903 -1.231264 1.134037 0.063368 -0.005665 12684.900000 0 0 1
12.425527 -32.266022 17.182982 38.610164 -1.203204 1.109580 0.052246 -0.008022 163927.000000 0 0 1
12.088727 -32.059202 18.727482 39.046746 -1.210208 1.070578 0.052237 -0.013273 -303735.000000 0 0 1
13.037427 -32.794162 19.488382 40.314124 -1.192401 1.066247 0.062582 -0.008774 355671.000000 0 0 1
12.930327 -32.532502 20.847482 40.745240 -1.192483 1.033687 0.065512 -0.016685 -311685.000000 0 0 1
14.109627 -32.985592 21.751282 41.955323 -1.166598 1.025772 0.074408 -0.013383 -199995.000000 0 0 1
15.281927 -32.306902 21.364382 41.637844 -1.128962 1.032004 0.075361 -0.007388 -1065820.000000 0 0 1
16.272227 -32.679752 22.238282 42.746845 -1.108806 1.023674 0.072291 -0.007717 -269807.000000 0 0 1
17.626327 -31.930832 22.101682 42.646803 -1.066407 1.025994 0.081776 -0.007645 468392.000000 0 0 1
17.526227 -30.631152 22.648782 41.933321 -1.051091 1.000224 0.081494 -0.018352 -563711.000000 0 0 1
18.645127 -29.884252 22.353982 41.718219 -1.012980 1.005303 0.074833 -0.017175 -886200.000000 0 0 1
-4.799473 13.077188 18.966138 23.532152 -1.219048 0.633489 0.044215 -0.000613 26056.200000 0 1 0
-4.473273 14.323588 18.387138 23.733146 -1.268093 0.684484 0.048697 -0.005633 -390215.000000 0 1 0
-5.698073 14.813188 17.950738 23.960959 -1.203582 0.723994 0.032287 -0.007979 -343159.000000 0 1 0
-5.749573 16.283988 17.571438 24.636990 -1.231379 0.776724 0.043035 -0.010756 -90681.900000 0 1 0
-5.468573 17.116988 18.699538 25.933941 -1.261563 0.765487 0.055753 -0.006806 271313.000000 0 0 1
-5.063573 18.448188 18.346538 26.506054 -1.302918 0.806313 0.055478 -0.005558 -282127.000000 0 0 1
-4.375673 19.301888 19.446438 27.746592 -1.347868 0.794196 0.051814 -0.012600 -652744.000000 0 0 1
-5.237473 19.612588 20.506638 28.854929 -1.309839 0.780331 0.033749 -0.011181 -303279.000000 0 0 1
-4.691773 20.415088 21.500338 30.017547 -1.344900 0.772370 0.035725 -0.002124 -264854.000000 0 0 1
-5.632673 20.582788 22.702638 31.157470 -1.303677 0.754459 0.019603 -0.000360 61234.200000 0 0 1
-5.859673 19.382788 23.478538 31.004355 -1.277219 0.711680 0.013852 -0.006067 699778.000000 0 0 1
-6.755173 19.586788 24.633268 32.188081 -1.238686 0.699302 0.002570 -0.001419 1088090.000000 0 0 1
-5.989773 20.196988 25.849318 33.346409 -1.282491 0.683804 -0.002081 -0.003691 -217943.000000 0 0 1
-5.581073 21.521088 25.539138 33.860791 -1.317056 0.716302 0.007435 -0.007809 62531.800000 0 0 1
-4.588673 22.033088 26.417928 34.704752 -1.365469 0.705605 0.022173 -0.005342 414096.000000 0 0 1
-3.119973 21.677188 26.098228 34.069814 -1.427849 0.698167 0.041146 -0.002414 -362248.000000 0 0 1
-2.840273 20.316188 26.453638 33.475508 -1.431893 0.659598 0.053227 0.007513 -460130.000000 0 0 1
-1.523973 20.032588 26.069898 32.913017 -1.494868 0.656580 0.057285 0.006706 -29618.400000 0 0 1
-0.912973 18.786988 26.819568 32.757803 -1.522239 0.611613 0.056767 0.018396 -49973.000000 0 0 1
-1.235173 17.537488 26.162648 31.520998 -1.500482 0.591676 0.063394 0.009593 -111477.000000 0 0 1
-0.620973 16.370288 26.679648 31.307756 -1.532882 0.550671 0.062065 0.003407 229760.000000 0 0 1
0.883227 16.211788 26.313638 30.919407 1.516370 0.552834 0.073471 0.005881 98614.900000 0 0 1
1.158227 16.070688 24.924808 29.679194 1.498850 0.573868 0.066299 -0.000874 -238890.000000 0 0 1
0.877627 14.757388 24.457778 28.578552 1.511396 0.543684 0.072816 0.000140 -139094.000000 0 0 1
1.219427 14.522688 22.977638 27.209692 1.487026 0.565230 0.082347 -0.023670 26105.400000 0 0 1
2.588427 14.406088 22.658238 26.974638 1.393017 0.573544 0.069753 -0.024118 -195907.000000 0 0 1
2.775927 13.642688 21.470738 25.589477 1.370063 0.575270 0.059943 -0.027339 314141.000000 0 0 1
4.250427 13.735188 20.999138 25.449663 1.270688 0.600374 0.055866 -0.024870 363564.000000 0 0 1
4.529927 14.897788 20.266438 25.557638 1.275612 0.655128 0.046079 -0.023727 263614.000000 0 0 1
5.936727 15.099988 20.130838 25.855464 1.196199 0.678379 0.052241 -0.021728 594152.000000 0 0 1
6.361827 16.228588 19.158738 25.901683 1.197194 0.738214 0.057905 -0.021232 39061.000000 0 0 1
6.466227 15.712088 17.833938 24.631913 1.180377 0.761187 0.061495 -0.026952 244011.000000 0 1 0
6.908027 16.675688 16.845338 24.689367 1.178060 0.819904 0.062048 -0.014274 57663.400000 0 1 0
6.870927 16.100788 15.396138 23.312788 1.167449 0.849424 0.055100 -0.012481 216015.000000 0 1 0
7.881027 15.216588 14.897338 22.706515 1.092913 0.855181 0.050257 -0.013433 332630.000000 0 1 0
8.026127 13.906688 15.464038 22.292402 1.047354 0.804195 0.047524 -0.018414 -150794.000000 0 1 0
9.130127 13.071688 14.773438 21.736668 0.961101 0.823504 0.050357 -0.021278 -34065.600000 0 1 0
10.403927 13.598188 15.058138 22.801315 0.917703 0.849436 0.042630 -0.021150 -807106.000000 0 1 0
11.318927 13.163888 14.126038 22.381935 0.860613 0.887780 0.050645 -0.016521 -673861.000000 0 1 0
12.725727 13.740088 14.275438 23.548297 0.823707 0.919498 0.054401 -0.004534 -486037.000000 0 1 0
13.419127 13.309788 15.477838 24.429223 0.781308 0.884626 0.050854 -0.017200 495442.000000 0 1 0
14.767927 13.745788 15.536638 25.464200 0.749566 0.914563 0.051200 -0.017715 526148.000000 0 0 1
15.779827 12.948888 14.656738 25.129597 0.687175 0.948077 0.060546 -0.022320 -606028.000000 0 0 1
17.080627 13.472788 14.770038 26.294826 0.667859 0.974346 0.060762 -0.035911 7324.010000 0 0 1
18.015227 12.807788 13.955338 26.140760 0.618032 1.007645 0.062757 -0.034000 720024.000000 0 0 1
19.438027 13.484088 13.850838 27.413560 0.606483 1.041119 0.061946 -0.043357 742267.000000 0 0 1
20.025427 13.430888 15.110938 28.456053 0.590784 1.010984 0.039291 -0.039390 -539623.000000 0 0 1
21.397927 13.671588 14.969338 29.476511 0.568547 1.038121 0.043315 -0.046382 -144486.000000 0 0 1
22.298827 13.547088 16.222638 30.723530 0.545934 1.014529 0.059003 -0.037740 -94354.100000 0 0 1
22.394927 12.232488 16.525538 30.401644 0.499934 0.996107 0.063621 -0.028499 1077760.000000 0 0 1
23.454427 12.014688 17.505338 31.637000 0.473405 0.984453 0.058814 -0.035430 492916.000000 0 0 1
23.751927 10.484488 17.525038 31.324200 0.415693 0.977047 0.068855 -0.022291 -615208.000000 0 0 1
22.682627 9.743188 18.039038 30.575124 0.405713 0.939749 0.055195 -0.018022 68013.000000 0 0 1
22.789027 8.352188 17.847638 30.127015 0.351298 0.936745 0.048523 -0.010203 205651.000000 0 0 1
21.449027 7.589388 18.111238 29.080518 0.340086 0.898485 0.078781 -0.008177 256666.000000 0 0 1
21.351027 6.274288 17.620038 28.384834 0.285818 0.901091 0.089309 -0.018200 336355.000000 0 0 1
20.162627 5.687288 18.131838 27.706323 0.274928 0.857368 0.089107 -0.011615 -117431.000000 0 0 1
19.888727 4.234988 17.658538 26.931776 0.209801 0.855718 0.096076 -0.005664 -582560.000000 0 0 1
19.202727 4.365588 16.421938 25.641434 0.223543 0.875718 0.099894 -0.021888 363051.000000 0 0 1
18.946327 3.120088 15.836038 24.889323 0.163215 0.881158 0.092912 -0.016520 289554.000000 0 1 0
17.985327 2.035588 16.493938 24.488071 0.112701 0.831795 0.099191 -0.013704 -25725.500000 0 1 0
18.473627 1.357488 17.634238 25.575067 0.073351 0.809985 0.109417 -0.021143 346432.000000 0 0 1
17.489827 0.548888 18.313938 25.329739 0.031373 0.762631 0.095996 -0.018497 246264.000000 0 0 1
18.039127 -0.162512 19.563538 26.611437 -0.009009 0.744901 0.103756 -0.014900 -73429.900000 0 0 1
18.715827 -1.381412 19.353838 26.958515 -0.073676 0.769998 0.097518 -0.015824 518177.000000 0 0 1
17.852927 -2.507912 19.720238 26.718990 -0.139563 0.740605 0.066965 -0.004212 529368.000000 0 0 1
17.960527 -3.765712 18.867438 26.319980 -0.206672 0.771525 0.056097 -0.001579 -54091.400000 0 0 1
17.293027 -3.726912 17.614538 24.964187 -0.212269 0.787538 0.049988 -0.007211 347623.000000 0 1 0
17.352327 -4.959612 16.991238 24.787158 -0.278396 0.815526 0.061990 -0.013045 -301136.000000 0 1 0
16.835627 -4.880112 15.577638 23.450302 -0.282136 0.844262 0.044890 -0.013334 70093.300000 0 1 0
15.463627 -4.512812 15.439338 22.312831 -0.283948 0.806611 0.026894 -0.015522 598639.000000 0 1 0
15.020227 -4.438312 14.093438 21.069666 -0.287313 0.838072 0.023182 -0.016722 129774.000000 0 1 0
15.480527 -3.103512 13.415138 20.718215 -0.197856 0.866491 0.025951 -0.009922 -84636.100000 0 1 0
14.780827 -1.899112 13.683938 20.231897 -0.127785 0.827994 0.028701 -0.002697 338376.000000 0 1 0
15.432027 -0.832912 13.003038 20.197035 -0.053921 0.871330 0.045031 -0.010160 116709.000000 0 1 0
14.670527 0.502588 13.244138 19.770791 0.034245 0.836744 0.052040 -0.002895 -137326.000000 0 1 0
15.023327 1.748888 12.615238 19.695259 0.115890 0.875619 0.057796 -0.005530 277876.000000 0 1 0
16.258627 2.283788 13.077338 20.989889 0.139553 0.898185 0.087353 -0.020047 257528.000000 0 1 0
16.418827 3.746388 12.570338 21.014917 0.224336 0.929590 0.094001 -0.023562 498515.000000 0 1 0
15.392527 4.608988 13.107138 20.735712 0.290934 0.886530 0.089576 -0.014931 898844.000000 0 1 0
15.328727 5.781088 12.313638 20.494305 0.360646 0.926255 0.082558 -0.022399 942486.000000 0 1 0
14.197627 6.776588 12.850538 20.313323 0.445327 0.885870 0.073793 -0.013733 793153.000000 0 1 0
14.216427 7.933088 11.979838 20.212798 0.508982 0.936407 0.051089 -0.027844 250840.000000 0 1 0
13.176227 8.861988 12.241438 20.049953 0.592081 0.914045 0.038364 -0.017377 -323882.000000 0 1 0
13.364027 9.797688 13.478538 21.360312 0.632622 0.887944 0.040134 -0.022476 -24886.700000 0 1 0
13.109827 9.079588 14.749038 21.721893 0.605728 0.824405 0.063647 -0.025620 555460.000000 0 1 0
13.541427 9.908288 15.810938 23.054939 0.631687 0.815102 0.075585 -0.030543 -227029.000000 0 1 0
13.356627 9.210888 17.154938 23.612113 0.603720 0.757536 0.086372 -0.032365 755101.000000 0 1 0
11.964627 9.269688 17.518438 23.151136 0.659159 0.712548 0.059828 -0.031681 669462.000000 0 1 0
11.603627 8.747888 18.804938 23.765425 0.645988 0.657908 0.081231 -0.017234 90541.900000 0 1 0
12.239227 9.370788 20.103038 25.332637 0.653433 0.654154 0.109381 -0.016080 469707.000000 0 0 1
13.661527 9.248988 20.176638 26.062959 0.595129 0.685425 0.118309 -0.025185 423476.000000 0 0 1
14.174127 9.408488 21.509038 27.423790 0.586001 0.669196 0.104566 -0.009724 -1290250.000000 0 0 1
15.635427 9.119588 21.442938 28.061238 0.528023 0.701077 0.095408 -0.017456 -1382930.000000 0 0 1
16.352727 10.054088 20.657638 28.199901 0.551250 0.748746 0.100787 -0.013346 96553.700000 0 0 1
17.230627 9.387388 19.745038 27.836740 0.498848 0.782269 0.078042 -0.025981 642430.000000 0 0 1
18.202327 10.367188 18.956338 28.251479 0.517731 0.835259 0.077855 -0.024324 778541.000000 0 0 1
19.009127 11.120988 19.900538 29.682566 0.529342 0.835987 0.065483 -0.022834 454637.000000 0 0 1
20.009227 11.812688 19.172738 30.124785 0.533303 0.880917 0.062960 -0.028520 -226020.000000 0 0 1
20.887027 12.716588 20.059338 31.628414 0.546885 0.883798 0.054051 -0.025623 -334248.000000 0 0 1
20.182327 13.834988 20.652938 32.019948 0.600928 0.869770 0.041824 -0.024115 386571.000000 0 0 1
20.973027 14.642488 21.507538 33.419224 0.609489 0.871646 0.036274 -0.013804 437335.000000 0 0 1
22.230727 15.360888 20.916738 34.171217 0.604644 0.912063 0.023892 -0.009600 475131.000000 0 0 1
23.373727 14.567888 20.702338 34.454917 0.557346 0.926229 0.013136 -0.002797 386795.000000 0 0 1
24.574527 15.365588 20.698338 35.615023 0.558790 0.950632 0.019677 -0.011279 1606390.000000 0 0 1
25.876327 14.442288 20.723238 36.160982 0.509062 0.960534 0.023118 -0.019102 746398.000000 0 0 1
26.046627 13.582588 19.674538 35.355352 0.480677 0.980653 0.034451 -0.030423 -272468.000000 0 0 1
27.024027 12.603588 19.828638 35.809543 0.436395 0.983965 0.055004 -0.032968 -276762.000000 0 0 1
27.241027 11.784488 18.580638 35.016965 0.408291 1.011467 0.082096 -0.035645 -25153.500000 0 0 1
27.942727 12.544088 17.576938 35.314288 0.421957 1.049818 0.096300 -0.045258 482523.000000 0 0 1
28.385327 11.795388 16.487638 34.881230 0.393835 1.078468 0.119652 -0.049914 103775.000000 0 0 1
27.207727 11.407188 15.539938 33.344775 0.397001 1.085989 0.097672 -0.048752 326022.000000 0 0 1
26.760227 12.562188 14.828038 33.072482 0.438898 1.105878 0.106304 -0.049060 17567.400000 0 0 1
25.702427 12.216488 13.961438 31.698251 0.443697 1.114698 0.094127 -0.043991 13620.300000 0 0 1
25.241327 13.296088 13.012938 31.356772 0.484825 1.142858 0.078276 -0.044172 157765.000000 0 0 1
24.522927 14.412088 13.568438 31.514834 0.531325 1.125704 0.073931 -0.046492 409662.000000 0 0 1
24.382027 15.363688 12.547138 31.431781 0.562275 1.160167 0.062282 -0.037310 52964.900000 0 0 1
23.415827 16.521088 12.962038 31.452532 0.614443 1.146023 0.061613 -0.032522 -356565.000000 0 0 1
22.069627 16.143588 13.002238 30.277749 0.631545 1.126932 0.071780 -0.038431 -358370.000000 0 0 1
21.219027 17.185488 13.425338 30.427419 0.680754 1.113833 0.056216 -0.030155 -566995.000000 0 0 1
20.459627 17.903288 12.306438 29.842461 0.718861 1.145731 0.065796 -0.020940 -109748.000000 0 0 1
19.470327 17.070488 11.689438 28.410177 0.719817 1.146749 0.070086 -0.012402 360156.000000 0 0 1
18.194027 17.239588 12.266238 27.904957 0.758469 1.115674 0.062031 -0.011007 -328928.000000 0 0 1
16.956927 16.553288 11.643338 26.402955 0.773353 1.114099 0.066430 -0.008597 57291.500000 0 0 1
16.909527 15.117688 11.632538 25.491029 0.729509 1.096920 0.068778 -0.012725 517777.000000 0 0 1
15.744227 14.702588 10.916238 24.149763 0.751200 1.101765 0.074038 -0.024576 475262.000000 0 1 0
15.807327 13.245488 10.315638 23.059205 0.697447 1.106991 0.079912 -0.029081 -77761.900000 0 1 0
15.925527 12.205588 11.299138 23.027577 0.653925 1.057928 0.075104 -0.017224 493431.000000 0 1 0
16.457827 11.150688 10.554638 22.507739 0.595486 1.082713 0.074611 -0.009326 -254720.000000 0 1 0
16.945327 9.965488 11.354738 22.702096 0.531621 1.047010 0.081884 -0.022679 1254.180000 0 1 0
17.895127 9.211488 10.533138 22.716384 0.475377 1.088652 0.100240 -0.018242 1072420.000000 0 1 0
18.593527 8.128488 11.105238 23.132615 0.412131 1.070064 0.125774 -0.018456 -520152.000000 0 1 0
19.662227 8.489888 12.102938 24.600051 0.407605 1.056424 0.094866 -0.028153 -1627240.000000 0 1 0
19.300427 9.157988 13.298238 25.163831 0.443038 1.014003 0.081073 -0.033619 -322806.000000 0 0 1
20.309927 9.271188 14.247238 26.484559 0.428234 1.002799 0.087204 -0.026599 -1056880.000000 0 0 1
19.618427 9.728088 15.585038 26.877720 0.460334 0.952252 0.068319 -0.027067 539009.000000 0 0 1
18.821027 8.786388 16.303038 26.404938 0.436769 0.905333 0.068330 -0.025965 453890.000000 0 0 1
17.570227 8.535088 15.698038 25.059709 0.452199 0.893837 0.075663 -0.033449 -516183.000000 0 0 1
16.963427 7.096488 15.866138 24.286876 0.396216 0.858887 0.083523 -0.023428 61494.500000 0 1 0
16.416227 6.893688 17.143238 24.716514 0.397570 0.804329 0.112650 -0.023230 34101.900000 0 1 0
15.904827 5.600788 17.343638 24.189546 0.338583 0.771323 0.120296 -0.011629 179412.000000 0 1 0
14.406227 5.562288 17.801338 23.566206 0.368469 0.714569 0.104337 -0.012511 759575.000000 0 1 0
13.724827 4.333088 17.934738 22.995682 0.305808 0.676262 0.086473 -0.005381 280592.000000 0 1 0
13.420927 3.795488 16.676638 21.740223 0.275607 0.696508 0.086793 -0.007113 -712954.000000 0 1 0
13.030227 2.322988 16.890738 21.458801 0.176423 0.664664 0.061183 -0.008755 -60200.500000 0 1 0
14.094527 1.460188 17.270538 22.339636 0.103231 0.687099 0.064167 -0.000302 199540.000000 0 1 0
13.916627 0.067888 16.927238 21.913661 0.004878 0.688104 0.055818 0.000805 -177121.000000 0 1 0
12.967427 -0.845212 17.766438 22.011699 -0.065088 0.631511 0.043222 -0.005194 -183567.000000 0 1 0
11.627527 -0.655412 17.406138 20.942841 -0.056308 0.589667 0.037209 -0.010771 -1005990.000000 0 1 0
10.891427 -1.645212 18.016338 21.116779 -0.149922 0.548751 0.038091 -0.012916 -427272.000000 0 1 0
-26.292263 14.626688 28.679318 41.565928 -0.507676 0.809346 0.072197 -0.018291 -291381.000000 0 0 1
-25.399283 14.285888 29.723428 41.625621 -0.512353 0.775508 0.072676 -0.022629 115077.000000 0 0 1
-24.786973 13.061688 29.470778 40.663602 -0.484981 0.760131 0.069662 -0.013509 -183236.000000 0 0 1
-23.588373 12.724188 30.384748 40.516037 -0.494689 0.722819 0.060158 -0.018091 111543.000000 0 0 1
-24.002873 12.685588 31.728988 41.758721 -0.486189 0.707765 0.064911 -0.023348 231485.000000 0 0 1
-22.840973 12.685288 32.527712 41.721441 -0.506960 0.676705 0.046237 -0.013825 -278637.000000 0 0 1
-23.084573 12.986488 -34.017550 43.113108 -0.512436 2.480025 0.049996 -0.003519 -161198.000000 0 0 1
-23.648673 11.873288 -33.337078 42.562841 -0.465302 2.470663 0.035901 -0.007187 -196342.000000 0 0 1
-24.213473 12.357688 -32.168848 42.116974 -0.471904 2.439973 0.024115 -0.003136 -76181.000000 0 0 1
-25.065773 11.255588 -31.471458 41.778390 -0.422057 2.423854 0.020706 -0.011752 83589.300000 0 0 1
-24.357873 10.221588 -30.802828 40.578332 -0.397324 2.432719 0.025112 -0.015384 -54986.900000 0 0 1
-24.142873 9.039888 -31.563728 40.753734 -0.358273 2.456719 0.022337 -0.011550 354110.000000 0 0 1
-23.376173 7.915388 -30.782908 39.454864 -0.326491 2.465791 0.038330 -0.008537 111367.000000 0 0 1
-24.136173 7.404988 -29.697608 38.978669 -0.297684 2.437028 0.042213 -0.007869 187365.000000 0 0 1
-23.357273 6.565588 -28.899338 37.733816 -0.274023 2.443195 0.038232 -0.001308 -253095.000000 0 0 1
-24.184473 5.716188 -27.914608 37.373639 -0.232098 2.414194 0.043028 -0.003918 -179520.000000 0 0 1
-24.964873 4.723688 -28.521568 38.197355 -0.187003 2.413868 0.062327 -0.016656 -42547.500000 0 0 1
-25.429913 3.868788 -27.504278 37.658111 -0.150978 2.389657 0.094471 -0.008334 -381502.000000 0 0 1
-26.104813 2.607388 -28.147608 38.477884 -0.099551 2.391355 0.111268 -0.009203 -188790.000000 0 0 1
-27.473883 2.735888 -28.381068 39.595257 -0.099254 2.369969 0.125480 -0.021650 -456209.000000 0 0 1
-27.803033 3.396088 -29.575898 40.734209 -0.121546 2.383386 0.127060 -0.016234 -402622.000000 0 0 1
-29.243633 3.209388 -30.119528 42.103161 -0.109309 2.367956 0.131931 -0.027406 -26858.600000 0 0 1
-30.184043 3.773188 -29.227858 42.185081 -0.124361 2.336228 0.126059 -0.022788 -203575.000000 0 0 1
-31.449683 4.030488 -29.778708 43.498262 -0.127462 2.324845 0.118748 -0.023580 35004.300000 0 0 1
-31.646313 5.414188 -30.432438 44.237267 -0.169444 2.329439 0.100299 -0.034715 -205152.000000 0 0 1
-30.704803 5.636788 -31.505268 44.352454 -0.181558 2.360776 0.117941 -0.032148 585656.000000 0 0 1
-30.773223 6.905888 -32.168888 45.050193 -0.220755 2.366088 0.102263 -0.025898 -417662.000000 0 0 1
-30.200483 8.176288 -31.420418 44.341442 -0.264396 2.358311 0.085256 -0.029100 -233477.000000 0 0 1
-28.811353 8.160388 -31.178328 43.229320 -0.276006 2.376374 0.051312 -0.031631 110606.000000 0 0 1
-28.421833 7.456588 -29.981208 41.979449 -0.256572 2.366259 0.051494 -0.028445 -435455.000000 0 0 1
-28.739773 8.231188 -28.651148 41.407913 -0.278937 2.334948 0.045101 -0.018968 77959.000000 0 0 1
-30.126913 8.395688 -28.395898 42.242697 -0.271782 2.307984 0.054534 -0.021094 297085.000000 0 0 1
-30.634173 7.393088 -27.528188 41.843894 -0.236807 2.288794 0.057660 -0.007919 -409010.000000 0 0 1
-31.966993 7.889588 -26.908998 42.523269 -0.241969 2.255969 0.045764 -0.008054 -147434.000000 0 0 1
-31.977453 8.716388 -25.799128 42.001523 -0.266114 2.232222 0.020020 -0.005782 -172770.000000 0 0 1
-32.215473 8.082488 -24.608118 41.336700 -0.245815 2.208447 0.022431 -0.006077 -22971.100000 0 0 1
-31.520343 8.746088 -23.395918 40.216850 -0.270665 2.191668 0.032048 0.001157 157491.000000 0 0 1
-32.147403 9.990288 -23.074318 40.812811 -0.301303 2.171677 0.030890 -0.002258 255451.000000 0 0 1
-31.358023 10.702288 -22.197218 39.882089 -0.328897 2.161049 0.038410 -0.007746 -133784.000000 0 0 1
-32.259583 11.825388 -21.565318 40.565791 -0.351359 2.131301 0.028276 -0.004790 723860.000000 0 0 1
-33.111793 11.173188 -20.569018 40.550160 -0.325440 2.102786 0.019873 -0.010026 611138.000000 0 0 1
-33.643453 12.130788 -19.677718 40.819732 -0.346059 2.073805 0.012804 -0.014124 210467.000000 0 0 1
-32.600133 12.620788 -18.600518 39.598387 -0.369371 2.059780 0.014612 -0.005327 267038.000000 0 0 1
-32.151613 11.620588 -17.750018 38.520480 -0.346822 2.049686 0.038999 0.000026 -269930.000000 0 0 1
-33.028833 11.262888 -16.732018 38.700347 -0.328636 2.017891 0.034133 0.022303 -434009.000000 0 0 1
-33.091523 12.146188 -15.492618 38.504545 -0.351781 1.984888 0.029402 0.019958 -102013.000000 0 0 1
-33.725213 13.380688 -15.876218 39.604130 -0.377707 1.983266 0.002118 0.009951 574840.000000 0 0 1
-34.373873 14.106388 -14.809018 39.998254 -0.389423 1.950065 -0.006676 0.004405 220470.000000 0 0 1
-35.084311 15.382388 -15.327818 41.260984 -0.413200 1.951404 -0.011559 0.007911 -148508.000000 0 0 1
-35.987375 15.106888 -16.355818 42.318105 -0.397444 1.967627 -0.012362 0.000498 5093.150000 0 0 1
-36.670993 16.282888 -16.743918 43.477039 -0.417875 1.966135 -0.015568 0.000182 -254028.000000 0 0 1
36.752909 16.269188 -18.206618 44.124186 0.416737 1.996127 -0.011906 -0.000602 -261170.000000 0 0 1
35.799309 15.352788 -18.593618 43.162730 0.405133 2.016153 0.029330 -0.010915 -717400.000000 0 0 1
34.498069 15.788188 -18.307518 42.125395 0.429201 2.020386 0.078511 -0.023497 -317016.000000 0 0 1
33.420389 14.678888 -18.582518 40.959763 0.413853 2.041684 0.103121 -0.027085 47770.100000 0 0 1
33.183129 14.433988 -19.958218 41.325423 0.410293 2.074820 0.104017 -0.023363 280874.000000 0 0 1
32.201609 13.431188 -20.204518 40.318271 0.395158 2.095695 0.068045 -0.019628 126701.000000 0 0 1
32.481129 11.918688 -19.793418 39.860485 0.351687 2.090436 0.079815 -0.006020 -183678.000000 0 0 1
32.325539 11.785988 -18.379618 39.008465 0.349624 2.061413 0.095296 -0.015810 60158.500000 0 0 1
32.906639 10.583788 -17.928418 38.939590 0.311182 2.049260 0.083912 -0.019150 -267825.000000 0 0 1
33.026249 10.456888 -16.402318 38.329045 0.306637 2.013002 0.070746 -0.012992 -434501.000000 0 0 1
31.844299 10.223688 -15.683318 36.939811 0.310657 2.009277 0.087106 -0.015154 -145999.000000 0 0 1
32.119759 10.139588 -14.283318 36.585562 0.305780 1.971872 0.059215 -0.009407 29722.800000 0 0 1
31.324639 11.241988 -13.512618 35.919440 0.344569 1.956480 0.085244 -0.019578 -504682.000000 0 0 1
29.937389 11.031888 -13.562518 34.668310 0.353059 1.972740 0.077303 -0.024700 -271345.000000 0 0 1
29.380579 12.195688 -12.952918 34.347217 0.393450 1.957478 0.099825 -0.030415 946110.000000 0 0 1
27.803879 12.234588 -12.926818 33.012778 0.414533 1.973134 0.101036 -0.025460 903406.000000 0 0 1
27.182079 11.108988 -12.312018 31.841182 0.387973 1.967814 0.095179 -0.030563 288339.000000 0 0 1
25.798679 10.891988 -12.540918 30.683577 0.399490 1.991845 0.090793 -0.021819 258412.000000 0 0 1
25.325679 10.441888 -13.932418 30.733294 0.391068 2.041298 0.079448 -0.034230 -675946.000000 0 0 1
25.640379 9.107588 -14.312518 30.744518 0.341304 2.055031 0.087142 -0.033091 1130510.000000 0 0 1
27.030779 8.839588 -14.578818 31.958462 0.316057 2.044494 0.090476 -0.036611 798153.000000 0 0 1
27.858079 7.855488 -13.711718 32.027995 0.274846 2.013204 0.096404 -0.032152 -55688.800000 0 0 1
27.468279 6.502288 -13.733418 31.390968 0.232441 2.023608 0.103173 -0.041959 121764.000000 0 0 1
26.305479 6.166488 -13.013918 29.989430 0.230261 2.019669 0.129754 -0.041007 -281315.000000 0 0 1
26.091379 4.623488 -12.921918 29.480717 0.175383 2.024522 0.126041 -0.034082 -139520.000000 0 0 1
25.307279 4.159688 -11.837418 28.246873 0.162911 2.003217 0.135686 -0.031322 387217.000000 0 0 1
25.040579 2.773688 -11.958518 27.887813 0.110318 2.013969 0.118348 -0.030749 -134871.000000 0 0 1
24.367779 2.083688 -10.722318 26.703905 0.085302 1.983979 0.114257 -0.027475 -294296.000000 0 0 1
25.065579 2.177988 -9.518018 26.900178 0.086674 1.932456 0.125406 -0.019184 286828.000000 0 0 1
24.366879 1.513688 -8.471518 25.841878 0.062041 1.904793 0.136875 -0.012225 -74610.800000 0 0 1
25.315579 1.168888 -7.277618 26.366808 0.046140 1.850441 0.165704 -0.011543 115423.000000 0 0 1
25.485179 -0.143712 -6.863118 26.393511 -0.005639 1.833850 0.134884 -0.016960 357501.000000 0 0 1
25.995879 -1.051612 -7.829818 27.169794 -0.040431 1.863123 0.111472 -0.014115 -458809.000000 0 0 1
26.186079 -2.509812 -7.218218 27.278427 -0.095553 1.838599 0.113329 -0.021810 100574.000000 0 0 1
27.203379 -2.593412 -6.209918 28.023432 -0.095047 1.794249 0.125667 -0.030032 629705.000000 0 0 1
27.087379 -3.810012 -5.538618 27.909113 -0.139740 1.770575 0.135916 -0.047338 -93434.100000 0 0 1
28.348779 -4.220712 -4.717418 29.046889 -0.147799 1.733926 0.138621 -0.052796 312507.000000 0 0 1
29.451629 -4.374212 -5.594018 30.295631 -0.147444 1.756510 0.138603 -0.038429 66656.400000 0 0 1
30.680239 -4.588812 -4.954018 31.414592 -0.148468 1.729155 0.168085 -0.052308 496150.000000 0 0 1
31.851049 -4.968912 -5.952918 32.781346 -0.154757 1.753404 0.179261 -0.044776 413638.000000 0 0 1
31.656179 -6.126312 -6.751718 32.942846 -0.191163 1.777211 0.147342 -0.041692 -159069.000000 0 0 1
32.504779 -6.162112 -7.846218 34.001404 -0.187352 1.803657 0.151743 -0.052215 -1019780.000000 0 0 1
32.040569 -7.235112 -8.875118 34.025177 -0.222086 1.834688 0.118367 -0.046988 700862.000000 0 0 1
30.765059 -6.831912 -9.382418 32.881510 -0.218521 1.860158 0.111515 -0.035194 693329.000000 0 0 1
29.660949 -7.373712 -8.689318 31.774955 -0.243661 1.847789 0.098834 -0.023569 61154.400000 0 0 1
28.409279 -6.411912 -8.603618 30.368109 -0.221979 1.858041 0.088517 -0.022600 269921.000000 0 0 1
27.546679 -6.422712 -9.715018 29.907396 -0.229065 1.901635 0.061386 -0.011680 -181307.000000 0 0 1
26.556079 -5.465512 -9.561518 28.749257 -0.202976 1.909838 0.081306 -0.007757 608576.000000 0 0 1
25.086979 -6.028212 -9.418318 27.466354 -0.235821 1.920803 0.101101 -0.010113 -155611.000000 0 0 1
25.029379 -6.826612 -8.253618 27.224891 -0.266268 1.878808 0.088971 -0.012238 1199530.000000 0 0 1
23.700879 -7.282512 -7.959618 26.040779 -0.298111 1.881428 0.083854 -0.016248 407353.000000 0 0 1
22.682079 -6.257312 -7.408318 24.668074 -0.269175 1.875825 0.098212 -0.014043 -718497.000000 0 1 0
22.291679 -5.318512 -8.366118 24.396669 -0.234209 1.920820 0.103438 -0.015412 374967.000000 0 1 0
21.935979 -4.092212 -7.725618 23.613949 -0.184432 1.904096 0.102573 -0.016247 32235.100000 0 1 0
21.580879 -2.985612 -8.748218 23.477214 -0.137473 1.952633 0.085985 -0.009045 -213424.000000 0 1 0
22.808479 -2.587612 -9.310618 24.771154 -0.112967 1.956127 0.083985 -0.003574 567098.000000 0 1 0
22.811479 -2.036412 -10.623718 25.246266 -0.089035 2.005127 0.096508 -0.007307 -403183.000000 0 0 1
24.128879 -2.280712 -11.396318 26.782094 -0.094242 2.010333 0.086990 -0.002616 66749.100000 0 0 1
25.149579 -1.374912 -10.997518 27.483397 -0.054615 1.982478 0.082817 -0.007692 729933.000000 0 0 1
26.328079 -1.543012 -11.778118 28.883779 -0.058540 1.990814 0.089387 -0.004478 -97041.500000 0 0 1
27.382179 -0.473812 -11.463218 29.688611 -0.017302 1.967213 0.086866 -0.002496 -809224.000000 0 0 1
28.651679 -0.835512 -11.965018 31.060883 -0.029153 1.966234 0.078046 -0.008540 270723.000000 0 0 1
29.688519 0.013088 -11.534018 31.850305 0.000441 1.941351 0.093498 -0.014105 -99394.400000 0 0 1
29.751079 1.367488 -12.326418 32.232551 0.045932 1.963212 0.095655 -0.021555 -573469.000000 0 0 1
30.269039 1.216488 -13.674918 33.236997 0.040168 1.994826 0.097217 -0.021648 691442.000000 0 0 1
30.133419 2.414288 -14.350618 33.463293 0.079949 2.014012 0.098439 -0.027088 38843.900000 0 0 1
30.484279 2.258088 -15.820718 34.419259 0.073939 2.048394 0.093461 -0.021364 70273.000000 0 0 1
29.377919 1.666188 -16.463518 33.717737 0.056655 2.080908 0.094592 -0.016265 100544.000000 0 0 1
29.638839 1.639488 -17.851518 34.638496 0.055259 2.112232 0.068134 -0.013722 63474.100000 0 0 1
28.570079 0.963688 -18.795418 34.211780 0.033718 2.152424 0.047994 -0.007485 268603.000000 0 0 1
28.374379 -0.391112 -18.494418 33.871845 -0.013783 2.148392 0.059478 -0.012522 195152.000000 0 0 1
27.728579 -1.077812 -19.559218 33.949946 -0.038851 2.184769 0.031828 -0.008054 -116900.000000 0 0 1
27.699079 -2.606612 -19.490918 33.969535 -0.093828 2.181906 0.050674 -0.020117 961453.000000 0 0 1
26.421979 -3.090612 -18.990518 32.685052 -0.116442 2.190772 0.062344 -0.015966 1205770.000000 0 0 1
26.315979 -4.535512 -18.913318 32.723313 -0.170672 2.187044 0.062612 -0.013259 -530327.000000 0 0 1
27.188679 -5.344212 -17.990418 33.036950 -0.194086 2.146654 0.053474 -0.013825 185904.000000 0 0 1
28.577579 -5.386812 -18.315818 34.368081 -0.186312 2.132857 0.060767 -0.014826 565208.000000 0 0 1
29.392899 -5.719012 -17.207218 34.536039 -0.192170 2.092363 0.060080 -0.012549 -56559.600000 0 0 1
30.878499 -5.452612 -17.486018 35.902278 -0.174781 2.079499 0.088815 -0.017297 -332590.000000 0 0 1
31.590009 -6.285712 -18.362118 37.075683 -0.196413 2.088931 0.079550 -0.024363 -133456.000000 0 0 1
32.870809 -5.729712 -18.562418 38.182235 -0.172576 2.078479 0.087109 -0.018328 86384.700000 0 0 1
33.837309 -6.774312 -19.229118 39.504605 -0.197590 2.079169 0.086454 -0.016871 70977.200000 0 0 1
34.142019 -7.841212 -18.317118 39.530734 -0.225750 2.052584 0.083325 -0.017721 225785.000000 0 0 1
34.916759 -8.840212 -18.955218 40.701717 -0.247969 2.055234 0.066134 -0.013364 -452137.000000 0 0 1
35.611089 -9.731012 -17.950018 41.049305 -0.266746 2.023368 0.055992 -0.013097 -325285.000000 0 0 1
34.782599 -10.569312 -17.111018 40.178682 -0.295001 2.010723 0.049831 -0.013764 710950.000000 0 0 1
35.535089 -11.448912 -16.285218 40.731173 -0.311685 1.982119 0.064132 -0.023594 294409.000000 0 0 1
36.609889 -10.895712 -15.232118 41.121989 -0.289269 1.950250 0.074522 -0.022879 556974.000000 0 0 1
-36.887223 -11.900512 -14.316718 41.318976 0.312077 1.924626 0.065875 -0.019628 483079.000000 0 0 1
-36.078745 -12.915512 -14.859018 41.100811 0.343767 1.940701 0.061394 -0.025622 -530740.000000 0 0 1
-34.609499 -12.709712 -15.269018 39.906104 0.351943 1.963431 0.065650 -0.028334 -312658.000000 0 0 1
-34.480471 -12.095612 -16.511118 40.097677 0.337384 1.995195 0.083866 -0.023641 -796537.000000 0 0 1
-33.133833 -12.052812 -16.818618 39.063884 0.348882 2.015889 0.078572 -0.019684 -1002840.000000 0 0 1
-32.786713 -10.872512 -17.768918 38.844749 0.320202 2.045904 0.097943 -0.017001 -18848.700000 0 0 1
-33.062833 -9.586012 -17.317618 38.534951 0.282196 2.036890 0.108614 -0.020154 920360.000000 0 0 1
-34.338836 -9.152512 -17.839718 39.764050 0.260480 2.036039 0.109107 -0.027756 606821.000000 0 0 1
-34.659694 -7.690212 -17.479318 39.572216 0.218341 2.028297 0.107013 -0.025686 -580623.000000 0 0 1
-35.654182 -7.190012 -18.302918 40.717487 0.198991 2.037013 0.106606 -0.017187 -429333.000000 0 0 1
-36.182543 -6.016412 -17.746218 40.746802 0.164772 2.021417 0.108097 -0.018935 -185285.000000 0 0 1
24.817527 27.773588 -27.180928 46.109486 0.841547 2.201220 0.039242 0.009336 130263.000000 0 0 1
25.298627 26.816388 -26.231008 45.246050 0.814513 2.189208 0.035404 0.005814 385744.000000 0 0 1
26.640727 26.425188 -26.510378 45.943651 0.781336 2.185871 0.044204 -0.001878 444501.000000 0 0 1
27.211227 25.327888 -25.570428 45.119836 0.749567 2.173319 0.058567 0.001831 -210882.000000 0 0 1
27.438527 25.785388 -24.271718 44.798162 0.754348 2.143375 0.060135 0.005656 238712.000000 0 0 1
27.728527 24.812888 -23.334718 43.921062 0.729963 2.130916 0.071999 0.001021 -149834.000000 0 0 1
28.452427 25.362988 -22.083418 44.051097 0.728053 2.095913 0.074005 0.002252 381868.000000 0 0 1
27.644627 26.244988 -21.298918 43.665418 0.759432 2.080336 0.049429 0.000327 196790.000000 0 0 1
28.409127 26.690288 -20.232418 43.918114 0.754213 2.049563 0.044866 -0.006686 -89043.900000 0 0 1
27.703627 27.778388 -19.439318 43.783752 0.786746 2.030837 0.050665 -0.009606 -150808.000000 0 0 1
26.620927 27.360888 -18.635718 42.480371 0.799105 2.024937 0.054394 -0.010549 84242.900000 0 0 1
25.912727 28.432488 -18.051318 42.493834 0.831731 2.009536 0.050692 -0.017296 518314.000000 0 0 1
24.766027 27.960188 -17.084718 41.073298 0.845904 1.999791 0.057411 -0.022883 454777.000000 0 0 1
23.684227 27.323988 -17.741918 40.278016 0.856634 2.026937 0.071118 -0.021079 -885388.000000 0 0 1
22.624727 27.276988 -16.847618 39.239707 0.878358 2.014571 0.054072 -0.017379 -788571.000000 0 0 1
21.625127 26.306988 -17.494418 38.285225 0.882766 2.045359 0.058312 -0.023156 -648634.000000 0 0 1
21.004527 26.681488 -18.722318 38.776503 0.903889 2.074676 0.055252 -0.015158 -295589.000000 0 0 1
20.417927 25.576588 -19.329418 38.008947 0.897090 2.104295 0.053501 -0.013463 -374603.000000 0 0 1
19.631027 25.973488 -20.558318 38.505113 0.923587 2.134016 0.046602 -0.004792 355021.000000 0 0 1
18.463427 26.732488 -20.233318 38.274159 0.966357 2.127796 0.028983 -0.001084 -385926.000000 0 0 1
17.525827 26.534488 -21.249018 38.245973 0.987080 2.159867 0.025395 0.000983 236219.000000 0 0 1
16.286227 27.485788 -21.075718 38.273955 1.035886 2.153944 0.023600 0.000767 391425.000000 0 0 1
15.603127 27.279088 -19.852018 37.171344 1.051234 2.134201 0.037201 0.001432 81038.800000 0 0 1
14.541627 28.235388 -19.714218 37.381098 1.095210 2.126316 0.041011 -0.002851 566245.000000 0 0 1
13.937927 28.189188 -18.296918 36.382322 1.111605 2.097755 0.052326 -0.002592 -244528.000000 0 0 1
13.181227 27.084788 -17.871318 35.024484 1.117873 2.106274 0.050234 0.006184 -264754.000000 0 0 1
13.063327 27.139388 -16.448618 34.318420 1.122186 2.070647 0.074294 0.005219 290334.000000 0 0 1
12.013327 26.098488 -15.989518 32.880325 1.139404 2.078640 0.083935 -0.002629 279122.000000 0 0 1
12.580627 24.766388 -15.927918 32.021005 1.100792 2.091420 0.062003 -0.002999 377129.000000 0 0 1
11.604027 23.716288 -15.857118 30.798766 1.115757 2.111643 0.086699 -0.009522 481872.000000 0 0 1
12.296327 22.352088 -15.947218 30.085366 1.067861 2.129474 0.060420 -0.007249 521731.000000 0 0 1
12.880727 22.171588 -17.265818 30.912796 1.044497 2.163413 0.056825 0.000210 -150312.000000 0 0 1
13.824527 21.155988 -17.466018 30.720599 0.991995 2.175531 0.054924 -0.001313 -82924.400000 0 0 1
13.246927 19.736588 -17.662118 29.613585 0.979671 2.209829 0.061968 -0.008002 152931.000000 0 0 1
12.638927 19.211188 -16.456718 28.277832 0.988892 2.191940 0.067060 -0.018184 -108365.000000 0 0 1
12.328927 17.869388 -16.645618 27.356792 0.966849 2.224920 0.059074 -0.018510 -735656.000000 0 0 1
13.464927 16.864788 -16.865018 27.388943 0.897029 2.234147 0.066082 -0.018933 -537903.000000 0 0 1
14.073827 16.622988 -15.646418 26.818030 0.868251 2.193741 0.073760 -0.027778 -543883.000000 0 0 1
15.257827 15.889088 -15.785818 27.100857 0.805663 2.192578 0.082698 -0.029281 -996416.000000 0 0 1
15.714927 15.216588 -14.439618 26.210801 0.769289 2.154243 0.113018 -0.025517 -463134.000000 0 0 1
16.481027 16.018388 -13.446618 26.627515 0.771164 2.100166 0.088356 -0.028393 725324.000000 0 0 1
17.727427 16.515888 -13.837818 27.901997 0.750033 2.089718 0.068774 -0.025710 -537755.000000 0 0 1
18.765627 15.521888 -14.428418 28.306484 0.691075 2.105657 0.067799 -0.030293 -1124380.000000 0 0 1
19.294727 14.450588 -13.648818 27.701917 0.642822 2.085990 0.090706 -0.030062 752650.000000 0 0 1
20.393627 14.852388 -12.816918 28.297824 0.629459 2.040845 0.094141 -0.025526 -183596.000000 0 0 1
21.042127 13.658088 -12.133118 27.866235 0.575730 2.021285 0.104584 -0.034959 -790504.000000 0 0 1
20.328727 12.962188 -11.148818 26.562598 0.567629 2.003932 0.158119 -0.034292 -47665.900000 0 0 1
20.997127 11.813588 -10.602818 26.322233 0.512487 1.985380 0.166625 -0.010239 -151112.000000 0 0 1
20.922627 10.522188 -11.474218 26.079311 0.465972 2.026366 0.125189 -0.018636 -704935.000000 0 0 1
21.737427 10.634488 -12.620018 27.292360 0.454990 2.051498 0.111379 -0.011605 314118.000000 0 0 1
21.612027 9.586588 -13.570118 27.260420 0.417499 2.091852 0.100989 -0.018289 -478053.000000 0 0 1
22.215927 8.236488 -13.214918 27.129711 0.355037 2.079564 0.103528 0.000359 -531521.000000 0 0 1
21.699827 7.607388 -12.049618 25.960511 0.337186 2.053473 0.108425 -0.015110 864498.000000 0 0 1
22.451827 6.426788 -11.636118 26.091903 0.278793 2.033050 0.124448 0.006159 -13623.800000 0 0 1
21.895127 5.111588 -12.292518 25.624811 0.229350 2.071122 0.107976 -0.000702 671554.000000 0 0 1
20.632727 4.587288 -11.874518 24.243697 0.218772 2.082655 0.065274 -0.017165 1496050.000000 0 1 0
19.452927 5.166488 -12.456518 23.670104 0.259596 2.124987 0.010680 -0.032738 648440.000000 0 1 0
18.497727 4.058788 -13.030718 22.987807 0.215998 2.173478 0.004669 -0.036060 -64641.500000 0 1 0
18.982927 3.393988 -14.175918 23.933812 0.176922 2.204703 0.016749 -0.030667 210913.000000 0 1 0
18.886327 1.989788 -14.006218 23.597177 0.104969 2.206265 0.045695 -0.024186 -744588.000000 0 1 0
19.942427 1.099888 -14.698818 24.798496 0.055097 2.205241 0.073194 -0.018062 271531.000000 0 1 0
21.091027 0.928588 -13.830018 25.238128 0.043999 2.150745 0.092716 -0.010101 705550.000000 0 0 1
22.294127 0.662388 -14.496418 26.600996 0.029703 2.147135 0.078851 -0.012648 -115975.000000 0 0 1
22.506027 -0.843612 -14.866118 26.985819 -0.037466 2.154222 0.079232 -0.009538 -410414.000000 0 0 1
21.648027 -1.311412 -15.911818 26.898752 -0.060505 2.203770 0.073551 -0.011028 324824.000000 0 0 1
22.162927 -2.481212 -16.555918 27.774992 -0.111489 2.209397 0.061473 -0.013106 489527.000000 0 0 1
21.154227 -3.320512 -17.476018 27.639435 -0.155696 2.255296 0.060839 -0.016847 421377.000000 0 0 1
20.134827 -4.040912 -16.843918 26.560456 -0.198061 2.257735 0.073145 -0.016781 622184.000000 0 0 1
19.369527 -4.872112 -17.753318 26.722582 -0.246423 2.297429 0.067448 -0.014023 240780.000000 0 0 1
18.655727 -6.073812 -17.125318 26.042348 -0.314751 2.288418 0.068452 -0.014473 -268212.000000 0 0 1
19.550227 -7.099812 -16.725918 26.690355 -0.348348 2.248063 0.073089 -0.006356 858735.000000 0 0 1
18.930627 -8.267912 -16.124618 26.205540 -0.411779 2.233580 0.083306 -0.000863 1205710.000000 0 0 1
20.110927 -9.249112 -15.673918 27.123185 -0.431060 2.186924 0.114514 0.007250 1167150.000000 0 0 1
20.827727 -10.023212 -16.599418 28.456980 -0.448530 2.193602 0.104005 -0.001015 243311.000000 0 0 1
21.783127 -10.863612 -16.034418 29.148332 -0.462621 2.153277 0.096349 -0.005464 -525653.000000 0 0 1
22.499127 -11.714912 -17.089718 30.586081 -0.480057 2.163664 0.085679 -0.003600 -139712.000000 0 0 1
23.501227 -11.070212 -17.849918 31.519468 -0.440219 2.172823 0.073624 0.000558 -55882.700000 0 0 1
23.795727 -11.761712 -19.018618 32.653979 -0.459060 2.192510 0.079464 -0.002563 -643050.000000 0 0 1
22.831427 -11.675512 -20.215718 32.653743 -0.472709 2.238384 0.100597 -0.004103 361417.000000 0 0 1
21.542427 -12.263212 -20.089118 31.906664 -0.517509 2.251862 0.117292 -0.021982 432004.000000 0 0 1
21.552727 -13.694212 -20.133018 32.517532 -0.566030 2.238448 0.109168 -0.010741 -405461.000000 0 0 1
20.201627 -14.256012 -19.608218 31.556645 -0.614532 2.241281 0.110991 -0.013526 60779.400000 0 0 1
19.229327 -13.919812 -20.551518 31.398935 -0.626577 2.284356 0.097650 -0.000320 -1391730.000000 0 0 1
17.952527 -14.357512 -20.278518 30.653706 -0.674588 2.293661 0.092137 -0.007843 -533409.000000 0 0 1
16.932127 -13.853812 -21.330918 30.555411 -0.685738 2.343545 0.073769 -0.008068 -116104.000000 0 0 1
17.264727 -14.311312 -22.629418 31.858673 -0.692136 2.360730 0.067696 -0.001295 406319.000000 0 0 1
16.557927 -13.582312 -23.627018 31.888558 -0.686991 2.405242 0.069491 -0.005099 -147476.000000 0 0 1
16.486227 -14.291912 -25.004818 33.185771 -0.714224 2.424136 0.070928 -0.008497 -348669.000000 0 0 1
15.771127 -15.489212 -25.020168 33.386419 -0.776380 2.417969 0.066031 -0.013427 250291.000000 0 0 1
15.764127 -15.964012 -26.364748 34.618743 -0.791698 2.436535 0.065049 -0.007030 -146782.000000 0 0 1
16.654427 -17.195212 -26.633908 35.810757 -0.801373 2.409445 0.063014 -0.004712 283812.000000 0 0 1
18.045727 -16.919112 -26.695168 36.394184 -0.753188 2.394255 0.073851 0.002450 270736.000000 0 0 1
18.808027 -18.103012 -26.922208 37.500216 -0.766300 2.371608 0.079518 -0.004939 283906.000000 0 0 1
20.313027 -17.743012 -26.991398 38.157164 -0.717968 2.356573 0.079943 0.007200 -87661.200000 0 0 1
20.865727 -17.511612 -25.716488 37.461619 -0.698221 2.327427 0.092051 0.003960 -523504.000000 0 0 1
22.159627 -16.997512 -25.808088 38.026595 -0.654323 2.316767 0.086867 0.008777 -658048.000000 0 0 1
22.538827 -16.370312 -24.399818 37.031567 -0.628170 2.290142 0.102578 0.007642 82306.800000 0 0 1
22.219227 -14.986612 -24.248818 36.142742 -0.593398 2.306242 0.101110 0.003872 320681.000000 0 0 1
20.818827 -14.735212 -24.327818 35.247593 -0.615930 2.332559 0.119623 0.000202 216327.000000 0 0 1
20.422227 -13.367512 -23.710218 34.028403 -0.579572 2.341691 0.126705 0.010928 -414428.000000 0 0 1
20.957527 -12.306112 -24.402718 34.440543 -0.530949 2.358232 0.132734 -0.007047 213083.000000 0 0 1
20.928027 -11.122112 -23.597118 33.444098 -0.488487 2.354022 0.124874 -0.016248 -99481.600000 0 0 1
21.259027 -9.832612 -24.323218 33.767521 -0.433212 2.375051 0.133779 -0.017565 -239032.000000 0 0 1
20.889327 -8.638112 -23.709018 32.758182 -0.392105 2.380030 0.123453 -0.024007 135574.000000 0 0 1
20.762127 -7.589412 -24.621818 33.089259 -0.350452 2.409988 0.101297 -0.018539 -131414.000000 0 0 1
20.055327 -6.366012 -24.008018 31.923772 -0.307363 2.421951 0.094307 -0.022541 527326.000000 0 0 1
18.684127 -6.561812 -23.636518 30.835677 -0.337741 2.444219 0.090752 -0.019938 426360.000000 0 0 1
18.206527 -5.594812 -22.763218 29.680695 -0.298138 2.444850 0.079311 -0.018840 -145519.000000 0 0 1
18.761927 -5.540212 -21.288618 28.912093 -0.287130 2.398415 0.079285 -0.017802 -291579.000000 0 0 1
18.299327 -6.559612 -20.407218 28.184188 -0.344193 2.380476 0.089146 -0.015785 242828.000000 0 0 1
18.610927 -7.918912 -20.742118 28.970869 -0.402292 2.368801 0.093012 -0.019650 -165619.000000 0 0 1
18.059727 -8.976012 -19.734018 28.216201 -0.461259 2.345335 0.085946 -0.020513 -31382.300000 0 0 1
16.669727 -9.038012 -19.524518 27.217132 -0.496820 2.370804 0.072719 -0.017986 -105848.000000 0 0 1
16.329927 -10.214212 -18.871218 26.965154 -0.558952 2.345966 0.084524 -0.012103 681542.000000 0 0 1
14.818927 -10.319412 -18.436918 25.807185 -0.608284 2.366577 0.088957 -0.017877 711937.000000 0 0 1
14.349627 -9.736712 -17.252518 24.461495 -0.596174 2.353633 0.099513 -0.020006 246682.000000 0 1 0
14.424127 -8.311812 -17.108318 23.871242 -0.522768 2.369843 0.097000 -0.041418 -264488.000000 0 1 0
13.031927 -7.744312 -16.781018 22.614333 -0.536186 2.406923 0.074853 -0.030663 -762375.000000 0 1 0
12.069927 -7.689512 -17.765618 22.812911 -0.567239 2.463472 0.064776 -0.028103 -326877.000000 0 1 0
11.116327 -6.697512 -17.403418 21.709638 -0.542251 2.500838 0.043705 -0.023541 59457.900000 0 1 0
9.706527 -7.033612 -17.946318 21.581444 -0.627064 2.552711 0.037625 -0.015830 67253.500000 0 1 0
9.521427 -6.576112 -19.265618 22.473693 -0.604433 2.600705 0.040488 -0.021150 -818083.000000 0 1 0
8.185627 -6.222112 -19.376418 21.935468 -0.649951 2.653731 0.047463 -0.028930 -700156.000000 0 1 0
7.762227 -5.843412 -20.794018 22.951881 -0.645291 2.704493 0.054798 -0.036281 -85962.400000 0 1 0
7.633127 -6.956712 -21.583718 23.927335 -0.739069 2.695298 0.050048 -0.031102 -52155.600000 0 1 0
7.124227 -6.567812 -22.828318 24.799655 -0.744783 2.740179 0.059616 -0.035248 -283800.000000 0 1 0
7.087227 -7.686712 -23.899218 26.086145 -0.825953 2.729202 0.042208 -0.032831 -369550.000000 0 0 1
6.195427 -8.733212 -23.685418 25.993294 -0.953783 2.717015 0.050376 -0.034305 -158422.000000 0 0 1
6.337927 -9.665812 -24.732918 27.300448 -0.990421 2.704421 0.048266 -0.023871 -85838.800000 0 0 1
5.403927 -10.911412 -24.650818 27.494075 -1.110952 2.682797 0.048154 -0.024278 7717.990000 0 0 1
5.720127 -11.847012 -23.588118 27.008718 -1.120976 2.632838 0.044877 -0.037160 244910.000000 0 0 1
4.998327 -13.090112 -23.592618 27.439860 -1.206043 2.605662 0.060579 -0.039073 -215300.000000 0 0 1
5.673627 -14.232512 -22.740118 27.420201 -1.191464 2.548686 0.068393 -0.033285 1035460.000000 0 0 1
6.828327 -14.923912 -23.285518 28.487972 -1.141688 2.527646 0.044222 -0.027717 1446840.000000 0 0 1
8.082727 -14.225912 -23.326818 28.492938 -1.054111 2.529918 0.047026 -0.029606 1244690.000000 0 0 1
8.912227 -14.041412 -21.983118 27.565314 -1.005245 2.493923 0.056517 -0.026488 330719.000000 0 0 1
9.436627 -15.151712 -21.202518 27.715900 -1.013774 2.441830 0.044467 -0.011444 214682.000000 0 0 1
8.452927 -15.823712 -20.483018 27.228586 -1.080169 2.422284 0.030284 -0.009842 -490255.000000 0 0 1
8.871627 -15.835512 -19.026118 26.295672 -1.060128 2.379721 0.037151 -0.008596 428361.000000 0 0 1
9.949227 -16.742612 -18.756118 27.038753 -1.034619 2.337376 0.059552 -0.013912 -66871.000000 0 0 1
10.183827 -16.965912 -17.393718 26.345663 -1.030191 2.291897 0.067039 -0.019488 419494.000000 0 0 1
9.109527 -17.760212 -16.489218 25.890209 -1.096868 2.261254 0.036337 -0.011878 286729.000000 0 0 1
8.875127 -19.080612 -16.962518 27.028960 -1.135425 2.249222 0.041896 -0.007840 -57608.200000 0 0 1
8.197027 -19.380012 -18.178218 27.806901 -1.170652 2.283300 0.044721 -0.009502 -199335.000000 0 0 1
6.701027 -19.024912 -18.232618 27.189693 -1.232142 2.305774 0.046439 -0.007027 -449346.000000 0 0 1
6.406427 -17.694212 -18.040518 26.068904 -1.223415 2.335097 0.050692 -0.009387 -681953.000000 0 0 1
5.047227 -17.516612 -18.366418 25.877239 -1.290256 2.359942 0.049955 -0.001018 -83269.300000 0 0 1
4.650427 -16.042612 -18.150318 24.666291 -1.288650 2.397695 0.042816 0.005331 -136410.000000 0 1 0
4.396127 -15.843312 -16.791518 23.500884 -1.300130 2.366714 0.004272 0.011344 119546.000000 0 1 0
4.026227 -14.564412 -16.348818 22.262445 -1.301089 2.395531 -0.003305 0.016534 -95371.000000 0 1 0
10.730127 29.714588 -18.087318 36.403893 1.224262 2.090763 0.078414 -0.016295 -334315.000000 0 0 1
9.776127 29.396488 -19.075618 36.381388 1.249741 2.122717 0.103816 -0.020216 -290349.000000 0 0 1
8.737827 28.675788 -18.478218 35.214982 1.275023 2.123190 0.101208 -0.016732 -324220.000000 0 0 1
7.644827 28.083088 -19.375018 34.964189 1.305015 2.158125 0.113069 -0.017086 -370353.000000 0 0 1
6.731627 29.061188 -19.785018 35.795452 1.343174 2.156426 0.124848 -0.030958 -526435.000000 0 0 1
5.847627 28.453888 -20.721018 35.681635 1.368106 2.190408 0.113948 -0.033048 936541.000000 0 0 1
4.750427 29.460488 -21.274718 36.648336 1.410925 2.190151 0.109995 -0.040679 1957060.000000 0 0 1
3.521427 29.626188 -20.517018 36.208556 1.452489 2.173212 0.107159 -0.030807 724923.000000 0 0 1
2.593427 30.505988 -21.056218 37.157846 1.485987 2.173254 0.098189 -0.037502 33686.100000 0 0 1
1.127027 30.271588 -20.562018 36.611963 1.533583 2.167139 0.076755 -0.029218 366942.000000 0 0 1
0.527427 29.113688 -21.132018 35.978427 1.552682 2.198580 0.095677 -0.045182 55683.800000 0 0 1
0.016127 29.215188 -22.479318 36.862545 1.570244 2.226623 0.119650 -0.059435 -462951.000000 0 0 1
-0.841973 27.974888 -22.855018 36.133850 -1.540708 2.255586 0.126423 -0.052241 235776.000000 0 0 1
-1.899673 27.867488 -21.907218 35.498336 -1.502734 2.235891 0.130767 -0.056434 -231805.000000 0 0 1
-2.567873 26.675288 -22.099918 34.735736 -1.474828 2.260398 0.141760 -0.061441 -253063.000000 0 0 1
-3.599873 26.173288 -21.062918 33.788261 -1.434114 2.243854 0.103982 -0.062382 -234828.000000 0 0 1
-4.796173 26.874488 -21.198918 34.563500 -1.394190 2.231069 0.094953 -0.061502 133621.000000 0 0 1
-5.882873 26.293188 -20.444018 33.821558 -1.350680 2.219893 0.073521 -0.059495 189298.000000 0 0 1
-7.060373 27.246288 -20.270718 34.685892 -1.317242 2.194947 0.070368 -0.066874 -469200.000000 0 0 1
-8.124373 26.542188 -19.644718 34.006001 -1.273759 2.186685 0.071562 -0.039593 -532070.000000 0 0 1
-8.705773 27.401888 -18.695618 34.295482 -1.263175 2.147345 0.076251 -0.053929 400118.000000 0 0 1
-9.978373 26.806188 -18.002518 33.796898 -1.214446 2.132546 0.098794 -0.038823 524843.000000 0 0 1
-9.653073 25.874288 -16.980618 32.419161 -1.213714 2.122083 0.102887 -0.050527 -20236.900000 0 0 1
-10.772473 25.066488 -16.604518 31.938770 -1.164904 2.117514 0.078555 -0.034443 289906.000000 0 0 1
-10.678273 24.170288 -15.327818 30.547837 -1.154788 2.096434 0.082700 -0.025228 -190691.000000 0 0 1
-9.914873 22.991088 -15.408118 29.399064 -1.163645 2.122457 0.089285 -0.028185 -271981.000000 0 0 1
-9.866873 22.556388 -14.062718 28.353234 -1.158443 2.089763 0.090545 -0.019777 207910.000000 0 0 1
-9.191773 21.135088 -13.794718 26.860284 -1.160565 2.110140 0.091672 -0.014678 -80448.300000 0 0 1
-9.886273 19.974888 -14.130318 26.389400 -1.111209 2.135842 0.102993 -0.015497 -454483.000000 0 0 1
-10.232073 19.670088 -15.473318 27.037590 -1.091132 2.180091 0.105714 0.000608 677084.000000 0 0 1
-9.073373 19.726388 -16.555118 27.304366 -1.139690 2.222218 0.105402 -0.009798 381556.000000 0 0 1
-8.237973 18.626388 -16.536918 26.235018 -1.154386 2.252784 0.100572 -0.008088 -126639.000000 0 0 1
-7.348073 18.584788 -17.681218 26.683590 -1.194278 2.295115 0.091479 -0.012001 803064.000000 0 0 1
-6.655773 17.191388 -17.772718 25.606887 -1.201410 2.337910 0.058260 -0.008801 -148865.000000 0 0 1
-7.559473 16.181188 -18.083718 25.416478 -1.133750 2.362421 0.072415 -0.016436 -627919.000000 0 0 1
-7.546573 15.634088 -19.379418 26.018019 -1.121084 2.411100 0.072967 -0.025102 294964.000000 0 0 1
-6.377573 14.640488 -19.614918 25.293524 -1.159972 2.458290 0.040142 -0.013518 -271175.000000 0 0 1
-6.619173 13.395288 -18.984418 24.158959 -1.111846 2.474805 0.028792 -0.012415 355998.000000 0 1 0
-5.487273 12.639288 -18.508718 23.074540 -1.161206 2.501645 0.025126 -0.013143 732406.000000 0 1 0
-4.793573 13.351488 -17.300218 22.372709 -1.226101 2.454784 0.023233 -0.002524 -302602.000000 0 1 0
-4.163173 14.564488 -17.542318 23.177343 -1.292377 2.429312 0.021344 -0.011310 -464992.000000 0 1 0
-3.494073 15.095188 -16.374818 22.543467 -1.343333 2.383817 0.019650 -0.001353 763537.000000 0 1 0
-2.591273 16.322588 -16.768218 23.543889 -1.413356 2.363439 0.025967 -0.006190 273601.000000 0 1 0
-3.326873 17.471488 -17.113418 24.681776 -1.382632 2.336941 0.037195 -0.005252 -239895.000000 0 1 0
-2.458773 18.494688 -17.559718 25.621139 -1.438627 2.325895 0.056666 -0.008102 -355001.000000 0 0 1
-3.056273 19.848588 -17.643818 26.732220 -1.418017 2.291643 0.060388 -0.008394 106921.000000 0 0 1
-3.804673 19.923688 -18.863018 27.699140 -1.382106 2.319919 0.066894 -0.012995 -289258.000000 0 0 1
-4.287473 21.179688 -19.257418 28.944944 -1.371062 2.298708 0.097205 -0.017469 142679.000000 0 0 1
-3.249673 22.289088 -19.623118 29.873577 -1.426020 2.287459 0.094305 -0.029158 -682279.000000 0 0 1
-2.387673 21.964188 -20.708818 30.281705 -1.462514 2.323853 0.111867 -0.025827 -191944.000000 0 0 1
-1.282873 22.843288 -20.713618 30.862851 -1.514696 2.306556 0.109786 -0.037194 64425.700000 0 0 1
-0.091673 22.295888 -19.920018 29.898531 -1.566685 2.299971 0.117003 -0.037796 -706194.000000 0 0 1
-0.452373 22.251788 -18.544118 28.969484 -1.550469 2.265458 0.099982 -0.024379 -938000.000000 0 0 1
0.682327 22.130488 -17.749618 28.377333 1.539974 2.246550 0.102734 -0.021861 -217863.000000 0 0 1
0.422127 22.209688 -16.205818 27.496854 1.551792 2.201075 0.094580 -0.016766 -246664.000000 0 0 1
-0.413973 21.223288 -15.630218 26.361014 -1.551293 2.205488 0.069790 -0.007779 -164635.000000 0 0 1
-0.291573 21.306088 -14.259518 25.639194 -1.557112 2.160556 0.070762 -0.004431 768391.000000 0 0 1
-1.293073 20.332588 -13.502918 24.442074 -1.507286 2.156092 0.048344 0.000003 565497.000000 0 1 0
-0.979373 18.987588 -13.671618 23.417959 -1.519262 2.194209 0.037839 0.002761 2038.330000 0 1 0
-1.935773 18.123588 -13.057318 22.421089 -1.464390 2.192435 0.027857 0.007693 247957.000000 0 1 0
-1.662473 16.615188 -13.203118 21.287335 -1.471071 2.239837 0.015333 0.013014 -16981.400000 0 1 0
-0.545173 16.281688 -12.380618 20.461434 -1.537325 2.220651 0.005986 0.008537 281564.000000 0 1 0
-0.415473 14.893888 -12.125018 19.209804 -1.542908 2.253882 0.003050 0.000410 94370.700000 0 1 0
0.399027 14.116788 -13.242318 19.359802 1.542538 2.324043 0.017640 -0.004153 -160871.000000 0 1 0
-0.228273 13.728188 -14.402818 19.898654 -1.554170 2.380103 0.020071 -0.015614 -806843.000000 0 1 0
0.627527 13.003488 -15.202818 20.015248 1.522575 2.433435 0.019538 -0.015384 -1100350.000000 0 1 0
0.089227 12.594988 -16.538418 20.788481 1.563712 2.490722 0.025618 -0.018119 -245023.000000 0 1 0
-0.281873 13.708288 -17.307818 22.080697 -1.550237 2.471628 0.026450 -0.025496 12299.800000 0 1 0
-0.438973 13.318488 -18.608018 22.887402 -1.537849 2.520124 0.034116 -0.030833 -147391.000000 0 1 0
-0.994973 14.459888 -19.478818 24.279676 -1.502095 2.501882 0.034695 -0.017069 70743.900000 0 1 0
-0.114973 15.552188 -19.597518 25.018923 -1.563404 2.470766 0.039774 -0.020381 -291263.000000 0 0 1
-0.835073 16.680788 -20.017618 26.070118 -1.520776 2.446255 0.073858 -0.029274 -152309.000000 0 0 1
0.078827 17.856188 -20.359518 27.080614 1.566382 2.421601 0.097165 -0.036403 -257309.000000 0 0 1
0.831927 17.714688 -21.511118 27.878854 1.523868 2.452137 0.113710 -0.047222 -145056.000000 0 0 1
1.501227 18.950488 -21.790718 28.917297 1.491743 2.424247 0.118111 -0.044338 327956.000000 0 0 1
2.104227 19.038688 -23.252018 30.125666 1.460719 2.452517 0.124629 -0.054073 90284.600000 0 0 1
3.078627 18.042188 -23.473518 29.765829 1.401789 2.479335 0.109995 -0.050401 -342229.000000 0 0 1
3.372027 18.099088 -24.842418 30.920758 1.386599 2.503817 0.111123 -0.057682 485566.000000 0 0 1
4.466227 17.023388 -25.211418 30.746683 1.314221 2.532158 0.092733 -0.046158 -189936.000000 0 0 1
5.691027 17.292788 -24.579518 30.587269 1.252862 2.504093 0.082211 -0.035103 -224534.000000 0 0 1
6.733227 16.394688 -24.910818 30.572390 1.181104 2.523205 0.079040 -0.025748 239737.000000 0 0 1
7.313227 16.296788 -26.312678 31.802919 1.148980 2.545199 0.078683 -0.041383 -1734600.000000 0 0 1
8.173727 17.341688 -26.675908 32.850389 1.130343 2.518440 0.078453 -0.034869 136949.000000 0 0 1
8.606827 17.351588 -28.069468 34.103521 1.110334 2.537586 0.087297 -0.050999 126083.000000 0 0 1
9.275727 16.044588 -28.546438 34.034792 1.046619 2.565767 0.083902 -0.046167 -960746.000000 0 0 1
10.485327 15.777588 -27.884078 33.710476 0.984246 2.544838 0.071489 -0.038911 -236926.000000 0 0 1
11.058927 14.543988 -28.124908 33.538603 0.920686 2.565474 0.069294 -0.030707 -24583.800000 0 0 1
10.464227 13.400088 -27.204408 32.080247 0.907806 2.583018 0.068087 -0.032810 -166617.000000 0 0 1
9.074027 13.210488 -27.279918 31.639357 0.968930 2.610422 0.079447 -0.030728 -470417.000000 0 0 1
8.693827 12.154388 -26.439418 30.370292 0.949887 2.627153 0.080053 -0.033009 -463769.000000 0 0 1
7.183127 12.010588 -26.387678 29.869066 1.031800 2.653961 0.076675 -0.033521 -453622.000000 0 0 1
6.494927 13.041488 -25.642078 29.492044 1.108734 2.624899 0.104545 -0.028255 28697.300000 0 0 1
5.116327 12.784188 -25.476678 28.959858 1.190111 2.646077 0.105819 -0.038908 223582.000000 0 0 1
4.214227 13.619488 -26.415528 30.017167 1.270714 2.646688 0.119883 -0.039963 -806872.000000 0 0 1
4.251727 13.244688 -27.796218 31.082611 1.260174 2.677592 0.123674 -0.049165 196113.000000 0 0 1
3.890327 14.300588 -28.661308 32.266268 1.305184 2.664371 0.122146 -0.057582 -190180.000000 0 0 1
3.877127 13.857088 -30.128038 33.387867 1.297979 2.696022 0.153780 -0.058401 -898860.000000 0 0 1
5.115727 13.524188 -30.626948 33.868633 1.209166 2.700502 0.143879 -0.053772 -841515.000000 0 0 1
5.076527 13.312888 -32.009128 35.036958 1.206493 2.722803 0.143196 -0.053632 342042.000000 0 0 1
6.239727 12.299588 -32.420188 35.231842 1.101316 2.739376 0.161108 -0.041666 1375690.000000 0 0 1
7.599327 12.719788 -32.250848 35.491689 1.032260 2.710925 0.157791 -0.036062 924809.000000 0 0 1
8.109127 12.923288 -30.932688 34.490586 1.010414 2.683380 0.129939 -0.032406 -638603.000000 0 0 1
8.165627 11.617088 -30.089288 33.271601 0.958128 2.700659 0.127997 -0.030101 -681212.000000 0 0 1
9.183927 10.687188 -30.316228 33.431036 0.860905 2.706495 0.099990 -0.022585 -447384.000000 0 0 1
9.022827 9.509688 -29.626798 32.397419 0.811663 2.725018 0.099710 -0.026816 402369.000000 0 0 1
10.078927 8.367888 -29.867658 32.614158 0.692908 2.728262 0.085534 -0.029405 -115937.000000 0 0 1
11.348927 8.585488 -29.357948 32.625111 0.647650 2.690239 0.066233 -0.028507 -633666.000000 0 0 1
12.073427 7.359488 -29.417508 32.639232 0.547420 2.693541 0.050555 -0.021477 -694134.000000 0 0 1
13.379027 7.360388 -28.616808 32.436020 0.502954 2.651425 0.039315 -0.013989 -157606.000000 0 0 1
13.923227 6.079188 -28.440748 32.244208 0.411673 2.650975 0.062146 -0.024736 -396975.000000 0 0 1
14.756127 5.656188 -29.460208 33.431118 0.366037 2.649236 0.056373 -0.024351 -1001190.000000 0 0 1
15.628627 4.463788 -29.058038 33.294879 0.278209 2.631600 0.060435 -0.031390 -68448.500000 0 0 1
16.473427 4.706588 -27.947288 32.780737 0.278294 2.591646 0.051679 -0.033504 -139963.000000 0 0 1
17.311927 3.628588 -27.716978 32.880091 0.206610 2.573579 0.052137 -0.030850 -427184.000000 0 0 1
18.038327 3.671188 -26.377638 32.165800 0.200779 2.532299 0.050454 -0.029289 -507942.000000 0 0 1
19.063527 4.605088 -26.312278 32.817082 0.237025 2.501074 0.067060 -0.033637 -140067.000000 0 0 1
19.729027 4.635588 -25.054498 32.225007 0.230777 2.461455 0.075122 -0.029495 174345.000000 0 0 1
20.876427 5.652388 -24.979018 33.041278 0.264415 2.427968 0.065504 -0.019635 -151444.000000 0 0 1
20.321327 6.959388 -25.170728 33.090104 0.329948 2.435145 0.071092 -0.015835 223402.000000 0 0 1
21.197527 7.953788 -25.654358 34.216137 0.358966 2.418516 0.081103 -0.029428 -649440.000000 0 0 1
21.461027 7.953688 -27.192268 35.542317 0.354917 2.441942 0.105189 -0.032824 122405.000000 0 0 1
20.410227 8.279588 -28.107908 35.709711 0.385375 2.476926 0.085600 -0.023914 177675.000000 0 0 1
19.481127 7.196588 -28.250598 35.062822 0.353864 2.507676 0.069049 -0.021799 81706.300000 0 0 1
18.174827 7.806688 -28.859408 34.987629 0.405704 2.540726 0.067461 -0.019982 37736.400000 0 0 1
18.167027 7.996688 -30.279418 36.205401 0.414654 2.561338 0.051747 -0.016505 -124118.000000 0 0 1
17.093827 8.858188 -30.549688 36.110246 0.478109 2.579256 0.027510 -0.007452 -116714.000000 0 0 1
16.567627 8.711088 -32.007928 37.079331 0.484066 2.612426 0.017892 -0.003858 -226451.000000 0 0 1
15.778927 7.595388 -32.227808 36.678278 0.448627 2.643849 0.035226 -0.014035 114336.000000 0 0 1
14.581427 7.899788 -32.944768 36.883362 0.496503 2.675242 0.027981 -0.006013 561459.000000 0 0 1
13.909727 6.572788 -33.454018 36.821915 0.441433 2.710562 0.042056 -0.012938 175468.000000 0 0 1
13.285127 5.809588 -32.362688 35.462508 0.412243 2.720368 0.048722 -0.021597 286696.000000 0 0 1
12.725127 4.691088 -33.010308 35.687752 0.353190 2.751768 0.059934 -0.027408 -236176.000000 0 0 1
12.141727 3.586888 -32.110418 34.516174 0.287248 2.766028 0.066056 -0.030028 131845.000000 0 0 1
13.066627 2.761988 -31.350858 34.076996 0.208311 2.738878 0.071247 -0.036687 322006.000000 0 0 1
12.484827 1.818388 -30.509228 33.015003 0.144631 2.749475 0.065766 -0.032421 -329811.000000 0 0 1
11.906927 0.510788 -31.113568 33.318012 0.042872 2.775788 0.067242 -0.024417 -283535.000000 0 0 1
12.850127 -0.362812 -31.654568 34.165320 -0.028227 2.755830 0.066104 -0.027211 -6295.340000 0 0 1
13.625027 -1.038612 -30.646548 33.554895 -0.076081 2.722174 0.066924 -0.032454 410494.000000 0 0 1
14.348027 -2.312112 -31.120258 34.346502 -0.159771 2.704693 0.074973 -0.036454 833884.000000 0 0 1
13.385527 -3.390412 -31.234778 34.150821 -0.248072 2.725346 0.072600 -0.030553 927303.000000 0 0 1
13.965227 -4.517412 -31.909688 35.123536 -0.312853 2.710474 0.090517 -0.027704 297795.000000 0 0 1
13.014127 -5.751312 -32.036608 35.054092 -0.416121 2.723634 0.075445 -0.023825 -17094.200000 0 0 1
13.047427 -6.443612 -30.862588 34.121179 -0.458724 2.701001 0.084578 -0.019023 81820.200000 0 0 1
12.720027 -7.812212 -31.106568 34.502874 -0.550771 2.694169 0.080830 -0.026257 -83382.200000 0 0 1
12.841527 -8.725912 -29.859588 33.654738 -0.596840 2.662108 0.062993 -0.026749 -468580.000000 0 0 1
14.091627 -8.552712 -29.258598 33.582561 -0.545504 2.628527 0.055392 -0.016793 -354082.000000 0 0 1
14.115727 -9.128712 -27.924478 32.593920 -0.574055 2.599709 0.057278 -0.010796 74009.000000 0 0 1
14.507127 -10.628912 -27.872578 33.170938 -0.632316 2.568579 0.060585 -0.014815 -248589.000000 0 0 1
13.428427 -11.445612 -28.281708 33.334362 -0.705852 2.583799 0.042875 -0.014556 181341.000000 0 0 1
13.718327 -12.870312 -28.377608 34.045941 -0.753515 2.556226 0.047551 -0.017888 152700.000000 0 0 1
-9.884273 -2.715112 -17.672318 20.429917 0.268078 2.615990 0.028508 -0.009930 432726.000000 0 1 0
-10.793173 -2.575012 -18.762818 21.798317 0.234200 2.607530 0.049978 -0.013895 -165799.000000 0 1 0
-11.742773 -3.532112 -19.014818 22.625911 0.292182 2.568817 0.058732 -0.017288 33798.600000 0 1 0
-12.679273 -3.137212 -20.254518 24.100862 0.242557 2.568829 0.082992 -0.033857 -205121.000000 0 1 0
-13.677573 -2.231412 -19.943518 24.285780 0.161719 2.534310 0.089917 -0.028099 -559341.000000 0 1 0
-14.290573 -1.920212 -21.188618 25.629382 0.133569 2.544069 0.093972 -0.021338 -285545.000000 0 0 1
-15.275073 -0.766112 -21.115418 26.072508 0.050112 2.514732 0.093812 -0.018755 -120976.000000 0 0 1
-14.605773 0.444288 -21.121318 25.683381 -0.030409 2.536366 0.094921 -0.021081 316618.000000 0 0 1
-15.540473 1.508088 -20.839918 26.040023 -0.096740 2.498597 0.100950 -0.019485 439862.000000 0 0 1
-15.135573 2.912488 -21.327118 26.313763 -0.190103 2.515789 0.129393 -0.026123 -254037.000000 0 0 1
-13.991073 3.488688 -20.760318 25.276706 -0.244368 2.534521 0.129782 -0.027282 -66824.600000 0 0 1
-13.763973 4.777588 -21.285518 25.794294 -0.334096 2.541357 0.140120 -0.032635 325086.000000 0 0 1
-12.441273 5.417888 -20.753118 24.795780 -0.410711 2.562504 0.105242 -0.029470 409514.000000 0 1 0
-12.583773 5.919288 -19.454518 23.913753 -0.439681 2.520991 0.107558 -0.035598 55200.700000 0 1 0
-11.321573 6.378588 -19.062318 23.070249 -0.513074 2.543254 0.072959 -0.023439 -222726.000000 0 1 0
-11.377173 7.026688 -17.675518 22.163897 -0.553270 2.493922 0.079840 -0.023687 -377554.000000 0 1 0
-11.870873 8.292588 -17.587418 22.781614 -0.609763 2.452779 0.080578 -0.031992 -1206030.000000 0 1 0
-13.013873 8.273488 -16.828018 22.825286 -0.566288 2.399792 0.110969 -0.030951 -1230100.000000 0 1 0
-13.648273 9.665088 -16.729418 23.655078 -0.616178 2.356359 0.120653 -0.034356 -598618.000000 0 1 0
-13.003173 10.599588 -15.931118 23.135131 -0.683913 2.330369 0.086091 -0.029217 -382171.000000 0 1 0
-13.514773 11.894488 -16.167118 24.197182 -0.721717 2.302503 0.099836 -0.028436 -370574.000000 0 1 0
-12.831573 13.067488 -15.488818 23.985662 -0.794507 2.272806 0.109301 -0.020110 -593440.000000 0 1 0
-13.053273 13.165788 -14.138318 23.315616 -0.789689 2.222307 0.116808 -0.023314 -85745.500000 0 1 0
-12.617973 14.390888 -13.625818 23.494123 -0.850946 2.189485 0.108891 -0.027624 -956546.000000 0 1 0
-13.190573 14.805688 -12.306318 23.337632 -0.843025 2.126235 0.082312 -0.024763 24267.900000 0 1 0
-14.542373 15.182988 -12.219118 24.316878 -0.806946 2.097279 0.077092 -0.023729 549305.000000 0 1 0
-15.538273 14.153988 -12.384518 24.395688 -0.738811 2.103254 0.075916 -0.022035 -466137.000000 0 1 0
-16.950873 14.660888 -12.085018 25.462156 -0.713084 2.065336 0.059221 -0.010076 74677.300000 0 0 1
-17.946873 13.648888 -12.392218 25.728378 -0.650198 2.073339 0.055512 -0.019178 280898.000000 0 0 1
-19.161773 14.018288 -11.786618 26.506797 -0.631605 2.031595 0.107840 -0.023073 -337187.000000 0 0 1
-20.390473 13.513488 -12.569318 27.502245 -0.585276 2.045448 0.092880 -0.032769 -375134.000000 0 0 1
-20.629773 12.145888 -12.501018 27.007139 -0.532110 2.052036 0.097482 -0.029044 1092440.000000 0 0 1
-21.906373 11.741288 -13.049018 28.071763 -0.492012 2.054256 0.122612 -0.034696 616240.000000 0 0 1
-22.501573 10.475388 -12.360918 27.728087 -0.435702 2.032854 0.112996 -0.030675 -90847.100000 0 0 1
-21.629073 9.338188 -12.328218 26.589538 -0.407568 2.052906 0.103006 -0.037987 506295.000000 0 0 1
-22.127973 8.352388 -11.465718 26.284449 -0.360924 2.022186 0.095637 -0.030812 -10762.500000 0 0 1
-21.100373 7.212788 -11.267118 24.983955 -0.329380 2.038653 0.109134 -0.035131 -90294.900000 0 1 0
-20.986873 6.401288 -12.437518 25.221363 -0.296050 2.086485 0.113169 -0.037308 532060.000000 0 0 1
-19.756673 5.703788 -12.450318 24.038921 -0.281060 2.115218 0.120548 -0.040469 149759.000000 0 1 0
-19.859873 4.554188 -13.460218 24.419923 -0.225419 2.154596 0.132804 -0.054022 486231.000000 0 1 0
-20.897973 3.678788 -12.988818 24.879070 -0.174250 2.120082 0.126564 -0.048291 877092.000000 0 1 0
-20.888073 2.571588 -13.874018 25.207400 -0.122496 2.153633 0.120793 -0.043498 -197802.000000 0 0 1
-21.668873 1.318788 -13.407118 25.515291 -0.060786 2.124045 0.130498 -0.041568 227686.000000 0 0 1
-23.019173 1.360288 -13.857918 26.903059 -0.059025 2.111927 0.087358 -0.037111 530226.000000 0 0 1
-23.352773 -0.005312 -13.986518 27.220851 0.000227 2.110424 0.086504 -0.038849 -86863.900000 0 0 1
-24.586873 -0.347712 -14.861518 28.731515 0.014141 2.114437 0.089942 -0.029494 -77665.300000 0 0 1
-25.823763 -0.054012 -14.292718 29.515275 0.002092 2.076300 0.109156 -0.038839 -134629.000000 0 0 1
-26.942733 -0.316812 -15.113318 30.893747 0.011758 2.081972 0.102386 -0.026204 894966.000000 0 0 1
-28.307433 0.188488 -14.514918 31.812405 -0.006659 2.044591 0.105859 -0.032156 509165.000000 0 0 1
-28.676223 -0.618112 -13.411118 31.663321 0.021552 2.008161 0.116111 -0.030648 110729.000000 0 0 1
-29.700553 -0.004812 -12.649918 32.282244 0.000162 1.973442 0.159722 -0.037233 112164.000000 0 0 1
-29.760473 -0.602212 -11.202118 31.804651 0.020233 1.930734 0.153371 -0.038302 -147444.000000 0 0 1
-30.299563 -1.889512 -10.942518 32.270303 0.062280 1.916745 0.154803 -0.031217 902075.000000 0 0 1
-29.485103 -2.992312 -11.418118 31.760016 0.101139 1.938542 0.153146 -0.037228 49480.900000 0 0 1
-29.854213 -4.316012 -10.782618 32.033839 0.143575 1.914101 0.160849 -0.040148 -870826.000000 0 0 1
-31.123133 -4.766712 -11.128218 33.394733 0.151976 1.910527 0.158460 -0.041935 -294322.000000 0 0 1
-31.395373 -6.051912 -10.610218 33.687858 0.190429 1.891207 0.166601 -0.043479 105958.000000 0 0 1
-30.655033 -7.259512 -11.325618 33.476875 0.232529 1.915919 0.157829 -0.036513 1590070.000000 0 0 1
-29.238423 -7.375812 -11.032018 32.109086 0.247109 1.921522 0.142409 -0.034017 1046680.000000 0 0 1
-28.588893 -8.385612 -11.710218 32.012068 0.285315 1.945295 0.136869 -0.034271 -141549.000000 0 0 1
-27.086543 -8.451212 -11.358018 30.563186 0.302436 1.951554 0.127551 -0.042197 -963242.000000 0 0 1
-26.405583 -7.324412 -11.798018 29.834461 0.270579 1.977353 0.091813 -0.024527 -172399.000000 0 0 1
-25.030173 -7.290112 -11.517818 28.501148 0.283413 1.986810 0.116878 -0.029332 -201892.000000 0 0 1
-24.571673 -7.294012 -10.019718 27.520256 0.288561 1.943447 0.121718 -0.029965 -931351.000000 0 0 1
-24.807573 -6.106312 -9.242518 27.168490 0.241349 1.917918 0.106969 -0.026091 1321860.000000 0 0 1
-26.161093 -5.635912 -9.062918 28.254252 0.212188 1.897331 0.123098 -0.030762 546751.000000 0 0 1
-26.236193 -4.176512 -8.465418 27.882689 0.157864 1.879274 0.126396 -0.036509 -224495.000000 0 0 1
-25.985673 -4.226512 -7.057918 27.256794 0.161236 1.832723 0.127608 -0.031551 481365.000000 0 0 1
-26.082843 -2.932912 -6.443018 27.026453 0.111976 1.811511 0.151077 -0.038446 -48475.000000 0 0 1
-25.886193 -2.984912 -4.909718 26.516222 0.114802 1.757030 0.143671 -0.033933 -322321.000000 0 0 1
-24.543373 -3.103412 -4.526518 25.149507 0.125779 1.751767 0.118555 -0.028136 -82117.100000 0 0 1
-24.316773 -2.985412 -3.154818 24.701640 0.122160 1.698863 0.086673 -0.020257 -629164.000000 0 1 0
-22.913573 -3.310812 -2.679318 23.306052 0.143498 1.686013 0.075544 -0.008903 -557339.000000 0 1 0
-22.680973 -4.740612 -2.703818 23.328321 0.206046 1.686960 0.089530 -0.006362 -226747.000000 0 1 0
-21.321373 -5.013912 -2.820518 22.083831 0.230963 1.698865 0.075871 -0.007721 -693131.000000 0 1 0
-21.023173 -6.522812 -3.047618 22.221810 0.300850 1.708375 0.074496 -0.009530 -252127.000000 0 1 0
-21.256373 -7.316412 -1.924718 22.562531 0.331497 1.656206 0.068495 -0.004937 512070.000000 0 1 0
-22.139873 -8.391512 -2.196918 23.778517 0.362293 1.663319 0.086875 -0.016429 96248.300000 0 1 0
-22.667073 -9.002612 -0.890618 24.405663 0.378062 1.607297 0.123834 -0.017721 -204232.000000 0 1 0
-21.683773 -9.809312 -0.304518 23.801288 0.424832 1.583591 0.092601 -0.007117 137646.000000 0 1 0
-22.233873 -10.752212 0.551182 24.703420 0.450439 1.548483 0.087856 0.007505 608046.000000 0 1 0
-21.138473 -11.382312 1.510482 24.055636 0.493943 1.507964 0.096283 -0.001639 1383280.000000 0 1 0
-20.142973 -12.191212 0.854382 23.560453 0.544259 1.534525 0.078375 0.003943 602250.000000 0 1 0
-18.986373 -12.459712 1.584982 22.764862 0.580753 1.501116 0.045363 -0.002998 -286908.000000 0 1 0
-18.280273 -13.682812 0.914182 22.852209 0.642541 1.530782 0.038716 -0.003863 -384768.000000 0 1 0
-19.133773 -14.818512 0.891482 24.217438 0.658978 1.533976 0.069826 -0.002203 659319.000000 0 1 0
-18.534873 -16.063612 0.454382 24.531360 0.714092 1.552273 0.071867 -0.010512 681209.000000 0 1 0
-17.411873 -16.725312 1.376782 24.182740 0.765289 1.513833 0.071344 -0.009525 751681.000000 0 1 0
-16.212673 -15.950612 1.315982 22.781672 0.777251 1.512999 0.058933 -0.014136 436774.000000 0 1 0
-15.063373 -16.543512 1.894382 22.453990 0.832194 1.486329 0.065219 -0.023151 414161.000000 0 1 0
-15.099173 -16.486412 3.476982 22.624681 0.829290 1.416504 0.064571 -0.030759 -511728.000000 0 1 0
-14.883273 -15.193112 4.007682 21.642642 0.795700 1.384546 0.047134 -0.022106 25927.300000 0 1 0
-14.492673 -15.226812 5.402782 21.704456 0.810095 1.319226 0.060946 -0.013585 -319423.000000 0 1 0
-15.457673 -15.767312 6.475882 23.010537 0.795314 1.285511 0.078936 -0.022334 -1146520.000000 0 1 0
-16.231173 -14.746412 7.084482 23.045553 0.737505 1.258324 0.080126 -0.012161 307093.000000 0 1 0
-16.653573 -15.083012 8.394282 23.985469 0.735951 1.213253 0.094717 -0.014105 4382.040000 0 1 0
-17.622273 -16.283812 8.616682 25.494200 0.745943 1.226020 0.072568 -0.009066 -837646.000000 0 0 1
-17.065873 -17.563812 8.398882 25.889626 0.799776 1.240407 0.084105 -0.012585 -40890.300000 0 0 1
-17.638173 -18.637412 9.096682 27.225133 0.812937 1.230116 0.084695 -0.013106 -259965.000000 0 0 1
-17.071573 -18.745912 10.514882 27.448325 0.832111 1.177669 0.086696 -0.013955 -172682.000000 0 0 1
-15.713173 -19.086612 10.615782 26.905341 0.882035 1.165207 0.080343 -0.020080 -50186.500000 0 0 1
-15.344573 -19.216212 11.980282 27.354083 0.896957 1.117456 0.069999 -0.022153 283607.000000 0 0 1
-13.959573 -19.874212 12.203982 27.180713 0.958464 1.105157 0.062774 -0.017013 1095500.000000 0 0 1
-12.789573 -19.015412 12.086382 25.908294 0.978704 1.085460 0.067546 -0.025707 1932930.000000 0 0 1
-11.623073 -19.909712 12.256482 26.109650 1.042382 1.082159 0.067706 -0.021628 1817310.000000 0 0 1
-10.271173 -19.181912 12.519082 25.103190 1.079184 1.048692 0.071683 -0.027197 399983.000000 0 0 1
-9.503473 -18.708212 11.446582 23.902666 1.100782 1.071414 0.062860 -0.025272 -512228.000000 0 1 0
-8.480673 -17.877012 11.880182 23.079170 1.127846 1.030071 0.056874 -0.023422 -804026.000000 0 1 0
-7.572073 -17.368312 10.828782 21.823315 1.159670 1.051577 0.046632 -0.024866 -593620.000000 0 1 0
-6.576273 -18.215712 10.325282 21.947004 1.224336 1.080979 0.040401 -0.024740 -524192.000000 0 1 0
-5.977973 -17.566812 9.253682 20.735469 1.242790 1.108200 0.039663 -0.016539 -561902.000000 0 1 0
-4.817273 -18.338612 8.619582 20.828058 1.313915 1.144123 0.033671 -0.015815 -53266.000000 0 1 0
-3.602073 -18.266112 9.320582 20.820639 1.376095 1.106649 0.037777 -0.023878 -670675.000000 0 1 0
-2.537773 -18.774512 8.586482 20.800247 1.436439 1.145263 0.043363 -0.025467 -483408.000000 0 1 0
-1.247573 -18.999212 9.355282 21.214330 1.505226 1.114096 0.048372 -0.031488 -384003.000000 0 1 0
-0.175973 -19.466412 8.582082 21.274969 1.561757 1.155579 0.054428 -0.024471 -753385.000000 0 1 0
0.938127 -19.798812 9.341982 21.912226 -1.523449 1.130357 0.060288 -0.022248 153714.000000 0 1 0
2.166327 -20.241512 8.458482 22.044448 -1.464178 1.176995 0.057495 -0.036451 480081.000000 0 1 0
2.103227 -21.498312 7.745782 22.947726 -1.473274 1.226494 0.065052 -0.032815 -188027.000000 0 1 0
1.947427 -22.589212 8.607482 24.251881 -1.484798 1.207968 0.061632 -0.032142 -110180.000000 0 1 0
1.997927 -24.062212 8.120182 25.473891 -1.487955 1.246370 0.060944 -0.030946 -102.529000 0 0 1
1.833427 -24.968212 9.142982 26.652714 -1.497497 1.220644 0.065604 -0.024224 -73683.000000 0 0 1
1.465227 -26.265002 8.697682 27.706441 -1.515068 1.251475 0.067902 -0.022519 -727419.000000 0 0 1
1.642727 -27.375312 9.777982 29.115549 -1.510861 1.228306 0.069368 -0.018732 -20295.900000 0 0 1
0.916527 -27.359502 10.981882 29.495493 -1.537309 1.189284 0.053579 -0.022017 63545.800000 0 0 1
-0.490973 -27.460012 10.783482 29.505538 1.552919 1.196655 0.044187 -0.014172 158077.000000 0 0 1
-1.209873 -27.455862 12.150882 30.048828 1.526759 1.154505 0.043150 -0.015292 -83911.100000 0 0 1
-0.761273 -28.501012 12.965282 31.320692 1.544092 1.144004 0.037451 -0.014585 -186989.000000 0 0 1
-1.165973 -28.335212 14.279782 31.751471 1.529670 1.104327 0.045319 -0.015940 -167931.000000 0 0 1
-0.638573 -29.452432 15.148482 33.125972 1.549118 1.095840 0.032719 -0.005878 -10025.300000 0 0 1
-0.934573 -29.195282 16.501482 33.549021 1.538796 1.056570 0.040198 -0.005843 -13144.300000 0 0 1
-0.361273 -30.160172 17.353582 34.798179 1.558818 1.048707 0.041348 -0.003954 -247586.000000 0 0 1
-0.800873 -29.975582 18.811082 35.398216 1.544085 1.010528 0.046655 -0.010865 -618839.000000 0 0 1
-2.184873 -30.043422 18.953982 35.589806 1.498200 1.009165 0.040422 -0.009357 -607049.000000 0 0 1
-2.542773 -29.624092 20.259982 35.979430 1.485172 0.972665 0.064429 -0.018008 947418.000000 0 0 1
-4.095073 -29.724792 20.527982 36.355617 1.433892 0.970794 0.089572 -0.025141 914836.000000 0 0 1
-4.884373 -28.749942 19.849582 35.276368 1.402512 0.973163 0.085405 -0.027739 329629.000000 0 0 1
-6.179173 -28.540182 20.398082 35.620302 1.357579 0.961058 0.088025 -0.029752 428750.000000 0 0 1
-6.334073 -27.592492 21.600782 35.609828 1.345148 0.919024 0.113535 -0.033412 -477193.000000 0 0 1
-5.739073 -28.206522 22.758382 36.694533 1.370070 0.901784 0.101000 -0.032759 182168.000000 0 0 1
-5.729873 -27.326692 23.843282 36.716231 1.364110 0.864010 0.109848 -0.035813 -251209.000000 0 0 1
-4.701473 -27.670342 24.940882 37.547294 1.402493 0.844303 0.106053 -0.032765 -93345.400000 0 0 1
-4.924573 -28.900072 25.628082 38.939237 1.402017 0.852430 0.109436 -0.037009 124559.000000 0 0 1
-3.938773 -29.873212 25.323682 39.360025 1.439703 0.871883 0.104957 -0.035836 98358.800000 0 0 1
-4.043773 -31.175622 26.109082 40.865091 1.441807 0.877717 0.096162 -0.023503 57534.800000 0 0 1
-3.604273 -31.024792 27.455282 41.585105 1.455141 0.849686 0.109444 -0.024764 5758.640000 0 0 1
-3.699473 -32.181062 28.246682 42.978854 1.456341 0.853668 0.104482 -0.035932 -469229.000000 0 0 1
-3.006773 -31.976052 29.564182 43.652599 1.477040 0.826764 0.134182 -0.025816 -204725.000000 0 0 1
-1.599873 -31.969282 29.418582 43.474677 1.520794 0.827548 0.118303 -0.024200 -44447.300000 0 0 1
-1.012873 -31.728642 30.678682 44.146508 1.538884 0.802475 0.117872 -0.018393 -82126.700000 0 0 1
-28.274763 3.022888 -10.252318 30.227638 -0.106507 1.916831 0.154092 -0.026253 -10294.800000 0 0 1
-29.353683 2.779888 -11.178518 31.532931 -0.094422 1.933179 0.152293 -0.040337 503003.000000 0 0 1
-29.967803 4.007788 -11.457018 32.332566 -0.132948 1.933014 0.144847 -0.034508 -37986.800000 0 0 1
-30.988863 3.919488 -12.640918 33.696659 -0.125812 1.955343 0.133939 -0.029415 198725.000000 0 0 1
-32.149163 3.165988 -12.360418 34.588612 -0.098162 1.936231 0.140297 -0.035022 285434.000000 0 0 1
-33.018213 3.069988 -13.471618 35.792621 -0.092712 1.956682 0.129960 -0.027626 161324.000000 0 0 1
-34.260879 2.181288 -13.182018 36.774059 -0.063581 1.937414 0.135026 -0.033579 67939.400000 0 0 1
-33.953943 0.798688 -13.150818 36.420491 -0.023518 1.940225 0.147972 -0.030965 825030.000000 0 0 1
-35.088504 0.007888 -12.727218 37.325397 -0.000225 1.918756 0.153465 -0.034536 751754.000000 0 0 1
-34.716601 -1.385912 -12.226318 36.832675 0.039900 1.909158 0.147043 -0.042605 -3994.140000 0 0 1
-34.589515 -2.327112 -13.279618 37.124092 0.067177 1.936610 0.137686 -0.037440 59664.900000 0 0 1
-34.283334 -3.557712 -12.746118 36.748712 0.103404 1.925002 0.144124 -0.036126 -129467.000000 0 0 1
-34.783244 -4.779012 -13.489418 37.612198 0.136539 1.937612 0.132453 -0.031174 -8235.900000 0 0 1
-34.497341 -5.971312 -12.765018 37.264846 0.171397 1.920425 0.130654 -0.033579 407454.000000 0 0 1
-35.157441 -7.064612 -13.387218 38.277565 0.198301 1.928091 0.130019 -0.030346 -707819.000000 0 0 1
-34.965231 -8.436912 -12.691218 38.142048 0.236768 1.909999 0.141597 -0.034768 168929.000000 0 0 1
-33.651653 -8.998212 -12.585618 37.037810 0.261280 1.917505 0.134756 -0.032690 810200.000000 0 0 1
-33.290413 -9.441912 -13.884318 37.285058 0.276365 1.952372 0.108797 -0.032257 -522834.000000 0 0 1
-31.905643 -10.122012 -13.947918 36.262509 0.307205 1.965611 0.093721 -0.030496 -147127.000000 0 0 1
-31.968653 -11.426512 -13.495118 36.533247 0.343277 1.949152 0.094388 -0.028898 252465.000000 0 0 1
-30.731093 -12.096612 -13.409318 35.644605 0.375001 1.956482 0.112189 -0.031343 -169049.000000 0 0 1
-30.916693 -13.602112 -13.709118 36.452699 0.414473 1.956358 0.111067 -0.027572 -123456.000000 0 0 1
-31.010073 -13.711212 -15.144918 37.134761 0.416310 1.990880 0.100309 -0.030519 -9097.280000 0 0 1
-31.141873 -15.085812 -15.559018 37.940493 0.451108 1.993349 0.097428 -0.029257 -53284.100000 0 0 1
-30.003883 -16.105812 -15.276918 37.323108 0.492645 1.992500 0.093657 -0.014263 -138092.000000 0 0 1
-28.768873 -15.747512 -15.818618 36.412372 0.500830 2.020201 0.107235 -0.023573 -909554.000000 0 0 1
-27.933853 -16.822712 -16.028118 36.334616 0.542060 2.027648 0.115679 -0.023829 1280970.000000 0 0 1
-26.412943 -16.443212 -16.339718 35.142697 0.556831 2.054378 0.126169 -0.035986 1575780.000000 0 0 1
-26.317803 -15.904612 -17.629218 35.445349 0.543597 2.091353 0.112880 -0.038239 524298.000000 0 0 1
-24.966873 -15.819512 -18.095218 34.656004 0.564774 2.120152 0.085294 -0.032080 430939.000000 0 0 1
-24.964073 -15.300712 -19.569018 35.217371 0.549858 2.159957 0.092904 -0.034363 -19704.600000 0 0 1
-25.450733 -16.177012 -20.554218 36.495361 0.566200 2.169051 0.101747 -0.042542 -303270.000000 0 0 1
-26.827813 -16.237912 -20.766918 37.612049 0.544281 2.155719 0.109470 -0.044596 -726743.000000 0 0 1
-27.337893 -17.466512 -21.503518 38.920955 0.568541 2.156147 0.111273 -0.043213 -205689.000000 0 0 1
-26.891163 -17.489812 -22.861918 39.391566 0.576651 2.189987 0.109643 -0.032797 176325.000000 0 0 1
-27.396293 -18.623512 -23.510118 40.621641 0.597028 2.188002 0.105687 -0.024130 -358338.000000 0 0 1
-26.630933 -18.991012 -24.769218 41.029005 0.619476 2.218931 0.102457 -0.022682 -111089.000000 0 0 1
-25.286333 -19.385512 -24.667818 40.295136 0.654066 2.229609 0.102287 -0.023330 -135060.000000 0 0 1
-25.048673 -20.695012 -24.219818 40.525537 0.690509 2.211355 0.100261 -0.019395 -522060.000000 0 0 1
-23.541073 -21.023912 -24.189718 39.765933 0.728975 2.224717 0.097138 -0.008065 -21497.000000 0 0 1
-23.044673 -21.219912 -25.449748 40.361260 0.744198 2.253057 0.087168 -0.005861 -440030.000000 0 0 1
-21.657173 -21.435112 -25.443368 39.697130 0.780245 2.266515 0.079409 -0.008982 -28855.800000 0 0 1
-21.037573 -21.328512 -26.896078 40.260203 0.792265 2.302390 0.078783 -0.007843 11072.800000 0 0 1
-21.470173 -22.367412 -27.746768 41.607122 0.805863 2.300804 0.116595 -0.012169 -115141.000000 0 0 1
-21.819073 -21.987412 -29.085228 42.490807 0.789241 2.324723 0.110813 -0.012773 -762208.000000 0 0 1
-20.747173 -21.984112 -30.121718 42.673930 0.814337 2.354429 0.112183 -0.017806 -703755.000000 0 0 1
-20.480673 -23.318212 -30.572738 43.564771 0.850093 2.348685 0.122251 -0.025027 -44909.400000 0 0 1
-19.533673 -23.413612 -31.608808 43.918998 0.875495 2.374176 0.123716 -0.032293 -50855.100000 0 0 1
-19.102573 -24.855412 -32.087818 44.858978 0.915530 2.367856 0.132032 -0.030477 -196723.000000 0 0 1
-18.615373 -24.970312 -33.414598 45.679141 0.930181 2.391325 0.128844 -0.031898 -255601.000000 0 0 1
-19.529473 -24.666912 33.585233 46.019830 0.901120 0.752768 0.127000 -0.020355 -316146.000000 0 0 1
-18.963573 -24.583612 32.158488 44.700553 0.913745 0.767829 0.124686 -0.010362 -385690.000000 0 0 1
-18.130873 -23.448012 32.015608 43.629543 0.912589 0.746889 0.094306 -0.011227 -429729.000000 0 0 1
-17.580573 -23.505012 30.757468 42.515691 0.928609 0.762027 0.087772 -0.006816 -311942.000000 0 0 1
-16.783073 -22.230412 30.471778 41.284283 0.924128 0.740552 0.071878 -0.000411 -481843.000000 0 0 1
-17.584873 -21.109512 30.270648 40.879719 0.876237 0.737011 0.069913 -0.009101 -376058.000000 0 0 1
-16.951573 -19.886012 30.021438 39.800704 0.864889 0.716218 0.069441 -0.012094 58915.500000 0 0 1
-16.161173 -19.223212 31.233128 40.077721 0.871720 0.677226 0.078778 -0.011845 478535.000000 0 0 1
-15.525173 -18.005712 30.968868 39.042380 0.859241 0.654731 0.086683 -0.015181 142560.000000 0 0 1
-14.799273 -17.557112 32.139722 39.499777 0.870426 0.620361 0.087853 -0.017883 718537.000000 0 0 1
-14.094273 -16.147812 32.015768 38.528039 0.853197 0.589942 0.090366 -0.015382 103019.000000 0 0 1
-13.104673 -16.093812 31.031178 37.331987 0.887416 0.589494 0.095140 -0.021997 -208019.000000 0 0 1
-12.734273 -14.727512 30.752988 36.397907 0.857853 0.564398 0.088682 -0.028906 187885.000000 0 0 1
-11.247973 -14.598912 30.350998 35.508143 0.914325 0.545705 0.108280 -0.029140 264098.000000 0 0 1
-10.740073 -13.289212 30.156798 34.660998 0.891088 0.515493 0.112012 -0.030760 616476.000000 0 0 1
-9.395673 -13.112712 30.623598 34.612522 0.949061 0.484828 0.090527 -0.027985 938820.000000 0 0 1
-8.822973 -11.654612 30.498408 33.820522 0.922807 0.446944 0.084711 -0.031559 145141.000000 0 0 1
-9.439773 -10.825512 31.470408 34.593173 0.853672 0.428166 0.091295 -0.031893 295824.000000 0 0 1
-9.083373 -9.482712 31.193498 33.844702 0.806904 0.398444 0.078636 -0.026055 -295107.000000 0 0 1
-9.805173 -8.394112 32.028500 34.531542 0.708019 0.383089 0.052050 -0.025473 -98281.200000 0 0 1
-11.142673 -8.277412 31.576378 34.492642 0.638914 0.414165 0.070922 -0.033125 321801.000000 0 0 1
-12.073773 -7.656112 32.463517 35.472130 0.565124 0.414833 0.060827 -0.032643 194376.000000 0 0 1
-11.969973 -6.176212 32.858592 35.512152 0.476346 0.389030 0.041027 -0.019974 -560474.000000 0 0 1
-12.331073 -5.333912 31.785918 34.508703 0.408255 0.399903 0.041711 -0.019357 264731.000000 0 0 1
-12.614573 -4.025212 32.245460 34.858277 0.308879 0.389643 0.038320 -0.016226 -272782.000000 0 0 1
-11.990373 -2.936312 31.340698 33.684274 0.240163 0.375225 0.036235 -0.012929 548836.000000 0 0 1
-10.668973 -2.563612 31.756458 33.598686 0.235816 0.332683 0.047043 -0.012612 475822.000000 0 0 1
-10.249773 -1.519012 30.981488 32.668301 0.147129 0.322754 0.043340 -0.007038 767873.000000 0 0 1
-8.717773 -1.180112 31.191158 32.408033 0.134551 0.274903 0.053107 -0.008373 1126070.000000 0 0 1
-8.472673 -0.473612 32.405771 33.498425 0.055841 0.256113 0.048470 -0.019364 31576.300000 0 0 1
-7.074173 -0.236712 32.423762 33.187352 0.033449 0.214929 0.057311 -0.017786 286700.000000 0 0 1
-6.576273 0.359588 33.764875 34.401213 -0.054625 0.192639 0.080119 -0.029141 -421164.000000 0 0 1
-7.182273 1.560388 -33.883368 34.671350 -0.213931 2.927987 0.085609 -0.031240 -186896.000000 0 0 1
-6.743373 2.708488 33.429126 34.209874 -0.381930 0.214054 0.088527 -0.025484 108292.000000 0 0 1
-7.638673 3.980288 33.626899 34.712539 -0.480362 0.250757 0.084336 -0.040567 1245160.000000 0 0 1
-8.842373 3.980588 32.808597 34.211646 -0.422997 0.287382 0.062415 -0.025133 964320.000000 0 0 1
-9.664773 5.082288 33.113319 34.867311 -0.484119 0.318535 0.039776 -0.014891 -482987.000000 0 0 1
-10.709273 5.393788 32.089692 34.256822 -0.466568 0.357602 0.027968 -0.006120 -368279.000000 0 0 1
-11.560073 6.488188 32.372689 34.981751 -0.511446 0.388663 0.036288 -0.015336 168256.000000 0 0 1
-12.649473 6.516488 31.447378 34.516828 -0.475701 0.424915 0.007529 -0.005980 463382.000000 0 0 1
-13.574873 7.752288 31.715348 35.358711 -0.518881 0.457952 0.032027 -0.016278 -339413.000000 0 0 1
-14.404073 7.605988 32.827786 36.646854 -0.485831 0.460597 0.037490 -0.020490 -672116.000000 0 0 1
-15.150273 8.766088 32.887731 37.255576 -0.524542 0.489092 0.032979 -0.009158 -542418.000000 0 0 1
-16.050873 8.901088 -33.944038 38.588309 -0.506333 2.645913 0.030210 -0.002710 -399751.000000 0 0 1
-15.304373 9.170888 -32.831818 37.366526 -0.539855 2.643808 0.029755 -0.003340 -618981.000000 0 0 1
-16.135173 9.441588 -31.763928 36.856947 -0.529433 2.609637 0.042547 -0.001857 -742344.000000 0 0 1
-15.334573 9.843188 -30.506268 35.534066 -0.570657 2.603149 0.068303 -0.016157 748718.000000 0 0 1
-14.504273 11.055288 -30.512998 35.547663 -0.651269 2.602878 0.067974 -0.013329 1483320.000000 0 0 1
-13.239973 10.878388 -31.213708 35.608030 -0.687793 2.639530 0.066836 -0.020366 652546.000000 0 0 1
-12.521073 12.243488 -31.232448 35.807067 -0.774190 2.630565 0.070718 -0.020872 -147182.000000 0 0 1
-13.099873 13.202688 -32.095518 37.095012 -0.789307 2.616395 0.066744 -0.024869 74526.900000 0 0 1
-12.343973 14.404588 -32.225508 37.394508 -0.862283 2.609547 0.068780 -0.029598 -26930.000000 0 0 1
-12.437473 15.526588 -31.167738 36.975581 -0.895419 2.573498 0.072468 -0.026804 -494011.000000 0 0 1
-13.658673 16.190788 -31.191268 37.704060 -0.870025 2.545019 0.063026 -0.020983 -513343.000000 0 0 1
-13.912473 17.024088 -30.100318 37.274732 -0.885642 2.510742 0.036708 -0.021936 -14093.700000 0 0 1
-15.357073 17.564188 -30.166638 38.136157 -0.852340 2.483278 0.026560 -0.025794 -281926.000000 0 0 1
-15.643273 18.304988 -31.348408 39.528563 -0.863643 2.486608 0.037465 -0.024753 92848.600000 0 0 1
-16.959873 18.826088 -31.428938 40.371240 -0.837500 2.463066 0.031382 -0.024716 312319.000000 0 0 1
-17.254573 20.046888 -30.516098 40.383539 -0.860117 2.427453 0.009958 -0.028309 -584725.000000 0 0 1
-16.589573 21.253488 -30.970558 41.062150 -0.908023 2.425286 0.018163 -0.020876 414093.000000 0 0 1
-17.095973 22.515688 -30.518258 41.600392 -0.921375 2.394408 0.002763 -0.025178 -664549.000000 0 0 1
-18.455573 22.970188 -31.044718 42.802012 -0.893951 2.382281 0.018886 -0.029138 -939152.000000 0 0 1
-19.466073 22.155488 -30.513808 42.436849 -0.849924 2.373217 0.025927 -0.037295 -457730.000000 0 0 1
-20.469973 22.136688 -31.525858 43.622614 -0.824497 2.378490 0.050940 -0.039021 -1619120.000000 0 0 1
-21.632273 21.248088 -31.185918 43.497103 -0.776439 2.370236 0.060912 -0.049163 -714530.000000 0 0 1
-22.446773 21.849188 -30.125838 43.460450 -0.771908 2.336686 0.092797 -0.041263 292103.000000 0 0 1
-23.425173 22.762088 -30.480178 44.675414 -0.771043 2.321644 0.090538 -0.038422 652215.000000 0 0 1
-24.766373 22.184288 -31.174598 45.578190 -0.730458 2.324002 0.104984 -0.046904 1009160.000000 0 0 1
-24.578173 21.452888 -32.371878 45.959237 -0.717607 2.352318 0.119255 -0.043822 -278247.000000 0 0 1
-25.832173 21.208288 -32.945008 46.930440 -0.687417 2.348993 0.139141 -0.040198 -276519.000000 0 0 1
-25.874273 20.204188 33.912385 47.198910 -0.662961 0.769154 0.140319 -0.031597 -33970.200000 0 0 1
-25.604613 18.874588 -33.666418 46.317102 -0.635230 2.384547 0.133656 -0.041561 356225.000000 0 0 1
-25.110543 18.016788 33.317579 45.444528 -0.622374 0.747856 0.122800 -0.048805 -68192.700000 0 0 1
-24.790973 16.589588 33.884502 45.143840 -0.589740 0.721842 0.094816 -0.035005 -202514.000000 0 0 1
-25.841093 15.631788 33.933989 45.427200 -0.544029 0.727263 0.098454 -0.022440 556816.000000 0 0 1
-26.232923 15.042788 32.647622 44.500775 -0.520655 0.747131 0.103381 -0.022675 -876438.000000 0 0 1
-27.164833 13.886388 32.617165 44.661386 -0.472559 0.752004 0.079379 -0.012006 -611042.000000 0 0 1
-28.452523 14.330788 33.032531 45.891891 -0.466582 0.767296 0.083537 -0.009275 378843.000000 0 0 1
-29.408293 13.276088 33.278037 46.352238 -0.424051 0.769961 0.074552 -0.012209 459918.000000 0 0 1
-29.144663 12.286288 -33.590258 46.137508 -0.398955 2.386265 0.072681 -0.015177 -213729.000000 0 0 1
-28.131873 11.325888 -33.881888 45.471533 -0.382746 2.411516 0.067253 -0.025153 26086.000000 0 0 1
-28.678193 10.038588 33.952448 45.562932 -0.336713 0.729996 0.071758 -0.013690 -606918.000000 0 0 1
-27.648813 8.875788 33.894361 44.632546 -0.310627 0.708392 0.053730 -0.016559 273122.000000 0 0 1
-26.684703 8.717588 32.842219 43.205105 -0.315758 0.707257 0.051263 -0.023214 12609.000000 0 0 1
-25.685893 9.675288 32.858928 42.814547 -0.360240 0.695909 0.037395 -0.023648 -270372.000000 0 0 1
-24.319573 9.104088 32.306327 41.449063 -0.358203 0.677053 0.038340 -0.019627 518945.000000 0 0 1
-24.179273 9.064388 30.871828 40.247610 -0.358668 0.696570 0.047685 -0.024609 -216851.000000 0 0 1
-22.869573 8.804388 30.458438 39.092852 -0.367494 0.677519 0.052625 -0.023725 -125656.000000 0 0 1
-22.813773 8.826188 28.923988 37.880957 -0.369145 0.702004 0.070627 -0.023119 192433.000000 0 0 1
-23.257773 10.033288 28.326528 37.999777 -0.407275 0.729603 0.067925 -0.018117 221155.000000 0 0 1
-23.081573 9.996988 26.923008 36.844907 -0.408724 0.751432 0.067818 -0.017895 -378905.000000 0 0 1
-23.518773 11.359488 26.209878 37.001735 -0.449953 0.783650 0.064492 -0.016630 501305.000000 0 0 1
-24.846373 11.810288 26.377948 38.113269 -0.443720 0.806411 0.076994 -0.020790 -167471.000000 0 0 1
-25.866333 11.166688 25.664088 38.110465 -0.407538 0.831980 0.079965 -0.014850 -302575.000000 0 0 1
-27.210263 11.868388 25.931288 39.416859 -0.411296 0.852805 0.089015 -0.012228 -176686.000000 0 0 1
-27.216693 13.221088 25.492668 39.565410 -0.452200 0.870666 0.085043 -0.014914 -407256.000000 0 0 1
-28.450583 13.833288 25.750128 40.790497 -0.452564 0.887597 0.082297 -0.020015 -86505.300000 0 0 1
-28.604723 15.250388 25.125588 41.013409 -0.489809 0.911427 0.085108 -0.020877 50443.800000 0 0 1
-27.805973 16.253888 25.712938 41.213059 -0.528979 0.897070 0.099822 -0.022219 -81243.900000 0 0 1
-27.870773 17.453288 24.976708 41.294469 -0.559477 0.921226 0.080111 -0.016917 -312836.000000 0 0 1
-23.146173 -9.175212 31.844318 40.422648 0.377402 0.663593 0.048633 -0.007300 -280025.000000 0 0 1
-22.198073 -8.916212 30.852858 39.040391 0.381942 0.659530 0.055738 -0.014765 -289429.000000 0 0 1
-22.700373 -9.208212 29.615288 38.433883 0.385360 0.691090 0.046403 -0.013130 -153194.000000 0 0 1
-21.802873 -8.747812 28.425028 36.876438 0.381560 0.690672 0.066085 -0.024437 -135371.000000 0 0 1
-21.431273 -7.351712 28.470548 36.385701 0.330458 0.672181 0.070187 -0.026594 1344460.000000 0 0 1
-20.153873 -7.042412 29.103128 36.093853 0.336169 0.632896 0.068014 -0.026836 789696.000000 0 0 1
-18.855473 -7.358312 28.361468 34.843170 0.372071 0.619834 0.078923 -0.028358 -769365.000000 0 0 1
-18.397873 -8.707212 28.327778 34.882091 0.442038 0.623053 0.071284 -0.030477 215901.000000 0 0 1
-17.944773 -9.385312 29.516068 35.795213 0.481886 0.601334 0.086256 -0.032721 -36657.800000 0 0 1
-16.511573 -9.006412 29.982958 35.393859 0.499351 0.560248 0.088240 -0.032242 99119.900000 0 0 1
-15.447473 -9.582712 29.255818 34.443515 0.555243 0.555977 0.074536 -0.027861 -520535.000000 0 0 1
-14.216573 -9.170112 29.775298 34.245734 0.572873 0.516688 0.075113 -0.030055 -477346.000000 0 0 1
-13.018773 -9.970212 29.294488 33.571724 0.653558 0.510308 0.080898 -0.028452 -287234.000000 0 0 1
-12.846273 -9.814212 27.926498 32.268170 0.652384 0.524748 0.078001 -0.028878 125615.000000 0 0 1
-11.673473 -10.507512 27.502978 31.671621 0.732881 0.518872 0.090052 -0.025745 233973.000000 0 0 1
-11.225373 -10.237012 26.049708 30.156139 0.739380 0.527978 0.082670 -0.026687 -207487.000000 0 0 1
-12.111673 -10.630212 25.035988 29.774061 0.720348 0.571916 0.068684 -0.024253 -385264.000000 0 0 1
-11.613573 -10.313712 23.765718 28.391145 0.726187 0.578869 0.071907 -0.031252 333858.000000 0 0 1
-12.619873 -10.677812 22.597238 27.998429 0.702232 0.631590 0.071670 -0.035924 -197054.000000 0 0 1
-12.669273 -12.060312 22.290738 28.334407 0.760778 0.665348 0.067146 -0.029931 -431.995000 0 0 1
-13.940773 -12.455912 21.855038 28.760000 0.729206 0.707620 0.042275 -0.019483 -342824.000000 0 0 1
-15.060973 -12.538812 22.902638 30.142753 0.694268 0.707782 0.032020 -0.019434 -1385160.000000 0 0 1
-16.204973 -13.141812 22.393938 30.607137 0.681397 0.750046 0.023450 -0.003915 -451943.000000 0 0 1
-17.211073 -13.025212 23.399678 31.834292 0.647834 0.745061 0.022294 -0.004987 360262.000000 0 0 1
-18.551473 -13.746812 23.082008 32.648294 0.637722 0.785564 0.059448 -0.014680 -298706.000000 0 0 1
-18.401473 -15.126912 22.962838 33.086698 0.688042 0.803738 0.046632 -0.016902 708439.000000 0 0 1
-19.642973 -15.839012 22.964338 34.118639 0.678598 0.832440 0.072436 -0.016553 144009.000000 0 0 1
-20.435973 -15.914412 24.239618 35.474732 0.661646 0.818534 0.062039 -0.018543 -1003430.000000 0 0 1
-20.020973 -16.779412 25.247668 36.329503 0.697540 0.802428 0.055168 -0.013791 -331048.000000 0 0 1
-20.739573 -16.706412 26.419598 37.513054 0.678106 0.789391 0.049346 -0.015465 -544168.000000 0 0 1
-20.135173 -17.594312 27.524048 38.373926 0.718156 0.770936 0.050036 -0.013309 -45802.300000 0 0 1
-20.259673 -18.970512 27.222848 38.876962 0.752549 0.795076 0.061749 -0.010593 150012.000000 0 0 1
-20.331373 -19.726412 28.414678 40.123434 0.770297 0.783877 0.057782 -0.007574 -332436.000000 0 0 1
-20.467673 -21.254612 28.221118 40.830328 0.804257 0.807675 0.069118 -0.005159 316639.000000 0 0 1
-21.731873 -21.640812 27.707368 41.331553 0.783299 0.836091 0.074958 -0.006318 216391.000000 0 0 1
-21.572573 -22.957612 27.244998 41.649943 0.816492 0.857748 0.084598 -0.002278 367646.000000 0 0 1
-22.943773 -23.533912 26.789118 42.401870 0.798095 0.886935 0.087579 0.001945 481016.000000 0 0 1
-23.700473 -23.976612 27.945088 43.789477 0.791190 0.878679 0.087477 0.000469 -338334.000000 0 0 1
-24.809873 -24.699212 27.534248 44.538923 0.783163 0.904338 0.069019 0.001697 -516097.000000 0 0 1
-25.458773 -25.459992 28.726978 46.060825 0.785422 0.897361 0.048496 -0.005807 -155201.000000 0 0 1
-26.288623 -24.668512 29.558498 46.619009 0.753615 0.884025 0.041189 0.002430 120002.000000 0 0 1
-27.008663 -25.509422 30.417368 48.014735 0.756859 0.884727 0.035682 0.009405 -176192.000000 0 0 1
-28.117553 -24.796212 31.193258 48.769542 0.722711 0.876812 0.037192 0.006509 44343.300000 0 0 1
-29.270713 -24.387112 30.464668 48.781163 0.694634 0.896283 0.044940 0.004229 260338.000000 0 0 1
-30.208583 -23.887612 31.390508 49.684409 0.669079 0.886926 0.047035 -0.010391 -1098250.000000 0 0 1
-31.542963 -23.584912 30.765568 49.977263 0.642032 0.907660 0.049761 -0.014288 -884036.000000 0 0 1
-32.239853 -24.683812 30.175578 50.589171 0.653430 0.931684 0.046274 -0.009366 1237020.000000 0 0 1
-33.497433 -24.259912 29.579908 50.848720 0.626805 0.949950 0.047854 -0.007160 1490880.000000 0 0 1
-34.756852 -24.879212 30.256538 52.368617 0.621256 0.954814 0.040152 -0.005926 146041.000000 0 0 1
-34.734740 -26.238042 30.277428 53.025085 0.646938 0.963070 0.048424 -0.009126 452651.000000 0 0 1
-35.904132 -26.847412 30.839068 54.414505 0.642061 0.968248 0.052119 -0.006066 500772.000000 0 0 1
-35.703236 -28.402112 31.038328 55.179515 0.671994 0.973393 0.057164 -0.015689 -492536.000000 0 0 1
-34.721723 -28.579252 31.991538 55.189041 0.688665 0.952470 0.044541 -0.008116 -546898.000000 0 0 1
-34.432757 -29.926612 32.217489 55.849651 0.715497 0.955916 0.060348 -0.020532 -312777.000000 0 0 1
-33.284873 -30.164242 33.197260 55.855370 0.736255 0.934348 0.055804 -0.025667 -476674.000000 0 0 1
-33.522043 -29.818762 -33.489748 55.986151 0.726999 2.212023 0.040475 -0.021628 298974.000000 0 0 1
-32.362233 -29.810032 -32.654298 54.792840 0.744371 2.209256 0.037778 -0.022850 202893.000000 0 0 1
-32.758043 -29.428912 -31.222778 53.981590 0.731915 2.187558 0.042888 -0.024177 149117.000000 0 0 1
-33.034373 -28.078162 -30.907768 53.244184 0.704476 2.190128 0.050823 -0.025436 477921.000000 0 0 1
-31.791403 -27.398872 -30.737298 52.020890 0.711324 2.202926 0.059601 -0.025504 382901.000000 0 0 1
-32.065933 -25.870752 -30.653668 51.353357 0.678873 2.210449 0.033457 -0.015021 21339.200000 0 0 1
-32.737853 -25.460142 -29.423188 50.849875 0.660993 2.187842 0.036230 -0.016616 307220.000000 0 0 1
-32.786103 -24.048412 -29.229138 50.075914 0.632853 2.194070 0.040724 -0.023402 217890.000000 0 0 1
-31.490033 -23.517012 -28.555908 48.580983 0.641455 2.199133 0.049607 -0.018498 -82827.600000 0 0 1
-31.521673 -22.111612 -28.212368 47.733395 0.611714 2.203144 0.055075 -0.013478 443993.000000 0 0 1
-30.393463 -21.585912 -27.493378 46.320622 0.617549 2.206253 0.073202 -0.014880 365556.000000 0 0 1
-30.090763 -20.103312 -27.802038 45.634970 0.588987 2.225881 0.091268 -0.023844 -111511.000000 0 0 1
-29.507553 -19.948112 -29.066378 45.972570 0.594460 2.255256 0.090670 -0.013916 173753.000000 0 0 1
-29.292343 -18.559312 -29.334738 45.420439 0.564752 2.272931 0.089686 -0.017938 -357339.000000 0 0 1
-28.817623 -18.397612 -30.792418 46.011961 0.568188 2.303964 0.096298 -0.011403 -144771.000000 0 0 1
-29.705693 -18.167512 -31.858738 47.196037 0.548893 2.311802 0.086849 -0.020419 239886.000000 0 0 1
-30.521133 -16.979412 -31.742178 47.195401 0.507680 2.308472 0.082352 -0.018343 -491905.000000 0 0 1
-31.082643 -16.532812 -33.082308 48.310492 0.488840 2.325105 0.081963 -0.027173 485180.000000 0 0 1
-32.061483 -17.385112 -33.714118 49.667117 0.496868 2.316926 0.085598 -0.036934 928803.000000 0 0 1
-33.369623 -17.296112 -33.199918 50.148996 0.478195 2.294315 0.076421 -0.039074 36321.600000 0 0 1
-34.600047 -17.590112 33.943553 51.562972 0.470332 0.852247 0.084525 -0.042144 242308.000000 0 0 1
-34.675141 -18.986812 33.698886 51.946890 0.500970 0.864898 0.060678 -0.038623 321815.000000 0 0 1
-35.607875 -19.379512 32.687652 52.076567 0.498416 0.892221 0.056972 -0.038782 -386503.000000 0 0 1
-36.134603 -20.786112 32.936071 53.127740 0.522016 0.902129 0.041043 -0.035565 -346329.000000 0 0 1
-35.179434 -21.818312 32.940948 52.903094 0.555141 0.898651 0.055722 -0.032548 -397036.000000 0 0 1
-35.680859 -22.919712 33.617896 54.116539 0.570981 0.900507 0.050899 -0.027352 -2030340.000000 0 0 1
-34.568504 -23.865012 33.989194 54.035040 0.604233 0.890503 0.055333 -0.022861 -705603.000000 0 0 1
-33.678023 -23.480812 -33.062758 52.713411 0.608854 2.248771 0.043960 -0.025819 -482326.000000 0 0 1
-32.841583 -22.427012 -33.443288 51.961466 0.599147 2.270011 0.047811 -0.031030 -1565140.000000 0 0 1
-31.460013 -22.551612 -32.713518 50.680192 0.621935 2.272460 0.044193 -0.027175 90089.500000 0 0 1
-30.548153 -23.531612 -33.204898 50.887048 0.656375 2.281704 0.049625 -0.019781 547715.000000 0 0 1
-29.243943 -23.345112 -32.681978 49.682131 0.673697 2.288719 0.051025 -0.019861 183683.000000 0 0 1
-28.958043 -23.744112 -31.179868 48.729204 0.686787 2.265112 0.063316 -0.005412 -1046890.000000 0 0 1
-28.962023 -25.117662 -30.936898 49.262434 0.714431 2.249779 0.054544 -0.010860 -320528.000000 0 0 1
-28.394273 -25.278762 -29.671968 48.225265 0.727417 2.233536 0.048233 -0.014277 -305522.000000 0 0 1
-27.772353 -26.676842 -29.534208 48.530680 0.765281 2.225051 0.044099 -0.014148 -656143.000000 0 0 1
-28.745903 -27.661542 -29.637158 49.697575 0.766177 2.209743 0.028982 -0.009293 -289052.000000 0 0 1
-28.286723 -28.969162 -29.339928 50.001824 0.797317 2.197869 0.020221 -0.010646 -124939.000000 0 0 1
-29.175813 -30.091882 -29.911698 51.492321 0.800853 2.190626 0.022683 0.001431 -229551.000000 0 0 1
-28.857063 -30.354552 -31.286218 52.277685 0.810683 2.212377 0.042585 -0.022917 574992.000000 0 0 1
-29.366583 -31.635382 -31.657848 53.529552 0.822573 2.203601 0.061157 -0.012432 -214489.000000 0 0 1
-28.710033 -32.178132 -32.959118 54.277082 0.842295 2.223376 0.046636 -0.017073 1386790.000000 0 0 1
-27.277563 -32.425592 -32.940528 53.670875 0.871412 2.231599 0.030937 -0.013450 1203160.000000 0 0 1
-26.821253 -32.685142 33.804988 54.133865 0.883623 0.896343 0.042136 -0.017609 -67041.400000 0 0 1
-25.422883 -33.346052 33.828809 53.876437 0.919409 0.891949 0.044438 -0.017591 39828.100000 0 0 1
-25.048373 -33.879862 32.579766 53.260747 0.934160 0.912585 0.056518 -0.010583 171598.000000 0 0 1
-24.158973 33.154193 32.801590 52.524288 -0.941077 0.896301 0.046855 0.001933 -90652.600000 0 0 1
-24.173473 32.286835 31.531148 51.195799 -0.928121 0.907277 0.056698 -0.010813 -432321.000000 0 0 1
-25.443953 31.746346 31.241758 51.295933 -0.895156 0.915935 0.060821 -0.028739 19245.700000 0 0 1
-25.385243 30.946756 30.102798 50.082839 -0.883807 0.925969 0.060608 -0.022622 -344556.000000 0 0 1
-26.753303 30.393836 29.698608 50.214857 -0.849017 0.937964 0.067563 -0.024504 -251494.000000 0 0 1
-27.374313 29.556156 30.653958 50.621977 -0.823704 0.920344 0.078343 -0.026710 -381824.000000 0 0 1
-28.626263 29.129026 30.219238 50.805172 -0.794103 0.933772 0.077981 -0.032957 -357672.000000 0 0 1
-29.186703 27.907656 30.965508 50.887755 -0.763000 0.916620 0.083607 -0.043587 -488144.000000 0 0 1
-28.368223 26.812156 30.781768 49.710814 -0.757206 0.903052 0.081985 -0.034809 -180066.000000 0 0 1
-28.902633 25.566886 31.246138 49.652281 -0.724234 0.890145 0.080031 -0.029494 458090.000000 0 0 1
-29.994103 25.028976 30.264178 49.416762 -0.695405 0.911669 0.075719 -0.029780 392415.000000 0 0 1
-29.398583 24.586626 29.055978 48.093957 -0.696498 0.922097 0.066731 -0.032045 -500836.000000 0 0 1
-30.242163 23.806336 28.272358 47.756217 -0.666881 0.937241 0.055107 -0.026486 -312027.000000 0 0 1
-29.577883 23.520216 26.930098 46.403469 -0.671805 0.951642 0.053373 -0.032972 142361.000000 0 0 1
-28.289703 22.951906 27.070928 45.386479 -0.681603 0.931721 0.053432 -0.026253 -57227.700000 0 0 1
-27.812573 22.271806 25.916878 44.059700 -0.675218 0.941938 0.059122 -0.023941 -121876.000000 0 0 1
-26.427053 21.658606 26.180308 43.045242 -0.686556 0.917000 0.071104 -0.024354 -107383.000000 0 0 1
-26.578413 20.350506 26.735238 42.840730 -0.653460 0.896867 0.074994 -0.028940 750358.000000 0 0 1
-25.268183 19.950906 27.128078 42.100503 -0.668346 0.870604 0.073564 -0.023441 499501.000000 0 0 1
-25.351873 18.924106 28.273528 42.429137 -0.641230 0.841466 0.088314 -0.028947 -285303.000000 0 0 1
-24.107373 18.293406 28.406838 41.506176 -0.649129 0.817015 0.086784 -0.025986 150764.000000 0 0 1
-24.136073 17.355406 29.451078 41.846459 -0.623407 0.790079 0.080040 -0.024378 532130.000000 0 0 1
-22.874873 16.413506 29.280248 40.620142 -0.622397 0.765796 0.077323 -0.025134 1343200.000000 0 0 1
-21.764173 16.769106 30.130708 40.776730 -0.656487 0.739331 0.104312 -0.026458 1216030.000000 0 0 1
-20.589173 16.006806 29.808638 39.606651 -0.660831 0.718769 0.079065 -0.025116 1622070.000000 0 0 1
-19.294673 16.317306 30.684278 39.750017 -0.701986 0.688923 0.060086 -0.025732 705775.000000 0 0 1
-19.432373 16.111006 32.108882 40.843139 -0.692223 0.666240 0.041441 -0.022866 -227001.000000 0 0 1
-18.330673 16.545906 32.837941 41.086628 -0.734269 0.644772 0.042243 -0.024022 -1148650.000000 0 0 1
-18.472273 16.193306 -33.720148 41.719257 -0.719751 2.511993 0.024737 -0.029328 216792.000000 0 0 1
-19.412773 16.917106 -32.946288 41.815095 -0.716811 2.478194 0.042400 -0.030004 23649.400000 0 0 1
-20.758773 16.634206 -33.217478 42.556131 -0.675539 2.466352 0.052321 -0.027605 -475915.000000 0 0 1
-21.811873 17.402706 -32.359028 42.728430 -0.673431 2.429993 0.065531 -0.039094 -9154.030000 0 0 1
-22.043473 16.991606 -31.028768 41.682296 -0.656695 2.410449 0.055681 -0.034402 -70128.100000 0 0 1
-23.098673 17.734406 -30.486698 42.160368 -0.654776 2.379094 0.051672 -0.035699 -515021.000000 0 0 1
-23.193673 17.342006 -28.983038 40.972041 -0.642030 2.356589 0.060861 -0.047520 -226878.000000 0 0 1
-23.755373 16.133906 -28.589158 40.521113 -0.596608 2.353977 0.059232 -0.044728 439856.000000 0 0 1
-25.171413 16.072006 -28.817478 41.501283 -0.568250 2.338348 0.092049 -0.044164 492054.000000 0 0 1
-25.868813 15.017906 -27.901888 40.905358 -0.525989 2.321438 0.088147 -0.025709 24939.600000 0 0 1
-25.592673 13.677406 -28.204378 40.466570 -0.490808 2.341973 0.041416 -0.011265 -17956.100000 0 0 1
-26.514033 12.854506 -27.516658 40.316234 -0.451429 2.322002 0.034187 -0.009316 191479.000000 0 0 1
-26.112373 11.370406 -27.533488 39.613572 -0.410681 2.339288 0.029587 -0.007723 -79643.300000 0 0 1
-25.114133 11.019306 -26.615068 38.216575 -0.413475 2.341203 0.030229 -0.008990 -306280.000000 0 0 1
-24.409973 9.919806 -27.173578 37.850399 -0.385997 2.371607 0.021540 0.000605 -212770.000000 0 0 1
-23.382073 9.237006 -26.280758 36.369243 -0.376229 2.378366 0.057348 -0.008234 -401713.000000 0 0 1
-23.859273 8.243706 -25.429828 35.831547 -0.332673 2.359876 0.057848 -0.010399 -400619.000000 0 0 1
-22.919473 7.852606 -24.478818 34.440938 -0.330083 2.361357 0.094367 -0.006803 -438845.000000 0 0 1
-23.482473 6.738506 -23.565618 33.943664 -0.279450 2.338183 0.093974 -0.008176 185504.000000 0 0 1
-23.622573 5.527706 -24.268818 34.315551 -0.229865 2.356362 0.101177 -0.017310 395258.000000 0 0 1
-24.393373 4.521706 -23.624018 34.257506 -0.183286 2.331735 0.096734 -0.014863 50365.000000 0 0 1
35.575389 24.828388 -10.101318 44.543168 0.609321 1.799562 0.057016 -0.007415 -150193.000000 0 0 1
36.645549 24.380788 -9.331218 44.993230 0.587065 1.779704 0.067671 -0.012753 -416065.000000 0 0 1
-36.580353 23.329488 -9.853318 44.491292 -0.567723 1.794114 0.083660 -0.017055 -220601.000000 0 0 1
-35.573404 22.795788 -8.858118 43.169217 -0.569888 1.777460 0.075740 -0.013992 -160826.000000 0 0 1
-36.159043 21.853188 -7.992018 42.998960 -0.543621 1.757749 0.081292 -0.022488 754654.000000 0 0 1
-35.101512 21.258988 -7.204518 41.664923 -0.544558 1.744585 0.090774 -0.018348 582235.000000 0 0 1
-35.537428 20.266088 -6.124418 41.365826 -0.518276 1.719398 0.091085 -0.002319 -272427.000000 0 0 1
-36.257493 19.176488 -6.590818 41.542537 -0.486497 1.730122 0.077214 -0.005224 113783.000000 0 0 1
-36.723723 18.293788 -5.593818 41.407551 -0.462164 1.706302 0.090492 -0.018637 -57920.300000 0 0 1
36.533849 17.069488 -6.236018 40.804136 0.437085 1.724226 0.086355 -0.007357 -575291.000000 0 0 1
35.312989 17.401888 -6.800618 39.950987 0.457863 1.741853 0.086091 -0.011130 -889564.000000 0 0 1
34.786349 16.255588 -7.385018 39.100802 0.437145 1.760809 0.081472 -0.007304 -234655.000000 0 0 1
33.795269 16.634888 -8.493318 38.613161 0.457409 1.792569 0.080475 -0.026476 -133381.000000 0 0 1
33.309189 15.455788 -9.139218 37.840571 0.434443 1.814727 0.095270 -0.035691 112244.000000 0 0 1
32.595229 15.791388 -10.317718 37.659955 0.451146 1.848315 0.088365 -0.029167 -490816.000000 0 0 1
31.712079 14.704388 -10.890418 36.612514 0.434175 1.872818 0.076970 -0.029218 248253.000000 0 0 1
30.446569 14.386388 -10.306118 35.216158 0.441417 1.867797 0.071048 -0.021069 764995.000000 0 0 1
30.507409 13.805488 -9.026118 34.680893 0.424955 1.834090 0.091338 -0.021662 -647607.000000 0 0 1
29.470709 12.693088 -8.873018 33.292156 0.406690 1.840577 0.089703 -0.012930 5710.910000 0 0 1
29.921069 11.492088 -9.578318 33.452693 0.366707 1.861185 0.087373 -0.019238 824736.000000 0 0 1
28.897499 10.512288 -9.630818 32.223071 0.348897 1.874315 0.123399 -0.019224 -8690.140000 0 0 1
29.497759 9.197788 -10.238018 32.550486 0.302259 1.890755 0.129527 -0.025510 -164030.000000 0 0 1
30.410169 8.637388 -9.325518 32.959796 0.276741 1.857650 0.113514 -0.024283 183808.000000 0 0 1
30.390009 7.254388 -9.339018 32.609754 0.234325 1.861250 0.122080 -0.024797 -128340.000000 0 0 1
31.469189 6.687788 -8.365318 33.241765 0.209403 1.825182 0.133420 -0.026232 860261.000000 0 0 1
32.819449 6.954788 -8.742518 34.668674 0.208821 1.825722 0.121371 -0.025075 1285160.000000 0 0 1
33.789299 6.411088 -7.778518 35.260802 0.187508 1.793225 0.115900 -0.023773 -503583.000000 0 0 1
35.183529 6.846388 -8.055318 36.737473 0.192189 1.791860 0.109676 -0.026137 -1465910.000000 0 0 1
35.591039 6.279688 -9.243718 37.304194 0.174643 1.821198 0.127166 -0.027134 551851.000000 0 0 1
-36.969483 6.320688 -9.455018 38.679337 -0.169333 1.817745 0.126056 -0.024225 -207362.000000 0 0 1
-36.603273 5.454288 -10.743318 38.535279 -0.147923 1.853332 0.128484 -0.030672 751602.000000 0 0 1
-35.221744 5.227688 -11.093818 37.295747 -0.147346 1.872823 0.125605 -0.031644 1243230.000000 0 0 1
-34.488085 6.335488 -11.564818 36.923047 -0.181675 1.889372 0.105148 -0.025358 85910.500000 0 0 1
-33.590473 7.169188 -10.570218 35.936703 -0.210274 1.869346 0.111973 -0.022651 61022.000000 0 0 1
-34.325722 8.053088 -9.657418 36.556438 -0.230440 1.838148 0.111683 -0.020835 606106.000000 0 0 1
-34.767634 9.200188 -10.403918 37.438928 -0.258690 1.852394 0.109217 -0.022169 -259686.000000 0 0 1
-35.547786 10.150388 -9.491218 38.167508 -0.278140 1.822106 0.100394 -0.012382 -169265.000000 0 0 1
-34.806294 10.883188 -8.542418 37.455237 -0.303048 1.800891 0.090567 -0.004270 -292620.000000 0 0 1
-35.608253 11.816388 -7.825618 38.325122 -0.320410 1.776433 0.093745 -0.007121 -48080.400000 0 0 1
-34.894240 12.884588 -6.950218 37.840800 -0.353717 1.755515 0.100208 -0.011224 176481.000000 0 0 1
-34.140485 13.803788 -7.725218 37.627068 -0.384228 1.777577 0.079589 -0.006950 -5971.450000 0 0 1
-33.156613 14.465288 -6.956918 36.837538 -0.411379 1.760791 0.090793 -0.007863 159975.000000 0 0 1
-32.293713 15.524188 -7.706018 36.650607 -0.448104 1.782633 0.064309 -0.004972 -56798.300000 0 0 1
-32.999103 16.606288 -8.227018 37.846974 -0.466232 1.789922 0.052448 -0.003921 7425.830000 0 0 1
-32.155453 17.736088 -8.450318 37.682222 -0.504050 1.796972 0.051444 -0.001174 550426.000000 0 0 1
-32.918603 18.749588 -9.378118 39.027305 -0.517747 1.813467 0.026734 -0.003480 351873.000000 0 0 1
-32.790443 18.599688 -10.813018 39.218400 -0.515975 1.850128 0.009438 -0.001848 89484.100000 0 0 1
-33.898163 19.043388 -11.608318 40.576953 -0.511844 1.860931 0.005908 -0.012846 -135435.000000 0 0 1
-33.631343 19.106788 -13.178418 40.863275 -0.516652 1.899166 -0.019107 0.008229 63574.500000 0 0 1
-32.943683 20.346488 -13.541518 41.019977 -0.553271 1.907227 -0.015031 0.001840 405662.000000 0 0 1
-32.767003 20.603388 -14.916818 41.481171 -0.561316 1.938640 -0.030255 0.001877 186150.000000 0 0 1
-31.733633 21.752988 -15.315318 41.409841 -0.600919 1.949641 0.004062 -0.018127 -1214600.000000 0 0 1
-30.488693 21.359888 -14.934218 40.110299 -0.611118 1.952313 0.011534 -0.014255 23472.900000 0 0 1
-29.436143 22.395388 -14.743818 39.817334 -0.650385 1.950114 0.029729 -0.016712 1372960.000000 0 0 1
-28.850893 22.894088 -16.079218 40.187741 -0.670784 1.982425 0.021946 -0.026878 -1012290.000000 0 0 1
-29.730833 23.643088 -16.904018 41.577204 -0.671831 1.989492 0.032797 -0.018167 -22316.800000 0 0 1
-29.099593 24.303288 -17.990218 41.965272 -0.695825 2.013842 0.022341 -0.015595 -344266.000000 0 0 1
-28.396403 25.661088 -17.723018 42.177630 -0.734841 2.004461 0.026705 -0.023668 193545.000000 0 0 1
-29.289213 26.662188 -17.290918 43.216965 -0.738481 1.982417 0.040205 -0.027295 -92880.000000 0 0 1
-28.700433 27.932988 -17.340618 43.642453 -0.771848 1.979406 0.045929 -0.023954 236180.000000 0 0 1
-29.575193 29.081888 -16.713818 44.719123 -0.776988 1.953846 0.054392 -0.022091 97757.300000 0 0 1
-29.655753 29.215288 -15.310318 44.355412 -0.777916 1.923220 0.051670 -0.025924 112580.000000 0 0 1
-28.431653 29.527788 -14.680918 43.540539 -0.804308 1.914714 0.047360 -0.021873 -247790.000000 0 0 1
-28.582203 30.102688 -13.220318 43.564790 -0.811302 1.879122 0.060579 -0.017384 21722.000000 0 0 1
-29.643353 31.027488 -13.331018 44.934947 -0.808208 1.872004 0.053677 -0.020080 105252.000000 0 0 1
-29.791803 31.860588 -12.188018 45.290135 -0.818941 1.843265 0.042318 -0.023365 341919.000000 0 0 1
-28.729823 33.020588 -12.070118 45.403190 -0.854772 1.839875 0.040954 -0.024542 520242.000000 0 0 1
-28.923633 33.985188 -13.069418 46.501390 -0.865684 1.855689 0.029310 -0.030878 582934.000000 0 0 1
-27.801683 -33.239830 -13.111818 45.274051 0.874253 1.864616 0.050974 -0.026156 572060.000000 0 0 1
-27.788893 -32.289530 -14.338318 44.949124 0.860171 1.895460 0.044634 -0.021817 63633.900000 0 0 1
-27.387183 -32.928930 -15.569718 45.571793 0.877019 1.919471 0.031498 -0.011826 56933.700000 0 0 1
-27.657953 -32.045330 -16.634018 45.481382 0.858753 1.945216 0.033180 0.003105 82654.200000 0 0 1
-26.904373 -32.476030 -17.923418 45.823430 0.878954 1.972667 0.040185 0.001954 -58993.400000 0 0 1
-27.339483 -33.675830 -18.528818 47.168061 0.888876 1.974498 0.042607 0.005153 268547.000000 0 0 1
-26.537053 33.306088 -18.183118 46.304821 -0.898032 1.974343 0.032010 -0.003124 -330478.000000 0 0 1
-26.729453 32.062388 -19.066218 45.890969 -0.875859 1.999253 0.040589 -0.006909 -553917.000000 0 0 1
-27.907603 31.330488 -19.066218 46.086380 -0.843116 1.997317 0.059487 -0.016257 -466087.000000 0 0 1
-28.875983 31.836188 -19.966018 47.392058 -0.834118 2.005669 0.055683 -0.007556 294357.000000 0 0 1
-30.389743 31.572588 -19.731418 48.059272 -0.804486 1.993869 0.052155 -0.026553 485547.000000 0 0 1
-30.725733 30.255988 -20.075918 47.566143 -0.777695 2.006516 0.049059 -0.026260 527224.000000 0 0 1
-32.085763 30.142788 -20.487818 48.557538 -0.754185 2.006368 0.058848 -0.028232 264859.000000 0 0 1
-32.478883 28.720588 -20.858218 48.112527 -0.724065 2.019203 0.060460 -0.026512 -8301.160000 0 0 1
-33.868773 28.596488 -21.136218 49.107969 -0.701194 2.015736 0.064972 -0.030214 437447.000000 0 0 1
-34.089923 27.298288 -21.736518 48.783149 -0.675212 2.032612 0.062045 -0.022336 402179.000000 0 0 1
-35.554689 26.769688 -21.768718 49.544214 -0.645365 2.025704 0.077446 -0.017894 1201140.000000 0 0 1
-36.495573 27.361388 -22.704318 50.951530 -0.643321 2.032648 0.072987 -0.019581 239860.000000 0 0 1
36.655109 26.425888 -23.287218 50.835215 0.624637 2.046644 0.094461 -0.026244 -272888.000000 0 0 1
35.779269 26.979588 -24.446418 51.045878 0.646092 2.070210 0.107931 -0.032506 393176.000000 0 0 1
36.508639 27.345388 -25.601358 52.307557 0.642868 2.082243 0.096764 -0.028505 569513.000000 0 0 1
35.538289 27.569988 -26.669858 52.291066 0.659799 2.106013 0.112292 -0.024971 792693.000000 0 0 1
36.076909 27.845588 -28.105718 53.542988 0.657333 2.123416 0.084978 -0.023041 146205.000000 0 0 1
36.797229 26.697188 -28.565548 53.691400 0.627650 2.131795 0.078048 -0.007495 -165468.000000 0 0 1
-36.671313 26.891388 -29.855168 54.399108 -0.632733 2.151745 0.047531 0.002003 -605773.000000 0 0 1
-36.066079 25.542388 -30.285198 53.575823 -0.616215 2.171566 0.046130 -0.000654 566593.000000 0 0 1
-34.931790 25.019488 -29.587258 52.169058 -0.621541 2.173828 0.065706 -0.007146 -15063.800000 0 0 1
-33.708323 25.652888 -29.887898 51.842146 -0.650520 2.185256 0.044356 0.002687 206369.000000 0 0 1
-32.561453 25.125488 -28.931658 50.284980 -0.657203 2.183833 0.030688 -0.003771 325198.000000 0 0 1
-32.088403 23.822388 -29.276938 49.541002 -0.638618 2.203049 0.062697 -0.006906 129737.000000 0 0 1
-32.846463 22.795888 -28.682298 49.205862 -0.606697 2.193095 0.052181 -0.001760 -250953.000000 0 0 1
-32.604853 21.336888 -29.239968 48.716680 -0.579468 2.214553 0.054520 -0.014375 286625.000000 0 0 1
-31.301093 20.894488 -28.880788 47.438781 -0.588602 2.225345 0.075907 -0.017824 303671.000000 0 0 1
-31.111243 19.602288 -29.397618 47.078435 -0.562237 2.245210 0.077862 -0.022243 -454690.000000 0 0 1
-29.676513 19.043188 -29.337688 45.869798 -0.570513 2.264756 0.103261 -0.027346 -660893.000000 0 0 1
-28.867683 19.744388 -30.278098 46.259563 -0.599881 2.284352 0.123841 -0.034664 -113604.000000 0 0 1
-27.619433 19.120988 -30.457318 45.344167 -0.605541 2.307287 0.124214 -0.040795 -241786.000000 0 0 1
-27.589953 17.800588 -31.300078 45.362554 -0.572982 2.332283 0.122916 -0.029484 -529141.000000 0 0 1
-27.966423 16.632488 -30.484588 44.587785 -0.536536 2.323615 0.094496 -0.022369 270923.000000 0 0 1
-27.921013 15.519688 -31.338648 44.749911 -0.507318 2.346623 0.065713 -0.008800 -329915.000000 0 0 1
-28.387693 14.217288 -30.646318 44.126967 -0.464308 2.338525 0.068016 -0.007834 -185104.000000 0 0 1
-29.767043 14.344888 -30.403368 44.902310 -0.449067 2.314611 0.068666 -0.011931 30279.500000 0 0 1
-30.611623 13.192688 -30.440988 45.141691 -0.406916 2.310871 0.060077 -0.011821 329278.000000 0 0 1
-30.451713 12.026588 -29.431888 44.024785 -0.376136 2.303027 0.041570 -0.016787 -329603.000000 0 0 1
-30.492633 12.522888 -28.113148 43.324040 -0.389684 2.276940 0.029486 -0.014245 131263.000000 0 0 1
-30.472413 11.448088 -27.204688 42.423127 -0.359373 2.266949 0.040551 -0.016394 -36492.100000 0 0 1
-30.293993 11.901788 -25.714638 41.480371 -0.374350 2.239441 0.032410 -0.013301 -795229.000000 0 0 1
-29.081773 12.487788 -25.439808 40.606381 -0.405594 2.247848 0.026019 -0.014289 -1216280.000000 0 0 1
-29.046943 13.157388 -24.185118 40.022015 -0.425321 2.219678 0.025306 -0.015806 1653960.000000 0 0 1
-27.598003 13.551888 -23.599918 38.758993 -0.456459 2.225455 0.045662 -0.010622 1421350.000000 0 0 1
-26.820063 14.427588 -24.398418 39.022479 -0.493537 2.246235 0.060995 -0.021679 644163.000000 0 0 1
-25.413453 14.477588 -24.174818 37.945566 -0.517829 2.261516 0.050553 -0.021895 748264.000000 0 0 1
-24.926973 15.099288 -22.825518 37.018195 -0.544630 2.235216 0.047883 -0.015503 -764832.000000 0 0 1
-25.231663 16.461488 -22.660518 37.697699 -0.578070 2.215687 0.073444 -0.018088 111948.000000 0 0 1
-25.516563 16.808488 -21.303718 37.248740 -0.582487 2.179655 0.071599 -0.007900 -104537.000000 0 0 1
-27.005553 17.068288 -21.024518 38.244695 -0.563638 2.152846 0.060616 -0.010264 73303.500000 0 0 1
-27.856293 15.922988 -20.958418 38.324534 -0.519284 2.149414 0.065511 -0.017874 841626.000000 0 0 1
-29.094923 16.238588 -20.310018 39.021829 -0.509059 2.118207 0.053455 -0.008718 -121047.000000 0 0 1
-30.168503 15.142388 -20.421218 39.451953 -0.465188 2.114866 0.021312 -0.011870 194339.000000 0 0 1
-30.803633 14.922188 -21.697718 40.525627 -0.451114 2.135786 0.026538 -0.009026 233705.000000 0 0 1
-31.666523 15.957388 -22.073018 41.768709 -0.466779 2.127580 0.008979 -0.006831 -806377.000000 0 0 1
-32.120843 15.852788 -23.537118 42.860884 -0.458463 2.152145 0.018401 -0.011990 723804.000000 0 0 1
-33.328033 15.081888 -23.786218 43.634909 -0.424955 2.147327 0.028515 -0.010111 1071410.000000 0 0 1
-33.660333 15.174188 -25.161008 44.680536 -0.423522 2.168966 0.047807 -0.024145 -443852.000000 0 0 1
-34.949764 14.411888 -25.439498 45.567056 -0.391116 2.163116 0.035737 -0.016849 -382487.000000 0 0 1
-34.847082 13.056388 -25.534928 45.131153 -0.358487 2.172192 0.037860 -0.014258 -16776.700000 0 0 1
-35.030278 12.370788 -24.266218 44.373485 -0.339474 2.149409 0.022036 -0.010498 -227752.000000 0 0 1
-34.947333 10.822088 -24.393718 43.971436 -0.300303 2.158874 0.023335 -0.011251 245619.000000 0 0 1
-36.019077 10.265188 -25.179908 45.130652 -0.277633 2.162690 0.035619 -0.013193 252008.000000 0 0 1
-35.741310 9.001788 -25.801578 44.991053 -0.246728 2.181547 0.023465 -0.008647 -211403.000000 0 0 1
-36.900123 8.330888 -26.598918 46.244191 -0.222046 2.183625 0.032098 -0.002101 49183.400000 0 0 1
36.161069 7.749888 -25.693378 45.031471 0.211122 2.177990 0.015643 0.008505 31398.800000 0 0 1
35.098749 7.059188 -26.357968 44.457810 0.198476 2.205422 0.015072 0.001019 476639.000000 0 0 1
34.064679 6.453988 -25.369908 42.961478 0.187243 2.202508 0.019582 0.002790 134769.000000 0 0 1
34.622599 5.444388 -24.585218 42.811198 0.155972 2.182509 0.011285 -0.003503 866603.000000 0 0 1
33.569089 4.765988 -23.861318 41.460353 0.141033 2.184038 0.021191 0.005336 805261.000000 0 0 1
34.276939 3.962388 -22.780218 41.346674 0.115088 2.154306 0.008934 0.009035 -40434.000000 0 0 1
34.909579 2.889388 -23.381718 42.115698 0.082580 2.159374 0.012661 -0.004665 -235454.000000 0 0 1
35.668039 2.196788 -22.411618 42.181934 0.061512 2.130941 0.047728 -0.003554 -47545.100000 0 0 1
36.558269 1.053988 -22.982218 43.194911 0.028822 2.131826 0.073961 -0.009770 101615.000000 0 0 1
35.850069 -0.077412 -23.507518 42.870000 -0.002159 2.151179 0.028496 -0.004917 -177359.000000 0 0 1
36.672799 -1.184612 -23.766118 43.716426 -0.032291 2.145568 0.060595 -0.019871 -64208.800000 0 0 1
-23.394673 29.066388 27.153778 46.146433 -0.893093 0.941685 0.073538 -0.019744 -529435.000000 0 0 1
-24.717173 29.459788 26.873638 46.914925 -0.872715 0.960859 0.064605 -0.028532 317795.000000 0 0 1
-25.262293 29.036888 25.644818 46.249119 -0.854801 0.983043 0.058709 -0.021077 -275563.000000 0 0 1
-25.735763 27.562488 25.578448 45.566185 -0.819658 0.974784 0.071658 -0.021820 -189362.000000 0 0 1
-27.060873 27.390688 26.072308 46.500601 -0.791455 0.975580 0.067502 -0.022642 355211.000000 0 0 1
-27.171493 27.019688 27.482108 47.155274 -0.782597 0.948626 0.073620 -0.024313 -480313.000000 0 0 1
-26.537823 25.662188 27.990718 46.328007 -0.768625 0.922053 0.078505 -0.021417 1769860.000000 0 0 1
-25.107613 25.585988 28.294318 45.668408 -0.794834 0.902614 0.087269 -0.017903 1323110.000000 0 0 1
-24.726173 26.178888 29.507668 46.555561 -0.813928 0.884319 0.078423 -0.020615 -267177.000000 0 0 1
-23.307773 25.754388 29.886128 45.822718 -0.835225 0.860297 0.094745 -0.014699 -615014.000000 0 0 1
-22.224473 26.360888 29.223648 45.197845 -0.870330 0.867715 0.101626 -0.023556 955398.000000 0 0 1
-20.985173 26.042388 29.904798 44.865136 -0.892524 0.841227 0.114622 -0.026461 1084350.000000 0 0 1
-20.152573 24.757588 29.663788 43.577571 -0.887579 0.822062 0.118690 -0.026971 127186.000000 0 0 1
-19.509273 24.691788 28.346848 42.353748 -0.902114 0.837546 0.111953 -0.025131 417344.000000 0 0 1
-20.020073 23.664788 27.452978 41.406419 -0.868637 0.845960 0.119906 -0.025868 46931.600000 0 0 1
-19.893773 22.155588 27.779728 40.722789 -0.839136 0.820075 0.106420 -0.021065 472312.000000 0 0 1
-20.723473 21.759188 28.893268 41.686275 -0.809773 0.804999 0.100199 -0.019168 423727.000000 0 0 1
-20.927973 20.354788 28.883648 41.067780 -0.771515 0.790744 0.104867 -0.021321 269516.000000 0 0 1
-21.465973 19.945288 30.262438 42.123837 -0.748693 0.769274 0.101647 -0.022991 -923984.000000 0 0 1
-20.430373 20.112888 31.124568 42.316275 -0.777568 0.744359 0.091935 -0.027674 -609269.000000 0 0 1
-20.686473 19.726488 32.452933 43.246472 -0.761648 0.722102 0.081436 -0.021176 -260339.000000 0 0 1
-19.634473 20.370688 33.366797 43.747236 -0.803799 0.703291 0.077237 -0.028296 -564487.000000 0 0 1
-19.678973 21.762288 33.571601 44.586002 -0.835627 0.718243 0.053066 -0.028303 16325.600000 0 0 1
-18.920973 22.535888 32.662400 43.962505 -0.872375 0.733314 0.077800 -0.018638 -171362.000000 0 0 1
-17.417473 22.667088 32.979652 43.644275 -0.915621 0.714155 0.059557 -0.010838 -230322.000000 0 0 1
-16.750373 21.430188 32.901389 42.688750 -0.907360 0.690814 0.071572 -0.032428 -74058.900000 0 0 1
-15.470173 21.552788 33.522138 42.750236 -0.948236 0.669488 0.048963 -0.024516 30834.400000 0 0 1
-14.674273 20.254488 33.532939 41.833439 -0.943819 0.640859 0.044776 -0.020905 597218.000000 0 0 1
-13.288173 20.187488 33.887305 41.622826 -0.988652 0.619529 0.027444 -0.023202 763896.000000 0 0 1
-13.049873 20.306288 -32.751218 40.685216 -0.999604 2.506456 0.034453 -0.020327 324128.000000 0 0 1
-11.529673 20.142888 -32.458808 39.902926 -1.050923 2.520846 0.028554 -0.020199 830331.000000 0 0 1
-10.708473 21.287588 -32.770028 40.517990 -1.104721 2.512866 0.028741 -0.021275 346894.000000 0 0 1
-9.399873 21.013688 -32.268298 39.638059 -1.150172 2.521929 0.036440 -0.018712 552838.000000 0 0 1
-8.436973 22.260388 -32.245258 40.080719 -1.208512 2.505643 0.035942 -0.023513 286762.000000 0 0 1
-8.584273 23.281188 -31.242428 39.897278 -1.217541 2.470386 0.035308 -0.022267 -106958.000000 0 0 1
-8.352573 22.836588 -29.954878 38.581990 -1.220156 2.459722 0.040483 -0.019506 -223577.000000 0 0 1
-8.052573 24.054588 -28.976448 38.511059 -1.247760 2.422523 0.039735 -0.015891 804435.000000 0 0 1
-7.018573 24.915888 -29.542008 39.278392 -1.296221 2.422067 0.043463 -0.018959 838091.000000 0 0 1
-6.734973 26.015388 -28.666708 39.293007 -1.317474 2.388478 0.062480 -0.018664 895538.000000 0 0 1
-5.403673 26.817588 -29.001158 39.867905 -1.371961 2.385367 0.086221 -0.022138 1451520.000000 0 0 1
-4.217373 26.040088 -28.795248 39.051744 -1.410234 2.399952 0.092199 -0.022333 1070360.000000 0 0 1
-2.990273 26.417288 -29.408938 39.644678 -1.458082 2.406566 0.100825 -0.020865 1130140.000000 0 0 1
-2.174873 27.651288 -28.865528 40.031769 -1.492304 2.376135 0.110523 -0.029049 -54217.400000 0 0 1
-1.391673 27.482588 -27.706158 39.049463 -1.520201 2.359605 0.132241 -0.042831 78238.100000 0 0 1
-0.489973 28.542388 -27.637608 39.733429 -1.553632 2.340017 0.125044 -0.040212 -949509.000000 0 0 1
0.312827 28.775388 -26.348728 39.017641 1.559925 2.312172 0.130464 -0.052431 248491.000000 0 0 1
1.300127 27.793388 -26.052138 38.116619 1.524052 2.323323 0.177809 -0.057148 228945.000000 0 0 1
2.502927 27.899988 -26.782308 38.755206 1.481325 2.333756 0.169872 -0.053996 -227814.000000 0 0 1
3.737127 28.091088 -25.845728 38.354622 1.438537 2.310220 0.160887 -0.056890 121179.000000 0 0 1
4.053327 26.881488 -25.103478 37.003087 1.421139 2.316400 0.177240 -0.053877 680002.000000 0 0 1
5.298627 27.009588 -24.403518 36.784847 1.377081 2.296166 0.140715 -0.043427 650093.000000 0 0 1
5.952527 25.710688 -23.856218 35.575149 1.343285 2.305796 0.134942 -0.040755 -661270.000000 0 0 1
7.084927 26.045188 -23.147218 35.557583 1.305199 2.279669 0.124452 -0.037841 -951652.000000 0 0 1
7.794527 24.905588 -22.664218 34.564574 1.267490 2.285914 0.106371 -0.018918 256676.000000 0 0 1
9.241727 25.210288 -22.206618 34.843967 1.219423 2.261807 0.076591 -0.007287 -205647.000000 0 0 1
9.322827 25.914188 -20.998418 34.632266 1.225455 2.222228 0.083000 -0.005412 -508760.000000 0 0 1
10.598527 26.217888 -20.523918 34.941918 1.186633 2.198605 0.080876 -0.012805 -338171.000000 0 0 1
11.507927 25.116888 -19.925818 34.063598 1.141165 2.195626 0.056407 0.005932 -219120.000000 0 0 1
12.070227 24.269588 -20.883218 34.217132 1.109279 2.227254 0.049281 -0.008805 -180628.000000 0 0 1
12.406227 22.968088 -20.472618 33.174925 1.075546 2.235863 0.033367 0.000927 -323024.000000 0 0 1
12.611627 22.035588 -21.646518 33.364533 1.050971 2.276787 0.031956 -0.010759 -1401820.000000 0 0 1
11.571227 21.925188 -22.499518 33.478881 1.085188 2.307771 0.043195 -0.022708 -1028910.000000 0 0 1
11.790727 20.866888 -23.448718 33.530444 1.056476 2.345251 0.048763 -0.029923 427642.000000 0 0 1
10.861027 21.077688 -24.688318 34.230745 1.094995 2.376376 0.069214 -0.032768 1193060.000000 0 0 1
9.453327 20.838288 -24.562918 33.569876 1.144910 2.391602 0.070257 -0.036471 637745.000000 0 0 1
8.848827 20.959888 -25.836938 34.426240 1.171317 2.419617 0.078100 -0.044861 48068.100000 0 0 1
7.352727 20.551988 -25.855508 33.837171 1.227223 2.440465 0.096071 -0.054111 486907.000000 0 0 1
6.390727 21.479388 -25.358588 33.841742 1.281609 2.417844 0.111773 -0.055351 254001.000000 0 0 1
6.260927 21.400288 -23.930518 32.708428 1.286177 2.391509 0.110969 -0.052113 -1098430.000000 0 0 1
4.815227 21.556788 -23.486418 32.241175 1.351030 2.386868 0.134753 -0.054977 -705842.000000 0 0 1
4.327727 22.832188 -23.738418 33.219731 1.383474 2.366831 0.145142 -0.046504 -403509.000000 0 0 1
2.942727 22.878788 -23.497518 32.927678 1.442876 2.365434 0.164491 -0.045857 -129361.000000 0 0 1
2.312327 24.220588 -23.958318 34.146519 1.475615 2.348483 0.149565 -0.043245 568902.000000 0 0 1
0.884427 24.250788 -23.942818 34.090196 1.534342 2.349472 0.164030 -0.057163 508698.000000 0 0 1
0.367827 24.919188 -25.059228 35.342130 1.556037 2.358942 0.166706 -0.047680 398718.000000 0 0 1
-1.129873 24.796088 -25.462058 35.558951 -1.525261 2.368926 0.172429 -0.046739 422922.000000 0 0 1
-1.435873 23.599188 -26.081118 35.202388 -1.510027 2.405192 0.173066 -0.049792 1009310.000000 0 0 1
-2.672173 23.728288 -26.851088 35.932619 -1.458653 2.414729 0.159821 -0.040167 1245500.000000 0 0 1
-3.373673 22.399888 -27.219588 35.412464 -1.421309 2.447515 0.139776 -0.034439 -439578.000000 0 0 1
-2.739873 21.607888 -28.192028 35.625808 -1.444670 2.483789 0.168734 -0.046673 -317440.000000 0 0 1
-3.452673 20.489388 -28.707768 35.438283 -1.403854 2.515081 0.123158 -0.041486 -548053.000000 0 0 1
-4.678573 20.721588 -29.570978 36.410383 -1.348737 2.518637 0.085739 -0.035414 -563298.000000 0 0 1
-4.499173 21.103788 -30.917428 37.702782 -1.360748 2.532260 0.094498 -0.037279 -133398.000000 0 0 1
-4.053373 22.471588 -31.019848 38.517958 -1.392338 2.507036 0.117971 -0.039017 107192.000000 0 0 1
-3.687373 22.809988 -32.490668 39.868983 -1.410527 2.523415 0.113096 -0.037374 522200.000000 0 0 1
-2.579173 22.004888 -32.971568 39.723942 -1.454120 2.549935 0.108873 -0.041489 807092.000000 0 0 1
-2.442573 22.160788 33.621690 40.342096 -1.461019 0.585539 0.108209 -0.030474 -344012.000000 0 0 1
-1.157773 21.462188 33.160814 39.517155 -1.516904 0.575078 0.116213 -0.028831 -129776.000000 0 0 1
-1.244173 20.009688 33.225754 38.805751 -1.508698 0.542914 0.097456 -0.018357 -166578.000000 0 0 1
-0.062273 19.425688 32.749122 38.077109 -1.567591 0.535382 0.099454 -0.017495 61868.700000 0 0 1
-0.452773 18.070988 32.135311 36.870637 -1.545746 0.512402 0.075929 -0.010751 461296.000000 0 0 1
-1.313773 18.180988 30.999578 35.961760 -1.498661 0.531565 0.058974 -0.006054 140512.000000 0 0 1
-1.850973 16.945488 30.618338 35.043663 -1.461997 0.507999 0.055488 -0.004447 -102300.000000 0 0 1
-2.978773 17.011588 29.576878 34.249948 -1.397451 0.528509 0.051134 0.012042 50392.300000 0 0 1
-4.225673 17.489688 30.050448 35.025347 -1.333730 0.539505 0.030039 0.001321 -156694.000000 0 0 1
-4.747073 18.418188 29.145048 34.802273 -1.318548 0.578202 0.037203 0.005819 285874.000000 0 0 1
-6.273973 18.669188 29.300498 35.304681 -1.246594 0.591810 0.019760 -0.002444 1046920.000000 0 0 1
-7.079873 17.641988 28.665708 34.396034 -1.189163 0.585562 0.019265 0.003502 514870.000000 0 0 1
-8.455573 17.971188 28.517208 34.751856 -1.131020 0.608345 0.020345 0.003729 -327107.000000 0 0 1
-9.209273 16.957388 27.689358 33.750026 -1.073279 0.608643 0.019164 -0.004244 -575764.000000 0 0 1
-9.392273 15.654188 28.238228 33.625376 -1.030388 0.573901 0.025484 -0.017722 -78569.400000 0 0 1
-10.100373 15.574188 29.430528 34.795529 -0.995453 0.562708 0.027670 -0.016130 -629512.000000 0 0 1
-10.646473 14.148488 29.768298 34.636378 -0.925709 0.536600 0.023364 -0.022890 -236609.000000 0 0 1
-9.674573 13.182488 30.063108 34.222300 -0.937682 0.498155 0.030583 -0.023068 -96169.800000 0 0 1
-9.129273 13.216588 31.360498 35.234964 -0.966310 0.473365 0.033043 -0.018341 -559467.000000 0 0 1
-10.053373 12.693588 32.454413 36.269635 -0.900950 0.462792 0.065752 -0.030967 -353252.000000 0 0 1
-10.282773 11.280188 32.408669 35.823176 -0.831621 0.440158 0.061553 -0.033618 274837.000000 0 0 1
-10.718673 10.698688 33.621686 36.875055 -0.784465 0.423215 0.063373 -0.033384 -328109.000000 0 0 1
-10.823173 9.115288 33.664957 36.517926 -0.699949 0.397905 0.038931 -0.022021 -914498.000000 0 0 1
-9.670673 8.345888 33.859335 36.188815 -0.711999 0.360757 0.060098 -0.019369 -611650.000000 0 0 1
-9.397573 7.955488 -32.831048 35.063969 -0.702486 2.782792 0.079028 -0.036968 165004.000000 0 0 1
-8.732473 9.006588 -31.887118 34.266062 -0.800850 2.766775 0.081204 -0.041099 577621.000000 0 0 1
-9.603173 10.119888 -31.497768 34.449129 -0.811591 2.724639 0.068563 -0.032874 792138.000000 0 0 1
-8.868373 10.896788 -30.573068 33.646702 -0.887666 2.710835 0.075470 -0.028494 -29863.800000 0 0 1
-7.947073 11.906288 -31.210148 34.336409 -0.982239 2.711560 0.058369 -0.024975 -319019.000000 0 0 1
-8.589173 13.119488 -31.516948 35.202456 -0.991132 2.679913 0.054670 -0.023916 113570.000000 0 0 1
-7.660973 13.982988 -32.131918 35.870247 -1.069584 2.680984 0.036777 -0.021158 -199695.000000 0 0 1
-8.244873 15.297288 -32.519628 36.871550 -1.076456 2.650824 0.041369 -0.017551 -197656.000000 0 0 1
-8.983473 15.343188 -33.729718 38.128862 -1.041105 2.656484 0.054698 -0.023315 -28889.200000 0 0 1
-9.444673 16.671388 -33.860368 38.905804 -1.055358 2.626641 0.069737 -0.021124 -485932.000000 0 0 1
-9.981473 17.034088 32.769022 38.257010 -1.040757 0.542250 0.051765 -0.020178 674245.000000 0 0 1
-11.204173 16.457788 32.319736 37.959948 -0.973085 0.552116 0.041846 -0.020762 335032.000000 0 0 1
-12.364073 17.058988 32.867193 39.040130 -0.943630 0.570035 0.039723 -0.025461 66270.200000 0 0 1
-13.688573 16.404488 32.377809 38.791839 -0.875405 0.583290 0.041369 -0.034137 161279.000000 0 0 1
-13.645573 14.959288 32.506449 38.296882 -0.831292 0.557082 0.036810 -0.035930 370496.000000 0 0 1
-14.860973 14.373688 32.958184 38.906212 -0.768732 0.560257 0.044721 -0.027407 72038.100000 0 0 1
-14.870373 12.820588 32.905246 38.317760 -0.711509 0.537978 0.037946 -0.024603 32104.100000 0 0 1
-14.982673 12.228888 31.633658 37.077143 -0.684542 0.548735 0.018254 -0.024788 1084170.000000 0 0 1
-13.672073 11.986388 31.056518 35.987587 -0.719795 0.529661 0.028732 -0.013858 792140.000000 0 0 1
-13.720673 11.369588 29.665778 34.606109 -0.691966 0.540909 0.016094 -0.007552 -270778.000000 0 0 1
-14.306073 10.074688 29.540808 34.333983 -0.613556 0.534751 0.012033 -0.008702 156803.000000 0 0 1
-14.142673 9.639788 28.218588 33.003476 -0.598277 0.545209 -0.008892 -0.001104 -333865.000000 0 0 1
-14.814373 8.368388 27.858198 32.643143 -0.514198 0.548291 0.006313 -0.001870 -391890.000000 0 0 1
-14.336673 7.174988 28.448418 32.654757 -0.464019 0.513180 -0.009280 0.000610 654969.000000 0 0 1
-15.266173 6.042788 28.373758 32.781725 -0.376905 0.524577 0.007959 0.005627 685114.000000 0 0 1
-14.480073 4.690588 28.503108 32.312557 -0.313267 0.490481 0.007830 0.000820 960926.000000 0 0 1
-13.476373 4.560988 27.442588 30.911339 -0.326342 0.478289 -0.000280 -0.000132 621716.000000 0 0 1
-13.983973 4.468288 26.119098 29.962049 -0.309276 0.512055 0.002267 0.002280 -818439.000000 0 0 1
-12.918873 4.270788 25.051408 28.508068 -0.319275 0.497564 -0.003363 0.007623 -782641.000000 0 0 1
-12.383373 2.999288 25.058468 28.111750 -0.237627 0.470399 0.001531 0.001260 -129336.000000 0 0 1
-11.669173 2.820388 23.854348 26.704946 -0.237148 0.466260 0.006474 -0.001379 -350875.000000 0 0 1
-10.661773 1.662988 23.856828 26.183720 -0.154730 0.424773 0.008846 -0.005732 -474241.000000 0 0 1
-9.319673 1.946588 24.124898 25.935617 -0.205908 0.375882 0.014568 -0.010418 -295766.000000 0 0 1
-8.691173 0.782688 24.662278 26.160601 -0.089813 0.340086 0.026338 -0.003704 322124.000000 0 0 1
-7.153373 0.985088 24.736218 25.768617 -0.136849 0.284023 0.044964 -0.010602 7091.720000 0 0 1
-6.510073 0.967488 23.492768 24.397279 -0.147534 0.273151 0.039972 -0.010167 -327376.000000 0 1 0
-5.133273 1.202588 23.422918 24.008953 -0.230123 0.221400 0.038840 -0.004871 -314445.000000 0 1 0
-4.586573 2.678288 23.563268 24.154451 -0.528528 0.221701 0.054821 -0.016629 -322728.000000 0 1 0
-4.779873 3.219088 24.853338 25.512705 -0.592696 0.227845 0.062192 -0.018178 99637.200000 0 0 1
-4.497273 4.611588 24.870948 25.691560 -0.797947 0.253426 0.055506 -0.036679 -268955.000000 0 0 1
4.064727 -23.335312 12.942682 26.992069 -1.398339 1.070712 0.084666 -0.020876 355993.000000 0 0 1
3.729327 -24.472612 13.712982 28.299514 -1.419572 1.064929 0.085159 -0.019719 502706.000000 0 0 1
2.459627 -25.042812 13.333782 28.477745 -1.472893 1.083524 0.063060 -0.015357 850498.000000 0 0 1
2.267027 -26.471662 13.966082 30.015658 -1.485365 1.086830 0.056856 -0.008978 63383.200000 0 0 1
1.943327 -26.390902 15.374982 30.604678 -1.497293 1.044455 0.071923 -0.015393 -141457.000000 0 0 1
2.393327 -27.532772 15.986182 31.927098 -1.484088 1.046379 0.054793 -0.012346 -502060.000000 0 0 1
2.188027 -27.564792 17.533482 32.741842 -1.491585 1.005688 0.058911 -0.012461 -608462.000000 0 0 1
2.981027 -26.742062 18.283882 32.531903 -1.459781 0.973959 0.074765 -0.019222 -382312.000000 0 0 1
2.934227 -27.216242 19.593482 33.663601 -1.463400 0.949564 0.073080 -0.024985 452510.000000 0 0 1
3.695927 -26.249562 20.619182 33.583479 -1.430916 0.909718 0.071873 -0.025492 434873.000000 0 0 1
3.012527 -25.041212 20.913582 32.764547 -1.451069 0.878510 0.076706 -0.022208 396830.000000 0 0 1
3.866727 -24.187312 21.686682 32.715284 -1.412272 0.846122 0.096175 -0.025399 752288.000000 0 0 1
3.071427 -22.967112 22.326382 32.177465 -1.437854 0.803973 0.105414 -0.030575 617724.000000 0 0 1
2.402827 -22.068612 21.415482 30.845098 -1.462344 0.803362 0.115338 -0.030137 560131.000000 0 0 1
3.287227 -21.440712 20.492982 29.840782 -1.418664 0.813796 0.103357 -0.023016 72956.000000 0 0 1
2.563727 -20.340812 19.723482 28.448850 -1.445419 0.804743 0.080406 -0.028484 177697.000000 0 0 1
2.024427 -19.316812 20.547582 28.274382 -1.466376 0.757260 0.062066 -0.025933 -488211.000000 0 0 1
1.158327 -18.491712 19.912582 27.199192 -1.508238 0.749394 0.064788 -0.030167 -694182.000000 0 0 1
0.825127 -17.281312 20.759282 27.023552 -1.523086 0.694784 0.057403 -0.030321 -13645.300000 0 0 1
1.900327 -16.359212 20.773982 26.510250 -1.455152 0.670324 0.027190 -0.021131 54886.500000 0 0 1
1.502727 -15.046012 21.155282 26.003588 -1.471251 0.620561 0.026606 -0.022929 959489.000000 0 0 1
2.667227 -13.933312 21.028382 25.366200 -1.381656 0.593493 -0.004455 -0.007317 456046.000000 0 0 1
3.078327 -13.655612 19.728382 24.190099 -1.349077 0.617107 -0.025404 -0.002832 -2728.110000 0 1 0
2.124827 -13.329212 18.683682 23.049138 -1.412715 0.625617 -0.020257 -0.000930 1093.940000 0 1 0
1.267327 -12.063812 18.889282 22.448756 -1.466128 0.570854 -0.008900 -0.011019 -242621.000000 0 1 0
1.938927 -10.815012 18.676382 21.668668 -1.393400 0.531777 -0.014167 -0.013633 -150927.000000 0 1 0
1.587527 -9.811312 19.656482 22.026333 -1.410381 0.468142 -0.003860 -0.018069 234610.000000 0 1 0
0.103527 -9.444112 19.910282 22.036817 -1.559835 0.442928 0.029920 -0.018139 171837.000000 0 1 0
-0.097773 -8.604412 21.022782 22.715695 1.559434 0.388512 0.040352 -0.027608 -738761.000000 0 1 0
-1.425373 -8.171312 20.951182 22.533398 1.398098 0.376972 0.048135 -0.027793 -475914.000000 0 1 0
-1.890973 -7.489812 22.234482 23.538166 1.323492 0.334380 0.067012 -0.030270 -20543.000000 0 1 0
-2.044873 -8.318212 23.348382 24.870084 1.329745 0.351626 0.074157 -0.029861 -16754.100000 0 1 0
-2.205273 -7.578512 24.537182 25.775383 1.287626 0.311216 0.070675 -0.021183 -133399.000000 0 0 1
-2.244573 -8.348212 25.867182 27.273464 1.308139 0.322526 0.080083 -0.026519 -142588.000000 0 0 1
-1.091073 -9.099612 26.156082 27.715230 1.451463 0.337021 0.061844 -0.022887 -258733.000000 0 0 1
-1.293873 -10.108912 27.133282 28.984120 1.443495 0.359300 0.067362 -0.027897 -708344.000000 0 0 1
-0.114373 -11.049612 27.242282 29.398111 1.560446 0.385348 0.058390 -0.024819 -565770.000000 0 0 1
0.952427 -10.417412 27.929982 29.824712 -1.479623 0.358366 0.040257 -0.025309 -788370.000000 0 0 1
1.974827 -11.353012 28.011282 30.288987 -1.398572 0.390284 0.055529 -0.031035 -524077.000000 0 0 1
3.098827 -10.965912 28.984682 31.144273 -1.295390 0.374588 0.061149 -0.034084 -123113.000000 0 0 1
2.546827 -10.644112 30.257382 32.175963 -1.335941 0.347073 0.064419 -0.038724 -153885.000000 0 0 1
3.453527 -10.200912 31.230782 33.035544 -1.244357 0.332071 0.076819 -0.036667 -473009.000000 0 0 1
2.755427 -9.637112 32.500882 34.011375 -1.292308 0.299146 0.077901 -0.044081 -193971.000000 0 0 1
2.072927 -10.670012 33.194882 34.929162 -1.378911 0.316442 0.085617 -0.047084 -1311.270000 0 0 1
1.866927 -10.408712 -33.468775 35.099652 -1.393321 2.835558 0.077763 -0.047634 295882.000000 0 0 1
3.114727 -10.712612 -32.538375 34.397782 -1.287844 2.811289 0.071930 -0.030739 878578.000000 0 0 1
4.180227 -9.783112 -32.718475 34.404682 -1.166988 2.827215 0.054012 -0.038324 224059.000000 0 0 1
4.448627 -8.990612 -31.586975 33.141490 -1.111311 2.834097 0.073258 -0.037541 -388080.000000 0 0 1
3.486627 -7.852812 -31.193875 32.355541 -1.152945 2.872817 0.060712 -0.022491 -241295.000000 0 0 1
3.457927 -6.723112 -32.032175 32.912273 -1.095747 2.909814 0.081454 -0.027163 -382486.000000 0 0 1
2.461327 -5.827212 -31.708275 32.333098 -1.171143 2.944681 0.071800 -0.011615 -307843.000000 0 0 1
2.756127 -4.481912 -32.414175 32.838430 -1.019461 2.980674 0.075279 -0.014362 481141.000000 0 0 1
2.236627 -4.581212 -33.776475 34.159043 -1.116619 2.991789 0.070815 -0.021562 385117.000000 0 0 1
2.827527 -3.567412 33.455082 33.763351 -0.900584 0.135235 0.065168 -0.005045 82925.400000 0 0 1
2.178227 -3.538312 32.051982 32.320177 -1.018976 0.128915 0.072757 -0.008790 -358744.000000 0 0 1
0.809427 -3.293612 32.030082 32.209148 -1.329815 0.105495 0.075975 -0.015712 -899823.000000 0 0 1
0.361927 -3.478912 30.695482 30.894116 -1.467135 0.113459 0.062552 -0.015449 77323.900000 0 0 1
-1.141373 -3.790812 30.560482 30.815841 1.278341 0.128826 0.057734 -0.018530 205151.000000 0 0 1
-1.980273 -2.646212 30.493182 30.671779 0.928357 0.107968 0.061206 -0.016499 -257735.000000 0 0 1
-3.333073 -3.034712 30.538782 30.869662 0.738578 0.146546 0.044199 -0.015909 337761.000000 0 0 1
-4.352473 -2.075412 29.856982 30.243854 0.444945 0.160120 0.059091 -0.017256 19514.300000 0 0 1
-4.285173 -2.156612 28.439582 28.841350 0.466263 0.167109 0.066011 -0.020114 -172240.000000 0 0 1
-5.159173 -1.386412 27.637982 28.149551 0.262525 0.190938 0.066363 -0.016903 350.569000 0 0 1
-5.362773 0.150088 27.918882 28.429664 -0.027980 0.189845 0.063161 -0.016369 -74867.700000 0 0 1
-6.415173 0.373088 28.832282 29.539704 -0.058092 0.219292 0.061714 -0.014067 -185519.000000 0 0 1
-6.749073 1.763088 28.941982 29.770737 -0.255524 0.236508 0.056132 -0.010602 1737270.000000 0 0 1
-8.208873 2.121888 29.518282 30.711837 -0.252950 0.279705 0.031032 -0.007982 2135160.000000 0 0 1
-9.307573 1.705588 28.719482 30.238197 -0.181237 0.318280 0.015645 -0.003006 743016.000000 0 0 1
-10.571273 2.205688 29.147382 31.083544 -0.205698 0.354814 0.003834 0.001341 828652.000000 0 0 1
-11.825773 1.856488 28.297182 30.725005 -0.155716 0.400202 0.002147 0.008130 229087.000000 0 0 1
-12.117473 0.513288 28.525082 30.996401 -0.042334 0.402024 0.011153 0.008735 52598.700000 0 0 1
-12.241973 -0.188912 27.254382 29.878134 0.015430 0.422212 0.006630 0.009372 -1084230.000000 0 0 1
-12.253673 -1.718412 27.563582 30.213515 0.139328 0.421947 0.021147 -0.000775 -403785.000000 0 0 1
-11.070173 -2.345512 27.995582 30.196072 0.208789 0.384125 0.035471 -0.007771 1310290.000000 0 0 1
-9.857673 -2.164812 27.192282 29.004833 0.216175 0.355396 0.035716 -0.007318 774655.000000 0 0 1
-9.916173 -2.968212 25.830282 27.827041 0.290842 0.381133 0.037705 -0.010135 -880831.000000 0 0 1
-10.897673 -2.470212 24.961682 27.348616 0.222907 0.420899 0.019364 -0.005257 23692.300000 0 0 1
-10.920673 -3.106212 23.695382 26.275098 0.277116 0.446836 0.026194 -0.007209 -41364.800000 0 0 1
-9.791573 -2.643912 22.717482 24.878689 0.263730 0.419899 0.034706 -0.006044 731624.000000 0 1 0
-8.475973 -2.866112 23.210582 24.875446 0.326075 0.367935 0.048968 -0.015125 -12599.500000 0 1 0
-7.531173 -2.303012 22.322282 23.670798 0.296767 0.339172 0.046248 -0.013528 1408770.000000 0 1 0
-6.019173 -2.627312 22.718782 23.649022 0.411563 0.281410 0.062983 -0.014527 1567300.000000 0 1 0
-5.459973 -3.918712 22.487982 23.470768 0.622517 0.290408 0.078115 -0.024972 -28590.500000 0 1 0
-5.886373 -4.897512 23.410582 24.631085 0.693956 0.316120 0.081979 -0.025321 -68302.900000 0 1 0
-5.723473 -6.365212 22.926682 24.472572 0.838434 0.357337 0.097075 -0.031802 159901.000000 0 1 0
-6.596173 -6.859712 21.909782 23.887312 0.804981 0.409766 0.096037 -0.036328 -17809.100000 0 1 0
-6.416873 -6.246012 20.674582 22.530585 0.771906 0.408738 0.089079 -0.038002 -271379.000000 0 1 0
-7.669673 -5.973012 19.836282 22.090243 0.661669 0.455671 0.077850 -0.033995 405687.000000 0 1 0
-8.646973 -5.047512 20.375982 22.703043 0.528372 0.456729 0.078364 -0.020953 703861.000000 0 1 0
-9.705373 -4.861912 19.430782 22.257307 0.464408 0.509462 0.078597 -0.017677 419994.000000 0 1 0
-10.058273 -3.398112 19.333582 22.056822 0.325803 0.502180 0.042690 -0.025011 -51380.900000 0 1 0
-9.037873 -2.585012 18.781782 21.002875 0.278582 0.464048 0.037414 -0.024598 -8912.810000 0 1 0
-9.368973 -1.220212 18.797082 21.037986 0.129511 0.465755 0.023692 -0.012755 87388.000000 0 1 0
-8.184273 -0.277912 18.377682 20.119611 0.033944 0.419184 0.010140 -0.009150 -42258.800000 0 1 0
-7.217273 -0.156512 19.388282 20.688620 0.021682 0.356434 0.025788 0.001553 -1850.890000 0 1 0
-7.551073 0.767688 20.465082 21.827222 -0.101318 0.355150 0.030317 0.000547 -208321.000000 0 1 0
-7.447173 2.237088 20.104182 21.555581 -0.291818 0.369059 0.023124 -0.009909 -653240.000000 0 1 0
-8.488073 2.609188 19.276382 21.223434 -0.298227 0.431691 0.019147 -0.013745 -382646.000000 0 1 0
-8.364573 3.984088 18.952382 21.095777 -0.444513 0.454691 0.024034 -0.013083 -146469.000000 0 1 0
-9.219973 4.362288 17.757482 20.478418 -0.441925 0.521382 0.031611 -0.004358 -411392.000000 0 1 0
-10.599073 4.342788 18.092482 21.413502 -0.388868 0.564399 0.026198 -0.000909 -21159.800000 0 1 0
-11.319773 4.882188 16.995982 20.996105 -0.407192 0.627526 0.025224 0.004964 -283399.000000 0 1 0
-11.553173 6.407088 16.948182 21.488775 -0.506348 0.662106 0.036575 0.001036 -929273.000000 0 1 0
-10.356573 7.094788 16.752182 20.933949 -0.600623 0.643101 0.034988 0.000082 -369424.000000 0 1 0
-10.525773 8.530088 16.570582 21.404170 -0.681050 0.685385 0.027687 -0.002904 77648.700000 0 1 0
-9.246573 9.335688 16.881682 21.392647 -0.790194 0.661397 0.032387 -0.000244 -30099.800000 0 1 0
-9.169773 9.703388 18.237482 22.601907 -0.813664 0.631911 0.058243 0.017218 482530.000000 0 1 0
-8.290973 10.863788 18.451782 22.961498 -0.918916 0.637483 0.060423 0.009404 630316.000000 0 1 0
-8.806373 12.230188 18.033882 23.502140 -0.946739 0.696130 0.057421 0.007321 14941.300000 0 1 0
-8.576573 12.474288 16.661082 22.511266 -0.968482 0.737545 0.044923 -0.007867 -213053.000000 0 1 0
-9.431473 13.486488 16.190782 23.086348 -0.960522 0.793557 0.062248 -0.020252 -382916.000000 0 1 0
-9.129873 14.112588 14.838182 22.420780 -0.996581 0.847573 0.055671 -0.019437 317796.000000 0 1 0
-8.028973 15.006688 14.862782 22.595738 -1.079522 0.852943 0.052491 -0.002688 -183764.000000 0 1 0
-7.642673 15.494088 13.610082 21.993443 -1.112552 0.903551 0.033738 -0.007266 -759349.000000 0 1 0
-6.589373 16.576688 13.766682 22.532819 -1.192440 0.913522 0.005105 0.000564 365710.000000 0 1 0
-5.254673 16.050188 13.831182 21.829377 -1.254404 0.884593 0.008751 -0.006101 -170194.000000 0 1 0
-4.367473 17.144988 13.854082 22.471338 -1.321364 0.906478 0.011638 -0.003734 703760.000000 0 1 0
-2.901073 16.580288 13.914382 21.838777 -1.397579 0.880013 0.020893 -0.010761 611107.000000 0 1 0
-2.345373 16.074788 15.144582 22.209411 -1.425915 0.820440 0.033241 -0.013462 -205342.000000 0 1 0
-2.653373 14.803588 15.649882 21.704963 -1.393441 0.765512 0.040513 -0.010217 -400516.000000 0 1 0
-1.616773 14.205188 16.632082 21.932338 -1.457468 0.710040 0.039305 -0.000083 449913.000000 0 1 0
-0.360273 13.932988 15.988782 21.210825 -1.544945 0.716966 0.032822 -0.018083 -3874.220000 0 1 0
0.604227 13.515588 16.904482 21.651737 1.526120 0.674939 0.029658 0.004984 463404.000000 0 1 0
1.650227 14.570488 17.390982 22.747937 1.458019 0.700518 0.030955 -0.008442 361659.000000 0 1 0
0.984827 15.420488 18.325082 23.970189 1.507018 0.700539 0.035696 -0.018370 -315000.000000 0 1 0
1.813027 16.414688 18.807982 25.029367 1.460791 0.720560 0.056012 -0.021269 -502964.000000 0 0 1
1.078827 17.724088 19.212882 26.161842 1.510003 0.746035 0.058504 -0.022852 198084.000000 0 0 1
0.394327 18.499588 18.255482 25.993323 1.549484 0.792153 0.042496 -0.015005 -797525.000000 0 0 1
-0.915873 18.094888 18.049882 25.574636 -1.520224 0.787283 0.050655 -0.018148 -1165230.000000 0 0 1
-1.645473 19.014088 17.094782 25.621762 -1.484472 0.840356 0.042451 -0.008530 -720737.000000 0 0 1
-2.092973 20.219588 17.609082 26.894089 -1.467652 0.856936 0.039280 -0.007283 -142385.000000 0 0 1
-2.884173 20.808688 16.576582 26.760101 -1.433070 0.902753 0.041014 -0.005288 -383978.000000 0 0 1
-3.522573 22.143388 16.978882 28.125088 -1.413038 0.922673 0.039037 -0.001628 -659824.000000 0 0 1
-4.618573 22.007488 17.827882 28.696587 -1.363935 0.900454 0.044282 -0.000813 -360608.000000 0 0 1
-4.910773 23.230788 18.465282 30.079093 -1.362473 0.909816 0.043445 0.000091 37362.700000 0 0 1
-6.074473 23.219488 19.486182 30.915289 -1.314920 0.888845 0.026000 -0.003957 -296260.000000 0 0 1
-7.362273 23.003088 18.977382 30.716219 -1.261043 0.904817 0.024346 -0.007211 -879560.000000 0 0 1
-8.138373 22.734188 20.115682 31.427966 -1.227031 0.876224 0.007012 -0.004040 -588653.000000 0 0 1
-9.610973 22.748288 19.678082 31.576610 -1.171052 0.897987 0.007199 -0.007459 -179844.000000 0 0 1
-10.145473 24.087988 19.682282 32.719322 -1.172162 0.925357 0.018287 -0.005477 -43008.800000 0 0 1
-11.274073 24.337388 18.870582 32.795000 -1.136986 0.957691 0.017896 -0.008306 4183.170000 0 0 1
-11.940273 25.653888 19.202282 34.196779 -1.135179 0.974571 0.029868 -0.011959 28735.400000 0 0 1
-12.596673 25.735788 20.490182 35.225765 -1.115615 0.950002 0.025147 -0.004641 571967.000000 0 0 1
-13.240073 27.002288 20.624682 36.466431 -1.114913 0.969660 0.042533 -0.009416 -212722.000000 0 0 1
-14.037873 27.131688 21.944982 37.613463 -1.093328 0.947846 0.061998 -0.023921 -496901.000000 0 0 1
-15.190573 26.340788 21.931782 37.491248 -1.047690 0.945936 0.059270 -0.022303 -198086.000000 0 0 1
-16.057273 26.635388 22.996582 38.679745 -1.028280 0.934105 0.062898 -0.018539 230107.000000 0 0 1
-17.458773 25.976588 22.909482 38.787063 -0.979044 0.938935 0.087464 -0.015035 211905.000000 0 0 1
-17.567773 24.559488 23.009482 37.963553 -0.949866 0.919656 0.084933 -0.014708 608795.000000 0 0 1
-18.972273 24.321788 23.227582 38.613690 -0.908337 0.925372 0.106465 -0.010504 956064.000000 0 0 1
27.856027 24.313188 23.807188 43.975807 0.717592 0.998730 0.073332 -0.009930 107819.000000 0 0 1
27.837127 23.272388 24.751878 43.922263 0.696322 0.972134 0.078226 -0.027686 153473.000000 0 0 1
27.404027 22.046288 24.190598 42.687288 0.677473 0.968309 0.077840 -0.017607 -30054.200000 0 0 1
26.856827 20.929888 25.163838 42.338731 0.661999 0.934345 0.094553 -0.018012 119551.000000 0 0 1
25.539527 21.216688 25.578128 41.912480 0.693205 0.914389 0.090259 -0.014601 4327.920000 0 0 1
25.185427 20.639088 26.827528 42.189975 0.686510 0.881655 0.080359 -0.016874 336881.000000 0 0 1
23.766827 21.001788 27.348858 41.879556 0.723714 0.859210 0.092975 -0.014484 111469.000000 0 0 1
23.677827 22.331788 27.909638 42.875356 0.756151 0.861963 0.100309 -0.028055 -371085.000000 0 0 1
22.623327 22.448588 28.804958 42.959046 0.781521 0.835885 0.111021 -0.017519 -755741.000000 0 0 1
22.656927 23.700288 29.697348 44.237682 0.807901 0.834817 0.103318 -0.023240 -212398.000000 0 0 1
22.336327 24.894488 28.945508 44.232222 0.839508 0.857409 0.094662 -0.026618 133251.000000 0 0 1
21.934127 25.977688 29.746808 45.175423 0.869595 0.852008 0.089393 -0.026168 381700.000000 0 0 1
20.486227 26.009488 30.331908 44.902156 0.903635 0.829139 0.105629 -0.026491 -208446.000000 0 0 1
19.506227 26.101788 29.287378 43.812633 0.929017 0.838648 0.108290 -0.036967 1699320.000000 0 0 1
18.165127 26.383988 29.792608 43.745699 0.967837 0.821613 0.099329 -0.039990 1484200.000000 0 0 1
17.385527 25.248088 30.459698 43.214763 0.967771 0.788592 0.084499 -0.026004 -722132.000000 0 0 1
17.842427 24.981788 31.735328 44.153969 0.950592 0.768805 0.073099 -0.022987 -198044.000000 0 0 1
16.934827 24.139388 32.385147 43.798358 0.959035 0.738596 0.070081 -0.021730 54629.400000 0 0 1
17.315827 23.836988 33.883687 44.901494 0.942554 0.715717 0.074223 -0.020609 -168727.000000 0 0 1
17.234327 25.008388 -33.328758 45.091547 0.967395 2.402582 0.066751 -0.020878 109354.000000 0 0 1
17.631427 24.779388 -32.011708 44.154669 0.952370 2.381817 0.035648 -0.011804 -282546.000000 0 0 1
18.027727 26.109788 -31.350178 44.604413 0.966503 2.350191 0.040672 -0.005984 339998.000000 0 0 1
16.919927 27.004388 -31.114888 44.538266 1.011074 2.344250 0.054183 -0.017460 704878.000000 0 0 1
17.294427 28.235388 -30.511438 45.025351 1.021230 2.315359 0.058947 -0.019027 68725.900000 0 0 1
16.701427 28.346788 -29.054788 43.893721 1.038369 2.294194 0.066297 -0.021858 -96360.200000 0 0 1
17.399627 27.559488 -28.117668 43.045042 1.007645 2.282619 0.037436 -0.013067 207789.000000 0 0 1
16.919627 27.870088 -26.858528 42.242113 1.025181 2.259871 0.029567 -0.010842 223132.000000 0 0 1
17.702627 27.091788 -25.701368 41.326847 0.992013 2.241969 0.028183 -0.005532 1627070.000000 0 0 1
19.127527 27.322088 -25.641348 42.069437 0.960020 2.226227 0.042101 -0.005929 945162.000000 0 0 1
19.767427 26.914788 -24.428418 41.375169 0.937325 2.202366 0.037551 0.002075 2133390.000000 0 0 1
21.367127 27.011288 -24.386018 42.200020 0.901540 2.186910 0.033214 0.001163 1809590.000000 0 0 1
21.831327 26.462688 -23.195118 41.411281 0.881005 2.165322 0.037215 0.004512 173354.000000 0 0 1
23.250627 26.310088 -23.295718 42.136717 0.847051 2.156589 0.046442 0.007182 786940.000000 0 0 1
23.905627 26.145888 -21.895018 41.647068 0.830127 2.124367 0.055676 0.002593 185005.000000 0 0 1
23.541527 24.956188 -21.213618 40.336490 0.814560 2.124588 0.064028 0.002307 93236.900000 0 0 1
24.233327 24.990588 -19.992818 40.143448 0.800781 2.092127 0.076097 -0.007795 -133271.000000 0 0 1
24.000327 23.836088 -18.975518 38.784599 0.781965 2.082030 0.085801 -0.024523 -564641.000000 0 0 1
24.384927 22.551288 -19.352118 38.440730 0.746351 2.098357 0.082696 -0.013973 246595.000000 0 0 1
24.008627 21.680888 -18.290118 37.161856 0.734495 2.085382 0.089608 -0.022211 -730345.000000 0 0 1
23.966627 20.185788 -18.642618 36.461109 0.699975 2.107495 0.103600 -0.026180 84571.600000 0 0 1
23.143027 19.748788 -19.712418 36.251811 0.706428 2.145712 0.094535 -0.026685 -108695.000000 0 0 1
21.778627 19.859288 -19.372418 35.270250 0.739335 2.152271 0.091751 -0.032840 -945801.000000 0 0 1
20.828627 19.651388 -20.581018 35.264530 0.756324 2.193974 0.082804 -0.024933 -53931.100000 0 0 1
21.029527 20.506788 -21.677018 36.505650 0.772814 2.206568 0.076443 -0.016267 -10591.700000 0 0 1
20.804727 21.957188 -21.423318 37.066337 0.812342 2.187038 0.072931 -0.013449 59915.600000 0 0 1
20.466727 22.706888 -22.723318 38.089879 0.837239 2.210018 0.061779 -0.004188 399382.000000 0 0 1
19.107927 22.563888 -23.099418 37.520995 0.868142 2.233994 0.063169 -0.007497 -107368.000000 0 0 1
18.912927 23.041588 -24.423018 38.536962 0.883490 2.257195 0.055760 -0.004606 598277.000000 0 0 1
17.410727 23.235688 -24.810718 38.191653 0.927737 2.277903 0.046238 -0.006857 571242.000000 0 0 1
16.751227 24.323888 -24.154418 38.153520 0.967712 2.256328 0.045027 -0.015583 335182.000000 0 0 1
15.351727 24.126888 -24.346218 37.556898 1.004119 2.276079 0.037647 -0.013358 545588.000000 0 0 1
14.534127 25.225288 -23.589618 37.470336 1.048081 2.251776 0.034620 -0.008458 124217.000000 0 0 1
14.818027 26.525788 -24.074618 38.765688 1.061354 2.240851 0.021812 -0.009183 -207256.000000 0 0 1
13.835027 27.419188 -23.641718 38.757589 1.103496 2.226844 0.045771 -0.013831 -120292.000000 0 0 1
13.823727 28.720388 -24.518218 40.213171 1.122203 2.226486 0.047702 -0.016689 40921.500000 0 0 1
13.601527 28.538288 -25.937038 40.892119 1.126038 2.257873 0.049836 -0.028046 38790.900000 0 0 1
13.024327 29.744688 -26.443768 41.876634 1.158075 2.254242 0.075335 -0.036991 -24057.600000 0 0 1
13.946927 30.986788 -26.485178 43.083204 1.147865 2.232859 0.078875 -0.035598 -664735.000000 0 0 1
15.046427 30.909488 -27.303638 43.900798 1.117773 2.242013 0.058357 -0.017536 -1115640.000000 0 0 1
15.815127 32.043188 -27.276128 44.954102 1.112317 2.222768 0.071469 -0.029885 -57686.100000 0 0 1
17.241027 31.819288 -27.863188 45.673596 1.074238 2.226920 0.064834 -0.017676 364917.000000 0 0 1
18.148627 31.268688 -26.907838 45.068118 1.044907 2.210613 0.030535 -0.013063 1117120.000000 0 0 1
19.408627 30.992988 -27.565598 45.794348 1.011316 2.216729 0.041912 -0.017219 645239.000000 0 0 1
20.447727 30.255588 -26.661448 45.214411 0.976475 2.201443 0.022250 -0.000130 -275171.000000 0 0 1
20.869627 30.874688 -25.475788 45.142037 0.976397 2.170439 0.028765 -0.009158 123367.000000 0 0 1
21.455527 32.175788 -25.492038 46.319164 0.982686 2.153587 0.031091 -0.017171 26729.200000 0 0 1
23.001127 32.159088 -25.693808 47.153267 0.949922 2.147066 0.020971 -0.009621 72427.000000 0 0 1
23.245327 31.649888 -26.956258 47.630878 0.937320 2.172370 0.027015 -0.010090 -65305.100000 0 0 1
24.487827 32.084988 -27.465608 48.820690 0.918889 2.168301 0.034858 -0.001594 -633867.000000 0 0 1
24.783127 31.524288 -28.867028 49.409406 0.904552 2.194742 0.035543 -0.004433 140036.000000 0 0 1
23.808627 31.792388 -29.868978 49.696705 0.928014 2.215580 0.048543 -0.023441 263952.000000 0 0 1
22.602327 31.071488 -29.793558 48.620558 0.941897 2.230366 0.039375 -0.022159 75918.800000 0 0 1
21.495627 31.575488 -30.794338 49.064903 0.973094 2.249295 0.050808 -0.020192 -171368.000000 0 0 1
21.059727 32.939988 -30.636458 49.670388 1.001954 2.235461 0.068648 -0.029430 -20672.800000 0 0 1
20.137127 33.435988 -31.547858 50.187016 1.028717 2.250556 0.082201 -0.035347 -1093420.000000 0 0 1
18.674327 33.068288 -31.306128 49.217028 1.056722 2.260208 0.077454 -0.033779 -1077060.000000 0 0 1
18.232927 31.744188 -31.461328 48.269538 1.049435 2.280731 0.089225 -0.036274 101857.000000 0 0 1
18.348927 31.234088 -32.781868 48.855934 1.039645 2.306340 0.103522 -0.039743 -671997.000000 0 0 1
17.621027 31.917388 -33.958138 49.823442 1.066356 2.320702 0.122318 -0.043684 -626929.000000 0 0 1
18.145827 33.230688 33.881603 50.808589 1.070986 0.840825 0.112861 -0.039777 33941.400000 0 0 1
17.766127 33.802988 32.616299 50.220516 1.086896 0.863920 0.095650 -0.039802 1017150.000000 0 0 1
16.243727 -33.936330 32.430982 49.671942 -1.124372 0.859385 0.114553 -0.040751 -208289.000000 0 0 1
15.424327 33.042288 32.313875 48.722574 1.134055 0.845681 0.121881 -0.039194 75885.000000 0 0 1
14.044927 33.393888 32.386977 48.593498 1.172672 0.841309 0.101646 -0.037918 528894.000000 0 0 1
13.453227 -34.059030 31.106128 48.047873 -1.194610 0.866630 0.102782 -0.037112 -1200910.000000 0 0 1
14.073227 -32.852930 30.678768 47.101567 -1.166074 0.861457 0.108294 -0.020853 70531.500000 0 0 1
13.284127 -32.223930 29.722258 45.806794 -1.179779 0.864709 0.102562 -0.017372 -153576.000000 0 0 1
13.816927 -30.768130 29.430528 44.763169 -1.148719 0.853338 0.081751 -0.012034 142614.000000 0 0 1
13.593727 -29.936930 30.536018 44.871568 -1.144556 0.822324 0.087782 -0.015083 180340.000000 0 0 1
14.175927 -28.682730 30.346188 44.097019 -1.111774 0.811834 0.082590 -0.021099 -646356.000000 0 0 1
13.752027 -27.551630 31.316448 43.919592 -1.107840 0.776971 0.096724 -0.025989 -399944.000000 0 0 1
12.421227 -27.151530 31.145448 43.145468 -1.141741 0.764295 0.099370 -0.024250 -236399.000000 0 0 1
12.270227 -26.193030 30.144548 41.777112 -1.132703 0.764748 0.086555 -0.020603 -467355.000000 0 0 1
12.320927 -24.722930 30.649578 41.260456 -1.108461 0.733506 0.098063 -0.023440 366562.000000 0 0 1
11.218527 -24.430630 31.516448 41.424601 -1.140319 0.706229 0.095609 -0.030389 408376.000000 0 0 1
11.399927 -23.231030 32.180640 41.294464 -1.114600 0.677254 0.095001 -0.037473 -110344.000000 0 0 1
10.452527 -22.816530 33.323908 41.717290 -1.141217 0.645493 0.094998 -0.030998 -730222.000000 0 0 1
10.512427 -23.559330 -33.489248 42.273904 -1.151098 2.485197 0.105280 -0.023410 -69265.100000 0 0 1
11.753827 -23.525630 -32.834568 42.068000 -1.107454 2.466280 0.108233 -0.026425 -105477.000000 0 0 1
12.050727 -22.177930 -32.076798 40.816683 -1.073061 2.474906 0.112287 -0.028043 -11809.800000 0 0 1
12.680827 -21.195630 -32.900138 41.139728 -1.031646 2.497620 0.089737 -0.026420 357465.000000 0 0 1
13.496927 -20.230030 -32.247128 40.389336 -0.982443 2.495441 0.095138 -0.029022 27175.200000 0 0 1
13.912727 -19.100530 -33.230618 40.775829 -0.941267 2.523454 0.078001 -0.028678 289871.000000 0 0 1
14.904027 -19.425130 33.788823 41.727093 -0.916343 0.627058 0.082362 -0.030094 1071230.000000 0 0 1
14.598727 -18.797730 32.531157 40.308234 -0.910474 0.631641 0.059910 -0.026547 83164.300000 0 0 1
15.317827 -17.428030 32.270044 39.745790 -0.849751 0.623378 0.076456 -0.034805 -367461.000000 0 0 1
14.825927 -16.400830 33.100058 39.804638 -0.835790 0.588881 0.066381 -0.026782 508352.000000 0 0 1
15.624127 -15.228230 33.010633 39.569107 -0.772567 0.584020 0.093247 -0.031763 -21558.800000 0 0 1
17.069027 -15.125630 33.564291 40.579527 -0.725107 0.596826 0.098139 -0.026456 401579.000000 0 0 1
18.030527 -15.757130 32.753288 40.572959 -0.718215 0.631286 0.097344 -0.030253 582425.000000 0 0 1
19.394927 -15.606530 33.166341 41.469666 -0.677582 0.643878 0.118897 -0.031327 1171420.000000 0 0 1
20.435227 -16.371330 32.277555 41.562718 -0.675431 0.681547 0.139758 -0.039533 61482.300000 0 0 1
20.630827 -15.634730 31.035428 40.413780 -0.648496 0.695175 0.123952 -0.034966 547159.000000 0 0 1
21.402927 -16.425730 30.117728 40.434731 -0.654577 0.730489 0.119556 -0.039482 -118446.000000 0 0 1
21.888427 -15.678930 28.823088 39.442395 -0.621590 0.751356 0.120187 -0.031074 -138210.000000 0 0 1
22.813127 -14.643330 29.042468 39.728213 -0.570647 0.750968 0.115680 -0.028645 228234.000000 0 0 1
23.185527 -14.048130 27.846148 38.862921 -0.544747 0.771992 0.110182 -0.032276 -77416.000000 0 0 1
23.893427 -12.700630 28.020518 38.953194 -0.488570 0.767947 0.092978 -0.024413 283769.000000 0 0 1
23.014027 -11.700230 28.537068 38.482530 -0.470342 0.735405 0.105174 -0.029948 475397.000000 0 0 1
23.714427 -10.497130 28.737658 38.709389 -0.416723 0.734158 0.081167 -0.022329 -96486.600000 0 0 1
22.770827 -9.309230 28.797198 37.874147 -0.388089 0.706961 0.090567 -0.024632 -164624.000000 0 0 1
21.830327 -9.365130 29.852418 38.150174 -0.405251 0.672129 0.110311 -0.039715 -391877.000000 0 0 1
20.928027 -8.328830 29.574568 37.175353 -0.378759 0.650894 0.099454 -0.030106 137474.000000 0 0 1
19.634027 -8.309430 30.443398 37.166412 -0.400358 0.610938 0.074109 -0.023458 314989.000000 0 0 1
19.781427 -7.732130 31.735568 38.186870 -0.372618 0.589786 0.092041 -0.026408 277574.000000 0 0 1
20.266627 -8.652730 32.755058 39.477839 -0.403517 0.592213 0.100207 -0.028135 -52185.100000 0 0 1
20.236727 -7.967730 -33.918308 40.292201 -0.375086 2.571421 0.104914 -0.032108 475417.000000 0 0 1
18.948827 -7.863230 -33.315528 39.125604 -0.393346 2.589639 0.093137 -0.034082 665173.000000 0 0 1
19.150927 -7.256030 -32.049238 38.033691 -0.362174 2.572989 0.096831 -0.038369 136648.000000 0 0 1
17.775227 -7.001530 -31.389238 36.745944 -0.375230 2.594851 0.092519 -0.036213 224484.000000 0 0 1
17.876627 -6.298130 -30.158978 35.620278 -0.338732 2.580511 0.088423 -0.034599 601543.000000 0 0 1
16.564627 -6.031330 -29.681328 34.521661 -0.349188 2.605652 0.081429 -0.027180 379217.000000 0 0 1
16.569727 -4.880130 -28.620268 33.428899 -0.286423 2.598575 0.079965 -0.027885 344538.000000 0 0 1
17.472727 -5.105330 -27.511618 32.988630 -0.284275 2.557065 0.080672 -0.022607 497550.000000 0 0 1
17.146227 -6.108930 -26.581038 32.215893 -0.342262 2.541159 0.088565 -0.024333 -633210.000000 0 0 1
15.879327 -5.997530 -25.737788 30.831107 -0.361131 2.558565 0.077426 -0.024487 -293252.000000 0 0 1
15.794527 -4.775830 -25.027818 29.977781 -0.293632 2.558709 0.078834 -0.014621 -1439610.000000 0 0 1
14.629027 -4.638430 -24.344918 28.778438 -0.307043 2.579127 0.056245 -0.020739 -1068730.000000 0 0 1
14.423027 -3.259230 -23.694618 27.929934 -0.222241 2.583675 0.065734 -0.018365 2677.640000 0 0 1
14.225027 -2.115430 -24.546118 28.448873 -0.147630 2.611609 0.052299 -0.019653 94441.100000 0 0 1
13.705027 -1.049430 -23.801318 27.485120 -0.076424 2.617885 0.050263 -0.020907 -101897.000000 0 0 1
14.120027 0.333570 -24.382018 28.177460 0.023619 2.616549 0.047906 -0.025462 -83574.000000 0 0 1
13.334927 0.817570 -25.478268 28.768574 0.061234 2.658642 0.049823 -0.025804 153066.000000 0 0 1
13.763727 2.121570 -25.926128 29.429668 0.152938 2.648667 0.056699 -0.013159 -50951.100000 0 0 1
13.002327 2.819570 -27.094898 30.185162 0.213545 2.685143 0.064922 -0.023281 681186.000000 0 0 1
11.800227 3.481570 -26.631088 29.335670 0.286903 2.708818 0.069527 -0.030989 724089.000000 0 0 1
11.109427 4.020570 -27.723368 30.135851 0.347242 2.738740 0.067499 -0.025045 -115367.000000 0 0 1
9.825427 4.795570 -27.391418 29.492818 0.454064 2.761820 0.063421 -0.022178 148716.000000 0 0 1
10.152727 6.046570 -26.796288 29.286173 0.537149 2.726257 0.060138 -0.035168 221493.000000 0 0 1
8.969027 6.806570 -26.745758 29.019104 0.649171 2.743135 0.077940 -0.036800 197716.000000 0 0 1
8.694927 5.066088 -31.850828 33.402728 0.527563 2.835571 0.084925 -0.036891 -74728.400000 0 0 1
8.613627 4.244288 -30.754238 32.218500 0.457824 2.838950 0.060596 -0.020508 171020.000000 0 0 1
8.251927 2.942488 -31.134468 32.343587 0.342526 2.867298 0.054047 -0.013108 -230511.000000 0 0 1
7.828127 2.118388 -29.916448 30.996145 0.264282 2.876876 0.054370 -0.009899 -145235.000000 0 0 1
8.879627 1.782288 -29.028518 30.408538 0.198084 2.839169 0.067826 -0.021796 127588.000000 0 0 1
8.515927 0.719788 -28.160798 29.429062 0.084322 2.846945 0.058332 -0.018333 -259617.000000 0 0 1
9.617827 0.182688 -27.237198 28.885999 0.018992 2.802090 0.058846 -0.022665 136293.000000 0 0 1
10.575627 -0.622912 -27.925428 29.867398 -0.058833 2.779000 0.074396 -0.017957 -377574.000000 0 0 1
11.388327 -1.235912 -27.031828 29.358835 -0.108101 2.740767 0.070178 -0.018798 -486046.000000 0 0 1
12.265527 -2.408812 -27.537488 30.241673 -0.193921 2.715483 0.061198 -0.018972 378189.000000 0 0 1
11.530027 -3.632212 -27.609348 30.139851 -0.305181 2.728893 0.059346 -0.016934 478388.000000 0 0 1
12.383427 -4.734012 -27.948738 30.933673 -0.365143 2.698676 0.066407 -0.018824 208952.000000 0 0 1
11.950827 -6.038112 -27.287798 30.395806 -0.467836 2.685428 0.050899 -0.020790 -3957.430000 0 0 1
11.819227 -6.016812 -25.897848 29.096300 -0.470877 2.668303 0.047588 -0.016301 47870.200000 0 0 1
11.309127 -7.199212 -25.306578 28.638225 -0.566886 2.654429 0.047070 -0.019653 -24.719100 0 0 1
11.012427 -7.054112 -23.787418 27.145447 -0.569710 2.638913 0.044791 -0.021235 -503100.000000 0 0 1
12.181627 -6.986512 -23.038018 26.980617 -0.520728 2.594178 0.038465 -0.016504 -286951.000000 0 0 1
11.924027 -7.126712 -21.650818 25.724121 -0.538709 2.571136 0.046702 -0.029175 -132604.000000 0 0 1
13.240627 -7.026512 -20.875618 25.699757 -0.487888 2.518862 0.057740 -0.020765 71330.900000 0 0 1
13.733227 -5.720612 -20.753718 25.535147 -0.394694 2.519655 0.049525 -0.021717 310547.000000 0 0 1
14.963327 -5.664612 -20.020618 25.628386 -0.361894 2.467365 0.059450 -0.019250 688505.000000 0 0 1
15.390227 -4.252812 -19.478718 25.186623 -0.269604 2.454945 0.061646 -0.019918 -171615.000000 0 0 1
16.000627 -3.448112 -20.425418 26.174554 -0.212253 2.466028 0.049686 -0.012538 -82459.800000 0 0 1
16.438327 -2.245012 -19.877118 25.891283 -0.135732 2.446063 0.053309 -0.009553 189366.000000 0 0 1
17.491227 -1.549412 -20.808618 27.227602 -0.088352 2.440670 0.036176 -0.007345 788039.000000 0 0 1
18.668427 -2.328112 -21.029418 28.216426 -0.124068 2.411766 0.058874 -0.018415 319974.000000 0 0 1
19.705027 -1.523912 -21.569518 29.254991 -0.077183 2.399852 0.062549 -0.013285 -145854.000000 0 0 1
21.032527 -2.266812 -21.746318 30.338227 -0.107362 2.369993 0.049428 -0.010685 -1238310.000000 0 0 1
21.776627 -2.269512 -20.559218 30.034208 -0.103843 2.324751 0.050996 -0.010516 215041.000000 0 0 1
23.142427 -2.634512 -20.592318 31.089486 -0.113351 2.294756 0.055094 -0.016637 602746.000000 0 0 1
24.107527 -1.736612 -21.404018 32.284992 -0.071912 2.295577 0.066305 -0.018160 -1089920.000000 0 0 1
23.901827 -1.893512 -22.807118 33.091500 -0.079055 2.331200 0.063342 -0.019647 -92296.700000 0 0 1
24.791327 -1.134912 -23.562818 34.221402 -0.045747 2.330271 0.064283 -0.015890 262919.000000 0 0 1
26.182927 -1.744412 -23.881318 35.481066 -0.066526 2.309151 0.072507 -0.023947 -342752.000000 0 0 1
27.161927 -1.824212 -22.862518 35.549863 -0.067060 2.269351 0.057232 -0.013665 161665.000000 0 0 1
28.280627 -2.615712 -23.179318 36.659468 -0.092229 2.255298 0.042552 -0.012940 844175.000000 0 0 1
29.353327 -2.017512 -24.198918 38.095614 -0.068624 2.259084 0.037260 -0.010259 -53393.100000 0 0 1
28.884527 -1.869012 -25.555508 38.612085 -0.064616 2.294084 0.048333 -0.016883 111448.000000 0 0 1
29.511427 -0.758512 -26.105018 39.407761 -0.025697 2.294859 0.040221 -0.023901 -789820.000000 0 0 1
29.111127 -0.462912 -27.560578 40.090616 -0.015900 2.328778 0.060937 -0.028377 877861.000000 0 0 1
27.728527 -0.079412 -27.673668 39.175368 -0.002864 2.355202 0.063039 -0.012376 814171.000000 0 0 1
27.358127 1.220388 -27.210198 38.605069 0.044578 2.352987 0.062226 -0.011783 -609339.000000 0 0 1
25.913627 1.674288 -27.487768 37.813975 0.064521 2.384624 0.059577 -0.020696 42402.100000 0 0 1
24.954927 1.052988 -26.626488 36.507904 0.042171 2.388146 0.060205 -0.015084 -120601.000000 0 0 1
23.693227 1.595988 -26.916758 35.894680 0.067259 2.418679 0.051444 -0.017842 -298081.000000 0 0 1
22.592627 1.145088 -25.927458 34.408881 0.050641 2.424182 0.061075 -0.021211 47994.100000 0 0 1
22.725127 1.888088 -24.743518 33.648744 0.082893 2.396976 0.067589 -0.026130 782980.000000 0 0 1
21.734827 1.522388 -23.755518 32.234221 0.069930 2.399367 0.064904 -0.021760 340889.000000 0 0 1
21.852927 2.170788 -22.380918 31.355514 0.099011 2.365676 0.060797 -0.014410 -197639.000000 0 0 1
21.587027 3.600888 -22.353818 31.283531 0.165286 2.366785 0.066575 -0.019952 379829.000000 0 0 1
21.836027 4.115888 -21.092318 30.637208 0.186305 2.330152 0.061990 -0.022276 -364418.000000 0 0 1
21.432427 5.522088 -20.743818 30.333948 0.252167 2.323820 0.072917 -0.020225 -240487.000000 0 0 1
22.304627 6.526188 -21.232218 31.478479 0.284648 2.311083 0.053192 -0.013031 70944.500000 0 0 1
22.098127 7.777388 -20.613818 31.204879 0.338409 2.292409 0.047385 -0.004490 -458500.000000 0 0 1
22.548827 8.018188 -19.108118 30.624518 0.341648 2.244581 0.052193 -0.026417 -40316.400000 0 0 1
23.955727 8.170788 -18.950418 31.618934 0.328705 2.213470 0.042777 -0.024090 476378.000000 0 0 1
24.366627 8.401188 -17.620418 31.221653 0.332019 2.170461 0.064384 -0.038073 -39132.900000 0 0 1
24.093227 9.824988 -17.137218 31.156031 0.387204 2.153214 0.065621 -0.047156 325475.000000 0 0 1
22.694127 10.109488 -17.015818 30.112510 0.419078 2.171320 0.061012 -0.053657 519950.000000 0 0 1
22.599627 11.507288 -16.947118 30.501896 0.470965 2.159891 0.060220 -0.045444 -276804.000000 0 0 1
21.152427 12.076388 -16.923318 29.659114 0.518764 2.178026 0.049937 -0.048709 789205.000000 0 0 1
20.310627 11.838288 -18.087518 29.661843 0.527723 2.226593 0.054687 -0.042039 780453.000000 0 0 1
19.765427 10.488388 -17.980318 28.704882 0.487861 2.247704 0.049667 -0.045083 -495121.000000 0 0 1
18.861227 10.030188 -19.159018 28.695270 0.488754 2.301873 0.069528 -0.019247 -272713.000000 0 0 1
19.565027 9.886988 -20.325218 29.894102 0.467910 2.318433 0.073240 -0.021012 208065.000000 0 0 1
18.774827 9.377088 -21.417218 29.985349 0.463208 2.366357 0.056080 -0.021289 51435.000000 0 0 1
19.552527 9.690688 -22.688818 31.480045 0.460140 2.375661 0.072351 -0.015882 -102809.000000 0 0 1
19.495627 11.081788 -22.967418 32.099654 0.516878 2.368141 0.080189 -0.019537 390967.000000 0 0 1
20.128727 11.431488 -24.224318 33.506151 0.516496 2.378904 0.088180 -0.018594 181491.000000 0 0 1
20.431827 12.908688 -24.285318 34.261793 0.563469 2.358615 0.102210 -0.018491 -31655.800000 0 0 1
21.144727 13.315688 -25.433818 35.655100 0.562001 2.365033 0.089424 -0.015293 86109.400000 0 0 1
21.140227 14.744688 -25.556728 36.296851 0.609026 2.351956 0.091027 -0.015355 143408.000000 0 0 1
19.971427 15.294888 -26.420748 36.480782 0.653561 2.380724 0.078708 -0.011016 1461800.000000 0 0 1
18.677327 15.172888 -25.776398 35.263037 0.682238 2.390546 0.078884 -0.020149 1209550.000000 0 0 1
17.592227 15.630688 -26.585698 35.504989 0.726425 2.417027 0.069330 -0.025663 1130330.000000 0 0 1
16.178327 15.169388 -26.088428 34.241126 0.753224 2.437043 0.071152 -0.030845 270828.000000 0 0 1
16.054327 13.764788 -26.194398 33.665373 0.708768 2.462402 0.072145 -0.021164 563932.000000 0 0 1
14.696727 13.373688 -26.004078 32.727075 0.738300 2.489102 0.045167 -0.021564 217921.000000 0 0 1
14.534527 11.869988 -25.878558 31.966371 0.684826 2.514191 0.043348 -0.022554 -317084.000000 0 0 1
13.200927 11.440088 -25.892938 31.234346 0.714060 2.548094 0.044929 -0.023174 -483481.000000 0 0 1
13.180027 10.056988 -25.654118 30.544883 0.651799 2.567863 0.053015 -0.028101 -631415.000000 0 0 1
11.793527 9.485988 -25.480128 29.636265 0.677381 2.605599 0.072959 -0.039543 -702705.000000 0 0 1
11.250427 9.727488 -24.207218 28.411011 0.712928 2.590660 0.081243 -0.039148 560622.000000 0 0 1
9.949627 9.153288 -23.993718 27.540448 0.743735 2.628473 0.075563 -0.035263 353548.000000 0 0 1
9.215027 9.879088 -22.908418 26.595276 0.820162 2.608760 0.084957 -0.035567 -490152.000000 0 0 1
8.765227 11.159688 -23.332618 27.308953 0.904999 2.595181 0.087437 -0.036670 -171786.000000 0 0 1
8.193427 11.900288 -22.247518 26.527366 0.967826 2.565620 0.082540 -0.025534 356892.000000 0 0 1
9.172227 12.755388 -21.370818 26.524358 0.947375 2.507662 0.077825 -0.022767 588494.000000 0 0 1
10.021627 11.965688 -20.503218 25.768055 0.873586 2.490932 0.098338 -0.030452 306533.000000 0 0 1
10.815127 12.794888 -19.622018 25.801158 0.869055 2.434893 0.111956 -0.027910 490508.000000 0 0 1
11.890327 11.881688 -18.948318 25.329689 0.785035 2.415942 0.114230 -0.028916 5512.100000 0 0 1
12.866927 11.158388 -19.654018 26.006689 0.714404 2.427563 0.082328 -0.028701 -59090.000000 0 0 1
12.457727 10.268188 -20.710918 26.259718 0.689349 2.479480 0.086153 -0.026793 -583082.000000 0 0 1
13.609327 9.533788 -21.460718 27.141653 0.611084 2.482737 0.084075 -0.023306 401663.000000 0 0 1
14.134527 8.461688 -20.654218 26.419344 0.539429 2.468318 0.095313 -0.035298 77725.900000 0 0 1
15.214027 7.790988 -21.246218 27.268442 0.473275 2.464106 0.079697 -0.038307 -379790.000000 0 0 1
15.865627 6.698888 -20.416218 26.709833 0.399519 2.440861 0.121276 -0.043406 -183007.000000 0 0 1
16.706727 7.151188 -19.393518 26.577486 0.404445 2.388675 0.100574 -0.035025 -151100.000000 0 0 1
17.074227 6.037888 -18.650418 25.996604 0.339901 2.370884 0.083220 -0.048070 -175742.000000 0 0 1
17.875527 6.321688 -17.359118 25.706754 0.339923 2.312133 0.103413 -0.035776 1072210.000000 0 0 1
19.258127 6.652988 -17.695018 26.986133 0.332628 2.285916 0.090026 -0.044381 1218800.000000 0 0 1
20.035427 6.988088 -16.597018 26.939056 0.335593 2.234572 0.076192 -0.064689 -307308.000000 0 0 1
20.804727 5.881288 -15.850318 26.807813 0.275501 2.203413 0.068377 -0.060563 -258379.000000 0 0 1
21.957527 5.460988 -16.581018 28.051480 0.243761 2.203209 0.065091 -0.059090 346266.000000 0 0 1
22.545527 4.416388 -15.876318 27.926023 0.193438 2.175494 0.098928 -0.058780 -1422120.000000 0 0 1
23.825027 3.899588 -16.420818 29.197294 0.162238 2.168093 0.054774 -0.020131 -1468410.000000 0 0 1
24.370227 2.984888 -15.554018 29.064498 0.121874 2.135488 0.052220 -0.016640 -378610.000000 0 0 1
25.685827 2.710988 -15.960018 30.361709 0.105155 2.124290 0.052824 -0.019476 -259667.000000 0 0 1
26.326427 1.496488 -15.256918 30.464632 0.056782 2.095328 0.085153 -0.032426 -77305.400000 0 0 1
25.731327 0.264588 -15.555518 30.069010 0.010282 2.114521 0.082351 -0.021528 217140.000000 0 0 1
26.720827 -0.724912 -15.347318 30.823178 -0.027122 2.091989 0.083033 -0.017220 347054.000000 0 0 1
26.198927 -2.161112 -15.736718 30.638187 -0.082302 2.110207 0.060048 -0.015481 -357951.000000 0 0 1
25.379327 -2.694012 -14.774718 29.490003 -0.105754 2.095559 0.059100 -0.012674 -46339.400000 0 0 1
25.156627 -4.074312 -14.947118 29.544412 -0.160564 2.101245 0.050385 -0.007029 -1435620.000000 0 0 1
24.629627 -4.790012 -13.686818 28.581318 -0.192084 2.070167 0.051403 -0.008018 -107902.000000 0 0 1
23.250827 -4.741112 -13.411418 27.257022 -0.201154 2.085222 0.069545 0.001784 256812.000000 0 0 1
22.479027 -5.414612 -14.420618 27.250301 -0.236371 2.128443 0.078063 0.001481 -1355610.000000 0 0 1
20.984827 -5.458312 -14.100018 25.864390 -0.254469 2.147366 0.085128 -0.000289 -434165.000000 0 0 1
20.485927 -6.436212 -13.158818 25.184371 -0.304412 2.120576 0.092302 0.003761 586777.000000 0 0 1
20.812127 -6.116212 -11.818518 24.702835 -0.285830 2.069660 0.110899 -0.005567 -638170.000000 0 1 0
20.580227 -7.278412 -10.858818 24.381037 -0.339932 2.032395 0.113138 -0.006905 -702677.000000 0 1 0
19.293527 -7.769012 -10.659618 23.371461 -0.382810 2.044399 0.118957 -0.006500 -82087.900000 0 1 0
18.963227 -8.801512 -11.552318 23.885700 -0.434547 2.075616 0.103466 -0.012895 -279667.000000 0 1 0
17.498727 -9.273312 -11.396618 22.849129 -0.487313 2.092983 0.119171 -0.026326 124722.000000 0 1 0
16.544527 -8.352612 -11.894418 22.021914 -0.467525 2.141373 0.102653 -0.018204 -657331.000000 0 1 0
15.320527 -8.969512 -12.049218 21.455870 -0.529658 2.167092 0.099096 -0.018451 -655077.000000 0 1 0
14.125127 -8.058012 -12.406818 20.454337 -0.518426 2.222525 0.068902 -0.013859 -260281.000000 0 1 0
14.212527 -7.291212 -13.606918 20.983468 -0.474004 2.276355 0.055200 -0.015824 201514.000000 0 1 0
15.223227 -6.299212 -13.696118 21.424527 -0.392337 2.264349 0.056668 -0.011726 -177205.000000 0 1 0
14.952327 -5.205712 -14.733318 21.627348 -0.335029 2.320245 0.033181 -0.009283 -244618.000000 0 1 0
13.992727 -4.230112 -14.379718 20.505281 -0.293573 2.347972 0.044927 -0.011347 166335.000000 0 1 0
13.730527 -3.197312 -15.340118 20.834332 -0.228784 2.398368 0.034178 -0.012422 259136.000000 0 1 0
14.847527 -2.079212 -15.478518 21.548938 -0.139133 2.372147 0.049242 -0.011646 -188282.000000 0 1 0
15.998827 -2.543012 -16.091318 22.833307 -0.157631 2.352839 0.051861 -0.014300 -635357.000000 0 1 0
17.105427 -1.684612 -15.939418 23.441387 -0.098168 2.318517 0.065846 -0.009817 51584.500000 0 1 0
18.160627 -2.148812 -14.925118 23.604765 -0.117775 2.255305 0.073403 -0.009945 -504848.000000 0 1 0
17.759127 -1.981112 -13.578518 22.442985 -0.111095 2.220591 0.063533 -0.004220 247996.000000 0 1 0
18.794527 -2.388912 -12.712118 22.815326 -0.126429 2.161776 0.076179 -0.002529 -265101.000000 0 1 0
18.420327 -2.541412 -11.252718 21.734555 -0.137102 2.114997 0.079515 -0.003483 -264097.000000 0 1 0
18.311327 -1.359212 -10.563218 21.183336 -0.074092 2.092845 0.076886 -0.003609 471184.000000 0 1 0
17.810927 -1.777712 -9.320618 20.180766 -0.099481 2.050884 0.074455 -0.002886 -817216.000000 0 1 0
17.654427 -0.549412 -8.418018 19.566392 -0.031110 2.015542 0.058774 -0.002317 -13885.400000 0 1 0
18.799127 0.029488 -7.787318 20.348228 0.001569 1.963516 0.063347 -0.004845 604261.000000 0 1 0
19.783627 0.602788 -8.614218 21.586107 0.030460 1.981291 0.071278 -0.004213 -427068.000000 0 1 0
19.464627 1.924588 -9.326318 21.669240 0.098556 2.015726 0.067787 -0.006184 -546519.000000 0 1 0
19.445727 3.067988 -8.480918 21.435364 0.156482 1.977573 0.070826 -0.007097 468312.000000 0 1 0
18.670027 4.109688 -9.042118 21.147561 0.216667 2.012602 0.050419 -0.011148 -459091.000000 0 1 0
18.796827 5.560788 -8.583818 21.399183 0.287633 1.983545 0.077097 -0.008722 -68933.000000 0 1 0
17.947127 6.492088 -9.303418 21.232055 0.347090 2.024367 0.039901 -0.012355 287626.000000 0 1 0
18.542627 7.721888 -9.516118 22.226405 0.394598 2.013235 0.070528 0.004629 -102446.000000 0 1 0
-27.737983 -29.294682 5.865382 40.767349 0.812686 1.426421 0.102546 -0.014805 17531.700000 0 0 1
-27.493503 -28.365182 6.858482 40.093828 0.801002 1.398890 0.070080 -0.012367 -989713.000000 0 0 1
-26.278153 -27.750512 6.631582 38.789304 0.812643 1.398988 0.101195 -0.016870 -934773.000000 0 0 1
-26.065363 -26.427142 7.478282 37.864517 0.792290 1.371988 0.079511 -0.011772 454134.000000 0 0 1
-27.004813 -25.353062 7.124782 37.720024 0.753861 1.380769 0.073525 -0.024190 1227830.000000 0 0 1
-28.319763 -25.486212 7.669282 38.863528 0.732784 1.372154 0.055401 -0.018689 316543.000000 0 0 1
-28.585923 -25.315382 9.180482 39.272189 0.724796 1.334848 0.049858 -0.018328 -626768.000000 0 0 1
-27.770453 -26.068522 10.031482 39.387771 0.753797 1.313274 0.056584 -0.023299 -226071.000000 0 0 1
-28.265753 -26.215952 11.328382 40.181602 0.747792 1.284992 0.043880 -0.020110 -108338.000000 0 0 1
-27.329983 -27.212962 12.074682 40.413750 0.783253 1.267386 0.044123 -0.019351 658935.000000 0 0 1
-26.063433 -26.673722 12.422782 39.307957 0.796970 1.249247 0.047442 -0.013000 11984.700000 0 0 1
-26.028673 -25.894752 13.609782 39.156815 0.782819 1.215817 0.050335 -0.014330 -1598710.000000 0 0 1
-24.673773 -25.405912 14.036882 38.095793 0.800017 1.193441 0.062254 -0.019833 -915401.000000 0 0 1
-23.925973 -26.362922 14.708182 38.519949 0.833819 1.179018 0.068082 -0.021341 -1072020.000000 0 0 1
-22.678073 -26.007342 15.166882 37.692322 0.853675 1.156674 0.062712 -0.025099 -604624.000000 0 0 1
-21.879473 -27.213862 15.796682 38.325458 0.893632 1.145960 0.060838 -0.026121 -334018.000000 0 0 1
-22.431873 -27.848992 16.907082 39.555084 0.892721 1.129147 0.069261 -0.020526 -121302.000000 0 0 1
-21.846473 -29.113232 17.171582 40.245644 0.927041 1.129989 0.066553 -0.012852 62621.400000 0 0 1
-22.718873 -30.011312 18.114582 41.772767 0.922824 1.122262 0.068216 -0.018698 23360.600000 0 0 1
-23.728473 -30.711312 17.435482 42.546694 0.912969 1.148565 0.069106 -0.017040 20923.100000 0 0 1
-24.333973 -31.626462 18.324882 43.911008 0.914983 1.140304 0.078387 -0.015856 409475.000000 0 0 1
-25.388553 -32.574812 17.657182 44.916289 0.908748 1.166781 0.077460 -0.021363 215360.000000 0 0 1
-24.719173 -33.479232 16.867482 44.904437 0.934797 1.185719 0.071310 -0.023922 438961.000000 0 0 1
-25.625733 33.691787 16.263982 45.346795 -0.920550 1.203967 0.067254 -0.023635 -294556.000000 0 0 1
-25.212223 33.043872 14.936482 44.166188 -0.919032 1.225805 0.076488 -0.031976 267860.000000 0 0 1
-24.033773 32.247835 14.986882 42.920295 -0.930321 1.214101 0.061788 -0.028103 1087180.000000 0 0 1
-22.813473 32.999776 14.858682 42.781073 -0.965918 1.216086 0.056165 -0.027858 -550808.000000 0 0 1
-21.556673 32.177711 14.913082 41.502955 -0.980541 1.203251 0.040706 -0.036588 -1087350.000000 0 0 1
-21.493673 31.338166 13.783282 40.423230 -0.969622 1.222843 0.023197 -0.021032 331044.000000 0 0 1
-20.363273 30.469826 13.766482 39.148298 -0.981657 1.211464 0.022974 -0.024669 283561.000000 0 0 1
-20.300473 29.705886 12.433282 38.067511 -0.971311 1.238080 0.018032 -0.022889 -31266.500000 0 0 1
-19.979473 30.576876 11.389982 38.260376 -0.992022 1.268517 0.011634 -0.014697 -2377.420000 0 0 1
-20.281573 29.962996 10.119182 37.570217 -0.975751 1.298088 0.026718 -0.014380 31451.000000 0 0 1
-19.958673 30.831436 8.892982 37.789036 -0.996288 1.333236 0.012988 -0.006649 -491436.000000 0 0 1
-18.591573 31.006276 8.644282 37.172024 -1.030666 1.336100 0.019358 -0.012964 -600775.000000 0 0 1
-18.262473 31.322206 7.288182 36.982646 -1.042932 1.372428 0.035189 -0.013113 105928.000000 0 0 1
-17.700573 30.214086 6.385682 35.594638 -1.040855 1.390420 0.033434 -0.013081 -114626.000000 0 0 1
-18.574973 29.115836 6.175382 35.084140 -1.002926 1.393858 0.028797 -0.008298 351823.000000 0 0 1
-18.188373 28.003486 6.979682 34.113459 -0.994770 1.364739 0.015092 -0.006378 -227874.000000 0 0 1
-19.254673 26.968056 6.715982 33.810101 -0.950749 1.370828 0.022193 0.001212 -146542.000000 0 0 1
-18.969773 26.350656 5.446582 32.922251 -0.946841 1.404595 0.035559 -0.007454 -21835.400000 0 0 1
-19.933773 25.405496 5.181382 32.705371 -0.905501 1.411700 0.038161 -0.006217 -786496.000000 0 0 1
-19.640073 24.635206 3.864182 31.742050 -0.897743 1.448757 0.052957 -0.019030 -1949930.000000 0 0 1
-19.632673 25.355726 2.665382 32.178548 -0.911930 1.487870 0.050685 -0.020912 190661.000000 0 0 1
-18.503973 26.167966 2.322182 32.133347 -0.955306 1.498466 0.041181 -0.016785 165208.000000 0 0 1
-17.110673 25.492806 2.493082 30.803795 -0.979665 1.489773 0.039983 -0.019536 -935303.000000 0 0 1
-16.786673 24.360886 1.665882 29.631408 -0.967435 1.514547 0.067823 -0.030394 125487.000000 0 0 1
-16.540973 24.592106 0.285982 29.638780 -0.978688 1.561147 0.064771 -0.026241 -186595.000000 0 0 1
-16.238773 23.302686 -0.501018 28.407111 -0.962179 1.588434 0.076204 -0.031474 795767.000000 0 0 1
-17.371873 22.397906 -0.558718 28.350667 -0.911110 1.590505 0.075384 -0.036581 888299.000000 0 0 1
-17.130773 21.342106 -1.438118 27.404691 -0.894426 1.623298 0.084285 -0.039084 -164322.000000 0 0 1
-16.127673 20.223606 -1.073918 25.889175 -0.897601 1.612290 0.095471 -0.041084 -250498.000000 0 0 1
-16.569073 19.234106 -0.237018 25.387816 -0.859697 1.580132 0.115020 -0.047803 -68182.600000 0 0 1
-15.565373 18.298506 0.084982 24.023393 -0.865933 1.567259 0.140702 -0.056601 62218.800000 0 1 0
-16.142273 17.187906 1.066582 23.603701 -0.816760 1.525594 0.121467 -0.051108 186850.000000 0 1 0
-16.959473 16.304306 0.380582 23.528684 -0.765705 1.554620 0.122649 -0.043726 80819.800000 0 1 0
-17.662273 15.364606 1.162182 23.438807 -0.715940 1.521192 0.150822 -0.055755 -150640.000000 0 1 0
-18.171473 14.228406 0.342682 23.081755 -0.664294 1.555949 0.150677 -0.044685 -86486.900000 0 1 0
-19.280473 14.588406 -0.451118 24.181847 -0.647738 1.589453 0.165931 -0.044496 80370.900000 0 1 0
-20.122273 13.532806 -0.801518 24.262835 -0.592050 1.603837 0.168237 -0.038582 -1040250.000000 0 1 0
-21.352173 13.975206 -1.571318 25.567376 -0.579539 1.632293 0.182354 -0.024117 -1290920.000000 0 0 1
-22.134573 12.885706 -2.002518 25.690286 -0.527193 1.648824 0.158837 -0.027895 504624.000000 0 0 1
-23.211073 12.561806 -1.151318 26.417388 -0.496061 1.614392 0.153059 -0.025563 182108.000000 0 0 1
-24.500973 13.430806 -0.958018 27.957146 -0.501441 1.605070 0.127276 -0.020456 32312.700000 0 0 1
-24.177373 14.724106 -0.489518 28.312264 -0.547013 1.588087 0.119196 -0.025081 108306.000000 0 0 1
-25.339723 15.466806 -0.209418 29.687834 -0.548015 1.577850 0.111458 -0.014781 -349444.000000 0 0 1
-25.161253 16.640906 0.756482 30.175829 -0.584327 1.545725 0.095732 -0.023134 -198322.000000 0 0 1
-24.921673 16.190706 2.094582 29.792885 -0.576139 1.500434 0.108964 -0.025691 -44944.500000 0 0 1
-24.874373 17.226006 3.068782 30.411957 -0.605688 1.469717 0.092180 -0.032247 -5364.630000 0 0 1
-26.140263 18.096706 3.342882 31.968406 -0.605534 1.466037 0.111652 -0.038198 -343426.000000 0 0 1
-27.088193 17.242106 4.051382 32.364705 -0.566839 1.445288 0.121746 -0.037734 986684.000000 0 0 1
-28.341473 17.922306 4.222482 33.797596 -0.563882 1.445535 0.123396 -0.039245 607477.000000 0 0 1
-29.254043 18.109906 2.974582 34.534271 -0.554314 1.484555 0.078490 -0.040003 -1238530.000000 0 0 1
-30.406643 18.851406 3.250982 35.923646 -0.554979 1.480175 0.077382 -0.040173 -247776.000000 0 0 1
-30.914523 19.336306 2.036082 36.520489 -0.558942 1.515016 0.075373 -0.042850 675227.000000 0 0 1
-32.346393 19.974706 2.122082 38.075993 -0.553206 1.515035 0.082506 -0.047772 411696.000000 0 0 1
-33.444963 19.173306 2.500382 38.632022 -0.520540 1.506028 0.088319 -0.035110 49127.200000 0 0 1
-34.604294 19.938306 2.719582 40.029856 -0.522721 1.502805 0.103438 -0.034458 -161540.000000 0 0 1
-34.841751 20.596906 4.109382 40.682517 -0.533891 1.469613 0.098315 -0.042948 -901355.000000 0 0 1
-33.783033 21.457006 4.429282 40.265556 -0.565859 1.460572 0.101268 -0.047129 -4085.300000 0 0 1
-33.933713 22.117206 5.682882 40.901868 -0.577623 1.431406 0.088306 -0.044039 30671.500000 0 0 1
-32.722673 22.995406 6.097082 40.456599 -0.612560 1.419513 0.099757 -0.045096 68263.700000 0 0 1
-32.815473 24.232256 5.462182 41.156931 -0.636062 1.437688 0.087972 -0.035916 595683.000000 0 0 1
-31.766943 25.091376 5.897482 40.908387 -0.668526 1.426129 0.097005 -0.035705 153774.000000 0 0 1
-32.237883 26.556396 5.893982 42.181303 -0.689064 1.430608 0.090598 -0.022865 -463542.000000 0 0 1
-33.127813 26.907586 6.900282 43.232905 -0.682157 1.410504 0.105003 -0.013675 -156910.000000 0 0 1
-33.667243 28.212596 6.534682 44.408737 -0.697476 1.423111 0.097204 -0.010338 143374.000000 0 0 1
-34.788081 28.661866 7.501682 45.694511 -0.689145 1.405879 0.089281 -0.010975 -675094.000000 0 0 1
-34.313258 28.627426 8.807382 45.546670 -0.695306 1.376200 0.109549 -0.020537 -124679.000000 0 0 1
-35.122909 29.110396 9.847882 46.669205 -0.692066 1.358184 0.102686 -0.018112 -162206.000000 0 0 1
-36.450883 28.366316 10.110182 47.281397 -0.661310 1.355302 0.086846 -0.014885 -146923.000000 0 0 1
-36.135173 26.992326 10.439082 46.295905 -0.641567 1.343354 0.099049 -0.024012 98479.400000 0 0 1
-36.957013 26.539686 11.504582 46.931132 -0.622786 1.323135 0.091018 -0.018403 -86443.300000 0 0 1
-36.472253 25.201206 12.091582 45.951413 -0.604639 1.304523 0.116564 -0.019643 277186.000000 0 0 1
-35.207979 25.270536 12.741382 45.172387 -0.622540 1.284854 0.117618 -0.023410 431491.000000 0 0 1
-35.067808 24.309086 13.756382 44.832141 -0.606149 1.258923 0.123654 -0.016676 555305.000000 0 0 1
-33.815473 24.666066 14.650182 44.345562 -0.630207 1.234107 0.115175 -0.018573 713203.000000 0 0 1
-34.017513 25.818336 15.472482 45.422190 -0.649218 1.223202 0.120806 -0.012670 555999.000000 0 0 1
-32.771693 26.381996 15.869182 44.964703 -0.677797 1.210101 0.130025 -0.010171 422121.000000 0 0 1
-33.077423 27.550916 16.810682 46.214369 -0.694496 1.198501 0.134789 -0.005931 -16869.300000 0 0 1
-33.149773 28.814246 16.203382 46.815786 -0.715544 1.217375 0.141722 -0.006090 195790.000000 0 0 1
-33.417153 29.812336 17.176182 47.963556 -0.728448 1.204555 0.129984 -0.009246 -59875.200000 0 0 1
-33.138123 31.229966 16.606882 48.468902 -0.755762 1.221082 0.109952 -0.006516 502366.000000 0 0 1
-31.741123 31.440456 16.434482 47.603502 -0.780639 1.218305 0.109145 -0.004338 127001.000000 0 0 1
-31.519773 32.478366 15.561482 47.859169 -0.800376 1.239624 0.101054 -0.004496 -794546.000000 0 0 1
-30.043383 32.793607 15.292282 47.030622 -0.829138 1.239620 0.110625 -0.014264 -10688.900000 0 0 1
-29.431033 32.055306 14.224082 45.782670 -0.828053 1.254881 0.112246 -0.014094 33608.900000 0 0 1
-29.078443 30.689866 14.447082 44.678204 -0.812353 1.241520 0.120902 -0.019125 -320037.000000 0 0 1
-30.006103 29.494066 14.065982 44.363476 -0.776793 1.248166 0.140195 -0.012205 39107.500000 0 0 1
-30.100463 29.223586 12.679782 43.827306 -0.770618 1.277288 0.151715 -0.021386 435191.000000 0 0 1
-31.094113 28.227956 12.356282 43.776010 -0.737121 1.284646 0.138321 -0.021868 667683.000000 0 0 1
-31.317923 28.093336 10.853382 43.449324 -0.731176 1.318329 0.141846 -0.017605 681288.000000 0 0 1
-30.127583 27.571376 10.238582 42.103214 -0.741125 1.325155 0.126942 -0.010064 477797.000000 0 0 1
-30.155393 27.558916 8.862882 41.801821 -0.740440 1.357153 0.121298 -0.014251 -663126.000000 0 0 1
-28.997083 26.843246 8.231582 40.362726 -0.746846 1.365415 0.128434 -0.020532 -580476.000000 0 0 1
-28.954353 27.035136 6.870982 40.205268 -0.751133 1.399056 0.115170 -0.023433 283059.000000 0 0 1
-27.843203 26.285626 6.354282 38.814366 -0.756631 1.406347 0.110617 -0.019192 567612.000000 0 0 1
-27.327133 26.764566 4.954982 38.570274 -0.774998 1.441974 0.104934 -0.019710 -192010.000000 0 0 1
-26.505713 27.909796 4.908582 38.802110 -0.811195 1.443954 0.082656 -0.014408 132201.000000 0 0 1
-26.432003 28.339176 3.560782 38.915792 -0.820205 1.479169 0.067783 -0.014707 650.562000 0 0 1
-25.325583 29.424506 3.388882 38.970133 -0.860125 1.483725 0.047780 -0.007607 575155.000000 0 0 1
-24.014273 28.863666 3.527282 37.712574 -0.876852 1.477129 0.038780 -0.007997 744772.000000 0 0 1
-23.101773 29.801896 2.894282 37.818273 -0.911375 1.494190 0.028348 0.004140 609999.000000 0 0 1
-21.608473 29.469346 3.090682 36.673162 -0.938100 1.486420 0.021303 -0.005655 279749.000000 0 0 1
-20.659873 30.422986 2.677082 36.872147 -0.974244 1.498128 0.023457 -0.000812 -263642.000000 0 0 1
-19.341573 29.969066 2.855682 35.782626 -0.997673 1.490905 0.022797 -0.001378 -101800.000000 0 0 1
-18.260073 31.007536 2.542082 36.074364 -1.038585 1.500270 0.027273 -0.007550 -229793.000000 0 0 1
-18.245673 32.177194 3.364482 37.142915 -1.054967 1.480090 0.033718 -0.013686 357828.000000 0 0 1
-17.246573 33.143178 3.002282 37.482372 -1.090989 1.490612 0.065141 -0.022050 9000.110000 0 0 1
-17.236273 -33.706982 3.872882 38.055866 1.098105 1.468852 0.066820 -0.029440 -115151.000000 0 0 1
-18.198373 -32.686152 3.692182 37.592519 1.062777 1.472422 0.067498 -0.027369 -73397.900000 0 0 1
-18.056473 -31.644262 4.663682 36.730715 1.052269 1.443483 0.060710 -0.035634 -100701.000000 0 0 1
-19.079173 -30.485392 4.608182 36.257541 1.011589 1.443356 0.068971 -0.022051 27055.300000 0 0 1
-19.105073 -29.759642 3.390282 35.526527 1.000080 1.475221 0.087292 -0.030136 585369.000000 0 0 1
-20.366673 -29.093982 3.302782 35.667485 0.960050 1.478064 0.094194 -0.037359 453575.000000 0 0 1
-20.353373 -28.073752 2.126882 34.740739 0.943490 1.509536 0.097943 -0.034028 -61884.500000 0 0 1
-19.536173 -26.953492 2.400082 33.375338 0.943612 1.498822 0.115554 -0.028346 -69877.100000 0 0 1
-19.728873 -25.932752 1.452582 32.616653 0.920438 1.526247 0.103279 -0.024005 373994.000000 0 0 1
-18.684373 -24.753112 1.550582 31.051999 0.924212 1.520841 0.090625 -0.013827 1346350.000000 0 0 1
-17.365173 -25.215632 1.221382 30.640971 0.967717 1.530925 0.093723 -0.020588 93609.900000 0 0 1
-16.401373 -24.184712 1.312082 29.251100 0.974871 1.525925 0.094659 -0.016720 664010.000000 0 0 1
-15.079373 -24.610012 0.575882 28.868180 1.021067 1.550846 0.102961 -0.017814 346631.000000 0 0 1
-15.138773 -24.734112 -0.830918 29.011190 1.021556 1.599442 0.096365 -0.011659 49942.700000 0 0 1
-15.262273 -23.481512 -1.503118 28.045993 0.994442 1.624417 0.101580 -0.012417 -266753.000000 0 0 1
-15.376273 -23.642912 -3.009418 28.363245 0.994172 1.677099 0.074577 0.004494 433920.000000 0 0 1
-14.206773 -24.126812 -3.679018 28.239522 1.038625 1.701447 0.084806 0.000463 355298.000000 0 0 1
-14.491273 -24.354912 -5.113118 28.797616 1.034058 1.749296 0.074628 -0.000596 345360.000000 0 0 1
-13.257973 -24.709712 -5.992518 28.674971 1.078339 1.781329 0.095917 -0.011839 311693.000000 0 0 1
-12.772773 -26.020992 -5.836318 29.568537 1.114484 1.769484 0.090873 -0.010558 -235683.000000 0 0 1
-11.882573 -26.357252 -6.872318 29.717487 1.147255 1.804164 0.082755 -0.017723 -86463.400000 0 0 1
23.438427 12.159988 28.288048 38.696755 0.478579 0.750983 0.030259 0.003774 -176421.000000 0 0 1
24.473527 11.236788 28.642088 39.313969 0.430429 0.754597 0.028618 0.001611 640276.000000 0 0 1
24.206527 10.560188 29.886788 39.883501 0.411364 0.723713 0.040411 0.003217 -72908.200000 0 0 1
24.335727 11.463588 31.142428 41.152063 0.440229 0.712447 0.050555 -0.021847 335087.000000 0 0 1
23.199027 12.283888 31.430788 40.950986 0.486968 0.695830 0.048803 -0.004744 281054.000000 0 0 1
23.325027 13.021688 32.601660 42.148422 0.509171 0.686457 0.056993 -0.011454 -870438.000000 0 0 1
22.144727 13.917088 33.010840 42.116384 0.561084 0.670034 0.048043 -0.008258 -56198.300000 0 0 1
20.977527 13.193888 33.365842 41.562180 0.561437 0.638831 0.044927 -0.003314 60441.200000 0 0 1
20.137027 13.924488 -33.814608 41.747083 0.604990 2.514927 0.049916 0.002706 -127728.000000 0 0 1
19.030127 13.022688 -33.215868 40.435505 0.600124 2.534751 0.052389 -0.001103 -259103.000000 0 0 1
17.917427 12.842988 33.996976 40.518773 0.621904 0.575275 0.034792 0.009492 -44538.000000 0 0 1
16.871927 12.207388 -33.293188 39.269818 0.626346 2.582631 0.036006 0.000682 698287.000000 0 0 1
15.521327 12.062188 -34.016232 39.287556 0.660643 2.617597 0.039969 0.004279 483843.000000 0 0 1
15.762727 10.949588 33.101837 38.263412 0.607127 0.525438 0.029885 0.007358 500717.000000 0 0 1
14.502927 10.561388 32.563378 37.178642 0.629419 0.503576 0.039559 0.006962 549238.000000 0 0 1
14.703327 9.570088 31.412308 35.979265 0.576993 0.509339 0.042568 0.013202 16838.200000 0 0 1
15.154127 8.366788 31.936668 36.326320 0.504464 0.496699 0.032111 0.007786 -22276.900000 0 0 1
15.712227 7.519488 30.947968 35.513287 0.446362 0.512650 0.024433 -0.007563 91620.800000 0 0 1
16.036927 6.088288 31.445988 35.820392 0.362834 0.499380 0.043449 -0.020096 344344.000000 0 0 1
14.903027 5.220788 31.566818 35.296188 0.336957 0.463841 0.039728 -0.016342 575055.000000 0 0 1
15.381227 3.912588 31.852418 35.587456 0.249091 0.462261 0.051624 -0.024010 441243.000000 0 0 1
14.180527 2.987888 32.159742 35.274124 0.207666 0.423371 0.039630 -0.023287 230936.000000 0 0 1
14.587627 1.641088 32.464420 35.629070 0.112028 0.424662 0.059458 -0.030227 -122897.000000 0 0 1
13.507927 0.871388 32.927508 35.601183 0.064420 0.390026 0.070274 -0.033809 -208993.000000 0 0 1
13.961827 -0.483212 33.403695 36.207361 -0.034596 0.396116 0.056619 -0.032672 -37143.300000 0 0 1
14.122227 -1.478212 32.370238 35.347627 -0.104293 0.413380 0.045489 -0.027173 8298.330000 0 0 1
14.681627 -2.667612 32.873963 36.102130 -0.179736 0.426105 0.077883 -0.034672 -324512.000000 0 0 1
14.939827 -3.831012 31.863798 35.400236 -0.251021 0.450794 0.086648 -0.033874 -974774.000000 0 0 1
15.308927 -5.115412 32.365821 36.167348 -0.322481 0.462610 0.091976 -0.034140 398094.000000 0 0 1
16.587327 -5.208612 32.981448 37.283307 -0.304261 0.485124 0.084516 -0.030769 1080890.000000 0 0 1
17.893727 -4.789812 32.199345 37.147350 -0.261549 0.522046 0.086859 -0.034370 -79051.700000 0 0 1
18.009027 -3.384412 32.148360 37.004005 -0.185762 0.518062 0.088214 -0.035166 177546.000000 0 0 1
19.031527 -2.988412 31.235918 36.698940 -0.155752 0.552644 0.115307 -0.040771 242591.000000 0 0 1
19.139227 -1.467512 31.178588 36.613768 -0.076526 0.551855 0.108692 -0.038964 -379898.000000 0 0 1
19.429827 -0.914412 32.463479 37.844839 -0.047028 0.539813 0.092587 -0.035056 156908.000000 0 0 1
19.401827 0.534688 32.566852 37.911959 0.027552 0.537458 0.077227 -0.023873 -167408.000000 0 0 1
20.452027 1.368688 31.755208 37.796190 0.066822 0.573201 0.082146 -0.016513 -202325.000000 0 0 1
20.379627 1.428088 30.314338 36.555817 0.069960 0.593011 0.082995 -0.022570 392823.000000 0 0 1
21.257627 2.416788 29.714478 36.615267 0.113204 0.624026 0.075638 -0.014352 286474.000000 0 0 1
20.863327 3.907188 29.805848 36.591435 0.185131 0.618829 0.066032 -0.005522 -314089.000000 0 0 1
20.905227 4.365188 31.130828 37.751978 0.205851 0.601276 0.066466 -0.010955 438220.000000 0 0 1
20.435227 5.709088 31.298468 37.812515 0.272429 0.595750 0.058669 -0.011000 -221989.000000 0 0 1
20.012627 6.098188 32.739768 38.853386 0.295779 0.568612 0.060494 -0.016303 -57401.300000 0 0 1
18.795427 5.496888 33.116217 38.472948 0.284524 0.534023 0.063812 -0.022155 -5845.580000 0 0 1
18.438927 5.899888 -33.602708 38.780726 0.309675 2.618903 0.063224 -0.019862 -442712.000000 0 0 1
17.346027 5.066388 -32.962208 37.590692 0.284173 2.640112 0.073627 -0.018201 -461527.000000 0 0 1
17.725627 3.713288 -33.020448 37.660807 0.206501 2.639933 0.071441 -0.020226 142710.000000 0 0 1
16.664827 2.930388 -32.542168 36.678282 0.174063 2.662108 0.065336 -0.024052 -75534.100000 0 0 1
16.847427 1.442688 -32.815028 36.915352 0.085424 2.665792 0.077358 -0.038340 -736417.000000 0 0 1
18.016527 0.911788 -32.304828 37.000386 0.050565 2.632310 0.061759 -0.033436 -510513.000000 0 0 1
18.072227 -0.515212 -32.395828 37.099333 -0.028501 2.632565 0.080957 -0.034842 590207.000000 0 0 1
19.282527 -1.025412 -31.499128 36.946751 -0.053128 2.591650 0.103484 -0.033599 416930.000000 0 0 1
19.066327 -1.151612 -30.076688 35.629457 -0.060327 2.575778 0.099216 -0.034809 111991.000000 0 0 1
19.153127 0.083688 -29.379398 35.071332 0.004369 2.563862 0.096326 -0.031830 -505553.000000 0 0 1
18.750927 0.045088 -27.931418 33.641692 0.002405 2.550374 0.078904 -0.024797 794014.000000 0 0 1
17.322827 -0.196912 -27.934688 32.870441 -0.011367 2.586482 0.073440 -0.030640 1050900.000000 0 0 1
16.800127 -0.774212 -26.714378 31.567415 -0.046051 2.579730 0.075076 -0.023895 -100554.000000 0 0 1
17.399427 -2.060512 -26.069898 31.410593 -0.117875 2.549853 0.081469 -0.016849 -901346.000000 0 0 1
18.644227 -1.730212 -25.493888 31.631301 -0.092536 2.508109 0.084198 -0.018378 -184398.000000 0 0 1
19.480527 -2.887712 -25.421048 32.156796 -0.147164 2.482477 0.070656 -0.013007 438794.000000 0 0 1
20.395027 -3.121512 -26.639668 33.695295 -0.151874 2.482593 0.081049 -0.025609 -884654.000000 0 0 1
21.401727 -2.211612 -26.835928 34.396107 -0.102973 2.465786 0.079707 -0.014427 -520200.000000 0 0 1
22.119327 -2.372512 -28.090398 35.832442 -0.106851 2.471779 0.076566 -0.015805 536592.000000 0 0 1
23.592827 -1.912512 -28.087838 36.731538 -0.080886 2.441339 0.063990 -0.018475 -46907.900000 0 0 1
24.447027 -2.958612 -27.761098 37.109151 -0.120436 2.415980 0.065496 -0.021971 -558911.000000 0 0 1
25.799627 -2.591912 -27.884748 38.077526 -0.100127 2.392512 0.048680 -0.023873 -301056.000000 0 0 1
26.849627 -3.666912 -27.670878 38.730172 -0.135732 2.366638 0.063618 -0.023210 -458307.000000 0 0 1
26.919727 -4.612612 -28.695288 39.615243 -0.169699 2.380887 0.086768 -0.029582 496312.000000 0 0 1
28.050227 -5.478212 -28.531868 40.384323 -0.192872 2.355349 0.080027 -0.027597 342174.000000 0 0 1
28.019427 -6.613012 -27.462638 39.787143 -0.231774 2.332616 0.071219 -0.022537 -337055.000000 0 0 1
28.150827 -6.144512 -26.138118 38.902768 -0.214901 2.307545 0.061897 -0.009355 330784.000000 0 0 1
27.885427 -7.212212 -25.254198 38.306495 -0.253091 2.290639 0.045497 -0.003786 -330635.000000 0 0 1
27.984827 -6.764612 -23.761918 37.330139 -0.237175 2.260793 0.038275 -0.006562 43420.300000 0 0 1
29.297427 -6.378112 -23.391518 38.028709 -0.214357 2.233311 0.033464 -0.004574 345357.000000 0 0 1
29.299927 -5.888112 -22.078818 37.156827 -0.198318 2.207075 0.038627 -0.007876 301458.000000 0 0 1
30.714127 -5.410312 -21.632018 37.954885 -0.174362 2.177230 0.043023 -0.006612 176821.000000 0 0 1
31.121827 -4.215412 -22.271718 38.501523 -0.134629 2.187640 0.038726 -0.012652 -211711.000000 0 0 1
32.398327 -3.917712 -21.763518 39.225640 -0.120339 2.158954 0.050241 -0.008624 -289422.000000 0 0 1
32.963527 -2.672712 -22.458218 39.976357 -0.080904 2.167341 0.053165 -0.010898 -203274.000000 0 0 1
32.438727 -1.502012 -21.857018 39.144046 -0.046270 2.163221 0.052619 -0.006842 164300.000000 0 0 1
32.885227 -0.341412 -22.447318 39.817544 -0.010382 2.169721 0.029133 -0.008476 -375617.000000 0 0 1
31.880127 0.795788 -22.142118 38.823307 0.024957 2.177705 0.035529 -0.002430 80688.000000 0 0 1
30.673727 0.659888 -22.852718 38.256499 0.021510 2.210996 0.030072 -0.003902 210273.000000 0 0 1
29.635227 1.493688 -22.338118 37.141208 0.050360 2.216096 0.031229 -0.001071 -455264.000000 0 0 1
28.476227 1.558588 -23.274518 36.810704 0.054678 2.255284 0.033256 -0.003222 -91064.500000 0 0 1
27.497427 2.601488 -22.981918 35.931112 0.094328 2.264788 0.034958 -0.005235 291919.000000 0 0 1
26.443227 2.656288 -23.873918 35.724839 0.100117 2.302680 0.065177 -0.014333 -4409.850000 0 0 1
25.363927 3.771088 -23.532718 34.804292 0.147598 2.313313 0.061918 -0.010457 369384.000000 0 0 1
25.771127 5.122188 -23.450818 35.218300 0.196200 2.299456 0.050075 -0.000783 -218169.000000 0 0 1
24.679127 5.950888 -23.155818 34.360796 0.236614 2.310274 0.062684 -0.012708 -295627.000000 0 0 1
25.163127 7.307088 -22.646318 34.632820 0.282616 2.283521 0.067520 -0.009832 -210677.000000 0 0 1
25.697727 8.076988 -23.699718 35.878790 0.304531 2.292347 0.067817 -0.003556 34.006900 0 0 1
26.098927 9.315388 -23.165618 36.118919 0.342832 2.267080 0.080182 -0.006432 -515386.000000 0 0 1
27.136327 10.027788 -24.015318 37.598834 0.353970 2.263636 0.098296 -0.005530 -639695.000000 0 0 1
26.760027 10.428488 -25.310698 38.281639 0.371599 2.293174 0.103243 -0.014146 317544.000000 0 0 1
25.580527 11.212588 -25.471348 37.800464 0.413103 2.310186 0.102596 -0.018922 334478.000000 0 0 1
25.402927 11.692988 -26.943728 38.832965 0.431387 2.337599 0.098132 -0.015387 -248716.000000 0 0 1
24.991527 10.723088 -27.902288 38.962787 0.405312 2.369033 0.083510 -0.015885 -186083.000000 0 0 1
25.968927 9.803888 -28.241978 39.599378 0.360981 2.364838 0.078647 -0.024437 -587974.000000 0 0 1
26.903727 10.200188 -29.399858 41.136432 0.362392 2.366979 0.079413 -0.021159 -957919.000000 0 0 1
27.975127 11.068988 -29.041468 41.815513 0.376770 2.338541 0.078288 -0.013789 847072.000000 0 0 1
28.926627 11.314388 -30.081108 43.239313 0.372846 2.340175 0.083675 -0.016491 536782.000000 0 0 1
29.770527 10.117488 -30.554218 43.842994 0.327603 2.341863 0.065205 -0.018287 -1337500.000000 0 0 1
29.048327 9.224788 -31.363898 43.733238 0.307494 2.370520 0.061698 -0.017078 -290638.000000 0 0 1
29.710227 8.053688 -31.803298 44.260697 0.264713 2.372504 0.053866 -0.017812 -56214.900000 0 0 1
28.739227 7.072788 -32.527068 43.977013 0.241307 2.403329 0.063733 -0.024835 725135.000000 0 0 1
27.689227 6.705788 -31.627088 42.566813 0.237606 2.408336 0.071467 -0.028898 285557.000000 0 0 1
26.526527 6.211888 -32.265298 42.229062 0.230031 2.440371 0.053435 -0.023449 -542261.000000 0 0 1
25.326127 6.299088 -31.361208 40.799713 0.243773 2.447544 0.093556 -0.013402 -1671030.000000 0 0 1
24.981027 7.642688 -31.074268 40.596460 0.296897 2.442525 0.101297 -0.015905 489629.000000 0 0 1
23.817027 7.814188 -30.248918 39.284976 0.317026 2.449617 0.091176 -0.022352 1012190.000000 0 0 1
22.463027 7.482888 -30.971318 38.984661 0.321559 2.488896 0.088728 -0.025148 -248984.000000 0 0 1
22.175227 8.475388 -31.918168 39.778667 0.365069 2.502092 0.084816 -0.025947 -893818.000000 0 0 1
20.866227 8.305388 -32.335818 39.369837 0.378807 2.534543 0.070396 -0.024820 -771571.000000 0 0 1
20.405427 9.426588 -33.289238 40.167342 0.432759 2.547691 0.067753 -0.016656 -191330.000000 0 0 1
21.135727 9.368888 33.553103 40.746850 0.417245 0.603327 0.043984 -0.015412 54239.900000 0 0 1
20.657127 10.271288 32.536808 39.885588 0.461427 0.616766 0.047429 -0.010727 259715.000000 0 0 1
19.403427 9.900688 31.697188 38.460738 0.471818 0.602107 0.040958 -0.004187 94500.700000 0 0 1
19.453427 8.795488 30.827378 37.498316 0.424624 0.605706 0.031280 -0.010539 -69274.200000 0 0 1
20.385427 8.784488 29.750068 37.118721 0.406874 0.641023 0.050522 -0.009067 -774910.000000 0 0 1
20.092527 9.820688 28.633578 36.332319 0.454626 0.663077 0.053472 -0.008770 13523.800000 0 0 1
19.074127 9.441288 27.731748 34.957261 0.459623 0.654579 0.040849 0.002471 292245.000000 0 0 1
17.767127 9.596988 28.271238 34.742422 0.495253 0.620241 0.042004 -0.008253 -290934.000000 0 0 1
16.717527 8.789788 27.443488 33.314879 0.484060 0.602784 0.060687 -0.006509 -357185.000000 0 0 1
16.478727 9.464788 26.217628 32.380468 0.521356 0.627200 0.065479 -0.009503 950058.000000 0 0 1
15.223327 9.076388 25.607448 31.142767 0.537632 0.605426 0.078634 -0.015199 757895.000000 0 0 1
15.006327 7.687488 25.008768 30.161662 0.473426 0.593197 0.077428 -0.006160 -340626.000000 0 0 1
15.019227 6.671188 25.933438 30.702201 0.418001 0.564835 0.065675 -0.004735 147923.000000 0 0 1
14.651227 5.359488 25.499178 29.892987 0.350685 0.549060 0.071017 -0.004990 -174271.000000 0 0 1
14.726527 4.469688 26.744158 30.856097 0.294676 0.522171 0.055581 -0.006754 -427165.000000 0 0 1
15.943427 3.866988 27.087998 31.668693 0.237949 0.544559 0.041661 -0.001197 -96103.700000 0 0 1
16.120127 3.622088 28.428518 32.880977 0.221023 0.526465 0.035317 -0.008356 501600.000000 0 0 1
17.176127 2.458188 28.612388 33.462379 0.142151 0.545127 0.060675 -0.012740 551911.000000 0 0 1
16.615527 1.150588 28.559068 33.060853 0.069137 0.527966 0.056287 -0.017942 210975.000000 0 0 1
15.965027 0.710788 29.738788 33.760670 0.044492 0.493098 0.050246 -0.017862 -11960.200000 0 0 1
15.829927 -0.852212 29.795478 33.750310 -0.053784 0.488962 0.069936 -0.023643 261303.000000 0 0 1
14.935627 -1.455112 28.796858 32.472286 -0.097119 0.480393 0.059440 -0.018202 1063300.000000 0 0 1
15.486027 -1.506512 27.460398 31.562004 -0.096977 0.515501 0.069197 -0.015774 -255505.000000 0 0 1
16.694927 -2.431912 27.254378 32.053641 -0.144650 0.554291 0.073273 -0.009108 1952790.000000 0 0 1
18.046827 -2.114312 27.747158 33.167199 -0.116625 0.579778 0.088576 -0.025735 2099550.000000 0 0 1
18.744227 -1.004912 27.201408 33.049546 -0.053561 0.604037 0.091913 -0.020261 1248050.000000 0 0 1
20.243527 -0.731612 27.695558 34.312966 -0.036125 0.631495 0.104405 -0.011316 1492890.000000 0 0 1
21.141627 -1.591912 27.044708 34.364500 -0.075156 0.664872 0.073487 -0.007737 -459543.000000 0 0 1
22.463227 -1.213712 27.332088 35.399332 -0.053979 0.688646 0.071238 -0.005089 491635.000000 0 0 1
23.616627 -1.698512 26.380458 35.447970 -0.071797 0.731457 0.074472 -0.005154 425559.000000 0 0 1
23.637327 -1.236912 25.049468 34.463445 -0.052281 0.757084 0.076993 0.004838 785112.000000 0 0 1
22.665627 -1.930412 24.206578 33.217700 -0.084964 0.754338 0.100734 0.008430 703873.000000 0 0 1
22.487527 -1.263812 22.807238 32.053958 -0.056142 0.779128 0.093162 -0.015416 -592050.000000 0 0 1
21.659927 -0.185512 22.872638 31.501499 -0.008565 0.758191 0.066141 0.000221 -712795.000000 0 0 1
21.194227 0.170988 21.593038 30.256963 0.008067 0.776094 0.066285 0.006560 5801.110000 0 0 1
-31.236203 -27.447530 -10.132618 42.798800 0.720927 1.809816 0.025878 0.012027 -34783.500000 0 0 1
-31.159933 -26.298730 -9.359918 41.835065 0.700996 1.796440 0.034974 0.009732 -228698.000000 0 0 1
-31.463093 -26.560430 -8.022518 41.949296 0.701104 1.763225 0.049225 0.000653 -444860.000000 0 0 1
-31.848683 -25.265830 -7.262818 41.297086 0.670647 1.747583 0.078485 -0.011613 1207520.000000 0 0 1
-30.780013 -24.368730 -6.795118 39.842413 0.669663 1.742184 0.071116 -0.015848 404623.000000 0 0 1
-29.901283 -24.896430 -5.850818 39.346550 0.694318 1.720049 0.074360 -0.014574 736648.000000 0 0 1
-28.753723 -23.951630 -5.294418 37.795344 0.694537 1.711340 0.076882 -0.015314 328288.000000 0 0 1
-29.162593 -22.991830 -4.395818 37.395244 0.667629 1.688619 0.103249 -0.021645 -141476.000000 0 0 1
-30.001013 -21.956830 -4.848118 37.492231 0.631796 1.700469 0.101640 -0.028661 -87118.000000 0 0 1
-30.064183 -20.826530 -3.761718 36.766153 0.605834 1.673290 0.092174 -0.028160 -901062.000000 0 0 1
-28.915723 -20.076430 -3.630218 35.388707 0.606896 1.673558 0.111676 -0.038006 -526750.000000 0 0 1
-29.087093 -18.880630 -2.872018 34.796345 0.575747 1.653428 0.105212 -0.027636 -43655.000000 0 0 1
-27.916233 -17.861730 -3.050218 33.281546 0.569195 1.662574 0.118723 -0.028163 152804.000000 0 0 1
-27.959233 -17.242530 -4.292518 33.127772 0.552610 1.700736 0.148226 -0.042175 -143182.000000 0 0 1
-27.061343 -16.180730 -4.363818 31.830413 0.538894 1.708325 0.154274 -0.046096 -262299.000000 0 0 1
-27.376273 -15.125930 -5.481718 31.753792 0.504776 1.744297 0.153107 -0.059106 -850040.000000 0 0 1
-28.447463 -14.351730 -5.138018 32.274286 0.467241 1.730675 0.126958 -0.045204 -799144.000000 0 0 1
-28.546763 -13.309130 -6.077418 32.077806 0.436262 1.761407 0.161854 -0.058843 -58.806200 0 0 1
-29.869533 -12.552130 -5.791118 32.913250 0.397825 1.747668 0.143449 -0.041609 -360711.000000 0 0 1
-30.977623 -13.316930 -6.163318 34.277401 0.406004 1.751587 0.137442 -0.040290 -1024110.000000 0 0 1
-32.112193 -12.549030 -5.952518 34.987191 0.372539 1.741762 0.109094 -0.039243 -1173910.000000 0 0 1
-33.317493 -13.048730 -6.720918 36.407354 0.373286 1.756465 0.072206 -0.032271 -755985.000000 0 0 1
-33.973393 -14.195430 -6.237218 37.344405 0.395790 1.738602 0.044702 -0.027502 338658.000000 0 0 1
-34.289099 -15.019330 -7.375818 38.153968 0.412847 1.765338 0.050481 -0.033025 -382346.000000 0 0 1
-35.065435 -16.372830 -7.079418 39.341740 0.436837 1.751729 0.035284 -0.026626 2391370.000000 0 0 1
-36.529503 -16.329630 -6.952418 40.612775 0.420378 1.742832 0.023193 -0.033928 1925910.000000 0 0 1
36.939209 -15.611630 -5.862818 40.529012 -0.399862 1.715963 0.054181 -0.027729 -368260.000000 0 0 1
35.407129 -15.568930 -5.656218 39.090270 -0.414265 1.716002 0.074053 -0.028452 -402451.000000 0 0 1
34.714929 -14.867130 -6.695718 38.353494 -0.404631 1.746275 0.101279 -0.033809 838825.000000 0 0 1
33.298819 -14.867230 -6.492618 37.040518 -0.419922 1.746991 0.098074 -0.033750 665765.000000 0 0 1
32.565579 -14.205030 -5.301618 35.922236 -0.411317 1.718923 0.124251 -0.039355 -854707.000000 0 0 1
32.715179 -14.955330 -4.131118 36.207886 -0.428773 1.685140 0.103146 -0.033225 343863.000000 0 0 1
32.368569 -14.144630 -3.025618 35.453480 -0.411979 1.656241 0.119283 -0.035076 -657313.000000 0 0 1
32.481929 -14.973830 -1.670518 35.806172 -0.431955 1.617468 0.117388 -0.034428 77734.400000 0 0 1
33.781129 -15.291930 -1.183218 37.099971 -0.425078 1.602694 0.139180 -0.025814 600170.000000 0 0 1
34.609169 -16.155730 -1.960018 38.244528 -0.436741 1.622068 0.124232 -0.024491 -435508.000000 0 0 1
34.019599 -17.544030 -2.298518 38.345917 -0.476131 1.630774 0.113110 -0.028109 -803271.000000 0 0 1
34.130429 -18.516130 -1.244518 38.849480 -0.497075 1.602836 0.112531 -0.034184 294645.000000 0 0 1
33.864899 -19.860830 -1.631418 39.293072 -0.530413 1.612327 0.095922 -0.029667 -269804.000000 0 0 1
34.924039 -20.536330 -2.515018 40.592545 -0.531570 1.632794 0.081711 -0.029325 -128283.000000 0 0 1
35.118939 -19.927730 -3.792518 40.556597 -0.516131 1.664445 0.071071 -0.031878 458663.000000 0 0 1
36.280709 -20.341330 -4.523518 41.839238 -0.510995 1.679125 0.068169 -0.029676 311265.000000 0 0 1
36.437649 -19.537030 -5.836818 41.754836 -0.492169 1.711043 0.081852 -0.032364 61989.300000 0 0 1
35.424919 -19.853930 -6.794318 41.173611 -0.510832 1.736571 0.061179 -0.033555 407587.000000 0 0 1
35.102869 -18.790630 -7.679718 40.549689 -0.491489 1.761338 0.062453 -0.041715 -650311.000000 0 0 1
33.914549 -19.110430 -8.559518 39.858130 -0.513139 1.787232 0.059292 -0.042385 -679011.000000 0 0 1
34.158669 -20.225130 -9.376918 40.789670 -0.534586 1.802755 0.058268 -0.038580 -42487.800000 0 0 1
33.140069 -20.382030 -10.314218 40.250149 -0.551395 1.829940 0.061980 -0.045166 -599500.000000 0 0 1
33.154009 -21.850630 -10.824218 41.155827 -0.582721 1.836933 0.063504 -0.040791 6005.510000 0 0 1
32.658079 -22.741530 -9.833218 40.992921 -0.608274 1.813034 0.059310 -0.041558 60326.500000 0 0 1
32.538849 -23.977530 -10.513218 41.763937 -0.635057 1.825263 0.042993 -0.035735 -428856.000000 0 0 1
31.906769 -25.092430 -9.646818 41.722094 -0.666411 1.804124 0.053725 -0.029262 1082260.000000 0 0 1
30.475549 -24.896130 -9.592118 40.504137 -0.684974 1.809886 0.055310 -0.030607 945726.000000 0 0 1
29.766499 -26.026130 -9.105218 40.574733 -0.718458 1.797130 0.034699 -0.024150 168867.000000 0 0 1
28.324379 -25.663830 -8.680618 39.195099 -0.736158 1.794120 0.034577 -0.031486 455236.000000 0 0 1
27.564079 -25.399130 -9.896318 38.766370 -0.744544 1.828935 0.050459 -0.032178 782283.000000 0 0 1
26.301979 -24.785530 -9.568218 37.385391 -0.755724 1.829611 0.063393 -0.036186 742041.000000 0 0 1
25.481779 -24.314230 -10.821518 36.845734 -0.761956 1.868889 0.103253 -0.038361 -118360.000000 0 0 1
25.017479 -25.446830 -11.527218 37.500563 -0.793906 1.883243 0.098610 -0.035196 257142.000000 0 0 1
24.028179 -25.079230 -12.480618 36.906463 -0.806798 1.915767 0.108180 -0.023801 46607.400000 0 0 1
23.289279 -26.359330 -13.011418 37.503358 -0.847155 1.925103 0.111313 -0.024667 138758.000000 0 0 1
24.038279 -27.284830 -13.823918 38.902462 -0.848571 1.934083 0.105453 -0.015640 240193.000000 0 0 1
23.323979 -28.464830 -13.922118 39.345647 -0.884340 1.932471 0.117942 -0.012196 -338356.000000 0 0 1
24.105379 -29.552930 -14.674418 40.862985 -0.886574 1.938113 0.101468 -0.015304 -156264.000000 0 0 1
24.191579 -29.501930 -16.111718 41.414778 -0.883979 1.970378 0.094254 -0.020537 279761.000000 0 0 1
24.758579 -30.680430 -16.601118 42.777017 -0.891812 1.969349 0.088902 -0.020462 -325861.000000 0 0 1
24.868679 -30.601730 -18.092918 43.385145 -0.888386 2.000972 0.089593 -0.015508 -133378.000000 0 0 1
23.569179 -30.629630 -18.627918 42.903145 -0.914938 2.019930 0.104143 -0.017987 -23348.000000 0 0 1
23.557479 -30.449830 -20.036618 43.400611 -0.912331 2.050670 0.097944 -0.017802 -687362.000000 0 0 1
22.122979 -30.326730 -20.506218 42.774312 -0.940553 2.070773 0.079007 -0.012318 -671379.000000 0 0 1
21.989379 -29.902430 -21.834918 43.063346 -0.936724 2.102546 0.086106 -0.010422 -64717.600000 0 0 1
20.630779 -29.830530 -22.216218 42.532928 -0.965731 2.120377 0.083908 -0.016023 -174712.000000 0 0 1
20.279079 -29.924230 -23.683518 43.215850 -0.975207 2.150802 0.084820 -0.020688 -374882.000000 0 0 1
20.672979 -28.841730 -24.493718 43.117974 -0.948902 2.174946 0.097716 -0.022813 325900.000000 0 0 1
20.588679 -29.168230 -25.875118 44.093096 -0.956148 2.197934 0.085620 -0.022208 -410460.000000 0 0 1
20.983879 -27.975330 -26.727468 44.014769 -0.927241 2.223377 0.080940 -0.024130 -75142.300000 0 0 1
20.112279 -26.862530 -26.659748 42.858389 -0.928121 2.242145 0.101449 -0.033377 -115990.000000 0 0 1
19.072779 -27.023130 -27.590958 43.072978 -0.956192 2.266028 0.123718 -0.039871 -548704.000000 0 0 1
18.244679 -25.774930 -27.889858 42.131456 -0.954824 2.294243 0.121600 -0.034219 -467461.000000 0 0 1
17.299679 -25.473630 -26.913988 40.896791 -0.974221 2.289083 0.105076 -0.018972 -362338.000000 0 0 1
16.556679 -24.340430 -27.304468 40.151142 -0.973474 2.318616 0.090145 -0.015047 91576.300000 0 0 1
15.436279 -23.894930 -26.338728 38.768222 -0.997234 2.317727 0.087298 -0.016599 289116.000000 0 0 1
14.411179 -24.898930 -26.236538 38.935777 -1.046121 2.310192 0.110734 -0.023166 -108077.000000 0 0 1
13.266479 -24.334230 -25.628648 37.748932 -1.071663 2.317092 0.076731 -0.016393 -28396.500000 0 0 1
13.112679 -24.447030 -24.081418 36.735737 -1.078477 2.285682 0.067227 -0.010259 -366352.000000 0 0 1
14.039579 -23.668130 -23.345718 36.087571 -1.035403 2.274333 0.060213 -0.014494 -158172.000000 0 0 1
14.203679 -24.082530 -22.012518 35.584600 -1.037917 2.237752 0.066144 -0.023808 -555304.000000 0 0 1
15.466079 -23.673530 -21.303618 35.404517 -0.992100 2.216450 0.052258 -0.026575 -674799.000000 0 0 1
15.328579 -22.337030 -20.839118 34.178606 -0.969365 2.226494 0.046975 -0.025721 -464612.000000 0 0 1
16.510879 -21.720630 -20.456918 34.101033 -0.920832 2.214162 0.063471 -0.025495 -787431.000000 0 0 1
16.249179 -20.295530 -19.846718 32.708357 -0.895672 2.222797 0.077702 -0.016360 368160.000000 0 0 1
15.503079 -20.158330 -18.627418 31.522761 -0.915204 2.202995 0.083079 -0.021823 1195170.000000 0 0 1
14.074179 -20.306730 -18.763218 31.024252 -0.964730 2.220301 0.050404 -0.020147 760119.000000 0 0 1
13.374479 -20.073930 -17.391618 29.737313 -0.983075 2.195481 0.063887 -0.018654 -116673.000000 0 0 1
13.437979 -18.791730 -16.779718 28.552887 -0.950007 2.198974 0.093175 -0.033559 -12792.200000 0 0 1
13.136679 -18.920930 -15.413118 27.715306 -0.963910 2.160510 0.081884 -0.032113 -238508.000000 0 0 1
13.088179 -17.540530 -14.638318 26.329660 -0.929752 2.160317 0.088426 -0.027879 -605392.000000 0 0 1
11.873079 -16.867230 -14.696618 25.327141 -0.957448 2.189858 0.071573 -0.032722 -270607.000000 0 0 1
12.119879 -15.579030 -14.221018 24.327660 -0.909639 2.195136 0.061906 -0.033732 -819686.000000 0 1 0
10.856279 -14.788330 -14.049918 23.107439 -0.937542 2.224368 0.063487 -0.031102 -1039860.000000 0 1 0
10.225679 -14.463130 -15.260318 23.379991 -0.955376 2.281950 0.077641 -0.018440 467895.000000 0 1 0
9.027079 -13.725530 -14.931418 22.199676 -0.989037 2.308508 0.060167 -0.023210 640084.000000 0 1 0
8.403679 -13.066530 -16.192418 22.439930 -0.999255 2.376892 0.047537 -0.019651 -183124.000000 0 1 0
9.117079 -12.000130 -16.707618 22.500417 -0.921085 2.407661 0.050749 -0.015004 -47587.800000 0 1 0
10.266779 -12.333430 -17.473018 23.723967 -0.876588 2.398698 0.070969 -0.016994 193623.000000 0 1 0
10.542779 -11.155530 -18.454018 24.003059 -0.813630 2.447789 0.070099 -0.015453 -165406.000000 0 1 0
9.530079 -11.137130 -19.417718 24.329116 -0.863001 2.494976 0.065451 -0.019244 150223.000000 0 1 0
9.625679 -9.920430 -20.174718 24.455836 -0.800477 2.540901 0.052137 -0.020010 42037.100000 0 1 0
9.299779 -10.102330 -21.657518 25.643539 -0.826739 2.576540 0.045619 -0.016702 -114658.000000 0 0 1
10.396079 -10.669530 -22.309118 26.825624 -0.798378 2.552841 0.036929 -0.013615 -357135.000000 0 0 1
10.155579 -10.680130 -23.711118 27.918061 -0.810568 2.585475 0.033622 -0.009345 86446.900000 0 0 1
11.189179 -11.443830 -24.566118 29.319842 -0.796649 2.564160 0.055671 -0.005793 -255463.000000 0 0 1
11.174179 -12.815130 -24.330718 29.682886 -0.853695 2.531663 0.056189 -0.012574 -489664.000000 0 0 1
12.275579 -13.446430 -24.879218 30.829723 -0.830886 2.509830 0.044963 -0.014896 -616059.000000 0 0 1
12.207179 -14.965130 -24.553018 31.238135 -0.886550 2.475100 0.041396 -0.016380 123473.000000 0 0 1
11.069579 -15.621830 -25.075108 31.548981 -0.954324 2.489473 0.055224 -0.021220 -39568.700000 0 0 1
10.925579 -16.910530 -24.473118 31.690185 -0.997181 2.453190 0.052004 -0.021471 -32087.300000 0 0 1
9.697979 -17.661630 -25.020778 32.125120 -1.068645 2.463633 0.057773 -0.026011 92760.500000 0 0 1
9.907179 -18.441630 -26.193348 33.531141 -1.077819 2.467326 0.060764 -0.025491 -1103560.000000 0 0 1
8.780079 -19.159330 -26.462268 33.829298 -1.141089 2.469033 0.054599 -0.026652 -970285.000000 0 0 1
8.895079 -19.948730 -27.745018 35.310909 -1.151360 2.474680 0.063184 -0.021683 26964.600000 0 0 1
9.737479 -21.075130 -27.560018 36.035180 -1.137978 2.441541 0.055991 -0.016666 15482.800000 0 0 1
9.560779 -22.058430 -28.540608 37.316875 -1.161807 2.441555 0.061116 -0.014269 533750.000000 0 0 1
10.521079 -23.300330 -28.408848 38.218597 -1.146661 2.408824 0.061398 -0.013151 454982.000000 0 0 1
10.087479 -24.273830 -29.369368 39.414919 -1.176940 2.411531 0.076237 -0.017323 132736.000000 0 0 1
10.648679 -25.574530 -29.256198 40.291142 -1.176251 2.383458 0.092252 -0.021640 177733.000000 0 0 1
10.014479 -26.465430 -28.175568 39.932085 -1.209049 2.354048 0.082859 -0.019842 441727.000000 0 0 1
10.811879 -26.329630 -26.996948 39.229853 -1.181155 2.329765 0.079827 -0.015267 203208.000000 0 0 1
10.082279 -26.641730 -25.802818 38.434614 -1.209014 2.306816 0.060447 -0.013113 686400.000000 0 0 1
9.152879 -25.512530 -25.268338 37.056084 -1.226339 2.321146 0.037829 -0.015688 483652.000000 0 0 1
9.924179 -24.396330 -24.863118 36.219400 -1.184450 2.327404 0.042413 -0.010974 340180.000000 0 0 1
9.068879 -23.262030 -24.640518 35.078794 -1.199064 2.349607 0.033143 -0.012016 500720.000000 0 0 1
9.921479 -21.965930 -24.519018 34.381974 -1.146550 2.364758 0.044696 -0.006915 68196.900000 0 0 1
10.496279 -21.862830 -23.242518 33.591217 -1.123198 2.334945 0.033829 -0.017474 -705643.000000 0 0 1
11.505579 -20.921630 -23.225718 33.309563 -1.068001 2.342376 0.043462 -0.020882 -874945.000000 0 0 1
11.953579 -20.655830 -21.798018 32.321896 -1.046184 2.310954 0.033496 -0.018209 -489382.000000 0 0 1
11.097679 -19.968930 -20.915518 30.973788 -1.063551 2.312120 0.031360 -0.016507 -80933.000000 0 0 1
10.764279 -18.602830 -21.264718 30.234471 -1.046233 2.350863 0.065747 -0.030805 255121.000000 0 0 1
11.931279 -17.555130 -21.053918 29.896580 -0.973862 2.352127 0.059989 -0.031113 1276480.000000 0 0 1
13.037479 -17.865130 -21.951818 31.161211 -0.940367 2.352458 0.059954 -0.025604 508618.000000 0 0 1
14.261579 -17.456430 -21.361318 31.055201 -0.885786 2.329319 0.066835 -0.027304 -702618.000000 0 0 1
15.306979 -17.426730 -22.424418 32.262193 -0.850065 2.339311 0.047887 -0.009973 216644.000000 0 0 1
16.650679 -17.658130 -21.936918 32.715181 -0.814754 2.305736 0.066194 -0.005992 1016560.000000 0 0 1
17.632979 -17.457630 -22.917418 33.777195 -0.780401 2.316499 0.084664 0.000728 229098.000000 0 0 1
19.076079 -17.625930 -22.358318 34.270463 -0.745907 2.281554 0.091936 -0.002822 255794.000000 0 0 1
19.385979 -18.974730 -22.126218 35.006087 -0.774678 2.255015 0.097317 -0.008265 528584.000000 0 0 1
20.766279 -19.286730 -21.963218 35.855255 -0.748475 2.230082 0.082692 -0.012440 436398.000000 0 0 1
20.944579 -20.754330 -21.685518 36.601630 -0.780836 2.204923 0.099503 -0.018798 -217010.000000 0 0 1
20.413979 -21.272730 -20.487818 35.902790 -0.805995 2.178090 0.107070 -0.018733 205923.000000 0 0 1
20.757179 -22.626030 -20.288518 36.802469 -0.828449 2.154696 0.118056 -0.018226 22100.600000 0 0 1
-16.725373 12.978288 28.719778 35.679122 -0.659912 0.635211 0.038507 -0.020797 -187111.000000 0 0 1
-17.944773 13.589688 28.322398 36.178070 -0.648161 0.671546 0.049614 -0.024409 273308.000000 0 0 1
-18.173373 13.484388 26.891648 35.146279 -0.638352 0.699545 0.047033 -0.017616 1166890.000000 0 0 1
-19.498773 14.188688 26.347128 35.716833 -0.629057 0.741188 0.061452 -0.023361 1060710.000000 0 0 1
-19.496173 15.572388 26.550458 36.435242 -0.673973 0.754371 0.064897 -0.023267 346234.000000 0 0 1
-20.556173 16.254988 25.865698 36.821396 -0.669081 0.791943 0.063216 -0.020107 -244141.000000 0 0 1
-20.681773 17.746788 26.286778 37.863953 -0.709171 0.803429 0.085389 -0.017019 930942.000000 0 0 1
-19.652373 18.671988 25.829118 37.443320 -0.759822 0.809557 0.085455 -0.025984 726075.000000 0 0 1
-18.357473 18.467088 26.336008 37.035327 -0.788375 0.779728 0.075744 -0.020883 162116.000000 0 0 1
-17.166073 19.305188 25.754218 36.477995 -0.843983 0.786933 0.067704 -0.015538 490322.000000 0 0 1
-17.184673 20.718888 25.930178 37.375921 -0.878372 0.804090 0.080421 -0.019986 192001.000000 0 0 1
-16.058473 21.418588 25.392388 36.897206 -0.927459 0.811801 0.101375 -0.021821 317312.000000 0 0 1
-16.107873 22.979788 25.420198 37.864505 -0.959428 0.834772 0.097592 -0.022445 -141376.000000 0 0 1
-15.704173 23.623988 26.624198 38.904521 -0.984118 0.817088 0.097658 -0.022808 78836.700000 0 0 1
-16.063173 24.991588 26.537728 39.835361 -0.999539 0.841714 0.099119 -0.020945 -19289.400000 0 0 1
-15.457273 25.942988 27.635578 40.935206 -1.033458 0.829689 0.062801 -0.011230 574636.000000 0 0 1
-14.045473 26.135588 27.584398 40.512261 -1.077672 0.821819 0.046809 -0.017913 309646.000000 0 0 1
-13.631673 27.124488 28.575368 41.690671 -1.105103 0.815624 0.064474 -0.013019 978870.000000 0 0 1
-12.078473 27.128588 28.815188 41.378314 -1.151916 0.800450 0.083964 -0.022907 897823.000000 0 0 1
-11.411173 27.627488 27.669108 40.731714 -1.179102 0.823986 0.082050 -0.030693 -1036050.000000 0 0 1
-10.037173 27.619388 27.811758 40.460713 -1.222225 0.812925 0.066382 -0.027617 -1112890.000000 0 0 1
-9.233673 28.000188 26.582918 39.697894 -1.252255 0.837085 0.067190 -0.027527 446955.000000 0 0 1
-7.812973 27.983988 26.807568 39.532162 -1.298535 0.825594 0.063332 -0.026330 647758.000000 0 0 1
-7.255173 28.523888 25.609438 39.014011 -1.321724 0.854738 0.079131 -0.026872 603299.000000 0 0 1
-5.725073 28.195988 25.526678 38.462989 -1.370474 0.845084 0.063784 -0.026592 398672.000000 0 0 1
-4.840373 28.998188 26.257518 39.418034 -1.405401 0.841789 0.072918 -0.021761 566235.000000 0 0 1
-3.474673 28.634288 26.001338 38.833818 -1.450040 0.837188 0.051252 -0.016497 762403.000000 0 0 1
-2.671673 29.477488 25.022328 38.757929 -1.480409 0.868981 0.039992 -0.007935 -595785.000000 0 0 1
-3.187673 29.433288 23.690358 37.917183 -1.462915 0.895931 0.033935 0.000638 -157962.000000 0 0 1
-2.762573 30.500688 22.858938 38.215898 -1.480469 0.929602 0.026330 0.000620 -528397.000000 0 0 1
-3.037673 30.291588 21.352138 37.184964 -1.470849 0.959152 0.025171 0.006214 607905.000000 0 0 1
-4.396473 30.180788 20.922938 36.986190 -1.426143 0.969519 0.025785 0.000585 610082.000000 0 0 1
-5.042473 28.941788 21.360238 36.322354 -1.398300 0.942121 0.031957 0.003504 93362.600000 0 0 1
-6.534073 28.781388 20.955638 36.196701 -1.347556 0.953371 0.035367 -0.002025 90592.700000 0 0 1
-6.700673 28.875788 19.551138 35.509959 -1.342780 0.987735 0.015269 0.000680 746147.000000 0 0 1
-7.699273 27.913088 19.085838 34.679800 -1.301658 0.988019 0.018755 -0.003834 -379204.000000 0 0 1
-7.165773 26.492588 18.800338 33.266473 -1.306635 0.970189 0.011873 -0.002487 57002.500000 0 0 1
-6.319573 26.395688 17.663338 32.383065 -1.335803 0.993871 0.014641 0.001210 -231527.000000 0 0 1
-5.019773 26.837588 17.937538 32.668173 -1.385890 0.989530 0.017604 0.007657 -1058230.000000 0 0 1
-4.069973 26.993788 16.724638 32.014728 -1.421149 1.021128 0.021905 0.006153 191137.000000 0 0 1
-3.505373 25.746888 16.294538 30.670863 -1.435481 1.010696 0.039090 -0.000382 54790.400000 0 0 1
-2.851273 25.964688 15.041438 30.141991 -1.461421 1.048329 0.054315 -0.016818 254763.000000 0 0 1
-2.113873 24.686188 14.506138 28.710702 -1.485375 1.041122 0.053128 -0.015915 -80596.600000 0 0 1
-1.026473 24.200888 15.240738 28.618468 -1.528407 1.009187 0.059636 -0.011620 -336781.000000 0 0 1
-0.525073 22.986888 14.800638 27.344682 -1.547958 0.998859 0.050992 -0.019767 -713975.000000 0 0 1
0.797827 22.613988 15.476138 27.414227 1.535531 0.970933 0.046871 -0.012629 -86663.900000 0 0 1
1.797027 23.498788 14.985338 27.928171 1.494472 1.004433 0.060781 -0.025083 487136.000000 0 0 1
3.059027 23.289388 15.620338 28.209009 1.440195 0.983952 0.062025 -0.017131 416331.000000 0 0 1
4.211827 24.278988 15.385438 29.050309 1.399030 1.012651 0.076298 -0.027415 -265526.000000 0 0 1
5.420527 23.623388 15.652338 28.852076 1.345245 0.997382 0.083023 -0.023840 -588692.000000 0 0 1
6.475327 24.569088 15.588038 29.808671 1.313100 1.020504 0.093431 -0.023069 477631.000000 0 0 1
7.898027 23.912088 15.720938 29.686945 1.251783 1.012718 0.099703 -0.024246 596730.000000 0 0 1
8.328327 23.356288 14.523238 28.736765 1.228274 1.040964 0.077975 -0.022360 134249.000000 0 0 1
9.299327 24.153988 13.855038 29.357362 1.203286 1.079302 0.080721 -0.025067 -271673.000000 0 0 1
9.763827 23.627088 12.522538 28.467272 1.178922 1.115317 0.063510 -0.016944 -124921.000000 0 0 1
10.764627 22.618888 12.575738 28.029279 1.126603 1.105526 0.064911 -0.015731 108957.000000 0 0 1
10.919027 21.807088 11.405838 26.923361 1.106581 1.133335 0.054448 -0.017497 1123810.000000 0 0 1
12.302427 21.028988 11.529438 26.953590 1.041463 1.128793 0.078600 -0.015670 1215430.000000 0 0 1
12.326027 20.057988 12.496238 26.653514 1.019769 1.082819 0.069112 -0.009029 -793324.000000 0 0 1
13.535727 19.389088 12.470038 26.733023 0.961340 1.085505 0.069483 -0.009255 -827311.000000 0 0 1
13.744027 18.661488 13.793438 26.970509 0.935997 1.033952 0.057322 -0.009481 -376982.000000 0 0 1
15.005927 18.054788 13.974938 27.321276 0.877358 1.033862 0.065002 -0.010202 -127859.000000 0 0 1
15.312627 17.780688 15.306238 28.016252 0.859839 0.992815 0.052702 -0.013496 414197.000000 0 0 1
16.710627 17.087088 15.400938 28.432421 0.796536 0.998376 0.036088 -0.017648 341522.000000 0 0 1
17.033327 16.692888 16.702938 29.116574 0.775304 0.959832 0.045491 -0.029941 1019500.000000 0 0 1
18.192127 15.799388 16.757138 29.349205 0.715122 0.963125 0.044562 -0.033924 1116350.000000 0 0 1
18.685627 15.668688 18.241338 30.453356 0.697805 0.928554 0.053991 -0.032218 128059.000000 0 0 1
19.309927 16.831388 18.868738 31.815062 0.716926 0.935923 0.060806 -0.025987 697227.000000 0 0 1
18.401227 17.787288 19.412938 32.122499 0.768435 0.921858 0.050818 -0.015431 91409.300000 0 0 1
19.098827 18.812088 20.344838 33.653712 0.777835 0.921615 0.050689 -0.014101 -85971.900000 0 0 1
18.215027 19.755188 20.914038 34.050722 0.825938 0.909421 0.057591 -0.019915 252799.000000 0 0 1
18.899327 20.812188 21.635538 35.474332 0.833530 0.914871 0.057799 -0.012584 -455990.000000 0 0 1
17.963027 21.807388 22.231038 35.950683 0.881763 0.904122 0.072259 -0.010686 -262040.000000 0 0 1
17.170527 21.331588 23.319248 35.967360 0.893054 0.865388 0.079554 -0.014325 233608.000000 0 0 1
16.369527 22.347288 23.864638 36.563420 0.938586 0.859665 0.085061 -0.025010 77489.700000 0 0 1
15.640927 21.908988 25.160818 36.847105 0.950799 0.819148 0.099257 -0.021650 -240194.000000 0 0 1
14.633227 20.969088 25.034988 35.785257 0.961516 0.795974 0.095230 -0.019709 -642130.000000 0 0 1
14.104427 20.650588 26.329378 36.312778 0.971569 0.759657 0.089678 -0.017581 527942.000000 0 0 1
12.995127 19.537688 26.220168 35.186529 0.983857 0.729997 0.093264 -0.019314 509711.000000 0 0 1
13.480027 18.175788 26.118018 34.557507 0.932662 0.713945 0.092189 -0.026531 163715.000000 0 0 1
14.174027 17.797188 24.916278 33.741130 0.898242 0.740021 0.098367 -0.025857 -199170.000000 0 0 1
13.353627 17.568188 23.612088 32.318591 0.920861 0.751590 0.106446 -0.021956 -174541.000000 0 0 1
12.775227 18.689088 22.901338 32.201859 0.971185 0.779620 0.094310 -0.021756 451586.000000 0 0 1
13.669427 19.614488 22.226438 32.643467 0.962151 0.821826 0.087141 -0.012794 692128.000000 0 0 1
14.512127 18.997688 21.046038 31.850427 0.918465 0.848942 0.091031 -0.015671 428842.000000 0 0 1
13.660927 18.491288 20.003738 30.474550 0.934517 0.854749 0.074158 -0.015495 -68854.900000 0 0 1
14.269027 17.600988 19.120538 29.647848 0.889568 0.869876 0.062569 -0.019707 -218054.000000 0 0 1
13.303027 16.648788 18.362638 28.130751 0.896642 0.859574 0.057487 -0.010428 289996.000000 0 0 1
12.478727 17.341088 17.431538 27.573366 0.947034 0.886423 0.065396 -0.010997 -223513.000000 0 0 1
11.584927 16.492788 16.781738 26.226882 0.958445 0.876470 0.056447 -0.008199 77807.100000 0 0 1
11.016727 17.261188 15.497238 25.680368 1.002735 0.922955 0.054085 -0.003772 -320371.000000 0 0 1
10.264627 18.391988 15.791038 26.324602 1.061753 0.927472 0.063897 -0.011075 -126909.000000 0 0 1
9.906627 18.980388 14.541938 25.881738 1.089751 0.974163 0.062850 -0.001917 -292486.000000 0 0 1
8.765927 19.998288 14.743838 26.346798 1.157686 0.976885 0.072387 -0.008014 486862.000000 0 0 1
7.493427 19.374488 14.928738 25.581037 1.201749 0.947658 0.050921 -0.012697 781978.000000 0 0 1
6.463827 20.365788 15.071238 26.147440 1.263466 0.956487 0.059694 -0.014259 1045750.000000 0 0 1
5.064827 19.981988 15.626938 25.867615 1.322555 0.922145 0.054637 -0.015833 630207.000000 0 0 1
4.211227 19.280588 14.747238 24.636488 1.355755 0.929052 0.045701 -0.021680 -23168.300000 0 1 0
3.012127 18.928388 15.411538 24.594152 1.412987 0.893569 0.044388 -0.021735 417767.000000 0 1 0
1.812127 18.373888 14.625138 23.553731 1.472489 0.900872 0.038578 -0.019571 281323.000000 0 1 0
1.150927 19.379788 13.887738 23.869857 1.511478 0.949843 0.036698 -0.023579 934655.000000 0 1 0
0.093527 18.850688 13.003338 22.900742 1.565835 0.966950 0.032963 -0.027064 605762.000000 0 1 0
-0.790073 19.860488 12.342038 23.396348 -1.531036 1.015118 0.030576 -0.019766 568667.000000 0 1 0
-1.972573 20.202188 13.111538 24.164683 -1.473463 0.997278 0.037944 -0.021039 402932.000000 0 1 0
-2.972473 20.620488 12.254238 24.170364 -1.427631 1.039102 0.037759 -0.019950 138898.000000 0 1 0
-4.268373 21.315788 12.755738 25.204973 -1.373166 1.040162 0.034973 -0.016980 350800.000000 0 0 1
-4.967073 20.561688 13.696438 25.200144 -1.333768 0.996188 0.034501 -0.017386 -322380.000000 0 0 1
-6.053073 21.381488 14.077438 26.305551 -1.294916 1.006110 0.027193 -0.010658 -390197.000000 0 0 1
-6.718173 20.957688 15.411338 26.867599 -1.260587 0.959899 0.032867 -0.001091 -539775.000000 0 0 1
-7.586273 19.860688 15.268838 26.175101 -1.205925 0.947968 0.030125 0.000845 373595.000000 0 0 1
-8.414973 19.536488 16.398538 26.858857 -1.164081 0.914048 0.023494 0.016582 1258910.000000 0 0 1
-9.595773 20.510888 16.882938 28.245513 -1.133208 0.930141 0.021014 0.014214 1411120.000000 0 0 1
-10.730573 20.638988 16.020138 28.244607 -1.091342 0.967703 0.016906 0.006885 627974.000000 0 0 1
-11.727373 19.647788 16.282538 28.083588 -1.032674 0.952327 0.010973 0.007143 264186.000000 0 0 1
-12.906773 19.729988 15.275938 28.092908 -0.991495 0.995880 0.012012 0.001000 -188191.000000 0 0 1
-13.796173 20.799188 15.258038 29.253177 -0.985126 1.022088 -0.004076 0.010777 -382958.000000 0 0 1
-14.638273 20.578088 14.153838 28.949402 -0.952492 1.059949 0.004652 -0.000465 -847158.000000 0 0 1
-15.757073 21.613788 14.218638 30.292092 -0.940852 1.082203 0.010089 -0.004603 -251112.000000 0 0 1
-16.831573 21.200888 15.056238 30.975310 -0.899781 1.063207 0.017943 -0.001598 465371.000000 0 0 1
-17.779673 22.241988 15.298438 32.324372 -0.896437 1.077787 0.028549 -0.021107 124042.000000 0 0 1
-19.022073 21.866088 16.090238 33.149070 -0.854842 1.063987 0.055854 -0.024513 -1305860.000000 0 0 1
-19.857673 20.929088 15.457738 32.730652 -0.811661 1.078931 0.058117 -0.011921 1068670.000000 0 0 1
-21.178373 20.869588 16.047738 33.787469 -0.778055 1.075876 0.070956 -0.013649 1839460.000000 0 0 1
-22.096273 22.200588 16.003938 35.174386 -0.787753 1.098437 0.073902 -0.013420 -347445.000000 0 0 1
-22.761973 22.424588 14.752438 35.193806 -0.777932 1.138258 0.088232 -0.014913 538890.000000 0 0 1
-23.481573 23.650588 14.711638 36.430302 -0.788984 1.155097 0.103630 -0.019369 425923.000000 0 0 1
-22.695473 24.768688 13.887438 36.351524 -0.829050 1.178802 0.096963 -0.020672 431666.000000 0 0 1
-21.575873 25.207588 14.644938 36.268650 -0.862871 1.155140 0.064514 -0.023681 371698.000000 0 0 1
-20.901673 26.294688 14.022638 36.399518 -0.899172 1.175326 0.041432 -0.013838 714089.000000 0 0 1
-19.411073 26.634188 14.407138 35.968533 -0.941000 1.158681 0.025164 -0.009582 634997.000000 0 0 1
-18.562573 25.896888 13.583838 34.637243 -0.948892 1.167802 0.034122 -0.000916 -1943560.000000 0 0 1
-17.266473 26.290588 13.707038 34.310479 -0.989687 1.159825 -0.005624 -0.003594 -1645640.000000 0 0 1
-16.381573 25.762488 12.529438 33.000735 -1.004419 1.181355 0.008384 -0.008096 -805886.000000 0 0 1
-15.106973 26.261388 12.707038 32.853462 -1.048771 1.173660 0.001469 -0.001723 -1208530.000000 0 0 1
-14.191073 25.720188 11.800738 31.657101 -1.066612 1.188807 0.003313 -0.003150 135130.000000 0 0 1
-12.774173 26.324988 12.042938 31.642011 -1.119019 1.180352 -0.003532 -0.001374 -300557.000000 0 0 1
-11.747073 25.522688 11.513338 30.363766 -1.139443 1.181886 -0.005891 -0.000272 -202917.000000 0 0 1
-10.446773 26.021488 11.695338 30.381472 -1.189026 1.175643 0.013396 -0.003951 74539.100000 0 0 1
-9.969473 27.370488 11.018938 31.144036 -1.221491 1.209159 0.018043 -0.007879 54464.100000 0 0 1
-8.688873 27.838388 11.465738 31.335850 -1.268259 1.196198 0.035190 -0.012950 669624.000000 0 0 1
-8.412473 29.075988 10.878138 32.163903 -1.289160 1.225783 0.042427 -0.021648 -162456.000000 0 0 1
-7.108473 29.666688 11.452338 32.585255 -1.335619 1.211669 0.032274 -0.017224 -309987.000000 0 0 1
-5.997573 28.956188 11.027938 31.560214 -1.366559 1.213839 0.051021 -0.022211 -671683.000000 0 0 1
-4.779773 29.341388 11.636938 31.924624 -1.409313 1.197687 0.064304 -0.022457 260105.000000 0 0 1
-3.587073 28.929788 10.743238 31.067940 -1.447434 1.217707 0.079952 -0.031453 -176211.000000 0 0 1
-3.421173 29.784188 9.670838 31.501228 -1.456432 1.258758 0.086857 -0.037866 -107025.000000 0 0 1
-2.268473 29.431788 8.958038 30.848380 -1.493873 1.276163 0.089667 -0.040970 -48863.900000 0 0 1
-1.969573 30.320088 7.726738 31.351068 -1.505928 1.321772 0.081607 -0.046046 -228584.000000 0 0 1
-2.948473 30.206488 6.736338 31.088642 -1.473494 1.352382 0.085365 -0.041516 -137893.000000 0 0 1
-2.751673 31.024088 5.611138 31.647284 -1.482333 1.392552 0.088925 -0.040253 24503.000000 0 0 1
11.377827 33.983688 -26.522348 44.584537 1.247724 2.207910 0.110027 -0.050421 -114393.000000 0 0 1
11.890027 -33.953030 -25.217158 43.932745 -1.233952 2.182172 0.092316 -0.047527 502878.000000 0 0 1
13.036027 -33.107130 -25.291858 43.654303 -1.195687 2.188748 0.097073 -0.041213 49710.900000 0 0 1
13.810727 -32.989030 -24.004818 43.072539 -1.174320 2.161941 0.077196 -0.031363 -880247.000000 0 0 1
13.126627 -32.187130 -23.041718 41.704202 -1.183565 2.156161 0.081974 -0.033545 250544.000000 0 0 1
13.738427 -32.099530 -21.795118 41.160071 -1.166392 2.128832 0.063055 -0.026300 276323.000000 0 0 1
15.262127 -31.801430 -21.655918 41.391331 -1.123342 2.121397 0.040867 -0.021631 575522.000000 0 0 1
16.177227 -32.885030 -21.889018 42.687903 -1.113623 2.109203 0.056702 -0.015453 301261.000000 0 0 1
17.447627 -32.552830 -21.367918 42.669596 -1.078782 2.095292 0.051136 -0.019414 -53188.300000 0 0 1
18.497927 -33.627630 -21.724018 44.101290 -1.067891 2.085864 0.039710 -0.011024 421008.000000 0 0 1
19.875227 -33.296330 -21.532818 44.354623 -1.032645 2.077696 0.047109 -0.006669 597413.000000 0 0 1
20.638427 33.675088 -21.615018 45.024052 1.020968 2.071539 0.032980 -0.007669 11955.000000 0 0 1
22.165627 33.773588 -21.383218 45.707902 0.990005 2.057623 0.059199 -0.007306 125887.000000 0 0 1
22.895227 -33.891430 -22.493118 46.677198 -0.976672 2.073603 0.054348 -0.007927 605998.000000 0 0 1
24.295827 -34.035730 -22.201618 47.345855 -0.950847 2.058869 0.042931 -0.005538 1001450.000000 0 0 1
25.235827 -33.699830 -23.389518 48.162175 -0.928037 2.077892 0.063186 -0.009565 12611.900000 0 0 1
25.406927 -32.300230 -23.627218 47.403188 -0.904288 2.092584 0.071023 -0.018099 135042.000000 0 0 1
24.304627 -31.621930 -24.223018 46.662790 -0.915497 2.116603 0.056326 -0.017963 185949.000000 0 0 1
24.292727 -30.123130 -23.951918 45.510812 -0.892136 2.125029 0.065487 -0.023788 -315611.000000 0 0 1
25.252327 -29.433830 -24.702218 45.980757 -0.861713 2.137945 0.073288 -0.027162 -162730.000000 0 0 1
25.190027 -28.042930 -24.473618 44.943313 -0.838940 2.146642 0.084859 -0.023607 234658.000000 0 0 1
25.866527 -27.083030 -25.479688 45.296603 -0.808369 2.168212 0.077158 -0.018898 -462541.000000 0 0 1
25.052627 -26.790130 -26.567518 45.289935 -0.818900 2.197663 0.067395 -0.017184 -277523.000000 0 0 1
25.716227 -25.951930 -27.535258 45.749508 -0.789960 2.216637 0.051327 -0.010013 6263.520000 0 0 1
24.781027 -25.438330 -28.684458 45.650916 -0.798486 2.250218 0.051482 -0.009579 745807.000000 0 0 1
23.809427 -24.419030 -28.469938 44.426515 -0.798037 2.266378 0.059312 -0.011283 696263.000000 0 0 1
22.643827 -24.817730 -27.736338 43.565664 -0.831170 2.260950 0.063073 -0.012064 93358.200000 0 0 1
21.640327 -23.673130 -27.541628 42.276023 -0.830229 2.280319 0.076253 -0.011715 -317915.000000 0 0 1
21.141827 -23.156130 -28.733778 42.530145 -0.830839 2.312588 0.088488 -0.017879 169715.000000 0 0 1
20.511727 -21.901930 -28.389908 41.308745 -0.818164 2.328509 0.084515 -0.009834 -255100.000000 0 0 1
19.807227 -21.278530 -29.571438 41.467723 -0.821193 2.364734 0.094876 -0.020881 -27025.800000 0 0 1
18.595627 -21.941530 -29.877978 41.471939 -0.867751 2.375231 0.098438 -0.027446 -63133.500000 0 0 1
17.843027 -21.438130 -30.918028 41.640023 -0.876666 2.407602 0.075341 -0.033827 -184897.000000 0 0 1
16.443327 -22.094530 -30.948728 41.429157 -0.931001 2.414376 0.090749 -0.038496 -263259.000000 0 0 1
16.534627 -23.426530 -31.257308 42.417161 -0.956183 2.399273 0.092166 -0.021158 114265.000000 0 0 1
15.407427 -24.185230 -30.865148 42.130411 -1.003572 2.392945 0.110905 -0.036471 -118832.000000 0 0 1
15.700527 -25.682730 -31.029758 43.231413 -1.022090 2.371376 0.130940 -0.038078 -342749.000000 0 0 1
14.705327 -26.526130 -30.546348 43.046041 -1.064603 2.359756 0.138049 -0.038586 -490557.000000 0 0 1
14.986827 -27.871130 -30.816858 44.171073 -1.077431 2.342937 0.171196 -0.041537 -62763.800000 0 0 1
14.005027 -28.937130 -30.269688 44.156000 -1.120046 2.326110 0.165177 -0.038306 -3446.120000 0 0 1
14.009527 -29.260330 -28.864558 43.423456 -1.124261 2.297919 0.179600 -0.044072 -146457.000000 0 0 1
13.812327 -28.221730 -27.889198 42.012544 -1.115647 2.296725 0.159245 -0.037959 -1449730.000000 0 0 1
14.932327 -28.003730 -26.966188 41.645631 -1.080922 2.275116 0.121919 -0.025820 -1138840.000000 0 0 1
15.066827 -29.104630 -26.010068 41.840321 -1.093107 2.241645 0.108356 -0.034773 383285.000000 0 0 1
16.014527 -28.810230 -24.966918 41.350229 -1.063463 2.219045 0.106420 -0.037080 -178945.000000 0 0 1
15.509627 -27.740630 -23.887318 39.757956 -1.060998 2.215321 0.080811 -0.031435 952169.000000 0 0 1
14.456627 -28.059230 -22.963218 39.033625 -1.095048 2.199743 0.074361 -0.029072 117139.000000 0 0 1
13.247427 -28.481930 -23.507818 39.234324 -1.135443 2.213254 0.077925 -0.022877 -714444.000000 0 0 1
11.992727 -28.398730 -22.603318 38.225952 -1.171217 2.203476 0.044675 -0.016779 257591.000000 0 0 1
11.671327 -27.081930 -22.170318 36.894090 -1.163885 2.215445 0.031717 -0.018049 -275912.000000 0 0 1
10.480427 -26.959130 -21.457118 36.014469 -1.200024 2.209047 0.041180 -0.023132 -530690.000000 0 0 1
10.003827 -25.502330 -21.168018 34.619798 -1.196970 2.228679 0.030434 -0.014884 -121067.000000 0 0 1
10.748527 -24.832430 -20.189218 33.760702 -1.162302 2.211812 0.027804 -0.008584 58941.600000 0 0 1
10.307027 -23.488630 -20.173218 32.632948 -1.157288 2.237229 0.029585 -0.013766 -344999.000000 0 0 1
10.594227 -22.781230 -18.831618 31.398279 -1.135504 2.214005 0.016753 -0.010484 -153325.000000 0 0 1
9.909427 -23.282730 -17.717218 30.889838 -1.168407 2.181643 0.027003 -0.009355 39033.100000 0 0 1
10.055527 -22.434630 -16.566718 29.645951 -1.149428 2.163757 0.029427 -0.008360 -7146.460000 0 0 1
9.297127 -22.926930 -15.322418 29.100811 -1.185548 2.125309 0.037358 -0.010315 281883.000000 0 0 1
9.988127 -24.021230 -14.734418 29.897914 -1.176740 2.086129 0.033148 -0.006763 416035.000000 0 0 1
9.338627 -24.369430 -13.493918 29.379669 -1.204847 2.047997 0.035734 -0.011850 221135.000000 0 0 1
9.571327 -25.822730 -13.043218 30.472106 -1.215840 2.013117 0.049581 -0.006479 1611300.000000 0 0 1
10.966027 -26.196830 -12.817318 31.157845 -1.174358 1.994750 0.043317 -0.010794 1146870.000000 0 0 1
11.216627 -27.534230 -13.139918 32.505446 -1.183952 1.986941 0.048852 -0.016388 -223896.000000 0 0 1
12.606427 -28.084830 -12.700318 33.301318 -1.148883 1.962080 0.045637 -0.022760 750852.000000 0 0 1
13.785727 -27.533730 -13.283418 33.535083 -1.106601 1.978067 0.063562 -0.015479 410313.000000 0 0 1
13.947727 -27.837130 -14.638918 34.405564 -1.106311 2.010290 0.066980 -0.013691 -1183660.000000 0 0 1
15.314427 -27.395030 -15.183818 34.864993 -1.061053 2.021394 0.062176 -0.008235 300722.000000 0 0 1
16.318627 -28.430830 -15.015918 36.056726 -1.049732 2.000336 0.078776 -0.007611 -558070.000000 0 0 1
17.457127 -27.955630 -15.607618 36.467332 -1.012587 2.013063 0.102038 -0.014634 -336950.000000 0 0 1
18.820527 -28.695330 -15.445818 37.632533 -0.990303 1.993731 0.095682 -0.016449 778745.000000 0 0 1
18.853427 -29.858230 -16.259918 38.876093 -1.007585 2.002314 0.088986 -0.014348 503312.000000 0 0 1
20.209927 -30.258730 -16.481118 39.945703 -0.981938 1.996090 0.093433 -0.015418 834461.000000 0 0 1
20.451927 -31.421930 -17.477418 41.365193 -0.993802 2.007015 0.083167 -0.017349 130760.000000 0 0 1
20.029327 -32.721230 -17.003018 41.963740 -1.021513 1.987976 0.073218 -0.010359 124278.000000 0 0 1
20.433527 -33.764630 -17.907018 43.338673 -1.026580 1.996748 0.064834 -0.008638 113967.000000 0 0 1
20.287227 32.910688 -17.374118 42.385669 1.018381 1.993147 0.044048 -0.007275 -342151.000000 0 0 1
21.210227 32.501988 -16.413418 42.138501 0.992608 1.970897 0.059445 -0.014829 -272488.000000 0 0 1
20.977427 31.180688 -15.962018 40.829815 0.978580 1.972449 0.055098 -0.012748 -492112.000000 0 0 1
21.914627 30.789588 -14.837718 40.600585 0.952225 1.944919 0.052443 -0.013176 -279463.000000 0 0 1
23.267927 30.667488 -15.271818 41.414004 0.921740 1.948471 0.056393 -0.015450 570134.000000 0 0 1
24.241027 30.481288 -14.250418 41.470601 0.898943 1.921573 0.065119 -0.014281 342296.000000 0 0 1
24.119027 29.268088 -13.337118 40.202328 0.881548 1.908954 0.058215 -0.008942 -1186870.000000 0 0 1
24.219727 28.045188 -14.026218 39.621491 0.858462 1.932647 0.059004 -0.009489 58042.100000 0 0 1
23.939627 26.921588 -13.221918 38.375732 0.843960 1.922544 0.043300 -0.000624 859649.000000 0 0 1
22.398327 26.713588 -13.015118 37.211479 0.873039 1.928112 0.047815 -0.003937 14679.600000 0 0 1
21.647227 25.999788 -14.014718 36.619718 0.876495 1.963524 0.057153 -0.012747 702162.000000 0 0 1
20.232727 26.121288 -13.869518 35.833622 0.911756 1.968230 0.060765 -0.017022 704446.000000 0 0 1
19.552127 27.564488 -13.954818 36.562599 0.953841 1.962398 0.052234 -0.013242 -536570.000000 0 0 1
19.538127 28.144388 -15.275118 37.512321 0.963967 1.990186 0.061219 -0.021171 267859.000000 0 0 1
18.465227 27.593088 -16.040318 36.873228 0.981044 2.020849 0.051381 -0.009805 22970.800000 0 0 1
18.489427 28.319788 -17.418518 38.043056 0.992399 2.046387 0.041371 -0.007408 1069.290000 0 0 1
17.999627 29.664888 -17.332118 38.786525 1.025417 2.034048 0.047200 -0.011635 -192032.000000 0 0 1
17.903127 30.233088 -18.612218 39.761492 1.036154 2.057932 0.024511 -0.004240 -595251.000000 0 0 1
16.837627 31.261588 -18.917718 40.232731 1.076744 2.060322 0.023785 -0.003363 -631523.000000 0 0 1
16.992227 32.474388 -18.252818 40.944927 1.088722 2.032852 0.047098 -0.023307 -233156.000000 0 0 1
16.118127 33.480588 -18.702018 41.599390 1.122125 2.037085 0.046172 -0.019394 -228360.000000 0 0 1
16.130427 -33.407430 -17.786818 41.141439 -1.120971 2.017875 0.056720 -0.015422 125880.000000 0 0 1
15.342327 -32.300330 -18.229318 40.137344 -1.127356 2.042241 0.039147 -0.015735 -27471.800000 0 0 1
15.088227 -31.392430 -17.169318 38.832007 -1.122762 2.028783 0.048915 -0.014433 -22028.600000 0 0 1
13.850027 -30.525630 -17.429118 37.781100 -1.144855 2.050277 0.050735 -0.013727 1025.490000 0 0 1
12.608227 -31.190830 -17.523518 37.932954 -1.186650 2.051001 0.040853 -0.013893 147910.000000 0 0 1
11.541427 -30.307830 -17.869418 37.028168 -1.206945 2.074406 0.023713 -0.005322 1487240.000000 0 0 1
10.195827 -31.074330 -18.209018 37.431768 -1.253753 2.078829 0.053892 -0.011573 331574.000000 0 0 1
9.529327 -31.691930 -17.081618 37.242022 -1.278710 2.047289 0.058081 -0.003727 908763.000000 0 0 1
8.311827 -32.381430 -17.398318 37.687465 -1.319536 2.050648 0.079757 -0.002260 1910410.000000 0 0 1
7.078227 -31.603730 -18.120418 37.111274 -1.350464 2.080906 0.077640 0.004297 551149.000000 0 0 1
7.149827 -30.976830 -19.386218 37.235863 -1.343957 2.118388 0.063258 0.001350 -246667.000000 0 0 1
6.977527 -31.969230 -20.369318 38.543828 -1.355909 2.127596 0.076113 -0.012434 -555468.000000 0 0 1
7.494227 -31.461930 -21.776818 38.990336 -1.336954 2.163395 0.079860 -0.007380 579091.000000 0 0 1
8.906627 -31.250430 -21.901018 39.186375 -1.293150 2.163847 0.064103 -0.014637 669069.000000 0 0 1
9.759427 -32.367130 -21.965818 40.315936 -1.277943 2.146997 0.074924 -0.022970 -469193.000000 0 0 1
9.521927 -33.500630 -23.011318 41.743025 -1.293868 2.154672 0.090056 -0.032981 -487522.000000 0 0 1
8.452427 33.748888 -22.695418 41.539294 1.325394 2.148809 0.102957 -0.042756 22689.400000 0 0 1
8.161127 32.894488 -23.789418 41.407581 1.327607 2.182812 0.107208 -0.051377 50420.000000 0 0 1
6.857427 32.046788 -23.548618 40.355400 1.359994 2.193866 0.119078 -0.052568 454208.000000 0 0 1
5.650827 32.732588 -23.722518 40.818036 1.399845 2.190971 0.129125 -0.054735 -367104.000000 0 0 1
5.212427 33.381188 -22.594718 40.644734 1.415899 2.160251 0.104253 -0.049237 36271.500000 0 0 1
3.847727 -33.979830 -22.732418 41.063326 -1.458041 2.157470 0.087433 -0.035329 1235950.000000 0 0 1
2.643527 33.383288 -22.778618 40.500588 1.491774 2.168114 0.075036 -0.039765 734184.000000 0 0 1
1.503427 -33.940430 -23.031618 41.044714 -1.526529 2.166553 0.062520 -0.030531 459799.000000 0 0 1
0.184427 33.496688 -22.562118 40.387019 1.565291 2.163551 0.038775 -0.028164 214230.000000 0 0 1
-0.127373 33.671288 -21.193118 39.785929 -1.567014 2.132559 0.028371 -0.027074 -10319.000000 0 0 1
-1.423873 33.210288 -20.875718 39.252341 -1.527948 2.131561 0.026421 -0.034506 254158.000000 0 0 1
-1.788673 33.482388 -19.395718 38.735817 -1.517426 2.095224 0.030067 -0.028713 565331.000000 0 0 1
-0.973173 32.638788 -18.559318 37.559098 -1.540989 2.087638 0.034700 -0.029778 319210.000000 0 0 1
-1.448673 32.747488 -17.272018 37.051575 -1.526587 2.055743 0.010249 -0.013921 -13410.600000 0 0 1
-0.813073 31.704988 -16.335118 35.674969 -1.545157 2.046414 0.013820 -0.006233 447771.000000 0 0 1
0.523527 32.017088 -15.978018 35.786381 1.554446 2.033628 0.015528 -0.005550 -39039.000000 0 0 1
1.097227 30.886688 -15.332818 34.500532 1.535287 2.031326 0.028921 -0.005452 396956.000000 0 0 1
2.081627 31.168088 -14.160418 34.297235 1.504108 1.996403 0.044118 -0.008064 609661.000000 0 0 1
3.322427 31.724788 -14.587918 35.075747 1.466450 1.999726 0.061150 -0.006874 -60744.500000 0 0 1
4.163127 31.961688 -13.502418 34.945621 1.441272 1.967504 0.077963 -0.014578 -540955.000000 0 0 1
5.505327 32.544288 -13.946618 35.832213 1.403219 1.970581 0.091670 -0.021295 -423534.000000 0 0 1
6.350827 31.574588 -14.493518 35.317838 1.372307 1.993660 0.093693 -0.017297 -1330340.000000 0 0 1
7.558127 32.117388 -14.907518 36.206160 1.339673 1.995159 0.091130 -0.011738 -594596.000000 0 0 1
8.609427 31.013088 -15.094318 35.549575 1.300009 2.009315 0.084485 -0.014014 -88787.500000 0 0 1
8.913527 30.474488 -13.831118 34.633008 1.286242 1.981618 0.071652 -0.018295 -233292.000000 0 0 1
9.783527 29.330488 -13.813818 33.864679 1.248840 1.990963 0.061141 -0.015018 293413.000000 0 0 1
9.147527 27.902188 -13.820718 32.453376 1.253995 2.010713 0.076733 -0.019421 -258191.000000 0 0 1
8.719027 27.519188 -15.087018 32.572155 1.263968 2.052385 0.083291 -0.021648 -398949.000000 0 0 1
8.198627 26.261588 -14.949718 31.311061 1.268193 2.068556 0.079051 -0.020096 -483265.000000 0 0 1
7.626127 25.674488 -16.239818 31.322019 1.282065 2.115868 0.078874 -0.021989 -383712.000000 0 0 1
8.525727 24.943288 -16.990418 31.361281 1.241441 2.143331 0.082619 -0.010503 -1042790.000000 0 0 1
7.923627 24.122088 -17.957718 31.098853 1.253420 2.186386 0.065005 -0.006874 -625863.000000 0 0 1
8.734327 23.044888 -18.654918 30.908920 1.208511 2.218736 0.067796 0.000374 -526117.000000 0 0 1
8.066027 22.282388 -19.633718 30.774153 1.223479 2.262686 0.093965 -0.013920 20882.800000 0 0 1
8.977527 21.347788 -20.207218 30.735252 1.172712 2.288240 0.072801 -0.005533 -58608.200000 0 0 1
8.340727 20.439988 -21.260418 30.649082 1.183362 2.337371 0.067034 -0.017977 -101531.000000 0 0 1
7.537227 19.496888 -20.558018 29.318434 1.201907 2.347872 0.085462 -0.023131 41772.200000 0 0 1
6.888627 18.588288 -21.423718 29.188240 1.215898 2.394967 0.080220 -0.022207 80643.700000 0 0 1
24.959627 -12.693712 -9.144518 29.457351 -0.470480 1.886444 0.084307 -0.003522 -124672.000000 0 0 1
25.574627 -11.908112 -8.151618 29.365176 -0.435769 1.852086 0.085310 -0.018391 326633.000000 0 0 1
24.723027 -11.726012 -7.061118 28.259279 -0.442873 1.823341 0.068162 -0.012213 -417868.000000 0 0 1
25.492327 -11.345412 -5.727018 28.484660 -0.418732 1.773232 0.050602 -0.016170 -54301.900000 0 0 1
25.727427 -9.974612 -5.409618 28.118630 -0.369861 1.764389 0.058646 -0.024395 356599.000000 0 0 1
26.457427 -9.198812 -6.319218 28.714911 -0.334610 1.792680 0.045541 -0.026073 -1019590.000000 0 0 1
26.668627 -7.736712 -5.730918 28.353409 -0.282355 1.774323 0.082186 -0.025693 -295314.000000 0 0 1
27.231127 -7.665312 -4.443018 28.636196 -0.274391 1.726580 0.116971 -0.042093 873863.000000 0 0 1
28.641627 -7.903412 -4.403318 30.036577 -0.269241 1.717925 0.135236 -0.047496 452288.000000 0 0 1
29.239627 -8.063812 -2.943018 30.473632 -0.269095 1.667523 0.141578 -0.045678 -237869.000000 0 0 1
29.327427 -6.762112 -2.313418 30.185693 -0.226613 1.647511 0.154073 -0.047737 276627.000000 0 0 1
30.216627 -6.790312 -1.225718 30.994440 -0.221049 1.610353 0.183572 -0.039404 -92658.000000 0 0 1
30.494827 -5.386812 -0.777218 30.976706 -0.174843 1.595889 0.183751 -0.046243 -496114.000000 0 0 1
29.398227 -4.822012 -0.128118 29.791341 -0.162576 1.575097 0.172999 -0.043310 -476731.000000 0 0 1
29.537427 -3.462412 0.183182 29.740233 -0.116689 1.564637 0.171982 -0.034278 -26254.400000 0 0 1
30.342427 -3.102212 1.476582 30.536321 -0.101886 1.522423 0.157565 -0.025473 48504.500000 0 0 1
29.769327 -3.643812 2.649382 30.108295 -0.121796 1.482687 0.167941 -0.029610 520401.000000 0 0 1
30.517627 -3.379412 3.857282 30.945511 -0.110287 1.445824 0.137561 -0.028641 148851.000000 0 0 1
30.092827 -4.328812 5.032882 30.816339 -0.142869 1.406743 0.145086 -0.036960 -64513.300000 0 0 1
30.429827 -5.658712 4.741082 31.312510 -0.183859 1.418800 0.133130 -0.041126 170107.000000 0 0 1
30.292027 -6.366112 5.950782 31.520566 -0.207144 1.380866 0.131709 -0.045714 -251437.000000 0 0 1
31.149627 -7.619312 5.873582 32.601413 -0.239893 1.389644 0.114852 -0.044978 559016.000000 0 0 1
32.537427 -7.368112 6.129282 33.919631 -0.222694 1.389098 0.120145 -0.044187 280102.000000 0 0 1
33.296727 -8.519012 5.885582 34.869552 -0.250478 1.401196 0.112767 -0.040227 -51468.900000 0 0 1
34.816227 -8.313812 6.063982 36.305110 -0.234402 1.402981 0.107797 -0.032430 149124.000000 0 0 1
35.450327 -7.669812 4.945582 36.606154 -0.213070 1.435279 0.120695 -0.035618 -180152.000000 0 0 1
36.831227 -7.576812 5.221082 37.963233 -0.202887 1.432829 0.116096 -0.031083 172513.000000 0 0 1
-36.287225 -7.258512 3.963882 37.217752 0.197424 1.464089 0.106527 -0.023523 82020.400000 0 0 1
-36.292525 -8.436812 3.203882 37.397754 0.228410 1.485021 0.139040 -0.036519 385580.000000 0 0 1
-35.170825 -8.466012 2.333882 36.250618 0.236217 1.506370 0.143233 -0.046857 -226628.000000 0 0 1
-34.917025 -9.755612 1.501982 36.285349 0.272447 1.529391 0.146695 -0.033925 -390413.000000 0 0 1
-34.496625 -10.815712 2.307582 36.225981 0.303823 1.507054 0.125944 -0.028782 232558.000000 0 0 1
-34.242125 -11.904012 1.494082 36.283066 0.334573 1.529606 0.121093 -0.025329 -648890.000000 0 0 1
-33.522425 -13.058912 2.182182 36.042337 0.371472 1.510214 0.096826 -0.042664 -17375.400000 0 0 1
-32.244725 -12.821712 2.726982 34.807399 0.378468 1.492371 0.091909 -0.035477 422219.000000 0 0 1
-31.208825 -13.083412 1.773882 33.886768 0.396966 1.518425 0.098648 -0.016849 578835.000000 0 0 1
-29.801125 -13.373212 2.417282 32.753520 0.421813 1.496927 0.107003 -0.021364 457901.000000 0 0 1
-29.072925 -12.229712 2.747682 31.659921 0.398186 1.483900 0.118044 -0.026544 -299658.000000 0 0 1
-27.817225 -12.604412 3.242482 30.711283 0.425442 1.465020 0.123596 -0.015306 -373505.000000 0 0 1
-26.952125 -11.412112 3.717182 29.503742 0.400533 1.444470 0.132338 -0.011093 -178594.000000 0 0 1
-25.733425 -11.848512 4.264682 28.649326 0.431496 1.421383 0.127945 -0.001703 -309858.000000 0 0 1
-24.835325 -10.838312 4.561382 27.478511 0.411493 1.404026 0.117702 -0.006038 -80618.900000 0 0 1
-23.514525 -11.417812 5.133382 26.639274 0.452032 1.376884 0.109018 0.002844 157366.000000 0 0 1
-23.610125 -12.040612 6.389982 27.262542 0.471597 1.334209 0.092858 0.007927 368863.000000 0 0 1
-22.334925 -12.594412 6.728882 26.509356 0.513444 1.314158 0.082272 0.006496 721941.000000 0 0 1
-21.962425 -12.421112 8.238082 26.542383 0.514712 1.255209 0.090402 -0.002338 -266431.000000 0 0 1
-21.702925 -11.079012 8.732982 25.884869 0.472000 1.226666 0.089595 -0.001321 340690.000000 0 0 1
-22.871925 -10.320612 9.031682 26.668544 0.423880 1.225299 0.106256 -0.004766 -281063.000000 0 0 1
-23.404725 -10.390212 10.497082 27.675375 0.417800 1.181764 0.105552 -0.010684 -1115700.000000 0 0 1
-23.761025 -11.700312 10.900482 28.640952 0.457562 1.180361 0.093125 -0.016923 239089.000000 0 0 1
-25.003325 -12.183812 10.426782 29.704028 0.453426 1.212133 0.083845 -0.016361 -262455.000000 0 0 1
-26.221525 -11.469912 11.064282 30.684615 0.412346 1.201906 0.078718 -0.015179 -1002240.000000 0 0 1
-26.571025 -11.838812 12.397382 31.620751 0.419150 1.167921 0.084197 -0.023309 874219.000000 0 0 1
-27.848725 -11.370512 12.866282 32.716681 0.387637 1.166618 0.074195 -0.028141 547774.000000 0 0 1
-28.137825 -11.860612 14.294182 33.715500 0.398918 1.132978 0.079781 -0.019494 -245849.000000 0 0 1
-28.470325 -13.276212 14.362282 34.541169 0.436340 1.141972 0.058354 -0.016604 355599.000000 0 0 1
-28.369525 -13.734512 15.671582 35.200358 0.450870 1.109387 0.103079 -0.028127 -567532.000000 0 0 1
-27.854925 -15.158412 15.850582 35.453000 0.498373 1.107290 0.073341 -0.004106 -87672.200000 0 0 1
-28.813725 -16.207112 15.767682 36.626780 0.512373 1.125754 0.050864 -0.004240 249750.000000 0 0 1
-28.168625 -17.470412 15.708382 36.680240 0.555146 1.128239 0.049150 -0.007462 2563.600000 0 0 1
-29.002825 -18.636012 16.292782 38.130297 0.571126 1.129301 0.019414 0.006486 -45126.000000 0 0 1
-29.020825 -18.583912 17.736282 38.757525 0.569572 1.095478 0.032479 0.004487 -403728.000000 0 0 1
-29.612925 -19.681512 18.395782 40.033636 0.586588 1.093355 0.042912 -0.001017 -376084.000000 0 0 1
-28.796025 -21.005212 18.600282 40.204483 0.630218 1.089823 0.040467 -0.000635 -133686.000000 0 0 1
-27.651425 -20.798812 19.395482 39.665811 0.644894 1.059885 0.053463 0.002488 167858.000000 0 0 1
-26.822925 -21.946212 19.428382 39.731191 0.685734 1.059858 0.056081 -0.001486 -376757.000000 0 0 1
-25.440225 -21.730112 20.033282 38.996605 0.706906 1.031283 0.063785 -0.001895 -111900.000000 0 0 1
-24.463325 -21.309612 19.069382 37.632368 0.716608 1.039411 0.078116 -0.008909 -140700.000000 0 0 1
-23.257125 -21.073912 19.755082 37.084591 0.736190 1.009005 0.081972 -0.005836 566252.000000 0 0 1
-22.048325 -20.928512 18.734482 35.708711 0.759348 1.018495 0.080360 -0.017709 489762.000000 0 0 1
-21.714625 -22.058112 17.992382 35.802389 0.793245 1.044254 0.066561 -0.016917 864679.000000 0 0 1
-20.506925 -21.865912 17.227882 34.575309 0.817459 1.049193 0.066606 -0.019667 731102.000000 0 0 1
-20.358925 -22.914812 16.138882 34.641564 0.844393 1.086165 0.067752 -0.011627 -417770.000000 0 0 1
-20.300225 -24.317612 16.453982 35.695643 0.875196 1.091729 0.060974 -0.019547 245890.000000 0 0 1
-19.190725 -24.832512 17.183882 35.780209 0.912858 1.069843 0.060997 -0.019807 -189680.000000 0 0 1
-17.855125 -24.973512 16.460282 34.834217 0.950099 1.078635 0.055404 -0.019022 -146163.000000 0 0 1
-17.142125 -23.718312 16.377582 33.535592 0.944972 1.060582 0.059792 -0.024792 948346.000000 0 0 1
-15.918125 -23.866112 15.618182 32.663521 0.982580 1.072245 0.062430 -0.022609 765072.000000 0 0 1
-14.960225 -22.675012 15.642582 31.347326 0.987586 1.048342 0.066200 -0.022442 -229160.000000 0 0 1
-15.536025 -21.561512 14.941282 30.487846 0.946415 1.058622 0.062001 -0.019054 383296.000000 0 0 1
-16.613925 -20.829312 15.519282 30.833924 0.897507 1.043362 0.074153 -0.018291 138617.000000 0 0 1
-16.319425 -19.559912 16.305082 30.245156 0.875470 1.001431 0.073651 -0.022546 -601823.000000 0 0 1
-15.811425 -18.534512 15.504182 28.877482 0.864517 1.004044 0.067247 -0.022648 23698.100000 0 0 1
-15.664925 -17.365812 16.283782 28.497769 0.836847 0.962579 0.051283 -0.019968 -718411.000000 0 0 1
-15.057625 -16.124712 15.573182 27.004859 0.819606 0.956136 0.063241 -0.020080 -789061.000000 0 0 1
-15.870325 -15.422112 14.771082 26.606270 0.771076 0.982225 0.078327 -0.019484 -771507.000000 0 0 1
-16.072125 -15.975012 13.530982 26.393213 0.782368 1.032506 0.099025 -0.025132 508023.000000 0 0 1
-17.019225 -15.108512 12.555182 25.991417 0.725996 1.066660 0.089534 -0.021982 1047220.000000 0 0 1
-18.415725 -15.359212 12.727382 27.148307 0.695148 1.082854 0.076451 -0.017596 540546.000000 0 0 1
-19.230025 -14.511112 11.962982 26.897568 0.646443 1.109889 0.095461 -0.022915 372168.000000 0 0 1
-20.759425 -14.842012 12.054782 28.223338 0.620691 1.129490 0.078987 -0.019433 636086.000000 0 0 1
-21.169825 -16.062812 11.412782 28.921048 0.649084 1.165144 0.079822 -0.022773 267908.000000 0 0 1
-21.419425 -15.913412 10.003482 28.497335 0.638969 1.212123 0.081596 -0.018276 -560196.000000 0 0 1
-22.097125 -17.099112 9.399482 29.479023 0.658570 1.246277 0.072925 0.001480 -38780.300000 0 0 1
-21.265525 -18.245912 9.316682 29.528569 0.709123 1.249798 0.071395 0.006449 12240.100000 0 0 1
-22.024825 -19.332212 8.866582 30.617701 0.720383 1.276998 0.078271 -0.016066 -163349.000000 0 0 1
-21.362125 -20.693612 8.837382 31.026848 0.769504 1.281967 0.086991 -0.013111 -191685.000000 0 0 1
-20.284525 -20.866312 7.959182 30.169745 0.799535 1.303823 0.109637 -0.014678 17443.000000 0 0 1
-19.555825 -22.097112 8.172782 30.618736 0.846334 1.300600 0.111084 -0.020321 922046.000000 0 0 1
-18.109925 -22.059312 7.579482 29.530174 0.883402 1.311222 0.107416 -0.030721 706667.000000 0 0 1
-17.040325 -21.860912 8.492582 28.989586 0.908688 1.273483 0.087105 -0.032598 203833.000000 0 0 1
-15.840825 -21.789012 7.745482 28.030078 0.942172 1.290826 0.108685 -0.032748 82820.300000 0 0 1
-14.561725 -21.388912 8.527482 27.244216 0.973068 1.252445 0.039386 -0.021325 1069130.000000 0 0 1
-13.379425 -21.579512 7.694282 26.530856 1.015796 1.276556 0.065973 -0.016415 940606.000000 0 0 1
-12.210725 -21.457712 8.511282 26.114692 1.053438 1.238812 0.064525 -0.010969 848010.000000 0 0 1
-10.942725 -22.003912 7.775782 25.775534 1.109305 1.264349 0.060905 -0.008812 281650.000000 0 0 1
-10.962325 -23.415012 7.427282 26.899812 1.132931 1.291053 0.058120 -0.000598 -779174.000000 0 0 1
-9.728425 -23.853512 6.957782 26.684134 1.183549 1.307001 0.078514 -0.009542 -345312.000000 0 0 1
-9.630325 -25.415272 6.920182 28.045822 1.208594 1.321476 0.071330 -0.010481 -120618.000000 0 0 1
-10.361225 -26.096632 5.921282 28.695832 1.192850 1.362957 0.073911 -0.011825 -361743.000000 0 0 1
-10.349825 -27.484712 6.145582 30.004940 1.210653 1.364518 0.097499 -0.012281 -61306.400000 0 0 1
-9.270725 -28.356212 5.440882 30.325308 1.254813 1.390402 0.109275 -0.021375 237738.000000 0 0 1
-7.964725 -28.049252 5.935682 29.756171 1.294124 1.369972 0.106798 -0.023701 496194.000000 0 0 1
-6.976725 -29.001782 5.520282 30.335648 1.334720 1.387803 0.108202 -0.014220 411058.000000 0 0 1
-7.034725 -30.434752 6.217682 31.849977 1.343644 1.374317 0.119000 -0.022568 -421821.000000 0 0 1
-6.891725 -30.309972 7.607782 32.001072 1.347223 1.330763 0.111240 -0.012536 87561.000000 0 0 1
-6.757725 -31.530462 8.188582 33.269953 1.359667 1.322116 0.134257 -0.024284 -60134.900000 0 0 1
-6.917725 -31.590092 9.740182 33.773658 1.355215 1.278245 0.115135 -0.017126 346523.000000 0 0 1
-5.830725 -30.981822 10.433682 33.207414 1.384774 1.251185 0.094218 -0.002929 583152.000000 0 0 1
-6.186725 -31.040612 11.812982 33.783749 1.374064 1.213583 0.074053 0.001829 216149.000000 0 0 1
-5.305725 -30.238382 12.798682 33.261340 1.397101 1.175814 0.075319 -0.002758 115227.000000 0 0 1
-5.634725 -28.865912 12.606982 31.998859 1.378017 1.165836 0.076454 0.001435 249697.000000 0 0 1
-4.918725 -28.025992 13.491682 31.490881 1.397060 1.128040 0.064389 -0.008426 199415.000000 0 0 1
-5.737725 -27.676202 14.794882 31.902698 1.366376 1.088573 0.078177 -0.009008 352147.000000 0 0 1
-6.078725 -28.857652 15.538082 33.333871 1.363186 1.085879 0.081065 -0.014752 743636.000000 0 0 1
-5.060725 -29.309802 16.446182 33.987532 1.399819 1.065704 0.069488 -0.012636 729016.000000 0 0 1
-5.687725 -30.583092 16.999882 35.449566 1.386921 1.070653 0.056879 -0.010141 326173.000000 0 0 1
-5.780725 -31.610162 15.999582 35.897155 1.389920 1.108833 0.052835 -0.001508 -411459.000000 0 0 1
-6.569725 -32.626892 16.443182 37.122144 1.372094 1.111912 0.047673 -0.008725 -398431.000000 0 0 1
-6.204725 -33.961882 15.726482 37.937188 1.390093 1.143359 0.032642 -0.007066 91204.400000 0 0 1
-6.544725 34.002525 14.380582 37.494083 -1.380644 1.177167 0.041542 -0.006072 28253.600000 0 0 1
-5.956725 32.790786 13.906882 36.112596 -1.391097 1.175483 0.032033 -0.009540 197263.000000 0 0 1
-4.746725 32.840312 12.943282 35.616654 -1.427251 1.198876 0.060058 -0.014890 459696.000000 0 0 1
-5.142725 33.423242 11.714982 35.788288 -1.418127 1.237308 0.059692 -0.020038 100205.000000 0 0 1
-3.965725 33.602846 10.975682 35.571672 -1.453322 1.257127 0.077490 -0.028277 -893115.000000 0 0 1
-4.182725 -34.013722 9.510882 35.565227 1.448439 1.300081 0.080967 -0.030670 -653170.000000 0 0 1
-4.552725 33.163752 8.479882 34.532161 -1.434369 1.322694 0.086564 -0.048041 801506.000000 0 0 1
-5.590725 32.189458 8.714582 33.813627 -1.398830 1.310130 0.098654 -0.044823 594349.000000 0 0 1
-7.025725 32.720895 8.988282 34.652662 -1.359291 1.308414 0.105556 -0.037006 -216544.000000 0 0 1
-7.608725 33.312725 7.859282 35.062782 -1.346245 1.344727 0.122591 -0.037111 -272245.000000 0 0 1
-8.989725 33.505600 8.160482 35.637535 -1.308665 1.339761 0.097001 -0.030836 574351.000000 0 0 1
-9.765625 33.715594 6.811282 35.756150 -1.288864 1.379132 0.112695 -0.035043 32780.000000 0 0 1
-9.636725 -33.075242 6.358582 35.032409 1.287287 1.388279 0.142406 -0.041192 -154038.000000 0 0 1
-10.184925 -33.010272 5.073282 34.916313 1.271525 1.424982 0.131863 -0.042155 -37065.500000 0 0 1
-10.855725 -31.683372 4.764582 33.828746 1.240701 1.429482 0.124613 -0.042591 162440.000000 0 0 1
-11.958025 -31.321532 5.560882 33.984646 1.206092 1.406428 0.129532 -0.044135 -471890.000000 0 0 1
-12.695325 -30.274922 5.053382 33.215642 1.173734 1.418065 0.124785 -0.039585 -129254.000000 0 0 1
-13.642825 -29.632782 6.102982 33.188474 1.139331 1.385855 0.112661 -0.034161 639270.000000 0 0 1
-14.804525 -30.416612 6.449082 34.437405 1.117825 1.382414 0.126987 -0.026031 998960.000000 0 0 1
-15.567825 -29.668972 7.422482 34.317609 1.087571 1.352786 0.111196 -0.025229 195501.000000 0 0 1
33.871309 -12.890712 -12.521118 38.343376 -0.363653 1.903450 0.051716 -0.029496 196691.000000 0 0 1
33.055779 -12.924912 -11.336818 37.259379 -0.372726 1.879966 0.081703 -0.033363 478018.000000 0 0 1
32.791169 -14.258912 -10.980318 37.405143 -0.410176 1.868736 0.072292 -0.030584 -398705.000000 0 0 1
33.878239 -14.914712 -10.096118 38.368155 -0.414712 1.837070 0.056812 -0.028745 -354021.000000 0 0 1
35.046839 -15.132012 -10.825918 39.679456 -0.407587 1.847134 0.063508 -0.033522 -993671.000000 0 0 1
36.057479 -15.578312 -9.985218 40.528141 -0.407819 1.819737 0.044956 -0.031197 -59802.400000 0 0 1
-36.448023 -15.541812 -10.491518 40.988757 0.403065 1.829638 0.013986 -0.032875 171239.000000 0 0 1
-36.035787 -14.238812 -10.417318 40.122839 0.376301 1.833441 0.022197 -0.023423 469338.000000 0 0 1
-34.799447 -13.961012 -11.107218 39.106031 0.381527 1.858789 0.045469 -0.027147 841025.000000 0 0 1
-34.335021 -12.516312 -11.046318 38.178173 0.349564 1.864329 0.068651 -0.033840 5956.040000 0 0 1
-33.575233 -12.128012 -9.914518 37.049731 0.346634 1.841698 0.088503 -0.029212 295444.000000 0 0 1
-32.818043 -10.968612 -10.077318 36.040071 0.322553 1.854189 0.102045 -0.034701 -321040.000000 0 0 1
-33.237123 -9.784212 -9.212418 35.851161 0.286289 1.830675 0.099404 -0.042272 -209757.000000 0 0 1
-32.868683 -9.801012 -7.839318 35.183306 0.289793 1.795496 0.122225 -0.037063 648264.000000 0 0 1
-33.436253 -8.624512 -7.168218 35.266819 0.252437 1.775479 0.153823 -0.048147 65713.300000 0 0 1
-32.777603 -8.458912 -5.805518 34.345720 0.252559 1.740644 0.141640 -0.039795 -199663.000000 0 0 1
-31.483923 -7.863612 -5.961818 32.994197 0.244758 1.752487 0.130985 -0.048873 827145.000000 0 0 1
-30.862503 -7.709112 -4.635618 32.146748 0.244780 1.715503 0.132301 -0.038408 75716.500000 0 0 1
-30.220443 -8.957412 -3.958818 31.767635 0.288153 1.695739 0.138638 -0.034749 -575147.000000 0 0 1
-31.099893 -10.037912 -3.675318 32.885726 0.312208 1.682791 0.152577 -0.034042 441072.000000 0 0 1
-31.703483 -9.914012 -2.360118 33.301180 0.303077 1.641728 0.135449 -0.032779 31046.500000 0 0 1
-32.374963 -11.186212 -1.884918 34.304846 0.332679 1.625770 0.129382 -0.024827 -120286.000000 0 0 1
-33.584333 -11.597812 -2.489518 35.617613 0.332512 1.640749 0.135278 -0.036027 254272.000000 0 0 1
-33.932623 -12.880112 -2.036218 36.351979 0.362779 1.626840 0.122026 -0.040994 587257.000000 0 0 1
-35.454653 -13.280112 -2.158518 37.921669 0.358390 1.627748 0.088596 -0.022279 864344.000000 0 0 1
-36.318723 -12.619712 -1.290318 38.470400 0.334420 1.604343 0.118984 -0.029157 1371560.000000 0 0 1
36.273189 -13.065512 -1.247718 38.574715 -0.345730 1.603147 0.155971 -0.031598 1427230.000000 0 0 1
35.376079 -12.232312 -0.274318 37.432228 -0.332910 1.578125 0.160545 -0.032744 81855.500000 0 0 1
35.728909 -12.332212 1.115582 37.813793 -0.332357 1.541290 0.169792 -0.031519 211990.000000 0 0 1
35.470489 -11.113412 1.807382 37.214650 -0.303627 1.522211 0.163397 -0.038444 -378566.000000 0 0 1
35.793169 -11.035712 3.322782 37.602909 -0.299071 1.482316 0.150342 -0.045375 42954.300000 0 0 1
34.992239 -11.745912 4.295082 37.160073 -0.323854 1.454954 0.135110 -0.047098 335783.000000 0 0 1
35.716579 -12.080412 5.468682 38.098778 -0.326151 1.426759 0.124962 -0.045385 -309333.000000 0 0 1
34.765979 -12.461912 6.593982 37.516039 -0.344184 1.394114 0.113202 -0.035800 -64245.100000 0 0 1
34.094299 -11.342312 7.138882 36.633768 -0.321158 1.374670 0.113518 -0.038197 -212586.000000 0 0 1
33.359389 -11.773312 8.244882 36.324067 -0.339277 1.341819 0.093356 -0.019505 -339354.000000 0 0 1
32.637599 -10.555212 8.902482 35.438391 -0.312790 1.316866 0.095557 -0.028207 172423.000000 0 0 1
31.478109 -10.021512 8.239282 34.046848 -0.308219 1.326371 0.114259 -0.032058 582089.000000 0 0 1
30.833909 -9.086412 9.101082 33.408420 -0.286577 1.294890 0.123558 -0.022227 979524.000000 0 0 1
29.259619 -9.162012 9.053782 31.969341 -0.303457 1.283665 0.140232 -0.030677 782140.000000 0 0 1
28.682379 -8.821112 7.851182 31.018252 -0.298364 1.314898 0.151758 -0.033768 114166.000000 0 0 1
27.536579 -9.643412 7.613882 30.153438 -0.336856 1.315528 0.176850 -0.041901 520835.000000 0 0 1
26.586579 -9.136412 6.458182 28.844901 -0.331004 1.344989 0.176474 -0.047053 77744.800000 0 0 1
25.696379 -8.155512 6.898482 27.828139 -0.307324 1.320289 0.177029 -0.045666 348279.000000 0 0 1
24.720979 -7.678112 5.967582 26.564869 -0.301145 1.344221 0.174045 -0.041488 295464.000000 0 0 1
25.022579 -6.345112 5.252382 26.343452 -0.248341 1.370070 0.161231 -0.039413 -499564.000000 0 0 1
25.772779 -6.481912 4.082182 26.887089 -0.246392 1.418380 0.147166 -0.040636 124640.000000 0 0 1
26.235979 -5.238512 3.604682 26.995599 -0.197077 1.436868 0.156384 -0.040263 -149792.000000 0 0 1
26.740779 -5.279412 2.178582 27.343878 -0.194922 1.491038 0.163825 -0.042588 -248271.000000 0 0 1
25.810779 -5.547512 1.145982 26.425073 -0.211709 1.527416 0.149465 -0.042268 -147150.000000 0 0 1
26.438879 -5.757712 -0.091918 27.058715 -0.214426 1.574193 0.159846 -0.041969 -514179.000000 0 0 1
25.462279 -5.789412 -1.266918 26.142877 -0.223571 1.619277 0.131702 -0.036518 103169.000000 0 0 1
24.766279 -4.586712 -1.580818 25.236987 -0.183125 1.633476 0.147935 -0.031908 529853.000000 0 0 1
23.991279 -4.678612 -2.790018 24.601933 -0.192596 1.684447 0.121315 -0.029296 -23132.100000 0 1 0
22.691379 -3.867512 -2.795218 23.187703 -0.168817 1.691638 0.099029 -0.023479 -351893.000000 0 1 0
22.829279 -2.477012 -3.078218 23.168664 -0.108079 1.704052 0.099935 -0.027130 266704.000000 0 1 0
22.918279 -2.130912 -4.491618 23.451289 -0.092712 1.763517 0.104562 -0.023883 -69106.900000 0 1 0
21.867579 -1.083412 -4.950618 22.447125 -0.049504 1.793170 0.071755 -0.021204 44723.800000 0 1 0
22.015279 0.287188 -4.537118 22.479779 0.013044 1.774023 0.090175 -0.020141 -316011.000000 0 1 0
21.060279 1.138288 -5.046918 21.686458 0.053997 1.805672 0.095076 -0.014745 -1110610.000000 0 1 0
21.153379 2.492588 -4.248718 21.719348 0.117293 1.767685 0.114143 -0.009676 247009.000000 0 1 0
22.290179 3.300788 -4.553818 22.988792 0.147014 1.770204 0.145007 -0.013260 -52384.400000 0 1 0
23.390579 3.009388 -3.770918 23.882953 0.127955 1.729351 0.179035 -0.010677 -775975.000000 0 1 0
24.593279 3.919288 -4.127218 25.243299 0.158035 1.735031 0.173898 -0.014565 -277471.000000 0 0 1
24.293479 5.274388 -3.982818 25.176480 0.213793 1.729660 0.168691 -0.005770 -26645.200000 0 0 1
25.313179 6.056188 -3.429818 26.252583 0.234836 1.701818 0.159967 -0.014906 -473895.000000 0 0 1
24.984979 7.569988 -3.341118 26.319517 0.294190 1.698084 0.145166 -0.017899 -417458.000000 0 0 1
23.883479 7.709088 -2.507418 25.221772 0.312222 1.670376 0.159426 -0.026167 129685.000000 0 0 1
23.069879 8.818188 -2.835918 24.860052 0.365101 1.685121 0.145134 -0.022012 327846.000000 0 1 0
21.887979 9.228388 -1.891818 23.829095 0.399003 1.650271 0.114401 -0.022608 210989.000000 0 1 0
22.264679 9.740488 -0.599318 24.309509 0.412399 1.595452 0.090902 -0.013205 227883.000000 0 1 0
21.197979 10.083388 0.248682 23.475325 0.444000 1.560203 0.065631 -0.016390 -77883.600000 0 1 0
21.672579 10.312288 1.771782 24.066225 0.444119 1.497109 0.083900 -0.026774 -481349.000000 0 1 0
22.522679 11.401888 2.026882 25.325528 0.468627 1.490677 0.092779 -0.029879 216007.000000 0 0 1
22.066979 12.746288 2.115382 25.571357 0.523800 1.487977 0.092302 -0.022976 -46333.200000 0 0 1
20.877979 13.135888 3.077082 24.857796 0.561595 1.446691 0.073458 -0.016028 680575.000000 0 1 0
19.537879 12.847188 2.586582 23.525930 0.581666 1.460628 0.101578 -0.022503 1484140.000000 0 1 0
18.547079 13.528988 3.324282 23.196520 0.630213 1.426992 0.086610 -0.020330 -183793.000000 0 1 0
18.418179 13.375288 4.804982 23.264039 0.628095 1.362758 0.065562 -0.019530 -1366960.000000 0 1 0
18.004179 12.113488 5.226182 22.320395 0.592247 1.334459 0.041856 -0.013248 434832.000000 0 1 0
18.090179 11.996188 6.646582 22.701105 0.585552 1.273656 0.035838 -0.019550 -189636.000000 0 1 0
18.282279 10.542188 7.239982 22.311360 0.523062 1.240316 0.026173 -0.027480 -503975.000000 0 1 0
19.428979 9.867488 6.824482 22.834757 0.469928 1.267295 0.025932 -0.028853 -7172.560000 0 1 0
19.483479 8.601888 7.400382 22.546931 0.415760 1.236376 0.030363 -0.021850 117605.000000 0 1 0
20.466879 7.686588 6.611882 22.840617 0.359264 1.277114 0.044651 -0.018609 96514.600000 0 1 0
19.998979 7.539688 5.277082 22.014851 0.360526 1.328734 0.032782 -0.021829 245570.000000 0 1 0
20.914579 6.830388 4.520782 22.461329 0.315665 1.368142 0.048205 -0.022602 -436500.000000 0 1 0
20.577879 6.764588 3.003782 21.868504 0.317603 1.433004 0.061925 -0.015731 -377402.000000 0 1 0
21.540879 6.066888 2.286282 22.495415 0.274534 1.468987 0.067022 -0.017822 245280.000000 0 1 0
21.219379 6.118588 0.916282 22.102913 0.280734 1.529329 0.071764 -0.008802 192967.000000 0 1 0
22.316079 5.350188 0.111882 22.948735 0.235305 1.565921 0.119765 -0.011054 431401.000000 0 1 0
22.305179 4.003488 0.496682 22.667061 0.177596 1.548883 0.112239 -0.012298 685920.000000 0 1 0
23.455779 3.339788 -0.011518 23.692360 0.141436 1.571282 0.130035 -0.021590 300177.000000 0 1 0
23.324679 1.855388 0.210582 23.399305 0.079379 1.561797 0.146620 -0.023903 -779965.000000 0 1 0
22.277379 1.363388 -0.537318 22.325527 0.061124 1.594866 0.105220 -0.018055 -201557.000000 0 1 0
22.407079 0.079888 -1.070918 22.432799 0.003565 1.618553 0.117226 -0.022544 -1363290.000000 0 1 0
22.259679 -1.220112 -0.185718 22.293867 -0.054758 1.579127 0.128202 -0.017091 -46580.700000 0 1 0
23.268679 -1.476812 0.764882 23.328040 -0.063383 1.538002 0.137057 -0.019452 -133289.000000 0 1 0
24.532379 -1.754912 0.234782 24.596188 -0.071413 1.561251 0.149951 -0.033185 -1171310.000000 0 1 0
25.563079 -1.901312 1.343282 25.668861 -0.074241 1.518441 0.162145 -0.028161 -466442.000000 0 0 1
25.948479 -0.632912 1.944182 26.028907 -0.024386 1.496034 0.153776 -0.024075 560122.000000 0 0 1
26.832979 -0.817512 3.035882 27.016545 -0.030457 1.458187 0.143087 -0.024415 -74762.800000 0 0 1
26.861579 0.474088 3.873582 27.143578 0.017647 1.427600 0.153441 -0.019737 144237.000000 0 0 1
27.103079 1.618588 3.118682 27.329890 0.059649 1.456435 0.159666 -0.012802 -229115.000000 0 0 1
28.361879 1.827888 2.528482 28.532974 0.064360 1.482064 0.146707 -0.017953 -490045.000000 0 0 1
28.512079 3.079788 1.594882 28.722246 0.107600 1.515240 0.164893 -0.030879 -128339.000000 0 0 1
27.757979 2.982688 0.388882 27.920478 0.107043 1.556868 0.167045 -0.023151 267600.000000 0 0 1
28.034879 4.002788 -0.535518 28.324257 0.141820 1.589704 0.161997 -0.027397 788587.000000 0 0 1
29.406409 3.922588 -1.332918 29.696806 0.132609 1.615696 0.157840 -0.026711 613920.000000 0 0 1
30.518469 4.176288 -0.518618 30.807261 0.136000 1.587631 0.141526 -0.023515 -970870.000000 0 0 1
31.704249 3.891888 -1.190018 31.964392 0.122145 1.608034 0.122567 -0.023727 132148.000000 0 0 1
32.948689 4.180688 -0.261718 33.213894 0.126210 1.578676 0.094114 -0.023369 400244.000000 0 0 1
33.001629 3.423788 0.882182 33.190482 0.103376 1.544214 0.108873 -0.026474 45054.000000 0 0 1
32.365799 3.966988 2.017982 32.670387 0.121959 1.508989 0.103269 -0.007676 -70444.100000 0 0 1
32.424379 3.008588 3.222282 32.722700 0.092523 1.472164 0.115936 -0.012096 170894.000000 0 0 1
31.517619 1.909888 3.083082 31.725595 0.060523 1.473463 0.112290 -0.021646 360682.000000 0 0 1
31.900559 0.799588 3.926982 32.151302 0.025060 1.448350 0.113126 -0.026536 -25466.800000 0 0 1
33.100959 -0.105712 3.593382 33.295601 -0.003194 1.462662 0.126600 -0.023981 174818.000000 0 0 1
34.350839 0.482488 3.903082 34.575237 0.014045 1.457669 0.115362 -0.028124 319082.000000 0 0 1
35.430249 -0.421512 3.667582 35.622063 -0.011896 1.467655 0.106552 -0.022146 87913.300000 0 0 1
36.795829 0.122188 4.184882 37.033245 0.003321 1.457551 0.118727 -0.040445 215563.000000 0 0 1
-36.709353 1.269088 3.573382 36.904691 -0.034557 1.473817 0.116228 -0.038746 -109298.000000 0 0 1
-35.951801 0.883688 2.434482 36.044966 -0.024575 1.503205 0.145819 -0.036835 -594989.000000 0 0 1
-35.406936 2.024488 1.587482 35.500278 -0.057116 1.526064 0.165492 -0.033058 174056.000000 0 0 1
-34.391487 2.716188 2.318882 34.576426 -0.078815 1.503681 0.179850 -0.058552 107615.000000 0 0 1
-33.553243 3.425388 1.492582 33.760645 -0.101736 1.526571 0.190182 -0.033608 173226.000000 0 0 1
-32.434403 4.296388 2.174582 32.789911 -0.131697 1.504429 0.199110 -0.038350 73752.900000 0 0 1
-31.441433 3.617588 2.862882 31.778086 -0.114554 1.480584 0.189194 -0.052638 -494791.000000 0 0 1
-30.616453 4.469388 3.599282 31.149598 -0.144956 1.454989 0.190703 -0.042747 -430962.000000 0 0 1
-30.977103 4.564988 5.150982 31.732517 -0.146313 1.407750 0.201831 -0.037747 886517.000000 0 0 1
-32.333793 4.943188 5.495782 33.167950 -0.151705 1.404333 0.188879 -0.026621 1466030.000000 0 0 1
-33.327313 3.914288 5.477382 34.000487 -0.116914 1.408994 0.179203 -0.029090 214981.000000 0 0 1
-33.269353 3.050088 6.781582 34.090214 -0.091423 1.370530 0.145070 -0.028820 -723493.000000 0 0 1
-33.804663 3.807288 7.898082 34.923207 -0.112154 1.342667 0.140161 -0.029252 426034.000000 0 0 1
-33.903463 2.991188 9.108482 35.232888 -0.087999 1.309304 0.114264 -0.026726 379635.000000 0 0 1
-35.182030 2.079988 9.138082 36.408874 -0.059052 1.317099 0.101118 -0.021443 -74027.100000 0 0 1
-35.120068 1.045288 8.157882 36.070249 -0.029754 1.342656 0.099719 -0.029470 499716.000000 0 0 1
-36.145763 0.034088 8.182482 37.060361 -0.000943 1.348174 0.098803 -0.022928 234434.000000 0 0 1
-36.261193 -0.859112 9.498982 37.494571 0.023688 1.314662 0.088104 -0.012530 -451897.000000 0 0 1
-35.115497 -1.656312 9.698682 36.467876 0.047133 1.301606 0.100405 -0.022079 -94802.700000 0 0 1
-35.115764 -2.436612 10.901782 36.849733 0.069277 1.270457 0.094271 -0.017048 591768.000000 0 0 1
-33.787623 -3.254412 11.094182 35.711000 0.096023 1.254903 0.086008 -0.010467 542954.000000 0 0 1
-33.672773 -4.160312 10.044482 35.384395 0.122928 1.282971 0.090791 -0.011535 336969.000000 0 0 1
-32.446063 -4.886212 10.079282 34.325122 0.149472 1.272762 0.086716 -0.011196 472594.000000 0 0 1
-32.259163 -5.877112 8.928782 33.984072 0.180208 1.304941 0.077901 -0.010574 639750.000000 0 0 1
-33.190023 -6.985312 8.940582 35.075721 0.207437 1.313059 0.081870 -0.011385 593040.000000 0 0 1
-32.930993 -7.771212 7.792182 34.721177 0.231745 1.344447 0.088127 -0.021031 296027.000000 0 0 1
-33.755503 -9.091912 7.876582 35.834862 0.263102 1.349185 0.095291 -0.026176 752136.000000 0 0 1
-35.144507 -8.825112 7.732382 37.051433 0.246022 1.360558 0.091864 -0.031099 70821.100000 0 0 1
-35.954530 -9.975212 7.723482 38.103612 0.270633 1.366685 0.104977 -0.027085 18529.200000 0 0 1
7.841327 -23.648212 10.605682 27.077755 -1.250623 1.168345 0.121070 -0.033882 -31652.700000 0 0 1
7.268527 -24.402212 9.571682 27.201407 -1.281301 1.211216 0.113262 -0.031484 224776.000000 0 0 1
5.950227 -24.825812 9.923282 27.389737 -1.335555 1.200063 0.099979 -0.025690 626354.000000 0 0 1
5.420627 -25.926982 9.025682 27.983111 -1.364692 1.242384 0.088225 -0.015318 -227421.000000 0 0 1
5.152327 -25.345472 7.772482 27.006497 -1.370245 1.278867 0.089465 -0.014406 -251561.000000 0 0 1
4.795727 -26.303872 6.769382 27.581102 -1.390457 1.322827 0.084344 -0.015000 -431545.000000 0 0 1
4.334627 -25.820842 5.357082 26.724580 -1.404474 1.368974 0.063537 -0.014250 768269.000000 0 0 1
2.918327 -25.616162 5.295682 26.320118 -1.457360 1.368211 0.047753 -0.021771 137065.000000 0 0 1
2.299927 -26.760422 4.798382 27.284324 -1.485062 1.394011 0.045433 -0.023682 22530.200000 0 0 1
0.743927 -26.674052 4.679982 27.091709 -1.542914 1.397180 0.058517 -0.027123 431557.000000 0 0 1
0.202927 -26.434732 5.969682 27.101169 -1.563120 1.348701 0.050015 -0.020066 1256490.000000 0 0 1
-1.244773 -26.264702 6.022982 26.975180 1.523438 1.345620 0.052009 -0.021750 1883520.000000 0 0 1
-2.117173 -27.536052 6.304582 28.327801 1.494060 1.346359 0.059542 -0.015607 -123938.000000 0 0 1
-1.889573 -28.250392 7.507682 29.291986 1.504009 1.311599 0.059101 -0.023909 -165874.000000 0 0 1
-2.422573 -29.544632 7.498282 30.577416 1.488982 1.323047 0.076210 -0.020162 -199925.000000 0 0 1
-2.133473 -30.390772 8.787782 31.707662 1.500710 1.289970 0.070231 -0.018329 61337.400000 0 0 1
-0.789473 -30.736122 9.017982 32.041480 1.545116 1.285494 0.062217 -0.016466 -405009.000000 0 0 1
-0.590473 -31.010672 10.408882 32.716284 1.551758 1.247013 0.058228 -0.006274 808688.000000 0 0 1
0.866727 -31.299652 10.918382 33.160677 -1.543112 1.235280 0.048878 -0.012217 673317.000000 0 0 1
1.310027 -32.650942 10.682782 34.379093 -1.530696 1.254830 0.063707 -0.018791 -290288.000000 0 0 1
2.660927 -32.739572 11.067182 34.661832 -1.489699 1.245816 0.080211 -0.015572 -70056.700000 0 0 1
2.989827 -33.359252 12.476382 35.741277 -1.481410 1.214213 0.082932 -0.017263 -231942.000000 0 0 1
2.651027 -32.457732 13.557682 35.275247 -1.489301 1.176304 0.066089 -0.013074 261612.000000 0 0 1
3.235227 -32.857262 14.805082 36.183654 -1.472650 1.149258 0.069332 -0.013597 -162267.000000 0 0 1
2.988327 -31.785662 15.895082 35.663876 -1.477057 1.108850 0.067532 -0.009263 101030.000000 0 0 1
3.613627 -30.556802 15.603782 34.500065 -1.453084 1.101473 0.059834 -0.007857 69179.200000 0 0 1
5.005427 -30.458182 15.847082 34.697048 -1.407915 1.096484 0.058073 -0.003113 -129693.000000 0 0 1
5.558827 -29.238652 15.062782 33.356959 -1.382919 1.102280 0.066850 -0.010255 -462022.000000 0 0 1
5.667427 -29.314822 13.640482 32.825924 -1.379823 1.142260 0.064702 -0.011349 -664861.000000 0 0 1
4.552427 -29.554002 12.845982 32.545090 -1.417960 1.165040 0.057551 -0.010336 -1161310.000000 0 0 1
4.836927 -29.601732 11.365582 32.075456 -1.408828 1.208589 0.056053 -0.014570 153033.000000 0 0 1
5.488227 -30.733262 10.810082 33.038037 -1.394083 1.237456 0.059378 -0.013324 716687.000000 0 0 1
6.866827 -30.922312 11.163082 33.585072 -1.352275 1.231968 0.066186 -0.012150 367634.000000 0 0 1
7.334327 -32.356732 10.776982 34.884005 -1.347892 1.256721 0.060659 -0.008951 -275702.000000 0 0 1
6.825727 -33.361442 11.634382 35.985208 -1.368982 1.241571 0.046945 -0.017600 182733.000000 0 0 1
7.074227 33.476123 11.118382 35.976575 1.362539 1.256608 0.059701 -0.018490 110498.000000 0 0 1
6.701327 32.335152 12.119882 35.176148 1.366443 1.219039 0.059720 -0.020255 249303.000000 0 0 1
5.302427 32.164894 12.246082 34.823307 1.407414 1.211449 0.069234 -0.018490 95842.100000 0 0 1
4.986027 30.854426 12.761982 33.759803 1.410583 1.183136 0.090165 -0.015902 -633453.000000 0 0 1
3.779027 30.865366 13.643782 33.957395 1.448967 1.157324 0.105702 -0.026983 -638387.000000 0 0 1
4.083127 31.509346 14.882182 35.085470 1.441930 1.132752 0.112050 -0.028653 61565.900000 0 0 1
3.058227 31.248306 15.803282 35.150436 1.473238 1.104490 0.109248 -0.025948 -21647.100000 0 0 1
3.508127 31.530246 17.225582 36.099641 1.459990 1.073367 0.105156 -0.029060 13600.500000 0 0 1
3.817627 32.874880 17.388282 37.385617 1.455188 1.087042 0.097756 -0.023641 -117603.000000 0 0 1
4.411927 33.048098 18.647682 38.201805 1.438081 1.060843 0.086934 -0.018427 -75213.300000 0 0 1
4.574627 -33.647482 19.236282 39.027103 -1.435667 1.055382 0.063958 -0.016038 771843.000000 0 0 1
3.332927 -33.043512 19.622182 38.574760 -1.470272 1.037146 0.058131 -0.018543 355025.000000 0 0 1
3.594827 -31.888062 20.355882 38.001753 -1.458538 1.005511 0.052944 -0.020395 76751.600000 0 0 1
2.323627 -31.192122 20.865482 37.599416 -1.496440 0.982504 0.059497 -0.022869 -11697.200000 0 0 1
1.616527 -31.845442 21.886482 38.675101 -1.520078 0.969264 0.068842 -0.017756 -793640.000000 0 0 1
0.532827 -31.155082 22.388482 38.368831 -1.553696 0.947756 0.069951 -0.020014 -1510960.000000 0 0 1
-0.550173 -32.080572 22.795182 39.358431 1.553648 0.953087 0.059240 -0.018171 -1467880.000000 0 0 1
-1.401873 -32.443892 21.693982 39.053812 1.527614 0.981845 0.053030 -0.022527 102829.000000 0 0 1
-2.201473 -33.544972 22.059482 40.208611 1.505263 0.990077 0.053970 -0.019305 -151231.000000 0 0 1
-3.502873 -33.297842 22.845382 40.533047 1.465984 0.972030 0.066619 -0.019612 -713713.000000 0 0 1
-4.476473 -32.594402 22.142682 39.657688 1.434311 0.978406 0.064560 -0.023123 -1287080.000000 0 0 1
-5.552173 -32.359262 22.989682 40.080842 1.400872 0.959923 0.069991 -0.021631 -187485.000000 0 0 1
-6.755673 -31.768032 22.182782 39.330939 1.361261 0.971570 0.070313 -0.022013 294395.000000 0 0 1
-7.580773 -32.719662 21.561882 39.911892 1.343125 1.000078 0.044765 -0.014369 709145.000000 0 0 1
-8.868173 -32.200962 21.171482 39.544634 1.302057 1.005836 0.055857 -0.018936 589878.000000 0 0 1
-9.796773 -33.237402 20.614282 40.319353 1.284162 1.034129 0.069525 -0.018817 -285960.000000 0 0 1
-10.293773 33.980658 21.562782 41.540347 -1.276653 1.025022 0.083747 -0.036193 54032.700000 0 0 1
-11.679973 33.689201 21.442282 41.607157 -1.237066 1.029379 0.082050 -0.034259 741554.000000 0 0 1
-12.324773 32.903192 22.631282 41.793481 -1.212397 0.998573 0.082296 -0.039174 -198704.000000 0 0 1
-12.577173 33.714554 23.766382 43.124209 -1.213737 0.987097 0.086979 -0.039776 -188149.000000 0 0 1
-11.468373 -33.987952 24.545482 43.464757 1.245368 0.970701 0.081678 -0.039288 -56849.600000 0 0 1
-11.484373 -32.571992 25.152382 42.725493 1.231821 0.941350 0.069542 -0.031762 -68852.700000 0 0 1
-12.476973 -32.431002 26.158982 43.494104 1.203528 0.925497 0.081262 -0.029833 115992.000000 0 0 1
-12.925873 -31.099562 26.150582 42.639347 1.176890 0.910568 0.081886 -0.020286 332625.000000 0 0 1
-13.928573 -30.774672 27.286182 43.423741 1.145784 0.891340 0.083876 -0.019568 -229519.000000 0 0 1
-13.224073 -30.361842 28.446082 43.656582 1.160025 0.861121 0.063874 -0.014627 444418.000000 0 0 1
-14.010173 -30.264062 29.643082 44.619622 1.137241 0.844171 0.078966 -0.020181 617343.000000 0 0 1
-13.135073 -29.946082 30.948682 45.023537 1.157443 0.812908 0.059663 -0.015492 144080.000000 0 0 1
-13.953973 -29.709502 32.084882 45.899973 1.131697 0.796774 0.065385 -0.011487 -107962.000000 0 0 1
-13.470473 -29.160012 33.286282 46.257286 1.138049 0.767585 0.059886 -0.008707 -702364.000000 0 0 1
-12.625873 -30.106772 -33.913775 47.074138 1.173704 2.375223 0.062309 -0.003930 -508304.000000 0 0 1
-11.334473 -30.343822 33.649082 46.706301 1.213311 0.766360 0.052093 -0.002901 -492105.000000 0 0 1
-10.755973 -31.433342 -33.686375 47.312977 1.241102 2.363125 0.059329 -0.000042 -852453.000000 0 0 1
-9.243173 -31.464232 -33.654275 46.989832 1.285067 2.369143 0.074009 -0.009262 -880412.000000 0 0 1
-8.784073 -30.505212 -32.696975 45.572141 1.290428 2.370970 0.082544 -0.011858 -301852.000000 0 0 1
-7.399273 -30.768552 -32.635575 45.459144 1.334796 2.371592 0.092887 -0.023051 -422630.000000 0 0 1
-6.636073 -29.862362 -31.692775 44.048043 1.352128 2.373885 0.101001 -0.027097 -391787.000000 0 0 1
-7.000373 -30.057372 -30.339875 43.277694 1.341975 2.347667 0.102329 -0.029275 152646.000000 0 0 1
-6.216673 -29.247952 -29.468375 41.981839 1.361362 2.348902 0.097607 -0.031051 243413.000000 0 0 1
-6.498873 -29.474512 -27.955575 41.139961 1.353777 2.317909 0.104135 -0.036600 -59578.200000 0 0 1
-6.245173 -30.830342 -27.576575 41.832758 1.370935 2.290564 0.095556 -0.034311 343683.000000 0 0 1
-7.089173 -31.203372 -26.470375 41.528154 1.347396 2.261926 0.108830 -0.031176 336115.000000 0 0 1
-6.706473 -32.555142 -25.817075 42.087236 1.367635 2.231178 0.107868 -0.036734 264675.000000 0 0 1
-5.625173 -32.311482 -24.941675 41.203902 1.398432 2.220968 0.068266 -0.039085 -116373.000000 0 0 1
-5.196673 -33.460902 -24.257875 41.654314 1.416721 2.192427 0.077742 -0.042995 212245.000000 0 0 1
-4.053573 -33.197552 -23.214775 40.711604 1.449293 2.177576 0.081375 -0.049503 181872.000000 0 0 1
-4.359173 -32.617232 -21.974575 39.569788 1.437937 2.159565 0.094692 -0.046701 -96672.100000 0 0 1
-4.748373 -31.257892 -22.100275 38.574927 1.420039 2.180858 0.056402 -0.023358 -241898.000000 0 0 1
-5.222373 -30.688632 -20.723875 37.397116 1.402238 2.158146 0.097257 -0.033058 -741835.000000 0 0 1
-6.561173 -30.937172 -20.369975 37.617728 1.361812 2.143016 0.100313 -0.041995 114510.000000 0 0 1
-7.332973 -29.796882 -19.979175 36.616855 1.329493 2.147934 0.099856 -0.036383 141885.000000 0 0 1
-7.758473 -28.950972 -21.208975 36.717479 1.308962 2.186614 0.125989 -0.051279 -767306.000000 0 0 1
-6.663473 -28.424822 -21.941875 36.521476 1.340530 2.215290 0.112527 -0.029678 -278113.000000 0 0 1
-7.003073 -27.923712 -23.215375 36.982839 1.325071 2.249435 0.143600 -0.043665 -590545.000000 0 0 1
-5.814473 -28.069782 -24.196575 37.512598 1.366542 2.271853 0.128776 -0.036936 1265060.000000 0 0 1
-4.620673 -27.283072 -24.024175 36.645294 1.403028 2.285756 0.124519 -0.035774 1063810.000000 0 0 1
-3.945273 -27.248462 -22.746975 35.713705 1.427007 2.261300 0.078811 -0.030950 7868.260000 0 0 1
-2.428273 -26.861702 -22.657075 35.224857 1.480642 2.269483 0.066122 -0.027402 830842.000000 0 0 1
-1.972173 -25.557272 -23.001975 34.440593 1.493782 2.302145 0.072837 -0.027711 219165.000000 0 0 1
-2.235773 -24.674712 -21.948475 33.099481 1.480433 2.295757 0.081742 -0.032515 -647906.000000 0 0 1
-1.831573 -23.162612 -22.243575 32.165787 1.491886 2.334400 0.096051 -0.025741 -114608.000000 0 0 1
-2.624273 -22.447312 -23.182875 32.376138 1.454417 2.368921 0.112863 -0.038386 -179310.000000 0 0 1
-3.969573 -22.320112 -22.772975 32.133367 1.394789 2.358453 0.103447 -0.034202 -1273020.000000 0 0 1
-4.819273 -22.558512 -23.975275 33.270492 1.360326 2.375488 0.086154 -0.029062 -864502.000000 0 0 1
-5.019573 -21.397612 -24.763975 33.110547 1.340377 2.415716 0.103274 -0.020787 -72060.500000 0 0 1
-5.627173 -21.705312 -25.962175 34.304812 1.317128 2.429213 0.126681 -0.028550 -92027.900000 0 0 1
-5.667073 -20.476712 -26.962475 34.327635 1.300797 2.474211 0.133560 -0.036447 52552.000000 0 0 1
-6.109073 -20.670712 -28.313275 35.584275 1.283434 2.490906 0.143967 -0.028560 403109.000000 0 0 1
-5.245073 -21.507612 -29.087475 36.553650 1.331595 2.491037 0.122642 -0.027649 180229.000000 0 0 1
-5.847773 -21.882112 -30.426875 37.931754 1.309659 2.501680 0.121512 -0.024875 -254993.000000 0 0 1
-5.937473 -20.718612 -31.292475 37.996492 1.291699 2.538459 0.131545 -0.027441 138020.000000 0 0 1
-6.870073 -20.964312 -32.334675 39.143728 1.254121 2.542859 0.114478 -0.017217 153995.000000 0 0 1
-6.612573 -20.040412 -33.560575 39.644122 1.252083 2.580259 0.096144 -0.017227 441807.000000 0 0 1
-5.552373 -20.559112 33.673582 39.842390 1.307020 0.563914 0.096529 -0.018963 -100972.000000 0 0 1
-5.523973 -20.008712 32.418982 38.494847 1.301428 0.569512 0.094825 -0.012976 410300.000000 0 0 1
-4.254373 -20.399212 31.605382 37.856673 1.365188 0.582901 0.071328 -0.021390 -754594.000000 0 0 1
-4.199273 -21.771112 31.322282 38.375781 1.380254 0.615995 0.090291 -0.021723 53879.600000 0 0 1
-3.104073 -22.270312 30.596882 37.970663 1.432307 0.633766 0.080671 -0.013741 730196.000000 0 0 1
-1.605473 -22.106312 31.008282 38.115353 1.498299 0.620586 0.052927 -0.017632 180907.000000 0 0 1
-1.183473 -20.782812 30.916782 37.271615 1.513913 0.592586 0.039039 -0.016044 73728.300000 0 0 1
-0.262873 -20.254012 31.895582 37.783889 1.557818 0.565803 0.056633 -0.025264 59151.000000 0 0 1
-0.880373 -20.006112 33.305582 38.862338 1.526820 0.541349 0.047327 -0.027551 749894.000000 0 0 1
-1.897373 -18.955512 33.209582 38.285608 1.471033 0.520809 0.049174 -0.025535 510472.000000 0 0 1
-2.199973 -18.473612 -33.512475 38.330147 1.452267 2.634811 0.058175 -0.035359 -220464.000000 0 0 1
-3.388473 -17.524612 -33.488075 37.947924 1.379798 2.651894 0.062998 -0.033798 -332628.000000 0 0 1
-3.084673 -16.248512 34.000982 37.810000 1.383186 0.452724 0.051889 -0.024542 188508.000000 0 0 1
-3.999873 -15.230312 -33.612675 37.118369 1.313970 2.703479 0.068137 -0.030211 24062.800000 0 0 1
-3.536073 -13.829112 -33.893875 36.776934 1.320462 2.742997 0.064336 -0.038306 -564738.000000 0 0 1
-2.472473 -13.453112 -33.045375 35.764454 1.389040 2.749137 0.059126 -0.033901 18393.600000 0 0 1
-2.140873 -12.050312 -33.032475 35.226946 1.394970 2.786760 0.067019 -0.035687 -167086.000000 0 0 1
-1.463173 -11.523312 33.740482 35.683998 1.444497 0.331561 0.066597 -0.040104 -716826.000000 0 0 1
-2.362773 -11.372812 32.626982 34.632983 1.365954 0.342022 0.061889 -0.034442 188540.000000 0 0 1
-1.810873 -10.880912 31.359082 33.242526 1.405881 0.338233 0.059087 -0.026533 -489883.000000 0 0 1
-0.884973 -11.863812 30.681982 32.907708 1.496340 0.369897 0.049505 -0.033429 -35944.700000 0 0 1
-1.523773 -13.111512 30.357582 33.103118 1.455099 0.410150 0.060292 -0.033316 363445.000000 0 0 1
-0.563973 -14.123112 30.103582 33.256668 1.530885 0.438971 0.055627 -0.032575 51955.000000 0 0 1
-1.017173 -15.440412 30.664482 34.347509 1.505014 0.467336 0.051737 -0.027648 562937.000000 0 0 1
-2.104473 -15.985012 29.891182 33.962217 1.439896 0.494659 0.067613 -0.030760 595769.000000 0 0 1
-2.462673 -17.218012 30.486382 35.099062 1.428731 0.518465 0.062843 -0.026293 -283357.000000 0 0 1
-2.515173 -18.343012 29.416082 34.757705 1.434527 0.561761 0.067520 -0.019261 -809718.000000 0 0 1
-3.712473 -18.310012 28.720382 34.262214 1.370752 0.576726 0.075927 -0.026036 -488928.000000 0 0 1
-3.739273 -19.430712 27.914182 34.216024 1.380679 0.616647 0.079521 -0.025457 184547.000000 0 0 1
-4.684173 -19.270612 26.715782 33.272075 1.332347 0.638570 0.063164 -0.028407 -323030.000000 0 0 1
-4.972773 -20.328012 25.827382 33.241694 1.330881 0.680978 0.085443 -0.020124 -539423.000000 0 0 1
-3.950373 -20.930412 25.084882 32.908037 1.384252 0.703980 0.087492 -0.021772 -772475.000000 0 0 1
-29.873423 -33.762130 -0.406018 45.082898 0.846431 1.579802 0.063494 0.005625 -477133.000000 0 0 1
-29.203253 -32.649730 -0.019018 43.804512 0.841061 1.571230 0.083344 0.006789 -342271.000000 0 0 1
-29.854273 -32.110030 1.090982 43.857974 0.821786 1.545918 0.058361 0.010709 -115507.000000 0 0 1
-29.413593 -30.691130 1.412982 42.533533 0.806650 1.537570 0.075095 -0.001992 -749193.000000 0 0 1
-28.074343 -30.594430 1.758782 41.560573 0.828326 1.528465 0.076948 -0.003550 -982848.000000 0 0 1
-27.640143 -29.304530 2.203582 40.343386 0.814618 1.516148 0.084591 -0.017807 306493.000000 0 0 1
-26.099503 -29.206530 2.267282 39.234501 0.841518 1.512976 0.093475 -0.013682 33920.800000 0 0 1
-25.694523 -30.064530 3.301182 39.686047 0.863611 1.487518 0.077371 -0.003054 401270.000000 0 0 1
-24.273673 -30.017830 3.454082 38.758380 0.890808 1.481560 0.081672 -0.003514 616345.000000 0 0 1
-23.564773 -30.749330 4.569582 39.008985 0.916913 1.453385 0.074604 -0.012500 78445.500000 0 0 1
-23.964173 -30.215930 5.818482 39.001779 0.900279 1.421052 0.062007 -0.008195 338101.000000 0 0 1
-23.098273 -30.768430 6.803982 39.070714 0.926839 1.395759 0.052551 -0.005352 248648.000000 0 0 1
-23.622873 -30.466230 8.247682 39.424048 0.911250 1.360035 0.046869 0.003636 -37349.800000 0 0 1
-23.486273 -29.109830 8.572182 38.372771 0.891913 1.345503 0.071188 -0.012409 141097.000000 0 0 1
-23.968473 -28.800030 9.902282 38.755446 0.876705 1.312424 0.045383 -0.011365 101873.000000 0 0 1
-23.291673 -27.564830 10.605682 37.613859 0.869225 1.284958 0.059159 -0.017100 430991.000000 0 0 1
-21.924073 -27.803630 10.895282 37.046106 0.903087 1.272282 0.063020 -0.021346 113720.000000 0 0 1
-21.358073 -26.636630 11.522582 36.033973 0.894940 1.245310 0.077492 -0.026674 884816.000000 0 0 1
-19.891473 -26.869830 12.022182 35.527332 0.933538 1.225588 0.070596 -0.029334 502319.000000 0 0 1
-19.854573 -27.650930 13.214282 36.515685 0.948063 1.200513 0.059770 -0.018994 285007.000000 0 0 1
-18.497973 -27.709530 13.655882 36.006613 0.982171 1.181799 0.075276 -0.026891 611519.000000 0 0 1
-18.193873 -28.761830 14.776882 37.102778 1.006772 1.161168 0.075077 -0.025662 -273729.000000 0 0 1
-18.213473 -30.070530 14.251882 37.935254 1.026202 1.185656 0.073727 -0.020258 -41430.500000 0 0 1
-18.359573 -31.066430 15.212882 39.161573 1.037037 1.171832 0.068455 -0.016681 155420.000000 0 0 1
-18.397173 -32.492230 14.703382 40.129670 1.055599 1.195663 0.059476 -0.021311 52027.500000 0 0 1
-18.275873 -33.412730 15.761182 41.216901 1.070280 1.178408 0.059534 -0.014333 -6551.200000 0 0 1
-18.167473 33.452988 15.214482 40.995609 -1.073286 1.190576 0.051509 -0.016808 -99115.900000 0 0 1
-17.661073 32.366188 16.224582 40.283007 -1.071288 1.156261 0.062050 -0.016224 -299596.000000 0 0 1
-18.590373 32.213188 17.241982 40.994846 -1.047382 1.136702 0.062398 -0.029904 -220891.000000 0 0 1
-18.462473 31.091088 18.041682 40.410654 -1.034934 1.107993 0.040987 -0.017143 316026.000000 0 0 1
-19.332373 31.191888 19.330082 41.476820 -1.015953 1.085980 0.048360 -0.029388 638135.000000 0 0 1
-18.609273 32.013488 20.254582 42.206830 -1.044244 1.070268 0.053339 -0.020758 552330.000000 0 0 1
-19.472873 32.212488 21.348082 43.273291 -1.027065 1.054881 0.064821 -0.015535 -64324.700000 0 0 1
-18.929973 33.161588 22.403582 44.271382 -1.052094 1.040196 0.052007 -0.003360 -229259.000000 0 0 1
-17.892473 32.576088 23.147682 43.785354 -1.068528 1.013772 0.054259 -0.020428 -397146.000000 0 0 1
-17.608873 33.390588 24.252682 44.868657 -1.085501 0.999734 0.050135 -0.023871 722603.000000 0 0 1
-18.565773 33.106188 25.528282 45.742767 -1.059703 0.978722 0.050562 -0.028107 -26167.500000 0 0 1
-19.895773 33.460388 25.371382 46.466615 -1.034352 0.993198 0.037656 -0.027983 -848464.000000 0 0 1
-20.667973 32.431588 25.969682 46.404713 -1.003416 0.976852 0.045128 -0.021338 426168.000000 0 0 1
-22.184873 32.378988 25.606282 46.864156 -0.970098 0.992744 0.096572 -0.031226 455993.000000 0 0 1
-22.429173 31.968288 24.278382 45.983465 -0.958993 1.014575 0.093012 -0.020293 -376139.000000 0 0 1
-23.796173 31.981188 23.993982 46.527039 -0.931103 1.028972 0.084259 -0.027618 -522888.000000 0 0 1
-24.126473 31.568488 22.524182 45.672693 -0.918232 1.055072 0.077191 -0.025786 -9833.430000 0 0 1
-23.821273 32.616888 21.582682 45.794395 -0.940000 1.080038 0.083702 -0.026082 145310.000000 0 0 1
-23.474073 31.963388 20.378082 44.586506 -0.937351 1.096125 0.051687 -0.016595 -92848.200000 0 0 1
-23.012473 32.961688 19.289582 44.588505 -0.961308 1.123407 0.052392 -0.008434 554720.000000 0 0 1
-21.673273 33.449288 19.429682 44.340705 -0.995868 1.117212 0.049888 -0.005472 305452.000000 0 0 1
-21.209373 -33.988130 18.301482 44.045144 1.012900 1.142286 0.072191 -0.005567 -312870.000000 0 0 1
-19.936373 -33.213030 18.609382 42.975265 1.030187 1.122950 0.065190 -0.010474 -389440.000000 0 0 1
-20.171373 -32.215730 19.566882 42.750444 1.011382 1.095390 0.071654 -0.019581 909499.000000 0 0 1
-18.939973 -31.512730 19.848282 41.781922 1.029623 1.075781 0.056648 -0.025589 687434.000000 0 0 1
-19.105973 -30.450330 20.968582 41.616610 1.010439 1.042745 0.057187 -0.019543 -205050.000000 0 0 1
-19.677673 -29.321130 20.398782 40.780508 0.979725 1.046956 0.079378 -0.022126 40865.300000 0 0 1
-20.343473 -28.575030 21.394782 41.086810 0.952107 1.023101 0.088002 -0.016810 -521857.000000 0 0 1
-21.259673 -27.516230 20.813682 40.525621 0.912973 1.031429 0.080613 -0.021577 -871708.000000 0 0 1
-20.617573 -26.292130 20.465382 39.181530 0.905781 1.021224 0.066921 -0.010373 183271.000000 0 0 1
-21.491673 -25.250030 20.155882 38.803551 0.865632 1.024608 0.065600 -0.003327 -418081.000000 0 0 1
-22.626373 -25.399130 19.113582 39.017914 0.843069 1.058859 0.060994 -0.012001 -817694.000000 0 0 1
-23.804473 -25.869730 19.673782 40.285898 0.826950 1.060594 0.069684 -0.014182 -483877.000000 0 0 1
-24.859573 -25.657330 18.740282 40.342225 0.801189 1.087690 0.063094 -0.006647 428930.000000 0 0 1
-26.287233 -25.978030 19.278282 41.683676 0.779482 1.089995 0.054428 -0.011940 285853.000000 0 0 1
-26.671853 -27.306530 19.578982 42.899544 0.797156 1.096861 0.052732 -0.008940 -86862.900000 0 0 1
-26.857603 -28.170730 18.481382 43.086916 0.809256 1.127486 0.065599 -0.011046 -614599.000000 0 0 1
-28.089383 -29.060130 18.487382 44.444211 0.802383 1.141789 0.082747 -0.021639 -690170.000000 0 0 1
-29.278263 -28.350030 18.389682 44.711534 0.769292 1.146921 0.053213 -0.029321 -384088.000000 0 0 1
-30.356053 -29.083930 17.797482 45.652112 0.764000 1.170327 0.054205 -0.013870 749263.000000 0 0 1
-31.762513 -28.570730 18.207882 46.439970 0.732545 1.167912 0.058705 -0.015862 326559.000000 0 0 1
-31.984163 -27.206230 17.858182 45.629818 0.704851 1.168676 0.071845 -0.015351 889245.000000 0 0 1
-33.334073 -26.733730 18.047682 46.385036 0.675956 1.171159 0.058377 -0.004712 824896.000000 0 0 1
-33.458883 -25.344130 17.328382 45.410292 0.648265 1.179274 0.068381 -0.023424 -312804.000000 0 0 1
-33.576553 -25.421930 15.910882 45.020169 0.648051 1.209575 0.083471 -0.030399 -33010.500000 0 0 1
-34.050733 -24.314230 15.247882 44.532371 0.620099 1.221326 0.091522 -0.038224 -190275.000000 0 0 1
-32.977623 -23.268830 14.829182 42.998450 0.614471 1.218688 0.080945 -0.031101 11453.700000 0 0 1
-32.355533 -22.804430 15.999582 42.695540 0.613945 1.186684 0.070761 -0.024788 -151916.000000 0 0 1
-31.951123 -21.461830 16.013882 41.688473 0.591485 1.176529 0.055573 -0.023161 552426.000000 0 0 1
-33.130713 -20.412730 16.221782 42.160051 0.552193 1.175841 0.065867 -0.027739 1011820.000000 0 0 1
-33.721923 -20.382730 17.543682 43.132407 0.543675 1.151913 0.062565 -0.019110 755197.000000 0 0 1
-34.846363 -19.507630 17.580882 43.633749 0.510350 1.156092 0.077282 -0.025471 299092.000000 0 0 1
-35.293917 -18.963130 18.984582 44.335936 0.493034 1.128298 0.049471 -0.020302 250302.000000 0 0 1
-36.169283 -19.890630 19.688582 45.732860 0.502791 1.125735 0.061428 -0.023523 791384.000000 0 0 1
-36.601553 -19.284330 20.931882 46.364887 0.484913 1.102396 0.053673 -0.013288 -786607.000000 0 0 1
35.921539 -19.551730 21.301882 46.112876 -0.498449 1.090603 0.046488 -0.009749 -478915.000000 0 0 1
35.480619 -20.953430 21.621082 46.533770 -0.533449 1.087577 0.067351 -0.020603 342345.000000 0 0 1
36.218769 -21.566430 22.676982 47.866018 -0.537066 1.077241 0.043984 -0.008768 -281066.000000 0 0 1
35.679629 -22.947830 23.049582 48.279624 -0.571554 1.073082 0.054487 -0.004431 209102.000000 0 0 1
34.639089 -22.825830 24.016082 47.933884 -0.582649 1.046013 0.067197 -0.015335 181987.000000 0 0 1
34.352199 -24.109630 24.501682 48.597122 -0.611958 1.042365 0.075427 -0.023107 -291112.000000 0 0 1
33.473589 -24.107930 25.761482 48.634632 -0.624160 1.012556 0.082076 -0.023078 1076960.000000 0 0 1
32.114359 -23.794430 25.392382 47.352720 -0.637670 1.004821 0.084609 -0.021607 1241050.000000 0 0 1
31.137429 -24.040730 26.431082 47.393020 -0.657486 0.979184 0.070930 -0.018385 1625420.000000 0 0 1
29.754989 -24.636630 25.958182 46.541918 -0.691572 0.979139 0.074251 -0.023027 1112850.000000 0 0 1
28.823679 -23.718930 25.396882 45.148574 -0.688548 0.973368 0.082414 -0.016976 -426956.000000 0 0 1
27.586779 -24.321030 25.182382 44.572360 -0.722567 0.970390 0.075179 -0.010365 93147.400000 0 0 1
26.496079 -23.345430 24.607682 43.041716 -0.722269 0.962199 0.070571 -0.007768 195654.000000 0 0 1
26.669379 -22.918930 23.275782 42.169837 -0.709910 0.986091 0.073446 -0.009191 -173429.000000 0 0 1
27.789279 -22.108630 22.978982 42.297390 -0.672041 0.996467 0.085579 -0.002363 -309112.000000 0 0 1
27.710079 -21.403030 21.593082 41.136351 -0.657678 1.018181 0.083025 -0.008231 41815.300000 0 0 1
27.219379 -20.103330 21.735282 40.217670 -0.636144 0.999835 0.094710 -0.009303 -242855.000000 0 0 1
27.131779 -19.422730 20.487682 39.155089 -0.621295 1.020143 0.089466 -0.008032 -161900.000000 0 0 1
26.088579 -18.302430 20.524182 37.905606 -0.611765 0.998629 0.069622 -0.003475 -225475.000000 0 0 1
26.439579 -17.108930 21.192082 37.958809 -0.574331 0.978471 0.075524 -0.020222 -46007.700000 0 0 1
26.667279 -17.100030 22.599882 38.914130 -0.570190 0.951131 0.072797 -0.012695 -114625.000000 0 0 1
26.469479 -15.760630 23.284782 38.616213 -0.537050 0.923566 0.100041 -0.016753 -753780.000000 0 0 1
25.145279 -15.400930 23.495582 37.702999 -0.549544 0.898000 0.090839 -0.023210 -832371.000000 0 0 1
25.015879 -14.148030 24.123182 37.521845 -0.514712 0.872504 0.090725 -0.022975 998285.000000 0 0 1
23.603879 -13.546330 23.777982 36.139156 -0.521009 0.852695 0.088327 -0.029891 1116290.000000 0 0 1
22.469679 -14.194630 24.306082 36.016102 -0.563420 0.830012 0.094415 -0.021791 61147.900000 0 0 1
21.313079 -13.403930 24.425682 35.078863 -0.561403 0.800556 0.084372 -0.025716 -55458.100000 0 0 1
20.052979 -14.156830 24.872482 34.945360 -0.614722 0.778805 0.087246 -0.017659 -364261.000000 0 0 1
19.654279 -15.005030 23.860282 34.362111 -0.652053 0.803242 0.082150 -0.016119 680000.000000 0 0 1
18.335879 -15.523730 24.129882 34.050578 -0.702535 0.783216 0.085526 -0.011553 992129.000000 0 0 1
17.901679 -16.560330 23.098282 33.589363 -0.746495 0.812526 0.084662 -0.016571 -612377.000000 0 0 1
18.735479 -17.647630 23.202982 34.653072 -0.755507 0.837154 0.064669 -0.011272 -278157.000000 0 0 1
18.393479 -18.577030 22.189882 34.290188 -0.790363 0.866995 0.085938 -0.015377 11204.100000 0 0 1
18.740479 -20.023230 22.487882 35.466042 -0.818478 0.883994 0.056905 -0.010651 -176077.000000 0 0 1
17.925379 -20.560830 23.549682 36.036849 -0.853769 0.858612 0.038165 -0.020092 303062.000000 0 0 1
18.322879 -21.803430 24.097282 37.306789 -0.871921 0.868566 0.038412 -0.014999 -76669.900000 0 0 1
18.079679 -23.104230 23.229582 37.420499 -0.906801 0.901070 0.028953 -0.008966 154030.000000 0 0 1
18.838279 -23.119930 22.024282 37.073993 -0.887092 0.934696 0.041105 0.000007 63050.100000 0 0 1
19.864579 -24.107230 22.155482 38.296546 -0.881586 0.953878 0.047686 -0.004072 197395.000000 0 0 1
20.676379 -24.247130 20.827782 38.068786 -0.864717 0.991890 0.049509 -0.002782 322558.000000 0 0 1
19.919879 -24.856630 19.740282 37.474423 -0.895208 1.016004 0.046536 -0.010174 91768.900000 0 0 1
20.745379 -25.162330 18.690282 37.587768 -0.881317 1.050377 0.053836 -0.000717 -355147.000000 0 0 1
19.991279 -25.783930 17.494382 37.020477 -0.911275 1.078603 0.041677 -0.005935 56614.800000 0 0 1
19.449179 -27.021430 17.883682 37.792253 -0.946926 1.077865 0.064421 -0.020187 -12152.500000 0 0 1
18.508879 -27.460030 16.913182 37.184508 -0.977713 1.098598 0.085712 -0.017907 179617.000000 0 0 1
17.672179 -28.684530 17.497482 37.964063 -1.018632 1.091792 0.091361 -0.016779 323480.000000 0 0 1
16.832779 -28.219430 18.566282 37.741033 -1.032957 1.056481 0.079955 -0.020846 48938.900000 0 0 1
16.190479 -29.374230 19.082982 38.589341 -1.067048 1.053520 0.087002 -0.021662 790363.000000 0 0 1
14.825879 -29.135930 19.848482 38.244887 -1.100092 1.025134 0.073869 -0.015404 1053440.000000 0 0 1
13.816579 -28.687430 18.955482 37.056401 -1.121957 1.033831 0.074812 -0.017833 -584060.000000 0 0 1
12.653379 -28.276530 19.596082 36.656195 -1.150034 1.006772 0.041913 -0.012737 -596440.000000 0 0 1
11.697979 -27.665930 18.566782 35.312488 -1.170765 1.017158 0.052415 -0.015917 -371058.000000 0 0 1
10.971879 -28.682530 17.878782 35.534779 -1.205442 1.043574 0.067902 -0.019920 150669.000000 0 0 1
10.462779 -28.192130 16.647682 34.371664 -1.215428 1.065184 0.074250 -0.019607 -32169.200000 0 0 1
10.290179 -29.313330 15.598182 34.762946 -1.233194 1.105485 0.080187 -0.017404 234700.000000 0 0 1
9.264279 -30.262530 15.868382 35.404140 -1.273725 1.106038 0.069368 -0.017222 246198.000000 0 0 1
9.235779 -31.160130 14.773082 35.700102 -1.282648 1.144160 0.070841 -0.008075 598705.000000 0 0 1
8.055679 -32.214730 14.723282 36.324342 -1.325759 1.153458 0.062486 -0.009094 519105.000000 0 0 1
8.202479 -33.199730 15.735882 37.644664 -1.328582 1.139542 0.074125 -0.012164 -36259.000000 0 0 1
7.281779 33.868388 15.549382 37.972033 1.359018 1.148895 0.059892 -0.003656 203137.000000 0 0 1
7.448779 32.750988 16.580482 37.456961 1.347164 1.112240 0.088345 -0.017031 -445315.000000 0 0 1
8.629079 32.034988 16.420582 37.018063 1.307677 1.111204 0.074612 -0.019673 -679092.000000 0 0 1
8.767779 31.092888 17.453682 36.718832 1.295946 1.075454 0.095867 -0.025199 -72532.900000 0 0 1
10.042879 30.220988 17.518282 36.346358 1.249963 1.067881 0.066144 -0.025146 -42151.500000 0 0 1
10.302179 29.438388 16.327482 35.204265 1.234160 1.088525 0.091511 -0.024906 -258921.000000 0 0 1
11.581679 28.841788 16.330282 35.109288 1.188947 1.087018 0.081941 -0.031708 -81287.600000 0 0 1
12.162579 28.430988 14.982082 34.361493 1.166562 1.119632 0.072288 -0.029272 -184417.000000 0 0 1
11.442879 27.450388 14.267182 32.985084 1.175843 1.123495 0.085951 -0.029542 -403524.000000 0 0 1
12.265179 26.757488 13.387482 32.336086 1.140993 1.143941 0.082421 -0.022574 -214948.000000 0 0 1
-9.690673 -9.031112 19.410238 23.499521 0.750183 0.598850 0.080917 -0.033892 150425.000000 0 1 0
-9.931173 -9.221212 18.048038 22.569684 0.748346 0.644070 0.080371 -0.034106 -5000.710000 0 1 0
-9.709873 -10.545312 17.696538 22.773948 0.826620 0.680828 0.077066 -0.038478 1809.980000 0 1 0
-10.096473 -10.692112 16.241938 21.910285 0.814043 0.735802 0.087633 -0.037019 -257741.000000 0 1 0
-11.472573 -10.498512 16.018738 22.325740 0.741093 0.770588 0.086510 -0.042230 -99413.400000 0 1 0
-11.910273 -10.917312 14.749038 21.876390 0.741927 0.830917 0.101488 -0.041820 -33703.200000 0 1 0
-11.819173 -12.441112 14.307338 22.342203 0.811029 0.875813 0.076131 -0.042447 -100230.000000 0 1 0
-10.551173 -12.863912 13.785638 21.606742 0.883850 0.878866 0.086778 -0.043255 550605.000000 0 1 0
-10.394573 -14.223212 13.551138 22.225667 0.939685 0.915106 0.086070 -0.045502 -318114.000000 0 1 0
-10.154973 -15.094612 14.835138 23.474499 0.978591 0.886706 0.085860 -0.050630 159272.000000 0 1 0
-11.204173 -14.942112 15.786638 24.454410 0.927399 0.869048 0.087392 -0.030776 235655.000000 0 1 0
-10.760373 -15.481412 17.038338 25.411901 0.963399 0.835932 0.090266 -0.032021 814127.000000 0 0 1
-11.791673 -15.131812 18.203538 26.445871 0.908828 0.811609 0.058350 -0.014810 434634.000000 0 0 1
-12.117373 -13.744312 18.273138 25.877489 0.848225 0.786764 0.061345 -0.024906 773378.000000 0 0 1
-13.323773 -13.358212 17.581138 25.788780 0.786689 0.820663 0.067370 -0.042543 357565.000000 0 0 1
-14.615073 -13.414112 18.394038 27.053270 0.742578 0.823144 0.033884 -0.026980 -429076.000000 0 0 1
-15.054673 -14.770512 18.585938 28.111355 0.775871 0.848440 0.036820 -0.018882 417376.000000 0 0 1
-16.014673 -14.763112 19.676238 29.352574 0.744756 0.836128 0.043044 -0.012239 593207.000000 0 0 1
-16.429073 -16.200812 20.133638 30.622608 0.778403 0.853332 0.047753 -0.019855 336852.000000 0 0 1
-17.450573 -16.849812 19.363338 31.038323 0.767885 0.897134 0.069194 -0.010387 62044.800000 0 0 1
-17.796973 -18.068312 19.939938 32.261390 0.792964 0.904506 0.043002 -0.014688 84088.700000 0 0 1
-19.193973 -18.538112 19.446138 33.018517 0.768018 0.941042 0.071394 -0.007656 193872.000000 0 0 1
-19.241273 -18.682712 18.003838 32.301834 0.770671 0.979590 0.083408 -0.021476 24930.500000 0 0 1
-19.538373 -17.488912 17.291338 31.410196 0.730105 0.987832 0.084107 -0.025138 -643920.000000 0 0 1
-19.262173 -17.460412 15.769838 30.406991 0.736373 1.025554 0.079885 -0.026454 -599339.000000 0 0 1
-19.984073 -18.396112 15.009538 31.033310 0.744047 1.065966 0.081490 -0.022432 -43950.900000 0 0 1
-19.747073 -18.343112 13.663838 30.217828 0.748556 1.101591 0.080065 -0.018933 -47527.100000 0 0 1
-20.112173 -19.586112 12.804838 30.855780 0.772147 1.142865 0.082357 -0.015383 21517.800000 0 0 1
-19.321973 -20.741112 13.129238 31.239546 0.820806 1.137047 0.082118 -0.018631 407503.000000 0 0 1
-19.539073 -21.908112 12.329038 31.839377 0.842494 1.173175 0.077917 -0.020164 -965840.000000 0 0 1
-18.626273 -22.976012 12.907238 32.271225 0.889575 1.159322 0.074456 -0.023806 -241952.000000 0 0 1
-18.518773 -24.135112 12.111438 32.743480 0.916317 1.191907 0.082039 -0.031059 816031.000000 0 0 1
-17.594673 -23.992612 10.965538 31.709005 0.938045 1.217686 0.083140 -0.031228 327515.000000 0 0 1
-17.666373 -25.032812 9.819938 32.174114 0.956236 1.260635 0.098047 -0.030369 480768.000000 0 0 1
-18.968673 -25.151032 9.224738 32.825002 0.924619 1.285931 0.093793 -0.026206 412139.000000 0 0 1
-19.073973 -26.252132 8.382038 33.514914 0.942461 1.318014 0.111538 -0.029627 255789.000000 0 0 1
-20.273173 -26.075852 7.427738 33.854437 0.909945 1.349595 0.103149 -0.033686 317492.000000 0 0 1
-20.030573 -25.035212 6.485938 32.711666 0.895997 1.371198 0.113074 -0.036967 -411937.000000 0 0 1
-21.142773 -24.922712 5.667938 33.170528 0.867271 1.399081 0.116579 -0.038940 -303471.000000 0 0 1
-21.041073 -23.665212 4.753138 32.021264 0.844028 1.421809 0.117863 -0.035270 -882815.000000 0 0 1
-22.079973 -23.610712 3.888438 32.559344 0.818888 1.451084 0.127964 -0.032125 -940941.000000 0 0 1
-21.993973 -22.401612 3.146638 31.551044 0.794580 1.470899 0.119469 -0.022847 -40876.100000 0 0 1
-22.709273 -22.351312 1.816038 31.915360 0.777454 1.513864 0.114799 -0.018352 -56009.000000 0 0 1
-22.142373 -23.257912 0.871038 32.124350 0.809964 1.543678 0.096727 -0.021894 518782.000000 0 0 1
-22.688073 -22.964112 -0.421562 32.284312 0.791445 1.583854 0.104706 -0.019518 96071.700000 0 0 1
-21.917773 -23.741012 -1.518962 32.347050 0.825309 1.617772 0.087960 -0.015786 289557.000000 0 0 1
-20.521173 -23.435012 -1.551562 31.188550 0.851591 1.620565 0.093367 -0.008920 760954.000000 0 0 1
-19.774973 -24.044812 -2.601862 31.240554 0.882532 1.654178 0.088171 -0.002424 203073.000000 0 0 1
-19.657773 -25.572772 -2.725362 32.370083 0.915435 1.655090 0.090590 -0.004957 -507316.000000 0 0 1
-20.839673 -26.229962 -3.139362 33.647562 0.899419 1.664234 0.108564 -0.009366 -241349.000000 0 0 1
-20.604673 -27.525222 -3.635262 34.574637 0.928208 1.676133 0.111482 -0.006876 -129098.000000 0 0 1
-21.830973 -28.314602 -4.134962 35.991749 0.913981 1.685937 0.104015 -0.005020 -50356.300000 0 0 1
-22.154873 -28.027722 -5.459362 36.141337 0.901898 1.722433 0.092756 0.001928 -146224.000000 0 0 1
-22.786173 -29.105172 -6.093762 37.462710 0.906575 1.734184 0.089919 -0.012250 -357807.000000 0 0 1
-23.221073 -28.706492 -7.508662 37.678388 0.890644 1.771423 0.079654 0.010206 -277536.000000 0 0 1
-22.185973 -28.446642 -8.429662 37.047105 0.908423 1.800346 0.093234 0.002318 189629.000000 0 0 1
-22.668573 -28.311672 -9.775562 37.562968 0.895641 1.834072 0.085986 0.001793 471958.000000 0 0 1
-23.647573 -27.142832 -10.192262 37.414211 0.854107 1.846700 0.078111 0.008239 416945.000000 0 0 1
-23.060373 -25.866132 -10.544262 36.221803 0.842682 1.866175 0.074564 0.008264 209894.000000 0 0 1
-22.762473 -25.057182 -9.436362 35.143100 0.833348 1.842645 0.066888 0.003795 -267755.000000 0 0 1
-22.547573 -23.552212 -9.735862 34.027735 0.807187 1.860967 0.072193 -0.005586 -261351.000000 0 0 1
-23.670373 -22.777712 -10.067762 34.357976 0.766182 1.868186 0.077457 -0.008548 -155298.000000 0 0 1
-23.291173 -21.420212 -10.258062 33.264576 0.743577 1.884284 0.094248 0.001076 243969.000000 0 0 1
-24.458673 -20.439412 -10.539762 33.572054 0.696117 1.890141 0.114161 0.008373 -436654.000000 0 0 1
-25.217403 -20.626212 -11.716862 34.621422 0.685582 1.916042 0.090498 0.019169 48801.200000 0 0 1
-26.389703 -19.852412 -11.776762 35.060331 0.644958 1.913357 0.085396 0.017036 -181513.000000 0 0 1
-26.258663 -18.320712 -11.742962 34.103710 0.609182 1.922322 0.098983 0.009864 -1177390.000000 0 0 1
-25.602723 -17.738912 -12.867762 33.700856 0.605913 1.962564 0.109884 0.019344 435493.000000 0 0 1
-25.215473 -16.355912 -12.752262 32.648983 0.575423 1.972065 0.127703 -0.011830 557338.000000 0 0 1
-24.084473 -15.972512 -11.723162 31.186784 0.585590 1.956166 0.105869 -0.013230 -105312.000000 0 0 1
-24.415473 -16.428912 -10.413562 31.216450 0.592298 1.910908 0.138585 -0.022120 -104518.000000 0 0 1
-23.378973 -16.408612 -9.455762 30.087046 0.611969 1.890495 0.125413 -0.022180 96629.500000 0 0 1
-23.956773 -16.847312 -8.092162 30.384897 0.612896 1.840371 0.126594 -0.038301 244521.000000 0 0 1
-24.336673 -18.186512 -7.915262 31.395449 0.641763 1.825661 0.127713 -0.028252 -61328.300000 0 0 1
-25.032373 -18.391012 -6.713662 31.779274 0.633630 1.783659 0.138062 -0.019944 30705.000000 0 0 1
-25.661203 -19.834212 -6.634362 33.104502 0.658013 1.772569 0.135257 -0.015969 865287.000000 0 0 1
-26.829303 -19.848012 -7.498162 34.204934 0.636934 1.791804 0.099025 -0.020261 565236.000000 0 0 1
-27.442093 -21.113012 -7.512262 35.429674 0.655781 1.784451 0.079506 -0.003887 78980.000000 0 0 1
-26.673633 -22.194812 -8.352662 35.691166 0.694003 1.807013 0.063270 0.000793 84183.600000 0 0 1
-27.182363 -23.519912 -8.113262 36.849588 0.713289 1.792788 0.061091 0.002502 13881.500000 0 0 1
-26.519333 -24.463612 -8.931062 37.168632 0.745098 1.813456 0.045410 0.010702 240351.000000 0 0 1
-27.145493 -25.866162 -8.671762 38.485524 0.761270 1.798073 0.051754 0.005973 282342.000000 0 0 1
-26.700013 -26.344712 -7.416762 38.235362 0.778700 1.766010 0.076595 -0.005368 99852.500000 0 0 1
-27.187213 -27.612452 -7.060662 39.388386 0.793158 1.751028 0.083741 -0.008159 4081.440000 0 0 1
-26.643473 -28.068452 -5.677362 39.114512 0.811437 1.716458 0.112634 -0.009984 138804.000000 0 0 1
-27.239963 -27.298622 -4.642762 38.843089 0.786474 1.690609 0.096974 -0.006995 381316.000000 0 0 1
-26.513753 -27.421882 -3.428562 38.297438 0.802234 1.660441 0.104338 -0.013366 245321.000000 0 0 1
-26.956173 -28.682652 -2.590262 39.446663 0.816418 1.636509 0.104256 -0.008771 -95546.400000 0 0 1
-26.508193 -29.936542 -3.151062 40.109974 0.846062 1.649438 0.127101 -0.004733 123918.000000 0 0 1
-26.727543 -31.064812 -2.328762 41.046403 0.860307 1.627562 0.108750 -0.005765 114679.000000 0 0 1
-25.717013 -31.127622 -1.147662 40.393201 0.880295 1.599212 0.121649 -0.016666 94788.300000 0 0 1
-24.405973 -31.501572 -1.501362 39.877997 0.911640 1.608454 0.125619 -0.023925 324895.000000 0 0 1
-23.521173 -31.726912 -0.375962 39.496631 0.932846 1.580315 0.098079 -0.015697 1425500.000000 0 0 1
-22.335473 -30.704792 -0.148062 37.969455 0.941900 1.574696 0.089724 -0.016543 490396.000000 0 0 1
-22.739173 -29.453592 0.318738 37.211365 0.913342 1.562231 0.105299 -0.021668 -178998.000000 0 0 1
-22.887273 -28.596962 -0.807162 36.636935 0.895849 1.592829 0.100678 -0.024147 -169349.000000 0 0 1
-23.465673 -27.190022 -0.451962 35.918510 0.858789 1.583380 0.105879 -0.011275 -27661.800000 0 0 1
-24.828173 -27.241682 -0.094262 36.858599 0.831716 1.573354 0.096485 -0.014215 13969.200000 0 0 1
-25.454613 -26.027182 0.311038 36.406706 0.796519 1.562253 0.111381 -0.032591 383061.000000 0 0 1
-24.959673 -25.388472 1.666838 35.641803 0.793915 1.524013 0.119264 -0.020538 -264967.000000 0 0 1
-25.532683 -25.946492 2.833538 36.512563 0.793436 1.493114 0.095551 -0.018527 -152697.000000 0 0 1
-25.268063 -25.176952 3.990438 35.892583 0.783592 1.459389 0.115837 -0.028957 535875.000000 0 0 1
-26.283933 -23.991212 4.240538 35.838604 0.739826 1.452195 0.115665 -0.025876 302072.000000 0 0 1
-26.282133 -23.002612 3.258438 35.078314 0.718954 1.477772 0.111640 -0.023079 -511385.000000 0 0 1
-27.309453 -22.083712 3.362038 35.281721 0.679991 1.475360 0.088050 -0.023135 -573519.000000 0 0 1
-27.196513 -21.001612 2.272238 34.436624 0.657569 1.504765 0.079272 -0.019045 80802.500000 0 0 1
-26.106953 -20.137712 2.469938 33.063591 0.657028 1.496024 0.107022 -0.019551 -212471.000000 0 0 1
-25.820103 -19.273912 1.402738 32.251032 0.641238 1.527288 0.092863 -0.012316 826857.000000 0 0 1
-24.471773 -18.483112 1.550638 30.706637 0.646874 1.520276 0.131405 -0.011480 -99786.700000 0 0 1
-23.263973 -19.133412 1.503538 30.158921 0.688280 1.520922 0.140710 -0.023910 -1026630.000000 0 0 1
-22.219273 -18.202812 1.404238 28.757787 0.686360 1.521947 0.144603 -0.017532 388157.000000 0 0 1
-20.826473 -18.923012 1.543838 28.181657 0.737548 1.515987 0.116453 -0.022476 465318.000000 0 0 1
-20.505073 -19.532112 0.287638 28.320384 0.761102 1.560640 0.098130 -0.013070 769246.000000 0 0 1
-19.209473 -20.140812 0.327538 27.834573 0.809062 1.559029 0.098976 -0.010360 463444.000000 0 0 1
-18.724173 -20.753012 -0.985562 27.968795 0.836746 1.606042 0.095510 -0.010453 -121112.000000 0 0 1
-18.269573 -19.770712 -1.913862 26.987427 0.824840 1.641773 0.096509 -0.016823 76631.200000 0 0 1
-18.038273 -20.368912 -3.213262 27.397024 0.846006 1.688352 0.093393 -0.012437 -113177.000000 0 0 1
-17.305773 -19.527412 -4.237262 26.434144 0.845641 1.731786 0.088098 -0.000401 -513479.000000 0 0 1
-15.941873 -19.392012 -3.988762 25.418569 0.882734 1.728371 0.104268 -0.007199 -499776.000000 0 0 1
-15.286373 -18.706712 -5.063262 24.683008 0.885679 1.777394 0.086926 0.000531 276136.000000 0 1 0
-13.790273 -18.370112 -4.841562 23.474952 0.926853 1.778531 0.097984 -0.015521 -29506.400000 0 1 0
-12.997473 -19.509212 -4.955962 23.960493 0.983101 1.779139 0.077025 -0.014306 800137.000000 0 1 0
-11.657673 -19.138012 -5.372662 23.044095 1.023685 1.806109 0.076216 -0.021774 1465320.000000 0 1 0
-10.591473 -20.235612 -5.597162 23.515686 1.088598 1.811121 0.074821 -0.025928 493261.000000 0 1 0
-11.054773 -21.150412 -6.565462 24.751833 1.089174 1.839261 0.085583 -0.025891 -364240.000000 0 1 0
-9.984073 -21.989412 -6.824662 25.095656 1.144588 1.846211 0.082829 -0.019616 -468766.000000 0 0 1
-10.254073 -23.118312 -7.819162 26.471525 1.153321 1.870650 0.094532 -0.014486 -226805.000000 0 0 1
-10.660073 -22.831212 -9.124262 26.798387 1.133971 1.918222 0.092151 -0.019893 -69036.100000 0 0 1
-10.514273 -23.844912 -10.067262 27.937063 1.155499 1.939445 0.113925 -0.021450 -283418.000000 0 0 1
-11.213173 -23.582512 -11.381262 28.485141 1.126951 1.981823 0.151050 -0.024848 56891.600000 0 0 1
-10.490473 -22.706712 -12.276562 27.863215 1.138009 2.027064 0.133381 -0.016136 151448.000000 0 0 1
-11.351973 -22.322112 -13.316862 28.363406 1.100330 2.059530 0.134238 -0.025944 -254924.000000 0 0 1
-10.878773 -21.095812 -14.080262 27.597731 1.094680 2.106209 0.095987 -0.014108 -281840.000000 0 0 1
-11.093173 -19.883312 -13.315562 26.376292 1.061898 2.099982 0.097174 -0.014677 -98152.600000 0 0 1
-10.789473 -18.759612 -14.042362 25.797746 1.048854 2.146381 0.082546 -0.005832 -132408.000000 0 0 1
-10.477873 -17.552912 -13.159562 24.311820 1.032637 2.142758 0.085041 -0.009157 -522392.000000 0 1 0
-11.589473 -17.092212 -12.465962 24.121770 0.974950 2.113897 0.098930 -0.016542 -524785.000000 0 1 0
-11.335973 -16.082012 -11.462262 22.771009 0.956799 2.098292 0.088290 -0.020686 89899.400000 0 1 0
-10.893373 -14.654212 -11.994062 21.846487 0.931558 2.151982 0.091381 -0.016919 294514.000000 0 1 0
-11.911473 -13.882512 -12.620262 22.223373 0.861665 2.174727 0.086941 -0.006209 20257.000000 0 1 0
-11.639573 -13.675512 -13.992762 22.766130 0.865649 2.232714 0.090378 -0.015300 -116907.000000 0 1 0
-12.900673 -13.058312 -14.630362 23.473269 0.791471 2.243723 0.088591 -0.011984 -297341.000000 0 1 0
-13.072873 -11.733112 -14.181862 22.576340 0.731441 2.250000 0.085764 -0.003378 -257009.000000 0 1 0
-14.181573 -11.106512 -14.774062 23.296878 0.664391 2.257724 0.096905 -0.013149 -111152.000000 0 1 0
-14.197973 -9.674612 -14.272362 22.335641 0.598139 2.263987 0.082026 -0.017674 131430.000000 0 1 0
-13.118873 -8.833412 -14.656262 21.562467 0.592606 2.318166 0.077633 -0.008831 129845.000000 0 1 0
-13.242873 -8.246912 -15.943562 22.306555 0.556975 2.367060 0.091470 -0.008410 -175624.000000 0 1 0
-12.266573 -7.068312 -16.035062 21.390490 0.522755 2.418307 0.076555 -0.000838 633174.000000 0 1 0
-10.925673 -7.517912 -16.291962 21.007554 0.602692 2.458348 0.060656 0.000798 585411.000000 0 1 0
-10.007373 -6.468012 -16.101462 20.030970 0.573787 2.504500 0.039934 0.004354 153972.000000 0 1 0
11.734927 22.312788 15.791438 29.747917 1.086622 1.011203 0.091405 -0.015174 -772780.000000 0 0 1
12.590727 22.393888 16.868938 30.733918 1.058605 0.989784 0.103516 -0.020014 -570106.000000 0 0 1
13.198227 21.132688 16.965638 30.143268 1.012527 0.972987 0.081753 -0.010401 -862659.000000 0 0 1
14.284327 21.074388 18.004238 31.182117 0.975122 0.955268 0.091560 -0.022938 -957771.000000 0 0 1
15.511527 21.481088 17.483638 31.744641 0.945391 0.987523 0.079947 -0.018355 -1305560.000000 0 0 1
16.561727 21.116788 18.287438 32.475221 0.905707 0.972640 0.079523 -0.022353 -677066.000000 0 0 1
17.938127 21.543988 17.758238 33.185462 0.876474 1.006145 0.059618 -0.014511 -865763.000000 0 0 1
18.278827 22.905488 17.859438 34.318165 0.897269 1.023468 0.062026 -0.012843 -405987.000000 0 0 1
19.585827 23.274288 17.542438 35.114588 0.871245 1.047686 0.048807 -0.007205 594013.000000 0 0 1
20.767327 22.810488 18.495438 35.967784 0.832249 1.030696 0.050183 -0.011476 199827.000000 0 0 1
20.976927 21.410888 18.467738 35.206746 0.795636 1.018609 0.054187 -0.003319 543261.000000 0 0 1
22.335227 21.022888 18.681038 35.913861 0.755140 1.023755 0.067761 -0.019505 431165.000000 0 0 1
22.615527 19.509188 18.603938 35.187740 0.711790 1.013722 0.059341 -0.027918 -109074.000000 0 0 1
22.346727 18.969188 17.297638 34.035490 0.703830 1.037675 0.039453 -0.021881 185157.000000 0 0 1
22.201227 17.530588 17.163538 33.087808 0.668381 1.025435 0.035603 -0.023483 266824.000000 0 0 1
23.430527 16.663788 17.576138 33.698547 0.618203 1.022107 0.045763 -0.026655 -25924.400000 0 0 1
24.484627 16.524688 16.672238 33.919402 0.593681 1.056956 0.073115 -0.037472 -371526.000000 0 0 1
25.298627 15.448488 17.079038 34.210669 0.548210 1.048085 0.061793 -0.022142 277776.000000 0 0 1
26.705227 15.443388 16.388438 34.932053 0.524304 1.082466 0.133574 -0.048326 243899.000000 0 0 1
27.684627 16.405888 16.777538 36.291563 0.534960 1.090211 0.120760 -0.046276 1279630.000000 0 0 1
28.823227 15.999188 17.574238 37.357814 0.506735 1.081018 0.131724 -0.050918 638379.000000 0 0 1
29.795127 15.098788 16.801538 37.390035 0.469036 1.104749 0.136936 -0.052297 -914109.000000 0 0 1
30.498827 15.843388 15.789738 37.822047 0.479106 1.140132 0.173159 -0.046840 481025.000000 0 0 1
31.273027 15.046188 14.846538 37.746652 0.448433 1.166556 0.163772 -0.047900 463779.000000 0 0 1
30.494327 14.557588 13.595038 36.423240 0.445394 1.188285 0.135899 -0.043232 -127275.000000 0 0 1
30.576927 15.560888 12.563038 36.536552 0.470750 1.219784 0.157022 -0.032157 30954.800000 0 0 1
29.696727 15.474488 11.462738 35.394205 0.480372 1.240991 0.142811 -0.034470 512319.000000 0 0 1
28.225427 15.973188 11.561138 34.430762 0.514980 1.228364 0.123261 -0.035621 217466.000000 0 0 1
28.032827 17.404588 11.348138 34.893256 0.555620 1.239547 0.122509 -0.027610 80928.700000 0 0 1
28.365927 18.245788 12.490238 35.965826 0.571601 1.216127 0.117306 -0.031461 329466.000000 0 0 1
27.412427 18.103288 13.755938 35.614548 0.583655 1.174239 0.103858 -0.038463 -60972.400000 0 0 1
26.190327 18.761688 13.593238 34.967275 0.621621 1.171531 0.096375 -0.018153 -493384.000000 0 0 1
25.489927 18.863088 14.822138 35.003546 0.637084 1.133550 0.097095 -0.027622 -153322.000000 0 0 1
26.028527 19.742388 16.024038 36.387030 0.648913 1.114777 0.108584 -0.035673 -81213.900000 0 0 1
26.294127 21.079988 15.675138 37.167956 0.675776 1.135435 0.077221 -0.014495 143075.000000 0 0 1
25.412527 21.858888 16.433238 37.331741 0.710364 1.114981 0.060978 -0.010970 -18996.200000 0 0 1
25.666227 23.349988 16.147438 38.271620 0.738179 1.135238 0.053795 -0.002645 163788.000000 0 0 1
25.272727 23.561188 14.787538 37.583395 0.750364 1.166405 0.080195 -0.014826 233780.000000 0 0 1
25.417227 24.939988 14.523238 38.457287 0.775921 1.183544 0.073098 -0.015910 -249809.000000 0 0 1
25.217727 25.251488 13.042138 37.995642 0.786067 1.220418 0.074304 -0.022304 122376.000000 0 0 1
23.890927 24.983288 12.631238 36.803387 0.807745 1.220465 0.076607 -0.011352 78819.300000 0 0 1
23.725027 25.559388 11.390238 36.686466 0.822601 1.255103 0.075376 -0.028448 137704.000000 0 0 1
22.900427 24.540488 10.547638 35.184056 0.819955 1.266329 0.076381 -0.027932 1381490.000000 0 0 1
21.456027 24.507588 10.763638 34.305085 0.851692 1.251644 0.084071 -0.025034 1503050.000000 0 0 1
20.898427 23.229288 10.425438 32.939852 0.838170 1.248760 0.078906 -0.013720 157073.000000 0 0 1
20.716827 22.827288 8.962038 32.102806 0.833827 1.287870 0.091131 -0.008791 389372.000000 0 0 1
19.474127 23.313088 8.414738 31.520621 0.874881 1.300559 0.094908 -0.012410 553620.000000 0 0 1
19.555527 23.838188 7.115238 31.643395 0.883773 1.344000 0.081893 -0.018124 326697.000000 0 0 1
18.212227 24.001988 6.323038 30.785735 0.921700 1.363936 0.074240 -0.015090 -414390.000000 0 0 1
17.606927 22.761788 6.034838 29.402758 0.912405 1.364080 0.095730 -0.007341 225743.000000 0 0 1
16.918127 22.645688 4.785138 28.669631 0.929167 1.403105 0.105573 -0.023469 840720.000000 0 0 1
15.574827 23.474588 4.707938 28.562146 0.985006 1.405209 0.078994 -0.015723 39626.000000 0 0 1
15.752227 24.896088 4.677638 29.829988 1.006666 1.413337 0.098858 -0.022974 358112.000000 0 0 1
14.569727 25.549688 5.135338 29.856912 1.052539 1.397938 0.080342 -0.023260 298416.000000 0 0 1
14.449227 27.053188 4.733438 31.033218 1.080239 1.417671 0.078806 -0.023644 -249576.000000 0 0 1
14.279927 27.187788 3.333438 30.890192 1.087167 1.462673 0.064843 -0.022806 355971.000000 0 0 1
13.846227 28.474188 2.901338 31.794892 1.118191 1.479417 0.072125 -0.022076 -135563.000000 0 0 1
13.389127 28.456088 1.417538 31.480583 1.131011 1.525752 0.080041 -0.028365 -2861.110000 0 0 1
14.476727 28.207188 0.547938 31.709956 1.096622 1.553516 0.104227 -0.028023 254048.000000 0 0 1
14.856227 26.826088 0.463238 30.668568 1.065042 1.555691 0.081234 -0.020197 4006.260000 0 0 1
15.968627 26.627888 -0.594162 31.054702 1.030601 1.589930 0.090001 -0.024007 44745.700000 0 0 1
15.548927 26.702688 -1.908562 30.958768 1.043495 1.632484 0.085751 -0.024508 -147304.000000 0 0 1
16.642227 26.916688 -2.784662 31.768320 1.017039 1.658564 0.073490 -0.015245 170836.000000 0 0 1
16.204427 27.539888 -4.148162 32.221672 1.038951 1.699893 0.086107 -0.017910 317091.000000 0 0 1
15.289627 26.694288 -4.869962 31.146015 1.050641 1.727800 0.102543 -0.024847 92348.100000 0 0 1
14.948727 27.293288 -6.136662 31.718238 1.069715 1.765498 0.099087 -0.021408 165963.000000 0 0 1
13.571927 26.827588 -6.635662 30.788775 1.102444 1.788023 0.102847 -0.032903 -175299.000000 0 0 1
13.549027 25.455088 -7.034062 29.681908 1.081666 1.810054 0.104791 -0.033827 -35462.200000 0 0 1
12.238727 25.009488 -7.363462 28.800721 1.115694 1.829336 0.094122 -0.031009 352797.000000 0 0 1
12.180727 23.579288 -8.090062 27.745307 1.093968 1.866678 0.082458 -0.028367 -18286.300000 0 0 1
12.710727 23.472088 -9.416062 28.304836 1.074483 1.909926 0.085787 -0.030982 101926.000000 0 0 1
12.709827 22.035788 -9.680162 27.218031 1.047624 1.934408 0.078940 -0.023961 -337067.000000 0 0 1
12.862827 21.780088 -11.238662 27.679091 1.037334 1.988907 0.086200 -0.023347 86985.500000 0 0 1
12.462227 20.435888 -11.500262 26.555388 1.023187 2.018689 0.094304 -0.031753 -171169.000000 0 0 1
12.497927 20.076288 -12.892062 26.934379 1.013981 2.069909 0.089879 -0.028452 361547.000000 0 0 1
13.901427 19.603788 -13.366062 27.499269 0.953976 2.078362 0.067766 -0.022896 136249.000000 0 0 1
14.935327 20.518388 -13.130762 28.574204 0.941590 2.048265 0.056823 -0.011788 -445048.000000 0 0 1
16.112927 19.992388 -13.728662 29.116974 0.892436 2.061788 0.065911 -0.007943 689289.000000 0 0 1
17.391127 20.883788 -13.636462 30.406200 0.876398 2.035856 0.074445 -0.008719 424804.000000 0 0 1
17.531927 21.928888 -14.577962 31.634816 0.896366 2.049715 0.069508 -0.013118 5834.680000 0 0 1
16.662827 23.036488 -14.308562 31.828675 0.944588 2.037057 0.065914 -0.006070 375637.000000 0 0 1
17.098927 24.368388 -15.027462 33.346908 0.958941 2.038279 0.068095 -0.010542 -44301.600000 0 0 1
17.100227 24.402488 -16.410362 34.017630 0.959562 2.074197 0.064161 -0.017794 102302.000000 0 0 1
15.806627 24.376088 -17.021462 33.671550 0.995513 2.100775 0.059932 -0.006029 585825.000000 0 0 1
15.844327 24.234288 -18.554262 34.389011 0.991756 2.140688 0.050966 -0.001183 227089.000000 0 0 1
16.314327 22.986588 -19.052262 34.022480 0.953568 2.165171 0.053930 0.000151 -120276.000000 0 0 1
16.312127 23.092088 -20.462862 34.900698 0.955792 2.197301 0.050831 0.003187 -236668.000000 0 0 1
16.542627 21.806988 -21.262562 34.659772 0.921818 2.231237 0.062253 0.005858 149069.000000 0 0 1
15.551927 20.802888 -21.072462 33.446543 0.928843 2.252393 0.052217 0.003002 204730.000000 0 0 1
16.053827 19.609688 -21.641562 33.326002 0.884776 2.277578 0.053823 -0.004615 455333.000000 0 0 1
14.986527 18.464888 -21.666262 32.171027 0.889008 2.309691 0.048750 -0.001861 -523105.000000 0 0 1
14.656727 17.897288 -20.474962 30.892663 0.884615 2.295318 0.045359 -0.003839 -75058.600000 0 0 1
13.860927 16.761388 -20.723862 30.042435 0.879834 2.332036 0.042349 -0.002947 -230476.000000 0 0 1
12.351827 17.028988 -20.866862 29.630727 0.943264 2.352135 0.060392 -0.006212 -1044160.000000 0 0 1
11.679227 17.107688 -19.662462 28.560282 0.971783 2.330153 0.058715 -0.007334 -948192.000000 0 0 1
10.339927 17.421888 -19.825962 28.346164 1.035168 2.345386 0.068390 -0.014148 -609047.000000 0 0 1
9.384427 17.072188 -18.668962 26.982535 1.068190 2.334901 0.085377 -0.021331 -338626.000000 0 0 1
9.111927 15.630688 -18.562462 25.921239 1.043007 2.369010 0.101506 -0.036522 327291.000000 0 0 1
7.736327 15.317888 -18.414362 25.170959 1.103115 2.391421 0.102214 -0.030910 599553.000000 0 0 1
7.143227 15.505088 -16.984262 24.081084 1.139078 2.353635 0.099642 -0.039562 -50637.300000 0 1 0
7.200727 16.701088 -16.328762 24.441875 1.163725 2.302402 0.108630 -0.042665 -179193.000000 0 1 0
6.288727 16.728988 -15.242762 23.489336 1.211221 2.276964 0.094279 -0.045818 -258204.000000 0 1 0
6.004827 18.198688 -14.783862 24.203569 1.252085 2.227884 0.081983 -0.041572 -437920.000000 0 1 0
7.116227 19.067288 -14.539862 25.012192 1.213590 2.191135 0.080849 -0.040956 -87385.000000 0 0 1
7.594527 19.689988 -15.753862 26.335463 1.202674 2.212049 0.096529 -0.030396 -357850.000000 0 0 1
8.976627 20.330988 -15.617562 27.163158 1.155013 2.183344 0.089363 -0.017684 -308938.000000 0 0 1
9.099227 21.542688 -14.893062 27.725198 1.171146 2.137871 0.091488 -0.021328 -236708.000000 0 0 1
8.715427 21.541888 -13.548962 26.899553 1.186348 2.098658 0.083471 -0.026407 -168195.000000 0 0 1
8.292727 22.936488 -12.937562 27.608555 1.223868 2.058510 0.083687 -0.028254 -291568.000000 0 0 1
7.063627 23.418088 -13.419762 27.899672 1.277844 2.072592 0.066610 -0.022580 -181938.000000 0 0 1
6.389827 24.362488 -12.588462 28.157239 1.314293 2.034292 0.054840 -0.030375 357491.000000 0 0 1
5.744827 23.896588 -11.241162 27.026166 1.334870 1.999768 0.050544 -0.025360 -1032550.000000 0 0 1
6.654727 23.609788 -10.245662 26.583474 1.296061 1.966454 0.040830 -0.024718 -812258.000000 0 0 1
6.056327 23.061188 -9.090962 25.517505 1.313976 1.935063 0.052258 -0.023455 25228.100000 0 0 1
7.009027 22.873288 -7.882562 25.188262 1.273452 1.889089 0.038952 -0.025863 119862.000000 0 0 1
7.345727 24.109988 -7.224062 26.219045 1.275055 1.849934 0.039130 -0.027922 267998.000000 0 0 1
8.248227 23.895688 -6.140262 26.014226 1.238425 1.809080 0.052325 -0.028174 180247.000000 0 0 1
8.521827 25.234888 -5.376562 27.172201 1.245121 1.769981 0.039175 -0.027586 62353.700000 0 0 1
9.212427 26.135188 -6.214062 28.399497 1.231904 1.791390 0.065121 -0.025229 -70669.700000 0 0 1
9.335027 27.411288 -5.519962 29.478660 1.242561 1.759161 0.064262 -0.022401 272576.000000 0 0 1
9.777327 28.652788 -6.405262 30.945206 1.241951 1.779291 0.076734 -0.022638 -81223.600000 0 0 1
11.099927 28.648788 -6.853262 31.479019 1.201157 1.790263 0.092166 -0.028625 -752257.000000 0 0 1
11.375527 29.838288 -7.552762 32.814178 1.206567 1.803046 0.103435 -0.025904 163207.000000 0 0 1
12.726327 29.767888 -8.320462 33.426287 1.166794 1.822361 0.101925 -0.026306 1057390.000000 0 0 1
13.863227 30.078088 -7.493962 33.956441 1.138909 1.793322 0.090067 -0.021875 1121330.000000 0 0 1
14.973627 30.570588 -8.302462 35.038568 1.115338 1.810024 0.085557 -0.017434 1114440.000000 0 0 1
16.319327 30.902488 -7.646462 35.773630 1.084929 1.786204 0.066431 -0.010732 389309.000000 0 0 1
17.148627 29.801388 -7.314762 35.152580 1.048639 1.780414 0.066181 -0.010155 351413.000000 0 0 1
18.400927 30.166088 -6.752062 35.974676 1.023066 1.759605 0.052134 0.001449 1176170.000000 0 0 1
19.441627 29.002288 -6.392862 35.496172 0.980249 1.751884 0.043580 0.000607 493790.000000 0 0 1
19.138127 28.133988 -5.287662 34.434700 0.973449 1.724962 0.062397 -0.007664 784617.000000 0 0 1
20.146627 27.092788 -5.013562 34.132705 0.931394 1.718214 0.059275 -0.004753 739397.000000 0 0 1
20.207927 25.929388 -6.030762 33.422501 0.908778 1.752230 0.062205 0.001225 -244996.000000 0 0 1
20.636727 26.237788 -7.322962 34.174871 0.904325 1.786750 0.052704 0.009120 82150.400000 0 0 1
20.497727 25.177488 -8.189862 33.483377 0.887499 1.817898 0.053260 -0.003222 -377529.000000 0 0 1
21.208627 25.469988 -9.564362 34.496423 0.876437 1.851734 0.057020 -0.003269 795830.000000 0 0 1
22.614527 25.678888 -9.573962 35.531435 0.848766 1.843619 0.047573 0.000773 306690.000000 0 0 1
23.390827 24.498688 -9.474062 35.172068 0.808528 1.843528 0.071763 -0.007434 -1590350.000000 0 0 1
24.847027 24.795488 -9.339462 36.323774 0.784360 1.830834 0.038181 0.001160 -1176350.000000 0 0 1
25.445927 25.020488 -10.609962 37.230247 0.776968 1.859784 0.050707 -0.002992 737779.000000 0 0 1
26.876627 25.040888 -10.556862 38.221022 0.750054 1.850640 0.049480 0.005768 1239240.000000 0 0 1
27.755227 25.245088 -11.844162 39.344012 0.738073 1.876580 0.050921 -0.005341 482094.000000 0 0 1
27.607627 26.492488 -12.466362 40.242306 0.764789 1.885761 0.046682 -0.002520 -41737.300000 0 0 1
28.711927 26.668788 -13.318062 41.388039 0.748522 1.898411 0.052690 -0.010063 49391.800000 0 0 1
28.405927 27.549388 -14.537762 42.156992 0.770092 1.922873 0.058329 -0.018584 107.418000 0 0 1
28.292527 28.929188 -14.231062 42.893917 0.796524 1.908979 0.055507 -0.015875 -504.548000 0 0 1
28.436027 29.688988 -15.381662 43.893498 0.806951 1.928828 0.062511 -0.017590 -131849.000000 0 0 1
28.888127 31.151088 -15.154362 45.106195 0.823072 1.913432 0.062641 -0.023564 -559078.000000 0 0 1
30.087527 31.316788 -14.481862 45.779087 0.805415 1.892668 0.057470 -0.022062 -678931.000000 0 0 1
30.396227 32.672388 -14.375062 46.883451 0.821473 1.882429 0.051610 -0.027176 48093.400000 0 0 1
15.971027 -32.124930 -27.965938 45.488224 -1.109428 2.232922 0.109886 -0.045804 -610432.000000 0 0 1
17.030527 -32.849230 -27.464498 46.080467 -1.092502 2.209321 0.088812 -0.037003 -448594.000000 0 0 1
17.474527 -32.227730 -26.255778 45.092700 -1.073946 2.192305 0.089886 -0.039301 -520057.000000 0 0 1
18.648427 -32.975530 -25.590828 45.716955 -1.056113 2.164901 0.048181 -0.031278 404229.000000 0 0 1
19.975127 -32.798830 -26.071548 46.416534 -1.023771 2.167219 0.066878 -0.031762 726634.000000 0 0 1
20.229227 -33.263730 -27.389788 47.601448 -1.024408 2.183887 0.075753 -0.031768 -13703.200000 0 0 1
21.755027 -33.019730 -27.681808 48.268689 -0.988225 2.181561 0.074427 -0.030995 762550.000000 0 0 1
22.172027 -31.706930 -28.056038 47.791940 -0.960554 2.198201 0.082344 -0.030847 727132.000000 0 0 1
23.578327 -31.482930 -27.965828 48.261786 -0.927984 2.188864 0.049085 -0.026018 298337.000000 0 0 1
23.981127 -30.121430 -28.469668 47.884413 -0.898408 2.207502 0.028230 -0.020774 -192861.000000 0 0 1
24.261827 -30.217430 -29.831118 48.904243 -0.894285 2.226845 0.026204 -0.024652 -87013.600000 0 0 1
24.829727 -29.011430 -30.226988 48.701635 -0.862910 2.240376 0.026875 -0.023141 -125701.000000 0 0 1
25.306727 -29.112330 -31.682968 49.917619 -0.855216 2.258423 0.027397 -0.020915 588973.000000 0 0 1
26.424127 -29.946330 -32.032908 51.196918 -0.847800 2.246800 0.026790 -0.026590 503936.000000 0 0 1
26.415727 -30.180730 -33.442028 52.221034 -0.851824 2.265807 0.026014 -0.028760 -149452.000000 0 0 1
27.694627 -30.896030 -33.918138 53.591018 -0.839984 2.256099 0.032492 -0.030425 288239.000000 0 0 1
28.841927 -30.074130 -33.830768 53.673373 -0.806310 2.252746 0.037519 -0.031658 306170.000000 0 0 1
30.060427 -30.775130 -33.999408 54.833363 -0.797146 2.239602 0.044780 -0.021526 -319873.000000 0 0 1
31.358727 -30.071830 33.821441 55.059737 -0.764452 0.909338 0.048905 -0.022973 -681411.000000 0 0 1
31.443527 -29.425130 32.578467 53.998984 -0.752250 0.923143 0.046352 -0.014555 -23503.500000 0 0 1
32.653727 -28.712430 32.502573 54.287078 -0.721260 0.928899 0.049047 -0.019275 -259822.000000 0 0 1
32.730427 -27.643030 31.311628 53.064452 -0.701331 0.939653 0.046079 -0.019136 -560028.000000 0 0 1
33.863027 -26.795630 31.330248 53.350678 -0.669410 0.943138 0.046914 -0.022052 275359.000000 0 0 1
34.089127 -26.137030 30.080078 52.440672 -0.654120 0.959900 0.060748 -0.015870 -250234.000000 0 0 1
34.679927 -26.915630 28.883218 52.548918 -0.660007 0.988858 0.055777 -0.008979 -273591.000000 0 0 1
33.768327 -27.862030 28.365668 52.165159 -0.689856 0.995878 0.046312 -0.018682 174296.000000 0 0 1
32.786627 -27.273330 27.556938 50.775805 -0.693858 0.997127 0.064754 -0.023556 -127380.000000 0 0 1
31.931327 -28.334530 26.763028 50.385662 -0.725787 1.010823 0.066375 -0.021512 550424.000000 0 0 1
30.709527 -27.837430 26.228548 49.050325 -0.736381 1.006611 0.072077 -0.016256 436095.000000 0 0 1
30.146227 -28.857730 25.393508 48.850731 -0.763564 1.024158 0.058810 -0.005826 55961.200000 0 0 1
28.810327 -28.553630 24.691368 47.486929 -0.780923 1.023991 0.060189 -0.006340 -98024.200000 0 0 1
27.737027 -28.369830 25.568158 47.200855 -0.796676 0.998352 0.061601 -0.011527 -59789.700000 0 0 1
26.529127 -28.026530 24.898548 45.926231 -0.812839 0.997812 0.065881 -0.002773 221036.000000 0 0 1
25.347127 -28.007130 25.871868 45.784602 -0.835212 0.970269 0.070866 -0.002788 -206165.000000 0 0 1
25.354227 -26.896330 26.759168 45.632253 -0.814903 0.944178 0.056682 -0.008387 555921.000000 0 0 1
24.086327 -26.737330 27.404088 45.232953 -0.837512 0.919971 0.053425 -0.016426 362399.000000 0 0 1
23.995927 -25.552830 28.411408 45.121611 -0.816809 0.889677 0.044981 -0.005734 -1192120.000000 0 0 1
22.786327 -25.489030 29.078818 44.883015 -0.841325 0.865998 0.047599 -0.003717 -588559.000000 0 0 1
22.780727 -24.508730 30.089878 45.000446 -0.821923 0.838395 0.041604 -0.000611 -193869.000000 0 0 1
22.263927 -23.160630 29.655938 43.721527 -0.805136 0.825361 0.050771 -0.005908 -489892.000000 0 0 1
23.037327 -22.621630 28.586138 43.123357 -0.776294 0.846121 0.070293 -0.009773 327985.000000 0 0 1
22.681727 -21.311230 28.182008 41.986366 -0.754256 0.834945 0.071866 -0.007928 60875.800000 0 0 1
23.520827 -20.208130 28.889048 42.381304 -0.709787 0.820786 0.079853 -0.010378 -43496.000000 0 0 1
23.207727 -20.051230 30.254398 43.081076 -0.712560 0.792220 0.077500 -0.010731 -188834.000000 0 0 1
23.974527 -19.072130 30.853958 43.479775 -0.672001 0.781843 0.089484 -0.016406 -459685.000000 0 0 1
23.532027 -18.729430 32.307653 44.139918 -0.672243 0.749635 0.110799 -0.027375 -213201.000000 0 0 1
23.616527 -19.812630 33.231398 45.327768 -0.698033 0.747875 0.068705 -0.022213 419201.000000 0 0 1
23.169627 -19.354130 -33.527088 45.116290 -0.695912 2.408526 0.095525 -0.020867 25581.300000 0 0 1
22.964227 -20.469330 -32.517188 44.762895 -0.728020 2.383912 0.053435 -0.014357 193627.000000 0 0 1
24.233527 -20.787030 -31.984958 45.192942 -0.708993 2.357094 0.049018 -0.005136 220496.000000 0 0 1
24.087627 -21.857430 -31.085338 44.991769 -0.736896 2.333546 0.050365 -0.001994 -67195.600000 0 0 1
25.337827 -22.185730 -30.252658 45.270691 -0.719168 2.302666 0.030543 0.003985 -416987.000000 0 0 1
26.345527 -22.902630 -30.892468 46.615039 -0.715603 2.295234 0.024113 0.004885 -468726.000000 0 0 1
27.340727 -23.158530 -29.914918 46.676924 -0.702770 2.266457 0.020810 -0.000348 -981201.000000 0 0 1
28.530427 -23.921930 -30.385188 48.057296 -0.697763 2.255276 0.021553 0.003611 -988848.000000 0 0 1
29.470127 -23.211430 -31.190788 48.786516 -0.667150 2.264426 0.019813 0.004898 204052.000000 0 0 1
29.267627 -23.219330 -32.614128 49.592466 -0.670670 2.288482 0.022907 0.007354 -115837.000000 0 0 1
29.444227 -24.566930 -33.376078 50.837577 -0.695341 2.286997 0.023665 0.001048 239681.000000 0 0 1
28.474827 -25.541430 -32.999908 50.519050 -0.731146 2.282622 0.030540 -0.010605 102773.000000 0 0 1
28.823027 -26.779930 -33.600148 51.738782 -0.748670 2.277616 0.035527 -0.016854 62554.900000 0 0 1
28.520027 -27.021730 32.857841 51.217220 -0.758429 0.874294 0.036907 -0.016344 -228372.000000 0 0 1
29.170127 -26.162330 31.963878 50.567315 -0.731093 0.886529 0.035331 -0.019286 -120740.000000 0 0 1
28.830427 -26.342830 30.582098 49.602449 -0.740342 0.906451 0.040788 -0.019572 -336263.000000 0 0 1
30.005327 -25.817730 29.731708 49.506054 -0.710523 0.926586 0.054926 -0.019518 -189952.000000 0 0 1
30.182227 -24.413830 29.585768 48.809012 -0.680133 0.919581 0.056914 -0.022430 133056.000000 0 0 1
30.529727 -23.702930 30.804658 49.424894 -0.660177 0.897889 0.045434 -0.013548 -1598550.000000 0 0 1
30.943527 -22.228430 30.540458 48.829546 -0.622939 0.895088 0.036181 -0.010674 -362000.000000 0 0 1
32.214227 -22.052130 30.003628 49.236883 -0.600279 0.915527 0.045294 -0.015941 268889.000000 0 0 1
33.268827 -22.405030 30.931198 50.651153 -0.592687 0.913888 0.043283 -0.015847 -336455.000000 0 0 1
34.736527 -22.130930 30.542068 51.275943 -0.567259 0.932733 0.037775 -0.020690 46029.800000 0 0 1
35.175827 -22.619130 29.316798 51.072875 -0.571460 0.959391 0.058067 -0.029048 -399464.000000 0 0 1
36.378327 -21.983130 28.985578 51.447104 -0.543569 0.972294 0.042389 -0.027346 -339185.000000 0 0 1
36.908527 -22.479530 27.641648 51.299409 -0.547055 1.001749 0.054114 -0.023972 -316406.000000 0 0 1
-36.573625 -23.767030 27.686678 51.662887 0.576263 1.005211 0.050664 -0.014075 23250.200000 0 0 1
-36.007925 -23.943830 26.377258 50.652122 0.586820 1.023063 0.044638 -0.002106 -2978.410000 0 0 1
-35.835925 -25.464630 26.038028 51.094421 0.617798 1.036069 0.050226 -0.001311 -215411.000000 0 0 1
36.928227 -26.184130 25.922998 52.166124 -0.616777 1.050737 0.057605 -0.004323 -184855.000000 0 0 1
36.926427 -27.523030 25.548398 52.666867 -0.640517 1.064325 0.057440 0.001723 -242508.000000 0 0 1
-36.373325 -28.521530 26.462188 53.261092 0.664991 1.050844 0.061355 -0.008045 -884517.000000 0 0 1
-36.096825 -29.824930 25.970388 53.544078 0.690542 1.064401 0.066655 -0.005645 991838.000000 0 0 1
-34.875625 -30.417130 26.464138 53.309114 0.717219 1.051317 0.067919 -0.016624 1399480.000000 0 0 1
-33.535925 -29.744530 26.041568 51.841669 0.725556 1.044506 0.067507 -0.011479 -565442.000000 0 0 1
-33.143925 -29.782230 24.702648 50.948227 0.732026 1.064596 0.068185 -0.008378 -197414.000000 0 0 1
-31.881125 -29.246730 24.404778 49.672634 0.742328 1.057200 0.045740 -0.003834 -125703.000000 0 0 1
-31.385425 -29.451930 22.952738 48.777959 0.753627 1.080876 0.045195 -0.014364 -257319.000000 0 0 1
-31.050625 -30.792730 22.622338 49.235188 0.781228 1.093392 0.060364 -0.020351 275902.000000 0 0 1
-30.580625 -30.881130 21.313138 48.405255 0.790287 1.114857 0.057117 -0.016932 -842611.000000 0 0 1
-30.474725 -32.257430 20.766138 48.994726 0.813808 1.133111 0.084378 -0.013988 48204.800000 0 0 1
-29.568525 -33.063330 21.482238 49.284562 0.841140 1.119779 0.089879 -0.032244 223022.000000 0 0 1
-28.193125 -32.848330 21.199438 48.200428 0.861514 1.115400 0.108572 -0.027106 83252.400000 0 0 1
-27.338325 33.959188 21.184338 48.470472 -0.892993 1.118473 0.105742 -0.023729 -24248.000000 0 0 1
-27.656725 33.050488 20.110638 47.556986 -0.874014 1.134181 0.099764 -0.018234 393589.000000 0 0 1
-28.874825 32.322888 20.262538 47.844488 -0.841682 1.133482 0.110255 -0.017385 317485.000000 0 0 1
-28.827125 31.245588 21.380838 47.586029 -0.825635 1.104804 0.109344 -0.022759 -123053.000000 0 0 1
-28.029525 30.130788 21.026238 46.212783 -0.821511 1.098438 0.093143 -0.018401 -53254.100000 0 0 1
-27.877425 29.198588 22.039738 45.994113 -0.808541 1.071069 0.087162 -0.017444 91798.500000 0 0 1
-26.889425 28.022188 21.759338 44.516884 -0.806024 1.060096 0.087272 -0.017329 1202630.000000 0 0 1
-25.513625 28.448888 21.787738 43.988519 -0.839739 1.052610 0.089623 -0.013731 998249.000000 0 0 1
-24.630525 27.555188 21.107338 42.561378 -0.841383 1.051894 0.080839 -0.007331 403257.000000 0 0 1
-23.141125 27.954488 21.160838 42.008882 -0.879324 1.042893 0.069421 -0.001292 278708.000000 0 0 1
-22.622025 28.127688 22.536238 42.553553 -0.893462 1.012671 0.074677 -0.010468 -221852.000000 0 0 1
-21.313525 28.572188 22.577438 42.194514 -0.929890 1.006194 0.082724 -0.011497 -647971.000000 0 0 1
-20.655425 28.569088 23.998558 42.647042 -0.944801 0.973118 0.072105 -0.005798 -214886.000000 0 0 1
-20.352325 27.235888 24.457908 41.883171 -0.929050 0.947204 0.071479 -0.022909 266517.000000 0 0 1
-20.201025 27.183188 25.896978 42.634031 -0.931697 0.917981 0.086926 -0.019258 -224345.000000 0 0 1
-18.870825 27.644488 26.514298 42.700512 -0.971827 0.900860 0.093881 -0.017182 -723497.000000 0 0 1
-18.631925 29.036288 26.382818 43.431645 -1.000294 0.917942 0.067404 -0.014735 148505.000000 0 0 1
-17.368125 29.483788 26.843478 43.491584 -1.038450 0.905603 0.064419 -0.018386 113812.000000 0 0 1
-17.262825 29.654688 28.366428 44.520331 -1.043622 0.879993 0.046816 -0.013938 -271599.000000 0 0 1
-17.238225 28.393288 28.964928 44.071559 -1.025156 0.853665 0.054040 -0.011142 121690.000000 0 0 1
-17.440025 28.613288 30.329638 45.196921 -1.023415 0.835165 0.055988 -0.011696 -94808.600000 0 0 1
-17.232625 27.374188 31.243188 44.971617 -1.008953 0.802750 0.053519 -0.011164 166667.000000 0 0 1
-15.846825 27.076888 31.384348 44.376312 -1.041291 0.785221 0.049537 -0.007244 643951.000000 0 0 1
-15.514425 25.980588 32.248350 44.222669 -1.032472 0.753605 0.063415 -0.008959 -254794.000000 0 0 1
-15.930425 26.193888 33.736007 45.585265 -1.024389 0.737631 0.067391 -0.003974 -768860.000000 0 0 1
-17.259625 25.892688 34.015441 46.101802 -0.982852 0.740942 0.067540 -0.005292 -734034.000000 0 0 1
-17.861225 26.756788 -33.032098 46.109311 -0.982189 2.369406 0.063932 -0.006697 -73146.600000 0 0 1
-19.210125 26.194688 -32.575338 46.003731 -0.938030 2.357603 0.038469 -0.001266 109047.000000 0 0 1
-20.262225 26.392288 -33.541638 47.245657 -0.916042 2.360211 0.032309 -0.001850 -275605.000000 0 0 1
-21.429625 25.875988 -32.995218 47.090126 -0.879115 2.347150 0.046218 -0.006379 -507939.000000 0 0 1
-22.651225 25.969888 -33.957008 48.379660 -0.853548 2.348838 0.067254 -0.022237 -215187.000000 0 0 1
-22.731525 25.050488 32.970892 47.236944 -0.833892 0.798210 0.081606 -0.020151 66942.500000 0 0 1
-22.699725 23.630988 33.305102 46.721847 -0.805496 0.777260 0.078809 -0.024987 -308423.000000 0 0 1
-23.149525 22.752988 32.120713 45.665514 -0.776760 0.790639 0.092889 -0.031177 787153.000000 0 0 1
-24.580525 22.661188 32.064966 46.323792 -0.744792 0.806274 0.091294 -0.034472 431041.000000 0 0 1
-24.996725 22.502988 30.766708 45.583013 -0.732946 0.829886 0.105068 -0.034554 2254680.000000 0 0 1
-26.600625 22.363988 30.583638 46.293630 -0.699089 0.849119 0.083800 -0.025929 2610990.000000 0 0 1
-27.180125 21.118288 31.028838 46.341451 -0.660543 0.837167 0.100761 -0.034994 -95978.900000 0 0 1
-28.230325 20.617388 30.263448 46.237477 -0.630791 0.857246 0.080710 -0.029864 -352137.000000 0 0 1
-28.593425 19.149088 30.643768 46.079410 -0.590101 0.843275 0.109589 -0.031125 198936.000000 0 0 1
-29.368925 19.100188 31.877878 47.366128 -0.576624 0.832525 0.110804 -0.029907 243889.000000 0 0 1
-29.483025 17.837388 32.538806 47.394041 -0.544092 0.814051 0.097590 -0.018161 -94224.100000 0 0 1
-30.339025 16.724388 31.905688 47.097076 -0.503802 0.826512 0.078544 -0.022355 1211970.000000 0 0 1
-31.756525 17.049488 31.947658 48.164456 -0.492716 0.845572 0.087671 -0.024623 1080090.000000 0 0 1
-32.533325 15.989388 31.464968 48.001271 -0.456806 0.855948 0.090676 -0.023544 191886.000000 0 0 1
-34.046525 16.285388 31.281138 49.019275 -0.446160 0.878717 0.064065 -0.011355 570136.000000 0 0 1
-34.706025 16.712888 32.517378 50.410402 -0.448784 0.869704 0.087429 -0.008380 478210.000000 0 0 1
-36.115425 16.738788 32.501090 51.389024 -0.434007 0.886082 0.067191 -0.010183 -45558.200000 0 0 1
-36.622625 17.104088 33.894258 52.750234 -0.436930 0.872985 0.074960 -0.003625 -871011.000000 0 0 1
35.984927 17.350888 33.972134 52.441150 0.449283 0.866084 0.047149 0.000256 -862169.000000 0 0 1
35.637927 17.768688 -32.776438 51.575993 0.462518 2.259450 0.035304 -0.001275 946317.000000 0 0 1
34.077827 17.782488 -32.592798 50.396485 0.480951 2.274083 0.033410 0.001371 951515.000000 0 0 1
33.481427 16.491288 -32.541938 49.517131 0.457670 2.287875 0.034563 0.007583 524152.000000 0 0 1
32.080027 16.620888 -32.272968 48.445088 0.478028 2.299866 0.033814 0.011971 543802.000000 0 0 1
31.367327 15.263188 -32.440028 47.636431 0.452866 2.319913 0.025722 0.014175 -208931.000000 0 0 1
31.017227 15.076588 -33.806458 48.293359 0.452443 2.346226 0.033497 0.009662 -174251.000000 0 0 1
30.417527 13.811588 33.956123 47.634066 0.426231 0.777237 0.031983 0.004987 -106160.000000 0 0 1
31.314427 12.566888 33.967733 47.878251 0.381638 0.782064 0.034575 0.002157 -212404.000000 0 0 1
31.691327 12.097588 -32.781738 47.173448 0.364659 2.339104 0.035281 0.008358 -616110.000000 0 0 1
32.781427 11.269888 -32.933858 47.814970 0.331131 2.330597 0.055555 -0.002663 -674360.000000 0 0 1
17.728927 -20.944912 10.038082 29.219296 -0.868364 1.220110 0.047040 -0.027982 -206620.000000 0 0 1
17.616227 -22.257612 10.665382 30.322980 -0.901278 1.211382 0.053877 -0.029022 51647.700000 0 0 1
18.847727 -22.918312 10.855982 31.596490 -0.882553 1.220068 0.042676 -0.025546 -431216.000000 0 0 1
18.721527 -24.253312 11.687482 32.792011 -0.913416 1.206371 0.048780 -0.025550 550806.000000 0 0 1
17.897027 -25.339902 11.133682 32.960174 -0.955869 1.226226 0.050266 -0.027029 395004.000000 0 0 1
16.519127 -25.211552 11.330682 32.200750 -0.990760 1.211221 0.068225 -0.024155 -493249.000000 0 0 1
15.640527 -26.184982 10.530982 32.267336 -1.032358 1.238339 0.081295 -0.021604 -127872.000000 0 0 1
15.813227 -26.096452 9.131782 31.850783 -1.026011 1.280011 0.086113 -0.033581 -391778.000000 0 0 1
14.825127 -26.710072 8.394582 31.680930 -1.064093 1.302621 0.089320 -0.020218 -642683.000000 0 0 1
14.600627 -26.127512 6.985182 30.734638 -1.061205 1.341519 0.089760 -0.022991 -79997.000000 0 0 1
14.005427 -24.852812 7.108582 29.399765 -1.057621 1.326586 0.093310 -0.030872 128023.000000 0 0 1
13.605727 -24.335412 5.843182 28.486328 -1.061000 1.364208 0.090523 -0.011824 23965.200000 0 0 1
12.908927 -22.957012 5.922182 26.995130 -1.058552 1.349618 0.101862 -0.015834 -203549.000000 0 0 1
12.189827 -22.500912 4.836482 26.043703 -1.074311 1.384006 0.096184 -0.011233 -78044.300000 0 0 1
11.321527 -21.443012 5.186382 24.796740 -1.085014 1.360085 0.092694 -0.012744 144756.000000 0 1 0
10.475027 -20.855612 4.012182 23.680801 -1.105339 1.400547 0.076386 -0.012203 554196.000000 0 1 0
11.239427 -19.960112 3.181382 23.126867 -1.057955 1.432797 0.061414 -0.011774 159564.000000 0 1 0
10.432127 -19.402212 2.172582 22.135836 -1.077463 1.472490 0.053402 -0.007279 221120.000000 0 1 0
11.169227 -19.053212 0.807682 22.100427 -1.040577 1.534242 0.051273 -0.001251 927837.000000 0 1 0
12.058427 -17.892312 0.930982 21.596463 -0.977772 1.527675 0.046123 -0.004784 289946.000000 0 1 0
12.768627 -17.784612 -0.271218 21.895292 -0.948119 1.583184 0.059240 -0.005150 392407.000000 0 1 0
13.962927 -16.761312 -0.114518 21.815546 -0.876228 1.576046 0.056178 -0.003367 1162450.000000 0 1 0
15.082227 -17.267312 0.619382 22.935067 -0.852842 1.543787 0.070196 -0.014849 42965.500000 0 1 0
16.292427 -16.673112 0.231282 23.312858 -0.796946 1.560875 0.068189 -0.018583 -144584.000000 0 1 0
17.507927 -17.280212 0.945082 24.617604 -0.778852 1.532396 0.065215 -0.019474 -395921.000000 0 1 0
17.789427 -18.598912 0.649482 25.745001 -0.807640 1.545566 0.061458 -0.019033 57311.600000 0 0 1
19.044027 -18.952012 1.206082 26.894393 -0.782976 1.525936 0.069216 -0.011699 307621.000000 0 0 1
19.375027 -20.290712 0.499482 28.059832 -0.808479 1.552995 0.048171 -0.012534 538213.000000 0 0 1
18.482427 -21.295012 1.048782 28.216619 -0.855989 1.533619 0.048775 -0.010095 669723.000000 0 0 1
18.666227 -22.477912 0.316682 29.219597 -0.877777 1.559958 0.055389 -0.012877 -289052.000000 0 0 1
17.565027 -23.467512 0.675082 29.320812 -0.928267 1.547770 0.055786 -0.007930 -427953.000000 0 0 1
17.576927 -24.000112 1.980882 29.814051 -0.938675 1.504306 0.052038 -0.009912 -772653.000000 0 0 1
16.636927 -24.984112 2.106282 30.090358 -0.983324 1.500740 0.051231 -0.006368 -1071810.000000 0 0 1
16.623027 -25.795052 3.419082 30.877174 -0.998349 1.459837 0.053118 -0.008886 708838.000000 0 0 1
17.688327 -26.750682 3.542782 32.264953 -0.986568 1.460772 0.070108 -0.012961 512366.000000 0 0 1
18.938727 -26.217952 3.934982 32.581290 -0.945223 1.449726 0.057940 -0.008731 -385027.000000 0 0 1
20.089627 -27.244862 3.947782 34.080208 -0.935426 1.454698 0.055552 -0.011758 -211313.000000 0 0 1
20.615027 -27.453722 2.670182 34.435680 -0.926719 1.493177 0.065127 -0.012236 69492.500000 0 0 1
21.690627 -28.388472 2.569882 35.818891 -0.918354 1.498988 0.061932 -0.013199 389155.000000 0 0 1
21.342827 -29.950162 2.751382 36.879514 -0.951656 1.496122 0.060426 -0.014822 22341.900000 0 0 1
21.043527 -30.330752 4.100782 37.142980 -0.964242 1.460165 0.062306 -0.027155 -423368.000000 0 0 1
20.350127 -31.520672 4.072682 37.739464 -0.997512 1.462670 0.058371 -0.031015 -540936.000000 0 0 1
19.898527 -31.865342 5.502682 37.968815 -1.012588 1.425358 0.069898 -0.031000 -464800.000000 0 0 1
20.883027 -32.435472 6.323882 39.091587 -0.998769 1.408311 0.045846 -0.034647 -29697.800000 0 0 1
20.352327 -32.767972 7.581382 39.312016 -1.015003 1.376729 0.051977 -0.034728 -162716.000000 0 0 1
21.224827 -33.695612 8.430682 40.705822 -1.008682 1.362174 0.041372 -0.032572 388342.000000 0 0 1
22.439327 -33.078332 8.904282 40.951016 -0.974736 1.351608 0.038166 -0.030634 669262.000000 0 0 1
23.414727 33.980957 8.903282 42.216387 0.967454 1.358304 0.052350 -0.039528 193570.000000 0 0 1
24.603727 -33.599652 9.739382 42.768394 -0.938745 1.341057 0.054454 -0.032009 -245613.000000 0 0 1
25.219327 -32.429942 9.221682 42.104097 -0.909829 1.349985 0.044410 -0.033335 126046.000000 0 0 1
26.213827 -31.914192 10.100182 42.516986 -0.883151 1.330947 0.042785 -0.021699 880158.000000 0 0 1
27.176727 -30.916522 9.328082 42.206859 -0.849685 1.347948 0.042303 -0.029369 417960.000000 0 0 1
26.445327 -29.750462 9.034882 40.817575 -0.844145 1.347600 0.028842 -0.028296 174612.000000 0 0 1
27.046927 -28.949302 8.039382 40.425611 -0.819358 1.370593 0.036968 -0.029086 -44636.200000 0 0 1
26.562427 -27.484802 8.260182 39.105083 -0.802463 1.357963 0.027928 -0.018729 -56975.500000 0 0 1
27.201827 -26.917502 9.356582 39.395900 -0.780145 1.331003 0.026516 -0.031836 -23635.700000 0 0 1
26.703727 -25.581202 9.637482 38.214762 -0.763932 1.315851 0.032771 -0.022397 -41885.100000 0 0 1
27.488427 -24.834412 10.734982 38.569437 -0.734718 1.288743 0.028558 -0.025178 -128032.000000 0 0 1
28.764327 -24.477712 10.267782 39.140417 -0.705060 1.305358 0.040422 -0.026026 -575363.000000 0 0 1
29.397327 -23.499712 11.117782 39.243399 -0.674364 1.283560 0.041954 -0.034550 -209252.000000 0 0 1
30.850127 -23.280312 10.684982 40.098281 -0.646455 1.301068 0.051792 -0.028906 -156387.000000 0 0 1
30.900627 -22.592112 9.431982 39.423528 -0.631309 1.329206 0.049127 -0.023355 -322958.000000 0 0 1
32.198427 -22.652812 8.891782 40.360282 -0.613096 1.348664 0.060734 -0.025935 24892.900000 0 0 1
32.315827 -21.906212 7.560182 39.766206 -0.595725 1.379516 0.065215 -0.002488 -297780.000000 0 0 1
32.108827 -20.541412 7.581982 38.864030 -0.569131 1.374447 0.069560 0.005622 -23765.200000 0 0 1
32.229127 -20.050212 6.272482 38.471700 -0.556522 1.407024 0.064623 0.003096 -159280.000000 0 0 1
31.853027 -18.546912 6.253982 37.386035 -0.527277 1.402725 0.082850 -0.003130 41411.000000 0 0 1
32.681327 -17.637812 6.955782 37.782859 -0.494894 1.385641 0.084429 0.001890 -11878.200000 0 0 1
32.197427 -16.319212 6.909682 36.752343 -0.469111 1.381664 0.086787 -0.002207 98633.300000 0 0 1
32.651627 -15.551512 8.188482 37.081391 -0.444497 1.348137 0.086223 -0.031690 134202.000000 0 0 1
34.043427 -15.410512 8.341082 38.288542 -0.425074 1.351187 0.080786 -0.019978 -94378.500000 0 0 1
34.521227 -15.133112 9.656082 38.909718 -0.413141 1.320009 0.072951 -0.028666 -574966.000000 0 0 1
36.034627 -15.185212 9.702482 40.289244 -0.398823 1.327585 0.063574 -0.033076 -903280.000000 0 0 1
36.690027 -14.103012 9.127982 40.353105 -0.366971 1.342619 0.088035 -0.016230 263015.000000 0 0 1
-35.872525 -14.339712 9.120182 39.694371 0.380283 1.338965 0.077284 -0.019479 1182270.000000 0 0 1
-35.010025 -13.337012 8.237582 38.359295 0.363975 1.354363 0.087886 -0.026133 123155.000000 0 0 1
-35.388425 -13.246312 6.876182 38.406865 0.358167 1.390791 0.114976 -0.035391 -487370.000000 0 0 1
-34.433625 -12.743412 6.013082 37.205191 0.354456 1.408465 0.095319 -0.027581 -192573.000000 0 0 1
-33.421425 -13.809412 5.456482 36.571364 0.391825 1.421036 0.074245 -0.019347 49038.700000 0 0 1
-32.630425 -14.349712 6.468582 36.228461 0.414310 1.391284 0.082515 -0.020407 -29025.400000 0 0 1
-31.689025 -15.266412 5.927082 35.670547 0.448947 1.403860 0.071489 -0.009212 -200715.000000 0 0 1
-30.953125 -16.031912 6.971682 35.548875 0.477898 1.373402 0.060399 -0.024021 -590817.000000 0 0 1
-31.763325 -16.958312 7.622682 36.804870 0.490395 1.362176 0.062984 -0.027726 -147343.000000 0 0 1
-31.400725 -17.017212 8.952582 36.820371 0.496632 1.325192 0.041162 -0.022357 -151035.000000 0 0 1
-32.520525 -17.716512 9.721282 38.287892 0.498826 1.314086 0.016038 -0.021169 -287298.000000 0 0 1
-33.777025 -17.054012 9.739382 39.071502 0.467560 1.318869 0.040440 -0.020306 577243.000000 0 0 1
-34.773625 -17.545112 10.613382 40.369293 0.467283 1.304762 0.065147 -0.029954 450842.000000 0 0 1
-35.480025 -18.930412 10.300382 41.512535 0.490127 1.320050 0.063215 -0.030216 -394912.000000 0 0 1
-34.709225 -20.126412 10.514782 41.477263 0.525477 1.314492 0.062249 -0.025483 -7314.580000 0 0 1
-34.238125 -20.382612 11.826382 41.563967 0.536971 1.282276 0.069038 -0.041757 -241475.000000 0 0 1
-35.285125 -21.066912 12.762682 43.031859 0.538246 1.269680 0.085614 -0.055444 153651.000000 0 0 1
-35.560625 -22.437012 12.631982 43.903810 0.562867 1.278952 0.093498 -0.058115 -904617.000000 0 0 1
-36.517425 -22.689512 11.722382 44.561761 0.555959 1.304605 0.085702 -0.046218 -1294090.000000 0 0 1
36.935327 -24.153312 11.669082 45.648312 -0.579137 1.312297 0.090287 -0.041003 -195810.000000 0 0 1
36.394927 -24.524612 12.895182 45.742027 -0.592957 1.285011 0.134785 -0.039175 -180218.000000 0 0 1
35.665227 -25.733772 12.730982 45.785515 -0.625034 1.289026 0.106641 -0.033045 7333.410000 0 0 1
34.492327 -25.725192 13.750982 45.172953 -0.640823 1.261480 0.119412 -0.036613 -102798.000000 0 0 1
33.593427 -24.697112 13.409082 43.798050 -0.633947 1.259643 0.116997 -0.042854 186708.000000 0 0 1
32.603127 -24.431012 14.425582 43.219621 -0.643082 1.230492 0.101207 -0.026759 -79887.400000 0 0 1
32.544427 -22.965312 14.883982 42.521503 -0.614515 1.213189 0.120055 -0.033164 778594.000000 0 0 1
33.710927 -22.503612 15.597682 43.429562 -0.588611 1.203440 0.122453 -0.037705 761579.000000 0 0 1
34.869627 -22.234912 14.818082 43.930146 -0.567650 1.226738 0.111758 -0.044375 42310.800000 0 0 1
36.092427 -21.823712 15.662582 44.991712 -0.543840 1.215230 0.105941 -0.049511 -106261.000000 0 0 1
35.965827 -20.544012 16.267382 44.499718 -0.518981 1.196560 0.092460 -0.033663 -209689.000000 0 0 1
35.034427 -20.430712 17.297282 44.091054 -0.527946 1.167657 0.095952 -0.032555 -379694.000000 0 0 1
35.049127 -19.033912 17.970582 43.745548 -0.497502 1.147467 0.068570 -0.021123 -431168.000000 0 0 1
34.630427 -18.016812 17.064682 42.603701 -0.479724 1.158685 0.060037 -0.024203 149913.000000 0 0 1
34.606627 -16.685612 17.576382 42.248757 -0.449267 1.141731 0.038880 -0.017868 789269.000000 0 0 1
35.976027 -15.954412 17.936882 43.249850 -0.417413 1.143154 0.034987 -0.021534 833201.000000 0 0 1
36.424727 -16.297112 19.245582 44.302924 -0.420705 1.121414 0.029119 -0.011609 543720.000000 0 0 1
-36.452225 -15.426312 19.597382 44.167784 0.400339 1.111070 0.014552 -0.014836 528306.000000 0 0 1
-36.158625 -15.480612 21.100582 44.635525 0.404519 1.078409 0.007679 -0.008080 -295421.000000 0 0 1
-35.400825 -16.558212 21.566182 44.637350 0.437504 1.066556 0.017732 -0.005548 58403.400000 0 0 1
-35.214825 -16.406412 23.006582 45.150383 0.435993 1.036129 0.031105 -0.012399 12636.400000 0 0 1
-34.186525 -17.425512 23.516282 45.004249 0.471392 1.020975 0.037236 -0.004625 -921202.000000 0 0 1
-34.720325 -18.733812 23.615982 45.980118 0.494795 1.031406 0.032416 -0.009593 356201.000000 0 0 1
-33.861025 -19.810712 24.018882 45.999348 0.529361 1.021418 0.032418 -0.004325 -357185.000000 0 0 1
-32.868825 -20.352312 22.983082 44.975530 0.554416 1.034433 0.034276 -0.001917 -301133.000000 0 0 1
-31.758425 -19.533712 22.719582 43.661686 0.551428 1.023530 0.040193 0.000546 -61202.000000 0 0 1
-30.693925 -20.375312 22.262882 43.045398 0.586031 1.027226 0.050691 -0.001085 320038.000000 0 0 1
-29.370625 -19.573012 22.167982 41.679201 0.587828 1.009987 0.065386 -0.005171 -179024.000000 0 0 1
-28.915425 -19.166712 23.427982 41.860900 0.585359 0.976818 0.053836 -0.004072 397678.000000 0 0 1
-27.756325 -18.361312 23.200882 40.568858 0.584430 0.961990 0.092806 -0.010735 227331.000000 0 0 1
-27.037025 -17.911412 24.490782 40.640101 0.585097 0.924009 0.078518 -0.021538 -605804.000000 0 0 1
-26.011125 -16.963612 24.296182 39.429015 0.577897 0.906887 0.081938 -0.021332 108200.000000 0 0 1
-25.579425 -16.394912 25.543782 39.693638 0.569981 0.871704 0.065212 -0.022473 551132.000000 0 0 1
-24.528925 -17.279312 26.345882 39.929291 0.613704 0.850226 0.059526 -0.016192 -369823.000000 0 0 1
-24.931925 -18.495812 26.875182 41.060581 0.638266 0.857242 0.065517 -0.015207 -891907.000000 0 0 1
-24.012025 -19.063412 27.734682 41.342515 0.671017 0.835440 0.056928 -0.013725 -547145.000000 0 0 1
-24.588725 -20.343812 28.411082 42.727809 0.691205 0.843394 0.055316 -0.010310 74247.100000 0 0 1
-25.391725 -20.047412 29.575182 43.832976 0.668321 0.830205 0.054750 -0.016255 314775.000000 0 0 1
-25.757225 -21.299812 30.161182 45.020146 0.690956 0.836657 0.055544 -0.013210 -30029.500000 0 0 1
-27.042625 -21.249312 31.034182 46.324478 0.666004 0.836681 0.056191 -0.013593 -253916.000000 0 0 1
-26.891925 -20.549112 32.253182 46.751571 0.652488 0.809467 0.068815 -0.022157 53019.700000 0 0 1
-27.975025 -20.700912 33.132482 48.050922 0.637056 0.809958 0.085255 -0.027103 184593.000000 0 0 1
-29.233325 -19.812812 32.907482 48.270458 0.595635 0.820670 0.063789 -0.032525 -104947.000000 0 0 1
-29.984125 -20.143712 31.775282 48.109099 0.591557 0.849333 0.073966 -0.038867 1672940.000000 0 0 1
-31.282625 -19.449112 31.848682 48.695062 0.556239 0.857879 0.081132 -0.047804 1116650.000000 0 0 1
-32.448025 -20.096512 31.136382 49.256658 0.554522 0.886503 0.074586 -0.021398 -785253.000000 0 0 1
-32.574425 -19.622912 29.822982 48.327653 0.542184 0.905745 0.059392 -0.031397 232979.000000 0 0 1
-33.817325 -20.077412 29.311682 49.049859 0.535776 0.930305 0.055472 -0.032659 133607.000000 0 0 1
-34.201125 -19.234012 28.082782 48.252531 0.512298 0.949615 0.048488 -0.026119 -307545.000000 0 0 1
-35.357125 -19.653412 27.409682 48.863826 0.507327 0.975275 0.032187 -0.026276 1269.120000 0 0 1
-35.933525 -18.651112 26.584582 48.433688 0.478767 0.989765 0.026073 -0.022352 442213.000000 0 0 1
36.809027 -19.167812 25.748182 48.839312 -0.480099 1.015492 0.015678 -0.019132 669425.000000 0 0 1
35.600727 -19.332012 26.468882 48.391530 -0.497471 0.992052 0.038485 -0.022508 258846.000000 0 0 1
34.525527 -19.704012 25.619482 47.292896 -0.518603 0.998315 0.064167 -0.020833 -341516.000000 0 0 1
33.283127 -20.165012 26.354582 46.999556 -0.544719 0.975516 0.059271 -0.025608 -688306.000000 0 0 1
32.659427 -19.020712 26.927082 46.405748 -0.527375 0.951757 0.051330 -0.033418 419902.000000 0 0 1
31.452127 -19.477212 27.542882 46.121670 -0.554465 0.930817 0.049910 -0.021208 385673.000000 0 0 1
-29.927583 -5.462712 34.017007 45.636150 0.180543 0.729668 0.025630 -0.010200 129788.000000 0 0 1
-30.961983 -5.337512 33.068612 45.614323 0.170711 0.759818 0.027846 -0.009364 548728.000000 0 0 1
-30.575073 -4.268212 32.201446 44.609257 0.138701 0.764316 0.037030 -0.014614 340343.000000 0 0 1
-31.365963 -4.340612 30.821048 44.188251 0.137513 0.798902 0.026636 -0.017590 295219.000000 0 0 1
-31.148623 -5.426212 29.925358 43.533982 0.172473 0.812890 0.028278 -0.014854 1134100.000000 0 0 1
-29.854083 -5.309412 29.257238 42.135995 0.176005 0.803276 0.036455 -0.016144 1342280.000000 0 0 1
-29.648433 -6.312712 28.157268 41.372837 0.209786 0.822251 0.039856 -0.023802 321983.000000 0 0 1
-30.559383 -6.051212 27.092148 41.285319 0.195486 0.855001 0.049249 -0.026038 296810.000000 0 0 1
-30.256813 -6.970312 26.028258 40.515802 0.226421 0.873141 0.064548 -0.022823 314617.000000 0 0 1
-30.918723 -6.452612 24.686548 40.087770 0.205743 0.907380 0.070776 -0.014632 220139.000000 0 0 1
-30.317743 -5.259012 24.173288 39.130175 0.171754 0.904898 0.094832 -0.023721 -19727.900000 0 0 1
-31.013643 -4.743312 23.075178 38.946231 0.151767 0.936652 0.099147 -0.022320 101507.000000 0 0 1
-30.296173 -3.498212 22.436538 37.861508 0.114958 0.936520 0.107018 -0.022672 376712.000000 0 0 1
-29.040013 -3.739012 21.848038 36.532716 0.128049 0.929743 0.121240 -0.023369 -206034.000000 0 0 1
-28.456733 -2.559812 21.356738 35.671397 0.089713 0.928910 0.137687 -0.022074 -450552.000000 0 0 1
-27.087083 -2.762512 20.731538 34.221897 0.101635 0.920029 0.140643 -0.021638 -549021.000000 0 0 1
-27.073433 -3.709212 19.658338 33.662728 0.136158 0.947174 0.152082 -0.024376 -564911.000000 0 0 1
-25.855553 -3.627312 18.991438 32.285318 0.139382 0.941919 0.134908 -0.020111 -452993.000000 0 0 1
-25.731323 -4.369912 17.620638 31.491015 0.168223 0.976960 0.140969 -0.021164 250139.000000 0 0 1
-26.697573 -3.799112 16.756238 31.748467 0.141353 1.014810 0.138471 -0.021722 407465.000000 0 0 1
-26.389863 -4.366912 15.445238 30.887702 0.163991 1.047146 0.153529 -0.032276 -435618.000000 0 0 1
-27.578213 -4.344912 14.513338 31.465427 0.156264 1.091396 0.162910 -0.030560 -257008.000000 0 0 1
-28.142953 -3.062712 14.158738 31.652423 0.108400 1.107031 0.162591 -0.035981 18018.700000 0 0 1
-29.432623 -3.213512 13.624538 32.591931 0.108751 1.139516 0.143524 -0.030287 38700.800000 0 0 1
-29.957163 -1.974012 12.839638 32.652483 0.065799 1.166664 0.124964 -0.016999 171536.000000 0 0 1
-29.241443 -1.843812 11.594338 31.510162 0.062971 1.193987 0.154993 -0.022573 304455.000000 0 0 1
-29.483483 -0.692712 10.814838 31.412041 0.023491 1.219314 0.154137 -0.022047 -64938.800000 0 0 1
-30.802053 -0.458312 10.022038 32.394718 0.014878 1.256263 0.142672 -0.017132 345130.000000 0 0 1
-30.881633 -1.022312 8.711238 32.103053 0.033092 1.295999 0.131131 -0.019157 157194.000000 0 0 1
-32.224483 -1.053912 8.245238 33.279302 0.032694 1.320430 0.117065 -0.023804 288813.000000 0 0 1
-32.307163 -1.846312 6.873138 33.081742 0.057087 1.361510 0.117275 -0.028312 -65669.300000 0 0 1
-31.692843 -1.340012 5.663038 32.222693 0.042256 1.394132 0.128361 -0.037365 558303.000000 0 0 1
-32.346853 -0.194812 5.134738 32.752441 0.006023 1.413373 0.134490 -0.029784 21713.800000 0 0 1
-31.787293 0.156088 3.734938 32.006345 -0.004910 1.453836 0.158409 -0.036982 129888.000000 0 0 1
-32.312923 -0.717012 2.752038 32.437830 0.022186 1.485854 0.146736 -0.051054 442637.000000 0 0 1
-31.816063 -0.210512 1.563338 31.855144 0.006616 1.521700 0.144789 -0.046926 -255129.000000 0 0 1
-32.507103 -0.837712 0.364538 32.519938 0.025764 1.559586 0.131710 -0.045537 -306748.000000 0 0 1
-33.867303 -0.538812 0.221838 33.872315 0.015908 1.564247 0.133016 -0.037320 69560.700000 0 0 1
-34.523664 -1.222912 -0.847162 34.555702 0.035408 1.595315 0.128404 -0.040524 665604.000000 0 0 1
-36.078558 -1.096712 -0.903162 36.106520 0.030389 1.595813 0.135648 -0.036761 517433.000000 0 0 1
-36.700703 -1.987212 0.005538 36.754464 0.054094 1.570646 0.135137 -0.030999 780087.000000 0 0 1
35.840709 -1.964712 -0.064062 35.894577 -0.054763 1.572581 0.139492 -0.029011 894752.000000 0 0 1
35.062079 -3.194712 0.514638 35.211084 -0.090865 1.556180 0.144975 -0.029990 -57934.700000 0 0 1
35.212539 -3.327712 1.904838 35.420686 -0.094224 1.516993 0.126363 -0.026523 158544.000000 0 0 1
34.445809 -4.399212 2.419238 34.809762 -0.127026 1.501241 0.126697 -0.018933 33346.800000 0 0 1
34.518579 -4.505212 3.976838 35.037758 -0.129782 1.457050 0.114199 -0.022755 184377.000000 0 0 1
33.749969 -3.499212 4.607238 34.242248 -0.103311 1.435839 0.119583 -0.027437 172542.000000 0 0 1
33.845889 -3.594712 5.994638 34.560120 -0.105812 1.396459 0.105698 -0.035016 -102418.000000 0 0 1
33.363439 -2.266412 6.715238 34.107919 -0.067827 1.372620 0.107492 -0.031452 1351390.000000 0 0 1
31.920619 -2.180912 6.632638 32.675284 -0.068217 1.366389 0.116960 -0.039162 1361250.000000 0 0 1
31.301219 -1.265012 7.555638 32.225056 -0.040392 1.334128 0.118313 -0.038358 -250683.000000 0 0 1
29.835549 -1.509012 7.884138 30.896549 -0.050535 1.312764 0.122396 -0.041803 -954595.000000 0 0 1
28.983949 -1.114912 6.804938 29.792944 -0.038448 1.340354 0.135738 -0.040139 1008200.000000 0 0 1
27.592379 -1.128412 7.178238 28.533135 -0.040873 1.316489 0.129576 -0.035757 726317.000000 0 0 1
26.948679 -2.558112 7.174138 28.004348 -0.094642 1.311729 0.159505 -0.050496 -929513.000000 0 0 1
27.110679 -3.310012 8.391638 28.572097 -0.121491 1.272701 0.148226 -0.057874 531766.000000 0 0 1
26.816879 -4.690912 8.206238 28.433994 -0.173172 1.278025 0.169136 -0.055652 -280636.000000 0 0 1
27.103679 -5.680812 9.390638 29.241497 -0.206605 1.243862 0.161143 -0.057512 -1107010.000000 0 0 1
26.133779 -5.503912 10.314238 28.629547 -0.207572 1.202244 0.166158 -0.046012 -244874.000000 0 0 1
26.365579 -6.393912 11.430538 29.439482 -0.237917 1.172040 0.155240 -0.040741 -858309.000000 0 0 1
25.229579 -6.385812 12.395838 28.826500 -0.247902 1.126287 0.149595 -0.028701 -286167.000000 0 0 1
24.120679 -7.198312 12.037938 27.902237 -0.290015 1.124716 0.173078 -0.029936 1061070.000000 0 0 1
22.894179 -6.859412 12.728338 27.077769 -0.291102 1.081431 0.166529 -0.032700 970204.000000 0 0 1
21.965879 -8.034912 12.935138 26.727841 -0.350672 1.065625 0.142066 -0.027087 -83240.300000 0 0 1
22.456979 -8.902812 13.941938 27.891820 -0.377432 1.047362 0.142355 -0.029744 88210.000000 0 0 1
21.707579 -10.098612 13.902938 27.685604 -0.435431 1.044688 0.164123 -0.044891 -33893.800000 0 0 1
22.105479 -11.218612 14.894338 28.919730 -0.469633 1.029761 0.151116 -0.038743 -278142.000000 0 0 1
22.009079 -10.812512 16.248938 29.416628 -0.456643 0.985589 0.130539 -0.028822 225945.000000 0 0 1
22.215279 -11.882512 17.117738 30.458655 -0.491161 0.973996 0.111976 -0.029818 -90602.900000 0 0 1
21.982279 -11.548912 18.599938 31.025081 -0.483740 0.927904 0.115248 -0.021850 1363630.000000 0 0 1
20.557779 -11.551912 18.919038 30.232416 -0.511952 0.894657 0.100676 -0.020540 1407620.000000 0 0 1
20.190679 -11.759412 20.261538 30.926966 -0.527391 0.856426 0.091391 -0.015522 38748.400000 0 0 1
20.574679 -10.666812 21.311438 31.484531 -0.478293 0.827272 0.095241 -0.016601 -572423.000000 0 0 1
19.846979 -9.440712 21.367538 30.652917 -0.443999 0.799479 0.090363 -0.020215 -250538.000000 0 0 1
20.219179 -8.352512 20.510138 29.987421 -0.391747 0.817622 0.099163 -0.016510 -1322460.000000 0 0 1
21.379379 -7.477412 21.096738 30.952575 -0.336451 0.820873 0.105819 -0.008839 52818.500000 0 0 1
22.663179 -8.012012 21.068738 31.964101 -0.339812 0.851125 0.119474 -0.021232 -515716.000000 0 0 1
23.168679 -8.174112 19.747538 31.520931 -0.339175 0.893755 0.135689 -0.033935 -1903200.000000 0 0 1
24.583679 -8.714412 19.731338 32.705106 -0.340660 0.923150 0.169003 -0.038291 -540189.000000 0 0 1
24.573979 -9.985912 20.336338 33.424027 -0.385978 0.916710 0.136175 -0.038066 731214.000000 0 0 1
25.845179 -10.630712 20.114138 34.432018 -0.390229 0.946940 0.139878 -0.045438 948728.000000 0 0 1
25.744679 -12.109112 20.404638 35.010975 -0.439651 0.948618 0.129282 -0.037112 375661.000000 0 0 1
25.046979 -12.831212 19.346238 34.150668 -0.473428 0.968548 0.127037 -0.035616 395801.000000 0 0 1
25.041779 -14.252012 19.565038 34.828168 -0.517411 0.974286 0.118712 -0.026965 50961.500000 0 0 1
24.093879 -14.952912 18.550638 33.885554 -0.555437 0.991483 0.105552 -0.022905 -373442.000000 0 0 1
24.519879 -14.972012 17.205838 33.487707 -0.548182 1.031193 0.102229 -0.022633 85354.400000 0 0 1
23.510979 -15.182312 16.233438 32.354185 -0.573385 1.045185 0.070264 -0.014953 179472.000000 0 0 1
22.958479 -16.659312 16.205938 32.668898 -0.627720 1.051734 0.049137 -0.019811 -68662.600000 0 0 1
24.043879 -17.501112 15.883238 33.714601 -0.629195 1.080249 0.085246 -0.022310 257066.000000 0 0 1
23.704279 -18.871512 16.067738 34.295758 -0.672372 1.083198 0.060489 -0.004974 -9059.150000 0 0 1
24.933779 -19.806812 16.143838 35.701914 -0.671303 1.101584 0.053477 -0.003307 -73718.100000 0 0 1
25.530779 -20.044712 14.914438 35.721865 -0.665601 1.140087 0.059101 -0.024659 -47176.300000 0 0 1
26.276379 -21.245312 14.890538 36.926136 -0.679922 1.155728 0.048290 -0.025745 -238424.000000 0 0 1
26.994079 -21.414212 13.547138 37.023962 -0.670638 1.196195 0.051143 -0.045741 -381514.000000 0 0 1
26.074979 -21.658512 12.536938 36.140981 -0.693137 1.216543 0.059146 -0.034770 179179.000000 0 0 1
26.614179 -21.290412 11.304838 35.908154 -0.674720 1.250522 0.065308 -0.037515 -317166.000000 0 0 1
25.489179 -21.316312 10.272738 34.779485 -0.696480 1.270956 0.043680 -0.026313 100730.000000 0 0 1
25.045479 -22.646312 9.943038 35.199368 -0.735135 1.284420 0.030271 -0.023470 -51313.400000 0 0 1
23.692379 -22.621012 9.549938 34.120966 -0.762269 1.287122 0.032712 -0.018703 137661.000000 0 0 1
23.278579 -23.544212 8.333538 34.141910 -0.791071 1.324220 0.025535 -0.019159 -205666.000000 0 0 1
23.351479 -24.920312 8.604338 35.218577 -0.817887 1.323986 0.017350 -0.011876 7413.860000 0 0 1
22.985179 -25.685092 7.492438 35.272922 -0.840815 1.356752 0.029200 -0.011333 -73016.400000 0 0 1
21.538679 -26.242642 7.550538 34.779327 -0.883530 1.351955 0.042667 -0.013629 -184021.000000 0 0 1
20.651779 -25.188242 7.405738 33.403420 -0.884040 1.347233 0.045142 -0.009267 -732622.000000 0 0 1
19.325679 -25.594732 7.673438 32.976565 -0.924062 1.335950 0.065478 -0.021983 -45009.100000 0 0 1
18.276179 -24.483412 7.658338 31.497720 -0.929557 1.325195 0.070868 -0.027066 -185699.000000 0 0 1
18.102879 -23.862812 6.417838 30.632282 -0.921799 1.359720 0.072405 -0.019233 447639.000000 0 0 1
17.066479 -22.875512 6.572238 29.287337 -0.929822 1.344463 0.068275 -0.014316 269763.000000 0 0 1
16.761479 -22.261112 5.206238 28.348002 -0.925411 1.386093 0.071421 -0.007129 -52860.500000 0 0 1
15.887979 -21.142612 5.387738 26.990103 -0.926357 1.369827 0.084585 -0.007848 115252.000000 0 0 1
15.555879 -20.639612 4.113138 26.170534 -0.924937 1.412975 0.084049 -0.008485 118420.000000 0 0 1
14.661379 -19.368612 4.020438 24.622411 -0.922852 1.406778 0.085865 -0.003160 171786.000000 0 1 0
15.230479 -18.164112 4.515738 24.130776 -0.873021 1.382550 0.051785 -0.010070 108339.000000 0 1 0
14.564379 -17.013112 3.989238 22.748212 -0.862790 1.394520 0.032621 -0.004129 169588.000000 0 1 0
15.407279 -15.758612 4.199838 22.435613 -0.796671 1.382490 0.024401 -0.016739 -854469.000000 0 1 0
15.618379 -15.340912 5.532438 22.580638 -0.776436 1.323268 0.032608 -0.028405 598941.000000 0 1 0
16.741079 -14.457112 5.663738 22.833085 -0.712320 1.320130 0.057107 -0.034153 641717.000000 0 1 0
18.142379 -15.088912 5.533838 24.237256 -0.693770 1.340445 0.071600 -0.040340 -191794.000000 0 1 0
19.236979 -14.180112 5.527638 24.529406 -0.635212 1.343497 0.114092 -0.041781 927881.000000 0 1 0
20.491679 -14.845912 5.275538 25.848430 -0.626970 1.365257 0.137568 -0.043535 860932.000000 0 0 1
21.640679 -13.806012 5.156038 26.182240 -0.567869 1.372572 0.138579 -0.048052 92939.600000 0 0 1
21.943379 -13.089412 6.337938 26.325160 -0.537848 1.327652 0.154889 -0.046718 666277.000000 0 0 1
23.050579 -12.211612 6.026638 26.772617 -0.487183 1.343746 0.167763 -0.043076 683731.000000 0 0 1
23.440779 -11.293112 7.223638 27.003434 -0.448959 1.299990 0.183931 -0.050749 34925.300000 0 0 1
23.870079 -12.035812 8.352638 28.007285 -0.467019 1.267958 0.183845 -0.029676 186643.000000 0 0 1
23.609879 -11.301912 9.539038 27.859520 -0.446458 1.221329 0.202516 -0.049541 41203.100000 0 0 1
24.050379 -12.091912 10.752638 28.987141 -0.465865 1.190770 0.167440 -0.042599 -64681.200000 0 0 1
23.138479 -13.118112 11.044838 28.800391 -0.515755 1.177217 0.169655 -0.046566 267269.000000 0 0 1
23.664679 -14.040712 11.992538 30.016323 -0.535493 1.159788 0.163906 -0.047211 27656.600000 0 0 1
22.534479 -15.053812 12.286038 29.755113 -0.588949 1.145155 0.136127 -0.050287 -614236.000000 0 0 1
21.467679 -14.321312 12.787038 28.800514 -0.588310 1.110754 0.113905 -0.039013 -1269530.000000 0 0 1
20.497279 -15.320612 13.063738 28.731879 -0.641865 1.098786 0.075235 -0.033706 619989.000000 0 0 1
19.168679 -14.606012 13.560638 27.652573 -0.651120 1.058255 0.070158 -0.035314 233949.000000 0 0 1
19.426979 -13.956612 14.825838 28.142495 -0.622978 1.015949 0.074310 -0.041346 96285.500000 0 0 1
18.681679 -12.829312 15.205338 27.291000 -0.601766 0.979840 0.093354 -0.049908 -1123140.000000 0 0 1
17.192379 -12.850312 15.449438 26.446050 -0.641862 0.946918 0.087162 -0.045303 -976561.000000 0 0 1
16.503879 -13.097012 14.190138 25.402161 -0.670809 0.978076 0.091057 -0.057046 2324190.000000 0 0 1
15.036079 -12.925612 14.312838 24.454293 -0.710064 0.945559 0.103167 -0.055192 2377600.000000 0 1 0
14.528379 -11.482412 14.073138 23.258822 -0.668825 0.920947 0.075650 -0.048144 -448056.000000 0 1 0
15.018779 -10.615112 15.039138 23.757526 -0.615268 0.885340 0.060424 -0.034024 95684.500000 0 1 0
14.872979 -9.321412 14.584938 22.821364 -0.559846 0.877480 0.054396 -0.029657 -793250.000000 0 1 0
15.433879 -8.234412 15.563938 23.414661 -0.490109 0.843692 0.061202 -0.024784 -103082.000000 0 1 0
16.816879 -8.095212 15.756938 24.425826 -0.448636 0.869651 0.061685 -0.030500 -289079.000000 0 1 0
17.323079 -9.073712 16.620438 25.664378 -0.482501 0.866356 0.070749 -0.023398 -389143.000000 0 0 1
18.866679 -9.088112 16.683938 26.774973 -0.448902 0.898075 0.088654 -0.022973 89887.400000 0 0 1
19.409079 -7.889212 17.158538 27.080758 -0.386072 0.884591 0.084967 -0.030507 254316.000000 0 0 1
20.703379 -7.591512 16.659938 27.637194 -0.351456 0.923780 0.084888 -0.016429 108762.000000 0 0 1
21.170579 -6.189412 16.878438 27.773799 -0.284432 0.917621 0.073503 -0.007148 -236710.000000 0 0 1
21.441379 -5.875612 18.233038 28.752378 -0.267466 0.883900 0.115989 -0.014631 338653.000000 0 0 1
21.875579 -4.535912 18.454338 28.977199 -0.204453 0.880381 0.136602 -0.017166 -121733.000000 0 0 1
-5.670473 -33.328330 -6.308718 34.390868 1.402270 1.755283 0.036111 -0.019370 -336325.000000 0 0 1
-6.338973 -32.103230 -6.198518 33.304979 1.375848 1.758002 0.032902 -0.020423 -241669.000000 0 0 1
-5.856573 -31.248830 -5.190418 32.213806 1.385528 1.732626 0.049124 -0.026035 -705622.000000 0 0 1
-6.512273 -29.868330 -5.381918 31.040166 1.356123 1.745063 0.055051 -0.025400 -161966.000000 0 0 1
-7.877073 -29.788230 -5.133718 31.236869 1.312278 1.735893 0.053153 -0.023378 -327166.000000 0 0 1
-8.745973 -30.355230 -6.133718 32.180033 1.290273 1.762576 0.049450 -0.026500 -9322.280000 0 0 1
-10.233173 -30.016730 -5.806018 32.240220 1.242237 1.751870 0.091398 -0.020829 964068.000000 0 0 1
-11.179673 -30.430630 -6.812218 33.127250 1.218721 1.777912 0.074857 -0.023457 -52826.500000 0 0 1
-12.495173 -30.176330 -6.400618 33.282250 1.178218 1.764315 0.083500 -0.021141 125868.000000 0 0 1
-13.602073 -30.833630 -7.272218 34.476286 1.155331 1.783327 0.099985 -0.027652 340178.000000 0 0 1
-13.784473 -30.195030 -8.539118 34.273431 1.142538 1.822596 0.122652 -0.038085 98212.300000 0 0 1
-14.856873 -30.806330 -9.243318 35.428740 1.121436 1.834750 0.126510 -0.035777 413857.000000 0 0 1
-15.227273 -30.062630 -10.560418 35.315068 1.101948 1.874477 0.146582 -0.032514 -27004.100000 0 0 1
-15.808473 -28.789030 -10.353518 34.437065 1.068633 1.876171 0.160703 -0.037954 109655.000000 0 0 1
-14.889073 -27.816130 -9.899318 33.066873 1.079334 1.874831 0.141463 -0.036146 -183161.000000 0 0 1
-15.493673 -26.424130 -9.555218 32.087237 1.040477 1.873172 0.142047 -0.022190 -135919.000000 0 0 1
-15.909273 -25.660030 -10.638718 32.011317 1.015799 1.909582 0.147408 -0.027307 76990.700000 0 0 1
-16.041273 -24.349230 -10.197718 30.890143 0.988260 1.907236 0.121634 -0.014683 -306131.000000 0 0 1
-16.668573 -23.310330 -11.185518 30.762455 0.950026 1.942936 0.136187 -0.021365 -167543.000000 0 0 1
-18.000473 -23.717530 -11.396318 31.881254 0.921590 1.936345 0.136716 -0.028213 -675711.000000 0 0 1
-18.670273 -22.848130 -12.239118 31.943891 0.885687 1.963994 0.139650 -0.025818 -168361.000000 0 0 1
-20.105273 -23.397330 -12.504618 33.286973 0.860929 1.955906 0.117673 -0.024017 111771.000000 0 0 1
-20.336373 -24.618030 -13.100118 34.514179 0.880356 1.960114 0.141796 -0.021028 -122136.000000 0 0 1
-20.224473 -25.664530 -12.174918 34.870131 0.903396 1.927461 0.152417 -0.029177 -1038940.000000 0 0 1
-20.305573 -27.130530 -12.779118 36.217231 0.928294 1.931408 0.138884 -0.032896 964416.000000 0 0 1
-19.237773 -27.632730 -13.635618 36.326158 0.962629 1.955588 0.137281 -0.038086 1201130.000000 0 0 1
-17.881273 -27.462130 -13.262218 35.352439 0.993631 1.955347 0.159838 -0.039055 391245.000000 0 0 1
-16.934973 -28.668130 -13.594818 35.964901 1.037225 1.958434 0.143236 -0.043595 231839.000000 0 0 1
-16.825573 -28.834530 -14.990118 36.595542 1.042581 1.992829 0.134763 -0.045469 -49067.600000 0 0 1
-15.951173 -29.897430 -15.298918 37.180010 1.080686 1.994876 0.156004 -0.047078 115655.000000 0 0 1
-16.553073 -31.366530 -15.220618 38.594438 1.085211 1.976182 0.145538 -0.052317 -145830.000000 0 0 1
-17.024373 -31.684530 -13.944818 38.577152 1.077749 1.940650 0.153174 -0.051914 95317.500000 0 0 1
-17.357473 -33.049930 -13.835118 39.811936 1.087201 1.925713 0.121598 -0.045021 -722340.000000 0 0 1
-17.945673 -33.377830 -12.435118 39.884319 1.077482 1.887862 0.140287 -0.042858 947854.000000 0 0 1
-19.339073 -33.127730 -12.151918 40.238233 1.042394 1.877586 0.151541 -0.037005 1083520.000000 0 0 1
-19.851273 -31.812530 -12.137018 39.413416 1.012911 1.883825 0.143488 -0.038070 -386665.000000 0 0 1
-19.277273 -30.807430 -11.132918 38.008590 1.011669 1.868060 0.167629 -0.039775 -348944.000000 0 0 1
-19.437673 -31.128530 -9.764118 37.975604 1.012605 1.830833 0.155695 -0.039892 110024.000000 0 0 1
-18.975973 -30.059930 -8.970018 36.662627 1.007700 1.817969 0.155919 -0.029985 -77313.300000 0 0 1
-19.179073 -30.353830 -7.481118 36.676409 1.007286 1.776214 0.144541 -0.025604 -64325.900000 0 0 1
-18.323273 -31.329930 -6.943018 36.952840 1.041592 1.759808 0.159229 -0.026804 -57652.300000 0 0 1
-18.492273 -31.495130 -5.545618 36.941322 1.039881 1.721486 0.128879 -0.029046 -564513.000000 0 0 1
-17.472273 -32.485230 -5.014418 37.225192 1.077327 1.705912 0.132510 -0.026661 616164.000000 0 0 1
-16.118773 -32.073830 -4.788318 36.214271 1.105109 1.703407 0.130128 -0.023414 766710.000000 0 0 1
-15.994073 -31.434130 -3.537818 35.446172 1.100124 1.670771 0.107515 -0.027205 -886056.000000 0 0 1
-14.627473 -30.832130 -3.279118 34.283171 1.127819 1.666591 0.108312 -0.027749 -492869.000000 0 0 1
-13.558773 -31.719030 -3.067118 34.631552 1.166840 1.659477 0.071363 -0.024367 -160624.000000 0 0 1
-12.437473 -31.025530 -2.529618 33.521236 1.189533 1.646331 0.072478 -0.015894 600841.000000 0 0 1
-11.158873 -31.899130 -2.444318 33.882881 1.234284 1.642999 0.071958 -0.024131 -333151.000000 0 0 1
-11.325873 -32.889330 -1.451018 34.815067 1.239152 1.612486 0.075741 -0.027119 300130.000000 0 0 1
-10.201673 -33.768730 -1.235718 35.297709 1.277410 1.605812 0.088096 -0.036845 209343.000000 0 0 1
-8.996073 -33.110930 -0.569018 34.315985 1.305505 1.587379 0.107297 -0.044781 -909157.000000 0 0 1
-9.187273 -32.723030 0.773582 33.997075 1.297084 1.548040 0.120159 -0.041493 374885.000000 0 0 1
-8.022273 -32.306930 1.533082 33.323339 1.327405 1.524774 0.132864 -0.044098 1121660.000000 0 0 1
-7.117973 -33.418230 2.171482 34.236808 1.360936 1.507328 0.134514 -0.050540 -26.916700 0 0 1
-7.727373 33.855188 3.134182 34.867021 -1.346393 1.480785 0.153232 -0.053667 -114567.000000 0 0 1
-6.842273 32.890388 3.698682 33.797553 -1.365689 1.461140 0.124368 -0.048564 146524.000000 0 0 1
-5.982973 33.428688 4.861682 34.306109 -1.393694 1.428603 0.122991 -0.045882 -320764.000000 0 0 1
-4.962873 -33.871430 4.400682 34.514778 1.425311 1.442947 0.122832 -0.045413 -854256.000000 0 0 1
-4.104773 -33.520530 5.449182 34.207729 1.448947 1.410818 0.091027 -0.040183 364781.000000 0 0 1
-2.950873 -32.531630 5.102482 33.061306 1.480336 1.415843 0.108562 -0.038991 345411.000000 0 0 1
-3.399873 -31.219830 4.736782 31.759629 1.462323 1.421093 0.102278 -0.036155 65772.100000 0 0 1
-3.928573 -31.134630 3.429682 31.568364 1.445279 1.461938 0.103257 -0.047213 24949.600000 0 0 1
-3.892173 -29.679230 2.842182 30.067985 1.440399 1.476130 0.095150 -0.041228 330491.000000 0 0 1
-2.624973 -29.409830 2.243182 29.611830 1.481777 1.494971 0.078687 -0.031843 233976.000000 0 0 1
-2.416973 -28.105830 1.721982 28.262071 1.485012 1.509829 0.072641 -0.025813 -259698.000000 0 0 1
-2.586773 -26.873630 2.634082 27.126035 1.474835 1.473538 0.079477 -0.029724 -316645.000000 0 0 1
-2.639273 -25.662430 1.965282 25.872542 1.468311 1.494763 0.082988 -0.027488 -173872.000000 0 0 1
-2.658273 -24.431630 2.725482 24.726488 1.462418 1.460347 0.062370 -0.021008 -520581.000000 0 1 0
-3.911473 -24.035230 3.505982 24.602517 1.409471 1.427805 0.060868 -0.024587 -396333.000000 0 1 0
-3.987173 -24.950030 4.569882 25.676553 1.412330 1.391864 0.069803 -0.023381 23602.900000 0 0 1
-5.085073 -24.658630 5.408982 25.751953 1.367428 1.359179 0.063101 -0.016851 -152689.000000 0 0 1
-5.601773 -25.713430 6.400582 27.083719 1.356294 1.332214 0.079946 -0.021891 -102657.000000 0 0 1
-4.836773 -25.826330 7.592982 27.350449 1.385660 1.289482 0.067839 -0.023247 -95186.500000 0 0 1
-5.438673 -26.635130 8.568182 28.503036 1.369374 1.265468 0.075057 -0.018116 514323.000000 0 0 1
-4.503373 -26.802230 9.837682 28.903631 1.404329 1.223495 0.064174 -0.006180 455487.000000 0 0 1
-4.208373 -25.638130 10.640582 28.075721 1.408102 1.182085 0.065580 -0.014431 932071.000000 0 0 1
-5.362573 -24.980830 11.258782 27.920588 1.359338 1.155738 0.066397 -0.014825 1134460.000000 0 0 1
-4.897873 -24.015430 12.354582 27.447509 1.369609 1.103900 0.045555 -0.022494 172704.000000 0 0 1
-4.311373 -24.651930 13.437182 28.405342 1.397658 1.078046 0.055393 -0.017884 -30824.000000 0 0 1
-3.292873 -23.843530 14.047682 27.869236 1.433561 1.042507 0.049882 -0.026769 71089.000000 0 0 1
-2.467173 -24.649930 15.069282 28.996366 1.471040 1.024302 0.067814 -0.023424 -247341.000000 0 0 1
-3.091773 -25.140930 16.210282 30.073222 1.448433 1.001515 0.062076 -0.025397 49622.800000 0 0 1
-2.145873 -25.913630 16.953482 31.040966 1.488176 0.993017 0.065616 -0.018941 757379.000000 0 0 1
-2.754673 -26.281130 18.349682 32.171367 1.466362 0.963836 0.078085 -0.026613 298131.000000 0 0 1
-2.848373 -25.203130 19.236082 31.832968 1.458257 0.921932 0.085367 -0.020946 326820.000000 0 0 1
-3.580973 -25.557630 20.450382 32.927708 1.431589 0.900690 0.130881 -0.030122 237274.000000 0 0 1
-3.463973 -24.497630 21.614182 32.852791 1.430327 0.852756 0.110377 -0.026795 -109979.000000 0 0 1
-2.214073 -24.707930 22.243182 33.318810 1.481425 0.839834 0.068517 -0.033395 -31337.500000 0 0 1
-1.836573 -23.736430 23.203982 33.244788 1.493577 0.798233 0.052306 -0.026277 53697.000000 0 0 1
-1.305873 -22.373530 22.660882 31.871551 1.512496 0.779868 0.064196 -0.035865 -524542.000000 0 0 1
-2.205373 -21.464830 22.111982 30.895669 1.468412 0.773173 0.089420 -0.029514 -921578.000000 0 0 1
-1.563973 -20.382130 21.563882 29.713267 1.494214 0.758698 0.079492 -0.027560 -290254.000000 0 0 1
-2.558473 -19.341630 20.959582 28.634743 1.439282 0.749597 0.064189 -0.012896 -508979.000000 0 0 1
-3.342273 -18.646830 21.955982 28.998969 1.393439 0.711888 0.093482 -0.032400 37309.300000 0 0 1
-4.648673 -19.108430 22.175182 29.639179 1.332154 0.725495 0.090149 -0.034559 -940918.000000 0 0 1
-5.631573 -18.923930 21.027582 28.844219 1.281552 0.753929 0.072173 -0.036392 -1647850.000000 0 0 1
-5.589973 -19.727530 19.884882 28.562769 1.294676 0.800731 0.098905 -0.042336 -558681.000000 0 0 1
-6.096573 -20.996630 20.032782 29.653651 1.288207 0.829074 0.087815 -0.033104 -258760.000000 0 0 1
-6.093073 -21.839930 18.771782 29.436166 1.298727 0.879273 0.058086 -0.036269 -69070.500000 0 0 1
-6.340473 -23.222330 18.918382 30.616718 1.304259 0.904714 0.061176 -0.033534 -413220.000000 0 0 1
-6.165173 -23.900930 17.721082 30.385861 1.318352 0.948132 0.069999 -0.034424 61232.100000 0 0 1
-6.793873 -25.308630 17.660582 31.600311 1.308538 0.977769 0.074097 -0.033160 1336030.000000 0 0 1
-8.235173 -25.281230 17.619382 31.896729 1.255893 0.985570 0.078375 -0.032748 550742.000000 0 0 1
-8.857873 -26.538530 17.547482 33.025288 1.248649 1.010621 0.085279 -0.033652 805179.000000 0 0 1
-10.405373 -26.562230 17.726282 33.586380 1.197435 1.014809 0.088487 -0.030377 166714.000000 0 0 1
-11.100573 -25.871630 16.718382 32.742454 1.165489 1.034911 0.104207 -0.034030 656765.000000 0 0 1
-12.531673 -25.851830 16.847282 33.304517 1.119423 1.040423 0.085605 -0.033998 1125540.000000 0 0 1
-13.116573 -24.896030 17.921282 33.362092 1.085897 1.003712 0.070656 -0.033866 -712817.000000 0 0 1
-12.798373 -23.530330 17.780582 32.150022 1.072641 0.984775 0.062479 -0.033136 -44722.500000 0 0 1
-13.230373 -22.778430 18.885782 32.412535 1.044592 0.948787 0.050344 -0.030837 -161289.000000 0 0 1
-12.045773 -22.087430 19.606682 31.896351 1.071516 0.908791 0.040949 -0.036378 254677.000000 0 0 1
-11.227373 -22.968930 20.333282 32.666007 1.116143 0.898914 0.056778 -0.032616 206197.000000 0 0 1
-9.946273 -23.152530 19.736482 32.007760 1.165038 0.906360 0.071058 -0.037580 376207.000000 0 0 1
-8.981073 -24.036030 20.570382 32.886639 1.213209 0.895032 0.076285 -0.035002 42179.700000 0 0 1
-8.614373 -23.374030 21.785782 33.093398 1.217697 0.852222 0.076948 -0.038109 -438160.000000 0 0 1
-7.787273 -24.198730 22.529982 33.967930 1.259457 0.845614 0.067389 -0.029694 -290817.000000 0 0 1
-7.249973 -23.494330 23.784682 34.209016 1.271483 0.801994 0.071715 -0.025120 -34455.800000 0 0 1
-6.679673 -24.441030 24.655082 35.353289 1.304014 0.799045 0.088631 -0.026001 -267461.000000 0 0 1
-6.535973 -23.820830 25.929982 35.812217 1.303006 0.761134 0.084337 -0.021430 559332.000000 0 0 1
-5.368473 -24.390730 26.822182 36.649116 1.354148 0.749742 0.099628 -0.015933 1909980.000000 0 0 1
-4.036673 -24.099030 26.313382 35.908941 1.404834 0.748397 0.093999 -0.013596 1394160.000000 0 0 1
-3.000273 -24.368130 27.275982 36.698591 1.448290 0.732891 0.081930 -0.013233 816908.000000 0 0 1
-1.685573 -23.583530 27.052282 35.928401 1.499445 0.718263 0.078748 -0.019821 -173265.000000 0 0 1
-1.764173 -22.151230 27.047582 35.005157 1.491322 0.687753 0.078009 -0.017239 -113054.000000 0 0 1
-0.510973 -21.587430 26.686082 34.328198 1.547131 0.680305 0.077293 -0.024337 392000.000000 0 0 1
0.439327 -21.320930 27.890582 35.109253 -1.550194 0.652787 0.060351 -0.019190 75451.300000 0 0 1
1.173027 -22.531030 28.196382 36.111761 -1.518781 0.674837 0.064832 -0.020634 413728.000000 0 0 1
1.816927 -22.399230 29.483182 37.071347 -1.489858 0.651279 0.057090 -0.026026 106342.000000 0 0 1
2.383127 -23.738830 30.039182 38.360967 -1.470742 0.671215 0.068782 -0.030840 258509.000000 0 0 1
3.468627 -24.222530 29.252482 38.137515 -1.428565 0.696603 0.063304 -0.029403 546045.000000 0 0 1
4.164727 -25.362330 29.759482 39.321998 -1.408040 0.712370 0.059924 -0.026640 -1205.520000 0 0 1
5.501627 -25.116230 30.518582 39.905849 -1.355155 0.700120 0.060045 -0.026022 614939.000000 0 0 1
6.575327 -24.554230 29.767282 39.143789 -1.309147 0.706775 0.070580 -0.032684 488667.000000 0 0 1
7.240027 -25.488030 28.901782 39.209319 -1.294030 0.742005 0.066458 -0.026698 -352510.000000 0 0 1
8.437227 -24.817530 28.170382 38.479436 -1.243084 0.749412 0.065019 -0.027928 82168.500000 0 0 1
8.160327 -23.909430 27.113682 37.059460 -1.241892 0.750092 0.075808 -0.029484 397171.000000 0 0 1
9.367127 -23.316930 26.617182 36.604599 -1.188799 0.756629 0.056872 -0.024091 574181.000000 0 0 1
9.050927 -22.088530 25.692182 35.070082 -1.181907 0.748669 0.063059 -0.028286 -211606.000000 0 0 1
8.600627 -22.451130 24.460782 34.298016 -1.204959 0.776767 0.069746 -0.022214 -88145.400000 0 0 1
8.021827 -21.395930 23.707082 32.926604 -1.212093 0.766997 0.060387 -0.014123 67417.400000 0 0 1
7.248727 -21.923930 22.508882 32.246745 -1.251480 0.798167 0.072253 -0.018688 110088.000000 0 0 1
8.143527 -22.408830 21.507482 32.109882 -1.222228 0.836845 0.061291 -0.009922 513478.000000 0 0 1
7.451627 -22.556730 20.273482 31.230544 -1.251733 0.864323 0.065778 -0.010078 644285.000000 0 0 1
8.282027 -23.330430 19.152682 31.300578 -1.229685 0.912341 0.086555 -0.020662 816659.000000 0 0 1
9.569727 -22.835630 18.822882 31.102196 -1.173959 0.920786 0.090388 -0.024980 -102257.000000 0 0 1
10.149927 -23.748530 17.939682 31.445920 -1.166902 0.963690 0.093850 -0.023886 -90105.500000 0 0 1
11.493727 -23.272730 17.367782 31.230844 -1.112064 0.981098 0.094699 -0.027888 234480.000000 0 0 1
11.238527 -22.258730 16.432082 29.862500 -1.103233 0.988123 0.114825 -0.028330 143975.000000 0 0 1
12.498427 -21.929830 15.892882 29.828038 -1.052782 1.008871 0.110272 -0.034228 236001.000000 0 0 1
-12.365473 22.358188 11.520082 28.026876 -1.065605 1.147205 0.011354 -0.005515 -317038.000000 0 0 1
-13.354373 21.578888 10.883282 27.612198 -1.016622 1.165656 0.010900 -0.010480 -25571.400000 0 0 1
-12.901373 20.421188 10.264182 26.245452 -1.007348 1.168987 0.037478 -0.017449 71177.700000 0 0 1
-14.085473 19.737788 9.518282 26.049539 -0.950981 1.196743 0.057126 -0.024463 -343513.000000 0 0 1
-14.371673 20.530588 8.372782 26.422594 -0.960062 1.248359 0.057376 -0.025004 -8480.030000 0 0 1
-15.117273 19.804988 7.384182 25.986451 -0.918833 1.282671 0.071749 -0.026777 276660.000000 0 0 1
-16.637773 19.667288 7.653382 26.873629 -0.868651 1.282007 0.053838 -0.024471 -504417.000000 0 0 1
-16.923073 18.657288 8.559282 26.603498 -0.834100 1.243235 0.050290 -0.027868 -60211.400000 0 0 1
-18.309073 18.786388 8.814382 27.673884 -0.798265 1.246640 0.050516 -0.018683 -123256.000000 0 0 1
-18.855773 17.712088 9.731582 27.639861 -0.754133 1.210998 0.050016 -0.021433 -242641.000000 0 0 1
-19.114773 16.421388 9.208582 26.829732 -0.709750 1.220450 0.058695 -0.021213 342575.000000 0 0 1
-19.689273 15.554188 10.203282 27.087030 -0.668603 1.184581 0.062771 -0.027615 125406.000000 0 0 1
-18.623873 14.842388 11.119682 26.282931 -0.672881 1.133959 0.063918 -0.022982 245036.000000 0 0 1
-17.760673 13.997488 10.402482 24.891420 -0.667453 1.139648 0.057629 -0.013537 230013.000000 0 1 0
-16.839073 13.253888 11.202782 24.181031 -0.666820 1.089094 0.040523 -0.015323 170926.000000 0 1 0
-17.491273 12.190888 12.066082 24.498014 -0.608689 1.055798 0.035486 -0.015943 -576167.000000 0 1 0
-18.167673 11.265788 11.268182 24.165145 -0.555069 1.085694 0.016080 -0.012030 -165740.000000 0 1 0
-19.031873 10.474888 12.038182 24.836531 -0.503140 1.064780 0.027801 -0.009842 576732.000000 0 1 0
-20.089273 9.562288 11.273482 24.942085 -0.444256 1.101805 0.045108 -0.016073 467131.000000 0 1 0
-19.519373 8.543488 10.460382 23.736400 -0.412572 1.114430 0.033466 -0.014428 178738.000000 0 1 0
-19.042773 8.982288 9.204082 22.978769 -0.440744 1.158682 0.049061 -0.014530 -403723.000000 0 1 0
-20.076773 9.531988 8.172282 23.679565 -0.443266 1.218430 0.061447 -0.015152 70225.300000 0 1 0
-20.780973 8.480188 7.554482 23.681905 -0.387448 1.246124 0.063102 -0.024185 119914.000000 0 1 0
-21.522273 8.928388 6.458882 24.179361 -0.393237 1.300389 0.073626 -0.020901 -102521.000000 0 1 0
-21.696373 7.763388 5.417182 23.671684 -0.343624 1.339904 0.083387 -0.022433 -436948.000000 0 1 0
-22.437373 6.712088 5.924082 24.157454 -0.290675 1.323042 0.094719 -0.023763 -5010.840000 0 1 0
-22.209673 5.554188 5.249182 23.487709 -0.245054 1.345407 0.100401 -0.012744 -160717.000000 0 1 0
-23.028273 4.301288 5.714282 24.113387 -0.184655 1.331545 0.094697 -0.021767 388171.000000 0 1 0
-24.354073 4.365088 5.205982 25.283930 -0.177351 1.363412 0.140540 -0.020788 442445.000000 0 0 1
-25.100433 3.205588 5.523682 25.900166 -0.127023 1.355877 0.162218 -0.034494 -17077.400000 0 0 1
-26.277333 3.045188 4.523682 26.837196 -0.115372 1.401428 0.168488 -0.034288 -182944.000000 0 0 1
-25.922513 2.815488 3.149182 26.264443 -0.108188 1.450604 0.172426 -0.026010 658435.000000 0 0 1
-27.059163 2.819388 2.285582 27.301486 -0.103819 1.486982 0.166739 -0.023000 234263.000000 0 0 1
-26.677413 2.714588 0.784582 26.826645 -0.101407 1.541546 0.179608 -0.027125 -142174.000000 0 0 1
-26.051393 3.900788 0.326582 26.343839 -0.148630 1.558399 0.174817 -0.032074 375353.000000 0 0 1
-25.847673 3.963588 -1.055818 26.171109 -0.152159 1.611150 0.176704 -0.024888 -117899.000000 0 0 1
-27.041183 4.538588 -1.878018 27.483655 -0.166290 1.639182 0.182033 -0.021471 -194445.000000 0 0 1
-28.065723 3.589488 -2.012018 28.365779 -0.127205 1.641787 0.170602 -0.021668 279361.000000 0 0 1
-29.306743 4.304188 -2.118418 29.696783 -0.145824 1.642192 0.151034 -0.008961 621637.000000 0 0 1
-30.537733 3.350488 -2.193518 30.799195 -0.109279 1.642077 0.126941 -0.010216 24067.100000 0 0 1
-30.613473 2.693588 -3.422018 30.921681 -0.087761 1.681691 0.130797 -0.017126 639867.000000 0 0 1
-31.681763 1.748288 -3.451218 31.917104 -0.055127 1.679139 0.133773 -0.025827 34872.700000 0 0 1
-31.869933 1.200388 -4.888518 32.265014 -0.037647 1.722893 0.136370 -0.030198 -739700.000000 0 0 1
-30.731543 0.676188 -5.499418 31.227048 -0.022000 1.747830 0.151156 -0.036834 -200474.000000 0 0 1
-30.999203 -0.031712 -6.697918 31.714566 0.001023 1.783592 0.152668 -0.036810 -184695.000000 0 0 1
-31.652043 0.615188 -7.945218 32.639803 -0.019434 1.816688 0.145516 -0.032571 517776.000000 0 0 1
-33.061623 0.838588 -7.834918 33.987646 -0.025359 1.803411 0.167392 -0.032471 839307.000000 0 0 1
-33.423713 1.700288 -8.913718 34.633653 -0.050827 1.831097 0.169626 -0.037611 359279.000000 0 0 1
-34.929239 2.125988 -8.863518 36.098940 -0.060791 1.818867 0.189969 -0.037459 545673.000000 0 0 1
-35.193927 2.855388 -7.684118 36.136012 -0.080956 1.785077 0.162342 -0.029524 902583.000000 0 0 1
-36.613483 2.865688 -7.490618 37.481577 -0.078109 1.771999 0.173395 -0.025453 634961.000000 0 0 1
36.877799 3.760088 -6.285818 37.598163 0.101610 1.738769 0.161369 -0.028361 -503768.000000 0 0 1
35.479789 3.840888 -6.304618 36.239703 0.107836 1.745656 0.161196 -0.041230 -210388.000000 0 0 1
35.045269 4.413888 -5.088518 35.686781 0.125288 1.713872 0.160634 -0.032419 1265210.000000 0 0 1
33.505839 4.107788 -4.833118 34.100942 0.121990 1.713005 0.144273 -0.037806 1318600.000000 0 0 1
33.530359 2.826388 -4.252118 33.916869 0.084095 1.696496 0.158957 -0.039991 202675.000000 0 0 1
32.287269 2.151088 -4.405818 32.657406 0.066525 1.706119 0.160030 -0.039451 234612.000000 0 0 1
32.213129 0.756688 -3.782118 32.443223 0.023486 1.687639 0.196225 -0.028846 463740.000000 0 0 1
33.249679 -0.137212 -4.267618 33.522717 -0.004127 1.698448 0.170135 -0.034743 808523.000000 0 0 1
33.205329 -1.319112 -3.536418 33.419159 -0.039705 1.676815 0.178223 -0.032339 407736.000000 0 0 1
34.400419 -2.284312 -3.835018 34.688821 -0.066306 1.681578 0.159886 -0.039035 94613.700000 0 0 1
34.302589 -3.529212 -3.184518 34.630393 -0.102524 1.662884 0.148842 -0.040341 529302.000000 0 0 1
35.458699 -4.381212 -3.317218 35.882005 -0.122935 1.663376 0.169097 -0.039015 686708.000000 0 0 1
35.183469 -5.870012 -2.951718 35.791706 -0.165317 1.653359 0.161346 -0.030096 -108881.000000 0 0 1
34.884249 -5.976512 -1.620618 35.429591 -0.169677 1.616554 0.168369 -0.018999 -33970.000000 0 0 1
34.923709 -7.302812 -1.178218 35.698526 -0.206137 1.603807 0.168548 -0.031492 -12272.600000 0 0 1
34.447269 -7.541312 0.267582 35.264109 -0.215523 1.563208 0.145425 -0.022003 -710213.000000 0 0 1
33.076129 -7.391712 0.458582 33.895103 -0.219863 1.557266 0.127593 -0.029785 -489722.000000 0 0 1
32.606559 -7.632712 1.777382 33.535132 -0.229945 1.517771 0.125615 -0.033863 -640380.000000 0 0 1
32.375259 -9.133812 2.076682 33.703064 -0.274976 1.509140 0.136710 -0.035713 -259753.000000 0 0 1
31.220959 -9.744412 1.515882 32.741408 -0.302531 1.524481 0.124788 -0.042635 780933.000000 0 0 1
29.982459 -9.341212 2.106982 31.474521 -0.302025 1.503804 0.111620 -0.050765 -739395.000000 0 0 1
28.915349 -10.507112 1.975882 30.828573 -0.348540 1.506660 0.124476 -0.048079 -260266.000000 0 0 1
27.700379 -10.185812 2.616882 29.629544 -0.352368 1.482361 0.164008 -0.049887 632396.000000 0 0 1
26.864179 -9.112112 2.177482 28.450943 -0.327014 1.494187 0.160906 -0.048766 -843276.000000 0 0 1
26.073779 -9.482912 0.928482 27.760217 -0.348823 1.537344 0.141099 -0.040131 -852064.000000 0 0 1
26.861279 -9.591712 -0.279118 28.523800 -0.342971 1.580582 0.124460 -0.042323 597665.000000 0 0 1
26.106979 -9.835312 -1.437318 27.935168 -0.360288 1.622271 0.103463 -0.030897 -223977.000000 0 0 1
25.448979 -11.253612 -1.640018 27.874433 -0.416351 1.629666 0.092662 -0.019546 -727940.000000 0 0 1
24.180479 -11.318412 -1.105318 26.721223 -0.437788 1.612173 0.098947 -0.012803 -925410.000000 0 0 1
23.647079 -12.606912 -1.285118 26.828532 -0.489797 1.618716 0.083647 -0.007411 644255.000000 0 0 1
22.087679 -12.684712 -1.267718 25.502443 -0.521300 1.620526 0.101644 -0.014228 589288.000000 0 0 1
21.261479 -12.155012 -2.288818 24.597429 -0.519344 1.663982 0.096328 -0.007950 1131670.000000 0 1 0
19.886179 -12.332712 -1.884718 23.475691 -0.555115 1.651167 0.112072 -0.012973 1127260.000000 0 1 0
18.859479 -11.861612 -2.962118 22.475586 -0.561433 1.702974 0.105074 -0.010482 209505.000000 0 1 0
18.699679 -12.717312 -4.097718 22.982587 -0.597233 1.750051 0.092668 -0.016401 289198.000000 0 1 0
17.897979 -12.113412 -5.099218 22.205280 -0.594987 1.802504 0.094568 -0.012699 -51399.900000 0 1 0
17.957079 -12.752112 -6.523618 22.970212 -0.617502 1.858763 0.092626 -0.015606 -87888.200000 0 1 0
17.114779 -13.874412 -6.726118 23.035964 -0.681212 1.867096 0.089873 -0.022360 176081.000000 0 1 0
17.320479 -14.378812 -7.991618 23.887553 -0.692864 1.911926 0.099474 -0.026098 -899063.000000 0 1 0
16.343579 -15.404512 -8.535218 24.026267 -0.755828 1.933973 0.091428 -0.029911 -1508930.000000 0 1 0
15.071079 -14.861612 -8.556918 22.830370 -0.778400 1.954982 0.100560 -0.030224 -556477.000000 0 1 0
14.047379 -15.687012 -9.081018 22.931989 -0.840485 1.977951 0.091964 -0.038210 20474.700000 0 1 0
13.936979 -15.724212 -10.625218 23.545392 -0.845580 2.038979 0.097173 -0.044985 -83803.600000 0 1 0
13.040379 -14.757912 -11.294218 22.702573 -0.847105 2.091495 0.072822 -0.038579 1091200.000000 0 1 0
13.458279 -13.374912 -11.210318 22.038257 -0.782291 2.104442 0.077205 -0.021705 -77933.700000 0 1 0
13.546479 -12.604712 -12.574718 22.372068 -0.749401 2.167685 0.086501 -0.021309 -268030.000000 0 1 0
14.537479 -13.138612 -13.418418 23.749008 -0.734897 2.171241 0.097832 -0.018310 -3279.840000 0 1 0
14.533279 -12.530612 -14.693318 24.168700 -0.711535 2.224270 0.118007 -0.009517 -327791.000000 0 1 0
15.911579 -12.097312 -15.210218 25.117206 -0.650050 2.221278 0.123901 -0.026976 144080.000000 0 0 1
16.853079 -13.182612 -15.249018 26.274324 -0.663798 2.189988 0.126280 -0.030305 382229.000000 0 0 1
17.921279 -12.894212 -16.142918 27.350078 -0.623688 2.202144 0.127832 -0.022947 457147.000000 0 0 1
18.926279 -14.121312 -16.202018 28.637753 -0.641015 2.172148 0.134934 -0.024379 339559.000000 0 0 1
19.689479 -14.106012 -15.001318 28.490257 -0.621664 2.125324 0.110207 -0.024178 150996.000000 0 0 1
20.858579 -14.894112 -15.120018 29.757854 -0.620095 2.103776 0.089541 -0.011173 535949.000000 0 0 1
21.842879 -14.729612 -13.888018 29.781704 -0.593299 2.055931 0.067274 -0.009634 616558.000000 0 0 1
22.502679 -13.457512 -13.970018 29.709201 -0.538977 2.060342 0.065602 -0.001035 228539.000000 0 0 1
23.511479 -13.311312 -12.979818 29.974262 -0.515167 2.018650 0.057327 0.004910 452039.000000 0 0 1
24.217179 -11.940212 -12.902818 29.925293 -0.458070 2.016583 0.063204 -0.000739 -231006.000000 0 0 1
23.316979 -10.903512 -12.599418 28.658567 -0.437411 2.025993 0.057061 0.008269 147340.000000 0 0 1
23.879779 -9.599712 -12.728218 28.712469 -0.382231 2.030072 0.068063 -0.001108 616283.000000 0 0 1
25.002779 -9.188912 -11.689318 29.089779 -0.352193 1.984317 0.077956 -0.007182 1083180.000000 0 0 1
26.254079 -9.845112 -11.915618 30.466127 -0.358765 1.972634 0.073803 -0.006068 798324.000000 0 0 1
27.170679 -9.590812 -10.838718 30.784855 -0.339331 1.930588 0.072862 -0.008871 757431.000000 0 0 1
28.556579 -10.300712 -11.015718 32.294410 -0.346186 1.918886 0.090884 -0.017050 548858.000000 0 0 1
29.226669 -9.861912 -12.158318 33.155395 -0.325432 1.946263 0.081355 -0.017124 1523380.000000 0 0 1
30.567819 -10.409112 -12.397218 34.589481 -0.328209 1.937361 0.076014 -0.018788 1618310.000000 0 0 1
31.150289 -9.875712 -13.711418 35.438301 -0.307010 1.968074 0.059621 -0.017852 -246827.000000 0 0 1
30.650879 -10.468912 -14.883718 35.645471 -0.329130 2.001542 0.059941 -0.015920 430907.000000 0 0 1
31.403899 -10.003212 -15.999918 36.636956 -0.308373 2.022740 0.061301 -0.019490 166571.000000 0 0 1
30.935989 -10.723212 -17.311918 37.036809 -0.333666 2.057172 0.041586 -0.013162 47011.400000 0 0 1
29.741659 -10.352712 -17.965918 36.256298 -0.334970 2.089236 0.036340 -0.009139 31698.500000 0 0 1
29.760179 -9.110112 -18.615418 36.265634 -0.297060 2.109831 0.033305 -0.009445 -152124.000000 0 0 1
28.385279 -8.715512 -19.209018 35.364822 -0.297906 2.145001 0.008540 -0.010937 160132.000000 0 0 1
27.958979 -9.395012 -20.375318 35.848631 -0.324174 2.175321 0.005843 -0.004793 481741.000000 0 0 1
26.542779 -9.420312 -20.462218 34.813270 -0.341043 2.199097 0.042408 0.003125 284378.000000 0 0 1
26.024279 -9.862812 -21.863618 35.391468 -0.362260 2.236694 0.068323 -0.011219 -128902.000000 0 0 1
25.902979 -11.236212 -21.999818 35.793977 -0.409284 2.232705 0.077405 -0.008253 372802.000000 0 0 1
25.387379 -11.539612 -23.320618 36.352894 -0.426624 2.267257 0.091757 -0.010547 -668096.000000 0 0 1
25.617679 -13.019312 -23.853218 37.346272 -0.470199 2.263609 0.087439 0.002844 1731050.000000 0 0 1
26.948879 -13.378812 -24.319618 38.686930 -0.460805 2.250582 0.083671 0.005028 1742850.000000 0 0 1
28.101679 -13.107412 -23.530418 38.925431 -0.436431 2.219934 0.055608 0.003217 -25905.800000 0 0 1
29.409259 -13.707512 -24.087718 40.410625 -0.436158 2.209399 0.050268 0.010860 245650.000000 0 0 1
29.978829 -12.959112 -25.188458 41.244724 -0.408017 2.227750 0.050269 -0.003431 977852.000000 0 0 1
31.311969 -13.367112 -25.510838 42.543178 -0.403480 2.213855 0.020593 -0.001932 670632.000000 0 0 1
32.019969 -12.925212 -26.788918 43.703383 -0.383658 2.230612 0.038828 -0.013642 62916.100000 0 0 1
31.616359 -13.656812 -27.929168 44.341190 -0.407746 2.252182 0.030670 -0.018284 487096.000000 0 0 1
32.423649 -13.257512 -29.040828 45.501916 -0.388141 2.262997 0.027023 -0.021930 192826.000000 0 0 1
32.194969 -14.258412 -30.189288 46.381154 -0.416915 2.279560 0.030755 -0.030179 -81498.400000 0 0 1
32.766699 -15.509412 -29.985038 47.045733 -0.442084 2.261863 0.038745 -0.026982 -300923.000000 0 0 1
32.980499 -16.237012 -31.194228 48.212382 -0.457486 2.274462 0.025027 -0.026966 305055.000000 0 0 1
31.777329 -16.792412 -32.060638 48.162935 -0.486140 2.299188 0.013053 -0.022786 372903.000000 0 0 1
31.108629 -15.768012 -32.802388 47.878739 -0.469128 2.325556 0.008147 -0.022032 -464457.000000 0 0 1
29.954729 -16.427812 -33.228498 47.658073 -0.501630 2.342318 0.024999 -0.023007 -240493.000000 0 0 1
29.080879 -15.577712 33.793518 47.226735 -0.491774 0.773372 0.061489 -0.023723 213702.000000 0 0 1
28.294279 -14.494512 -33.737778 46.356173 -0.473421 2.385897 0.072466 -0.032822 25461.700000 0 0 1
29.014439 -13.362512 -33.335068 46.169483 -0.431590 2.377507 0.059802 -0.029967 -609772.000000 0 0 1
28.128679 -12.170912 -32.974228 45.018368 -0.408363 2.392727 0.072246 -0.025512 5992.040000 0 0 1
27.455579 -11.547612 33.997720 45.199570 -0.398132 0.719449 0.089064 -0.027534 197761.000000 0 0 1
26.807779 -10.292012 -33.742418 44.307260 -0.366567 2.436505 0.079706 -0.029880 291645.000000 0 0 1
21.537927 -29.467130 8.908182 37.570597 -0.939623 1.331411 0.043318 -0.017082 374544.000000 0 0 1
22.078427 -29.157830 7.579882 37.350912 -0.922701 1.366440 0.053377 -0.022976 559893.000000 0 0 1
23.282127 -29.871430 7.326182 38.575027 -0.908736 1.379715 0.046480 -0.023938 460791.000000 0 0 1
23.966027 -29.542630 5.951382 38.503979 -0.889242 1.415609 0.037050 -0.023896 142902.000000 0 0 1
24.424627 -28.219930 5.805882 37.770824 -0.857367 1.416471 0.044988 -0.011690 -209007.000000 0 0 1
25.239227 -28.121730 4.688482 38.076662 -0.839365 1.447350 0.020005 -0.009293 -162816.000000 0 0 1
25.349427 -26.610930 4.289482 37.001821 -0.809672 1.454609 0.016634 -0.007863 66409.600000 0 0 1
25.996827 -25.849230 5.282082 37.039413 -0.782551 1.427701 0.008944 -0.005862 21427.900000 0 0 1
25.703527 -24.484130 5.126782 35.866807 -0.761106 1.427366 0.014750 0.000805 -4171.160000 0 0 1
26.401327 -23.589830 6.173182 35.939092 -0.729217 1.398172 0.020874 -0.000067 -383552.000000 0 0 1
27.754127 -23.344030 5.938482 36.749162 -0.699305 1.408490 0.011605 0.008512 -443734.000000 0 0 1
28.494627 -22.527830 6.823582 36.959548 -0.668982 1.385108 0.026328 -0.001813 287123.000000 0 0 1
28.090227 -20.990430 6.960782 35.750686 -0.641739 1.374841 0.036893 -0.000373 -72062.300000 0 0 1
28.346027 -20.231530 5.762582 35.299000 -0.619884 1.406812 0.039874 0.008685 55290.400000 0 0 1
27.788127 -18.950830 5.822682 34.135284 -0.598526 1.399381 0.060113 -0.002678 -133890.000000 0 0 1
27.818227 -18.222330 4.535982 33.563108 -0.579917 1.435234 0.066704 0.000005 1120570.000000 0 0 1
29.125327 -17.810930 4.065982 34.380898 -0.548852 1.452256 0.079802 0.003580 1151940.000000 0 0 1
28.872427 -17.173030 2.824482 33.712130 -0.536580 1.486916 0.073193 0.006631 48706.900000 0 0 1
29.985427 -16.215630 2.395082 34.173220 -0.495740 1.500652 0.085716 -0.017229 -89074.800000 0 0 1
29.919427 -15.100630 3.290582 33.675348 -0.467408 1.472925 0.100648 -0.026604 -620198.000000 0 0 1
31.091727 -14.413130 3.493182 34.447586 -0.434080 1.469216 0.099658 -0.028281 -732570.000000 0 0 1
30.785027 -13.168230 4.350282 33.764555 -0.404196 1.441595 0.125540 -0.037797 286279.000000 0 0 1
30.263327 -13.553130 5.614082 33.631447 -0.421056 1.403082 0.112150 -0.027912 192452.000000 0 0 1
30.064827 -12.373630 6.363182 33.128396 -0.390436 1.377519 0.116291 -0.033896 -77787.000000 0 0 1
29.675027 -12.527630 7.889882 33.163218 -0.399463 1.330582 0.127770 -0.020568 -263479.000000 0 0 1
28.299627 -12.767730 8.141782 32.096300 -0.423820 1.314327 0.131581 -0.018760 161302.000000 0 0 1
27.977827 -13.074530 9.541682 32.322529 -0.437162 1.271129 0.142194 -0.017734 302964.000000 0 0 1
28.595527 -14.379730 10.181782 33.587937 -0.465938 1.262812 0.121695 -0.018238 -480734.000000 0 0 1
29.402727 -14.221130 11.254482 34.545973 -0.450496 1.238957 0.108556 -0.004187 -656114.000000 0 0 1
29.820627 -15.471030 11.726282 35.582696 -0.478577 1.234969 0.100634 -0.012666 68074.800000 0 0 1
30.669227 -15.441230 13.048282 36.732693 -0.466425 1.207644 0.094535 -0.004285 -899446.000000 0 0 1
31.969227 -15.055530 12.850082 37.600866 -0.440129 1.222018 0.063620 -0.001268 -1283120.000000 0 0 1
32.728527 -15.390330 13.991882 38.778751 -0.439559 1.201657 0.051863 -0.000592 626565.000000 0 0 1
34.271827 -15.172130 13.851882 39.957807 -0.416767 1.216785 0.047565 -0.007676 550966.000000 0 0 1
34.735127 -13.841430 13.714582 39.827177 -0.379200 1.219247 0.041906 -0.003362 1316810.000000 0 0 1
36.142327 -13.859630 13.359782 40.949248 -0.366179 1.238460 0.033806 -0.003992 961072.000000 0 0 1
36.883927 -12.555130 13.677482 41.293206 -0.328093 1.233191 0.032883 -0.005736 -412279.000000 0 0 1
-35.897525 -12.417430 12.940582 40.128338 0.333029 1.242448 0.053771 -0.009190 -220034.000000 0 0 1
-35.277625 -11.166930 13.054182 39.238028 0.306565 1.231639 0.054589 -0.009020 35668.700000 0 0 1
-34.066825 -11.067230 12.079082 37.801275 0.314113 1.245551 0.061308 -0.016010 1191720.000000 0 0 1
-32.838425 -11.765930 12.348682 37.003908 0.344048 1.230557 0.044237 -0.013221 987847.000000 0 0 1
-33.004725 -13.153030 12.068782 37.522921 0.379230 1.243338 0.045246 -0.018006 -276155.000000 0 0 1
-31.807525 -14.124930 12.303482 36.913520 0.417916 1.230989 0.036704 -0.012220 202799.000000 0 0 1
-30.660125 -13.889830 11.538482 35.582400 0.425367 1.240551 0.048061 -0.011857 160442.000000 0 0 1
-29.682725 -14.914130 11.682182 35.213191 0.465607 1.232632 0.055291 -0.012672 -341002.000000 0 0 1
-28.330725 -14.727330 11.035382 33.783189 0.479390 1.238036 0.068428 -0.008429 -649509.000000 0 0 1
-28.380225 -14.950830 9.617182 33.488127 0.484861 1.279513 0.060445 -0.008762 672969.000000 0 0 1
-27.075125 -14.806430 9.058082 32.161182 0.500433 1.285287 0.061029 -0.006663 333603.000000 0 0 1
-27.075325 -14.634230 7.515282 31.681436 0.495521 1.331299 0.098337 -0.009012 12110.900000 0 0 1
-27.412825 -15.823230 6.778882 32.369597 0.523501 1.359813 0.093779 -0.002519 355380.000000 0 0 1
-27.187825 -15.449630 5.444882 31.741387 0.516751 1.398405 0.108344 -0.001188 -184183.000000 0 0 1
-27.535025 -16.602230 4.483582 32.464044 0.542585 1.432244 0.097100 -0.008159 -328162.000000 0 0 1
-28.859325 -16.507430 4.041882 33.491681 0.519574 1.449818 0.060585 -0.016513 -348726.000000 0 0 1
-29.212625 -17.600330 3.224682 34.257082 0.542249 1.476525 0.061638 -0.014222 -749494.000000 0 0 1
-30.585725 -18.154130 3.513182 35.740754 0.535663 1.472341 0.068138 -0.021542 -1433590.000000 0 0 1
-31.640725 -17.308430 3.188582 36.206136 0.500560 1.482615 0.072141 -0.017161 -301763.000000 0 0 1
-32.836225 -18.059630 3.411382 37.629848 0.502836 1.480015 0.074417 -0.019695 -134482.000000 0 0 1
-34.069325 -17.234530 3.043782 38.301600 0.468330 1.491244 0.086617 -0.022049 -470336.000000 0 0 1
-34.331825 -17.329330 1.642782 38.492579 0.467448 1.528105 0.081364 -0.022781 -377501.000000 0 0 1
-35.342225 -16.450730 1.223682 39.002523 0.435644 1.539417 0.102728 -0.026778 63805.200000 0 0 1
-36.049025 -16.937830 -0.084718 39.830007 0.439242 1.572923 0.093744 -0.022568 -381508.000000 0 0 1
-35.225425 -16.781630 -1.181818 39.036526 0.444595 1.601076 0.093971 -0.020267 -82568.500000 0 0 1
-35.630225 -17.557230 -2.290918 39.787153 0.457841 1.628408 0.087290 -0.015428 85441.500000 0 0 1
-34.482425 -17.702230 -3.326618 38.903380 0.474286 1.656411 0.058125 -0.015191 364751.000000 0 0 1
-34.786625 -18.769930 -4.260118 39.756360 0.494803 1.678158 0.057391 -0.023606 -108227.000000 0 0 1
-33.611525 -19.471130 -4.535818 39.107968 0.525059 1.687040 0.052825 -0.016038 -467391.000000 0 0 1
-33.894725 -20.600430 -5.569118 40.053030 0.546118 1.710292 0.068890 -0.022524 -514049.000000 0 0 1
-34.474425 -21.743030 -5.016318 41.065908 0.562688 1.693255 0.072179 -0.028888 -143084.000000 0 0 1
-34.810025 -22.632630 -6.046418 41.958705 0.576499 1.715404 0.064165 -0.024421 279180.000000 0 0 1
-35.594125 -23.879430 -5.517418 43.215863 0.590915 1.698817 0.064301 -0.023498 560871.000000 0 0 1
-34.732625 -24.819430 -4.854518 42.964237 0.620448 1.684028 0.076415 -0.024024 165478.000000 0 0 1
-35.436525 -26.022530 -4.596418 44.204598 0.633404 1.674965 0.066470 -0.006410 590376.000000 0 0 1
-34.508325 -27.163230 -4.025218 44.100657 0.666856 1.662197 0.077084 -0.008822 324732.000000 0 0 1
-33.559425 -27.680330 -4.973918 43.785563 0.689690 1.684639 0.058745 -0.011086 942279.000000 0 0 1
-32.719225 -28.755130 -4.517818 43.792875 0.721004 1.674144 0.064470 -0.006435 324887.000000 0 0 1
-31.676725 -28.527330 -3.411818 42.765219 0.733134 1.650661 0.077861 -0.008005 -488259.000000 0 0 1
-32.263625 -28.360930 -2.135218 43.009801 0.721112 1.620462 0.068382 -0.008583 -72700.400000 0 0 1
-31.292225 -28.443430 -1.131218 42.302621 0.737744 1.597541 0.084165 -0.006329 -3442.620000 0 0 1
-31.841625 -28.112630 0.300382 42.477044 0.723281 1.563725 0.083976 -0.010338 184289.000000 0 0 1
-32.182925 -29.290830 0.985582 43.527747 0.738387 1.548152 0.076893 -0.004764 -595548.000000 0 0 1
-33.168125 -29.075430 1.929082 44.150045 0.719740 1.527089 0.071655 -0.006022 -480077.000000 0 0 1
-33.463025 -30.331730 2.841082 45.253283 0.736354 1.507973 0.040879 0.003593 -988193.000000 0 0 1
-34.525625 -30.176630 3.707982 46.004314 0.718284 1.490108 0.034761 -0.000881 -429347.000000 0 0 1
-34.918625 -31.495330 4.230982 47.214059 0.733899 1.481063 0.036146 0.002338 96064.100000 0 0 1
-35.975225 -32.249130 3.380482 48.431920 0.730837 1.500941 0.027959 0.003804 -289078.000000 0 0 1
-36.843125 -33.083830 4.114882 49.687905 0.731690 1.487887 0.047792 -0.010806 96343.900000 0 0 1
36.246627 -33.692930 3.180582 49.589794 -0.748901 1.506614 0.054177 -0.002958 -1067530.000000 0 0 1
35.313827 33.411088 3.846182 48.766385 0.757719 1.491845 0.058240 -0.000281 -27514.700000 0 0 1
34.340027 33.855888 4.808682 48.462171 0.778299 1.471407 0.052311 -0.008857 1214620.000000 0 0 1
33.571927 -33.054030 4.559682 47.333222 -0.777625 1.474315 0.059775 -0.013096 -426695.000000 0 0 1
32.568127 -33.080430 3.380282 46.544861 -0.793202 1.498108 0.061288 0.004314 -856524.000000 0 0 1
32.995627 -33.388230 2.074282 46.987105 -0.791312 1.526636 0.065469 0.005814 -80542.500000 0 0 1
32.084727 -32.904230 1.057882 45.969960 -0.798007 1.547782 0.071871 0.005798 -170231.000000 0 0 1
32.372927 -33.527830 -0.333318 46.607220 -0.802921 1.577948 0.070232 0.013803 425398.000000 0 0 1
33.547927 -33.283130 -1.070318 47.269184 -0.781436 1.593441 0.044347 0.024101 -421694.000000 0 0 1
34.763427 -33.682630 -0.485918 48.407144 -0.769609 1.580835 0.040048 0.023319 248473.000000 0 0 1
36.039527 -33.258530 -1.306318 49.057964 -0.745289 1.597428 0.021418 0.026796 511338.000000 0 0 1
36.416027 33.809088 -2.176618 49.738508 0.748293 1.614572 0.030822 0.005897 534431.000000 0 0 1
-36.587125 -33.857030 -3.130018 49.947104 0.746662 1.633504 0.016287 0.004690 -88475.400000 0 0 1
-36.083525 33.147388 -4.089418 49.168012 -0.743013 1.654065 0.019417 -0.002651 150324.000000 0 0 1
-34.887525 32.553688 -3.613218 47.853290 -0.750806 1.646374 0.027261 0.000178 277389.000000 0 0 1
-34.343525 31.490188 -4.421418 46.804472 -0.742084 1.665403 0.036564 -0.020839 -745570.000000 0 0 1
-33.031325 30.951488 -3.929918 45.436849 -0.752903 1.657396 0.046860 -0.023689 -1660390.000000 0 0 1
-31.980125 31.855788 -4.198018 45.333685 -0.783450 1.663532 0.037705 -0.009559 -641263.000000 0 0 1
-30.719625 31.283188 -4.019318 44.028265 -0.794487 1.662213 0.074654 -0.020133 -100506.000000 0 0 1
-30.212925 31.371588 -2.564918 43.629992 -0.804210 1.629618 0.060638 -0.019113 -935753.000000 0 0 1
-31.042025 30.662388 -1.687918 43.665071 -0.779246 1.609462 0.043720 -0.007829 -650885.000000 0 0 1
-30.614725 30.441688 -0.403318 43.175461 -0.782564 1.580138 0.050864 0.004890 -883499.000000 0 0 1
-31.647325 29.749088 0.430482 43.436698 -0.754490 1.560886 0.043329 -0.006445 -362889.000000 0 0 1
-31.968325 28.401188 0.036082 42.762163 -0.726378 1.569953 0.038988 -0.019073 562164.000000 0 0 1
-33.293525 28.237188 -0.487618 43.658165 -0.703407 1.581966 0.048828 -0.020599 556280.000000 0 0 1
-33.655525 26.827588 -0.860418 43.048277 -0.672984 1.590785 0.077029 -0.023963 -55849.200000 0 0 1
-33.952825 25.937988 0.202782 42.727212 -0.652364 1.566050 0.076980 -0.030674 -142535.000000 0 0 1
-34.325625 24.721988 -0.407518 42.303561 -0.624168 1.580430 0.103114 -0.026303 -105923.000000 0 0 1
-34.500825 23.572888 0.572482 41.788942 -0.599400 1.557097 0.115193 -0.031083 401110.000000 0 0 1
-33.253825 23.121788 1.084982 40.516801 -0.607573 1.544015 0.116145 -0.039840 200425.000000 0 0 1
-32.806625 23.744788 2.241582 40.560008 -0.626508 1.515502 0.097786 -0.038890 -650080.000000 0 0 1
-31.309225 23.390988 2.491582 39.161382 -0.641640 1.507130 0.089783 -0.044489 1066600.000000 0 0 1
-30.363425 24.304888 1.862982 38.937589 -0.675025 1.522933 0.084578 -0.038523 461951.000000 0 0 1
-30.181625 25.503688 2.476782 39.591704 -0.701588 1.508197 0.071356 -0.042604 -584749.000000 0 0 1
-29.460525 26.550188 1.568582 39.689992 -0.733484 1.531265 0.055213 -0.033109 683670.000000 0 0 1
-28.180325 26.019488 1.206482 38.374471 -0.745551 1.539351 0.060633 -0.035534 274256.000000 0 0 1
-27.515325 26.962188 0.320282 38.524736 -0.775245 1.562483 0.054764 -0.028523 -33284.800000 0 0 1
-26.286325 26.410188 -0.372618 37.264028 -0.787749 1.580796 0.054505 -0.027733 -717044.000000 0 0 1
-26.582325 25.400388 -1.318618 36.790467 -0.762665 1.606645 0.059286 -0.030158 -1433.650000 0 0 1
-25.457525 24.964588 -2.082718 35.716298 -0.775622 1.629142 0.051406 -0.024261 793652.000000 0 0 1
-24.456525 24.009088 -1.343718 34.298156 -0.776166 1.609984 0.039164 -0.027295 67725.800000 0 0 1
-25.063525 22.825388 -0.995518 33.914151 -0.738696 1.600155 0.053974 -0.025282 -201390.000000 0 0 1
-24.052825 21.887688 -0.702518 32.528492 -0.738304 1.592395 0.045682 -0.035944 -633457.000000 0 0 1
-24.615125 20.493888 -0.338218 32.031519 -0.694289 1.581355 0.052730 -0.031945 -908886.000000 0 0 1
-25.434625 20.392088 0.782882 32.609359 -0.675804 1.546786 0.054435 -0.031934 702383.000000 0 0 1
-26.743125 20.986288 0.762082 34.002938 -0.665364 1.548382 0.060005 -0.042375 279062.000000 0 0 1
-27.709025 20.455988 -0.296518 34.443075 -0.635934 1.579405 0.060176 -0.040773 -1411190.000000 0 0 1
-28.044425 19.115988 -0.123318 33.940035 -0.598292 1.574430 0.075468 -0.041876 145523.000000 0 0 1
-28.799925 18.602888 -1.199818 34.306598 -0.573512 1.605777 0.085364 -0.028900 -184549.000000 0 0 1
-29.111225 17.078488 -1.013418 33.766332 -0.530555 1.600814 0.062757 -0.018016 433115.000000 0 0 1
-29.988225 16.784988 0.108282 34.366280 -0.510275 1.567646 0.074212 -0.034587 537309.000000 0 0 1
-30.234325 15.408188 0.218482 33.934855 -0.471318 1.564358 0.080253 -0.031090 -723443.000000 0 0 1
-29.175525 14.438488 0.706182 32.560404 -0.459546 1.549106 0.097333 -0.027796 -914963.000000 0 0 1
-28.928825 14.611888 2.080182 32.476320 -0.467718 1.506700 0.110189 -0.024472 115328.000000 0 0 1
-27.692925 14.059488 2.496482 31.157659 -0.469783 1.490586 0.115294 -0.023126 29715.700000 0 0 1
-27.580125 12.507188 2.585982 30.393755 -0.425749 1.485611 0.139817 -0.025308 -339712.000000 0 0 1
-27.441925 11.941788 1.273482 29.954754 -0.410450 1.528270 0.128614 -0.026789 281779.000000 0 0 1
-27.135425 10.603788 1.267382 29.161239 -0.372527 1.527321 0.174253 -0.027251 -182856.000000 0 0 1
-27.074025 10.020788 -0.128618 28.869284 -0.354490 1.575252 0.160391 -0.017395 -51799.800000 0 0 1
-28.330125 9.700988 -0.693618 29.953067 -0.329912 1.593955 0.149045 -0.016800 200431.000000 0 0 1
-28.199125 9.162988 -1.987018 29.716986 -0.314176 1.637711 0.161740 -0.020777 -497116.000000 0 0 1
-29.533025 8.782988 -2.609318 30.921659 -0.289066 1.655282 0.159555 -0.024224 -725610.000000 0 0 1
-29.417325 8.147988 -3.887018 30.771377 -0.270205 1.697454 0.181428 -0.016663 1166680.000000 0 0 1
-30.690125 7.790088 -4.494318 31.980746 -0.248581 1.711795 0.170463 -0.020148 952162.000000 0 0 1
-10.921873 17.831688 -19.512318 28.600471 -1.021238 2.321615 0.125473 -0.014305 196585.000000 0 0 1
-11.152173 16.773688 -20.469518 28.718091 -0.984045 2.364242 0.133997 -0.023560 -203750.000000 0 0 1
-10.643773 17.044788 -21.708018 29.581291 -1.012586 2.394758 0.119409 -0.020204 -142830.000000 0 0 1
-10.844873 15.757288 -22.576018 29.590201 -0.968003 2.438670 0.109870 -0.016320 394079.000000 0 0 1
-9.959673 14.701088 -22.146218 28.386124 -0.975346 2.465746 0.129916 -0.019097 315348.000000 0 0 1
-10.087973 13.567788 -22.954318 28.508819 -0.931453 2.506751 0.109184 -0.023671 167349.000000 0 0 1
-9.162673 12.330088 -22.665518 27.380857 -0.931716 2.545948 0.097605 -0.016742 121111.000000 0 0 1
-7.788073 12.528088 -22.906418 27.245386 -1.014610 2.569454 0.060922 -0.016061 -296447.000000 0 0 1
-7.124973 11.355088 -22.458818 26.155339 -1.010423 2.603466 0.050502 -0.011339 905878.000000 0 0 1
-5.563873 11.454888 -22.630518 25.967508 -1.118638 2.629036 0.030788 -0.008047 870852.000000 0 0 1
-5.051973 11.281988 -23.912518 26.918659 -1.149781 2.664481 0.022452 -0.016298 -1222280.000000 0 0 1
-3.718873 11.644188 -23.901618 26.845940 -1.261660 2.668855 0.028322 -0.011423 -582038.000000 0 0 1
-2.903673 11.392988 -25.230428 27.835337 -1.321244 2.705519 0.056432 -0.027412 183949.000000 0 0 1
-2.700073 9.987088 -25.394118 27.420678 -1.306752 2.754721 0.043983 -0.022947 14046.300000 0 0 1
-2.394573 9.519788 -26.724328 28.470161 -1.324372 2.789574 0.062345 -0.025780 -185215.000000 0 0 1
-2.297473 7.991888 -26.900718 28.156656 -1.290869 2.841789 0.067723 -0.012734 -72931.300000 0 0 1
-1.237573 7.288388 -26.269868 27.290258 -1.402600 2.867273 0.072102 -0.018193 218140.000000 0 0 1
-1.298873 7.295888 -24.855818 25.937015 -1.394614 2.851840 0.070597 -0.033611 -572405.000000 0 0 1
-0.396273 6.234588 -24.275518 25.066470 -1.507321 2.889714 0.016001 -0.022198 -243907.000000 0 0 1
0.928127 6.693088 -24.056318 24.987303 1.433006 2.867761 0.040802 -0.004830 -244050.000000 0 1 0
1.595127 5.964888 -23.110018 23.920645 1.309491 2.880513 0.032473 -0.003218 -281357.000000 0 1 0
1.730127 6.583688 -21.709518 22.751736 1.313817 2.837743 0.037688 -0.006528 -233337.000000 0 1 0
2.372727 7.811588 -21.730718 23.213678 1.275908 2.782218 0.036457 -0.021981 -132794.000000 0 1 0
2.241027 8.502788 -20.527918 22.331929 1.313093 2.736887 0.047462 -0.020846 -144032.000000 0 1 0
2.855127 9.890788 -20.542618 22.977785 1.289771 2.677037 0.050974 -0.024326 -202368.000000 0 1 0
2.886527 10.551388 -19.305018 22.188906 1.303761 2.626060 0.066657 -0.031019 -120232.000000 0 1 0
3.597827 11.753488 -19.381218 22.950391 1.273746 2.576396 0.078515 -0.031017 -475180.000000 0 1 0
4.883727 11.694188 -18.585618 22.495111 1.175193 2.543138 0.079633 -0.035716 154344.000000 0 1 0
5.949127 10.849488 -19.084818 22.744973 1.069234 2.566383 0.080713 -0.032478 161970.000000 0 1 0
6.904627 10.615488 -18.103018 22.092572 0.994119 2.531189 0.077433 -0.026061 392469.000000 0 1 0
8.129827 9.725188 -18.527118 22.448329 0.874512 2.541570 0.090758 -0.029218 319814.000000 0 1 0
7.810727 8.374588 -18.850818 22.056621 0.820222 2.595684 0.086121 -0.028779 29970.600000 0 1 0
7.054527 8.199488 -20.043318 22.775701 0.860317 2.646723 0.075116 -0.023392 313636.000000 0 1 0
6.678027 6.700988 -20.192218 22.298542 0.787114 2.703447 0.068052 -0.024859 846706.000000 0 1 0
7.910127 5.983088 -20.407518 22.689959 0.647574 2.689208 0.060075 -0.015192 854414.000000 0 1 0
7.661727 4.644788 -20.793118 22.641331 0.544990 2.734738 0.048341 -0.005614 -224952.000000 0 1 0
7.737827 4.405288 -22.280818 23.994070 0.517554 2.761410 0.058922 -0.013923 229778.000000 0 1 0
6.624827 5.004588 -22.953618 24.409073 0.646967 2.794520 0.070106 -0.018715 187388.000000 0 1 0
6.454327 4.682588 -24.319418 25.593340 0.627633 2.824752 0.069112 -0.014958 335390.000000 0 0 1
5.178127 5.361188 -24.923518 26.014171 0.802766 2.851001 0.048074 -0.011051 393305.000000 0 0 1
5.185727 6.746088 -25.255328 26.650198 0.915433 2.816622 0.073039 -0.022820 -69769.300000 0 0 1
5.401027 7.614888 -24.081718 25.828023 0.953875 2.771758 0.084200 -0.030888 -1035180.000000 0 0 1
5.467327 9.129388 -24.407618 26.626476 1.031207 2.730456 0.096747 -0.042743 20255.700000 0 0 1
4.377027 9.764988 -25.026218 27.218100 1.149410 2.737526 0.087218 -0.045267 -284005.000000 0 0 1
3.121227 9.625188 -24.408218 26.422479 1.257218 2.748600 0.087242 -0.035586 -1652110.000000 0 0 1
1.982627 9.958488 -25.282048 27.244894 1.374277 2.759685 0.096763 -0.022629 -1162130.000000 0 0 1
1.802527 11.324588 -25.529268 27.986406 1.412951 2.719424 0.112089 -0.038414 -529821.000000 0 0 1
0.998827 11.540188 -26.628548 29.038822 1.484459 2.731285 0.127680 -0.040177 -355459.000000 0 0 1
0.726127 13.042388 -26.806988 29.820224 1.515179 2.688170 0.103515 -0.046227 -209788.000000 0 0 1
-0.134173 13.560488 -25.814658 29.159928 -1.560902 2.657889 0.093717 -0.044365 58165.400000 0 0 1
-0.682473 14.816788 -26.129688 30.046024 -1.524768 2.625300 0.083787 -0.051295 -87663.700000 0 0 1
-1.094473 15.591688 -24.883418 29.385083 -1.500715 2.580745 0.091231 -0.049651 337012.000000 0 0 1
-2.294973 15.096588 -24.300118 28.699645 -1.419932 2.580557 0.072679 -0.035127 1671.360000 0 0 1
-2.579573 15.714588 -23.094618 28.052876 -1.408096 2.537914 0.064378 -0.037488 -654255.000000 0 0 1
-3.822973 15.209888 -22.341618 27.296588 -1.324549 2.529551 0.040049 -0.027256 664656.000000 0 0 1
-5.081273 15.706388 -22.816218 28.161850 -1.257907 2.515259 0.054905 -0.030531 285304.000000 0 0 1
-5.528473 15.033988 -24.011218 28.863877 -1.218413 2.553279 0.062748 -0.032121 -677144.000000 0 0 1
-7.026473 15.295688 -24.260618 29.528071 -1.140173 2.535029 0.056765 -0.027855 -273546.000000 0 0 1
-7.476773 16.588288 -24.584318 30.585325 -1.147339 2.504443 0.064821 -0.027568 -527188.000000 0 0 1
-8.651773 16.374388 -25.332338 31.379948 -1.084709 2.510321 0.076648 -0.023094 -281304.000000 0 0 1
-9.459873 17.641788 -25.700868 32.576932 -1.078595 2.479860 0.076689 -0.023751 -14175.500000 0 0 1
-10.108973 18.265488 -24.605918 32.268725 -1.065311 2.438013 0.079718 -0.024989 659666.000000 0 0 1
-11.297973 18.943988 -25.075128 33.395822 -1.033037 2.420139 0.079300 -0.013877 724528.000000 0 0 1
-11.989873 19.784688 -23.997118 33.332456 -1.025964 2.374501 0.087230 -0.016193 -100032.000000 0 0 1
-11.271073 20.901288 -23.436818 33.364433 -1.076242 2.349629 0.073735 -0.023754 -139759.000000 0 0 1
-11.660773 22.184688 -23.876118 34.615069 -1.086861 2.331955 0.052238 -0.021371 -274229.000000 0 0 1
-11.251473 22.731788 -25.239788 35.782352 -1.111184 2.353741 0.047838 -0.018224 -222527.000000 0 0 1
-11.746573 21.994688 -26.387958 36.305270 -1.080270 2.384499 0.052066 -0.025543 46817.500000 0 0 1
-11.435973 22.652288 -27.581528 37.478638 -1.103277 2.397831 0.049506 -0.011550 -297198.000000 0 0 1
-11.991073 22.025488 -28.863048 38.235893 -1.072249 2.426249 0.047377 -0.011899 5759.330000 0 0 1
-11.182873 20.962288 -29.367298 37.774494 -1.080728 2.461377 0.039337 -0.012378 135858.000000 0 0 1
-11.259873 19.725188 -28.625718 36.541750 -1.052096 2.470866 0.055803 -0.012758 -187755.000000 0 0 1
-10.267873 18.770388 -29.292708 36.274225 -1.070240 2.510757 0.056261 -0.021310 -299098.000000 0 0 1
-8.939073 19.210688 -29.085288 35.984879 -1.135277 2.511994 0.055093 -0.023001 589640.000000 0 0 1
-7.890973 18.455088 -29.753358 35.890389 -1.166745 2.548125 0.059220 -0.023985 1120290.000000 0 0 1
-7.492073 17.118388 -29.019448 34.515196 -1.158250 2.569506 0.072056 -0.036375 -1392210.000000 0 0 1
-8.510573 16.182888 -29.119198 34.383767 -1.086644 2.580902 0.052570 -0.027423 -659229.000000 0 0 1
-8.258973 14.913888 -28.594938 33.291218 -1.065058 2.603979 0.048586 -0.027610 -340762.000000 0 0 1
-9.454473 13.939988 -28.435088 33.049426 -0.974833 2.606813 0.046474 -0.010438 -210456.000000 0 0 1
-10.246373 14.251988 -27.296478 32.453121 -0.947469 2.570119 0.068545 -0.019606 -103003.000000 0 0 1
-11.430473 13.488888 -27.498038 32.691710 -0.867814 2.570169 0.112414 -0.016211 574499.000000 0 0 1
-12.621073 13.859288 -26.544998 32.496281 -0.832124 2.526747 0.097531 -0.016803 375547.000000 0 0 1
-13.148673 15.097288 -26.820768 33.468930 -0.854276 2.500367 0.080097 -0.018470 -504756.000000 0 0 1
-14.176373 15.447388 -25.915308 33.334585 -0.828277 2.461366 0.069724 -0.020268 327404.000000 0 0 1
-15.080273 16.631988 -26.269408 34.556034 -0.834290 2.434413 0.048329 -0.019446 21694.500000 0 0 1
-14.434573 17.906088 -26.196858 34.860583 -0.892331 2.421091 0.047548 -0.015670 -389102.000000 0 0 1
-15.295173 19.024088 -26.373128 35.936056 -0.893627 2.394828 0.031335 -0.017400 -411688.000000 0 0 1
-14.753573 20.484988 -26.442848 36.558540 -0.946632 2.379368 0.032782 -0.016156 -203374.000000 0 0 1
-15.743373 21.417588 -26.883708 37.806092 -0.936921 2.361850 0.005580 -0.011244 344001.000000 0 0 1
-15.308173 22.775488 -27.003338 38.499913 -0.979018 2.348138 0.015720 -0.010697 -58527.400000 0 0 1
-14.876073 23.578688 -25.735968 37.941957 -1.007957 2.316241 0.004005 -0.012511 -23018.700000 0 0 1
-14.584373 24.953588 -25.912478 38.818063 -1.041882 2.301692 0.026361 -0.017594 182956.000000 0 0 1
-14.012673 25.518788 -24.720618 38.192571 -1.068635 2.274784 0.045206 -0.022129 -102633.000000 0 0 1
-14.186673 27.064388 -24.672918 39.274619 -1.087991 2.250054 0.069807 -0.020653 53705.000000 0 0 1
-15.540873 27.442688 -24.721718 40.072225 -1.055523 2.235631 0.087712 -0.023913 -155001.000000 0 0 1
-15.622773 28.645188 -23.995618 40.501945 -1.071500 2.204900 0.086378 -0.028338 -242051.000000 0 0 1
-16.964973 29.364588 -24.154818 41.635857 -1.046908 2.189703 0.081490 -0.029407 622641.000000 0 0 1
-18.099473 28.502088 -23.934718 41.386358 -1.005022 2.187469 0.060733 -0.029725 678600.000000 0 0 1
-19.207573 28.820588 -24.778618 42.585644 -0.982942 2.191803 0.047683 -0.018660 574287.000000 0 0 1
-20.310573 27.717888 -24.755518 42.351344 -0.938420 2.195094 0.045041 0.001256 291280.000000 0 0 1
-20.918073 27.673888 -23.451418 41.873367 -0.923544 2.165249 0.049014 -0.003459 437343.000000 0 0 1
-21.995273 26.713088 -23.427218 41.787745 -0.881955 2.165936 0.052959 -0.018962 780040.000000 0 0 1
-22.723273 26.598788 -22.064518 41.360435 -0.863813 2.133493 0.039278 -0.008249 -73288.700000 0 0 1
-23.586073 27.663888 -21.746418 42.361542 -0.864798 2.109884 0.035646 -0.000370 -162720.000000 0 0 1
-24.046073 27.559588 -20.422418 41.890568 -0.853377 2.080041 0.022414 -0.000026 -554021.000000 0 0 1
-25.283433 28.427488 -20.127318 43.040481 -0.843868 2.057412 0.013725 -0.000967 -273131.000000 0 0 1
-26.432753 27.669188 -20.411918 43.369584 -0.808248 2.060824 0.000939 0.000807 -221950.000000 0 0 1
-27.566653 28.486988 -20.661318 44.702560 -0.801816 2.051266 0.015809 -0.012442 -72870.600000 0 0 1
-28.818403 27.720888 -21.062618 45.194932 -0.765989 2.055605 0.011158 -0.012919 -671198.000000 0 0 1
-28.878433 27.325988 -22.421918 45.644451 -0.757784 2.084298 0.005627 -0.001826 -348431.000000 0 0 1
-30.137473 26.875888 -22.844818 46.394680 -0.728253 2.085643 0.007131 -0.008329 -233494.000000 0 0 1
-30.022343 26.478488 -24.302918 46.830366 -0.722758 2.116426 0.005092 0.006112 4754.520000 0 0 1
-29.641843 25.124388 -24.502518 45.937426 -0.703098 2.133398 0.013608 0.011958 -155262.000000 0 0 1
-29.455433 25.006488 -25.855498 46.491437 -0.703890 2.160524 0.043780 0.009553 -134800.000000 0 0 1
-29.633983 23.563988 -26.351118 46.128255 -0.671788 2.178834 0.046802 -0.000202 -364130.000000 0 0 1
-28.484053 22.789188 -26.194508 44.909249 -0.674783 2.193553 0.039362 -0.007945 -394201.000000 0 0 1
-28.609653 21.534888 -26.796498 44.724892 -0.645236 2.213224 0.070771 -0.024044 -323589.000000 0 0 1
-27.471883 20.591688 -26.417868 43.320038 -0.643216 2.226643 0.075189 -0.027169 -326295.000000 0 0 1
-27.438423 20.041888 -25.133198 42.263719 -0.630859 2.207658 0.077825 -0.022642 -64759.800000 0 0 1
-26.905893 18.714788 -25.099938 41.281682 -0.607743 2.224356 0.069457 -0.026032 97928.100000 0 0 1
-27.950213 17.536688 -25.059038 41.433141 -0.560342 2.220319 0.071351 -0.022421 444782.000000 0 0 1
-28.746003 17.459288 -26.248908 42.663387 -0.545817 2.233507 0.075810 -0.024787 194148.000000 0 0 1
-29.585223 16.335488 -26.124778 42.715777 -0.504493 2.228872 0.062104 -0.027218 -388818.000000 0 0 1
-30.344363 15.971688 -27.388108 43.886030 -0.484503 2.244742 0.066440 -0.022049 499834.000000 0 0 1
-31.600963 16.648188 -27.571588 45.121785 -0.484877 2.228180 0.065500 -0.024501 246395.000000 0 0 1
-32.223373 16.093888 -28.656938 46.028025 -0.463206 2.242854 0.075901 -0.019106 -561698.000000 0 0 1
-33.554563 16.708288 -29.110158 47.460266 -0.462001 2.231102 0.071733 -0.016629 -258709.000000 0 0 1
-34.580897 16.396188 -28.184888 47.529584 -0.442746 2.205572 0.056256 -0.016682 -341956.000000 0 0 1
-35.762434 16.999088 -28.659528 48.880356 -0.443721 2.197305 0.051330 -0.012082 176286.000000 0 0 1
36.932469 16.614088 -27.855698 49.152570 0.422730 2.173315 0.042510 -0.007188 282592.000000 0 0 1
36.624949 17.497588 -26.785378 48.631358 0.445690 2.154100 0.057285 -0.016855 -303158.000000 0 0 1
35.496519 17.154888 -26.029548 47.242253 0.450185 2.154335 0.070319 -0.012584 -199735.000000 0 0 1
35.030799 18.393188 -25.219208 46.919876 0.483492 2.138260 0.075628 -0.006908 -304611.000000 0 0 1
34.338499 19.293088 -26.016458 47.203939 0.511896 2.154538 0.082489 -0.018494 -381878.000000 0 0 1
33.818039 20.287688 -25.223768 46.813337 0.540351 2.139827 0.097579 -0.015651 -487294.000000 0 0 1
32.949629 21.291688 -26.045228 47.088937 0.573691 2.156886 0.097435 -0.021874 1462580.000000 0 0 1
31.603559 20.814288 -26.312028 46.090589 0.582401 2.178369 0.078279 -0.021716 849181.000000 0 0 1
30.641889 21.203788 -25.377628 45.083811 0.605328 2.168685 0.074939 -0.014060 253334.000000 0 0 1
29.144559 21.080588 -25.800938 44.266070 0.626200 2.193041 0.047605 -0.013316 726044.000000 0 0 1
28.718279 19.720088 -25.937958 43.432696 0.601726 2.210801 0.049156 -0.019478 -306563.000000 0 0 1
27.515879 19.676388 -26.662778 43.071889 0.620783 2.238303 0.041324 -0.015705 -297473.000000 0 0 1
26.701879 18.397288 -26.470728 41.858691 0.603297 2.255422 0.062942 -0.013641 -465344.000000 0 0 1
27.323479 17.278088 -27.121598 42.198175 0.563870 2.268839 0.050590 -0.011662 583521.000000 0 0 1
28.205579 16.538788 -26.276108 41.946634 0.530334 2.247745 0.047823 -0.007183 1012670.000000 0 0 1
29.478039 15.868288 -26.934218 42.967540 0.493823 2.248300 0.031170 0.008670 738395.000000 0 0 1
29.191709 14.708588 -27.752808 42.880261 0.466732 2.274724 0.046178 0.002491 237729.000000 0 0 1
28.620179 13.593888 -27.021448 41.642132 0.443428 2.276930 0.070847 -0.004877 -184462.000000 0 0 1
29.495109 12.925088 -25.934738 41.347672 0.413007 2.248795 0.068834 -0.003832 -67069.900000 0 0 1
29.762699 13.676488 -24.786818 41.076160 0.430741 2.218599 0.074426 -0.011860 -195011.000000 0 0 1
30.714269 13.034988 -23.995718 41.098318 0.401358 2.194273 0.069246 -0.011307 -288532.000000 0 0 1
-15.018273 -31.133730 -23.354018 41.716518 1.121344 2.164973 0.126622 -0.009367 361944.000000 0 0 1
-14.268073 -30.024130 -23.901818 40.942926 1.127168 2.194178 0.120010 -0.029469 235549.000000 0 0 1
-14.776173 -29.683230 -25.145698 41.614127 1.108914 2.219631 0.099779 -0.015426 -52853.200000 0 0 1
-13.968773 -28.534630 -25.851738 40.959298 1.115554 2.253840 0.103442 -0.012889 -44806.500000 0 0 1
-14.055873 -27.314830 -25.170538 39.714273 1.095547 2.257240 0.086333 -0.020418 -4146.430000 0 0 1
-13.507673 -26.247630 -25.888718 39.263482 1.095518 2.290762 0.088260 -0.011163 -419167.000000 0 0 1
-13.786773 -24.819930 -25.430188 38.115594 1.063762 2.301221 0.070509 -0.005296 -311527.000000 0 0 1
-13.350873 -24.607130 -24.128518 36.958653 1.073682 2.282139 0.075683 -0.016850 223731.000000 0 0 1
-13.927873 -23.420730 -23.555918 36.019405 1.034297 2.283628 0.063006 -0.013860 58543.000000 0 0 1
-13.292173 -22.940730 -22.192918 34.575780 1.045651 2.267722 0.056134 -0.019569 577775.000000 0 0 1
-11.943673 -22.505530 -22.298918 33.858411 1.082892 2.289744 0.072875 -0.021177 86481.800000 0 0 1
-11.253873 -22.259030 -21.095518 32.667032 1.102689 2.272833 0.066880 -0.021643 -490692.000000 0 0 1
-9.823773 -21.890730 -21.453618 32.186462 1.148971 2.300356 0.056746 -0.020306 -805198.000000 0 0 1
-9.637173 -20.743530 -22.293918 31.940381 1.135878 2.343377 0.061453 -0.020368 420773.000000 0 0 1
-8.243573 -20.468330 -22.426518 31.462005 1.187924 2.364297 0.085745 -0.024161 459249.000000 0 0 1
-8.001073 -19.365530 -23.458318 31.453674 1.178996 2.412539 0.108538 -0.019333 -219526.000000 0 0 1
-8.231973 -18.120230 -22.818718 30.278739 1.144374 2.424351 0.077781 -0.018450 -121021.000000 0 0 1
-8.344373 -17.039830 -23.711118 30.367771 1.115424 2.466740 0.079378 -0.026156 806926.000000 0 0 1
-7.008573 -16.438230 -24.333018 30.189920 1.167776 2.508156 0.099529 -0.032321 815792.000000 0 0 1
-6.440673 -17.219030 -25.359688 31.322373 1.212864 2.514326 0.118471 -0.034736 207062.000000 0 0 1
-5.413073 -16.460230 -26.002578 31.246994 1.253079 2.553792 0.099315 -0.035160 16189.800000 0 0 1
-5.085173 -16.916930 -27.464018 32.654461 1.278792 2.570017 0.099547 -0.024164 123668.000000 0 0 1
-6.136273 -16.768030 -28.453908 33.592344 1.219983 2.581179 0.124484 -0.023120 511437.000000 0 0 1
-5.992973 -17.567730 -29.568928 34.912210 1.242041 2.581020 0.101660 -0.028274 350281.000000 0 0 1
-7.183373 -17.402730 -30.598098 35.926306 1.179328 2.589999 0.114918 -0.026741 719938.000000 0 0 1
-7.069073 -16.318530 -31.471318 36.148445 1.162007 2.627244 0.098838 -0.027382 -105673.000000 0 0 1
-7.251373 -15.059830 -30.890778 35.122942 1.122054 2.645616 0.094386 -0.031067 -184397.000000 0 0 1
-7.786173 -14.052530 -31.918648 35.733712 1.064829 2.675289 0.077052 -0.033438 -572711.000000 0 0 1
-6.924873 -13.904130 -33.007688 36.479942 1.108715 2.701747 0.082251 -0.040035 -240621.000000 0 0 1
-7.432073 -13.015830 -34.008588 37.164925 1.051971 2.726483 0.079385 -0.032664 -170092.000000 0 0 1
-7.539273 -11.551730 -33.639748 36.358160 0.992558 2.752444 0.068788 -0.031732 2011000.000000 0 0 1
-6.247373 -10.826630 -33.741448 35.982370 1.047432 2.786809 0.065204 -0.030546 1648390.000000 0 0 1
-6.058073 -10.299730 33.020141 35.115729 1.039115 0.347217 0.044557 -0.031417 -621163.000000 0 0 1
-4.775673 -9.500930 32.859673 34.537413 1.105028 0.312973 0.046290 -0.029346 -834892.000000 0 0 1
-4.793673 -8.759130 31.689088 33.224990 1.070046 0.305247 0.048712 -0.026441 354553.000000 0 0 1
-3.742073 -7.777830 31.659008 32.814487 1.122366 0.266162 0.047560 -0.029509 -513139.000000 0 0 1
-3.925673 -6.814230 30.416578 31.416761 1.048136 0.253007 0.047980 -0.025214 -210128.000000 0 0 1
-5.015273 -5.945430 30.468588 31.445763 0.870058 0.249949 0.049513 -0.020723 -166207.000000 0 0 1
-6.246673 -6.624530 30.233718 31.575038 0.814747 0.292522 0.058484 -0.021104 -130648.000000 0 0 1
-7.484373 -5.667130 30.176938 31.603478 0.648090 0.301604 0.056693 -0.017603 521217.000000 0 0 1
-8.679273 -6.329630 29.823898 31.699510 0.630109 0.345721 0.072906 -0.016091 -286710.000000 0 0 1
-9.728973 -5.411930 29.570908 31.597160 0.507644 0.360069 0.059113 -0.017494 -102630.000000 0 0 1
-10.942973 -6.103130 28.952198 31.547213 0.508752 0.408439 0.061442 -0.018923 -219263.000000 0 0 1
-10.651573 -6.211930 27.561698 30.194226 0.527970 0.420675 0.057519 -0.017703 508801.000000 0 0 1
-11.793873 -6.681530 26.886918 30.110541 0.515442 0.466961 0.056865 -0.021084 -58122.900000 0 0 1
-11.571473 -6.581130 25.362248 28.643566 0.517115 0.483350 0.043566 -0.024118 291217.000000 0 0 1
-10.469473 -7.325130 24.851328 27.943799 0.610502 0.474913 0.054259 -0.020303 577020.000000 0 0 1
-9.925473 -6.891930 23.577008 26.493189 0.606936 0.473611 0.058664 -0.026787 509496.000000 0 0 1
-10.897973 -7.046330 22.336238 25.832617 0.573962 0.526338 0.065856 -0.030979 537770.000000 0 0 1
-12.024573 -6.194630 22.337838 26.114035 0.475705 0.544482 0.038703 -0.023164 -708385.000000 0 0 1
-12.807173 -6.391830 21.258838 25.628449 0.462913 0.592582 0.036678 -0.026146 -235234.000000 0 0 1
-13.901173 -5.273430 21.165038 25.865238 0.362580 0.612382 0.030236 -0.019073 256406.000000 0 0 1
-13.304573 -4.077230 20.807838 25.032012 0.297367 0.589445 0.022871 -0.012340 -4347.630000 0 0 1
-14.255373 -3.010430 20.843038 25.430505 0.208121 0.610070 0.019275 -0.008053 556840.000000 0 0 1
-13.684773 -1.722430 20.162538 24.428830 0.125206 0.599960 0.008922 -0.007037 480073.000000 0 1 0
-12.640973 -0.977430 20.824438 24.380459 0.077169 0.546893 0.006909 -0.009614 427712.000000 0 1 0
-12.747173 0.407570 20.709138 24.321286 -0.031962 0.551991 0.017733 -0.015442 -593325.000000 0 1 0
-12.415173 1.075570 19.337238 23.004829 -0.086418 0.572456 0.030449 -0.021063 -328616.000000 0 1 0
-13.217373 0.916570 18.210038 22.519870 -0.069235 0.628992 0.041580 -0.016336 -372830.000000 0 1 0
-14.588373 1.253570 18.357838 23.481957 -0.085719 0.673273 0.045273 -0.013683 -109816.000000 0 1 0
-15.515773 0.438570 17.478838 23.376085 -0.028259 0.726170 0.056026 -0.009066 -395428.000000 0 1 0
-15.671973 -0.907430 17.875538 23.790104 0.057837 0.720637 0.026821 -0.010792 -142766.000000 0 1 0
-16.632773 -1.698430 17.230138 24.008571 0.101761 0.770351 0.032089 -0.003202 -412740.000000 0 1 0
-16.678573 -3.189530 17.615338 24.467285 0.188954 0.767059 0.028058 -0.001864 -358123.000000 0 1 0
-17.305773 -3.456630 18.859938 25.828963 0.197144 0.752203 0.032846 -0.003830 65886.000000 0 0 1
-17.308373 -4.839030 19.186438 26.289074 0.272617 0.752730 0.045301 -0.008908 -243240.000000 0 0 1
-18.082173 -5.178630 20.475538 27.803432 0.278928 0.743005 0.044992 -0.003989 -183061.000000 0 0 1
-17.594073 -4.546030 21.663338 28.275750 0.252854 0.697974 0.039639 -0.008145 7011.170000 0 0 1
-18.453273 -4.578830 22.785738 29.676234 0.243219 0.695379 0.047234 -0.019276 -247782.000000 0 0 1
-18.793273 -5.973330 23.494608 30.673513 0.307746 0.698267 0.055257 -0.016150 -8304.290000 0 0 1
-17.655373 -6.609530 24.020448 30.534898 0.358213 0.665423 0.025727 -0.025419 230350.000000 0 0 1
-16.824173 -7.313030 23.106578 29.503342 0.410036 0.671024 0.020692 -0.021340 776101.000000 0 0 1
-15.442573 -7.786330 23.696358 29.336281 0.467012 0.630472 0.037158 -0.018901 718542.000000 0 0 1
-15.580273 -9.106930 24.234118 30.215453 0.528957 0.640087 0.045255 -0.027950 210269.000000 0 0 1
-15.241873 -9.251030 25.611938 31.206852 0.545513 0.608135 0.054043 -0.024615 -165821.000000 0 0 1
-16.176973 -10.257030 26.267118 32.509424 0.565082 0.630073 0.054117 -0.023980 -590971.000000 0 0 1
-16.087373 -11.621930 25.960078 32.677186 0.625619 0.652711 0.048852 -0.026849 -378766.000000 0 0 1
-15.309373 -12.312630 26.875098 33.290369 0.677330 0.631245 0.053799 -0.022156 -359078.000000 0 0 1
-15.305973 -13.868730 26.721198 33.773317 0.736175 0.658040 0.033889 -0.018834 63822.400000 0 0 1
-16.549273 -14.493330 27.032528 34.852441 0.719265 0.683087 0.038807 -0.018595 223087.000000 0 0 1
-16.617673 -15.895230 26.875788 35.371081 0.763182 0.707754 0.050803 -0.014288 -176405.000000 0 0 1
-15.622673 -16.809530 27.626928 35.914835 0.821977 0.693154 0.059262 -0.010091 687404.000000 0 0 1
-14.265473 -16.704130 27.184828 34.950631 0.863980 0.679628 0.068846 -0.020192 1013500.000000 0 0 1
-13.362273 -17.497230 27.989948 35.610962 0.918598 0.666496 0.088182 -0.012063 -22746.200000 0 0 1
-12.135373 -17.848430 27.168028 34.697774 0.973679 0.671337 0.091954 -0.023128 -563270.000000 0 0 1
-11.175273 -18.581030 27.902068 35.336480 1.029323 0.660622 0.108708 -0.021259 57944.900000 0 0 1
-10.010173 -18.859730 27.163538 34.550699 1.082837 0.666171 0.094909 -0.023171 371310.000000 0 0 1
-8.785073 -19.442530 27.926258 35.143497 1.146406 0.652390 0.115960 -0.022111 463917.000000 0 0 1
-9.040173 -20.800230 28.399178 36.344018 1.160807 0.673892 0.113426 -0.012373 -398959.000000 0 0 1
-8.001573 -21.312230 29.164558 36.997403 1.211635 0.662777 0.110123 -0.012706 -160944.000000 0 0 1
-8.342073 -22.737330 29.651248 38.285414 1.219156 0.684905 0.100721 -0.013709 141252.000000 0 0 1
-8.140973 -23.834230 28.785328 38.248413 1.241654 0.718812 0.095062 -0.017536 -28849.400000 0 0 1
-8.557973 -25.031530 29.393738 39.545016 1.241367 0.732809 0.083178 -0.012446 -166821.000000 0 0 1
-8.875273 -26.202930 28.490608 39.712451 1.244212 0.770701 0.078097 -0.010209 -153874.000000 0 0 1
-10.198473 -26.205830 28.009108 39.689602 1.199663 0.787380 0.071332 -0.012033 -174141.000000 0 0 1
-10.486373 -27.467530 27.415068 40.199692 1.206101 0.820341 0.069133 -0.012088 -418041.000000 0 0 1
-11.856773 -27.413130 26.738518 40.087544 1.162572 0.840617 0.056209 -0.014464 -475892.000000 0 0 1
-11.919973 -26.832730 25.439128 38.848815 1.152749 0.856847 0.071940 -0.022242 70720.700000 0 0 1
-11.817073 -25.421630 25.400068 37.829433 1.135668 0.834651 0.064707 -0.010465 -263014.000000 0 0 1
-12.052073 -24.839130 24.008798 36.587665 1.119055 0.855026 0.087124 -0.034318 39123.500000 0 0 1
-13.395073 -24.972230 23.598168 36.877009 1.078455 0.876408 0.065259 -0.021603 92702.600000 0 0 1
-13.635073 -24.282930 22.392138 35.734910 1.059160 0.893590 0.069624 -0.028151 234022.000000 0 0 1
-15.069973 -24.549930 21.863738 36.163880 1.020255 0.921565 0.051570 -0.024675 1919.390000 0 0 1
-15.321773 -25.832530 21.361238 36.856192 1.035452 0.952579 0.065582 -0.018360 -393353.000000 0 0 1
-16.443673 -25.904930 20.536938 36.921886 1.005202 0.980958 0.056627 -0.022826 -245775.000000 0 0 1
-16.814773 -27.323630 20.079038 37.848185 1.019135 1.011588 0.054923 -0.020283 52575.500000 0 0 1
-15.972373 -27.766430 19.022138 37.254974 1.048781 1.034922 0.052970 -0.020982 23170.500000 0 0 1
-16.242473 -29.017030 18.520538 38.063320 1.060493 1.062635 0.060231 -0.011498 -209343.000000 0 0 1
-15.133773 -29.433830 17.561138 37.466986 1.095883 1.082967 0.068723 -0.017805 -134561.000000 0 0 1
-15.286173 -28.755730 16.300438 36.417899 1.082200 1.106723 0.068638 -0.024526 -277789.000000 0 0 1
-14.298173 -29.135530 15.390838 35.919281 1.114579 1.127982 0.087382 -0.019171 -146587.000000 0 0 1
-14.623273 -28.509530 14.019638 34.974043 1.096862 1.158343 0.074952 -0.021696 -186754.000000 0 0 1
-14.286673 -27.124830 14.019838 33.710849 1.086017 1.141881 0.073309 -0.020157 -138668.000000 0 0 1
-14.518273 -26.395130 12.825538 32.741069 1.067925 1.168289 0.071142 -0.025694 -77123.600000 0 0 1
-13.539873 -26.545530 11.641638 31.992516 1.099131 1.198359 0.078637 -0.019463 -61273.700000 0 0 1
-13.933673 -25.860430 10.467238 31.184486 1.076590 1.228496 0.067096 -0.021568 -183343.000000 0 0 1
-13.276873 -26.328330 9.326838 30.926465 1.103730 1.264446 0.077548 -0.016147 -288643.000000 0 0 1
-13.590173 -25.631330 8.011538 30.097220 1.083268 1.301359 0.075247 -0.020181 727835.000000 0 0 1
-14.869273 -26.032230 7.489438 30.900873 1.051832 1.325989 0.078235 -0.020869 753977.000000 0 0 1
-15.251073 -25.333930 6.300138 30.234004 1.028906 1.360879 0.087884 -0.021857 -381361.000000 0 0 1
-16.093673 -26.121730 5.306438 31.136946 1.018621 1.399538 0.095097 -0.025138 -279438.000000 0 0 1
-15.523073 -27.242730 4.700738 31.705348 1.052874 1.421984 0.100031 -0.023298 33997.900000 0 0 1
-16.256073 -27.617030 3.528938 32.239939 1.038783 1.461118 0.110604 -0.020072 322720.000000 0 0 1
-15.659373 -28.925430 2.916338 33.021228 1.074603 1.482364 0.105763 -0.024633 455712.000000 0 0 1
-14.364273 -28.720230 2.355338 32.198317 1.107033 1.497580 0.090740 -0.018895 308878.000000 0 0 1
-13.902973 -29.914430 1.747938 33.033636 1.135738 1.517858 0.087552 -0.016600 -361921.000000 0 0 1
-12.502573 -29.839730 1.133138 32.372949 1.174027 1.535787 0.079454 -0.020630 -236819.000000 0 0 1
-12.322573 -29.215930 -0.137862 31.708601 1.171660 1.575144 0.086882 -0.010720 -99883.400000 0 0 1
-12.265173 -27.794730 -0.070462 30.380692 1.155220 1.573116 0.077660 -0.012414 -342464.000000 0 0 1
-12.130473 -27.117830 -1.450462 29.742712 1.150169 1.619583 0.084747 -0.002167 970354.000000 0 0 1
-10.801273 -27.218530 -1.998462 29.351486 1.193021 1.638936 0.084376 -0.006118 583787.000000 0 0 1
-10.726373 -26.478630 -3.237762 28.751627 1.185905 1.683647 0.090861 -0.009868 846979.000000 0 0 1
-9.223573 -26.566030 -3.665262 28.359521 1.236623 1.700402 0.085329 -0.018692 629637.000000 0 0 1
-8.862873 -25.807330 -4.776462 27.701686 1.239991 1.744087 0.074684 -0.014692 210768.000000 0 0 1
-7.497273 -26.109330 -5.090362 27.637258 1.291171 1.756039 0.074255 -0.011834 907288.000000 0 0 1
-6.734473 -24.988830 -5.895062 26.543295 1.307551 1.794756 0.052828 -0.015328 248113.000000 0 0 1
-7.048173 -24.878830 -7.242562 26.853075 1.294730 1.843889 0.060981 -0.016753 238424.000000 0 0 1
-6.279473 -23.766330 -7.807462 25.791989 1.312482 1.878330 0.048729 -0.015993 361382.000000 0 0 1
-6.532373 -23.595730 -9.280062 26.183008 1.300715 1.933101 0.054812 -0.020129 140374.000000 0 0 1
-5.693373 -24.468330 -10.039262 27.053659 1.342181 1.950976 0.033381 -0.022061 104586.000000 0 0 1
-5.905673 -24.466630 -11.464762 27.657435 1.333950 1.998220 0.029296 -0.014962 -934589.000000 0 0 1
-7.161973 -25.147930 -11.928262 28.740141 1.293348 1.998781 0.057781 -0.018712 -714321.000000 0 0 1
-7.415273 -25.086530 -13.342962 29.365880 1.283392 2.042461 0.069824 -0.018887 -48113.900000 0 0 1
-8.555773 -25.855030 -13.655162 30.465510 1.251225 2.035566 0.102151 -0.022058 -613434.000000 0 0 1
-8.731073 -25.973430 -15.191062 31.330801 1.246509 2.077000 0.100826 -0.024297 494866.000000 0 0 1
-7.642373 -26.530530 -15.908462 31.864621 1.290330 2.093531 0.075733 -0.027223 -210513.000000 0 0 1
-6.339673 -26.049330 -15.872062 31.155760 1.332066 2.105333 0.071629 -0.023814 -644984.000000 0 0 1
-5.380773 -27.002530 -16.627162 32.164450 1.374104 2.114071 0.059778 -0.012545 -219199.000000 0 0 1
-5.700173 -27.042430 -18.051862 33.009919 1.363051 2.149408 0.096473 -0.018989 462870.000000 0 0 1
-4.661873 -27.654330 -18.813262 33.770310 1.403790 2.161680 0.080935 -0.020615 175330.000000 0 0 1
-25.532113 14.243688 -5.590218 29.766121 -0.508868 1.759723 0.086250 -0.020217 15493.300000 0 0 1
-25.169253 13.224488 -4.640418 28.808191 -0.483778 1.732581 0.087195 -0.022128 36642.100000 0 0 1
-23.899073 12.704788 -4.923918 27.510403 -0.488608 1.750750 0.108171 -0.024077 -919587.000000 0 0 1
-23.783673 11.229788 -4.371118 26.662294 -0.441132 1.735484 0.113958 -0.025413 -118403.000000 0 0 1
-24.478073 10.250288 -5.110118 27.025132 -0.396568 1.761029 0.113984 -0.024170 226397.000000 0 0 1
-25.884073 10.330188 -5.099018 28.331925 -0.379725 1.751757 0.130330 -0.021006 -386438.000000 0 0 1
-26.614163 9.776588 -6.352918 29.056065 -0.352043 1.791220 0.150686 -0.020988 44913.900000 0 0 1
-26.433833 10.539188 -7.554318 29.442991 -0.379386 1.830273 0.181511 -0.025880 53641.100000 0 0 1
-26.724773 9.745188 -8.708018 29.749147 -0.349666 1.867861 0.165346 -0.030070 -233108.000000 0 0 1
-27.062713 10.582088 -9.936918 30.710151 -0.372742 1.900298 0.136328 -0.022647 -47554.500000 0 0 1
-25.959043 11.282288 -10.452318 30.173049 -0.409990 1.924540 0.126033 -0.018889 304097.000000 0 0 1
-26.327623 11.774888 -11.701118 31.124072 -0.420560 1.956219 0.110287 -0.016489 -1081.710000 0 0 1
-25.344373 12.870988 -12.161618 30.917706 -0.469903 1.975074 0.108141 -0.018990 -269701.000000 0 0 1
-25.523423 14.053188 -11.384618 31.281732 -0.503303 1.943289 0.104309 -0.022352 741062.000000 0 0 1
-24.768373 15.144988 -11.990218 31.410321 -0.548807 1.962462 0.102204 -0.022548 384408.000000 0 0 1
-24.825073 16.549288 -11.291818 31.900914 -0.587981 1.932604 0.113708 -0.014168 -452833.000000 0 0 1
-23.955873 16.560888 -10.206118 30.859548 -0.604869 1.907871 0.101888 -0.007840 -216298.000000 0 0 1
-23.700373 17.870388 -9.935118 31.301198 -0.646064 1.893787 0.062294 -0.002917 -29341.400000 0 0 1
-22.582673 18.124188 -8.894718 30.291572 -0.676306 1.868825 0.059734 -0.001373 -88026.600000 0 0 1
-22.881873 17.669188 -7.583418 29.887933 -0.657553 1.827329 0.073214 -0.002318 410363.000000 0 0 1
-23.760773 18.545988 -6.856018 30.911696 -0.662756 1.794450 0.055120 -0.005952 245239.000000 0 0 1
-24.177173 18.008788 -5.454518 30.636643 -0.640208 1.749790 0.044591 -0.003394 430495.000000 0 0 1
-23.074773 17.987088 -4.543318 29.607807 -0.662124 1.724855 0.054077 -0.016415 816886.000000 0 0 1
-23.575573 17.821888 -3.179618 29.724355 -0.647296 1.677972 0.039525 -0.012915 200386.000000 0 0 1
-22.516673 17.284388 -2.173418 28.468831 -0.654687 1.647214 0.060013 -0.027599 -461333.000000 0 0 1
-21.673573 18.303488 -1.754518 28.422522 -0.701297 1.632565 0.055047 -0.025782 -105450.000000 0 0 1
-20.937573 17.871688 -0.628118 27.534954 -0.706563 1.593610 0.133816 -0.046861 -96284.800000 0 0 1
-20.037773 18.944988 -0.060418 27.575869 -0.757373 1.572987 0.113008 -0.043255 -133412.000000 0 0 1
-20.849273 19.775788 0.761682 28.746376 -0.758980 1.544297 0.098992 -0.037661 564445.000000 0 0 1
-20.396673 21.097088 0.802082 29.355659 -0.802277 1.543470 0.094909 -0.041050 67489.500000 0 0 1
-21.255773 21.907788 1.814082 30.578586 -0.800503 1.511436 0.081942 -0.033553 228104.000000 0 0 1
-20.978373 21.496088 3.107082 30.196488 -0.797586 1.467718 0.088160 -0.033126 75110.300000 0 0 1
-22.134273 21.690988 3.868882 31.231286 -0.775284 1.446599 0.074461 -0.030641 -194772.000000 0 0 1
-21.921073 21.280588 5.322082 31.011633 -0.770574 1.398327 0.095087 -0.029280 506134.000000 0 0 1
-20.987073 22.149188 6.011182 31.099486 -0.812332 1.376283 0.081686 -0.020071 599302.000000 0 0 1
-20.385473 21.733388 7.221682 30.660403 -0.817390 1.333024 0.080971 -0.014540 252966.000000 0 0 1
-21.270073 21.459788 8.493282 31.385894 -0.789838 1.296772 0.086653 -0.024800 393949.000000 0 0 1
-22.238973 20.380688 8.499582 31.339867 -0.741824 1.296150 0.097298 -0.021962 1251620.000000 0 0 1
-22.759273 19.911688 9.749682 31.772883 -0.718763 1.258909 0.104833 -0.015958 427300.000000 0 0 1
-23.535573 20.919588 10.701782 33.257788 -0.726620 1.243185 0.114987 -0.016689 -560199.000000 0 0 1
-24.780973 21.329188 10.218682 34.255690 -0.710678 1.267879 0.128510 -0.018865 -84344.000000 0 0 1
-25.399193 22.208288 11.175582 35.541816 -0.718473 1.250935 0.135949 -0.017415 402843.000000 0 0 1
-26.895403 22.460388 10.792982 36.664972 -0.695781 1.272003 0.140927 -0.022553 156485.000000 0 0 1
-27.605943 23.445288 11.501082 38.000585 -0.704078 1.263319 0.126298 -0.011652 -126817.000000 0 0 1
-27.100953 24.756388 11.577082 38.488559 -0.740217 1.265272 0.124322 -0.016597 -478713.000000 0 0 1
-27.586063 25.540588 12.832082 39.723731 -0.746915 1.241864 0.129382 -0.016361 141919.000000 0 0 1
-26.824243 25.320988 14.005482 39.456887 -0.756578 1.207929 0.097732 -0.018706 237193.000000 0 0 1
-27.406053 26.062188 15.095682 40.721112 -0.760270 1.191024 0.102694 -0.010564 223567.000000 0 0 1
-26.447043 26.339488 16.270982 40.718049 -0.783361 1.159715 0.090356 -0.018147 83948.500000 0 0 1
-26.074163 25.187988 17.000582 40.041435 -0.768113 1.132304 0.084145 -0.014322 -308720.000000 0 0 1
-25.097953 25.508688 17.928182 40.025243 -0.793514 1.106357 0.076987 -0.006283 -451235.000000 0 0 1
-24.639973 24.251688 18.705782 39.308764 -0.777457 1.074846 0.080127 -0.007512 -48484.300000 0 0 1
-23.384773 24.449188 19.325082 38.962407 -0.807647 1.051818 0.091576 -0.024212 513354.000000 0 0 1
-22.914373 23.217288 19.884382 38.203397 -0.791964 1.023375 0.092093 -0.025321 -797689.000000 0 0 1
-21.477073 23.219788 20.372282 37.622508 -0.824368 0.998586 0.086976 -0.034909 -895409.000000 0 0 1
-20.566373 23.292788 19.282282 36.569606 -0.847481 1.015405 0.074093 -0.030706 11892.200000 0 0 1
-19.238173 22.986788 19.597082 35.812642 -0.873943 0.991768 0.062507 -0.031225 -243344.000000 0 0 1
-18.760973 21.513688 19.585982 34.618255 -0.853641 0.969429 0.062945 -0.013042 -509859.000000 0 0 1
-19.161473 20.652388 20.624882 34.915167 -0.822828 0.938853 0.079605 -0.014391 323371.000000 0 0 1
-18.568573 20.943388 21.933482 35.559739 -0.845430 0.906117 0.081660 -0.020868 79992.700000 0 0 1
-19.515673 20.630288 23.102882 36.608925 -0.813155 0.887861 0.077849 -0.016769 1083300.000000 0 0 1
-20.745073 21.411888 23.191382 37.771248 -0.801214 0.909683 0.092991 -0.023311 1352130.000000 0 0 1
-21.529973 20.983788 24.284182 38.646870 -0.772552 0.891352 0.102180 -0.018408 578914.000000 0 0 1
-22.803773 21.804988 24.665582 40.048227 -0.763012 0.907272 0.105027 -0.021826 -181058.000000 0 0 1
-22.485973 22.969688 25.409282 40.973859 -0.796039 0.901883 0.116086 -0.033174 -267588.000000 0 0 1
-23.478773 23.873288 25.797282 42.269213 -0.793730 0.914346 0.112717 -0.038710 -439555.000000 0 0 1
-24.245373 24.605788 24.612382 42.415236 -0.792776 0.951733 0.093037 -0.033246 105080.000000 0 0 1
-25.098293 23.701188 23.954782 42.017879 -0.756776 0.964157 0.082678 -0.028664 -259496.000000 0 0 1
-25.795633 24.299188 22.860982 42.172144 -0.755535 0.997877 0.083175 -0.022734 211998.000000 0 0 1
-26.797173 23.262188 22.259182 41.889008 -0.714899 1.010562 0.077192 -0.015623 1216460.000000 0 0 1
-28.107033 23.377988 22.899582 43.138457 -0.693802 1.011206 0.063882 -0.024314 1206310.000000 0 0 1
-28.915903 22.357988 22.285482 42.809482 -0.658189 1.023274 0.060092 -0.020323 262235.000000 0 0 1
-30.383073 22.341288 22.784682 44.061389 -0.634040 1.027323 0.068763 -0.015429 -275898.000000 0 0 1
-31.053013 23.490988 22.330382 44.886101 -0.647636 1.050094 0.074437 -0.010250 139689.000000 0 0 1
-32.445323 23.634588 22.521482 46.027273 -0.629562 1.059501 0.080237 -0.013917 548103.000000 0 0 1
-33.401623 22.785688 21.617282 45.849350 -0.598661 1.079822 0.087486 -0.022336 -771575.000000 0 0 1
-33.457793 21.410088 21.898482 45.358122 -0.569252 1.066958 0.080520 -0.020200 319751.000000 0 0 1
-34.005843 20.587888 20.886282 44.905403 -0.544397 1.087029 0.082503 -0.014793 280311.000000 0 0 1
-35.549736 20.665188 20.705282 46.038488 -0.526559 1.104324 0.117291 -0.021954 20599.600000 0 0 1
-36.042310 19.833888 19.701682 45.613457 -0.503069 1.124168 0.115528 -0.014642 -925758.000000 0 0 1
36.550319 19.857088 19.631482 45.995922 0.497670 1.129835 0.138856 -0.028487 -612234.000000 0 0 1
35.945379 19.035288 18.412082 44.647701 0.487016 1.145725 0.147570 -0.026632 270488.000000 0 0 1
36.306919 17.675888 18.484082 44.410480 0.453069 1.141523 0.144950 -0.028068 404157.000000 0 0 1
35.405509 16.940188 17.668582 43.042988 0.446269 1.147808 0.162487 -0.040385 47596.600000 0 0 1
35.644439 15.424688 17.581682 42.632882 0.408406 1.145712 0.158191 -0.041713 270627.000000 0 0 1
34.847299 14.822888 16.531382 41.319957 0.402181 1.159190 0.182016 -0.045413 243371.000000 0 0 1
35.101799 13.411688 16.370182 40.987712 0.364963 1.159942 0.147248 -0.039129 526002.000000 0 0 1
34.119159 12.591388 15.426082 39.504735 0.353537 1.169636 0.144153 -0.045855 308565.000000 0 0 1
34.123069 13.043288 14.082682 39.151413 0.365105 1.202852 0.148007 -0.047538 75072.000000 0 0 1
33.469999 12.117388 13.268382 37.988444 0.347358 1.214000 0.149622 -0.047868 -391739.000000 0 0 1
33.499469 12.495688 11.824582 37.658696 0.357026 1.251400 0.157105 -0.045587 1334800.000000 0 0 1
34.795529 12.291288 11.170882 38.556364 0.339561 1.276853 0.140319 -0.038727 1803040.000000 0 0 1
34.584029 11.999688 9.817482 37.900271 0.333975 1.308774 0.136838 -0.039860 178006.000000 0 0 1
35.958039 12.127188 9.102682 39.024455 0.325280 1.335372 0.093327 -0.014531 45294.900000 0 0 1
36.872229 11.108888 9.520482 39.668732 0.292631 1.328431 0.127045 -0.023297 -295880.000000 0 0 1
-35.781643 11.441688 9.213682 38.679841 -0.309489 1.330280 0.133655 -0.023834 -458154.000000 0 0 1
-35.259388 11.158188 7.789182 37.794192 -0.306489 1.363214 0.130317 -0.032814 -582447.000000 0 0 1
-35.852342 12.066188 6.861382 38.445570 -0.324645 1.391365 0.103908 -0.022890 204929.000000 0 0 1
-35.334758 11.762388 5.580382 37.656866 -0.321346 1.422058 0.127248 -0.033452 -47192.700000 0 0 1
-36.072268 12.609288 4.485882 38.475002 -0.336279 1.453938 0.121798 -0.024477 788051.000000 0 0 1
36.552769 12.093888 4.336882 38.745008 0.319524 1.458627 0.117438 -0.020174 1294290.000000 0 0 1
35.586719 13.171988 4.446782 38.205886 0.354501 1.454142 0.086524 -0.022947 617182.000000 0 0 1
35.286549 13.835388 5.835682 38.348582 0.373666 1.418028 0.108322 -0.018624 -1085300.000000 0 0 1
34.377169 14.882988 5.869082 37.917532 0.408570 1.415386 0.108114 -0.017490 -256107.000000 0 0 1
34.107499 15.400388 7.188382 38.107300 0.424121 1.381024 0.082204 -0.022414 -639460.000000 0 0 1
32.729939 14.971688 7.658482 36.797455 0.429016 1.361138 0.125805 -0.023128 -700115.000000 0 0 1
32.656009 13.561188 7.754582 36.200198 0.393604 1.354909 0.161481 -0.030126 -46667.600000 0 0 1
31.321549 13.172188 7.973182 34.901542 0.398093 1.340313 0.165307 -0.031580 -152699.000000 0 0 1
31.072289 11.775588 7.373382 34.037015 0.362250 1.352437 0.168046 -0.027425 -163401.000000 0 0 1
31.095609 11.823588 5.955282 33.796443 0.363351 1.393661 0.148254 -0.026353 295876.000000 0 0 1
31.448669 10.638488 5.295282 33.618986 0.326197 1.412629 0.167016 -0.029963 -76833.300000 0 0 1
31.020589 10.750188 3.795982 33.049251 0.333598 1.455684 0.149577 -0.036480 371908.000000 0 0 1
29.618979 10.533688 3.651582 31.647695 0.341690 1.455157 0.138924 -0.029648 527613.000000 0 0 1
29.236359 10.991588 2.355582 31.322970 0.359609 1.495522 0.146679 -0.039162 -84369.400000 0 0 1
27.712979 10.937988 2.116782 29.868538 0.375919 1.499867 0.143099 -0.021864 -14569.000000 0 0 1
27.264979 9.657088 1.691882 28.974142 0.340406 1.512370 0.122327 -0.029018 -621543.000000 0 0 1
25.895779 9.442288 1.799782 27.622227 0.349645 1.505593 0.120200 -0.027088 -840385.000000 0 0 1
25.583779 8.005388 1.370682 26.842034 0.303257 1.519709 0.131104 -0.029370 169710.000000 0 0 1
26.154279 6.939788 2.143382 27.144080 0.259364 1.491751 0.134563 -0.025123 1121340.000000 0 0 1
27.583779 6.835088 2.258382 28.507606 0.242901 1.491493 0.137450 -0.027922 458215.000000 0 0 1
27.922479 6.092488 3.528582 28.796426 0.214826 1.447952 0.143600 -0.032365 -1218960.000000 0 0 1
29.271099 5.902288 3.733582 30.092755 0.198974 1.446407 0.155472 -0.030352 -752990.000000 0 0 1
29.422839 5.513688 5.097982 30.365995 0.185246 1.402113 0.147814 -0.023638 530418.000000 0 0 1
30.867399 5.320688 5.678882 31.833249 0.170695 1.391442 0.127515 -0.027411 714669.000000 0 0 1
31.443729 6.580588 6.150982 32.708513 0.206304 1.381615 0.148632 -0.032915 885957.000000 0 0 1
32.759539 6.350988 6.683682 34.032250 0.191491 1.373119 0.151227 -0.024988 853104.000000 0 0 1
33.188379 7.496988 7.656182 34.875356 0.222163 1.349464 0.146668 -0.037624 192009.000000 0 0 1
32.488839 7.442388 8.879182 34.492806 0.225190 1.310444 0.146607 -0.029892 146992.000000 0 0 1
33.135779 8.350888 9.727182 35.529358 0.246879 1.293477 0.155042 -0.033545 132177.000000 0 0 1
32.467789 8.432588 11.150282 35.349606 0.254107 1.249888 0.145701 -0.030972 25358.100000 0 0 1
31.154429 8.951588 11.215082 34.300254 0.279792 1.237703 0.147114 -0.034125 87114.900000 0 0 1
30.619829 8.585288 12.486982 34.164394 0.273364 1.196630 0.134679 -0.035083 -643658.000000 0 0 1
29.184229 9.070688 12.673582 33.084986 0.301343 1.177688 0.121342 -0.037067 -752527.000000 0 0 1
29.009569 10.468388 12.831982 33.403623 0.346317 1.176510 0.144590 -0.047359 158540.000000 0 0 1
29.248979 11.300588 11.661482 33.454390 0.368691 1.214742 0.160079 -0.054511 -476511.000000 0 0 1
28.087879 11.313488 10.643182 32.096749 0.382908 1.232801 0.125274 -0.044838 -54731.300000 0 0 1
28.174679 12.432388 9.744082 32.300526 0.415563 1.264353 0.110960 -0.024462 124393.000000 0 0 1
27.176379 12.360488 8.750082 31.111110 0.426859 1.285697 0.099538 -0.024372 -35854.100000 0 0 1
27.002379 13.575888 7.773282 31.206684 0.465858 1.319056 0.098127 -0.022513 -3991.710000 0 0 1
26.687779 14.813788 8.449982 31.671566 0.506733 1.300725 0.093949 -0.017399 384163.000000 0 0 1
26.626279 15.858688 7.508682 31.887882 0.537180 1.333093 0.078614 -0.014541 -1117420.000000 0 0 1
26.403379 17.239588 8.223682 32.587893 0.578433 1.315684 0.093174 -0.028702 1161160.000000 0 0 1
25.059979 17.695188 8.505582 31.834999 0.614817 1.300334 0.092354 -0.023567 1430430.000000 0 0 1
24.100279 16.731088 8.996982 30.687106 0.606842 1.273240 0.092576 -0.017586 -489925.000000 0 0 1
22.749679 17.407688 9.255982 30.103965 0.653148 1.258266 0.084377 -0.024072 -337206.000000 0 0 1
22.115379 17.944188 8.100582 29.609176 0.681647 1.293680 0.097090 -0.027620 70170.300000 0 0 1
21.290079 19.043088 8.368982 29.764854 0.729745 1.285783 0.131099 -0.030249 8955.220000 0 0 1
20.461779 19.532888 7.143082 29.176047 0.762177 1.323455 0.108582 -0.031051 55251.200000 0 0 1
21.229179 20.274688 6.237882 30.010868 0.762405 1.361416 0.084574 -0.022068 108523.000000 0 0 1
20.559079 20.430388 4.992382 29.410889 0.782259 1.400224 0.093569 -0.033650 151028.000000 0 0 1
18.117427 17.123288 32.866213 41.250893 0.757196 0.648916 0.072847 -0.004484 70617.600000 0 0 1
17.601427 17.793088 31.724028 40.408145 0.790813 0.667955 0.064913 -0.010958 276906.000000 0 0 1
16.887027 16.928188 30.867158 39.045060 0.786615 0.659086 0.076973 -0.013368 -27233.900000 0 0 1
16.364927 17.565488 29.583538 38.099120 0.820766 0.681722 0.079994 -0.015246 -507458.000000 0 0 1
17.357127 17.868388 28.670538 37.980902 0.799911 0.715345 0.083718 -0.010585 -865740.000000 0 0 1
16.837527 18.378788 27.516118 37.127065 0.829136 0.736039 0.098503 -0.019993 -597419.000000 0 0 1
17.834227 18.728088 26.416228 36.967798 0.809841 0.774781 0.087811 -0.014110 -236079.000000 0 0 1
18.513627 19.961788 26.613768 38.072563 0.823019 0.796760 0.095813 -0.016874 697223.000000 0 0 1
19.512727 20.189488 25.600968 37.996994 0.802442 0.831507 0.092017 -0.015519 318120.000000 0 0 1
20.223927 21.574588 25.775258 39.227975 0.817701 0.853880 0.102001 -0.016353 -441939.000000 0 0 1
19.449127 22.726888 25.729778 39.456324 0.862958 0.860435 0.089671 -0.027174 178033.000000 0 0 1
20.254927 23.887188 26.021128 40.718042 0.867499 0.877525 0.094325 -0.024193 423366.000000 0 0 1
19.444227 25.213888 26.017328 41.118360 0.913883 0.885707 0.106758 -0.024571 108411.000000 0 0 1
19.250127 25.611488 24.698588 40.454122 0.926259 0.914063 0.103419 -0.028201 -7369.980000 0 0 1
18.348527 26.672188 24.572998 40.643650 0.968219 0.921537 0.103967 -0.037576 -364228.000000 0 0 1
18.414027 27.522488 23.319908 40.501628 0.981143 0.957242 0.081063 -0.036637 -719104.000000 0 0 1
19.602127 28.218688 23.188348 41.451625 0.963670 0.977126 0.092526 -0.035487 -769334.000000 0 0 1
19.576827 29.149888 22.092238 41.485360 0.979392 1.009208 0.081979 -0.032491 775082.000000 0 0 1
20.894827 30.010188 21.887038 42.617457 0.962586 1.031456 0.083212 -0.024184 647247.000000 0 0 1
22.012727 29.185788 21.544738 42.432843 0.924595 1.038240 0.086631 -0.024264 -381092.000000 0 0 1
23.073327 30.006888 21.165038 43.367622 0.915287 1.060956 0.086880 -0.025744 -374306.000000 0 0 1
23.282727 30.157588 19.623038 42.855911 0.913341 1.095183 0.070663 -0.020810 51090.600000 0 0 1
22.149427 30.720488 18.953938 42.350883 0.946116 1.106778 0.054695 -0.013234 483954.000000 0 0 1
22.339027 30.781388 17.538638 41.882333 0.943009 1.138717 0.063908 -0.005069 -468155.000000 0 0 1
22.085827 32.154788 16.850838 42.493116 0.968944 1.163036 0.076464 -0.013975 35828.000000 0 0 1
23.154527 33.063088 17.118638 43.844586 0.959860 1.169688 0.073561 -0.011832 470594.000000 0 0 1
23.384327 34.004288 16.104238 44.299716 0.968382 1.198743 0.072805 -0.008959 28023.400000 0 0 1
24.425127 33.579888 15.021738 44.157087 0.941934 1.223679 0.059328 -0.010340 -451731.000000 0 0 1
24.117827 32.518888 14.121038 42.878332 0.932657 1.235204 0.074231 -0.018789 48672.000000 0 0 1
23.322127 32.983788 13.027538 42.444890 0.955335 1.258832 0.059103 -0.013272 79419.800000 0 0 1
22.755327 31.858688 12.167938 40.998044 0.950565 1.269464 0.053134 -0.025560 228093.000000 0 0 1
23.733127 31.213888 11.357938 40.823656 0.920711 1.288856 0.059043 -0.048189 418250.000000 0 0 1
23.067827 30.110188 10.795938 39.437297 0.917062 1.293507 0.057766 -0.045853 -314002.000000 0 0 1
24.064627 29.241188 10.028838 39.175642 0.882205 1.311918 0.066886 -0.043153 1223210.000000 0 0 1
25.147027 28.504288 10.679638 39.483187 0.847892 1.296899 0.074161 -0.038738 901755.000000 0 0 1
26.153527 29.312988 11.200438 40.849823 0.842298 1.293053 0.071971 -0.038057 -211369.000000 0 0 1
27.607727 28.772488 11.400838 41.473145 0.806054 1.292314 0.083751 -0.035031 870556.000000 0 0 1
27.649727 27.754588 12.363138 41.081282 0.787291 1.265115 0.088161 -0.031605 -580430.000000 0 0 1
28.958927 27.584688 12.811438 41.996041 0.761099 1.260792 0.091863 -0.017175 -416013.000000 0 0 1
29.253027 26.533588 13.918438 41.874740 0.736690 1.231968 0.084141 -0.016287 -259830.000000 0 0 1
30.456227 26.792188 14.584738 43.105890 0.721483 1.225637 0.071263 -0.014398 -225825.000000 0 0 1
30.734227 25.825188 15.558938 43.053613 0.698821 1.201043 0.079292 -0.012086 903839.000000 0 0 1
32.006227 26.229688 16.423038 44.520909 0.686530 1.192989 0.083646 -0.015114 1872490.000000 0 0 1
33.268327 26.190688 15.709738 45.161152 0.666922 1.215509 0.097205 -0.014092 1106530.000000 0 0 1
34.328927 26.454888 16.624638 46.418907 0.656574 1.204517 0.094454 -0.015633 1068510.000000 0 0 1
35.802727 26.470688 16.097538 47.346207 0.636649 1.223883 0.115270 -0.022217 908569.000000 0 0 1
36.000227 27.584488 15.238438 47.844857 0.653808 1.246653 0.110586 -0.017958 -287249.000000 0 0 1
-36.638425 28.029288 15.320838 48.608057 -0.653048 1.250138 0.116195 -0.014501 -36761.300000 0 0 1
-36.471425 29.285288 14.398538 48.939870 -0.676546 1.272169 0.103628 -0.012569 99122.200000 0 0 1
36.765427 30.408288 14.865838 49.973531 0.691042 1.268750 0.107273 -0.013381 133348.000000 0 0 1
36.525527 31.320488 13.772038 50.047539 0.708830 1.292020 0.091337 -0.005511 339632.000000 0 0 1
35.436427 32.304588 14.314538 50.042310 0.739199 1.280696 0.085625 -0.009251 -503311.000000 0 0 1
35.461727 33.522488 13.579938 50.652799 0.757294 1.299378 0.056897 -0.018970 416887.000000 0 0 1
34.294727 -33.824530 13.769538 50.098177 -0.778496 1.292362 0.056789 -0.015683 917671.000000 0 0 1
32.960427 33.775888 13.122838 48.983765 0.797617 1.299582 0.070809 -0.010357 323400.000000 0 0 1
32.313227 32.740988 13.871238 48.047146 0.791974 1.277927 0.066619 -0.017880 928939.000000 0 0 1
31.170527 32.156288 13.185938 46.685090 0.800963 1.284455 0.070466 -0.021415 879250.000000 0 0 1
30.475027 30.963488 13.958938 45.632410 0.793348 1.259913 0.071664 -0.025181 -297955.000000 0 0 1
29.628427 31.388288 14.954838 45.680581 0.814232 1.237269 0.066656 -0.008961 -303513.000000 0 0 1
29.215727 30.323888 15.756238 44.959492 0.804008 1.212740 0.065413 -0.016023 -2766.750000 0 0 1
28.537927 30.794588 17.062238 45.319311 0.823414 1.184792 0.051319 -0.006288 -69630.500000 0 0 1
28.497427 29.742288 18.051938 44.973098 0.806770 1.157758 0.044785 -0.001285 -196820.000000 0 0 1
28.552827 30.285788 19.342138 45.897835 0.814842 1.135789 0.026674 0.003928 3183.070000 0 0 1
28.710827 29.133688 20.420838 45.717546 0.792708 1.107752 0.043812 0.006143 81064.400000 0 0 1
27.564027 28.989488 21.234238 45.288618 0.810598 1.082791 0.048731 -0.006052 -9076.280000 0 0 1
27.745227 28.092488 22.295138 45.343784 0.791617 1.056765 0.045794 -0.008101 -101647.000000 0 0 1
26.480127 27.935288 23.155948 44.919655 0.812133 1.029209 0.055410 -0.012011 151791.000000 0 0 1
25.425827 27.238088 22.458038 43.505742 0.819796 1.028378 0.074797 -0.019566 376749.000000 0 0 1
24.214327 27.176288 23.180948 43.153686 0.842971 1.003716 0.082000 -0.027460 34707.800000 0 0 1
24.092727 26.170488 24.348288 43.106764 0.826712 0.970561 0.081271 -0.025299 -345533.000000 0 0 1
25.067627 26.282888 25.389618 44.314883 0.809060 0.960712 0.066883 -0.019264 338936.000000 0 0 1
24.847627 25.276888 26.384358 44.186650 0.793962 0.930901 0.082864 -0.019675 -454910.000000 0 0 1
26.127127 24.908388 27.155848 45.171835 0.761522 0.925835 0.088299 -0.029010 218101.000000 0 0 1
26.620427 25.899988 28.127808 46.590022 0.771682 0.922624 0.096924 -0.024836 356729.000000 0 0 1
27.326527 26.957288 27.524668 47.233906 0.778596 0.948711 0.062973 -0.015905 -691911.000000 0 0 1
27.651627 28.154588 28.415248 48.628383 0.794411 0.946736 0.034625 -0.009316 -608376.000000 0 0 1
28.741927 27.990988 29.274638 49.664859 0.772163 0.940426 0.043917 -0.008396 -176867.000000 0 0 1
29.105727 29.269088 29.785478 50.901843 0.788197 0.945725 0.037037 -0.015750 430744.000000 0 0 1
30.619127 29.614588 29.850818 52.015634 0.768722 0.959558 0.020047 -0.009324 413521.000000 0 0 1
31.219727 29.813288 28.570818 51.766738 0.762358 0.986138 0.010985 -0.014342 559196.000000 0 0 1
32.639027 29.960088 28.729188 52.804159 0.742629 0.995515 0.020119 -0.013835 591834.000000 0 0 1
33.269227 30.461988 27.426698 52.792026 0.741379 1.024503 0.017911 -0.010123 -607648.000000 0 0 1
32.939427 31.846188 27.199408 53.282205 0.768525 1.035055 0.012090 -0.010421 306759.000000 0 0 1
33.266027 32.240588 25.880048 53.064687 0.769745 1.061334 0.027116 -0.011690 -41353.500000 0 0 1
32.846627 33.722888 25.679468 53.624334 0.798560 1.071421 0.019125 -0.016512 -441797.000000 0 0 1
33.601527 -33.634930 26.535468 54.447243 -0.785895 1.061731 0.045574 -0.023131 -106800.000000 0 0 1
33.195427 -32.287730 26.524038 53.366268 -0.771538 1.050637 0.051271 -0.014801 -117752.000000 0 0 1
34.250027 -31.378130 27.190298 53.823450 -0.741666 1.041211 0.053527 -0.016754 56774.300000 0 0 1
34.347827 -31.548530 28.573768 54.695002 -0.742943 1.021110 0.047589 -0.025959 208586.000000 0 0 1
35.388627 -30.738130 29.081598 55.162732 -0.715187 1.015498 0.055542 -0.025005 -1536.280000 0 0 1
35.271227 -30.586630 30.613568 55.828237 -0.714386 0.990403 0.051744 -0.025417 -207927.000000 0 0 1
35.507627 -31.709530 31.411378 57.034732 -0.728953 0.987544 0.056298 -0.020729 130675.000000 0 0 1
34.413527 -32.595430 31.367648 56.839091 -0.758273 0.986194 0.039129 -0.027708 -343841.000000 0 0 1
34.387827 -33.496530 32.619640 58.039479 -0.772269 0.973964 0.046817 -0.018135 -694987.000000 0 0 1
33.957127 -32.785030 33.758654 58.030953 -0.767838 0.949936 0.044272 -0.021560 289127.000000 0 0 1
34.190027 -33.514630 -33.054758 58.179081 -0.775423 2.175059 0.048342 -0.019250 -5394.990000 0 0 1
33.412327 33.270288 -32.902358 57.496616 0.783268 2.180041 0.052881 -0.021710 -518333.000000 0 0 1
33.769227 32.358188 -33.879818 57.751668 0.764063 2.197708 0.052067 -0.016380 -83572.000000 0 0 1
32.982327 31.198988 -33.833758 56.620967 0.757619 2.211236 0.050172 -0.010604 -64364.400000 0 0 1
33.265727 30.310988 33.007279 55.810797 0.738956 0.937985 0.033991 -0.011774 476988.000000 0 0 1
34.569227 29.721988 33.016065 56.289329 0.710145 0.944013 0.016586 -0.011594 643716.000000 0 0 1
34.695127 28.804288 31.913258 55.243958 0.692893 0.954914 0.014626 -0.010464 60930.700000 0 0 1
35.936227 27.905988 32.178015 55.727742 0.660273 0.955238 0.010245 -0.007074 167926.000000 0 0 1
35.747027 26.879288 33.072138 55.624746 0.644736 0.934080 0.013441 -0.001715 -70180.800000 0 0 1
36.967727 26.376388 33.537402 56.454265 0.619727 0.934696 0.011895 -0.005816 -281814.000000 0 0 1
36.783927 25.026988 -33.799308 55.873076 0.597435 2.220474 0.013772 0.001611 16542.300000 0 0 1
36.595027 24.019488 33.274824 54.984959 0.580833 0.920827 0.009005 0.006342 36956.500000 0 0 1
36.240827 22.776388 33.841465 54.565614 0.561093 0.901802 0.028084 -0.014050 -522764.000000 0 0 1
35.890027 21.692088 32.819854 53.252076 0.543652 0.906746 0.020094 -0.017358 262441.000000 0 0 1
36.948027 21.373888 31.900418 53.288240 0.524450 0.928995 0.027684 -0.011669 631523.000000 0 0 1
36.555927 20.267988 31.107148 52.103568 0.506244 0.931008 0.032943 -0.007293 453011.000000 0 0 1
-36.184925 19.745288 30.324348 51.174127 -0.499518 0.936548 0.034050 -0.026413 440631.000000 0 0 1
-35.641825 20.429088 29.195088 50.398814 -0.520463 0.952950 0.027115 -0.020418 656864.000000 0 0 1
-34.531725 19.792588 28.542038 48.977898 -0.520459 0.948684 0.038486 -0.016528 705195.000000 0 0 1
-35.036225 18.641988 27.573898 48.325776 -0.488979 0.963580 0.051935 -0.014954 102395.000000 0 0 1
-35.603025 17.549888 28.282638 48.738912 -0.457978 0.951713 0.041096 -0.015313 142332.000000 0 0 1
-36.220325 16.625788 27.418738 48.374745 -0.430328 0.968182 0.074545 -0.027426 -283256.000000 0 0 1
-36.827225 15.510488 28.272628 48.950600 -0.398621 0.955042 0.067773 -0.025066 -8352.480000 0 0 1
-35.814725 14.630388 28.778558 48.217717 -0.387814 0.931232 0.063572 -0.026506 558203.000000 0 0 1
-36.340125 13.780288 29.775888 48.960234 -0.362450 0.917050 0.055876 -0.032583 -176517.000000 0 0 1
-35.477025 12.534288 30.067748 48.164273 -0.339618 0.896593 0.058704 -0.026141 382444.000000 0 0 1
-34.272425 12.881388 30.735488 47.803760 -0.359518 0.872451 0.057682 -0.016940 427656.000000 0 0 1
-33.427525 11.817688 31.085598 47.152641 -0.339818 0.850969 0.067709 -0.019964 617811.000000 0 0 1
-31.889925 12.094888 30.989378 46.082482 -0.362509 0.833247 0.083594 -0.015785 25817.400000 0 0 1
-31.368125 12.001788 29.660608 44.807966 -0.365427 0.847380 0.076441 -0.023467 610993.000000 0 0 1
-30.022725 12.474788 29.532058 43.921826 -0.393806 0.833380 0.071685 -0.018741 1153570.000000 0 0 1
-28.934425 11.394388 29.905638 43.143716 -0.375150 0.804928 0.079115 -0.017645 22560.600000 0 0 1
-28.809225 10.419488 28.962008 42.158452 -0.347035 0.813472 0.079818 -0.024455 -67792.800000 0 0 1
-27.610425 9.721288 29.225828 41.364091 -0.338533 0.786184 0.069433 -0.026166 -94317.600000 0 0 1
-27.371525 8.518988 28.279958 40.268220 -0.301732 0.792187 0.069218 -0.025398 718763.000000 0 0 1
-28.240425 7.364888 28.475238 40.775021 -0.255110 0.797707 0.076892 -0.022806 -128855.000000 0 0 1
-29.556125 7.533388 28.057018 41.442885 -0.249570 0.827111 0.091232 -0.020014 -1114420.000000 0 0 1
-30.351525 6.253388 27.927988 41.716813 -0.203189 0.837307 0.096453 -0.023803 -245951.000000 0 0 1
-30.753325 5.697688 29.157788 42.759879 -0.183193 0.820445 0.097687 -0.021474 -141405.000000 0 0 1
-31.468025 4.510588 28.925388 42.979764 -0.142369 0.832539 0.108093 -0.027640 190019.000000 0 0 1
-32.300225 4.110988 30.220308 44.423775 -0.126594 0.822661 0.097212 -0.017918 148057.000000 0 0 1
-33.362625 4.981988 30.551198 45.511105 -0.148233 0.834847 0.109576 -0.026251 -123020.000000 0 0 1
-33.935025 4.565288 31.804708 46.732935 -0.133727 0.822266 0.105150 -0.020895 946342.000000 0 0 1
-35.442825 4.970588 31.968088 47.988116 -0.139334 0.841739 0.093882 -0.015320 721370.000000 0 0 1
-35.608425 6.305888 32.234988 48.443974 -0.175273 0.842757 0.100673 -0.020856 -649877.000000 0 0 1
-36.977625 6.575488 32.294540 49.533010 -0.175984 0.860603 0.089402 -0.017798 -348511.000000 0 0 1
36.663827 8.044088 32.629300 49.735448 0.215979 0.855214 0.080478 -0.021448 -364649.000000 0 0 1
36.980127 8.479088 33.948085 50.910679 0.225392 0.840868 0.081841 -0.024936 204663.000000 0 0 1
36.824927 9.899188 -33.854278 50.991973 0.262609 2.296837 0.078766 -0.027771 -164193.000000 0 0 1
36.677927 10.138788 -32.353018 49.947804 0.269693 2.275406 0.071554 -0.025230 -634814.000000 0 0 1
35.536127 9.595788 -31.771358 48.624219 0.263739 2.282871 0.076313 -0.018060 -531533.000000 0 0 1
35.383827 9.963388 -30.399898 47.701553 0.274473 2.261778 0.056324 -0.008089 -541926.000000 0 0 1
34.176827 9.365688 -29.713668 46.245797 0.267470 2.268574 0.042432 -0.004396 -455054.000000 0 0 1
34.217027 7.961988 -29.567388 45.917629 0.228623 2.270410 0.026442 -0.011440 1181040.000000 0 0 1
32.901427 7.452388 -29.212468 44.625220 0.222748 2.284473 0.047571 -0.015788 1079190.000000 0 0 1
35.801129 5.892488 -19.397218 41.142367 0.163127 2.061748 0.040285 -0.002437 -511667.000000 0 0 1
35.432549 6.857988 -18.445918 40.530846 0.191187 2.043290 0.037590 0.003175 256562.000000 0 0 1
35.865289 8.193788 -18.674018 41.257437 0.224605 2.040500 0.020895 -0.002483 534107.000000 0 0 1
-36.589973 8.503288 -18.338418 41.802268 -0.228341 2.024942 0.037876 -0.005480 1313350.000000 0 0 1
-35.676969 7.708888 -19.116718 41.203422 -0.212803 2.053256 0.050689 -0.016440 159403.000000 0 0 1
-35.252215 8.377788 -20.290118 41.528242 -0.233324 2.081265 0.044924 -0.011697 -829428.000000 0 0 1
-34.388720 7.426888 -21.057118 41.001767 -0.212702 2.110132 0.031874 -0.004950 -237721.000000 0 0 1
-35.126244 6.401288 -21.759218 41.812594 -0.180259 2.118114 0.027217 0.001058 1029740.000000 0 0 1
-35.952408 6.790988 -22.885418 43.155944 -0.186689 2.129746 0.017434 0.007958 480044.000000 0 0 1
-36.119743 5.668288 -23.902718 43.681864 -0.155661 2.149812 0.025895 0.002616 36362.800000 0 0 1
-35.013482 5.585088 -24.785318 43.260249 -0.158180 2.180879 0.044833 -0.006563 67025.800000 0 0 1
-34.935751 4.303888 -25.339128 43.371668 -0.122577 2.194730 0.068903 -0.008167 34892.100000 0 0 1
-33.586533 4.070888 -26.046918 42.697415 -0.120618 2.226901 0.090312 -0.013029 97941.100000 0 0 1
-32.433523 4.158888 -25.246348 41.311110 -0.127532 2.228280 0.085027 -0.016723 609337.000000 0 0 1
-31.246433 3.873988 -26.030068 40.852317 -0.123352 2.261623 0.108476 -0.017279 460832.000000 0 0 1
-29.940013 4.255488 -25.370548 39.473767 -0.141188 2.268839 0.111250 -0.024140 -580110.000000 0 0 1
-29.524353 5.618288 -25.515498 39.424526 -0.188045 2.274700 0.080125 -0.015731 -74627.100000 0 0 1
-28.236233 5.763888 -24.967418 38.129768 -0.201364 2.284716 0.085019 -0.015503 62465.000000 0 0 1
-27.615313 7.202788 -25.006618 37.944915 -0.255141 2.290317 0.062012 -0.014073 -16433.500000 0 0 1
-28.231753 8.123688 -24.135018 38.020064 -0.280181 2.258542 0.068724 -0.013049 -108268.000000 0 0 1
-27.717513 9.444788 -24.236518 38.011490 -0.328412 2.262189 0.037042 -0.002170 281937.000000 0 0 1
-26.338843 9.667988 -23.560418 36.637384 -0.351793 2.269297 0.061099 -0.005352 -2780.150000 0 0 1
-26.360703 9.835788 -22.156918 35.812824 -0.357124 2.237866 0.044024 -0.006248 514659.000000 0 0 1
-25.046873 9.785688 -21.591818 34.486405 -0.372459 2.247333 0.080503 -0.020214 187546.000000 0 0 1
-24.911373 10.520688 -20.237518 33.776005 -0.399602 2.213258 0.092780 -0.025508 -892453.000000 0 0 1
-25.086173 11.929288 -20.230318 34.364076 -0.443883 2.200253 0.080490 -0.029340 542056.000000 0 0 1
-26.390803 12.470888 -20.361118 35.588940 -0.441445 2.179884 0.064931 -0.019156 543371.000000 0 0 1
-27.562973 12.028688 -19.422218 35.799851 -0.411493 2.144233 0.064649 -0.015634 -40615.500000 0 0 1
-27.098763 12.117888 -18.085518 34.760209 -0.420502 2.117991 0.060553 -0.024091 491759.000000 0 0 1
-28.117483 11.690188 -17.210218 34.977778 -0.394020 2.085220 0.062162 -0.026681 -346585.000000 0 0 1
-27.575083 11.599888 -15.750218 33.808460 -0.398194 2.055410 0.082704 -0.034040 499457.000000 0 0 1
-26.746683 10.430888 -15.564018 32.656196 -0.371846 2.067582 0.104848 -0.041026 806603.000000 0 0 1
-25.372673 10.685188 -15.812918 31.748924 -0.398588 2.092158 0.103071 -0.036102 -497472.000000 0 0 1
-24.561073 9.384888 -15.832318 30.691770 -0.364984 2.112795 0.090577 -0.036066 -88381.300000 0 0 1
-23.181573 9.503188 -15.534618 29.479150 -0.389051 2.125827 0.085454 -0.038405 226334.000000 0 0 1
-22.632873 8.201488 -15.540418 28.653376 -0.347653 2.144039 0.089556 -0.043138 39486.700000 0 0 1
-21.103073 8.088388 -15.315318 27.300562 -0.366010 2.166376 0.133711 -0.046930 -11386.200000 0 0 1
-20.406873 8.730088 -16.355718 27.571079 -0.404241 2.205849 0.146618 -0.057810 -172554.000000 0 0 1
-19.024973 8.655488 -16.107018 26.387556 -0.426966 2.227364 0.162171 -0.050636 -251665.000000 0 0 1
-18.091073 9.223688 -17.223918 26.627555 -0.471495 2.274237 0.118573 -0.044466 234439.000000 0 0 1
-17.767173 8.395688 -18.364818 26.896590 -0.441439 2.322376 0.162720 -0.050998 472226.000000 0 0 1
-16.915673 7.275988 -18.116718 25.832063 -0.406210 2.348053 0.170955 -0.048795 -361375.000000 0 0 1
-16.408273 6.612688 -19.368918 26.231928 -0.383098 2.401449 0.160141 -0.046051 -527022.000000 0 0 1
-17.351973 5.900188 -20.073918 27.182078 -0.327765 2.401637 0.149461 -0.037332 -356672.000000 0 0 1
-18.176273 6.601088 -20.987018 28.537803 -0.348360 2.397070 0.136104 -0.040954 371605.000000 0 0 1
-19.262173 5.718888 -21.681418 29.560461 -0.288608 2.394195 0.129340 -0.024963 -370368.000000 0 0 1
-20.253473 5.231188 -20.869218 29.548143 -0.252762 2.355024 0.131895 -0.028019 -69666.000000 0 0 1
-20.976873 4.172188 -21.552418 30.363515 -0.196333 2.360029 0.091430 -0.004339 741228.000000 0 0 1
-22.038673 3.418388 -20.634218 30.383539 -0.153882 2.317366 0.101025 -0.019719 369155.000000 0 0 1
-22.420773 2.186088 -21.112818 30.874279 -0.097196 2.323798 0.121491 -0.012073 199397.000000 0 0 1
-23.166373 1.487888 -20.154218 30.742270 -0.064138 2.285755 0.111217 -0.018444 -484838.000000 0 0 1
-23.841873 0.164988 -20.597118 31.507196 -0.006920 2.283296 0.110636 -0.009613 39817.900000 0 0 1
-22.966273 -0.961112 -20.563018 30.841711 0.041824 2.300606 0.094177 -0.016718 549441.000000 0 0 1
-23.651773 -2.202712 -20.858218 31.612079 0.092863 2.291373 0.100447 -0.020963 15712.100000 0 0 1
-24.079873 -2.406512 -22.372918 32.957230 0.099608 2.316988 0.101017 -0.025693 -198879.000000 0 0 1
-23.050373 -2.390312 -23.314918 32.872765 0.103330 2.359226 0.081288 -0.023946 -297946.000000 0 0 1
-22.233473 -3.551912 -23.319218 32.414955 0.158417 2.373730 0.082195 -0.030977 -227692.000000 0 0 1
-21.119773 -3.464212 -24.344218 32.414295 0.162579 2.420422 0.079649 -0.031499 -335451.000000 0 0 1
-21.693473 -3.637112 -25.621628 33.768375 0.166114 2.432183 0.073109 -0.031109 328915.000000 0 0 1
-20.725173 -4.043912 -26.545558 33.919798 0.192700 2.469624 0.072875 -0.030042 -281874.000000 0 0 1
-21.351673 -4.221012 -27.947118 35.422483 0.195173 2.479920 0.071373 -0.033412 -110107.000000 0 0 1
-22.163873 -5.344912 -28.054948 36.150871 0.236636 2.459177 0.084690 -0.034809 226163.000000 0 0 1
-23.060773 -5.279812 -29.158388 37.548465 0.225073 2.459973 0.056445 -0.032620 -34921.500000 0 0 1
-22.817973 -6.360612 -30.209638 38.389315 0.271853 2.476611 0.073453 -0.029029 238219.000000 0 0 1
-21.496773 -6.201012 -30.718288 38.002329 0.280839 2.512100 0.067146 -0.029908 764527.000000 0 0 1
-20.761573 -7.390412 -31.043908 38.070794 0.341980 2.524261 0.078936 -0.023928 -310777.000000 0 0 1
-19.453173 -7.050712 -31.750828 37.897936 0.347719 2.564035 0.084647 -0.026621 -677094.000000 0 0 1
-19.532773 -6.754912 -33.115648 39.035935 0.332950 2.583634 0.083666 -0.033051 344503.000000 0 0 1
-19.715973 -7.884512 -33.989858 40.077370 0.380424 2.583197 0.078151 -0.025034 -656229.000000 0 0 1
-19.516973 -7.429912 32.548408 38.671885 0.363750 0.570455 0.079584 -0.027182 -8216.590000 0 0 1
-18.192773 -7.252712 32.083975 37.589364 0.379350 0.548057 0.085781 -0.028463 -35933.000000 0 0 1
-17.648973 -6.041412 32.495502 37.469222 0.329807 0.521127 0.086488 -0.029614 -829261.000000 0 0 1
-16.315873 -5.737512 31.812318 36.209810 0.338146 0.497967 0.078186 -0.028330 -404537.000000 0 0 1
-16.365973 -5.863012 30.374868 34.997894 0.344000 0.519826 0.074591 -0.032313 -422370.000000 0 0 1
-15.231773 -5.354812 29.757458 33.855387 0.338060 0.497124 0.067757 -0.030267 -521482.000000 0 0 1
-15.355873 -5.407612 28.187888 32.551531 0.338591 0.523756 0.052869 -0.020433 417855.000000 0 0 1
-16.264373 -4.386712 27.719448 32.436721 0.263444 0.546074 0.047598 -0.027832 308170.000000 0 0 1
-16.512473 -4.428712 26.341228 31.402795 0.262037 0.575688 0.039222 -0.026618 313546.000000 0 0 1
-15.404973 -3.945312 25.329608 29.907653 0.250718 0.560617 0.039879 -0.021138 428189.000000 0 0 1
-15.246473 -2.541612 25.335088 29.677962 0.165183 0.547811 0.032084 -0.008005 -288188.000000 0 0 1
-14.329373 -2.100812 24.388758 28.364694 0.145572 0.535864 0.027259 -0.005280 -640468.000000 0 0 1
-14.296573 -0.565212 24.225378 28.135039 0.039514 0.533486 0.020874 -0.001531 -504615.000000 0 0 1
-15.310873 0.059988 23.510538 28.056583 -0.003918 0.577246 0.030260 -0.008940 -497598.000000 0 0 1
-15.280073 1.435588 23.940918 28.437811 -0.093677 0.570059 0.012383 -0.004538 -7579.770000 0 0 1
-16.071373 2.460188 23.093988 28.243120 -0.151900 0.613418 0.014938 -0.004382 -61688.300000 0 0 1
-15.388773 2.741688 21.901538 26.907407 -0.176312 0.619861 0.016748 0.001041 127427.000000 0 0 1
-16.006973 3.755788 21.150038 26.789051 -0.230466 0.660797 0.024005 -0.002545 59926.200000 0 0 1
-15.006773 4.569388 20.279438 25.638607 -0.295569 0.658399 0.029292 0.003490 -85785.400000 0 0 1
-14.089473 5.317688 21.027438 25.863956 -0.360893 0.621507 0.015216 0.005313 624283.000000 0 0 1
-12.987973 5.611688 20.127138 24.602442 -0.407842 0.612705 0.024837 0.005053 1144810.000000 0 1 0
-12.003673 6.748388 20.560438 24.745919 -0.512157 0.590142 0.025724 0.007401 758814.000000 0 1 0
-12.647073 8.009588 20.332738 25.249202 -0.564557 0.634645 0.028186 0.003687 265708.000000 0 0 1
-11.771773 9.019388 20.702338 25.465875 -0.653781 0.621606 0.036253 0.002954 -243734.000000 0 0 1
-12.358673 10.429288 20.583938 26.176428 -0.700933 0.665912 0.024294 0.007756 -157772.000000 0 0 1
-12.813973 10.888688 19.317838 25.611332 -0.704350 0.716256 0.034386 0.002316 303249.000000 0 0 1
-13.342073 12.186088 19.349338 26.474677 -0.740146 0.751212 0.009482 0.003156 -336992.000000 0 0 1
-13.622573 12.788988 17.959238 25.916538 -0.753847 0.805204 0.010803 -0.000234 -740974.000000 0 0 1
-12.513773 13.401388 17.391838 25.271877 -0.819636 0.811806 0.014842 -0.004268 -380207.000000 0 0 1
-12.215173 14.786788 17.839938 26.193949 -0.880350 0.821572 0.026339 -0.014849 -298397.000000 0 0 1
-13.218073 15.936688 17.429138 27.064189 -0.878377 0.871091 0.020999 -0.005549 206752.000000 0 0 1
-13.233273 16.277488 16.054238 26.416182 -0.888191 0.917581 0.020677 -0.017095 163498.000000 0 0 1
-13.669473 15.189288 15.175138 25.452972 -0.838013 0.932033 0.040733 -0.020743 -182112.000000 0 0 1
-14.181873 15.720488 13.798838 25.271866 -0.836807 0.993195 0.033234 -0.027662 -431910.000000 0 0 1
-15.342973 16.461388 13.953638 26.478069 -0.820549 1.015743 0.029997 -0.017093 -680847.000000 0 0 1
-15.793373 16.971388 12.739638 26.452921 -0.821336 1.068321 0.022576 -0.011557 -277710.000000 0 0 1
-16.878473 18.056488 12.830738 27.848653 -0.819106 1.091978 0.037748 -0.012960 106377.000000 0 0 1
-18.135473 17.490588 13.219538 28.452983 -0.767299 1.087602 0.046466 -0.015560 670064.000000 0 0 1
-19.132973 18.530888 13.361138 29.799068 -0.769414 1.105851 0.051037 -0.017097 -370961.000000 0 0 1
-20.484873 17.935388 13.648838 30.456509 -0.719137 1.106111 0.062016 -0.014380 -787471.000000 0 0 1
-21.042273 17.326088 12.504638 29.988940 -0.688844 1.140682 0.059407 -0.018353 974797.000000 0 0 1
-22.437873 16.990888 12.693838 30.875264 -0.648120 1.147100 0.094612 -0.025835 1551490.000000 0 0 1
-23.237973 16.243088 11.558338 30.617584 -0.610047 1.183694 0.102617 -0.020517 78526.800000 0 0 1
-22.766673 14.944088 11.280038 29.476879 -0.580863 1.178107 0.085111 -0.020667 -145618.000000 0 0 1
-23.329873 14.330888 10.163738 29.205460 -0.550848 1.215351 0.096192 -0.020206 -178281.000000 0 0 1
-22.566473 13.028688 9.808238 27.842305 -0.523596 1.210792 0.096267 -0.018892 -220543.000000 0 0 1
-22.778973 11.936488 10.628838 27.826849 -0.482673 1.178876 0.099021 -0.023683 494490.000000 0 0 1
-24.075673 11.347488 10.757638 28.707669 -0.440446 1.186690 0.131766 -0.019489 691004.000000 0 0 1
-24.823573 10.683088 9.548038 28.661877 -0.406402 1.231179 0.143080 -0.014394 -157686.000000 0 0 1
-25.328743 11.687588 8.662938 29.209441 -0.432323 1.269687 0.147744 -0.022376 214480.000000 0 0 1
-26.246233 11.070788 7.765738 29.525138 -0.399161 1.304644 0.182213 -0.030621 -102163.000000 0 0 1
-26.817043 12.103588 6.709538 30.177285 -0.423967 1.346585 0.154707 -0.018135 9104.140000 0 0 1
-25.964053 12.421488 5.608938 29.323806 -0.446228 1.378334 0.145760 -0.026647 428029.000000 0 0 1
-24.775673 13.131088 5.882438 28.650698 -0.487358 1.364010 0.144627 -0.028341 -300331.000000 0 0 1
-24.914173 14.651288 6.181038 29.556412 -0.531602 1.360114 0.135510 -0.029318 464626.000000 0 0 1
-23.641773 15.264988 6.509338 28.884680 -0.573331 1.343488 0.127615 -0.023942 1227870.000000 0 0 1
-23.728573 16.646088 6.768338 29.764876 -0.611746 1.341396 0.119755 -0.029430 973659.000000 0 0 1
-22.240773 17.186188 6.826438 28.924337 -0.657892 1.332538 0.112923 -0.020853 1127900.000000 0 0 1
-21.629073 17.382888 5.570038 28.302065 -0.676982 1.372696 0.112739 -0.033155 -264538.000000 0 0 1
-20.373073 17.947488 5.716338 27.746188 -0.722185 1.363288 0.127057 -0.030537 -854932.000000 0 0 1
-19.615773 18.314688 4.428538 27.199601 -0.751110 1.407252 0.118872 -0.030554 147842.000000 0 0 1
-18.240573 18.612888 4.633938 26.469444 -0.795500 1.394822 0.101640 -0.034220 580075.000000 0 0 1
-17.735273 19.451988 3.607938 26.569474 -0.831529 1.434583 0.092670 -0.040083 -41837.900000 0 0 1
-17.678373 21.022788 3.778238 27.726478 -0.871600 1.434103 0.086297 -0.033897 -555908.000000 0 0 1
-16.848073 21.432588 4.807038 27.682504 -0.904591 1.396263 0.059607 -0.030537 -310991.000000 0 0 1
-16.981573 22.847588 5.106838 28.921720 -0.931626 1.393291 0.042240 -0.031368 -589344.000000 0 0 1
-16.233173 23.370788 6.343938 29.153991 -0.963709 1.351440 0.032524 -0.006870 -538501.000000 0 0 1
-16.813173 23.088788 7.568738 29.547601 -0.941396 1.311755 0.044534 -0.010876 -294684.000000 0 0 1
-15.980473 23.519288 8.585538 29.702591 -0.973987 1.277562 0.030636 -0.015538 -227453.000000 0 0 1
-16.391973 22.940688 9.912738 29.887026 -0.950380 1.232719 0.024129 -0.005876 476589.000000 0 0 1
-17.524373 23.578288 10.522938 31.205313 -0.931634 1.226838 0.026660 -0.012363 265000.000000 0 0 1
-18.214573 22.588188 11.286138 31.134769 -0.892180 1.199855 0.029432 -0.009505 304094.000000 0 0 1
-19.533073 23.119588 11.927238 32.531758 -0.869287 1.195408 0.042460 -0.014074 818979.000000 0 0 1
-20.629573 23.559388 11.133838 33.235318 -0.851603 1.229191 0.064762 -0.011235 596639.000000 0 0 1
-20.353673 24.843988 10.601338 33.821356 -0.884422 1.251971 0.032728 -0.003706 -595007.000000 0 0 1
-21.568773 25.581388 9.998038 34.922488 -0.870296 1.280441 0.055994 -0.005929 239016.000000 0 0 1
-22.335973 26.267788 11.007838 36.194818 -0.866118 1.261774 0.074768 -0.024298 389557.000000 0 0 1
-23.269473 27.152388 10.415338 37.245131 -0.862255 1.287374 0.089023 -0.019019 23674.700000 0 0 1
-24.169673 27.890188 11.454838 38.642580 -0.856743 1.269843 0.093870 -0.024135 -145983.000000 0 0 1
-23.434073 28.709788 12.347838 39.062473 -0.886231 1.249175 0.098538 -0.025913 27721.800000 0 0 1
-24.229373 29.531488 13.130938 40.392980 -0.883704 1.239700 0.099820 -0.022902 -466316.000000 0 0 1
9.323727 -32.314930 27.871788 43.680925 -1.289898 0.878798 0.058804 -0.022999 454380.000000 0 0 1
10.721027 -32.216230 27.592558 43.751288 -1.249541 0.888382 0.065261 -0.019809 781555.000000 0 0 1
10.888027 -32.211930 26.226458 42.941643 -1.244841 0.913793 0.064672 -0.019382 -1335540.000000 0 0 1
12.356327 -32.196330 25.927238 43.145153 -1.204350 0.926132 0.030663 -0.012533 -1319460.000000 0 0 1
12.890227 -33.514430 25.987168 44.325026 -1.203621 0.944329 0.045630 -0.015741 551807.000000 0 0 1
14.311127 -33.573430 25.928538 44.769104 -1.167856 0.953097 0.062266 -0.015115 379381.000000 0 0 1
14.894427 33.127688 25.801848 44.553598 1.148270 0.953148 0.096562 -0.018249 -158592.000000 0 0 1
14.886327 32.525788 24.507748 43.360804 1.141576 0.970114 0.078000 -0.017751 -261810.000000 0 0 1
15.773927 31.477488 24.437298 42.858262 1.106255 0.964061 0.093261 -0.026897 -820213.000000 0 0 1
15.903227 30.937788 23.014638 41.710106 1.095981 0.986304 0.087502 -0.028828 -939225.000000 0 0 1
14.811727 30.329688 22.408738 40.514550 1.116506 0.984712 0.082702 -0.028321 -555750.000000 0 0 1
14.741427 28.891188 22.518238 39.485206 1.098991 0.963931 0.087397 -0.026071 -222424.000000 0 0 1
14.329927 28.446388 23.935818 39.843032 1.104152 0.926354 0.105815 -0.036966 -910106.000000 0 0 1
15.406627 28.448288 24.807358 40.768545 1.074451 0.916637 0.101895 -0.033337 -332614.000000 0 0 1
14.976327 28.090988 26.094698 41.162207 1.080992 0.884149 0.109134 -0.037389 -311146.000000 0 0 1
16.026927 28.208888 27.223558 42.352401 1.054124 0.872666 0.114273 -0.044569 -176696.000000 0 0 1
16.360827 29.507988 27.461318 43.503127 1.064540 0.887633 0.128678 -0.046049 207780.000000 0 0 1
17.280627 29.560788 28.556468 44.586233 1.041793 0.875677 0.121958 -0.045458 267854.000000 0 0 1
17.319927 30.922288 29.335838 46.008251 1.060223 0.879390 0.116272 -0.055494 -79863.100000 0 0 1
17.874027 31.941188 28.488648 46.382361 1.060619 0.909408 0.097725 -0.038399 265192.000000 0 0 1
17.402327 33.272588 28.822608 47.335493 1.088900 0.916122 0.110725 -0.022379 396780.000000 0 0 1
18.102027 -33.676630 28.000348 47.390066 -1.077581 0.938686 0.079851 -0.021828 -96331.000000 0 0 1
17.739827 -33.674830 26.643128 46.460219 -1.085941 0.960072 0.083766 -0.021016 -188327.000000 0 0 1
17.916927 -32.409230 26.010198 45.253783 -1.065780 0.958482 0.076259 -0.012450 -86387.000000 0 0 1
19.333927 -31.771930 25.850988 45.293818 -1.024134 0.963390 0.065141 -0.006463 100296.000000 0 0 1
19.747427 -31.050530 26.961618 45.618255 -1.004342 0.938465 0.054100 -0.006940 -328794.000000 0 0 1
20.584927 -30.008030 26.587868 45.068125 -0.969541 0.939801 0.042167 -0.003221 -278140.000000 0 0 1
21.047327 -29.091630 27.748318 45.379314 -0.944483 0.912873 0.046518 -0.009190 -988112.000000 0 0 1
19.982727 -28.392930 28.249878 44.760736 -0.957530 0.887786 0.054379 -0.010308 -677884.000000 0 0 1
20.272927 -27.520530 29.355538 45.056840 -0.935896 0.861207 0.063610 -0.008537 -561531.000000 0 0 1
19.006327 -26.947130 29.978458 44.565640 -0.956509 0.832970 0.065923 -0.007000 -130185.000000 0 0 1
18.380327 -25.966130 29.121748 43.129486 -0.954816 0.829538 0.069046 -0.007911 -12392.600000 0 0 1
17.206527 -25.492830 29.742718 42.785258 -0.977077 0.802150 0.070410 -0.007133 -134765.000000 0 0 1
16.264027 -24.835730 28.695068 41.288486 -0.991009 0.802391 0.061678 -0.007692 -361576.000000 0 0 1
15.552627 -25.745430 27.870218 41.005615 -1.027373 0.823486 0.053683 -0.007410 112824.000000 0 0 1
15.104627 -25.084230 26.711268 39.634079 -1.028793 0.831258 0.048490 -0.015276 -493150.000000 0 0 1
13.673027 -24.465630 26.708128 38.714892 -1.061171 0.809491 0.053990 -0.015947 636672.000000 0 0 1
12.554527 -25.342030 26.795408 38.959319 -1.110833 0.812371 0.046688 -0.013311 403566.000000 0 0 1
12.379727 -26.124730 25.677548 38.666467 -1.128270 0.844536 0.037804 -0.015724 -1209200.000000 0 0 1
11.578727 -27.376430 25.816558 39.370427 -1.170667 0.855641 0.035740 -0.022185 -1280400.000000 0 0 1
10.243427 -27.244930 26.132348 39.116667 -1.211171 0.839195 0.046169 -0.027271 -1174090.000000 0 0 1
9.659627 -28.509130 26.209158 39.912390 -1.244111 0.854405 0.050479 -0.024961 387084.000000 0 0 1
8.188427 -28.490830 26.800688 39.963166 -1.290934 0.835732 0.041205 -0.029533 1303390.000000 0 0 1
7.124527 -28.161430 25.918378 38.930546 -1.323007 0.842285 0.052159 -0.034557 136960.000000 0 0 1
7.162627 -26.854430 25.398878 37.650587 -1.310144 0.830381 0.079508 -0.039249 -2032520.000000 0 0 1
5.874527 -26.507130 24.720358 36.718308 -1.352701 0.832210 0.074237 -0.044833 -1693700.000000 0 0 1
5.744927 -27.133830 23.484298 36.342279 -1.362152 0.868205 0.065154 -0.035335 287379.000000 0 0 1
5.049027 -28.412030 23.564798 37.256353 -1.394925 0.886014 0.066296 -0.033090 -381813.000000 0 0 1
3.569127 -28.350630 23.952988 37.285957 -1.445563 0.873153 0.088487 -0.035608 -1916630.000000 0 0 1
2.726227 -28.171430 22.859138 36.381342 -1.474324 0.891404 0.091382 -0.028084 413784.000000 0 0 1
1.376727 -27.825430 23.213458 36.263130 -1.521359 0.876117 0.099724 -0.032344 690124.000000 0 0 1
1.138727 -26.420230 23.751268 35.545014 -1.527722 0.839006 0.098250 -0.031535 -745337.000000 0 0 1
1.634227 -26.193630 25.059538 36.287153 -1.508487 0.808492 0.088322 -0.029703 -124381.000000 0 0 1
1.718627 -24.789930 25.235968 35.416782 -1.501579 0.777681 0.084664 -0.028307 -538606.000000 0 0 1
2.838127 -24.324330 26.165118 35.837710 -1.454643 0.752328 0.088526 -0.021137 -1379730.000000 0 0 1
4.027027 -24.133330 25.473748 35.320623 -1.405454 0.765242 0.084893 -0.025334 -706216.000000 0 0 1
4.911027 -23.276930 26.201488 35.389994 -1.362863 0.737184 0.081004 -0.021230 189496.000000 0 0 1
4.469427 -21.782330 26.366438 34.491082 -1.368419 0.700621 0.068342 -0.014515 -702627.000000 0 0 1
4.379527 -21.096830 25.121048 33.095673 -1.366112 0.708954 0.068277 -0.019556 83946.100000 0 0 1
3.680127 -19.887830 25.310578 32.398989 -1.387822 0.674186 0.073699 -0.027330 57848.000000 0 0 1
3.499627 -19.076130 23.963128 30.828196 -1.389358 0.680414 0.093850 -0.032046 342601.000000 0 0 1
4.672527 -18.342130 23.645188 30.287971 -1.321359 0.675044 0.095520 -0.030370 -42897.100000 0 0 1
4.682327 -17.909730 22.286238 28.971694 -1.315080 0.693143 0.102405 -0.035298 -451218.000000 0 0 1
5.953427 -17.284930 21.720338 28.389879 -1.239093 0.699641 0.085920 -0.024639 114946.000000 0 0 1
7.090527 -18.126130 21.849138 29.261186 -1.197919 0.727719 0.068808 -0.030087 525246.000000 0 0 1
8.321527 -17.499830 21.460838 28.914693 -1.126923 0.734431 0.066480 -0.027908 464003.000000 0 0 1
9.482727 -17.752330 22.419238 30.127887 -1.080189 0.731556 0.068366 -0.017181 -344499.000000 0 0 1
9.296227 -17.152430 23.712658 30.706935 -1.074133 0.688461 0.059369 -0.019609 -344374.000000 0 0 1
10.461927 -17.305930 24.460998 31.737794 -1.027054 0.690824 0.068858 -0.012226 -281934.000000 0 0 1
10.617327 -16.460830 25.784028 32.380591 -0.997940 0.649675 0.083812 -0.026413 -349260.000000 0 0 1
10.791327 -15.039330 25.544428 31.546030 -0.948395 0.627069 0.096674 -0.026639 198092.000000 0 0 1
11.071627 -14.289630 26.718328 32.259007 -0.911610 0.594830 0.076215 -0.019921 -55351.100000 0 0 1
11.398527 -12.774630 26.407168 31.471513 -0.842264 0.575203 0.070948 -0.017169 -170943.000000 0 0 1
10.249027 -12.070330 25.984598 30.429177 -0.866820 0.547292 0.062216 -0.011871 209628.000000 0 0 1
10.504827 -10.697230 25.700138 29.753643 -0.794473 0.528103 0.066134 -0.006264 -70160.300000 0 0 1
9.365927 -10.130730 24.845188 28.418932 -0.824605 0.506912 0.055783 -0.003198 579666.000000 0 0 1
8.085127 -10.010530 25.476818 28.542044 -0.891401 0.467702 0.034882 -0.004056 241859.000000 0 0 1
7.209127 -9.368730 24.608508 27.300610 -0.914939 0.447826 0.025319 -0.000353 -992021.000000 0 0 1
5.786727 -9.229130 25.094108 27.356486 -1.010755 0.409550 0.024326 -0.011959 -1664090.000000 0 0 1
5.436127 -8.180430 25.946148 27.742991 -0.984276 0.361881 0.030159 -0.011360 611656.000000 0 0 1
4.085927 -8.293030 26.411738 27.983014 -1.113010 0.336703 0.030591 -0.015532 1190890.000000 0 0 1
2.909427 -8.108430 25.417338 26.837520 -1.226290 0.326776 0.029409 -0.015222 -381043.000000 0 0 1
3.080327 -6.876830 24.733038 25.855413 -1.149667 0.295728 0.023069 -0.018223 106846.000000 0 0 1
1.919927 -6.632730 23.961698 24.936764 -1.289035 0.280568 0.042851 -0.029416 438123.000000 0 1 0
2.129227 -5.347030 23.110098 23.815982 -1.191836 0.244076 0.025722 -0.029389 -240333.000000 0 1 0
2.303927 -4.175030 23.863378 24.335155 -1.066545 0.197229 0.049727 -0.019512 -85035.500000 0 1 0
2.524927 -3.045430 23.005338 23.342997 -0.878569 0.170294 0.038836 -0.026124 494786.000000 0 1 0
1.284327 -2.506430 22.151838 22.330151 -1.097268 0.126459 0.033008 -0.022414 633882.000000 0 1 0
0.256627 -1.887430 22.864238 22.943445 -1.435659 0.083117 0.042076 -0.016397 -221182.000000 0 1 0
-0.828773 -2.800430 23.085358 23.269359 1.283064 0.125840 0.050795 -0.027180 32374.800000 0 1 0
-1.976173 -2.042430 23.773388 23.942656 0.801884 0.118979 0.054583 -0.039003 -2024.560000 0 1 0
-1.520973 -1.313430 24.937058 25.017900 0.712306 0.080413 0.056828 -0.033759 228888.000000 0 0 1
-2.197373 -0.067430 24.955108 25.051755 0.030677 0.087868 0.053502 -0.036752 -322400.000000 0 0 1
-1.753273 0.798570 26.134748 26.205663 -0.427396 0.073584 0.081069 -0.033937 -475312.000000 0 0 1
-2.026973 0.296570 27.442248 27.518604 -0.145281 0.074511 0.094389 -0.022360 310928.000000 0 0 1
-1.147373 -0.732430 27.934208 27.967354 0.568145 0.048691 0.083779 -0.028298 645586.000000 0 0 1
0.296127 -0.241430 28.406388 28.408958 -0.683997 0.013449 0.082531 -0.026389 1055640.000000 0 0 1
1.202727 0.043570 27.338668 27.365146 0.036210 0.043994 0.055679 -0.028221 102209.000000 0 0 1
1.657527 -1.065430 26.584848 26.657770 -0.571285 0.073983 0.037512 -0.024230 -827418.000000 0 0 1
2.918127 -1.713430 27.185638 27.395442 -0.530931 0.123840 0.039747 -0.029593 -709372.000000 0 0 1
2.661927 -2.670430 28.197558 28.448539 -0.786993 0.132931 0.050406 -0.029429 -130189.000000 0 0 1
3.728627 -3.506030 28.604418 29.058693 -0.754640 0.177053 0.048818 -0.018396 -95377.800000 0 0 1
4.293827 -4.549530 27.629428 28.328793 -0.814305 0.222664 0.048410 -0.022194 -343728.000000 0 0 1
5.232027 -4.028430 26.729998 27.533528 -0.656151 0.242185 0.040105 -0.016779 -309009.000000 0 0 1
5.374927 -4.935130 25.719298 26.734391 -0.742767 0.276450 0.037328 -0.014209 114259.000000 0 0 1
6.538427 -4.322230 24.841598 26.048757 -0.584104 0.305629 0.028062 -0.008678 271835.000000 0 0 1
7.764327 -4.061130 25.503018 26.966303 -0.481917 0.330942 0.033621 -0.007007 209124.000000 0 0 1
8.676427 -5.156930 25.515518 27.439315 -0.536263 0.376685 0.041938 -0.002367 183579.000000 0 0 1
9.513427 -5.390530 24.220218 26.574087 -0.515516 0.424069 0.036976 0.000148 -133122.000000 0 0 1
8.755427 -5.802230 23.049158 25.329569 -0.585252 0.427584 0.033786 -0.003378 87446.200000 0 0 1
9.397727 -5.458130 21.838238 24.392973 -0.526177 0.461765 0.046160 0.000994 -20915.600000 0 1 0
9.337427 -3.957430 21.384038 23.666979 -0.400875 0.442839 0.049552 -0.008016 2109330.000000 0 1 0
7.952627 -3.446530 21.290738 22.987353 -0.408949 0.386607 0.024268 -0.004224 1709290.000000 0 1 0
7.912027 -2.359430 20.360538 21.970858 -0.289812 0.385245 0.017653 -0.011627 -1021450.000000 0 1 0
6.547627 -1.783430 20.150138 21.262176 -0.265927 0.324849 0.017100 -0.010298 -1086280.000000 0 1 0
6.166827 -1.023430 21.252038 22.152343 -0.164458 0.286076 0.022242 -0.010317 -198304.000000 0 1 0
4.856527 -0.546430 21.078438 21.637583 -0.112043 0.227831 -0.003129 -0.007251 -331066.000000 0 1 0
4.302227 0.038570 22.394438 22.803980 0.008965 0.189806 -0.000406 -0.020586 1072650.000000 0 1 0
2.960827 0.600570 22.302838 22.506528 0.200123 0.134640 -0.002682 -0.017224 1184210.000000 0 1 0
2.518027 0.918570 23.609458 23.761119 0.349796 0.113044 0.022278 -0.018525 -244935.000000 0 1 0
1.073927 1.438570 23.641388 23.709451 0.929523 0.075790 0.023588 -0.015785 -418991.000000 0 1 0
0.842827 2.768570 23.179988 23.359949 1.275283 0.124207 0.025815 -0.019107 -381671.000000 0 1 0
-0.528873 2.991570 23.073538 23.272674 -1.395817 0.130911 0.016650 -0.022757 -449646.000000 0 1 0
-0.965173 4.442570 22.758738 23.208364 -1.356865 0.197161 0.027828 -0.021112 48884.800000 0 1 0
-0.728773 5.348570 23.790808 24.395509 -1.435375 0.223116 0.040621 -0.018702 591205.000000 0 1 0
-1.623273 6.449570 23.480958 24.404659 -1.324231 0.276009 0.038869 -0.015126 527183.000000 0 1 0
-1.226173 7.703570 24.167448 25.395158 -1.412951 0.312214 0.053901 -0.018982 -476074.000000 0 0 1
-0.347173 8.472570 23.448068 24.934251 -1.529843 0.347004 0.046183 -0.020437 -625421.000000 0 1 0
-0.293173 9.763570 24.047608 25.955745 -1.540778 0.385834 0.069024 -0.019004 -522825.000000 0 0 1
0.734027 10.730570 23.407118 25.759990 1.502497 0.430729 0.073657 -0.020728 616593.000000 0 0 1
2.102427 10.469570 23.693418 25.988654 1.372619 0.423434 0.058832 -0.019664 -105696.000000 0 0 1
2.620727 10.771570 24.967638 27.318087 1.332133 0.417859 0.088885 -0.025163 -1010330.000000 0 0 1
3.859327 11.697570 24.870398 27.753635 1.252116 0.459863 0.080725 -0.027431 288433.000000 0 0 1
5.071727 11.106570 24.423268 27.305207 1.142433 0.463586 0.079158 -0.020341 292566.000000 0 0 1
5.040027 10.557570 23.103168 25.896342 1.125404 0.468736 0.070454 -0.023529 -1362340.000000 0 0 1
6.449227 10.188570 22.601838 25.617232 1.006474 0.490090 0.071883 -0.019824 55783.800000 0 0 1
7.194127 11.261570 22.071438 25.801682 1.002320 0.544423 0.069528 -0.019359 206979.000000 0 0 1
8.347027 10.773570 21.401338 25.372425 0.911631 0.567052 0.075221 -0.021805 383033.000000 0 0 1
9.316427 11.855570 20.891038 25.764041 0.904757 0.625176 0.060108 -0.025220 -419725.000000 0 0 1
8.840327 12.381570 19.677438 24.872801 0.950742 0.658154 0.055448 -0.026005 23598.900000 0 1 0
9.616227 13.345570 19.014838 25.142397 0.946407 0.713179 0.068943 -0.027582 755075.000000 0 0 1
11.058127 12.988570 18.479138 25.148830 0.865505 0.745438 0.059887 -0.025242 508208.000000 0 0 1
12.007927 12.933570 19.501838 26.301887 0.822494 0.735550 0.064645 -0.029021 -345330.000000 0 0 1
13.259727 12.642570 18.904938 26.325874 0.761576 0.769710 0.065986 -0.028153 1165500.000000 0 0 1
14.531827 12.533570 19.863938 27.619566 0.711701 0.768149 0.069548 -0.024188 959515.000000 0 0 1
15.104527 13.799570 20.188138 28.742578 0.740281 0.792064 0.072601 -0.026264 -511984.000000 0 0 1
16.228127 13.447570 20.949638 29.716605 0.691973 0.788400 0.077560 -0.022908 155434.000000 0 0 1
16.974727 14.756570 21.477038 31.099210 0.715607 0.808481 0.080131 -0.017131 215324.000000 0 0 1
16.307827 15.379570 22.538038 31.787412 0.756112 0.782683 0.081586 -0.018233 -246001.000000 0 0 1
17.073927 16.400570 23.061588 33.050485 0.765285 0.798519 0.079751 -0.007252 -375033.000000 0 0 1
-22.031373 12.551088 -24.408518 35.194985 -0.517836 2.337164 0.046854 0.002438 -63118.900000 0 0 1
-21.589873 12.503788 -25.707078 35.823473 -0.524948 2.371153 0.039618 -0.013385 -17171.200000 0 0 1
-22.193673 13.500888 -26.524568 37.126619 -0.546516 2.366613 0.039440 -0.015143 5840.470000 0 0 1
-22.007573 13.257888 -28.009518 38.008393 -0.542200 2.399313 0.030147 -0.015322 -813585.000000 0 0 1
-20.710373 13.429488 -28.444918 37.661440 -0.575280 2.426877 0.037988 -0.015398 -1087070.000000 0 0 1
-20.671173 13.921288 -29.762088 38.818572 -0.592694 2.444477 0.044008 -0.025738 -669918.000000 0 0 1
-19.306973 14.379388 -30.192898 38.615244 -0.640150 2.468489 0.027375 -0.022401 -1546860.000000 0 0 1
-18.395973 13.453488 -30.646728 38.192016 -0.631443 2.502166 0.025920 -0.017313 271869.000000 0 0 1
-17.053773 13.978588 -30.531278 37.661533 -0.686625 2.516101 0.030312 -0.007197 1374770.000000 0 0 1
-16.220973 13.588288 -29.261828 36.111163 -0.697309 2.515505 0.070104 -0.009096 -474028.000000 0 0 1
-16.771673 14.031988 -28.108508 35.612834 -0.696691 2.480432 0.072143 -0.010474 -455630.000000 0 0 1
-17.395273 13.019488 -27.328868 34.913745 -0.642508 2.469875 0.086716 -0.007719 4668.020000 0 0 1
-18.051573 13.616088 -26.022678 34.473713 -0.646240 2.426230 0.077530 -0.014313 -389063.000000 0 0 1
-17.230173 14.198988 -25.070948 33.571454 -0.689251 2.414024 0.128987 -0.024012 -58930.700000 0 0 1
-17.974073 14.512688 -23.873818 33.221147 -0.679251 2.372631 0.113969 -0.017963 95320.800000 0 0 1
-17.061673 15.115788 -22.819418 32.253892 -0.724998 2.356742 0.136960 -0.015064 -260992.000000 0 0 1
-16.580773 16.383288 -23.133418 32.840359 -0.779407 2.352403 0.093809 -0.020859 -238476.000000 0 0 1
-15.807473 16.875688 -22.060918 31.958554 -0.818070 2.332697 0.097828 -0.013589 -374321.000000 0 0 1
-15.422373 18.347888 -22.330518 32.758917 -0.871812 2.320828 0.086202 -0.011062 130915.000000 0 0 1
-16.473973 19.303388 -22.383318 33.838225 -0.864318 2.293587 0.048114 -0.009386 537573.000000 0 0 1
-17.368573 19.156988 -23.504018 34.944189 -0.834322 2.308535 0.026248 -0.009835 508524.000000 0 0 1
-18.652673 20.040888 -23.489818 36.073965 -0.821260 2.279904 0.015976 -0.008613 564143.000000 0 0 1
-18.398273 21.334688 -23.951418 36.977504 -0.859168 2.275397 0.007566 -0.011402 177051.000000 0 0 1
-19.643473 21.990488 -24.076718 38.067518 -0.841711 2.255539 0.038980 -0.012651 260294.000000 0 0 1
-19.454073 23.477988 -24.427918 39.069170 -0.878853 2.246246 0.030576 -0.015894 -4305.000000 0 0 1
-18.833473 24.033688 -23.318918 38.419914 -0.906118 2.223012 0.036367 -0.007571 -241653.000000 0 0 1
-18.073773 25.196688 -23.597618 38.966421 -0.948549 2.221302 0.030628 -0.008438 -89756.800000 0 0 1
-16.989273 25.452388 -22.514318 37.991499 -0.982222 2.205097 0.038237 -0.020373 274345.000000 0 0 1
-15.890073 24.528488 -22.435918 36.844424 -0.995954 2.225516 0.054448 -0.031188 236995.000000 0 0 1
-16.159173 23.190188 -22.040618 35.842608 -0.962214 2.233091 0.054130 -0.014419 -893514.000000 0 0 1
-14.969473 22.233188 -21.847918 34.579348 -0.978220 2.254695 0.086779 -0.010040 312762.000000 0 0 1
-14.130273 22.553188 -20.725818 33.732335 -1.011097 2.232447 0.103778 -0.018933 238618.000000 0 0 1
-13.139273 21.589088 -20.443818 32.506598 -1.024072 2.250950 0.102115 -0.016955 73907.400000 0 0 1
-12.327873 21.737388 -19.143718 31.479715 -1.054898 2.224498 0.095080 -0.018962 405904.000000 0 0 1
-13.044373 21.511088 -17.897118 30.873766 -1.025683 2.189141 0.117742 -0.016612 769507.000000 0 0 1
-13.994173 22.577888 -17.622618 31.877179 -1.015932 2.156551 0.106829 -0.021738 682161.000000 0 0 1
-14.647773 22.513888 -16.195418 31.364374 -0.993992 2.113395 0.127272 -0.019639 224184.000000 0 0 1
-13.819773 23.030288 -15.174018 30.848519 -1.030326 2.085053 0.125997 -0.033405 96606.000000 0 0 1
-14.507273 23.167688 -13.943918 30.686081 -1.011345 2.042501 0.137895 -0.033284 22150.900000 0 0 1
-13.508373 23.517688 -12.834618 30.004753 -1.049419 2.012802 0.160220 -0.029591 62961.000000 0 0 1
-12.914673 24.820688 -12.897818 30.809236 -1.091026 2.002738 0.146974 -0.041112 363414.000000 0 0 1
-12.185273 25.089088 -11.704518 30.247958 -1.118670 1.968120 0.106309 -0.031305 38029.600000 0 0 1
-11.822673 26.585588 -11.575618 31.313959 -1.152357 1.949443 0.115006 -0.034033 -359086.000000 0 0 1
-10.975473 26.994588 -12.583518 31.741357 -1.184630 1.978431 0.110123 -0.035017 -312125.000000 0 0 1
-11.071973 28.394788 -12.873218 33.084321 -1.199001 1.970454 0.092274 -0.023660 -174007.000000 0 0 1
-10.277373 28.700788 -14.185418 33.624183 -1.226935 2.006316 0.125388 -0.045192 856929.000000 0 0 1
-8.857773 28.647988 -14.186218 33.172521 -1.270927 2.012687 0.087411 -0.042127 527425.000000 0 0 1
-8.192173 27.358488 -14.096418 31.848196 -1.279855 2.029307 0.092270 -0.040161 825810.000000 0 0 1
-6.749573 27.388488 -14.697618 31.807326 -1.329173 2.051139 0.078363 -0.044604 336496.000000 0 0 1
-5.830973 28.259588 -14.168618 32.145829 -1.367316 2.027242 0.059120 -0.035292 -731500.000000 0 0 1
-4.573973 27.981288 -14.783318 31.975306 -1.408764 2.051424 0.063805 -0.034143 1332360.000000 0 0 1
-3.371173 28.857888 -14.210918 32.343356 -1.454504 2.025701 0.043288 -0.021352 647291.000000 0 0 1
-3.483573 30.259888 -14.495618 33.733056 -1.456179 2.014974 0.029028 -0.008700 -513119.000000 0 0 1
-4.426073 30.972988 -13.762718 34.180821 -1.428856 1.985200 0.014023 -0.008170 -399559.000000 0 0 1
-4.563873 32.522988 -13.878218 35.653592 -1.431379 1.970615 0.020360 -0.009474 301426.000000 0 0 1
-3.559873 33.338188 -13.266718 36.057084 -1.464419 1.947585 -0.007842 -0.003528 240931.000000 0 0 1
-3.959773 -33.417930 -13.446618 36.238783 1.452854 1.950942 0.013893 -0.000868 773436.000000 0 0 1
-3.125773 -32.489730 -12.497218 34.950444 1.474883 1.936461 0.012551 -0.004987 504131.000000 0 0 1
-3.402473 -32.609530 -11.124718 34.622502 1.466833 1.897914 0.008696 -0.012941 -324359.000000 0 0 1
-2.432573 -31.873930 -10.457018 33.633526 1.494625 1.886947 0.002148 -0.016188 -436353.000000 0 0 1
-2.795373 -31.663130 -8.984918 33.031753 1.482740 1.846276 0.007199 -0.016713 -53383.600000 0 0 1
-1.761973 -31.075730 -8.184018 32.183594 1.514158 1.827911 0.020634 -0.024683 177786.000000 0 0 1
-2.084773 -31.197830 -6.782918 31.994670 1.504071 1.784419 0.020104 -0.026467 326311.000000 0 0 1
-0.861973 -30.734130 -5.946518 31.315984 1.542758 1.761844 0.043942 -0.027014 186775.000000 0 0 1
-1.002173 -30.855530 -4.485618 31.195975 1.538328 1.715085 0.053799 -0.026946 -215639.000000 0 0 1
0.065427 -30.170430 -3.865918 30.417174 -1.568628 1.698238 0.052075 -0.024173 -135202.000000 0 0 1
0.141127 -30.360630 -2.302518 30.448143 -1.566148 1.646490 0.057648 -0.017229 94422.800000 0 0 1
0.498927 -31.676730 -1.826918 31.733292 -1.555047 1.628399 0.057900 -0.025583 1022040.000000 0 0 1
1.715227 -32.327030 -2.289618 32.453370 -1.517787 1.641406 0.058174 -0.026629 847586.000000 0 0 1
3.045827 -31.998230 -1.601318 32.182729 -1.475895 1.620574 0.051343 -0.023610 -720183.000000 0 0 1
3.081427 -32.327730 -0.218518 32.474992 -1.475765 1.577525 0.052057 -0.030365 501760.000000 0 0 1
4.363527 -32.048130 0.355982 32.345784 -1.435473 1.559791 0.044318 -0.024741 711452.000000 0 0 1
4.732427 -30.559130 0.597682 30.929170 -1.417155 1.551471 0.021730 -0.021636 -686719.000000 0 0 1
4.965727 -29.854730 -0.639118 30.271634 -1.405976 1.591911 0.022757 -0.021156 91773.500000 0 0 1
4.672527 -28.481530 -0.523518 28.867008 -1.408190 1.588933 0.038460 -0.012393 -482561.000000 0 0 1
4.392227 -27.703530 -1.852118 28.110631 -1.413561 1.636731 0.037164 -0.013032 -744035.000000 0 0 1
3.175127 -28.140830 -2.351518 28.416851 -1.458442 1.653642 0.054768 -0.013937 -387859.000000 0 0 1
2.508827 -27.205930 -3.220518 27.510518 -1.478840 1.688130 0.049113 -0.010047 182780.000000 0 0 1
2.951527 -27.149030 -4.700118 27.710512 -1.462506 1.741235 0.046657 -0.015318 -235493.000000 0 0 1
2.237527 -28.043530 -5.511118 28.667378 -1.491177 1.764244 0.047176 -0.018463 52527.800000 0 0 1
2.688727 -28.035630 -6.890518 28.994915 -1.475185 1.810738 0.058324 -0.032167 -35394.500000 0 0 1
1.858027 -29.007230 -7.722518 30.075056 -1.506830 1.830480 0.053982 -0.036465 -749135.000000 0 0 1
0.606927 -28.528130 -8.072718 29.654534 -1.549525 1.846501 0.054929 -0.032425 -1037010.000000 0 0 1
0.358427 -28.619430 -9.469618 30.147536 -1.558273 1.890315 0.058280 -0.026782 21820.300000 0 0 1
-0.971673 -27.959130 -9.870618 29.666247 1.536057 1.909985 0.037249 -0.024331 -707450.000000 0 0 1
-1.029173 -26.526430 -9.630418 28.239257 1.532018 1.918808 0.046062 -0.019814 -111951.000000 0 0 1
-2.338373 -25.997530 -9.638918 27.825318 1.481092 1.924536 0.055972 -0.024123 543201.000000 0 0 1
-3.345973 -26.440630 -8.529718 27.983184 1.444919 1.880541 0.055307 -0.026495 -162721.000000 0 0 1
-2.955473 -26.325630 -7.134718 27.434975 1.458998 1.833880 0.072775 -0.027698 -98994.700000 0 0 1
-1.989373 -27.227230 -6.584118 28.082562 1.497860 1.807455 0.066094 -0.025439 386579.000000 0 0 1
-1.547973 -26.834530 -5.178418 27.373422 1.513174 1.761120 0.082568 -0.018297 20684.900000 0 0 1
-2.460473 -27.231230 -4.184818 27.660559 1.480686 1.722671 0.094247 -0.024445 -167393.000000 0 0 1
-2.155373 -26.599230 -2.941318 26.848018 1.489942 1.680571 0.091906 -0.019435 241103.000000 0 0 1
-3.201573 -26.803130 -1.794718 27.053260 1.451912 1.637185 0.086092 -0.017799 1421900.000000 0 0 1
-4.444073 -26.075430 -1.927318 26.521546 1.401987 1.643530 0.087045 -0.012310 703398.000000 0 0 1
-5.301973 -26.077930 -0.804818 26.623619 1.370218 1.601030 0.103271 -0.015680 218489.000000 0 0 1
-6.384973 -24.998130 -1.034518 25.821399 1.320725 1.610871 0.081098 -0.016500 -95803.600000 0 0 1
-5.918773 -23.676730 -0.964418 24.424364 1.325834 1.610293 0.070063 -0.016900 -247059.000000 0 1 0
-6.467473 -23.092630 0.206882 23.982089 1.297726 1.562170 0.075290 -0.016383 -159864.000000 0 1 0
-5.924573 -21.733630 0.636882 22.535680 1.304663 1.542532 0.054098 -0.015079 -1029500.000000 0 1 0
-4.697673 -21.868130 1.241082 22.401418 1.359194 1.515366 0.052533 -0.017865 -1061420.000000 0 1 0
-4.173673 -20.566030 1.433182 21.034143 1.370575 1.502608 0.030192 -0.015159 257030.000000 0 1 0
-3.170673 -20.338430 2.649482 20.753907 1.416146 1.442785 0.031530 -0.009157 734881.000000 0 1 0
-3.743373 -20.365230 3.998682 21.088976 1.389014 1.380031 0.022865 -0.001040 454993.000000 0 1 0
-2.808573 -19.885230 4.974182 20.689441 1.430485 1.327996 0.028787 -0.014389 243040.000000 0 1 0
-1.800373 -20.914430 5.535682 21.709411 1.484925 1.312959 0.031306 -0.022519 210814.000000 0 1 0
-0.827673 -21.364530 4.605882 21.871039 1.532075 1.358615 0.050129 -0.021856 -141466.000000 0 1 0
-0.291373 -22.629730 4.880982 23.151967 1.557921 1.358379 0.051554 -0.021547 -221294.000000 0 1 0
0.687827 -22.993430 3.698582 23.299151 -1.540891 1.411379 0.053485 -0.025596 1097780.000000 0 1 0
1.902427 -22.261830 3.445182 22.607025 -1.485547 1.417806 0.026140 -0.022744 462248.000000 0 1 0
2.897827 -22.711230 4.325682 23.300406 -1.443888 1.384065 0.052071 -0.026583 -53749.200000 0 1 0
4.097427 -21.694230 4.526382 22.537007 -1.384124 1.368579 0.055628 -0.029941 699529.000000 0 1 0
4.760827 -21.403230 3.313282 22.175247 -1.351925 1.420821 0.038998 -0.017750 609455.000000 0 1 0
6.025627 -20.733630 3.531282 21.878336 -1.287966 1.408682 0.051597 -0.015478 897600.000000 0 1 0
6.742027 -20.482530 2.224882 21.678078 -1.252807 1.467982 0.057061 -0.007365 -223576.000000 0 1 0
7.321927 -21.704130 1.707782 22.969467 -1.245434 1.496378 0.058620 -0.000096 -56612.300000 0 1 0
7.089827 -21.739630 0.324182 22.868806 -1.255548 1.556620 0.053704 -0.008702 79802.700000 0 1 0
8.036627 -22.570630 -0.615618 23.966638 -1.228728 1.596486 0.050878 0.000578 -217924.000000 0 1 0
9.356227 -22.104430 -0.550318 24.009325 -1.170389 1.593719 0.059494 0.004477 -553175.000000 0 1 0
10.073927 -22.757930 -1.591618 24.938738 -1.154067 1.634661 0.064049 -0.001230 810561.000000 0 1 0
11.459327 -22.117330 -1.983018 24.988494 -1.092762 1.650237 0.069486 0.000447 850565.000000 0 1 0
11.407227 -20.939030 -2.774718 24.005560 -1.071967 1.686642 0.071859 -0.001519 385636.000000 0 1 0
12.694127 -20.713930 -3.359818 24.525419 -1.020996 1.708222 0.072343 -0.006049 564470.000000 0 1 0
12.831227 -19.401630 -4.203518 23.637538 -0.986485 1.749580 0.075801 -0.028048 -109558.000000 0 1 0
12.868227 -18.178330 -3.451118 22.537817 -0.954796 1.724527 0.084738 -0.024931 15249.900000 0 1 0
13.152627 -17.115230 -4.327118 22.014692 -0.915576 1.768640 0.099617 -0.030896 -663750.000000 0 1 0
13.839927 -15.941130 -3.583018 21.412642 -0.855836 1.738919 0.119716 -0.026220 472151.000000 0 1 0
15.203127 -15.982130 -3.217018 22.291541 -0.810373 1.715618 0.095544 -0.021937 461219.000000 0 1 0
16.138927 -16.104230 -4.292318 23.199897 -0.784322 1.756883 0.101098 -0.020686 59464.000000 0 1 0
17.615527 -15.764730 -3.958318 23.968767 -0.730009 1.736701 0.098519 -0.015836 510482.000000 0 1 0
18.260327 -16.649630 -3.027418 24.896084 -0.739292 1.692700 0.098457 -0.026712 492590.000000 0 1 0
19.669227 -16.517930 -3.170718 25.879992 -0.698534 1.693621 0.072033 -0.008643 96673.000000 0 0 1
20.416127 -17.333830 -2.120718 26.865915 -0.703929 1.649816 0.076050 -0.022816 48104.800000 0 0 1
21.802227 -17.039230 -2.042818 27.746092 -0.663381 1.644488 0.058845 -0.017211 161057.000000 0 0 1
22.429127 -17.810630 -1.055218 28.660038 -0.671124 1.607623 0.052923 -0.018760 -799872.000000 0 0 1
23.939727 -17.842730 -1.204418 29.881837 -0.640498 1.611113 0.056047 -0.023721 -853539.000000 0 0 1
24.487127 -16.572830 -1.084718 29.588084 -0.594984 1.607465 0.067021 -0.022757 1162110.000000 0 0 1
25.871627 -16.672630 -0.641218 30.785205 -0.572454 1.591627 0.084523 -0.023552 1497900.000000 0 0 1
26.546527 -15.337930 -0.199918 30.659586 -0.523918 1.577317 0.076083 -0.026208 -72760.400000 0 0 1
26.059427 -14.915230 1.033882 30.043747 -0.519844 1.536377 0.096668 -0.032013 57417.100000 0 0 1
26.612227 -13.722630 1.498782 29.979453 -0.476090 1.520782 0.085583 -0.033717 -174128.000000 0 0 1
25.727327 -13.059630 2.569282 28.966369 -0.469723 1.481981 0.114260 -0.044754 -147995.000000 0 0 1
25.481727 -13.783730 3.755682 29.213264 -0.495850 1.441879 0.141482 -0.040544 963726.000000 0 0 1
26.655027 -14.180630 4.515182 30.528145 -0.488923 1.422349 0.142149 -0.029178 1089600.000000 0 0 1
26.191327 -14.790230 5.881882 30.648541 -0.514059 1.377684 0.140533 -0.025464 336077.000000 0 0 1
25.615727 -16.075030 5.847182 30.801974 -0.560428 1.379806 0.127744 -0.032513 -48287.000000 0 0 1
24.790027 -16.196230 7.008182 30.429886 -0.578717 1.338404 0.104679 -0.024196 71307.200000 0 0 1
23.970627 -17.479530 6.970382 30.474763 -0.630060 1.340027 0.096801 -0.018945 -89330.300000 0 0 1
24.752327 -18.655830 7.240882 31.829987 -0.645865 1.341301 0.091217 -0.011554 -120901.000000 0 0 1
23.980527 -19.802730 7.116182 31.903822 -0.690266 1.345853 0.067372 0.001488 -45840.200000 0 0 1
2.173127 23.077088 -2.945718 23.365610 1.476905 1.697203 0.043789 -0.030756 50036.900000 0 1 0
3.019227 24.080288 -2.446318 24.391812 1.446066 1.671258 0.057629 -0.030687 -211514.000000 0 1 0
3.680627 24.783888 -3.469918 25.294831 1.423365 1.708409 0.069609 -0.026521 -6503.320000 0 0 1
4.500227 25.947788 -2.836018 26.487407 1.399071 1.678072 0.059412 -0.022411 -569447.000000 0 0 1
5.688227 25.454488 -2.316318 26.184962 1.350942 1.659372 0.047778 -0.021044 -854836.000000 0 0 1
6.353327 26.390388 -1.484318 27.184932 1.334548 1.625424 0.046012 -0.020157 -192391.000000 0 0 1
7.590727 25.706188 -0.926218 26.819491 1.283668 1.605338 0.025257 -0.031451 -743860.000000 0 0 1
8.637127 25.290188 -1.734518 26.780630 1.241695 1.635609 0.029503 -0.035193 -452500.000000 0 0 1
9.459727 24.354888 -1.058118 26.148932 1.200319 1.611272 0.018849 -0.032934 53285.600000 0 0 1
10.756027 24.083388 -1.860918 26.441723 1.150760 1.641233 0.034706 -0.033328 -2027010.000000 0 0 1
11.749227 25.061688 -1.615518 27.726205 1.132409 1.629096 0.040638 -0.029205 160801.000000 0 0 1
12.650727 25.178388 -2.741818 28.310946 1.105196 1.667795 0.062810 -0.031490 519217.000000 0 0 1
13.572027 23.952088 -2.881318 27.680398 1.055273 1.675078 0.070461 -0.033601 -1523340.000000 0 0 1
12.884627 22.756388 -3.263718 26.353722 1.055602 1.694958 0.068596 -0.032270 -336639.000000 0 0 1
12.779027 22.637488 -4.626918 26.403935 1.056883 1.746942 0.088329 -0.036767 -324278.000000 0 0 1
12.076027 21.379288 -5.090318 25.076198 1.056626 1.775211 0.087711 -0.035948 -440816.000000 0 0 1
10.688327 21.526788 -5.097218 24.568772 1.109942 1.779782 0.079343 -0.031447 -463430.000000 0 1 0
9.978627 20.298088 -5.010218 23.166520 1.113888 1.788789 0.063925 -0.021951 451893.000000 0 1 0
8.445327 20.437488 -4.852918 22.639905 1.178939 1.786825 0.045802 -0.022644 155071.000000 0 1 0
8.022827 20.921988 -3.608018 22.696104 1.204626 1.730444 0.050724 -0.030816 -644093.000000 0 1 0
6.777327 21.535688 -3.658118 22.871376 1.265906 1.731429 0.042362 -0.013600 -399057.000000 0 1 0
6.283527 22.162988 -2.347918 23.155852 1.294532 1.672367 0.042852 -0.020391 -51372.000000 0 1 0
5.756627 21.236988 -1.442318 22.050594 1.306091 1.636253 0.033443 -0.027782 92057.100000 0 1 0
5.060027 21.947088 -0.407718 22.526535 1.344200 1.588897 0.046231 -0.022206 480243.000000 0 1 0
4.370727 21.121288 0.722382 21.580869 1.366742 1.537317 0.028446 -0.019038 106464.000000 0 1 0
3.758527 21.911688 1.740382 22.299720 1.400919 1.492672 0.040434 -0.013794 341714.000000 0 1 0
3.122927 21.013888 2.677982 21.412794 1.423264 1.445403 0.033090 -0.015154 265052.000000 0 1 0
2.171527 21.689488 3.714682 22.112175 1.471010 1.402003 0.030481 -0.006227 -1202070.000000 0 1 0
0.899727 21.785388 3.245182 22.044134 1.529520 1.423046 0.032569 -0.009396 -1312650.000000 0 1 0
-0.014073 22.188888 4.275182 22.596994 -1.570162 1.380457 0.037277 -0.021030 523796.000000 0 1 0
-1.493973 22.128388 3.823782 22.505973 -1.503385 1.400067 0.037639 -0.030384 -310260.000000 0 1 0
-2.356673 22.602588 4.822282 23.231128 -1.466906 1.361697 0.047823 -0.028786 564857.000000 0 1 0
-3.645873 22.697788 4.137082 23.358027 -1.411530 1.392741 0.050198 -0.030174 860020.000000 0 1 0
-4.828773 22.959388 5.079282 24.005200 -1.363500 1.357594 0.056988 -0.036588 -167012.000000 0 1 0
-4.998573 24.309688 5.382382 25.395210 -1.368002 1.357232 0.071163 -0.029885 -92217.800000 0 0 1
-6.216273 24.400588 6.082982 25.904313 -1.321344 1.333758 0.074865 -0.027554 157594.000000 0 0 1
-6.731473 25.769688 6.510382 27.418509 -1.315289 1.331062 0.084487 -0.032086 -715892.000000 0 0 1
-6.019373 26.250588 7.556082 27.971782 -1.345389 1.297266 0.061551 -0.039612 -468821.000000 0 0 1
-6.431873 27.515788 8.105682 29.397103 -1.341167 1.291447 0.092875 -0.033281 6551.850000 0 0 1
-6.398773 28.760088 7.185382 30.326831 -1.351874 1.331590 0.106457 -0.040523 595031.000000 0 0 1
-7.618073 28.810988 6.435582 30.488109 -1.312297 1.358112 0.091049 -0.045960 186984.000000 0 0 1
-7.776573 30.057288 5.863982 31.595916 -1.317623 1.384121 0.110723 -0.047186 -871346.000000 0 0 1
-9.171473 30.300288 5.288882 32.096661 -1.276877 1.405262 0.112880 -0.048257 -484199.000000 0 0 1
-10.115573 30.777288 6.180282 32.981239 -1.253249 1.382294 0.103742 -0.033154 -281551.000000 0 0 1
-10.747173 29.768688 6.987682 32.411483 -1.224336 1.353497 0.080051 -0.022399 -867331.000000 0 0 1
-11.733673 30.290988 7.992382 33.452970 -1.201229 1.329549 0.062064 -0.025983 -733455.000000 0 0 1
-11.125873 30.763088 9.182582 33.977528 -1.223769 1.297139 0.069141 -0.019416 -281669.000000 0 0 1
-12.051573 31.133388 10.148182 34.892891 -1.201464 1.275694 0.066622 -0.005036 -706841.000000 0 0 1
-11.403473 31.502688 11.413982 35.394032 -1.223485 1.242445 0.057231 -0.007251 -166874.000000 0 0 1
-10.584973 32.668388 11.320482 36.158243 -1.257458 1.252360 0.057335 -0.006962 303676.000000 0 0 1
-9.657073 32.813888 12.365082 36.371769 -1.284579 1.223918 0.060740 -0.012345 69484.100000 0 0 1
-9.239073 -33.881130 12.596082 37.308883 1.304578 1.226413 0.067254 -0.016143 425242.000000 0 0 1
-10.228073 -33.131530 13.311982 37.141899 1.271367 1.204233 0.074236 -0.001171 213909.000000 0 0 1
-9.730573 -31.806630 13.486982 35.892123 1.273909 1.185575 0.078512 0.009823 1204660.000000 0 0 1
-10.801573 -30.722530 14.004182 35.449470 1.232710 1.164678 0.079979 -0.005541 906851.000000 0 0 1
-11.250173 -30.794530 15.330182 36.192319 1.220530 1.133407 0.073489 -0.008588 314148.000000 0 0 1
-10.307473 -30.234130 16.253782 35.840369 1.242232 1.100102 0.088800 -0.010248 455624.000000 0 0 1
-10.533973 -30.708830 17.700482 36.977073 1.240347 1.071637 0.094705 -0.021274 98881.200000 0 0 1
-11.349573 -29.818530 18.421382 36.841619 1.207106 1.047180 0.088016 -0.023170 152468.000000 0 0 1
-12.035373 -30.391130 19.523582 38.074155 1.193729 1.032379 0.086355 -0.028662 63910.300000 0 0 1
-12.067773 -29.416830 20.767582 37.977276 1.181499 0.992208 0.089773 -0.034407 573039.000000 0 0 1
-10.781973 -29.372330 21.383282 37.897618 1.218988 0.971286 0.087561 -0.033625 475610.000000 0 0 1
-10.938773 -28.587330 22.547282 38.016735 1.205341 0.935907 0.078031 -0.030797 642286.000000 0 0 1
-9.724373 -28.616630 23.538282 38.308298 1.243223 0.909116 0.088911 -0.034409 533480.000000 0 0 1
-9.542473 -29.821830 24.313282 39.642604 1.261109 0.910549 0.091720 -0.031968 -52768.900000 0 0 1
-8.393773 -29.712730 25.132882 39.811600 1.295473 0.887574 0.101489 -0.028562 41238.700000 0 0 1
-8.177673 -30.880930 26.052482 41.221815 1.311925 0.886656 0.108057 -0.027174 -180165.000000 0 0 1
-7.796473 -32.047830 25.384982 41.620256 1.332156 0.914838 0.120887 -0.030347 133029.000000 0 0 1
-7.760073 -33.144330 26.280582 43.005050 1.340809 0.913341 0.124326 -0.030768 -279260.000000 0 0 1
-7.473073 33.566788 25.712982 42.938718 -1.351736 0.928757 0.102017 -0.032476 107488.000000 0 0 1
-6.158273 33.507488 25.177382 42.362444 -1.389037 0.934361 0.105653 -0.025586 191249.000000 0 0 1
-5.836073 32.373488 24.386382 40.948725 -1.392439 0.932865 0.097516 -0.014690 356943.000000 0 0 1
-6.853573 31.899288 23.247282 40.062104 -1.359163 0.951723 0.084556 -0.013795 394892.000000 0 0 1
-8.005173 31.274888 23.766482 40.087992 -1.320215 0.936193 0.081560 -0.022552 -518084.000000 0 0 1
-8.894873 31.086188 22.716882 39.516156 -1.292107 0.958344 0.062869 -0.015280 -436145.000000 0 0 1
-9.856173 29.898388 22.969882 38.970158 -1.252359 0.940453 0.055527 -0.027461 73844.800000 0 0 1
-9.209873 28.658988 22.979482 37.871043 -1.259860 0.918790 0.047222 -0.017245 116926.000000 0 0 1
-10.187173 27.658488 22.983082 37.376363 -1.217895 0.908525 0.042010 -0.020540 -33214.500000 0 0 1
-9.505773 26.313788 22.694182 36.025006 -1.224137 0.889299 0.031127 -0.015572 -307263.000000 0 0 1
-8.457673 26.072888 23.571282 36.151529 -1.257120 0.860559 0.021288 -0.014395 -359446.000000 0 0 1
-7.981273 24.690788 23.423982 34.957383 -1.258149 0.836490 0.021863 -0.007839 896118.000000 0 0 1
-6.469773 24.633988 23.809382 34.865140 -1.313961 0.819072 0.013060 -0.006179 966320.000000 0 0 1
-5.504973 25.247688 22.968482 34.573135 -1.356118 0.844179 0.011534 -0.004467 726490.000000 0 0 1
-4.141173 25.014088 23.335882 34.458922 -1.406731 0.826834 0.031087 -0.004350 569555.000000 0 0 1
-3.219973 25.599188 22.282682 34.091121 -1.445669 0.858437 0.029307 -0.004610 -328003.000000 0 0 1
-2.853873 24.683188 21.244982 32.691797 -1.455687 0.863401 0.038792 0.000645 163184.000000 0 0 1
-1.955173 25.182888 20.284982 32.395695 -1.493313 0.894174 0.051008 0.002894 -35819.200000 0 0 1
-1.306473 24.214588 19.296882 30.990689 -1.516895 0.898650 0.044726 0.004266 -153795.000000 0 0 1
-0.346373 23.381288 19.924782 30.721353 -1.555983 0.865099 0.047123 0.005202 -35326.400000 0 0 1
-0.061873 22.263188 19.113982 29.342762 -1.568017 0.861363 0.044254 0.002707 -263209.000000 0 0 1
1.170327 21.490288 19.571082 29.090022 1.516392 0.832841 0.052398 0.001624 307974.000000 0 0 1
2.454027 22.058188 19.331182 29.432643 1.460000 0.854237 0.057797 0.000827 51001.800000 0 0 1
3.478027 21.170188 19.644082 29.088889 1.407962 0.829408 0.061131 0.001895 916734.000000 0 0 1
4.941527 21.635188 19.261782 29.385648 1.346246 0.855975 0.067863 -0.006458 1320690.000000 0 0 1
5.922027 20.621388 19.158382 28.763790 1.291143 0.841884 0.074024 -0.009949 187252.000000 0 0 1
7.209627 21.170288 18.894982 29.277639 1.242561 0.869286 0.086611 -0.009866 -3925.870000 0 0 1
8.232127 20.086888 18.638182 28.611760 1.181848 0.861346 0.074476 -0.000979 -572104.000000 0 0 1
8.845527 19.594888 19.808682 29.233318 1.146762 0.826293 0.087310 -0.007385 -165030.000000 0 0 1
9.878727 18.729088 19.408782 28.724011 1.085428 0.828884 0.080584 -0.012761 -183183.000000 0 0 1
10.376527 17.859688 20.518882 29.114692 1.044463 0.788711 0.087127 -0.014206 51599.000000 0 0 1
9.386227 16.942288 20.985082 28.557242 1.064878 0.745362 0.091796 -0.015099 604100.000000 0 0 1
9.966627 16.111088 22.029082 29.054798 1.016799 0.710262 0.093748 -0.019696 575315.000000 0 0 1
8.953327 15.122188 22.702182 28.709436 1.036231 0.658752 0.079309 -0.019426 -47830.400000 0 0 1
7.939227 15.733888 23.439782 29.325926 1.103480 0.644691 0.080574 -0.010839 8757.080000 0 0 1
6.776827 14.995688 23.761982 28.903768 1.146348 0.605695 0.087776 -0.018251 511654.000000 0 0 1
7.036327 13.940488 24.805182 29.311161 1.103364 0.561850 0.103370 -0.017538 -477668.000000 0 0 1
7.694327 14.388988 25.979182 30.678389 1.079747 0.560812 0.117406 -0.028253 31088.800000 0 0 1
7.905727 13.372688 26.914982 31.076447 1.036884 0.523471 0.135267 -0.033100 -127200.000000 0 0 1
9.088127 13.636488 27.918182 32.372407 0.982939 0.530791 0.114480 -0.026655 447831.000000 0 0 1
10.391327 13.729188 27.402682 32.363208 0.922907 0.561000 0.119132 -0.025257 23394.500000 0 0 1
10.639327 14.958688 26.748982 32.441727 0.952562 0.601436 0.100446 -0.019853 -1057320.000000 0 0 1
11.976027 14.993788 26.001982 32.316280 0.896829 0.635779 0.113654 -0.023054 -251275.000000 0 0 1
11.960927 14.198088 24.812082 30.988528 0.870712 0.642357 0.115409 -0.033938 -304060.000000 0 0 1
13.224927 13.812588 24.354082 30.964618 0.807130 0.665654 0.119323 -0.034976 -716618.000000 0 0 1
13.085427 12.636188 23.363582 29.610110 0.767935 0.661550 0.093311 -0.031111 53482.400000 0 0 1
12.720227 11.383688 23.928582 29.393359 0.730006 0.619651 0.096347 -0.022971 633802.000000 0 0 1
11.386227 11.304988 24.436482 29.233381 0.781818 0.581007 0.120617 -0.028752 58691.300000 0 0 1
11.025127 9.894888 24.828582 28.912293 0.731424 0.537961 0.106182 -0.021391 -197348.000000 0 0 1
10.965227 9.010388 23.710882 27.633842 0.687848 0.539359 0.107206 -0.018808 381542.000000 0 0 1
10.652727 7.747088 24.302582 27.642602 0.628775 0.496676 0.106755 -0.020188 -30780.800000 0 0 1
10.821827 6.653888 23.208282 26.457712 0.551273 0.500831 0.098417 -0.025287 174784.000000 0 0 1
12.167727 6.298988 22.931982 26.713417 0.477691 0.538567 0.108467 -0.024450 434583.000000 0 0 1
12.308827 5.074088 22.207182 25.892326 0.391006 0.540067 0.112031 -0.024851 -131683.000000 0 0 1
11.919027 3.772188 22.928182 26.115017 0.306511 0.499193 0.103543 -0.017729 14508.600000 0 0 1
12.928527 3.277888 23.810682 27.291756 0.248307 0.510604 0.100794 -0.009557 253157.000000 0 0 1
12.610127 2.055888 24.417282 27.558041 0.161613 0.482083 0.090841 -0.007585 -355782.000000 0 0 1
13.827727 1.407488 25.133582 28.720794 0.101438 0.505153 0.065583 0.002521 -366601.000000 0 0 1
14.750327 0.893388 24.252482 28.399880 0.060493 0.547239 0.086393 -0.005391 401138.000000 0 0 1
16.079527 1.409088 24.530182 29.364375 0.087409 0.581987 0.074372 -0.007739 900169.000000 0 0 1
17.115427 0.642288 23.669282 29.216182 0.037509 0.626401 0.070116 -0.010900 -283936.000000 0 0 1
17.223227 -0.689612 24.011882 29.558173 -0.040018 0.622608 0.064760 -0.007252 323198.000000 0 0 1
18.343627 -1.309912 23.402282 29.763591 -0.071289 0.666044 0.058445 0.003323 90932.200000 0 0 1
18.440027 -2.815012 23.786582 30.228470 -0.151488 0.665038 0.053692 0.004596 -345885.000000 0 0 1
17.485227 -3.612312 23.174582 29.254798 -0.203726 0.656451 0.049516 0.005397 -192644.000000 0 0 1
17.661527 -4.962312 23.594382 29.887271 -0.273905 0.660891 0.065104 -0.000244 229626.000000 0 0 1
16.720327 -6.032812 22.941482 29.021987 -0.346270 0.659194 0.068414 -0.002306 191244.000000 0 0 1
16.880027 -6.123912 21.556382 28.055574 -0.348024 0.694544 0.057523 -0.003449 410989.000000 0 0 1
16.097727 -7.152312 20.885782 27.322304 -0.418108 0.700651 0.057618 -0.010715 185842.000000 0 0 1
16.633427 -8.564212 21.017782 28.138297 -0.475480 0.727340 0.066814 -0.011742 -369319.000000 0 0 1
16.446227 -9.121412 22.338582 29.200870 -0.506384 0.699759 0.060256 -0.006869 -9132.420000 0 0 1
17.087827 -10.372612 22.542082 30.128564 -0.545564 0.725457 0.059877 -0.012567 -87867.400000 0 0 1
16.487127 -11.087812 23.838682 31.033010 -0.592039 0.694816 0.089159 -0.020455 -216523.000000 0 0 1
15.318927 -11.805412 23.648982 30.550149 -0.656582 0.685498 0.093435 -0.017693 -787388.000000 0 0 1
15.111927 -12.760012 24.633282 31.590929 -0.701215 0.676517 0.108938 -0.010913 -196143.000000 0 0 1
14.076027 -13.769712 24.152982 31.162574 -0.774398 0.683980 0.102880 -0.017080 -495295.000000 0 0 1
14.491427 -14.627012 23.125082 30.963210 -0.790054 0.727474 0.112799 -0.026337 -584201.000000 0 0 1
13.530827 -15.539712 22.787882 30.722199 -0.854392 0.735135 0.121037 -0.025325 -555449.000000 0 0 1
13.942127 -16.358912 21.485182 30.390952 -0.864989 0.785606 0.118531 -0.030207 489863.000000 0 0 1
15.046327 -17.258012 21.553182 31.444723 -0.853756 0.815601 0.118711 -0.029880 236497.000000 0 0 1
15.259427 -17.870412 20.333282 31.074814 -0.864046 0.857496 0.109528 -0.020728 -58625.500000 0 0 1
-24.807773 -32.255630 26.167238 48.379496 0.915183 0.999320 0.074576 -0.035178 -899793.000000 0 0 1
-24.992073 -33.589630 25.786608 49.171294 0.931120 1.018758 0.073648 -0.027688 -137168.000000 0 0 1
-26.166653 33.948188 26.279348 50.277006 -0.914127 1.020792 0.057311 -0.037244 -397781.000000 0 0 1
-26.450843 33.856588 27.761478 51.152862 -0.907586 0.997129 0.052498 -0.034536 -472189.000000 0 0 1
-26.971673 -33.108030 28.404428 51.287663 0.887182 0.983844 0.070480 -0.031844 158429.000000 0 0 1
-27.129633 -33.321430 29.801078 52.291863 0.887469 0.964413 0.047845 -0.030435 -231174.000000 0 0 1
-28.419803 -32.810930 30.474538 53.037155 0.856990 0.958695 0.035599 -0.029358 -379817.000000 0 0 1
-28.537133 -31.388330 30.322398 52.144444 0.832941 0.950216 0.027486 -0.022840 108445.000000 0 0 1
-29.417243 -30.822630 31.269108 52.850410 0.808724 0.937689 0.022526 -0.003300 -103182.000000 0 0 1
-29.760133 -29.320430 31.094858 52.079203 0.777956 0.930954 0.023430 -0.007248 15410.700000 0 0 1
-30.252583 -28.992230 29.819788 51.429446 0.764128 0.952289 0.009035 0.008581 134896.000000 0 0 1
-30.701783 -27.632830 29.725718 50.889990 0.732837 0.947004 0.024552 0.007307 88107.800000 0 0 1
-31.357733 -27.399530 28.303548 50.350100 0.718134 0.973831 0.019595 0.001512 21097.300000 0 0 1
-30.487043 -27.378830 27.191088 49.177387 0.731736 0.984934 0.035021 0.002513 114150.000000 0 0 1
-29.712803 -26.168530 27.142448 48.003699 0.722058 0.969849 0.032463 0.000079 525716.000000 0 0 1
-28.620763 -26.176730 26.012378 46.701318 0.740827 0.980034 0.034779 0.006318 382280.000000 0 0 1
-29.167523 -26.266730 24.711288 46.382467 0.733117 1.008923 0.027613 -0.002045 447231.000000 0 0 1
-28.136503 -25.972730 23.770898 45.069958 0.745430 1.015233 0.040692 0.007953 433915.000000 0 0 1
-28.639413 -26.073830 22.291438 44.687457 0.738541 1.048548 0.035167 0.006399 295519.000000 0 0 1
-29.529953 -25.077830 21.804438 44.456149 0.704049 1.058167 0.024794 0.006628 384115.000000 0 0 1
-29.889693 -25.403730 20.464838 44.244241 0.704445 1.089936 0.028877 0.007123 -134017.000000 0 0 1
-30.583113 -24.325130 19.587438 43.711629 0.671916 1.106151 0.032656 0.004297 503863.000000 0 0 1
-31.909533 -24.064230 20.062038 44.719021 0.646145 1.105571 0.040648 -0.005373 577263.000000 0 0 1
-32.381153 -22.810330 19.567538 44.178488 0.613694 1.111943 0.052929 -0.009805 -639810.000000 0 0 1
-33.851903 -22.552930 19.844338 45.259074 0.587696 1.116911 0.075114 -0.011856 -225784.000000 0 0 1
-34.785707 -23.456230 19.244638 46.158382 0.593273 1.140735 0.064864 -0.020220 -246904.000000 0 0 1
-36.095783 -22.996130 19.346438 46.968204 0.567243 1.146253 0.073377 -0.023986 46327.600000 0 0 1
36.869449 -23.740630 18.383738 47.549297 -0.572083 1.173827 0.095479 -0.020526 386688.000000 0 0 1
36.544729 -25.092730 18.707538 48.115843 -0.601697 1.171465 0.086516 -0.015711 -489112.000000 0 0 1
35.783089 -25.625630 17.673738 47.428509 -0.621475 1.188945 0.094460 -0.005458 -122171.000000 0 0 1
35.120719 -26.927830 18.179438 47.844174 -0.654118 1.181030 0.088892 0.007785 97587.000000 0 0 1
34.051359 -26.780230 19.102738 47.345437 -0.666434 1.155484 0.086020 -0.004118 332217.000000 0 0 1
34.468929 -26.674730 20.454438 48.145949 -0.658608 1.132009 0.098705 -0.004024 -508217.000000 0 0 1
33.259829 -26.814730 21.354738 47.762651 -0.678522 1.107274 0.082373 -0.010220 -127563.000000 0 0 1
32.247309 -25.841430 21.195338 46.442554 -0.675564 1.096877 0.073101 -0.007635 -261617.000000 0 0 1
31.154469 -26.037230 22.059438 46.207761 -0.696161 1.073107 0.083988 -0.009289 141087.000000 0 0 1
30.013379 -25.001630 21.801638 44.734728 -0.694551 1.061740 0.084440 -0.002297 -76735.800000 0 0 1
30.387469 -23.689330 21.499738 44.122799 -0.662162 1.061835 0.078908 -0.003944 -538727.000000 0 0 1
31.155199 -23.053430 22.511438 44.820441 -0.637041 1.044588 0.086427 -0.016723 -649284.000000 0 0 1
32.034609 -22.024630 21.810638 44.575829 -0.602305 1.059517 0.069170 -0.017532 -374986.000000 0 0 1
31.310229 -20.943630 21.288338 43.268458 -0.589552 1.056404 0.081746 -0.028293 -321030.000000 0 0 1
32.192269 -19.974130 20.755838 43.198529 -0.555331 1.069599 0.064924 -0.024961 -733052.000000 0 0 1
31.706129 -18.560430 20.481038 42.062348 -0.529607 1.062235 0.059693 -0.015132 -173115.000000 0 0 1
31.418669 -17.668430 21.580538 42.012211 -0.512279 1.031336 0.050041 -0.011111 -218234.000000 0 0 1
30.445079 -18.152830 22.444138 41.954350 -0.537656 1.006329 0.085147 -0.021590 -897414.000000 0 0 1
30.697989 -17.711930 23.926028 42.761359 -0.523316 0.976984 0.069083 -0.020028 -122273.000000 0 0 1
30.412619 -16.342530 24.137328 42.126195 -0.493087 0.960663 0.066412 -0.025131 270677.000000 0 0 1
30.792789 -15.929830 25.450248 43.007796 -0.477410 0.937557 0.057548 -0.021419 -124972.000000 0 0 1
30.446499 -14.422930 25.654118 42.345531 -0.442398 0.919990 0.084235 -0.033343 424820.000000 0 0 1
29.043769 -14.192530 25.818578 41.371094 -0.454535 0.896852 0.091565 -0.035561 738921.000000 0 0 1
28.590279 -12.975930 26.400738 41.021675 -0.426058 0.871630 0.086965 -0.031915 81076.100000 0 0 1
28.824379 -11.644830 25.612638 40.279699 -0.383943 0.881662 0.093442 -0.037721 -719124.000000 0 0 1
28.082979 -11.570030 24.443728 38.987372 -0.390803 0.893145 0.104605 -0.036564 -233377.000000 0 0 1
28.422479 -10.571030 23.519768 38.376601 -0.356072 0.911112 0.104310 -0.031145 123235.000000 0 0 1
29.491869 -11.014830 22.448638 38.665724 -0.357444 0.951353 0.103243 -0.037055 331263.000000 0 0 1
29.043669 -12.056130 21.609738 38.155810 -0.393458 0.968720 0.101601 -0.036477 246812.000000 0 0 1
29.524669 -13.308330 22.086938 39.200135 -0.423480 0.972252 0.089033 -0.038493 -166706.000000 0 0 1
29.023419 -14.464130 21.208338 38.747433 -0.462335 0.991604 0.102569 -0.029037 -245173.000000 0 0 1
29.607009 -14.464330 19.931338 38.510390 -0.454441 1.026802 0.080990 -0.024201 -68076.500000 0 0 1
29.222599 -15.649630 19.274338 38.345422 -0.491667 1.044135 0.095529 -0.027569 -429234.000000 0 0 1
29.723209 -15.760230 17.882338 38.100290 -0.487541 1.082243 0.101231 -0.023612 -198387.000000 0 0 1
29.036939 -16.752830 17.133638 37.647878 -0.523298 1.098309 0.096343 -0.030459 661533.000000 0 0 1
27.680079 -16.492230 16.761138 36.319640 -0.537337 1.091123 0.102696 -0.029861 306462.000000 0 0 1
27.421679 -15.425030 15.667238 35.147438 -0.512399 1.108776 0.108826 -0.025966 -490820.000000 0 0 1
27.654679 -15.796830 14.324038 34.921329 -0.518987 1.148145 0.111268 -0.025360 -160529.000000 0 0 1
26.664579 -16.700430 13.881938 34.389132 -0.559544 1.155269 0.103952 -0.039346 -473232.000000 0 0 1
26.757079 -17.502330 12.562838 34.352551 -0.579266 1.196408 0.101446 -0.025550 -404358.000000 0 0 1
26.246679 -16.796630 11.442138 33.195444 -0.569280 1.218888 0.111210 -0.033983 -31362.300000 0 0 1
26.190779 -17.614730 10.294438 33.199565 -0.592068 1.255522 0.105814 -0.038425 113581.000000 0 0 1
27.492279 -17.824630 9.441538 34.098175 -0.575215 1.290237 0.098097 -0.025319 88793.700000 0 0 1
28.399379 -18.563430 10.174538 35.420996 -0.578941 1.279446 0.086314 -0.013481 -120237.000000 0 0 1
29.734399 -18.471930 9.660738 36.313587 -0.555884 1.301517 0.079618 0.003709 312373.000000 0 0 1
30.777479 -19.206530 10.455638 37.755323 -0.557912 1.290197 0.078655 -0.017094 -692750.000000 0 0 1
30.877609 -18.729330 11.773338 37.984550 -0.545234 1.255655 0.096475 -0.039233 150123.000000 0 0 1
30.840599 -19.780630 12.661638 38.765100 -0.570294 1.238066 0.071018 -0.037264 -14705.700000 0 0 1
30.675049 -19.334330 14.183638 38.935210 -0.562398 1.197928 0.085665 -0.030472 169626.000000 0 0 1
30.518019 -20.372430 15.151438 39.698256 -0.588617 1.179199 0.084814 -0.033738 -83973.500000 0 0 1
30.236079 -19.859630 16.442038 39.736206 -0.581154 1.144194 0.096341 -0.037145 194732.000000 0 0 1
29.699169 -20.851830 17.524338 40.298163 -0.612135 1.120906 0.072871 -0.030830 155548.000000 0 0 1
28.425479 -21.383330 17.237038 39.526829 -0.644945 1.119553 0.045878 -0.013163 -325865.000000 0 0 1
28.212279 -22.380130 18.197538 40.347904 -0.670628 1.102893 0.077497 -0.015729 -388945.000000 0 0 1
26.855379 -23.055830 18.109538 39.758497 -0.709419 1.097875 0.062825 -0.010564 -456990.000000 0 0 1
25.760079 -22.264030 18.517938 38.758003 -0.712729 1.072666 0.066062 0.000260 -419771.000000 0 0 1
24.572379 -22.979430 18.361038 38.327324 -0.751911 1.071214 0.060698 -0.003377 124887.000000 0 0 1
23.363279 -22.340530 19.136438 37.565215 -0.763024 1.036287 0.035378 0.002498 396496.000000 0 0 1
22.835679 -21.110330 18.620538 36.246914 -0.746158 1.031289 0.035016 -0.003702 468526.000000 0 0 1
21.759779 -20.532730 19.391838 35.652832 -0.756393 0.995710 0.032405 -0.004025 703753.000000 0 0 1
22.021679 -20.051230 20.853438 36.357559 -0.738598 0.959945 0.023480 -0.000401 -446786.000000 0 0 1
22.222279 -21.058530 21.805438 37.586813 -0.758516 0.951902 0.038126 0.001893 -187006.000000 0 0 1
22.370679 -20.521830 23.117308 38.157604 -0.742321 0.919978 0.058346 -0.003814 -63666.000000 0 0 1
22.862479 -21.493230 24.181638 39.615698 -0.754538 0.914224 0.058054 -0.004538 -255601.000000 0 0 1
21.934579 -22.504730 24.404108 39.788807 -0.798227 0.910513 0.056165 -0.005227 -304067.000000 0 0 1
22.422579 -23.492130 25.276118 41.152575 -0.808688 0.909418 0.056460 -0.001724 -462071.000000 0 0 1
21.359879 -24.308830 26.001028 41.511651 -0.849881 0.893928 0.054333 -0.003365 -452632.000000 0 0 1
20.681079 -25.251030 25.176348 41.220991 -0.884565 0.913770 0.059030 -0.001251 576991.000000 0 0 1
19.630879 -25.791430 25.996048 41.549535 -0.920204 0.894814 0.050441 -0.000058 928035.000000 0 0 1
18.592879 -26.782730 25.317658 41.279458 -0.963966 0.910535 0.057035 -0.003460 470353.000000 0 0 1
17.699979 -26.156430 24.429008 39.927742 -0.975882 0.912424 0.052196 -0.006072 157729.000000 0 0 1
16.957379 -27.149130 23.729848 39.846376 -1.012484 0.932867 0.057919 -0.012692 -698445.000000 0 0 1
16.033179 -26.602330 22.682538 38.460946 -1.028395 0.940041 0.056428 -0.020232 -228286.000000 0 0 1
14.936979 -25.835730 23.173398 37.783657 -1.046596 0.910542 0.044183 -0.010530 45880.100000 0 0 1
14.425079 -25.053030 22.139538 36.412860 -1.048375 0.917239 0.033410 -0.013375 110696.000000 0 0 1
12.965579 -24.580530 22.352938 35.664584 -1.085412 0.893415 0.035087 -0.013653 341491.000000 0 0 1
11.988079 -25.606730 22.284038 35.999959 -1.132943 0.903325 0.029059 -0.014688 -297811.000000 0 0 1
10.718279 -25.033830 22.438638 35.285502 -1.166259 0.881601 0.040002 -0.014907 450811.000000 0 0 1
9.479679 -25.989730 22.349438 35.564418 -1.221045 0.891274 0.036492 -0.014904 586216.000000 0 0 1
9.300879 -26.611230 21.094738 35.208691 -1.234558 0.928377 0.037916 -0.014218 -574952.000000 0 0 1
7.988779 -26.997230 20.856638 35.038128 -1.283095 0.933213 0.043535 -0.010897 -531716.000000 0 0 1
7.766979 -27.972830 19.711838 35.090765 -1.299957 0.974310 0.052116 -0.016297 -93191.100000 0 0 1
8.052879 -29.299330 20.075938 36.418991 -1.302571 0.986936 0.063546 -0.017735 40429.400000 0 0 1
7.855979 -30.185930 18.984838 36.514804 -1.316191 1.024037 0.053050 -0.008479 120218.000000 0 0 1
8.630179 -31.559530 19.007738 37.838843 -1.303865 1.044500 0.056752 -0.010225 -314548.000000 0 0 1
8.046379 -32.604630 19.780838 38.975476 -1.328845 1.038492 0.057210 -0.017121 599375.000000 0 0 1
8.949179 -33.715430 19.910838 40.165402 -1.311346 1.052131 0.062595 -0.019526 221008.000000 0 0 1
8.393979 33.323988 20.825638 40.182761 1.324040 1.025966 0.076173 -0.030908 120238.000000 0 0 1
7.556079 32.273688 20.346938 38.893228 1.340814 1.020255 0.081630 -0.034378 158729.000000 0 0 1
7.531179 31.263288 21.309638 38.577358 1.334405 0.985571 0.080399 -0.039743 -459222.000000 0 0 1
6.554579 30.150688 20.980738 37.312436 1.356733 0.973633 0.094562 -0.039520 -420319.000000 0 0 1
5.212079 30.516788 21.149538 37.493241 1.401635 0.971466 0.094928 -0.040797 -674911.000000 0 0 1
4.341879 29.525988 20.681538 36.309254 1.424790 0.964784 0.103619 -0.032760 1234050.000000 0 0 1
2.819879 29.625688 21.097538 36.479299 1.475899 0.954101 0.091298 -0.022740 1222880.000000 0 0 1
2.630879 29.270688 22.464238 36.991036 1.481156 0.918153 0.063625 -0.020181 -537848.000000 0 0 1
1.288279 28.978488 22.705238 36.836670 1.526369 0.906664 0.055940 -0.009810 -405662.000000 0 0 1
1.094579 28.317188 24.058538 37.173573 1.532161 0.866898 0.053958 -0.004446 -104245.000000 0 0 1
1.235079 29.246888 25.150848 38.593666 1.528592 0.860995 0.057663 -0.008801 159962.000000 0 0 1
0.779679 28.803388 26.363938 39.055093 1.543734 0.829771 0.062515 -0.013138 -189979.000000 0 0 1
1.940779 28.273788 27.249068 39.315206 1.502261 0.805026 0.038397 -0.013408 212483.000000 0 0 1
2.411679 26.981188 26.784558 38.094793 1.481649 0.791045 0.043644 -0.017737 218485.000000 0 0 1
3.210479 26.345088 27.751608 38.399513 1.449532 0.763085 0.021060 -0.009882 -127632.000000 0 0 1
3.839679 25.072988 27.184128 37.180300 1.418837 0.750800 0.033262 0.009603 -248112.000000 0 0 1
2.860279 24.088588 26.959508 36.266463 1.452610 0.732697 0.048812 0.004729 -258623.000000 0 0 1
3.392979 22.770688 26.955758 35.448970 1.422878 0.706852 0.040416 0.010891 -124230.000000 0 0 1
2.454879 21.593888 26.579708 34.333705 1.457598 0.685413 0.056465 0.007613 -182863.000000 0 0 1
2.888779 20.255588 26.837158 33.747103 1.429135 0.651388 0.069973 0.006026 -275287.000000 0 0 1
3.590879 19.767188 25.740658 32.652988 1.391097 0.662740 0.073273 0.006879 -368701.000000 0 0 1
3.872379 18.260588 25.868748 31.900416 1.361830 0.625070 0.075450 -0.001794 321414.000000 0 0 1
4.945279 17.932088 26.752708 32.584091 1.301707 0.607573 0.065165 -0.000406 -728581.000000 0 0 1
6.123379 17.706288 26.095328 32.124361 1.237841 0.622674 0.086577 0.003637 -1460960.000000 0 0 1
7.383779 17.567288 27.008988 33.054731 1.172901 0.614435 0.067092 -0.005600 557214.000000 0 0 1
8.018879 18.758488 27.473198 34.219292 1.166827 0.638724 0.057630 -0.002677 200629.000000 0 0 1
8.525179 19.598688 26.479658 34.028805 1.160497 0.679075 0.051269 -0.010697 -764098.000000 0 0 1
9.051279 20.939188 27.006418 35.351406 1.162788 0.701396 0.032532 -0.007864 275817.000000 0 0 1
10.219279 20.754988 27.802268 36.168623 1.113266 0.694014 0.052773 -0.032594 227088.000000 0 0 1
10.461479 21.772288 28.755188 37.554440 1.122874 0.698678 0.072702 -0.032162 113294.000000 0 0 1
11.477079 21.390788 29.877338 38.496032 1.078343 0.682315 0.088821 -0.035232 -587392.000000 0 0 1
12.769479 21.328188 29.397488 38.498877 1.031323 0.701936 0.088194 -0.033945 -619009.000000 0 0 1
13.678779 21.306088 30.541198 39.671440 1.000057 0.692185 0.087939 -0.017737 1514240.000000 0 0 1
15.195479 21.070988 30.185888 39.825582 0.946012 0.710628 0.076862 -0.017368 942622.000000 0 0 1
15.760979 22.190588 29.527038 40.158146 0.953221 0.744733 0.063652 -0.034262 -183985.000000 0 0 1
17.037979 21.808188 29.065398 40.133367 0.907584 0.760893 0.118687 -0.016107 -60646.300000 0 0 1
-8.802773 16.736088 4.391382 19.413132 -1.086585 1.342615 0.032304 -0.021116 -229334.000000 0 1 0
-8.568073 18.003688 4.963882 20.547135 -1.126609 1.326797 0.040567 -0.024875 199727.000000 0 1 0
-7.185273 18.321188 4.941082 20.290598 -1.197046 1.324807 0.032973 -0.020237 -21466.600000 0 1 0
-6.950073 19.779088 5.398682 21.648593 -1.232888 1.318758 0.040384 -0.026040 -195078.000000 0 1 0
-7.312673 20.702388 4.433482 22.399103 -1.231248 1.371549 0.050679 -0.036460 996550.000000 0 1 0
-8.708173 21.070188 4.309682 23.202553 -1.178883 1.383970 0.054210 -0.033797 1110700.000000 0 1 0
-8.814573 22.372888 3.395882 24.285280 -1.195486 1.430504 0.083863 -0.039127 103495.000000 0 1 0
-8.370573 22.386388 2.048182 23.987745 -1.212979 1.485308 0.069470 -0.038501 -404585.000000 0 1 0
-8.926273 21.392388 1.211582 23.211647 -1.175496 1.518575 0.086418 -0.040038 -715298.000000 0 1 0
-8.201673 21.239488 -0.151818 22.768538 -1.202285 1.577464 0.064820 -0.023129 1192450.000000 0 1 0
-6.897073 20.618288 -0.218918 21.742386 -1.247985 1.580865 0.058494 -0.022277 964637.000000 0 1 0
-5.881573 21.513888 0.226982 22.304524 -1.303932 1.560620 0.065796 -0.032343 -512761.000000 0 1 0
-4.421373 21.224388 -0.128218 21.680397 -1.365418 1.576710 0.057435 -0.027962 -189305.000000 0 1 0
-4.248973 21.372188 -1.498018 21.841892 -1.374547 1.639435 0.051726 -0.033622 891925.000000 0 1 0
-2.884873 21.273388 -1.969018 21.558213 -1.436009 1.662259 0.052385 -0.030402 746149.000000 0 1 0
-2.753873 21.377288 -3.490218 21.834694 -1.442680 1.731332 0.054750 -0.026302 -522476.000000 0 1 0
-1.494773 21.704088 -3.984818 22.117427 -1.502034 1.751952 0.065147 -0.028041 -477964.000000 0 1 0
-1.553073 22.233688 -5.281918 22.905187 -1.501057 1.803490 0.071599 -0.029602 -10988.700000 0 1 0
-0.284873 23.000288 -5.728818 23.704720 -1.558411 1.814887 0.066740 -0.027812 -94885.200000 0 1 0
0.785527 22.112888 -5.895318 22.898726 1.535288 1.831181 0.050542 -0.013410 -751954.000000 0 1 0
1.907427 22.722588 -6.486518 23.707155 1.487049 1.847941 0.058309 -0.011809 336384.000000 0 1 0
3.045927 21.657288 -6.663818 22.863120 1.431071 1.866555 0.040497 -0.006886 140843.000000 0 1 0
2.794627 20.846288 -7.748518 22.414665 1.437532 1.923770 0.040875 -0.006741 -134656.000000 0 1 0
3.631127 19.711588 -7.843718 21.523376 1.388626 1.943815 0.027164 -0.013701 114773.000000 0 1 0
3.327727 18.898488 -9.107118 21.240674 1.396499 2.013914 0.025450 -0.005421 36087.300000 0 1 0
3.818127 19.489888 -10.313618 22.378663 1.377343 2.049770 0.033390 -0.008043 244763.000000 0 1 0
2.969927 19.064688 -11.369518 22.395284 1.416257 2.103280 0.032419 -0.008306 219453.000000 0 1 0
3.463427 19.421588 -12.819518 23.527292 1.394323 2.147041 0.030252 -0.004033 -77483.300000 0 1 0
3.453427 20.772488 -13.207918 24.857022 1.406053 2.130996 0.059934 -0.012487 -227295.000000 0 1 0
3.870727 20.937488 -14.539618 25.782968 1.387990 2.169925 0.083943 -0.019703 -42805.100000 0 0 1
4.165427 22.430488 -14.841818 27.216854 1.387184 2.147564 0.082225 -0.018620 382248.000000 0 0 1
2.993727 23.234988 -14.957818 27.795025 1.442657 2.139034 0.091380 -0.024782 -18377.900000 0 0 1
3.305027 24.642588 -15.096618 29.087596 1.437473 2.116483 0.084327 -0.026117 -474407.000000 0 0 1
2.104627 25.475388 -15.519218 29.904364 1.488369 2.116432 0.088923 -0.025465 -531518.000000 0 0 1
1.220027 25.696488 -14.452818 29.507320 1.523354 2.082662 0.088253 -0.030393 -292568.000000 0 0 1
0.981027 27.056688 -14.055818 30.505619 1.534554 2.049649 0.064797 -0.025896 -227445.000000 0 0 1
0.141627 27.278588 -12.780918 30.124629 1.565604 2.008950 0.068195 -0.033988 1278290.000000 0 0 1
-1.290873 27.046488 -12.734118 29.922176 -1.523105 2.010393 0.048630 -0.035004 1307800.000000 0 0 1
-1.814273 25.749088 -13.045618 28.922228 -1.500453 2.038747 0.054300 -0.030211 -88366.400000 0 0 1
-1.653673 24.769988 -11.881118 27.521772 -1.504134 2.017172 0.070625 -0.032037 75009.300000 0 0 1
-2.513473 25.169288 -10.805818 27.505932 -1.471264 1.974529 0.079634 -0.026309 214585.000000 0 0 1
-2.410973 24.134888 -9.832818 26.172312 -1.471231 1.955943 0.083604 -0.015695 492745.000000 0 0 1
-3.522073 24.224388 -8.717718 25.985084 -1.426414 1.912921 0.075976 -0.020641 311854.000000 0 0 1
-3.169373 24.698588 -7.408118 25.979711 -1.443172 1.859959 0.089285 -0.026649 -225269.000000 0 0 1
-2.765973 26.020688 -7.296618 27.165556 -1.464895 1.842734 0.089900 -0.031331 16211.800000 0 0 1
-2.434673 26.580188 -5.860918 27.327356 -1.479454 1.786946 0.089336 -0.027796 578393.000000 0 0 1
-1.307973 25.961988 -5.222518 26.514342 -1.520459 1.769062 0.093102 -0.033493 304499.000000 0 0 1
-1.308473 26.150388 -3.800618 26.457505 -1.520802 1.714945 0.097758 -0.034043 -37250.800000 0 0 1
-2.215173 25.280488 -2.872218 25.539376 -1.483396 1.683497 0.094620 -0.042751 370904.000000 0 0 1
-3.589373 25.507088 -3.135918 25.948586 -1.430994 1.691944 0.084172 -0.042089 114504.000000 0 0 1
-4.428773 24.942188 -2.130118 25.421726 -1.395066 1.654686 0.088605 -0.045217 582247.000000 0 0 1
-5.745073 24.373688 -2.755418 25.192754 -1.339314 1.680389 0.079499 -0.043961 1018180.000000 0 0 1
-6.768973 25.341688 -3.075918 26.409873 -1.309782 1.687530 0.079698 -0.039370 415632.000000 0 0 1
-7.905673 24.710688 -3.613318 26.194920 -1.261158 1.709177 0.074632 -0.027208 -425240.000000 0 0 1
-9.168673 25.511788 -3.796218 27.373841 -1.225781 1.709925 0.047400 -0.017138 -614637.000000 0 0 1
-9.946473 25.552288 -2.621318 27.544928 -1.199583 1.666106 0.062042 -0.026319 -1008240.000000 0 0 1
-11.159173 26.176788 -2.856018 28.599094 -1.167825 1.670827 0.056833 -0.016333 -128696.000000 0 0 1
-12.128073 26.141988 -1.604318 28.862909 -1.136418 1.626409 0.071829 -0.020393 570588.000000 0 0 1
-12.610373 24.848088 -1.122518 27.887435 -1.101168 1.611059 0.084609 -0.021006 593486.000000 0 0 1
-11.591473 24.057488 -0.502618 26.709129 -1.121795 1.589616 0.091888 -0.028671 208395.000000 0 0 1
-12.084073 22.658388 -0.208818 25.680167 -1.080853 1.578928 0.089459 -0.029467 -222216.000000 0 0 1
-12.845373 22.663388 0.976682 26.068883 -1.055154 1.533322 0.093767 -0.030216 -89431.900000 0 0 1
-13.363373 21.383288 1.256382 25.246846 -1.012237 1.521012 0.091753 -0.039139 -355666.000000 0 0 1
-14.105073 21.354088 2.568482 25.720561 -0.987052 1.470769 0.085877 -0.038822 -517271.000000 0 0 1
-13.283473 21.464288 3.692782 25.510840 -1.016622 1.425533 0.090890 -0.040353 -134586.000000 0 0 1
-13.167173 22.801288 4.084782 26.645049 -1.047104 1.416886 0.079510 -0.036262 -192593.000000 0 0 1
-12.767673 22.902488 5.586082 26.809359 -1.062229 1.360895 0.079221 -0.034146 -36694.300000 0 0 1
-11.456173 22.437488 5.904682 25.875665 -1.098719 1.340574 0.077336 -0.028398 486576.000000 0 0 1
-11.419773 21.801688 7.192482 25.640917 -1.088289 1.286473 0.057358 -0.031514 881861.000000 0 0 1
-9.988373 21.772488 7.858982 25.210562 -1.140681 1.253779 0.042953 -0.023860 885496.000000 0 0 1
-9.438573 22.940588 8.425682 26.198270 -1.180471 1.243365 0.045807 -0.024268 363067.000000 0 0 1
-8.288573 22.723088 9.250982 25.896329 -1.221029 1.205494 0.049928 -0.020082 445310.000000 0 0 1
-8.611873 22.339488 10.726482 26.234986 -1.202852 1.149590 0.044708 -0.023816 56554.300000 0 0 1
-9.241173 21.045088 10.917882 25.445926 -1.157033 1.127342 0.049235 -0.018851 180097.000000 0 0 1
-8.909773 20.526788 12.176182 25.475331 -1.161280 1.072466 0.039398 -0.013231 -401191.000000 0 0 1
-9.796473 19.368388 12.648582 25.121544 -1.102522 1.043157 0.033874 -0.010515 -89315.300000 0 0 1
-9.572973 18.206188 11.946282 23.786987 -1.086716 1.044633 0.044093 -0.024566 171441.000000 0 1 0
-10.498773 17.205388 12.370182 23.648911 -1.022909 1.020340 0.047859 -0.024894 -93612.800000 0 1 0
-10.511773 15.908488 11.590582 22.314097 -0.986891 1.024614 0.050538 -0.038262 -230576.000000 0 1 0
-11.282473 14.877288 12.203082 22.305674 -0.921961 0.991919 0.048319 -0.031538 3078.170000 0 1 0
-11.499373 13.817988 11.294982 21.230850 -0.876725 1.009826 0.043711 -0.024392 151368.000000 0 1 0
-12.086073 12.562188 12.006882 21.167119 -0.804712 0.967643 0.033346 -0.027947 -644129.000000 0 1 0
-13.216373 12.706888 12.778682 22.347980 -0.765747 0.962092 0.053014 -0.025910 -697386.000000 0 1 0
-13.448473 11.540788 13.439882 22.241439 -0.709206 0.921944 0.036369 -0.011412 239811.000000 0 1 0
-14.381273 11.624688 14.672282 23.605725 -0.679794 0.900069 0.037751 -0.013709 136686.000000 0 1 0
-15.692073 12.112288 14.543982 24.586095 -0.657354 0.937813 0.050007 -0.021345 65424.800000 0 1 0
-16.403573 11.976988 15.809882 25.738644 -0.630672 0.909365 0.042135 -0.019705 661769.000000 0 0 1
-17.409373 13.226288 15.875582 27.019531 -0.649694 0.942757 0.051700 -0.017047 355408.000000 0 0 1
-18.591073 12.953888 15.163682 27.264784 -0.608562 0.981034 0.050230 -0.016138 -202690.000000 0 0 1
-19.428573 14.096788 15.064082 28.339291 -0.627682 1.010353 0.063375 -0.021180 81389.400000 0 0 1
-20.630773 13.779288 14.147882 28.559764 -0.588856 1.052526 0.069276 -0.019141 125210.000000 0 0 1
-21.501973 12.819388 14.746582 29.053971 -0.537618 1.038448 0.071241 -0.012869 160225.000000 0 0 1
-22.649773 12.594088 13.956582 29.434834 -0.507466 1.076796 0.066486 -0.012865 207239.000000 0 0 1
-23.687073 11.661388 14.628782 30.183880 -0.457477 1.064827 0.084296 -0.015494 118770.000000 0 0 1
-24.230773 12.110888 15.856682 31.388506 -0.463499 1.041212 0.118453 -0.021712 -42736.100000 0 0 1
-25.180413 11.263588 16.437282 32.110837 -0.420619 1.033410 0.113998 -0.020343 -12014.400000 0 0 1
-26.069633 11.994988 17.495182 33.609327 -0.431232 1.023307 0.109641 -0.020221 162718.000000 0 0 1
-27.073993 12.837088 16.928182 34.414463 -0.442753 1.056535 0.107926 -0.012980 -41260.300000 0 0 1
-27.893923 13.261988 17.955482 35.726049 -0.443810 1.044207 0.095211 0.000044 52014.000000 0 0 1
-28.978433 14.315288 17.497582 36.753808 -0.458834 1.074610 0.077324 -0.001669 623749.000000 0 0 1
-28.396123 15.531488 17.145082 36.626776 -0.500505 1.083654 0.090714 -0.003179 66428.500000 0 0 1
-29.422823 16.492288 16.986682 37.765665 -0.510889 1.104264 0.089783 0.002698 275736.000000 0 0 1
-28.866823 17.918388 17.101382 38.037079 -0.555520 1.104481 0.079307 0.001892 -254309.000000 0 0 1
-28.285543 18.295888 18.319582 38.346037 -0.574142 1.072712 0.068960 0.003839 -20943.500000 0 0 1
-29.215453 18.644488 19.319582 39.678783 -0.568015 1.062260 0.070299 -0.001275 -522913.000000 0 0 1
-28.682553 18.570788 20.750282 39.976708 -0.574587 1.025046 0.064453 -0.010163 179682.000000 0 0 1
-28.182703 17.384388 21.358382 39.403834 -0.552714 0.997936 0.071436 -0.008102 567125.000000 0 0 1
-27.176513 16.633688 20.669682 37.979971 -0.549241 0.995330 0.076568 0.008080 43982.000000 0 0 1
-26.892993 15.345088 21.413282 37.646161 -0.518520 0.965746 0.074017 -0.003155 -27231.500000 0 0 1
-28.061463 14.556188 21.507482 38.234802 -0.478515 0.973377 0.061703 -0.003195 247736.000000 0 0 1
-27.764713 13.220588 21.878882 37.740544 -0.444399 0.952413 0.070699 -0.004684 91156.400000 0 0 1
-29.039453 12.383088 22.170582 38.576747 -0.403075 0.958542 0.076418 -0.008924 91903.600000 0 0 1
-29.853783 12.219688 21.040382 38.513203 -0.388513 0.992837 0.076629 -0.009253 -129189.000000 0 0 1
-30.809373 11.197388 21.196882 39.037248 -0.348598 0.996801 0.097062 -0.010045 -298500.000000 0 0 1
-31.699153 11.061588 19.936482 39.046873 -0.335744 1.034939 0.118492 -0.009252 -443565.000000 0 0 1
-31.064663 10.610088 18.762182 37.810140 -0.329126 1.051556 0.133441 -0.019488 -66053.200000 0 0 1
-30.700733 9.236488 18.733882 37.132277 -0.292242 1.041973 0.141787 -0.024346 9565.160000 0 0 1
-29.803713 8.958688 17.485482 35.696799 -0.291998 1.058898 0.157454 -0.037103 67803.000000 0 0 1
-30.508293 8.728588 16.276482 35.663259 -0.278661 1.096859 0.160885 -0.026406 300337.000000 0 0 1
-31.097993 9.917788 15.686982 36.215039 -0.308723 1.122798 0.148688 -0.024794 296740.000000 0 0 1
-30.118033 11.067788 15.182982 35.498095 -0.352162 1.128836 0.149037 -0.021558 629786.000000 0 0 1
-29.408253 10.668888 14.017382 34.280570 -0.348019 1.149546 0.156569 -0.028773 -68754.800000 0 0 1
-28.221053 11.374688 13.800482 33.410547 -0.383139 1.144987 0.137094 -0.022398 -94210.000000 0 0 1
-27.731923 11.305588 12.298082 32.374661 -0.387104 1.181143 0.164873 -0.023666 -375608.000000 0 0 1
-27.179873 10.097188 11.833182 31.316495 -0.355694 1.183315 0.173865 -0.020713 648169.000000 0 0 1
-28.057223 9.001088 11.546782 31.647362 -0.310439 1.197316 0.181250 -0.018642 192081.000000 0 0 1
-27.204603 7.883488 10.883482 30.342873 -0.282059 1.203939 0.182604 -0.025846 151076.000000 0 0 1
-26.635913 8.185688 9.607882 29.475222 -0.298157 1.238764 0.170177 -0.021794 8608.140000 0 0 1
-26.261833 6.972788 8.990782 28.620583 -0.259523 1.251249 0.177004 -0.042204 -71618.600000 0 0 1
-25.441653 7.186588 7.689582 27.532788 -0.275301 1.287744 0.163867 -0.022139 2013.110000 0 0 1
-26.228203 7.784288 6.685582 28.163998 -0.288510 1.331128 0.156252 -0.026989 242941.000000 0 0 1
-25.471963 7.928888 5.506982 27.239952 -0.301772 1.367228 0.149159 -0.028308 -201700.000000 0 0 1
-26.286183 8.613788 4.353382 28.002012 -0.316665 1.414696 0.128372 -0.023320 234729.000000 0 0 1
-27.348483 7.948688 3.697482 28.719201 -0.282852 1.441692 0.168431 -0.027676 453152.000000 0 0 1
-26.960623 6.742888 3.003982 27.952918 -0.245074 1.463123 0.181423 -0.028815 -313541.000000 0 0 1
-25.999953 6.821588 1.778782 26.938739 -0.256586 1.504718 0.186929 -0.021260 -719021.000000 0 0 1
-24.763373 7.255688 2.236082 25.901152 -0.285023 1.484357 0.157568 -0.016222 -881779.000000 0 0 1
-23.970173 7.499088 1.109482 25.140335 -0.303204 1.526650 0.166309 -0.007088 -711549.000000 0 0 1
-22.694973 8.235988 1.510582 24.190394 -0.348120 1.508310 0.144960 -0.010015 -585122.000000 0 1 0
-22.979773 9.572488 1.856282 24.962938 -0.394701 1.496366 0.134431 -0.013704 1748910.000000 0 1 0
-21.772373 10.328288 2.170682 24.195487 -0.442939 1.480961 0.128684 -0.015883 966173.000000 0 1 0
-22.167673 11.702388 2.700082 25.211942 -0.485720 1.463495 0.128618 -0.019828 -568590.000000 0 0 1
-21.082073 12.484588 3.062182 24.692017 -0.534657 1.446461 0.134719 -0.021684 -123874.000000 0 1 0
-21.432873 13.597788 3.843182 25.671734 -0.565356 1.420527 0.136271 -0.030671 -328507.000000 0 0 1
-20.180573 14.198888 4.495382 25.081316 -0.613133 1.390590 0.105988 -0.023982 147496.000000 0 0 1
-19.645773 13.291888 5.495782 24.348189 -0.594833 1.343118 0.098323 -0.029311 169669.000000 0 1 0
-18.815073 13.929788 6.426382 24.276415 -0.637298 1.302886 0.092508 -0.028783 -293343.000000 0 1 0
-18.215773 12.969088 7.503082 23.586179 -0.618715 1.247057 0.055494 -0.031729 -398143.000000 0 1 0
-17.352173 12.107488 6.822082 22.231283 -0.609215 1.258895 0.065579 -0.025449 -126608.000000 0 1 0
-16.469073 11.630788 7.849682 21.636152 -0.614888 1.199521 0.044453 -0.020096 -70829.400000 0 1 0
10.194327 -33.345830 -14.267518 37.675334 -1.274105 1.959184 0.061058 -0.002455 -329786.000000 0 0 1
11.501427 -33.227330 -13.768818 37.761338 -1.237561 1.944029 0.062478 -0.013658 -106885.000000 0 0 1
12.090527 -32.024430 -14.262018 37.083017 -1.209800 1.965568 0.056825 -0.020500 266126.000000 0 0 1
13.416027 -31.696330 -13.520918 36.979216 -1.170394 1.945112 0.059371 -0.024601 1188960.000000 0 0 1
14.625627 -32.307730 -14.084018 38.158328 -1.145701 1.948831 0.065389 -0.017142 1149540.000000 0 0 1
15.693727 -31.630730 -13.388218 37.762952 -1.110230 1.933211 0.048294 -0.017776 376143.000000 0 0 1
17.076927 -32.081030 -13.923418 38.918833 -1.081639 1.936659 0.071862 -0.015819 72917.400000 0 0 1
17.264927 -33.401730 -13.562518 39.971180 -1.093730 1.916977 0.073708 -0.018333 123198.000000 0 0 1
18.518027 -33.892930 -14.045418 41.096494 -1.070746 1.919593 0.072328 -0.010462 623089.000000 0 0 1
18.813927 32.784188 -13.644318 40.186245 1.049810 1.917210 0.062010 -0.015155 -237210.000000 0 0 1
19.248727 32.537188 -12.328918 39.764109 1.036582 1.886043 0.052212 -0.012174 -87751.200000 0 0 1
19.048827 31.196088 -11.939818 38.452737 1.022608 1.886522 0.046108 -0.007266 17248.800000 0 0 1
19.602827 30.808988 -10.521918 38.002307 1.004134 1.851338 0.040543 -0.009096 530384.000000 0 0 1
20.914227 30.281188 -10.656518 38.313400 0.966361 1.852654 0.039412 -0.012073 381907.000000 0 0 1
21.631427 30.127288 -9.440818 38.271415 0.948091 1.820050 0.026332 -0.003823 -253461.000000 0 0 1
22.742327 29.097488 -9.344418 38.094559 0.907382 1.818621 0.031898 0.008358 35372.900000 0 0 1
23.809827 29.478188 -10.228318 39.249076 0.891372 1.834440 0.031782 -0.005713 490447.000000 0 0 1
25.017727 28.923888 -9.700318 39.453443 0.857687 1.819211 0.035023 -0.002013 554953.000000 0 0 1
26.292827 29.193288 -10.543018 40.678201 0.837624 1.832970 0.030199 -0.006508 43823.700000 0 0 1
26.844727 30.481388 -10.394018 41.926006 0.848751 1.821322 0.041138 -0.009325 32519.800000 0 0 1
28.008927 30.613088 -11.188618 42.974950 0.829792 1.834183 0.049386 -0.011236 -102678.000000 0 0 1
28.642127 31.971688 -11.062018 44.327514 0.840274 1.823014 0.049702 -0.012911 -454641.000000 0 0 1
27.959827 33.012288 -11.706118 44.817366 0.868074 1.835057 0.063236 -0.015018 28525.400000 0 0 1
28.492827 -33.878230 -11.299818 45.686558 -0.871529 1.820724 0.063002 -0.012927 -52237.200000 0 0 1
27.506627 -32.809630 -11.808118 44.413039 -0.873093 1.839903 0.048700 -0.006146 -48469.700000 0 0 1
26.277627 -33.001630 -11.129418 43.628950 -0.898345 1.828740 0.063314 -0.020323 -196795.000000 0 0 1
25.256127 -32.092130 -11.528018 42.434326 -0.904040 1.845921 0.064151 -0.026823 213753.000000 0 0 1
25.382727 -30.605330 -11.076418 41.275370 -0.878410 1.842480 0.055108 -0.011975 -656432.000000 0 0 1
26.166827 -29.919530 -12.001518 41.520087 -0.852208 1.864034 0.053528 -0.016689 -342081.000000 0 0 1
26.466627 -28.651330 -11.423718 40.643357 -0.825014 1.855708 0.048178 -0.019765 -460617.000000 0 0 1
27.444227 -27.771530 -12.203618 40.906868 -0.791326 1.873736 0.042202 -0.012525 638040.000000 0 0 1
28.737527 -28.367230 -12.410218 42.244038 -0.778914 1.868969 0.021003 -0.010720 597374.000000 0 0 1
28.795927 -29.090430 -13.629718 43.141949 -0.790486 1.892230 0.035125 -0.014444 -35310.600000 0 0 1
30.235127 -29.607830 -13.896418 44.540958 -0.774916 1.888085 0.038789 -0.016228 376910.000000 0 0 1
30.635127 -30.655430 -13.004618 45.248056 -0.785729 1.862315 0.040105 -0.017039 451064.000000 0 0 1
31.897227 -31.178830 -13.427818 46.581744 -0.774009 1.863209 0.049953 -0.020523 371415.000000 0 0 1
32.554127 -32.199730 -12.469318 47.456061 -0.779925 1.836673 0.052007 -0.013602 -184712.000000 0 0 1
33.541627 -32.921330 -13.159518 48.806021 -0.776065 1.843804 0.046114 -0.013598 -591950.000000 0 0 1
34.314627 -33.767430 -12.351218 49.701968 -0.777361 1.821933 0.049420 -0.009047 -253046.000000 0 0 1
33.737927 33.184588 -11.547218 48.711424 0.777130 1.810128 0.039698 -0.010353 237893.000000 0 0 1
32.928827 33.477988 -10.367918 48.089262 0.793668 1.788100 0.041543 -0.012636 461746.000000 0 0 1
32.353327 32.321788 -9.757018 46.761471 0.784911 1.780996 0.044456 -0.012165 -56666.000000 0 0 1
31.529327 32.664788 -8.474418 46.183359 0.803084 1.755337 0.034305 -0.008141 284580.000000 0 0 1
30.501827 33.609188 -8.732618 46.219018 0.833829 1.760879 0.037544 -0.014871 -261817.000000 0 0 1
29.866227 33.965288 -7.528118 45.850898 0.849527 1.735730 0.037408 -0.012392 -35813.200000 0 0 1
28.890427 -33.003030 -7.697218 44.532056 -0.851747 1.744515 0.043456 -0.020041 -527455.000000 0 0 1
29.529127 -31.716030 -7.895818 44.047927 -0.821090 1.751026 0.025297 -0.018722 -16351.900000 0 0 1
28.761127 -30.554130 -8.104918 42.736952 -0.815617 1.761599 0.032492 -0.018241 -102509.000000 0 0 1
27.672527 -30.181530 -7.055818 41.550910 -0.828739 1.741435 0.038942 -0.019576 184185.000000 0 0 1
26.763127 -29.265030 -7.572318 40.373840 -0.830023 1.759469 0.040260 -0.035217 -222294.000000 0 0 1
25.741827 -28.854530 -6.688618 39.242365 -0.842350 1.742076 0.045439 -0.036857 35101.000000 0 0 1
24.681927 -27.968330 -7.358218 38.020631 -0.847737 1.765558 0.077666 -0.043264 -446137.000000 0 0 1
23.934527 -28.563130 -8.398118 38.200031 -0.873339 1.792453 0.091784 -0.035214 48556.400000 0 0 1
23.280927 -27.492130 -9.070618 37.149629 -0.868150 1.817454 0.107887 -0.033458 -603211.000000 0 0 1
21.979927 -27.859830 -9.766018 36.805740 -0.902832 1.839352 0.104865 -0.026159 -666015.000000 0 0 1
22.083527 -28.823030 -10.831018 37.891427 -0.917022 1.860683 0.109694 -0.024467 317365.000000 0 0 1
20.847427 -29.477330 -11.145318 37.785531 -0.955231 1.870213 0.095616 -0.027644 675865.000000 0 0 1
20.511427 -30.781830 -10.384818 38.419841 -0.983014 1.844499 0.094725 -0.030650 166797.000000 0 0 1
21.279127 -31.877330 -10.863618 39.836963 -0.982195 1.846997 0.079872 -0.019213 -202797.000000 0 0 1
20.922127 -33.076430 -10.277318 40.464910 -1.006794 1.827590 0.065858 -0.018459 651652.000000 0 0 1
22.022027 33.887388 -10.244918 41.692722 0.994520 1.819063 0.054140 -0.011227 1103930.000000 0 0 1
23.067727 34.030688 -9.282618 42.147061 0.975091 1.792860 0.049743 -0.011428 703939.000000 0 0 1
24.075527 33.013988 -9.462718 41.941596 0.940707 1.798372 0.038639 -0.005365 2025930.000000 0 0 1
25.519127 33.304888 -8.806018 42.871755 0.916990 1.777673 0.038156 -0.010259 1484600.000000 0 0 1
25.670527 33.081588 -7.388318 42.520050 0.910877 1.745444 0.036850 -0.019322 206584.000000 0 0 1
25.797527 31.744588 -6.999818 41.499744 0.888384 1.740278 0.038160 -0.013414 -390399.000000 0 0 1
25.889227 31.682188 -5.465818 41.278182 0.885683 1.703601 0.034767 -0.003364 -94388.400000 0 0 1
27.188427 31.934888 -4.935318 42.230380 0.865507 1.687931 0.042294 -0.005313 318873.000000 0 0 1
27.975827 30.790888 -4.643718 41.860361 0.833264 1.681959 0.057424 0.000820 1682.590000 0 0 1
27.607327 29.801388 -3.489518 40.773324 0.823598 1.656485 0.065348 0.005881 -712161.000000 0 0 1
27.450127 30.332088 -2.176818 40.966860 0.835233 1.623957 0.069976 0.003683 115254.000000 0 0 1
27.211027 29.367488 -1.149318 40.052594 0.823494 1.599495 0.065993 0.010600 889463.000000 0 0 1
25.808927 28.652888 -1.322318 38.585454 0.837570 1.605073 0.046819 0.013597 -78754.900000 0 0 1
24.729827 29.467188 -1.072518 38.484150 0.872587 1.598669 0.046777 0.007404 -449281.000000 0 0 1
23.483027 28.808488 -1.260018 37.188294 0.886890 1.604685 0.045392 0.015290 621303.000000 0 0 1
22.245427 29.497188 -0.649618 36.950848 0.924642 1.588378 0.043077 0.008930 112065.000000 0 0 1
22.096027 29.266188 0.728382 36.677987 0.924102 1.550936 0.051902 -0.009520 -1207280.000000 0 0 1
20.845827 29.718388 1.009182 36.314591 0.959101 1.543003 0.051556 -0.016994 -1407590.000000 0 0 1
20.102527 29.001588 2.156882 35.353300 0.964681 1.509749 0.059680 -0.026900 -168916.000000 0 0 1
19.676227 27.706588 1.755782 34.027808 0.953281 1.519175 0.076743 -0.020548 197756.000000 0 0 1
19.057927 27.001088 2.812782 33.168887 0.956175 1.485893 0.102563 -0.025602 -168048.000000 0 0 1
18.393627 25.716088 2.347182 31.704132 0.949904 1.496695 0.094771 -0.016940 -79584.500000 0 0 1
19.294227 24.722088 1.888582 31.416804 0.908093 1.510646 0.089902 -0.016591 232930.000000 0 0 1
20.021527 24.034388 2.898782 31.415224 0.876233 1.478392 0.089053 -0.013476 -489117.000000 0 0 1
21.210927 23.236288 2.394282 31.552513 0.830934 1.494841 0.099199 -0.018764 -545530.000000 0 0 1
20.909227 22.123388 1.630982 30.484425 0.813606 1.517269 0.103200 -0.018465 305392.000000 0 0 1
22.136227 21.535688 1.256182 30.909164 0.771648 1.530144 0.089980 -0.019266 99717.000000 0 0 1
21.988027 20.536588 0.068482 30.087032 0.751280 1.568520 0.107527 -0.020304 -450688.000000 0 0 1
21.590427 21.023288 -1.160918 30.157469 0.772090 1.609301 0.082816 -0.012093 321491.000000 0 0 1
21.775327 20.140088 -2.226518 29.744670 0.746405 1.645721 0.122504 -0.025378 -167761.000000 0 0 1
21.563427 20.742688 -3.601118 30.136499 0.766001 1.690576 0.108591 -0.020313 205474.000000 0 0 1
22.524627 21.767588 -3.914018 31.567487 0.768308 1.695105 0.099244 -0.014329 619555.000000 0 0 1
22.145227 22.507488 -5.072818 31.980175 0.793511 1.730093 0.081647 -0.015368 5138.970000 0 0 1
23.198327 23.613388 -5.427118 33.544122 0.794265 1.733301 0.072416 0.001701 215505.000000 0 0 1
23.136827 24.809188 -4.616418 34.236237 0.820264 1.706048 0.051963 0.005437 -44632.700000 0 0 1
23.592827 24.708488 -3.310218 34.323293 0.808492 1.667389 0.067152 -0.001821 -404250.000000 0 0 1
22.518327 24.435088 -2.240518 33.304182 0.826198 1.638122 0.063431 -0.009842 -1458820.000000 0 0 1
21.649127 25.495888 -2.018718 33.508212 0.866812 1.631078 0.067610 0.000189 397496.000000 0 0 1
20.507427 25.221088 -1.220318 32.529172 0.888115 1.608320 0.074401 -0.007001 795574.000000 0 0 1
19.498227 24.090788 -1.681818 31.038290 0.890371 1.625008 0.099387 -0.023724 -810068.000000 0 0 1
18.794927 24.501188 -2.832818 31.009392 0.916439 1.662277 0.077935 -0.014194 84506.700000 0 0 1
18.040527 23.419688 -3.393418 29.756641 0.914420 1.685084 0.077987 -0.023356 302384.000000 0 0 1
17.367527 23.848188 -4.726518 29.878204 0.941359 1.729657 0.071388 -0.022872 -254805.000000 0 0 1
16.765027 22.813488 -5.410018 28.823422 0.937047 1.759611 0.079599 -0.031278 36811.400000 0 0 1
16.211827 23.209288 -6.676318 29.087241 0.961074 1.802388 0.078403 -0.030373 -100601.000000 0 0 1
15.530427 22.070188 -7.422018 27.988814 0.957602 1.839185 0.089677 -0.030152 -603692.000000 0 0 1
16.319727 20.924788 -7.634818 27.612872 0.908418 1.850941 0.079713 -0.029384 206931.000000 0 0 1
15.528227 20.053088 -8.423518 26.724667 0.911889 1.891460 0.095702 -0.031994 56562.800000 0 0 1
16.247827 18.771188 -8.954018 26.391738 0.857331 1.916941 0.083247 -0.029132 -3162.220000 0 0 1
17.445927 19.008888 -9.658818 27.549791 0.828246 1.929003 0.090090 -0.023297 12861.900000 0 0 1
18.066427 17.797388 -9.969118 27.249333 0.777897 1.945340 0.086983 -0.024970 253998.000000 0 0 1
19.489327 17.946588 -10.589518 28.531593 0.744211 1.951044 0.073652 -0.023138 251278.000000 0 0 1
19.656227 18.309288 -11.963618 29.406215 0.749935 1.989788 0.082209 -0.020836 -399602.000000 0 0 1
20.974027 18.706488 -12.215118 30.643949 0.728315 1.980802 0.088851 -0.018012 -343175.000000 0 0 1
21.336327 19.134588 -13.633418 31.737067 0.731049 2.014817 0.094988 -0.025002 -163187.000000 0 0 1
21.432927 18.035388 -14.498818 31.541422 0.699527 2.048426 0.085075 -0.022303 176027.000000 0 0 1
21.379127 18.468788 -15.837718 32.388216 0.712491 2.081735 0.089373 -0.027735 14367.600000 0 0 1
21.416127 17.294788 -16.840018 32.269899 0.679333 2.119814 0.084587 -0.030500 29138.300000 0 0 1
22.576727 16.483788 -16.748418 32.587320 0.630658 2.110585 0.090457 -0.033032 -24428.200000 0 0 1
22.827927 15.631488 -17.851918 32.926413 0.600420 2.143821 0.103093 -0.038493 -484332.000000 0 0 1
23.801727 16.203288 -18.877018 34.429792 0.597697 2.151097 0.116705 -0.033101 -841584.000000 0 0 1
25.114927 16.295588 -18.372218 35.126118 0.575560 2.121205 0.121178 -0.032089 -161879.000000 0 0 1
25.862827 16.810588 -19.460018 36.471551 0.576368 2.133609 0.124097 -0.031578 514937.000000 0 0 1
27.406827 16.925488 -19.202818 37.501394 0.553235 2.108373 0.105145 -0.027008 748524.000000 0 0 1
27.733627 18.048488 -18.396518 37.859396 0.576923 2.078208 0.104786 -0.026261 -532479.000000 0 0 1
29.089327 18.060388 -18.064818 38.713102 0.555616 2.056277 0.101860 -0.028780 -495993.000000 0 0 1
29.368927 19.285588 -17.119818 39.083961 0.581047 2.024199 0.106359 -0.029041 162132.000000 0 0 1
28.633427 19.165988 -15.910518 37.951981 0.589863 2.003391 0.087497 -0.027398 335648.000000 0 0 1
27.374727 19.833188 -15.982718 37.392223 0.626985 2.012449 0.084577 -0.025045 313227.000000 0 0 1
26.429827 19.427788 -14.795118 35.984305 0.633878 1.994517 0.082986 -0.026286 51308.300000 0 0 1
26.829627 19.748088 -13.462318 35.931183 0.634517 1.954837 0.081099 -0.026508 232225.000000 0 0 1
25.883227 19.272688 -12.520618 34.614214 0.640037 1.940907 0.089153 -0.027602 136150.000000 0 0 1
26.253027 19.694788 -11.083318 34.640238 0.643623 1.896478 0.092354 -0.023991 -67188.800000 0 0 1
26.056927 21.046688 -10.824818 35.200898 0.679430 1.883377 0.093157 -0.020447 43631.800000 0 0 1
26.548427 21.419988 -9.571118 35.429383 0.678890 1.844341 0.078200 -0.014776 727005.000000 0 0 1
25.558327 21.048088 -8.352218 34.146883 0.688926 1.817900 0.092609 -0.016864 321433.000000 0 0 1
25.587127 19.739388 -7.936018 33.276492 0.657093 1.811604 0.108578 -0.026001 479261.000000 0 0 1
24.701627 19.451488 -6.838818 32.176081 0.667046 1.784974 0.104417 -0.026312 851142.000000 0 0 1
23.187927 19.246688 -7.135918 30.968311 0.692786 1.803312 0.099207 -0.029304 -71873.100000 0 0 1
22.490927 20.379488 -7.486918 31.260507 0.736186 1.812648 0.093478 -0.023304 427559.000000 0 0 1
21.139127 20.099388 -7.875218 30.213692 0.760191 1.834492 0.085006 -0.023662 534265.000000 0 0 1
20.205827 21.324188 -7.810118 30.397276 0.812321 1.830646 0.074007 -0.023940 -420910.000000 0 0 1
20.322427 22.230188 -8.921818 31.413073 0.830201 1.858776 0.080347 -0.021887 183246.000000 0 0 1
19.656827 21.852088 -10.138318 31.091640 0.838235 1.902949 0.080793 -0.023737 522929.000000 0 0 1
18.158127 22.246188 -10.276318 30.499396 0.886234 1.914456 0.091784 -0.019200 28896.200000 0 0 1
18.084027 23.686488 -10.264218 31.518819 0.918727 1.902499 0.081133 -0.018959 -58371.700000 0 0 1
16.773327 24.202588 -10.316018 31.201442 0.964758 1.907763 0.084404 -0.020557 4015.140000 0 0 1
16.607127 25.693088 -10.089918 32.213939 0.996980 1.889374 0.074348 -0.013600 47158.800000 0 0 1
17.210727 26.539388 -11.035318 33.501142 0.995478 1.906466 0.104399 -0.012665 -159775.000000 0 0 1
17.189527 27.799688 -10.414218 34.303913 1.017004 1.879251 0.101507 -0.018855 149156.000000 0 0 1
20.448427 28.757988 32.859359 48.217191 0.952691 0.821005 0.061194 -0.009541 104240.000000 0 0 1
19.104227 29.158588 32.970485 47.981742 0.990786 0.813242 0.079043 -0.031225 -182480.000000 0 0 1
18.197827 28.115488 33.273646 47.209926 0.996355 0.788652 0.077985 -0.027088 871164.000000 0 0 1
16.727127 28.661288 33.255277 46.980631 1.042513 0.784345 0.106859 -0.042108 513418.000000 0 0 1
16.129727 28.877088 31.982788 46.010358 1.061401 0.802207 0.116518 -0.046567 51587.600000 0 0 1
14.840727 29.439588 32.173566 46.065984 1.103868 0.797604 0.122640 -0.047223 121744.000000 0 0 1
13.982027 29.321988 30.889248 44.826574 1.125844 0.810573 0.124593 -0.049962 -102533.000000 0 0 1
13.506727 28.009788 30.679748 43.683256 1.121478 0.792141 0.112197 -0.052497 -49325.000000 0 0 1
12.098427 27.906288 30.676238 43.199126 1.161716 0.781138 0.102748 -0.035431 -79904.800000 0 0 1
11.609327 26.387388 30.707078 42.118825 1.156325 0.753851 0.076952 -0.033476 -9956.210000 0 0 1
11.728427 25.625188 29.556428 40.838569 1.141565 0.761592 0.074163 -0.030361 726971.000000 0 0 1
13.067827 25.218688 29.222878 40.752018 1.092710 0.771178 0.069143 -0.030402 717397.000000 0 0 1
13.058327 24.408188 27.870938 39.281914 1.079544 0.781993 0.086129 -0.029954 -308940.000000 0 0 1
12.900427 25.316988 26.784538 39.048462 1.099533 0.814914 0.075760 -0.032455 136578.000000 0 0 1
12.970127 24.729688 25.518288 37.828094 1.087760 0.830393 0.077506 -0.028648 279132.000000 0 0 1
11.779827 23.776688 25.149848 36.559679 1.110807 0.812188 0.075283 -0.021173 76940.900000 0 0 1
11.796527 23.320588 23.837098 35.372520 1.102486 0.831338 0.084899 -0.019681 408932.000000 0 0 1
10.604627 22.584088 23.564848 34.319109 1.131794 0.813940 0.090912 -0.018577 373581.000000 0 0 1
10.605527 22.178988 22.125138 33.074257 1.124757 0.837996 0.100350 -0.027385 -238366.000000 0 0 1
10.408427 23.255788 21.200538 33.145586 1.149971 0.876794 0.112208 -0.025391 64508.500000 0 0 1
10.790227 22.943088 19.878738 32.217674 1.131186 0.905854 0.114699 -0.018564 -758666.000000 0 0 1
10.530727 24.159588 19.004738 32.492491 1.159745 0.946044 0.105373 -0.022474 -253441.000000 0 0 1
9.222627 24.585988 18.750638 32.266300 1.211923 0.950690 0.103425 -0.025944 -399520.000000 0 0 1
8.574927 25.145488 19.873738 33.178162 1.242150 0.928544 0.094611 -0.029790 675863.000000 0 0 1
7.159027 25.810188 19.521238 33.143570 1.300226 0.940988 0.098944 -0.031337 1332400.000000 0 0 1
7.200227 26.908788 18.595138 33.491869 1.309342 0.982177 0.103005 -0.035679 -954744.000000 0 0 1
5.909227 27.264388 18.263938 33.344224 1.357360 0.991137 0.102482 -0.036381 -850317.000000 0 0 1
5.780627 28.325488 17.140638 33.608785 1.369482 1.035606 0.115877 -0.039252 82957.700000 0 0 1
6.260627 27.808388 15.888638 32.633583 1.349354 1.062282 0.109231 -0.032316 34722.000000 0 0 1
7.411027 28.508688 15.436838 33.256046 1.316469 1.088086 0.095327 -0.038814 -6496.440000 0 0 1
7.879027 27.794788 14.132738 32.161524 1.294572 1.115832 0.083712 -0.036742 -168251.000000 0 0 1
7.032427 27.953088 13.028238 31.631711 1.324332 1.146288 0.082364 -0.035558 -412588.000000 0 0 1
6.738327 26.795388 12.367238 30.271215 1.324431 1.149934 0.067093 -0.032790 238703.000000 0 0 1
5.909627 27.074388 11.051538 29.834253 1.355893 1.191323 0.064444 -0.031394 -223131.000000 0 0 1
6.604327 27.713688 9.980138 30.187229 1.336854 1.233849 0.048089 -0.024684 111602.000000 0 0 1
6.851227 29.130288 10.161538 31.603320 1.339802 1.243447 0.054409 -0.024927 -210891.000000 0 0 1
7.121127 29.950688 8.919738 32.051769 1.337369 1.288781 0.039665 -0.013321 4023.150000 0 0 1
6.081927 29.860088 7.949238 31.492937 1.369864 1.315623 0.047316 -0.022645 5382.260000 0 0 1
5.980127 28.725488 7.181338 30.207403 1.365546 1.330764 0.042898 -0.016208 376075.000000 0 0 1
4.531327 28.413388 6.672738 29.536062 1.412649 1.342911 0.055967 -0.016046 572182.000000 0 0 1
4.041527 29.381688 5.776238 30.215600 1.434102 1.378445 0.046724 -0.024152 347023.000000 0 0 1
2.633027 29.214988 5.626538 29.868148 1.480913 1.381285 0.065398 -0.026992 733410.000000 0 0 1
1.740627 30.266288 4.910938 30.711485 1.513349 1.410201 0.068813 -0.031930 -426315.000000 0 0 1
1.944427 30.372788 3.550638 30.641379 1.506865 1.454658 0.062589 -0.032212 280859.000000 0 0 1
0.808727 30.789088 2.789038 30.925729 1.544536 1.480489 0.066565 -0.044205 738599.000000 0 0 1
-0.306873 29.706888 2.618038 29.823606 -1.560467 1.482899 0.071045 -0.042524 -277566.000000 0 0 1
0.097327 28.591988 1.888138 28.654429 1.567392 1.504855 0.080005 -0.038984 -733250.000000 0 0 1
-0.945973 27.796388 1.446238 27.850057 -1.536777 1.518844 0.089480 -0.047904 -497618.000000 0 0 1
-1.148073 27.848688 -0.078762 27.872454 -1.529594 1.573622 0.086536 -0.047634 -94452.800000 0 0 1
-1.658673 29.057988 -0.575962 29.110988 -1.513777 1.590583 0.087444 -0.047764 -43672.600000 0 0 1
-1.487273 29.083688 -1.955862 29.187297 -1.519703 1.637857 0.084244 -0.044802 -550336.000000 0 0 1
-2.432473 30.139388 -2.605562 30.349441 -1.490263 1.656754 0.091189 -0.047086 887134.000000 0 0 1
-3.830773 29.841888 -2.623062 30.200887 -1.443126 1.657760 0.080745 -0.043576 679472.000000 0 0 1
-4.227073 28.798088 -3.524062 29.319226 -1.425054 1.691284 0.051092 -0.038747 -516871.000000 0 0 1
-5.678673 28.931288 -4.038462 29.758628 -1.376979 1.706924 0.063814 -0.029237 -283109.000000 0 0 1
-5.951273 29.998688 -4.909362 30.974841 -1.374955 1.729963 0.060149 -0.032110 299991.000000 0 0 1
-6.962173 29.604188 -5.845462 30.968520 -1.339818 1.760690 0.058864 -0.027988 222353.000000 0 0 1
-7.428373 30.839788 -6.667362 32.414919 -1.334429 1.777963 0.054948 -0.014535 165525.000000 0 0 1
-8.341373 31.729888 -6.020862 33.355885 -1.313726 1.752295 0.040529 -0.010158 142270.000000 0 0 1
-8.845973 32.796388 -6.788062 34.640036 -1.307342 1.768033 0.043114 -0.018992 262486.000000 0 0 1
-9.990473 33.572088 -6.071962 35.549449 -1.281559 1.742441 0.042770 -0.019070 -184510.000000 0 0 1
-11.232573 32.988788 -6.258262 35.406167 -1.242613 1.748486 0.061845 -0.018616 -947323.000000 0 0 1
-12.238973 33.683488 -5.522162 36.261055 -1.222276 1.723680 0.069769 -0.018912 421036.000000 0 0 1
-13.658373 33.288388 -5.982162 36.475391 -1.181439 1.735546 0.091305 -0.023049 -4265.790000 0 0 1
-13.919473 33.652888 -7.334762 37.149257 -1.178605 1.769542 0.100951 -0.025348 846265.000000 0 0 1
-15.293073 33.308488 -7.609762 37.433166 -1.140372 1.775513 0.111707 -0.026909 266511.000000 0 0 1
-15.759973 33.566488 -9.060862 38.173094 -1.131833 1.810446 0.143053 -0.034581 820275.000000 0 0 1
-17.159773 33.286288 -9.136362 38.547476 -1.094809 1.810089 0.165837 -0.038052 931359.000000 0 0 1
-18.070273 -33.783030 -8.757262 39.300350 1.079626 1.795512 0.165447 -0.038008 -674682.000000 0 0 1
-19.534373 33.868588 -8.860862 40.089747 -1.047633 1.793662 0.146330 -0.035756 -224619.000000 0 0 1
-20.059473 32.925088 -7.978762 39.371367 -1.023606 1.774864 0.132301 -0.034627 72078.600000 0 0 1
-20.080373 33.467988 -6.666762 39.595117 -1.030386 1.739976 0.111902 -0.031116 -410441.000000 0 0 1
-20.855273 32.531088 -5.637862 39.051243 -1.000712 1.715673 0.107465 -0.021952 -50134.900000 0 0 1
-20.774973 33.159388 -4.384262 39.374691 -1.011106 1.682375 0.103537 -0.025774 306901.000000 0 0 1
-21.880273 32.838188 -3.554462 39.619782 -0.983044 1.660631 0.104282 -0.020510 -220128.000000 0 0 1
-22.993773 33.879688 -3.614562 41.104889 -0.974517 1.658845 0.117571 -0.017769 -661779.000000 0 0 1
-23.775373 33.756888 -4.772662 41.564097 -0.957182 1.685877 0.124446 -0.028079 106991.000000 0 0 1
-24.677573 -33.266230 -4.885762 41.707258 0.932551 1.688210 0.131218 -0.030805 225192.000000 0 0 1
-25.226623 -33.148230 -6.308062 42.130503 0.920277 1.721088 0.151980 -0.010744 -583916.000000 0 0 1
-24.250873 -32.702930 -7.190062 41.343482 0.932725 1.745596 0.150138 -0.007653 -347454.000000 0 0 1
-24.501473 -32.952630 -8.560062 41.946069 0.931445 1.776313 0.114429 -0.014150 517390.000000 0 0 1
-25.641573 -32.083030 -9.237062 42.096727 0.896528 1.792021 0.102895 -0.012721 1318150.000000 0 0 1
-26.959853 -32.373330 -8.718862 43.021910 0.876385 1.774871 0.105609 -0.009844 1368130.000000 0 0 1
-28.083463 -31.779530 -9.394362 43.438157 0.847062 1.788789 0.056030 -0.004692 711956.000000 0 0 1
-28.195763 -30.224230 -9.215662 42.348950 0.820106 1.790164 0.043355 0.006340 -844077.000000 0 0 1
-27.386163 -29.371430 -9.956662 41.374122 0.820362 1.813831 0.046431 0.007220 -133325.000000 0 0 1
-27.852273 -29.250830 -11.295362 41.939783 0.809885 1.843487 0.029860 0.005038 328036.000000 0 0 1
-26.779773 -28.450230 -12.093462 40.900167 0.815634 1.870966 0.057429 0.009347 218520.000000 0 0 1
-25.533853 -29.102330 -12.211962 40.596247 0.850619 1.876343 0.067253 -0.001243 -385529.000000 0 0 1
-24.849973 -28.580030 -13.302962 40.141102 0.855097 1.908589 0.068584 -0.002689 56220.800000 0 0 1
-23.393773 -29.131030 -13.425662 39.700553 0.894196 1.915771 0.094666 -0.019843 261252.000000 0 0 1
-23.208473 -30.384030 -14.028062 40.726024 0.918498 1.922449 0.103780 -0.025750 30708.800000 0 0 1
-23.864573 -31.488430 -13.390562 41.717457 0.922269 1.897563 0.091031 -0.025319 -74187.200000 0 0 1
-23.636573 -32.853230 -14.119362 42.864656 0.947129 1.906458 0.089417 -0.017100 -117755.000000 0 0 1
-23.977773 -33.910130 -13.283162 43.603588 0.955323 1.880351 0.080089 -0.026390 -91623.000000 0 0 1
-24.253273 33.037588 -14.013362 43.313713 -0.937542 1.900256 0.076570 -0.031011 -342529.000000 0 0 1
-24.864773 31.803988 -13.292862 42.502362 -0.907244 1.888889 0.061672 -0.026873 -40144.800000 0 0 1
-24.036673 31.299188 -12.262362 41.325129 -0.915897 1.872062 0.062603 -0.025751 193994.000000 0 0 1
-24.070673 32.131188 -11.105162 41.654953 -0.927848 1.840659 0.109136 -0.032986 -56243.700000 0 0 1
-23.195073 31.797288 -9.898562 40.583992 -0.940566 1.817185 0.111626 -0.034383 -114092.000000 0 0 1
-23.879473 30.891788 -9.088262 40.089005 -0.912735 1.799487 0.106649 -0.026807 113528.000000 0 0 1
-23.065773 30.417588 -8.051462 39.013915 -0.922002 1.778664 0.107937 -0.027571 12726.300000 0 0 1
-23.752173 29.303788 -7.195362 38.401184 -0.889656 1.759284 0.095560 -0.025552 146683.000000 0 0 1
-23.849773 28.107688 -8.033562 37.727866 -0.867165 1.785374 0.088409 -0.010058 163315.000000 0 0 1
-24.520273 26.994488 -7.433362 37.218289 -0.833391 1.771872 0.065112 -0.012416 383151.000000 0 0 1
-23.669673 26.267788 -6.318862 35.919049 -0.837379 1.747636 0.062904 -0.011056 322167.000000 0 0 1
-23.394673 27.046988 -5.131262 36.127277 -0.857679 1.713311 0.074056 -0.007364 563801.000000 0 0 1
-22.456173 26.382588 -4.284962 34.909620 -0.865621 1.693851 0.062811 -0.006469 1124690.000000 0 0 1
-20.956973 26.867988 -4.283062 34.342803 -0.908371 1.695837 0.057906 -0.022237 892017.000000 0 0 1
-20.384373 26.804488 -5.586162 34.135149 -0.920619 1.735184 0.067943 -0.017741 -330659.000000 0 0 1
-19.152773 27.462588 -5.618162 33.949760 -0.961809 1.737046 0.075153 -0.018681 13019.000000 0 0 1
-18.293973 27.326788 -6.909862 33.603110 -0.980868 1.777905 0.082622 -0.022612 260780.000000 0 0 1
-18.831573 28.039588 -8.065662 34.726093 -0.979382 1.805202 0.104868 -0.025799 264201.000000 0 0 1
-18.679473 29.471488 -8.113062 35.823359 -1.005883 1.799252 0.120810 -0.028254 -90258.500000 0 0 1
-18.592373 30.079688 -9.491862 36.613650 -1.017171 1.833035 0.120481 -0.030497 -435908.000000 0 0 1
-17.376973 30.023188 -10.181662 36.152693 -1.046122 1.856288 0.121489 -0.030513 -510636.000000 0 0 1
-17.388773 30.905588 -11.308662 37.221104 -1.058299 1.879500 0.129533 -0.038084 -796687.000000 0 0 1
-16.000073 31.103788 -11.876362 36.939084 -1.095688 1.898122 0.141767 -0.042708 -535634.000000 0 0 1
-15.988573 31.864288 -13.035162 37.958961 -1.105733 1.921333 0.145073 -0.046264 -232521.000000 0 0 1
-15.908473 31.096588 -14.184762 37.699930 -1.097926 1.956547 0.138422 -0.050826 -172754.000000 0 0 1
-15.210873 31.704788 -15.390062 38.385130 -1.123467 1.983337 0.164601 -0.056192 -241437.000000 0 0 1
-13.810973 31.656688 -15.407362 37.818985 -1.159416 1.990399 0.151230 -0.062904 -483952.000000 0 0 1
-13.277573 32.072388 -16.658262 38.502334 -1.178290 2.018233 0.145445 -0.064693 -32269.500000 0 0 1
-11.740573 32.081988 -16.769362 38.056622 -1.219979 2.027111 0.150358 -0.064369 -374617.000000 0 0 1
-11.278373 30.737388 -16.784962 36.792984 -1.219122 2.044517 0.143837 -0.076895 78831.200000 0 0 1
-10.074773 30.567988 -17.526262 36.647957 -1.252422 2.069438 0.128035 -0.068708 193329.000000 0 0 1
-10.042473 30.874588 -18.989562 37.612430 -1.256323 2.100033 0.126044 -0.072902 -453668.000000 0 0 1
-10.844473 29.992588 -19.767362 37.522080 -1.223850 2.125651 0.118559 -0.074185 232049.000000 0 0 1
-10.500373 30.033788 -21.166162 38.213776 -1.234461 2.157823 0.111734 -0.076292 -734632.000000 0 0 1
-11.643073 29.445388 -22.046762 38.583050 -1.194251 2.179020 0.108108 -0.065757 341956.000000 0 0 1
-12.739873 30.310288 -22.209262 39.677062 -1.172900 2.164881 0.124456 -0.065905 -86168.500000 0 0 1
-13.644873 30.301188 -21.120062 39.375139 -1.147686 2.136939 0.120648 -0.060823 -771115.000000 0 0 1
-14.592773 31.526788 -21.166962 40.680802 -1.137292 2.118020 0.151957 -0.061726 114323.000000 0 0 1
-15.475273 31.534888 -22.293562 41.604520 -1.114588 2.136304 0.131510 -0.050986 -68793.900000 0 0 1
-16.187073 32.742988 -22.382262 42.837953 -1.111665 2.120561 0.122413 -0.047764 212345.000000 0 0 1
-16.934873 32.840488 -23.737862 43.917806 -1.094691 2.141835 0.103956 -0.029716 -37713.200000 0 0 1
-16.032573 33.026888 -24.793162 44.300334 -1.118864 2.164773 0.114027 -0.026191 -197008.000000 0 0 1
-16.559073 32.770388 -26.078962 45.035691 -1.102913 2.188388 0.123463 -0.020883 -11774.400000 0 0 1
-16.871073 34.011088 -26.889162 46.523265 -1.110317 2.187038 0.103598 -0.005463 -117324.000000 0 0 1
-17.908373 -33.393930 -26.281562 46.114910 1.078551 2.177198 0.090397 -0.004288 -212166.000000 0 0 1
-18.446673 -32.452630 -27.221362 46.200168 1.053922 2.200871 0.082384 0.003555 -673179.000000 0 0 1
-19.879873 -32.002630 -27.008362 46.355467 1.014938 2.192765 0.077210 -0.008727 -360359.000000 0 0 1
-20.769473 -33.100330 -27.182862 47.601584 1.010423 2.178580 0.062845 -0.004539 177277.000000 0 0 1
-22.125373 -32.666930 -27.089862 47.859388 0.975467 2.172479 0.051948 -0.005212 808893.000000 0 0 1
-23.288673 -33.672630 -27.156862 49.129456 0.965717 2.156470 0.019657 0.016833 105036.000000 0 0 1
-23.447173 33.645088 -26.020562 48.567803 -0.962156 2.136201 0.051906 0.001766 -118097.000000 0 0 1
-24.435573 32.613788 -26.125062 48.407388 -0.927781 2.140867 0.028333 0.003934 226789.000000 0 0 1
-24.128073 31.414688 -27.118162 48.004596 -0.915843 2.171118 0.036705 0.001964 -82011.700000 0 0 1
-23.191773 30.514688 -26.538562 46.618663 -0.920913 2.176413 0.043438 -0.024852 -121377.000000 0 0 1
-23.650473 29.715988 -25.452962 45.719121 -0.898570 2.161234 0.034588 -0.016154 -108673.000000 0 0 1
31.741289 9.693788 -26.366708 42.387289 0.296403 2.242145 0.031202 -0.001709 -90.519400 0 0 1
31.441589 8.308488 -26.177188 41.747451 0.258346 2.248540 0.027362 -0.002191 -71868.400000 0 0 1
30.100609 7.919588 -26.363558 40.789751 0.257273 2.273559 0.049676 -0.012918 24817.100000 0 0 1
29.818119 6.567488 -25.732658 39.930212 0.216790 2.271088 0.040133 -0.016298 46905.600000 0 0 1
30.116649 6.468088 -24.339018 39.258586 0.211554 2.239497 0.021666 0.007467 107023.000000 0 0 1
29.375149 5.415188 -23.775318 38.177080 0.182299 2.243067 0.034586 0.006867 -12291.900000 0 0 1
29.392729 5.351088 -22.267518 37.261361 0.180083 2.211305 0.037140 0.008145 173763.000000 0 0 1
30.630129 4.979388 -21.680418 37.855510 0.161155 2.180610 0.034381 0.006551 319537.000000 0 0 1
30.523199 4.969188 -20.262818 36.972156 0.161385 2.150835 0.042324 0.002757 -541254.000000 0 0 1
31.869179 4.589188 -19.670518 37.731082 0.143018 2.119210 0.037938 0.001913 -486875.000000 0 0 1
32.317609 3.241188 -19.831418 38.055464 0.099957 2.118958 0.045698 0.004120 -6017.600000 0 0 1
33.181569 3.020088 -18.761418 38.237786 0.090767 2.083633 0.054356 -0.001338 -539332.000000 0 0 1
33.639729 1.566988 -18.532418 38.438748 0.046548 2.073879 0.062730 -0.011652 -147983.000000 0 0 1
32.580609 0.707188 -18.210118 37.331014 0.021702 2.080366 0.060392 -0.010145 -18735.700000 0 0 1
33.074169 -0.655212 -18.116918 37.716743 -0.019808 2.071840 0.070807 -0.010908 306776.000000 0 0 1
31.915869 -1.657812 -17.898718 36.629703 -0.051897 2.081326 0.075503 -0.010963 264845.000000 0 0 1
31.905039 -2.044412 -16.522118 35.987380 -0.063991 2.047788 0.099589 -0.014603 159382.000000 0 0 1
30.652979 -1.731912 -15.966918 34.605594 -0.056441 2.050366 0.091217 -0.015681 -318334.000000 0 0 1
30.667159 -2.295612 -14.505118 34.002102 -0.074716 2.011521 0.096118 -0.015029 -75897.600000 0 0 1
30.513079 -3.692312 -14.355518 33.922884 -0.120422 2.007750 0.091070 -0.020257 551130.000000 0 0 1
29.413459 -3.950612 -13.497418 32.602749 -0.133514 1.997636 0.082313 -0.014881 -726.202000 0 0 1
29.139099 -5.460512 -13.205518 32.454430 -0.185246 1.989848 0.077063 -0.011676 -48181.600000 0 0 1
28.440179 -6.141312 -14.232718 32.390273 -0.212672 2.025742 0.060179 -0.008975 437978.000000 0 0 1
27.971379 -7.372412 -13.781318 32.041774 -0.257709 2.015405 0.058986 -0.013668 -181258.000000 0 0 1
27.381679 -8.253812 -14.959518 32.274897 -0.292773 2.052741 0.044673 -0.005803 -766798.000000 0 0 1
26.249179 -7.651712 -15.471318 31.415439 -0.283643 2.085728 0.049988 -0.015939 -637599.000000 0 0 1
25.659879 -8.565412 -16.404918 31.637273 -0.322176 2.115929 0.041025 -0.010380 3435.640000 0 0 1
24.204379 -8.164212 -16.723818 30.531827 -0.325319 2.150469 0.051628 -0.009681 -357760.000000 0 0 1
24.183479 -6.913512 -17.338618 30.549386 -0.278451 2.174336 0.046055 -0.008085 934923.000000 0 0 1
22.960079 -6.509412 -18.015018 29.901147 -0.276261 2.217408 0.069785 -0.019562 698355.000000 0 0 1
22.770279 -7.077112 -19.420818 30.752875 -0.301340 2.254298 0.052116 -0.012047 -197750.000000 0 0 1
23.596379 -6.400012 -20.329218 31.796641 -0.264857 2.264450 0.050203 -0.017135 255184.000000 0 0 1
23.393979 -6.844912 -21.662218 32.609551 -0.284648 2.297341 0.072293 -0.024003 269247.000000 0 0 1
24.192579 -5.843412 -22.581418 33.605756 -0.236998 2.307636 0.075432 -0.020473 275342.000000 0 0 1
24.210579 -6.386512 -23.889618 34.607131 -0.257915 2.332713 0.089395 -0.028281 261758.000000 0 0 1
24.587879 -5.414612 -24.858718 35.381319 -0.216755 2.349833 0.072690 -0.023200 -261442.000000 0 0 1
24.386179 -5.970912 -26.298188 36.358386 -0.240124 2.379372 0.104748 -0.027529 124146.000000 0 0 1
23.039479 -6.268612 -26.649438 35.781359 -0.265651 2.411010 0.112190 -0.020812 417801.000000 0 0 1
23.024879 -6.457512 -28.058298 36.866145 -0.273433 2.435782 0.106063 -0.026726 636960.000000 0 0 1
21.656279 -7.085112 -28.480168 36.473459 -0.316186 2.466816 0.099737 -0.033128 643546.000000 0 0 1
21.575779 -8.436612 -28.105398 36.422577 -0.372743 2.452224 0.097269 -0.027344 423352.000000 0 0 1
20.254979 -8.835712 -28.427568 36.006397 -0.411339 2.480814 0.099582 -0.023811 107896.000000 0 0 1
19.975379 -10.200112 -27.759028 35.687837 -0.472119 2.462000 0.112747 -0.005168 -553849.000000 0 0 1
18.602079 -10.473212 -27.878308 35.113040 -0.512779 2.488089 0.123947 -0.008477 251122.000000 0 0 1
18.250079 -11.696212 -27.196988 34.778484 -0.569941 2.468674 0.120929 -0.017437 -143411.000000 0 0 1
18.585479 -13.012012 -27.969058 36.013896 -0.610805 2.460077 0.101126 0.001475 -174889.000000 0 0 1
17.650379 -13.390812 -28.965518 36.467122 -0.649027 2.488637 0.106044 0.002601 540460.000000 0 0 1
18.139979 -14.520112 -29.672858 37.687810 -0.675014 2.477268 0.082511 -0.006090 -273069.000000 0 0 1
17.081579 -15.148712 -30.588368 38.169518 -0.725499 2.500399 0.062752 -0.007726 -44240.700000 0 0 1
16.030879 -15.802412 -29.874118 37.405458 -0.778221 2.495856 0.067680 -0.010741 777786.000000 0 0 1
14.980279 -16.083112 -30.803048 37.840495 -0.820886 2.521842 0.065282 -0.015777 570213.000000 0 0 1
13.647379 -16.549312 -30.131528 36.987020 -0.881205 2.522924 0.083163 -0.018441 479003.000000 0 0 1
13.777479 -17.868212 -29.583388 37.205763 -0.913952 2.490017 0.077291 -0.018490 -353380.000000 0 0 1
12.635979 -18.144212 -28.851588 36.349615 -0.962478 2.487704 0.082742 -0.018815 -337247.000000 0 0 1
12.860079 -19.404812 -27.970838 36.390880 -0.985527 2.447481 0.084435 -0.020315 670444.000000 0 0 1
13.861079 -19.154712 -26.961568 35.860266 -0.944381 2.421661 0.087267 -0.017822 405283.000000 0 0 1
13.926679 -20.328812 -26.129798 35.916282 -0.970160 2.385496 0.090774 -0.017240 -513453.000000 0 0 1
14.977279 -20.307812 -25.032088 35.543376 -0.935335 2.352189 0.075047 -0.012364 -277216.000000 0 0 1
16.258379 -20.623512 -25.568348 36.652484 -0.903204 2.342822 0.075380 -0.016190 81261.800000 0 0 1
17.182579 -20.622012 -24.523818 36.358301 -0.876128 2.311089 0.071737 -0.007525 -406417.000000 0 0 1
18.604879 -21.137012 -24.842418 37.550773 -0.849027 2.293705 0.080904 0.004571 -41081.600000 0 0 1
18.807379 -22.536212 -24.969318 38.536544 -0.875346 2.275671 0.108884 -0.007512 252376.000000 0 0 1
18.746179 -23.265412 -23.747318 38.165872 -0.892557 2.242363 0.104049 -0.015021 -696642.000000 0 0 1
19.363279 -24.628912 -23.917218 39.415139 -0.904526 2.222828 0.098877 -0.017171 275419.000000 0 0 1
20.766379 -24.524612 -23.625618 39.885698 -0.868188 2.204748 0.113712 -0.019733 792118.000000 0 0 1
21.382079 -25.789622 -23.386818 40.856348 -0.878564 2.180245 0.119179 -0.028523 38235.600000 0 0 1
21.281079 -26.184502 -21.882618 40.216433 -0.888338 2.146138 0.127345 -0.031798 357512.000000 0 0 1
19.944279 -26.388252 -21.383318 39.387313 -0.923593 2.144681 0.109367 -0.023440 890794.000000 0 0 1
19.967679 -26.527662 -19.990818 38.756391 -0.925562 2.112746 0.102012 -0.019760 657920.000000 0 0 1
18.580579 -27.087402 -19.519718 38.209746 -0.969563 2.106978 0.080343 -0.017422 54366.200000 0 0 1
18.367579 -28.429932 -19.920218 39.273962 -0.997192 2.102743 0.077040 -0.017131 -35682.400000 0 0 1
17.271379 -29.074322 -19.328718 38.951458 -1.034769 2.090042 0.071131 -0.007842 -154124.000000 0 0 1
15.852279 -28.656662 -19.737518 38.237006 -1.065515 2.113192 0.062863 -0.015717 -605746.000000 0 0 1
15.173479 -27.677152 -18.989018 36.835337 -1.069312 2.112400 0.065751 -0.011850 -890140.000000 0 0 1
13.915279 -27.442342 -19.503718 36.429551 -1.101506 2.135756 0.046249 -0.004907 -810967.000000 0 0 1
13.073379 -26.511272 -18.634518 34.942897 -1.112664 2.133275 0.031753 -0.009316 -500680.000000 0 0 1
12.563979 -27.009142 -17.382618 34.489168 -1.135395 2.099023 0.029369 -0.009041 -336487.000000 0 0 1
11.616279 -26.168922 -16.827518 33.210176 -1.153030 2.102146 0.030918 -0.010030 32834.700000 0 0 1
10.149979 -26.432742 -17.257818 33.159376 -1.204165 2.118175 0.032756 -0.008745 -160968.000000 0 0 1
9.388479 -27.497862 -16.667418 33.497445 -1.241780 2.091595 0.045376 -0.002949 286569.000000 0 0 1
8.016479 -27.150822 -16.660818 32.848348 -1.283696 2.102734 0.046996 0.006562 403355.000000 0 0 1
7.110579 -27.729762 -17.765218 33.691290 -1.319781 2.126209 0.053172 0.002367 -172071.000000 0 0 1
7.255979 -27.104952 -19.001018 33.887555 -1.309230 2.166037 0.058028 -0.004714 -122028.000000 0 0 1
6.772279 -27.977292 -19.997518 35.049870 -1.333301 2.177965 0.067392 -0.003818 -94811.500000 0 0 1
6.733279 -27.315322 -21.386618 35.339090 -1.329113 2.220792 0.060261 -0.009655 -198992.000000 0 0 1
5.727879 -26.317052 -21.387518 34.392176 -1.356490 2.241927 0.069887 -0.013801 129925.000000 0 0 1
5.697379 -25.610422 -22.618418 34.640247 -1.351898 2.282272 0.049828 -0.015864 187609.000000 0 0 1
4.412279 -24.739712 -22.822118 33.946585 -1.394304 2.308101 0.038023 -0.011189 1011990.000000 0 0 1
3.218079 -25.534402 -22.962718 34.491276 -1.445428 2.299301 0.041447 -0.007278 1019860.000000 0 0 1
2.172579 -24.911312 -23.708218 34.458282 -1.483804 2.329563 0.041786 -0.012270 578362.000000 0 0 1
1.295579 -25.871802 -24.526518 35.673222 -1.520761 2.328883 0.020411 -0.015908 152501.000000 0 0 1
1.997779 -26.507532 -25.572268 36.886058 -1.495572 2.336823 0.017934 -0.011412 846299.000000 0 0 1
1.052679 -27.456772 -26.136058 37.921973 -1.532476 2.331189 0.025234 -0.027463 599051.000000 0 0 1
1.649079 -28.422932 -27.151978 39.342248 -1.512842 2.332490 0.019099 -0.025977 -67912.300000 0 0 1
2.366679 -27.741732 -28.212718 39.637890 -1.485691 2.362799 0.012159 -0.028120 428339.000000 0 0 1
2.797979 -28.620252 -29.267208 41.030683 -1.473344 2.364993 0.018637 -0.022139 749736.000000 0 0 1
4.295279 -29.073562 -29.156728 41.398505 -1.424119 2.352225 0.019111 -0.024100 477898.000000 0 0 1
4.658379 -29.899262 -28.061368 41.268714 -1.416236 2.318514 0.029901 -0.036171 264545.000000 0 0 1
5.805779 -30.694372 -28.406708 42.223129 -1.383857 2.308751 0.046291 -0.030741 626987.000000 0 0 1
6.057279 -31.918032 -27.455048 42.535057 -1.383250 2.272433 0.066930 -0.040924 108382.000000 0 0 1
4.944079 -32.794572 -27.312708 42.964077 -1.421164 2.259725 0.059328 -0.045289 153037.000000 0 0 1
5.280079 34.057271 -26.768298 43.638501 1.416986 2.231168 0.076185 -0.054043 -771486.000000 0 0 1
4.062479 33.271756 -26.323818 42.619912 1.449298 2.236536 0.110298 -0.056527 -1106780.000000 0 0 1
3.404479 32.870976 -27.449168 42.959846 1.467593 2.263928 0.096788 -0.057723 -766086.000000 0 0 1
2.106179 32.463355 -27.148888 42.371778 1.506008 2.266246 0.054847 -0.049989 -546053.000000 0 0 1
1.091279 32.584815 -28.291778 43.166953 1.537318 2.285513 0.067877 -0.037486 -389567.000000 0 0 1
0.985279 31.521936 -29.230518 43.000308 1.539550 2.318252 0.098336 -0.036743 257668.000000 0 0 1
-0.011921 31.781886 -30.203308 43.844364 -1.570421 2.330733 0.092656 -0.034618 61592.400000 0 0 1
-0.243421 30.779316 -31.338848 43.926632 -1.562888 2.365186 0.085264 -0.030520 132286.000000 0 0 1
0.906179 30.495936 -32.133138 44.309839 1.541090 2.382109 0.099103 -0.030389 145582.000000 0 0 1
0.731479 29.447216 -33.115508 44.320543 1.545961 2.414608 0.130547 -0.027918 615830.000000 0 0 1
1.977979 29.044536 -34.014896 44.771762 1.502800 2.433709 0.118547 -0.022158 879047.000000 0 0 1
2.391079 29.987566 33.052735 44.692893 1.491229 0.738391 0.100150 -0.023797 -220359.000000 0 0 1
3.477479 29.569086 32.266850 43.904138 1.453729 0.745220 0.067407 -0.022496 -104775.000000 0 0 1
3.118679 28.700746 30.965388 42.335733 1.462559 0.750388 0.065765 -0.021070 -116055.000000 0 0 1
2.723679 27.345806 31.199438 41.576634 1.471522 0.722117 0.083706 -0.031488 -381953.000000 0 0 1
3.795279 26.516196 31.540408 41.380070 1.428631 0.704072 0.068182 -0.023692 -327928.000000 0 0 1
3.400179 25.081896 31.966848 40.774283 1.436055 0.669720 0.084300 -0.038226 -96693.600000 0 0 1
2.901879 24.252796 30.941828 39.421007 1.451711 0.668250 0.094500 -0.027320 70776.400000 0 0 1
2.834279 22.913106 31.394238 38.969755 1.447725 0.634100 0.078986 -0.018746 195391.000000 0 0 1
2.056279 21.934906 30.390148 37.535710 1.477325 0.627270 0.068983 -0.000700 -45869.800000 0 0 1
0.676079 22.036606 30.617088 37.728970 1.540126 0.624081 0.075585 -0.023360 -864869.000000 0 0 1
0.006679 21.705006 29.435218 36.572386 1.570489 0.635377 0.075329 -0.007168 -789069.000000 0 0 1
-1.450021 21.347606 29.619468 36.539510 -1.502976 0.625595 0.069455 -0.005019 -794884.000000 0 0 1
-2.329821 22.377706 29.945408 37.455538 -1.467057 0.644347 0.082049 -0.015124 325505.000000 0 0 1
-3.689721 21.967906 30.010478 37.374213 -1.404390 0.638530 0.055034 -0.022139 705193.000000 0 0 1
-4.729021 23.037806 30.452218 38.476509 -1.368337 0.657619 0.037047 -0.031527 206471.000000 0 0 1
-4.778321 23.369316 31.861988 39.801302 -1.369107 0.642623 0.053236 -0.031414 -12750.700000 0 0 1
-5.543421 24.550486 32.014908 40.723584 -1.348724 0.666239 0.045127 -0.034525 -167966.000000 0 0 1
-5.840621 24.839916 33.527813 42.133699 -1.339861 0.650554 0.067576 -0.029225 267189.000000 0 0 1
-6.984521 25.650516 33.797465 43.000014 -1.304946 0.666505 0.045449 -0.026550 390693.000000 0 0 1
-7.189421 25.719866 -32.838118 42.326603 -1.298225 2.458821 0.045420 -0.025106 -196256.000000 0 0 1
-8.580421 26.243576 -32.451158 42.607823 -1.254799 2.436612 0.078989 -0.013974 -282133.000000 0 0 1
-8.864921 27.558536 -32.905358 43.827187 -1.259574 2.420065 0.066922 -0.019898 871209.000000 0 0 1
-10.031621 28.171576 -32.278158 44.001712 -1.228706 2.394351 0.065102 -0.025128 926238.000000 0 0 1
-9.887021 28.571426 -30.759468 43.130320 -1.237649 2.364814 0.067938 -0.014629 -82095.600000 0 0 1
-9.155421 29.808716 -30.654828 43.727563 -1.272803 2.347653 0.085514 -0.011791 380851.000000 0 0 1
-8.929321 30.011476 -29.296208 42.879941 -1.281607 2.322952 0.102508 -0.017176 -148256.000000 0 0 1
-8.365421 31.388546 -28.894258 43.475272 -1.310338 2.297773 0.099199 -0.018062 1389160.000000 0 0 1
-6.931121 31.396136 -29.148508 43.398080 -1.353518 2.307236 0.056174 -0.014403 1387420.000000 0 0 1
-6.337021 32.605502 -28.617668 43.843444 -1.378835 2.281971 0.067136 -0.008750 964155.000000 0 0 1
-4.762521 32.615709 -28.557598 43.611954 -1.425802 2.284729 0.074510 -0.013556 808386.000000 0 0 1
-4.165021 33.834390 -28.140298 44.203956 -1.448312 2.260880 0.072425 -0.019848 -298059.000000 0 0 1
-4.217021 -33.168942 -29.028198 44.278643 1.444337 2.285747 0.077466 -0.019941 -130180.000000 0 0 1
-3.204921 -33.091872 -30.225458 44.932414 1.474248 2.308631 0.074892 -0.026837 -5221.630000 0 0 1
-3.425121 -34.052989 -31.240478 46.339022 1.470551 2.310640 0.070679 -0.016727 -456515.000000 0 0 1
-4.516921 -33.934072 -32.079178 46.914790 1.438465 2.323720 0.083855 -0.017079 -396590.000000 0 0 1
-4.184721 -33.018512 -33.316498 47.092707 1.444730 2.356703 0.058279 -0.019010 41482.100000 0 0 1
-4.280521 -31.628292 -33.092978 45.976265 1.436275 2.374287 0.047236 -0.019589 982405.000000 0 0 1
-3.396721 -31.043752 33.903772 46.094664 1.461813 0.744355 0.036352 -0.027429 1016390.000000 0 0 1
32.769349 17.923588 12.774738 39.475045 0.500508 1.241248 0.156832 -0.043574 -712310.000000 0 0 1
34.097689 17.871288 13.159738 40.684322 0.482757 1.241413 0.144998 -0.050270 -1007480.000000 0 0 1
34.451419 16.637388 13.702238 40.638089 0.449893 1.226879 0.146155 -0.029803 -1056040.000000 0 0 1
35.954459 16.625488 13.942838 41.994437 0.433121 1.232356 0.112795 -0.042297 -496946.000000 0 0 1
36.777509 16.255688 12.844938 42.211669 0.416182 1.261595 0.113139 -0.025064 -5314.210000 0 0 1
36.705309 14.872988 12.400038 41.499957 0.384981 1.267365 0.135803 -0.043915 -508098.000000 0 0 1
-35.870096 14.315288 12.019038 40.448097 -0.379719 1.269093 0.133126 -0.035208 222695.000000 0 0 1
-35.317680 13.399688 12.936838 39.928084 -0.362627 1.240838 0.112698 -0.022704 -294995.000000 0 0 1
-35.907130 12.153488 13.023438 40.082904 -0.326366 1.239877 0.113540 -0.022746 -568197.000000 0 0 1
-35.250339 11.387888 14.129438 39.647338 -0.312474 1.206408 0.125613 -0.031450 -41126.400000 0 0 1
-35.490835 11.833988 15.476838 40.486728 -0.321845 1.178545 0.118265 -0.022835 102704.000000 0 0 1
-34.590665 11.144288 16.315238 39.835866 -0.311676 1.148823 0.108186 -0.019010 -163491.000000 0 0 1
-34.445670 11.820688 17.684538 40.484265 -0.330576 1.118730 0.105715 -0.009126 285665.000000 0 0 1
-35.623011 11.947288 18.497738 41.879624 -0.323592 1.113317 0.112367 -0.013782 504031.000000 0 0 1
-35.334437 12.521188 19.758638 42.375776 -0.340556 1.085724 0.103986 -0.015393 -885427.000000 0 0 1
-36.514633 12.724488 20.661638 43.842152 -0.335317 1.080062 0.115692 -0.022793 -781477.000000 0 0 1
-36.956553 11.524988 21.242138 44.156999 -0.302295 1.068934 0.103235 -0.013184 -35328.300000 0 0 1
35.855649 11.683688 22.008938 43.663824 0.315004 1.042510 0.116640 -0.024827 -75803.800000 0 0 1
35.553589 10.463288 22.950138 43.591822 0.286216 1.016344 0.105653 -0.023395 334152.000000 0 0 1
36.502579 10.407088 24.024458 44.921269 0.277737 1.006510 0.091001 -0.013549 635779.000000 0 0 1
36.003499 11.133188 25.171408 45.318866 0.299899 0.981918 0.104726 -0.017948 -365802.000000 0 0 1
-36.746793 11.603588 26.016548 46.495492 -0.305862 0.976954 0.083727 -0.020506 890375.000000 0 0 1
-35.954223 12.604188 25.322258 45.747005 -0.337175 0.984202 0.091360 -0.028033 153701.000000 0 0 1
-34.906804 12.014088 24.607298 44.366005 -0.331477 0.982862 0.069175 -0.022093 -73559.900000 0 0 1
-33.639233 12.923788 24.291248 43.459027 -0.366801 0.977682 0.071700 -0.025703 1223250.000000 0 0 1
-32.791293 13.279288 25.393998 43.548404 -0.384778 0.948231 0.050456 -0.031281 356148.000000 0 0 1
-33.396453 14.127888 26.438628 44.876735 -0.400206 0.940804 0.043512 -0.026479 -590565.000000 0 0 1
-32.555483 14.652388 27.601068 45.126167 -0.422916 0.912662 0.042981 -0.020732 -896613.000000 0 0 1
-31.736273 15.656588 27.188638 44.626694 -0.458301 0.915687 0.055679 -0.025178 -612238.000000 0 0 1
-31.212123 16.460088 28.232148 45.190544 -0.485297 0.896003 0.065983 -0.032382 154150.000000 0 0 1
-30.537213 17.780888 27.740318 44.924454 -0.527280 0.905251 0.068638 -0.023941 -99139.000000 0 0 1
-31.420293 18.636288 27.069028 45.467332 -0.535352 0.933094 0.064235 -0.037563 42130.700000 0 0 1
-30.752393 19.656388 26.373528 45.029393 -0.568733 0.945058 0.055490 -0.035330 -15910.600000 0 0 1
-31.749013 20.517088 25.534178 45.617376 -0.573719 0.976716 0.050107 -0.018087 343814.000000 0 0 1
-32.423323 21.448488 26.413048 46.999560 -0.584427 0.974013 0.055905 -0.033674 190245.000000 0 0 1
-33.314083 22.234188 25.694098 47.585438 -0.588518 1.000410 0.066780 -0.030481 -579202.000000 0 0 1
-33.597963 23.693888 26.145098 48.721552 -0.614219 1.004367 0.057204 -0.022714 -182701.000000 0 0 1
-34.411108 24.300788 25.151198 49.063585 -0.614868 1.032558 0.075481 -0.025700 -18998.100000 0 0 1
-34.566640 25.699988 25.338568 49.973843 -0.639322 1.039053 0.075017 -0.026151 223712.000000 0 0 1
-35.697139 26.299888 24.470518 50.643618 -0.634967 1.066501 0.092851 -0.020345 194431.000000 0 0 1
-35.384103 26.059488 23.065268 49.630014 -0.634788 1.087450 0.103148 -0.017652 -99037.200000 0 0 1
-36.403653 26.435488 22.183338 50.161354 -0.628079 1.112702 0.106827 -0.018115 -127204.000000 0 0 1
-36.008400 26.135788 20.759638 49.098339 -0.627849 1.134244 0.124324 -0.021805 153965.000000 0 0 1
-35.884029 24.785088 20.314838 48.110880 -0.604457 1.134870 0.117718 -0.016672 71215.600000 0 0 1
-35.410302 24.755688 18.983938 47.192409 -0.610128 1.156805 0.115711 -0.019378 45504.100000 0 0 1
-35.502324 23.409088 18.246038 46.274381 -0.582932 1.165489 0.116949 -0.021932 387410.000000 0 0 1
-36.826743 23.174688 17.800838 47.012179 -0.561678 1.182467 0.128028 -0.024839 -58485.700000 0 0 1
-36.832873 22.277888 16.768538 46.196847 -0.543969 1.199332 0.117229 -0.035817 -172289.000000 0 0 1
35.961569 22.263988 15.778438 45.142870 0.554349 1.213735 0.113906 -0.034497 -145434.000000 0 0 1
34.824529 21.563488 16.215738 44.053173 0.554421 1.193837 0.137485 -0.041317 -602340.000000 0 0 1
33.856179 21.596888 15.198938 42.938027 0.567823 1.208980 0.140258 -0.041476 -258118.000000 0 0 1
32.613459 20.747388 15.565738 41.669942 0.566584 1.187965 0.147700 -0.044768 140509.000000 0 0 1
31.787719 21.194788 16.612238 41.661068 0.588067 1.160646 0.137432 -0.038067 197066.000000 0 0 1
30.653889 21.895288 16.098938 40.966332 0.620242 1.166927 0.116573 -0.021408 806005.000000 0 0 1
29.647479 22.387988 17.214538 40.945517 0.646782 1.136882 0.090823 -0.015928 734009.000000 0 0 1
30.244159 23.502188 17.890238 42.274373 0.660609 1.133829 0.066673 -0.002976 695392.000000 0 0 1
29.352399 24.079988 18.855638 42.390379 0.687042 1.109835 0.046779 0.003014 811358.000000 0 0 1
30.265579 24.596188 19.997038 43.827609 0.682424 1.097002 0.062167 -0.011925 623149.000000 0 0 1
31.100459 25.690088 19.691838 44.888614 0.690416 1.116665 0.066739 0.003094 109704.000000 0 0 1
31.867589 26.105488 20.815138 46.155279 0.686331 1.102933 0.070031 -0.000413 877016.000000 0 0 1
32.980299 27.196388 20.442638 47.384018 0.689577 1.124725 0.089022 0.002137 617133.000000 0 0 1
33.940389 27.533188 21.392738 48.658768 0.681546 1.115589 0.086198 0.006373 -43764.900000 0 0 1
33.469979 28.334688 22.452738 49.266820 0.702500 1.097596 0.048684 0.016915 -371085.000000 0 0 1
34.405609 28.385288 23.668178 50.494091 0.689811 1.082942 0.048635 0.003383 817390.000000 0 0 1
35.619249 29.129088 23.479668 51.657812 0.685495 1.098960 0.080434 -0.003905 628952.000000 0 0 1
36.194149 29.813788 24.583008 52.945280 0.689037 1.087941 0.077053 -0.008721 1090670.000000 0 0 1
-36.558103 30.790388 24.289438 53.614547 -0.699967 1.100626 0.091587 -0.015507 1801220.000000 0 0 1
-35.292007 30.130388 24.059418 52.270657 -0.706664 1.092480 0.106485 -0.021194 1155740.000000 0 0 1
-34.259014 31.122388 24.159928 52.210968 -0.737461 1.089717 0.108074 -0.026072 109255.000000 0 0 1
-32.776213 30.754288 24.092828 50.995791 -0.753583 1.078731 0.127615 -0.027692 -312166.000000 0 0 1
-32.337483 30.365488 22.799038 49.875563 -0.753959 1.096044 0.113892 -0.022330 66762.800000 0 0 1
-32.759933 29.132788 22.182438 49.132404 -0.726861 1.102370 0.111038 -0.017525 -432587.000000 0 0 1
-32.325733 27.814988 22.889238 48.399833 -0.710535 1.078195 0.097525 -0.018402 138526.000000 0 0 1
-30.915803 27.647488 22.786038 47.322024 -0.729648 1.068419 0.080373 -0.018636 271573.000000 0 0 1
-30.384093 26.479988 23.399128 46.603670 -0.716849 1.044785 0.070156 -0.023221 -59638.900000 0 0 1
-30.183393 26.574188 24.965838 47.334108 -0.721894 1.015213 0.078315 -0.028309 295604.000000 0 0 1
-31.345043 26.996888 25.694028 48.698324 -0.711007 1.015004 0.070450 -0.027196 529842.000000 0 0 1
-30.903933 27.443988 26.950438 49.341176 -0.726169 0.992968 0.081011 -0.029730 425550.000000 0 0 1
-32.098263 27.793188 27.914128 50.812974 -0.713640 0.989210 0.076303 -0.027841 411589.000000 0 0 1
-32.671583 26.635288 28.418848 50.837996 -0.683967 0.977607 0.053552 -0.021009 -15428.300000 0 0 1
-33.686563 26.851288 29.400728 52.155335 -0.672965 0.971920 0.046221 -0.008317 189178.000000 0 0 1
-34.419743 25.591688 29.797468 52.225878 -0.639340 0.963621 0.041864 -0.011531 -416982.000000 0 0 1
-33.570643 24.649088 30.377968 51.549845 -0.633342 0.940613 0.040138 -0.019937 -221998.000000 0 0 1
-34.281698 23.543188 30.932018 51.829589 -0.601782 0.931286 0.031456 -0.018097 -230924.000000 0 0 1
-33.555143 22.655988 31.945938 51.573097 -0.593878 0.902780 0.061372 -0.033260 -1019630.000000 0 0 1
-32.516193 21.988888 31.326918 50.221408 -0.594604 0.897232 0.068836 -0.025596 -36842.100000 0 0 1
-31.635223 21.241688 32.194862 49.884925 -0.591312 0.869272 0.086578 -0.025251 644893.000000 0 0 1
-30.533723 22.003288 32.979898 50.041249 -0.624433 0.851236 0.096294 -0.026418 -536920.000000 0 0 1
-30.996893 22.704988 -33.952228 51.274532 -0.632202 2.294501 0.108676 -0.033147 154387.000000 0 0 1
-30.731593 22.100288 -32.697638 50.019887 -0.623456 2.283250 0.100913 -0.028977 10343.900000 0 0 1
-29.460393 22.698488 -32.033088 49.084161 -0.656477 2.281828 0.109669 -0.027139 -24720.300000 0 0 1
-29.556943 24.015288 -31.609498 49.492497 -0.682322 2.263568 0.089321 -0.023517 -375988.000000 0 0 1
-28.596953 24.338188 -30.665758 48.482181 -0.705119 2.255594 0.099796 -0.017473 -527171.000000 0 0 1
-28.972723 25.603788 -29.775828 48.801358 -0.723748 2.227038 0.056366 -0.005529 -201805.000000 0 0 1
-28.793393 26.840188 -30.462218 49.773506 -0.750304 2.229405 0.056414 -0.008013 263874.000000 0 0 1
-29.823933 27.211988 -31.375728 51.131161 -0.739635 2.231449 0.047157 -0.000634 -28501.100000 0 0 1
-29.716493 28.686288 -31.854768 52.160323 -0.767760 2.227752 0.050359 0.000991 -43907.100000 0 0 1
-29.989393 29.675388 -30.857488 52.270230 -0.780135 2.202283 0.034486 -0.010181 63921.500000 0 0 1
-29.767023 30.969988 -31.381848 53.198085 -0.805202 2.201738 0.053495 -0.026317 -224946.000000 0 0 1
-29.907463 32.114388 -30.378618 53.372752 -0.820966 2.176303 0.051368 -0.013009 235210.000000 0 0 1
-28.969523 32.187888 -29.297908 52.284422 -0.837974 2.165612 0.022918 -0.004948 66173.100000 0 0 1
-29.280163 33.219288 -28.400078 52.606211 -0.848341 2.141069 0.015182 -0.000562 -567673.000000 0 0 1
-28.308963 33.422988 -27.220218 51.569698 -0.868052 2.126844 0.010659 0.002186 1217210.000000 0 0 1
-27.057653 -34.024230 -27.582458 51.483559 0.898961 2.136195 0.015930 -0.005280 1183630.000000 0 0 1
-27.038073 -32.652030 -27.803738 50.697735 0.879174 2.151272 0.025453 0.006999 -822479.000000 0 0 1
-27.375653 -31.667130 -26.695948 49.647831 0.857955 2.138511 0.020522 0.008807 -81273.700000 0 0 1
-28.765993 -31.476730 -26.569458 50.241447 0.830365 2.128024 0.012767 0.002695 -178514.000000 0 0 1
-29.063473 -30.624730 -25.459518 49.302603 0.811549 2.113430 0.015144 0.005279 930358.000000 0 0 1
-30.616253 -30.452230 -25.292448 50.043993 0.782712 2.100647 0.013411 0.005107 1130220.000000 0 0 1
-31.256223 -29.699530 -26.352578 50.531890 0.759866 2.119409 0.022823 -0.000996 851657.000000 0 0 1
-32.665463 -29.571730 -26.177958 51.252368 0.735730 2.106872 0.018656 -0.004301 460204.000000 0 0 1
-33.428463 -29.007730 -27.410238 52.059886 0.714712 2.125291 0.033602 -0.014875 -1005720.000000 0 0 1
-34.788145 -28.953730 -27.168248 52.788704 0.694121 2.111408 0.033874 -0.019341 -1032100.000000 0 0 1
-35.347835 -28.303630 -28.299218 53.398602 0.675178 2.129352 0.050368 -0.022194 -763953.000000 0 0 1
-36.855263 -28.442630 -28.400158 54.533133 0.657269 2.118569 0.050435 -0.022014 -562376.000000 0 0 1
36.450849 -27.607330 -27.431528 53.322770 -0.648211 2.111154 0.034865 -0.012232 -1027930.000000 0 0 1
35.096379 -27.649330 -27.682448 52.560054 -0.667265 2.125489 0.035991 -0.012091 -1268290.000000 0 0 1
34.256969 -27.092930 -26.551048 51.112865 -0.669151 2.117014 0.023530 -0.014773 -405293.000000 0 0 1
34.129309 -27.935930 -25.453798 50.922704 -0.685939 2.094224 0.022495 -0.013571 -433674.000000 0 0 1
33.129109 -27.517330 -24.614718 49.604694 -0.693128 2.090033 0.022847 -0.010088 -666730.000000 0 0 1
33.028309 -28.214430 -23.240218 49.264907 -0.706956 2.062059 0.027450 -0.005158 194057.000000 0 0 1
32.293319 -29.451730 -23.398018 49.575500 -0.739409 2.062317 0.040020 -0.009883 298628.000000 0 0 1
31.869889 -30.123430 -22.235018 49.168150 -0.757234 2.040054 0.054020 -0.022445 -260448.000000 0 0 1
32.908589 -30.333530 -21.101818 49.481159 -0.744703 2.011374 0.045217 -0.013220 -622793.000000 0 0 1
33.956279 -31.199630 -21.493618 50.876532 -0.743115 2.006961 0.027791 -0.011961 1135620.000000 0 0 1
35.132119 -31.130230 -20.639118 51.276995 -0.725077 1.985045 0.014905 -0.006471 1757850.000000 0 0 1
36.061839 -29.857030 -20.747018 51.208762 -0.691547 1.987935 0.008077 -0.000658 80123.700000 0 0 1
35.442359 -28.744730 -20.071318 49.852564 -0.681429 1.985167 0.007810 0.001180 129619.000000 0 0 1
36.021079 -27.526830 -20.444318 49.731426 -0.652519 1.994451 0.003313 0.000107 -270522.000000 0 0 1
35.170909 -26.327330 -20.011818 48.276227 -0.642575 1.998220 0.001381 0.001700 -538705.000000 0 0 1
34.002569 -26.246230 -20.749918 47.703233 -0.657364 2.020812 0.015134 0.004743 -447876.000000 0 0 1
33.062449 -25.367530 -20.141018 46.284963 -0.654457 2.021004 0.032664 -0.007886 306283.000000 0 0 1
31.761019 -25.134630 -20.958618 45.604558 -0.669455 2.048311 0.033222 -0.009743 602250.000000 0 0 1
31.020299 -26.328730 -21.274218 45.913542 -0.703773 2.052572 0.049137 -0.009505 116812.000000 0 0 1
29.923439 -26.089630 -22.117318 45.445097 -0.717060 2.079084 0.046976 -0.014498 72479.000000 0 0 1
29.259179 -27.397330 -22.663518 46.047240 -0.752548 2.085388 0.062063 -0.018466 306321.000000 0 0 1
28.623679 -28.185830 -21.625418 45.622525 -0.777691 2.064633 0.074202 -0.020373 195920.000000 0 0 1
28.093479 -29.380030 -22.110318 46.274139 -0.807780 2.068958 0.072014 -0.025239 -574213.000000 0 0 1
27.407879 -30.264430 -21.088318 45.954812 -0.834888 2.047545 0.083154 -0.022625 -316678.000000 0 0 1
28.158279 -30.765730 -20.007118 46.256931 -0.829620 2.018084 0.081162 -0.022569 210703.000000 0 0 1
29.152179 -31.774330 -20.217318 47.625598 -0.828410 2.009212 0.086651 -0.021263 307140.000000 0 0 1
29.929419 -32.224930 -18.967918 47.895701 -0.822314 1.977981 0.067979 -0.018250 -346928.000000 0 0 1
29.175459 -32.722030 -17.896118 47.351977 -0.842633 1.958365 0.071366 -0.021384 -369416.000000 0 0 1
28.751879 -31.735030 -16.990218 46.070058 -0.834677 1.948504 0.065984 -0.025905 -217227.000000 0 0 1
28.083179 -32.411630 -15.822818 45.711490 -0.856827 1.924256 0.064969 -0.018175 994991.000000 0 0 1
26.821979 -33.108930 -16.084618 45.544866 -0.889919 1.931743 0.078604 -0.013298 1205900.000000 0 0 1
26.480579 34.056088 -15.078918 45.699146 0.909890 1.907058 0.073260 -0.011695 -100625.000000 0 0 1
24.952979 33.855588 -14.996718 44.651468 0.935640 1.913316 0.071870 -0.019542 123447.000000 0 0 1
24.282979 -33.125730 -14.518418 43.563305 -0.938229 1.910568 0.062352 -0.009129 -236016.000000 0 0 1
22.933979 -33.392230 -14.216718 42.931615 -0.968980 1.908316 0.067637 -0.015504 -12855.800000 0 0 1
-0.171673 -7.112712 -29.107518 29.964442 1.546665 2.901862 0.094562 -0.032143 4142.230000 0 0 1
-0.202273 -8.464312 -28.830888 30.048388 1.546904 2.855954 0.089510 -0.030366 -152420.000000 0 0 1
-0.242973 -9.200912 -30.049268 31.427286 1.544395 2.844365 0.084225 -0.036757 -174091.000000 0 0 1
0.120227 -10.664312 -29.806998 31.657529 -1.559523 2.797985 0.103190 -0.026612 185497.000000 0 0 1
1.472927 -10.847512 -29.436898 31.406512 -1.435837 2.785558 0.051694 -0.032959 -104203.000000 0 0 1
1.780127 -12.128612 -29.065888 31.545173 -1.425066 2.742478 0.053743 -0.031080 218477.000000 0 0 1
3.247827 -12.375812 -28.634288 31.362901 -1.314150 2.721371 0.047060 -0.033921 -710382.000000 0 0 1
4.209027 -12.191912 -29.669898 32.352148 -1.238376 2.731521 0.066520 -0.036647 -204076.000000 0 0 1
5.516027 -12.481712 -29.272138 32.296714 -1.154675 2.705361 0.080714 -0.039357 -260424.000000 0 0 1
5.848227 -13.923412 -28.880818 32.590870 -1.173144 2.659794 0.071959 -0.038893 -1822500.000000 0 0 1
5.303427 -14.356412 -27.665898 31.617002 -1.216934 2.636299 0.067030 -0.035101 54141.800000 0 0 1
6.058527 -15.441212 -27.112988 31.784444 -1.196893 2.592555 0.064055 -0.028333 43329.500000 0 0 1
5.568727 -16.874212 -27.479808 32.724450 -1.252036 2.567588 0.048119 -0.029713 -285351.000000 0 0 1
5.874527 -17.160212 -28.843608 34.072521 -1.240967 2.580240 0.054343 -0.032705 373541.000000 0 0 1
5.339827 -18.454512 -29.133208 34.897372 -1.289138 2.558612 0.035233 -0.029915 -297832.000000 0 0 1
5.557827 -18.928512 -30.598228 36.406450 -1.285201 2.568931 0.050135 -0.041101 179794.000000 0 0 1
6.866027 -19.462412 -30.764868 37.045984 -1.231643 2.550713 0.048826 -0.032643 330012.000000 0 0 1
7.078227 -20.032312 -32.038298 38.442781 -1.231149 2.556032 0.049766 -0.025460 389752.000000 0 0 1
8.582527 -19.991612 -32.449258 39.067617 -1.165284 2.550967 0.073071 -0.033216 376413.000000 0 0 1
9.065127 -18.688612 -32.652298 38.699009 -1.119171 2.575029 0.075137 -0.032459 319216.000000 0 0 1
10.190627 -18.761212 -33.528878 39.749436 -1.073208 2.574573 0.091518 -0.036080 -32503.800000 0 0 1
10.595127 -17.406712 33.902533 39.555431 -1.024018 0.541204 0.078608 -0.033092 -49588.800000 0 0 1
9.626827 -16.894412 33.012655 38.313605 -1.052861 0.532298 0.079129 -0.034055 300334.000000 0 0 1
9.926927 -15.511712 32.713588 37.541124 -1.001509 0.512734 0.069242 -0.029850 770966.000000 0 0 1
8.832627 -15.082112 31.651828 36.156931 -1.041006 0.504531 0.077950 -0.036507 636796.000000 0 0 1
8.838127 -15.873412 30.479748 35.483697 -1.062756 0.537524 0.071566 -0.034857 218030.000000 0 0 1
7.902327 -15.389612 29.517198 34.213330 -1.096419 0.530133 0.076880 -0.030279 -92185.300000 0 0 1
7.978027 -16.228912 28.185188 33.487779 -1.113897 0.570454 0.062974 -0.025680 -471181.000000 0 0 1
7.471527 -17.561412 28.395818 34.213293 -1.168543 0.591752 0.078388 -0.029910 511893.000000 0 0 1
7.592027 -18.445512 27.289558 33.802304 -1.180337 0.631186 0.069827 -0.031771 -158765.000000 0 0 1
7.069927 -19.847612 27.652948 34.764884 -1.228600 0.651083 0.071474 -0.029409 -475061.000000 0 0 1
8.003927 -20.582312 28.398058 35.974215 -1.199918 0.660965 0.080921 -0.027463 698095.000000 0 0 1
7.280827 -21.325212 29.392848 37.036666 -1.241787 0.654069 0.069261 -0.020358 288040.000000 0 0 1
7.942527 -21.235412 30.807588 38.250934 -1.212883 0.634434 0.073712 -0.026319 -49501.300000 0 0 1
7.287927 -20.389812 31.779528 38.455126 -1.227518 0.598103 0.078960 -0.035232 425886.000000 0 0 1
7.370527 -18.999212 31.506138 37.522413 -1.200731 0.574136 0.071661 -0.027775 -302075.000000 0 0 1
6.649427 -18.267612 32.625862 37.978513 -1.221703 0.537364 0.073070 -0.026005 -642800.000000 0 0 1
5.277227 -18.493512 32.698553 37.934872 -1.292828 0.531662 0.082654 -0.033211 -591033.000000 0 0 1
4.667527 -17.578712 33.600481 38.207189 -1.311263 0.496137 0.084729 -0.029791 283284.000000 0 0 1
3.194327 -17.783812 34.012791 38.514123 -1.393072 0.488314 0.079737 -0.035711 157237.000000 0 0 1
3.155027 -18.739812 -33.011588 38.090677 -1.404001 2.619260 0.068061 -0.036125 -70969.400000 0 0 1
1.993027 -18.718712 -32.217298 37.313759 -1.464723 2.612798 0.074723 -0.047836 -205864.000000 0 0 1
1.808727 -19.988612 -31.311878 37.192067 -1.480554 2.571585 0.047901 -0.037494 -1078260.000000 0 0 1
0.853727 -20.845612 -31.871908 38.093135 -1.529864 2.561996 0.038801 -0.036804 426725.000000 0 0 1
-0.029973 -21.599312 -31.015058 37.795040 1.569409 2.533277 0.036300 -0.027716 763381.000000 0 0 1
-0.728273 -20.809912 -29.879118 36.419013 1.535814 2.532953 0.040401 -0.029541 -1019690.000000 0 0 1
-1.475373 -19.736412 -30.402678 36.277066 1.496181 2.564530 0.051764 -0.036210 -21827.600000 0 0 1
-2.017873 -18.902612 -29.378158 34.992238 1.464448 2.567273 0.081911 -0.029672 240113.000000 0 0 1
-1.794173 -17.389912 -29.727678 34.487142 1.467987 2.609985 0.079045 -0.029352 47250.100000 0 0 1
-2.500673 -16.386612 -29.008368 33.410475 1.419360 2.622444 0.090629 -0.032812 -529006.000000 0 0 1
-2.283473 -15.094412 -29.502818 33.218546 1.420655 2.664085 0.091806 -0.026838 184147.000000 0 0 1
-3.296173 -14.040012 -28.970888 32.362000 1.340202 2.679706 0.100702 -0.024875 349899.000000 0 0 1
-3.045473 -13.592912 -27.640578 30.952281 1.350388 2.674778 0.098103 -0.029721 49164.800000 0 0 1
-4.041673 -12.631212 -27.361938 30.406550 1.261116 2.690267 0.099405 -0.036584 -62866.800000 0 0 1
-4.204773 -12.389912 -25.830478 28.955201 1.243622 2.672733 0.103060 -0.036111 -629492.000000 0 0 1
-4.735973 -13.496912 -25.219208 28.993181 1.233326 2.625659 0.100003 -0.035246 31133.100000 0 0 1
-4.977873 -13.358112 -23.835918 27.773537 1.214089 2.602596 0.083441 -0.032184 650096.000000 0 0 1
-6.104673 -12.337212 -23.358918 27.112965 1.111303 2.609093 0.077287 -0.033846 715541.000000 0 0 1
-7.430173 -12.769612 -23.595718 27.839331 1.043819 2.582181 0.076954 -0.031854 216039.000000 0 0 1
-8.431573 -11.822112 -23.217218 27.384174 0.951264 2.582682 0.072125 -0.029483 853917.000000 0 0 1
-9.850473 -12.374412 -23.581918 28.394801 0.898477 2.550803 0.080021 -0.030686 330315.000000 0 0 1
-10.242473 -13.436612 -22.698718 28.296335 0.919482 2.501732 0.063799 -0.034828 87155.200000 0 0 1
-11.373673 -14.102712 -23.259818 29.483318 0.892112 2.479837 0.056078 -0.026431 343598.000000 0 0 1
-11.990173 -15.102912 -22.258618 29.450098 0.899787 2.427683 0.051252 -0.028143 78094.700000 0 0 1
-11.016073 -16.078612 -21.932918 29.341584 0.970114 2.415091 0.045880 -0.025110 -272870.000000 0 0 1
-11.587873 -17.244812 -21.392318 29.821026 0.979136 2.370797 0.052867 -0.018326 22862.600000 0 0 1
-12.199873 -18.228812 -22.439218 31.379053 0.980998 2.367566 0.046277 -0.014503 85201.800000 0 0 1
-13.383073 -17.646012 -22.931018 31.879774 0.921929 2.373586 0.041095 -0.014127 -867177.000000 0 0 1
-14.131773 -18.583412 -23.663018 33.241369 0.920640 2.362932 0.039747 -0.011764 397549.000000 0 0 1
-15.256073 -17.797212 -24.423518 33.852574 0.862127 2.376715 0.050924 -0.013850 484116.000000 0 0 1
-16.360973 -17.299312 -23.690118 33.588232 0.813268 2.353657 0.048973 -0.011774 178019.000000 0 0 1
-17.409573 -17.036112 -24.602018 34.620538 0.774557 2.361174 0.049522 -0.010317 -24333.500000 0 0 1
-18.251173 -15.793012 -24.334018 34.273444 0.713318 2.360289 0.051642 -0.010564 -435349.000000 0 0 1
-18.953173 -15.823912 -23.147818 33.844356 0.695659 2.323959 0.061217 -0.011491 -109428.000000 0 0 1
-19.822073 -14.707712 -23.031118 33.758906 0.638353 2.321596 0.068088 -0.021491 107600.000000 0 0 1
-20.654273 -14.673412 -21.726218 33.375688 0.617692 2.279644 0.074640 -0.035383 -95056.500000 0 0 1
-19.877573 -14.745412 -20.535718 32.159925 0.638240 2.263409 0.073157 -0.028419 227355.000000 0 0 1
-20.663573 -14.826312 -19.355318 31.959836 0.622381 2.221333 0.068174 -0.028038 17726.600000 0 0 1
-21.069573 -13.491812 -18.691318 31.230134 0.569558 2.212427 0.080933 -0.026978 -653465.000000 0 0 1
-22.278173 -12.993812 -19.153218 32.124786 0.528015 2.209572 0.080288 -0.034962 -596815.000000 0 0 1
-22.620573 -11.857412 -18.450618 31.507362 0.482810 2.196413 0.081127 -0.026900 -761132.000000 0 0 1
-24.064373 -11.443712 -18.661618 32.531655 0.443894 2.181745 0.083053 -0.022967 -757463.000000 0 0 1
-24.338073 -10.977312 -19.905118 33.302506 0.423714 2.211433 0.072654 -0.029239 -127133.000000 0 0 1
-25.642903 -10.454312 -19.846018 34.069276 0.387117 2.192621 0.065756 -0.024857 -163717.000000 0 0 1
-26.051803 -9.605712 -21.085818 34.865138 0.353250 2.220289 0.067548 -0.018698 -205090.000000 0 0 1
-26.173903 -10.220012 -22.342118 35.898358 0.372260 2.242565 0.056234 -0.022563 372261.000000 0 0 1
-26.758843 -9.305112 -23.243818 36.645543 0.334660 2.257883 0.042481 -0.021964 -255170.000000 0 0 1
-27.126813 -9.853412 -24.675818 37.971696 0.348417 2.278180 0.049979 -0.019801 647019.000000 0 0 1
-26.074193 -9.816812 -25.670748 37.884306 0.360081 2.315303 0.048631 -0.025858 979654.000000 0 0 1
-25.133063 -10.909912 -25.544698 37.459693 0.409541 2.321187 0.045742 -0.013125 519713.000000 0 0 1
-24.108973 -11.043712 -26.698538 37.630016 0.429549 2.359586 0.058130 -0.016618 315515.000000 0 0 1
-24.711073 -11.325612 -27.953898 38.991371 0.429752 2.370178 0.053076 -0.005942 375550.000000 0 0 1
-23.714073 -11.151812 -28.945918 39.045952 0.439575 2.405846 0.062344 -0.008448 494131.000000 0 0 1
-24.309973 -11.487312 -30.332668 40.533984 0.441435 2.416332 0.055842 -0.003612 58662.600000 0 0 1
-25.175643 -10.534512 -30.908918 41.232877 0.396302 2.418281 0.050855 -0.003536 41235.400000 0 0 1
-24.553273 -9.364612 -31.465608 40.995654 0.364370 2.445783 0.049518 -0.012973 -878470.000000 0 0 1
-25.510033 -8.285712 -32.006188 41.758962 0.314053 2.444093 0.052575 -0.012857 -1280010.000000 0 0 1
-26.330483 -8.799712 -33.064158 43.173693 0.322533 2.443144 0.040260 0.002997 527317.000000 0 0 1
-27.518113 -9.471912 -32.748478 43.811260 0.331504 2.415072 0.035010 0.000522 -646899.000000 0 0 1
-28.546453 -8.660212 -31.896828 43.672725 0.294548 2.389646 0.023934 0.003130 -1645980.000000 0 0 1
-29.836853 -9.148812 -32.147308 44.803883 0.297526 2.371020 0.022864 0.003733 -54066.500000 0 0 1
-30.735583 -8.462212 -31.250648 44.641775 0.268666 2.346238 0.025141 0.005237 589440.000000 0 0 1
-32.220693 -8.860812 -31.467528 45.900897 0.268370 2.326160 0.032264 -0.000484 241764.000000 0 0 1
-32.354313 -10.246712 -31.164178 46.076053 0.306709 2.313611 0.031531 -0.004004 -257289.000000 0 0 1
-33.695653 -10.639212 -31.174198 47.121338 0.305838 2.293711 0.035898 -0.008173 -591547.000000 0 0 1
-33.854203 -12.187712 -31.130968 47.579245 0.345561 2.284049 0.038145 -0.011393 -489882.000000 0 0 1
-35.199660 -12.605212 -31.182708 48.685405 0.343878 2.265938 0.020108 -0.014739 -30783.700000 0 0 1
-35.227197 -14.021812 -31.153988 49.072778 0.378815 2.258614 0.021560 -0.022016 -269371.000000 0 0 1
-36.599833 -14.646112 -30.917858 50.099604 0.380652 2.235884 0.026231 -0.025816 -154481.000000 0 0 1
36.933349 -14.430512 -29.535088 49.443234 -0.372479 2.210993 0.025933 -0.024586 158315.000000 0 0 1
36.502689 -15.671312 -28.980518 49.172216 -0.405524 2.201072 0.023463 -0.021342 -39012.500000 0 0 1
36.649699 -15.721512 -27.463748 48.421316 -0.405226 2.173878 0.032546 -0.014613 754113.000000 0 0 1
-35.972714 -15.609112 -26.969718 47.592502 0.409398 2.173267 0.037079 -0.024525 1016650.000000 0 0 1
-35.979593 -15.594212 -25.539398 46.797130 0.408979 2.148077 0.042356 -0.027352 -475767.000000 0 0 1
-34.617478 -15.129012 -25.017408 45.311450 0.412019 2.155702 0.075564 -0.028606 -6789.580000 0 0 1
-33.579413 -16.089312 -25.063698 44.884651 0.446823 2.163255 0.069459 -0.025611 -258575.000000 0 0 1
-32.448413 -15.694012 -24.345218 43.495875 0.450491 2.164836 0.073119 -0.012405 -196547.000000 0 0 1
-31.263723 -16.677712 -24.483918 43.070044 0.490050 2.175438 0.086896 -0.016334 -78429.300000 0 0 1
-31.201963 -17.851112 -23.681118 43.046719 0.519663 2.153311 0.101411 -0.024654 -164790.000000 0 0 1
-32.073793 -18.906012 -24.009218 44.301332 0.532629 2.143555 0.082628 -0.025625 -273280.000000 0 0 1
-31.718693 -20.264612 -23.361718 44.300111 0.568522 2.126276 0.090263 -0.025473 -178162.000000 0 0 1
-30.479153 -20.725812 -23.845818 43.899443 0.597176 2.145030 0.083392 -0.022216 -97753.200000 0 0 1
-30.247713 -22.039212 -23.290218 44.080441 0.629680 2.127461 0.071846 -0.023268 831896.000000 0 0 1
-28.750583 -22.535312 -23.437718 43.402338 0.664798 2.141246 0.079430 -0.026520 2092210.000000 0 0 1
-27.625983 -21.879512 -22.787818 41.966566 0.669838 2.144801 0.100696 -0.024278 892185.000000 0 0 1
-27.705023 -21.704012 -21.368418 41.173313 0.664534 2.116462 0.110432 -0.028161 -479058.000000 0 0 1
-27.670923 -23.054012 -20.563218 41.473044 0.694630 2.089577 0.101131 -0.023804 -23580.700000 0 0 1
-27.489973 -22.970612 -19.141418 40.617010 0.696074 2.061522 0.093402 -0.023306 64326.300000 0 0 1
-27.856063 -24.201112 -18.593318 41.320280 0.715303 2.037540 0.084453 0.003202 31745.800000 0 0 1
-27.936983 -24.045212 -17.078918 40.624336 0.710670 2.004695 0.066454 0.001185 943406.000000 0 0 1
-29.107483 -23.306312 -16.702018 40.858134 0.675167 1.991914 0.052849 0.001167 508009.000000 0 0 1
-28.639373 -22.159612 -16.086618 39.623747 0.658526 1.988852 0.067638 -0.000215 570615.000000 0 0 1
-29.734083 -21.445912 -15.212918 39.692262 0.624850 1.964132 0.054420 0.021228 856465.000000 0 0 1
-30.724863 -20.773912 -16.001218 40.393212 0.594524 1.978101 0.047949 0.020354 182901.000000 0 0 1
-31.663693 -20.084012 -15.206318 40.462193 0.565253 1.956073 0.050106 0.019923 28008.300000 0 0 1
-32.739533 -19.371312 -16.073918 41.297646 0.534279 1.970582 0.054022 0.003015 -530863.000000 0 0 1
-33.618373 -20.244212 -16.661518 42.633664 0.542019 1.972304 0.023188 0.003248 -605810.000000 0 0 1
-34.414793 -19.636012 -17.621818 43.364495 0.518498 1.989269 0.022150 -0.005866 -380489.000000 0 0 1
-35.145509 -20.604812 -18.544418 44.762266 0.530264 1.997955 0.018174 -0.007695 447575.000000 0 0 1
-36.287983 -21.367812 -18.138018 45.851813 0.532173 1.977495 0.013183 -0.005699 371851.000000 0 0 1
-36.257643 -22.181912 -16.964418 45.765111 0.549041 1.950542 0.029468 -0.007155 -313214.000000 0 0 1
36.809489 -23.436412 -17.008518 46.834748 -0.566965 1.942454 0.024834 0.008228 911975.000000 0 0 1
35.389759 -23.238612 -16.992118 45.620174 -0.581034 1.952465 0.025713 -0.003785 1179830.000000 0 0 1
34.708939 -24.509512 -16.702518 45.655238 -0.614838 1.945332 0.024636 -0.005636 299027.000000 0 0 1
33.234969 -24.426412 -16.273518 44.340052 -0.633807 1.946596 0.027738 -0.012192 -493276.000000 0 0 1
32.351919 -24.036612 -17.285018 43.854045 -0.638989 1.975938 0.018981 -0.013350 -813329.000000 0 0 1
31.110849 -24.479512 -16.830618 43.016290 -0.666670 1.972798 0.026420 -0.016121 -508407.000000 0 0 1
29.903269 -24.178912 -17.751018 42.354739 -0.679945 2.003254 0.048729 -0.020276 -8211.220000 0 0 1
29.599969 -22.819812 -17.882118 41.432743 -0.656769 2.017055 0.050067 -0.020109 -708688.000000 0 0 1
28.351779 -22.597312 -18.406718 40.660413 -0.672929 2.040580 0.079610 -0.034447 -1163950.000000 0 0 1
35.046279 29.029588 -18.687718 49.195421 0.691773 1.960449 0.065152 -0.026134 50927.800000 0 0 1
34.059669 29.154688 -19.691418 48.967427 0.707960 1.984642 0.055300 -0.044205 96032.100000 0 0 1
34.375509 28.366588 -20.833518 49.197301 0.689918 2.008067 0.069027 -0.040864 322877.000000 0 0 1
33.307639 28.638988 -21.928618 49.096382 0.710175 2.033808 0.085414 -0.047037 -40601.900000 0 0 1
32.013839 28.116288 -21.665718 47.799738 0.720670 2.041216 0.080676 -0.031891 105546.000000 0 0 1
31.172349 28.305588 -22.784018 47.875183 0.737237 2.066789 0.104762 -0.021425 238704.000000 0 0 1
30.412249 29.660088 -22.854718 48.238614 0.772878 2.064380 0.084432 -0.015612 -231248.000000 0 0 1
31.262349 30.778088 -23.020718 49.543704 0.777593 2.054041 0.096138 -0.033184 19467.800000 0 0 1
30.459289 31.955988 -23.101418 49.825987 0.809373 2.052898 0.087343 -0.020767 317923.000000 0 0 1
31.235139 33.225988 -22.658918 50.921771 0.816273 2.031943 0.074712 -0.016808 118425.000000 0 0 1
31.496319 33.235788 -21.268418 50.487438 0.812264 2.005632 0.081715 -0.021129 1172010.000000 0 0 1
32.871799 32.852788 -20.973718 50.987819 0.785109 1.994728 0.085007 -0.022166 1141840.000000 0 0 1
33.080109 32.858688 -19.408818 50.504349 0.782040 1.965246 0.064050 -0.023100 -98988.600000 0 0 1
33.032599 -33.969930 -18.873718 51.003196 -0.799387 1.949859 0.062168 -0.019575 141047.000000 0 0 1
33.067309 -33.929830 -17.449218 50.489163 -0.798271 1.923678 0.045793 -0.025852 -597343.000000 0 0 1
33.054149 -32.421730 -16.945418 49.304083 -0.775740 1.921642 0.045935 -0.006254 1273560.000000 0 0 1
34.337709 -31.729330 -16.979718 49.740723 -0.745938 1.919165 0.046543 -0.015169 945855.000000 0 0 1
35.336399 -32.243030 -16.125018 50.480594 -0.739656 1.895924 0.050354 -0.013240 -97784.500000 0 0 1
36.656509 -31.447530 -16.330418 50.983619 -0.709061 1.896850 0.046307 -0.009650 -133833.000000 0 0 1
-36.563963 -31.887930 -17.403518 51.542661 0.717193 1.915218 0.045039 -0.015999 -219686.000000 0 0 1
-35.338650 -31.142330 -17.480318 50.241680 0.722361 1.926153 0.034795 -0.009471 240073.000000 0 0 1
-34.350761 -31.791430 -18.416618 50.297531 0.746723 1.945668 0.030795 -0.012122 -921853.000000 0 0 1
-33.598443 -32.826230 -17.773818 50.222758 0.773773 1.932534 0.036480 -0.018893 -6683.840000 0 0 1
-32.592343 -33.406830 -18.557018 50.225890 0.797738 1.949236 0.022925 -0.012747 492873.000000 0 0 1
-31.269633 -32.586630 -18.736318 48.895072 0.806020 1.964049 0.027103 -0.008576 -544982.000000 0 0 1
-31.264623 -31.686130 -19.854218 48.740922 0.792094 1.990338 0.027835 0.001692 724848.000000 0 0 1
-29.966783 -31.424930 -20.411218 47.980748 0.809145 2.010205 0.038062 -0.001054 660987.000000 0 0 1
-29.346433 -32.539030 -21.261618 48.703778 0.836941 2.022556 0.035396 0.011522 -597128.000000 0 0 1
-30.088573 -32.904930 -22.381618 49.889813 0.830077 2.036018 0.030551 0.019080 -501823.000000 0 0 1
-29.644413 34.046088 -23.028918 50.677987 -0.854399 2.042513 0.025287 0.012202 -465194.000000 0 0 1
-30.459123 33.646388 -24.224118 51.445558 -0.835076 2.061072 0.005672 0.006772 -881391.000000 0 0 1
-31.674263 33.007988 -23.844618 51.588293 -0.806015 2.051282 0.001422 -0.002990 51625.400000 0 0 1
-32.389373 32.409788 -24.896918 52.147122 -0.785713 2.068531 0.014730 0.003491 287822.000000 0 0 1
-33.078763 33.433088 -25.834368 53.659952 -0.790725 2.073100 0.019717 -0.004585 -934595.000000 0 0 1
-32.218683 33.886088 -26.832368 53.909985 -0.810616 2.091771 0.009256 -0.012352 -185318.000000 0 0 1
-32.798243 -33.078030 -27.384748 54.035222 0.789645 2.102259 0.010741 -0.016375 594318.000000 0 0 1
-32.014263 -32.558830 -28.683488 53.923399 0.793831 2.131675 0.012244 -0.017628 233112.000000 0 0 1
-31.962803 -33.329130 -29.870398 54.997203 0.806322 2.144952 0.021566 -0.014460 -535623.000000 0 0 1
-33.104553 -33.249130 -30.652768 56.044699 0.787577 2.149494 0.024285 -0.017006 -896047.000000 0 0 1
-33.059643 -34.020730 -31.994558 57.218894 0.799725 2.164169 0.047121 -0.018794 -262542.000000 0 0 1
-32.131023 -33.539030 -32.907278 56.922387 0.806836 2.187204 0.042356 -0.038717 -153968.000000 0 0 1
-32.284973 33.716088 -34.009918 57.756113 -0.807078 2.200437 0.038768 -0.037872 550038.000000 0 0 1
-31.251343 -33.975230 32.889500 56.680525 0.827134 0.951747 0.047811 -0.036595 530557.000000 0 0 1
-29.926403 33.714188 32.877980 55.796036 -0.844846 0.940662 0.053337 -0.031098 -275924.000000 0 0 1
-29.828403 32.382188 32.553524 54.754650 -0.826426 0.934110 0.062826 -0.037174 1124090.000000 0 0 1
-28.345813 31.803088 32.747592 53.733847 -0.842814 0.915441 0.066005 -0.029817 1255480.000000 0 0 1
-28.111093 31.544588 -33.919238 54.183109 -0.842890 2.247224 0.070066 -0.033080 438895.000000 0 0 1
-26.779523 31.151388 -33.611238 53.077935 -0.860722 2.256533 0.076570 -0.028545 99179.100000 0 0 1
-26.202613 29.736288 -33.886958 52.145466 -0.848485 2.278189 0.076697 -0.025806 -265994.000000 0 0 1
-26.599883 28.734288 -33.008068 51.212749 -0.823952 2.271203 0.075087 -0.020555 180661.000000 0 0 1
-26.242683 27.448688 -33.558968 50.678528 -0.807856 2.294538 0.075986 -0.020549 -196011.000000 0 0 1
-26.086373 26.285488 -32.525208 49.288081 -0.789200 2.291482 0.089337 -0.028731 -827357.000000 0 0 1
-24.979573 26.390688 -31.697708 48.220246 -0.812861 2.288097 0.081339 -0.019681 -579106.000000 0 0 1
-25.066973 27.311088 -30.625038 48.084734 -0.828217 2.261263 0.060902 -0.011416 -709.535000 0 0 1
-23.781973 27.304988 -29.766758 46.874348 -0.854250 2.258848 0.068022 -0.004314 -742508.000000 0 0 1
-22.633873 27.647788 -30.435938 46.936539 -0.884786 2.276341 0.063659 -0.005784 -803408.000000 0 0 1
-21.483173 27.835688 -29.640078 45.987895 -0.913498 2.271191 0.041035 -0.005286 145980.000000 0 0 1
-21.276773 29.064088 -28.762008 46.094201 -0.938873 2.244626 0.031780 -0.000274 -576846.000000 0 0 1
-20.827773 30.254188 -29.459768 47.084923 -0.967880 2.246790 0.028051 0.010697 280381.000000 0 0 1
-20.414073 31.261388 -28.528108 46.987889 -0.992306 2.223249 0.033550 0.006641 -41774.000000 0 0 1
-19.891773 32.540388 -29.245168 48.060788 -1.022113 2.224970 0.036164 0.009890 69821.800000 0 0 1
-18.634973 32.423788 -29.871498 47.863040 -1.049164 2.244780 0.051946 0.004650 -265735.000000 0 0 1
-18.321173 33.512388 -30.753708 49.036069 -1.070491 2.248704 0.062314 0.003796 201474.000000 0 0 1
-16.803373 33.577588 -31.039918 48.716366 -1.106801 2.261599 0.074729 0.002198 -307617.000000 0 0 1
-16.052673 -33.897030 -30.012158 48.035681 1.128514 2.245657 0.095248 -0.000309 563466.000000 0 0 1
-14.668673 -33.700530 -30.282408 47.622683 1.160263 2.259947 0.105105 0.001842 1078810.000000 0 0 1
-13.744673 33.148188 -30.350038 46.998332 -1.177731 2.272826 0.112659 -0.009293 -352418.000000 0 0 1
-13.586973 32.593388 -29.065878 45.735763 -1.175838 2.259475 0.131990 -0.014614 -49751.700000 0 0 1
-13.436973 31.168188 -29.227938 44.791523 -1.163760 2.281718 0.115232 -0.017334 76799.300000 0 0 1
-13.346773 30.405288 -27.875588 43.355118 -1.157159 2.269153 0.112268 -0.029592 -688175.000000 0 0 1
-12.126473 30.633888 -27.281038 42.775478 -1.193871 2.262400 0.113651 -0.026275 -749479.000000 0 0 1
-12.040373 30.262388 -25.905148 41.615615 -1.192131 2.242712 0.104406 -0.033217 1028130.000000 0 0 1
-10.769573 31.007088 -25.272028 41.425821 -1.236506 2.226926 0.110176 -0.034386 453094.000000 0 0 1
-9.559873 30.434688 -25.622668 40.916776 -1.266444 2.247484 0.101977 -0.023115 -1628150.000000 0 0 1
-8.581973 30.961188 -24.798818 40.586042 -1.300400 2.228143 0.103191 -0.026282 -69943.500000 0 0 1
-7.170273 30.509288 -25.305418 40.281431 -1.339966 2.250054 0.078091 -0.030097 272180.000000 0 0 1
-6.984073 29.137188 -24.952418 38.992001 -1.335539 2.265212 0.075165 -0.044591 -300780.000000 0 0 1
-5.935473 28.507588 -25.640918 38.799086 -1.365522 2.292766 0.063602 -0.051379 -191706.000000 0 0 1
-5.406173 27.218588 -24.921618 37.298328 -1.374727 2.302543 0.082901 -0.037311 272750.000000 0 0 1
-6.246173 26.053088 -25.037128 36.669277 -1.335490 2.322360 0.094644 -0.034444 144269.000000 0 0 1
-5.690273 25.004988 -24.304918 35.332105 -1.347041 2.329387 0.107294 -0.042260 -278526.000000 0 0 1
-6.504873 23.698388 -24.250018 34.525213 -1.302908 2.349540 0.089669 -0.037365 -154993.000000 0 0 1
-6.506173 22.931788 -25.394608 34.829346 -1.294343 2.387825 0.093602 -0.034766 -199780.000000 0 0 1
-7.200373 21.763588 -25.207008 34.071871 -1.251287 2.403597 0.076260 -0.037624 -340270.000000 0 0 1
-7.224773 20.847288 -26.438128 34.435176 -1.237192 2.446142 0.071179 -0.027556 910292.000000 0 0 1
-6.056273 20.029588 -26.728368 33.945081 -1.277170 2.477377 0.096799 -0.037475 513791.000000 0 0 1
-5.922473 18.777888 -25.988208 32.604781 -1.265275 2.493220 0.091310 -0.038181 -517415.000000 0 0 1
-4.675773 17.953588 -26.307798 32.191527 -1.316019 2.527380 0.094015 -0.048571 -52965.300000 0 0 1
-4.816773 17.391188 -27.617938 32.990987 -1.300603 2.562822 0.091449 -0.047306 -312032.000000 0 0 1
-3.734373 16.513788 -27.813238 32.561126 -1.348400 2.594778 0.085498 -0.046257 -164774.000000 0 0 1
-3.284573 16.354288 -29.292748 33.709290 -1.372595 2.623937 0.089418 -0.038257 995467.000000 0 0 1
-2.187073 17.269988 -29.612308 34.350030 -1.444827 2.610147 0.104183 -0.049812 1031770.000000 0 0 1
-2.068073 17.390488 -31.016958 35.619625 -1.452432 2.627589 0.103774 -0.050681 37454.400000 0 0 1
-1.440773 18.719088 -31.542398 36.706988 -1.493980 2.604700 0.109640 -0.046879 448682.000000 0 0 1
-0.087773 18.890788 -31.145988 36.427217 -1.566150 2.596385 0.135386 -0.053388 139847.000000 0 0 1
0.533827 20.075588 -31.664668 37.496205 1.544212 2.576384 0.144237 -0.046956 584963.000000 0 0 1
0.350627 21.387588 -30.770168 37.474726 1.554404 2.534116 0.143835 -0.044481 -22326.600000 0 0 1
1.283627 21.395988 -29.741028 36.660125 1.510874 2.517107 0.160811 -0.057836 -546536.000000 0 0 1
1.006127 22.462188 -28.902228 36.618315 1.526034 2.480437 0.166275 -0.059779 256117.000000 0 0 1
2.098227 22.477388 -27.804998 35.815548 1.477718 2.459633 0.169397 -0.060148 677949.000000 0 0 1
3.393827 22.531788 -28.420758 36.427174 1.421296 2.465794 0.153299 -0.064791 592999.000000 0 0 1
4.446727 22.718988 -27.449958 35.908578 1.377512 2.440969 0.138451 -0.066685 450018.000000 0 0 1
4.872427 24.181888 -27.365988 36.842931 1.371968 2.408001 0.145045 -0.061798 -203127.000000 0 0 1
5.825927 24.582088 -28.359558 37.980061 1.338091 2.413877 0.129757 -0.061777 347677.000000 0 0 1
6.182327 25.930588 -28.066138 38.708199 1.336747 2.381932 0.119684 -0.057526 84623.500000 0 0 1
7.164127 26.428488 -29.178408 40.014612 1.306082 2.387939 0.116882 -0.052588 811838.000000 0 0 1
8.541227 26.153988 -28.901618 39.903473 1.255141 2.380798 0.088640 -0.051108 482923.000000 0 0 1
9.372427 26.769488 -29.845078 41.172522 1.234018 2.381654 0.085530 -0.051241 -712996.000000 0 0 1
10.805127 27.019988 -29.407838 41.372110 1.190381 2.361450 0.083571 -0.041515 -695453.000000 0 0 1
11.504627 27.736288 -30.397908 42.728105 1.177609 2.362322 0.080232 -0.035105 -1154930.000000 0 0 1
12.629327 28.263288 -29.822218 42.984626 1.150569 2.337532 0.078347 -0.033564 -770388.000000 0 0 1
13.393927 29.205488 -30.832218 44.530703 1.140805 2.335580 0.089977 -0.036377 -148291.000000 0 0 1
12.762527 30.465988 -30.964118 45.275105 1.174095 2.323906 0.095489 -0.034628 295677.000000 0 0 1
13.632127 31.493188 -31.330488 46.467787 1.162287 2.310733 0.128598 -0.038481 -108459.000000 0 0 1
12.818227 32.816788 -31.403088 47.195365 1.198420 2.298806 0.142623 -0.047045 131232.000000 0 0 1
12.055627 33.000188 -32.556298 47.898467 1.220539 2.318142 0.110391 -0.042272 19711.200000 0 0 1
10.874727 33.691788 -32.212218 47.864635 1.258582 2.309034 0.109994 -0.028283 11936.100000 0 0 1
9.935627 34.051588 -33.392178 48.716167 1.286896 2.326009 0.085333 -0.025190 134820.000000 0 0 1
10.448527 -33.044630 33.827377 48.429441 -1.264549 0.797514 0.077074 -0.015547 206590.000000 0 0 1
9.596427 -32.864430 32.716903 47.355654 -1.286695 0.808096 0.066929 -0.018556 316428.000000 0 0 1
10.083927 -31.719430 31.704868 45.967451 -1.262990 0.809688 0.077085 -0.022272 -57634.900000 0 0 1
9.521827 -30.475430 31.954888 45.172248 -1.267964 0.784982 0.067389 -0.015713 -206863.000000 0 0 1
9.651627 -29.637530 30.847578 43.853280 -1.255972 0.790589 0.102116 -0.022946 -1024160.000000 0 0 1
8.947827 -28.278830 30.936268 42.858005 -1.264349 0.764351 0.098459 -0.026411 952565.000000 0 0 1
7.517727 -28.310630 30.767508 42.481144 -1.311242 0.760832 0.059714 -0.019000 1079100.000000 0 0 1
6.850727 -28.825530 31.934758 43.562283 -1.337463 0.747953 0.052686 -0.006064 -261858.000000 0 0 1
5.302327 -28.948230 31.753888 43.294620 -1.389639 0.747431 0.068339 -0.004175 448430.000000 0 0 1
4.790927 -30.117030 31.075738 43.539523 -1.413041 0.775978 0.064626 -0.002406 120780.000000 0 0 1
5.023527 -30.197530 29.643498 42.612952 -1.405950 0.801479 0.067711 -0.017983 -230428.000000 0 0 1
4.452627 -29.085430 28.683598 41.091811 -1.418888 0.798144 0.050335 -0.025850 560317.000000 0 0 1
3.030227 -28.997430 28.654778 40.879452 -1.466674 0.794056 0.072901 -0.025866 562358.000000 0 0 1
2.511027 -28.114430 27.674678 39.529916 -1.481718 0.795266 0.085921 -0.032207 -219682.000000 0 0 1
1.164127 -28.614030 27.129628 39.447873 -1.530135 0.812434 0.085235 -0.028182 -318901.000000 0 0 1
1.186927 -29.815830 26.415448 39.851831 -1.531009 0.846189 0.093128 -0.030342 -6693.410000 0 0 1
0.960327 -30.967930 27.222698 41.243306 -1.539796 0.849909 0.107007 -0.036706 -896270.000000 0 0 1
1.417527 -32.330230 26.625978 41.906991 -1.526979 0.882323 0.102260 -0.036846 372658.000000 0 0 1
2.808527 -32.552630 26.460108 42.044012 -1.484733 0.890089 0.083412 -0.030276 553313.000000 0 0 1
3.523827 -31.665330 25.588468 40.864168 -1.459969 0.894148 0.075976 -0.025104 -879778.000000 0 0 1
5.015627 -31.994330 25.528228 41.236927 -1.415296 0.903248 0.081818 -0.021476 -179727.000000 0 0 1
5.705727 -31.278730 24.509308 40.144993 -1.390365 0.914080 0.075642 -0.031785 1358950.000000 0 0 1
7.117427 -31.611630 24.479438 40.610292 -1.349337 0.923804 0.068975 -0.036718 1119240.000000 0 0 1
7.911827 -31.042430 23.298968 39.611506 -1.321238 0.941981 0.060480 -0.028576 -60348.200000 0 0 1
9.309427 -30.962330 23.483508 39.960061 -1.278725 0.942615 0.040945 -0.017636 -174160.000000 0 0 1
9.964227 -30.526530 22.334338 39.114928 -1.255288 0.963082 0.033844 -0.016978 -212998.000000 0 0 1
11.086527 -29.586830 22.838538 38.985772 -1.212279 0.944908 0.019265 -0.003184 184044.000000 0 0 1
12.300927 -30.244730 23.197438 40.052187 -1.184516 0.953073 0.026278 -0.005840 481489.000000 0 0 1
13.339627 -29.262530 23.275548 39.698772 -1.143080 0.944308 0.041202 -0.004386 17057.500000 0 0 1
14.523427 -29.712230 24.141338 40.945705 -1.116146 0.940240 0.049288 -0.004331 -565675.000000 0 0 1
14.229127 -29.829930 25.493468 41.739786 -1.125711 0.913762 0.049838 -0.009556 -15220.600000 0 0 1
15.374227 -29.598930 26.277388 42.461332 -1.091735 0.903513 0.045336 -0.009261 -73777.800000 0 0 1
-11.442673 -14.077012 26.142098 31.819905 0.888262 0.606647 0.078872 -0.031706 -1566580.000000 0 0 1
-10.164973 -13.675512 25.922168 31.021043 0.931599 0.581514 0.095696 -0.029929 -1616980.000000 0 0 1
-9.373873 -14.290512 26.921708 31.888346 0.990249 0.565634 0.084109 -0.025095 330901.000000 0 0 1
-7.828273 -14.241312 26.792238 31.335616 1.068193 0.545228 0.114629 -0.020278 758672.000000 0 0 1
-7.132473 -15.042912 25.801418 30.706263 1.128048 0.573023 0.104644 -0.026831 430963.000000 0 0 1
-7.253373 -14.606012 24.474378 29.409900 1.109871 0.587766 0.109314 -0.026859 -272161.000000 0 0 1
-6.471273 -15.617912 23.559598 28.997435 1.177981 0.622417 0.097391 -0.033574 70932.500000 0 0 1
-7.051773 -16.843612 23.300728 29.603356 1.174307 0.664707 0.099199 -0.032069 -465810.000000 0 0 1
-7.175773 -17.769712 24.386558 31.015458 1.187001 0.666046 0.095473 -0.028478 8652.460000 0 0 1
-7.794273 -19.205212 24.119788 31.801809 1.185264 0.709879 0.095584 -0.031930 300831.000000 0 0 1
-9.132173 -19.184712 23.647528 31.790806 1.126522 0.731987 0.074546 -0.029447 -70276.500000 0 0 1
-9.599573 -20.470812 23.378958 32.523555 1.132304 0.768676 0.066243 -0.029299 -1232100.000000 0 0 1
-11.080973 -20.678112 23.389598 33.127716 1.078859 0.786901 0.048526 -0.025006 -1261830.000000 0 0 1
-11.581773 -20.888412 24.708968 34.365627 1.064536 0.768430 0.058603 -0.020021 -148306.000000 0 0 1
-12.989273 -20.863612 24.668978 34.821976 1.013939 0.783523 0.080276 -0.021493 10305.400000 0 0 1
-13.650173 -20.844512 26.105468 36.087621 0.991014 0.762095 0.085246 -0.024574 -400074.000000 0 0 1
-13.474673 -21.951812 26.941678 37.273354 1.020270 0.762931 0.089839 -0.016827 54959.400000 0 0 1
-12.328173 -21.909512 27.772628 37.461039 1.058266 0.735681 0.103932 -0.012410 42313.600000 0 0 1
-12.006573 -23.233212 28.502408 38.682389 1.093811 0.742424 0.092865 -0.003430 -199977.000000 0 0 1
-12.902173 -23.635112 29.523758 39.959190 1.071114 0.739437 0.092214 -0.002577 79022.600000 0 0 1
-12.502873 -24.842112 30.106738 40.986193 1.104517 0.745781 0.077110 0.005475 -684532.000000 0 0 1
-13.614073 -25.306232 30.994008 42.265552 1.077234 0.747610 0.074500 -0.005130 -488274.000000 0 0 1
-13.698173 -24.731712 32.255881 42.892183 1.064986 0.719671 0.083129 -0.005972 -325189.000000 0 0 1
-14.696873 -25.311182 33.048326 44.145734 1.044728 0.724820 0.078460 -0.008411 -181865.000000 0 0 1
-14.555373 -24.825512 -33.520348 44.178939 1.040506 2.432174 0.081373 -0.008839 156883.000000 0 0 1
-14.693473 -23.416112 -33.283068 43.266327 1.010405 2.448479 0.087728 -0.012096 1271400.000000 0 0 1
-16.065773 -22.953512 -33.469138 43.648092 0.960120 2.444629 0.097903 -0.019855 999682.000000 0 0 1
-16.242573 -21.455812 -33.241608 42.768885 0.922815 2.461061 0.082993 -0.015405 -57205.700000 0 0 1
-16.356873 -21.153112 -31.860628 41.594484 0.912574 2.443364 0.083668 -0.014058 167576.000000 0 0 1
-16.571773 -19.749612 -31.694288 40.855829 0.872668 2.458714 0.068613 -0.016286 -110436.000000 0 0 1
-16.613073 -19.318512 -30.213938 39.523172 0.860551 2.441002 0.069064 -0.011867 409370.000000 0 0 1
-17.823373 -19.652112 -29.526558 39.695034 0.834158 2.409586 0.078112 -0.006351 479516.000000 0 0 1
-17.804773 -19.364012 -28.116488 38.503400 0.827324 2.389461 0.062580 -0.002909 7202.720000 0 0 1
-16.976873 -20.317112 -27.220868 37.973345 0.874725 2.370058 0.059172 0.000005 230710.000000 0 0 1
-15.570373 -20.183412 -27.314508 37.361598 0.913712 2.390707 0.050333 -0.001781 -123994.000000 0 0 1
-14.946673 -21.305612 -26.761638 37.329846 0.959040 2.370137 0.045860 -0.009040 489436.000000 0 0 1
-13.398873 -21.292812 -27.002268 36.905774 1.009134 2.391542 0.085690 -0.008772 566346.000000 0 0 1
-12.759473 -20.229112 -26.269318 35.526021 1.008074 2.403033 0.076926 -0.016207 398948.000000 0 0 1
-11.347773 -20.303612 -26.216458 35.047272 1.061143 2.415887 0.051775 -0.022326 590205.000000 0 0 1
-10.582473 -21.380512 -25.364728 34.820748 1.111190 2.386834 0.082508 -0.028052 -353744.000000 0 0 1
-10.464773 -22.641112 -26.025918 36.048299 1.137841 2.377447 0.090870 -0.023748 170677.000000 0 0 1
-9.825873 -23.548112 -25.165708 35.838167 1.175493 2.349285 0.116309 -0.025950 -22960.800000 0 0 1
-10.026173 -25.032412 -25.489218 37.105876 1.189835 2.328055 0.109779 -0.025328 -151460.000000 0 0 1
-9.201573 -25.492802 -26.568618 37.953173 1.224402 2.346245 0.119901 -0.030384 335599.000000 0 0 1
-9.684473 -26.676802 -27.185978 39.300359 1.222561 2.334704 0.114177 -0.020774 -182660.000000 0 0 1
-9.459173 -28.015412 -26.479438 39.692567 1.245173 2.301123 0.141979 -0.023017 -375933.000000 0 0 1
-10.259673 -28.072582 -25.319918 39.171788 1.220407 2.273629 0.121970 -0.031136 42570.100000 0 0 1
-10.203573 -29.271712 -24.621118 39.587188 1.235386 2.242023 0.147286 -0.029357 -157263.000000 0 0 1
-11.256473 -29.241642 -23.487818 39.159410 1.203334 2.214048 0.150787 -0.035838 -292567.000000 0 0 1
-10.998773 -28.310862 -22.440018 37.762843 1.200243 2.207111 0.126385 -0.046649 9407.450000 0 0 1
-11.613773 -27.038772 -22.661618 37.141942 1.165101 2.227028 0.114232 -0.040129 -36686.800000 0 0 1
-11.451973 -26.047122 -21.507918 35.667784 1.156571 2.218061 0.125400 -0.043367 -126376.000000 0 0 1
-12.229173 -26.426642 -20.386818 35.546342 1.137383 2.181602 0.097385 -0.036504 245160.000000 0 0 1
-12.282573 -25.500782 -19.318818 34.269056 1.121932 2.169703 0.091462 -0.028490 -115084.000000 0 0 1
-12.965373 -26.048112 -18.029018 34.229381 1.108953 2.125524 0.111606 -0.033047 187322.000000 0 0 1
-14.364673 -26.196102 -18.188918 34.977369 1.069220 2.117670 0.131431 -0.036493 -176266.000000 0 0 1
-14.880273 -26.695072 -17.027818 34.985654 1.062277 2.079114 0.129107 -0.028098 270289.000000 0 0 1
-16.441273 -26.680702 -17.054018 35.679334 1.018533 2.069150 0.135671 -0.037768 -380150.000000 0 0 1
-17.090473 -25.428742 -16.857618 34.969765 0.979047 2.073804 0.125798 -0.030640 318850.000000 0 0 1
-18.483773 -25.376022 -16.625718 35.524736 0.941266 2.057827 0.123508 -0.024016 727160.000000 0 0 1
-19.451573 -25.978422 -17.730018 36.981017 0.928090 2.070808 0.119923 -0.018294 -514083.000000 0 0 1
-19.309373 -27.386342 -18.019018 38.046664 0.956674 2.064174 0.119872 -0.025225 15509.800000 0 0 1
-19.647273 -28.267492 -16.965818 38.378450 0.963401 2.028697 0.120019 -0.032450 -893575.000000 0 0 1
-21.104073 -28.717812 -16.868218 39.428814 0.937044 2.012870 0.109819 -0.026220 -404621.000000 0 0 1
-21.479673 -29.595372 -17.882618 40.706884 0.942978 2.025618 0.094540 -0.025342 -168185.000000 0 0 1
-22.791773 -30.059372 -17.673118 41.657771 0.922052 2.008925 0.081238 -0.012510 -19015.800000 0 0 1
-23.211573 -31.275902 -18.589418 43.156988 0.932335 2.016108 0.058592 -0.008202 83918.800000 0 0 1
-22.450173 -32.452652 -18.440918 43.557460 0.965607 2.007958 0.051547 -0.012013 234076.000000 0 0 1
-23.027073 -33.360112 -19.352218 44.918276 0.966639 2.016211 0.050310 0.007798 207236.000000 0 0 1
-22.580073 33.301589 -19.191918 44.577856 -0.974956 2.015872 0.039412 0.002964 533061.000000 0 0 1
-23.326473 32.607011 -18.167918 44.016074 -0.949821 1.996275 0.036424 -0.000566 64577.300000 0 0 1
-22.516273 31.514526 -17.859718 42.651113 -0.950423 2.002853 0.034140 -0.008390 140184.000000 0 0 1
-23.203973 30.170586 -17.371918 41.838645 -0.915188 1.998972 0.043845 -0.025649 229374.000000 0 0 1
-23.935973 30.217586 -16.151218 41.795875 -0.900878 1.967555 0.033030 -0.027542 -88948.000000 0 0 1
-24.468573 28.970446 -15.743518 41.059179 -0.869443 1.964309 0.030801 -0.022584 48699.500000 0 0 1
-23.542573 27.707056 -15.601218 39.564273 -0.866479 1.976131 0.033801 -0.029185 -10690.400000 0 0 1
-23.220573 27.233756 -16.862818 39.562951 -0.864772 2.011115 0.020065 -0.023201 -392811.000000 0 0 1
-22.417373 26.100286 -16.845518 38.308420 -0.861162 2.026099 0.031366 -0.022619 -164637.000000 0 0 1
-22.071473 25.646096 -18.277018 38.456749 -0.860171 2.066058 0.043850 -0.011473 -1046860.000000 0 0 1
-21.652273 24.335236 -18.214318 37.320049 -0.843673 2.080659 0.055463 -0.015910 -93887.200000 0 0 1
-20.913373 23.889646 -19.354518 37.184429 -0.851731 2.118233 0.059572 -0.008813 803547.000000 0 0 1
-19.454273 24.464176 -19.457618 36.817979 -0.898980 2.127607 0.054603 -0.008088 -345240.000000 0 0 1
-18.728373 24.182566 -18.297218 35.641782 -0.911825 2.109897 0.071111 -0.014911 478070.000000 0 0 1
-17.417773 24.753276 -18.250418 35.343759 -0.957621 2.113402 0.086086 -0.023710 686285.000000 0 0 1
-17.376273 25.995046 -17.340018 35.754070 -0.981563 2.077137 0.099328 -0.035391 36064.500000 0 0 1
-18.364273 26.956926 -17.674418 37.098618 -0.972769 2.067371 0.077421 -0.027040 112074.000000 0 0 1
-18.176373 28.163986 -16.985018 37.577673 -0.997678 2.039800 0.096787 -0.041603 -521563.000000 0 0 1
-19.135873 29.299426 -17.326518 39.049280 -0.992235 2.030530 0.080436 -0.038373 -563809.000000 0 0 1
-19.276773 29.844016 -18.604918 40.104891 -0.997296 2.053196 0.078822 -0.037662 121708.000000 0 0 1
-20.085973 29.068766 -19.460318 40.337866 -0.966149 2.074227 0.061290 -0.032924 -362772.000000 0 0 1
-20.053473 29.573036 -20.953318 41.421586 -0.974920 2.101169 0.057663 -0.033056 -60897.200000 0 0 1
-20.779173 30.756006 -21.142418 42.716599 -0.976625 2.088569 0.054297 -0.029265 -50121.000000 0 0 1
-21.094573 30.863736 -22.482118 43.623352 -0.971248 2.112234 0.057124 -0.027638 -50607.200000 0 0 1
-21.795973 32.192501 -22.786318 45.062599 -0.975639 2.100942 0.054090 -0.020442 -195461.000000 0 0 1
-20.892673 33.287375 -22.768318 45.419703 -1.010297 2.095882 0.040683 -0.022864 128748.000000 0 0 1
-21.353173 -33.749092 -23.499218 46.337592 1.006676 2.102649 0.047281 -0.012088 15424.700000 0 0 1
-20.293273 -32.579702 -23.605518 45.060785 1.013722 2.122172 0.057658 -0.015966 443356.000000 0 0 1
-20.193873 -31.767542 -22.435518 43.821475 1.004557 2.108279 0.070138 -0.020846 222746.000000 0 0 1
-19.463573 -32.445582 -21.393718 43.465361 1.030462 2.085413 0.083881 -0.034071 -369263.000000 0 0 1
-19.121873 -31.545592 -20.230118 42.071702 1.025855 2.072419 0.106802 -0.040434 23993.400000 0 0 1
-17.982373 -30.784612 -20.591318 41.171112 1.042124 2.094557 0.109494 -0.042423 120191.000000 0 0 1
-17.607673 -29.957642 -19.514618 39.853617 1.039431 2.082493 0.109978 -0.041504 581634.000000 0 0 1
-16.226173 -29.228412 -19.723218 38.814869 1.064007 2.103815 0.124966 -0.043976 1098280.000000 0 0 1
-15.126573 -30.157282 -19.848818 39.143971 1.105878 2.102581 0.139712 -0.050525 823341.000000 0 0 1
-14.008773 -29.293722 -20.164818 38.222870 1.124726 2.126521 0.129671 -0.049522 -467449.000000 0 0 1
-12.646373 -29.975192 -20.227918 38.309419 1.171559 2.127057 0.159209 -0.050721 -359350.000000 0 0 1
-12.002873 -30.488762 -19.073418 37.913439 1.195748 2.097953 0.148585 -0.044590 200376.000000 0 0 1
-11.442473 -29.443722 -18.315718 36.514771 1.200137 2.096241 0.124455 -0.034968 -818118.000000 0 0 1
-10.834273 -30.052502 -17.016618 36.195299 1.224788 2.060238 0.100928 -0.022414 -580072.000000 0 0 1
-11.662073 -30.637972 -16.085918 36.516380 1.207089 2.026966 0.136340 -0.039884 -414718.000000 0 0 1
-12.197373 -31.892642 -16.422818 37.889649 1.205509 2.019101 0.143338 -0.045094 83446.400000 0 0 1
-13.096873 -32.606072 -15.376118 38.355039 1.188851 1.983283 0.155970 -0.051070 311332.000000 0 0 1
-12.286673 -33.099492 -14.299218 38.092077 1.215358 1.955609 0.151218 -0.043689 411365.000000 0 0 1
-13.100973 -33.652242 -13.275418 38.475260 1.199544 1.923075 0.162569 -0.045576 -38440.400000 0 0 1
-12.392673 34.014990 -11.993418 38.137121 -1.221413 1.890707 0.142449 -0.037828 -158284.000000 0 0 1
-11.868973 -32.961542 -11.335118 36.821470 1.225165 1.883718 0.117170 -0.027175 29513.800000 0 0 1
-11.381773 -33.250942 -10.031718 36.548670 1.240998 1.848841 0.124888 -0.028145 -1339930.000000 0 0 1
-10.191773 -32.457802 -9.652418 35.363121 1.266545 1.847256 0.100380 -0.027007 -833752.000000 0 0 1
-9.035073 -33.171542 -10.101318 35.833230 1.304873 1.856568 0.053739 -0.024982 836938.000000 0 0 1
-7.842873 -32.598632 -9.466718 34.839636 1.334694 1.845979 0.037208 -0.018293 1138620.000000 0 0 1
-6.537573 -33.257662 -9.977018 35.332037 1.376698 1.857069 0.025842 -0.022786 48690.700000 0 0 1
-6.385173 33.593357 -9.373118 35.456162 -1.382964 1.838334 0.014647 -0.008713 -55583.000000 0 0 1
-5.169873 33.097385 -9.904018 34.932135 -1.415847 1.858261 0.016618 -0.005657 417658.000000 0 0 1
-4.580373 31.934746 -8.982318 33.488653 -1.428339 1.842341 0.017306 -0.012869 198603.000000 0 0 1
-4.204873 32.475968 -7.720118 33.644757 -1.442036 1.802319 0.028269 -0.019691 -457707.000000 0 0 1
-3.422073 31.607326 -6.973118 32.547781 -1.462948 1.786713 0.033346 -0.025238 -311029.000000 0 0 1
-3.139273 32.278616 -5.630618 32.916075 -1.473846 1.742702 0.049592 -0.028879 -331275.000000 0 0 1
-2.054473 33.186924 -5.670318 33.730481 -1.508969 1.739705 0.032620 -0.030923 -246722.000000 0 0 1
-1.798973 33.852605 -4.468118 34.193556 -1.517705 1.701842 0.048520 -0.030862 55995.900000 0 0 1
-0.855073 33.117969 -3.472218 33.310469 -1.544983 1.675224 0.057981 -0.028434 108440.000000 0 0 1
0.485827 33.225837 -3.932418 33.461264 1.556175 1.688590 0.059149 -0.029183 401702.000000 0 0 1
1.382627 32.331015 -3.230118 32.521376 1.528058 1.670283 0.064236 -0.029219 633245.000000 0 0 1
2.830127 32.367091 -3.759818 32.707407 1.483580 1.686004 0.069227 -0.024056 380382.000000 0 0 1
3.547027 33.599277 -3.538618 33.970791 1.465617 1.675152 0.067334 -0.019903 -511277.000000 0 0 1
4.853627 33.494031 -4.016618 34.081389 1.426888 1.688925 0.078487 -0.017604 523302.000000 0 0 1
5.862927 -33.471582 -3.591118 34.170409 -1.397394 1.676085 0.075805 -0.020278 700732.000000 0 0 1
5.498227 -32.246192 -4.236518 32.984777 -1.401913 1.699591 0.074058 -0.026586 64277.400000 0 0 1
6.322627 -31.172582 -3.802318 32.033781 -1.370684 1.689774 0.058430 -0.028513 96585.400000 0 0 1
6.225127 -29.907432 -4.667818 30.902997 -1.365580 1.722424 0.052855 -0.021873 -112620.000000 0 0 1
6.859227 -29.920902 -5.932518 31.265063 -1.345445 1.761703 0.065202 -0.028052 -214965.000000 0 0 1
6.738127 -28.716582 -6.727818 30.254057 -1.340323 1.795049 0.068701 -0.021955 407229.000000 0 0 1
7.369127 -27.364192 -6.190418 29.007315 -1.307739 1.785859 0.057819 -0.021202 473440.000000 0 0 1
6.573627 -26.813312 -5.132018 28.080311 -1.330375 1.754592 0.045906 -0.021260 -219945.000000 0 0 1
7.052627 -25.656302 -4.517018 26.988680 -1.302534 1.738955 0.043861 -0.018124 -230473.000000 0 0 1
6.030627 -25.055152 -3.520318 26.010032 -1.334595 1.706558 0.043156 -0.016343 562270.000000 0 0 1
4.892427 -24.439612 -4.131518 25.264598 -1.373224 1.735064 0.047962 -0.021394 -108804.000000 0 0 1
4.108527 -23.840712 -3.143918 24.395569 -1.400140 1.700028 0.046693 -0.017567 -90824.900000 0 1 0
2.923927 -23.031412 -3.709318 23.510728 -1.444518 1.729230 0.051602 -0.019683 -7828.800000 0 1 0
2.165727 -23.784112 -4.609118 24.323206 -1.479989 1.761444 0.056605 -0.021069 -800468.000000 0 1 0
1.100527 -22.975012 -5.026018 23.544069 -1.522932 1.785925 0.069454 -0.019897 -11950.800000 0 1 0
-15.107273 22.989988 18.099838 32.929825 -0.989429 0.988853 0.010809 -0.010850 -148298.000000 0 0 1
-15.429373 22.542188 19.386038 33.496780 -0.970572 0.953609 0.017902 -0.010054 326427.000000 0 0 1
-15.273573 23.523288 20.382838 34.671129 -0.994916 0.942347 0.035017 -0.010873 -914257.000000 0 0 1
-15.255873 22.854188 21.792438 35.070870 -0.982196 0.900290 0.054273 -0.014389 86539.100000 0 0 1
-14.108673 22.076988 22.208938 34.346543 -1.002145 0.867660 0.055401 -0.009895 1083870.000000 0 0 1
-12.840973 22.718288 22.229238 34.280464 -1.056338 0.865247 0.020624 -0.013765 -80360.300000 0 0 1
-12.598973 23.789488 23.243278 35.565768 -1.083748 0.858558 0.043604 -0.013257 -819509.000000 0 0 1
-12.274773 23.223788 24.524198 35.936759 -1.084576 0.819719 0.032271 -0.010866 208477.000000 0 0 1
-12.438273 24.144088 25.616938 37.334637 -1.095088 0.814621 0.053462 -0.019308 -321655.000000 0 0 1
-11.915273 23.627588 26.955578 37.773534 -1.103719 0.776158 0.049724 -0.018228 73833.500000 0 0 1
-10.514473 23.457488 27.045638 37.313194 -1.149411 0.760012 0.012944 -0.011605 -185636.000000 0 0 1
-10.117373 22.596388 28.046838 37.411003 -1.149821 0.723195 0.007870 -0.013127 -1211140.000000 0 0 1
-8.661873 22.185788 27.956528 36.726077 -1.198572 0.705608 0.004581 -0.016576 545358.000000 0 0 1
-7.621273 23.122588 28.393818 37.402497 -1.252407 0.708802 0.016079 -0.017523 1059040.000000 0 0 1
-7.495473 24.243588 27.468758 37.396074 -1.270945 0.745814 0.015966 -0.015222 -459564.000000 0 0 1
-6.526573 25.438788 27.868308 38.293220 -1.319653 0.755745 0.027322 -0.022603 783390.000000 0 0 1
-5.180773 25.028388 27.698648 37.689199 -1.366683 0.745244 0.034415 -0.024427 117054.000000 0 0 1
-4.199473 25.910588 28.268968 38.576271 -1.410118 0.748358 0.049045 -0.018242 644087.000000 0 0 1
-2.769773 25.353288 28.142978 37.980101 -1.461981 0.736249 0.054960 -0.022465 -214939.000000 0 0 1
-2.119473 25.586088 26.917588 37.198073 -1.488148 0.761751 0.049278 -0.016699 575896.000000 0 0 1
-0.826773 24.944588 26.958588 36.738012 -1.537664 0.746888 0.062022 -0.009199 1027690.000000 0 0 1
-0.201273 24.684288 25.584208 35.551460 -1.562643 0.767514 0.054722 -0.010368 -51061.100000 0 0 1
-0.775873 23.608388 24.933228 34.345652 -1.537944 0.758382 0.051986 -0.001356 -269122.000000 0 0 1
-0.165673 23.471288 23.697008 33.353816 -1.563738 0.780625 0.051915 0.001039 -13886.900000 0 0 1
-0.621973 22.208988 22.943438 31.937867 -1.542798 0.769329 0.042152 0.002054 385074.000000 0 0 1
0.037327 21.005688 23.402198 31.446831 1.569019 0.731485 0.054006 0.001597 230962.000000 0 0 1
-0.327673 19.977288 22.526038 30.110161 -1.554396 0.725571 0.058441 -0.000683 141963.000000 0 0 1
0.603927 18.764388 22.774938 29.515501 1.538623 0.689402 0.065957 0.004111 416288.000000 0 0 1
1.914327 18.983388 22.296338 29.345534 1.470294 0.707812 0.077072 -0.004017 -400306.000000 0 0 1
2.751827 17.888488 22.409538 28.805520 1.418161 0.679384 0.064465 -0.004542 -466858.000000 0 0 1
4.170727 17.976888 21.858838 28.607207 1.342825 0.701147 0.065077 -0.008522 -90936.900000 0 0 1
5.087127 18.722588 22.640638 29.816316 1.305491 0.708502 0.065749 -0.002371 -271354.000000 0 0 1
6.332327 18.820488 21.971438 29.615085 1.246235 0.734896 0.079486 -0.008374 292124.000000 0 0 1
7.524527 19.385988 22.768338 30.835568 1.200553 0.740133 0.087781 -0.015122 -125553.000000 0 0 1
7.357527 20.649888 23.385018 32.053240 1.228521 0.753106 0.072908 -0.005672 -75543.400000 0 0 1
6.988327 21.779188 22.629938 32.175827 1.260303 0.790738 0.082476 -0.012888 370140.000000 0 0 1
5.646727 22.457788 23.111038 32.716324 1.324465 0.786387 0.060207 0.000220 753007.000000 0 0 1
5.475127 23.809388 22.641238 33.309003 1.344769 0.823397 0.057985 -0.007679 136036.000000 0 0 1
4.194727 24.322088 22.953038 33.704624 1.400011 0.821661 0.042851 -0.000026 -210560.000000 0 0 1
3.883327 25.813488 22.581438 34.515761 1.421478 0.857625 0.057767 -0.000528 12315.600000 0 0 1
3.539427 26.054188 21.216438 33.785877 1.435774 0.891857 0.070525 -0.011829 455127.000000 0 0 1
2.520027 25.308288 20.540638 32.692167 1.471550 0.891424 0.061720 -0.005563 65650.400000 0 0 1
2.340527 25.636388 19.083638 32.045089 1.479752 0.932878 0.074017 -0.011426 -208278.000000 0 0 1
1.756027 26.904888 18.951638 32.956353 1.505621 0.958128 0.081491 -0.022443 79410.800000 0 0 1
1.446927 27.274288 17.619538 32.502746 1.517795 0.997869 0.087613 -0.018476 887058.000000 0 0 1
0.227827 28.302288 17.636538 33.348447 1.562747 1.013544 0.065274 -0.003894 890289.000000 0 0 1
0.572827 29.611688 18.029738 34.673501 1.551454 1.023962 0.080231 -0.007637 599102.000000 0 0 1
-0.627073 30.373388 18.190438 35.409433 -1.550154 1.031284 0.054698 -0.006801 550799.000000 0 0 1
-0.360273 31.770088 18.762338 36.898423 -1.559457 1.037371 0.053078 -0.005686 149804.000000 0 0 1
0.293527 31.743888 20.017738 37.529594 1.561550 1.008199 0.059856 -0.009841 -42777.000000 0 0 1
0.631627 33.018688 20.457738 38.847803 1.551669 1.016186 0.054078 -0.010355 -242610.000000 0 0 1
1.481627 32.951488 21.697238 39.481210 1.525863 0.988961 0.049466 -0.016324 -316882.000000 0 0 1
0.649627 32.555088 22.730138 39.710389 1.550844 0.961369 0.050828 -0.011978 290043.000000 0 0 1
1.355527 32.807188 23.940178 40.635959 1.529502 0.940805 0.057462 -0.025411 18128.700000 0 0 1
0.582427 32.457288 25.212408 41.103288 1.552854 0.910449 0.073402 -0.014232 497711.000000 0 0 1
-0.650373 33.181288 25.315388 41.740744 -1.551198 0.919156 0.067945 -0.016031 1328980.000000 0 0 1
-1.644973 32.855388 26.328248 42.135011 -1.520771 0.895851 0.082176 -0.020712 933223.000000 0 0 1
-1.293773 33.174188 27.788578 43.294407 -1.531817 0.873886 0.104838 -0.023952 -796133.000000 0 0 1
-0.192273 32.440188 28.242748 43.012273 -1.564869 0.854467 0.083062 -0.026278 -117032.000000 0 0 1
0.092927 32.785688 29.610548 44.177987 1.567962 0.836243 0.084937 -0.020642 110434.000000 0 0 1
1.291027 32.050188 30.340068 44.152022 1.530537 0.813206 0.077069 -0.015090 2232200.000000 0 0 1
2.620627 32.285988 29.768798 43.993568 1.489805 0.827576 0.046775 -0.011251 1592210.000000 0 0 1
2.911027 31.758188 28.483238 42.759227 1.479389 0.841787 0.049094 -0.016437 -1695190.000000 0 0 1
4.377227 31.503388 28.229068 42.526508 1.432736 0.844909 0.024248 -0.013090 -857213.000000 0 0 1
4.912627 30.479988 29.080118 42.412461 1.410995 0.815300 0.028609 -0.010613 -182629.000000 0 0 1
6.156227 30.074488 28.568098 41.934594 1.368886 0.821322 0.032593 -0.023140 89.926900 0 0 1
6.747427 28.863988 29.383718 41.737998 1.341154 0.789777 0.040929 -0.030292 190436.000000 0 0 1
7.000527 29.088788 30.787018 42.930240 1.334627 0.771106 0.050568 -0.025620 382850.000000 0 0 1
7.952027 28.208188 31.359498 42.922660 1.296022 0.751589 0.040579 -0.023529 198613.000000 0 0 1
7.707527 28.283188 32.879696 44.050189 1.304744 0.728139 0.054214 -0.038563 722960.000000 0 0 1
6.371127 27.815988 33.173285 43.758283 1.345635 0.710397 0.072521 -0.036871 959567.000000 0 0 1
6.152427 27.789388 -33.449928 43.920384 1.352916 2.436581 0.094819 -0.040206 -39137.700000 0 0 1
6.254427 26.311288 -32.958838 42.634338 1.337419 2.454445 0.101571 -0.041599 -237853.000000 0 0 1
7.573927 25.849988 -33.119418 42.690539 1.285778 2.458782 0.070940 -0.037349 -106388.000000 0 0 1
7.757027 24.496188 -32.723298 41.605876 1.264124 2.475928 0.091531 -0.047258 -413667.000000 0 0 1
9.121327 23.903688 -33.056518 41.800937 1.206264 2.482924 0.071770 -0.035554 -724804.000000 0 0 1
9.213427 23.701088 33.624870 42.157570 1.200039 0.647491 0.050451 -0.025056 -403248.000000 0 0 1
10.469927 23.267288 33.189405 41.863142 1.147955 0.655395 0.058489 -0.036425 -638565.000000 0 0 1
10.931127 21.845388 33.532813 41.486867 1.106840 0.629579 0.071718 -0.040729 -749772.000000 0 0 1
10.245727 20.840788 32.798837 40.188022 1.113876 0.616106 0.061367 -0.041213 134390.000000 0 0 1
10.045927 19.623888 33.506580 40.108709 1.097656 0.581947 0.063941 -0.032391 158428.000000 0 0 1
8.707927 19.645788 -33.762138 40.020832 1.153573 2.574775 0.105345 -0.051750 -180030.000000 0 0 1
8.919227 20.307088 -32.534618 39.375523 1.156945 2.543241 0.106161 -0.052510 603999.000000 0 0 1
7.670827 20.329788 -31.837758 38.545878 1.209994 2.542718 0.121337 -0.060403 454647.000000 0 0 1
7.766427 20.889288 -30.351348 37.654802 1.214843 2.508230 0.130953 -0.071436 -260525.000000 0 0 1
7.919027 22.329988 -30.351588 38.504003 1.229997 2.478790 0.136504 -0.066042 -153810.000000 0 0 1
8.247127 22.723088 -29.059688 37.799726 1.222640 2.447728 0.104546 -0.055774 -1309990.000000 0 0 1
9.704927 23.061288 -28.900248 38.226077 1.172461 2.428030 0.106153 -0.058027 -1055610.000000 0 0 1
10.415927 21.843788 -28.836668 37.645664 1.125850 2.443396 0.106772 -0.059731 -593976.000000 0 0 1
11.801527 22.057288 -28.950608 38.261439 1.079511 2.428974 0.096592 -0.056626 328684.000000 0 0 1
12.745127 20.800688 -29.054778 37.937937 1.021072 2.443159 0.096851 -0.067034 212110.000000 0 0 1
12.658227 19.874888 -30.172298 38.283279 1.003689 2.478565 0.089856 -0.055754 -556947.000000 0 0 1
11.425527 19.256188 -30.382638 37.741862 1.035286 2.506491 0.117589 -0.060162 -723884.000000 0 0 1
11.408027 18.110088 -31.387788 37.990941 1.008662 2.543110 0.108543 -0.057272 -626278.000000 0 0 1
12.014227 16.907188 -30.962028 37.267169 0.952992 2.551362 0.107606 -0.047831 329894.000000 0 0 1
11.895427 15.940488 -32.003218 37.680317 0.929706 2.585521 0.092869 -0.038715 216832.000000 0 0 1
13.078127 15.997988 -33.025798 38.957366 0.885484 2.582510 0.070071 -0.015632 -21323.500000 0 0 1
13.237027 17.262488 -33.646408 40.066110 0.916624 2.567660 0.074013 -0.021308 121339.000000 0 0 1
13.732627 17.336288 33.036928 39.756390 0.900871 0.589922 0.076801 -0.015957 409375.000000 0 0 1
12.796827 16.715688 31.918218 38.235398 0.917412 0.583060 0.087060 -0.022647 -261328.000000 0 0 1
13.322427 16.966088 30.613448 37.450213 0.905121 0.613837 0.073573 -0.024220 512443.000000 0 0 1
12.381527 16.706488 29.557568 36.139436 0.933002 0.613087 0.077858 -0.022031 1441080.000000 0 0 1
10.988527 17.468588 29.589388 36.075354 1.009294 0.609017 0.069358 -0.026896 990757.000000 0 0 1
10.063927 16.934088 30.540088 36.342028 1.034579 0.572864 0.079573 -0.024852 562567.000000 0 0 1
8.796127 17.623988 30.520078 36.324262 1.107869 0.573122 0.088156 -0.032039 689869.000000 0 0 1
7.846927 16.806988 31.395438 36.465363 1.133990 0.533631 0.113798 -0.033957 -323354.000000 0 0 1
8.370927 16.815188 32.651995 37.669295 1.108895 0.522034 0.128880 -0.034366 -85528.800000 0 0 1
7.633227 15.927688 33.422495 37.802389 1.123892 0.486152 0.144153 -0.039049 -212430.000000 0 0 1
7.666027 16.131388 -33.099868 37.611048 1.127165 2.646779 0.139392 -0.042225 -658817.000000 0 0 1
6.525927 16.773088 -32.649558 37.281602 1.199747 2.637794 0.132971 -0.049369 -492626.000000 0 0 1
6.519627 16.823088 -31.250668 36.084984 1.201077 2.618002 0.139641 -0.057816 -631130.000000 0 0 1
5.410227 17.654988 -30.656458 35.788093 1.273440 2.599461 0.133656 -0.064257 -1352050.000000 0 0 1
5.562827 17.763688 -29.268328 34.686146 1.267313 2.575130 0.126963 -0.072063 747890.000000 0 0 1
4.650727 18.781488 -28.778128 34.677864 1.328056 2.549671 0.132894 -0.075834 1435960.000000 0 0 1
3.102227 18.547288 -28.832188 34.422678 1.405070 2.563658 0.140976 -0.073414 -910594.000000 0 0 1
2.625127 17.540588 -27.967308 33.116972 1.422239 2.576429 0.139933 -0.066560 315729.000000 0 0 1
1.236927 17.229388 -28.067758 32.957258 1.499128 2.589905 0.133947 -0.059851 488366.000000 0 0 1
0.285627 18.360088 -27.662978 33.202632 1.555241 2.555587 0.127930 -0.062259 -1282690.000000 0 0 1
0.132127 18.678388 -26.319118 32.273761 1.563723 2.524382 0.135698 -0.063990 -68506.300000 0 0 1
-0.711773 19.811888 -26.212038 32.864699 -1.534885 2.494059 0.147752 -0.055067 -65161.300000 0 0 1
-1.213573 20.096288 -24.816518 31.956112 -1.510482 2.460017 0.128140 -0.057580 -578844.000000 0 0 1
-2.226173 19.382688 -24.214718 31.096576 -1.456444 2.463378 0.118315 -0.047496 -600579.000000 0 0 1
-2.545273 19.871288 -22.935118 30.452687 -1.443402 2.423618 0.111513 -0.041966 -63759.800000 0 0 1
-3.721473 19.203688 -22.209218 29.595276 -1.379379 2.419511 0.078086 -0.030500 132781.000000 0 0 1
-5.007273 19.455588 -22.747918 30.348978 -1.318894 2.418170 0.076889 -0.023586 -236889.000000 0 0 1
-5.957473 18.692988 -22.043918 29.510229 -1.262272 2.414323 0.065462 -0.030503 1644960.000000 0 0 1
-7.469773 19.160088 -22.322118 30.351004 -1.199061 2.397150 0.096628 -0.027316 1574370.000000 0 0 1
-8.014773 20.227088 -21.574118 30.640076 -1.193536 2.351972 0.064028 -0.015262 -376238.000000 0 0 1
-7.441373 21.519088 -21.640518 31.412692 -1.237865 2.330781 0.058906 -0.020969 -245600.000000 0 0 1
-8.040573 22.627688 -20.743818 31.732776 -1.229370 2.283264 0.071341 -0.020929 60435.900000 0 0 1
-7.591073 22.303088 -19.412018 30.526686 -1.242735 2.259975 0.080341 -0.025700 198080.000000 0 0 1
-7.733973 23.436188 -18.600318 30.903739 -1.252048 2.216649 0.089908 -0.035061 -88856.600000 0 0 1
-6.994373 23.291088 -17.235918 29.807263 -1.279062 2.187373 0.098900 -0.031661 1038340.000000 0 0 1
-5.571473 23.373088 -17.459918 29.701705 -1.336792 2.199185 0.092481 -0.035973 269148.000000 0 0 1
-4.998273 23.359688 -16.171818 28.847625 -1.360005 2.165900 0.092872 -0.035561 -47199.000000 0 0 1
-3.509073 23.733688 -16.059218 28.870401 -1.424008 2.160665 0.090292 -0.034061 55224.300000 0 0 1
-3.209873 25.061988 -16.399818 30.122426 -1.443412 2.146516 0.069245 -0.036027 130035.000000 0 0 1
-1.950473 25.134088 -17.082918 30.452468 -1.493349 2.166353 0.069047 -0.041540 792349.000000 0 0 1
-1.366973 26.585288 -17.132718 31.657166 -1.519423 2.142655 0.051625 -0.051940 2285.070000 0 0 1
-2.129473 27.410188 -17.973318 32.846510 -1.493263 2.149801 0.052470 -0.054213 72575.000000 0 0 1
-1.415573 28.569388 -18.379418 34.000247 -1.521288 2.141907 0.063719 -0.053755 -445202.000000 0 0 1
-2.282773 29.415088 -19.364018 35.290560 -1.493346 2.151608 0.094978 -0.051881 381369.000000 0 0 1
-3.382773 30.107888 -18.823718 35.668760 -1.458911 2.126730 0.063928 -0.040364 -55508.600000 0 0 1
-4.519873 29.343188 -18.512918 34.988285 -1.417963 2.128357 0.025809 -0.041433 -456413.000000 0 0 1
-5.629473 30.020988 -17.690818 35.297532 -1.385431 2.095771 0.064190 -0.031374 139352.000000 0 0 1
-6.351773 31.100388 -18.149918 36.564993 -1.369332 2.090213 0.112038 -0.040235 -9527.620000 0 0 1
-5.851373 32.310988 -17.603118 37.257325 -1.391643 2.062892 0.103570 -0.063734 167161.000000 0 0 1
-6.574073 33.582988 -18.158118 38.739550 -1.377485 2.058641 0.104994 -0.039709 384638.000000 0 0 1
-7.936873 33.674088 -17.773218 38.895057 -1.339324 2.045363 0.124071 -0.060859 247113.000000 0 0 1
-8.453873 -33.161030 -18.021518 38.676828 1.321179 2.055506 0.176924 -0.054615 16685.700000 0 0 1
30.189527 -20.431212 -26.068578 44.815318 -0.594961 2.191600 0.044354 0.005843 90445.800000 0 0 1
29.704827 -21.734412 -26.001938 45.065089 -0.631672 2.185830 0.049002 -0.001675 -1246760.000000 0 0 1
28.347327 -21.778012 -25.788278 44.078204 -0.655083 2.195747 0.057927 0.003118 -1069250.000000 0 0 1
27.872827 -23.129212 -25.259908 44.157875 -0.692657 2.179783 0.053386 0.008402 -40229.600000 0 0 1
28.157727 -24.331312 -25.931658 45.357703 -0.712628 2.179390 0.035521 0.018715 141245.000000 0 0 1
29.522527 -24.735912 -25.923478 46.427058 -0.697407 2.163216 0.039353 0.017498 271245.000000 0 0 1
29.697527 -26.127902 -26.642428 47.690978 -0.721542 2.163550 0.040754 0.009237 -108343.000000 0 0 1
29.134627 -27.144622 -25.865378 47.483416 -0.750053 2.146857 0.055338 -0.005419 -241577.000000 0 0 1
29.454827 -28.396812 -26.381288 48.682011 -0.767112 2.143505 0.038742 -0.002040 -105979.000000 0 0 1
28.297427 -29.019102 -27.185068 48.804514 -0.797989 2.161589 0.054624 -0.005233 -833427.000000 0 0 1
28.031027 -28.393322 -28.430178 48.991777 -0.791819 2.189900 0.031532 -0.008801 -9154.930000 0 0 1
28.948527 -28.573102 -29.493768 50.242629 -0.778872 2.198178 0.020329 -0.008955 -393283.000000 0 0 1
29.380027 -30.021002 -29.915458 51.569188 -0.796188 2.189652 0.035411 -0.011932 -695320.000000 0 0 1
30.053327 -30.816862 -28.916638 51.856084 -0.797941 2.162327 0.046635 -0.009931 326429.000000 0 0 1
31.328727 -30.431642 -28.434248 52.116029 -0.770874 2.147895 0.043618 -0.005521 -254935.000000 0 0 1
32.453327 -30.246412 -29.473878 53.261369 -0.750215 2.157215 0.044985 -0.004325 -924630.000000 0 0 1
32.305527 -28.990752 -30.147138 52.848470 -0.731373 2.177844 0.040768 -0.009739 -104758.000000 0 0 1
33.427827 -28.706152 -30.956758 53.849640 -0.709552 2.183246 0.040390 -0.009547 -68845.600000 0 0 1
33.238827 -27.371892 -31.806938 53.532433 -0.688902 2.207020 0.033969 0.000195 -14572.500000 0 0 1
33.182627 -26.177262 -31.038708 52.437937 -0.667926 2.204227 0.025704 0.007117 506001.000000 0 0 1
31.999627 -25.902882 -30.248438 51.087214 -0.680491 2.204451 0.018388 0.000292 492677.000000 0 0 1
32.002527 -24.615712 -29.438788 49.967362 -0.655664 2.200816 0.020636 0.000183 -717589.000000 0 0 1
32.878727 -24.563312 -28.377958 49.896648 -0.641635 2.175763 0.017480 0.003509 -263092.000000 0 0 1
32.701527 -23.276712 -27.762098 48.805013 -0.618597 2.175887 0.011317 0.005307 322130.000000 0 0 1
33.782227 -22.920312 -26.680198 48.768971 -0.596131 2.149660 0.009116 0.006521 104696.000000 0 0 1
33.763627 -23.623412 -25.436318 48.425762 -0.610505 2.123822 0.016827 0.000002 47393.000000 0 0 1
32.760327 -23.264312 -24.510918 47.066468 -0.617497 2.118552 0.031182 0.003218 68400.300000 0 0 1
33.208127 -21.936712 -23.728118 46.335976 -0.583779 2.108411 0.025155 0.004272 132766.000000 0 0 1
33.377727 -20.780712 -24.545118 46.350550 -0.556866 2.128871 0.026167 -0.000712 153711.000000 0 0 1
33.687027 -19.636012 -23.745918 45.653668 -0.527748 2.117801 0.013799 -0.009142 -10935.600000 0 0 1
33.713027 -18.266712 -24.503618 45.504596 -0.496549 2.139436 0.000678 -0.013557 99171.100000 0 0 1
32.405127 -17.976912 -24.946118 44.671808 -0.506487 2.163289 0.019625 -0.006470 318271.000000 0 0 1
32.489627 -16.815712 -25.791708 44.761102 -0.477606 2.184878 0.027739 -0.009490 -97300.400000 0 0 1
31.473327 -16.848412 -26.927928 44.716358 -0.491505 2.217043 0.014864 -0.000387 1796330.000000 0 0 1
30.043827 -16.796712 -26.566228 43.480174 -0.509783 2.228115 0.024155 0.007946 2003230.000000 0 0 1
29.268627 -16.611112 -27.737948 43.611642 -0.516210 2.260128 0.020664 -0.002769 945703.000000 0 0 1
27.741827 -16.360612 -27.424798 42.301278 -0.532845 2.276173 0.027204 0.002256 1081660.000000 0 0 1
27.019227 -17.274012 -26.596908 41.663241 -0.568833 2.263186 0.058275 0.007629 193096.000000 0 0 1
27.209627 -17.082712 -25.189088 40.824907 -0.560624 2.235725 0.076843 0.011358 -580388.000000 0 0 1
26.385227 -17.865612 -24.165318 39.991536 -0.595195 2.219634 0.086183 0.013954 -233776.000000 0 0 1
26.755327 -17.605612 -22.838518 39.337044 -0.581994 2.190244 0.102803 0.003634 7708.250000 0 0 1
26.263227 -18.607312 -22.017418 38.996870 -0.616403 2.170738 0.092380 0.004937 -472748.000000 0 0 1
26.263027 -18.238812 -20.489018 37.976318 -0.607003 2.140664 0.098979 0.005009 466428.000000 0 0 1
25.234527 -17.326212 -20.045118 36.589421 -0.601681 2.150575 0.121178 0.006491 365327.000000 0 0 1
25.134527 -16.004112 -20.563118 36.203838 -0.566996 2.174848 0.101163 0.005231 369255.000000 0 0 1
26.338227 -14.967112 -20.515318 36.586814 -0.516759 2.166063 0.074047 -0.005247 597674.000000 0 0 1
26.456927 -14.236712 -19.246118 35.680051 -0.493668 2.140531 0.077158 -0.020592 397834.000000 0 0 1
27.484927 -13.259512 -19.269118 36.090647 -0.449492 2.134013 0.058746 -0.018846 37319.500000 0 0 1
27.590027 -12.458712 -17.928618 35.183298 -0.424155 2.105490 0.065126 -0.014076 -410301.000000 0 0 1
27.825727 -13.214912 -16.770518 35.073570 -0.443381 2.069346 0.049983 -0.007764 319274.000000 0 0 1
27.630827 -12.401312 -15.672418 34.101024 -0.421874 2.048327 0.039081 -0.005139 -243250.000000 0 0 1
28.146327 -12.986812 -14.364518 34.164490 -0.432296 2.004739 0.064272 -0.017193 -66531.900000 0 0 1
27.435527 -14.104912 -13.744918 33.772466 -0.474873 1.989948 0.085970 -0.012269 447151.000000 0 0 1
28.007127 -14.499012 -12.526118 33.934115 -0.477699 1.948870 0.093821 -0.015960 -280877.000000 0 0 1
27.307027 -15.682412 -11.907318 33.665947 -0.521308 1.932310 0.089520 -0.029549 -106452.000000 0 0 1
26.025727 -15.471012 -11.340518 32.331069 -0.536329 1.929181 0.079800 -0.017597 258729.000000 0 0 1
25.557127 -16.660112 -10.830718 32.373300 -0.577694 1.911932 0.076144 -0.014921 -822503.000000 0 0 1
24.102227 -16.504212 -10.416018 31.012897 -0.600424 1.913315 0.093915 -0.021576 -727220.000000 0 0 1
23.894427 -16.040612 -9.104618 30.185078 -0.591212 1.877194 0.079362 -0.011450 360092.000000 0 0 1
22.519727 -15.910512 -8.785518 28.939037 -0.615085 1.879252 0.091785 -0.022565 -21751.300000 0 0 1
22.024127 -15.592312 -7.356918 27.969745 -0.616052 1.836959 0.078985 -0.018071 -311077.000000 0 0 1
22.302427 -14.256612 -6.946118 27.365997 -0.568774 1.827427 0.082604 -0.004867 328397.000000 0 0 1
22.024327 -13.876112 -5.553518 26.616894 -0.562212 1.780987 0.076840 -0.011338 -279914.000000 0 0 1
22.894327 -14.582712 -4.487218 27.512558 -0.567152 1.734625 0.069740 -0.010968 338870.000000 0 0 1
24.275427 -14.253512 -4.674318 28.536086 -0.530923 1.735342 0.074655 -0.009976 828462.000000 0 0 1
25.072727 -14.957212 -3.720918 29.431362 -0.537881 1.697563 0.066199 -0.019615 -244946.000000 0 0 1
26.583227 -14.738112 -3.870118 30.640785 -0.506226 1.697441 0.070341 -0.018550 -368961.000000 0 0 1
27.018727 -13.429712 -3.556518 30.381205 -0.461286 1.688128 0.073434 -0.020866 -106421.000000 0 0 1
28.327827 -13.206112 -4.012918 31.511438 -0.436235 1.698491 0.078029 -0.029979 -284295.000000 0 0 1
29.022127 -11.982812 -3.390718 31.581143 -0.391565 1.678369 0.119541 -0.041862 -1355250.000000 0 0 1
29.368027 -12.204112 -2.061018 31.869565 -0.393846 1.635512 0.133889 -0.047124 488963.000000 0 0 1
30.082027 -11.164612 -1.405818 32.117803 -0.355381 1.614581 0.130813 -0.045855 -39595.800000 0 0 1
31.504027 -10.841312 -1.877118 33.370067 -0.331431 1.627078 0.137447 -0.041363 -864579.000000 0 0 1
31.404427 -10.218412 -3.112918 33.171437 -0.314577 1.664778 0.133179 -0.047368 -837676.000000 0 0 1
32.652527 -10.153412 -3.693118 34.393581 -0.301475 1.678382 0.167158 -0.050830 -817056.000000 0 0 1
32.541627 -9.827212 -5.180718 34.385628 -0.293281 1.722037 0.156340 -0.052144 71116.700000 0 0 1
31.758727 -10.806512 -5.848318 34.052904 -0.327980 1.743394 0.132033 -0.053006 352226.000000 0 0 1
31.820027 -10.692512 -7.268318 34.346359 -0.324176 1.784027 0.117698 -0.039555 -423558.000000 0 0 1
30.639327 -11.449112 -7.849818 33.637333 -0.357607 1.806334 0.104875 -0.034430 -359044.000000 0 0 1
30.758627 -12.816612 -7.705818 34.201438 -0.394805 1.798054 0.090729 -0.033565 418617.000000 0 0 1
29.632027 -13.435812 -8.319218 33.582547 -0.425696 1.821127 0.083602 -0.028336 445859.000000 0 0 1
29.772127 -14.993312 -8.196318 34.327228 -0.466525 1.811896 0.086018 -0.020212 259396.000000 0 0 1
30.482427 -15.570112 -9.310418 35.472393 -0.472242 1.836377 0.100145 -0.028530 324599.000000 0 0 1
30.430627 -17.002512 -9.285518 36.073943 -0.509521 1.831129 0.090787 -0.027042 -106017.000000 0 0 1
30.660427 -17.598412 -10.713318 36.939695 -0.521066 1.865046 0.074662 -0.033575 -778915.000000 0 0 1
31.889127 -17.238712 -11.250218 37.955988 -0.495584 1.871719 0.068826 -0.029915 -415638.000000 0 0 1
32.075127 -17.740112 -12.548118 38.742491 -0.505205 1.900629 0.060203 -0.021778 -159520.000000 0 0 1
31.326627 -16.938512 -13.636518 38.134307 -0.495680 1.936484 0.062670 -0.022154 -226000.000000 0 0 1
31.880127 -15.724412 -13.977218 38.196365 -0.458221 1.945429 0.051228 -0.025832 -214881.000000 0 0 1
31.132927 -15.215912 -15.005018 37.761537 -0.454599 1.979437 0.056353 -0.027103 -1096330.000000 0 0 1
31.845127 -13.966412 -15.580318 38.104056 -0.413311 1.992032 0.055507 -0.022751 1168420.000000 0 0 1
32.994227 -14.262312 -16.409318 39.513267 -0.408010 1.999054 0.028734 -0.023651 1633900.000000 0 0 1
34.184027 -14.751312 -15.785218 40.439115 -0.407386 1.971803 0.037510 -0.028132 -414317.000000 0 0 1
35.208027 -15.342612 -16.760118 41.903490 -0.410958 1.982280 0.039997 -0.027522 -260779.000000 0 0 1
36.547427 -15.408212 -16.307118 42.884141 -0.398983 1.960874 0.038012 -0.023291 -286286.000000 0 0 1
-36.729425 -16.146912 -17.270418 43.681126 0.414187 1.977272 0.032312 -0.026739 -223300.000000 0 0 1
-35.220525 -15.969312 -16.917818 42.210388 0.425685 1.983183 0.036114 -0.018859 -16773.600000 0 0 1
-34.700125 -16.754912 -15.826318 41.656909 0.449833 1.960507 0.027555 -0.019350 565493.000000 0 0 1
-35.293825 -16.609712 -14.478118 41.607121 0.439862 1.926204 0.018684 -0.016623 -483289.000000 0 0 1
-34.542925 -17.369912 -13.369218 40.910433 0.465925 1.903704 0.023376 -0.012617 -944376.000000 0 0 1
-33.324925 -16.799712 -12.991918 39.516716 0.466937 1.905797 0.066214 -0.013217 -48393.700000 0 0 1
-32.800325 -17.541012 -11.884318 39.048501 0.491084 1.880050 0.076605 -0.000931 -1805010.000000 0 0 1
-31.551625 -16.983312 -11.394318 37.600112 0.493793 1.878677 0.101661 -0.001090 -1952940.000000 0 0 1
-31.659025 -15.664012 -10.875818 36.958606 0.459457 1.869488 0.086078 -0.023287 128237.000000 0 0 1
-30.477325 -15.137612 -10.300918 35.554515 0.460992 1.864732 0.131381 -0.030986 101583.000000 0 0 1
-30.478925 -15.362312 -8.795218 35.246579 0.466867 1.822995 0.130378 -0.027138 -105979.000000 0 0 1
-30.253725 -16.682612 -8.405018 35.556177 0.503935 1.809442 0.103603 -0.020713 -56572.100000 0 0 1
-30.395325 -16.960012 -7.014518 35.506637 0.508950 1.769660 0.133217 -0.031178 -64460.100000 0 0 1
-30.444425 -18.507412 -6.703918 36.253687 0.546214 1.756784 0.102416 -0.033579 174169.000000 0 0 1
-31.483725 -19.314212 -7.243718 37.639543 0.550263 1.764454 0.065908 -0.021845 -251776.000000 0 0 1
-31.340325 -19.684912 -8.581618 37.991524 0.560827 1.798645 0.065042 -0.011559 1232930.000000 0 0 1
-32.630425 -20.478912 -9.119918 39.589182 0.560468 1.803248 0.050639 -0.011142 1916570.000000 0 0 1
-33.829025 -19.702212 -9.216418 40.218434 0.527382 1.802010 0.036049 -0.017437 795487.000000 0 0 1
-34.958225 -20.507412 -9.540018 41.637043 0.530528 1.801973 0.018738 -0.013902 1357260.000000 0 0 1
-36.256425 -19.734212 -10.027718 42.479673 0.498453 1.809105 0.020563 -0.025162 865113.000000 0 0 1
-36.412425 -19.461012 -11.428618 42.839339 0.490835 1.840845 0.013362 -0.025760 -604572.000000 0 0 1
36.361627 -18.822712 -11.692418 42.581393 -0.477670 1.848959 0.040795 -0.037307 -897067.000000 0 0 1
36.013527 -18.777212 -13.219718 42.712045 -0.480615 1.885472 0.026803 -0.030816 -283387.000000 0 0 1
35.249727 -19.941312 -13.554118 42.707298 -0.514829 1.893754 0.017759 -0.020668 297549.000000 0 0 1
35.026827 -20.019312 -14.934418 43.019627 -0.519232 1.925331 0.018971 -0.021728 -56630.000000 0 0 1
33.708127 -20.736712 -15.299418 42.430193 -0.551510 1.939684 0.032590 -0.027701 200154.000000 0 0 1
32.528227 -20.076412 -14.822518 40.998231 -0.552970 1.940716 0.042973 -0.027845 -230551.000000 0 0 1
31.394627 -20.798112 -15.117518 40.579840 -0.585094 1.952538 0.059418 -0.031558 -1025660.000000 0 0 1
30.593327 -20.328912 -16.305218 40.188014 -0.586493 1.988567 0.057119 -0.027849 -969080.000000 0 0 1
29.808027 -19.195912 -16.102018 38.939395 -0.572135 1.997107 0.051837 -0.023349 70222.100000 0 0 1
29.185127 -18.770012 -17.285718 38.767010 -0.571535 2.032962 0.054277 -0.022004 -127710.000000 0 0 1
28.363127 -17.466912 -17.081918 37.434635 -0.551979 2.044644 0.065938 -0.008835 -171315.000000 0 0 1
27.143427 -17.712112 -16.411018 36.329135 -0.578157 2.039502 0.087089 -0.025014 -183170.000000 0 0 1
26.554627 -16.433712 -16.263018 35.209386 -0.554175 2.050926 0.065013 -0.015685 -558758.000000 0 0 1
25.246327 -16.747512 -15.444218 34.005589 -0.585713 2.042233 0.070501 -0.010872 664233.000000 0 0 1
24.115727 -17.366412 -16.018418 33.760188 -0.624107 2.065166 0.083514 -0.010077 579568.000000 0 0 1
23.566127 -16.594612 -17.131818 33.529729 -0.613521 2.107079 0.091012 -0.005889 -630918.000000 0 0 1
22.500727 -17.375812 -17.941618 33.617008 -0.657579 2.133774 0.095763 -0.004804 227182.000000 0 0 1
21.257727 -17.523812 -17.283118 32.522010 -0.689413 2.131082 0.092343 -0.000373 -279427.000000 0 0 1
20.351927 -18.028912 -18.237518 32.739115 -0.724947 2.161633 0.093664 -0.011539 802122.000000 0 0 1
18.882727 -18.274612 -17.744118 31.707610 -0.769034 2.164720 0.094207 -0.006239 1102150.000000 0 0 1
18.080227 -17.132112 -17.405518 30.386773 -0.758479 2.180713 0.099015 -0.010839 -313522.000000 0 0 1
16.771127 -17.525112 -17.184218 29.727052 -0.807379 2.187154 0.096893 -0.022381 -818760.000000 0 0 1
15.754827 -16.438112 -16.890018 28.349582 -0.806620 2.209029 0.092582 -0.015794 -422925.000000 0 0 1
15.278627 -15.616512 -17.949018 28.275062 -0.796334 2.258546 0.085611 -0.009430 1056600.000000 0 0 1
14.113927 -14.833012 -17.524918 26.950769 -0.810235 2.278719 0.078252 -0.013059 1530030.000000 0 0 1
13.206727 -14.629612 -18.785618 27.227608 -0.836470 2.332213 0.073697 -0.028027 387592.000000 0 0 1
13.809727 -13.591812 -19.556518 27.530044 -0.777446 2.360820 0.076731 -0.031792 531960.000000 0 0 1
13.059927 -13.440912 -20.752318 27.962091 -0.799773 2.407082 0.067762 -0.012805 211171.000000 0 0 1
13.064327 -12.019912 -21.392918 27.799494 -0.743786 2.448922 0.069089 -0.013792 5316.870000 0 0 1
14.277927 -11.681612 -22.050318 28.749536 -0.685716 2.444918 0.060309 -0.004980 97980.000000 0 0 1
14.240727 -10.329612 -22.380318 28.467136 -0.627542 2.475401 0.042191 -0.008649 -289183.000000 0 0 1
15.620727 -9.722412 -22.665718 29.193616 -0.556731 2.459719 0.057440 -0.002630 -423592.000000 0 0 1
16.027927 -10.088512 -23.951818 30.534605 -0.561781 2.472550 0.072474 0.000332 -564831.000000 0 0 1
17.228427 -9.459712 -24.230718 31.199881 -0.502133 2.460092 0.086870 -0.014722 -821650.000000 0 0 1
22.423427 5.779388 -7.302918 24.280528 0.252249 1.876299 0.169024 0.018275 -317050.000000 0 1 0
21.639627 6.921288 -7.389818 23.891151 0.309561 1.885266 0.129839 0.007615 592969.000000 0 1 0
20.986427 7.213088 -6.126818 23.021657 0.331054 1.840175 0.125909 -0.001220 28200.000000 0 1 0
20.861827 8.748088 -5.934118 23.387147 0.397062 1.827335 0.115104 0.000673 -686003.000000 0 1 0
19.885827 9.358388 -6.727218 22.984365 0.439857 1.867832 0.041368 -0.006913 145003.000000 0 1 0
20.065627 10.723088 -6.911318 23.777728 0.490788 1.865717 0.080449 0.000396 21634.700000 0 1 0
19.731927 11.655188 -5.721518 23.620502 0.533536 1.815457 0.104943 0.009339 402083.000000 0 1 0
20.829127 11.688588 -4.805918 24.363343 0.511375 1.769359 0.126390 0.010006 491031.000000 0 1 0
20.586327 12.702788 -3.847418 24.494087 0.552862 1.728525 0.143982 -0.007693 -334702.000000 0 1 0
21.603127 12.745088 -2.735218 25.231207 0.533008 1.679416 0.133691 -0.023829 -402281.000000 0 0 1
22.864427 13.339288 -3.071218 26.648659 0.528130 1.686301 0.122606 -0.027669 969293.000000 0 0 1
23.649327 13.471388 -1.886518 27.282374 0.517790 1.639999 0.115767 -0.033718 -62622.600000 0 0 1
24.484227 12.274388 -1.365218 27.422651 0.464702 1.620601 0.116375 -0.033382 -354716.000000 0 0 1
25.640427 11.969988 -2.175818 28.380386 0.436770 1.647538 0.107389 -0.025435 906121.000000 0 0 1
26.327727 10.802888 -1.715318 28.509541 0.389374 1.630999 0.123990 -0.032455 632697.000000 0 0 1
27.800327 10.736888 -2.213118 29.883722 0.368566 1.644922 0.141073 -0.037796 781182.000000 0 0 1
28.750327 11.712088 -1.760818 31.094289 0.386846 1.627455 0.113392 -0.042807 797987.000000 0 0 1
30.076427 11.250388 -1.967918 32.171966 0.357946 1.632003 0.108307 -0.033615 269419.000000 0 0 1
31.200027 12.171188 -1.474618 33.522441 0.371944 1.614800 0.087812 -0.024602 -573627.000000 0 0 1
31.074827 12.375788 -0.076018 33.448629 0.379003 1.573069 0.112400 -0.030263 552659.000000 0 0 1
31.921427 13.424688 0.405682 34.631840 0.398099 1.559082 0.090259 -0.018816 -422121.000000 0 0 1
33.408727 13.109388 0.537782 35.892734 0.373932 1.555813 0.088143 -0.016138 -618581.000000 0 0 1
34.269827 14.242588 0.646882 37.117258 0.393883 1.553367 0.078212 -0.017866 194569.000000 0 0 1
35.138027 14.346288 -0.446318 37.956503 0.387627 1.582555 0.099246 -0.014923 -391108.000000 0 0 1
34.705827 15.476188 -1.458318 38.028062 0.419460 1.609154 0.067317 -0.002805 -232769.000000 0 0 1
33.578627 15.078488 -2.178118 36.873150 0.422064 1.629901 0.079005 -0.001497 -559004.000000 0 0 1
33.091127 16.126088 -2.983418 36.932021 0.453455 1.651666 0.067601 0.007483 -470282.000000 0 0 1
31.763627 15.785788 -3.643118 35.656576 0.461226 1.673147 0.065952 -0.008449 -1041030.000000 0 0 1
31.763427 14.620688 -4.410218 35.243863 0.431386 1.696260 0.069743 -0.011001 602783.000000 0 0 1
30.653827 14.398688 -5.291418 34.277959 0.439131 1.725784 0.071947 -0.020666 1910130.000000 0 0 1
29.198727 14.068688 -4.718118 32.752928 0.449002 1.715351 0.070808 -0.027897 1679840.000000 0 0 1
28.225527 13.828188 -5.750218 31.952530 0.455549 1.751743 0.097703 -0.038752 463431.000000 0 0 1
26.960827 13.464788 -5.248718 30.589798 0.463184 1.743234 0.105177 -0.024922 543805.000000 0 0 1
25.876927 13.228388 -6.357118 29.749262 0.472571 1.786147 0.099864 -0.025491 265626.000000 0 0 1
26.326427 12.221088 -7.249018 29.916284 0.434611 1.815543 0.086288 -0.012417 701615.000000 0 0 1
25.358327 11.811488 -8.230918 29.159973 0.435902 1.856953 0.103053 -0.011128 366496.000000 0 0 1
24.907527 12.790988 -9.355118 29.521391 0.474420 1.893248 0.106669 -0.005680 -379441.000000 0 0 1
24.066927 13.806088 -8.925118 29.145888 0.520822 1.882018 0.106143 -0.013827 -128078.000000 0 0 1
23.979227 14.909588 -9.827818 29.897912 0.556274 1.905736 0.099443 -0.025070 -797281.000000 0 0 1
23.169127 16.107888 -9.220718 29.686599 0.607518 1.886623 0.097631 -0.028115 581527.000000 0 0 1
21.757327 16.076888 -9.148418 28.557682 0.636371 1.896894 0.111356 -0.027669 494044.000000 0 0 1
21.284427 15.058888 -8.230518 27.341148 0.615747 1.876569 0.119732 -0.031937 1208370.000000 0 0 1
19.715027 14.723388 -8.397318 25.999527 0.641457 1.899673 0.127540 -0.014304 1896050.000000 0 0 1
18.919827 15.041088 -7.270118 25.239826 0.671679 1.862977 0.164787 -0.047042 445709.000000 0 0 1
17.579027 14.588788 -7.493218 24.041698 0.692707 1.887753 0.163368 -0.051788 597072.000000 0 1 0
16.665727 15.078888 -6.342018 23.352527 0.735452 1.845828 0.160062 -0.030055 -38855.700000 0 1 0
17.046227 14.292388 -5.252118 22.856749 0.697750 1.802652 0.155509 -0.030794 429783.000000 0 1 0
16.506127 14.822588 -4.042018 22.549928 0.731712 1.751018 0.140597 -0.022765 -73762.000000 0 1 0
16.285327 13.768988 -2.976118 21.532631 0.701867 1.709455 0.107899 -0.013696 -729837.000000 0 1 0
17.435527 13.168088 -2.480118 21.989705 0.646849 1.683822 0.113764 -0.015875 -204832.000000 0 1 0
17.229027 12.262288 -1.380518 21.192190 0.618550 1.635985 0.101710 -0.020865 -155692.000000 0 1 0
17.040427 12.902988 -0.063418 21.374454 0.648092 1.573763 0.100724 -0.027644 221000.000000 0 1 0
15.918727 13.804188 -0.041018 21.070433 0.714376 1.572743 0.091704 -0.033920 731103.000000 0 1 0
16.024527 14.854788 0.908482 21.869512 0.747535 1.529243 0.088917 -0.027506 -1333490.000000 0 1 0
14.744827 15.569888 1.175282 21.475862 0.812608 1.516043 0.088960 -0.029206 -1427020.000000 0 1 0
14.499127 16.572788 0.287582 22.021914 0.852037 1.557737 0.091381 -0.031050 149928.000000 0 1 0
13.850027 17.612188 0.982582 22.427169 0.904410 1.526970 0.080634 -0.031433 -166821.000000 0 1 0
13.776327 18.985688 0.238182 23.458480 0.943084 1.560643 0.076584 -0.032462 126438.000000 0 1 0
12.813127 18.982688 -0.800818 22.916369 0.977053 1.605749 0.063073 -0.035017 -341557.000000 0 1 0
12.566627 20.304688 -1.256618 23.911913 1.016594 1.623373 0.065571 -0.037649 202603.000000 0 1 0
11.038227 20.573488 -1.283618 23.382869 1.078356 1.625720 0.056034 -0.034594 371220.000000 0 1 0
10.521727 20.607088 0.040182 23.137857 1.098714 1.569060 0.036052 -0.033754 652141.000000 0 1 0
9.127727 20.258588 0.099082 22.220162 1.147476 1.566337 0.030613 -0.038504 1047670.000000 0 1 0
8.516127 20.436988 1.490782 22.190478 1.175975 1.503565 0.019484 -0.028263 80674.600000 0 1 0
8.281027 21.802888 1.852682 23.396020 1.207812 1.491525 0.016570 -0.023385 -33695.600000 0 1 0
7.225727 21.805688 2.781782 23.139522 1.250815 1.450287 0.014102 -0.024848 -244598.000000 0 1 0
7.040327 23.204588 3.434482 24.491116 1.276221 1.430099 0.015422 -0.013934 -333908.000000 0 1 0
7.898327 23.595788 4.443082 25.276190 1.247785 1.394097 0.017972 -0.014008 -559407.000000 0 0 1
7.392627 24.769388 5.077582 26.343032 1.280755 1.376834 0.012512 -0.006898 -39293.600000 0 0 1
7.946727 25.119788 6.482782 27.132650 1.264405 1.329533 0.014917 -0.009737 -147807.000000 0 0 1
7.530927 24.221788 7.494782 26.449606 1.269356 1.283500 0.029593 -0.017865 108238.000000 0 0 1
7.830627 24.648888 8.805882 27.320870 1.263193 1.242624 0.023029 -0.013332 -314519.000000 0 0 1
7.367127 23.689388 9.908382 26.713998 1.269289 1.190812 0.031022 -0.018414 356683.000000 0 0 1
5.994527 23.798488 10.286582 26.610452 1.324043 1.173896 0.038022 -0.020585 436421.000000 0 0 1
5.634827 22.661088 11.040982 25.829817 1.327083 1.129125 0.036889 -0.025952 -189774.000000 0 0 1
4.339827 22.861188 11.846082 26.111256 1.383195 1.099909 0.045893 -0.026743 69507.400000 0 0 1
3.254827 23.120788 10.973082 25.798707 1.430940 1.131465 0.043559 -0.021724 155729.000000 0 0 1
2.032627 23.233388 11.703082 26.093754 1.483531 1.105709 0.042983 -0.024678 270684.000000 0 0 1
0.819227 23.571188 10.833082 25.954339 1.536055 1.140225 0.060628 -0.016825 -264885.000000 0 0 1
0.789327 24.924088 10.383582 27.012071 1.539138 1.176233 0.061589 -0.011229 211890.000000 0 0 1
-0.063773 25.093088 9.249182 26.743494 -1.568255 1.217654 0.054124 -0.015836 646679.000000 0 0 1
-1.497473 25.627788 9.514782 27.378039 -1.512431 1.215857 0.061406 -0.026638 509866.000000 0 0 1
-2.424473 24.691988 10.079482 26.779998 -1.472921 1.184909 0.053984 -0.025800 512360.000000 0 0 1
-3.733873 25.212388 9.810282 27.310217 -1.423768 1.203368 0.057856 -0.023250 538130.000000 0 0 1
-4.839773 24.207888 10.340882 26.765259 -1.373472 1.174120 0.051535 -0.024638 444623.000000 0 0 1
-5.308473 24.279588 11.677282 27.459738 -1.355544 1.131557 0.042073 -0.011943 125011.000000 0 0 1
-6.063173 25.425488 11.976182 28.751460 -1.336700 1.141158 0.043412 -0.012795 -344104.000000 0 0 1
-6.577573 25.573888 13.442182 29.630735 -1.319054 1.099932 0.032166 -0.009321 795585.000000 0 0 1
-7.784973 24.841388 13.719682 29.426689 -1.267103 1.085769 0.022563 -0.014949 662700.000000 0 0 1
-8.184473 24.825188 15.086682 30.180847 -1.252334 1.047341 0.018628 0.004689 618787.000000 0 0 1
-9.465273 23.989388 15.418182 30.046671 -1.194988 1.031956 0.018084 -0.003724 305471.000000 0 0 1
-10.700673 24.599788 15.158682 30.812978 -1.160494 1.056459 0.023240 0.000984 -673859.000000 0 0 1
-11.709773 23.641388 15.378982 30.537634 -1.110909 1.043027 0.012690 -0.001644 147918.000000 0 0 1
-13.094373 24.351388 15.219982 31.561061 -1.077425 1.067587 0.010823 -0.004567 84986.700000 0 0 1
-13.465173 25.183288 16.304682 32.883910 -1.079786 1.052011 0.010137 -0.008771 515115.000000 0 0 1
-14.362173 26.221688 15.842282 33.835290 -1.069704 1.083524 0.002517 -0.001525 -62409.600000 0 0 1
-15.016873 27.086788 16.960482 35.310884 -1.064582 1.069778 0.021319 0.001263 888481.000000 0 0 1
-16.280173 26.529988 17.396182 35.658259 -1.020399 1.061162 0.021033 -0.004774 740226.000000 0 0 1
-16.676573 27.125188 18.614982 36.883620 -1.019565 1.041768 0.043880 -0.013742 594060.000000 0 0 1
-18.129773 26.670188 18.989382 37.424380 -0.973772 1.038624 0.041017 -0.022665 596118.000000 0 0 1
-19.151673 27.295088 18.239982 38.006649 -0.958962 1.070238 0.040917 -0.019592 -173471.000000 0 0 1
-20.360173 26.629388 18.561182 38.316816 -0.918032 1.065104 0.068596 -0.012544 -398912.000000 0 0 1
-21.462073 26.907888 17.548482 38.634236 -0.897513 1.099299 0.060850 -0.017604 -595400.000000 0 0 1
-22.006573 28.217888 17.667082 39.908197 -0.908445 1.112196 0.058336 -0.020766 196332.000000 0 0 1
-22.782073 28.590088 16.556182 40.131324 -0.897978 1.145545 0.045128 -0.014900 -590258.000000 0 0 1
-23.783073 29.688788 16.833782 41.598496 -0.895398 1.154175 0.043751 -0.030675 -454194.000000 0 0 1
-24.920873 29.272088 17.545582 42.258165 -0.865517 1.142634 0.072623 -0.024512 61840.400000 0 0 1
-25.902193 30.269988 17.686182 43.588953 -0.862999 1.152998 0.070790 -0.031231 -494207.000000 0 0 1
-27.268303 29.867188 18.206482 44.351835 -0.830853 1.147793 0.089852 -0.025600 -1136970.000000 0 0 1
-28.123633 29.228388 17.281682 44.089612 -0.804658 1.168027 0.108457 -0.016956 -282932.000000 0 0 1
-29.445053 29.160888 17.740482 45.078745 -0.780549 1.166313 0.120288 -0.011704 -231515.000000 0 0 1
-29.769633 28.116888 18.817582 45.065417 -0.756854 1.140036 0.106659 -0.012874 -864379.000000 0 0 1
-29.666743 26.747988 18.423882 43.988748 -0.733707 1.138638 0.095301 -0.008649 163637.000000 0 0 1
-29.900583 25.960988 19.520782 44.148371 -0.714990 1.112787 0.091807 -0.008747 -35062.300000 0 0 1
-29.915943 24.456088 19.061982 43.086228 -0.685317 1.112507 0.086596 -0.010055 -448524.000000 0 0 1
-31.048693 24.178388 18.309982 43.403585 -0.661633 1.135307 0.092118 -0.007547 -312177.000000 0 0 1
-30.765363 23.271388 17.248982 42.256271 -0.647594 1.150316 0.098295 -0.005255 -301625.000000 0 0 1
-30.964173 21.795888 17.592182 41.753151 -0.613343 1.135876 0.085114 -0.003456 95912.600000 0 0 1
-32.346913 21.457788 17.573282 42.609619 -0.585713 1.145682 0.094712 -0.005942 388672.000000 0 0 1
-32.523263 20.053388 17.453582 42.006291 -0.552526 1.142305 0.082614 -0.012414 262272.000000 0 0 1
-33.902923 19.594188 16.900982 42.649543 -0.524048 1.163339 0.093396 -0.025212 304594.000000 0 0 1
-34.095157 20.062988 15.560982 42.510556 -0.531877 1.196036 0.081358 -0.027291 -5542.210000 0 0 1
-35.159870 19.339388 14.990682 42.836304 -0.502875 1.213276 0.095949 -0.036758 -119999.000000 0 0 1
-35.552862 19.633988 13.537682 42.810843 -0.504567 1.249053 0.104933 -0.034572 194791.000000 0 0 1
-36.151333 20.930788 13.359882 43.857761 -0.524818 1.261259 0.095496 -0.042366 116222.000000 0 0 1
-36.609313 21.223088 11.996682 43.983879 -0.525373 1.294544 0.075002 -0.016276 48212.200000 0 0 1
-35.588348 21.292988 10.830282 42.862767 -0.539178 1.315354 0.094033 -0.028386 -6902.200000 0 0 1
-35.295285 19.988188 10.328582 41.856474 -0.515281 1.321459 0.091910 -0.031449 -79138.900000 0 0 1
-34.131199 19.952188 9.543582 40.670733 -0.528999 1.333933 0.115330 -0.031175 -498215.000000 0 0 1
-33.087763 18.952888 9.999682 39.420878 -0.520184 1.314329 0.106009 -0.028948 -653601.000000 0 0 1
-32.422953 19.287188 11.175582 39.346374 -0.536633 1.282801 0.126077 -0.040527 266.470000 0 0 1
-31.874503 18.195488 11.873682 38.575174 -0.518708 1.257910 0.107192 -0.036068 120650.000000 0 0 1
-31.576433 18.485188 13.426582 38.974946 -0.529623 1.219098 0.090321 -0.021178 -523735.000000 0 0 1
-30.479103 19.292288 13.666182 38.573729 -0.564308 1.208645 0.098243 -0.017805 -577131.000000 0 0 1
-30.817213 20.645388 13.848982 39.594532 -0.590259 1.213471 0.104300 -0.018695 55810.400000 0 0 1
-29.573993 21.528588 14.036582 39.180694 -0.629244 1.204401 0.094496 -0.014844 297678.000000 0 0 1
-28.971783 21.477988 15.330682 39.187982 -0.637937 1.168852 0.085631 -0.010544 -457838.000000 0 0 1
-27.765393 22.177088 15.440282 38.744581 -0.673967 1.160900 0.112564 -0.006772 -524332.000000 0 0 1
-27.091783 21.970488 16.786382 38.709813 -0.681391 1.122260 0.098640 -0.003862 -319697.000000 0 0 1
-26.464163 20.697488 17.005582 37.655381 -0.663727 1.102226 0.105636 -0.010260 578042.000000 0 0 1
-25.730813 20.667788 18.245882 37.711330 -0.676708 1.065770 0.091254 -0.000492 259500.000000 0 0 1
-24.751373 19.476388 18.313082 36.432528 -0.666690 1.044126 0.093566 -0.008781 285262.000000 0 0 1
-23.956373 19.387088 19.492182 36.465218 -0.680366 1.006831 0.086989 -0.010134 211344.000000 0 0 1
-22.892073 18.479488 19.385582 35.232645 -0.679142 0.988173 0.079932 -0.011802 -375697.000000 0 0 1
-22.060773 18.296788 20.657182 35.329440 -0.692401 0.946284 0.084276 -0.012741 -169007.000000 0 0 1
-22.605373 17.621388 21.808582 36.015697 -0.662129 0.920365 0.112907 -0.003240 -354119.000000 0 0 1
-23.628073 18.226688 22.508982 37.378500 -0.657057 0.924554 0.083620 -0.015485 -402699.000000 0 0 1
-24.433573 17.325388 23.501482 38.072145 -0.616795 0.905505 0.078902 -0.016688 -171043.000000 0 0 1
-23.739473 16.891988 24.649082 38.163845 -0.618440 0.868627 0.089573 -0.019218 296383.000000 0 0 1
-24.522373 15.936788 25.379682 38.722813 -0.576296 0.856059 0.087768 -0.018173 -19891.400000 0 0 1
21.156327 24.516788 33.812775 46.818446 0.858842 0.763803 0.050177 -0.005373 246509.000000 0 0 1
21.866227 23.592088 32.963745 46.057866 0.823346 0.773166 0.063067 -0.009960 256583.000000 0 0 1
21.671327 22.222688 33.317436 45.536204 0.797959 0.750029 0.063992 -0.008782 -262687.000000 0 0 1
20.508227 21.490588 32.659899 44.148633 0.808784 0.738066 0.062077 -0.006451 -225810.000000 0 0 1
20.857927 21.160488 31.310078 43.164110 0.792599 0.759220 0.077191 -0.003360 526926.000000 0 0 1
20.018727 20.107588 30.835098 41.903077 0.787613 0.743850 0.088743 -0.013456 -27365.400000 0 0 1
20.552527 19.522888 29.513588 40.921894 0.759711 0.765238 0.086727 -0.006259 424444.000000 0 0 1
21.778827 18.794288 29.635478 41.301382 0.711971 0.770529 0.085099 -0.009400 193194.000000 0 0 1
22.040327 18.089588 28.454898 40.282632 0.687266 0.786424 0.081650 -0.001906 609679.000000 0 0 1
23.357827 17.216488 28.410668 40.609871 0.635178 0.795959 0.081353 -0.003705 596092.000000 0 0 1
24.533827 17.975388 28.389838 41.605362 0.632322 0.819810 0.084022 -0.004198 -256107.000000 0 0 1
25.645027 17.160288 28.686548 42.131472 0.589718 0.821831 0.080268 0.000202 552898.000000 0 0 1
27.049327 17.817188 28.913848 43.418071 0.582462 0.842043 0.072198 -0.004435 442701.000000 0 0 1
27.745327 17.795788 27.681158 43.043464 0.570304 0.872260 0.090108 0.002671 311557.000000 0 0 1
28.981627 18.484088 27.876768 44.257321 0.567741 0.889399 0.098930 0.000564 674563.000000 0 0 1
30.120427 18.300788 26.840858 44.301136 0.545980 0.919934 0.099612 0.003304 194683.000000 0 0 1
29.816827 18.941688 25.614298 43.633966 0.565949 0.943415 0.104970 -0.013668 715130.000000 0 0 1
30.953227 18.763388 24.765448 43.857661 0.544955 0.970754 0.104185 -0.007581 266942.000000 0 0 1
31.046327 20.020688 23.895458 43.996538 0.572757 0.996646 0.104664 -0.013464 397133.000000 0 0 1
29.951727 20.186788 22.970838 42.805044 0.593047 1.004348 0.098717 -0.017697 657479.000000 0 0 1
30.232327 21.004688 21.824438 42.795989 0.607211 1.035653 0.096446 -0.022814 283831.000000 0 0 1
31.051927 20.361088 20.637638 42.481857 0.580379 1.063519 0.123003 -0.018853 111805.000000 0 0 1
30.243627 19.374088 19.990638 41.105449 0.569739 1.062917 0.119362 -0.038648 321188.000000 0 0 1
30.812727 18.753088 18.857338 40.702600 0.546730 1.089086 0.133283 -0.034136 531204.000000 0 0 1
31.974627 17.711388 19.135738 41.258291 0.505848 1.088513 0.159093 -0.045518 465787.000000 0 0 1
31.484227 16.548188 19.769338 40.693069 0.483919 1.063500 0.158443 -0.034987 628111.000000 0 0 1
32.536827 15.675488 20.210138 41.386178 0.448963 1.060621 0.134116 -0.032634 -321716.000000 0 0 1
32.004927 14.351388 20.753238 40.755056 0.421532 1.036520 0.135813 -0.031498 93081.000000 0 0 1
31.330327 14.365788 22.004538 40.892114 0.429922 1.002601 0.119099 -0.029716 -743395.000000 0 0 1
30.061727 14.886788 21.974238 40.102257 0.459806 0.990879 0.124838 -0.022401 -1294790.000000 0 0 1
29.138027 14.349788 23.117548 39.866804 0.457611 0.952228 0.091148 -0.018888 193496.000000 0 0 1
29.060027 12.922588 23.085128 39.298876 0.418426 0.942923 0.105832 -0.016520 600698.000000 0 0 1
28.089227 12.539888 24.093808 39.073841 0.419882 0.906351 0.081697 -0.004641 711659.000000 0 0 1
27.540627 11.066888 23.937468 38.130887 0.382090 0.892110 0.087344 -0.005243 621847.000000 0 0 1
26.374027 10.879988 23.135898 36.731910 0.391258 0.889426 0.064893 -0.000440 343246.000000 0 0 1
26.215527 9.519788 22.734638 35.982552 0.348329 0.886892 0.064384 0.003039 532536.000000 0 0 1
25.055527 9.158188 21.725638 34.404291 0.350430 0.887335 0.057410 -0.011238 93490.800000 0 0 1
23.768227 9.462088 22.193238 33.867382 0.378866 0.856219 0.052049 -0.003881 -373037.000000 0 0 1
22.860427 8.776188 21.358138 32.492933 0.366553 0.853544 0.051667 -0.001174 -571431.000000 0 0 1
21.408027 9.088188 21.726038 31.826397 0.401466 0.819424 0.035630 0.002672 -393040.000000 0 0 1
20.904327 8.432488 22.863738 32.106826 0.383421 0.778291 0.041222 0.006002 240597.000000 0 0 1
19.492827 8.356288 22.877138 31.195534 0.404988 0.747565 0.056572 -0.004007 136851.000000 0 0 1
18.902027 7.938588 24.254978 31.758649 0.397616 0.701727 0.047311 -0.000234 -136871.000000 0 0 1
19.078327 6.509288 24.394558 31.645661 0.328803 0.690597 0.062571 -0.000674 185705.000000 0 0 1
18.875327 6.112788 25.700468 32.467803 0.313192 0.657426 0.052966 -0.001460 -191386.000000 0 0 1
19.055127 4.593688 25.893608 32.475819 0.236560 0.647955 0.059034 -0.008012 135597.000000 0 0 1
20.382627 4.142588 25.699488 33.061703 0.200510 0.680403 0.066879 -0.003274 225788.000000 0 0 1
20.446227 2.741588 25.633958 32.903865 0.133293 0.677637 0.066585 -0.002773 618283.000000 0 0 1
21.892927 2.353688 25.166688 33.439532 0.107098 0.718790 0.060715 0.000447 237755.000000 0 0 1
22.870127 2.723788 26.108508 34.815456 0.118540 0.722868 0.065037 -0.005372 -807546.000000 0 0 1
24.088027 2.228688 25.636988 35.248479 0.092260 0.756385 0.073109 -0.006363 -531653.000000 0 0 1
25.283327 2.475088 26.570878 36.761179 0.097583 0.762955 0.056532 -0.014551 -492457.000000 0 0 1
25.281127 1.659588 27.700918 37.539719 0.065551 0.740829 0.070085 -0.018949 17989.900000 0 0 1
25.786927 2.298288 28.865268 38.774366 0.088891 0.731098 0.070176 -0.001677 826204.000000 0 0 1
27.341327 2.486388 29.003028 39.936274 0.090689 0.757970 0.053980 -0.002378 126802.000000 0 0 1
27.812927 3.562388 28.203548 39.770462 0.127390 0.782493 0.066705 0.004400 593079.000000 0 0 1
29.224527 3.403088 28.024538 40.632853 0.115924 0.809720 0.071854 0.007508 413962.000000 0 0 1
29.773027 2.573888 26.903608 40.210225 0.086236 0.837834 0.090011 0.002131 -568288.000000 0 0 1
29.305227 2.937488 25.594078 39.018996 0.099904 0.855370 0.075912 0.006267 162305.000000 0 0 1
29.725527 2.017988 24.620238 38.650167 0.067783 0.880193 0.094316 0.005970 -537656.000000 0 0 1
29.400527 2.427688 23.177148 37.516195 0.082386 0.904867 0.090390 0.004554 287008.000000 0 0 1
30.229827 3.446388 22.542238 37.866510 0.113516 0.933147 0.088389 0.004753 -694586.000000 0 0 1
31.481727 2.883488 22.299638 38.687046 0.091338 0.956467 0.077149 -0.000072 -1163220.000000 0 0 1
32.357727 3.981888 21.688138 39.156778 0.122443 0.983780 0.089984 -0.010375 -414121.000000 0 0 1
32.031427 4.310388 20.318838 38.176524 0.133764 1.009559 0.085063 -0.014753 -99271.800000 0 0 1
32.334427 5.673188 20.002538 38.442188 0.173686 1.023562 0.104365 -0.010713 1332670.000000 0 0 1
33.860227 5.912688 19.557738 39.547187 0.172877 1.053489 0.076807 -0.011753 1604090.000000 0 0 1
34.841727 5.886088 20.585638 40.894504 0.167358 1.043286 0.074418 -0.008642 399197.000000 0 0 1
34.812327 7.024688 21.444038 41.486036 0.199114 1.027573 0.088193 -0.014649 -497713.000000 0 0 1
35.521527 6.748388 22.829438 42.760997 0.187743 1.007608 0.113256 -0.025471 -161731.000000 0 0 1
34.867127 5.769388 23.578558 42.484713 0.163982 0.982446 0.112292 -0.015650 -231149.000000 0 0 1
35.503727 5.414588 24.776838 43.631687 0.151341 0.966889 0.120701 -0.016096 -416342.000000 0 0 1
34.848927 4.387788 25.708808 43.527500 0.125250 0.938952 0.114613 -0.007750 -150710.000000 0 0 1
34.923727 3.050188 25.226268 43.189524 0.087117 0.947046 0.117817 -0.010871 30659.100000 0 0 1
34.209127 2.162988 26.044558 43.049529 0.063144 0.921042 0.103962 -0.010338 6533.550000 0 0 1
34.221827 0.685388 25.424278 42.637978 0.020025 0.931934 0.109534 -0.011797 34754.700000 0 0 1
33.303827 0.468988 24.356488 41.262615 0.014081 0.939391 0.110800 -0.012446 223613.000000 0 0 1
33.441427 -0.809412 23.794978 41.051007 -0.024199 0.952504 0.107472 -0.013874 153701.000000 0 0 1
32.144327 -1.101112 22.999138 39.540240 -0.034242 0.950023 0.119659 -0.011235 -400414.000000 0 0 1
31.066727 -1.448612 23.791098 39.156818 -0.046595 0.917780 0.108239 -0.005750 -823861.000000 0 0 1
30.197827 -2.275612 23.051938 38.058889 -0.075215 0.920162 0.119145 -0.012171 1327180.000000 0 0 1
28.639827 -2.137012 23.324508 36.997827 -0.074479 0.888690 0.101192 -0.005535 1398220.000000 0 0 1
28.095727 -0.900812 22.872938 36.240208 -0.032051 0.887764 0.098936 -0.005958 -1607660.000000 0 0 1
26.741727 -0.996912 22.769038 35.136063 -0.037262 0.865808 0.085846 0.004002 -1383860.000000 0 0 1
26.033527 0.373888 22.718138 34.554278 0.014361 0.853350 0.079970 0.006367 -173877.000000 0 0 1
26.020527 1.103588 21.521438 33.785471 0.042387 0.880193 0.075414 0.002984 104446.000000 0 0 1
25.184227 2.244788 21.606338 33.258356 0.088900 0.863670 0.062166 0.005294 109838.000000 0 0 1
25.256727 3.209188 20.394438 32.621071 0.126385 0.895419 0.067353 -0.006701 38078.700000 0 0 1
24.685727 2.601888 19.222438 31.395176 0.105013 0.911863 0.079373 -0.011070 375226.000000 0 0 1
24.280827 3.600188 18.315838 30.626620 0.147200 0.929747 0.068060 -0.010068 -22729.200000 0 0 1
24.001327 3.138288 16.877238 29.508537 0.130017 0.961922 0.075473 -0.011334 -64426.100000 0 0 1
25.123827 3.002588 16.019438 29.947364 0.118947 1.006383 0.081327 -0.009174 53235.300000 0 0 1
24.892627 2.919088 14.615638 29.013460 0.116734 1.042858 0.084389 -0.022224 -969168.000000 0 0 1
24.131827 1.674588 14.086638 27.992547 0.069282 1.043466 0.095703 -0.001988 810516.000000 0 0 1
22.712827 1.756188 14.343538 26.920138 0.077168 1.008869 0.085852 -0.000953 1217460.000000 0 0 1
22.115527 0.619388 13.694438 26.019566 0.028000 1.016538 0.103085 -0.008715 -812617.000000 0 0 1
20.598527 0.579288 13.923238 24.869489 0.028115 0.976589 0.106443 -0.023317 -165277.000000 0 1 0
19.706227 1.346888 13.108738 23.706297 0.068242 0.984878 0.116517 -0.022157 720239.000000 0 1 0
19.753127 1.047188 11.705238 22.984674 0.052964 1.036468 0.118869 -0.022046 -1156240.000000 0 1 0
19.445027 -0.349112 11.102938 22.394334 -0.017952 1.052049 0.114087 -0.017904 9888.240000 0 1 0
20.436527 -1.396912 11.106938 23.301654 -0.068248 1.073946 0.107565 -0.032968 644161.000000 0 1 0
21.483227 -1.121812 10.163838 23.792670 -0.052171 1.129421 0.112143 -0.038620 305205.000000 0 1 0
22.677227 -2.107912 10.411138 25.041800 -0.092686 1.142029 0.129462 -0.046977 473902.000000 0 0 1
23.390427 -1.830412 11.619738 26.181689 -0.078096 1.110949 0.127907 -0.045786 -41962.500000 0 0 1
24.478927 -2.680712 11.791638 27.302872 -0.109076 1.124217 0.121318 -0.050855 -289502.000000 0 0 1
25.078427 -2.719212 13.205638 28.472979 -0.108006 1.088522 0.137403 -0.035077 -327866.000000 0 0 1
25.950327 -1.690212 13.493038 29.297413 -0.065041 1.092177 0.113930 -0.037032 -291407.000000 0 0 1
26.008727 -1.482312 14.873438 29.997838 -0.056931 1.052021 0.115480 -0.027769 50022.200000 0 0 1
27.069727 -0.440612 15.347838 31.121061 -0.016275 1.055071 0.138875 -0.024615 -851646.000000 0 0 1
28.343827 -0.962612 15.255838 32.203102 -0.033949 1.077266 0.147919 -0.026483 -1128980.000000 0 0 1
29.254227 0.066188 15.574038 33.141588 0.002263 1.081591 0.122084 -0.025725 -546489.000000 0 0 1
30.663127 -0.500912 15.756838 34.478345 -0.016335 1.096169 0.120409 -0.023351 -370048.000000 0 0 1
31.332527 -0.994512 14.608838 34.585177 -0.031730 1.134703 0.123489 -0.025060 -93987.100000 0 0 1
32.473727 -1.722512 14.972538 35.800655 -0.052994 1.139312 0.111132 -0.020549 -355414.000000 0 0 1
32.955927 -2.631412 13.840238 35.840894 -0.079677 1.174334 0.098865 -0.029153 -315956.000000 0 0 1
33.449527 -1.902912 12.731838 35.841201 -0.056828 1.207637 0.099702 -0.032772 372773.000000 0 0 1
33.955427 -2.800612 11.723338 36.031252 -0.082293 1.239398 0.091264 -0.031824 -95420.600000 0 0 1
33.834827 -2.144112 10.304038 35.433966 -0.063285 1.275738 0.116554 -0.037174 -130263.000000 0 0 1
34.624327 -1.001112 10.052838 36.068072 -0.028905 1.288337 0.104820 -0.025279 13094.700000 0 0 1
33.876527 0.169288 10.216138 35.383856 0.004997 1.277903 0.114597 -0.026817 -609440.000000 0 0 1
34.512527 1.464588 9.656138 35.867821 0.042411 1.298219 0.131525 -0.034314 -292923.000000 0 0 1
34.574827 1.434288 8.256638 35.575946 0.041460 1.336576 0.120040 -0.031810 287011.000000 0 0 1
34.900327 2.744988 7.792638 35.864927 0.078491 1.351772 0.131473 -0.034377 -64446.200000 0 0 1
35.155127 2.874988 6.285938 35.828223 0.081598 1.394437 0.115216 -0.037217 -197274.000000 0 0 1
35.573227 4.113688 5.861938 36.286902 0.115129 1.408541 0.100499 -0.022156 13101.300000 0 0 1
36.020027 4.037788 4.534038 36.528121 0.111632 1.446351 0.131320 -0.028597 -237930.000000 0 0 1
36.567027 5.329988 3.933138 37.162156 0.144740 1.464761 0.146810 -0.039414 -266616.000000 0 0 1
35.645927 6.409788 3.868838 36.423693 0.177917 1.464378 0.147651 -0.040340 22181.100000 0 0 1
36.149727 7.714388 3.595938 37.138192 0.210247 1.473819 0.140917 -0.044396 -565850.000000 0 0 1
35.024727 8.714288 3.954738 36.308543 0.243853 1.461659 0.158792 -0.035841 584770.000000 0 0 1
33.917727 8.847188 3.088338 35.188390 0.255157 1.482917 0.163284 -0.045353 480554.000000 0 0 1
32.971327 7.785188 3.129338 34.022204 0.231873 1.478687 0.176725 -0.038936 -1028300.000000 0 0 1
31.790227 7.829088 2.188238 32.813131 0.241468 1.504059 0.177659 -0.037250 -567651.000000 0 0 1
32.069127 7.714288 0.826038 32.994265 0.236067 1.545758 0.182523 -0.035949 202487.000000 0 0 1
30.905527 7.473188 0.029838 31.796243 0.237253 1.569858 0.154843 -0.031041 8663.940000 0 0 1
31.102427 7.520988 -1.479062 32.033012 0.237259 1.616986 0.127784 -0.028806 -328895.000000 0 0 1
30.136127 6.888088 -2.300762 30.998797 0.224706 1.645086 0.150914 -0.033567 543928.000000 0 0 1
30.557127 6.895688 -3.644262 31.536791 0.221948 1.686611 0.133669 -0.027553 -374463.000000 0 0 1
29.538127 6.238588 -4.585462 30.536002 0.208146 1.721532 0.165075 -0.031530 -383328.000000 0 0 1
29.412727 4.864488 -4.490962 30.148640 0.163904 1.720313 0.169004 -0.035969 145247.000000 0 0 1
28.277727 4.441188 -5.160462 29.085811 0.155783 1.749163 0.173858 -0.028667 -946358.000000 0 0 1
28.313527 2.888888 -5.328962 28.955126 0.101680 1.755894 0.195215 -0.025588 -395930.000000 0 0 1
27.914227 2.204388 -4.154562 28.307663 0.078807 1.718093 0.196868 -0.032751 565828.000000 0 0 1
27.737027 0.799088 -4.351262 28.087625 0.028801 1.726340 0.177029 -0.027333 -428618.000000 0 0 1
27.875127 -0.124912 -3.112962 28.048687 -0.004481 1.682010 0.165398 -0.024924 -294204.000000 0 0 1
29.179327 -0.131912 -2.602162 29.295423 -0.004521 1.659738 0.169861 -0.035397 -64927.400000 0 0 1
29.183427 -0.065012 -1.169962 29.206942 -0.002228 1.610865 0.176553 -0.031160 -898415.000000 0 0 1
30.475827 0.443088 -0.549462 30.484000 0.014538 1.588822 0.189327 -0.033700 -155983.000000 0 0 1
31.479427 -0.586812 -0.828262 31.495789 -0.018639 1.597097 0.174269 -0.037806 199167.000000 0 0 1
32.671527 -0.130012 -0.254862 32.672780 -0.003979 1.578597 0.124260 -0.028157 -744525.000000 0 0 1
-2.790073 -21.069712 -8.518518 22.897214 1.439141 1.951995 0.037955 -0.010539 150516.000000 0 1 0
-3.301073 -21.621512 -7.352818 23.074895 1.419291 1.895101 0.039802 -0.014888 -229554.000000 0 1 0
-2.665273 -22.877112 -7.059818 24.089561 1.454815 1.868228 0.049687 -0.013752 106879.000000 0 1 0
-3.162273 -23.503612 -5.763118 24.405599 1.437055 1.809187 0.047635 -0.009452 -287605.000000 0 1 0
-2.938173 -22.716112 -4.628218 23.368248 1.442167 1.770170 0.050545 -0.016447 -57076.300000 0 1 0
-3.460873 -23.307012 -3.415618 23.808841 1.423383 1.714753 0.056176 -0.016291 -98383.800000 0 1 0
-3.066973 -22.697812 -2.089818 22.999225 1.436488 1.661787 0.055789 -0.019904 826079.000000 0 1 0
-1.655273 -22.870712 -1.844618 23.004608 1.498547 1.651067 0.065499 -0.015781 592311.000000 0 1 0
-1.375773 -22.453712 -0.516918 22.501759 1.509601 1.593771 0.059921 -0.024605 735036.000000 0 1 0
0.169527 -22.443112 -0.274718 22.445434 -1.563243 1.583036 0.049014 -0.022199 771335.000000 0 1 0
0.881627 -21.373412 -0.898518 21.410449 -1.529571 1.612775 0.027042 -0.018397 -358675.000000 0 1 0
2.169027 -21.247212 -0.351618 21.360532 -1.469063 1.587258 0.022213 -0.016083 264017.000000 0 1 0
2.994327 -20.092312 -1.032618 20.340435 -1.422857 1.621585 0.028865 -0.012382 338399.000000 0 1 0
3.738927 -20.450712 -2.171018 20.902739 -1.389967 1.674847 0.031513 -0.008173 -804999.000000 0 1 0
4.615027 -19.417512 -2.484918 20.112510 -1.337452 1.694664 0.037505 -0.006296 -851384.000000 0 1 0
5.539827 -19.924712 -3.617318 20.994495 -1.299608 1.743959 0.042739 -0.004525 -521957.000000 0 1 0
6.616027 -20.668712 -3.055018 21.915762 -1.261004 1.710650 0.048844 -0.014352 -82283.400000 0 1 0
7.405527 -21.414312 -3.949918 23.000358 -1.237849 1.743385 0.048505 -0.012589 1125710.000000 0 1 0
8.648627 -20.640712 -4.553718 22.837997 -1.174012 1.771534 0.063838 -0.015250 630506.000000 0 1 0
8.196527 -19.711212 -5.528718 22.051795 -1.176718 1.824215 0.048306 -0.014255 752137.000000 0 1 0
9.343427 -19.012512 -6.036518 22.027592 -1.114024 1.848391 0.069220 -0.020025 396295.000000 0 1 0
9.020127 -17.909412 -7.052318 21.256644 -1.104231 1.908976 0.050194 -0.015175 -246586.000000 0 1 0
10.173227 -17.140112 -7.342118 21.241109 -1.035145 1.923734 0.063650 -0.030766 172928.000000 0 1 0
10.227927 -16.313612 -8.486018 21.041790 -1.010791 1.985910 0.058882 -0.015693 -348784.000000 0 1 0
10.513727 -17.062312 -9.823018 22.319333 -1.018553 2.026520 0.049042 -0.001868 266753.000000 0 1 0
9.368027 -17.715412 -10.413618 22.584047 -1.084370 2.050036 0.044471 -0.007524 607878.000000 0 1 0
8.970527 -16.834712 -11.421218 22.233356 -1.081208 2.110285 0.032144 -0.010175 -275983.000000 0 1 0
8.501027 -17.455112 -12.728218 23.215425 -1.117585 2.151085 0.030441 -0.011741 68713.200000 0 1 0
7.177927 -17.941112 -12.583918 23.059947 -1.190219 2.148026 0.016119 -0.005938 383650.000000 0 1 0
6.703427 -18.439312 -13.823118 24.000474 -1.222110 2.184564 0.016973 0.003084 -113492.000000 0 1 0
5.499327 -19.378712 -13.722718 24.373963 -1.294284 2.168816 0.017073 0.013674 -209816.000000 0 1 0
5.863427 -20.543512 -13.064718 25.042015 -1.292773 2.119653 0.029011 0.005632 333233.000000 0 0 1
4.685027 -21.293212 -12.839918 25.302448 -1.354223 2.103028 0.051322 -0.000514 234812.000000 0 0 1
5.013327 -22.691512 -12.357618 26.320123 -1.353355 2.059535 0.033345 -0.002503 -186784.000000 0 0 1
5.580327 -23.487212 -13.389718 27.605683 -1.337531 2.077199 0.043220 -0.009068 41458.100000 0 0 1
5.207927 -24.902912 -13.338518 28.726183 -1.364638 2.053678 0.045944 -0.017196 725709.000000 0 0 1
3.717127 -25.152862 -13.736218 28.899259 -1.424077 2.066117 0.060648 -0.019597 1134060.000000 0 0 1
2.699727 -24.775712 -12.775618 28.006086 -1.462258 2.044486 0.066595 -0.020759 2002370.000000 0 0 1
1.345427 -25.157112 -13.202418 28.442825 -1.517366 2.053498 0.061228 -0.029395 1841100.000000 0 0 1
0.683627 -26.471692 -12.684218 29.361662 -1.544977 2.017505 0.057480 -0.021650 -617861.000000 0 0 1
1.027027 -27.577742 -13.454618 30.702010 -1.533572 2.024428 0.066929 -0.020746 265366.000000 0 0 1
0.456827 -28.899892 -13.172718 31.763705 -1.554990 1.998420 0.049294 -0.018250 505042.000000 0 0 1
-1.027873 -29.113592 -13.582418 32.142493 1.535505 2.007074 0.029068 -0.017301 335091.000000 0 0 1
-1.964073 -28.329302 -12.897318 31.188904 1.501577 1.997116 0.033276 -0.020804 234106.000000 0 0 1
-3.279073 -28.869202 -13.019518 31.838514 1.457697 1.992070 0.039002 -0.019625 1131090.000000 0 0 1
-4.518473 -27.978942 -12.528618 30.987160 1.410683 1.987028 0.022829 -0.015692 1180240.000000 0 0 1
-5.011373 -28.118962 -11.242518 30.695017 1.394428 1.945789 0.009576 -0.026193 -119972.000000 0 0 1
-5.407673 -29.408902 -10.901118 31.827045 1.388949 1.920385 0.019680 -0.020320 -1107050.000000 0 0 1
-5.826173 -29.555992 -9.409218 31.560012 1.376168 1.873537 0.013756 -0.022791 436253.000000 0 0 1
-7.132173 -29.067372 -9.081118 31.276936 1.330183 1.865384 0.035037 -0.022435 216072.000000 0 0 1
-7.207673 -27.671402 -9.069318 29.998493 1.315985 1.877928 0.046242 -0.023235 -790186.000000 0 0 1
-8.634673 -27.146232 -8.664618 29.775008 1.262836 1.866071 0.057233 -0.022350 560505.000000 0 0 1
-9.632373 -27.267802 -9.647018 30.485744 1.231228 1.892774 0.082461 -0.023210 -138189.000000 0 0 1
-9.985373 -28.650302 -9.891318 31.912155 1.235435 1.885942 0.086142 -0.032476 -1801330.000000 0 0 1
-11.223873 -28.787252 -10.758718 32.717445 1.199035 1.905869 0.110818 -0.035259 -513029.000000 0 0 1
-11.052473 -28.282162 -12.060718 32.672600 1.198252 1.948878 0.124975 -0.040854 507358.000000 0 0 1
-12.009773 -28.916612 -12.934718 33.877899 1.177150 1.962544 0.133454 -0.041268 245214.000000 0 0 1
-12.293573 -28.115012 -14.241718 33.829164 1.158587 2.005332 0.145188 -0.036600 463731.000000 0 0 1
-13.415073 -27.213442 -14.146418 33.476212 1.112799 2.007088 0.140826 -0.042175 528247.000000 0 0 1
-13.328873 -26.120132 -13.228018 32.169871 1.098950 1.994559 0.145161 -0.036291 87106.400000 0 0 1
-14.381173 -25.019312 -13.569818 31.889247 1.049110 2.010343 0.155632 -0.039161 303540.000000 0 0 1
-14.021273 -24.234712 -14.705918 31.625644 1.046290 2.054431 0.151045 -0.034230 428077.000000 0 0 1
-15.021773 -23.245212 -14.953418 31.457881 0.997075 2.066155 0.151660 -0.035609 262785.000000 0 0 1
-14.697673 -22.275312 -16.168418 31.203026 0.987549 2.115504 0.135446 -0.028762 128022.000000 0 0 1
-13.676873 -21.299012 -16.038018 29.965360 0.999969 2.135563 0.120412 -0.025031 385735.000000 0 0 1
-13.583373 -20.602312 -17.223018 30.093116 0.987902 2.180134 0.089412 -0.015748 -270621.000000 0 0 1
-13.590073 -19.038812 -17.207318 29.038909 0.950863 2.205030 0.082169 -0.014211 -989567.000000 0 0 1
-12.413773 -18.335212 -17.139618 28.000862 0.975643 2.229523 0.072710 -0.004948 -914998.000000 0 0 1
-12.654473 -16.922612 -17.267718 27.288909 0.928714 2.255927 0.076611 -0.003125 964450.000000 0 0 1
-11.340173 -16.061912 -17.403018 26.257372 0.956036 2.295330 0.073267 -0.008577 1243140.000000 0 0 1
-10.506973 -15.923212 -16.245818 25.057369 0.987526 2.276205 0.083800 -0.013295 -295684.000000 0 0 1
-9.271173 -15.373112 -16.568218 24.429349 1.028117 2.316120 0.081584 -0.009658 -542334.000000 0 1 0
-8.506073 -14.743312 -15.364418 22.929978 1.047502 2.305083 0.073805 -0.011679 -26139.000000 0 1 0
-8.021973 -15.592312 -14.306718 22.630829 1.095630 2.255158 0.073732 -0.011011 101658.000000 0 1 0
-6.797673 -16.240312 -14.599318 22.871296 1.174386 2.263117 0.055675 -0.009260 -96468.500000 0 1 0
-6.281973 -17.242212 -13.479218 22.769418 1.221407 2.204319 0.050610 -0.005722 -539138.000000 0 1 0
-5.816573 -16.590812 -12.289218 21.450232 1.233596 2.180858 0.049917 -0.011089 360681.000000 0 1 0
-5.402473 -17.546012 -11.308718 21.562383 1.272105 2.122883 0.034633 -0.008444 7750.690000 0 1 0
-4.275873 -18.591112 -11.586018 22.319237 1.344732 2.116599 0.038949 -0.005828 -701697.000000 0 1 0
-3.034473 -18.036412 -11.836718 21.785961 1.404116 2.145181 0.045398 -0.000091 -1309090.000000 0 1 0
-2.029273 -18.998312 -11.781618 22.446833 1.464386 2.123356 0.026618 0.001715 -484546.000000 0 1 0
-0.660773 -18.501612 -12.215018 22.180012 1.535097 2.154025 0.024480 0.007215 -1341490.000000 0 1 0
-0.580673 -18.343812 -13.603618 22.844935 1.539152 2.208655 0.033913 0.015133 377156.000000 0 1 0
0.666527 -17.718912 -13.929218 22.548331 -1.533197 2.236674 0.038340 0.011934 482476.000000 0 1 0
1.933227 -18.576012 -13.940718 23.305562 -1.467098 2.212014 0.044122 0.001555 -1086310.000000 0 1 0
1.960527 -19.531812 -15.001218 24.705706 -1.470755 2.223324 0.064502 0.006655 153538.000000 0 1 0
1.292627 -20.739312 -14.648718 25.423904 -1.508549 2.184842 0.063732 -0.001848 -632776.000000 0 0 1
1.469427 -21.851512 -15.730018 26.964444 -1.503651 2.193658 0.086720 -0.006237 193317.000000 0 0 1
2.659027 -22.580712 -15.948618 27.772602 -1.453580 2.182493 0.069008 -0.006789 315666.000000 0 0 1
3.783127 -21.804112 -16.364318 27.523122 -1.399001 2.207522 0.061504 -0.010756 196218.000000 0 0 1
5.090427 -22.549512 -16.675718 28.503904 -1.348773 2.195717 0.072154 -0.007767 93290.500000 0 0 1
5.005027 -23.138712 -17.941118 29.704108 -1.357773 2.219300 0.066480 -0.011491 -36175.900000 0 0 1
6.195727 -23.807512 -18.272418 30.644183 -1.316201 2.209652 0.054227 -0.011231 -63031.700000 0 0 1
6.511127 -23.648312 -19.740518 31.485322 -1.302122 2.248461 0.050839 -0.007208 -254982.000000 0 0 1
6.782227 -22.350712 -20.158218 30.852985 -1.276181 2.282815 0.059717 -0.012933 -79790.000000 0 0 1
7.213427 -22.319912 -21.485618 31.809492 -1.258208 2.312367 0.038420 -0.014611 -296584.000000 0 0 1
7.528727 -20.859312 -21.951518 31.203554 -1.224419 2.351098 0.032522 -0.024874 -269345.000000 0 0 1
6.388927 -20.063312 -22.165018 30.571930 -1.262511 2.381848 0.069809 -0.026865 -474429.000000 0 0 1
6.610227 -18.694512 -22.535418 30.017078 -1.230925 2.419998 0.072933 -0.027114 -609778.000000 0 0 1
5.384627 -17.834812 -22.827818 29.464962 -1.277582 2.457107 0.073356 -0.028325 -1879130.000000 0 0 1
4.835627 -18.225312 -24.057918 30.566791 -1.311447 2.476826 0.063593 -0.028464 826354.000000 0 0 1
3.752227 -17.355812 -24.516718 30.271652 -1.357879 2.514761 0.076544 -0.023866 603743.000000 0 0 1
2.480227 -17.401512 -23.672818 29.485021 -1.429220 2.502900 0.086429 -0.020775 -1383830.000000 0 0 1
2.584327 -16.652612 -22.479518 28.094785 -1.416834 2.498310 0.087788 -0.018574 -215637.000000 0 0 1
1.325527 -16.092112 -22.163418 27.421346 -1.488611 2.511978 0.087612 -0.016602 275084.000000 0 0 1
1.401427 -15.290812 -20.868518 25.908840 -1.479400 2.507247 0.086295 -0.018077 -271473.000000 0 0 1
2.295227 -14.232912 -20.960418 25.439791 -1.410911 2.539095 0.078014 -0.012859 -360776.000000 0 0 1
2.370027 -13.506112 -19.778818 24.067275 -1.397087 2.535383 0.075635 -0.016064 5770.580000 0 1 0
3.538027 -12.500912 -19.819918 23.698515 -1.294988 2.561361 0.068234 -0.018000 141235.000000 0 1 0
4.828327 -13.081112 -19.704218 24.138858 -1.217202 2.525749 0.056678 -0.011078 795382.000000 0 1 0
5.978727 -12.228912 -19.760118 23.994869 -1.116067 2.538375 0.054056 -0.010267 883598.000000 0 1 0
6.197827 -11.300712 -18.494118 22.542217 -1.069147 2.532944 0.056407 -0.011822 -264465.000000 0 1 0
5.368227 -10.105012 -18.337918 21.615003 -1.082467 2.583730 0.029783 -0.005795 614385.000000 0 1 0
5.727027 -8.932112 -19.090118 21.840652 -1.000652 2.634301 0.043288 -0.014822 -190038.000000 0 1 0
5.102827 -8.888312 -20.497018 22.916559 -1.049635 2.677928 0.058635 -0.027310 -883608.000000 0 1 0
3.722427 -8.933612 -20.602418 22.762371 -1.175997 2.702431 0.047972 -0.024999 -826008.000000 0 1 0
3.255927 -9.122612 -21.929618 23.973553 -1.227981 2.725665 0.052061 -0.030795 696799.000000 0 1 0
1.710227 -8.885912 -21.973318 23.763649 -1.380656 2.750941 0.058130 -0.032007 653290.000000 0 1 0
1.321627 -7.561912 -21.676618 22.995760 -1.397770 2.801235 0.044263 -0.034028 -383695.000000 0 1 0
-0.051473 -7.406612 -21.950218 23.166196 1.563847 2.816154 0.043181 -0.030038 184032.000000 0 1 0
-0.537373 -6.261612 -22.932818 23.778366 1.485186 2.874114 0.054942 -0.034033 269317.000000 0 1 0
-0.181473 -6.657212 -24.287918 25.184407 1.543544 2.873973 0.065784 -0.032727 -179150.000000 0 0 1
-0.820773 -5.890712 -25.302258 25.991892 1.432354 2.910721 0.079721 -0.040242 243078.000000 0 0 1
-0.235473 -4.456312 -25.654098 26.039334 1.518005 2.969366 0.073627 -0.032552 -246937.000000 0 0 1
-0.862573 -3.816212 -26.763258 27.047726 1.348503 2.996432 0.068137 -0.029683 -200626.000000 0 0 1
-0.475073 -2.508312 -27.059098 27.179259 1.383614 3.047526 0.055650 -0.017803 -716536.000000 0 0 1
-1.136673 -1.410612 -26.201148 26.263702 0.892528 3.072561 0.045889 -0.026232 539248.000000 0 0 1
-2.546873 -1.338012 -26.074288 26.232524 0.483725 3.031701 0.044049 -0.028737 516301.000000 0 0 1
-3.361473 -1.038012 -27.200258 27.426830 0.299508 3.012966 0.050675 -0.020453 -207508.000000 0 0 1
-4.875173 -1.177212 -27.001788 27.463607 0.236935 2.957946 0.058444 -0.030333 -226548.000000 0 0 1
-5.398673 -0.093912 -26.276028 26.825066 0.017394 2.938923 0.067291 -0.030066 -530028.000000 0 0 1
-6.761173 -0.355612 -26.077578 26.942160 0.052548 2.887571 0.085513 -0.037890 -644572.000000 0 0 1
-7.574373 0.809688 -25.505508 26.618746 -0.106494 2.851364 0.087512 -0.037679 -591524.000000 0 0 1
-7.808073 1.908988 -26.385298 27.582498 -0.239785 2.845883 0.100586 -0.040987 1123370.000000 0 0 1
-8.863373 1.830388 -27.405888 28.861608 -0.203649 2.822633 0.120729 -0.045994 1612670.000000 0 0 1
-10.345373 1.625088 -26.941768 28.905476 -0.155810 2.770867 0.104470 -0.041187 351508.000000 0 0 1
-11.343173 1.880188 -27.920868 30.195655 -0.164262 2.750951 0.108978 -0.046269 -526731.000000 0 0 1
-12.583273 1.643088 -27.344868 30.145983 -0.129843 2.707095 0.083328 -0.031011 -292888.000000 0 0 1
-13.761573 2.203688 -28.227148 31.480296 -0.158785 2.682965 0.067042 -0.021309 -514823.000000 0 0 1
-14.960873 1.562988 -27.877688 31.677060 -0.104094 2.646783 0.064274 -0.021195 105339.000000 0 0 1
-16.053773 1.962688 -28.715908 32.957232 -0.121653 2.628658 0.057425 -0.019776 618188.000000 0 0 1
-16.865173 3.145688 -28.090798 32.915382 -0.184401 2.593317 0.057131 -0.010226 -448647.000000 0 0 1
-16.140473 4.363188 -28.049338 32.654519 -0.264016 2.604056 0.068563 -0.010105 -81737.600000 0 0 1
-16.024673 5.045388 -29.319448 33.791658 -0.305025 2.621259 0.061692 -0.012000 311167.000000 0 0 1
-17.314973 5.542488 -30.079998 35.147315 -0.309792 2.597943 0.046263 -0.007661 254228.000000 0 0 1
-18.018773 6.519888 -29.387908 35.083248 -0.347182 2.563785 0.041025 0.003339 -11903.900000 0 0 1
-18.727073 7.350988 -30.295418 36.366917 -0.374053 2.555393 0.025891 0.003215 -636355.000000 0 0 1
-19.697673 8.285788 -29.608438 36.514548 -0.398179 2.516428 0.026707 0.000713 -755585.000000 0 0 1
-19.081073 9.291688 -28.821828 35.792745 -0.453160 2.506880 0.021011 0.001401 -68857.300000 0 0 1
-19.948673 10.232988 -28.264228 36.076726 -0.473966 2.470991 0.045240 0.004012 -408357.000000 0 0 1
-9.019373 24.565088 31.216298 40.733892 -1.218915 0.697661 0.041622 -0.018928 -437267.000000 0 0 1
-9.965873 25.589088 30.838688 41.293398 -1.199411 0.727531 0.049287 -0.026021 385772.000000 0 0 1
-9.948073 26.702888 31.726368 42.644705 -1.214178 0.731805 0.074877 -0.030783 563076.000000 0 0 1
-8.634173 27.582988 31.805108 42.975983 -1.267433 0.737626 0.069886 -0.035797 611037.000000 0 0 1
-8.266173 28.145188 30.606168 42.393617 -1.285132 0.764177 0.086653 -0.021600 -29426.600000 0 0 1
-6.880573 28.308788 30.414448 42.116130 -1.332365 0.763881 0.085598 -0.020926 -95823.700000 0 0 1
-6.451573 29.370188 29.425098 42.072166 -1.354567 0.796244 0.110406 -0.029336 -251400.000000 0 0 1
-6.740773 30.699088 29.770568 43.291555 -1.354651 0.812513 0.115210 -0.027996 259083.000000 0 0 1
-6.207673 31.546888 28.779018 43.150588 -1.376503 0.840697 0.115528 -0.023129 -2328.850000 0 0 1
-6.220973 33.043488 29.256608 44.570413 -1.384708 0.854742 0.118628 -0.024870 78777.500000 0 0 1
-5.369973 33.371588 30.372158 45.441913 -1.411250 0.838777 0.128147 -0.023307 446676.000000 0 0 1
-5.958473 -33.851430 31.330778 46.508498 1.396563 0.831650 0.121260 -0.021081 1166910.000000 0 0 1
-7.283573 33.872688 32.128709 47.251068 -1.358994 0.823092 0.098636 -0.022337 984529.000000 0 0 1
-7.180573 32.997688 33.262788 47.400645 -1.356528 0.792964 0.099330 -0.019564 37699.200000 0 0 1
-7.101473 31.634788 32.895115 46.187437 -1.349974 0.778156 0.107679 -0.015654 -189436.000000 0 0 1
-7.161273 30.641788 -33.942438 46.284902 -1.341208 2.394014 0.094179 -0.013600 -469940.000000 0 0 1
-5.964373 30.416588 -33.258368 45.462750 -1.377164 2.391392 0.097085 -0.012315 -406775.000000 0 0 1
-6.099773 29.598888 -32.123608 44.104734 -1.367560 2.386705 0.085260 -0.013835 -553091.000000 0 0 1
-4.735473 29.643788 -31.348178 43.403769 -1.412389 2.377840 0.086176 -0.019299 1488260.000000 0 0 1
-3.801473 28.578388 -31.665788 42.824031 -1.438554 2.403034 0.096286 -0.011197 665880.000000 0 0 1
-3.453173 28.423888 -33.043278 43.722992 -1.449900 2.427582 0.085587 -0.013407 -1014650.000000 0 0 1
-2.683673 27.096688 -33.280358 43.000173 -1.472078 2.455865 0.103071 -0.032006 -846251.000000 0 0 1
-1.415473 27.030488 -32.694978 42.445405 -1.518478 2.450081 0.137399 -0.027142 -214093.000000 0 0 1
-0.891673 25.721288 -32.800938 41.692701 -1.536143 2.476292 0.152601 -0.032643 204401.000000 0 0 1
-0.293273 25.208388 33.902885 42.248722 -1.559163 0.639391 0.132296 -0.028549 -265797.000000 0 0 1
-1.337973 25.120188 32.954652 41.458692 -1.517584 0.651988 0.129119 -0.028089 390106.000000 0 0 1
-0.839573 24.997288 31.600688 40.301027 -1.537222 0.669526 0.122586 -0.025545 278278.000000 0 0 1
-0.303473 26.283888 30.936088 40.595276 -1.559251 0.704306 0.101333 -0.025312 866755.000000 0 0 1
-1.357073 27.207988 30.504778 40.898139 -1.520960 0.728953 0.106961 -0.026536 1045920.000000 0 0 1
-0.832573 28.488988 30.111208 41.460831 -1.541580 0.757935 0.096790 -0.021393 46543.800000 0 0 1
-1.902973 29.584488 30.233628 42.343069 -1.506561 0.775579 0.104814 -0.015313 49325.300000 0 0 1
-2.056873 30.025888 31.574058 43.620016 -1.502400 0.761440 0.120174 -0.017967 -418895.000000 0 0 1
-2.995173 31.038388 31.651468 44.431611 -1.474595 0.777936 0.113849 -0.016580 -419183.000000 0 0 1
-2.727273 32.020588 32.768252 45.896780 -1.485829 0.775665 0.125369 -0.004819 377452.000000 0 0 1
-1.524373 32.759888 32.536236 46.196760 -1.524298 0.789364 0.140404 -0.010753 275196.000000 0 0 1
-0.977273 33.063388 33.818731 47.305912 -1.541247 0.774323 0.101362 -0.014073 -330128.000000 0 0 1
0.509527 33.425188 33.715443 47.478773 1.555554 0.781133 0.097233 -0.015891 -310043.000000 0 0 1
0.659527 -33.372630 33.231199 47.100744 -1.551036 0.787619 0.108645 -0.013940 -844322.000000 0 0 1
1.984427 -33.013630 33.134425 46.815894 -1.510759 0.784474 0.078074 -0.012174 -990281.000000 0 0 1
2.314527 -31.528930 32.824838 45.573024 -1.497518 0.766606 0.083230 -0.014439 -173951.000000 0 0 1
1.940527 -30.680230 33.882776 45.750243 -1.507630 0.736829 0.074448 -0.007158 206529.000000 0 0 1
2.200527 -29.299230 33.609798 44.641973 -1.495832 0.718378 0.061471 -0.017535 -212660.000000 0 0 1
1.642627 -28.365430 -33.330728 43.797640 -1.512951 2.435675 0.065615 -0.017011 750938.000000 0 0 1
0.221127 -28.190730 -33.273568 43.610739 -1.562953 2.438687 0.056409 -0.025756 715498.000000 0 0 1
-0.022473 -27.262330 -32.234248 42.217081 1.569972 2.439567 0.056194 -0.028011 -699341.000000 0 0 1
-1.488473 -26.875730 -32.176028 41.950176 1.515469 2.444958 0.091069 -0.031466 -663896.000000 0 0 1
-1.741873 -26.372830 -30.876798 40.644028 1.504844 2.433630 0.106669 -0.028834 577884.000000 0 0 1
-3.123873 -26.003730 -30.934938 40.532986 1.451238 2.439054 0.105450 -0.031937 472643.000000 0 0 1
-3.565573 -25.472930 -29.539578 39.168484 1.431725 2.425181 0.106786 -0.031429 -135077.000000 0 0 1
-3.973873 -26.496430 -28.624838 39.207574 1.421928 2.389242 0.101068 -0.035666 141494.000000 0 0 1
-4.369173 -25.926130 -27.362808 37.947031 1.403841 2.376155 0.105887 -0.029891 170979.000000 0 0 1
-3.244173 -25.352230 -26.459088 36.787819 1.443524 2.373497 0.104723 -0.031687 -115274.000000 0 0 1
-2.607973 -24.215730 -26.938718 36.316631 1.463512 2.406507 0.105903 -0.032073 459018.000000 0 0 1
-1.462973 -23.935030 -26.119818 35.458016 1.509750 2.398886 0.081670 -0.031457 -193398.000000 0 0 1
-0.520573 -22.847730 -26.763158 35.193130 1.548016 2.434826 0.059252 -0.030444 435263.000000 0 0 1
0.156827 -23.137230 -27.977968 36.305960 -1.564018 2.450604 0.032275 -0.032441 -6636.350000 0 0 1
1.025227 -24.232730 -27.882288 36.955356 -1.528514 2.425667 0.027652 -0.028465 -947308.000000 0 0 1
1.874727 -24.534330 -29.098068 38.107027 -1.494532 2.439648 0.013244 -0.031583 -43918.500000 0 0 1
2.821627 -23.569730 -29.518628 37.879324 -1.451649 2.464314 0.021524 -0.030706 31374.300000 0 0 1
3.359927 -23.913830 -30.747368 39.096816 -1.431209 2.475823 0.017007 -0.021001 -725027.000000 0 0 1
4.551827 -23.060430 -31.242908 39.097595 -1.375915 2.496594 0.026550 -0.029383 -255352.000000 0 0 1
5.703027 -23.007730 -30.417198 38.562756 -1.327819 2.479604 0.019899 -0.021520 596798.000000 0 0 1
6.528027 -24.160030 -30.386588 39.365809 -1.306899 2.452625 0.033977 -0.012136 -13227.900000 0 0 1
7.425427 -24.512030 -31.614858 40.687539 -1.276654 2.460707 0.063386 -0.013241 -208005.000000 0 0 1
6.597527 -25.044230 -32.617488 41.649026 -1.313213 2.470514 0.025331 -0.018626 196670.000000 0 0 1
6.934827 -24.572230 -33.971048 42.496099 -1.295728 2.497079 0.045584 -0.016957 -27611.900000 0 0 1
6.353627 -23.207030 33.600571 41.327149 -1.303564 0.621444 0.054969 -0.015207 -719986.000000 0 0 1
4.974527 -23.067930 33.722645 41.159351 -1.358402 0.610574 0.054437 -0.021363 -514354.000000 0 0 1
4.549527 -21.831730 33.141839 39.946266 -1.365346 0.592297 0.072807 -0.036835 -642452.000000 0 0 1
3.130727 -21.392030 33.497634 39.868684 -1.425478 0.573146 0.049185 -0.035169 114367.000000 0 0 1
2.007427 -22.152530 33.066765 39.851918 -1.480425 0.592153 0.045541 -0.029424 259329.000000 0 0 1
1.824727 -23.327930 33.856461 41.155582 -1.492735 0.604748 0.040416 -0.026696 -794032.000000 0 0 1
0.439127 -23.957330 33.642175 41.303057 -1.552469 0.618895 0.052247 -0.019414 -92514.200000 0 0 1
0.264827 -24.549330 32.359137 40.618389 -1.560009 0.649044 0.061006 -0.023546 -204445.000000 0 0 1
-0.855673 -25.394730 32.246237 41.054163 1.537114 0.667364 0.057365 -0.015868 -78207.200000 0 0 1
-1.000173 -26.100530 30.882818 40.447330 1.532495 0.702032 0.069422 -0.025987 71024.900000 0 0 1
-2.282373 -26.625530 30.601668 40.627456 1.485284 0.717843 0.081188 -0.021816 114095.000000 0 0 1
-2.231073 -27.907430 29.961988 41.006379 1.491021 0.751499 0.092298 -0.024247 531971.000000 0 0 1
-3.516573 -28.261830 29.117178 40.729687 1.447004 0.774332 0.102419 -0.019634 -386069.000000 0 0 1
-4.642373 -28.518930 29.821838 41.523765 1.409430 0.769603 0.098579 -0.017468 -1360970.000000 0 0 1
-5.698973 -28.887230 29.000188 41.327488 1.376014 0.792992 0.088223 -0.018644 -256691.000000 0 0 1
-6.816273 -29.696530 29.689178 42.541660 1.345173 0.798356 0.080008 -0.019072 -460618.000000 0 0 1
-7.876473 -30.169130 28.921858 42.528686 1.315420 0.822958 0.101809 -0.016842 39579.400000 0 0 1
-9.131473 -30.209730 29.574438 43.251116 1.277259 0.817860 0.082566 -0.017442 216059.000000 0 0 1
-9.423473 -31.332930 30.601818 44.799840 1.278649 0.818826 0.067608 -0.015145 -649510.000000 0 0 1
-9.369073 -32.619530 30.041198 45.324242 1.291103 0.846236 0.093692 -0.020020 507049.000000 0 0 1
-10.577773 -33.060130 29.424868 45.504773 1.261134 0.867635 0.094917 -0.021804 194860.000000 0 0 1
-10.544173 33.577488 29.046768 45.632686 -1.266523 0.880800 0.110880 -0.030448 -322987.000000 0 0 1
-10.949673 32.756588 30.127328 45.831706 -1.248199 0.853504 0.100160 -0.025076 243151.000000 0 0 1
-10.562973 31.405488 29.889898 44.623840 -1.246341 0.836831 0.108569 -0.032036 212800.000000 0 0 1
-11.194473 30.401788 30.937408 44.796296 -1.217985 0.808444 0.094882 -0.021196 -968385.000000 0 0 1
-12.547573 30.222288 30.757238 44.909197 -1.177276 0.816363 0.087637 -0.019420 -1034360.000000 0 0 1
-13.144573 29.183688 31.479328 44.893380 -1.147603 0.793714 0.072772 -0.024879 -110253.000000 0 0 1
-13.248873 29.278388 33.035900 46.088256 -1.145854 0.771599 0.075718 -0.034143 -849717.000000 0 0 1
-14.379673 30.030688 33.362995 47.134984 -1.124226 0.784392 0.085735 -0.020315 116027.000000 0 0 1
-14.447773 30.162288 -33.269948 47.174052 -1.124088 2.353585 0.076928 -0.027342 -545738.000000 0 0 1
-15.898273 30.245488 -32.805338 47.368078 -1.086847 2.335831 0.072383 -0.017487 -435163.000000 0 0 1
-15.963373 29.797188 -31.451258 46.172322 -1.078972 2.320158 0.069417 -0.014946 -315633.000000 0 0 1
-17.296173 29.688288 -31.046788 46.308262 -1.043275 2.305594 0.080247 -0.004729 -456862.000000 0 0 1
-17.428573 29.178888 -29.567538 45.048884 -1.032364 2.286758 0.082973 -0.012993 -219738.000000 0 0 1
-17.372873 27.745588 -29.392148 43.994690 -1.011371 2.302427 0.073349 -0.019812 321118.000000 0 0 1
-17.219673 27.477388 -28.029298 42.862169 -1.010986 2.283577 0.064926 -0.016194 -201577.000000 0 0 1
-17.713673 26.077788 -27.612668 41.908050 -0.974124 2.290135 0.034108 -0.019792 -52681.700000 0 0 1
-19.120973 26.041088 -27.646698 42.521639 -0.937444 2.278617 0.042811 -0.016158 -208804.000000 0 0 1
-19.609573 24.719088 -27.638798 41.946058 -0.900156 2.290169 0.027750 -0.015400 517274.000000 0 0 1
-21.146973 24.596888 -27.842558 42.748209 -0.860674 2.280113 0.041485 -0.012316 725046.000000 0 0 1
-22.020473 24.895988 -26.748138 42.663501 -0.846612 2.248436 0.033954 -0.009629 1089950.000000 0 0 1
-23.369173 24.491688 -26.997318 43.299148 -0.808848 2.244017 0.042336 -0.018549 788938.000000 0 0 1
-24.427573 24.756388 -25.921998 43.376665 -0.792083 2.211304 0.064250 -0.022659 -89777.400000 0 0 1
-24.721473 26.107788 -25.697278 44.194094 -0.812665 2.191323 0.039271 0.001670 853385.000000 0 0 1
-26.011923 26.238088 -25.043958 44.634709 -0.789727 2.166495 0.035453 0.007707 981325.000000 0 0 1
-26.101783 26.012588 -23.509418 43.710989 -0.783687 2.138666 0.033639 0.004369 -665660.000000 0 0 1
-25.817213 24.680588 -23.093918 42.532211 -0.762894 2.144772 0.024527 -0.009508 748937.000000 0 0 1
-26.980323 23.793988 -23.161318 42.784791 -0.722725 2.142832 0.023567 -0.004015 678962.000000 0 0 1
-27.697563 23.791188 -21.778418 42.514411 -0.709675 2.108610 0.015359 -0.003526 -205596.000000 0 0 1
-26.949103 23.333288 -20.652818 41.197517 -0.713612 2.095911 0.016654 -0.010343 -64279.800000 0 0 1
-25.828223 24.100188 -20.295318 40.740841 -0.750802 2.092268 0.017431 -0.002802 -581048.000000 0 0 1
-24.906273 23.411888 -19.344218 39.276427 -0.754480 2.085773 0.028537 -0.005141 -460243.000000 0 0 1
-25.590533 23.290788 -18.103718 39.052283 -0.738385 2.052824 0.024380 -0.014991 -23557.000000 0 0 1
-24.684673 22.969988 -17.107318 37.810233 -0.749432 2.040309 0.043020 -0.018725 -567318.000000 0 0 1
-25.104183 23.005588 -15.621718 37.463518 -0.741805 2.000922 0.032066 -0.019394 -362776.000000 0 0 1
-25.395293 24.350588 -15.224718 38.336198 -0.764400 1.979191 0.032693 -0.030149 107425.000000 0 0 1
-25.855323 24.355788 -13.878418 38.135451 -0.755542 1.943274 0.014323 -0.024612 466256.000000 0 0 1
-26.280173 25.790588 -13.280518 39.142995 -0.775996 1.916950 0.023154 -0.022346 -9319.810000 0 0 1
-25.078473 26.445688 -12.993118 38.692704 -0.811927 1.913254 0.038476 -0.018805 -261212.000000 0 0 1
-25.250883 27.519888 -12.091718 39.257623 -0.828369 1.883896 0.053816 -0.020546 286047.000000 0 0 1
-23.901573 28.130888 -11.607618 38.695850 -0.866502 1.875458 0.070091 -0.023256 218161.000000 0 0 1
-23.146173 27.107888 -11.002618 37.304698 -0.864069 1.870188 0.061171 -0.022648 217420.000000 0 0 1
-21.948973 27.626288 -10.415718 36.789351 -0.899421 1.857840 0.064892 -0.024910 488157.000000 0 0 1
-21.104273 26.489088 -9.740718 35.241222 -0.898061 1.850844 0.105985 -0.024371 246736.000000 0 0 1
-20.445773 25.722588 -10.743318 34.570219 -0.899199 1.886797 0.090161 -0.027784 200829.000000 0 0 1
-19.451073 24.843488 -10.242818 33.173159 -0.906542 1.884694 0.093820 -0.019600 168559.000000 0 0 1
-18.833473 23.923188 -11.369618 32.500567 -0.903880 1.928184 0.095902 -0.026798 -89487.500000 0 0 1
-18.092473 22.866288 -10.805618 31.096078 -0.901426 1.925691 0.079487 -0.019507 -25066.000000 0 0 1
-17.733273 22.004588 -11.817118 30.631930 -0.892474 1.966847 0.106896 -0.017664 194956.000000 0 0 1
-17.221773 20.622388 -11.310918 29.151487 -0.875016 1.969262 0.088139 -0.006753 576942.000000 0 0 1
-18.311673 19.759488 -10.970918 29.088069 -0.823409 1.957527 0.078286 -0.003355 513294.000000 0 0 1
-17.846973 18.450188 -10.851518 27.868967 -0.802015 1.970751 0.101909 -0.018816 -217208.000000 0 0 1
-19.000473 17.421988 -10.679218 27.903214 -0.742087 1.963539 0.085891 -0.008803 409745.000000 0 0 1
-19.858973 16.955188 -11.692818 28.610823 -0.706684 1.991809 0.086184 -0.005491 631945.000000 0 0 1
-20.640873 17.949088 -12.386118 30.027176 -0.715757 1.995990 0.084280 -0.006763 -328749.000000 0 0 1
-21.470773 17.287388 -13.531618 30.707533 -0.677879 2.027131 0.088096 -0.012706 306390.000000 0 0 1
-20.657873 16.934488 -14.635518 30.458545 -0.686674 2.072028 0.095493 -0.018243 497414.000000 0 0 1
-21.492973 16.419188 -15.629118 31.237909 -0.652359 2.094771 0.080874 -0.014794 286747.000000 0 0 1
-20.647073 16.213588 -16.892218 31.217448 -0.665696 2.142558 0.101267 -0.022922 162109.000000 0 0 1
-20.074973 17.363388 -17.471518 31.776496 -0.713096 2.152951 0.084786 -0.018492 603373.000000 0 0 1
-19.124173 17.017888 -18.488718 31.578081 -0.727186 2.196283 0.093809 -0.014018 87132.400000 0 0 1
-18.284273 18.198388 -19.019018 32.050258 -0.783044 2.206088 0.080689 -0.000313 -511653.000000 0 0 1
-17.370673 18.631488 -18.062518 31.227026 -0.820404 2.187594 0.094940 -0.010952 -481013.000000 0 0 1
-16.701673 19.714788 -18.596718 31.834834 -0.867951 2.194644 0.093119 -0.005619 -247511.000000 0 0 1
34.417439 29.998588 2.260382 45.711976 0.716907 1.521328 0.098369 -0.006659 -778817.000000 0 0 1
35.615099 30.006588 1.592882 46.597939 0.700138 1.536606 0.111133 -0.007184 -822839.000000 0 0 1
35.436129 30.643088 0.339282 46.849047 0.712990 1.563554 0.086827 0.000061 542476.000000 0 0 1
36.751369 30.835088 -0.494718 47.976146 0.698084 1.581108 0.051162 0.004799 620762.000000 0 0 1
-36.275133 31.670988 0.150782 48.155576 -0.717740 1.567665 0.021059 0.008586 481276.000000 0 0 1
-35.092153 31.824788 -0.637918 47.378089 -0.736610 1.584261 0.044039 -0.003064 124429.000000 0 0 1
-34.240655 32.929788 -0.048018 47.505744 -0.765885 1.571807 0.028997 0.000836 -331116.000000 0 0 1
-33.644253 32.740988 1.219382 46.961633 -0.771793 1.544828 0.026855 0.007982 -115128.000000 0 0 1
-32.986043 33.870788 1.648282 47.307781 -0.798631 1.535948 0.017166 0.009900 -344194.000000 0 0 1
-32.466723 33.748788 3.122582 46.934202 -0.804758 1.504216 0.035154 0.004460 36056.600000 0 0 1
-31.926903 -33.181530 3.661582 46.192513 0.804666 1.491445 0.036487 0.009836 82097.600000 0 0 1
-31.563053 -33.436430 4.988382 46.250461 0.814212 1.462730 0.053322 0.000306 -415533.000000 0 0 1
-31.394233 -32.254530 5.966582 45.404324 0.798914 1.439005 0.060294 -0.004054 166300.000000 0 0 1
-32.543023 -31.685430 6.577082 45.894148 0.772047 1.426991 0.058760 -0.004553 91061.800000 0 0 1
-33.145983 -32.484430 7.540682 47.018680 0.775319 1.409724 0.053258 -0.019734 -1886060.000000 0 0 1
-34.106565 -31.780330 8.498482 47.386405 0.750106 1.390476 0.066241 -0.016278 1382240.000000 0 0 1
-35.447675 -31.452830 8.004582 48.061331 0.725756 1.403467 0.061592 -0.023889 1495620.000000 0 0 1
-36.196043 -32.597330 7.676282 49.311913 0.733134 1.414493 0.049244 -0.019446 -1780760.000000 0 0 1
36.296549 -32.381430 7.322982 49.189659 -0.728453 1.421368 0.049707 -0.018123 -380288.000000 0 0 1
35.536419 -32.422030 8.529182 48.854602 -0.739602 1.395314 0.044709 -0.021045 -108050.000000 0 0 1
34.188939 -32.328130 8.110082 47.746885 -0.757431 1.400113 0.039489 -0.014922 -136412.000000 0 0 1
33.244319 -32.681430 9.308782 47.538554 -0.776860 1.373707 0.058399 -0.027132 -42400.200000 0 0 1
31.867759 -32.526530 8.988682 46.414714 -0.795628 1.375905 0.056996 -0.029044 382867.000000 0 0 1
31.023619 -32.621230 10.111482 46.139481 -0.810495 1.349853 0.057407 -0.026853 -65011.500000 0 0 1
30.922919 -31.448230 11.079582 45.474996 -0.793820 1.324678 0.058612 -0.020711 -515510.000000 0 0 1
30.372239 -30.193330 10.668682 44.135370 -0.782444 1.326652 0.038518 -0.017453 542395.000000 0 0 1
31.123549 -29.536330 9.640482 43.977370 -0.759238 1.349787 0.028920 -0.022238 375512.000000 0 0 1
30.516939 -28.108930 9.484382 42.559947 -0.744347 1.346062 0.017917 -0.021010 464357.000000 0 0 1
31.104989 -27.447730 8.357982 42.317303 -0.723018 1.371982 0.020989 -0.017946 -44221.600000 0 0 1
30.348029 -26.323030 8.093682 40.980636 -0.714493 1.371989 0.012147 -0.016990 -220723.000000 0 0 1
30.239669 -26.071230 6.545282 40.459701 -0.711507 1.408309 -0.000273 -0.011007 741708.000000 0 0 1
31.416469 -25.505430 5.953482 40.901901 -0.681924 1.424722 0.031745 -0.015014 438725.000000 0 0 1
31.136029 -25.168330 4.610382 40.300779 -0.679802 1.456146 0.029979 -0.007939 167484.000000 0 0 1
32.447889 -24.607830 4.047882 40.924274 -0.648843 1.471723 0.064069 -0.012229 506256.000000 0 0 1
33.392639 -25.622230 3.695082 42.251872 -0.654483 1.483231 0.062550 -0.006238 595665.000000 0 0 1
34.707479 -25.086530 3.521082 42.969072 -0.625864 1.488760 0.057981 -0.013976 819371.000000 0 0 1
35.842839 -26.143730 3.518882 44.503779 -0.630186 1.491644 0.050264 -0.013054 226100.000000 0 0 1
35.846269 -27.035730 4.593782 45.133010 -0.646192 1.468837 0.029688 -0.015604 -502319.000000 0 0 1
36.566949 -28.211330 4.369782 46.390904 -0.657118 1.476462 0.033194 -0.018707 -953846.000000 0 0 1
36.284809 -29.264330 5.471482 46.935334 -0.678702 1.453956 0.053159 -0.020801 329371.000000 0 0 1
34.974229 -29.782930 5.338682 46.246310 -0.705404 1.455098 0.033375 -0.019609 145477.000000 0 0 1
33.951939 -28.958030 5.849882 45.005809 -0.706182 1.440447 0.031670 -0.005884 -1082100.000000 0 0 1
32.610049 -29.645630 6.144482 44.497566 -0.737817 1.432268 0.025858 -0.009842 20227.700000 0 0 1
31.829989 -30.077930 5.060682 44.084471 -0.757105 1.455748 0.011222 -0.013505 207774.000000 0 0 1
31.001649 -29.096030 4.422382 42.746213 -0.753700 1.467154 0.015113 -0.014478 -42158.300000 0 0 1
29.532889 -29.512930 4.250282 41.967482 -0.785060 1.469347 0.009432 -0.011309 -13889.900000 0 0 1
29.531899 -30.618330 3.382382 42.673830 -0.803458 1.491452 0.027680 -0.002822 -260860.000000 0 0 1
28.356279 -31.402230 3.461482 42.451861 -0.836325 1.489167 0.046819 -0.006242 -56579.000000 0 0 1
28.352879 -32.816930 2.803882 43.459158 -0.858247 1.506234 0.059853 -0.004004 -415489.000000 0 0 1
28.093479 -32.791030 1.418882 43.203107 -0.862401 1.537948 0.060691 0.002374 112261.000000 0 0 1
28.192779 34.031888 0.870582 44.201359 0.878963 1.551099 0.076572 0.004301 -103669.000000 0 0 1
27.823179 34.053288 -0.618318 43.978836 0.885746 1.584856 0.065758 0.001461 -293978.000000 0 0 1
28.848179 -33.559530 -1.431718 44.277639 -0.860748 1.603137 0.069811 0.003540 140610.000000 0 0 1
28.542279 -33.859530 -2.782018 44.371941 -0.870403 1.633535 0.059478 0.001992 -222096.000000 0 0 1
29.622799 -33.505430 -3.820518 44.885638 -0.846825 1.656016 0.054769 0.009709 3533.990000 0 0 1
29.942559 -32.072430 -3.786018 44.040113 -0.819729 1.656870 0.031188 0.002249 332661.000000 0 0 1
30.892209 -31.711130 -4.777118 44.528028 -0.798479 1.678287 0.021760 0.003655 -201482.000000 0 0 1
31.401179 -30.263030 -4.676818 43.860662 -0.766943 1.677628 0.005173 0.010406 -72272.000000 0 0 1
30.430519 -29.251530 -4.967918 42.501162 -0.765646 1.687953 0.012585 -0.005404 45501.700000 0 0 1
30.947529 -27.990030 -4.907318 42.015154 -0.735260 1.687862 0.011678 -0.009829 -374609.000000 0 0 1
31.875059 -27.525830 -6.024218 42.543883 -0.712310 1.712874 0.029553 -0.011847 -875927.000000 0 0 1
33.214279 -27.823530 -5.776118 43.711563 -0.697309 1.703326 0.022635 0.004935 -519007.000000 0 0 1
34.148259 -27.222330 -6.647118 44.174009 -0.673019 1.721846 0.038626 -0.005058 115086.000000 0 0 1
34.354389 -27.869430 -8.013718 44.957190 -0.681553 1.750006 0.035807 -0.013574 -543498.000000 0 0 1
33.138429 -27.788330 -8.746918 44.123184 -0.697811 1.770357 0.043655 -0.012539 205420.000000 0 0 1
32.908079 -28.885630 -9.646418 44.837202 -0.720395 1.787635 0.039174 -0.002978 131921.000000 0 0 1
32.523569 -30.248830 -9.024618 45.323482 -0.749176 1.771252 0.038088 -0.005750 -1001690.000000 0 0 1
33.526329 -30.835430 -8.277318 46.296355 -0.743614 1.750553 0.043157 0.001172 -1057470.000000 0 0 1
33.314939 -32.149230 -7.849718 46.958240 -0.767593 1.738749 0.049732 -0.001029 266030.000000 0 0 1
34.601939 -32.821130 -7.262218 48.241690 -0.758992 1.721909 0.034843 -0.000013 510400.000000 0 0 1
34.491969 -34.048630 -6.545818 48.906573 -0.778930 1.705043 0.030205 -0.004052 -187624.000000 0 0 1
33.787629 -34.021930 -5.312718 48.242312 -0.788853 1.681146 0.042685 -0.000103 -30504.800000 0 0 1
33.619709 32.711488 -4.699818 47.142492 0.771707 1.670656 0.030369 0.005631 -612894.000000 0 0 1
32.803499 31.880088 -5.391218 46.059470 0.771123 1.688114 0.050810 -0.006141 -616574.000000 0 0 1
32.979429 30.542188 -5.026818 45.229823 0.747048 1.682166 0.048339 0.003509 -149815.000000 0 0 1
31.810679 29.644388 -5.443818 43.821732 0.750163 1.695345 0.072022 -0.010354 -122687.000000 0 0 1
31.770329 29.300088 -6.815218 43.752671 0.744971 1.727200 0.050082 -0.001468 -95577.600000 0 0 1
30.476239 28.908688 -7.215018 42.621238 0.759008 1.740898 0.043274 -0.004724 80099.400000 0 0 1
30.413899 28.676888 -8.764918 42.710572 0.756011 1.777481 0.039815 -0.003145 -396939.000000 0 0 1
30.991489 27.449788 -9.146718 42.398417 0.724869 1.788238 0.052947 -0.003822 -101520.000000 0 0 1
31.310669 27.242388 -10.483018 42.806534 0.716029 1.818206 0.038319 -0.003437 991858.000000 0 0 1
32.513079 28.159588 -10.988818 44.393883 0.713767 1.820926 0.053405 -0.013392 153319.000000 0 0 1
33.790969 27.845188 -10.489318 45.024548 0.689230 1.805926 0.052406 -0.020006 285128.000000 0 0 1
34.878859 28.599888 -11.001718 46.427645 0.686804 1.810037 0.064065 -0.016893 317178.000000 0 0 1
35.064529 29.963288 -10.345318 47.268863 0.707111 1.791444 0.060489 -0.019758 -814147.000000 0 0 1
35.760579 29.797788 -9.114718 47.432112 0.694694 1.764163 0.047202 -0.014001 203866.000000 0 0 1
35.591829 31.035188 -8.354418 47.955787 0.717114 1.745901 0.038328 -0.011848 -441637.000000 0 0 1
36.591819 31.272588 -7.141318 48.661427 0.707178 1.718083 0.030968 -0.006948 321521.000000 0 0 1
-36.049761 31.456988 -7.512718 48.431067 -0.717469 1.726547 0.032221 -0.010275 -396007.000000 0 0 1
-35.320600 30.311788 -7.901018 47.209907 -0.709230 1.738947 0.040555 -0.019030 137.874000 0 0 1
-33.843563 30.435488 -8.385818 46.282044 -0.732428 1.752992 0.072033 -0.026618 405364.000000 0 0 1
-32.917123 30.935488 -7.446518 45.782005 -0.754374 1.734174 0.058301 -0.025565 1219260.000000 0 0 1
-31.636623 31.358788 -7.986718 45.255244 -0.780988 1.748207 0.081375 -0.040527 1075330.000000 0 0 1
-31.639043 32.664088 -8.836018 46.325445 -0.801338 1.762710 0.061710 -0.035101 -582129.000000 0 0 1
-31.755063 33.894288 -8.090018 47.145044 -0.817972 1.743248 0.044799 -0.018864 1188.450000 0 0 1
-30.703183 -33.923430 -7.186518 46.315555 0.835185 1.726590 0.086127 -0.016465 106234.000000 0 0 1
-30.833113 -32.514130 -6.526318 45.281810 0.811928 1.715427 0.061959 -0.021619 644206.000000 0 0 1
-31.856153 -32.448930 -5.490318 45.802742 0.794616 1.690954 0.056045 -0.018035 341396.000000 0 0 1
-31.491973 -32.966230 -4.224718 45.786078 0.808266 1.663199 0.062346 -0.012852 -184520.000000 0 0 1
-32.617843 -32.959730 -3.172118 46.479348 0.790612 1.639097 0.057084 -0.012937 -119406.000000 0 0 1
-33.171733 -31.696830 -2.812018 45.966949 0.762665 1.632009 0.047564 -0.010270 -131314.000000 0 0 1
-33.976503 -31.895330 -1.681018 46.631970 0.753814 1.606853 0.060094 -0.004978 -368771.000000 0 0 1
-34.748471 -30.596730 -1.385918 46.319941 0.721948 1.600721 0.069865 -0.001109 299595.000000 0 0 1
-35.731661 -30.693030 -0.344418 47.105544 0.709688 1.578108 0.038980 0.003201 261863.000000 0 0 1
-36.255343 -29.370130 -0.166418 46.659213 0.680864 1.574363 0.056341 -0.006587 -30878.900000 0 0 1
36.608059 -29.312030 0.903882 46.905886 -0.675167 1.551525 0.057680 -0.000869 119470.000000 0 0 1
35.424609 -30.055130 0.604182 46.460508 -0.703579 1.557792 0.023909 0.007914 1538040.000000 0 0 1
34.304009 -29.896030 1.534082 45.529014 -0.716846 1.537095 0.039971 0.006159 1351900.000000 0 0 1
33.552629 -28.558630 1.530282 44.087595 -0.705167 1.536079 0.020893 0.016326 -873292.000000 0 0 1
32.523489 -28.291530 0.617882 43.111134 -0.715923 1.556464 0.018217 0.009302 -216960.000000 0 0 1
31.969059 -27.024730 0.859882 41.869992 -0.701783 1.550258 0.017827 0.009364 -351821.000000 0 0 1
30.700769 -26.838630 0.006482 40.778050 -0.718377 1.570637 0.006800 -0.006366 404699.000000 0 0 1
29.490829 -27.496230 0.415682 40.322754 -0.750412 1.560487 0.003575 0.006094 698902.000000 0 0 1
29.432349 -28.915830 0.227282 41.260636 -0.776546 1.565288 0.013462 0.000333 -659042.000000 0 0 1
29.204819 -29.437330 -1.186218 41.483551 -0.789363 1.599395 0.017996 -0.001428 1044970.000000 0 0 1
27.862579 -29.083830 -1.624118 40.309184 -0.806840 1.611099 0.024086 -0.002586 1313610.000000 0 0 1
27.845679 -29.409130 -3.003218 40.611552 -0.812698 1.644814 0.035836 0.000271 660493.000000 0 0 1
26.391179 -29.821830 -3.431118 39.970095 -0.846352 1.656744 0.054493 -0.009771 1414000.000000 0 0 1
25.367679 -28.826430 -3.186718 38.530993 -0.849133 1.653596 0.052822 -0.013745 732986.000000 0 0 1
24.103179 -29.449930 -3.424018 38.209757 -0.884909 1.660528 0.041110 -0.015237 1012080.000000 0 0 1
22.889779 -28.434330 -3.425318 36.663142 -0.893011 1.664360 0.043995 -0.018359 609643.000000 0 0 1
22.848679 -27.624130 -4.600818 36.143080 -0.879732 1.698437 0.059397 -0.025587 140922.000000 0 0 1
22.173879 -26.356230 -4.528418 34.739579 -0.871366 1.701522 0.063352 -0.034664 175957.000000 0 0 1
21.961779 -25.568730 -5.858918 34.211207 -0.861140 1.742902 0.073215 -0.048847 29444.700000 0 0 1
20.913279 -26.150830 -6.624318 34.133748 -0.896228 1.766105 0.084336 -0.049317 -157556.000000 0 0 1
20.337579 -25.349330 -7.643618 33.386084 -0.894659 1.801791 0.091043 -0.043139 798631.000000 0 0 1
18.830879 -25.826230 -7.736118 32.885312 -0.940781 1.808267 0.094537 -0.035015 634217.000000 0 0 1
18.132479 -25.258830 -6.657618 31.798101 -0.948180 1.781729 0.092179 -0.032971 -379160.000000 0 0 1
16.840679 -25.841130 -6.621818 31.547123 -0.993227 1.782272 0.083841 -0.034384 207539.000000 0 0 1
15.753079 -25.061430 -5.854118 30.174584 -1.009628 1.766043 0.075696 -0.024283 -36020.600000 0 0 1
15.872879 -25.086830 -4.463818 30.020377 -1.006667 1.720043 0.070185 -0.019267 244300.000000 0 0 1
15.007679 -24.107630 -3.871018 28.659956 -1.013976 1.706278 0.068895 -0.018740 210262.000000 0 0 1
14.624979 -24.512530 -2.431818 28.647302 -1.032856 1.655787 0.060613 -0.012644 -18522.800000 0 0 1
13.971479 -25.780730 -2.454318 29.425703 -1.074166 1.654301 0.059443 -0.012672 -126616.000000 0 0 1
14.525679 -26.687530 -1.569518 30.425040 -1.072350 1.622406 0.063012 -0.013816 -392902.000000 0 0 1
14.032879 -28.124930 -1.786318 31.482127 -1.107991 1.627568 0.067801 -0.008902 564685.000000 0 0 1
12.684479 -28.316230 -1.324418 31.055740 -1.149642 1.613456 0.064688 -0.017401 534206.000000 0 0 1
12.178979 -29.585830 -1.785318 32.044286 -1.180288 1.626539 0.064437 -0.020511 -193472.000000 0 0 1
12.853379 -30.910330 -1.284518 33.500864 -1.176720 1.609149 0.068350 -0.016822 -162279.000000 0 0 1
14.123379 -31.123430 -1.859318 34.228567 -1.144798 1.625144 0.074698 -0.015050 -273382.000000 0 0 1
14.669279 -32.405130 -1.614818 35.607413 -1.145713 1.616163 0.074058 -0.018716 -112941.000000 0 0 1
16.121879 -32.501630 -2.129918 36.342916 -1.110327 1.629436 0.068423 -0.010272 -67041.100000 0 0 1
16.954379 -31.623730 -1.397318 35.909105 -1.078665 1.609719 0.062500 -0.003422 -276788.000000 0 0 1
18.176079 -31.411230 -2.076518 36.350340 -1.046224 1.627953 0.069192 -0.004331 -21823.600000 0 0 1
19.125579 -30.482730 -1.290518 36.009028 -1.010456 1.606643 0.059908 -0.011712 -291133.000000 0 0 1
18.630779 -29.180730 -1.250018 34.643665 -1.002575 1.606886 0.063989 -0.012302 109828.000000 0 0 1
19.286579 -28.361430 -0.282918 34.299022 -0.973600 1.579045 0.068259 -0.011260 -199981.000000 0 0 1
18.882579 -26.885830 -0.291418 32.855511 -0.958512 1.579666 0.059145 -0.016150 -202147.000000 0 0 1
19.310479 -26.057430 -1.414318 32.463589 -0.933032 1.614376 0.062379 -0.026990 503690.000000 0 0 1
18.342479 -25.962330 -2.470818 31.884073 -0.955719 1.648368 0.073269 -0.027477 130128.000000 0 0 1
32.967439 -29.160830 13.809582 46.129282 -0.724205 1.266767 0.068254 -0.023198 -300470.000000 0 0 1
33.727939 -29.595930 14.874982 47.273228 -0.720239 1.250698 0.079982 -0.016251 -463357.000000 0 0 1
33.013589 -30.275630 15.861682 47.519510 -0.742164 1.230472 0.072383 -0.008501 -504809.000000 0 0 1
33.839009 -30.520430 17.117882 48.678508 -0.733881 1.211461 0.074165 0.000079 -309690.000000 0 0 1
33.107109 -31.216430 18.079282 48.963319 -0.756013 1.192604 0.070665 -0.004782 421250.000000 0 0 1
33.868679 -31.521830 19.276482 50.122809 -0.749524 1.176038 0.056769 -0.004740 887711.000000 0 0 1
34.791589 -32.819630 19.234382 51.551375 -0.756240 1.188436 0.052710 0.006589 1026880.000000 0 0 1
35.873409 -32.827030 18.292182 51.953049 -0.741084 1.210993 0.058906 0.011142 562861.000000 0 0 1
36.572769 34.049988 18.288882 53.211393 0.749691 1.219940 0.070634 0.008259 197896.000000 0 0 1
-36.215123 -33.994630 17.286482 52.592704 0.753782 1.235884 0.076216 0.003699 116543.000000 0 0 1
-35.180389 -33.163230 17.779682 51.512879 0.755892 1.218397 0.072893 0.000722 298609.000000 0 0 1
-34.184917 -32.912930 16.779882 50.333229 0.766443 1.230914 0.090843 -0.000535 672113.000000 0 0 1
-32.895253 -32.236530 17.400882 49.234970 0.775285 1.209566 0.085499 -0.001962 1677280.000000 0 0 1
-31.755183 -32.156230 16.491282 48.107974 0.791673 1.220903 0.093700 -0.007656 834551.000000 0 0 1
-31.882773 -31.196130 15.405482 47.191510 0.774513 1.238255 0.100672 -0.009375 -552231.000000 0 0 1
-30.692433 -31.150230 14.421682 46.047228 0.792801 1.252243 0.087064 -0.013648 875287.000000 0 0 1
-29.507203 -30.635530 15.042382 45.116338 0.804157 1.230875 0.087937 -0.020077 613608.000000 0 0 1
-28.362803 -30.591030 14.200582 44.067179 0.823176 1.242693 0.073165 -0.012192 725665.000000 0 0 1
-27.079093 -30.010330 14.868882 43.069489 0.836698 1.218312 0.073064 -0.014422 694932.000000 0 0 1
-25.988813 -30.345630 14.015582 42.340432 0.862583 1.233411 0.071830 -0.013628 412713.000000 0 0 1
-24.779573 -29.657630 14.423282 41.250858 0.874768 1.213601 0.068792 -0.018845 1147310.000000 0 0 1
-23.635573 -29.825930 13.369282 40.335643 0.900676 1.232955 0.061153 -0.017889 248864.000000 0 0 1
-23.180473 -31.151230 13.286982 41.039948 0.931065 1.241098 0.056233 -0.014297 648219.000000 0 0 1
-21.956873 -31.276130 12.553582 40.223041 0.958707 1.253394 0.038997 -0.019106 500311.000000 0 0 1
-21.420373 -32.649830 12.362482 40.959428 0.990170 1.264192 0.031638 -0.015467 -336520.000000 0 0 1
-22.109473 -33.277930 11.318582 41.525411 0.984373 1.294733 0.033492 -0.016721 74922.800000 0 0 1
-21.979873 33.428488 11.268882 41.564003 -0.989153 1.296239 0.038755 -0.007737 -37414.000000 0 0 1
-22.898473 32.751188 10.241582 41.253732 -0.960631 1.319914 0.032606 0.002992 27390.700000 0 0 1
-22.547773 33.106288 8.922582 41.037066 -0.972887 1.351618 0.026183 0.007045 566709.000000 0 0 1
-23.717173 32.905588 8.119382 41.366730 -0.946270 1.373236 0.039107 -0.000166 178561.000000 0 0 1
-23.728673 33.429888 6.636082 41.528844 -0.953521 1.410314 0.045977 0.000641 -656075.000000 0 0 1
-22.995573 32.696388 5.689682 40.376016 -0.957855 1.429408 0.032933 0.006232 1192210.000000 0 0 1
-21.547673 32.742288 5.695082 39.607999 -0.988749 1.426510 0.032041 0.000804 1145770.000000 0 0 1
-20.900173 -34.014530 5.310382 40.274131 1.019821 1.438555 0.034968 0.001149 -816814.000000 0 0 1
-20.925273 -33.044130 6.337182 39.622487 1.006285 1.410167 0.043574 -0.005149 382328.000000 0 0 1
-20.163973 -33.279630 7.567182 39.640659 1.026053 1.378723 0.046449 -0.006689 53696.900000 0 0 1
-20.195973 -32.087830 8.536682 38.863622 1.009042 1.349333 0.053696 -0.015292 -347913.000000 0 0 1
-19.452073 -30.972530 8.042082 37.448042 1.010012 1.354357 0.084300 -0.032388 114176.000000 0 0 1
-19.200273 -29.934130 8.995982 36.682834 1.000478 1.323032 0.083918 -0.031932 124772.000000 0 0 1
-18.522773 -30.216630 10.370182 36.928018 1.020873 1.286146 0.060161 -0.022163 694199.000000 0 0 1
-17.170773 -30.621830 10.089082 36.528366 1.059748 1.290960 0.077752 -0.031160 421149.000000 0 0 1
-16.397473 -30.662430 11.259282 36.549052 1.079718 1.257644 0.085812 -0.028944 -45662.100000 0 0 1
-15.011873 -31.324030 11.100982 36.466190 1.123890 1.261468 0.084572 -0.023724 368294.000000 0 0 1
-14.107273 -30.467830 10.389882 35.146173 1.137166 1.270693 0.085735 -0.016776 506758.000000 0 0 1
-13.000673 -31.208630 9.861882 35.217223 1.176085 1.286971 0.091870 -0.004511 391912.000000 0 0 1
-11.784573 -30.427030 9.344582 33.941148 1.201281 1.291877 0.092911 -0.004051 -2985.740000 0 0 1
-11.095073 -29.765030 10.376082 33.417372 1.213995 1.255078 0.090904 -0.002946 -652358.000000 0 0 1
-10.095373 -28.958330 9.828782 32.204136 1.235354 1.260645 0.096774 -0.005269 -260836.000000 0 0 1
-9.219273 -28.332630 10.905282 31.727876 1.256208 1.219928 0.092622 0.001615 191081.000000 0 0 1
-9.924773 -27.438330 11.794482 31.471779 1.223726 1.186654 0.095917 -0.008290 -217435.000000 0 0 1
-9.120373 -27.058130 12.871482 31.320898 1.245690 1.147295 0.089676 0.001762 113084.000000 0 0 1
-9.607373 -25.753630 13.536482 30.639638 1.213737 1.113196 0.079138 -0.010590 365704.000000 0 0 1
-9.145073 -24.526630 12.876782 29.171895 1.213901 1.113626 0.070092 -0.014648 103798.000000 0 0 1
-9.926973 -24.107630 11.757382 28.599977 1.180179 1.147139 0.071294 -0.014379 110477.000000 0 0 1
-9.443373 -22.807230 11.144082 27.083899 1.178235 1.146735 0.057805 -0.020526 35161.700000 0 0 1
-8.239873 -22.892430 10.408882 26.463252 1.225295 1.166542 0.051544 -0.016791 -212153.000000 0 0 1
-7.801473 -21.631730 10.033782 25.089271 1.224666 1.159363 0.047459 -0.011560 307480.000000 0 0 1
-6.535873 -21.799430 9.141782 24.525598 1.279506 1.188831 0.049876 -0.018261 -60724.400000 0 1 0
-5.304873 -22.114330 9.699082 24.723622 1.335361 1.167665 0.054474 -0.025970 -699481.000000 0 1 0
-4.342373 -22.257830 8.662782 24.275729 1.378122 1.205903 0.054120 -0.031539 1064660.000000 0 1 0
-3.113873 -23.176630 9.064582 25.080252 1.437242 1.201003 0.059707 -0.030648 1184680.000000 0 0 1
-2.165373 -22.560530 9.948982 24.751740 1.475109 1.157150 0.053956 -0.029872 399186.000000 0 1 0
-1.226073 -23.463830 10.536982 25.750390 1.518590 1.149223 0.059014 -0.033630 679154.000000 0 0 1
-0.219173 -22.828630 11.529782 25.575971 1.561196 1.103129 0.057135 -0.034096 -41605.300000 0 0 1
-0.775573 -22.562630 12.806682 25.955441 1.536436 1.054790 0.066391 -0.031583 -178958.000000 0 0 1
0.123827 -22.218530 13.871982 26.193707 -1.565223 1.012677 0.084400 -0.031969 -159974.000000 0 0 1
0.796127 -20.819530 13.904882 25.048601 -1.532576 0.982294 0.070508 -0.033590 -393674.000000 0 0 1
1.786227 -20.791730 12.922882 24.545622 -1.485096 1.016336 0.060392 -0.039921 -798351.000000 0 1 0
2.291927 -19.455030 12.803582 23.402625 -1.453530 0.991900 0.054716 -0.041251 565400.000000 0 1 0
3.823627 -19.471930 12.509182 23.457532 -1.376897 1.008336 0.072456 -0.037614 467296.000000 0 1 0
4.106827 -20.082930 11.250182 23.382830 -1.369084 1.068853 0.068990 -0.027475 483647.000000 0 1 0
5.507427 -20.018930 10.929982 23.463884 -1.302327 1.086234 0.090452 -0.034628 775304.000000 0 1 0
5.839327 -20.845830 9.713982 23.727786 -1.297677 1.149008 0.091398 -0.038097 -372141.000000 0 1 0
6.011827 -20.178130 8.478482 22.697658 -1.281233 1.187974 0.072932 -0.036206 -219767.000000 0 1 0
6.368527 -21.022430 7.348582 23.162521 -1.276645 1.247956 0.071095 -0.033528 -225021.000000 0 1 0
7.846227 -21.438030 7.247282 23.951524 -1.219943 1.263397 0.078773 -0.020023 -13260.200000 0 1 0
8.806527 -20.466330 6.827282 23.303162 -1.164451 1.273458 0.089994 -0.031092 102950.000000 0 1 0
9.148727 -19.407130 7.774782 22.820674 -1.130281 1.223145 0.087041 -0.024156 -224473.000000 0 1 0
9.883127 -19.685330 9.084382 23.826759 -1.105506 1.179629 0.071618 -0.018703 357192.000000 0 1 0
8.997427 -20.034730 10.171482 24.203371 -1.148698 1.137075 0.084030 -0.026900 -11766.000000 0 1 0
9.539327 -19.628830 11.437382 24.639469 -1.118423 1.088077 0.071427 -0.022391 33385.900000 0 1 0
8.720127 -20.006230 12.672582 25.236565 -1.159754 1.044711 0.095753 -0.024695 -296337.000000 0 0 1
8.592727 -21.373730 13.017282 26.459799 -1.188547 1.056452 0.085437 -0.029799 41036.100000 0 0 1
7.922927 -21.514530 14.277582 27.009205 -1.217948 1.013823 0.106866 -0.023338 171878.000000 0 0 1
8.157927 -22.861830 14.941982 28.503998 -1.228044 1.019013 0.103467 -0.024666 31478.200000 0 0 1
7.634327 -23.904130 14.173682 28.819848 -1.261662 1.056637 0.104386 -0.019808 -266019.000000 0 0 1
7.967427 -25.129030 14.737982 30.201923 -1.263762 1.061021 0.102776 -0.018416 221795.000000 0 0 1
7.939727 -26.380930 13.756982 30.793624 -1.278455 1.107670 0.107898 -0.028683 209867.000000 0 0 1
9.206527 -26.582230 13.160482 31.057582 -1.237385 1.133221 0.106370 -0.024641 -24499.700000 0 0 1
9.226227 -27.697930 12.306782 31.682101 -1.249254 1.171852 0.099413 -0.027220 250812.000000 0 0 1
10.591827 -27.990430 11.631882 32.108436 -1.209040 1.200096 0.104365 -0.025356 447888.000000 0 0 1
11.596127 -28.550330 12.465982 33.241424 -1.184987 1.186385 0.094102 -0.022450 -110151.000000 0 0 1
12.785927 -28.783730 11.761282 33.620096 -1.152771 1.213408 0.118494 -0.020498 -290215.000000 0 0 1
13.690527 -29.704830 12.619882 35.058079 -1.138927 1.202560 0.095159 -0.018187 -1221170.000000 0 0 1
14.355827 -28.988230 13.603682 35.092270 -1.110972 1.172710 0.089009 -0.018929 90777.200000 0 0 1
15.425627 -29.671730 14.239982 36.347471 -1.091374 1.168238 0.077039 -0.014034 344507.000000 0 0 1
16.716927 -29.743230 13.412682 36.660816 -1.058755 1.196241 0.083547 -0.012275 -668581.000000 0 0 1
17.557627 -28.577930 13.470982 36.144650 -1.019872 1.188883 0.081324 -0.023567 1459120.000000 0 0 1
18.845827 -28.816630 12.840382 36.748317 -0.991620 1.213851 0.061057 -0.018078 776236.000000 0 0 1
19.673627 -27.518330 12.775682 36.159759 -0.950122 1.209687 0.035269 -0.020790 -452132.000000 0 0 1
20.904527 -27.786930 12.157782 36.836455 -0.925815 1.234442 0.034187 -0.019144 -367450.000000 0 0 1
21.668727 -26.610930 12.045482 36.369891 -0.887409 1.233228 0.027494 -0.016158 107329.000000 0 0 1
23.106427 -26.821030 11.499282 37.222414 -0.859661 1.256724 0.038966 -0.014149 553848.000000 0 0 1
23.926327 -27.549030 12.432282 38.548409 -0.855660 1.242415 0.038268 -0.019456 -803396.000000 0 0 1
24.946627 -28.182330 11.822582 39.450620 -0.846226 1.266439 0.015046 -0.022694 -2094180.000000 0 0 1
25.936127 -28.918930 12.721082 40.875581 -0.839721 1.254325 0.025181 -0.016405 317083.000000 0 0 1
26.856727 -28.004230 13.405482 41.051525 -0.806312 1.238142 0.020162 -0.018899 758357.000000 0 0 1
28.010127 -27.898830 12.586982 41.489084 -0.783407 1.262558 0.008432 -0.019338 252075.000000 0 0 1
29.383727 -27.423630 13.208482 42.307481 -0.750908 1.253286 0.046660 -0.027964 805911.000000 0 0 1
29.413727 -26.044130 13.430982 41.519337 -0.724713 1.241384 0.059682 -0.026919 -150083.000000 0 0 1
28.617127 -25.468230 14.438982 40.939650 -0.727243 1.210353 0.058848 -0.026120 -451570.000000 0 0 1
29.247927 -25.233830 15.845682 41.752522 -0.711853 1.181525 0.064667 -0.025469 -258292.000000 0 0 1
29.656027 -26.477330 16.384582 42.999808 -0.728831 1.179877 0.068116 -0.023136 -4719.940000 0 0 1
30.376527 -26.307830 17.575982 43.860580 -0.713743 1.158490 0.084887 -0.010336 -98153.100000 0 0 1
30.646227 -27.658630 18.244882 45.133876 -0.734202 1.154649 0.077553 0.001174 -74925.000000 0 0 1
29.501327 -28.341530 18.705482 44.982949 -0.765350 1.141936 0.064986 -0.002657 40553.800000 0 0 1
29.832027 -29.193430 19.787882 46.192710 -0.774580 1.128101 0.077154 -0.005606 -7868.130000 0 0 1
28.605127 -29.967130 20.281082 46.125963 -0.808647 1.115544 0.058648 0.001361 -238632.000000 0 0 1
27.643527 -29.178730 21.020582 45.358878 -0.812409 1.088936 0.064423 0.000515 2458300.000000 0 0 1
26.326127 -29.802930 21.245582 45.084969 -0.847262 1.080107 0.083391 -0.003134 2219330.000000 0 0 1
25.428027 -30.218430 20.052182 44.292529 -0.871273 1.100981 0.092884 -0.009375 -783713.000000 0 0 1
25.850927 -31.435830 19.535482 45.145508 -0.882581 1.123286 0.071342 -0.003670 29974.100000 0 0 1
25.521627 -31.550930 18.155182 44.457005 -0.890651 1.150122 0.081096 -0.006483 -218363.000000 0 0 1
26.299027 -30.646030 17.169882 43.881919 -0.861587 1.168780 0.082053 -0.003749 -658272.000000 0 0 1
27.578827 -31.149030 16.939882 44.920078 -0.846116 1.184121 0.062457 -0.011033 -699981.000000 0 0 1
28.246427 -30.243130 16.128182 44.414253 -0.819523 1.199170 0.070939 -0.022497 -225165.000000 0 0 1
29.427827 -30.860730 15.334082 45.315734 -0.809161 1.225598 0.066512 -0.022131 -302246.000000 0 0 1
29.083927 -31.703530 14.208782 45.308698 -0.828466 1.251815 0.080771 -0.017528 119729.000000 0 0 1
28.653027 -32.943330 14.598082 46.036540 -0.854938 1.248129 0.049581 -0.021678 234742.000000 0 0 1
27.641627 -33.664230 13.618682 45.637796 -0.883323 1.267772 0.063255 -0.020177 107273.000000 0 0 1
28.246627 -33.946630 12.378082 45.863521 -0.876793 1.297518 0.076971 -0.021944 280533.000000 0 0 1
27.722127 33.025388 11.756382 44.692338 0.872477 1.304613 0.078347 -0.025631 -354858.000000 0 0 1
28.176227 32.818888 10.297682 44.463709 0.861367 1.337077 0.079892 -0.032551 82836.100000 0 0 1
29.489227 32.286788 10.362582 44.938116 0.830653 1.338105 0.074802 -0.032465 327271.000000 0 0 1
30.024427 31.715488 9.179482 44.627360 0.812781 1.363626 0.082873 -0.038887 565567.000000 0 0 1
31.544327 31.388788 9.347182 45.471644 0.782927 1.363760 0.079645 -0.037368 423810.000000 0 0 1
31.850327 30.348188 10.298682 45.183168 0.761252 1.340843 0.069074 -0.025106 -57774.000000 0 0 1
33.200727 29.982188 10.419582 45.932424 0.734502 1.341958 0.086994 -0.027145 -328735.000000 0 0 1
33.630527 28.971788 11.530682 45.862114 0.711117 1.316649 0.075494 -0.021616 -76947.100000 0 0 1
33.154227 27.650188 11.418382 44.655516 0.695124 1.312225 0.075175 -0.024363 119561.000000 0 0 1
33.442327 26.910288 12.535682 44.717963 0.677587 1.286661 0.079349 -0.026770 -86460.900000 0 0 1
33.118227 25.384488 12.381682 43.525800 0.653966 1.282345 0.080942 -0.033305 -58341.800000 0 0 1
34.145727 24.747588 11.653582 43.751340 0.627153 1.301182 0.082408 -0.030953 -92702.300000 0 0 1
34.258927 23.355388 11.847182 43.121966 0.598360 1.292481 0.095192 -0.032895 -446011.000000 0 0 1
33.178127 22.401388 11.290682 41.594348 0.593877 1.295900 0.093186 -0.035026 -1737.680000 0 0 1
31.907627 22.633388 11.851582 40.875750 0.616968 1.276630 0.106600 -0.040854 -394055.000000 0 0 1
30.884127 22.324188 10.950882 39.649975 0.625889 1.290970 0.100327 -0.032430 863739.000000 0 0 1
29.566327 21.737888 11.633082 38.497170 0.633978 1.263817 0.093243 -0.024302 1306230.000000 0 0 1
28.732627 22.690488 12.295582 38.621282 0.668436 1.246794 0.092480 -0.017050 400382.000000 0 0 1
27.534627 22.051288 12.728582 37.502424 0.675263 1.224510 0.099587 -0.008764 304976.000000 0 0 1
24.637927 9.218088 26.073268 37.038034 0.358018 0.789840 0.042630 0.002230 -205288.000000 0 0 1
24.302927 7.928388 26.609028 36.898943 0.315346 0.765361 0.034671 -0.004364 841059.000000 0 0 1
22.889227 7.689188 26.612108 35.933893 0.324086 0.736856 0.032133 -0.001023 621589.000000 0 0 1
22.458127 6.447188 27.432578 36.034429 0.279558 0.705499 0.053669 -0.005189 -141050.000000 0 0 1
22.720827 6.588488 28.848888 37.308210 0.282235 0.686832 0.057962 -0.003473 1798390.000000 0 0 1
24.097127 6.301088 29.265848 38.430003 0.255760 0.705116 0.053217 -0.005061 1427970.000000 0 0 1
24.144027 6.233888 30.792858 39.623169 0.252677 0.680684 0.066634 -0.015787 -351064.000000 0 0 1
24.261527 7.473388 31.443398 40.412381 0.298812 0.679219 0.062555 -0.014827 136734.000000 0 0 1
24.341427 7.337288 32.848735 41.537697 0.292770 0.658653 0.076256 -0.024139 -80207.700000 0 0 1
24.557427 8.731388 33.597394 42.521633 0.341610 0.659784 0.088415 -0.029366 425316.000000 0 0 1
25.911027 9.149188 33.511852 43.337434 0.339434 0.686803 0.067575 -0.032208 -36004.100000 0 0 1
26.224927 9.963688 -33.392148 43.612584 0.363088 2.442854 0.084445 -0.024093 909105.000000 0 0 1
27.368327 11.002088 -33.792098 44.855069 0.382230 2.423956 0.051666 -0.021467 711033.000000 0 0 1
26.943927 12.155888 33.511852 44.685401 0.423814 0.722809 0.035299 -0.020145 242877.000000 0 0 1
26.655227 13.227388 -33.634278 44.908013 0.460635 2.417287 0.038204 -0.012011 -415082.000000 0 0 1
26.174727 14.539888 33.792590 45.149351 0.507051 0.725056 0.037651 -0.003632 -790215.000000 0 0 1
27.194827 15.318788 33.231977 45.591537 0.512995 0.754073 0.021846 0.000441 -55763.700000 0 0 1
26.768627 16.661688 33.092742 45.708870 0.556752 0.761228 0.045390 -0.002557 -70866.300000 0 0 1
27.213427 17.689888 -33.809648 46.867847 0.576405 2.376593 0.032234 -0.002225 -154309.000000 0 0 1
26.742427 17.362588 -32.547738 45.562837 0.575850 2.366489 0.030152 -0.008102 658061.000000 0 0 1
27.781827 16.772588 -31.748748 45.399699 0.543154 2.345237 0.021390 -0.006319 382818.000000 0 0 1
27.130827 16.167488 -30.496468 43.903349 0.537406 2.338698 0.021143 -0.001680 19252.100000 0 0 1
26.401727 14.998988 -30.749298 43.215046 0.516638 2.362486 0.034556 0.007067 -252809.000000 0 0 1
25.676427 14.612588 -29.617148 41.832788 0.517393 2.357443 0.056918 -0.004610 86831.000000 0 0 1
24.831327 13.350288 -30.025078 41.186531 0.493303 2.387660 0.070397 -0.012693 488560.000000 0 0 1
23.688027 13.516388 -30.884048 41.202425 0.518521 2.418207 0.065042 -0.016700 948920.000000 0 0 1
23.046527 12.313788 -31.365758 40.823799 0.490711 2.447009 0.066098 -0.019655 359247.000000 0 0 1
22.245827 11.451588 -30.351178 39.334587 0.475397 2.452173 0.076485 -0.024064 -287135.000000 0 0 1
20.916927 11.909888 -30.211788 38.627910 0.517608 2.468862 0.094607 -0.027980 -110565.000000 0 0 1
20.302527 11.213088 -29.121778 37.229074 0.504607 2.469037 0.097365 -0.026828 462014.000000 0 0 1
19.071627 12.025888 -28.608378 36.425105 0.562591 2.474143 0.077046 -0.011055 317469.000000 0 0 1
18.028527 12.166188 -29.523298 36.669730 0.593633 2.506663 0.051854 0.001118 -57358.900000 0 0 1
16.901327 12.846588 -29.016588 35.953471 0.649930 2.509951 0.053422 -0.014134 352314.000000 0 0 1
15.781027 13.296988 -30.055348 36.457848 0.700178 2.539913 0.046742 -0.016636 190517.000000 0 0 1
15.046427 12.211688 -30.544888 36.173340 0.681775 2.576247 0.045968 -0.005698 -431704.000000 0 0 1
13.767527 12.314688 -29.946538 35.185103 0.729753 2.588900 0.056548 -0.013124 -4534.480000 0 0 1
12.669327 11.582388 -30.796288 35.257268 0.740609 2.633088 0.064468 -0.016054 327010.000000 0 0 1
12.499427 12.271888 -31.999628 36.480284 0.776213 2.640745 0.073117 -0.009570 866234.000000 0 0 1
11.426327 11.711788 -32.821388 36.673839 0.797735 2.679124 0.098509 -0.004305 970874.000000 0 0 1
10.927927 12.501588 33.986560 37.825859 0.852463 0.454454 0.119497 -0.014591 -191614.000000 0 0 1
11.798327 12.581688 32.901311 37.148293 0.817518 0.482851 0.086192 -0.003422 -58929.700000 0 0 1
11.113827 13.049788 31.755708 36.086551 0.865346 0.494961 0.106374 -0.019421 172266.000000 0 0 1
12.024127 13.035388 30.478498 35.262442 0.825731 0.526973 0.088198 -0.013055 126029.000000 0 0 1
12.339527 11.735988 30.082688 34.568273 0.760335 0.515107 0.082735 -0.010741 -31262.600000 0 0 1
12.572027 11.574088 28.717858 33.417522 0.744092 0.536769 0.079441 -0.007565 180504.000000 0 0 1
13.195627 10.188688 28.293328 32.839707 0.657512 0.532465 0.073652 -0.010495 99110.000000 0 0 1
12.279727 9.165288 28.580348 32.428853 0.641177 0.492138 0.109005 -0.017271 505852.000000 0 0 1
12.908227 7.955488 28.220218 32.035806 0.552327 0.493044 0.058125 -0.016777 -463764.000000 0 0 1
11.954127 6.786088 28.349488 31.506279 0.516314 0.451475 0.081694 -0.018721 -243475.000000 0 0 1
10.876827 6.880088 27.433008 30.301995 0.564007 0.438663 0.092994 -0.017198 166205.000000 0 0 1
9.895227 5.846688 27.494928 29.800510 0.533671 0.395944 0.074925 -0.024159 144818.000000 0 0 1
10.216627 4.356288 27.143058 29.327501 0.403049 0.388402 0.061841 -0.016837 -228395.000000 0 0 1
11.104727 3.738888 28.065228 30.413012 0.324772 0.395502 0.061432 -0.016114 367816.000000 0 0 1
11.222227 2.415888 27.610748 29.901979 0.212041 0.394015 0.040736 -0.008488 -218588.000000 0 0 1
11.835227 1.306188 28.457408 30.848060 0.109920 0.396282 0.031029 -0.012474 -178690.000000 0 0 1
10.967427 0.999688 29.512058 31.499927 0.090899 0.357162 0.041104 -0.016124 -126979.000000 0 0 1
11.130827 -0.246612 30.191288 32.178720 -0.022152 0.353295 0.036818 -0.021247 32903.100000 0 0 1
10.002327 -0.372112 31.220358 32.785603 -0.037185 0.310247 0.043173 -0.017429 -39749.400000 0 0 1
10.101527 0.651188 32.157383 33.712938 0.064375 0.304960 0.040842 -0.023128 341129.000000 0 0 1
8.845127 0.962688 32.755421 33.942314 0.108412 0.265231 0.059470 -0.022195 192629.000000 0 0 1
8.969227 2.221588 33.675739 34.920451 0.242803 0.267798 0.063326 -0.024251 -74135.700000 0 0 1
9.059827 3.492588 33.100098 34.494857 0.367947 0.285339 0.074325 -0.026229 219470.000000 0 0 1
10.163827 3.733388 32.245225 34.014646 0.352022 0.323965 0.052261 -0.021819 -242173.000000 0 0 1
10.245227 5.118588 31.610688 33.621425 0.463333 0.347595 0.065482 -0.021689 -14440.200000 0 0 1
10.437027 6.210488 32.506159 34.700895 0.536767 0.357562 0.053730 -0.018408 51729.500000 0 0 1
10.592027 7.341088 31.761328 34.276298 0.606064 0.385457 0.068052 -0.017558 -321215.000000 0 0 1
10.716027 8.582188 32.644005 35.413532 0.675274 0.398112 0.093310 -0.020512 249120.000000 0 0 1
9.494727 8.989588 33.240363 35.719523 0.758077 0.374765 0.121302 -0.028773 48190.000000 0 0 1
9.014627 8.161788 -33.759548 35.882940 0.735787 2.795851 0.107923 -0.027889 7264.410000 0 0 1
7.634127 8.720488 -33.293738 35.253366 0.851726 2.806601 0.124868 -0.037319 213719.000000 0 0 1
6.977227 7.906188 -32.335318 34.011209 0.847733 2.826363 0.123258 -0.028517 -487557.000000 0 0 1
5.876227 8.686888 -31.967638 33.644048 0.976053 2.824584 0.115052 -0.034621 158292.000000 0 0 1
4.935727 8.082488 -30.858638 32.279151 1.022569 2.843822 0.104784 -0.024885 456256.000000 0 0 1
5.586827 8.222188 -29.560468 31.187150 0.973974 2.817190 0.101237 -0.028957 703005.000000 0 0 1
4.907927 7.523888 -28.511618 29.893294 0.992797 2.836369 0.072323 -0.021968 1102690.000000 0 0 1
3.425227 7.909088 -28.113758 29.405259 1.162106 2.844116 0.078466 -0.018567 1003800.000000 0 0 1
2.510127 7.379888 -29.064908 30.092065 1.242941 2.879563 0.083931 -0.018533 917308.000000 0 0 1
1.144127 7.593988 -28.622218 29.634592 1.421259 2.879455 0.100328 -0.014876 490546.000000 0 0 1
0.075727 6.938888 -29.435818 30.242706 1.559883 2.910076 0.096072 -0.024164 -855812.000000 0 0 1
-0.250273 7.671988 -30.564658 31.513812 -1.538186 2.895539 0.112478 -0.022623 -5516.250000 0 0 1
-0.489473 6.821488 -31.649088 32.379578 -1.499165 2.928776 0.096848 -0.029443 -483992.000000 0 0 1
-0.656773 7.575988 -32.950328 33.816432 -1.484321 2.914780 0.107230 -0.040178 416113.000000 0 0 1
0.592327 8.155988 -33.335718 34.324060 1.498299 2.901036 0.103479 -0.027948 867582.000000 0 0 1
1.579727 7.270188 -33.928558 34.734683 1.356834 2.925730 0.112013 -0.037199 298877.000000 0 0 1
1.354827 6.764788 32.645167 33.366223 1.373135 0.208272 0.124324 -0.046610 -127414.000000 0 0 1
0.285027 5.828088 32.563966 33.082620 1.521929 0.177306 0.118171 -0.043962 -44789.100000 0 0 1
0.014727 5.446288 31.206788 31.678477 1.568092 0.172783 0.128719 -0.039455 227425.000000 0 0 1
1.015927 4.430088 30.567658 30.903714 1.345370 0.147608 0.123227 -0.036929 283462.000000 0 0 1
0.785327 4.284788 29.188268 29.511543 1.389526 0.148150 0.103044 -0.037562 442551.000000 0 0 1
1.740327 3.381788 28.602968 28.854723 1.095523 0.132194 0.075131 -0.023435 476565.000000 0 0 1
1.794027 3.585588 27.111698 27.406553 1.106874 0.146819 0.078519 -0.021754 147051.000000 0 0 1
2.272227 4.867388 26.744188 27.278308 1.134038 0.198215 0.086701 -0.030121 -4327.930000 0 0 1
2.286927 5.023788 25.368008 25.961593 1.143610 0.214250 0.069016 -0.023346 -354130.000000 0 0 1
2.564127 6.505088 24.986018 25.945944 1.195324 0.272865 0.069296 -0.017683 353953.000000 0 0 1
3.924227 6.929188 25.029508 26.265748 1.055500 0.308028 0.075864 -0.011795 168930.000000 0 0 1
4.489827 6.690688 23.732218 25.062762 0.979761 0.327307 0.057285 -0.014347 -576578.000000 0 0 1
6.020827 6.589088 23.743828 25.366037 0.830432 0.359571 0.067272 -0.015987 14295.900000 0 0 1
6.735527 5.545188 24.451308 25.961181 0.688772 0.342729 0.078479 -0.018483 373416.000000 0 0 1
6.471627 4.148288 24.248498 25.437766 0.570020 0.306988 0.073137 -0.020051 -636989.000000 0 0 1
6.487327 3.547288 22.832538 23.999864 0.500385 0.313172 0.062393 -0.019842 547926.000000 0 1 0
5.541827 4.090588 21.885538 22.943878 0.635861 0.304914 0.027975 -0.018221 447894.000000 0 1 0
4.256827 3.487688 21.906838 22.587477 0.686409 0.246114 0.019927 -0.027232 63971.300000 0 1 0
3.280227 4.085188 20.887838 21.534866 0.894255 0.245753 -0.012019 -0.023636 37001.200000 0 1 0
2.937927 5.430988 21.196238 22.077309 1.074923 0.283467 -0.011552 -0.020763 307299.000000 0 1 0
1.751127 5.897488 20.563738 21.464253 1.282161 0.290692 -0.005349 -0.015375 109605.000000 0 1 0
1.569127 7.386588 20.705638 22.039676 1.361479 0.349713 0.005932 -0.003725 103115.000000 0 1 0
2.465027 8.149488 19.927138 21.669826 1.277069 0.403786 0.003203 -0.006851 -109356.000000 0 1 0
2.200627 9.421188 20.382238 22.561852 1.341328 0.443177 0.019611 -0.005012 -286573.000000 0 1 0
3.174927 10.461588 19.904138 22.709023 1.276146 0.502283 0.034472 -0.012238 -1433530.000000 0 1 0
3.036127 10.776988 18.564738 21.679738 1.296190 0.542700 0.014319 -0.004470 438856.000000 0 1 0
4.009727 11.725288 18.059038 21.901807 1.241291 0.601398 0.018078 -0.004174 -13715.300000 0 1 0
5.446127 11.233188 18.077038 21.968708 1.119362 0.604381 0.028112 -0.012205 -1423550.000000 0 1 0
5.763127 10.385088 16.997038 20.735549 1.064166 0.609900 0.022035 -0.010649 -4540.770000 0 1 0
6.959427 9.664988 17.265938 20.975182 0.946730 0.603842 0.019915 -0.010637 109681.000000 0 1 0
6.813927 8.232188 17.943438 20.884576 0.879381 0.537147 0.024469 -0.006472 -327806.000000 0 1 0
6.461527 8.353988 19.314738 22.013622 0.912445 0.500382 0.039313 -0.002901 -318968.000000 0 1 0
6.428527 7.089588 19.946638 22.123666 0.834261 0.447348 0.036711 -0.012020 720369.000000 0 1 0
7.734027 6.230388 20.153838 22.467980 0.678135 0.457855 0.064659 -0.015378 449789.000000 0 1 0
8.482527 5.954588 18.996338 21.639576 0.612055 0.499438 0.046397 -0.012593 673610.000000 0 1 0
9.841127 5.578588 19.329038 22.395985 0.515699 0.529503 0.061331 -0.011596 1020610.000000 0 1 0
10.105927 4.029588 19.368838 22.215293 0.379415 0.511789 0.070881 -0.015775 -233223.000000 0 1 0
9.468327 3.396688 20.462738 22.801543 0.344442 0.456892 0.087747 -0.020090 247402.000000 0 1 0
9.630527 1.983088 20.287538 22.544709 0.203078 0.451301 0.075958 -0.028475 -112734.000000 0 1 0
8.810027 1.130288 21.261838 23.042567 0.127599 0.395718 0.068719 -0.025228 -218933.000000 0 1 0
9.322927 1.068888 22.588638 24.460296 0.114153 0.393737 0.077162 -0.019283 128925.000000 0 1 0
8.743227 -0.009812 23.307648 24.893585 -0.001122 0.358878 0.069272 -0.018968 -463805.000000 0 1 0
9.154527 0.027188 24.796618 26.432525 0.002970 0.353664 0.068256 -0.010935 -285133.000000 0 0 1
10.489427 -0.287712 25.094808 27.200373 -0.027422 0.396054 0.070271 -0.013756 -209210.000000 0 0 1
10.677527 -1.685712 25.015098 27.250805 -0.156582 0.407894 0.066669 -0.012701 95172.100000 0 0 1
12.066627 -2.262712 25.446328 28.253123 -0.185366 0.449521 0.063898 -0.010102 476839.000000 0 0 1
12.206727 -3.606512 25.211758 28.242590 -0.287280 0.467526 0.062215 -0.003175 -449391.000000 0 0 1
13.497527 -4.100812 25.362768 29.021887 -0.294957 0.507590 0.065782 -0.003012 -577383.000000 0 0 1
13.415727 -5.681912 25.465828 29.338955 -0.400622 0.519662 0.065040 -0.004400 -61228.000000 0 0 1
13.075227 -6.319812 24.240408 28.257724 -0.450233 0.539758 0.063806 -0.002907 284944.000000 0 0 1
12.864827 -7.698112 24.347838 28.593390 -0.539231 0.551919 0.067804 -0.011151 56380.700000 0 0 1
12.958827 -8.532812 22.969638 27.719025 -0.582296 0.594087 0.079072 -0.012065 31504.700000 0 0 1
12.312727 -9.758512 23.093588 27.931087 -0.670185 0.597391 0.075844 -0.006105 -347925.000000 0 0 1
12.446927 -10.508112 21.941338 27.327070 -0.701137 0.638625 0.076589 -0.011156 111595.000000 0 0 1
11.722727 -11.853612 21.972638 27.581285 -0.790950 0.649063 0.090861 -0.013750 1642260.000000 0 0 1
10.268427 -11.879412 21.930038 26.971978 -0.858008 0.621394 0.084389 -0.016011 1220670.000000 0 0 1
9.721027 -13.106612 22.328538 27.655836 -0.932636 0.631112 0.080661 -0.016615 414552.000000 0 0 1
8.214227 -13.067512 22.692938 27.444541 -1.009613 0.597286 0.043336 -0.009572 763578.000000 0 0 1
7.301027 -12.783912 21.617838 26.154624 -1.051890 0.597864 0.033670 -0.018905 -897097.000000 0 0 1
6.023227 -12.578212 22.059038 26.097737 -1.124202 0.563769 0.012291 -0.014159 -842298.000000 0 0 1
5.329427 -11.382912 21.337838 24.764427 -1.132915 0.532319 0.005567 -0.008373 207453.000000 0 1 0
5.758627 -10.093612 21.819538 24.721146 -1.052334 0.489376 0.005382 -0.002147 -121890.000000 0 1 0
5.062327 -9.069112 21.147538 23.560440 -1.061684 0.456532 0.000195 0.000473 -32904.300000 0 1 0
5.459427 -7.681612 21.640038 23.603046 -0.952916 0.410723 0.005034 -0.009716 -99652.400000 0 1 0
4.714927 -6.628112 21.117638 22.630003 -0.952491 0.367663 -0.006051 -0.005624 -22725.900000 0 1 0
5.342827 -5.384612 21.497738 22.796767 -0.789293 0.339213 0.015868 -0.014278 87225.800000 0 1 0
-8.505973 -14.864012 -20.352718 26.599315 1.051029 2.442085 0.054898 -0.004569 306409.000000 0 0 1
-7.867973 -14.267012 -19.172718 25.160400 1.066817 2.437223 0.051606 -0.009632 1729.310000 0 0 1
-7.094273 -13.181712 -19.558118 24.629377 1.077065 2.488317 0.047126 -0.021517 -54070.800000 0 1 0
-6.086473 -12.778612 -18.424218 23.233379 1.126287 2.486524 0.038904 -0.019517 563144.000000 0 1 0
-5.136773 -13.817212 -18.139318 23.373845 1.214864 2.459178 0.049252 -0.006870 196435.000000 0 1 0
-4.480173 -13.514112 -16.924018 22.116183 1.250680 2.442198 0.050191 -0.012607 -99303.900000 0 1 0
-3.501473 -14.540612 -16.419818 22.210361 1.334489 2.402806 0.044045 0.000728 601411.000000 0 1 0
-2.399673 -14.902812 -17.286218 22.949195 1.411145 2.423768 0.033954 0.006687 596060.000000 0 1 0
-1.402273 -15.662612 -16.622418 22.882058 1.481504 2.383922 0.043529 0.012128 378696.000000 0 1 0
-0.178473 -15.891112 -17.577718 23.696740 1.559566 2.406514 0.042196 0.019731 391809.000000 0 1 0
-0.396973 -16.838712 -18.687418 25.157890 1.547226 2.408047 0.073529 -0.002547 -124160.000000 0 0 1
-0.803773 -18.205612 -18.415518 25.907946 1.526675 2.361439 0.061802 0.010175 -206408.000000 0 0 1
-1.181973 -18.810412 -19.737118 27.290703 1.508043 2.379246 0.083123 -0.001543 -336827.000000 0 0 1
-2.496673 -18.374812 -19.962418 27.246380 1.435749 2.393023 0.094333 -0.012447 -393245.000000 0 0 1
-2.887773 -18.452412 -21.325218 28.347763 1.415557 2.422300 0.077451 -0.021553 153466.000000 0 0 1
-3.967173 -17.470512 -21.799918 28.216904 1.347505 2.453697 0.076663 -0.024367 155244.000000 0 0 1
-3.446073 -16.128912 -21.907418 27.421747 1.360303 2.496272 0.080973 -0.018806 52207.800000 0 0 1
-3.362073 -15.346112 -20.711818 25.995886 1.355121 2.492669 0.066430 -0.011268 432105.000000 0 0 1
-2.289973 -14.183812 -20.678018 25.179455 1.410728 2.534352 0.075651 -0.014754 193316.000000 0 0 1
-2.494073 -13.111012 -21.517518 25.320399 1.382815 2.586420 0.077633 -0.034064 127968.000000 0 0 1
-1.582673 -12.021912 -21.342018 24.546139 1.439900 2.624915 0.058501 -0.019693 292278.000000 0 1 0
-1.597073 -11.030212 -22.556318 25.159565 1.427005 2.682671 0.069808 -0.023914 -563997.000000 0 0 1
-2.692073 -10.188412 -22.515518 24.859597 1.312471 2.703842 0.067491 -0.027268 -416302.000000 0 1 0
-2.792773 -9.381012 -23.655718 25.600703 1.281447 2.749277 0.077927 -0.030725 -110142.000000 0 0 1
-3.945573 -8.358812 -23.707718 25.445887 1.129778 2.769838 0.079326 -0.033673 518156.000000 0 0 1
-5.268273 -8.913812 -23.668018 25.833812 1.037003 2.729200 0.074141 -0.030805 710040.000000 0 0 1
-6.188873 -7.866012 -23.671618 25.700619 0.904164 2.741571 0.082849 -0.034529 -1511930.000000 0 0 1
-7.632773 -8.254512 -23.394118 25.955365 0.824513 2.693606 0.062368 -0.036768 -137296.000000 0 0 1
-8.385873 -8.745312 -24.539418 27.367616 0.806377 2.682961 0.068019 -0.029434 540324.000000 0 0 1
-8.796073 -7.732312 -25.423658 27.991462 0.721127 2.709914 0.064132 -0.029528 -616620.000000 0 0 1
-9.553873 -8.283212 -26.643268 29.491555 0.714281 2.698477 0.061772 -0.024647 297069.000000 0 0 1
-10.240973 -7.255512 -27.379568 30.119109 0.616394 2.711778 0.063180 -0.027313 -117376.000000 0 0 1
-11.084373 -7.725812 -28.359158 31.413267 0.608710 2.696978 0.070852 -0.025655 -535330.000000 0 0 1
-11.793373 -6.569812 -29.116288 32.093680 0.508260 2.707443 0.061247 -0.028684 -255916.000000 0 0 1
-11.019273 -5.816012 -30.020518 32.503567 0.485642 2.748182 0.049034 -0.010697 -229992.000000 0 0 1
-11.771073 -5.125312 -31.004328 33.557344 0.410660 2.749001 0.058254 -0.016615 -460590.000000 0 0 1
-10.937473 -4.107612 -31.729178 33.811855 0.359256 2.788778 0.039172 -0.016505 -165602.000000 0 0 1
-9.923773 -4.677512 -32.535458 34.335352 0.440461 2.816368 0.041998 -0.015713 -41020.500000 0 0 1
-9.464173 -3.729612 -33.462228 34.974295 0.375390 2.846470 0.040308 -0.017513 -291917.000000 0 0 1
-8.364173 -4.321112 33.661754 34.953471 0.476856 0.272709 0.040743 -0.008379 943147.000000 0 0 1
-7.081873 -4.364312 -33.732638 34.743215 0.552293 2.899811 0.038386 -0.009697 1014320.000000 0 0 1
-5.953573 -4.622412 33.480646 34.318587 0.660190 0.221434 0.036579 -0.012240 636392.000000 0 0 1
-4.583173 -4.105212 33.958634 34.511550 0.730442 0.179244 0.046042 -0.013415 141600.000000 0 0 1
-4.509173 -2.693512 -34.002248 34.405530 0.538462 2.988332 0.066893 -0.019705 643975.000000 0 0 1
-3.131473 -2.287412 -34.010472 34.230843 0.630877 3.028061 0.059151 -0.024839 687116.000000 0 0 1
-2.824073 -0.840712 -33.731968 33.860417 0.289341 3.054462 0.072746 -0.027262 -119076.000000 0 0 1
-3.111773 -0.554412 -32.357058 32.511071 0.176316 3.044217 0.072261 -0.029551 35632.900000 0 0 1
-3.467173 0.762488 -32.119398 32.314987 -0.216471 3.031514 0.084622 -0.028575 -581488.000000 0 0 1
-3.995873 0.941488 -30.692528 30.965863 -0.231395 3.008627 0.106285 -0.045090 491832.000000 0 0 1
-5.138873 0.157488 -30.372518 30.804589 -0.030637 2.973908 0.079434 -0.041910 188310.000000 0 0 1
-6.371473 0.835088 -30.531448 31.200358 -0.130324 2.934150 0.084971 -0.043886 1019340.000000 0 0 1
-7.639073 -0.131112 -30.587868 31.527612 0.017162 2.896822 0.065070 -0.041601 938775.000000 0 0 1
-7.821273 -0.766612 -29.291218 30.327141 0.097704 2.879469 0.063033 -0.031427 497059.000000 0 0 1
-8.957873 -1.647512 -29.347868 30.728735 0.181885 2.840668 0.048740 -0.013764 653844.000000 0 0 1
-9.178573 -2.445512 -28.049248 29.613967 0.260388 2.815068 0.052129 -0.014973 -364315.000000 0 0 1
-9.911773 -1.751512 -27.094598 28.903776 0.174905 2.785904 0.056469 -0.016058 -89737.500000 0 0 1
-9.921773 -2.450012 -25.909568 27.852286 0.242090 2.765888 0.048661 -0.024717 332598.000000 0 0 1
-10.892873 -1.850812 -24.835018 27.181948 0.168303 2.722992 0.084635 -0.028095 427657.000000 0 0 1
-10.393773 -0.608812 -24.385418 26.515086 0.058508 2.738063 0.073979 -0.026273 560934.000000 0 0 1
-11.403873 0.145688 -23.691818 26.293950 -0.012775 2.692950 0.096381 -0.037486 426335.000000 0 0 1
-10.809073 1.316888 -22.902818 25.359600 -0.121234 2.697783 0.100621 -0.037674 48649.700000 0 0 1
-10.454873 2.351088 -23.795618 26.097192 -0.221200 2.718461 0.086855 -0.037366 -53758.200000 0 0 1
-9.907373 3.366788 -22.981818 25.251837 -0.327583 2.714333 0.081140 -0.039318 -453850.000000 0 0 1
-9.698773 4.752288 -23.706818 26.051174 -0.455606 2.714104 0.103462 -0.047978 -697243.000000 0 0 1
-10.854873 5.401888 -24.097318 26.975719 -0.461763 2.675423 0.115630 -0.037025 -654890.000000 0 0 1
-11.544673 4.843388 -25.175698 28.116786 -0.397232 2.680119 0.101315 -0.038835 50020.200000 0 0 1
-13.071473 5.038788 -25.363358 28.975036 -0.367927 2.636960 0.103839 -0.016608 449785.000000 0 0 1
-13.411373 6.359588 -25.776168 29.744245 -0.442790 2.619131 0.092271 -0.016390 45270.600000 0 0 1
-14.810273 6.527188 -25.878108 30.522530 -0.415110 2.582688 0.095913 -0.022475 156448.000000 0 0 1
-15.197373 7.962288 -26.335458 31.431108 -0.482604 2.564182 0.106722 -0.010623 -245638.000000 0 0 1
-14.807773 8.911788 -25.367838 30.695559 -0.541765 2.543540 0.143092 -0.016351 245194.000000 0 0 1
-15.226373 10.244788 -25.637878 31.529334 -0.592259 2.520329 0.117755 -0.014821 -12791.000000 0 0 1
-14.802773 11.206288 -24.497818 30.738348 -0.647991 2.493073 0.127750 -0.012938 -37014.200000 0 0 1
-15.553273 11.066988 -23.307218 30.126549 -0.618438 2.455368 0.150423 -0.013154 182609.000000 0 0 1
-15.044873 11.802988 -22.173718 29.280241 -0.665230 2.429954 0.149882 -0.018809 -220793.000000 0 0 1
-15.979073 11.632788 -20.995118 28.834832 -0.629273 2.386367 0.151671 -0.022925 399904.000000 0 0 1
-17.190673 12.402788 -21.111118 29.917013 -0.624999 2.354145 0.127838 -0.022002 580031.000000 0 0 1
-17.665873 12.805988 -19.835918 29.487964 -0.627243 2.308619 0.120062 -0.016775 -438940.000000 0 0 1
-19.151673 13.151388 -19.950718 30.623140 -0.601742 2.280345 0.086310 -0.018797 -470543.000000 0 0 1
-19.459573 14.358088 -20.648118 31.798969 -0.635674 2.277503 0.075731 -0.009026 -423708.000000 0 0 1
-20.816373 14.464988 -20.939718 32.879006 -0.607285 2.261231 0.034108 -0.011371 -478660.000000 0 0 1
-21.271073 15.783788 -21.667418 34.220805 -0.638381 2.256432 0.038895 -0.013721 -132699.000000 0 0 1
-21.145573 15.778588 -23.063618 35.043253 -0.641057 2.289151 0.049481 -0.017419 124229.000000 0 0 1
-21.551273 16.914488 -23.785318 36.280830 -0.665434 2.285759 0.040719 -0.011802 -184870.000000 0 0 1
-21.383473 16.723288 -25.317258 37.119871 -0.663710 2.321346 0.030437 -0.006897 -588505.000000 0 0 1
-20.127173 16.930788 -25.862648 36.886735 -0.699357 2.347787 0.030861 -0.024391 -648781.000000 0 0 1
-20.072073 16.534588 -27.219308 37.645338 -0.689062 2.378998 0.019444 -0.033625 196953.000000 0 0 1
-18.961473 17.290888 -28.043268 38.012329 -0.739349 2.400515 0.004336 -0.019419 336054.000000 0 0 1
-19.254073 18.636488 -28.330678 38.995709 -0.769100 2.384022 -0.011052 -0.032495 232746.000000 0 0 1
-19.063573 19.597488 -27.297958 38.634956 -0.799207 2.355423 -0.011921 -0.036954 -855824.000000 0 0 1
-19.806773 20.958488 -27.578718 39.901781 -0.813643 2.333896 0.032719 -0.026209 1550390.000000 0 0 1
-21.035673 21.144488 -26.814898 40.107701 -0.787978 2.303084 0.050463 -0.009148 472227.000000 0 0 1
-22.157573 20.437488 -27.186208 40.592350 -0.745038 2.304651 0.083649 -0.033298 -1762660.000000 0 0 1
-23.203973 20.643288 -26.129948 40.587484 -0.727064 2.270242 0.085852 -0.010547 -754570.000000 0 0 1
-22.941273 19.910688 -24.927718 39.295402 -0.714794 2.257986 0.046521 0.008385 189202.000000 0 0 1
-23.869173 20.236688 -23.902518 39.377548 -0.703225 2.223088 0.044749 -0.006282 48048.900000 0 0 1
-23.286073 19.832088 -22.507218 37.975357 -0.705464 2.205178 0.041362 0.012479 -259169.000000 0 0 1
-22.284273 20.654888 -22.031818 37.531510 -0.747470 2.198172 0.049786 0.008087 -425333.000000 0 0 1
-21.596873 20.237388 -20.837618 36.196452 -0.752913 2.184233 0.050793 0.005540 -76032.400000 0 0 1
-22.400873 19.993988 -19.563018 35.836718 -0.728686 2.148251 0.064817 -0.003255 -1052340.000000 0 0 1
-23.087373 18.751088 -19.613918 35.627740 -0.682123 2.153788 0.078675 -0.004038 377525.000000 0 0 1
-23.798673 18.368188 -18.423818 35.259101 -0.657318 2.120608 0.076284 -0.007323 628631.000000 0 0 1
-24.937773 19.324488 -17.930918 36.288375 -0.659253 2.087622 0.053682 -0.020052 -655228.000000 0 0 1
-26.040843 19.362188 -18.791518 37.498546 -0.639348 2.095696 0.057085 -0.018188 -212486.000000 0 0 1
-26.981753 20.315088 -18.365318 38.444801 -0.645367 2.068838 0.042973 -0.022249 -634110.000000 0 0 1
-28.392293 20.197188 -18.991218 39.682680 -0.618311 2.069830 0.020492 -0.010870 399757.000000 0 0 1
-29.274433 19.219088 -18.442518 39.578937 -0.580941 2.055525 0.035629 -0.013859 296330.000000 0 0 1
-29.717273 19.311388 -17.110718 39.355085 -0.576261 2.020588 0.017068 -0.009954 -804488.000000 0 0 1
-30.726113 18.232688 -16.749418 39.459700 -0.535548 2.009172 0.006307 -0.005210 83655.300000 0 0 1
-30.072863 16.957288 -16.795118 38.392743 -0.513432 2.023563 0.034722 -0.012643 408134.000000 0 0 1
-31.015523 15.993988 -16.383818 38.551262 -0.476110 2.009745 0.015936 -0.007826 218526.000000 0 0 1
-30.398333 14.615788 -15.993018 37.329031 -0.448177 2.013555 0.066945 -0.004408 58088.200000 0 0 1
-29.558673 14.666988 -14.840218 36.181041 -0.460602 1.993432 0.061015 -0.003820 664068.000000 0 0 1
-30.292853 14.931788 -13.600718 36.408718 -0.457963 1.953637 0.020610 0.002765 579190.000000 0 0 1
-29.338613 15.497588 -12.523018 35.464848 -0.485977 1.931690 0.040172 -0.006836 143636.000000 0 0 1
-29.069963 16.893888 -12.650618 35.923590 -0.526441 1.930667 0.039213 0.003315 -264730.000000 0 0 1
-30.094253 17.799688 -12.337118 37.076912 -0.534120 1.910008 0.011954 0.003375 -593496.000000 0 0 1
-29.678783 19.259288 -12.409718 37.493352 -0.575619 1.908143 0.055374 -0.005202 -5274.880000 0 0 1
-28.791543 19.677788 -11.380518 36.683572 -0.599537 1.886236 0.005952 -0.015635 182611.000000 0 0 1
-28.142003 20.913688 -11.691318 36.960000 -0.639102 1.892648 -0.005677 -0.020869 19488.200000 0 0 1
-27.139013 21.457188 -10.676418 36.206668 -0.669007 1.870120 0.023255 -0.011902 71102.200000 0 0 1
-27.731213 22.364888 -9.759418 36.938525 -0.678684 1.838178 0.009772 -0.007854 146060.000000 0 0 1
-27.208943 23.692988 -9.819818 37.391350 -0.716435 1.836536 0.028931 -0.008437 49814.700000 0 0 1
-27.668843 24.510488 -8.578118 37.946185 -0.724943 1.798827 0.050389 0.008919 -68654.200000 0 0 1
-27.099223 24.261088 -7.329418 37.103755 -0.730195 1.769643 0.040005 0.005471 -233334.000000 0 0 1
-27.673273 24.972588 -6.272818 37.799318 -0.734144 1.737518 0.064978 -0.005860 -50061.100000 0 0 1
-27.540183 24.175288 -4.937918 36.976875 -0.720424 1.704737 0.069569 -0.005836 8548.030000 0 0 1
-28.141533 22.915488 -5.060618 36.642534 -0.683396 1.709347 0.062197 -0.005445 -38582.700000 0 0 1
-27.793053 22.064088 -3.987918 35.709680 -0.670992 1.682706 0.066807 -0.012038 50142.600000 0 0 1
-27.896053 20.565188 -4.337818 34.927545 -0.635264 1.695313 0.068710 -0.009893 -157947.000000 0 0 1
-26.958413 20.025288 -5.237318 33.988199 -0.638891 1.725505 0.038491 -0.010648 -141046.000000 0 0 1
-26.943233 20.378188 -6.570718 34.414861 -0.647545 1.762903 0.026133 -0.003309 -543631.000000 0 0 1
-27.900703 19.598588 -7.530618 34.917962 -0.612362 1.788170 0.032258 -0.005002 201290.000000 0 0 1
-27.381663 18.315188 -7.897518 33.875837 -0.589537 1.806093 0.037203 -0.008724 765858.000000 0 0 1
-28.260203 17.664688 -8.832818 34.477514 -0.558652 1.829876 0.038958 -0.007539 294732.000000 0 0 1
-27.817813 16.207788 -9.085018 33.452364 -0.527557 1.845831 0.065198 -0.010793 1573.590000 0 0 1
-28.153743 15.296288 -8.049618 33.036435 -0.497695 1.816933 0.062602 -0.005528 17260.100000 0 0 1
-27.993493 13.913588 -8.443918 32.380910 -0.461268 1.834614 0.077955 -0.013903 -14042.100000 0 0 1
-28.624513 12.890388 -7.485718 32.273221 -0.423126 1.804876 0.085124 -0.017228 114504.000000 0 0 1
-30.044853 12.919988 -7.412818 33.534596 -0.406118 1.793687 0.085044 -0.006259 219343.000000 0 0 1
-30.597763 11.982088 -6.500818 33.497077 -0.373244 1.766107 0.091393 -0.012542 199173.000000 0 0 1
-31.253143 10.752888 -7.172918 33.820619 -0.331371 1.784507 0.096645 -0.010398 116671.000000 0 0 1
-30.263373 9.969088 -7.780018 32.799133 -0.318216 1.810281 0.114571 -0.010298 258502.000000 0 0 1
-30.933233 8.866188 -8.370718 33.249708 -0.279140 1.825288 0.114588 -0.005810 696545.000000 0 0 1
-29.933703 7.743288 -8.845218 32.159337 -0.253132 1.849431 0.143890 -0.009624 352436.000000 0 0 1
-29.227053 8.028588 -10.034318 31.927518 -0.268085 1.890499 0.134603 -0.024214 244489.000000 0 0 1
-28.339923 6.970788 -10.346818 30.964492 -0.241183 1.911501 0.150504 -0.031423 -222615.000000 0 0 1
-27.601973 7.058388 -11.700218 30.799105 -0.250355 1.960472 0.121442 -0.027521 -466563.000000 0 0 1
-26.567853 8.009388 -11.690718 30.111028 -0.292804 1.969532 0.141369 -0.035048 -204898.000000 0 0 1
-25.812803 7.797088 -12.819118 29.856744 -0.293348 2.014574 0.115355 -0.027809 -570855.000000 0 0 1
-33.246073 25.743388 -33.547318 53.790761 -0.658891 2.244217 0.058205 -0.004753 -63543.300000 0 0 1
-33.660113 27.074988 -33.825448 54.865464 -0.677396 2.235107 0.054651 -0.011479 323574.000000 0 0 1
-33.126583 27.555288 32.965696 54.253124 -0.693843 0.917726 0.038677 -0.017886 37217.900000 0 0 1
-33.565503 29.016788 32.742916 55.142683 -0.712842 0.935041 0.048427 -0.020112 85264.200000 0 0 1
-33.222563 29.474988 31.453938 54.423008 -0.725697 0.954578 0.068413 -0.017871 166731.000000 0 0 1
-33.589603 30.867788 31.374478 55.366413 -0.743197 0.968338 0.075474 -0.022304 88609.800000 0 0 1
-33.356893 31.368888 29.957328 54.718653 -0.754694 0.991447 0.083892 -0.026720 246877.000000 0 0 1
-31.987983 31.326488 29.596148 53.670400 -0.774951 0.986704 0.086919 -0.026382 256054.000000 0 0 1
-31.770933 31.890088 28.270768 53.156432 -0.787270 1.010023 0.089004 -0.028802 400580.000000 0 0 1
-30.263583 31.816288 27.890138 52.019424 -0.810404 1.004929 0.100288 -0.032291 64441.500000 0 0 1
-29.945133 30.545988 27.314258 50.752705 -0.795331 1.002516 0.124306 -0.038039 288211.000000 0 0 1
-28.791023 30.516088 26.487988 49.616208 -0.814477 1.007640 0.101558 -0.030060 -86826.200000 0 0 1
-28.906293 31.183288 25.099468 49.375647 -0.823273 1.037544 0.108070 -0.027489 -322020.000000 0 0 1
-28.862493 32.595288 25.190518 50.299687 -0.846061 1.046264 0.100018 -0.033968 -93316.800000 0 0 1
-29.869583 33.180788 24.410188 50.882354 -0.837867 1.070440 0.102279 -0.031804 -375627.000000 0 0 1
-30.008333 -33.458730 24.758538 51.312493 0.839710 1.067284 0.103352 -0.026272 -34653.400000 0 0 1
-30.493053 -33.328430 26.096228 52.169183 0.829796 1.046940 0.101226 -0.035181 232390.000000 0 0 1
-30.596843 -32.001230 26.489478 51.593973 0.807829 1.031629 0.073891 -0.029674 -293211.000000 0 0 1
-31.009753 -32.016830 27.993318 52.633716 0.801375 1.010011 0.081805 -0.034248 6132.260000 0 0 1
-32.382433 -32.347930 28.098928 53.708103 0.784865 1.020220 0.075951 -0.038495 111453.000000 0 0 1
-32.693573 -32.576530 29.515408 54.783751 0.783605 1.001829 0.063140 -0.032339 -60271.500000 0 0 1
-34.088993 -33.159230 29.771368 56.106402 0.771573 1.011460 0.072686 -0.034427 -65395.800000 0 0 1
-34.313037 -33.386030 31.098798 57.088937 0.771706 0.994714 0.059605 -0.029110 516436.000000 0 0 1
-35.709649 -33.592230 31.342638 58.189157 0.754854 1.001982 0.053715 -0.034552 482924.000000 0 0 1
-36.011313 -33.833830 32.882115 59.352980 0.754232 0.983624 0.059102 -0.022460 -329536.000000 0 0 1
-35.779856 32.971888 33.232495 58.921492 -0.744579 0.971559 0.030929 -0.017673 249728.000000 0 0 1
-36.536413 32.635288 -33.624918 59.418908 -0.729060 2.172316 0.032285 -0.013535 290645.000000 0 0 1
-36.441383 31.188488 -33.151498 58.307101 -0.707883 2.175559 0.028265 -0.014979 730332.000000 0 0 1
-35.203555 31.036388 -32.451558 57.058315 -0.722571 2.175774 0.030779 -0.012387 235861.000000 0 0 1
-34.936719 29.685888 -32.077478 55.953471 -0.704323 2.181310 0.035758 -0.010699 775848.000000 0 0 1
-33.744653 29.564388 -31.038148 54.553838 -0.719464 2.176019 0.033322 -0.005978 666328.000000 0 0 1
-34.012613 29.823588 -29.685598 54.106737 -0.719871 2.151544 0.045920 -0.016013 -309009.000000 0 0 1
-34.220007 31.166988 -29.261968 54.759956 -0.738741 2.134556 0.026891 -0.006420 271186.000000 0 0 1
-35.374320 31.365888 -28.248528 55.073957 -0.725410 2.109379 0.016549 -0.006447 326880.000000 0 0 1
-35.028436 30.962588 -26.952058 53.963753 -0.723864 2.093757 0.014349 -0.019567 683373.000000 0 0 1
-36.261473 30.737088 -26.237368 54.296063 -0.703129 2.075134 0.054745 -0.025246 730404.000000 0 0 1
-36.132283 30.422388 -24.732818 53.317688 -0.699815 2.053162 0.057105 -0.028610 60941.200000 0 0 1
-35.649032 31.566088 -23.952718 53.301070 -0.724728 2.036873 0.050388 -0.024320 167552.000000 0 0 1
-35.316991 31.285388 -22.625118 52.325532 -0.724940 2.017940 0.048429 -0.027934 1711400.000000 0 0 1
-36.626943 30.946288 -21.681218 52.623957 -0.701529 1.995447 0.042576 -0.028600 2495260.000000 0 0 1
36.366079 31.976888 -21.486018 52.977939 0.721263 1.988394 0.050580 -0.029116 144527.000000 0 0 1
36.826749 33.179688 -20.921618 53.803488 0.733349 1.970182 0.053533 -0.035469 -535832.000000 0 0 1
-36.906553 33.212088 -19.400818 53.305986 -0.732758 1.943304 0.052944 -0.033934 120638.000000 0 0 1
-35.855010 32.354588 -19.018618 51.904806 -0.734125 1.945948 0.055995 -0.039035 -173349.000000 0 0 1
-35.628554 32.361488 -17.641018 51.262708 -0.737383 1.922108 0.062762 -0.029481 396220.000000 0 0 1
-34.507843 31.330088 -17.283518 49.710015 -0.737169 1.925899 0.065301 -0.031738 389756.000000 0 0 1
-34.327070 31.014588 -15.918618 48.924991 -0.734747 1.902197 0.061443 -0.025057 -144225.000000 0 0 1
-33.147423 30.244488 -15.767318 47.561424 -0.739637 1.908705 0.059437 -0.024882 152084.000000 0 0 1
-32.751773 30.116588 -14.278118 46.728494 -0.743507 1.881317 0.071652 -0.027373 -2012.430000 0 0 1
-33.751343 29.356888 -13.624918 46.761292 -0.715877 1.866457 0.055785 -0.022258 -9785.520000 0 0 1
-33.313763 28.938888 -12.374218 45.829983 -0.715237 1.844192 0.065354 -0.019066 33113.700000 0 0 1
-34.370801 28.207788 -11.525718 45.933359 -0.687230 1.824430 0.065616 -0.018792 302944.000000 0 0 1
-33.722763 27.627688 -10.372618 44.811885 -0.686375 1.804385 0.077987 -0.014764 563060.000000 0 0 1
-34.602644 26.803588 -9.619918 44.814262 -0.659067 1.787142 0.086730 -0.021427 36255.300000 0 0 1
-33.851743 26.114188 -8.508118 43.592194 -0.657075 1.767232 0.091949 -0.013343 -56659.000000 0 0 1
-33.422703 27.026088 -7.527318 43.636533 -0.679972 1.744164 0.084776 -0.018790 -647387.000000 0 0 1
-32.160333 26.775188 -7.040818 42.435490 -0.694278 1.737485 0.087975 -0.025971 -936871.000000 0 0 1
-32.110993 27.237688 -5.566418 42.473433 -0.703469 1.702231 0.083164 -0.032941 217294.000000 0 0 1
-30.876513 26.906088 -4.940418 41.251719 -0.716793 1.690847 0.092235 -0.020665 661875.000000 0 0 1
-30.979273 27.416188 -3.583118 41.523505 -0.724457 1.657195 0.086081 -0.018274 181404.000000 0 0 1
-30.078103 26.596188 -2.639118 40.236978 -0.724038 1.636433 0.084129 -0.018164 372748.000000 0 0 1
-30.742523 25.366988 -2.348218 39.926193 -0.689885 1.629644 0.082366 -0.017027 576087.000000 0 0 1
-29.861433 24.505388 -1.620018 38.663208 -0.687198 1.612709 0.091712 -0.024081 416312.000000 0 0 1
-30.550873 23.232988 -1.053618 38.395803 -0.650168 1.598241 0.105283 -0.034505 84878.900000 0 0 1
-30.798403 22.252988 -2.082018 38.053540 -0.625692 1.625537 0.092319 -0.022780 -492895.000000 0 0 1
-31.557743 21.254988 -1.563018 38.080292 -0.592737 1.611853 0.081853 -0.020697 -599167.000000 0 0 1
-32.112113 20.314688 -2.674818 38.092374 -0.564058 1.641073 0.111717 -0.014964 -73170.300000 0 0 1
-31.195633 19.375488 -3.191818 36.861426 -0.555787 1.657495 0.087011 -0.015667 241893.000000 0 0 1
-31.791453 18.656988 -4.248718 37.105677 -0.530698 1.685551 0.091990 -0.006532 -223246.000000 0 0 1
-30.708733 17.925488 -5.038318 35.912867 -0.528367 1.711554 0.076568 -0.003013 -180274.000000 0 0 1
-30.254423 16.868288 -4.234318 34.896972 -0.508620 1.692434 0.096997 -0.016443 -94643.600000 0 0 1
-29.508873 15.896488 -4.922718 33.877796 -0.494128 1.716621 0.079563 -0.013835 -183418.000000 0 0 1
-29.407173 14.652888 -3.951218 33.092311 -0.462267 1.690482 0.077985 -0.015385 -160725.000000 0 0 1
-30.599023 13.949688 -3.732918 33.835317 -0.427739 1.681347 0.097075 -0.017575 61660.500000 0 0 1
-30.264303 12.687288 -3.104518 32.962605 -0.396962 1.665119 0.090133 -0.021928 862.428000 0 0 1
-31.463323 11.970988 -2.450418 33.752774 -0.363561 1.643459 0.107891 -0.023897 -573061.000000 0 0 1
-32.395413 11.493588 -3.374718 34.539167 -0.340936 1.668659 0.102008 -0.009337 -3365.990000 0 0 1
-33.199463 10.559588 -2.635218 34.937853 -0.307947 1.646294 0.108834 -0.006871 -222819.000000 0 0 1
-34.341338 9.972488 -3.477418 35.928685 -0.282620 1.667735 0.089210 -0.005045 -96756.600000 0 0 1
-33.831973 9.192688 -4.573818 35.355731 -0.265311 1.700526 0.086194 -0.014589 154961.000000 0 0 1
-34.848199 8.493988 -5.256718 36.251591 -0.239081 1.716316 0.095011 -0.010250 -212682.000000 0 0 1
-34.433453 7.537688 -6.399418 35.825019 -0.215507 1.750390 0.107073 -0.013718 -282068.000000 0 0 1
-33.736313 6.375888 -6.026518 34.858423 -0.186789 1.744555 0.104861 -0.011928 351690.000000 0 0 1
-33.327203 5.630088 -7.194918 34.556724 -0.167354 1.780537 0.108234 -0.012826 70302.000000 0 0 1
-32.229213 4.566388 -6.880718 33.270382 -0.140748 1.779112 0.123752 -0.017870 -15886.600000 0 0 1
-31.019193 5.139788 -6.457318 32.098360 -0.164205 1.773351 0.132110 -0.019492 -433268.000000 0 0 1
-30.086483 4.142488 -6.241118 31.004971 -0.136826 1.773475 0.122232 -0.020442 365323.000000 0 0 1
-28.573673 4.522188 -6.058918 29.556986 -0.156962 1.777251 0.150557 -0.017796 1136560.000000 0 0 1
-27.865823 4.911588 -7.243118 29.207714 -0.174467 1.821398 0.148923 -0.019372 -425574.000000 0 0 1
-26.491233 4.775788 -7.098018 27.838380 -0.178362 1.828615 0.162231 -0.024201 -427927.000000 0 0 1
-25.582433 5.196188 -8.272318 27.384165 -0.200389 1.877674 0.152882 -0.027321 -42619.600000 0 0 1
-25.668363 4.353888 -9.372918 27.670793 -0.168022 1.916363 0.148179 -0.038523 -362.242000 0 0 1
-24.786773 4.740988 -10.395518 27.293367 -0.188988 1.961545 0.137434 -0.038975 -350818.000000 0 0 1
-24.962373 4.009088 -11.729618 27.870715 -0.159245 2.005187 0.114104 -0.040136 -590632.000000 0 0 1
-25.988033 4.575588 -12.475818 29.188352 -0.174279 2.012438 0.135319 -0.030869 -211757.000000 0 0 1
-26.548353 3.659888 -13.387818 29.957361 -0.136994 2.034089 0.124151 -0.027222 197932.000000 0 0 1
-27.587413 4.287088 -14.336418 31.384349 -0.154167 2.045193 0.109808 -0.020659 -320356.000000 0 0 1
-26.838823 5.160988 -15.146818 31.247149 -0.189977 2.076865 0.090244 -0.021289 599111.000000 0 0 1
-27.536053 6.093288 -15.992118 32.420830 -0.217775 2.086638 0.115337 -0.027601 -166504.000000 0 0 1
-28.406013 5.608088 -17.170418 33.662672 -0.194919 2.106066 0.081994 -0.013528 -535223.000000 0 0 1
-29.585363 5.026088 -16.707318 34.346612 -0.168278 2.078799 0.095240 -0.019654 -737250.000000 0 0 1
-30.340303 4.647988 -17.827518 35.495889 -0.152013 2.096986 0.101305 -0.004246 14128.600000 0 0 1
-31.777813 4.178588 -17.477618 36.506946 -0.130744 2.070024 0.102028 -0.014143 157548.000000 0 0 1
-31.849873 3.042688 -16.692518 36.087567 -0.095243 2.051672 0.105759 -0.026416 141861.000000 0 0 1
-31.659543 1.779288 -17.319818 36.131269 -0.056142 2.070720 0.129142 -0.028045 -70845.100000 0 0 1
-31.806603 0.664288 -16.301218 35.746762 -0.020882 2.044314 0.122165 -0.026419 -121325.000000 0 0 1
-31.622663 -0.637112 -16.892718 35.857533 0.020145 2.061341 0.122316 -0.018785 301450.000000 0 0 1
-31.559863 -1.602312 -15.889218 35.370321 0.050727 2.036694 0.133718 -0.030185 -76828.300000 0 0 1
-31.320173 -2.990712 -16.476718 35.515909 0.095200 2.053217 0.119755 -0.017846 -376053.000000 0 0 1
-32.379213 -3.398112 -17.275418 36.856487 0.104565 2.058639 0.117797 -0.018597 -108509.000000 0 0 1
-31.979773 -4.489512 -18.064718 37.002643 0.139474 2.080823 0.111197 -0.019463 -136533.000000 0 0 1
-33.002013 -4.786712 -19.145918 38.452720 0.144039 2.091981 0.118021 -0.011732 -498292.000000 0 0 1
-32.623403 -5.891312 -19.941718 38.686769 0.178660 2.112348 0.113478 -0.011895 440065.000000 0 0 1
-33.568503 -6.149212 -20.978018 40.059137 0.181175 2.121957 0.107099 -0.013531 89067.900000 0 0 1
-33.118663 -7.384212 -21.757318 40.308229 0.219374 2.140964 0.108073 -0.020696 -783277.000000 0 0 1
-31.941763 -7.257312 -22.456118 39.714255 0.223412 2.171766 0.103149 -0.017767 -939462.000000 0 0 1
-31.812423 -8.234212 -23.462118 40.377017 0.253278 2.190847 0.087575 -0.009779 276417.000000 0 0 1
-30.543543 -8.102612 -24.371518 39.906531 0.259308 2.227760 0.070959 -0.002790 -119416.000000 0 0 1
-30.511263 -6.835512 -25.032768 40.053725 0.220393 2.245902 0.074064 -0.004748 75312.800000 0 0 1
-30.579353 -7.048512 -26.452588 41.042877 0.226542 2.271180 0.065274 -0.007245 -1264370.000000 0 0 1
-31.933603 -7.227712 -27.048748 42.469160 0.222585 2.261271 0.077965 -0.005647 -1238380.000000 0 0 1
-32.662543 -8.332912 -26.585758 42.931127 0.249793 2.238603 0.059939 -0.009816 -442018.000000 0 0 1
-33.997093 -8.323212 -27.043548 44.231569 0.240099 2.228635 0.060657 -0.011058 659135.000000 0 0 1
-34.790612 -9.572312 -26.459278 44.744935 0.268497 2.203511 0.053128 -0.015236 -81437.900000 0 0 1
-34.220147 -10.742612 -26.997578 44.891997 0.304184 2.216036 0.047985 -0.007286 269046.000000 0 0 1
-35.095109 -11.871412 -26.947438 45.812242 0.326182 2.199646 0.037669 -0.009450 -422702.000000 0 0 1
-36.283233 -11.861212 -27.878858 47.269356 0.315955 2.201592 0.021190 -0.006632 -697005.000000 0 0 1
36.649549 -11.019412 -27.388708 47.061218 -0.292071 2.191958 0.022449 -0.013633 702839.000000 0 0 1
35.677129 -10.835012 -28.456378 46.904376 -0.294844 2.222685 0.025858 -0.019500 479137.000000 0 0 1
34.662429 -9.689112 -28.300258 45.785014 -0.272571 2.237135 0.034914 -0.017054 336687.000000 0 0 1
33.583719 -10.027612 -27.438798 44.511873 -0.290159 2.235007 0.029204 -0.013894 383243.000000 0 0 1
32.600629 -9.032512 -27.230948 43.427087 -0.270286 2.248557 0.023403 -0.012785 124453.000000 0 0 1
31.437029 -9.340512 -26.284858 42.028868 -0.288811 2.246441 0.032409 -0.007732 -321965.000000 0 0 1
31.765179 -9.468512 -24.941418 41.481968 -0.289693 2.215872 0.019134 0.001668 695475.000000 0 0 1
30.663899 -9.864712 -24.082718 40.218958 -0.311248 2.212786 0.007568 0.005497 575834.000000 0 0 1
31.131199 -9.789812 -22.644918 39.721333 -0.304678 2.177417 0.003189 0.002606 151958.000000 0 0 1
31.978089 -10.860012 -22.261318 40.448787 -0.327387 2.153589 -0.002857 -0.000657 314839.000000 0 0 1
32.198869 -10.953712 -20.862418 39.899768 -0.327908 2.121012 0.007405 -0.003087 -18392.500000 0 0 1
33.015819 -12.186412 -20.375618 40.665941 -0.353595 2.095606 0.022971 -0.010965 1509660.000000 0 0 1
34.432009 -12.121812 -20.715418 41.971778 -0.338501 2.086970 0.028879 -0.011271 1481460.000000 0 0 1
35.207029 -12.917712 -19.819118 42.416974 -0.351657 2.056968 0.051399 -0.013650 -250076.000000 0 0 1
36.612419 -13.078112 -20.391618 43.901302 -0.343078 2.053852 0.053683 -0.023916 -860165.000000 0 0 1
-36.373423 -12.045612 -20.345318 43.382653 0.319798 2.058925 0.072305 -0.022899 626403.000000 0 0 1
-36.563953 -10.941412 -21.257718 43.686700 0.290760 2.078984 0.085749 -0.019778 -732193.000000 0 0 1
-36.077698 -11.086512 -22.718618 44.052771 0.298136 2.112637 0.063584 -0.019245 142301.000000 0 0 1
-36.675213 -12.105212 -23.575918 45.248550 0.318806 2.118855 0.053898 -0.013479 448755.000000 0 0 1
35.918359 -11.936412 -23.842718 44.733451 -0.320839 2.132933 0.059607 -0.011634 -43010.500000 0 0 1
35.310289 -13.086012 -24.677118 45.022443 -0.354908 2.150896 0.036402 -0.018923 -338086.000000 0 0 1
35.399759 -14.433912 -24.164918 45.226365 -0.387161 2.134488 0.035286 -0.024086 247659.000000 0 0 1
34.461169 -14.798812 -23.176418 44.087678 -0.405621 2.124321 0.017417 -0.026199 -227893.000000 0 0 1
-30.274563 8.867088 -19.133518 36.895337 -0.284920 2.115996 0.070259 -0.000893 409691.000000 0 0 1
-29.229773 7.905888 -19.206918 35.857892 -0.264153 2.136062 0.075824 -0.005742 184018.000000 0 0 1
-28.454143 8.053088 -20.403818 35.927792 -0.275807 2.174763 0.070974 -0.022209 211645.000000 0 0 1
-27.259723 7.068788 -20.382218 34.763416 -0.253724 2.197295 0.075303 -0.026154 -567298.000000 0 0 1
-26.179843 7.399288 -19.592718 33.526232 -0.275449 2.194936 0.081768 -0.028237 -141967.000000 0 0 1
-25.160203 6.400088 -19.616718 32.539400 -0.249091 2.217878 0.096979 -0.035098 407188.000000 0 0 1
-23.785573 6.772588 -19.035218 31.208347 -0.277394 2.226781 0.081976 -0.030918 -123599.000000 0 0 1
-23.162273 7.725288 -19.805318 31.439173 -0.321927 2.252294 0.088392 -0.031885 -755018.000000 0 0 1
-21.822073 7.961988 -19.490518 30.322869 -0.349851 2.268900 0.083980 -0.026194 -295998.000000 0 0 1
-21.170373 9.135188 -20.245318 30.684023 -0.407370 2.291349 0.081300 -0.015272 -240118.000000 0 0 1
-20.894573 8.803788 -21.581318 31.302446 -0.398769 2.331519 0.106965 -0.029789 145169.000000 0 0 1
-20.411173 9.933288 -22.291718 31.815199 -0.452918 2.347122 0.079954 -0.022450 371379.000000 0 0 1
-19.301573 9.485088 -23.318118 31.721479 -0.456756 2.396595 0.121574 -0.012641 377611.000000 0 0 1
-19.771073 8.604188 -24.337718 32.515410 -0.410471 2.416590 0.119405 -0.011949 369519.000000 0 0 1
-18.729473 8.113988 -25.169848 32.406037 -0.408813 2.460210 0.098128 -0.007131 -48136.000000 0 0 1
-19.336573 7.079088 -26.102938 33.247254 -0.350944 2.473679 0.070702 -0.003313 99518.700000 0 0 1
-19.754473 5.885288 -25.397258 32.709273 -0.289549 2.459816 0.096419 -0.005646 64098.700000 0 0 1
-20.386373 5.022688 -26.275158 33.633548 -0.241564 2.467412 0.087104 -0.014459 -842634.000000 0 0 1
-20.675973 3.652688 -25.715588 33.198335 -0.174859 2.456886 0.087145 -0.004753 2719.270000 0 0 1
-19.629173 2.755788 -25.396228 32.215946 -0.139481 2.478858 0.083981 -0.003172 729551.000000 0 0 1
-18.590473 3.200388 -24.499018 30.920059 -0.170481 2.485422 0.092812 -0.011825 236969.000000 0 0 1
-17.731173 2.034488 -23.909818 29.836438 -0.114241 2.500367 0.092379 -0.011063 -162346.000000 0 0 1
-18.245773 1.240088 -22.875518 29.287120 -0.067861 2.467186 0.101754 -0.010356 612614.000000 0 0 1
-19.514073 0.600588 -23.110218 30.252966 -0.030767 2.440130 0.083917 -0.006490 613902.000000 0 0 1
-19.962673 -0.186912 -21.857918 29.602565 0.009363 2.401460 0.106817 -0.012934 -261976.000000 0 0 1
-19.219673 -1.362612 -21.699918 29.019631 0.070778 2.415489 0.124534 -0.018311 101594.000000 0 0 1
-19.533473 -2.008312 -20.461018 28.359181 0.102454 2.376756 0.118618 -0.017306 -224581.000000 0 0 1
-18.818673 -3.320612 -20.201118 27.807447 0.174655 2.383959 0.114873 -0.036999 -175537.000000 0 0 1
-19.149473 -4.277012 -21.178518 28.870829 0.219742 2.394343 0.112536 -0.042970 312139.000000 0 0 1
-18.936873 -5.574712 -20.657818 28.573204 0.286297 2.378900 0.117932 -0.036807 -265093.000000 0 0 1
-19.176573 -6.673712 -21.768318 29.768088 0.334904 2.390969 0.089120 -0.042877 -472581.000000 0 0 1
-18.008273 -6.899312 -22.506618 29.638594 0.365870 2.433139 0.101033 -0.039608 -178899.000000 0 0 1
-18.049773 -7.808712 -23.579118 30.704154 0.408308 2.446424 0.108735 -0.037873 525180.000000 0 0 1
-16.639173 -7.867212 -24.243818 30.438755 0.441662 2.492245 0.096796 -0.039216 82379.000000 0 0 1
-16.735173 -8.623812 -25.403948 31.619562 0.475821 2.503822 0.083871 -0.048515 946616.000000 0 0 1
-15.510273 -8.727912 -26.169198 31.647621 0.512555 2.544357 0.077827 -0.047084 1304540.000000 0 0 1
-14.270473 -9.496212 -25.600038 30.808869 0.587156 2.551575 0.075508 -0.042179 165204.000000 0 0 1
-13.551373 -8.820412 -24.564118 29.408082 0.576998 2.559447 0.072707 -0.036364 785894.000000 0 0 1
-12.465273 -9.652712 -24.112218 28.808973 0.658915 2.562517 0.065014 -0.029498 782740.000000 0 0 1
-11.546773 -8.991512 -23.012318 27.271634 0.661620 2.575157 0.066000 -0.034210 63998.900000 0 0 1
-12.151673 -8.812012 -21.766718 26.440589 0.627419 2.537876 0.061928 -0.034068 -54608.800000 0 0 1
-11.306873 -8.065712 -20.929018 25.118218 0.619627 2.555703 0.064640 -0.029981 -1068190.000000 0 0 1
-11.934873 -7.855912 -19.579518 24.238690 0.582140 2.511172 0.072751 -0.024242 334718.000000 0 1 0
-12.931973 -6.804412 -19.554318 24.411213 0.484364 2.499824 0.085223 -0.018110 604106.000000 0 1 0
-14.202473 -7.325812 -19.881118 25.507580 0.476217 2.464536 0.116888 -0.031754 -80975.900000 0 0 1
-15.426973 -6.362812 -19.642218 25.773894 0.391190 2.437343 0.123555 -0.023564 405304.000000 0 0 1
-15.823873 -6.052412 -18.355318 24.978878 0.365318 2.396218 0.113269 -0.021654 228971.000000 0 1 0
-15.246873 -4.863312 -17.903618 24.013714 0.308769 2.412168 0.121643 -0.025066 -341812.000000 0 1 0
-15.392873 -4.763712 -16.424818 23.008871 0.300127 2.365773 0.124994 -0.010352 227090.000000 0 1 0
-16.632473 -4.196712 -16.018518 23.470076 0.247161 2.321985 0.141893 -0.014026 329583.000000 0 1 0
-16.620773 -2.766712 -15.880918 23.154014 0.164949 2.326611 0.081366 -0.022444 -267179.000000 0 1 0
-17.839273 -2.202912 -15.149918 23.507711 0.122865 2.271121 0.071553 -0.019424 -161415.000000 0 1 0
-17.794573 -2.565012 -13.795218 22.661292 0.143160 2.225289 0.096049 -0.020311 299269.000000 0 1 0
-18.910873 -1.997512 -13.161918 23.126765 0.105237 2.176232 0.101064 -0.025322 -343127.000000 0 1 0
-18.604473 -0.797212 -12.189018 22.256103 0.042824 2.150374 0.101225 -0.027143 -305967.000000 0 1 0
-18.255773 0.272988 -12.978418 22.400605 -0.014952 2.188762 0.127433 -0.033675 551942.000000 0 1 0
-17.172973 0.998788 -12.432418 21.224363 -0.058095 2.196616 0.111013 -0.025140 -504712.000000 0 1 0
-16.617373 2.108988 -13.389718 21.444567 -0.126240 2.245143 0.120089 -0.024769 552831.000000 0 1 0
-15.725373 1.637688 -14.415718 21.395848 -0.103769 2.310085 0.103609 -0.028870 929921.000000 0 1 0
-14.393973 1.320188 -14.013018 20.131916 -0.091462 2.340691 0.092683 -0.024007 -322796.000000 0 1 0
-13.737073 0.482788 -15.106818 20.424402 -0.035130 2.403340 0.082355 -0.026761 -219895.000000 0 1 0
-13.311873 1.144788 -16.284118 21.063927 -0.085786 2.454480 0.094338 -0.032496 261310.000000 0 1 0
-12.997373 0.201488 -17.266918 21.612930 -0.015501 2.496287 0.076271 -0.026315 -33304.300000 0 1 0
-12.443073 0.843588 -18.569018 22.368508 -0.067692 2.550157 0.090259 -0.028375 -459355.000000 0 1 0
-11.090173 1.169588 -18.465118 21.571288 -0.105073 2.598287 0.060737 -0.020864 -692315.000000 0 1 0
-10.782773 2.076388 -19.502218 22.381155 -0.190237 2.628780 0.070934 -0.019580 -965582.000000 0 1 0
-9.391673 2.607788 -19.353518 21.669396 -0.270847 2.675046 0.046081 -0.016590 -1311180.000000 0 1 0
-8.392073 1.676888 -19.821118 21.589710 -0.197221 2.734010 0.039348 -0.011713 59338.400000 0 1 0
-7.087573 2.063888 -19.462618 20.815543 -0.283362 2.779067 0.031615 -0.009105 33245.100000 0 1 0
-6.495073 3.195788 -20.316218 21.567284 -0.457253 2.799314 0.033475 -0.008539 -1115500.000000 0 1 0
-6.027073 2.784388 -21.564918 22.563779 -0.432772 2.842933 0.028126 -0.012701 88198.700000 0 1 0
-5.876173 3.856688 -22.433018 23.508376 -0.580810 2.837959 0.033690 -0.006492 -433132.000000 0 1 0
-5.261673 3.353488 -23.776218 24.581286 -0.567426 2.884954 0.050725 -0.020398 -129249.000000 0 1 0
-3.991973 2.762788 -23.673418 24.166083 -0.605395 2.939324 0.051995 -0.027062 -310672.000000 0 1 0
-3.515573 2.354588 -24.949818 25.306062 -0.590141 2.973601 0.072265 -0.028401 265933.000000 0 0 1
-2.064273 1.814888 -24.944818 25.095796 -0.721198 3.031846 0.052508 -0.021924 -441088.000000 0 0 1
-1.089573 2.795288 -24.688318 24.869939 -1.199123 3.020665 0.040744 -0.022304 637777.000000 0 1 0
0.251527 2.295688 -24.827218 24.934398 1.461667 3.048840 0.038566 -0.014639 932988.000000 0 1 0
0.831027 1.470288 -23.630318 23.690595 1.056348 3.070243 0.040656 -0.016020 -824845.000000 0 1 0
0.404227 0.140588 -23.695818 23.699683 0.334709 3.123533 0.038745 -0.019998 175316.000000 0 1 0
0.999427 -0.579512 -22.619318 22.648802 -0.525467 3.090562 0.034279 -0.019297 -563585.000000 0 1 0
0.772427 -2.074512 -22.719918 22.827504 -1.214358 3.044467 0.040484 -0.026511 377055.000000 0 1 0
-0.394573 -2.700512 -22.170418 22.337768 1.425713 3.019109 0.040957 -0.028206 989609.000000 0 1 0
-1.621773 -2.695812 -22.921218 23.136114 1.029209 3.005191 0.049500 -0.030548 569764.000000 0 1 0
-2.478773 -1.463012 -22.743018 22.924432 0.533195 3.015704 0.048704 -0.035998 -1691550.000000 0 1 0
-3.039873 -1.262112 -21.445518 21.696636 0.393529 2.989301 0.039852 -0.039053 379049.000000 0 1 0
-3.903273 -0.130712 -21.294818 21.649986 0.033475 2.960209 0.032477 -0.040131 -44686.400000 0 1 0
-5.205073 -0.094512 -22.073118 22.678718 0.018156 2.909976 0.030321 -0.029417 -767324.000000 0 1 0
-6.155073 -1.093112 -21.707318 22.589544 0.175763 2.861195 0.031417 -0.017371 340987.000000 0 1 0
-7.457273 -0.830812 -22.218318 23.451116 0.110952 2.815906 0.037266 -0.013341 120928.000000 0 1 0
-8.431173 -1.865912 -21.692118 23.347683 0.217801 2.762743 0.034252 -0.015131 -569282.000000 0 1 0
-8.416273 -3.090312 -22.342318 24.074112 0.351900 2.759977 0.048295 -0.025234 -319440.000000 0 1 0
-9.234773 -4.020512 -21.720518 23.942148 0.410618 2.707396 0.052696 -0.034437 -714824.000000 0 1 0
-9.958473 -4.913012 -22.711418 25.280771 0.458313 2.686835 0.055246 -0.034695 -182144.000000 0 0 1
-11.301073 -4.511212 -22.862518 25.899035 0.379803 2.652492 0.064247 -0.035130 136842.000000 0 0 1
-12.048273 -5.442612 -23.698018 27.136303 0.424295 2.632723 0.058070 -0.033301 2070400.000000 0 0 1
-13.616973 -5.501912 -23.374218 27.605200 0.383991 2.580609 0.100708 -0.033051 1454800.000000 0 0 1
-14.241773 -4.293012 -23.605118 27.900890 0.292776 2.579299 0.086203 -0.030360 -693753.000000 0 0 1
-15.633073 -4.389012 -23.710118 28.737190 0.273706 2.541118 0.095605 -0.031314 3071.110000 0 0 1
-16.308573 -2.980712 -23.712718 28.933496 0.180774 2.531438 0.094286 -0.028064 -327046.000000 0 0 1
-16.059273 -2.449912 -25.014518 29.826640 0.151387 2.565621 0.082684 -0.026883 -35292.200000 0 0 1
-16.719173 -1.296412 -25.453418 30.480944 0.077386 2.559038 0.080317 -0.019994 910714.000000 0 0 1
-18.220173 -1.444312 -25.940828 31.733063 0.079105 2.527801 0.083918 -0.023191 879296.000000 0 0 1
-18.261973 -1.946312 -27.252198 32.862898 0.106177 2.548596 0.084222 -0.036180 -66711.700000 0 0 1
-17.961073 -0.995912 -28.272648 33.510217 0.055392 2.574940 0.074799 -0.031974 -370709.000000 0 0 1
-18.176573 -1.497012 -29.702498 34.854946 0.082174 2.590923 0.065909 -0.033004 723621.000000 0 0 1
-19.522773 -1.903812 -29.955788 35.806597 0.097210 2.561843 0.068172 -0.036950 635121.000000 0 0 1
-19.436873 -2.571812 -31.234668 36.878323 0.131552 2.581048 0.076839 -0.049567 48554.300000 0 0 1
-20.776173 -3.209512 -31.679788 38.020512 0.153269 2.555718 0.055440 -0.039998 257270.000000 0 0 1
-21.803973 -2.327412 -32.083938 38.861410 0.106340 2.542059 0.056165 -0.036410 862797.000000 0 0 1
-22.819773 -2.059612 -31.080828 38.613494 0.090012 2.506339 0.049375 -0.023019 491312.000000 0 0 1
-23.858273 -1.125812 -31.743478 39.725723 0.047153 2.496537 0.048615 -0.022218 -215438.000000 0 0 1
-23.317273 0.147688 -31.956368 39.559152 -0.006334 2.511227 0.049547 -0.028117 598400.000000 0 0 1
-24.351773 0.944888 -32.516108 40.634947 -0.038782 2.498426 0.048131 -0.030687 130860.000000 0 0 1
-23.887373 2.179488 -33.294138 41.034819 -0.090988 2.517277 0.053262 -0.030834 -541912.000000 0 0 1
-23.254073 3.163088 -32.482298 40.073142 -0.135193 2.515930 0.036021 -0.027255 958186.000000 0 0 1
-24.095773 3.916288 -31.535978 39.880590 -0.161121 2.482846 0.038857 -0.023349 300781.000000 0 0 1
-25.157623 4.845988 -32.184258 41.136554 -0.190294 2.469268 0.042304 -0.028569 249024.000000 0 0 1
-26.353423 4.215788 -32.641458 42.163261 -0.158627 2.456196 0.062552 -0.034191 29707.100000 0 0 1
-26.924043 4.997788 -33.606338 43.350524 -0.183536 2.457865 0.071519 -0.038925 -222054.000000 0 0 1
-28.255593 4.366588 33.926266 44.367073 -0.153326 0.700264 0.085409 -0.035270 64133.400000 0 0 1
-28.095593 2.982488 33.581217 43.885712 -0.105759 0.699449 0.092226 -0.033893 184471.000000 0 0 1
-29.109223 2.585288 32.690536 43.848623 -0.088581 0.729464 0.097640 -0.031109 -102968.000000 0 0 1
-29.364203 1.068488 32.709465 43.969389 -0.036371 0.731887 0.088846 -0.018097 -169924.000000 0 0 1
-29.773473 0.481388 33.932631 45.145486 -0.016167 0.720269 0.084658 -0.012137 323046.000000 0 0 1
-30.117123 -0.877112 33.645765 45.164676 0.029115 0.730325 0.071831 -0.008078 -492766.000000 0 0 1
-29.867483 -1.750612 -33.104948 44.621394 0.058546 2.406707 0.044847 -0.004910 455342.000000 0 0 1
-28.524173 -1.978612 -32.680068 43.422692 0.069255 2.422803 0.066574 -0.016719 1213050.000000 0 0 1
-27.753333 -0.866912 -32.137418 42.471316 0.031226 2.429024 0.075428 -0.019351 -100305.000000 0 0 1
-27.888193 -0.615612 -30.639248 41.435417 0.022071 2.403043 0.102746 -0.019134 -621244.000000 0 0 1
-27.119043 -1.450912 -29.845088 40.351913 0.053451 2.403302 0.086164 -0.023915 13577.400000 0 0 1
-27.011173 -0.818212 -28.559668 39.318285 0.030282 2.383824 0.100319 -0.028126 -594125.000000 0 0 1
-25.913433 -1.384612 -27.689018 37.948714 0.053381 2.388596 0.097498 -0.028968 -682123.000000 0 0 1
-26.069603 -2.742212 -27.266798 37.823567 0.104803 2.375888 0.085721 -0.021891 207122.000000 0 0 1
-25.087173 -3.135212 -26.306228 36.485798 0.124328 2.376039 0.084247 -0.021647 151869.000000 0 0 1
-25.322483 -4.471812 -25.621738 36.300120 0.174792 2.354391 0.070954 -0.022088 149802.000000 0 0 1
-26.410433 -4.444612 -24.689218 36.425582 0.166728 2.315561 0.089476 -0.015683 303289.000000 0 0 1
-26.576363 -5.626712 -23.889218 36.175374 0.208638 2.292111 0.072782 -0.012811 -1023280.000000 0 0 1
-27.889333 -5.567012 -23.187718 36.694370 0.197021 2.254818 0.089270 -0.016259 -1097680.000000 0 0 1
-27.965803 -6.566512 -22.182618 36.294266 0.230627 2.228357 0.077430 -0.017781 -160833.000000 0 0 1
-29.127813 -6.436512 -21.400318 36.712829 0.217480 2.193103 0.090929 -0.019854 -511219.000000 0 0 1
-29.309973 -7.571412 -20.371118 36.488125 0.252796 2.163125 0.092489 -0.018519 -574498.000000 0 0 1
-28.477533 -7.542812 -19.254418 35.193700 0.258923 2.149690 0.080146 -0.022594 -208454.000000 0 0 1
-28.809683 -8.454512 -18.260318 35.141369 0.285447 2.117208 0.095634 -0.022171 238051.000000 0 0 1
-29.730393 -7.979712 -17.068118 35.197908 0.262222 2.077066 0.095696 -0.027069 460297.000000 0 0 1
-29.017453 -7.197812 -16.117618 33.964668 0.243144 2.065239 0.095123 -0.037582 409319.000000 0 0 1
-29.867863 -6.420212 -15.307618 34.170624 0.211732 2.035296 0.099173 -0.032463 215250.000000 0 0 1
-29.031283 -5.518612 -14.309118 32.833235 0.187851 2.021737 0.105585 -0.034188 534370.000000 0 0 1
-28.293143 -4.554712 -15.045118 32.366694 0.159613 2.054243 0.102285 -0.024472 511812.000000 0 0 1
-27.250653 -3.945712 -14.290318 31.022249 0.143794 2.049521 0.110180 -0.030917 287029.000000 0 0 1
-14.560673 21.137888 -4.837018 26.119346 -0.967598 1.757061 0.077067 -0.015094 47850.700000 0 0 1
-14.672073 20.497388 -6.099918 25.934950 -0.949543 1.808221 0.101963 -0.017015 -187622.000000 0 0 1
-15.342473 19.287788 -6.119918 25.394165 -0.898836 1.814189 0.094828 -0.028766 -475402.000000 0 0 1
-15.550973 18.752488 -7.529918 25.498789 -0.878458 1.870571 0.110256 -0.030934 -277194.000000 0 0 1
-14.416573 18.410588 -8.311018 24.816534 -0.906471 1.912294 0.107029 -0.026231 -17420.300000 0 1 0
-14.579573 17.431888 -9.277218 24.545905 -0.874266 1.958381 0.091325 -0.028099 -443983.000000 0 1 0
-14.799173 15.964588 -8.808018 23.483287 -0.823263 1.955275 0.083511 -0.033495 -315932.000000 0 1 0
-16.142573 15.883988 -8.415318 24.159911 -0.777324 1.926572 0.080981 -0.024631 -212404.000000 0 1 0
-16.438273 14.910788 -7.434018 23.405406 -0.736712 1.894014 0.081680 -0.018344 -83399.700000 0 1 0
-17.897173 15.012888 -6.938118 24.368691 -0.697980 1.859505 0.104464 -0.018422 -9361.850000 0 1 0
-18.828473 14.523588 -7.880518 25.050919 -0.657034 1.890810 0.086046 -0.022417 507860.000000 0 0 1
-20.130573 15.040688 -7.563318 26.242447 -0.641679 1.863153 0.088309 -0.020013 329685.000000 0 0 1
-21.248473 14.507788 -8.442118 27.078458 -0.599067 1.887846 0.079474 -0.010708 -432810.000000 0 0 1
-21.552573 13.165788 -8.092318 26.520501 -0.548373 1.880876 0.105729 -0.017535 167500.000000 0 0 1
-22.452373 12.632488 -9.061518 27.309337 -0.512492 1.909018 0.105950 -0.015219 166558.000000 0 0 1
-22.926573 11.245288 -8.629118 26.954516 -0.456012 1.896670 0.125507 -0.022850 619004.000000 0 0 1
-21.876573 10.261988 -8.520418 25.622068 -0.438612 1.909794 0.124664 -0.027084 809225.000000 0 0 1
-22.350373 9.318388 -7.598918 25.379422 -0.395010 1.874873 0.147830 -0.029926 394103.000000 0 0 1
-21.173773 8.385588 -7.186418 23.880774 -0.377085 1.876463 0.121696 -0.013650 139132.000000 0 1 0
-20.955573 7.323088 -8.105318 23.631755 -0.336192 1.920888 0.109232 -0.014242 1002440.000000 0 1 0
-19.827873 6.539288 -7.651518 22.236289 -0.318570 1.922077 0.076060 -0.005795 615617.000000 0 1 0
-19.532773 5.319288 -8.603918 21.996623 -0.265879 1.972674 0.061163 -0.015830 -74618.600000 0 1 0
-20.595273 4.386488 -8.560718 22.730870 -0.209850 1.956933 0.084422 -0.019168 569108.000000 0 1 0
-20.323073 3.408588 -9.531818 22.704654 -0.166173 2.004041 0.076903 -0.016502 -75075.600000 0 1 0
-21.312773 2.237588 -9.554218 23.463251 -0.104605 1.990182 0.078268 -0.018131 109545.000000 0 1 0
-20.906173 1.342088 -8.503318 22.609195 -0.064108 1.956380 0.077189 -0.022796 805524.000000 0 1 0
-21.932073 0.386388 -8.170318 23.407674 -0.017616 1.927348 0.094554 -0.018547 315047.000000 0 1 0
-21.937073 -0.926912 -8.875818 23.682789 0.042228 1.954955 0.086854 -0.030061 92519.100000 0 1 0
-20.775473 -1.693012 -8.580618 22.541375 0.081311 1.961307 0.076711 -0.023679 654349.000000 0 1 0
-20.687173 -2.947112 -9.208718 22.835172 0.141509 1.985883 0.060693 -0.018203 290606.000000 0 1 0
-21.735073 -3.946712 -8.619218 23.712462 0.179625 1.942807 0.074429 -0.020056 572292.000000 0 1 0
-21.156273 -4.442212 -7.379618 22.842502 0.206965 1.899763 0.046797 -0.014924 487815.000000 0 1 0
-21.984773 -5.162312 -6.525718 23.506695 0.230635 1.852103 0.063637 -0.016983 -506661.000000 0 1 0
-22.261473 -6.688012 -6.887818 24.243447 0.291851 1.858875 0.083642 -0.025661 425512.000000 0 1 0
-21.148373 -7.499912 -6.546218 23.374245 0.340796 1.854654 0.063732 -0.026224 1180090.000000 0 1 0
-21.632073 -8.844112 -6.590818 24.281758 0.388106 1.845676 0.092103 -0.030868 556098.000000 0 1 0
-20.616773 -9.800412 -5.864118 23.568778 0.443743 1.822246 0.086853 -0.021071 -50518.400000 0 1 0
-19.433773 -10.051912 -6.550018 22.838897 0.477344 1.861673 0.079378 -0.011182 69601.400000 0 1 0
-18.462573 -10.514212 -5.584818 21.968283 0.517682 1.827839 0.068677 -0.014300 481859.000000 0 1 0
-17.364673 -11.436012 -6.195918 21.695705 0.582383 1.860411 0.036550 -0.015272 -125841.000000 0 1 0
-16.314173 -10.852912 -6.912018 20.777727 0.587017 1.909924 0.046308 -0.030234 93941.500000 0 1 0
-16.682273 -10.431912 -8.215618 21.321806 0.558836 1.966346 0.053699 -0.032744 -147495.000000 0 1 0
-15.623673 -10.782712 -9.298818 21.138450 0.604086 2.026284 0.051207 -0.027244 260096.000000 0 1 0
-15.680073 -12.093012 -9.791018 22.090035 0.656953 2.029998 0.059144 -0.022800 -45518.300000 0 1 0
-14.754973 -12.355512 -10.823218 22.079627 0.697121 2.083104 0.064097 -0.010378 83349.800000 0 1 0
-14.895073 -13.760412 -11.505918 23.315194 0.745822 2.086899 0.072786 -0.013387 142150.000000 0 1 0
-15.758373 -13.760512 -12.643818 24.444716 0.717820 2.114421 0.079551 -0.013864 110867.000000 0 1 0
-15.803873 -15.079012 -13.224218 25.534662 0.761931 2.115182 0.065266 -0.010173 267609.000000 0 0 1
-16.670573 -15.098412 -14.529418 26.776371 0.735951 2.144350 0.090959 -0.012550 217690.000000 0 0 1
-16.599173 -16.373412 -15.181318 27.822537 0.778551 2.147959 0.077931 -0.003851 33046.900000 0 0 1
-17.062073 -16.152012 -16.497318 28.708245 0.758005 2.182978 0.084884 -0.010703 -414064.000000 0 0 1
-17.602973 -17.339112 -17.196418 30.103592 0.777847 2.178814 0.087588 -0.024022 -11856.000000 0 0 1
-18.922673 -17.580512 -16.693618 30.754168 0.748646 2.144574 0.066070 -0.018929 -287857.000000 0 0 1
-19.610573 -18.225912 -17.740618 32.116786 0.748819 2.156011 0.069551 -0.015668 638545.000000 0 0 1
-21.156473 -18.209012 -17.435718 32.911529 0.710663 2.129132 0.061665 -0.023175 675081.000000 0 0 1
-21.694373 -16.969812 -17.145318 32.443524 0.663806 2.127590 0.065539 -0.008403 51066.000000 0 0 1
-21.713373 -16.660712 -15.764518 31.584330 0.654483 2.093385 0.064518 -0.014322 -410278.000000 0 0 1
-21.700773 -15.184412 -15.476618 30.675978 0.610536 2.099621 0.078502 -0.014196 -1302350.000000 0 0 1
-22.941273 -14.624912 -15.465318 31.294826 0.567533 2.087689 0.093012 -0.011868 -995576.000000 0 0 1
-22.957473 -13.287512 -14.971818 30.459134 0.524676 2.084651 0.105210 -0.010077 -1083690.000000 0 0 1
-24.337873 -12.793412 -14.637318 31.148909 0.483963 2.059990 0.119728 -0.024968 -1169690.000000 0 0 1
-24.626973 -13.155012 -13.298518 30.925600 0.490609 2.015307 0.133112 -0.024392 -55882.300000 0 0 1
-25.701383 -12.364412 -12.877618 31.293335 0.448397 1.994910 0.159362 -0.032606 -611940.000000 0 0 1
-26.263983 -12.812512 -11.495018 31.402113 0.453869 1.945567 0.170585 -0.039499 -42499.700000 0 0 1
-27.349123 -11.959812 -11.140218 31.860886 0.412244 1.927996 0.147461 -0.044919 338804.000000 0 0 1
-27.772783 -12.330912 -9.875718 31.951661 0.417847 1.885025 0.131363 -0.035387 -900438.000000 0 0 1
-28.611143 -11.354512 -9.178818 32.121226 0.377793 1.860591 0.145535 -0.043657 -940606.000000 0 0 1
-27.888503 -10.456412 -8.390118 30.943484 0.358715 1.845377 0.152658 -0.050245 -118017.000000 0 0 1
-28.650703 -9.420212 -7.803918 31.152918 0.317661 1.823997 0.181497 -0.051403 102618.000000 0 0 1
-27.705683 -8.357712 -7.192318 29.819216 0.292980 1.814396 0.143043 -0.041036 389852.000000 0 0 1
-27.108563 -8.651412 -5.915818 29.064033 0.308922 1.775773 0.136819 -0.048396 221386.000000 0 0 1
-26.223793 -7.665712 -5.454518 27.860406 0.284395 1.767849 0.132269 -0.037988 -52548.900000 0 0 1
-26.923573 -6.427412 -4.838718 28.099886 0.234342 1.743856 0.135362 -0.039914 -75950.000000 0 0 1
-27.936693 -6.653012 -3.879518 28.978820 0.233791 1.705074 0.134517 -0.040873 283938.000000 0 0 1
-27.480733 -6.832612 -2.542818 28.431342 0.243691 1.660353 0.151424 -0.036005 -451053.000000 0 0 1
-27.123783 -5.557612 -1.731718 27.741404 0.202101 1.633261 0.147909 -0.024135 31084.100000 0 0 1
-28.168563 -4.727912 -1.267618 28.590697 0.166294 1.615148 0.153477 -0.027514 361836.000000 0 0 1
-27.590313 -3.685912 -0.494518 27.839825 0.132808 1.588560 0.145724 -0.036731 461506.000000 0 0 1
-28.685273 -2.642612 -0.080418 28.806852 0.091865 1.573588 0.143217 -0.036005 1097060.000000 0 0 1
-29.657153 -2.989412 0.930982 29.821972 0.100460 1.539573 0.139748 -0.027224 663653.000000 0 0 1
-29.130033 -3.003612 2.258382 29.371428 0.102747 1.493830 0.148496 -0.029100 -314704.000000 0 0 1
-30.149253 -3.513212 3.269582 30.528843 0.116004 1.463492 0.111593 -0.025436 -48299.200000 0 0 1
-30.571333 -4.884312 3.107682 31.114636 0.158429 1.470751 0.112382 -0.024345 -675363.000000 0 0 1
-31.545283 -5.210112 4.005882 32.222620 0.163685 1.446155 0.118116 -0.028141 -881634.000000 0 0 1
-32.163573 -6.589512 3.774482 33.047901 0.202079 1.456334 0.107644 -0.024691 -302211.000000 0 0 1
-31.368313 -7.689512 4.192482 32.568029 0.240396 1.441708 0.101005 -0.018346 124109.000000 0 0 1
-31.994673 -8.928212 3.976482 33.454214 0.272130 1.451651 0.115722 -0.024164 -292914.000000 0 0 1
-31.065883 -10.091212 4.371782 32.955032 0.314080 1.437745 0.108943 -0.017570 170275.000000 0 0 1
-31.169293 -10.340912 5.784082 33.345388 0.320339 1.396455 0.090723 -0.013127 441520.000000 0 0 1
-30.145563 -11.278712 6.095382 32.758479 0.358018 1.383635 0.083259 -0.009657 126664.000000 0 0 1
-30.172863 -11.708412 7.618882 33.249600 0.370158 1.339600 0.067909 -0.016513 12086.300000 0 0 1
-29.723183 -10.657212 8.485282 32.696235 0.344270 1.308273 0.066419 -0.008666 364764.000000 0 0 1
-29.967443 -11.002512 9.789682 33.390729 0.351870 1.273239 0.081751 -0.010251 -225651.000000 0 0 1
-30.191203 -9.723612 10.578382 33.435902 0.311577 1.248887 0.071230 -0.014235 -1479810.000000 0 0 1
-29.077493 -8.975312 10.604582 32.225983 0.299391 1.235479 0.079776 -0.016547 -1119560.000000 0 0 1
-29.274703 -7.916012 11.531182 32.444408 0.264089 1.207440 0.087115 -0.020718 18868.400000 0 0 1
-28.197313 -6.811812 11.532582 31.216817 0.237035 1.192395 0.109713 -0.022155 -45685.500000 0 0 1
-28.363443 -5.858612 10.517982 30.812922 0.203690 1.222444 0.119196 -0.014684 339553.000000 0 0 1
-27.462163 -4.814512 10.817282 29.905911 0.173551 1.200694 0.129453 -0.019347 -241983.000000 0 0 1
-27.429503 -3.787712 9.694582 29.337848 0.137221 1.234020 0.144082 -0.024772 -347871.000000 0 0 1
-26.917293 -4.285712 8.530182 28.559972 0.157892 1.267491 0.126308 -0.015812 -74363.400000 0 0 1
-27.267563 -3.595012 7.361682 28.471713 0.131086 1.309264 0.135230 -0.039048 -292868.000000 0 0 1
-26.638183 -4.076212 6.024882 27.613538 0.151844 1.350841 0.133408 -0.024391 -495019.000000 0 0 1
-25.259533 -3.839012 5.982882 26.240748 0.150828 1.340774 0.173494 -0.037298 -150789.000000 0 0 1
-24.682373 -3.949612 4.699282 25.434272 0.158672 1.384967 0.198527 -0.023228 -124554.000000 0 0 1
-23.144073 -3.902712 4.806282 23.957872 0.167055 1.368812 0.203114 -0.023072 -13621.500000 0 1 0
-22.581173 -2.630312 4.700182 23.214642 0.115960 1.366921 0.158011 -0.028877 917274.000000 0 1 0
-21.144473 -2.661012 4.619582 21.806197 0.125191 1.357332 0.120236 -0.021728 628993.000000 0 1 0
-20.460573 -1.307312 4.724582 21.039624 0.063807 1.344309 0.081414 -0.025089 -729802.000000 0 1 0
-20.822573 -0.403412 3.700082 21.152609 0.019371 1.394969 0.092920 -0.014501 783781.000000 0 1 0
-21.723473 0.516788 4.335982 22.158003 -0.023785 1.373841 0.080790 -0.048732 398386.000000 0 1 0
-22.309373 1.645788 3.419082 22.629778 -0.073638 1.419128 0.122240 -0.028149 75152.000000 0 1 0
-21.283173 2.539188 3.057982 21.651147 -0.118744 1.429084 0.063737 -0.016750 445575.000000 0 1 0
-21.768073 3.504488 2.125082 22.150539 -0.159622 1.474710 0.098927 -0.011927 -29558.700000 0 1 0
-20.615773 4.204788 1.372982 21.084957 -0.201200 1.505634 0.066779 -0.004272 -405062.000000 0 1 0
-20.847673 5.026088 0.236182 21.446277 -0.236572 1.559783 0.083919 -0.003776 62000.100000 0 1 0
-21.713473 4.595888 -0.774318 22.208031 -0.208582 1.605670 0.108863 -0.006384 -230100.000000 0 1 0
-21.118773 3.508688 -1.710718 21.476499 -0.164637 1.650536 0.085451 -0.005470 -356251.000000 0 1 0
-20.959773 2.276188 -1.078418 21.110568 -0.108174 1.621903 0.050325 -0.004312 579711.000000 0 1 0
-20.466973 1.274788 -1.973018 20.601331 -0.062205 1.666715 0.042677 -0.005220 -280909.000000 0 1 0
-19.760173 0.099788 -1.255718 19.800283 -0.005050 1.634258 0.053035 -0.006729 -343314.000000 0 1 0
-20.686673 -0.724512 -0.611118 20.708375 0.035009 1.600311 0.083438 -0.015371 363939.000000 0 1 0
-20.161773 -1.416912 0.481882 20.217243 0.070162 1.546959 0.089010 -0.017793 -574646.000000 0 1 0
-19.374673 -2.639412 0.125682 19.554034 0.135397 1.564369 0.067485 -0.012006 -539324.000000 0 1 0
-18.667973 -3.184612 1.199582 18.975615 0.168966 1.507537 0.068684 -0.011127 446146.000000 0 1 0
-17.946273 -4.366812 0.854082 18.489651 0.238688 1.524587 0.048333 -0.008335 -16374.800000 0 1 0
-18.813773 -5.629412 0.595382 19.646954 0.290739 1.540488 0.057718 -0.006759 -178429.000000 0 1 0
-19.559773 -5.902112 1.770482 20.507419 0.293059 1.484355 0.103306 -0.015517 481037.000000 0 1 0
-20.265273 -7.106312 1.545882 21.530692 0.337267 1.498936 0.094462 -0.017918 -269279.000000 0 1 0
-20.948873 -7.535312 2.899182 22.450867 0.345290 1.441300 0.115239 -0.015834 -265116.000000 0 1 0
-20.004173 -7.962512 3.797482 21.862969 0.378818 1.396216 0.089870 -0.012419 693429.000000 0 1 0
-20.744373 -8.585112 4.864882 22.971727 0.392391 1.357404 0.078497 -0.013432 439091.000000 0 1 0
-19.888173 -9.391312 5.886082 22.768006 0.441166 1.309302 0.075877 -0.008305 -83881.000000 0 1 0
-19.426773 -10.589212 5.297582 22.750720 0.499061 1.335786 0.078456 -0.005413 221977.000000 0 1 0
-18.499673 -11.200812 6.163582 22.487459 0.544425 1.293153 0.079602 -0.012737 -184852.000000 0 1 0
-18.103573 -12.539812 5.589982 22.720786 0.605790 1.322215 0.064627 -0.008308 -386478.000000 0 1 0
-19.124373 -13.501912 5.693982 24.092835 0.614745 1.332204 0.084783 -0.009676 196717.000000 0 1 0
-18.873673 -14.649912 4.889082 24.387262 0.660065 1.368952 0.088132 -0.008614 5446.310000 0 1 0
-19.639673 -15.896812 5.366482 25.830689 0.680461 1.361516 0.099405 -0.017427 -111779.000000 0 0 1
-18.936273 -17.034212 4.909282 25.939311 0.732569 1.380388 0.101322 -0.029851 329702.000000 0 0 1
-19.387173 -18.239512 5.475182 27.175722 0.754906 1.367935 0.098942 -0.026200 172260.000000 0 0 1
-18.363673 -19.415812 5.322182 27.249291 0.813240 1.374218 0.099689 -0.037693 -561782.000000 0 0 1
-18.080373 -19.768412 3.939782 27.077885 0.829968 1.424780 0.104967 -0.035405 29502.800000 0 0 1
-17.224173 -20.855712 3.829182 27.318409 0.880477 1.430165 0.093777 -0.038089 -446888.000000 0 0 1
-15.766873 -20.681512 4.268982 26.354192 0.919428 1.408095 0.090662 -0.038874 -844178.000000 0 0 1
-15.116873 -21.959112 4.270182 26.999202 0.967891 1.411970 0.082582 -0.029605 -870817.000000 0 0 1
-13.734373 -21.849812 4.239582 26.153801 1.009626 1.407976 0.083239 -0.027503 -684110.000000 0 0 1
-13.040873 -23.218412 4.525782 27.011881 1.059045 1.402455 0.084068 -0.017533 -214206.000000 0 0 1
-13.233773 -24.213712 3.536282 27.819811 1.070613 1.443338 0.092101 -0.022431 236683.000000 0 0 1
-12.480073 -25.378682 3.844382 28.541356 1.113767 1.435691 0.094106 -0.016090 -167680.000000 0 0 1
19.009727 19.129388 -24.054118 36.137291 0.788536 2.299136 0.078268 -0.016421 -689372.000000 0 0 1
18.169627 19.407588 -25.075438 36.545416 0.818331 2.326972 0.068246 -0.029418 -877344.000000 0 0 1
18.729627 19.192188 -26.318388 37.573882 0.797595 2.346815 0.067340 -0.022296 -95959.400000 0 0 1
17.811927 19.563288 -27.535688 38.186400 0.832223 2.376165 0.050798 -0.021876 150057.000000 0 0 1
17.585427 20.950688 -27.633378 38.881643 0.872505 2.361296 0.044524 -0.014894 450714.000000 0 0 1
16.762527 21.106088 -28.798578 39.443724 0.899600 2.389291 0.033905 -0.017047 -23808.700000 0 0 1
16.481827 22.559288 -29.193858 40.408582 0.939827 2.378160 0.041806 -0.016673 -136272.000000 0 0 1
15.494127 23.148488 -28.342178 39.739144 0.980948 2.364857 0.041481 -0.023798 568970.000000 0 0 1
15.333127 24.537888 -28.626908 40.702735 1.012286 2.350849 0.045558 -0.020008 309391.000000 0 0 1
14.359527 25.212888 -27.590528 40.039018 1.053082 2.331030 0.044488 -0.021038 -821091.000000 0 0 1
13.044827 24.812088 -27.658008 39.379851 1.086766 2.349474 0.059037 -0.034387 -1090330.000000 0 0 1
12.448127 25.513888 -26.559658 38.875825 1.116879 2.322921 0.054583 -0.027717 -923621.000000 0 0 1
10.989627 25.202888 -26.187618 37.970368 1.159607 2.331851 0.081693 -0.030071 -79152.100000 0 0 1
10.389827 26.106188 -25.305328 37.813241 1.192030 2.303953 0.074205 -0.036614 -115436.000000 0 0 1
10.027127 27.318688 -25.839228 38.916831 1.219020 2.296899 0.088407 -0.040893 -729451.000000 0 0 1
9.538727 28.322288 -24.758718 38.808935 1.245936 2.262648 0.105308 -0.042317 438163.000000 0 0 1
10.587827 28.873188 -23.943818 38.975242 1.219321 2.232338 0.087701 -0.035147 319194.000000 0 0 1
10.076827 29.706388 -22.989818 38.891434 1.243762 2.203253 0.115481 -0.035968 -79585.300000 0 0 1
11.095427 30.046688 -21.849818 38.772755 1.217056 2.169456 0.080031 -0.030921 -32589.600000 0 0 1
12.143027 30.858288 -22.281518 39.951885 1.195898 2.162419 0.069699 -0.038276 -135617.000000 0 0 1
13.024827 31.289688 -21.249418 40.002856 1.176347 2.130810 0.045324 -0.022325 -119049.000000 0 0 1
14.237527 32.022388 -21.797818 41.270878 1.152432 2.127234 0.034394 -0.013823 -404229.000000 0 0 1
15.178127 31.191488 -22.441018 41.314450 1.117917 2.145012 0.032169 -0.015204 -254303.000000 0 0 1
16.061427 31.966688 -23.241818 42.661701 1.105197 2.146939 0.028345 -0.007646 -1163650.000000 0 0 1
17.281527 31.233488 -23.643618 42.815916 1.065422 2.155816 0.011485 -0.002209 -901289.000000 0 0 1
18.028827 30.810788 -22.487818 42.190582 1.041370 2.132945 0.014537 -0.001142 432553.000000 0 0 1
19.280127 30.269188 -22.901918 42.572819 1.003646 2.138796 0.013699 -0.006236 89400.400000 0 0 1
20.114327 29.605888 -21.842618 41.930833 0.974028 2.118725 0.015264 -0.001755 98502.800000 0 0 1
20.901827 30.457688 -20.991318 42.487558 0.969353 2.087547 0.025411 -0.003678 385278.000000 0 0 1
21.948727 29.699488 -20.412018 42.195458 0.934355 2.075730 0.042605 0.001613 256550.000000 0 0 1
22.738827 30.416988 -19.294818 42.597388 0.928852 2.040877 0.051142 -0.013952 -275174.000000 0 0 1
23.688627 31.384688 -19.623418 43.945742 0.924241 2.033688 0.057979 -0.012732 -281078.000000 0 0 1
24.031327 32.011488 -18.368218 44.041248 0.926841 2.001014 0.066000 -0.016297 -19110.300000 0 0 1
25.387427 32.755788 -18.501318 45.384600 0.911454 1.990682 0.071154 -0.013679 -229639.000000 0 0 1
26.423227 31.906288 -18.847818 45.513058 0.879124 1.997771 0.068921 -0.013692 -1480240.000000 0 0 1
27.601927 32.625588 -18.889818 46.723876 0.868617 1.986995 0.061153 -0.010482 395849.000000 0 0 1
28.896227 31.836688 -19.352518 47.149619 0.833777 1.993743 0.079350 -0.018759 1135490.000000 0 0 1
29.304927 30.709488 -18.537418 46.319405 0.808798 1.982541 0.067892 -0.011574 426152.000000 0 0 1
30.465427 30.053688 -19.070318 46.851291 0.778595 1.990007 0.058357 -0.018824 588532.000000 0 0 1
31.148527 28.993988 -18.167318 46.270223 0.749590 1.974291 0.055008 -0.021431 -253848.000000 0 0 1
31.744427 29.443388 -16.998618 46.514243 0.747810 1.944912 0.053002 -0.013543 -126729.000000 0 0 1
31.930227 28.303288 -16.206518 45.642817 0.725256 1.933788 0.057071 -0.020364 -339327.000000 0 0 1
32.503027 28.660888 -14.795618 45.790868 0.722664 1.899813 0.059760 -0.018942 107405.000000 0 0 1
33.822427 29.158888 -14.779018 47.038460 0.711487 1.890400 0.040552 -0.009097 -219216.000000 0 0 1
33.926027 30.567988 -15.046718 48.080983 0.733378 1.889089 0.045531 -0.015495 -1122210.000000 0 0 1
35.357427 31.021788 -15.098318 49.400994 0.720175 1.881394 0.046967 -0.022186 -886873.000000 0 0 1
35.925427 31.081488 -13.834818 49.478252 0.713234 1.854189 0.056046 -0.019685 367449.000000 0 0 1
-36.703725 31.606988 -13.863318 50.382107 -0.710925 1.849556 0.051256 -0.029486 898992.000000 0 0 1
-36.222425 31.681788 -12.379518 49.689558 -0.718629 1.822586 0.047324 -0.016706 -182554.000000 0 0 1
-36.689925 32.829088 -11.690518 50.602053 -0.729919 1.803931 0.052986 -0.020200 146798.000000 0 0 1
-35.953425 33.054188 -10.508318 49.956510 -0.743410 1.782729 0.044075 -0.015274 -220087.000000 0 0 1
-36.237625 -33.744530 -9.778018 50.472452 0.749789 1.765759 0.035879 -0.004060 113771.000000 0 0 1
-35.192325 -33.156330 -9.013218 49.184145 0.755619 1.755092 0.033459 -0.008024 19527.100000 0 0 1
-35.107825 -33.755530 -7.701318 49.308270 0.765763 1.727626 0.032736 -0.005503 85821.800000 0 0 1
-34.772825 -32.833430 -6.497818 48.263911 0.756719 1.705837 0.042427 -0.003847 -77907.600000 0 0 1
-35.786625 -31.836530 -6.332318 48.315064 0.727051 1.702237 0.031900 0.000658 -19205.200000 0 0 1
-35.583725 -30.855030 -5.336218 47.399468 0.714344 1.683615 0.062191 -0.001154 -506297.000000 0 0 1
-36.884525 -30.186930 -4.887418 47.912481 0.685871 1.672981 0.041148 -0.000761 -124731.000000 0 0 1
36.338627 -31.069730 -4.030218 47.979857 -0.707393 1.654894 0.018874 0.003970 358756.000000 0 0 1
35.037527 -30.583730 -3.727618 46.657133 -0.717631 1.650775 0.018399 0.004537 160120.000000 0 0 1
34.863927 -29.513630 -2.615318 45.753554 -0.702481 1.627988 0.016108 0.012120 -428121.000000 0 0 1
35.394027 -28.287530 -3.034618 45.410687 -0.674264 1.637672 0.044591 -0.002360 327667.000000 0 0 1
34.779427 -27.261030 -2.247818 44.247317 -0.664801 1.621619 0.036859 -0.001819 135643.000000 0 0 1
35.024027 -25.776030 -2.699918 43.570354 -0.634450 1.632803 0.061098 -0.018783 -207621.000000 0 0 1
34.289427 -25.402930 -3.852618 42.847595 -0.637612 1.660832 0.063562 -0.017782 439214.000000 0 0 1
34.266727 -23.978630 -4.117518 42.025436 -0.610568 1.668931 0.069496 -0.020784 -188751.000000 0 0 1
34.060627 -23.522630 -5.602118 41.771093 -0.604397 1.705316 0.071883 -0.025742 -635191.000000 0 0 1
35.222927 -23.554230 -6.349318 42.845889 -0.589422 1.719534 0.072621 -0.031838 -382111.000000 0 0 1
34.915927 -23.137830 -7.653718 42.580049 -0.585232 1.751528 0.049451 -0.029665 111792.000000 0 0 1
36.172827 -23.048030 -8.560718 43.737524 -0.567299 1.767797 0.045656 -0.033123 174612.000000 0 0 1
36.750527 -24.270430 -8.972718 44.946243 -0.583659 1.771779 0.041920 -0.019715 -8435.670000 0 0 1
-36.093125 -24.100030 -9.800118 44.492330 0.588730 1.792883 0.053060 -0.020094 -12119.300000 0 0 1
-35.442825 -25.328030 -10.403918 44.787771 0.620469 1.805232 0.059749 -0.022904 14932.100000 0 0 1
-34.686025 -26.195130 -9.520118 44.496492 0.646825 1.786415 0.065047 -0.011539 458129.000000 0 0 1
-35.520225 -27.127030 -8.861818 45.564174 0.652216 1.766535 0.051928 -0.009196 7653.590000 0 0 1
-34.719925 -28.264530 -8.190618 45.513109 0.683263 1.751744 0.046985 -0.005005 82512.600000 0 0 1
-34.044325 -29.034130 -9.203518 45.680428 0.706137 1.773661 0.046875 -0.007037 404208.000000 0 0 1
-33.250425 -30.095630 -8.690018 45.682099 0.735637 1.762191 0.051022 -0.014460 -141698.000000 0 0 1
-32.784125 -31.023330 -9.794618 46.186366 0.757810 1.784486 0.045687 -0.012665 296325.000000 0 0 1
-31.497025 -30.650130 -10.304818 45.140695 0.771772 1.801109 0.019499 0.009581 534750.000000 0 0 1
-31.114425 -31.460730 -11.395318 45.691775 0.790932 1.822852 0.004512 0.004068 -278573.000000 0 0 1
-31.593125 -31.049330 -12.777418 46.102591 0.776717 1.851625 0.001438 0.009428 -276825.000000 0 0 1
-30.809925 -29.954130 -13.217218 44.957716 0.771315 1.869197 -0.002202 0.010744 157295.000000 0 0 1
-31.064625 -29.577630 -14.527218 45.286722 0.760882 1.897353 -0.009586 0.022653 -111898.000000 0 0 1
-30.274725 -28.319130 -14.963318 44.073042 0.752035 1.917194 0.006959 0.004756 606795.000000 0 0 1
-28.883525 -28.655730 -15.019818 43.370541 0.781439 1.924435 0.021834 -0.002125 547243.000000 0 0 1
-28.149025 -27.612230 -15.682418 42.435140 0.775772 1.949334 0.054579 0.003735 -116786.000000 0 0 1
-26.886125 -28.107030 -16.374818 42.201938 0.807596 1.969269 0.070954 0.001482 -567005.000000 0 0 1
-27.126725 -28.872130 -17.539418 43.325400 0.816557 1.987589 0.050815 0.006970 72858.200000 0 0 1
-27.320225 -28.077230 -18.732118 43.423701 0.799062 2.016818 0.056074 0.005484 837235.000000 0 0 1
-25.940525 -27.576230 -19.317318 42.503154 0.815953 2.042597 0.078456 0.003905 932436.000000 0 0 1
-25.391225 -26.470730 -18.625318 41.137773 0.806210 2.040649 0.086414 0.001396 -725786.000000 0 0 1
-24.012325 -26.417130 -18.832018 40.362129 0.833049 2.056212 0.104040 -0.015336 -588365.000000 0 0 1
-23.474225 -25.324530 -17.895418 38.892378 0.823297 2.048934 0.106914 -0.013897 -182687.000000 0 0 1
-23.552025 -25.690430 -16.553618 38.583913 0.828797 2.014214 0.103276 -0.010669 271920.000000 0 0 1
-22.950325 -24.742530 -15.680218 37.212625 0.822959 2.005750 0.109770 -0.014716 131145.000000 0 0 1
-23.615325 -24.917030 -14.288218 37.184609 0.812213 1.965193 0.093740 -0.011977 1407570.000000 0 0 1
-24.990225 -24.446730 -14.263318 37.757068 0.774405 1.958178 0.067380 0.007204 1133560.000000 0 0 1
-25.459825 -24.384830 -12.937418 37.552622 0.763835 1.922518 0.054886 0.006335 -64402.100000 0 0 1
-26.974725 -24.112030 -12.840118 38.391333 0.729421 1.911822 0.030553 0.025804 -192753.000000 0 0 1
-27.723725 -25.316130 -12.994218 39.728593 0.740037 1.904003 0.032496 0.017002 259970.000000 0 0 1
-29.019025 -25.568130 -12.495318 40.644385 0.722264 1.883288 0.019175 0.015948 -430498.000000 0 0 1
-30.124425 -24.732430 -13.118818 41.125144 0.687421 1.895468 0.020077 0.014909 -1306800.000000 0 0 1
-30.301925 -23.417230 -12.599918 40.315397 0.657932 1.888655 0.035555 0.029376 361543.000000 0 0 1
-30.890725 -23.278530 -11.299218 40.296392 0.645786 1.855010 0.038726 0.019344 950769.000000 0 0 1
-32.427725 -23.612430 -11.081718 41.616207 0.629374 1.840332 0.035043 0.005879 1247550.000000 0 0 1
-33.473425 -22.728130 -11.511618 42.066084 0.596486 1.847988 0.046341 -0.003475 641001.000000 0 0 1
-33.581325 -22.519530 -12.922918 42.448044 0.590719 1.880148 0.039837 0.011185 -741854.000000 0 0 1
-35.015725 -22.219630 -13.382318 43.576363 0.565445 1.882941 0.025391 -0.004205 373146.000000 0 0 1
-35.926325 -23.274130 -13.035618 44.747216 0.574848 1.866399 0.036352 -0.005882 795783.000000 0 0 1
36.672327 -23.023830 -13.326118 45.304986 -0.560629 1.869354 0.046566 -0.024555 717678.000000 0 0 1
35.721827 -24.184630 -12.927818 45.034140 -0.595141 1.861960 0.051252 -0.015226 -158377.000000 0 0 1
35.728427 -25.254830 -13.855318 45.894409 -0.615312 1.877477 0.042107 -0.007348 -3949.080000 0 0 1
35.120427 -26.375530 -13.276018 45.884264 -0.644142 1.864331 0.049801 -0.016216 48320.400000 0 0 1
34.945127 -27.572730 -14.232318 46.733032 -0.668016 1.880257 0.042870 -0.018590 186819.000000 0 0 1
33.780127 -27.568330 -15.024918 46.117871 -0.684488 1.902648 0.038692 -0.017605 -129733.000000 0 0 1
33.819727 -28.530730 -16.073518 47.075838 -0.700774 1.919244 0.036537 -0.012330 -202148.000000 0 0 1
33.041527 -28.278630 -17.353418 46.824829 -0.707881 1.950454 0.033793 -0.016653 289644.000000 0 0 1
31.653027 -28.602530 -17.324518 46.045171 -0.734815 1.956542 0.060801 -0.024099 121827.000000 0 0 1
31.050827 -27.985930 -18.424918 45.681985 -0.733530 1.985949 0.060285 -0.022730 -930316.000000 0 0 1
29.549927 -28.163630 -18.372518 44.765363 -0.761382 1.993709 0.067586 -0.025603 -868484.000000 0 0 1
28.911627 -27.527730 -17.296018 43.506441 -0.760883 1.979642 0.060026 -0.031040 113316.000000 0 0 1
27.506827 -27.740730 -17.303618 42.726910 -0.789632 1.987755 0.076965 -0.027546 365557.000000 0 0 1
26.798527 -26.836830 -16.256418 41.263151 -0.786112 1.975743 0.079850 -0.033397 -139570.000000 0 0 1
26.838627 -25.441730 -16.561318 40.520005 -0.758685 1.991847 0.078599 -0.032862 148295.000000 0 0 1
26.751727 -24.723530 -15.359518 39.532552 -0.746017 1.969830 0.080544 -0.022750 -220308.000000 0 0 1
26.369527 -23.231230 -15.334918 38.343210 -0.722211 1.982246 0.086759 -0.029147 -493764.000000 0 0 1
25.040627 -22.914430 -15.604418 37.357757 -0.741090 2.001711 0.098894 -0.032432 -619433.000000 0 0 1
24.970527 -21.466830 -15.627318 36.449487 -0.710091 2.013893 0.101631 -0.034391 1187570.000000 0 0 1
23.521527 -20.842430 -15.864418 35.204388 -0.725082 2.038276 0.111533 -0.028423 1300600.000000 0 0 1
22.648127 -20.884630 -14.749118 34.156141 -0.744911 2.017300 0.107099 -0.027896 126521.000000 0 0 1
21.457927 -20.156930 -14.973918 33.029725 -0.754146 2.041313 0.108062 -0.028683 44074.000000 0 0 1
21.242727 -18.854330 -14.206318 31.757813 -0.725903 2.034577 0.102902 -0.022705 -187021.000000 0 0 1
20.788627 -19.089730 -12.890518 31.028218 -0.742822 1.999228 0.094476 -0.032512 82034.400000 0 0 1
20.712427 -17.865830 -12.237318 29.965722 -0.711744 1.991472 0.086862 -0.033532 -425488.000000 0 0 1
19.908627 -17.825530 -10.932118 28.872378 -0.730250 1.959118 0.097190 -0.034228 -466626.000000 0 0 1
20.441727 -18.430230 -9.766218 29.204736 -0.733698 1.911770 0.087751 -0.034330 -145637.000000 0 0 1
19.509127 -18.452130 -8.719418 28.233233 -0.757561 1.884765 0.086469 -0.036963 -184378.000000 0 0 1
20.018827 -19.244230 -7.509018 28.765938 -0.765672 1.834894 0.077350 -0.037922 63380.300000 0 0 1
21.164127 -18.692230 -6.893118 29.066043 -0.723457 1.810231 0.076209 -0.038671 -68105.000000 0 0 1
21.695427 -19.571930 -5.954718 29.819636 -0.733986 1.771839 0.067987 -0.027711 184864.000000 0 0 1
23.086527 -19.092130 -5.425818 30.445635 -0.690978 1.749967 0.063106 -0.018099 -332130.000000 0 0 1
24.034627 -19.018730 -6.416718 31.313730 -0.669417 1.777175 0.056198 -0.019677 -506169.000000 0 0 1
24.886027 -17.933530 -6.067918 31.268922 -0.624436 1.766091 0.061421 -0.021064 537804.000000 0 0 1
26.091027 -17.707330 -7.066318 32.314457 -0.596270 1.791251 0.068321 -0.030479 1294120.000000 0 0 1
27.096127 -18.698730 -7.361118 33.734681 -0.604043 1.790772 0.082573 -0.035476 848802.000000 0 0 1
26.684527 -19.760230 -8.209618 34.204218 -0.637402 1.813180 0.093727 -0.041929 -971142.000000 0 0 1
27.687227 -20.876330 -8.265518 35.647195 -0.646060 1.804796 0.085905 -0.043876 -634003.000000 0 0 1
28.918427 -20.418730 -8.763018 36.469034 -0.614795 1.813457 0.067902 -0.035774 -309897.000000 0 0 1
29.873827 -21.457030 -8.593618 37.771682 -0.622873 1.800321 0.064915 -0.033532 14949.700000 0 0 1
-30.654133 29.727388 4.049382 42.892784 -0.770051 1.476248 0.071465 -0.008711 158769.000000 0 0 1
-29.770583 30.369888 3.174282 42.646146 -0.795363 1.496294 0.059079 -0.002320 -32692.800000 0 0 1
-28.848853 31.190388 3.885982 42.663772 -0.824378 1.479586 0.058054 0.011395 118138.000000 0 0 1
-28.323593 32.353188 3.018882 43.105317 -0.851712 1.500704 0.053058 0.014560 -203681.000000 0 0 1
-27.518513 31.990788 1.883482 42.240106 -0.860410 1.526192 0.057137 0.015010 463109.000000 0 0 1
-26.944703 33.119988 1.257782 42.714548 -0.887849 1.541346 0.069692 -0.005602 -203147.000000 0 0 1
-25.747993 33.844688 1.922782 42.568993 -0.920439 1.525612 0.069411 -0.001404 -375444.000000 0 0 1
-24.526473 33.201688 1.617282 41.309993 -0.934559 1.531636 0.058174 -0.001049 -346113.000000 0 0 1
-23.478773 33.844888 2.310782 41.256138 -0.964300 1.514756 0.051338 -0.006360 868209.000000 0 0 1
-22.042573 33.442088 1.801582 40.093565 -0.988032 1.525847 0.052687 -0.009738 805978.000000 0 0 1
-21.603873 34.062688 0.615782 40.340714 -1.005581 1.555531 0.071362 -0.019313 12924.900000 0 0 1
-20.257073 33.642088 0.440482 39.272549 -1.028809 1.559580 0.071625 -0.022833 -157278.000000 0 0 1
-19.643573 -33.835930 -0.811918 39.133098 1.044798 1.591545 0.082798 -0.023306 -61991.300000 0 0 1
-19.346073 -32.426930 -0.841318 37.768825 1.032877 1.593074 0.090119 -0.030230 425099.000000 0 0 1
-18.498773 -31.928630 0.194082 36.900944 1.045677 1.565537 0.094878 -0.029808 -225108.000000 0 0 1
-18.330573 -30.399630 0.207282 35.499160 1.028184 1.564957 0.107370 -0.031445 -117236.000000 0 0 1
-17.416273 -29.885630 -0.748018 34.598222 1.043147 1.592418 0.105398 -0.021728 266496.000000 0 0 1
-17.416173 -28.485530 -0.675718 33.394687 1.022034 1.591032 0.089550 -0.020830 -122552.000000 0 0 1
-16.500973 -27.858430 -1.722018 32.424367 1.036047 1.623930 0.087481 -0.011643 -137541.000000 0 0 1
-16.975973 -28.034830 -3.053818 32.915971 1.026319 1.663706 0.080617 -0.009321 541986.000000 0 0 1
-16.074873 -27.476530 -4.024418 32.086714 1.041449 1.696551 0.080083 0.001752 194556.000000 0 0 1
-16.684173 -27.584130 -5.416918 32.689278 1.026821 1.737274 0.117071 -0.007936 714005.000000 0 0 1
-17.724573 -26.574930 -5.533018 32.419156 0.982587 1.742307 0.107988 -0.003468 325797.000000 0 0 1
-18.161573 -26.515530 -6.828318 32.856385 0.970249 1.780145 0.137104 -0.015916 172796.000000 0 0 1
-18.670773 -25.066530 -7.197418 32.073845 0.930600 1.797125 0.110009 -0.008809 633690.000000 0 0 1
-17.551273 -24.190130 -7.092018 30.716548 0.943124 1.803784 0.103383 -0.002653 504409.000000 0 0 1
-17.912773 -22.835230 -7.370518 29.943943 0.905618 1.819496 0.086066 -0.004751 613323.000000 0 0 1
-16.690573 -21.912930 -7.036118 28.429891 0.919864 1.820885 0.106817 -0.000360 1032170.000000 0 0 1
-15.676073 -21.952230 -8.035118 28.146097 0.950670 1.860302 0.126912 -0.012823 -317282.000000 0 0 1
-14.591073 -21.124530 -7.739918 26.815136 0.966328 1.863602 0.116943 -0.021359 517686.000000 0 0 1
-13.568573 -20.816830 -8.879818 26.387455 0.993151 1.914012 0.087749 -0.012839 754484.000000 0 0 1
-14.147373 -19.918130 -9.819818 26.330760 0.953207 1.952973 0.111365 -0.019112 -101676.000000 0 0 1
-13.557773 -20.216430 -11.061118 26.736971 0.980054 1.997312 0.108254 -0.009508 -4135.530000 0 0 1
-14.115673 -19.402930 -12.233418 26.932925 0.941850 2.042291 0.122985 -0.008038 -176849.000000 0 0 1
-15.375673 -19.890930 -12.634518 28.137013 0.912738 2.036482 0.106222 0.006278 -520788.000000 0 0 1
-15.888373 -19.205630 -13.718418 28.451566 0.879643 2.073923 0.109043 -0.018439 -666482.000000 0 0 1
-17.215673 -19.726530 -14.206718 29.788357 0.853261 2.067946 0.122028 -0.019727 -1107140.000000 0 0 1
-18.320773 -19.511830 -13.390218 29.927582 0.816870 2.034675 0.123079 -0.022047 -472910.000000 0 0 1
-19.460473 -19.623530 -14.222418 31.081669 0.789570 2.046070 0.102402 -0.011985 -323592.000000 0 0 1
-20.815273 -19.789430 -13.505118 31.737759 0.760139 2.010335 0.076401 -0.008867 83409.300000 0 0 1
-21.717573 -20.317430 -14.465118 33.070993 0.752102 2.023497 0.089145 -0.011430 -111071.000000 0 0 1
-23.064673 -20.303230 -14.028818 33.778810 0.721809 1.999084 0.076656 -0.000609 218883.000000 0 0 1
-23.948873 -20.923030 -15.175818 35.236730 0.718067 2.016044 0.084288 -0.005203 -143419.000000 0 0 1
-23.805273 -20.282430 -16.456618 35.339613 0.705662 2.055189 0.083246 -0.022570 544755.000000 0 0 1
-24.471373 -20.938630 -17.544418 36.675345 0.707758 2.069595 0.097020 -0.024144 181559.000000 0 0 1
-24.830673 -19.992530 -18.769418 36.993981 0.677876 2.102920 0.099146 -0.022840 991781.000000 0 0 1
-23.642973 -19.742130 -19.564018 36.489624 0.695727 2.136669 0.097969 -0.030917 1134250.000000 0 0 1
-23.923573 -18.866830 -20.609818 36.783953 0.667769 2.165537 0.102467 -0.037999 -357757.000000 0 0 1
-22.670873 -18.140130 -21.151418 35.922351 0.674833 2.200381 0.085985 -0.016360 -331621.000000 0 0 1
-21.622373 -19.023430 -21.378118 35.867002 0.721544 2.209355 0.069615 -0.012079 -245171.000000 0 0 1
-20.545973 -18.344930 -22.035518 35.273751 0.728863 2.245544 0.062755 -0.017777 1322150.000000 0 0 1
-19.176873 -19.143430 -22.065518 34.944391 0.784525 2.254214 0.070355 -0.013505 915053.000000 0 0 1
-19.344873 -20.214830 -22.995218 36.216620 0.807386 2.258721 0.053755 -0.008231 603970.000000 0 0 1
-18.112973 -20.901230 -23.290118 36.157583 0.856745 2.270679 0.047761 -0.003168 537171.000000 0 0 1
-18.177973 -22.372430 -23.853118 37.415713 0.888470 2.262066 0.053596 0.000720 -249572.000000 0 0 1
-17.981473 -22.492930 -25.282728 38.320773 0.896404 2.291303 0.053725 -0.003307 219408.000000 0 0 1
-18.159773 -23.816830 -25.656718 39.437114 0.919358 2.279135 0.075082 -0.012830 -132167.000000 0 0 1
-18.065873 -24.000530 -27.193968 40.520527 0.925552 2.306509 0.089376 -0.003242 233101.000000 0 0 1
-16.772073 -23.708330 -27.688928 40.125604 0.955099 2.332363 0.069995 -0.002158 166877.000000 0 0 1
-16.731873 -23.906030 -29.086418 41.200408 0.960136 2.354594 0.107912 -0.008005 194155.000000 0 0 1
-15.303773 -23.766830 -29.689198 40.994099 0.998712 2.380715 0.070287 -0.009806 419782.000000 0 0 1
-14.451373 -24.865330 -29.335278 41.081448 1.044326 2.366100 0.075512 -0.004310 304521.000000 0 0 1
-13.187473 -24.634930 -29.936988 40.951343 1.079297 2.390638 0.076097 -0.003277 459218.000000 0 0 1
-12.197373 -25.824930 -29.724028 41.221606 1.129545 2.376155 0.077009 -0.006879 -280111.000000 0 0 1
-12.575173 -26.882230 -30.634898 42.653092 1.133249 2.372057 0.076089 -0.000085 1018690.000000 0 0 1
-11.697373 -28.057530 -30.541678 43.091155 1.175801 2.358548 0.079430 -0.002706 771230.000000 0 0 1
-10.408473 -27.912530 -31.396358 43.280215 1.213871 2.382442 0.076162 -0.007825 -44770.200000 0 0 1
-9.479573 -27.078130 -30.729038 42.039996 1.234048 2.390506 0.088929 -0.008830 17306.100000 0 0 1
-8.388973 -26.706230 -31.565348 42.189677 1.266436 2.416107 0.079612 -0.005108 -39771.700000 0 0 1
-7.422273 -25.681430 -30.937898 40.887401 1.289449 2.428987 0.107847 -0.009993 -191640.000000 0 0 1
-7.920773 -24.385730 -30.722788 40.016149 1.256735 2.446134 0.111566 -0.008935 163869.000000 0 0 1
-8.863073 -24.214430 -29.672308 39.310795 1.219918 2.426166 0.107651 -0.011975 -159908.000000 0 0 1
-9.320373 -22.785730 -29.513598 38.433206 1.182518 2.446383 0.110966 -0.012493 -363785.000000 0 0 1
-9.902073 -22.130830 -30.598758 39.039835 1.150079 2.471530 0.096466 -0.010301 88411.100000 0 0 1
-10.225173 -20.765330 -30.335358 38.157399 1.113235 2.489814 0.099145 -0.011425 357225.000000 0 0 1
-10.990673 -20.099830 -31.536138 38.978534 1.070410 2.513355 0.087806 -0.011604 324680.000000 0 0 1
-11.588673 -18.832730 -31.296368 38.320122 1.019168 2.526480 0.094366 -0.015571 255779.000000 0 0 1
-12.296173 -18.347730 -32.431708 39.238384 0.980369 2.543712 0.103620 -0.005768 -53533.800000 0 0 1
-13.166773 -17.124030 -32.051668 38.651077 0.915305 2.548573 0.098581 -0.018471 -243152.000000 0 0 1
-12.709273 -15.815530 -32.284158 38.130349 0.893867 2.580509 0.108057 -0.021268 -303849.000000 0 0 1
-11.981873 -15.213130 -31.236318 36.752036 0.903662 2.586631 0.101552 -0.015769 199727.000000 0 0 1
-11.572073 -13.714830 -31.583818 36.325570 0.869934 2.624915 0.095493 -0.024428 87380.700000 0 0 1
-10.688873 -13.477230 -32.671758 36.923320 0.900273 2.656978 0.091894 -0.029175 106949.000000 0 0 1
-11.320973 -13.668230 -33.944938 38.304618 0.879054 2.659839 0.096770 -0.023257 -191743.000000 0 0 1
-11.990973 -12.395030 33.616630 37.782245 0.801966 0.474006 0.090438 -0.016954 -573163.000000 0 0 1
-13.223473 -12.025530 -33.866008 38.293343 0.737989 2.655968 0.082573 -0.018324 -648157.000000 0 0 1
-13.864573 -11.261030 33.161420 37.665860 0.682146 0.494069 0.080056 -0.031924 137322.000000 0 0 1
-14.914473 -10.308930 33.785243 38.342642 0.604798 0.492528 0.085765 -0.034096 188193.000000 0 0 1
-14.372573 -9.299130 -33.438458 37.565611 0.574267 2.668437 0.078486 -0.032037 153921.000000 0 0 1
-15.430473 -8.639230 -32.777978 37.244216 0.510398 2.646832 0.084285 -0.034206 310770.000000 0 0 1
-14.840373 -7.548930 -31.898528 35.982483 0.470564 2.660525 0.084369 -0.041765 -222168.000000 0 0 1
-14.566573 -6.313930 -32.531038 36.198332 0.409009 2.687567 0.075536 -0.043041 44685.600000 0 0 1
-15.633073 -5.404330 -32.473328 36.443337 0.332838 2.670479 0.073190 -0.031116 -91974.000000 0 0 1
-16.118973 -4.874430 -31.108298 35.373826 0.293660 2.645430 0.082091 -0.035167 -211056.000000 0 0 1
-16.665473 -5.785330 -30.192848 34.968788 0.334129 2.612812 0.082460 -0.038626 -317082.000000 0 0 1
-17.077573 -5.237630 -28.926098 33.996991 0.297589 2.588384 0.097081 -0.046474 288663.000000 0 0 1
-15.989873 -4.701630 -27.919828 32.516122 0.285978 2.603418 0.086702 -0.041178 426701.000000 0 0 1
-15.322473 -3.600630 -28.512398 32.568383 0.230803 2.637188 0.084024 -0.035771 -606673.000000 0 0 1
-14.119773 -3.297330 -27.879528 31.424647 0.229414 2.662008 0.069942 -0.028598 -267146.000000 0 0 1
-13.560273 -1.981430 -28.478248 31.604077 0.145093 2.693082 0.059672 -0.009847 82551.000000 0 0 1
-13.457773 -2.157430 -29.920278 32.878400 0.158959 2.714149 0.055819 -0.013049 198605.000000 0 0 1
-13.322973 -0.927430 -30.545398 33.337413 0.069499 2.729413 0.050269 -0.020137 -15354.100000 0 0 1
-13.554773 -1.169430 -32.079778 34.845539 0.086061 2.740482 0.043103 -0.022344 -572078.000000 0 0 1
-14.885873 -1.392430 -32.422468 35.703564 0.093269 2.709525 0.050847 -0.031594 -327817.000000 0 0 1
-14.873773 -1.631430 -33.820768 36.982902 0.109248 2.725060 0.037210 -0.022314 -421430.000000 0 0 1
-16.265173 -1.663430 33.597333 37.364470 0.101915 0.452908 0.044891 -0.026167 -432373.000000 0 0 1
-16.204673 -1.975430 32.245898 36.142658 0.121306 0.468639 0.051885 -0.024741 -64199.600000 0 0 1
-17.467573 -1.969430 31.630978 36.187201 0.112274 0.507231 0.060158 -0.022862 -113464.000000 0 0 1
-17.383573 -2.010430 30.107188 34.823458 0.115140 0.526510 0.062074 -0.013764 -35266.900000 0 0 1
-16.727973 -0.884430 29.535498 33.955161 0.052822 0.515922 0.048337 -0.005372 176200.000000 0 0 1
-16.763373 -0.903430 28.102258 32.734749 0.053841 0.538490 0.039951 -0.010952 -360296.000000 0 0 1
-16.194073 0.413570 27.546018 31.956254 -0.025533 0.531611 0.040109 -0.006324 -58825.000000 0 0 1
-16.845473 1.620570 27.978308 32.698348 -0.095907 0.543993 0.042852 -0.003886 -303208.000000 0 0 1
-18.191473 1.750570 27.615508 33.115109 -0.095935 0.584615 0.055897 -0.008883 -547530.000000 0 0 1
-18.424973 2.526570 26.344508 32.247423 -0.136278 0.614695 0.059690 -0.015356 -579375.000000 0 0 1
-18.117073 3.903570 26.338358 32.205206 -0.212219 0.613168 0.041711 -0.007571 11047.400000 0 0 1
-18.556473 4.596570 25.211758 31.640226 -0.242819 0.648772 0.045232 -0.002971 -642459.000000 0 0 1
-18.404273 6.149570 25.251978 31.846458 -0.322475 0.655195 0.033577 -0.000341 132656.000000 0 0 1
-17.091773 6.673570 25.215188 31.184466 -0.372251 0.629059 0.015891 0.002821 -238733.000000 0 0 1
-16.634573 6.635570 23.900488 29.865919 -0.379560 0.643068 0.009683 0.002881 -38413.400000 0 0 1
-15.432573 7.602570 23.671468 29.262635 -0.457735 0.628464 0.001869 0.006572 700764.000000 0 0 1
-14.233573 7.348570 24.400068 29.188344 -0.476590 0.580930 -0.001388 0.003899 271747.000000 0 0 1
-13.196173 8.145570 23.852188 28.450240 -0.553020 0.576487 0.008966 -0.000571 -169571.000000 0 0 1
-11.872573 7.962570 24.609178 28.460010 -0.590769 0.526257 0.009015 0.006965 -765070.000000 0 0 1
-10.833373 8.715570 24.085648 27.810818 -0.677486 0.523543 0.010061 0.004664 -904936.000000 0 0 1
-9.735773 8.761570 24.935248 28.165883 -0.732780 0.483658 0.015695 -0.007330 -728780.000000 0 0 1
-9.548773 10.016570 25.766618 29.247724 -0.809303 0.492870 0.023743 -0.017124 -453043.000000 0 0 1
-10.638973 10.276570 26.647678 30.477769 -0.768073 0.506739 0.012534 -0.018569 494170.000000 0 0 1
-10.627973 11.581570 27.205388 31.420053 -0.828308 0.523928 0.031335 -0.018692 -388548.000000 0 0 1
-11.199273 12.736570 26.332258 31.321426 -0.849536 0.572202 0.018455 -0.021046 325478.000000 0 0 1
-12.587073 12.682570 26.016768 31.561911 -0.789177 0.601816 0.015490 -0.020327 467526.000000 0 0 1
-12.835273 11.960570 24.820228 30.394789 -0.750137 0.615309 0.012893 -0.008516 -505833.000000 0 0 1
-14.305973 11.842570 24.407598 30.669825 -0.691467 0.650439 0.006255 -0.009414 -375594.000000 0 0 1
-14.894373 13.068570 23.898128 31.044329 -0.720197 0.692258 0.014508 -0.015712 1419120.000000 0 0 1
-16.254973 12.961570 23.397048 31.299334 -0.673148 0.726468 0.018612 -0.007906 1341740.000000 0 0 1
-16.273873 12.149570 22.057938 29.983389 -0.641302 0.744138 0.011665 -0.000516 -520538.000000 0 0 1
-16.186473 10.739570 22.177238 29.481692 -0.585800 0.719345 0.016048 -0.001962 71680.600000 0 0 1
-16.081173 10.245570 20.846238 28.251398 -0.567264 0.740867 0.019304 -0.000867 -324041.000000 0 0 1
-16.304473 8.745570 20.524738 27.633055 -0.492335 0.733613 0.014793 0.002977 -42428.400000 0 0 1
-17.667873 8.453570 20.392538 28.274939 -0.446277 0.765230 0.031641 0.001425 -561936.000000 0 0 1
-17.982373 7.075570 20.576538 28.228060 -0.374867 0.754025 0.022360 0.007541 109468.000000 0 0 1
-19.504973 6.870570 20.746538 29.292790 -0.338675 0.783784 0.043523 -0.000365 270784.000000 0 0 1
-20.003573 7.520570 21.911738 30.607616 -0.359613 0.772896 0.041516 -0.004661 -106010.000000 0 0 1
-21.385473 7.427570 22.160538 31.679594 -0.334284 0.796069 0.047190 -0.008543 -41493.900000 0 0 1
-21.704173 8.091570 23.585368 33.057741 -0.356851 0.776373 0.068653 -0.011391 -563163.000000 0 0 1
-21.610573 9.525570 23.619328 33.400988 -0.415163 0.785345 0.063864 -0.008546 923754.000000 0 0 1
-20.349373 10.192570 23.382408 32.630085 -0.464350 0.771895 0.048827 -0.002924 956395.000000 0 0 1
-19.271273 9.994570 24.504588 32.737566 -0.478437 0.724975 0.048233 -0.009758 -310566.000000 0 0 1
-19.658173 10.254570 25.844768 34.052195 -0.480813 0.709059 0.054792 -0.010961 13440.000000 0 0 1
-18.787773 9.754570 26.848288 34.190095 -0.478888 0.667672 0.055307 -0.013175 136753.000000 0 0 1
-31.546373 -13.700012 21.008638 40.301698 0.409706 1.022441 0.046770 -0.007153 57579.100000 0 0 1
-30.917673 -14.979012 20.990038 40.259843 0.451155 1.022348 0.057854 -0.013420 216308.000000 0 0 1
-31.761263 -16.049812 20.555738 41.096383 0.467900 1.046985 0.041616 -0.004590 214481.000000 0 0 1
-31.832483 -16.403912 19.065538 40.569570 0.475828 1.081566 0.040450 -0.008171 283509.000000 0 0 1
-32.456273 -15.411212 18.262438 40.304240 0.443310 1.100540 0.037733 -0.016652 297980.000000 0 0 1
-31.674873 -15.197812 17.078938 39.063553 0.447363 1.118303 0.041838 -0.015664 -516512.000000 0 0 1
-32.176413 -14.043612 16.233438 38.679052 0.411534 1.137686 0.035141 -0.012615 425295.000000 0 0 1
-33.422123 -14.082012 15.504238 39.442651 0.398765 1.166814 0.041129 -0.010307 821679.000000 0 0 1
-34.587232 -14.057612 16.315138 40.744040 0.386045 1.158810 0.044779 -0.011004 -389851.000000 0 0 1
-35.034118 -12.690412 16.951038 40.936214 0.347528 1.143860 0.017347 -0.011015 -446862.000000 0 0 1
-36.077073 -12.907212 17.880638 42.283194 0.343578 1.134177 -0.001254 -0.004838 -150056.000000 0 0 1
-36.562973 -11.714312 18.366838 42.560743 0.310054 1.124593 -0.002050 0.002319 17258.000000 0 0 1
36.317279 -11.830512 19.442838 42.859419 -0.314914 1.099948 0.009931 0.006367 -121530.000000 0 0 1
36.885529 -12.190412 20.677638 44.008103 -0.319192 1.081664 0.008971 0.002620 -252023.000000 0 0 1
35.980769 -11.963012 21.737138 43.706208 -0.320986 1.050259 0.018750 -0.008124 -1414290.000000 0 0 1
36.413409 -12.502012 23.131978 44.914642 -0.330725 1.029764 0.017526 -0.013749 -399149.000000 0 0 1
-36.331803 -11.971812 23.530078 44.910898 0.318309 1.019340 0.012790 -0.008650 721979.000000 0 0 1
-35.146001 -12.429412 22.821338 43.709783 0.339924 1.021473 0.008382 -0.013539 -270329.000000 0 0 1
-33.962563 -11.472112 22.985138 42.583819 0.325753 1.000642 0.037812 -0.008623 -203330.000000 0 0 1
-34.022923 -10.368212 22.054538 41.850469 0.295802 1.015748 0.045141 -0.003595 60520.400000 0 0 1
-32.970343 -9.455612 22.309238 40.916430 0.279295 0.994122 0.070418 -0.010932 49757.900000 0 0 1
-33.061143 -8.186812 21.426738 40.238889 0.242743 1.009259 0.066061 -0.007640 59545.700000 0 0 1
-33.054093 -8.313712 20.003338 39.519924 0.246407 1.040072 0.060046 -0.010595 -81713.500000 0 0 1
-34.360478 -8.448212 19.511238 40.406721 0.241088 1.066866 0.041777 -0.007126 -571305.000000 0 0 1
-34.517490 -8.440812 17.989538 39.828732 0.239831 1.102157 0.038519 -0.004503 -240635.000000 0 0 1
-35.879494 -8.406212 17.647038 40.858542 0.230139 1.124192 -0.024898 0.002727 -77674.300000 0 0 1
-36.054754 -8.444412 16.264938 40.445044 0.230064 1.156933 -0.000821 0.002944 1463500.000000 0 0 1
36.366089 -8.609212 15.937138 40.627618 -0.232458 1.167694 0.008730 0.000569 1491740.000000 0 0 1
35.882109 -9.939512 16.093938 40.562723 -0.270229 1.162805 0.002208 0.013230 -51400.700000 0 0 1
34.474809 -9.892212 16.074938 39.303587 -0.279433 1.149445 0.028933 0.008192 -173607.000000 0 0 1
33.782689 -11.251112 16.146938 39.097075 -0.321490 1.145055 0.035845 0.006837 -94028.600000 0 0 1
33.713459 -11.730312 17.492338 39.751471 -0.334840 1.115150 0.028570 -0.002344 -173410.000000 0 0 1
32.687479 -12.667912 17.636438 39.242722 -0.369725 1.104681 0.051893 -0.004507 -122080.000000 0 0 1
32.463309 -13.001712 19.131638 39.861392 -0.380941 1.070194 0.039365 -0.005762 -328236.000000 0 0 1
33.280479 -13.998112 19.635738 41.098658 -0.398147 1.072681 0.019977 -0.008598 -459876.000000 0 0 1
32.976529 -14.255412 21.000738 41.613691 -0.408029 1.041809 0.031897 -0.010107 -319869.000000 0 0 1
33.770459 -15.401412 21.591638 42.940031 -0.427883 1.043924 0.012093 -0.010095 -102180.000000 0 0 1
33.778089 -15.220512 22.977938 43.595974 -0.423355 1.015652 0.015810 -0.022448 -421273.000000 0 0 1
34.263229 -16.358712 23.551618 44.679470 -0.445439 1.015584 0.006555 -0.014315 -277736.000000 0 0 1
34.756069 -16.149812 24.993978 45.754778 -0.434979 0.992904 0.015922 -0.005583 -637151.000000 0 0 1
35.867969 -15.338112 25.044118 46.357057 -0.404094 1.000069 0.024314 -0.008435 -707788.000000 0 0 1
36.351329 -15.058712 26.332268 47.345246 -0.392734 0.981020 0.024635 -0.012725 37417.400000 0 0 1
-36.423453 -14.058712 26.395178 47.127707 0.368362 0.976317 0.027787 -0.020019 -351437.000000 0 0 1
-35.216446 -14.707112 26.150048 46.263617 0.395604 0.970072 0.026049 -0.019125 -186517.000000 0 0 1
-34.143732 -13.771812 26.344508 45.271297 0.383389 0.949702 0.043433 -0.022481 -155712.000000 0 0 1
-32.740253 -14.266312 26.085998 44.225910 0.410934 0.939942 0.039633 -0.016789 -843184.000000 0 0 1
-32.458443 -14.523112 24.708848 43.301253 0.420721 0.963528 0.035141 -0.012667 -547928.000000 0 0 1
-31.245363 -15.100912 24.359888 42.399462 0.450199 0.958763 0.050797 -0.019477 -607196.000000 0 0 1
-30.991903 -16.599912 24.779468 43.012523 0.491737 0.956848 0.058191 -0.017842 -648922.000000 0 0 1
-30.844103 -16.835712 26.128378 43.789177 0.499638 0.931432 0.061005 -0.020575 133160.000000 0 0 1
-30.840663 -18.201412 26.443688 44.516363 0.533164 0.934747 0.072603 -0.022016 -134356.000000 0 0 1
-30.311063 -18.305412 27.900288 45.080758 0.543296 0.903460 0.070160 -0.033137 93572.600000 0 0 1
-28.945653 -17.944512 27.986248 44.080454 0.554951 0.882930 0.075839 -0.028382 99973.100000 0 0 1
-28.431883 -18.114512 29.299268 44.664915 0.567267 0.855317 0.081363 -0.034403 373310.000000 0 0 1
-27.197593 -17.262912 29.700278 43.815793 0.565560 0.825970 0.061019 -0.024653 192275.000000 0 0 1
-27.447273 -15.978412 30.193378 43.821257 0.527191 0.810671 0.071178 -0.026744 250438.000000 0 0 1
-26.265643 -15.224812 29.948408 42.644883 0.525320 0.792209 0.052966 -0.018568 -183411.000000 0 0 1
-26.264783 -13.811012 30.647908 42.660018 0.484103 0.769265 0.053877 -0.009199 -151777.000000 0 0 1
-25.861903 -13.802112 32.038023 43.425468 0.490231 0.741035 0.047257 -0.007321 338506.000000 0 0 1
-25.793773 -12.503212 32.579510 43.394395 0.451363 0.721559 0.048837 0.003161 -187270.000000 0 0 1
-25.003073 -12.585712 33.924123 43.981814 0.466337 0.689881 0.053625 -0.004439 1341230.000000 0 0 1
-23.566373 -12.754312 33.791872 43.126987 0.496068 0.670448 0.044019 -0.001597 1458750.000000 0 0 1
-23.037773 -14.098612 33.792940 43.260521 0.549180 0.674291 0.048428 -0.005478 -27084.600000 0 0 1
-23.070773 -14.867112 -32.909668 42.852513 0.572438 2.446470 0.053389 -0.006336 -436672.000000 0 0 1
-22.011873 -14.442712 -32.082978 41.502192 0.580674 2.454421 0.050042 -0.000727 7818.050000 0 0 1
-21.975273 -15.192212 -30.838528 40.801112 0.604885 2.427711 0.063494 0.001654 312574.000000 0 0 1
-20.633573 -15.020312 -30.058978 39.432173 0.629242 2.437649 0.070838 -0.000370 367107.000000 0 0 1
-20.424573 -13.871412 -29.277678 38.298325 0.596597 2.441005 0.063814 -0.002956 28455.700000 0 0 1
-20.999273 -13.877712 -27.982348 37.637377 0.583976 2.409044 0.070823 -0.002004 -134179.000000 0 0 1
-20.569773 -12.722112 -27.015338 36.260118 0.553901 2.411395 0.073624 -0.012559 342264.000000 0 0 1
-19.187273 -12.766912 -26.675298 35.252192 0.587114 2.429045 0.065270 -0.009658 376617.000000 0 0 1
-18.855773 -11.630812 -25.886058 34.072041 0.552703 2.433717 0.072619 -0.019050 818227.000000 0 0 1
-17.467073 -11.654312 -25.156108 32.768146 0.588383 2.446041 0.076918 -0.019992 141464.000000 0 0 1
-17.444573 -12.575512 -24.045418 32.258933 0.624605 2.411913 0.080828 -0.028119 693809.000000 0 0 1
-16.245973 -12.728712 -23.251918 31.090247 0.664598 2.415666 0.076532 -0.030829 985223.000000 0 0 1
-15.080473 -13.554312 -23.894418 31.338208 0.732151 2.437917 0.056644 -0.024377 61677.500000 0 0 1
-14.434373 -12.820112 -24.952018 31.548528 0.726238 2.483090 0.061215 -0.031896 -7903.260000 0 0 1
-13.906673 -13.676812 -25.921008 32.439935 0.777065 2.496504 0.068245 -0.028017 -576358.000000 0 0 1
-13.060173 -12.977212 -26.983708 32.666445 0.782212 2.542837 0.080414 -0.032130 176286.000000 0 0 1
-13.762073 -12.081612 -27.841398 33.324217 0.720466 2.559785 0.067596 -0.032091 -616858.000000 0 0 1
-12.842073 -11.566312 -28.697238 33.499700 0.733178 2.599521 0.079035 -0.040860 -443078.000000 0 0 1
-13.472573 -10.538512 -29.737388 34.305724 0.663805 2.619615 0.076163 -0.039855 -166731.000000 0 0 1
-12.590573 -9.633512 -30.326698 34.220399 0.653119 2.659911 0.068781 -0.031925 -539192.000000 0 0 1
-11.874173 -10.207812 -31.368418 35.059565 0.710078 2.678595 0.088942 -0.030611 -594924.000000 0 0 1
-11.064673 -9.262312 -32.222388 35.305803 0.696961 2.720555 0.074268 -0.026618 -566805.000000 0 0 1
-9.864473 -8.922912 -31.578118 34.265197 0.735323 2.742927 0.069588 -0.021065 -338893.000000 0 0 1
-9.256873 -7.828212 -32.286528 34.487541 0.701972 2.782396 0.052177 -0.016729 645194.000000 0 0 1
-7.719973 -7.732012 -31.969508 33.785077 0.786177 2.812269 0.056005 -0.012227 671492.000000 0 0 1
-7.284273 -7.585212 -30.590408 32.347630 0.805634 2.810467 0.048202 -0.009234 -122642.000000 0 0 1
-7.759173 -6.513112 -29.815828 31.489824 0.698313 2.814063 0.061591 -0.000749 -510411.000000 0 0 1
-7.251273 -5.125712 -30.241958 31.518723 0.615322 2.855989 0.052870 -0.010317 226958.000000 0 0 1
-5.905073 -4.867312 -29.875008 30.839532 0.689359 2.890834 0.051147 -0.014496 149868.000000 0 0 1
-5.403073 -3.782612 -30.604398 31.307037 0.610783 2.929329 0.060032 -0.023361 -321685.000000 0 0 1
-3.968873 -3.355212 -30.297158 30.739668 0.701807 2.971710 0.058806 -0.014524 -1004960.000000 0 0 1
-2.955373 -4.211112 -30.698118 31.126229 0.958861 2.975546 0.050791 -0.010127 -1132390.000000 0 0 1
-1.705073 -3.774512 -30.308018 30.589707 1.146502 3.005778 0.071790 -0.014915 -491896.000000 0 0 1
-0.946773 -2.793512 -31.277038 31.415811 1.244028 3.047565 0.062396 -0.011639 194647.000000 0 0 1
0.306727 -2.360712 -30.701928 30.794081 -1.441590 3.064210 0.053174 -0.011676 674086.000000 0 0 1
0.836227 -1.232412 -31.369748 31.405083 -0.974626 3.094152 0.047154 -0.005433 -134523.000000 0 0 1
1.225227 -0.083312 -30.463608 30.488351 -0.067893 3.101302 0.044824 -0.016956 -249735.000000 0 0 1
0.275127 0.473788 -29.574958 29.580032 1.044691 3.123070 0.058462 -0.018930 -885660.000000 0 0 1
0.576327 1.734888 -29.115548 29.172884 1.250067 3.078887 0.085569 -0.034841 -182660.000000 0 0 1
-0.502473 2.514288 -28.323618 28.439435 -1.373548 3.051313 0.067176 -0.030002 -527703.000000 0 0 1
-1.716173 2.713288 -28.951578 29.129042 -1.006817 3.031153 0.051905 -0.046497 -981259.000000 0 0 1
-2.421573 3.812088 -28.460048 28.816148 -1.004871 2.984219 0.081430 -0.043192 604923.000000 0 0 1
-3.886773 3.975188 -28.982058 29.510487 -0.796644 2.952066 0.104313 -0.048982 431496.000000 0 0 1
-3.875173 4.311688 -30.353178 30.901829 -0.838667 2.952874 0.099006 -0.052989 -78737.000000 0 0 1
-5.106173 4.657288 -30.948808 31.711072 -0.739455 2.921890 0.112803 -0.050463 -645844.000000 0 0 1
-4.836373 5.594188 -32.158918 32.998204 -0.857924 2.915571 0.110389 -0.039848 269981.000000 0 0 1
-4.411373 4.958788 -33.423528 34.076121 -0.843753 2.945570 0.110009 -0.044807 940659.000000 0 0 1
-3.198273 4.195088 -33.303268 33.718472 -0.919416 2.984499 0.093426 -0.045585 23264.700000 0 0 1
-2.621973 3.541988 33.441808 33.730920 -0.933562 0.131022 0.092979 -0.037859 -367151.000000 0 0 1
-3.361573 2.516788 32.812831 33.080452 -0.642664 0.127286 0.086591 -0.037916 -357189.000000 0 0 1
-2.896973 2.066788 31.590588 31.790397 -0.619683 0.112176 0.087637 -0.025282 -211971.000000 0 0 1
-2.791573 3.049188 30.393588 30.673452 -0.829476 0.135188 0.094315 -0.028765 -65950.900000 0 0 1
-4.018873 3.650688 30.045018 30.531656 -0.737429 0.178781 0.073590 -0.026744 -166213.000000 0 0 1
-3.945373 4.441988 28.874598 29.479479 -0.844539 0.202925 0.072338 -0.026360 606911.000000 0 0 1
-5.299273 5.151288 28.532988 29.474557 -0.771239 0.253443 0.079214 -0.025559 661115.000000 0 0 1
-5.167973 6.012188 27.432858 28.555491 -0.860765 0.281334 0.073184 -0.020839 -740863.000000 0 0 1
-6.370773 6.679088 27.256848 28.777296 -0.809020 0.326518 0.064144 -0.019681 -943190.000000 0 0 1
-6.417473 7.569388 26.020118 27.848270 -0.867570 0.364357 0.064996 -0.018293 -718091.000000 0 0 1
-5.475073 8.582188 25.890138 27.819591 -1.002933 0.374627 0.076768 -0.022333 -473574.000000 0 0 1
-5.739173 9.524988 24.878608 27.250847 -1.028512 0.420345 0.077397 -0.025936 -112586.000000 0 0 1
-4.883273 10.811388 25.028808 27.697901 -1.146547 0.442613 0.075921 -0.020316 -662436.000000 0 0 1
-4.838073 11.614188 23.871218 26.983910 -1.176091 0.485061 0.088593 -0.021569 84841.300000 0 0 1
-4.287573 12.902288 24.075138 27.648953 -1.249966 0.514085 0.077211 -0.009532 1141980.000000 0 0 1
-2.683473 12.928588 24.108888 27.487959 -1.366141 0.501066 0.072578 -0.007874 1382920.000000 0 0 1
-2.086273 12.200088 25.189798 28.066361 -1.401430 0.456709 0.072977 -0.007150 -142662.000000 0 0 1
-2.296673 12.753488 26.473008 29.474503 -1.392624 0.455215 0.082574 -0.007416 -965824.000000 0 0 1
-1.461073 12.257888 27.680568 30.308488 -1.452162 0.419496 0.090324 -0.009494 12004.500000 0 0 1
-0.160073 12.814588 27.616578 30.445274 -1.558306 0.434480 0.093455 -0.003968 -646250.000000 0 0 1
0.606727 12.265888 28.636058 31.158369 1.521372 0.405136 0.095770 -0.019258 293883.000000 0 0 1
2.126727 12.535388 28.391578 31.108530 1.402739 0.421045 0.093277 -0.018180 626530.000000 0 0 1
2.607727 13.883388 28.590618 31.890001 1.385129 0.458904 0.094887 -0.015859 222522.000000 0 0 1
3.996527 13.973488 28.303358 31.816830 1.292225 0.474389 0.113690 -0.024170 324565.000000 0 0 1
4.517827 15.389388 28.559848 32.755289 1.285251 0.511695 0.106412 -0.026396 -335205.000000 0 0 1
4.551927 15.832088 29.943928 34.176218 1.290835 0.502954 0.114436 -0.024066 938618.000000 0 0 1
3.489027 16.722288 30.428008 34.895156 1.365102 0.511556 0.095201 -0.020965 844714.000000 0 0 1
3.591827 18.181588 29.931188 35.204366 1.375755 0.554408 0.097407 -0.013107 307623.000000 0 0 1
4.671827 18.990288 30.398918 36.146248 1.329575 0.571671 0.112329 -0.016905 249017.000000 0 0 1
5.056127 20.024088 29.483438 35.997245 1.323464 0.611048 0.088959 -0.013799 685730.000000 0 0 1
6.291527 20.858388 30.012678 37.086608 1.277844 0.627906 0.089968 -0.010607 609727.000000 0 0 1
6.019627 21.434288 31.287898 38.400484 1.297008 0.618449 0.084981 -0.029918 862911.000000 0 0 1
7.142527 22.229088 31.771318 39.427969 1.259901 0.633760 0.060035 -0.028871 633307.000000 0 0 1
7.209927 23.685588 31.259588 39.876710 1.275306 0.669864 0.046542 -0.012815 -229249.000000 0 0 1
7.512427 23.643488 29.859478 38.820607 1.263147 0.693262 0.019964 -0.009441 140330.000000 0 0 1
7.450727 24.917688 29.318388 39.191484 1.280245 0.725631 0.017375 -0.013604 141035.000000 0 0 1
7.976927 25.021288 27.850428 38.279793 1.262177 0.756054 0.038625 -0.012848 45631.700000 0 0 1
7.087527 24.435788 26.900408 37.026649 1.288496 0.757560 0.038686 -0.011286 345962.000000 0 0 1
7.571827 24.455288 25.574078 36.186008 1.270538 0.785918 0.050654 -0.011964 -266819.000000 0 0 1
28.876479 2.401088 6.846982 29.774107 0.082959 1.338755 0.110906 -0.015168 -45559.900000 0 0 1
29.389979 3.207488 7.836382 30.585417 0.108705 1.311694 0.103967 -0.018932 334062.000000 0 0 1
28.564779 3.088088 9.002882 30.108716 0.107690 1.267139 0.105298 -0.019272 281089.000000 0 0 1
29.063069 4.045788 10.162582 31.053317 0.138318 1.237391 0.103523 -0.020365 137233.000000 0 0 1
28.703979 5.392288 10.078682 30.896198 0.185694 1.238504 0.099643 -0.017214 -101552.000000 0 0 1
29.488999 6.105888 9.145882 31.472688 0.204171 1.275945 0.116529 -0.024042 -191013.000000 0 0 1
29.033959 7.565388 8.861082 31.284575 0.254902 1.283624 0.150485 -0.028619 337165.000000 0 0 1
27.821979 7.706188 8.140482 29.995255 0.270208 1.295957 0.118362 -0.021131 87143.300000 0 0 1
27.937979 8.910588 7.344382 30.230270 0.308743 1.325393 0.148154 -0.047481 -185035.000000 0 0 1
26.932079 9.021088 6.214082 29.074589 0.323211 1.355406 0.129942 -0.039049 -260897.000000 0 0 1
25.606679 9.168488 6.654082 28.000714 0.343829 1.330861 0.105784 -0.030471 97834.600000 0 0 1
24.693379 9.369188 5.567782 26.991570 0.362641 1.363026 0.137366 -0.035722 477707.000000 0 0 1
23.322179 9.925088 6.024482 26.052367 0.402349 1.337439 0.083992 -0.031402 -108984.000000 0 0 1
23.382779 11.234588 6.586282 26.764705 0.447897 1.322162 0.078311 -0.027428 80723.400000 0 0 1
22.101279 11.797888 6.663482 25.924095 0.490329 1.310840 0.069429 -0.018555 -485282.000000 0 0 1
22.176179 13.272588 6.893482 26.748170 0.539321 1.310137 0.056987 -0.004385 -208477.000000 0 0 1
22.223779 14.009488 5.656582 26.873017 0.562461 1.358717 0.064028 -0.008289 343074.000000 0 0 1
22.163279 15.391088 5.928882 27.626947 0.606985 1.354509 0.075401 -0.017281 -265787.000000 0 0 1
21.910679 16.288888 4.672382 27.699041 0.639278 1.401302 0.073650 -0.024406 25809.200000 0 0 1
20.512379 16.183888 4.404482 26.496705 0.667986 1.403794 0.087485 -0.022210 776995.000000 0 0 1
20.225379 17.029888 3.302382 26.645615 0.699835 1.446540 0.092861 -0.023503 357332.000000 0 0 1
18.705679 17.062788 2.903382 25.484717 0.739499 1.456622 0.087039 -0.027287 700014.000000 0 0 1
17.996479 17.787088 3.907282 25.603137 0.779547 1.417588 0.100077 -0.035028 80646.100000 0 0 1
16.612579 17.747288 3.648782 24.581652 0.818410 1.421811 0.078566 -0.044076 -204288.000000 0 1 0
15.763579 18.841588 4.387282 24.954841 0.874111 1.394069 0.088784 -0.050210 663560.000000 0 1 0
14.382979 18.571188 4.121582 23.848408 0.911812 1.397100 0.085018 -0.050544 210549.000000 0 1 0
13.649879 19.737188 4.243182 24.369661 0.965743 1.395787 0.065207 -0.046812 459165.000000 0 1 0
12.115579 19.716688 3.915282 23.470502 1.019795 1.403196 0.046419 -0.038511 743055.000000 0 1 0
11.467479 18.888788 4.841582 22.621457 1.025169 1.355102 0.038526 -0.043411 -134729.000000 0 1 0
10.061579 18.960888 4.729982 21.980068 1.082931 1.353906 0.033862 -0.034614 390132.000000 0 1 0
9.262679 18.450788 5.982482 21.494625 1.105533 1.288747 0.028798 -0.027240 -726268.000000 0 1 0
9.302479 19.416288 7.018282 22.644749 1.124002 1.255677 0.040157 -0.024817 39113.100000 0 1 0
8.761479 18.863988 8.232982 22.369523 1.135987 1.193891 0.041659 -0.016898 -20720.500000 0 1 0
7.673579 19.781088 8.874282 22.998438 1.200743 1.174652 0.031880 -0.017189 1693480.000000 0 1 0
6.448179 19.914888 8.083482 22.439351 1.257662 1.202275 0.031803 -0.024825 969981.000000 0 1 0
6.394479 21.083488 7.350782 23.225779 1.276321 1.248767 0.029863 -0.016857 -611209.000000 0 1 0
5.167179 21.353188 6.486582 22.907076 1.333374 1.283699 0.022052 -0.008049 37432.500000 0 1 0
3.889779 21.587488 7.048582 23.039803 1.392523 1.259881 0.023604 -0.010580 264504.000000 0 1 0
3.698479 22.810588 7.805682 24.391194 1.410056 1.245045 0.032274 -0.013382 -477588.000000 0 1 0
3.677779 24.077488 6.965982 25.333306 1.419220 1.292234 0.041682 -0.012363 290455.000000 0 0 1
2.473979 24.100888 6.210382 25.010842 1.468504 1.319864 0.039700 -0.016651 427316.000000 0 0 1
2.521879 25.383588 5.560482 26.107573 1.471771 1.356169 0.052656 -0.014852 104055.000000 0 0 1
1.288379 25.633488 4.654782 26.084528 1.520577 1.391385 0.054058 -0.022409 630157.000000 0 0 1
0.092479 25.873688 5.423782 26.436219 1.567222 1.364164 0.057406 -0.029159 -59225.700000 0 0 1
-0.957521 26.070888 4.543582 26.481167 -1.534085 1.398365 0.067288 -0.031823 -1117500.000000 0 0 1
-2.142921 26.802888 5.141182 27.375512 -1.491015 1.381872 0.085764 -0.032706 -513489.000000 0 0 1
-3.080321 26.961788 4.086882 27.443196 -1.457042 1.421319 0.104926 -0.042580 -33881.200000 0 0 1
-4.185521 27.729988 4.544182 28.409865 -1.420989 1.410155 0.097309 -0.039736 -356286.000000 0 0 1
-5.042221 28.226388 3.400282 28.874121 -1.394026 1.452760 0.099649 -0.047128 -332974.000000 0 0 1
-4.354021 29.139688 2.570382 29.575087 -1.422475 1.483776 0.095370 -0.045469 180451.000000 0 0 1
-5.105721 29.469988 1.409682 29.942207 -1.399248 1.523699 0.116558 -0.053527 -367673.000000 0 0 1
-4.376721 30.481988 0.515282 30.798909 -1.428187 1.554065 0.099158 -0.052303 -203434.000000 0 0 1
-4.294121 31.861288 0.946082 32.163274 -1.436828 1.541377 0.105997 -0.048469 202432.000000 0 0 1
-3.175221 31.915788 1.834582 32.125772 -1.471635 1.513659 0.110525 -0.051364 -101048.000000 0 0 1
-2.554621 33.335288 1.920382 33.488138 -1.494312 1.513420 0.096798 -0.049883 -603298.000000 0 0 1
-1.899721 33.655988 0.729682 33.717457 -1.514411 1.549154 0.066295 -0.042979 -4602.680000 0 0 1
-1.030021 -33.351230 0.789582 33.376473 1.539922 1.547137 0.069521 -0.038964 701016.000000 0 0 1
0.335379 -33.432330 1.522382 33.468655 -1.560765 1.525294 0.062116 -0.028185 -136313.000000 0 0 1
0.177979 -33.466030 2.949782 33.596251 -1.565478 1.482882 0.060528 -0.034552 -79374.700000 0 0 1
1.294179 -34.021030 3.613182 34.236830 -1.532774 1.465064 0.056042 -0.032290 16389.200000 0 0 1
1.207079 -33.847130 5.179382 34.262389 -1.535149 1.419046 0.064244 -0.037308 281388.000000 0 0 1
0.085279 33.554088 5.661882 34.028532 1.568255 1.403633 0.075490 -0.045597 -1560.280000 0 0 1
-0.204021 33.799988 7.032182 34.524374 -1.564760 1.365673 0.079123 -0.041333 -312407.000000 0 0 1
0.895079 33.544088 8.054382 34.509130 1.544119 1.335225 0.074633 -0.038748 -149513.000000 0 0 1
1.434379 32.223388 8.107382 33.258590 1.526312 1.324547 0.078501 -0.040957 -332659.000000 0 0 1
2.374979 32.073888 9.098782 33.423983 1.496884 1.295094 0.099124 -0.038573 -483515.000000 0 0 1
2.984779 30.644488 9.397582 32.191740 1.473702 1.274557 0.088805 -0.034730 58135.300000 0 0 1
2.106379 29.750588 10.002782 31.457749 1.500113 1.247203 0.107705 -0.039454 -376426.000000 0 0 1
2.787379 28.584688 10.200282 30.477855 1.473591 1.229532 0.086594 -0.035047 -623651.000000 0 0 1
2.242379 27.667788 11.255382 29.953604 1.489927 1.185579 0.080416 -0.036668 -728859.000000 0 0 1
2.670379 28.031588 12.571282 30.837282 1.475820 1.150901 0.087155 -0.034374 81247.200000 0 0 1
2.265979 27.147388 13.636282 30.464135 1.487520 1.106697 0.092963 -0.028335 1295000.000000 0 0 1
0.721979 26.789788 13.849882 30.166757 1.543853 1.093802 0.070343 -0.022174 1406390.000000 0 0 1
-0.113921 27.784888 14.458082 31.321703 -1.566696 1.090999 0.073564 -0.026174 445017.000000 0 0 1
-0.461121 28.934588 13.636282 31.990173 -1.554861 1.130437 0.091428 -0.035962 -64572.900000 0 0 1
-1.294021 30.016288 14.385282 33.310484 -1.527712 1.124248 0.067600 -0.024826 1493440.000000 0 0 1
-2.575421 29.658988 14.975982 33.325192 -1.484179 1.104715 0.043649 -0.014624 1086860.000000 0 0 1
-3.155221 30.812488 15.553782 34.659558 -1.468751 1.105420 0.033569 -0.013146 584137.000000 0 0 1
-4.509621 30.463688 16.314882 34.850371 -1.423831 1.083611 0.011762 0.000285 601737.000000 0 0 1
-5.471221 30.039988 15.401082 34.198369 -1.390640 1.103644 0.025858 -0.005054 -1081780.000000 0 0 1
-6.633421 29.684488 16.064482 34.398236 -1.350944 1.084885 0.022174 0.003178 -1317420.000000 0 0 1
-7.706821 29.181688 15.111182 33.753723 -1.312594 1.106617 0.019241 -0.006382 -74822.600000 0 0 1
-8.842321 28.703988 15.839482 33.955776 -1.271969 1.085496 0.026647 -0.003188 -950785.000000 0 0 1
-9.787921 28.230488 15.004082 33.434807 -1.237051 1.105423 0.032115 -0.007040 -160637.000000 0 0 1
-11.056921 27.758688 15.843482 33.820351 -1.191737 1.083249 0.037872 -0.002042 595568.000000 0 0 1
-11.634821 28.891888 16.534782 35.263427 -1.187963 1.082759 0.030267 -0.007137 246132.000000 0 0 1
-11.335321 28.979388 17.873382 35.885264 -1.197941 1.049424 0.041866 -0.010314 -425188.000000 0 0 1
-12.027121 30.203088 18.499582 37.404715 -1.191835 1.053446 0.049423 -0.011192 -663753.000000 0 0 1
-13.372421 29.957288 18.777282 37.800093 -1.150954 1.050944 0.060176 -0.009625 -598534.000000 0 0 1
-13.934221 31.118088 19.277382 39.167785 -1.149786 1.056210 0.068449 -0.016166 184852.000000 0 0 1
-15.092721 30.802688 20.271882 39.844008 -1.115196 1.037028 0.076122 -0.016367 507913.000000 0 0 1
-14.560421 30.682288 21.587282 40.242010 -1.127711 1.004587 0.078049 -0.025984 115220.000000 0 0 1
-15.598221 30.455288 22.497382 40.950717 -1.097462 0.989178 0.067110 -0.018563 -344202.000000 0 0 1
-15.155621 30.528488 23.972582 41.669726 -1.109999 0.957826 0.071556 -0.016720 -195281.000000 0 0 1
-14.259021 29.412488 24.143182 40.636281 -1.119387 0.934614 0.060324 -0.022207 459903.000000 0 0 1
-13.750821 29.158888 25.408582 41.047800 -1.130140 0.903328 0.065930 -0.021517 411542.000000 0 0 1
-13.012821 30.278888 26.277682 42.150458 -1.164896 0.897680 0.063336 -0.024175 -405792.000000 0 0 1
-13.934321 31.224088 26.709682 43.387971 -1.151050 0.907648 0.069265 -0.022567 237171.000000 0 0 1
-13.369821 32.449388 27.220282 44.414622 -1.179970 0.911112 0.079033 -0.029262 173776.000000 0 0 1
-14.559621 33.362688 27.699282 45.741685 -1.159306 0.920328 0.083795 -0.032444 1134860.000000 0 0 1
-15.485521 32.820388 28.658282 46.241500 -1.129941 0.902369 0.054781 -0.033902 735364.000000 0 0 1
-14.919621 32.639388 29.982682 46.764152 -1.142050 0.874805 0.083566 -0.030539 -143833.000000 0 0 1
-15.884521 31.918688 30.964582 47.222092 -1.109026 0.855657 0.064245 -0.025969 -724339.000000 0 0 1
-17.069321 32.622688 31.111882 48.203223 -1.088734 0.869208 0.069348 -0.020795 -787942.000000 0 0 1
-17.614221 32.192088 32.365382 48.929636 -1.070136 0.848022 0.050033 -0.015706 -469144.000000 0 0 1
-19.000421 32.768688 32.610282 49.982331 -1.045336 0.860002 0.052265 -0.010482 -373899.000000 0 0 1
-18.906121 -33.986130 32.915682 50.950374 1.063137 0.868419 0.058906 -0.010795 -319918.000000 0 0 1
-20.232521 -33.603730 33.138282 51.348917 1.028840 0.869308 0.053057 -0.007565 -224116.000000 0 0 1
-20.433521 -32.090130 33.417482 50.636285 1.003789 0.850042 0.077943 -0.010021 -130280.000000 0 0 1
-19.999121 -31.718030 -33.272675 50.130521 1.008231 2.296579 0.074689 -0.005987 819934.000000 0 0 1
-21.000721 -31.945230 -32.213375 49.992295 0.989238 2.270991 0.064441 -0.004743 912265.000000 0 0 1
-20.724521 -31.170530 -30.890475 48.531733 0.984035 2.260749 0.076683 -0.002596 -6761.530000 0 0 1
-21.032621 -29.788430 -31.131575 47.946811 0.956010 2.277452 0.096794 -0.004130 200425.000000 0 0 1
-20.530421 -28.929930 -30.122475 46.538184 0.953616 2.274786 0.099527 -0.003939 -11042.300000 0 0 1
-20.970921 -27.460730 -30.351075 45.989770 0.918604 2.291552 0.100023 -0.011454 -30473.600000 0 0 1
-22.349421 -27.263730 -30.150575 46.388196 0.884129 2.278331 0.093380 -0.010564 -125638.000000 0 0 1
-22.691421 -25.883530 -30.157475 45.763861 0.851019 2.290258 0.102102 -0.009345 431308.000000 0 0 1
-24.058121 -25.647330 -29.446675 45.865950 0.817360 2.267921 0.092024 -0.009921 195127.000000 0 0 1
-23.992021 -25.900030 -28.061875 45.098752 0.823622 2.242387 0.092700 -0.016395 258542.000000 0 0 1
-23.390421 -24.831930 -27.322675 43.706580 0.815282 2.246106 0.111035 -0.022931 -193395.000000 0 0 1
-22.897121 -25.290630 -25.920775 42.846011 0.835028 2.220531 0.102938 -0.016695 323176.000000 0 0 1
-24.024821 -25.524330 -25.079275 43.100504 0.815652 2.191833 0.092866 -0.010300 629704.000000 0 0 1
-23.660521 -25.823430 -23.741475 42.312261 0.829080 2.166512 0.089122 -0.009820 -1554570.000000 0 0 1
-24.742921 -25.571630 -22.761875 42.240068 0.801867 2.139891 0.086310 -0.009412 647820.000000 0 0 1
-26.050021 -26.177530 -23.027675 43.521724 0.787840 2.128345 0.085545 -0.006293 1426260.000000 0 0 1
-26.116421 -27.580530 -22.860075 44.332111 0.812658 2.112568 0.070172 -0.000922 -581839.000000 0 0 1
-27.585221 -28.057230 -22.962675 45.556964 0.793881 2.099070 0.039924 0.009843 499463.000000 0 0 1
-28.387721 -27.718030 -21.853375 45.295937 0.773463 2.074255 0.044215 0.012945 -477113.000000 0 0 1
-29.636921 -27.181830 -22.197875 45.934133 0.742216 2.075165 0.043109 0.008985 -16786.500000 0 0 1
-30.341121 -26.606030 -20.927775 45.458071 0.719903 2.049214 0.043487 0.011628 -52408.800000 0 0 1
-30.829321 -27.620930 -20.060875 45.997842 0.730562 2.022086 0.026407 0.017159 -15355.700000 0 0 1
-31.337821 -27.014730 -18.920175 45.495359 0.711448 1.999696 0.018008 0.013919 -939997.000000 0 0 1
-32.057021 -28.123730 -18.074675 46.317282 0.720133 1.971684 0.009344 0.007630 -116141.000000 0 0 1
-33.331221 -28.586830 -18.529275 47.660373 0.708924 1.970101 0.012024 0.007322 1314780.000000 0 0 1
-34.429721 -27.653630 -18.584775 47.911614 0.676683 1.969145 0.005184 0.009688 164856.000000 0 0 1
-34.865821 -27.041930 -17.183475 47.351486 0.659685 1.942166 0.013631 0.009318 -876683.000000 0 0 1
-33.865021 -26.193330 -16.694175 45.952428 0.658349 1.942596 0.008320 0.013676 148363.000000 0 0 1
-34.309621 -25.644130 -15.470775 45.542468 0.641856 1.917394 0.012833 0.011902 95715.700000 0 0 1
-34.131721 -26.451630 -14.148275 45.440475 0.659302 1.887419 0.022067 0.009488 598866.000000 0 0 1
-34.951621 -27.671430 -14.096075 46.754927 0.669664 1.877050 0.038636 0.005690 843582.000000 0 0 1
-34.621521 -28.366930 -12.912675 46.584006 0.686425 1.851666 0.040038 -0.001795 -167142.000000 0 0 1
-35.427621 -29.626630 -12.600575 47.870952 0.696462 1.837154 0.057671 -0.002389 -227811.000000 0 0 1
-35.114121 -30.657530 -13.543775 48.541935 0.717743 1.853561 0.051109 -0.006122 134190.000000 0 0 1
-35.479421 -31.909830 -13.111175 49.486660 0.732478 1.838942 0.038408 -0.012852 -341655.000000 0 0 1
-34.978221 -33.037930 -14.042875 50.121683 0.756879 1.854773 0.035629 0.001722 -272788.000000 0 0 1
-33.581421 -33.212530 -14.022475 49.268791 0.779875 1.859398 0.024823 -0.004622 -161582.000000 0 0 1
-33.185521 33.915388 -14.909175 49.737469 -0.796275 1.875235 0.050555 -0.024213 -20493.900000 0 0 1
-31.655921 33.853388 -15.114075 48.750225 -0.818930 1.886022 0.045127 -0.019881 90314.100000 0 0 1
-31.325321 33.015088 -16.173275 48.299550 -0.811655 1.912246 0.057220 -0.024320 -147308.000000 0 0 1
-29.904821 32.953788 -16.159075 47.343069 -0.833865 1.919116 0.055868 -0.023736 221813.000000 0 0 1
9.597527 20.288488 -9.004518 24.182982 1.128938 1.952335 0.070117 -0.024717 -891570.000000 0 1 0
8.217127 20.104188 -9.007618 23.512481 1.182789 1.963946 0.066381 -0.028496 -592301.000000 0 1 0
7.576827 20.155588 -10.265518 23.854494 1.211222 2.015665 0.076491 -0.032936 178681.000000 0 1 0
7.660427 18.821388 -11.124218 23.166247 1.184264 2.071669 0.063368 -0.025877 -20795.400000 0 1 0
8.905727 18.584188 -11.747018 23.720802 1.123919 2.088884 0.094496 -0.030026 -205086.000000 0 1 0
8.792927 17.396988 -12.496618 23.154616 1.102816 2.140881 0.089041 -0.037809 244007.000000 0 1 0
10.104727 16.968688 -13.229018 23.770755 1.033698 2.160994 0.102691 -0.037273 477194.000000 0 1 0
10.182227 15.607488 -13.600318 23.070329 0.992740 2.201255 0.113414 -0.051796 -419848.000000 0 1 0
11.253327 15.348488 -14.460618 23.902363 0.938142 2.220546 0.119122 -0.049707 -398312.000000 0 1 0
11.269427 13.909188 -15.079918 23.406611 0.889858 2.270850 0.104618 -0.053211 -338590.000000 0 1 0
11.367927 12.893488 -14.115918 22.242548 0.848196 2.258334 0.112864 -0.057044 1429210.000000 0 1 0
12.664427 12.551788 -13.526118 22.380594 0.780931 2.219769 0.140328 -0.058246 1322730.000000 0 1 0
13.644927 11.744588 -14.424918 23.069409 0.710690 2.246291 0.141399 -0.051785 4202.350000 0 1 0
14.134727 12.461288 -15.515418 24.409064 0.722560 2.259636 0.111836 -0.034282 -545338.000000 0 1 0
15.083427 11.691488 -16.149418 25.000088 0.659386 2.273095 0.107429 -0.045902 -465403.000000 0 0 1
15.607727 12.311588 -17.478718 26.470397 0.667883 2.292030 0.075182 -0.036352 -263280.000000 0 0 1
16.386827 13.422888 -17.179118 27.273139 0.686295 2.252210 0.051794 -0.023196 -624974.000000 0 0 1
17.165027 13.770488 -18.282418 28.609637 0.676106 2.264033 0.036303 -0.016083 180121.000000 0 0 1
18.346727 14.698688 -17.827018 29.503498 0.675449 2.219601 0.039449 -0.011545 55663.900000 0 0 1
17.989627 16.071288 -17.514918 29.810826 0.729137 2.198806 0.048187 -0.020526 305766.000000 0 0 1
17.526727 16.926288 -18.604418 30.656317 0.767972 2.222914 0.049627 -0.012697 52818.000000 0 0 1
17.255727 18.405588 -18.226218 31.124280 0.817631 2.196410 0.051339 -0.015939 1019490.000000 0 0 1
18.443127 19.206588 -18.012118 32.147758 0.805673 2.165534 0.065970 -0.010228 1101340.000000 0 0 1
17.981027 20.435288 -17.557318 32.391014 0.849197 2.143663 0.041419 -0.008189 352189.000000 0 0 1
19.037727 21.547388 -17.830018 33.832448 0.847157 2.125874 0.061423 -0.015932 944608.000000 0 0 1
20.265427 21.473688 -17.076518 34.108859 0.814338 2.095143 0.085166 -0.021107 415431.000000 0 0 1
20.291627 22.560388 -16.185818 34.390434 0.838293 2.060822 0.078813 -0.023940 154440.000000 0 0 1
21.665127 22.971788 -15.583618 35.212639 0.814663 2.029245 0.083683 -0.025866 145180.000000 0 0 1
22.105927 22.147488 -14.532018 34.501635 0.786337 2.005562 0.091920 -0.026226 443717.000000 0 0 1
23.045027 22.711288 -13.586818 35.092414 0.778104 1.968359 0.082511 -0.026929 914244.000000 0 0 1
24.570827 22.638988 -13.837218 36.162383 0.744501 1.963450 0.076828 -0.020159 163437.000000 0 0 1
25.021027 23.190588 -15.042318 37.284400 0.747450 1.986078 0.080202 -0.023085 -297616.000000 0 0 1
26.192927 23.936288 -14.852918 38.465888 0.740412 1.967231 0.073026 -0.021116 -285261.000000 0 0 1
26.829927 24.360588 -16.206218 39.697919 0.737197 1.991320 0.072383 -0.017452 -136201.000000 0 0 1
27.485827 23.342588 -16.983018 39.859378 0.704064 2.010944 0.077500 -0.025860 277721.000000 0 0 1
27.561427 23.643388 -18.380818 40.700080 0.709030 2.039372 0.062283 -0.017313 -697587.000000 0 0 1
27.931327 22.447688 -19.223718 40.664592 0.676977 2.063192 0.057900 -0.015307 -727933.000000 0 0 1
29.275527 22.567088 -19.538218 41.809950 0.656713 2.057042 0.052067 -0.011114 -997819.000000 0 0 1
29.812127 21.568088 -20.373718 42.059883 0.626303 2.076471 0.067318 -0.007079 379758.000000 0 0 1
31.338627 21.731988 -20.575618 43.332954 0.606321 2.065563 0.092430 -0.006622 -152064.000000 0 0 1
31.697027 22.934188 -21.258218 44.526288 0.626353 2.068525 0.072636 -0.009430 -967530.000000 0 0 1
33.062527 23.155988 -21.213018 45.599590 0.610974 2.054659 0.091105 -0.011422 -620246.000000 0 0 1
33.578027 24.489288 -21.845118 46.951234 0.630137 2.054739 0.102523 -0.018621 84360.100000 0 0 1
33.513127 24.645388 -23.274418 47.667844 0.634088 2.080894 0.105127 -0.015268 1574480.000000 0 0 1
32.130327 24.760288 -23.749618 47.005044 0.656568 2.100476 0.088110 -0.014292 1519130.000000 0 0 1
32.054627 25.108688 -25.246518 47.909623 0.664481 2.125818 0.090481 -0.016520 -460344.000000 0 0 1
32.102627 26.505988 -25.526058 48.833654 0.690195 2.120828 0.106329 -0.022198 109321.000000 0 0 1
30.996127 27.098588 -26.208298 48.805412 0.718409 2.137668 0.088428 -0.015872 352084.000000 0 0 1
30.696627 26.612188 -27.666848 49.152273 0.714248 2.168663 0.090621 -0.010367 -79251.000000 0 0 1
30.054127 25.371488 -27.775218 48.150033 0.701113 2.185660 0.079912 -0.019657 -98041.800000 0 0 1
29.895327 25.125988 -29.131488 48.720524 0.698933 2.211713 0.069234 -0.021975 -225058.000000 0 0 1
29.176227 23.795888 -29.407268 47.773256 0.684176 2.233892 0.064185 -0.024876 -393162.000000 0 0 1
27.835227 23.881088 -29.028828 46.773701 0.709088 2.240333 0.059395 -0.020257 -856717.000000 0 0 1
27.203027 22.636388 -29.145218 45.845987 0.694026 2.259737 0.060277 -0.024238 33996.300000 0 0 1
25.788427 22.722288 -28.509618 44.655836 0.722277 2.263253 0.036555 -0.015316 -27843.400000 0 0 1
25.706527 22.740788 -27.124758 43.746103 0.724259 2.239602 0.033100 0.001303 241574.000000 0 0 1
24.384927 22.587088 -26.654498 42.605909 0.747142 2.246704 0.036542 -0.002766 -69337.900000 0 0 1
24.369827 22.784988 -25.092988 41.745685 0.751802 2.215663 0.042089 -0.000218 -82628.100000 0 0 1
24.926527 21.729588 -24.342718 41.061840 0.716984 2.205366 0.035588 -0.002252 220257.000000 0 0 1
25.092327 22.110488 -22.961018 40.567313 0.722311 2.172440 0.053822 -0.003619 -36374.400000 0 0 1
25.614827 20.837888 -22.193818 39.785707 0.682924 2.162570 0.068242 -0.009685 1548950.000000 0 0 1
26.960627 20.487988 -22.649518 40.738603 0.649821 2.160328 0.047581 -0.008683 1373250.000000 0 0 1
27.303827 19.141588 -22.336118 40.134792 0.611436 2.160997 0.090265 -0.015684 200522.000000 0 0 1
28.613827 18.633188 -22.968218 41.151985 0.577215 2.162929 0.095866 -0.020738 -816274.000000 0 0 1
29.763927 18.559888 -22.222718 41.523608 0.557570 2.135520 0.099073 -0.026611 -1234030.000000 0 0 1
30.701627 17.944988 -23.095518 42.403013 0.528942 2.146788 0.084439 -0.014879 -766516.000000 0 0 1
31.978027 17.643388 -22.338018 42.812036 0.504174 2.119720 0.089640 -0.013624 -757042.000000 0 0 1
32.525327 18.875488 -21.902418 43.518926 0.525832 2.098192 0.087060 -0.009981 -318413.000000 0 0 1
33.815127 18.660088 -21.362418 44.136319 0.504245 2.076028 0.070929 -0.006825 265474.000000 0 0 1
34.206127 19.757888 -20.329618 44.426644 0.523795 2.046090 0.050064 -0.011613 1347.000000 0 0 1
33.639327 19.494488 -19.029818 43.287104 0.525221 2.025970 0.046204 -0.007305 311442.000000 0 0 1
33.995627 20.565388 -18.168018 43.688840 0.544046 1.999674 0.030586 -0.003098 -223060.000000 0 0 1
33.246527 20.442388 -16.871618 42.519105 0.551284 1.978825 0.051684 -0.015582 -210031.000000 0 0 1
33.709627 19.279688 -16.215318 42.083036 0.519527 1.966348 0.054309 -0.024419 200227.000000 0 0 1
33.364727 19.228588 -14.863418 41.277898 0.522822 1.939152 0.065683 -0.024808 -381003.000000 0 0 1
33.945127 18.050588 -14.072818 40.940684 0.488730 1.921690 0.067405 -0.017420 -203913.000000 0 0 1
35.362327 18.019888 -14.095518 42.117623 0.471281 1.912052 0.056511 -0.015720 -68558.700000 0 0 1
36.004627 17.182388 -13.197318 42.020672 0.445264 1.890270 0.051204 -0.010184 -37083.400000 0 0 1
35.988427 17.657688 -11.715618 41.763819 0.456139 1.855133 0.078184 -0.018328 -822520.000000 0 0 1
36.900727 18.696388 -11.503118 42.936468 0.468967 1.842020 0.061080 -0.026653 -96423.500000 0 0 1
36.821227 19.265388 -10.158618 42.780316 0.482046 1.810547 0.072694 -0.023130 -584994.000000 0 0 1
35.543527 20.020888 -9.793018 41.953325 0.512980 1.806396 0.079005 -0.023012 136307.000000 0 0 1
34.309927 19.326588 -9.947018 40.615653 0.512993 1.818219 0.108123 -0.039832 180471.000000 0 0 1
33.211227 20.221888 -9.912018 40.126780 0.546929 1.820398 0.073203 -0.023367 -505524.000000 0 0 1
31.886527 19.554888 -10.203818 38.771925 0.550116 1.837109 0.047240 -0.019154 -623432.000000 0 0 1
31.629927 19.150388 -11.549418 38.737304 0.544418 1.873547 0.065157 -0.027229 -386197.000000 0 0 1
30.315927 18.683388 -11.680418 37.477415 0.552311 1.887742 0.065630 -0.029062 -120810.000000 0 0 1
30.045327 18.115088 -13.065218 37.437655 0.542568 1.927285 0.105164 -0.028104 16438.000000 0 0 1
30.734427 16.859988 -13.177418 37.450081 0.501745 1.930360 0.104653 -0.033682 226853.000000 0 0 1
30.256527 16.145788 -14.238218 37.133149 0.490188 1.964311 0.103059 -0.032829 -23863.500000 0 0 1
31.360027 15.378188 -15.033218 38.025487 0.455918 1.977241 0.090455 -0.033750 523832.000000 0 0 1
32.112127 14.475788 -14.197518 37.977713 0.423510 1.953940 0.079050 -0.033302 477588.000000 0 0 1
33.385227 14.203988 -14.746418 39.163548 0.402258 1.956849 0.069488 -0.025886 502337.000000 0 0 1
34.299127 13.299788 -13.825518 39.299611 0.369909 1.930287 0.057990 -0.041765 193863.000000 0 0 1
34.936827 13.875588 -12.706918 39.680973 0.378058 1.896765 0.058510 -0.025445 578013.000000 0 0 1
35.903927 13.004488 -12.092618 40.055463 0.347504 1.877478 0.065166 -0.017297 641335.000000 0 0 1
36.719627 13.717088 -10.956018 40.700416 0.357510 1.843345 0.085210 -0.012761 737362.000000 0 0 1
-36.237125 14.518588 -11.596018 40.723289 -0.381071 1.859544 0.037455 -0.006037 875108.000000 0 0 1
-35.237625 14.998888 -10.664818 39.754185 -0.402421 1.842392 0.032097 0.010913 584367.000000 0 0 1
-33.807625 15.204688 -11.283818 38.748711 -0.422639 1.866283 0.044256 -0.007592 683253.000000 0 0 1
-33.075925 14.087988 -11.742618 37.820329 -0.402657 1.886499 0.051680 0.000548 171124.000000 0 0 1
-33.001625 12.997988 -10.851018 37.091772 -0.375201 1.867684 0.071015 0.003140 -503714.000000 0 0 1
-31.794025 12.000388 -11.065518 35.739544 -0.360910 1.885585 0.091860 -0.008063 554499.000000 0 0 1
-31.931825 11.207188 -12.225118 35.981885 -0.337541 1.917455 0.080219 -0.007008 968.222000 0 0 1
-31.063225 10.101788 -12.282518 34.897426 -0.314414 1.930461 0.117207 -0.015326 -133101.000000 0 0 1
-31.061125 9.351088 -13.681318 35.205323 -0.292424 1.969924 0.127095 -0.027616 -104505.000000 0 0 1
-32.320425 8.787788 -13.958118 36.285867 -0.265478 1.965648 0.089173 -0.023095 60370.300000 0 0 1
-32.244525 7.831588 -15.017818 36.422219 -0.238267 1.995802 0.106395 -0.031002 511051.000000 0 0 1
-33.658425 7.482688 -15.603218 37.846276 -0.218755 1.995750 0.110819 -0.024674 832562.000000 0 0 1
-34.457325 6.630288 -14.791018 38.079419 -0.190097 1.969719 0.113115 -0.036441 513642.000000 0 0 1
-35.467325 5.950588 -15.533518 39.174364 -0.166228 1.978522 0.075061 -0.039053 235991.000000 0 0 1
-36.096825 4.843288 -14.608218 39.240773 -0.133378 1.952251 0.090124 -0.034223 -511884.000000 0 0 1
36.709327 4.272788 -15.113618 39.928096 0.115874 1.958994 0.095104 -0.032181 -360105.000000 0 0 1
35.926927 3.752888 -14.059718 38.762146 0.104081 1.941979 0.109602 -0.032628 -147934.000000 0 0 1
34.808327 2.833588 -14.534218 37.827138 0.081226 1.965167 0.115240 -0.026857 -385062.000000 0 0 1
35.322827 1.564888 -15.004018 38.409264 0.044274 1.972118 0.118018 -0.028092 72020.500000 0 0 1
34.456927 0.461488 -14.924118 37.552924 0.013392 1.979495 0.107096 -0.021913 -81555.300000 0 0 1
33.971827 0.012588 -13.498918 36.555519 0.000371 1.949022 0.132044 -0.032615 -248516.000000 0 0 1
35.045427 -0.437712 -12.719418 37.284811 -0.012489 1.918928 0.154076 -0.033227 137557.000000 0 0 1
34.849427 -0.228912 -11.349018 36.651537 -0.006569 1.885618 0.157642 -0.030031 -184751.000000 0 0 1
35.095927 1.142788 -10.733018 36.718221 0.032550 1.867435 0.151560 -0.037725 -168152.000000 0 0 1
34.177627 2.042588 -11.316518 36.060310 0.059693 1.890012 0.141788 -0.032698 469844.000000 0 0 1
34.263327 3.274888 -10.642818 36.027352 0.095291 1.870680 0.139876 -0.034922 463312.000000 0 0 1
33.116227 4.298388 -11.066618 35.179976 0.129075 1.890802 0.127926 -0.031075 547097.000000 0 0 1
33.127227 4.764088 -12.375618 35.682848 0.142833 1.924978 0.124682 -0.033673 59141.200000 0 0 1
31.992827 5.555888 -12.581718 34.823965 0.171946 1.940452 0.114522 -0.033858 -477192.000000 0 0 1
32.013027 6.343888 -13.886318 35.467008 0.195631 1.973088 0.076379 -0.030762 -202321.000000 0 0 1
31.869927 5.490388 -14.985318 35.642620 0.170600 2.004718 0.069288 -0.021460 77623.600000 0 0 1
32.164927 6.234788 -16.154418 36.529719 0.191464 2.028876 0.057877 -0.013913 -272544.000000 0 0 1
31.085527 7.133288 -16.842718 36.067589 0.225568 2.056665 0.071546 -0.016193 629746.000000 0 0 1
29.954927 6.599988 -17.522118 35.325375 0.216866 2.089806 0.061813 -0.009123 1037080.000000 0 0 1
28.975127 5.892888 -16.728818 33.972599 0.200641 2.085665 0.059036 -0.010920 152284.000000 0 0 1
27.615027 5.764388 -17.466118 33.179560 0.205786 2.125171 0.040968 -0.011003 -75030.700000 0 0 1
27.604327 4.915088 -18.569318 33.629995 0.176208 2.155756 0.045440 -0.006828 519163.000000 0 0 1
26.419127 5.126188 -19.347218 33.144576 0.191652 2.194102 0.034369 -0.008171 408660.000000 0 0 1
25.979827 3.840788 -20.061018 33.047655 0.146774 2.223118 0.040673 0.001678 7900.600000 0 0 1
25.256827 3.007488 -19.153718 31.840497 0.118518 2.216239 0.052639 -0.011428 114520.000000 0 0 1
24.973927 1.730888 -19.692418 31.850971 0.069197 2.237333 0.057838 -0.010025 428639.000000 0 0 1
23.801627 0.943088 -18.963218 30.446847 0.039602 2.243151 0.064393 -0.013055 1811830.000000 0 0 1
22.492927 1.524688 -19.211418 29.619842 0.067682 2.276539 0.064468 -0.024173 1122250.000000 0 0 1
21.500527 0.739288 -18.568118 28.418202 0.034371 2.282848 0.073715 -0.024622 -196577.000000 0 0 1
20.161927 1.471688 -18.413718 27.344729 0.072864 2.309584 0.080357 -0.027124 -1586890.000000 0 0 1
19.518127 1.625888 -19.630118 27.729810 0.083110 2.357326 0.074824 -0.023581 -293334.000000 0 0 1
18.446527 2.520288 -19.592518 27.027634 0.135786 2.381696 0.055359 -0.015834 387598.000000 0 0 1
17.140127 2.089288 -18.852318 25.564800 0.121296 2.400058 0.073992 -0.020062 -737677.000000 0 0 1
17.259827 2.092988 -17.447218 24.631030 0.120674 2.357944 0.073609 -0.028604 291925.000000 0 1 0
16.024927 1.809388 -16.789418 23.279964 0.112435 2.376324 0.042735 -0.015623 528254.000000 0 1 0
15.141127 3.072088 -16.580618 22.662929 0.200179 2.391489 0.050601 -0.016570 250465.000000 0 1 0
14.352627 3.447688 -17.732618 23.072282 0.235746 2.447396 0.046123 -0.009359 689202.000000 0 1 0
13.424627 4.484888 -17.454118 22.471784 0.322422 2.460226 0.042103 -0.017627 72244.200000 0 1 0
-20.323073 -22.049612 -16.967218 34.454306 0.826122 2.085705 0.095677 -0.021503 -33132.900000 0 0 1
-19.926973 -22.328112 -18.291918 35.074536 0.842162 2.119423 0.096814 -0.020998 -67879.200000 0 0 1
-20.879273 -21.953712 -19.242818 35.891441 0.810477 2.136653 0.096442 -0.015560 -169064.000000 0 0 1
-20.560373 -22.686812 -20.579718 36.890990 0.834528 2.162592 0.087549 -0.009163 16714.600000 0 0 1
-20.956373 -24.008812 -20.534018 37.910929 0.853179 2.143181 0.095191 -0.010381 190351.000000 0 0 1
-20.316173 -24.680212 -21.591718 38.575407 0.882082 2.164853 0.090626 -0.012196 -65383.900000 0 0 1
-20.236073 -26.199792 -21.395818 39.417113 0.913128 2.144570 0.092853 -0.006972 201982.000000 0 0 1
-21.410473 -26.975992 -21.652818 40.681163 0.899917 2.132060 0.095655 0.000351 407418.000000 0 0 1
-21.159473 -28.363682 -21.370718 41.339199 0.929856 2.114092 0.115813 -0.017239 701689.000000 0 0 1
-22.520273 -29.163482 -21.432218 42.626416 0.913233 2.097622 0.099528 -0.009799 943154.000000 0 0 1
-23.258173 -29.119332 -22.638018 43.604564 0.896837 2.116671 0.071663 -0.006762 148600.000000 0 0 1
-22.686873 -29.812882 -23.755118 44.359979 0.920308 2.135905 0.070126 -0.007386 -340947.000000 0 0 1
-23.182173 -29.149162 -25.057118 44.888149 0.898931 2.163026 0.053990 -0.002270 550456.000000 0 0 1
-24.583273 -29.297912 -25.311138 45.862388 0.872677 2.155429 0.047156 0.005105 1077620.000000 0 0 1
-25.069273 -28.608252 -26.496828 46.357118 0.851233 2.179227 0.050304 0.008914 145311.000000 0 0 1
-24.377973 -29.050852 -27.851528 47.052579 0.872636 2.204240 0.055675 -0.009322 -282566.000000 0 0 1
-24.624973 -30.332562 -28.317568 48.252858 0.888882 2.197969 0.041889 0.001503 251764.000000 0 0 1
-24.280973 -30.390142 -29.700958 48.941529 0.896681 2.222908 0.060445 -0.006164 -417156.000000 0 0 1
-24.853573 -31.575562 -30.455098 50.420524 0.903962 2.219334 0.034065 0.001122 -234320.000000 0 0 1
-24.391073 -32.819782 -30.100768 50.775179 0.931673 2.205358 0.033024 0.001690 223470.000000 0 0 1
-25.301093 -33.666712 -30.772848 52.158997 0.926325 2.201832 0.032883 0.000390 227578.000000 0 0 1
-24.900673 32.941957 -30.659538 51.431735 -0.923533 2.209457 0.044115 -0.002982 -538133.000000 0 0 1
-23.807273 32.636706 -31.428938 51.183191 -0.940569 2.231976 0.048205 -0.011243 -792732.000000 0 0 1
-23.352773 31.333146 -31.210628 50.012212 -0.930306 2.244724 0.051162 -0.005969 -205206.000000 0 0 1
-22.199073 30.900516 -32.139458 49.805477 -0.947825 2.272212 0.049652 -0.002052 -221242.000000 0 0 1
-22.488273 30.677286 -33.512498 50.694239 -0.938226 2.293042 0.045687 0.008671 20414.600000 0 0 1
-21.752073 29.588706 34.003701 50.048935 -0.936869 0.823839 0.038348 0.010145 -28215.000000 0 0 1
-21.895673 29.454886 32.440702 48.983773 -0.931556 0.846946 0.042419 0.000437 101456.000000 0 0 1
-21.199473 30.497076 31.730358 48.849820 -0.963345 0.863805 0.041906 -0.003212 533774.000000 0 0 1
-21.315273 30.380236 30.339788 47.935398 -0.958986 0.885463 0.055760 -0.004651 -241332.000000 0 0 1
-20.713973 31.577046 29.614798 47.991820 -0.990227 0.905770 0.059755 -0.018126 -569332.000000 0 0 1
-21.576073 32.624681 29.635868 49.073225 -0.986489 0.922397 0.058553 -0.015518 -75320.000000 0 0 1
-20.863373 33.776498 29.212018 49.289697 -1.017472 0.936439 0.066783 -0.031038 -493521.000000 0 0 1
-21.847373 -33.253272 29.083068 49.284000 0.989516 0.939599 0.074770 -0.039736 -537581.000000 0 0 1
-22.284573 -32.874752 30.364058 49.993275 0.975083 0.918060 0.067849 -0.030749 80179.400000 0 0 1
-23.533373 -32.186292 30.384398 50.129719 0.939461 0.919629 0.078585 -0.034037 222990.000000 0 0 1
-23.498273 -30.683772 30.113908 48.995001 0.917247 0.908877 0.092698 -0.028884 -464082.000000 0 0 1
-23.133373 -30.335112 28.801568 47.800652 0.919284 0.924123 0.065294 -0.031003 -67942.400000 0 0 1
-23.343473 -28.947282 28.498138 46.850899 0.892157 0.916913 0.073875 -0.033484 157083.000000 0 0 1
-24.685273 -28.636092 27.781398 46.916890 0.859358 0.937084 0.079449 -0.022557 505432.000000 0 0 1
-25.880403 -28.605472 28.590458 48.015441 0.835371 0.932979 0.104484 -0.018270 1056420.000000 0 0 1
-26.703663 -29.761442 28.395048 49.041898 0.839499 0.953300 0.081986 -0.026592 35646.800000 0 0 1
-27.578243 -29.910582 27.116218 48.892655 0.825946 0.982905 0.064542 -0.005443 -989224.000000 0 0 1
-26.877253 -30.041382 25.951538 47.941148 0.840931 0.998789 0.057253 -0.009088 -383227.000000 0 0 1
-27.718503 -29.782802 24.852678 47.675846 0.821283 1.022441 0.050863 -0.011075 -9659.420000 0 0 1
-26.940683 -29.741792 23.522558 46.515431 0.834776 1.040611 0.057191 -0.010069 -395737.000000 0 0 1
-26.079913 -28.612142 23.337578 45.204636 0.831665 1.028312 0.050469 -0.011567 892771.000000 0 0 1
-25.226083 -28.621132 22.183538 44.132004 0.848364 1.044120 0.076187 -0.013577 904463.000000 0 0 1
-24.086873 -29.701502 22.153638 44.194348 0.889405 1.045722 0.082128 -0.025071 -469347.000000 0 0 1
-24.651773 -30.961852 21.859838 45.212816 0.898378 1.066162 0.086055 -0.038577 531234.000000 0 0 1
-23.690773 -32.011682 21.740538 45.372365 0.933683 1.071101 0.082200 -0.019113 417994.000000 0 0 1
-22.903473 -32.473982 22.984038 45.906368 0.956531 1.046421 0.074985 -0.024337 179590.000000 0 0 1
-21.842673 -31.679682 23.473668 45.074579 0.967162 1.023039 0.089198 -0.034565 278014.000000 0 0 1
-21.414073 -32.149452 24.774998 45.890634 0.983201 1.000513 0.086520 -0.041661 -655148.000000 0 0 1
-20.473773 -31.300762 25.581688 45.313749 0.991546 0.970913 0.090637 -0.026953 -257128.000000 0 0 1
-19.182273 -31.200332 24.965628 44.324969 1.019558 0.972494 0.103763 -0.028934 428283.000000 0 0 1
-18.233673 -30.524722 25.730168 43.889259 1.032334 0.944372 0.114239 -0.028775 -353030.000000 0 0 1
-17.446273 -31.365502 26.722088 44.746365 1.063186 0.930803 0.097853 -0.041904 -943598.000000 0 0 1
-18.234473 -31.898392 27.821498 46.087300 1.051489 0.922700 0.090544 -0.037630 322730.000000 0 0 1
-17.531973 -32.568522 28.840988 46.902892 1.076972 0.908526 0.092800 -0.038432 -391802.000000 0 0 1
-17.881473 -32.029892 30.300678 47.579325 1.061623 0.880397 0.114038 -0.034158 -12078.300000 0 0 1
-17.390573 -30.718442 30.474508 46.634219 1.055655 0.858624 0.120781 -0.029025 143270.000000 0 0 1
-17.765273 -30.170102 31.693968 47.226556 1.038625 0.835098 0.119843 -0.017420 -240040.000000 0 0 1
-17.377573 -28.638782 31.835578 46.213244 1.025403 0.810848 0.125746 -0.022132 -289026.000000 0 0 1
-18.056573 -27.602762 31.201188 45.403375 0.991504 0.813169 0.138652 -0.020684 -270523.000000 0 0 1
-18.266273 -27.584682 29.772938 44.508418 0.985900 0.838030 0.128509 -0.021004 -139062.000000 0 0 1
-17.064573 -27.385832 28.802408 43.252308 1.013552 0.842075 0.108322 -0.014295 2935.450000 0 0 1
-16.524773 -26.085792 28.857108 42.264280 1.006124 0.819239 0.096323 -0.005690 201339.000000 0 0 1
-15.510173 -25.940132 27.878638 41.117811 1.031906 0.825733 0.084808 -0.006608 -33010.100000 0 0 1
-15.658373 -24.544512 27.251768 39.878272 1.002933 0.818422 0.075997 -0.003124 576797.000000 0 0 1
-16.733073 -24.437312 26.270868 39.589600 0.970389 0.845202 0.088122 -0.011167 807638.000000 0 0 1
-16.553473 -23.427212 25.318298 38.260527 0.955660 0.847667 0.074279 -0.005669 -51776.000000 0 0 1
-16.997773 -22.008312 25.793228 37.928626 0.913154 0.822970 0.080292 -0.014095 -350330.000000 0 0 1
-17.063973 -20.961712 24.838818 36.708847 0.887544 0.827601 0.067524 -0.016395 242291.000000 0 0 1
-17.524173 -19.729512 25.396638 36.624302 0.844527 0.804548 0.071013 -0.017083 -2356.120000 0 0 1
-17.297373 -18.628812 24.337988 35.193315 0.822442 0.807162 0.052613 -0.026159 925690.000000 0 0 1
-15.899573 -18.318612 24.186968 34.254597 0.855975 0.786829 0.055568 -0.021241 722150.000000 0 0 1
-15.781873 -17.190012 23.405578 33.051250 0.828079 0.783907 0.050663 -0.018959 -144917.000000 0 0 1
-14.467373 -16.421712 23.602738 32.187991 0.848584 0.747666 0.053007 -0.015401 241537.000000 0 0 1
-13.288273 -17.136512 23.180068 31.741988 0.911214 0.752086 0.027774 -0.013490 67512.000000 0 0 1
-12.162573 -16.333612 23.346088 30.979911 0.930738 0.717293 0.022159 -0.020821 -685206.000000 0 0 1
-11.699273 -15.521012 22.094638 29.426992 0.924887 0.721480 0.027019 -0.023976 -127065.000000 0 0 1
-11.119473 -16.459312 21.132938 29.002633 0.976653 0.754439 0.060225 -0.018344 133607.000000 0 0 1
-9.717973 -16.597512 21.244938 28.657701 1.041101 0.735740 0.056239 -0.018238 -254584.000000 0 0 1
-9.164573 -17.826412 20.550838 28.707269 1.095932 0.772919 0.057090 -0.019258 -193420.000000 0 0 1
-9.092873 -17.703112 19.122738 27.599993 1.096303 0.805358 0.051577 -0.021745 -168306.000000 0 0 1
-8.682473 -18.919112 18.486938 27.840349 1.140544 0.844595 0.050688 -0.022285 28843.200000 0 0 1
-8.654673 -18.734812 16.979738 26.724671 1.138044 0.882324 0.047029 -0.032539 427693.000000 0 0 1
-7.533273 -17.897112 16.671338 25.592779 1.172386 0.861358 0.071159 -0.033015 173995.000000 0 0 1
-7.377273 -17.554812 15.300138 24.427235 1.172962 0.893927 0.098996 -0.039067 911889.000000 0 1 0
-6.168273 -16.585212 14.993038 23.192845 1.214734 0.867873 0.074878 -0.035375 1192540.000000 0 1 0
-6.551373 -15.382512 15.707138 22.940278 1.168166 0.816609 0.078424 -0.038463 -439122.000000 0 1 0
-5.528573 -14.483412 15.584338 21.981946 1.206149 0.782773 0.059808 -0.027655 -830159.000000 0 1 0
-5.738273 -13.278312 16.545538 21.977174 1.162882 0.718413 0.045293 -0.020428 -92512.600000 0 1 0
-5.445673 -13.478212 17.963038 23.108187 1.186816 0.680362 0.057945 -0.023248 646134.000000 0 1 0
-6.420073 -14.216012 18.762638 24.399773 1.146606 0.693571 0.084615 -0.026753 876440.000000 0 1 0
-7.819173 -13.655812 19.054038 24.711881 1.050776 0.690312 0.092920 -0.035578 112980.000000 0 1 0
-7.665473 -12.641312 19.995338 24.867163 1.025697 0.636660 0.090260 -0.045209 674831.000000 0 1 0
-8.860473 -12.543412 20.794338 25.850526 0.955798 0.636120 0.099206 -0.034746 944423.000000 0 0 1
-8.525073 -11.848912 22.079338 26.468297 0.947115 0.584151 0.120534 -0.030205 -189360.000000 0 0 1
-8.208573 -10.504412 21.908538 25.645806 0.907475 0.546644 0.119436 -0.027380 45186.200000 0 0 1
-7.773873 -9.828412 23.076188 26.259117 0.901592 0.497481 0.114699 -0.026460 806104.000000 0 0 1
-6.258173 -9.970712 23.483128 26.268558 1.010290 0.464684 0.134890 -0.031613 714050.000000 0 0 1
-5.881473 -11.212912 23.978298 27.116045 1.087720 0.485837 0.130200 -0.034893 -1012610.000000 0 0 1
-4.539373 -11.295612 24.299918 27.178719 1.188679 0.464426 0.114813 -0.029149 -723630.000000 0 0 1
-4.368073 -12.585712 25.166508 28.475136 1.236738 0.486860 0.104812 -0.024451 -795424.000000 0 0 1
-3.054873 -12.755412 25.606588 28.770300 1.335728 0.473373 0.089906 -0.025671 -457728.000000 0 0 1
-2.803173 -13.821412 26.541298 30.055444 1.370697 0.488415 0.084138 -0.029141 55971.700000 0 0 1
-2.872473 -15.267012 25.968098 30.260120 1.384822 0.539117 0.088320 -0.035541 218118.000000 0 0 1
-1.698273 -15.634912 25.250578 29.747711 1.462600 0.557039 0.076269 -0.033108 324941.000000 0 0 1
-1.914473 -16.971412 24.741388 30.063771 1.458465 0.604188 0.082754 -0.027801 548672.000000 0 0 1
-0.573773 -17.803312 24.774028 30.512942 1.538579 0.623365 0.076133 -0.030983 1108470.000000 0 0 1
0.060227 -18.055412 26.012198 31.664428 -1.567461 0.606767 0.073500 -0.026876 60501.200000 0 0 1
0.535927 -16.949212 26.783408 31.700378 -1.539187 0.564432 0.081598 -0.026264 -505572.000000 0 0 1
1.216927 -17.497812 28.080678 33.108592 -1.501361 0.558334 0.069133 -0.019676 278512.000000 0 0 1
2.378227 -18.279412 27.741558 33.307461 -1.441419 0.586481 0.065738 -0.024091 675555.000000 0 0 1
3.339727 -18.532412 28.744368 34.363393 -1.392500 0.579964 0.066335 -0.029497 689008.000000 0 0 1
4.215627 -17.306012 29.227288 34.227240 -1.331857 0.547326 0.077170 -0.030322 -529328.000000 0 0 1
3.495127 -16.327412 29.928738 34.271412 -1.359914 0.508890 0.074454 -0.030372 272748.000000 0 0 1
4.359827 -15.337712 30.481088 34.399858 -1.293846 0.481974 0.090118 -0.038085 265933.000000 0 0 1
3.489427 -14.291712 31.234148 34.525370 -1.331324 0.440186 0.095277 -0.042152 216172.000000 0 0 1
2.911327 -14.774612 32.398899 35.727492 -1.376240 0.435086 0.084219 -0.043305 -104262.000000 0 0 1
1.932027 -13.866012 32.866287 35.723828 -1.432352 0.402690 0.083206 -0.037216 38731.100000 0 0 1
1.175627 -14.384612 -33.900788 36.845116 -1.489249 2.739104 0.063450 -0.032542 580446.000000 0 0 1
1.929927 -14.472712 -32.668188 35.782601 -1.438229 2.721284 0.083960 -0.026137 433270.000000 0 0 1
1.123427 -15.158112 -31.711798 35.166299 -1.496818 2.694636 0.068340 -0.036630 801546.000000 0 0 1
1.966627 -15.440712 -30.414398 34.166048 -1.444112 2.668566 0.072041 -0.029937 266943.000000 0 0 1
1.248927 -16.097412 -29.419738 33.559015 -1.493366 2.639665 0.057514 -0.027154 -491321.000000 0 0 1
1.936927 -16.170612 -28.197658 32.562990 -1.451584 2.617827 0.062026 -0.025186 -68126.200000 0 0 1
1.630827 -17.480412 -27.476028 32.606081 -1.477771 2.573011 0.070981 -0.033045 -155126.000000 0 0 1
2.270027 -18.569812 -28.128328 33.781560 -1.449157 2.554678 0.057949 -0.025293 30612.800000 0 0 1
2.064227 -19.791212 -27.445608 33.900067 -1.466872 2.514272 0.070152 -0.028413 -1437800.000000 0 0 1
2.985027 -20.944912 -27.892998 35.008843 -1.429232 2.492680 0.053987 -0.025514 227997.000000 0 0 1
4.349427 -20.877212 -27.489188 34.791248 -1.365401 2.481798 0.040246 -0.021992 497001.000000 0 0 1
4.521527 -20.853212 -26.099708 33.711948 -1.357275 2.456243 0.059122 -0.034783 -943287.000000 0 0 1
5.722027 -21.688912 -25.539118 33.991132 -1.312851 2.420896 0.030966 -0.026509 60257.500000 0 0 1
5.469227 -23.066012 -25.511888 34.825419 -1.337984 2.392879 0.035718 -0.025157 293089.000000 0 0 1
5.685927 -23.727512 -26.748768 36.205265 -1.335597 2.402097 0.021478 -0.019498 -252603.000000 0 0 1
5.087627 -25.142352 -26.799958 37.097973 -1.371139 2.378078 0.029443 -0.010193 440652.000000 0 0 1
5.887427 -26.123102 -26.091878 37.388024 -1.349127 2.343212 0.033117 -0.011692 361890.000000 0 0 1
5.345927 -27.388482 -26.317018 38.357442 -1.378031 2.326910 0.038333 -0.010991 -47106.600000 0 0 1
5.952427 -28.413822 -25.342278 38.535798 -1.364292 2.288464 0.047340 -0.012338 -1121730.000000 0 0 1
7.271127 -28.693382 -25.590778 39.128856 -1.322613 2.283673 0.054168 -0.020310 -1374200.000000 0 0 1
7.641927 -29.896712 -24.891818 39.646123 -1.320544 2.249584 0.059947 -0.019378 297705.000000 0 0 1
9.144027 -30.197812 -25.154208 40.351645 -1.276769 2.243848 0.078241 -0.024742 211473.000000 0 0 1
9.298027 -30.415152 -26.535848 41.420840 -1.274115 2.266128 0.077586 -0.027974 -1340350.000000 0 0 1
10.594127 -30.330042 -26.950868 41.934428 -1.234750 2.268802 0.100916 -0.033456 -1151760.000000 0 0 1
10.627127 -30.142742 -28.499978 42.822535 -1.231843 2.299009 0.107586 -0.039968 73872.900000 0 0 1
10.159927 -31.248302 -29.277028 44.009373 -1.256442 2.298619 0.101349 -0.042345 118625.000000 0 0 1
10.110627 -30.961332 -30.672938 44.739893 -1.255157 2.326201 0.109719 -0.034794 -165965.000000 0 0 1
-34.725870 -4.855612 -5.468518 35.487571 0.138926 1.725510 0.209987 -0.049590 -101500.000000 0 0 1
-34.473686 -4.282912 -4.229018 34.995184 0.123604 1.691938 0.160236 -0.051196 180494.000000 0 0 1
-33.670803 -3.125712 -4.383518 34.098508 0.092566 1.699708 0.158203 -0.057982 -317187.000000 0 0 1
-34.303637 -1.882612 -5.080618 34.728899 0.054826 1.717617 0.223319 -0.044594 -580769.000000 0 0 1
-35.262918 -1.248812 -4.302818 35.546408 0.035400 1.692142 0.170457 -0.037670 11974.200000 0 0 1
-35.798321 -0.105012 -5.009618 36.147297 0.002933 1.709833 0.154228 -0.043073 -229168.000000 0 0 1
36.956039 0.537388 -4.372718 37.217715 0.014540 1.688559 0.166579 -0.041200 -283917.000000 0 0 1
-36.632153 1.161688 -3.163518 36.786845 -0.031702 1.656899 0.161139 -0.031858 325591.000000 0 0 1
36.231249 1.801888 -2.556218 36.365980 0.049692 1.641146 0.150459 -0.036804 -574455.000000 0 0 1
36.639259 2.837788 -1.507918 36.779915 0.077298 1.611806 0.130547 -0.034073 469028.000000 0 0 1
-36.657233 4.052088 -2.022318 36.935916 -0.110093 1.625576 0.154454 -0.047823 1152430.000000 0 0 1
-35.318278 3.787888 -2.441418 35.604626 -0.106842 1.639420 0.128609 -0.013743 -116031.000000 0 0 1
-34.378100 5.002388 -2.644618 34.840661 -0.144497 1.646775 0.105124 -0.017304 29622.900000 0 0 1
-33.919943 5.588288 -1.434618 34.407116 -0.163283 1.612504 0.121354 -0.021558 164027.000000 0 0 1
-33.355473 6.838188 -1.661918 34.089740 -0.202208 1.619567 0.128180 -0.028320 -26929.800000 0 0 1
-32.706143 7.559888 -0.396818 33.570838 -0.227156 1.582617 0.133121 -0.031119 300938.000000 0 0 1
-31.338853 7.211588 -0.163018 32.158316 -0.226179 1.575866 0.146872 -0.024808 741734.000000 0 0 1
-30.865263 7.547388 1.139682 31.795069 -0.239821 1.534944 0.152405 -0.036873 -56161.300000 0 0 1
-30.816303 9.002188 1.571482 32.142705 -0.284216 1.521886 0.147998 -0.038566 -1134910.000000 0 0 1
-32.015723 9.690288 1.746982 33.495673 -0.293907 1.518617 0.139532 -0.037963 -592143.000000 0 0 1
-31.905993 11.060688 2.093582 33.833626 -0.333701 1.508878 0.132690 -0.031667 -957935.000000 0 0 1
-33.209983 11.769488 1.889082 35.284450 -0.340586 1.517232 0.126378 -0.034129 -1491580.000000 0 0 1
-33.579993 11.878188 0.535482 35.622942 -0.339992 1.555764 0.098260 -0.028100 570257.000000 0 0 1
-34.733002 12.669988 0.243482 36.972548 -0.349783 1.564211 0.100753 -0.019838 -210372.000000 0 0 1
-36.081355 12.020088 0.472182 38.033796 -0.321575 1.558381 0.124835 -0.023886 -1108840.000000 0 0 1
-36.488653 11.056588 -0.511518 38.130455 -0.294220 1.584212 0.118413 -0.020888 99252.700000 0 0 1
36.297849 10.437588 -0.051618 37.768767 0.280000 1.572163 0.128527 -0.027275 55316.800000 0 0 1
35.864439 9.264388 -0.923518 37.053202 0.252791 1.595723 0.135001 -0.034906 21488.600000 0 0 1
35.276199 9.622488 -2.158818 36.628718 0.266297 1.629768 0.126342 -0.032759 144061.000000 0 0 1
34.938029 8.372288 -2.779918 36.034554 0.235197 1.648019 0.117978 -0.037755 -34625.300000 0 0 1
34.302799 8.589088 -4.177118 35.607623 0.245346 1.688377 0.103357 -0.023961 -289613.000000 0 0 1
32.994329 9.079988 -4.190118 34.476500 0.268551 1.692633 0.118945 -0.031171 -186120.000000 0 0 1
32.658349 9.584288 -5.470018 34.472416 0.285456 1.730148 0.099610 -0.020459 -29399.100000 0 0 1
31.289069 10.291788 -5.608118 33.412240 0.317779 1.739441 0.135399 -0.030736 466630.000000 0 0 1
30.166769 9.387688 -5.530618 32.074139 0.301694 1.744095 0.133924 -0.025382 552874.000000 0 0 1
29.054079 10.049788 -6.088518 31.340195 0.333017 1.766311 0.152624 -0.017867 -603654.000000 0 0 1
27.804779 9.178788 -5.968518 29.882756 0.318852 1.771880 0.169963 -0.007226 -650060.000000 0 0 1
27.857679 8.133888 -6.953518 29.842283 0.284083 1.805967 0.158035 -0.017297 3171.000000 0 0 1
26.691979 7.363288 -7.106918 28.586501 0.269167 1.822042 0.185998 -0.023158 -313812.000000 0 0 1
26.645379 6.302488 -8.277318 28.604398 0.232263 1.864367 0.174285 -0.029204 355299.000000 0 0 1
27.656879 5.285588 -8.144618 29.311691 0.188836 1.852365 0.166676 -0.030035 907546.000000 0 0 1
27.572279 4.440688 -9.307018 29.437576 0.159685 1.892477 0.160172 -0.027369 -19076.600000 0 0 1
28.502179 3.213588 -9.128718 30.100413 0.112275 1.878925 0.138616 -0.020438 -210275.000000 0 0 1
29.874559 3.434088 -9.323718 31.483551 0.114448 1.871451 0.154585 -0.022801 741553.000000 0 0 1
30.817789 2.873888 -8.387018 32.067701 0.092985 1.835415 0.118350 -0.027891 390476.000000 0 0 1
30.898089 1.330988 -8.091818 31.967812 0.043050 1.826704 0.121332 -0.030004 414662.000000 0 0 1
29.812369 0.854288 -7.215718 30.685074 0.028648 1.808173 0.164654 -0.037964 1403640.000000 0 0 1
30.113739 -0.384512 -6.606918 30.832394 -0.012768 1.786756 0.163060 -0.030355 -409702.000000 0 0 1
29.878619 -1.643012 -7.478518 30.844118 -0.054934 1.815699 0.157727 -0.031151 -330832.000000 0 0 1
30.720559 -1.677512 -8.634018 31.954860 -0.054551 1.844391 0.155508 -0.027927 607538.000000 0 0 1
30.576779 -2.963012 -9.214318 32.072146 -0.096602 1.862203 0.127288 -0.026468 116224.000000 0 0 1
31.543569 -3.222912 -10.418118 33.375457 -0.101820 1.888251 0.128741 -0.027371 -641627.000000 0 0 1
32.862619 -3.507312 -10.097318 34.557327 -0.106324 1.867313 0.170146 -0.032240 -791538.000000 0 0 1
33.513239 -3.830412 -11.282518 35.568307 -0.113802 1.893579 0.139328 -0.036805 -679998.000000 0 0 1
35.032869 -3.986512 -11.191418 36.992459 -0.113306 1.878145 0.171238 -0.037983 -519552.000000 0 0 1
35.313699 -5.059412 -10.318318 37.136541 -0.142302 1.852350 0.155509 -0.046920 -527539.000000 0 0 1
36.685459 -5.275212 -10.303518 38.468341 -0.142817 1.841951 0.166634 -0.033495 -751784.000000 0 0 1
-36.782963 -6.503312 -9.563418 38.558247 0.174994 1.821438 0.163283 -0.053286 -206971.000000 0 0 1
36.980679 -6.455312 -8.146418 38.413615 -0.172818 1.784490 0.173358 -0.052764 341571.000000 0 0 1
36.629369 -7.764612 -7.762418 38.239443 -0.208886 1.775212 0.162662 -0.047090 -210274.000000 0 0 1
36.376069 -7.846012 -6.212718 37.727658 -0.212437 1.736223 0.184000 -0.040181 -72573.400000 0 0 1
-36.421863 -7.695412 -5.421018 37.618598 0.208223 1.715405 0.170684 -0.036109 603328.000000 0 0 1
-36.436653 -8.357012 -4.175618 37.615224 0.225458 1.682034 0.185399 -0.035718 -444093.000000 0 0 1
-36.166633 -9.885112 -4.170218 37.724415 0.266805 1.681567 0.176372 -0.038260 746530.000000 0 0 1
36.707039 -10.587912 -4.829018 38.507532 -0.280821 1.696532 0.145061 -0.033220 1174950.000000 0 0 1
-36.837603 -11.731312 -5.527718 39.053660 0.308306 1.712815 0.115148 -0.033026 152878.000000 0 0 1
36.202219 -12.082812 -6.737218 38.755453 -0.322133 1.745523 0.097443 -0.032992 262332.000000 0 0 1
36.371639 -11.215612 -7.821418 38.856926 -0.299110 1.773469 0.132822 -0.034699 53713.500000 0 0 1
35.764499 -11.734212 -8.966518 38.693534 -0.317030 1.804654 0.099380 -0.027672 -81820.900000 0 0 1
36.113979 -10.888812 -10.202318 39.075223 -0.292844 1.834952 0.076286 -0.035832 183210.000000 0 0 1
35.254219 -9.756912 -10.410518 38.032042 -0.270001 1.848066 0.095882 -0.037275 553890.000000 0 0 1
35.482229 -9.192012 -11.658218 38.462914 -0.253487 1.878743 0.100974 -0.032840 -502999.000000 0 0 1
34.431049 -8.161112 -12.071818 37.387561 -0.232733 1.899571 0.111562 -0.030949 -476538.000000 0 0 1
34.721879 -7.624012 -13.334018 37.967493 -0.216144 1.929644 0.114250 -0.023246 607821.000000 0 0 1
33.686719 -6.846512 -13.880918 37.072222 -0.200510 1.954577 0.102362 -0.024477 -220803.000000 0 0 1
34.207649 -6.215812 -15.152918 37.926383 -0.179747 1.981806 0.092793 -0.022849 -174242.000000 0 0 1
35.253029 -5.276212 -15.008818 38.676596 -0.148564 1.969321 0.100226 -0.021528 274287.000000 0 0 1
34.882139 -3.974812 -15.345418 38.315071 -0.113460 1.982865 0.122450 -0.025103 -314116.000000 0 0 1
36.061469 -2.996912 -15.393318 39.323852 -0.082915 1.973003 0.123066 -0.032620 -265483.000000 0 0 1
36.888279 -3.145712 -16.546518 40.551546 -0.085071 1.991099 0.109945 -0.026356 1094650.000000 0 0 1
-35.785643 -2.511612 -16.493718 39.483708 0.070070 2.001747 0.125387 -0.029825 960859.000000 0 0 1
-35.652592 -0.953812 -16.164318 39.157403 0.026747 1.996326 0.123103 -0.026755 -729529.000000 0 0 1
-36.003176 -0.081012 -17.191318 39.897076 0.002250 2.016277 0.104478 -0.021224 150373.000000 0 0 1
-35.835491 1.281188 -16.733118 39.570457 -0.035737 2.007405 0.111574 -0.024702 111557.000000 0 0 1
-36.214523 2.382088 -17.796618 40.421351 -0.065683 2.026704 0.081622 -0.020841 -61894.400000 0 0 1
-35.290379 2.338388 -18.834318 40.070069 -0.066165 2.060126 0.079921 -0.011906 162680.000000 0 0 1
-35.500997 3.445888 -19.636118 40.715747 -0.096761 2.074044 0.060113 -0.004900 -119476.000000 0 0 1
-34.503810 3.363988 -20.810418 40.433931 -0.097189 2.111427 0.060578 0.003474 31491.000000 0 0 1
-33.155523 3.739388 -20.639918 39.233633 -0.112309 2.124778 0.079038 -0.005734 169884.000000 0 0 1
-32.546673 3.971188 -21.907418 39.433377 -0.121415 2.159827 0.072739 -0.006081 180819.000000 0 0 1
-31.094313 4.475888 -21.670118 38.163908 -0.142964 2.174648 0.110577 -0.016976 401667.000000 0 0 1
-30.191873 3.455488 -21.227118 37.068587 -0.113955 2.180524 0.118583 -0.007190 -980831.000000 0 0 1
-28.935333 3.711788 -21.696218 36.355972 -0.127582 2.210268 0.103991 -0.018965 -1301470.000000 0 0 1
-27.867653 2.825188 -21.026518 35.024309 -0.101034 2.214723 0.123346 -0.013805 -156246.000000 0 0 1
-27.551713 3.243588 -19.733818 34.044696 -0.117188 2.189089 0.105194 -0.006895 527579.000000 0 0 1
-26.528163 2.398488 -19.174118 32.819856 -0.090168 2.194719 0.093932 -0.017434 186313.000000 0 0 1
-26.008133 2.746088 -17.758818 31.612333 -0.105196 2.167318 0.084752 -0.018507 -386190.000000 0 0 1
-24.802273 3.439888 -17.766818 30.702531 -0.137813 2.187901 0.083244 -0.018843 -585064.000000 0 0 1
-24.172773 3.510188 -16.516618 29.486320 -0.144205 2.165357 0.090921 -0.028070 -472962.000000 0 0 1
-23.043173 4.536788 -16.534618 28.722184 -0.194396 2.184225 0.102842 -0.036854 -899568.000000 0 0 1
-21.991073 4.056688 -17.299218 28.272371 -0.182419 2.229228 0.122538 -0.040434 -347700.000000 0 0 1
-20.888373 4.942788 -17.215518 27.515983 -0.232355 2.246767 0.115475 -0.041172 261214.000000 0 0 1
-19.513373 4.381688 -17.666718 26.684899 -0.220884 2.294346 0.156680 -0.043097 183963.000000 0 0 1
-18.983573 3.296488 -16.931618 25.650001 -0.171935 2.291751 0.185895 -0.042621 -256701.000000 0 0 1
-17.987473 2.581788 -17.570418 25.277152 -0.142559 2.339370 0.154263 -0.040850 -996245.000000 0 0 1
-17.806873 1.143688 -17.042018 24.674341 -0.064139 2.333222 0.166353 -0.032550 467702.000000 0 1 0
-18.819573 0.226388 -17.449718 25.665546 -0.012029 2.318407 0.135168 -0.031117 218705.000000 0 0 1
-20.103573 0.438088 -16.930218 26.286457 -0.021788 2.270598 0.133163 -0.030005 -290073.000000 0 0 1
-21.226573 -0.452412 -17.568318 27.557537 0.021310 2.262064 0.117514 -0.028007 133824.000000 0 0 1
-21.253773 -1.770612 -17.009418 27.279630 0.083116 2.244034 0.118126 -0.032093 1016470.000000 0 0 1
-22.371373 -2.596812 -17.420318 28.472605 0.115560 2.229165 0.103354 -0.025980 559390.000000 0 0 1
-22.594373 -3.845512 -16.647918 28.327492 0.168582 2.199003 0.116494 -0.031711 -100560.000000 0 0 1
-23.206273 -3.534912 -15.402218 28.075880 0.151164 2.151476 0.116249 -0.031163 327214.000000 0 0 1
-23.192973 -4.590212 -14.487518 27.728545 0.195389 2.120549 0.121175 -0.042966 -118269.000000 0 0 1
-23.064473 -3.995812 -13.059818 26.804762 0.171543 2.079700 0.113759 -0.042199 91855.300000 0 0 1
-24.130273 -3.080312 -12.839918 27.506761 0.126967 2.056455 0.089504 -0.032191 595374.000000 0 0 1
-24.350373 -2.842112 -11.479318 27.070150 0.116192 2.008718 0.107051 -0.045126 -41622.200000 0 0 1
-25.402643 -1.704012 -11.266818 27.841320 0.066980 1.987425 0.130149 -0.039847 -55495.400000 0 0 1
-25.352123 -1.258112 -9.897118 27.244558 0.049585 1.942571 0.120462 -0.044942 598156.000000 0 0 1
-26.074913 -0.077612 -9.681518 27.814365 0.002976 1.926315 0.124081 -0.045516 -393465.000000 0 0 1
-26.409063 0.210488 -8.180518 27.647853 -0.007970 1.871176 0.143444 -0.035030 -710060.000000 0 0 1
-25.329453 0.702088 -7.474918 26.418715 -0.027711 1.857655 0.129364 -0.031481 3832.090000 0 0 1
-25.687433 1.075588 -6.132918 26.431303 -0.041848 1.804963 0.135943 -0.028566 -383937.000000 0 0 1
-24.440873 1.427788 -5.337018 25.057506 -0.058352 1.785431 0.102013 -0.021494 -438270.000000 0 0 1
-23.996273 2.718288 -5.647818 24.801372 -0.112799 1.800534 0.119907 -0.017964 752929.000000 0 1 0
-22.679673 2.951988 -5.138718 23.441165 -0.129432 1.791809 0.108332 -0.007900 393349.000000 0 1 0
-22.277373 4.444888 -5.253118 23.315952 -0.196939 1.798049 0.114753 -0.012952 -277891.000000 0 1 0
-22.860773 5.349588 -4.334718 23.875150 -0.229871 1.753367 0.129641 -0.010020 709592.000000 0 1 0
-22.350873 6.688188 -4.498318 23.759803 -0.290756 1.761271 0.115774 -0.015223 -395902.000000 0 1 0
-22.910073 7.717188 -3.468618 24.422484 -0.324909 1.713304 0.127446 -0.008616 -427880.000000 0 1 0
-22.350673 7.694788 -2.159518 23.736593 -0.331566 1.661901 0.113155 -0.011371 1191470.000000 0 1 0
-20.940373 7.953388 -2.108618 22.498930 -0.362982 1.664655 0.119972 -0.011901 413696.000000 0 1 0
-20.394773 9.403288 -2.350818 22.580853 -0.432016 1.675092 0.102701 -0.013796 -625258.000000 0 1 0
-20.223473 9.682488 -3.720118 22.728368 -0.446524 1.735213 0.084463 -0.016402 622281.000000 0 1 0
-19.787873 11.032288 -3.980418 23.002500 -0.508604 1.744715 0.092549 -0.010623 -138052.000000 0 1 0
-19.786273 11.332188 -5.468118 23.448143 -0.520126 1.806164 0.099220 -0.017610 -124335.000000 0 1 0
-18.674173 10.788188 -6.148218 22.425662 -0.523866 1.848512 0.064603 -0.016550 228701.000000 0 1 0
-18.710873 11.283588 -7.515118 23.106127 -0.542659 1.902066 0.069209 -0.013053 22806.700000 0 1 0
-17.411873 11.040788 -8.321918 22.233458 -0.565113 1.954435 0.055268 -0.004213 -73038.800000 0 1 0
-17.156073 9.747288 -8.784718 21.598883 -0.516674 1.989658 0.044046 -0.002977 278578.000000 0 1 0
-18.165273 9.207188 -9.617918 22.522296 -0.469118 2.012013 0.073225 -0.004402 -11849.000000 0 1 0
-18.315673 9.863888 -11.001518 23.532819 -0.494009 2.057253 0.092478 -0.014329 171384.000000 0 1 0
-17.200673 9.537888 -11.818318 22.945742 -0.506297 2.111868 0.088731 -0.014429 64830.800000 0 1 0
-17.269073 10.242288 -13.056118 23.949688 -0.535331 2.147362 0.098225 -0.023676 223851.000000 0 1 0
-15.982473 9.993388 -13.876718 23.406635 -0.558795 2.205395 0.071465 -0.017293 39687.300000 0 1 0
-16.013173 8.729188 -14.599118 23.361393 -0.499093 2.245832 0.089553 -0.031947 -23061.200000 0 1 0
-15.669273 7.594688 -13.822418 22.232063 -0.451322 2.241750 0.079103 -0.025200 -212622.000000 0 1 0
-15.680773 6.211088 -14.498018 22.240881 -0.377136 2.280836 0.089768 -0.034990 -508689.000000 0 1 0
-14.590673 6.064088 -15.340718 22.022682 -0.393894 2.341426 0.091954 -0.036062 -282825.000000 0 1 0
-14.525473 4.788188 -15.954218 22.100977 -0.318424 2.377309 0.085744 -0.039168 57684.400000 0 1 0
33.044009 -15.876912 28.452038 46.405833 -0.447908 0.910801 0.038923 -0.013346 100162.000000 0 0 1
32.065359 -14.839012 28.456698 45.367028 -0.433426 0.892773 0.045540 -0.009975 647732.000000 0 0 1
31.060259 -14.870412 29.508238 45.349807 -0.446512 0.862316 0.054345 -0.014369 791977.000000 0 0 1
31.523659 -14.797412 31.021038 46.636995 -0.438875 0.843089 0.046604 -0.021667 -15714.900000 0 0 1
32.131849 -13.570312 31.486058 46.989158 -0.399609 0.836492 0.027652 -0.022041 342119.000000 0 0 1
32.281379 -13.470212 32.913659 48.029606 -0.395309 0.815810 0.014818 -0.017947 -279706.000000 0 0 1
32.736039 -12.061012 33.310188 48.235723 -0.353000 0.808518 0.036336 -0.021159 -49209.700000 0 0 1
32.720089 -11.970512 -33.322948 48.211163 -0.350721 2.333927 0.015543 -0.032898 296133.000000 0 0 1
33.088819 -10.644612 -32.949938 47.894427 -0.311243 2.329485 0.052547 -0.023752 -491919.000000 0 0 1
32.599879 -10.429912 -31.508768 46.522443 -0.309646 2.314857 0.051904 -0.022791 -232216.000000 0 0 1
31.207429 -10.484412 -31.363728 45.469880 -0.324112 2.331967 0.098490 -0.026032 -262712.000000 0 0 1
30.789239 -10.041112 -30.095208 44.209985 -0.315248 2.319560 0.074326 -0.024250 716823.000000 0 0 1
29.270459 -10.362012 -29.813958 43.046524 -0.340242 2.335882 0.076334 -0.008691 809834.000000 0 0 1
28.790279 -10.073312 -28.545208 41.775360 -0.336573 2.323073 0.071894 -0.012918 153534.000000 0 0 1
27.758579 -10.962212 -28.181128 41.047348 -0.376113 2.327532 0.111509 -0.014695 -303319.000000 0 0 1
27.229979 -10.815112 -26.694008 39.635950 -0.378070 2.309702 0.102840 -0.011384 -452055.000000 0 0 1
26.339179 -9.752812 -26.288058 38.469881 -0.354624 2.323126 0.098564 -0.016178 1691030.000000 0 0 1
25.013079 -9.699012 -26.870848 37.970613 -0.369908 2.356998 0.099526 -0.015006 1262190.000000 0 0 1
24.102779 -10.948012 -26.813518 37.679805 -0.426359 2.362591 0.097926 -0.006474 -922703.000000 0 0 1
24.625879 -12.023112 -27.641638 38.923634 -0.454188 2.360508 0.090538 -0.007644 174112.000000 0 0 1
23.754579 -13.124212 -27.795978 38.847669 -0.504754 2.368153 0.094433 -0.007504 -142028.000000 0 0 1
24.546079 -14.267612 -28.375868 40.140561 -0.526525 2.355920 0.101734 -0.008595 -73872.300000 0 0 1
24.855079 -14.163812 -29.791428 41.302757 -0.517960 2.376465 0.101402 -0.018949 169552.000000 0 0 1
25.751579 -15.161812 -30.193598 42.481499 -0.532123 2.361356 0.097371 -0.009545 -401213.000000 0 0 1
25.895979 -15.081312 -31.689908 43.615341 -0.527363 2.384123 0.114601 -0.022039 385208.000000 0 0 1
24.753379 -15.592812 -32.401018 43.654227 -0.562134 2.407173 0.121071 -0.025804 857040.000000 0 0 1
25.018979 -15.540512 -33.817508 44.845074 -0.555825 2.425073 0.126092 -0.027456 193138.000000 0 0 1
25.119379 -14.220212 33.393311 44.139675 -0.515124 0.712795 0.097002 -0.041246 39621.200000 0 0 1
23.858079 -13.824812 32.897831 42.925525 -0.525180 0.697589 0.126106 -0.029640 66521.600000 0 0 1
23.963179 -12.629112 32.134774 42.028230 -0.485030 0.700376 0.115403 -0.033275 -339293.000000 0 0 1
22.814579 -11.684512 32.494736 41.387688 -0.473321 0.667890 0.120751 -0.035795 425879.000000 0 0 1
21.457679 -12.090212 32.411157 40.707350 -0.513107 0.649809 0.111663 -0.032157 637862.000000 0 0 1
20.892179 -12.293312 31.075268 39.411686 -0.531859 0.662465 0.100479 -0.031865 187310.000000 0 0 1
19.368879 -12.542212 31.334928 38.914500 -0.574647 0.634742 0.109408 -0.031716 694404.000000 0 0 1
18.609979 -11.347112 31.524918 38.326346 -0.547545 0.604935 0.096656 -0.028353 1035140.000000 0 0 1
17.429779 -11.598312 32.345020 38.529448 -0.587147 0.574456 0.077882 -0.022678 1277790.000000 0 0 1
16.533279 -10.435412 32.831497 38.211966 -0.563028 0.537104 0.076561 -0.017546 383617.000000 0 0 1
15.661679 -9.923412 31.775998 36.789623 -0.564768 0.528188 0.075979 -0.024484 784878.000000 0 0 1
14.812979 -8.792912 32.033192 36.371212 -0.535697 0.493396 0.076308 -0.019275 658636.000000 0 0 1
13.664379 -9.031012 33.035850 36.873322 -0.584011 0.460280 0.080149 -0.018227 -1440350.000000 0 0 1
12.774979 -10.029012 32.625158 36.444233 -0.665559 0.461899 0.076289 -0.018217 37881.600000 0 0 1
11.594279 -10.027812 33.425593 36.773015 -0.713077 0.429988 0.072666 -0.016611 493905.000000 0 0 1
10.450179 -9.087312 32.985956 35.775114 -0.715754 0.397488 0.072411 -0.018451 -747950.000000 0 0 1
10.732379 -7.692212 33.291385 35.814389 -0.621866 0.377597 0.079132 -0.016492 487719.000000 0 0 1
9.788379 -6.806012 32.674047 34.781138 -0.607575 0.349866 0.078205 -0.011285 93313.100000 0 0 1
10.302379 -5.382712 32.437779 34.457541 -0.481464 0.344086 0.073544 -0.012776 -157375.000000 0 0 1
10.416579 -4.636612 33.619870 35.500690 -0.418787 0.326969 0.076610 -0.023624 331628.000000 0 0 1
10.746079 -3.255512 33.297269 35.139504 -0.294160 0.325241 0.052100 -0.020111 -88029.700000 0 0 1
10.486779 -2.334412 -33.514048 35.193940 -0.219034 2.831376 0.054385 -0.021101 533455.000000 0 0 1
9.092179 -2.066712 -33.359918 34.638464 -0.223509 2.869047 0.043280 -0.011744 448942.000000 0 0 1
8.898979 -1.493612 -32.099768 33.343932 -0.166291 2.867558 0.045024 -0.011531 -694468.000000 0 0 1
7.452379 -1.124212 -31.835638 32.715588 -0.149724 2.909135 0.055174 -0.006592 -928965.000000 0 0 1
6.970179 -0.111512 -32.657208 33.392950 -0.015997 2.931287 0.062479 -0.005602 834562.000000 0 0 1
5.555879 0.076388 -32.466588 32.938624 0.013748 2.972093 0.069283 -0.005737 984796.000000 0 0 1
4.889279 1.120988 -33.397148 33.771751 0.225379 2.992510 0.084168 -0.008653 10332.300000 0 0 1
5.514879 2.374088 -33.351448 33.887598 0.406510 2.963473 0.072479 -0.013124 299515.000000 0 0 1
4.845179 3.233488 33.747003 34.246043 0.588484 0.170925 0.089395 -0.015125 576673.000000 0 0 1
5.669779 4.533488 33.594065 34.369465 0.674490 0.212819 0.095645 -0.022590 -42795.000000 0 0 1
5.071979 5.509488 32.797423 33.641498 0.826721 0.224481 0.118595 -0.043444 -217467.000000 0 0 1
5.927379 6.505788 32.283294 33.461473 0.831886 0.266153 0.126327 -0.039408 -99272.500000 0 0 1
5.129379 7.525888 31.446068 32.738429 0.972551 0.281914 0.133273 -0.042739 -112397.000000 0 0 1
4.244379 8.346288 32.188117 33.522383 1.100344 0.283087 0.151694 -0.041109 281703.000000 0 0 1
3.779179 9.576088 31.545728 33.183078 1.194913 0.315449 0.159862 -0.049477 97688.600000 0 0 1
3.269679 9.627588 30.106718 31.777283 1.243402 0.325694 0.153367 -0.048449 -680281.000000 0 0 1
2.157279 8.830088 29.902168 31.253224 1.331180 0.295108 0.123707 -0.050493 -753720.000000 0 0 1
1.950579 8.547388 28.528908 29.845623 1.346431 0.298147 0.096947 -0.033672 -16930.300000 0 0 1
0.828479 7.516988 28.225568 29.221126 1.461025 0.261782 0.097006 -0.036238 -413712.000000 0 0 1
-0.385321 8.040688 28.645218 29.754826 -1.522912 0.273955 0.098587 -0.024323 -718882.000000 0 0 1
-1.377321 7.930288 27.606888 28.756334 -1.398833 0.283694 0.088010 -0.034907 738503.000000 0 0 1
-2.824221 8.182188 28.099978 29.402946 -1.238434 0.298816 0.080852 -0.026090 209993.000000 0 0 1
-3.126521 9.551288 28.411238 30.136368 -1.254449 0.339996 0.090017 -0.023467 -142824.000000 0 0 1
-4.461921 9.705488 28.845308 30.759666 -1.139879 0.354662 0.065495 -0.008067 -63142.200000 0 0 1
-4.645921 11.004488 29.747008 32.055699 -1.171313 0.381845 0.059694 0.000593 -474497.000000 0 0 1
-4.766821 12.284488 29.058288 31.906353 -1.200646 0.425732 0.053601 -0.006877 1037530.000000 0 0 1
-6.007121 12.560488 28.349138 31.583619 -1.124695 0.456525 0.043579 -0.008890 1029890.000000 0 0 1
-6.146021 14.058188 27.896588 31.837491 -1.158651 0.502839 0.024872 -0.005350 555904.000000 0 0 1
-5.248021 14.403988 26.822748 30.894602 -1.221400 0.519229 0.033200 0.005344 277185.000000 0 0 1
-5.603221 15.683788 26.327768 31.153309 -1.227667 0.564038 0.034368 0.006116 515279.000000 0 0 1
-4.528621 16.375088 25.397938 30.556623 -1.300985 0.589576 0.064998 0.002492 441465.000000 0 0 1
-4.472321 16.001088 24.038448 29.221285 -1.298250 0.604766 0.068350 -0.001598 -112756.000000 0 0 1
-3.741821 16.941988 23.268938 29.025431 -1.353425 0.640706 0.095834 -0.001584 -69840.700000 0 0 1
-3.275521 16.438688 21.907238 27.584173 -1.374115 0.653113 0.076017 -0.004502 -1741.530000 0 0 1
-2.324621 15.405988 21.804938 26.799322 -1.421035 0.620414 0.067678 -0.017190 114720.000000 0 0 1
-1.989021 15.033988 20.470738 25.476030 -1.439259 0.637596 0.065022 -0.022619 688825.000000 0 0 1
-1.088721 13.736688 20.344538 24.571979 -1.491705 0.595342 0.066858 -0.026926 777974.000000 0 1 0
-1.931121 12.576088 20.292238 23.951245 -1.418431 0.560045 0.069454 -0.024364 298908.000000 0 1 0
-1.161921 11.491688 19.905238 23.013637 -1.470029 0.525781 0.060272 -0.022345 -771859.000000 0 1 0
-1.985621 10.231888 19.669138 22.260037 -1.379117 0.487284 0.048004 -0.016620 -937201.000000 0 1 0
-2.260321 9.420588 20.794738 22.940743 -1.335314 0.435985 0.065842 -0.028682 -91932.800000 0 1 0
-3.199021 9.956288 21.714938 24.101866 -1.259909 0.448808 0.081085 -0.026233 -346696.000000 0 1 0
-4.651521 9.878588 21.173538 23.823137 -1.130724 0.476119 0.071007 -0.021436 -751091.000000 0 1 0
-5.189421 8.565588 21.192538 23.439775 -1.026090 0.441464 0.050937 -0.021251 -410558.000000 0 1 0
-6.582521 8.612088 21.121338 23.740442 -0.918184 0.474158 0.047614 -0.013928 -93286.900000 0 1 0
-7.399121 7.294588 21.204538 23.613353 -0.778284 0.455618 0.043917 -0.010870 295553.000000 0 1 0
-7.383821 6.801788 22.512238 24.649260 -0.744391 0.419475 0.041376 -0.011017 -32142.800000 0 1 0
-8.160821 5.628188 22.557138 24.639399 -0.603752 0.414071 0.036756 -0.005562 78563.300000 0 1 0
-8.160321 4.808088 23.891658 25.700581 -0.532443 0.377428 0.034741 -0.009158 -262481.000000 0 0 1
-8.950921 5.464388 24.853038 26.975026 -0.548092 0.399296 0.010229 -0.005349 -35661.000000 0 0 1
-9.038721 4.699288 26.056788 27.977455 -0.479446 0.372695 0.009451 0.001997 -450154.000000 0 0 1
-10.066621 5.331988 26.994678 29.299823 -0.487101 0.399320 0.006098 0.001396 -661925.000000 0 0 1
-9.736421 6.666588 27.345588 29.782923 -0.600388 0.407377 0.021877 -0.015300 -436976.000000 0 0 1
-10.592721 7.197088 28.296308 31.059377 -0.596792 0.424999 0.024875 -0.008944 -370010.000000 0 0 1
-9.924821 8.261888 29.195788 31.924206 -0.694215 0.416441 0.036263 -0.011564 418835.000000 0 0 1
-8.906821 7.683788 30.019358 32.241804 -0.711813 0.373463 0.038280 -0.015648 227504.000000 0 0 1
-8.334821 8.617188 30.908418 33.152006 -0.802053 0.370009 0.044530 -0.019325 134233.000000 0 0 1
-7.249821 8.065488 31.881148 33.675208 -0.838606 0.327888 0.067797 -0.023082 -590429.000000 0 0 1
-6.034421 7.922088 31.250748 32.799131 -0.919836 0.308494 0.061672 -0.028785 -1540040.000000 0 0 1
-5.180121 7.029188 31.936008 33.108183 -0.935703 0.266891 0.081204 -0.023724 154547.000000 0 0 1
-3.697221 7.322288 31.622158 32.668735 -1.103215 0.253805 0.069264 -0.028558 58819.600000 0 0 1
-3.330521 8.603088 32.054445 33.355554 -1.201433 0.280227 0.063553 -0.028682 -45466.700000 0 0 1
-1.924421 8.824388 31.986718 33.237379 -1.356078 0.275196 0.085868 -0.029400 579101.000000 0 0 1
-1.539321 10.199588 31.349628 33.003035 -1.421007 0.317876 0.082844 -0.027142 -232011.000000 0 0 1
-1.706621 11.244588 32.330148 34.272318 -1.420173 0.338267 0.092324 -0.038144 87624.800000 0 0 1
-1.996321 12.494888 31.704568 34.136303 -1.412364 0.379732 0.083110 -0.034647 -154422.000000 0 0 1
-2.115621 13.625788 32.724192 35.510713 -1.416760 0.398794 0.085849 -0.037284 430249.000000 0 0 1
-0.864821 14.111188 33.243324 36.124675 -1.509587 0.402106 0.137732 -0.042353 365961.000000 0 0 1
-1.004621 15.176788 -33.907348 37.162514 -1.504698 2.719924 0.134464 -0.048294 201647.000000 0 0 1
0.320379 15.538688 -33.181328 36.640879 1.550181 2.703547 0.121324 -0.046881 -270246.000000 0 0 1
1.237479 16.252188 -33.964538 37.672999 1.494801 2.694162 0.134959 -0.050757 55571.300000 0 0 1
2.485579 16.151388 -33.267728 37.064635 1.418102 2.685000 0.149542 -0.048048 36833.100000 0 0 1
3.564879 16.950188 -33.986558 38.145817 1.363502 2.670261 0.147953 -0.041745 -477516.000000 0 0 1
3.414679 18.336188 -33.742018 38.553853 1.386679 2.636629 0.121710 -0.039084 502347.000000 0 0 1
4.595479 19.016188 33.867236 39.111680 1.333681 0.523827 0.092619 -0.018349 554824.000000 0 0 1
4.277079 20.545588 33.835963 39.815663 1.365553 0.555161 0.097107 -0.035962 -24663.100000 0 0 1
4.148279 21.203288 -32.958158 39.408474 1.377593 2.561335 0.126773 -0.061479 135625.000000 0 0 1
4.110479 22.589388 -33.140768 40.317329 1.390801 2.535707 0.114864 -0.046450 54624.600000 0 0 1
3.952879 23.291988 -31.818708 39.630445 1.402688 2.502916 0.145457 -0.046396 92615.200000 0 0 1
3.517279 24.635688 -31.927828 40.480546 1.428983 2.479521 0.148873 -0.049189 278292.000000 0 0 1
3.040979 25.203188 -30.688178 39.827284 1.450718 2.450471 0.149895 -0.049480 150119.000000 0 0 1
2.735479 26.724788 -30.703518 40.797098 1.468794 2.422784 0.159507 -0.050396 -324206.000000 0 0 1
3.874979 27.513588 -30.681318 41.392708 1.430878 2.405690 0.136854 -0.045858 -421813.000000 0 0 1
3.507679 28.815788 -30.201188 41.889918 1.449665 2.375991 0.128569 -0.040546 -275767.000000 0 0 1
4.593779 29.858688 -29.900138 42.504851 1.418143 2.351040 0.146075 -0.045808 -359877.000000 0 0 1
5.400479 29.472988 -28.814908 41.570676 1.389572 2.336653 0.127243 -0.058080 129745.000000 0 0 1
6.078979 30.595488 -28.225858 42.068242 1.374662 2.306291 0.120669 -0.055152 110298.000000 0 0 1
7.298379 30.185088 -27.336898 41.372840 1.333562 2.292607 0.123823 -0.058224 910338.000000 0 0 1
8.452579 29.664488 -28.003208 41.660624 1.293213 2.307938 0.116434 -0.052037 1909790.000000 0 0 1
9.541879 30.558588 -28.466058 42.839132 1.268140 2.297604 0.117309 -0.052660 950836.000000 0 0 1
9.366579 31.802188 -29.339348 44.270863 1.284369 2.295246 0.125066 -0.057819 -1197440.000000 0 0 1
8.669279 32.811888 -28.587128 44.373419 1.312487 2.270825 0.117339 -0.058480 464649.000000 0 0 1
8.406579 33.989988 -29.348178 45.687038 1.328337 2.268389 0.103593 -0.046514 42520.500000 0 0 1
7.201379 33.856188 -30.325878 46.019129 1.361215 2.290264 0.080945 -0.032042 -397054.000000 0 0 1
7.458479 33.073888 -31.449578 46.244859 1.348997 2.318650 0.071501 -0.027653 305678.000000 0 0 1
6.259479 32.468388 -31.916548 45.956973 1.380346 2.338504 0.062793 -0.023750 146753.000000 0 0 1
6.481979 31.697588 -33.225828 46.375735 1.369083 2.369495 0.070715 -0.032948 -37889.000000 0 0 1
6.485479 32.624488 33.727017 47.370142 1.374563 0.778470 0.066198 -0.022365 226509.000000 0 0 1
6.433579 31.940288 32.485898 46.009853 1.372031 0.786872 0.065465 -0.016052 -354653.000000 0 0 1
5.982179 32.739988 31.271198 45.668163 1.390072 0.816538 0.053394 -0.011812 629279.000000 0 0 1
6.967979 33.710388 30.829658 46.210506 1.366966 0.840411 0.055382 -0.006952 661369.000000 0 0 1
6.421879 -33.594930 29.841018 45.391037 -1.381919 0.853405 0.028589 -0.011443 -7737.800000 0 0 1
18.574727 -21.813412 29.341288 41.009226 -0.865416 0.773485 0.079709 -0.009710 -270970.000000 0 0 1
17.559527 -20.803912 29.505108 40.145874 -0.869767 0.745207 0.070183 -0.009541 -287390.000000 0 0 1
16.294227 -21.307212 29.725648 40.038897 -0.917936 0.734122 0.059244 -0.007198 -617227.000000 0 0 1
16.049827 -21.717512 31.194218 41.259260 -0.934355 0.713534 0.050090 -0.027895 -623229.000000 0 0 1
16.612427 -23.011812 31.512098 42.409062 -0.945517 0.733178 0.072556 -0.028584 324764.000000 0 0 1
16.278527 -23.246912 32.837172 43.401489 -0.959906 0.712713 0.105480 -0.033440 -455486.000000 0 0 1
17.078327 -24.318812 33.491762 44.774681 -0.958550 0.725743 0.102584 -0.033705 -576514.000000 0 0 1
16.845527 -25.645172 33.023850 45.077947 -0.989607 0.748671 0.120956 -0.036854 -504109.000000 0 0 1
17.675027 -26.457112 33.750223 46.383865 -0.981827 0.755938 0.123813 -0.039740 -527912.000000 0 0 1
17.385927 -27.991412 33.752101 47.169842 -1.014995 0.773394 0.106372 -0.025851 121685.000000 0 0 1
17.858427 -28.597242 32.534430 46.853120 -1.012570 0.803222 0.088444 -0.023785 456448.000000 0 0 1
17.365927 -29.930362 32.424234 47.420807 -1.045055 0.817900 0.103623 -0.030718 -60798.800000 0 0 1
17.909527 -30.501072 31.122078 47.113165 -1.039859 0.849203 0.086890 -0.025649 473139.000000 0 0 1
19.231227 -30.996802 31.306998 48.070469 -1.015493 0.861536 0.075663 -0.032565 315684.000000 0 0 1
19.787227 -31.440352 30.062618 47.789027 -1.009070 0.890441 0.054656 -0.026216 384407.000000 0 0 1
21.150427 -32.183292 30.237388 48.963298 -0.989386 0.905170 0.048163 -0.027132 618731.000000 0 0 1
22.219327 -31.409092 30.781918 49.272265 -0.955110 0.896009 0.041340 -0.027961 150740.000000 0 0 1
23.336027 -32.257722 30.967678 50.439349 -0.944522 0.909730 0.047982 -0.033083 -829221.000000 0 0 1
24.520027 -31.437682 31.439928 50.774292 -0.908397 0.903061 0.043698 -0.040146 -792748.000000 0 0 1
25.174827 -30.844222 30.338868 50.055818 -0.886260 0.919647 0.038943 -0.028594 -362154.000000 0 0 1
25.930727 -29.704782 30.610538 49.917750 -0.853130 0.910666 0.034932 -0.022933 -567721.000000 0 0 1
27.073127 -29.545932 29.639318 49.843811 -0.829045 0.933974 0.045964 -0.018924 -559150.000000 0 0 1
28.051827 -30.561222 29.703828 51.021669 -0.828185 0.949388 0.048957 -0.016594 -522427.000000 0 0 1
29.220327 -30.200522 29.039118 51.080030 -0.801892 0.966112 0.048386 -0.033094 505403.000000 0 0 1
30.466627 -31.107022 29.407258 52.541879 -0.795798 0.976782 0.029458 -0.023773 634299.000000 0 0 1
30.377827 -32.356862 28.757878 52.884728 -0.816934 0.995857 0.015182 -0.026542 201065.000000 0 0 1
31.252427 -33.345152 29.332888 54.304988 -0.817783 1.000180 0.026678 -0.023580 -508472.000000 0 0 1
30.560027 33.461558 29.743558 54.205815 0.830688 0.989970 0.020447 -0.022554 -31110.600000 0 0 1
29.826327 33.518293 30.988488 54.528637 0.843616 0.966361 0.036374 -0.022416 -78280.200000 0 0 1
28.707527 -33.805372 31.169138 54.207384 -0.866767 0.958195 0.020628 -0.017736 210114.000000 0 0 1
27.423227 33.874733 30.343218 53.105949 0.890260 0.962620 0.035015 -0.025523 273998.000000 0 0 1
26.889027 32.643280 30.777318 52.305324 0.881756 0.941697 0.034636 -0.022057 803661.000000 0 0 1
25.461627 32.712672 30.562038 51.501957 0.909402 0.935501 0.027649 -0.023993 1137950.000000 0 0 1
24.777627 31.341206 30.620528 50.337052 0.901828 0.916867 0.030912 -0.026686 -420755.000000 0 0 1
24.963027 30.621186 29.375258 49.231246 0.886843 0.931440 0.027359 -0.021501 -216244.000000 0 0 1
24.331527 29.425886 29.422138 48.203405 0.879882 0.914263 0.061014 -0.030684 -695054.000000 0 0 1
23.844527 28.964336 28.063578 46.851454 0.882046 0.928556 0.061013 -0.028917 -650037.000000 0 0 1
22.759627 29.640146 27.516018 46.407652 0.915959 0.936116 0.080585 -0.039148 -427282.000000 0 0 1
22.421427 29.092556 26.262728 45.153385 0.914183 0.950061 0.075137 -0.033791 -326893.000000 0 0 1
21.015827 29.455206 25.801208 44.440708 0.951078 0.951360 0.101195 -0.032448 -365710.000000 0 0 1
21.043927 30.780466 25.252568 45.033057 0.971109 0.975497 0.085367 -0.035423 712376.000000 0 0 1
19.690927 31.232126 25.115518 44.653864 1.008273 0.973452 0.085282 -0.027892 435752.000000 0 0 1
19.569427 32.783920 24.715958 45.482156 1.032643 0.996289 0.098605 -0.027981 -179736.000000 0 0 1
20.047127 33.173499 23.418298 45.285594 1.027213 1.027308 0.097713 -0.021699 -355351.000000 0 0 1
21.411227 33.473936 23.490818 46.160195 1.001739 1.036893 0.087574 -0.012304 -599210.000000 0 0 1
22.012627 33.598957 22.094238 45.843223 0.990804 1.067915 0.099604 -0.016884 -210716.000000 0 0 1
21.589227 -33.304092 21.488238 45.133155 -0.995655 1.074573 0.099414 -0.007052 321316.000000 0 0 1
22.125127 -33.093292 20.194638 44.637548 -0.981478 1.101326 0.118810 -0.009469 -390016.000000 0 0 1
21.438827 -31.972192 19.476538 43.141395 -0.980113 1.102397 0.103967 -0.009159 -326639.000000 0 0 1
21.660227 -30.717172 20.081338 42.614202 -0.956622 1.080105 0.099338 -0.007663 155559.000000 0 0 1
21.217827 -29.595302 19.330138 41.227810 -0.948797 1.082795 0.087807 -0.013249 -137110.000000 0 0 1
22.130527 -29.123052 18.171038 40.842368 -0.920991 1.109726 0.074504 -0.011528 -166638.000000 0 0 1
22.128427 -29.902682 17.027638 40.911834 -0.933716 1.141531 0.063486 -0.013934 265931.000000 0 0 1
22.646627 -29.167692 15.919938 40.212789 -0.910594 1.163757 0.051176 -0.009595 -257978.000000 0 0 1
22.413527 -29.779162 14.556338 40.013144 -0.925596 1.198464 0.038138 -0.018385 -319884.000000 0 0 1
23.028627 -31.015632 14.291438 41.188983 -0.932122 1.216455 0.065054 -0.009905 -109675.000000 0 0 1
23.108427 -31.454882 12.952338 41.123863 -0.937190 1.250383 0.049060 -0.012423 -54436.300000 0 0 1
21.816927 -31.670982 12.087338 40.312940 -0.967585 1.266274 0.047724 -0.011802 218104.000000 0 0 1
21.035227 -32.712622 12.634338 40.892822 -0.999336 1.256695 0.050216 -0.012348 25905.300000 0 0 1
19.850727 -32.940662 11.867638 40.248968 -1.028452 1.271492 0.061178 -0.008813 273256.000000 0 0 1
18.865827 -33.699742 12.804838 40.688523 -1.060444 1.250652 0.080456 -0.000229 -168806.000000 0 0 1
18.407627 -32.887062 13.846738 40.151361 -1.060519 1.218703 0.074557 0.000925 440481.000000 0 0 1
19.160127 -33.289132 15.022538 41.242617 -1.048536 1.197971 0.076487 -0.000169 -232182.000000 0 0 1
18.913427 -32.307712 16.265938 40.817726 -1.041170 1.160914 0.076010 0.000179 272277.000000 0 0 1
17.592327 -31.883202 16.583038 40.012819 -1.066592 1.143465 0.094742 -0.005355 666401.000000 0 0 1
16.643127 -32.903712 16.978338 40.594481 -1.102509 1.139287 0.081427 -0.001195 21499.700000 0 0 1
16.761127 -33.694212 18.341538 41.864631 -1.109192 1.117295 0.066952 -0.004462 240233.000000 0 0 1
17.727327 33.337009 18.296938 41.957029 1.082064 1.119550 0.068399 0.001427 791491.000000 0 0 1
17.942327 32.678377 19.551438 42.095869 1.068677 1.087783 0.064104 -0.006810 293098.000000 0 0 1
18.865827 31.431316 19.359638 41.456516 1.030212 1.084916 0.079693 -0.008219 26919.700000 0 0 1
18.161727 30.305376 18.922238 40.078863 1.030899 1.079096 0.052162 -0.011877 99625.800000 0 0 1
19.064827 29.226546 18.597438 39.541413 0.992798 1.081134 0.052783 -0.018422 137186.000000 0 0 1
18.410527 27.883766 18.294338 38.093763 0.987242 1.069862 0.048620 -0.017790 -123198.000000 0 0 1
18.024627 27.259706 19.492738 38.051881 0.986575 1.032973 0.056800 -0.025527 -97434.800000 0 0 1
17.582927 25.955746 19.306538 36.818508 0.975386 1.018821 0.054337 -0.024311 -761408.000000 0 0 1
17.316927 25.228436 20.681338 36.933288 0.969253 0.976453 0.069650 -0.027918 -25640.100000 0 0 1
16.181327 25.576136 21.466638 37.105130 1.006698 0.953864 0.073080 -0.022662 -436963.000000 0 0 1
15.164427 24.710966 21.132438 35.877175 1.020385 0.940948 0.071459 -0.021164 -985326.000000 0 0 1
13.802227 24.933846 21.804438 35.883586 1.065229 0.917706 0.081124 -0.035060 -220271.000000 0 0 1
13.126027 26.098506 21.421938 36.226014 1.104798 0.938075 0.083816 -0.036450 -639169.000000 0 0 1
11.917527 26.177776 22.122138 36.286257 1.143582 0.915170 0.080576 -0.034458 -736812.000000 0 0 1
11.052527 27.294416 21.544738 36.487248 1.186041 0.939151 0.069366 -0.036820 -599926.000000 0 0 1
11.623227 28.588236 21.685638 37.718080 1.184636 0.958265 0.064043 -0.037468 -102517.000000 0 0 1
11.408027 29.376376 20.509138 37.599725 1.200382 0.993859 0.062491 -0.034949 -122987.000000 0 0 1
11.724227 30.858886 20.762838 38.997741 1.207710 1.009350 0.054961 -0.033797 368515.000000 0 0 1
10.873927 31.496436 21.747038 39.789464 1.238366 0.992554 0.055078 -0.028268 118555.000000 0 0 1
11.424727 31.406716 23.048138 40.597080 1.221910 0.967052 0.073751 -0.026934 475003.000000 0 0 1
10.713327 32.354089 24.110648 41.747884 1.251032 0.955097 0.065236 -0.020365 784901.000000 0 0 1
9.422327 31.998686 24.588578 41.440251 1.284430 0.935582 0.035237 -0.012653 225952.000000 0 0 1
8.921627 32.907019 25.557598 42.610541 1.306044 0.927551 0.044735 -0.014258 -471317.000000 0 0 1
7.570927 32.487279 26.145518 42.383138 1.341840 0.906018 0.080381 -0.028884 316542.000000 0 0 1
6.377427 33.002882 25.518048 42.202281 1.379911 0.921457 0.067239 -0.024635 982380.000000 0 0 1
5.925327 32.429309 24.265448 40.933869 1.390075 0.936270 0.070468 -0.033283 267977.000000 0 0 1
5.111727 31.090186 24.472158 39.895062 1.407838 0.910421 0.059943 -0.027963 121790.000000 0 0 1
5.975927 30.089536 24.937188 39.534229 1.374743 0.888245 0.048854 -0.025927 -288891.000000 0 0 1
5.337827 28.836336 24.807538 38.411465 1.387760 0.868677 0.047366 -0.019268 -476879.000000 0 0 1
6.304727 27.625226 24.953738 37.757010 1.346416 0.848774 0.043460 -0.027657 -195690.000000 0 0 1
7.203727 27.562566 23.850388 37.154135 1.315156 0.873782 0.049718 -0.029329 386386.000000 0 0 1
8.356627 28.379416 23.905608 38.035544 1.284429 0.891164 0.072366 -0.037989 -166766.000000 0 0 1
9.563627 27.897696 24.772108 38.514955 1.240541 0.872150 0.073369 -0.041001 -499547.000000 0 0 1
9.275327 27.863186 26.202788 39.357019 1.249446 0.842269 0.070261 -0.040422 90004.000000 0 0 1
10.388927 27.583276 27.023408 39.987893 1.210590 0.828761 0.082171 -0.029481 588863.000000 0 0 1
11.478327 28.737496 27.149488 41.166618 1.190790 0.850640 0.086614 -0.031649 240359.000000 0 0 1
11.025927 29.819336 27.896548 42.296351 1.216630 0.850577 0.079245 -0.034836 129508.000000 0 0 1
11.956327 30.871156 27.749938 43.197698 1.201288 0.873178 0.063518 -0.023419 27822.800000 0 0 1
11.590227 32.130214 28.543888 44.513342 1.224598 0.874679 0.052063 -0.024255 -160895.000000 0 0 1
11.535427 31.966446 29.941138 45.292290 1.224479 0.848559 0.067478 -0.036690 334514.000000 0 0 1
10.277827 31.595266 30.508838 45.107470 1.256296 0.827988 0.078837 -0.036872 190755.000000 0 0 1
10.272427 31.372436 32.049708 46.010176 1.254364 0.800178 0.105958 -0.034119 -10472.500000 0 0 1
10.774627 30.078436 32.440720 45.532464 1.226819 0.777778 0.086291 -0.037713 275201.000000 0 0 1
11.035727 30.070336 33.822977 46.583325 1.219060 0.758200 0.099750 -0.033346 -213357.000000 0 0 1
11.090327 28.645556 -33.618508 45.538636 1.201410 2.401256 0.088932 -0.035013 -843896.000000 0 0 1
12.150827 27.883656 33.943498 45.577428 1.159840 0.730646 0.105742 -0.034525 -324449.000000 0 0 1
12.147027 26.580966 -33.529218 44.478158 1.142151 2.424676 0.095406 -0.036113 -272521.000000 0 0 1
13.302427 25.733906 33.972354 44.646493 1.093703 0.706068 0.100700 -0.036234 -180647.000000 0 0 1
13.346327 24.398856 -33.665528 43.666880 1.070254 2.451147 0.071187 -0.027496 -219518.000000 0 0 1
13.922627 24.127826 -32.416918 42.741644 1.047433 2.431711 0.069202 -0.025546 -460209.000000 0 0 1
13.982527 22.626206 -32.065698 41.661316 1.017262 2.449129 0.052489 -0.040369 141721.000000 0 0 1
14.977127 21.938506 -32.824698 42.226452 0.971785 2.461237 0.044335 -0.019260 257209.000000 0 0 1
14.943127 20.548606 -32.495418 41.249176 0.942042 2.477998 0.041942 -0.013146 -317310.000000 0 0 1
16.251827 19.810306 -32.837188 41.651543 0.883756 2.478965 0.061454 -0.021156 1121390.000000 0 0 1
17.310427 20.308406 -31.920358 41.605186 0.864924 2.445293 0.047715 -0.020795 1264640.000000 0 0 1
18.516827 19.572106 -32.108598 41.915419 0.813097 2.443443 0.054508 -0.019942 -457700.000000 0 0 1
19.700227 20.031106 -31.322158 42.076380 0.793726 2.410450 0.040018 -0.016279 -795820.000000 0 0 1
20.236827 21.271006 -31.767318 43.256761 0.810308 2.395563 0.031761 -0.009586 1191520.000000 0 0 1
21.343927 21.873406 -31.007918 43.537342 0.797649 2.363444 0.019374 -0.000947 1421770.000000 0 0 1
20.938727 22.279006 -29.521718 42.500780 0.816400 2.338682 0.027881 -0.008670 -32930.900000 0 0 1
20.074227 23.376896 -29.554818 42.695915 0.861261 2.335352 0.017699 0.005214 -39830.300000 0 0 1
19.626727 23.940836 -28.316368 41.954604 0.884098 2.311664 0.020069 0.007211 -259953.000000 0 0 1
20.761427 24.566316 -27.461038 42.292427 0.869144 2.277478 0.026205 -0.000891 142186.000000 0 0 1
21.448527 25.658036 -28.058228 43.653618 0.874523 2.268875 0.025924 0.006195 -373455.000000 0 0 1
20.706727 26.827176 -28.339518 44.176852 0.913453 2.267250 0.025840 0.004361 -866621.000000 0 0 1
21.434727 27.756286 -29.264388 45.675632 0.913208 2.266206 0.032904 -0.006092 -634519.000000 0 0 1
21.551027 27.445496 -30.681198 46.465449 0.905127 2.292016 0.035983 -0.005192 265859.000000 0 0 1
22.171227 26.213966 -31.146988 46.355908 0.868758 2.307581 0.035905 0.001260 752379.000000 0 0 1
23.545927 25.823706 -30.498318 46.383423 0.831503 2.288327 0.060570 -0.002492 417134.000000 0 0 1
24.601427 26.733546 -30.795738 47.626571 0.826908 2.273926 0.058734 -0.009863 -203197.000000 0 0 1
25.838027 26.234786 -30.380878 47.737464 0.793017 2.260639 0.067749 -0.018305 2410.260000 0 0 1
27.052827 27.012716 -30.981008 49.207369 0.784656 2.251836 0.063762 -0.006109 173725.000000 0 0 1
27.257927 28.297436 -30.395208 49.675026 0.804107 2.229233 0.051284 -0.006109 -295900.000000 0 0 1
28.391427 28.965326 -30.854588 50.961445 0.795404 2.221127 0.061473 -0.019240 -245456.000000 0 0 1
28.554027 30.331136 -30.076888 51.380244 0.815568 2.196143 0.050160 -0.010943 47550.900000 0 0 1
29.024927 30.109886 -28.753228 50.752338 0.803743 2.173097 0.067277 -0.013355 266089.000000 0 0 1
28.636827 31.206276 -27.941078 50.740550 0.828308 2.153958 0.057161 -0.015825 -367286.000000 0 0 1
28.991427 30.975016 -26.354528 49.945126 0.818464 2.126651 0.075126 -0.014119 -163154.000000 0 0 1
28.287027 30.017806 -25.587708 48.538185 0.815074 2.126059 0.065742 -0.006150 170355.000000 0 0 1
26.891427 30.214956 -25.494098 47.812566 0.843531 2.133186 0.053414 -0.001777 -207891.000000 0 0 1
26.212227 29.720436 -24.196518 46.431204 0.848038 2.118966 0.051605 0.002605 37269.300000 0 0 1
26.372127 30.674736 -23.177318 46.622062 0.860678 2.091087 0.088941 -0.007539 305588.000000 0 0 1
25.752027 30.255606 -21.957118 45.394754 0.865636 2.075665 0.059536 -0.006476 220219.000000 0 0 1
3.257327 -26.272372 -19.362918 32.798938 -1.447443 2.202291 0.065585 -0.010233 -246199.000000 0 0 1
3.234827 -27.236952 -18.306418 32.976364 -1.452584 2.159325 0.076454 -0.001827 210476.000000 0 0 1
3.150527 -26.691272 -17.028918 31.817195 -1.453304 2.135554 0.079931 -0.001594 -69926.800000 0 0 1
3.123127 -27.778182 -15.926518 32.171965 -1.458836 2.088681 0.071798 -0.011469 -309616.000000 0 0 1
4.374427 -28.318742 -15.619618 32.635245 -1.417537 2.069869 0.067507 -0.004463 -402709.000000 0 0 1
4.238727 -29.207762 -14.544118 32.902759 -1.426679 2.028661 0.068229 -0.009897 -223689.000000 0 0 1
5.550827 -29.837052 -14.102318 33.465456 -1.386861 2.005784 0.093075 -0.000366 -500235.000000 0 0 1
6.584127 -28.938302 -13.742818 32.705368 -1.347082 2.004463 0.074981 -0.001142 1195120.000000 0 0 1
7.923727 -29.509952 -13.684718 33.479759 -1.308473 1.991876 0.078576 -0.002311 1503660.000000 0 0 1
8.264727 -30.604472 -12.643918 34.129285 -1.307038 1.950313 0.084539 -0.016753 -969614.000000 0 0 1
8.426127 -30.038992 -11.341318 33.195876 -1.297318 1.919467 0.076086 -0.023959 -7696.540000 0 0 1
8.652527 -30.912632 -10.244718 33.695865 -1.297878 1.879722 0.084436 -0.021918 686519.000000 0 0 1
10.059227 -31.596522 -10.157818 34.680103 -1.262577 1.868055 0.084766 -0.024090 662651.000000 0 0 1
11.181427 -30.754772 -9.956218 34.205359 -1.222086 1.866143 0.073808 -0.027988 581103.000000 0 0 1
12.354727 -31.558042 -9.812718 35.282272 -1.197646 1.852633 0.083685 -0.025317 326772.000000 0 0 1
13.496227 -31.002062 -8.963818 34.980366 -1.160206 1.829940 0.093163 -0.032401 197787.000000 0 0 1
14.479527 -30.164152 -9.576818 34.802992 -1.123257 1.849565 0.080429 -0.034704 327238.000000 0 0 1
15.554827 -29.980632 -8.690818 34.875798 -1.092199 1.822644 0.079384 -0.031296 -310822.000000 0 0 1
16.676827 -29.088742 -9.251318 34.783018 -1.050234 1.840009 0.083599 -0.032281 -203872.000000 0 0 1
16.381627 -27.727492 -9.488918 33.573965 -1.037163 1.857328 0.089000 -0.031263 59066.600000 0 0 1
15.633427 -27.468832 -10.664118 33.356621 -1.053382 1.896209 0.080145 -0.029132 -114827.000000 0 0 1
15.222127 -25.994392 -10.956318 32.054056 -1.041038 1.919636 0.076619 -0.024553 -1261630.000000 0 0 1
14.375127 -25.466792 -9.969218 30.896393 -1.056915 1.899341 0.072946 -0.027265 -14702.500000 0 0 1
13.835727 -24.184712 -10.292318 29.702853 -1.051155 1.924644 0.062571 -0.010046 669096.000000 0 0 1
12.987227 -24.094612 -11.582318 29.721516 -1.076430 1.971096 0.042309 -0.003653 -718623.000000 0 0 1
13.845427 -23.651912 -12.600218 30.164123 -1.041194 2.001733 0.043738 -0.001939 -39373.600000 0 0 1
13.218327 -23.677312 -13.871718 30.459216 -1.061626 2.043640 0.042388 -0.004389 -271727.000000 0 0 1
14.096427 -23.173312 -15.005118 30.997826 -1.024293 2.076096 0.052496 -0.008062 102642.000000 0 0 1
15.322427 -23.858912 -15.192718 32.168978 -0.999917 2.062670 0.054543 -0.010034 126858.000000 0 0 1
15.890927 -23.431512 -16.391318 32.714410 -0.974861 2.095600 0.062757 -0.017937 -797451.000000 0 0 1
16.830527 -24.461312 -17.066018 34.247210 -0.968138 2.092455 0.070363 -0.020513 867618.000000 0 0 1
18.193327 -24.542312 -16.663918 34.799546 -0.932884 2.070146 0.096166 -0.021158 440089.000000 0 0 1
19.037327 -23.438012 -16.931718 34.618540 -0.888635 2.081847 0.102854 -0.023056 442353.000000 0 0 1
20.521127 -23.719112 -16.452218 35.417346 -0.857559 2.053894 0.110689 -0.022092 1017010.000000 0 0 1
21.118227 -24.593312 -17.413618 36.797345 -0.861274 2.063750 0.113984 -0.018299 125356.000000 0 0 1
22.452127 -24.886112 -17.028418 37.594995 -0.836770 2.040861 0.113669 -0.001411 522743.000000 0 0 1
23.266527 -25.997832 -17.740718 39.140154 -0.840783 2.041217 0.110279 -0.010798 34206.400000 0 0 1
23.643127 -25.595622 -19.055218 39.714414 -0.825031 2.071230 0.123556 -0.013320 86393.200000 0 0 1
24.224927 -26.725642 -19.716318 41.107666 -0.834440 2.071025 0.107889 -0.024449 611935.000000 0 0 1
25.595927 -26.425702 -20.443818 42.088228 -0.801347 2.078003 0.096374 -0.024869 788533.000000 0 0 1
25.588427 -25.360552 -21.400118 41.903344 -0.780926 2.106797 0.108069 -0.024511 -383230.000000 0 0 1
26.079627 -24.212212 -20.827818 41.233193 -0.748284 2.100320 0.108465 -0.019316 -420316.000000 0 0 1
25.226227 -22.880012 -20.954818 39.987022 -0.736665 2.122384 0.125472 -0.020181 170292.000000 0 0 1
25.071727 -22.243312 -22.169518 40.185121 -0.725691 2.155179 0.123735 -0.009330 247453.000000 0 0 1
24.305927 -22.998212 -23.096818 40.659056 -0.757760 2.174944 0.107918 -0.011236 -55086.800000 0 0 1
23.474427 -22.181412 -24.153818 40.329526 -0.757085 2.212938 0.110287 -0.004686 521048.000000 0 0 1
24.254627 -21.410912 -25.072178 40.930773 -0.723206 2.230080 0.089795 0.004183 636970.000000 0 0 1
23.366227 -20.855312 -26.045028 40.734115 -0.728679 2.264502 0.079886 0.008213 477651.000000 0 0 1
24.120327 -20.099612 -27.195188 41.537487 -0.694722 2.284601 0.073570 0.007556 299219.000000 0 0 1
23.262827 -19.196112 -27.901718 41.087172 -0.689909 2.317313 0.071012 0.007807 757155.000000 0 0 1
23.861727 -18.685612 -29.107298 42.021053 -0.664338 2.336000 0.072333 -0.001332 149267.000000 0 0 1
22.896827 -17.607512 -29.640558 41.386615 -0.655547 2.369120 0.096111 -0.004059 552914.000000 0 0 1
21.758127 -18.114512 -30.367958 41.518243 -0.694270 2.391222 0.089359 -0.010170 998081.000000 0 0 1
21.008827 -17.102112 -31.037468 41.196814 -0.683246 2.424006 0.092031 -0.013763 -259259.000000 0 0 1
19.741427 -17.687012 -31.661518 41.291719 -0.730564 2.444601 0.080653 -0.017852 -451803.000000 0 0 1
19.991327 -18.298312 -32.915048 42.636625 -0.741211 2.452762 0.085652 -0.024550 1134580.000000 0 0 1
18.799727 -19.013412 -33.324608 42.725509 -0.791049 2.465414 0.083253 -0.027864 719771.000000 0 0 1
18.997727 -19.871412 33.481577 43.322081 -0.807872 0.687472 0.103238 -0.033106 98124.200000 0 0 1
19.845427 -20.975712 33.792396 44.449382 -0.813080 0.707107 0.094015 -0.026464 236140.000000 0 0 1
20.042527 -21.845312 32.758706 44.182048 -0.828410 0.735570 0.083775 -0.030454 146198.000000 0 0 1
21.146427 -22.893712 33.145134 45.496081 -0.825052 0.754627 0.061809 -0.026044 200353.000000 0 0 1
20.758827 -23.960812 34.005207 46.490897 -0.856877 0.750368 0.080040 -0.025231 17834.800000 0 0 1
20.651727 -23.711212 -32.628828 45.313970 -0.854254 2.374687 0.078561 -0.024647 273302.000000 0 0 1
19.550027 -24.578312 -31.911398 44.773143 -0.898856 2.364186 0.103233 -0.029308 -26332.100000 0 0 1
19.799227 -26.002462 -31.879518 45.655680 -0.920016 2.343760 0.103713 -0.039438 490216.000000 0 0 1
20.978427 -26.321982 -31.129128 45.847178 -0.897892 2.317163 0.077323 -0.032314 494344.000000 0 0 1
21.203227 -27.831452 -31.029958 46.765638 -0.919758 2.296311 0.075517 -0.037096 167474.000000 0 0 1
20.170027 -28.486562 -30.293038 46.216689 -0.954685 2.285583 0.094405 -0.042502 297640.000000 0 0 1
20.285527 -29.892202 -30.379858 47.201506 -0.974562 2.270016 0.092608 -0.035821 -697987.000000 0 0 1
19.126127 -30.649172 -29.711438 46.775528 -1.012892 2.259053 0.118032 -0.038540 -126534.000000 0 0 1
17.891827 -30.579052 -30.374868 46.667210 -1.041404 2.279543 0.129021 -0.038574 -409791.000000 0 0 1
17.760127 -31.215872 -31.638538 47.862824 -1.053524 2.292981 0.134345 -0.043612 -421347.000000 0 0 1
16.410027 -31.901362 -32.009538 48.079064 -1.095696 2.299320 0.140768 -0.044543 550762.000000 0 0 1
15.398127 -30.988862 -32.391098 47.398261 -1.109638 2.323181 0.148729 -0.042098 216144.000000 0 0 1
14.164227 -31.608462 -32.721688 47.649020 -1.149511 2.327768 0.122308 -0.033416 942121.000000 0 0 1
13.170627 -30.729382 -33.562968 47.373338 -1.165880 2.358136 0.121779 -0.034233 454917.000000 0 0 1
12.540327 -29.613912 -32.991988 46.072930 -1.170230 2.368969 0.137923 -0.037036 -454861.000000 0 0 1
11.787427 -28.923482 -33.879348 46.079513 -1.183808 2.396812 0.118034 -0.027704 -339885.000000 0 0 1
10.632527 -28.063652 -33.307258 44.832942 -1.208636 2.408217 0.118114 -0.034615 720112.000000 0 0 1
9.549327 -28.757502 -32.679998 44.566421 -1.250189 2.393941 0.103975 -0.022832 839776.000000 0 0 1
8.447027 -27.870682 -32.449448 43.601535 -1.276517 2.410173 0.051037 -0.016289 585086.000000 0 0 1
7.332227 -28.421262 -31.549828 43.092010 -1.318318 2.392270 0.025797 -0.015865 -13979.300000 0 0 1
6.364127 -29.362082 -32.029438 43.914905 -1.357351 2.388171 0.029080 -0.007975 -71911.200000 0 0 1
6.668427 -30.680232 -32.429078 45.137453 -1.356773 2.372370 0.029906 -0.008871 -286059.000000 0 0 1
5.419827 -31.602072 -32.642608 45.755932 -1.400946 2.365145 0.055725 -0.021528 51059.300000 0 0 1
4.770827 -31.705652 -31.441518 44.906327 -1.421444 2.346415 0.065256 -0.030809 -116874.000000 0 0 1
3.736327 -32.692352 -31.507138 45.557105 -1.457003 2.334494 0.072450 -0.052466 -384765.000000 0 0 1
2.870527 -32.766442 -30.206618 44.657804 -1.483414 2.313663 0.060489 -0.057286 557234.000000 0 0 1
1.802027 -31.837482 -30.025868 43.799832 -1.514256 2.326121 0.053756 -0.043778 593318.000000 0 0 1
0.675327 -32.051772 -30.882088 44.513768 -1.549730 2.337500 0.042189 -0.017157 -329916.000000 0 0 1
-0.227973 -30.801762 -30.749628 43.524018 1.563395 2.355334 0.035462 -0.011324 -214658.000000 0 0 1
-0.879673 -30.771532 -29.476188 42.620496 1.542217 2.334493 0.018296 -0.022780 58311.100000 0 0 1
-1.563573 -29.529242 -29.304308 41.631279 1.517896 2.351671 0.065627 -0.019967 -140411.000000 0 0 1
-2.285473 -29.541362 -27.957758 40.737596 1.493585 2.327171 0.069271 -0.023697 -816726.000000 0 0 1
-1.492673 -29.699552 -26.843078 40.060483 1.520579 2.305091 0.050304 -0.021866 -223488.000000 0 0 1
-2.214873 -29.712352 -25.580958 39.269771 1.496390 2.280246 0.060872 -0.025323 460040.000000 0 0 1
-1.184773 -29.909922 -24.433218 38.639219 1.531206 2.255370 0.031436 -0.021847 114148.000000 0 0 1
-1.686273 -30.095232 -23.128518 37.993353 1.514824 2.225283 0.056058 -0.022848 -602594.000000 0 0 1
-0.707973 -30.610852 -22.286818 37.871199 1.547672 2.199986 0.044425 -0.010176 -248662.000000 0 0 1
-1.203773 -30.778382 -20.811118 37.173384 1.531705 2.164988 0.009096 0.000054 36359.900000 0 0 1
-1.434573 -29.502122 -20.270718 35.823668 1.522209 2.172257 0.013970 -0.000478 522063.000000 0 0 1
-0.235873 -28.979902 -19.679918 35.031265 1.562657 2.167334 0.037968 -0.012392 115796.000000 0 0 1
-0.324073 -27.616132 -19.029718 33.539319 1.559062 2.174123 0.038390 -0.014468 -66674.700000 0 0 1
-1.117173 -27.511912 -17.850918 32.814763 1.530212 2.145982 0.040412 -0.017032 188311.000000 0 0 1
-1.097173 -26.176992 -17.342918 31.419986 1.528907 2.155522 0.048823 -0.019923 173218.000000 0 0 1
-1.914273 -26.076872 -16.020018 30.664453 1.497519 2.120494 0.044873 -0.018691 -125416.000000 0 0 1
-2.107873 -24.797412 -15.461418 29.298639 1.485996 2.126708 0.041382 -0.014779 225142.000000 0 0 1
-2.829773 -24.940912 -14.242118 28.859914 1.457820 2.086896 0.040252 -0.014572 -42168.700000 0 0 1
-2.629473 -23.717512 -13.289818 27.313985 1.460381 2.078941 0.037687 -0.010092 33978.800000 0 0 1
-1.366573 -23.659612 -12.649318 26.863544 1.513101 2.061076 0.041036 -0.018126 -155202.000000 0 0 1
-1.345673 -22.681712 -11.619018 25.520041 1.511537 2.043494 0.046522 -0.016069 41714.100000 0 0 1
0.063527 -22.406412 -11.057618 24.986441 -1.567961 2.029231 0.047383 -0.019694 10995.000000 0 1 0
0.184227 -21.287412 -10.195618 23.603781 -1.562142 2.017448 0.031279 -0.017046 -171796.000000 0 1 0
1.384827 -21.387812 -9.444918 23.421416 -1.506138 1.985873 0.027502 -0.020802 357173.000000 0 1 0
1.971427 -19.988012 -9.240518 22.108693 -1.472484 2.001993 0.026329 -0.013607 -976594.000000 0 1 0
2.327527 -19.369212 -10.488918 22.149518 -1.451203 2.064114 0.022777 0.004458 225350.000000 0 1 0
3.292227 -18.304712 -10.524618 21.369811 -1.392842 2.085756 0.018713 0.007080 739578.000000 0 1 0
4.735227 -18.708312 -10.127818 21.794403 -1.322894 2.054090 0.031782 -0.007662 -213862.000000 0 1 0
4.762127 -18.979012 -8.748818 21.434145 -1.324956 1.991247 0.039221 -0.020669 -833411.000000 0 1 0
5.875327 -19.773012 -8.518118 22.317030 -1.281967 1.962417 0.046770 -0.012837 -665856.000000 0 1 0
5.626127 -20.834212 -7.475418 22.838555 -1.307045 1.904258 0.054438 -0.020473 -38938.100000 0 1 0
4.858027 -21.923612 -7.962818 23.825442 -1.352731 1.911568 0.054632 -0.028579 99800.600000 0 1 0
4.677727 -23.008012 -7.058918 24.516894 -1.370221 1.862851 0.064106 -0.023539 314264.000000 0 1 0
3.780527 -24.206012 -7.559618 25.639252 -1.415867 1.870090 0.066731 -0.019690 639416.000000 0 0 1
4.321627 -24.748912 -8.770518 26.610282 -1.397920 1.906667 0.060659 -0.019870 276433.000000 0 0 1
3.253427 -25.353692 -9.468418 27.258860 -1.443172 1.925542 0.055280 -0.024084 304516.000000 0 0 1
3.690627 -26.541072 -10.376618 28.735404 -1.432629 1.940253 0.046032 -0.026931 -35264.300000 0 0 1
4.246227 -27.635012 -9.675418 29.586112 -1.418335 1.903951 0.060098 -0.035388 47198.800000 0 0 1
5.037927 -28.440002 -10.536818 30.744739 -1.395473 1.920606 0.084865 -0.025930 149171.000000 0 0 1
4.891727 -29.929182 -10.378718 32.053123 -1.408785 1.900537 0.085002 -0.030652 -605878.000000 0 0 1
3.616327 -30.349312 -10.742518 32.396917 -1.452199 1.908786 0.079173 -0.021571 -489592.000000 0 0 1
3.509227 -31.741732 -10.800718 33.712130 -1.460688 1.896928 0.089225 -0.021008 -458593.000000 0 0 1
2.148427 -32.238602 -11.284318 34.223954 -1.504253 1.906803 0.075248 -0.020489 -471647.000000 0 0 1
1.954027 -32.124632 -12.706518 34.601529 -1.510045 1.946819 0.072414 -0.021701 365522.000000 0 0 1
1.104427 -33.092812 -13.295618 35.680911 -1.537435 1.952633 0.058802 -0.014565 43051.100000 0 0 1
0.739727 -32.869812 -14.808218 36.059050 -1.548295 1.993980 0.058171 -0.001593 24077.800000 0 0 1
-0.204473 -31.837682 -14.997118 35.193655 1.564374 2.011008 0.057423 -0.003629 -9597.830000 0 0 1
-0.693573 -31.863092 -16.330418 35.810895 1.549032 2.044312 0.028115 0.000621 435929.000000 0 0 1
-1.826773 -30.829622 -16.661118 35.091246 1.511612 2.065526 0.021684 0.009157 35299.200000 0 0 1
-2.988173 -30.971692 -15.921418 34.952345 1.474613 2.043750 0.027578 0.000893 -679651.000000 0 0 1
-4.140973 -30.864462 -16.754418 35.362030 1.437426 2.064394 0.037134 -0.000095 610575.000000 0 0 1
-5.432373 -31.069392 -15.899418 35.321513 1.397700 2.037712 0.040567 -0.006023 6887.620000 0 0 1
-5.731673 -30.119842 -14.861818 34.072432 1.382749 2.022149 0.030842 -0.006618 842220.000000 0 0 1
-7.165873 -30.012952 -14.759818 34.204959 1.336425 2.016963 0.045283 -0.007902 1023710.000000 0 0 1
-7.812073 -30.863082 -13.668218 34.646479 1.322883 1.976326 0.040901 -0.010986 -255026.000000 0 0 1
-7.837873 -32.216302 -14.067218 36.016788 1.332144 1.972051 0.044069 -0.013272 123486.000000 0 0 1
-8.721773 -32.959182 -13.225418 36.568958 1.312102 1.940841 0.067871 -0.019325 371140.000000 0 0 1
-9.079073 33.864131 -13.948918 37.733026 -1.308854 1.949454 0.099744 -0.022915 -135085.000000 0 0 1
-7.955673 33.007717 -13.945718 36.705383 -1.334283 1.960524 0.076735 -0.022030 87587.200000 0 0 1
-8.135773 31.750756 -14.562118 35.865814 -1.319955 1.988887 0.102434 -0.038878 -461008.000000 0 0 1
-8.003773 -22.381212 -3.345618 24.003587 1.227357 1.710632 0.081578 -0.008350 195227.000000 0 1 0
-7.791573 -21.328812 -4.239518 23.099791 1.220550 1.755373 0.058735 -0.004440 37581.900000 0 1 0
-6.560173 -21.402812 -4.960318 22.928606 1.273378 1.788858 0.055897 -0.003769 541174.000000 0 1 0
-6.465273 -20.243412 -5.954918 22.069357 1.261659 1.844010 0.053886 -0.010368 137650.000000 0 1 0
-7.227373 -20.474812 -7.124518 22.851950 1.231462 1.887850 0.047913 -0.010462 -294980.000000 0 1 0
-7.086473 -19.354712 -7.970318 22.098619 1.219819 1.939783 0.033618 -0.008598 251520.000000 0 1 0
-7.961873 -19.553512 -9.247618 23.048854 1.184112 1.983643 0.039602 -0.013542 224631.000000 0 1 0
-7.374173 -20.339412 -10.262018 23.945336 1.222980 2.013695 0.047800 -0.009199 -607157.000000 0 1 0
-8.187673 -20.509912 -11.385418 24.845970 1.190975 2.046810 0.074951 -0.011075 -496368.000000 0 1 0
-7.641273 -21.459112 -12.478518 25.972985 1.228711 2.071955 0.070475 -0.010488 -18289.900000 0 0 1
-6.431873 -20.965112 -13.049618 25.518571 1.273122 2.107583 0.067012 -0.004530 198377.000000 0 0 1
-5.945473 -21.705612 -14.137318 26.577171 1.303440 2.131680 0.047217 0.000343 40668.200000 0 0 1
-5.133573 -20.834912 -15.135418 26.258865 1.329216 2.185104 0.023985 0.011306 615230.000000 0 0 1
-3.851673 -20.509512 -14.585218 25.459852 1.385159 2.180801 0.031036 0.000098 785886.000000 0 0 1
-2.959173 -19.638612 -15.299418 25.069982 1.421240 2.227196 0.051512 0.003584 456246.000000 0 0 1
-3.455673 -18.188312 -15.451218 24.114239 1.383040 2.266272 0.054829 0.007554 -476188.000000 0 1 0
-4.676773 -17.937712 -16.145118 24.582485 1.315751 2.287328 0.057931 0.012954 87123.100000 0 1 0
-4.642773 -17.837112 -17.547218 25.448434 1.316159 2.331623 0.061367 0.001486 1517380.000000 0 0 1
-6.113873 -17.660812 -18.205518 26.090700 1.237526 2.343087 0.061469 0.004305 2120260.000000 0 0 1
-6.980173 -18.737712 -17.901518 26.838201 1.214202 2.300993 0.046535 0.009884 -680106.000000 0 0 1
-8.209073 -18.645812 -18.547218 27.550943 1.156069 2.309320 0.027766 0.006994 -306406.000000 0 0 1
-9.133573 -19.785912 -18.036118 28.287913 1.138321 2.262163 0.050033 0.002053 58565.600000 0 0 1
-8.547673 -21.078012 -18.196718 29.128437 1.185536 2.245552 0.058242 0.002719 500591.000000 0 0 1
-9.337573 -22.094212 -17.558618 29.726243 1.170939 2.202694 0.089108 -0.008732 345195.000000 0 0 1
-8.879473 -23.590712 -17.874018 30.900603 1.210801 2.187606 0.091638 -0.017116 -777951.000000 0 0 1
-9.192573 -23.966512 -19.161518 32.032185 1.204543 2.212044 0.074437 -0.016931 478167.000000 0 0 1
-8.356873 -25.004812 -19.717718 32.922126 1.248256 2.212948 0.088067 -0.033443 1019860.000000 0 0 1
-6.800373 -24.821012 -19.844718 32.498316 1.303382 2.227663 0.061014 -0.023153 280710.000000 0 0 1
-6.415773 -23.716112 -20.705218 32.129771 1.306596 2.271067 0.076712 -0.019499 251319.000000 0 0 1
-6.197973 -22.474212 -20.052018 30.750423 1.301704 2.281133 0.056219 -0.014829 -684667.000000 0 0 1
-5.238373 -22.312712 -18.855618 29.678814 1.340202 2.259222 0.072382 -0.003158 -407145.000000 0 0 1
-3.906273 -22.645212 -19.147318 29.911275 1.399979 2.265473 0.076577 -0.017068 -178606.000000 0 0 1
-3.045573 -22.210012 -18.100318 28.812873 1.434520 2.250037 0.039282 -0.015947 1190360.000000 0 0 1
-1.572273 -22.775912 -18.245318 29.225089 1.501873 2.245036 0.080098 -0.017304 906104.000000 0 0 1
-0.799273 -22.156912 -19.224518 29.345352 1.534739 2.285128 0.109784 -0.019313 -528198.000000 0 0 1
0.529927 -22.618212 -19.244218 29.701924 -1.547371 2.275636 0.073822 -0.018319 80732.500000 0 0 1
1.399427 -21.793312 -20.228618 29.767496 -1.506671 2.317951 0.073877 -0.021072 -141207.000000 0 0 1
1.105227 -21.981512 -21.583518 30.826233 -1.520559 2.346428 0.078847 -0.032047 -359073.000000 0 0 1
1.401127 -20.914412 -22.424818 30.696063 -1.503903 2.389914 0.092486 -0.031021 -815891.000000 0 0 1
1.132627 -21.263412 -23.888218 32.000977 -1.517580 2.413559 0.095573 -0.036980 119081.000000 0 0 1
0.614427 -20.169012 -24.650818 31.856387 -1.540342 2.455632 0.074384 -0.037284 766375.000000 0 0 1
-0.764873 -19.919412 -24.315818 31.442440 1.532417 2.454895 0.085444 -0.037387 450310.000000 0 0 1
-1.422873 -18.717212 -25.142468 31.376780 1.494923 2.500275 0.095522 -0.029026 56874.600000 0 0 1
-0.922673 -17.484012 -24.786718 30.346720 1.518073 2.526611 0.080328 -0.032841 -137761.000000 0 0 1
-1.434273 -16.374812 -25.511018 30.348042 1.483429 2.569214 0.092679 -0.038763 -58034.600000 0 0 1
-0.996573 -14.932312 -24.969218 29.110633 1.504156 2.601644 0.088648 -0.032847 1121480.000000 0 0 1
0.416327 -14.655812 -25.052738 29.027674 -1.542397 2.612101 0.082834 -0.042185 711488.000000 0 0 1
0.832127 -13.339012 -24.593118 27.990054 -1.508494 2.643798 0.079983 -0.040945 279748.000000 0 0 1
0.475427 -12.143812 -25.414998 28.171268 -1.531667 2.695547 0.079261 -0.033694 -339866.000000 0 0 1
1.336327 -11.069512 -25.186838 27.544449 -1.450656 2.724837 0.065434 -0.033473 -165674.000000 0 0 1
1.057527 -9.965612 -26.009908 27.873771 -1.465074 2.773824 0.061048 -0.028329 -467661.000000 0 0 1
1.982527 -8.744112 -25.792808 27.306755 -1.347839 2.807042 0.067428 -0.034595 256661.000000 0 0 1
3.365127 -8.777912 -26.068248 27.711539 -1.204714 2.795485 0.054794 -0.035235 -54874.600000 0 0 1
3.679827 -9.024712 -27.449728 29.128579 -1.183627 2.800424 0.059219 -0.036400 -1054990.000000 0 0 1
5.084327 -8.745012 -27.965178 29.738474 -1.044168 2.794514 0.047277 -0.030536 -1329450.000000 0 0 1
5.324527 -7.362312 -28.058358 29.492807 -0.944660 2.828426 0.049186 -0.030257 -216138.000000 0 0 1
6.603527 -6.995412 -28.485458 30.065989 -0.814207 2.815906 0.039807 -0.024464 -921696.000000 0 0 1
7.724127 -7.132712 -27.450628 29.395148 -0.745612 2.775824 0.053523 -0.028719 -750168.000000 0 0 1
8.186927 -8.440112 -27.120928 29.560210 -0.800624 2.732497 0.036065 -0.029452 728288.000000 0 0 1
8.978727 -9.120912 -28.142358 30.916030 -0.793254 2.714765 0.061228 -0.036905 -18991.500000 0 0 1
9.431227 -10.498012 -27.628978 31.024454 -0.838876 2.669360 0.052204 -0.025286 417674.000000 0 0 1
8.280527 -11.326712 -27.424698 30.805448 -0.939526 2.668701 0.063745 -0.030754 795973.000000 0 0 1
8.587727 -12.513412 -26.735948 30.743218 -0.969337 2.625296 0.064159 -0.026780 -159129.000000 0 0 1
9.525827 -13.550812 -27.428128 32.041662 -0.958079 2.598307 0.075879 -0.033652 -106712.000000 0 0 1
8.916327 -14.100812 -28.556438 33.072707 -1.006945 2.612854 0.087340 -0.041421 5974.410000 0 0 1
9.641327 -15.203412 -29.111378 34.228223 -1.005640 2.587747 0.080019 -0.036918 101620.000000 0 0 1
8.790727 -15.920812 -30.184348 35.239807 -1.066301 2.599326 0.084861 -0.041620 11235.000000 0 0 1
8.368827 -15.033212 -31.221728 35.648717 -1.062832 2.637921 0.081357 -0.042267 541055.000000 0 0 1
7.475327 -15.629112 -32.168058 36.536744 -1.124663 2.647565 0.092772 -0.038520 36792.200000 0 0 1
6.379027 -14.643812 -32.592198 36.295793 -1.159971 2.685910 0.108335 -0.044485 -113283.000000 0 0 1
6.840027 -13.736612 -33.555558 36.897913 -1.108797 2.712674 0.100658 -0.040475 -987892.000000 0 0 1
5.812027 -13.027212 33.985962 36.858290 -1.151153 0.397398 0.087091 -0.044143 -1093680.000000 0 0 1
6.303427 -11.789512 33.147088 35.741506 -1.079804 0.383364 0.105965 -0.036477 -95918.900000 0 0 1
6.856927 -12.183812 31.929458 34.856176 -1.058187 0.412717 0.095769 -0.032882 219839.000000 0 0 1
7.122627 -11.116612 31.057788 33.747550 -1.000973 0.401956 0.094076 -0.030509 -178134.000000 0 0 1
7.682727 -11.545112 29.680518 32.760450 -0.983635 0.437092 0.069384 -0.023657 -534077.000000 0 0 1
6.705827 -12.043412 28.839468 31.964462 -1.062744 0.445871 0.064435 -0.024168 -358288.000000 0 0 1
7.220127 -12.278712 27.591248 31.051151 -1.039232 0.476569 0.046249 -0.018516 -360169.000000 0 0 1
6.228527 -12.864812 26.578058 30.177659 -1.119907 0.493417 0.040918 -0.033138 -255489.000000 0 0 1
6.034127 -14.290712 26.745528 30.918577 -1.171265 0.525584 0.050516 -0.027064 -56798.900000 0 0 1
5.807227 -14.985212 25.512428 30.152354 -1.201085 0.562138 0.032744 -0.026827 -169449.000000 0 0 1
4.310927 -15.158112 25.187188 29.711057 -1.293715 0.559090 0.044938 -0.029442 -339121.000000 0 0 1
3.663127 -13.940712 25.018818 28.873919 -1.313840 0.522679 0.024840 -0.032106 -825833.000000 0 0 1
2.313527 -14.196812 24.739618 28.617313 -1.409255 0.526645 0.031630 -0.030727 -148339.000000 0 0 1
1.493827 -12.880512 24.668588 27.868950 -1.455336 0.483950 0.050117 -0.035326 -528451.000000 0 0 1
1.718827 -12.111512 23.502318 26.495321 -1.429821 0.479910 0.015798 -0.028412 -234272.000000 0 0 1
0.853527 -10.997812 23.344308 25.819317 -1.493343 0.441431 0.028641 -0.024294 816085.000000 0 0 1
-0.592173 -11.393512 22.893638 25.578926 1.518868 0.462321 0.064269 -0.028063 138684.000000 0 0 1
-0.645873 -12.080012 21.624138 24.777958 1.517381 0.510057 0.060658 -0.023611 -572202.000000 0 1 0
-1.909073 -12.663212 21.486538 25.013453 1.421166 0.537484 0.080516 -0.028396 -165913.000000 0 0 1
-2.170973 -13.407812 20.101538 24.260140 1.410271 0.594224 0.095710 -0.031045 -156826.000000 0 1 0
-1.308773 -14.499312 19.840338 24.608575 1.480776 0.633033 0.107867 -0.038476 -561162.000000 0 1 0
-1.508573 -15.289512 18.658438 24.169863 1.472447 0.688860 0.107520 -0.040437 -131058.000000 0 1 0
-2.826873 -16.073512 18.565338 24.718835 1.396705 0.721130 0.079393 -0.040443 -1982.720000 0 1 0
-2.705173 -17.122712 17.633738 24.727595 1.414104 0.776858 0.070919 -0.035174 -385247.000000 0 1 0
-3.687973 -18.136012 17.707938 25.614198 1.370181 0.807464 0.074783 -0.026230 -46705.000000 0 0 1
-3.288773 -19.496112 17.047838 26.106382 1.403681 0.859239 0.075850 -0.029211 -177365.000000 0 0 1
-2.125573 -20.095212 17.546238 26.762027 1.465413 0.855767 0.083012 -0.034494 -441039.000000 0 0 1
-2.256473 -21.514312 17.427538 27.779064 1.466296 0.892635 0.081299 -0.042901 651633.000000 0 0 1
-1.079973 -22.382012 18.022538 28.756437 1.522582 0.893446 0.101303 -0.035677 528721.000000 0 0 1
0.074227 -22.411312 17.241538 28.276192 -1.567484 0.915045 0.100012 -0.041073 -289580.000000 0 0 1
1.088127 -23.239412 17.809038 29.298740 -1.524008 0.917455 0.107673 -0.029919 939215.000000 0 0 1
2.468327 -23.294612 17.078038 28.989498 -1.465229 0.940838 0.092379 -0.037213 676123.000000 0 0 1
3.206827 -22.098412 17.221438 28.199317 -1.426687 0.913847 0.096861 -0.036338 88904.200000 0 0 1
4.265327 -21.965712 16.269138 27.665328 -1.379002 0.942126 0.078207 -0.035466 423015.000000 0 0 1
5.108327 -20.700212 16.557138 26.995048 -1.328854 0.910514 0.077879 -0.029754 27754.200000 0 0 1
5.983527 -20.836812 17.708638 27.992342 -1.291159 0.885859 0.085684 -0.025452 427850.000000 0 0 1
6.386127 -19.628212 18.408238 27.657053 -1.256244 0.842513 0.087715 -0.031402 984162.000000 0 0 1
7.537427 -18.797412 17.719838 26.910001 -1.189444 0.851992 0.104621 -0.033066 462167.000000 0 0 1
6.952727 -18.196312 16.586338 25.584230 -1.205820 0.865443 0.084517 -0.035561 389523.000000 0 0 1
7.944227 -17.689212 15.718638 24.961862 -1.148691 0.889621 0.097054 -0.035502 -140286.000000 0 1 0
7.341127 -16.730912 14.733438 23.471041 -1.157315 0.892165 0.068594 -0.022819 -431731.000000 0 1 0
6.489827 -17.372412 13.822538 23.129659 -1.213279 0.930278 0.060780 -0.021436 -64013.700000 0 1 0
5.913127 -16.389812 13.000438 21.739421 -1.224550 0.929778 0.044395 -0.022749 -129507.000000 0 1 0
6.398527 -16.495612 11.532838 21.119960 -1.200771 0.993138 0.047150 -0.024258 129114.000000 0 1 0
7.767027 -16.156512 11.463938 21.278662 -1.122678 1.001840 0.049438 -0.016672 -96665.000000 0 1 0
8.262027 -16.353312 10.140838 20.941072 -1.102981 1.065284 0.050489 -0.019879 1143860.000000 0 1 0
9.778827 -15.960612 9.937238 21.192341 -1.021102 1.082743 0.039876 -0.013300 1123980.000000 0 1 0
10.275127 -16.523212 8.768838 21.342148 -1.014458 1.147389 0.037776 -0.012539 7734.630000 0 1 0
11.617127 -16.128912 8.496138 21.616748 -0.946597 1.166866 0.030498 -0.016454 559203.000000 0 1 0
12.567727 -17.010312 7.674038 22.498652 -0.934482 1.222721 0.041230 -0.022386 16984.300000 0 1 0
13.082427 -18.118912 8.368638 23.863759 -0.945437 1.212495 0.064811 -0.027017 200695.000000 0 1 0
13.732727 -19.091312 7.547638 24.698843 -0.947222 1.260242 0.065671 -0.022545 140200.000000 0 1 0
14.397627 -20.226612 8.312538 26.182166 -0.952184 1.247716 0.071163 -0.027521 -150720.000000 0 0 1
13.460827 -21.108912 8.894938 26.568778 -1.003127 1.229415 0.078657 -0.023494 194014.000000 0 0 1
14.121727 -22.152812 9.599838 27.970112 -1.003281 1.220456 0.083178 -0.020338 -274447.000000 0 0 1
13.150227 -23.035612 10.359238 28.475985 -1.052075 1.198464 0.100339 -0.027399 -365120.000000 0 0 1
12.717827 -22.262912 11.464938 28.086032 -1.051780 1.150306 0.099621 -0.029753 392583.000000 0 0 1
11.593727 -22.808212 12.217838 28.353212 -1.100520 1.125289 0.110789 -0.033856 838603.000000 0 0 1
11.636727 -24.294912 12.783238 29.817232 -1.124107 1.127721 0.105549 -0.023357 -243044.000000 0 0 1
12.736027 -24.529812 13.641338 30.822138 -1.091902 1.112320 0.099731 -0.025689 -4074.390000 0 0 1
12.792027 -25.859072 13.990338 32.063330 -1.111412 1.119275 0.089009 -0.034924 -127809.000000 0 0 1
13.999527 -26.113572 14.897338 33.163777 -1.078686 1.104921 0.075362 -0.027595 -176080.000000 0 0 1
13.921427 -25.555272 16.193538 33.303284 -1.071987 1.063010 0.069247 -0.017026 1045520.000000 0 0 1
15.112627 -25.858412 16.962238 34.420437 -1.041898 1.055497 0.068616 -0.015554 545251.000000 0 0 1
14.960027 -25.357372 18.442838 34.740999 -1.037786 1.011173 0.069169 -0.015523 239373.000000 0 0 1
15.393227 -23.957512 18.627138 34.027696 -0.999696 0.991529 0.059450 -0.018993 -455153.000000 0 0 1
16.727327 -23.845712 19.003338 34.778561 -0.959077 0.992725 0.046144 -0.014519 -395102.000000 0 0 1
17.317427 -22.456712 19.438538 34.381012 -0.913898 0.969895 0.045893 -0.016832 -106857.000000 0 0 1
17.449127 -21.521812 18.410838 33.265889 -0.889526 0.984302 0.041177 -0.016580 250627.000000 0 0 1
16.298327 -20.798212 17.978438 31.959746 -0.906110 0.973349 0.061628 -0.019518 -61511.100000 0 0 1
16.644127 -19.705912 16.935838 30.857293 -0.869430 0.989816 0.040160 -0.018027 -28286.500000 0 0 1
17.351327 -18.585612 17.433238 30.828742 -0.819731 0.969773 0.031266 -0.017191 263149.000000 0 0 1
18.697327 -18.642112 16.960438 31.381123 -0.783919 0.999805 0.040910 -0.011988 455787.000000 0 0 1
19.527327 -17.351112 17.310938 31.337616 -0.726456 0.985554 0.059074 -0.014120 -226088.000000 0 0 1
19.791227 -17.228912 18.674338 32.206506 -0.716294 0.952275 0.053997 -0.009007 34268.100000 0 0 1
20.129627 -15.931112 19.097538 31.995596 -0.669491 0.931189 0.066560 -0.013577 -119030.000000 0 0 1
20.651827 -15.948612 20.554338 33.216517 -0.657597 0.903584 0.062075 -0.009019 -398705.000000 0 0 1
21.896527 -16.566612 20.713138 34.393962 -0.647703 0.924503 0.063499 -0.006497 -532323.000000 0 0 1
22.265227 -16.394612 22.041438 35.360269 -0.634696 0.897791 0.082090 -0.007365 72997.100000 0 0 1
34.412809 -1.320712 -7.706218 35.289822 -0.038360 1.790940 0.175759 -0.034977 701178.000000 0 0 1
35.685339 -1.113412 -8.339418 36.663729 -0.031191 1.800262 0.172514 -0.033600 1360670.000000 0 0 1
36.620939 -2.168812 -8.004018 37.548119 -0.059154 1.785612 0.175237 -0.043291 568847.000000 0 0 1
-35.972675 -2.083512 -8.682718 37.064322 0.057855 1.807254 0.160937 -0.045449 -183065.000000 0 0 1
-35.022544 -3.029912 -8.233218 36.104637 0.086298 1.800858 0.169293 -0.048220 45555.200000 0 0 1
-33.784493 -2.571512 -8.761218 34.996622 0.075969 1.823833 0.207980 -0.047575 -391964.000000 0 0 1
-32.656943 -3.533212 -8.438118 33.914029 0.107773 1.822247 0.186628 -0.044419 -543086.000000 0 0 1
-32.055293 -3.602912 -7.137318 33.037313 0.111927 1.788551 0.166145 -0.043812 33633.400000 0 0 1
-30.859863 -4.314112 -7.105918 31.959924 0.138897 1.795009 0.152750 -0.047505 -446450.000000 0 0 1
-30.245153 -4.400112 -5.704318 31.091309 0.144468 1.755311 0.155719 -0.059045 -134610.000000 0 0 1
-29.823323 -3.102912 -5.220918 30.435450 0.103670 1.743190 0.151195 -0.054224 557945.000000 0 0 1
-29.778053 -2.978512 -3.814118 30.168717 0.099692 1.697562 0.145792 -0.047648 -340310.000000 0 0 1
-29.555893 -1.549612 -3.331318 29.783381 0.052382 1.682882 0.167361 -0.045083 -223263.000000 0 0 1
-28.181693 -1.225512 -3.302218 28.400956 0.043459 1.687331 0.151897 -0.035798 400528.000000 0 0 1
-28.086183 0.072988 -2.834018 28.228897 -0.002599 1.671360 0.166585 -0.043913 262089.000000 0 0 1
-26.648483 0.405388 -2.329718 26.753197 -0.015211 1.657989 0.173884 -0.027443 341455.000000 0 0 1
-26.252813 -0.231812 -1.131618 26.278213 0.008830 1.613873 0.161910 -0.031338 1258580.000000 0 0 1
-24.841473 -0.095012 -0.867018 24.856780 0.003825 1.605684 0.138329 -0.028872 968134.000000 0 1 0
-24.363873 -0.826612 0.408882 24.381320 0.033915 1.554025 0.144048 -0.032511 -30950.700000 0 1 0
-24.562973 -2.209512 0.287882 24.663829 0.089712 1.559124 0.155000 -0.031445 728574.000000 0 1 0
-23.671773 -2.992112 1.128882 23.886815 0.125733 1.523519 0.143053 -0.028319 335692.000000 0 1 0
-23.896673 -4.483112 1.071682 24.337168 0.185448 1.526747 0.144037 -0.019848 307072.000000 0 1 0
-25.147393 -4.828312 1.675582 25.661480 0.189692 1.505454 0.146981 -0.025507 602427.000000 0 0 1
-25.421983 -6.202212 1.749382 26.226036 0.239296 1.504043 0.138188 -0.017809 -162147.000000 0 0 1
-26.813373 -6.579412 2.285182 27.703207 0.240624 1.488215 0.148676 -0.018098 -191023.000000 0 0 1
-26.867553 -6.572112 3.694982 27.905393 0.239901 1.437995 0.145293 -0.015976 356621.000000 0 0 1
-28.132473 -7.088912 4.084482 29.297981 0.246844 1.430929 0.120702 -0.002528 -262312.000000 0 0 1
-28.226343 -7.600412 5.540682 29.752174 0.263028 1.383475 0.128330 -0.004856 -280015.000000 0 0 1
-27.336023 -8.657312 5.833482 29.261523 0.306706 1.370095 0.121628 0.003723 29307.200000 0 0 1
-27.231213 -9.022012 7.184282 29.572784 0.319930 1.325405 0.083531 -0.002036 -391139.000000 0 0 1
-26.588963 -8.080712 8.179782 28.968598 0.295042 1.284535 0.099727 -0.009136 455846.000000 0 0 1
-25.170843 -8.003212 7.962682 27.586718 0.307847 1.277988 0.126580 -0.016652 635644.000000 0 0 1
-24.688473 -6.773912 8.391282 26.941050 0.267786 1.254059 0.130339 -0.025046 -682327.000000 0 0 1
-23.501873 -6.198312 7.644782 25.479399 0.257865 1.266064 0.174912 -0.034119 -756608.000000 0 0 1
-22.303473 -6.665912 8.175682 24.672273 0.290423 1.233040 0.163901 -0.048839 -126327.000000 0 1 0
-21.140773 -5.999112 7.674182 23.276913 0.276501 1.234820 0.149663 -0.040597 246952.000000 0 1 0
-19.865773 -6.531112 8.328182 22.509175 0.317631 1.191797 0.163253 -0.045719 -402470.000000 0 1 0
-19.533973 -5.901012 9.551482 22.530620 0.293373 1.133012 0.132595 -0.035623 -644201.000000 0 1 0
-18.396073 -6.468812 10.068482 21.946192 0.338136 1.094174 0.123201 -0.053079 -965060.000000 0 1 0
-17.844573 -5.706112 11.268482 21.862460 0.309492 1.029292 0.098390 -0.024914 81522.400000 0 1 0
-18.821173 -5.546112 12.294782 23.155076 0.286564 1.011045 0.110229 -0.026357 368314.000000 0 1 0
-19.021573 -4.195812 12.640482 23.220828 0.217105 0.995171 0.106529 -0.022604 -310620.000000 0 1 0
-20.086973 -4.007912 13.713382 24.649679 0.196942 0.980832 0.103881 -0.033634 -363116.000000 0 1 0
-19.929973 -4.672412 14.957482 25.352742 0.230283 0.939769 0.099303 -0.033256 -119455.000000 0 0 1
-20.981073 -4.301512 15.815082 26.623772 0.202217 0.934748 0.091355 -0.016901 -59882.700000 0 0 1
-21.047273 -5.214312 17.084482 27.605366 0.242853 0.903477 0.086525 -0.016974 -174679.000000 0 0 1
-21.969973 -4.928012 18.104182 28.891632 0.220654 0.893583 0.081158 -0.019916 207737.000000 0 0 1
-21.831173 -5.752712 19.247282 29.667350 0.257652 0.864830 0.084369 -0.023794 -496062.000000 0 0 1
-22.661073 -5.288612 20.413882 30.955132 0.229275 0.850687 0.095334 -0.024710 -517871.000000 0 0 1
-22.312473 -4.000212 20.828082 30.784040 0.177397 0.827679 0.080869 -0.019917 293095.000000 0 0 1
-22.913673 -3.775512 22.090982 32.051558 0.163304 0.810367 0.086597 -0.026086 35892.100000 0 0 1
-23.253673 -2.391212 22.605982 32.518942 0.102471 0.802149 0.077246 -0.014535 -27740.900000 0 0 1
-24.196973 -1.658412 21.861982 32.652566 0.068431 0.837216 0.078333 -0.014322 -56591.800000 0 0 1
-24.261073 -0.438712 22.566782 33.136864 0.018081 0.821645 0.071718 -0.026131 -545996.000000 0 0 1
-25.199453 0.623088 21.969782 33.437583 -0.024721 0.853913 0.098640 -0.023665 -93499.400000 0 0 1
-26.505903 0.228388 22.366682 34.682611 -0.008616 0.869909 0.116170 -0.025623 -689220.000000 0 0 1
-27.416283 1.196888 21.942382 35.136210 -0.043628 0.896312 0.119030 -0.024472 427644.000000 0 0 1
-28.563543 1.401788 23.022182 36.713238 -0.049037 0.892996 0.117583 -0.025286 364402.000000 0 0 1
-28.055843 2.089788 24.128182 37.063010 -0.074349 0.861889 0.110637 -0.025088 544282.000000 0 0 1
-29.062373 2.101688 25.132982 38.479935 -0.072191 0.859066 0.100348 -0.029192 321710.000000 0 0 1
-28.638173 3.043088 26.305982 39.005256 -0.105863 0.830615 0.107000 -0.022203 -166456.000000 0 0 1
-27.661403 2.476688 27.128082 38.822931 -0.089298 0.797128 0.110030 -0.026373 -32438.100000 0 0 1
-27.063103 3.476988 27.921582 39.039925 -0.127777 0.773878 0.108933 -0.027841 801633.000000 0 0 1
-25.810843 2.942688 28.739282 38.740229 -0.113520 0.734977 0.103473 -0.026008 638540.000000 0 0 1
-26.248063 2.166888 29.851682 39.809284 -0.082367 0.722935 0.095159 -0.027322 438174.000000 0 0 1
-25.187543 1.747788 30.681282 39.734219 -0.069280 0.688559 0.083297 -0.027739 14660.000000 0 0 1
-25.697313 0.657288 31.610982 40.743565 -0.025573 0.682732 0.075827 -0.028261 -72364.800000 0 0 1
-26.121413 -0.483512 30.927682 40.485596 0.018508 0.701433 0.054777 -0.028941 -18146.900000 0 0 1
-26.591393 -1.483512 31.792682 41.473818 0.055731 0.697310 0.051839 -0.022718 -487008.000000 0 0 1
-27.343773 -2.647612 31.008282 41.427108 0.096526 0.724996 0.058362 -0.012553 509384.000000 0 0 1
-28.662853 -2.278812 30.582482 41.976664 0.079337 0.754580 0.060141 -0.017229 293433.000000 0 0 1
-28.857663 -1.203812 29.678782 41.413089 0.041691 0.771806 0.066287 -0.012336 -956036.000000 0 0 1
-30.324683 -1.094312 29.231782 42.134083 0.036071 0.804072 0.061448 -0.025697 -19268.900000 0 0 1
-31.161813 -0.752112 30.274082 43.452782 0.024131 0.799992 0.091709 -0.016762 836113.000000 0 0 1
-32.565243 -0.494812 29.965982 44.257202 0.015193 0.826999 0.078143 -0.020396 1701250.000000 0 0 1
-33.338253 -0.138012 31.252882 45.696835 0.004140 0.817677 0.088403 -0.013171 -213668.000000 0 0 1
-33.565363 -1.230412 32.103882 46.462961 0.036641 0.807985 0.054902 -0.018050 -40850.400000 0 0 1
-34.118801 -0.770512 33.309882 47.688935 0.022579 0.797522 0.073925 -0.014774 -36283.100000 0 0 1
-34.351627 -1.942012 -33.726275 48.179532 0.056473 2.346211 0.077075 -0.013264 -209246.000000 0 0 1
-35.207652 -2.873512 33.728882 48.841307 0.081436 0.808504 0.054146 -0.003391 -165511.000000 0 0 1
-35.005087 -4.164412 -33.721375 48.783497 0.118409 2.334008 0.049590 -0.006835 124724.000000 0 0 1
-36.030063 -5.245512 33.898582 49.747308 0.144571 0.821102 0.040950 -0.009351 1445270.000000 0 0 1
36.590489 -5.078612 -33.642875 49.964980 -0.137915 2.309499 0.039547 -0.009717 1318950.000000 0 0 1
35.595479 -5.872512 33.735482 49.392381 -0.163506 0.818921 0.049490 -0.012803 221193.000000 0 0 1
34.195289 -5.322012 -33.933575 48.467815 -0.154397 2.346370 0.047306 -0.006964 -603355.000000 0 0 1
33.632609 -5.571812 -32.657175 47.208988 -0.164176 2.334716 0.061660 -0.022580 144370.000000 0 0 1
33.025889 -6.827312 -32.527675 46.854788 -0.203854 2.338136 0.076308 -0.026244 -723341.000000 0 0 1
31.691119 -7.069212 -33.231775 46.461292 -0.219473 2.367788 0.091529 -0.027223 -343207.000000 0 0 1
30.558859 -6.620612 -32.485975 45.088967 -0.213354 2.375299 0.096804 -0.032773 773214.000000 0 0 1
29.321699 -7.073012 -33.022275 44.724268 -0.236699 2.401421 0.102035 -0.032116 551918.000000 0 0 1
28.077479 -6.863412 -32.132075 43.219457 -0.239744 2.409030 0.109389 -0.036072 207094.000000 0 0 1
26.876579 -7.493112 -32.545075 42.868160 -0.271893 2.432864 0.103446 -0.028901 646876.000000 0 0 1
25.825279 -7.060512 -31.660375 41.462938 -0.266874 2.439640 0.104021 -0.030773 -455278.000000 0 0 1
24.410279 -7.400412 -32.105075 41.004435 -0.294361 2.470216 0.102059 -0.035786 -520341.000000 0 0 1
24.091979 -8.789412 -32.211375 41.173412 -0.349822 2.469201 0.115783 -0.041167 182157.000000 0 0 1
24.014879 -9.473412 -30.966775 40.316264 -0.375740 2.446659 0.121223 -0.036471 -452892.000000 0 0 1
23.935679 -10.996012 -31.211175 40.840745 -0.430642 2.440622 0.135309 -0.037012 -346255.000000 0 0 1
22.774179 -11.403712 -31.882875 40.807176 -0.464231 2.467551 0.139945 -0.046382 -183939.000000 0 0 1
22.670179 -12.809312 -31.858975 41.146200 -0.514309 2.456384 0.127400 -0.031922 -12752.500000 0 0 1
21.359879 -13.345712 -32.555675 41.160958 -0.558457 2.483133 0.101794 -0.023444 1052060.000000 0 0 1
20.128179 -13.038012 -31.923875 39.928275 -0.574791 2.497309 0.096635 -0.011923 209592.000000 0 0 1
19.662279 -11.729312 -32.092175 39.421944 -0.537871 2.521920 0.090897 -0.024441 -1304500.000000 0 0 1
18.291679 -11.433412 -31.517775 38.192651 -0.558643 2.541408 0.073725 -0.021363 -1059660.000000 0 0 1
17.219479 -11.864512 -32.276175 38.458140 -0.603317 2.566707 0.051745 -0.009344 -776333.000000 0 0 1
16.015979 -11.637512 -31.581175 37.273501 -0.628368 2.581644 0.063918 -0.018688 465546.000000 0 0 1
14.745579 -11.917212 -32.458875 37.590299 -0.679714 2.612947 0.057425 -0.024517 -210265.000000 0 0 1
14.578579 -13.253012 -32.845875 38.301812 -0.737806 2.601292 0.073054 -0.022286 807501.000000 0 0 1
13.296679 -13.424712 -33.469175 38.434493 -0.790190 2.627646 0.057617 -0.028178 840505.000000 0 0 1
12.032379 -13.516312 -32.555275 37.246674 -0.843416 2.634263 0.048362 -0.031065 -249269.000000 0 0 1
11.233579 -12.378212 -32.447875 36.500384 -0.833837 2.665895 0.085685 -0.026598 -650387.000000 0 0 1
10.399579 -12.476212 -31.338775 35.297676 -0.875929 2.663431 0.095318 -0.032170 -620251.000000 0 0 1
9.175079 -11.596112 -31.573075 34.864179 -0.901432 2.703594 0.089984 -0.030536 -581733.000000 0 0 1
9.477679 -10.204612 -31.598175 34.531220 -0.822315 2.726456 0.084480 -0.023725 -276660.000000 0 0 1
8.334679 -9.430412 -31.755175 34.158318 -0.846999 2.764250 0.068874 -0.020115 -592833.000000 0 0 1
8.618079 -7.960912 -32.088175 34.165748 -0.745780 2.791064 0.079916 -0.018946 -106814.000000 0 0 1
8.986079 -7.159612 -30.943075 33.007326 -0.672753 2.786059 0.077326 -0.024353 320102.000000 0 0 1
9.355179 -5.858712 -31.376775 33.261778 -0.559500 2.803317 0.056144 -0.012819 -194523.000000 0 0 1
9.463679 -4.805212 -30.304875 32.109761 -0.469831 2.804711 0.050344 -0.012544 450395.000000 0 0 1
8.161779 -4.490912 -29.808075 31.229862 -0.503025 2.838686 0.049205 -0.015222 510514.000000 0 0 1
8.309879 -3.394612 -28.947575 30.307418 -0.387815 2.840900 0.053232 -0.012029 -64246.100000 0 0 1
6.924479 -3.021512 -28.401675 29.389336 -0.411447 2.881608 0.050669 -0.005770 -756575.000000 0 0 1
6.260179 -2.213912 -29.355875 30.097486 -0.339923 2.919142 0.050481 -0.000881 -41216.100000 0 0 1
4.984079 -1.714812 -29.035875 29.510399 -0.331371 2.962020 0.061641 -0.004987 -191794.000000 0 0 1
3.825379 -2.702112 -29.043375 29.418575 -0.614985 2.981711 0.059445 -0.011627 -954764.000000 0 0 1
3.833179 -3.612012 -27.944175 28.436188 -0.755701 2.955300 0.056430 -0.016300 320422.000000 0 0 1
2.702979 -4.480812 -27.874675 28.361616 -1.028002 2.956021 0.062765 -0.019723 601166.000000 0 0 1
3.136879 -5.423712 -26.717775 27.442597 -1.046438 2.911248 0.054071 -0.035024 119284.000000 0 0 1
3.144879 -4.856912 -25.413975 26.064343 -0.996176 2.917732 0.063461 -0.038455 -247231.000000 0 0 1
3.582279 -5.821412 -24.524175 25.458922 -1.019157 2.869774 0.057483 -0.045134 -206173.000000 0 0 1
3.514079 -5.389112 -23.044675 23.925892 -0.992967 2.869345 0.060933 -0.046141 -279651.000000 0 1 0
4.498579 -4.442412 -22.792075 23.652715 -0.779116 2.871003 0.052584 -0.041086 -259127.000000 0 1 0
4.216379 -3.860412 -21.519175 22.265568 -0.741354 2.881934 0.050048 -0.035925 233638.000000 0 1 0
5.105279 -2.640712 -21.178075 21.944204 -0.477353 2.876573 0.058293 -0.034404 300377.000000 0 1 0
6.468579 -2.931812 -20.939175 22.110791 -0.425544 2.814597 0.059577 -0.030870 -39240.600000 0 1 0
7.211679 -1.811912 -20.496575 21.803691 -0.246152 2.793575 0.071349 -0.020454 -408180.000000 0 1 0
8.702079 -2.040312 -20.359975 22.235504 -0.230303 2.727922 0.064176 -0.018989 -1098550.000000 0 1 0
9.423679 -2.459512 -21.538575 23.638213 -0.255298 2.716926 0.070052 -0.027927 1517360.000000 0 1 0
10.597079 -3.311912 -21.308575 24.027530 -0.302913 2.661257 0.060460 -0.029219 1721280.000000 0 1 0
11.809679 -2.658612 -20.591975 23.886527 -0.221430 2.610146 0.054330 -0.023364 -567643.000000 0 1 0
11.584879 -2.506412 -19.183575 22.549968 -0.213068 2.588139 0.052275 -0.010707 735927.000000 0 1 0
12.601379 -1.709412 -18.534775 22.477872 -0.134830 2.540253 0.048311 -0.018007 371172.000000 0 1 0
12.435379 -0.163612 -18.753675 22.502572 -0.013156 2.556030 0.026612 -0.009800 -178706.000000 0 1 0
13.070079 0.262288 -19.912375 23.820127 0.020065 2.560653 0.038569 -0.013699 132235.000000 0 1 0
12.972679 1.684288 -20.068375 23.955519 0.129111 2.563918 0.050714 -0.019816 -58725.100000 0 1 0
13.464479 2.327388 -21.387175 25.379523 0.171163 2.573064 0.062485 -0.024583 418799.000000 0 0 1
14.891079 2.373488 -21.515675 26.273598 0.158060 2.530303 0.069468 -0.026514 800020.000000 0 0 1
15.262379 3.408288 -22.409475 27.326566 0.219708 2.532315 0.078384 -0.034950 -914920.000000 0 0 1
16.736279 3.361788 -22.757475 28.448327 0.198230 2.498022 0.061898 -0.030578 -729811.000000 0 0 1
17.085679 2.384888 -23.707975 29.320235 0.138688 2.512544 0.054646 -0.025625 123496.000000 0 0 1
17.825179 1.377688 -23.034975 29.158963 0.077136 2.481571 0.048431 -0.024454 -237787.000000 0 0 1
9.698327 26.778188 2.986082 28.636438 1.223319 1.466331 0.009321 -0.012709 -37464.500000 0 0 1
9.498927 27.448488 4.240582 29.353563 1.237632 1.425823 0.012090 -0.009769 686648.000000 0 0 1
10.736227 27.692588 4.929382 30.107222 1.200944 1.406328 0.023401 -0.012688 146483.000000 0 0 1
10.654327 28.255788 6.358382 30.859897 1.210215 1.363270 0.022906 -0.012164 -58500.300000 0 0 1
10.415027 27.304788 7.430882 30.153644 1.206395 1.321797 0.013582 -0.014050 140618.000000 0 0 1
10.247927 27.922988 8.678382 30.984312 1.219052 1.286909 0.018983 -0.008011 -518588.000000 0 0 1
10.252127 26.954188 9.948082 30.505716 1.207340 1.238615 0.025454 -0.010126 739926.000000 0 0 1
11.518727 26.376688 10.341382 30.583573 1.159057 1.225862 0.038701 -0.007437 1121120.000000 0 0 1
12.102427 25.432188 9.407182 29.694444 1.126638 1.248443 0.035160 -0.014622 -143713.000000 0 0 1
13.463327 24.843388 9.829682 29.917850 1.074172 1.236022 0.050812 -0.020645 -333887.000000 0 0 1
14.521327 25.760488 9.661282 31.109678 1.057492 1.255019 0.064778 -0.024541 -112623.000000 0 0 1
15.665727 25.097388 10.194782 31.292610 1.012774 1.238950 0.076336 -0.024052 467927.000000 0 0 1
16.834127 26.028488 10.677282 32.785277 0.996704 1.239073 0.074772 -0.025056 -836831.000000 0 0 1
17.529627 26.628288 9.626982 33.302137 0.988603 1.277531 0.073076 -0.030361 -457351.000000 0 0 1
18.908927 26.396288 9.750182 33.902472 0.949183 1.279082 0.066155 -0.033418 189235.000000 0 0 1
19.647827 27.166788 10.955882 35.271842 0.944650 1.254959 0.071602 -0.028918 -843922.000000 0 0 1
19.865927 28.584888 10.779982 36.441170 0.963447 1.270484 0.069203 -0.042666 1054050.000000 0 0 1
18.690727 29.355088 11.122482 36.534560 1.003819 1.261449 0.059225 -0.024518 1034390.000000 0 0 1
19.165527 30.869088 11.228382 38.030180 1.015176 1.271080 0.059809 -0.015292 -531409.000000 0 0 1
19.403127 31.559088 10.052382 38.386297 1.019552 1.305833 0.064421 -0.035521 530365.000000 0 0 1
18.361127 31.692688 9.052182 37.729292 1.045700 1.328508 0.080782 -0.038873 886336.000000 0 0 1
17.052727 32.426888 9.450282 37.836575 1.086658 1.318358 0.078823 -0.028071 -28816.300000 0 0 1
17.274127 33.711388 9.860382 39.141797 1.097268 1.316138 0.067655 -0.023201 466307.000000 0 0 1
16.057427 -33.659130 9.884382 38.580812 -1.125668 1.311708 0.081266 -0.011440 577691.000000 0 0 1
16.310127 -32.124130 9.903782 37.363952 -1.100990 1.302528 0.101096 -0.007842 31048.200000 0 0 1
16.902827 -31.639530 8.696282 36.910578 -1.080140 1.332956 0.102540 -0.019418 280883.000000 0 0 1
16.945827 -30.201430 8.656182 35.696176 -1.059476 1.325858 0.071859 -0.022673 -78808.100000 0 0 1
17.498427 -29.674930 7.340182 35.223213 -1.038007 1.360867 0.070878 -0.017213 -247663.000000 0 0 1
16.639027 -29.888930 6.274782 34.778992 -1.062827 1.389384 0.085869 -0.008544 -226397.000000 0 0 1
17.216627 -29.347530 5.093982 34.404047 -1.040253 1.422186 0.080256 -0.014458 -168262.000000 0 0 1
16.664027 -29.834030 3.762182 34.378964 -1.061407 1.461144 0.083130 -0.022841 -147454.000000 0 0 1
17.252627 -31.022430 3.312682 35.651342 -1.063256 1.477743 0.077489 -0.020134 -124633.000000 0 0 1
17.046027 -31.212330 1.957282 35.617518 -1.070928 1.515816 0.078663 -0.032150 -148742.000000 0 0 1
17.409827 -32.661530 1.471282 37.041090 -1.081069 1.531066 0.081729 -0.026192 -177335.000000 0 0 1
18.778127 -32.979430 1.514682 37.980984 -1.053189 1.530906 0.080577 -0.017055 -117371.000000 0 0 1
19.046727 33.776388 1.106482 38.792351 1.057339 1.542269 0.098558 -0.016621 -464183.000000 0 0 1
20.373427 33.328888 1.717582 39.100402 1.022121 1.526855 0.098532 -0.022011 -345018.000000 0 0 1
20.387727 33.148988 3.116882 39.041385 1.019396 1.490876 0.073102 -0.044723 61679.600000 0 0 1
21.746327 32.914788 3.412282 39.597092 0.986946 1.484514 0.039329 -0.026482 -103408.000000 0 0 1
22.044127 32.896088 4.932982 39.905269 0.980411 1.446862 0.032435 -0.016615 -154128.000000 0 0 1
21.415827 31.898888 5.786982 38.854419 0.979547 1.421300 0.050268 -0.027734 145264.000000 0 0 1
22.201627 30.746888 5.867982 38.375990 0.945407 1.417286 0.035461 -0.028680 -157343.000000 0 0 1
21.513627 29.617988 6.665782 37.208790 0.942591 1.390679 0.055573 -0.039022 -308720.000000 0 0 1
20.502027 28.976588 5.967182 35.994208 0.955029 1.404246 0.067749 -0.034102 -578760.000000 0 0 1
19.528927 28.519388 6.896182 35.246160 0.970372 1.373868 0.064477 -0.040912 744079.000000 0 0 1
18.042827 28.734288 6.444282 34.535948 1.010100 1.383100 0.078907 -0.032785 456839.000000 0 0 1
17.595527 30.060888 6.321282 35.400822 1.041234 1.391270 0.073925 -0.039288 -24271.100000 0 0 1
18.060027 30.781788 5.122382 36.054429 1.040205 1.428240 0.075223 -0.037471 -227735.000000 0 0 1
17.993827 32.290088 5.288982 37.341678 1.062400 1.428681 0.087855 -0.040306 432536.000000 0 0 1
16.698327 32.863788 5.446282 37.262913 1.100684 1.424113 0.093596 -0.032348 207031.000000 0 0 1
16.783827 -33.909330 5.333882 38.209813 -1.111187 1.430744 0.094614 -0.031505 -489037.000000 0 0 1
15.420727 -33.263030 5.563582 37.083439 -1.136691 1.420199 0.090055 -0.031159 -218950.000000 0 0 1
14.565727 -33.499230 4.455282 36.799570 -1.160648 1.449430 0.084031 -0.024154 632824.000000 0 0 1
13.398627 -32.644130 4.556682 35.579851 -1.181318 1.442374 0.081137 -0.022517 641153.000000 0 0 1
12.399627 -32.621430 3.424082 35.066121 -1.207556 1.472994 0.074351 -0.024018 -466421.000000 0 0 1
11.412727 -31.633830 3.491082 33.810312 -1.224554 1.467357 0.070786 -0.027492 -212226.000000 0 0 1
10.794827 -31.445530 2.216682 33.320615 -1.240115 1.504221 0.060218 -0.015032 -665931.000000 0 0 1
9.817127 -30.261230 2.323682 31.898551 -1.257096 1.497886 0.057469 -0.017156 -312907.000000 0 0 1
9.441027 -29.746730 1.071082 31.227363 -1.263472 1.536490 0.057480 -0.002810 1046330.000000 0 0 1
8.294827 -30.528230 0.561882 31.640049 -1.305491 1.553037 0.039008 -0.011159 297216.000000 0 0 1
8.435927 -31.099430 -0.846218 32.234384 -1.305914 1.597051 0.063127 -0.016088 40019.300000 0 0 1
9.597027 -31.902230 -1.032418 33.330483 -1.278582 1.601776 0.060881 -0.021118 51705.400000 0 0 1
9.465827 -32.864930 -2.073518 34.263757 -1.290364 1.631350 0.059255 -0.013206 -481101.000000 0 0 1
10.713527 -33.730230 -2.202618 35.459267 -1.263250 1.632953 0.066756 -0.018397 -335614.000000 0 0 1
10.909027 33.533888 -1.124118 35.281612 1.256281 1.602663 0.070013 -0.020416 378772.000000 0 0 1
12.145627 32.818788 -1.156918 35.013248 1.216345 1.603845 0.086117 -0.023810 117420.000000 0 0 1
12.298127 31.879388 0.068982 34.169344 1.202617 1.568778 0.073239 -0.029707 -423774.000000 0 0 1
12.623527 32.630288 1.248282 35.009247 1.201664 1.535133 0.066904 -0.024928 1540500.000000 0 0 1
13.979627 33.159488 1.387082 36.012576 1.171820 1.532270 0.076941 -0.022865 505641.000000 0 0 1
15.092027 32.202388 1.670782 35.602733 1.132532 1.523851 0.086476 -0.032198 -947112.000000 0 0 1
15.587927 31.611188 0.440482 35.248329 1.112672 1.558299 0.093657 -0.026827 -230464.000000 0 0 1
16.634327 30.726388 0.625882 34.945722 1.074603 1.552885 0.095324 -0.024471 -519458.000000 0 0 1
17.340127 30.231588 -0.651018 34.857607 1.050033 1.589474 0.091177 -0.018073 235635.000000 0 0 1
18.385127 31.025888 -1.206018 36.084250 1.035855 1.604225 0.067283 -0.005359 313766.000000 0 0 1
17.958027 32.053488 -2.061618 36.799010 1.060116 1.626849 0.080843 -0.013077 -199512.000000 0 0 1
19.140927 32.813688 -2.703218 38.084388 1.042731 1.641836 0.066272 -0.009188 153170.000000 0 0 1
20.046227 33.379388 -1.791818 38.977498 1.029967 1.616783 0.056021 -0.005423 -42879.000000 0 0 1
21.008927 -33.895330 -2.388818 39.949655 -1.015932 1.630628 0.045046 -0.001129 -469869.000000 0 0 1
21.996827 -33.386530 -1.279518 40.001975 -0.988222 1.602788 0.046234 -0.005397 -186358.000000 0 0 1
22.936127 33.874288 -0.628318 40.913666 0.975608 1.586154 0.037205 -0.006550 918297.000000 0 0 1
23.827027 33.095588 -1.415418 40.805007 0.946809 1.605491 0.038377 0.003004 -11983.100000 0 0 1
24.691827 33.803888 -2.500918 41.936187 0.939929 1.630468 0.041544 -0.000532 -1087160.000000 0 0 1
24.012627 -33.995230 -3.695818 41.784459 -0.955819 1.659362 0.042706 -0.012684 510211.000000 0 0 1
24.898227 -33.216630 -4.516518 41.757217 -0.927570 1.679170 0.049763 -0.013577 736669.000000 0 0 1
24.121027 -32.629530 -5.773418 40.985883 -0.934218 1.712130 0.040273 -0.016003 1108190.000000 0 0 1
23.025527 -31.728530 -5.460518 39.581458 -0.943027 1.709194 0.050089 -0.016305 811483.000000 0 0 1
22.441927 -31.365830 -6.675018 39.140916 -0.949750 1.742172 0.056725 -0.022236 -385881.000000 0 0 1
21.528127 -30.142930 -6.619518 37.628108 -0.950603 1.747636 0.065881 -0.022019 658962.000000 0 0 1
20.210127 -30.346330 -6.088318 36.965073 -0.983267 1.736255 0.065601 -0.018165 37535.600000 0 0 1
19.498427 -29.196330 -6.075418 35.630395 -0.981983 1.742146 0.083690 -0.029842 302386.000000 0 0 1
18.218327 -29.220830 -5.166418 34.820343 -1.013298 1.719720 0.077066 -0.025595 940948.000000 0 0 1
17.165527 -30.033630 -5.663118 35.053462 -1.051564 1.733064 0.087154 -0.031290 -61336.300000 0 0 1
16.050927 -29.997430 -4.802718 34.359048 -1.079483 1.711036 0.069113 -0.023223 146199.000000 0 0 1
14.815727 -30.831630 -5.198918 34.599479 -1.122840 1.721628 0.065630 -0.017564 -291670.000000 0 0 1
14.943027 -32.268330 -5.184918 35.936369 -1.137113 1.715582 0.064070 -0.010482 -888289.000000 0 0 1
13.828727 -33.016130 -5.517118 36.217912 -1.174148 1.723723 0.077631 -0.010214 -587267.000000 0 0 1
14.111927 33.587988 -5.461318 36.839183 1.173043 1.719592 0.077189 -0.013039 73385.800000 0 0 1
14.293827 33.075388 -4.123918 36.267086 1.162878 1.684752 0.084438 -0.024631 14659.500000 0 0 1
14.685827 31.690788 -4.042618 35.161376 1.136847 1.686024 0.086073 -0.018290 467948.000000 0 0 1
13.629127 30.616488 -4.549218 33.820376 1.151978 1.705716 0.087317 -0.021008 1110000.000000 0 0 1
12.509627 30.298688 -3.713418 32.989252 1.179239 1.683600 0.076988 -0.026672 646657.000000 0 0 1
12.900127 29.313088 -2.723318 32.141669 1.156222 1.655627 0.080868 -0.032174 179493.000000 0 0 1
11.703527 28.548688 -2.086018 30.924935 1.181742 1.638302 0.064052 -0.026893 284490.000000 0 0 1
10.923127 29.356588 -1.213818 31.346408 1.214584 1.609529 0.050888 -0.029411 -524278.000000 0 0 1
10.028927 28.516988 -0.560918 30.234295 1.232623 1.589350 0.033870 -0.020719 -791522.000000 0 0 1
8.787627 29.257888 -0.067618 30.549157 1.279018 1.573010 0.030801 -0.015565 129513.000000 0 0 1
7.950827 28.471088 0.801882 29.571296 1.298474 1.543676 0.022088 -0.014344 287897.000000 0 0 1
6.732227 29.108088 1.114082 29.897238 1.343509 1.533524 0.034826 -0.013614 413520.000000 0 0 1
5.748527 28.374388 2.102382 29.027082 1.370906 1.498305 0.038035 -0.015585 461911.000000 0 0 1
5.102927 27.323788 1.499382 27.836620 1.386166 1.516907 0.046647 -0.027012 351192.000000 0 0 1
3.834827 26.914588 2.043782 27.263125 1.429268 1.495761 0.049833 -0.028902 942308.000000 0 0 1
3.283527 25.858088 1.028282 26.086004 1.444490 1.531367 0.054845 -0.031926 207451.000000 0 0 1
1.951927 25.460788 1.311082 25.569135 1.494282 1.519498 0.059533 -0.035295 224114.000000 0 0 1
1.527627 24.435288 0.431382 24.486793 1.508360 1.553178 0.059260 -0.036266 293076.000000 0 1 0
0.148727 23.784888 0.740082 23.796864 1.564543 1.539691 0.056774 -0.032633 515754.000000 0 1 0
-0.905173 24.712888 0.518082 24.734886 -1.534185 1.549849 0.072897 -0.043650 40187.200000 0 1 0
-2.154273 24.085688 0.776082 24.194288 -1.481592 1.538714 0.061509 -0.040425 -276250.000000 0 1 0
-3.247773 25.043988 1.220682 25.283185 -1.441833 1.522497 0.089726 -0.050853 -227073.000000 0 0 1
-4.503573 24.357088 1.308082 24.804455 -1.387963 1.518036 0.089337 -0.043889 198960.000000 0 1 0
-5.358973 25.050788 2.168382 25.709190 -1.360049 1.486353 0.075801 -0.040661 71219.900000 0 0 1
-6.763573 25.378888 1.577882 26.312043 -1.310346 1.510792 0.086965 -0.043372 285406.000000 0 0 1
-6.729973 26.472188 0.704882 27.323362 -1.321842 1.544996 0.106301 -0.050203 183120.000000 0 0 1
-7.862673 26.531688 -0.149718 27.672631 -1.282691 1.576207 0.103401 -0.040150 175821.000000 0 0 1
-7.854073 27.732788 -1.064618 28.843152 -1.294818 1.607715 0.102218 -0.041091 -109872.000000 0 0 1
-7.816873 28.978788 -0.433518 30.017688 -1.307323 1.585239 0.113254 -0.048547 63155.700000 0 0 1
-7.930373 29.925488 -1.457218 30.992727 -1.311747 1.617832 0.111860 -0.049717 -208399.000000 0 0 1
-7.722073 31.418488 -0.948618 32.367448 -1.329792 1.600108 0.108020 -0.048856 -344148.000000 0 0 1
-7.859873 32.450588 -1.981518 33.447641 -1.333162 1.630073 0.097171 -0.038898 568494.000000 0 0 1
-6.934573 32.462688 -3.130018 33.342337 -1.360343 1.664810 0.074595 -0.031580 718344.000000 0 0 1
-5.466073 32.855088 -2.884318 33.431333 -1.405937 1.657180 0.090652 -0.035797 -400264.000000 0 0 1
-5.210473 -33.893330 -2.729618 34.399966 1.418259 1.650229 0.103171 -0.039588 83983.500000 0 0 1
-4.454873 -33.653430 -1.534218 33.981658 1.439187 1.615960 0.097940 -0.040427 248090.000000 0 0 1
-4.230573 -32.177630 -1.186318 32.476222 1.440071 1.607333 0.097715 -0.035335 -185412.000000 0 0 1
-5.405573 -31.539830 -0.783018 32.009284 1.401057 1.595261 0.106061 -0.034929 -558692.000000 0 0 1
-5.528173 -30.336930 -1.461618 30.871125 1.390548 1.618160 0.104922 -0.027186 908676.000000 0 0 1
-6.976673 -29.722830 -1.363018 30.561061 1.340246 1.615411 0.122877 -0.028263 876578.000000 0 0 1
-7.289173 -29.316230 -0.083618 30.208946 1.327099 1.573564 0.115578 -0.026291 -946580.000000 0 0 1
-8.520973 -28.683230 -0.047118 29.922181 1.282028 1.572371 0.090629 -0.017551 -591859.000000 0 0 1
-8.670673 -27.901530 1.273182 29.245460 1.269498 1.527248 0.100273 -0.017826 330571.000000 0 0 1
-7.697573 -26.853830 1.381982 27.969460 1.291634 1.521366 0.101255 -0.021215 143800.000000 0 0 1
-7.402073 -26.293830 2.669982 27.446038 1.296385 1.473361 0.106395 -0.012823 42020.800000 0 0 1
-8.419973 -25.293030 3.257482 26.855996 1.249439 1.449203 0.094017 -0.009118 4317.970000 0 0 1
-8.226373 -23.997830 2.804382 25.523198 1.240553 1.460698 0.093086 -0.014547 -549169.000000 0 0 1
-9.119373 -23.112230 3.415682 25.079973 1.194980 1.434180 0.091745 -0.020458 -443505.000000 0 0 1
-8.570673 -21.693230 3.713282 23.618661 1.194534 1.412923 0.061816 -0.012719 110163.000000 0 1 0
-7.847473 -21.892030 4.928682 23.772584 1.226602 1.361955 0.054102 -0.010422 -208004.000000 0 1 0
-6.967773 -20.885930 5.397082 22.669372 1.248796 1.330410 0.042935 -0.002447 508886.000000 0 1 0
-7.649173 -19.597530 6.025982 21.883453 1.198669 1.291825 0.042956 -0.014913 458189.000000 0 1 0
-8.298973 -19.885330 7.279582 22.744046 1.175430 1.244998 0.054787 -0.016681 329094.000000 0 1 0
-8.967973 -18.774830 7.874182 22.246832 1.125180 1.209009 0.048693 -0.023010 -240101.000000 0 1 0
-28.372173 28.890388 -5.770018 40.901440 -0.794448 1.712340 0.090147 -0.012281 -339206.000000 0 0 1
-27.492063 29.448788 -4.872518 40.580612 -0.819749 1.691157 0.104335 -0.022788 -113314.000000 0 0 1
-26.498443 28.547088 -4.349918 39.192161 -0.822598 1.682015 0.088647 -0.021298 1030290.000000 0 0 1
-25.521483 29.281788 -3.358418 38.987795 -0.853905 1.657043 0.078388 -0.016833 328970.000000 0 0 1
-26.148563 29.591788 -2.099618 39.545286 -0.847092 1.623915 0.071769 -0.023925 399510.000000 0 0 1
-25.499183 30.659888 -1.378318 39.901589 -0.877035 1.605346 0.075388 -0.020745 286302.000000 0 0 1
-24.189373 30.339888 -0.613118 38.807351 -0.897716 1.586596 0.059402 -0.011775 747198.000000 0 0 1
-23.086673 30.210688 -1.544118 38.053442 -0.918276 1.611385 0.079586 -0.017224 1345830.000000 0 0 1
-21.845773 30.184788 -0.805718 37.269403 -0.944318 1.592417 0.067907 -0.010986 174732.000000 0 0 1
-20.569373 29.849088 -1.506818 36.281368 -0.967415 1.612340 0.056811 -0.012369 -727811.000000 0 0 1
-19.369073 29.946588 -0.795018 35.673396 -0.996683 1.593084 0.050843 -0.008452 -410013.000000 0 0 1
-18.258873 29.631588 -1.571518 34.840883 -1.018553 1.615917 0.049450 -0.012873 -151554.000000 0 0 1
-16.878573 29.952188 -0.967618 34.394128 -1.057635 1.598933 0.042471 -0.015774 66585.100000 0 0 1
-16.450673 29.198688 0.175882 33.514459 -1.057720 1.565548 0.042128 -0.010127 568643.000000 0 0 1
-15.155573 29.667688 0.561682 33.319342 -1.098511 1.553938 0.050016 -0.017509 564821.000000 0 0 1
-14.567773 28.800988 1.692282 32.319974 -1.102513 1.518412 0.062035 -0.020798 -17481.200000 0 0 1
-15.388673 28.986888 2.855682 32.942463 -1.082748 1.484000 0.047608 -0.014778 175491.000000 0 0 1
-14.950273 28.366388 4.032082 32.317492 -1.085750 1.445706 0.048546 -0.024170 63271.100000 0 0 1
-13.826173 29.032988 4.847682 32.520416 -1.126351 1.421173 0.071158 -0.021885 113456.000000 0 0 1
-14.231273 30.185088 5.569482 33.833235 -1.130235 1.405428 0.064752 -0.027803 -164718.000000 0 0 1
-14.203373 31.375188 4.839182 34.778670 -1.145704 1.431201 0.079677 -0.028926 -84659.600000 0 0 1
-13.835973 32.596988 5.692982 35.866528 -1.169387 1.411395 0.088950 -0.029287 -592492.000000 0 0 1
-14.886273 33.104388 6.446982 36.865501 -1.148211 1.395014 0.075490 -0.021457 -521795.000000 0 0 1
-14.577273 -33.954830 7.350082 37.675603 1.165278 1.374449 0.104228 -0.037002 -188486.000000 0 0 1
-15.743173 -33.581230 8.268882 37.998960 1.132412 1.351433 0.082465 -0.025084 -114942.000000 0 0 1
-15.951973 33.571388 9.228982 38.297227 -1.127213 1.327418 0.056055 -0.021482 -22.539900 0 0 1
-17.180873 33.843388 9.877982 39.219024 -1.101041 1.316187 0.069494 -0.023277 -619371.000000 0 0 1
-17.381373 33.233088 11.263082 39.158744 -1.088907 1.279049 0.060491 -0.015694 83902.700000 0 0 1
-16.485673 33.623988 12.294382 39.414487 -1.114943 1.253577 0.071450 -0.016755 -267689.000000 0 0 1
-15.237473 33.017288 12.121682 38.330889 -1.138420 1.249035 0.072562 -0.011604 -432220.000000 0 0 1
-14.152873 33.119388 13.238682 38.372651 -1.166955 1.218554 0.071770 -0.007700 309470.000000 0 0 1
-14.500173 32.441088 14.467982 38.366674 -1.150466 1.184136 0.053849 -0.004359 90548.500000 0 0 1
-14.074773 31.066788 14.543182 37.077604 -1.145410 1.167735 0.044321 -0.004612 174029.000000 0 0 1
-14.954773 29.949488 13.864882 36.233300 -1.107682 1.178127 0.046382 -0.006468 271340.000000 0 0 1
-14.759073 29.969488 12.461582 35.655174 -1.113191 1.213756 0.049141 -0.003268 729990.000000 0 0 1
-15.855173 29.346388 11.782682 35.375536 -1.075449 1.231234 0.028192 -0.007569 531691.000000 0 0 1
-15.585273 29.345588 10.214682 34.762106 -1.082584 1.272549 0.017608 -0.004558 -130610.000000 0 0 1
-14.734573 28.362488 9.737982 33.412073 -1.091663 1.275053 0.009466 -0.001270 -193839.000000 0 0 1
-14.582673 28.216188 8.333782 32.836862 -1.093784 1.314196 0.015141 -0.006114 -628453.000000 0 0 1
-13.976173 26.897788 7.958482 31.339461 -1.091590 1.314040 0.029683 -0.012936 1195320.000000 0 0 1
-12.565773 26.797288 8.309382 30.741488 -1.132321 1.297093 0.036922 -0.009937 1240890.000000 0 0 1
-11.985473 25.581388 8.044382 29.372965 -1.132646 1.293381 0.045237 -0.011198 -165439.000000 0 0 1
-10.901373 25.603688 6.942482 28.680774 -1.168271 1.326307 0.070255 -0.026877 -442284.000000 0 0 1
-11.344073 26.013688 5.688282 28.944024 -1.159578 1.372982 0.083275 -0.027927 -605308.000000 0 0 1
-10.282773 26.124188 4.828682 28.487274 -1.195810 1.400471 0.106740 -0.025035 -888358.000000 0 0 1
-10.624373 26.495288 3.395582 28.747305 -1.189436 1.452402 0.105267 -0.034651 -55974.700000 0 0 1
-10.791973 27.902688 3.151682 30.082549 -1.201745 1.465836 0.120324 -0.035048 69568.600000 0 0 1
-10.862573 28.189288 1.788182 30.262667 -1.202988 1.511673 0.123498 -0.038444 -180938.000000 0 0 1
-10.587973 29.729388 1.462082 31.592394 -1.228658 1.524500 0.152928 -0.045675 249256.000000 0 0 1
-11.545273 30.662688 1.941682 32.821698 -1.210689 1.511603 0.132991 -0.045742 -186981.000000 0 0 1
-11.113973 31.977488 1.732582 33.898112 -1.236300 1.519663 0.132540 -0.051162 -291087.000000 0 0 1
-11.830773 33.063688 2.556882 35.209548 -1.227174 1.498113 0.122224 -0.046560 -723303.000000 0 0 1
-13.140973 33.298388 2.187582 35.864374 -1.194917 1.509762 0.102361 -0.047774 -1072760.000000 0 0 1
-13.347273 -34.018330 1.073782 36.558850 1.196898 1.541421 0.092102 -0.043756 -3169.560000 0 0 1
-14.827173 -33.616330 0.773782 36.749170 1.155393 1.549739 0.095735 -0.039568 323888.000000 0 0 1
-15.547773 33.626988 -0.065018 37.047426 -1.137712 1.572551 0.083318 -0.031499 -56777.800000 0 0 1
-15.471173 33.786388 -1.489318 37.189989 -1.141383 1.610853 0.074385 -0.026655 -90439.200000 0 0 1
-14.151273 33.420188 -2.211618 36.360126 -1.170252 1.631659 0.080914 -0.023822 85295.700000 0 0 1
-13.878473 31.994988 -2.330418 34.953142 -1.161521 1.637518 0.074151 -0.022328 -18002.400000 0 0 1
-12.495473 31.768488 -2.171818 34.206585 -1.196054 1.634330 0.082793 -0.020630 -200112.000000 0 0 1
-12.111573 30.266188 -2.319818 32.682012 -1.190145 1.641838 0.070084 -0.025500 -31718.900000 0 0 1
-12.069073 29.728588 -3.603918 32.286835 -1.185149 1.682651 0.048245 -0.019713 -666010.000000 0 0 1
-10.771273 29.764588 -4.110818 31.919427 -1.223576 1.699942 0.053078 -0.017994 -408972.000000 0 0 1
-10.762773 29.202588 -5.562318 31.615942 -1.217688 1.747651 0.051369 -0.012882 -77112.600000 0 0 1
-11.186773 27.828488 -5.591218 30.509512 -1.188576 1.755099 0.048134 -0.005052 57032.900000 0 0 1
-11.078873 27.178588 -6.875718 30.144528 -1.183728 1.800914 0.045268 -0.007622 -109561.000000 0 0 1
-11.758573 25.822288 -6.980818 29.219624 -1.143490 1.812038 0.061180 -0.009535 -152785.000000 0 0 1
-11.028973 24.857688 -6.266018 27.907094 -1.153207 1.797258 0.043134 -0.004162 32783.700000 0 0 1
-11.483873 23.509688 -6.465618 26.951604 -1.116412 1.813056 0.079527 -0.014795 -5750.510000 0 0 1
-10.805673 22.446488 -5.562818 25.525523 -1.122142 1.790491 0.072403 -0.020901 205959.000000 0 0 1
-9.472973 22.107888 -5.936618 24.773764 -1.165975 1.812784 0.068041 -0.019387 458033.000000 0 1 0
-8.975073 20.897688 -5.347918 23.363765 -1.165140 1.801742 0.070924 -0.017841 56432.500000 0 1 0
-8.680173 20.814788 -3.762118 22.863821 -1.175705 1.736093 0.065476 -0.027294 418060.000000 0 1 0
-9.854273 20.706488 -2.938818 23.119299 -1.126612 1.698257 0.072034 -0.028701 432143.000000 0 1 0
-10.380673 19.362788 -2.993218 22.172850 -1.078676 1.706204 0.066759 -0.028565 -316835.000000 0 1 0
-11.703373 19.250688 -2.214918 22.637663 -1.024555 1.668795 0.072243 -0.025045 -340219.000000 0 1 0
-11.666873 19.301288 -0.808318 22.567876 -1.027103 1.606621 0.068538 -0.031526 -107651.000000 0 1 0
-11.178173 18.150588 -0.214618 21.317632 -1.018799 1.580864 0.066116 -0.025117 -379844.000000 0 1 0
-11.034673 18.239088 1.321682 21.358258 -1.026707 1.508875 0.064809 -0.030781 -488909.000000 0 1 0
-12.239973 18.222088 2.008982 22.043081 -0.979310 1.479531 0.087008 -0.036595 -527336.000000 0 1 0
-12.000473 18.174188 3.394682 22.041695 -0.987212 1.416169 0.086843 -0.036385 19700.100000 0 1 0
-13.242073 18.170588 4.324482 22.895936 -0.941025 1.380779 0.086506 -0.035314 181021.000000 0 1 0
-13.797873 16.905188 4.556582 22.291907 -0.886260 1.364940 0.062969 -0.034501 30747.400000 0 1 0
-15.075073 16.980988 5.143782 23.282402 -0.844784 1.348028 0.082976 -0.037964 -59341.300000 0 1 0
-15.585673 15.637488 5.656382 22.791202 -0.787058 1.319993 0.071624 -0.031225 -488729.000000 0 1 0
-14.939673 15.145688 6.790182 22.331419 -0.792246 1.261841 0.077839 -0.029823 -215867.000000 0 1 0
-15.365573 15.698288 8.058882 23.398347 -0.796108 1.219174 0.066290 -0.024176 -1199510.000000 0 1 0
-14.369673 15.544188 9.212182 23.086220 -0.824641 1.160333 0.047909 -0.018234 921490.000000 0 1 0
-13.194373 16.393388 9.159782 22.950735 -0.893099 1.160254 0.053031 -0.020175 1415650.000000 0 1 0
-12.255973 15.931888 8.130382 21.682644 -0.915074 1.186430 0.050282 -0.025985 -394478.000000 0 1 0
-11.207373 16.962888 7.690482 21.736796 -0.986936 1.209165 0.061835 -0.029371 662351.000000 0 1 0
-10.056973 17.054788 8.542982 21.563651 -1.037995 1.163449 0.056562 -0.023407 119976.000000 0 1 0
-9.227073 18.064088 8.079882 21.834254 -1.098549 1.191728 0.045438 -0.032702 -245796.000000 0 1 0
-7.981573 18.362088 8.934882 21.924960 -1.160758 1.151059 0.043163 -0.018268 947676.000000 0 1 0
-6.849273 17.440888 8.751582 20.680602 -1.196587 1.133846 0.030264 -0.012900 1983120.000000 0 1 0
-5.732673 17.829488 9.618182 21.053826 -1.259708 1.096359 0.029436 -0.008294 1302650.000000 0 1 0
-4.692473 18.881088 9.194882 21.518844 -1.327204 1.129298 0.017628 -0.008069 -920500.000000 0 1 0
-5.020273 20.279588 9.299482 22.867995 -1.328122 1.152002 0.022944 -0.009884 -185093.000000 0 1 0
-4.537473 21.023988 8.206482 23.020492 -1.358233 1.206292 0.031440 -0.023638 1431500.000000 0 1 0
-3.063273 21.624588 8.337082 23.377626 -1.430076 1.206142 0.038735 -0.018329 1831160.000000 0 1 0
-1.929173 20.754588 8.287282 22.431087 -1.478111 1.192374 0.033050 -0.007815 539759.000000 0 1 0
-0.790373 21.534288 7.891882 22.948465 -1.534110 1.219734 0.032559 -0.011208 687195.000000 0 1 0
0.485227 20.662288 7.782682 22.084740 1.547317 1.210661 0.026181 -0.004926 430831.000000 0 1 0
0.830727 20.055588 9.052182 22.019508 1.529399 1.147138 0.025185 -0.008654 -327319.000000 0 1 0
2.185727 19.666188 9.109982 21.783666 1.460109 1.139331 0.022316 -0.007123 133167.000000 0 1 0
2.650027 19.095088 10.512382 21.958033 1.432897 1.071567 0.014251 -0.018761 789720.000000 0 1 0
4.075127 18.885588 10.507582 21.992757 1.358275 1.072677 0.030924 -0.003399 789293.000000 0 1 0
4.412127 18.326888 11.761882 22.218991 1.334546 1.012948 0.024327 -0.008092 -539034.000000 0 1 0
5.906227 18.431288 12.008582 22.777224 1.260689 1.015472 0.038916 -0.014215 -210410.000000 0 1 0
6.748127 17.500688 11.320682 21.908198 1.202772 1.027766 0.031035 -0.014863 697930.000000 0 1 0
7.809427 16.975788 12.144282 22.285603 1.139630 0.994481 0.035984 -0.004077 965042.000000 0 1 0
8.978027 16.285288 11.357482 21.790089 1.066958 1.022514 0.039987 -0.010213 688402.000000 0 1 0
9.813827 17.197188 10.640482 22.478308 1.052226 1.077687 0.051572 -0.023151 331084.000000 0 1 0
11.021727 16.541988 10.262582 22.370436 0.983056 1.094201 0.056537 -0.021956 326275.000000 0 1 0
11.907127 17.424488 9.391682 23.099700 0.971328 1.152098 0.063056 -0.018294 370301.000000 0 1 0
13.112727 16.877588 8.856882 23.135275 0.910281 1.177938 0.061816 -0.018021 -43004.700000 0 1 0
13.832027 17.743288 8.097082 23.910499 0.908641 1.225324 0.060475 -0.019048 -337035.000000 0 1 0
14.872027 17.055788 7.196182 23.745781 0.853689 1.262904 0.067415 -0.033697 126924.000000 0 1 0
16.045027 16.674888 7.905182 24.453766 0.804646 1.241613 0.077093 -0.023699 421279.000000 0 1 0
17.063027 16.280788 6.974682 24.593844 0.761943 1.283256 0.099419 -0.019013 1483000.000000 0 1 0
18.500627 16.083188 7.615482 25.669782 0.715611 1.269591 0.075954 -0.015052 1010070.000000 0 0 1
18.635827 14.905788 8.360382 25.285817 0.674647 1.233820 0.077723 -0.015906 1108790.000000 0 0 1
19.754027 14.997388 9.299282 26.488108 0.649367 1.212079 0.083490 -0.017515 713673.000000 0 0 1
19.876727 13.959488 10.373382 26.411335 0.612270 1.167163 0.068408 -0.017487 -150059.000000 0 0 1
20.790027 13.012788 9.871982 26.438871 0.559257 1.188137 0.073371 -0.017809 204159.000000 0 0 1
20.816827 11.847688 10.731182 26.246262 0.517419 1.149586 0.080572 -0.027301 -313703.000000 0 0 1
21.757727 10.724988 10.283182 26.347066 0.457974 1.169842 0.063657 -0.020547 -948942.000000 0 0 1
23.130727 11.062488 10.412782 27.673728 0.446104 1.185030 0.057008 -0.025978 548741.000000 0 0 1
23.929127 10.197688 9.638882 27.739935 0.402855 1.215921 0.075898 -0.020223 -507116.000000 0 0 1
23.955427 8.656688 9.926782 27.337552 0.346765 1.199183 0.078675 -0.022943 -1387630.000000 0 0 1
22.825927 7.846788 9.730882 26.024702 0.331111 1.187576 0.081210 -0.022718 60608.700000 0 0 1
23.055927 6.459688 9.839382 25.886614 0.273171 1.180897 0.090655 -0.033455 -494134.000000 0 0 1
24.205427 5.730288 9.050282 26.469728 0.232456 1.221847 0.100825 -0.032969 311286.000000 0 0 1
24.051327 5.774388 7.629782 25.884812 0.235626 1.271593 0.106934 -0.021912 496411.000000 0 0 1
25.090427 5.101488 6.905682 26.518732 0.200590 1.307352 0.115950 -0.025198 156817.000000 0 0 1
24.790827 4.941988 5.423482 25.853869 0.196768 1.359452 0.123611 -0.033200 -643837.000000 0 0 1
23.756427 4.031688 5.249782 24.661358 0.168108 1.356280 0.122263 -0.032219 -6650.410000 0 1 0
23.594727 3.618088 3.894982 24.186207 0.152158 1.409051 0.132777 -0.026307 1441180.000000 0 1 0
22.437627 2.472988 3.731982 22.879914 0.109773 1.406953 0.129780 -0.024471 1229390.000000 0 1 0
22.874727 1.219388 4.119582 23.274686 0.053257 1.392860 0.132188 -0.025599 177876.000000 0 1 0
21.966427 0.187488 3.841882 22.300653 0.008535 1.397656 0.107415 -0.023027 -90148.800000 0 1 0
22.662227 -1.174312 4.177182 23.073890 -0.051772 1.388758 0.125508 -0.029380 25367.900000 0 1 0
22.609227 -1.603112 5.516182 23.327567 -0.070787 1.332069 0.118031 -0.034052 566539.000000 0 1 0
22.945927 -2.997412 5.644682 23.819372 -0.129894 1.331542 0.120782 -0.037047 -158930.000000 0 1 0
22.835427 -3.555112 7.109082 24.179218 -0.154444 1.272370 0.146374 -0.041111 -94608.400000 0 1 0
22.613727 -4.945612 7.269782 24.262924 -0.215310 1.266497 0.127007 -0.039655 384179.000000 0 1 0
22.544827 -5.285712 8.648782 24.718605 -0.230294 1.213343 0.151265 -0.043308 -31368.100000 0 1 0
22.205527 -6.764412 8.948782 24.878171 -0.295697 1.202846 0.130773 -0.035436 428298.000000 0 1 0
20.853327 -7.057112 8.622882 23.643565 -0.326318 1.197482 0.113340 -0.033639 585773.000000 0 1 0
20.697227 -8.397312 9.118082 24.125287 -0.385429 1.183218 0.120890 -0.029097 -18651.600000 0 1 0
-27.189593 -32.733430 5.384482 42.892238 0.877652 1.444929 0.063232 -0.011150 51237.600000 0 0 1
-27.951553 -33.836330 5.822282 44.272853 0.880353 1.438905 0.064018 -0.010333 103071.000000 0 0 1
-27.936453 -34.016030 7.261782 44.612433 0.883218 1.407294 0.058012 0.002288 -158255.000000 0 0 1
-28.735843 32.908588 7.822482 44.383725 -0.852986 1.393624 0.078494 -0.004797 -733429.000000 0 0 1
-30.097393 33.148888 7.785382 45.445726 -0.833609 1.398635 0.081693 -0.007448 -772278.000000 0 0 1
-30.876123 31.997688 8.084182 45.194480 -0.803235 1.390953 0.111665 -0.015847 1117730.000000 0 0 1
-32.432643 32.179588 8.037282 46.389655 -0.781482 1.396662 0.105899 -0.016647 827752.000000 0 0 1
-33.059033 32.214388 6.774982 46.653690 -0.772459 1.425062 0.088396 -0.009235 -645649.000000 0 0 1
-34.442402 32.219888 6.915782 47.667895 -0.752071 1.425200 0.069659 -0.011669 -758690.000000 0 0 1
-35.128522 32.284888 5.564782 48.034299 -0.743241 1.454685 0.043124 -0.002189 -450896.000000 0 0 1
-34.934952 31.061788 4.948282 47.008202 -0.726778 1.465337 0.053923 -0.008182 -201351.000000 0 0 1
-35.742013 30.821988 3.861982 47.354000 -0.711618 1.489150 0.060924 -0.001551 -628206.000000 0 0 1
-35.400816 29.512688 3.040782 46.189424 -0.694938 1.504916 0.062962 -0.005289 -113723.000000 0 0 1
-35.654097 28.326988 3.675482 45.685250 -0.671375 1.490257 0.084090 -0.016365 132622.000000 0 0 1
-35.003192 27.240088 3.068782 44.459681 -0.661317 1.501717 0.077941 -0.019020 -218891.000000 0 0 1
-35.342163 25.864088 3.687682 43.950182 -0.631764 1.486792 0.094027 -0.026955 -360020.000000 0 0 1
-36.675483 25.477588 3.471782 44.791202 -0.607144 1.493208 0.100238 -0.020908 -343462.000000 0 0 1
36.782029 24.628188 4.456782 44.489642 0.590011 1.470452 0.107806 -0.025998 254256.000000 0 0 1
35.288769 24.245588 4.260982 43.026756 0.601990 1.471603 0.110069 -0.030870 156540.000000 0 0 1
34.964809 23.375888 3.200482 42.180720 0.589309 1.494848 0.083863 -0.031554 142883.000000 0 0 1
35.482179 22.064688 3.349182 41.917210 0.556333 1.490811 0.081766 -0.027983 -985566.000000 0 0 1
34.834069 21.026588 2.446082 40.761662 0.543078 1.510751 0.080804 -0.028333 359003.000000 0 0 1
33.413759 20.922588 2.563282 39.507017 0.559438 1.505869 0.070394 -0.031672 1010090.000000 0 0 1
32.840839 20.267988 3.732882 38.771723 0.552940 1.474368 0.059431 -0.018877 -144433.000000 0 0 1
33.003439 18.722788 3.697182 38.123994 0.516027 1.473666 0.055658 -0.025076 -314261.000000 0 0 1
32.145539 18.114988 2.746482 37.000428 0.513172 1.496500 0.046926 -0.025822 587330.000000 0 0 1
32.507679 16.704788 2.624482 36.642695 0.474684 1.499111 0.054746 -0.025651 -106963.000000 0 0 1
31.981659 15.687688 3.672782 35.810884 0.456036 1.468055 0.077637 -0.023344 748295.000000 0 0 1
30.553559 15.543788 3.603882 34.469077 0.470614 1.466051 0.079003 -0.022687 920234.000000 0 0 1
30.056239 14.451688 4.357882 33.633613 0.448187 1.440862 0.106535 -0.028816 186304.000000 0 0 1
28.513379 14.394488 4.430082 32.246546 0.467506 1.432979 0.094282 -0.021289 272241.000000 0 0 1
27.814979 14.136688 3.211982 31.366158 0.470218 1.468214 0.096965 -0.035699 1131310.000000 0 0 1
26.406179 14.432488 3.321482 30.275655 0.500196 1.460867 0.072272 -0.025594 1121630.000000 0 0 1
25.646679 13.935888 2.031682 29.258996 0.497746 1.501303 0.075123 -0.027404 -259665.000000 0 0 1
25.906679 14.603488 0.787382 29.749586 0.513297 1.544326 0.084569 -0.029337 90624.900000 0 0 1
26.992679 13.974188 0.150982 30.395813 0.477709 1.565829 0.089304 -0.025692 -1267570.000000 0 0 1
27.561979 14.736788 -1.033018 31.271437 0.491004 1.603836 0.107931 -0.029715 -57145.000000 0 0 1
28.132679 15.996088 -0.806118 32.372400 0.517007 1.595700 0.073125 -0.026482 701886.000000 0 0 1
29.210899 16.130888 0.131382 33.369139 0.504547 1.566859 0.068316 -0.026077 -76637.900000 0 0 1
29.700259 17.618088 0.163582 34.533016 0.535402 1.566059 0.067341 -0.019961 -226540.000000 0 0 1
30.486109 17.974688 -0.948918 35.403287 0.532739 1.597603 0.057281 -0.010063 -117220.000000 0 0 1
31.009819 19.248988 -0.744818 36.505988 0.555529 1.591200 0.042055 0.002588 -202453.000000 0 0 1
32.151839 19.480488 -1.740118 37.633206 0.544739 1.617052 0.057013 -0.006509 -278675.000000 0 0 1
32.745009 20.698188 -2.148118 38.797745 0.563690 1.626192 0.001208 -0.002518 412337.000000 0 0 1
31.835419 21.637588 -2.715518 38.588252 0.596951 1.641226 0.058077 -0.012396 34259.400000 0 0 1
32.574349 22.958588 -3.091718 39.971787 0.613944 1.648221 0.060887 -0.006555 143732.000000 0 0 1
32.621299 23.874488 -2.021818 40.475031 0.631795 1.620769 0.064204 -0.000735 158792.000000 0 0 1
33.453929 23.596288 -0.898818 40.948236 0.614299 1.592748 0.064176 0.002620 -539056.000000 0 0 1
33.377819 24.647788 0.225082 41.492685 0.636067 1.565372 0.066607 -0.019509 66756.600000 0 0 1
34.157019 25.835688 0.054382 42.827418 0.647572 1.569527 0.091393 -0.015125 462866.000000 0 0 1
35.499899 25.658988 0.515482 43.805162 0.625858 1.559028 0.090465 -0.015800 129974.000000 0 0 1
36.335179 26.874988 0.145482 45.194374 0.636838 1.567577 0.077142 -0.006236 -422665.000000 0 0 1
36.850339 26.828488 -1.170518 45.596989 0.629297 1.596470 0.082291 -0.020475 123490.000000 0 0 1
36.011199 27.477188 -2.101218 45.345534 0.651781 1.617151 0.064898 -0.016123 -1002.530000 0 0 1
36.359599 27.067488 -3.538518 45.466367 0.639932 1.648702 0.070407 -0.018243 894646.000000 0 0 1
-36.511453 27.783688 -4.171318 46.069723 -0.650478 1.661464 0.071184 -0.021246 953365.000000 0 0 1
-36.203053 27.177688 -5.447718 45.595673 -0.643950 1.690561 0.079245 -0.024418 -93839.100000 0 0 1
36.722899 27.314488 -6.587318 46.239003 0.639521 1.713745 0.064156 -0.013704 445595.000000 0 0 1
35.609149 26.441788 -6.411518 44.813918 0.638720 1.714359 0.067320 -0.011002 -43978.600000 0 0 1
34.536589 26.710588 -7.302718 44.266931 0.658309 1.736524 0.053620 -0.008240 214300.000000 0 0 1
33.354349 25.810588 -6.881118 42.732293 0.658579 1.732529 0.061804 -0.010251 -382750.000000 0 0 1
33.443729 24.391388 -7.142518 42.005219 0.630138 1.741665 0.050052 -0.010217 -549282.000000 0 0 1
34.315519 23.675488 -6.346218 42.170583 0.603939 1.721859 0.066234 -0.012966 -582150.000000 0 0 1
34.310889 22.140388 -6.651618 41.372430 0.573055 1.732271 0.071943 -0.006484 334473.000000 0 0 1
33.293989 21.293388 -6.100618 39.988944 0.568999 1.723952 0.047137 -0.001995 245613.000000 0 0 1
33.470829 19.912088 -6.359418 39.461752 0.536667 1.732656 0.073894 -0.012649 -980402.000000 0 0 1
32.480039 19.066888 -5.651618 38.084642 0.530831 1.719743 0.070614 -0.007052 -565380.000000 0 0 1
31.236309 19.048288 -6.351618 37.133372 0.547603 1.742690 0.064825 -0.017468 -739876.000000 0 0 1
30.356239 18.379688 -5.531518 35.915343 0.544429 1.725427 0.102823 -0.027947 -750098.000000 0 0 1
29.022269 18.260888 -6.321818 34.867141 0.561616 1.753116 0.085933 -0.030089 -192262.000000 0 0 1
29.031829 17.212188 -7.279218 34.526708 0.535163 1.783219 0.079451 -0.031477 128423.000000 0 0 1
27.965679 17.380588 -8.200518 33.932471 0.556076 1.814885 0.095975 -0.035122 111469.000000 0 0 1
27.722179 16.166288 -9.095218 33.355526 0.527940 1.846969 0.093756 -0.032007 -223743.000000 0 0 1
27.091479 16.473688 -10.328018 33.346643 0.546337 1.885692 0.087418 -0.032458 15926.400000 0 0 1
27.366779 15.512588 -11.325318 33.434172 0.515680 1.916368 0.083257 -0.027010 -248985.000000 0 0 1
26.630679 15.663488 -12.660918 33.389172 0.531679 1.959720 0.087583 -0.022265 -82836.000000 0 0 1
25.212479 15.600088 -12.655218 32.236414 0.554088 1.974226 0.082220 -0.022746 569088.000000 0 0 1
24.633679 15.753888 -13.973818 32.407881 0.568977 2.016603 0.066915 -0.028087 116951.000000 0 0 1
24.297079 14.404088 -14.596618 31.794450 0.535132 2.047771 0.065268 -0.034995 -33423.600000 0 0 1
25.449379 13.665788 -15.007918 32.552454 0.492792 2.049961 0.082054 -0.040319 686701.000000 0 0 1
25.974579 13.924588 -16.313418 33.685316 0.492097 2.076346 0.096161 -0.040567 -311637.000000 0 0 1
27.411779 13.423588 -16.504018 34.698429 0.455375 2.066490 0.110060 -0.037351 -234326.000000 0 0 1
27.582079 12.062188 -16.728618 34.440008 0.412259 2.077997 0.104261 -0.039571 1532810.000000 0 0 1
28.979929 11.782588 -17.060818 35.633372 0.386164 2.070070 0.094206 -0.028409 1666320.000000 0 0 1
29.157049 10.391988 -17.682618 35.648309 0.342378 2.089817 0.061311 -0.022688 -343517.000000 0 0 1
28.433279 10.351688 -18.898418 35.675748 0.349153 2.129075 0.067685 -0.026426 123028.000000 0 0 1
28.566879 9.145888 -19.621418 35.842906 0.309845 2.150084 0.057942 -0.017630 864924.000000 0 0 1
29.891589 8.901988 -20.464318 37.303362 0.289446 2.151475 0.057735 -0.010261 170132.000000 0 0 1
29.864399 9.734188 -21.606618 38.124568 0.315087 2.173337 0.066447 -0.008197 563337.000000 0 0 1
30.631539 9.189988 -22.691618 39.212965 0.291473 2.187901 0.046248 -0.004504 -485554.000000 0 0 1
32.059939 8.711788 -22.603318 40.182645 0.265328 2.168220 0.043318 -0.001858 -1407490.000000 0 0 1
33.028049 9.654588 -22.285018 40.996160 0.284391 2.145502 0.041738 -0.003576 -695523.000000 0 0 1
34.330309 9.171688 -22.398518 42.004567 0.261063 2.133222 0.004373 -0.000482 -674243.000000 0 0 1
35.365469 10.285688 -22.309318 43.060626 0.283032 2.115414 0.019869 -0.002728 -418714.000000 0 0 1
35.610029 10.714288 -20.956918 42.685625 0.292262 2.083987 0.018387 -0.010522 133966.000000 0 0 1
36.471409 11.824288 -20.896118 43.664920 0.313515 2.069806 0.006669 -0.002161 -119573.000000 0 0 1
36.443209 12.388188 -19.467718 43.134288 0.327677 2.039049 -0.007240 0.002800 -185590.000000 0 0 1
36.622829 11.444488 -18.404218 42.554943 0.302881 2.018039 0.000058 -0.004489 216015.000000 0 0 1
36.583779 12.180288 -17.225218 42.230800 0.321399 1.990930 -0.000383 -0.001910 -316754.000000 0 0 1
-36.936063 11.450288 -16.020318 41.857286 -0.300608 1.963553 0.003904 0.003094 -368584.000000 0 0 1
36.299429 10.265688 -15.776018 40.889065 0.275609 1.966898 0.009979 0.000842 378673.000000 0 0 1
36.824269 9.626788 -14.651018 40.784240 0.255702 1.938242 0.015780 -0.013119 115861.000000 0 0 1
35.984089 8.344488 -14.501618 39.683524 0.227866 1.944893 0.068465 -0.014001 -472933.000000 0 0 1
34.863629 8.385488 -13.691818 38.383003 0.236039 1.935546 0.082694 -0.017940 -96562.200000 0 0 1
35.147609 8.154188 -12.307118 38.122308 0.227966 1.899517 0.088668 -0.024143 -577851.000000 0 0 1
34.013779 8.630088 -11.394418 36.895100 0.248480 1.884762 0.102294 -0.026655 -446372.000000 0 0 1
33.908469 10.049088 -11.243218 37.110355 0.288113 1.878601 0.096696 -0.029978 -175397.000000 0 0 1
32.997889 10.488988 -10.294218 36.122714 0.307768 1.859781 0.083072 -0.022643 -1049350.000000 0 0 1
33.387679 10.138388 -8.867918 36.002278 0.294808 1.819673 0.100115 -0.026165 99763.500000 0 0 1
34.556359 10.762588 -8.340518 37.142153 0.301928 1.797284 0.094768 -0.016882 355170.000000 0 0 1
34.534439 12.160288 -8.220518 37.524352 0.338563 1.791659 0.103152 -0.019484 -693845.000000 0 0 1
34.470149 12.733988 -6.741218 37.360269 0.353870 1.752228 0.092273 -0.022300 44413.900000 0 0 1
35.608199 12.507488 -5.919918 38.202442 0.337791 1.726385 0.103615 -0.016127 311789.000000 0 0 1
35.322059 12.728088 -4.546818 37.819646 0.345860 1.691312 0.098215 -0.013419 17945.600000 0 0 1
36.602989 12.627188 -3.691318 38.895379 0.332193 1.665843 0.113675 -0.007523 276141.000000 0 0 1
-36.548623 13.804788 -3.857218 39.258784 -0.361145 1.669206 0.116255 -0.001548 -81006.700000 0 0 1
-35.447593 13.674388 -2.986418 38.110883 -0.368174 1.649238 0.109336 -0.010794 56631.200000 0 0 1
-34.576889 14.954588 -3.024518 37.793500 -0.408208 1.650909 0.108210 -0.008168 174368.000000 0 0 1
-35.256849 15.986888 -2.321718 38.781650 -0.425711 1.630699 0.117293 -0.007089 256791.000000 0 0 1
-34.473253 17.119788 -2.025618 38.543423 -0.460933 1.623375 0.130964 -0.012523 335952.000000 0 0 1
-35.274311 18.155588 -1.105818 39.687847 -0.475336 1.598663 0.119837 -0.008465 796487.000000 0 0 1
-36.239183 18.962788 -1.797418 40.940156 -0.482088 1.614714 0.114500 -0.010644 327814.000000 0 0 1
-36.934983 19.749988 -0.883918 41.893153 -0.491039 1.591897 0.096171 -0.009385 -66475.000000 0 0 1
36.199619 20.820888 -1.583918 41.790317 0.521961 1.608707 0.074605 -0.012893 85471.300000 0 0 1
36.938679 22.020188 -1.755318 43.039933 0.537568 1.611591 0.095239 -0.011902 165792.000000 0 0 1
36.829639 22.460688 -3.102118 43.249601 0.547633 1.642584 0.063259 -0.010519 -529360.000000 0 0 1
-36.274983 23.655388 -3.412818 43.440754 -0.577859 1.649440 0.086894 -0.017141 1124900.000000 0 0 1
-34.881523 23.234988 -3.550218 42.061733 -0.587618 1.655302 0.103989 -0.021412 1123250.000000 0 0 1
-34.085093 24.276988 -4.078118 42.045175 -0.618898 1.667943 0.111574 -0.026354 -569043.000000 0 0 1
-32.711723 23.785188 -4.464818 40.690620 -0.628693 1.680744 0.095875 -0.030038 -741566.000000 0 0 1
-32.653933 23.105088 -5.736318 40.410763 -0.615791 1.713228 0.086244 -0.015960 108938.000000 0 0 1
-31.308803 22.882888 -6.126918 39.260754 -0.631150 1.727494 0.070498 -0.003684 316984.000000 0 0 1
-31.238243 22.036088 -7.422218 38.942346 -0.614354 1.762565 0.058126 -0.011184 178373.000000 0 0 1
-31.977383 22.559388 -8.530218 40.053010 -0.614394 1.785413 0.065003 -0.021158 359151.000000 0 0 1
-31.338253 22.321388 -9.788118 39.700601 -0.618915 1.819913 0.026768 -0.017408 195889.000000 0 0 1
-32.359093 22.400088 -10.950918 40.850917 -0.605495 1.842186 0.038672 -0.012018 13238.900000 0 0 1
-32.768563 23.724788 -11.289618 42.001187 -0.626659 1.842936 0.046582 -0.019770 38457.500000 0 0 1
-33.471573 23.720788 -12.513918 42.890793 -0.616531 1.866865 0.032942 -0.018380 -437267.000000 0 0 1
-33.653663 25.135088 -13.060118 43.987593 -0.641498 1.872246 0.053125 -0.024433 -345639.000000 0 0 1
-32.500813 25.903488 -13.222618 43.613429 -0.672915 1.878822 0.048936 -0.022192 -933153.000000 0 0 1
-31.693533 25.690488 -14.381918 43.258765 -0.681166 1.909710 0.046458 -0.022148 763135.000000 0 0 1
-30.286373 26.369288 -14.120318 42.567442 -0.716370 1.908919 0.041569 -0.025073 1061670.000000 0 0 1
-29.419273 25.712788 -13.145418 41.224302 -0.718270 1.895339 0.033623 -0.019990 461825.000000 0 0 1
-29.958113 25.465988 -11.812318 41.055279 -0.704525 1.862639 0.051421 -0.014480 -872278.000000 0 0 1
-30.345003 26.683288 -10.951018 41.865760 -0.721277 1.835450 0.057053 -0.003899 -182328.000000 0 0 1
-29.204153 27.424088 -10.640418 41.450955 -0.753974 1.830402 0.066051 -0.005059 -391905.000000 0 0 1
-29.554643 28.606588 -9.965118 42.321595 -0.769099 1.808490 0.054117 -0.011064 239946.000000 0 0 1
-28.294743 29.392588 -9.540718 41.899189 -0.804427 1.800518 0.070877 -0.016082 194127.000000 0 0 1
-28.519223 30.804388 -9.243518 42.984870 -0.823899 1.787530 0.069904 -0.033669 -272856.000000 0 0 1
-27.330593 31.488888 -8.910418 42.636920 -0.855977 1.781332 0.105024 -0.016860 86930.500000 0 0 1
35.331829 -24.798812 34.002485 54.949870 -0.611989 0.903594 0.025138 -0.012964 -189878.000000 0 0 1
34.965239 -23.402312 -33.842198 53.995653 -0.589825 2.248182 0.023956 -0.017349 -287503.000000 0 0 1
33.870809 -23.394312 -32.986418 52.750634 -0.604452 2.246347 0.015988 -0.008979 -467166.000000 0 0 1
33.369539 -21.992812 -32.638008 51.598929 -0.582724 2.255615 0.007312 -0.005083 -190413.000000 0 0 1
32.828309 -21.445912 -33.793098 51.764839 -0.578674 2.282097 0.001650 -0.006295 -206074.000000 0 0 1
32.130689 -20.267012 -33.540818 50.676616 -0.562736 2.294093 0.009550 -0.009881 120593.000000 0 0 1
31.810469 -19.471812 33.200597 49.933326 -0.549283 0.843438 0.016107 -0.008052 781817.000000 0 0 1
33.079579 -19.062812 32.666384 50.246811 -0.522789 0.863056 0.035414 -0.024264 740052.000000 0 0 1
32.974529 -18.629412 31.329998 49.152247 -0.514259 0.879668 0.038815 -0.016989 -826486.000000 0 0 1
34.267229 -18.647012 30.544938 49.547425 -0.498352 0.906534 0.037335 -0.022824 -978940.000000 0 0 1
35.069539 -17.556412 30.822178 49.880927 -0.464141 0.904708 0.021855 -0.028990 -806175.000000 0 0 1
36.248499 -17.578512 30.101448 50.289711 -0.451531 0.929093 0.044906 -0.033974 -1099690.000000 0 0 1
-36.826623 -16.379212 30.375698 50.469414 0.418492 0.924964 0.063261 -0.035855 -169819.000000 0 0 1
-35.543700 -16.643912 29.822008 49.292257 0.437940 0.921026 0.066178 -0.032882 -231079.000000 0 0 1
-34.630963 -15.733112 30.299718 48.630313 0.426430 0.898144 0.061401 -0.033601 332272.000000 0 0 1
-33.122213 -16.164312 30.159388 47.623048 0.454018 0.884994 0.074690 -0.034458 702498.000000 0 0 1
-32.244753 -15.279512 30.797288 47.134494 0.442518 0.858740 0.068228 -0.026216 -68225.500000 0 0 1
-31.029253 -15.921912 31.135608 46.751983 0.474093 0.841998 0.070847 -0.028827 405450.000000 0 0 1
-29.991683 -14.920812 31.756898 46.158772 0.461644 0.812077 0.058522 -0.025131 48381.300000 0 0 1
-30.446303 -14.355012 32.979085 47.123919 0.440578 0.795626 0.065882 -0.029208 462720.000000 0 0 1
-29.599723 -13.291012 33.425353 46.583783 0.422043 0.770544 0.051191 -0.018884 78890.600000 0 0 1
-30.109753 -12.682512 -33.287318 46.642136 0.398656 2.365527 0.043385 -0.003534 -123786.000000 0 0 1
-29.841173 -13.424512 -32.117898 45.850545 0.422742 2.346882 0.051016 -0.006126 195643.000000 0 0 1
-30.310863 -12.753912 -31.002418 45.194697 0.398283 2.326739 0.061012 -0.001920 -652155.000000 0 0 1
-30.488793 -13.661712 -29.770258 44.749046 0.421264 2.298654 0.063046 -0.009407 145662.000000 0 0 1
-31.588843 -14.565712 -29.804078 45.807183 0.432049 2.279226 0.061475 -0.006790 232121.000000 0 0 1
-31.668233 -15.385812 -28.685028 45.413996 0.452259 2.254456 0.073605 -0.007872 320658.000000 0 0 1
-32.976273 -16.226012 -28.613268 46.577217 0.457268 2.232319 0.062588 -0.014348 226791.000000 0 0 1
-32.919273 -17.335712 -29.485218 47.471923 0.484711 2.240953 0.076380 -0.018035 166513.000000 0 0 1
-34.059073 -18.178712 -29.497158 48.585680 0.490274 2.223223 0.056734 -0.018258 74335.300000 0 0 1
-33.947673 -19.353412 -30.443438 49.535865 0.518141 2.232642 0.064725 -0.018060 720269.000000 0 0 1
-35.199227 -20.061312 -30.386128 50.643446 0.518020 2.214299 0.029806 -0.019088 580435.000000 0 0 1
-35.110815 -21.353312 -30.872558 51.398911 0.546405 2.215105 0.036728 -0.019404 -102359.000000 0 0 1
-36.418243 -22.208412 -30.989858 52.724504 0.547606 2.199095 0.054177 -0.024296 241596.000000 0 0 1
-36.899983 -22.605012 -29.712898 52.492396 0.549634 2.172493 0.026504 -0.019964 -62588.000000 0 0 1
36.194589 -23.709112 -29.725738 52.495617 -0.579914 2.172748 0.030755 -0.019056 266714.000000 0 0 1
36.954169 -25.082632 -29.944048 53.771694 -0.596321 2.161414 0.030647 -0.011083 492932.000000 0 0 1
-36.491233 -25.247572 -31.247158 54.271861 0.605256 2.184320 0.036602 -0.011259 -473732.000000 0 0 1
-35.696371 -26.390012 -31.255708 54.291647 0.636612 2.184256 0.025345 -0.002196 -426564.000000 0 0 1
-36.045147 -27.330792 -32.475208 55.685402 0.648752 2.193447 0.038507 -0.006496 1277480.000000 0 0 1
36.573089 -27.849972 -32.416578 56.249856 -0.650813 2.184986 0.046182 -0.000596 938023.000000 0 0 1
36.264729 -28.891682 -33.332708 57.104547 -0.672718 2.194091 0.048201 -0.011791 88660.500000 0 0 1
36.977249 -30.260862 -32.991158 58.064217 -0.685839 2.175094 0.055191 -0.021037 348865.000000 0 0 1
36.565989 -30.786482 -31.769008 57.394677 -0.699798 2.157379 0.050179 -0.023391 253787.000000 0 0 1
-36.413333 -31.705892 -31.360678 57.573314 0.716402 2.146838 0.047967 -0.025461 135969.000000 0 0 1
-36.791913 -32.447352 -30.039508 57.522583 0.722733 2.120250 0.045395 -0.025069 505886.000000 0 0 1
36.163469 -33.467642 -30.094408 57.736929 -0.746702 2.119092 0.050283 -0.020849 617811.000000 0 0 1
35.751539 -33.891442 -28.784808 57.055829 -0.758695 2.099602 0.060805 -0.018867 -288006.000000 0 0 1
34.461769 33.405009 -28.897638 56.023046 0.769828 2.112757 0.058030 -0.030775 -557459.000000 0 0 1
33.422859 -33.933742 -29.378548 55.961464 -0.792983 2.123486 0.061992 -0.027792 -507469.000000 0 0 1
32.171469 33.601886 -29.114378 54.879297 0.807142 2.130006 0.072150 -0.025219 614139.000000 0 0 1
30.918139 34.031712 -29.932448 54.863834 0.833300 2.147874 0.058674 -0.022429 572322.000000 0 0 1
30.922329 33.628013 -31.243368 55.346019 0.827290 2.170636 0.056930 -0.017077 -964737.000000 0 0 1
29.683099 33.845777 -31.824528 55.130968 0.850829 2.186157 0.045052 -0.006886 -677868.000000 0 0 1
29.455299 33.233035 -33.221008 55.458856 0.845588 2.213074 0.042022 -0.017633 -66536.900000 0 0 1
29.273579 31.842506 -33.056308 54.439023 0.827407 2.223350 0.042358 -0.014699 49955.100000 0 0 1
28.953869 31.363446 33.662322 54.361239 0.825325 0.903030 0.042250 -0.018101 199650.000000 0 0 1
28.807279 29.815546 33.517744 53.312900 0.802596 0.890918 0.041250 -0.019782 230048.000000 0 0 1
30.094399 29.230386 33.527401 53.704516 0.770835 0.896569 0.051263 -0.009979 -80522.400000 0 0 1
29.985429 27.843066 33.605186 52.949701 0.748368 0.883225 0.040164 -0.007520 -731545.000000 0 0 1
31.232039 27.202886 -33.927428 53.539777 0.716556 2.257106 0.060523 -0.020509 -866896.000000 0 0 1
31.587799 27.310266 -32.547628 52.943251 0.712899 2.232884 0.060828 -0.014317 -564982.000000 0 0 1
32.766259 26.595406 -32.314568 53.152373 0.681817 2.224286 0.070624 -0.013536 -184294.000000 0 0 1
33.332829 27.018946 -30.922808 52.889706 0.681159 2.195265 0.061641 -0.022135 -58529.100000 0 0 1
34.073849 28.189446 -30.631298 53.795432 0.691170 2.176576 0.030988 -0.017988 434712.000000 0 0 1
33.282359 29.372346 -30.490398 53.852712 0.723073 2.172662 0.053680 -0.018370 723379.000000 0 0 1
32.419059 29.628166 -29.208258 52.744156 0.740448 2.157684 0.076927 -0.014936 738818.000000 0 0 1
33.258199 29.918616 -28.073108 52.814116 0.732586 2.131221 0.063284 -0.017351 581111.000000 0 0 1
32.471329 30.111786 -26.899438 51.813962 0.747713 2.116657 0.080019 -0.014500 -502522.000000 0 0 1
33.308819 30.498966 -25.707618 51.966778 0.741390 2.088278 0.093454 -0.021962 -465092.000000 0 0 1
33.879159 31.745936 -25.826698 53.128338 0.752903 2.078440 0.078440 -0.022866 -280167.000000 0 0 1
34.309509 32.213181 -24.609618 53.108048 0.753896 2.052611 0.065466 -0.033210 -204069.000000 0 0 1
34.689559 33.742952 -24.626118 54.299153 0.771566 2.041515 0.068013 -0.028186 -1105520.000000 0 0 1
33.617869 -33.561392 -24.815118 53.594013 -0.784557 2.052196 0.079520 -0.023955 -1002520.000000 0 0 1
33.731819 -32.174702 -24.831318 52.817056 -0.761776 2.060244 0.055001 -0.023774 -1385650.000000 0 0 1
34.198159 -31.550102 -26.186598 53.391581 -0.745144 2.083417 0.041243 -0.018439 1008160.000000 0 0 1
35.577299 -31.869522 -26.457228 54.602157 -0.730480 2.076640 0.058939 -0.023194 896299.000000 0 0 1
36.526009 -31.166042 -25.685328 54.453720 -0.706381 2.062004 0.056907 -0.023031 -146838.000000 0 0 1
-35.978555 -31.711792 -25.773938 54.446212 0.722448 2.063924 0.021482 -0.019181 314731.000000 0 0 1
-35.728924 -32.922422 -25.075018 54.673562 0.744540 2.047251 0.030745 -0.017697 -264255.000000 0 0 1
-35.759181 -32.898332 -23.631918 54.032276 0.743754 2.023465 0.031500 -0.022063 -304355.000000 0 0 1
-34.491480 -32.419652 -22.892118 52.580843 0.754444 2.021245 0.018242 -0.008076 49169.200000 0 0 1
-34.346944 -31.040552 -23.000918 51.694010 0.734875 2.031908 -0.000181 -0.000681 -377527.000000 0 0 1
-33.813293 -30.435822 -21.880018 50.481811 0.732878 2.019085 0.020640 -0.002939 -340975.000000 0 0 1
-33.581543 -28.916632 -22.113118 49.526575 0.710896 2.033635 0.023644 -0.001155 309946.000000 0 0 1
-34.816067 -28.222782 -22.238118 50.032168 0.681186 2.031386 0.013285 0.003528 122462.000000 0 0 1
-35.320856 -28.166692 -23.541418 50.942357 0.673185 2.051179 0.020531 0.001668 -688502.000000 0 0 1
-36.501853 -27.254952 -23.811118 51.402208 0.641368 2.052434 0.017028 -0.002435 -468299.000000 0 0 1
-36.357263 -25.887452 -23.300618 50.348084 0.618754 2.051937 0.003005 0.001989 -397188.000000 0 0 1
36.669729 -24.974712 -23.806518 50.350329 -0.597909 2.063282 0.010265 0.001701 -307885.000000 0 0 1
36.926259 -24.369112 -25.216408 50.924154 -0.583331 2.088833 0.022311 0.002960 -255732.000000 0 0 1
-35.975944 -23.443212 -25.208508 49.792787 0.577524 2.101648 0.018904 -0.004860 -160868.000000 0 0 1
-35.717185 -22.830512 -26.455308 49.968319 0.568747 2.128739 0.033042 -0.018262 -248807.000000 0 0 1
-34.522185 -21.874912 -26.459568 48.686772 0.564794 2.145356 0.038656 -0.024788 -553590.000000 0 0 1
-34.557231 -20.644812 -25.776268 47.799858 0.538512 2.140347 0.037201 -0.015115 -412893.000000 0 0 1
-35.530754 -19.688412 -26.111618 48.289591 0.506003 2.142101 0.035004 -0.016484 -437865.000000 0 0 1
-36.686303 -19.660012 -25.107078 48.608294 0.491950 2.113576 0.024073 -0.012928 -525244.000000 0 0 1
-36.346153 -19.212612 -23.791418 47.499462 0.486266 2.095409 0.019007 -0.017045 235435.000000 0 0 1
-35.655834 -20.169012 -22.918518 46.940239 0.514785 2.080878 0.008833 -0.014357 48495.200000 0 0 1
-36.398793 -21.465812 -22.516118 47.881403 0.532841 2.060368 0.015340 -0.003489 -373528.000000 0 0 1
36.513269 -21.168312 -21.669618 47.443531 -0.525391 2.045130 0.009843 -0.005571 -552733.000000 0 0 1
35.938879 -22.354612 -21.177218 47.326592 -0.556452 2.034730 0.015699 -0.001514 -931232.000000 0 0 1
35.006569 -22.213012 -20.037518 46.047583 -0.565429 2.020999 0.013430 -0.007347 -483510.000000 0 0 1
33.807469 -21.610212 -20.513818 45.063988 -0.568755 2.043410 0.018727 -0.002996 -282064.000000 0 0 1
32.788939 -21.694112 -19.552618 43.909611 -0.584507 2.032297 0.025845 -0.005809 425464.000000 0 0 1
31.428119 -21.081412 -20.018018 42.812074 -0.590846 2.057346 0.026718 0.000220 -155520.000000 0 0 1
30.867199 -21.712312 -21.118418 43.245764 -0.613011 2.080977 0.035119 -0.001161 101388.000000 0 0 1
29.683549 -21.146612 -21.651918 42.392191 -0.619001 2.106856 0.067087 -0.000121 66408.900000 0 0 1
29.747849 -19.763312 -22.288918 42.098918 -0.586405 2.128739 0.056060 -0.001597 -826459.000000 0 0 1
30.002449 -18.730512 -21.419418 41.349371 -0.558095 2.115320 0.060118 -0.003123 -24398.200000 0 0 1
30.199219 -17.580112 -22.219818 41.409824 -0.527182 2.137179 0.047154 -0.004117 -124099.000000 0 0 1
31.007749 -16.475112 -21.521018 41.183298 -0.488390 2.120655 0.033813 -0.015830 -609643.000000 0 0 1
30.405069 -16.061812 -20.326518 39.945180 -0.486000 2.104657 0.036269 -0.017193 396100.000000 0 0 1
31.348459 -15.701612 -19.321518 40.032332 -0.464346 2.074472 0.026782 -0.019810 384761.000000 0 0 1
32.368669 -16.733812 -18.762718 40.985251 -0.477136 2.046306 0.027392 -0.023808 -578311.000000 0 0 1
33.329029 -17.051812 -19.710618 42.309537 -0.472901 2.055411 0.020283 -0.024031 -937745.000000 0 0 1
34.271099 -17.892512 -19.092218 43.118013 -0.481161 2.029504 0.026213 -0.023693 686239.000000 0 0 1
35.545849 -18.133912 -20.022018 44.645575 -0.471739 2.035845 0.010817 -0.023479 1003170.000000 0 0 1
36.288769 -16.949012 -20.287418 44.896805 -0.436950 2.039654 0.020757 -0.029175 245215.000000 0 0 1
-36.709323 -17.179812 -21.285918 45.780024 0.437718 2.054387 0.018421 -0.017684 415033.000000 0 0 1
-35.748092 -15.976812 -21.575118 44.706491 0.420296 2.074411 0.030335 -0.018189 -854.392000 0 0 1
-34.965767 -15.517812 -20.524418 43.412660 0.417686 2.063234 0.048073 -0.022668 -255393.000000 0 0 1
-34.211056 -14.375812 -20.875018 42.577303 0.397806 2.083213 0.059827 -0.026255 -539109.000000 0 0 1
-33.064503 -14.142312 -19.825518 41.064796 0.404171 2.074630 0.066960 -0.036481 1112460.000000 0 0 1
-31.918383 -15.015312 -19.975318 40.537095 0.439712 2.086062 0.081568 -0.037819 818431.000000 0 0 1
-32.165023 -16.375412 -19.541318 41.043951 0.470906 2.067019 0.066418 -0.034063 -138750.000000 0 0 1
-31.034143 -17.414212 -19.842018 40.744061 0.511349 2.079438 0.067182 -0.034946 429560.000000 0 0 1
-31.519853 -18.688412 -19.502818 41.510454 0.535189 2.059893 0.067972 -0.031532 627702.000000 0 0 1
-30.506773 -19.673212 -19.649318 41.277042 0.572768 2.066937 0.078891 -0.034227 53537.400000 0 0 1
-31.004273 -21.026312 -19.152418 42.073577 0.595927 2.043407 0.065613 -0.010128 -120629.000000 0 0 1
-32.051803 -21.584712 -19.913718 43.471531 0.592672 2.046638 0.042185 -0.015658 225627.000000 0 0 1
-32.208913 -22.961412 -19.590018 44.140790 0.619325 2.030640 0.039475 -0.001365 154967.000000 0 0 1
-33.179713 -23.689512 -20.557518 45.658492 0.620044 2.037836 0.015247 -0.006150 322010.000000 0 0 1
-32.558563 -23.890512 -21.814118 45.898500 0.633033 2.066066 0.025390 -0.012901 462787.000000 0 0 1
-33.440433 -24.644312 -22.636818 47.307824 0.635104 2.069743 0.025637 -0.005424 21401.900000 0 0 1
-32.958433 -24.951612 -24.089818 47.845173 0.648006 2.098436 0.028612 -0.002376 -367280.000000 0 0 1
-31.693913 -25.535822 -24.175518 47.339603 0.678208 2.106775 0.040450 -0.007861 -530508.000000 0 0 1
-31.327113 -25.823472 -25.513958 47.949992 0.689394 2.131870 0.037894 -0.003129 1009110.000000 0 0 1
-29.826723 -26.247372 -25.801548 47.373809 0.721652 2.146753 0.046973 -0.006468 1264210.000000 0 0 1
-29.022273 -25.079612 -25.949398 46.310372 0.712652 2.165589 0.060942 -0.017655 -1355860.000000 0 0 1
-27.686083 -25.388762 -26.012268 45.691865 0.742141 2.176448 0.054703 -0.014968 -905544.000000 0 0 1
-26.815923 -24.130412 -26.232008 44.603685 0.732734 2.199520 0.071460 -0.020388 -451290.000000 0 0 1
-26.814783 -23.594812 -27.554368 45.110874 0.721609 2.227885 0.072570 -0.025666 -137879.000000 0 0 1
-26.258263 -22.331112 -27.699648 44.220419 0.704750 2.247722 0.081261 -0.022159 -163113.000000 0 0 1
-26.411293 -21.822312 -29.160918 44.990319 0.690543 2.275962 0.061456 -0.020494 87316.200000 0 0 1
-25.579373 -22.472912 -30.126388 45.463561 0.720840 2.295147 0.080388 -0.015558 441587.000000 0 0 1
-25.673943 -22.071612 -31.464048 46.220058 0.710092 2.319575 0.071071 -0.015922 -333939.000000 0 0 1
-25.015073 -23.084312 -32.425048 47.010883 0.745279 2.331919 0.064190 -0.025347 -95458.600000 0 0 1
-25.804663 -24.216712 -32.480228 48.034310 0.753663 2.313372 0.040507 -0.024126 -22284.700000 0 0 1
-25.341493 -25.015512 -33.515148 48.900228 0.778925 2.325919 0.083210 -0.015183 124163.000000 0 0 1
-19.682173 -15.002912 -11.997818 27.503144 0.651301 2.022206 0.075865 0.006608 131874.000000 0 0 1
-20.096573 -14.284012 -10.836618 26.932091 0.617917 1.984899 0.086818 -0.002217 290131.000000 0 0 1
-19.176773 -14.525912 -9.771218 25.965890 0.648268 1.956606 0.055159 -0.009332 126043.000000 0 0 1
-19.497073 -13.942112 -8.419918 25.404987 0.620780 1.908613 0.093141 -0.026454 -752487.000000 0 0 1
-20.690973 -14.405412 -7.893418 26.418522 0.608183 1.874214 0.155592 -0.040615 -493826.000000 0 0 1
-20.909873 -13.885612 -6.622618 25.959431 0.586203 1.828762 0.110447 -0.043186 869619.000000 0 0 1
-22.257773 -14.380412 -5.951618 27.159279 0.573618 1.791727 0.164413 -0.051742 457248.000000 0 0 1
-22.180673 -15.677012 -5.477818 27.708436 0.615267 1.769802 0.147735 -0.042492 141598.000000 0 0 1
-21.479773 -15.885712 -4.280218 27.056547 0.636790 1.729659 0.156472 -0.045025 -206827.000000 0 0 1
-21.744773 -17.304012 -3.705118 28.035547 0.672161 1.703342 0.130212 -0.034808 371286.000000 0 0 1
-23.096273 -17.438112 -3.276918 29.124968 0.646705 1.683547 0.154865 -0.036325 399586.000000 0 0 1
-23.234773 -18.581312 -2.437618 29.850658 0.674570 1.652548 0.140695 -0.024764 -1573550.000000 0 0 1
-24.542473 -19.238712 -2.542818 31.287808 0.664843 1.652158 0.113538 -0.030402 -1773270.000000 0 0 1
-24.671473 -20.199412 -3.586018 32.086716 0.686061 1.682791 0.084106 -0.027666 448666.000000 0 0 1
-25.666763 -21.190312 -3.213818 33.438610 0.690153 1.667056 0.088220 -0.024400 647624.000000 0 0 1
-25.675823 -22.446812 -4.107718 34.350846 0.718399 1.690664 0.082412 -0.020094 578679.000000 0 0 1
-24.409273 -23.122212 -4.013118 33.860809 0.758327 1.689594 0.080016 -0.018871 411281.000000 0 0 1
-24.237973 -24.046612 -5.056018 34.514956 0.781435 1.717813 0.078364 -0.010173 -678755.000000 0 0 1
-22.802373 -24.256912 -5.530918 33.748141 0.816297 1.735427 0.078442 -0.009615 -132477.000000 0 0 1
-22.235773 -23.167412 -6.265618 32.717221 0.805915 1.763495 0.068296 -0.012487 340290.000000 0 0 1
-21.757273 -22.079712 -5.402218 31.465482 0.792753 1.743338 0.071180 -0.011672 -356090.000000 0 0 1
-21.762273 -20.654912 -5.962618 30.590435 0.759298 1.766970 0.100831 -0.007208 342119.000000 0 0 1
-20.538073 -20.446012 -6.658018 29.735182 0.783152 1.796621 0.070931 -0.003920 365260.000000 0 0 1
-20.506873 -19.170612 -7.258418 28.995324 0.751733 1.823818 0.065551 -0.009105 431364.000000 0 0 1
-19.219173 -18.907612 -8.089518 28.148085 0.777227 1.862299 0.069582 -0.007386 185227.000000 0 0 1
-19.270573 -19.623712 -9.311418 29.037003 0.794477 1.897238 0.057543 0.000506 511235.000000 0 0 1
-18.008873 -19.581212 -9.999918 28.420797 0.827202 1.930345 0.076098 -0.000127 613642.000000 0 0 1
-17.575473 -18.227612 -10.690618 27.485130 0.803611 1.970299 0.074383 0.000476 -184220.000000 0 0 1
-17.158673 -17.199412 -9.818318 26.203801 0.786584 1.954859 0.080948 -0.004204 -702554.000000 0 0 1
-15.836773 -17.341712 -9.401418 25.296739 0.830726 1.951577 0.078216 -0.003544 -862020.000000 0 0 1
-15.464273 -16.202712 -8.439018 23.935092 0.808713 1.931122 0.052280 -0.001146 -29494.700000 0 1 0
-16.213573 -16.324812 -7.260018 24.126485 0.788817 1.876448 0.038589 -0.001764 11195.800000 0 1 0
-16.175273 -15.182712 -6.452718 23.103934 0.753756 1.853852 0.040393 -0.007805 -274744.000000 0 1 0
-16.804573 -15.348712 -5.083918 23.320010 0.740150 1.790568 0.037122 -0.016655 -63164.200000 0 1 0
-17.156473 -14.094512 -4.485818 22.652205 0.687730 1.770144 0.040305 -0.018295 -12153.400000 0 1 0
-17.498773 -14.221212 -3.121918 22.763925 0.682436 1.708373 0.038191 -0.023759 -344694.000000 0 1 0
-18.467773 -13.132012 -2.655518 22.815787 0.618122 1.687450 0.064423 -0.021181 -724042.000000 0 1 0
-19.748173 -13.175512 -3.214518 23.956577 0.588355 1.705383 0.102899 -0.037239 -89993.800000 0 1 0
-20.591173 -12.414312 -2.379618 24.161418 0.542545 1.669445 0.114816 -0.025984 -1020760.000000 0 1 0
-22.075173 -12.499812 -2.669818 25.508557 0.515225 1.675652 0.134912 -0.021055 -794008.000000 0 0 1
-22.515773 -11.724512 -3.760018 25.662462 0.480089 1.717844 0.133848 -0.038189 1230800.000000 0 0 1
-23.933473 -11.985812 -3.906918 27.050597 0.464285 1.715733 0.142442 -0.032761 978261.000000 0 0 1
-24.702373 -11.327912 -5.016818 27.635073 0.429963 1.753347 0.152687 -0.044988 -120166.000000 0 0 1
-24.164573 -11.779312 -6.241618 27.597764 0.453567 1.798934 0.167431 -0.052282 356449.000000 0 0 1
-24.875373 -11.283912 -7.364018 28.290274 0.425858 1.834131 0.170647 -0.051277 21575.800000 0 0 1
-24.095673 -11.698512 -8.676918 28.155737 0.451983 1.884071 0.182320 -0.051116 287539.000000 0 0 1
-22.992273 -10.803812 -8.787518 26.880986 0.439270 1.903823 0.165460 -0.047476 -167843.000000 0 0 1
-22.100173 -11.283812 -9.730618 26.653836 0.472072 1.944508 0.122263 -0.033631 -1005990.000000 0 0 1
-20.815273 -10.473412 -9.829218 25.289948 0.466172 1.969974 0.106850 -0.029189 -748501.000000 0 0 1
-20.879673 -9.150912 -10.338018 25.031471 0.413056 1.996543 0.099311 -0.025677 -46519.800000 0 0 1
-19.728873 -8.420412 -10.023618 23.677092 0.403400 2.007933 0.105017 -0.021961 -391407.000000 0 1 0
-19.620973 -7.036312 -10.631918 23.399358 0.344326 2.042459 0.101495 -0.029030 -197035.000000 0 1 0
-19.481673 -7.206512 -12.022018 23.999965 0.354303 2.095456 0.129298 -0.020649 384776.000000 0 1 0
-19.401473 -5.939812 -12.644018 23.907524 0.297092 2.128067 0.130720 -0.032150 -278172.000000 0 1 0
-18.930973 -5.845712 -14.091518 24.313062 0.299502 2.189017 0.160512 -0.028690 11056.700000 0 1 0
-19.925673 -6.259612 -14.989718 25.708108 0.304386 2.193303 0.168341 -0.040819 440691.000000 0 0 1
-19.371673 -6.033212 -16.278118 26.012276 0.301924 2.246935 0.168370 -0.053335 227069.000000 0 0 1
-19.981473 -6.928612 -17.411518 27.393902 0.333778 2.259580 0.134283 -0.038618 881002.000000 0 0 1
-21.342973 -6.674612 -17.812918 28.589736 0.303095 2.243436 0.119162 -0.045176 1154420.000000 0 0 1
-21.572973 -7.497412 -18.936918 29.668354 0.334479 2.263067 0.112178 -0.041781 -1776480.000000 0 0 1
-23.008873 -7.462412 -19.320318 30.957560 0.313624 2.244763 0.103890 -0.036568 -1926840.000000 0 0 1
-23.361773 -6.273412 -19.986618 31.378225 0.262344 2.261342 0.100137 -0.036211 1571140.000000 0 0 1
-24.769573 -6.253012 -20.339718 32.654801 0.247281 2.243203 0.082265 -0.029630 1618140.000000 0 0 1
-25.882323 -5.908512 -19.331318 32.840600 0.224438 2.200173 0.086646 -0.026076 -461076.000000 0 0 1
-25.865373 -4.534012 -19.001718 32.413578 0.173530 2.197190 0.097472 -0.024910 780217.000000 0 0 1
-26.977993 -4.259812 -18.126718 32.780116 0.156607 2.156732 0.122792 -0.023344 423273.000000 0 0 1
-27.067343 -2.729712 -17.688918 32.449810 0.100509 2.147324 0.115141 -0.020994 178721.000000 0 0 1
-27.431883 -1.766212 -18.749318 33.274083 0.064297 2.169390 0.119637 -0.018769 1356060.000000 0 0 1
-28.795603 -1.838212 -19.236218 34.678493 0.063750 2.158801 0.123698 -0.015781 837469.000000 0 0 1
-29.206003 -0.710312 -20.257418 35.550782 0.024316 2.177079 0.127414 -0.016990 3551.520000 0 0 1
-28.552493 -0.516312 -21.528918 35.763190 0.018081 2.216782 0.124238 -0.013383 136591.000000 0 0 1
-28.627953 -1.592512 -22.463718 36.424091 0.055571 2.235374 0.135140 -0.007235 -576791.000000 0 0 1
-27.817793 -1.453812 -23.709018 36.579512 0.052214 2.275949 0.146264 -0.013533 -1215720.000000 0 0 1
-28.162333 -0.395912 -24.577418 37.380787 0.014057 2.288276 0.154604 -0.014716 43508.500000 0 0 1
-27.584343 0.859588 -24.314018 36.780516 -0.031152 2.293023 0.133822 -0.007363 1088870.000000 0 0 1
-26.035823 0.953788 -23.981018 35.409928 -0.036617 2.314801 0.126375 -0.006538 138132.000000 0 0 1
-25.242583 0.634388 -25.029828 35.553941 -0.025126 2.351805 0.114308 -0.015023 -897925.000000 0 0 1
-23.887873 0.889388 -24.752018 34.410520 -0.037215 2.373613 0.107951 -0.016138 -264885.000000 0 0 1
-22.895173 0.190388 -25.671638 34.398520 -0.008315 2.413283 0.088822 -0.018362 -400052.000000 0 0 1
-22.869373 0.689488 -27.007748 35.396357 -0.030140 2.438752 0.061399 -0.009232 437097.000000 0 0 1
-21.737273 0.213788 -27.725698 35.231649 -0.009835 2.476653 0.041076 -0.016134 158587.000000 0 0 1
-21.453073 0.839888 -29.116578 36.176164 -0.039130 2.506228 0.040364 -0.001221 -489128.000000 0 0 1
-20.820973 2.106588 -29.067008 35.816778 -0.100833 2.517592 0.050059 -0.006915 244679.000000 0 0 1
-20.766173 2.856888 -30.301898 36.845634 -0.136716 2.536415 0.034385 -0.008959 -228628.000000 0 0 1
-19.972173 2.149188 -31.414078 37.287411 -0.107197 2.572676 0.033895 -0.010182 -656243.000000 0 0 1
-18.578073 2.199188 -31.312858 36.475695 -0.117827 2.603052 0.027975 -0.008029 -556051.000000 0 0 1
-18.043573 1.714888 -32.521528 37.231185 -0.094757 2.633147 0.024706 0.000048 -201248.000000 0 0 1
-16.508373 1.630688 -32.513178 36.500579 -0.098460 2.669806 0.025490 -0.006801 -258581.000000 0 0 1
-15.870973 2.905788 -32.597748 36.372305 -0.181083 2.681980 0.027521 -0.003612 -1075040.000000 0 0 1
-14.514173 2.608088 -32.647088 35.823117 -0.177795 2.717327 0.031754 -0.014420 -949868.000000 0 0 1
-13.771573 3.932988 -32.916238 35.897122 -0.278182 2.731190 0.044601 -0.019851 -508483.000000 0 0 1
-13.831673 4.845688 -31.882288 35.089545 -0.336971 2.710711 0.052122 -0.031949 160117.000000 0 0 1
-13.396073 6.100888 -32.322698 35.516650 -0.427355 2.714253 0.057500 -0.017646 -206584.000000 0 0 1
-13.246873 7.226788 -31.250268 34.702815 -0.499418 2.691740 0.067274 -0.024842 -531715.000000 0 0 1
-12.110873 7.204188 -30.410168 33.516442 -0.536626 2.707664 0.092187 -0.039348 127366.000000 0 0 1
-12.100473 6.218088 -29.377928 32.375125 -0.474683 2.707906 0.094407 -0.042512 -351356.000000 0 0 1
-10.667773 5.727088 -29.064838 31.485961 -0.492698 2.746874 0.113737 -0.047190 -246524.000000 0 0 1
-10.074673 4.956788 -30.106988 32.132530 -0.457231 2.784631 0.087758 -0.052738 -47762.300000 0 0 1
-10.606573 3.698188 -30.330098 32.343328 -0.335489 2.786903 0.083771 -0.047925 -481528.000000 0 0 1
-10.167973 3.063788 -31.700558 33.432018 -0.292665 2.818347 0.076975 -0.038441 -5818.540000 0 0 1
-10.771473 1.791888 -31.895808 33.713174 -0.164845 2.811750 0.079473 -0.027870 324137.000000 0 0 1
-10.191673 0.999988 -32.926908 34.482625 -0.097805 2.840065 0.061709 -0.022406 -333281.000000 0 0 1
-10.677773 1.350188 33.645618 35.325139 -0.125781 0.309601 0.063932 -0.020131 723294.000000 0 0 1
-12.073673 1.102288 33.406199 35.538187 -0.091044 0.348141 0.038701 -0.010110 592215.000000 0 0 1
-12.365373 1.456088 32.101524 34.431534 -0.117215 0.369995 0.024399 0.000708 -494261.000000 0 0 1
-13.770773 1.075388 31.637398 34.521234 -0.077934 0.411650 0.023212 0.004088 268743.000000 0 0 1
-14.745573 2.114888 31.873678 35.182894 -0.142454 0.437196 0.022391 0.003998 -132602.000000 0 0 1
-15.938973 1.865288 31.234908 35.116231 -0.116497 0.474608 0.022138 0.003833 -344337.000000 0 0 1
-16.926373 3.045588 30.990658 35.442892 -0.178027 0.506634 0.031160 -0.000397 160831.000000 0 0 1
-17.622773 3.662288 32.048174 36.756767 -0.204899 0.511730 0.031556 -0.005398 80817.200000 0 0 1
-16.907573 4.674988 32.682847 37.092992 -0.269763 0.492601 0.026258 -0.002209 -194783.000000 0 0 1
-17.536473 5.185388 -33.995678 38.602102 -0.287499 2.648069 0.026576 -0.001576 -527321.000000 0 0 1
-18.793873 5.727288 33.864835 39.151482 -0.295802 0.525707 0.022513 -0.004440 -427921.000000 0 0 1
-19.719973 5.310688 -33.143508 38.930359 -0.263064 2.589357 0.015929 -0.000960 1149390.000000 0 0 1
-21.131973 6.003688 -33.204998 39.814274 -0.276811 2.557109 0.012591 -0.007427 376682.000000 0 0 1
-21.281673 7.436688 -33.084468 40.034934 -0.336177 2.543463 0.016496 -0.007328 189695.000000 0 0 1
-20.716673 8.235488 33.904418 40.577252 -0.378375 0.581659 0.003734 -0.010351 -229039.000000 0 0 1
-20.749273 9.730588 -33.820908 40.854259 -0.438509 2.546048 0.017089 -0.005583 -487975.000000 0 0 1
-19.927773 10.097488 -32.717938 39.617406 -0.468997 2.542500 0.013677 0.002338 237395.000000 0 0 1
-19.640373 11.466688 -32.650978 39.790898 -0.528447 2.533193 0.017006 -0.003397 114729.000000 0 0 1
-18.886373 12.182388 -33.785458 40.577861 -0.572878 2.554597 0.006505 -0.011465 -134200.000000 0 0 1
-19.719973 12.255488 33.090421 40.423388 -0.556061 0.611834 0.028447 -0.018721 357764.000000 0 0 1
-18.962073 12.515388 31.930358 39.188556 -0.583388 0.618433 0.023339 -0.012378 119217.000000 0 0 1
-19.594973 11.803688 30.685808 38.274128 -0.542170 0.640599 0.035978 -0.022020 -23281.400000 0 0 1
-19.600673 10.364088 30.741388 37.902950 -0.486391 0.624842 0.027048 -0.018714 -116450.000000 0 0 1
-18.327073 9.787088 30.582998 36.972807 -0.490495 0.596734 0.027447 -0.016057 35551.100000 0 0 1
-18.311173 8.230288 30.763148 36.734289 -0.422412 0.578195 0.037381 -0.014121 222629.000000 0 0 1
-18.964373 7.589688 29.646828 36.002573 -0.380685 0.603306 0.042918 -0.014227 235617.000000 0 0 1
-19.217473 6.273888 29.919728 36.109044 -0.315559 0.594205 0.036526 -0.010741 -436166.000000 0 0 1
-19.828973 5.594888 28.704898 35.333583 -0.275008 0.622545 0.044267 -0.010280 313334.000000 0 0 1
-21.194273 5.996788 28.574558 36.078582 -0.275736 0.656704 0.070049 -0.018150 373727.000000 0 0 1
-21.885473 4.938588 27.895958 35.798716 -0.221939 0.677337 0.070835 -0.018974 298547.000000 0 0 1
-23.349973 5.245788 27.499738 36.455111 -0.220990 0.716140 0.075794 -0.015162 -53740.900000 0 0 1
-23.510173 6.097888 26.368138 35.849563 -0.253780 0.744360 0.085693 -0.019592 367371.000000 0 0 1
-24.889473 6.398988 26.227138 36.719146 -0.251646 0.775225 0.093115 -0.018039 -3058.420000 0 0 1
-25.153883 7.051288 24.817458 36.032551 -0.273311 0.811031 0.093309 -0.022470 -198956.000000 0 0 1
-25.204953 6.216688 23.656618 35.122250 -0.241819 0.831794 0.098227 -0.019819 -614926.000000 0 0 1
-26.212113 5.302788 23.620188 35.680635 -0.199609 0.847327 0.097502 -0.019625 -1088960.000000 0 0 1
-26.448933 4.602188 22.259838 34.874440 -0.172278 0.878528 0.100047 -0.011584 -252447.000000 0 0 1
-27.040023 5.454688 21.345638 34.879116 -0.199055 0.912223 0.110106 -0.017216 -272258.000000 0 0 1
-27.116523 4.798588 20.092338 34.088624 -0.175149 0.940462 0.105470 -0.013727 -356984.000000 0 0 1
-28.209453 5.301488 19.123438 34.490359 -0.185766 0.983085 0.143543 -0.028020 107442.000000 0 0 1
-29.488513 4.971388 19.618738 35.765654 -0.167017 0.990184 0.154212 -0.026721 294245.000000 0 0 1
-30.541503 5.107388 18.658538 36.152591 -0.165695 1.028499 0.161910 -0.035669 933840.000000 0 0 1
-31.983753 5.170288 19.233938 37.678067 -0.160267 1.035052 0.160210 -0.038772 542871.000000 0 0 1
-32.240923 6.366088 19.970938 38.455722 -0.194946 1.024738 0.152436 -0.041585 1960420.000000 0 0 1
-33.684883 6.687188 19.988138 39.735569 -0.195974 1.043697 0.149359 -0.030368 2176150.000000 0 0 1
-34.099235 7.866388 20.865938 40.743407 -0.226725 1.033133 0.132098 -0.020135 76855.300000 0 0 1
-33.817063 7.650388 22.251438 41.197678 -0.222484 1.000224 0.116950 -0.023781 192757.000000 0 0 1
-34.550841 8.540488 23.066478 42.411826 -0.242329 0.995756 0.097886 -0.015777 188593.000000 0 0 1
-0.596173 32.389788 11.245282 34.291546 -1.552392 1.236683 0.083817 -0.015647 -232894.000000 0 0 1
-0.946073 32.561788 12.597682 34.926590 -1.541750 1.201788 0.062032 -0.009372 101916.000000 0 0 1
-0.484873 33.846388 13.035982 36.273267 -1.556472 1.203190 0.055249 -0.017873 -186939.000000 0 0 1
-0.527773 33.964688 14.555582 36.955968 -1.555259 1.165966 0.039324 -0.009786 797764.000000 0 0 1
-1.776973 -33.891730 15.204782 37.188606 1.518413 1.149596 0.026935 0.006258 346620.000000 0 0 1
-1.420273 -33.575930 16.546982 37.458816 1.528521 1.113261 0.022330 -0.009290 316115.000000 0 0 1
-2.571673 -33.310830 17.545282 37.736744 1.493747 1.087231 0.025037 -0.003199 14206.700000 0 0 1
-3.229773 33.629088 18.013182 38.286051 -1.475049 1.080951 0.024336 -0.003980 -26826.000000 0 0 1
-4.100373 34.014088 19.041382 39.196243 -1.450826 1.063523 0.026443 -0.006758 509349.000000 0 0 1
-5.164373 32.984788 19.653282 38.741689 -1.415489 1.038759 0.016672 -0.009184 1129170.000000 0 0 1
-6.300073 32.873888 18.801982 38.391379 -1.381448 1.058999 0.018182 -0.012759 -413783.000000 0 0 1
-7.312973 32.129988 19.396582 38.236672 -1.347003 1.038774 0.034099 -0.028386 190296.000000 0 0 1
-8.424873 31.824088 18.322582 37.675829 -1.312000 1.062921 0.027423 -0.022195 322174.000000 0 0 1
-9.060773 32.974888 17.805082 38.554660 -1.302637 1.090757 0.048437 -0.021260 574911.000000 0 0 1
-10.073673 32.674888 16.801382 38.097423 -1.271742 1.114072 0.063093 -0.005447 499564.000000 0 0 1
-11.063473 33.812588 16.590982 39.254964 -1.254576 1.134433 0.091556 -0.015965 -317818.000000 0 0 1
-12.127773 33.785688 17.515182 39.941672 -1.226160 1.116846 0.080016 -0.011602 -446541.000000 0 0 1
-13.119673 -33.447630 17.087482 39.785070 1.196993 1.126863 0.056739 -0.012581 -330425.000000 0 0 1
-14.477273 -33.647830 17.773582 40.714471 1.164480 1.119045 0.071927 -0.012315 -85258.000000 0 0 1
-14.538573 -33.243130 19.121382 41.013450 1.158520 1.085781 0.074688 -0.017091 -266111.000000 0 0 1
-15.799573 -33.585130 19.636782 41.990364 1.131080 1.084166 0.064165 -0.021565 38520.400000 0 0 1
-15.806373 -33.236630 21.161682 42.453878 1.126882 1.048972 0.068782 -0.039405 -48680.000000 0 0 1
-15.623973 -31.874830 21.339682 41.418539 1.115046 1.029531 0.065422 -0.029050 41316.500000 0 0 1
-15.445673 -31.441530 22.703182 41.744139 1.114173 0.995760 0.058923 -0.023578 125101.000000 0 0 1
-15.274973 -29.892930 22.894982 40.633635 1.098396 0.972242 0.067826 -0.023584 -45511.100000 0 0 1
-15.330373 -29.502730 24.283282 41.171704 1.091572 0.939979 0.076440 -0.028439 -233087.000000 0 0 1
-15.250373 -28.116330 24.488382 40.283778 1.073805 0.917387 0.072194 -0.007786 392155.000000 0 0 1
-16.479873 -27.186130 24.173482 39.937816 1.025840 0.920681 0.089581 -0.009104 92084.000000 0 0 1
-17.627073 -27.469030 24.937082 41.074559 1.000273 0.918368 0.099118 -0.009147 74427.300000 0 0 1
-18.608273 -26.494330 24.571082 40.644254 0.958495 0.921608 0.100732 -0.008250 413329.000000 0 0 1
-19.736673 -26.256430 25.681982 41.695330 0.926215 0.907213 0.106185 -0.010261 820504.000000 0 0 1
-20.534673 -27.398130 25.964982 42.971044 0.927621 0.921980 0.115730 -0.013055 685595.000000 0 0 1
-21.495273 -27.841530 25.006282 43.156827 0.913327 0.952769 0.108217 -0.021246 181588.000000 0 0 1
-22.823373 -27.074430 24.789282 43.225451 0.870388 0.960039 0.084148 -0.012486 -215974.000000 0 0 1
-22.730973 -25.840330 24.193882 42.068560 0.849327 0.958063 0.087660 -0.013278 377757.000000 0 0 1
-23.839073 -25.547130 23.334082 42.017099 0.819970 0.982016 0.084121 -0.012113 280818.000000 0 0 1
-24.104173 -24.016330 23.187782 41.176067 0.783573 0.972619 0.083754 -0.005898 243140.000000 0 0 1
-24.923673 -23.536930 24.260782 41.997168 0.756790 0.954917 0.072361 -0.004931 173785.000000 0 0 1
-25.460143 -22.280430 24.040482 41.503990 0.718892 0.953009 0.062127 -0.004261 23040.400000 0 0 1
-26.110253 -21.764030 25.344682 42.400132 0.694862 0.930105 0.068618 -0.001855 819604.000000 0 0 1
-27.380253 -22.305130 25.767982 43.717113 0.683606 0.940449 0.055867 -0.000752 1114310.000000 0 0 1
-27.745783 -21.763930 27.072682 44.457027 0.665159 0.916044 0.056672 -0.011769 32533.600000 0 0 1
-29.147983 -22.234430 27.590882 45.882802 0.651650 0.925627 0.052282 -0.007902 1258230.000000 0 0 1
-30.303153 -21.503230 27.109782 45.995763 0.617142 0.940484 0.046480 -0.009590 1141920.000000 0 0 1
-30.755413 -21.952530 25.814682 45.762504 0.619913 0.971452 0.048186 -0.001871 461136.000000 0 0 1
-32.066233 -22.835030 25.900382 47.122305 0.618814 0.988861 0.045189 -0.002555 568305.000000 0 0 1
-32.643953 -23.308130 24.708182 47.110411 0.620067 1.018699 0.030244 -0.002500 233401.000000 0 0 1
-32.083883 -24.517730 24.215482 47.083800 0.652512 1.030598 0.021163 0.001570 135091.000000 0 0 1
-32.825233 -24.949730 22.911082 47.168873 0.649920 1.063604 0.028753 0.001053 2109840.000000 0 0 1
-34.229969 -25.389330 22.960782 48.409775 0.638186 1.076627 0.033544 0.002406 1681000.000000 0 0 1
-34.539275 -25.832130 21.686182 48.275780 0.642160 1.104910 0.045035 -0.000341 -699028.000000 0 0 1
-35.852144 -26.575030 21.626482 49.591463 0.637871 1.119544 0.060921 -0.001088 -961547.000000 0 0 1
-35.908411 -27.774130 22.359482 50.603979 0.658354 1.113134 0.060546 0.004483 1301.420000 0 0 1
-34.961448 -28.792630 22.149282 50.417349 0.688939 1.115956 0.046334 -0.001720 -501390.000000 0 0 1
-35.384289 -29.755530 20.975082 50.768037 0.699202 1.144880 0.061799 -0.001853 89106.200000 0 0 1
-35.245157 -29.111030 19.735982 49.791386 0.690370 1.163233 0.049284 -0.002407 727341.000000 0 0 1
-35.909689 -29.948130 18.744282 50.376030 0.695123 1.189540 0.064855 0.004585 200200.000000 0 0 1
-36.145273 -29.397330 17.334082 49.710705 0.682805 1.214614 0.069347 0.007569 -138653.000000 0 0 1
-34.952659 -29.440830 16.577982 48.613582 0.700010 1.222799 0.073754 0.004045 230598.000000 0 0 1
-35.023760 -28.710330 15.339982 47.814871 0.686661 1.244201 0.070391 -0.006740 -74408.700000 0 0 1
-35.645641 -29.484130 14.147582 48.374371 0.691075 1.273998 0.062620 -0.005106 426777.000000 0 0 1
-34.849178 -30.594330 13.694282 48.352990 0.720474 1.283652 0.075105 -0.014045 316108.000000 0 0 1
-35.622045 -31.479530 12.902582 49.258172 0.723741 1.305767 0.083188 -0.013798 509825.000000 0 0 1
-36.106033 -30.935830 11.462282 48.908640 0.708431 1.334235 0.083170 -0.016464 156705.000000 0 0 1
36.768559 -30.060230 11.417682 48.845756 -0.685352 1.334864 0.079677 -0.017160 15180.500000 0 0 1
36.733369 -29.482430 10.173982 48.187800 -0.676328 1.358064 0.063148 -0.023847 -111285.000000 0 0 1
35.596119 -28.460330 10.061782 46.672407 -0.674457 1.353507 0.093472 -0.019880 -52840.300000 0 0 1
35.635359 -27.634430 8.934082 45.971278 -0.659609 1.375211 0.105380 -0.047844 -244307.000000 0 0 1
34.442729 -26.911730 8.914382 44.609517 -0.663263 1.369610 0.077699 -0.042498 -261236.000000 0 0 1
34.501539 -25.822730 7.887882 43.810824 -0.642509 1.389765 0.065380 -0.036064 -418838.000000 0 0 1
35.425579 -24.829130 8.103482 44.012769 -0.611317 1.385623 0.083006 -0.038817 -507150.000000 0 0 1
35.723419 -24.018730 7.000982 43.612795 -0.591929 1.409573 0.070663 -0.038893 -78845.100000 0 0 1
36.328789 -22.700230 7.456182 43.481905 -0.558495 1.398467 0.077258 -0.037487 -419612.000000 0 0 1
35.501709 -21.942830 8.271782 42.547404 -0.553606 1.375137 0.078900 -0.032349 -242603.000000 0 0 1
35.943859 -20.602430 8.104082 42.214894 -0.520468 1.377625 0.084242 -0.035599 845033.000000 0 0 1
35.041789 -19.648130 9.006382 41.171482 -0.511025 1.350260 0.094102 -0.025458 582955.000000 0 0 1
35.387349 -19.797230 10.399082 41.860909 -0.510065 1.319748 0.084768 -0.041483 169728.000000 0 0 1
34.448019 -19.139930 11.232482 40.977697 -0.507146 1.293130 0.084014 -0.025029 -48226.500000 0 0 1
34.935679 -19.119430 12.726082 41.809179 -0.500749 1.261504 0.072586 -0.042030 -287397.000000 0 0 1
35.953149 -18.179830 12.884182 42.298195 -0.468160 1.261274 0.045871 -0.026208 -212960.000000 0 0 1
36.453439 -18.373930 14.190182 43.218235 -0.466873 1.236253 0.051672 -0.025128 -21847.900000 0 0 1
-36.266723 -17.488330 14.483182 42.788777 0.449318 1.225494 0.061706 -0.029126 -662378.000000 0 0 1
-35.093644 -17.873930 13.875482 41.756080 0.471077 1.232057 0.063153 -0.031111 -1440950.000000 0 0 1
-34.066223 -17.350930 14.628182 40.933434 0.471083 1.205351 0.050645 -0.027468 -788746.000000 0 0 1
-32.732503 -17.261030 13.842582 39.509201 0.485277 1.212837 0.059030 -0.024665 -165373.000000 0 0 1
-32.143903 -18.530730 13.685582 39.546348 0.522955 1.217423 0.050951 -0.026996 -377108.000000 0 0 1
-31.063073 -18.478930 12.822582 38.351062 0.536649 1.229884 0.028889 -0.013714 -248006.000000 0 0 1
-30.247633 -19.783230 12.496182 38.241993 0.579212 1.237917 0.027648 -0.020609 542123.000000 0 0 1
-30.859913 -20.614130 11.533282 38.862491 0.588919 1.269486 0.039055 -0.024003 -537693.000000 0 0 1
-29.858263 -21.338930 10.936982 38.294691 0.620507 1.281163 0.034183 -0.020899 -779806.000000 0 0 1
-30.437963 -22.146030 9.760782 38.886876 0.628997 1.317078 0.044092 -0.023276 543605.000000 0 0 1
-31.122243 -23.351630 10.128782 40.205533 0.643706 1.316127 0.054534 -0.030814 192102.000000 0 0 1
-32.450683 -23.171330 10.577482 41.253369 0.620092 1.311498 0.082387 -0.036217 -228191.000000 0 0 1
-33.313923 -24.463030 10.688782 42.690835 0.633389 1.317727 0.102130 -0.035555 82565.300000 0 0 1
-33.678763 -25.031730 9.424682 43.007804 0.639167 1.349865 0.096216 -0.027553 2540.630000 0 0 1
-34.497045 -26.170030 9.524082 44.335366 0.648993 1.354290 0.106652 -0.026085 9804.180000 0 0 1
-34.727230 -26.978930 8.231482 44.739250 0.660484 1.385754 0.093098 -0.028798 -104241.000000 0 0 1
-33.655733 -27.778730 7.797382 44.330186 0.690025 1.393983 0.072206 -0.023796 -317955.000000 0 0 1
-33.862393 -28.473030 6.582882 44.729291 0.699155 1.423088 0.068193 -0.023556 142437.000000 0 0 1
-32.534243 -28.648530 5.800782 43.736304 0.721973 1.437774 0.060822 -0.013058 386622.000000 0 0 1
-32.087163 -27.448530 5.172982 42.541363 0.707642 1.448896 0.076096 -0.008150 -311705.000000 0 0 1
-30.706273 -27.427030 4.897982 41.462120 0.729049 1.452388 0.063976 -0.009528 -93127.800000 0 0 1
-30.198033 -26.155630 4.240582 40.174877 0.713788 1.465046 0.062850 -0.007461 -109599.000000 0 0 1
-30.498333 -25.950330 2.874482 40.147610 0.705003 1.499137 0.082299 -0.010568 -303961.000000 0 0 1
-29.692283 -24.920430 2.341282 38.834792 0.698243 1.510471 0.082587 -0.020382 -7742.830000 0 0 1
-29.833943 -24.462030 0.836982 38.589579 0.686782 1.549105 0.088822 -0.014175 -321303.000000 0 0 1
-29.304003 -25.296530 -0.122618 38.712454 0.712133 1.573964 0.096965 -0.015849 -319442.000000 0 0 1
-29.344913 -24.833730 -1.486018 38.471370 0.702325 1.609433 0.101390 -0.024043 -360274.000000 0 0 1
-30.678293 -24.841130 -2.254118 39.538847 0.680646 1.627837 0.112976 -0.019655 -372843.000000 0 0 1
-31.511493 -23.808430 -1.759418 39.533670 0.647042 1.615315 0.094379 -0.013404 -1438080.000000 0 0 1
-32.710373 -23.950230 -2.412418 40.612828 0.632005 1.630232 0.095754 -0.018721 -947481.000000 0 0 1
-33.634983 -22.711530 -2.223118 40.645639 0.593911 1.625519 0.070209 -0.024187 78943.700000 0 0 1
-33.958373 -22.380430 -0.869718 40.679370 0.582714 1.592178 0.075162 -0.035097 16051.300000 0 0 1
-34.851779 -21.311830 -0.807518 40.859426 0.548832 1.590561 0.079159 -0.021270 -412717.000000 0 0 1
-35.104173 -20.654930 0.596482 40.734321 0.531839 1.556153 0.084785 -0.032114 -471626.000000 0 0 1
-35.745309 -21.576230 1.437382 41.777110 0.543070 1.536384 0.087402 -0.036803 107495.000000 0 0 1
-36.065127 -20.968630 2.660382 41.802565 0.526638 1.507112 0.083089 -0.028979 -1608590.000000 0 0 1
36.840569 -21.644530 3.516282 42.872806 -0.531192 1.488687 0.098596 -0.021281 -416705.000000 0 0 1
35.564989 -21.552630 2.959282 41.691027 -0.544825 1.499755 0.085265 -0.022121 -587978.000000 0 0 1
34.961839 -20.298030 3.169682 40.551044 -0.526015 1.492551 0.077302 -0.029501 -1095600.000000 0 0 1
33.622219 -20.020630 2.457582 39.208660 -0.537073 1.508076 0.069435 -0.013793 -14783.400000 0 0 1
32.571539 -20.830930 2.910282 38.772446 -0.568990 1.495665 0.068933 -0.008792 -1247110.000000 0 0 1
31.346699 -20.334030 2.483982 37.446742 -0.575448 1.504414 0.053407 -0.013448 -560957.000000 0 0 1
30.277489 -21.309030 3.025082 37.147709 -0.613266 1.489272 0.030117 0.006938 -282608.000000 0 0 1
29.898379 -22.367530 2.194682 37.403691 -0.642296 1.512087 0.020338 0.003172 254470.000000 0 0 1
28.661379 -22.922830 2.647482 36.795923 -0.674607 1.498784 0.011057 0.007389 321217.000000 0 0 1
28.312279 -24.064330 1.718382 37.197177 -0.704471 1.524583 0.012571 0.001348 -107765.000000 0 0 1
27.989679 -23.776930 0.363682 36.727331 -0.704197 1.560894 0.009746 -0.003578 93644.100000 0 0 1
27.581279 -24.940130 -0.299818 37.186381 -0.735153 1.578859 0.011366 -0.005659 73161.300000 0 0 1
26.737679 -24.672930 -1.593918 36.416996 -0.745258 1.614579 0.035653 -0.015335 5422.170000 0 0 1
27.530379 -24.219930 -2.660318 36.764169 -0.721516 1.643221 0.015650 -0.019786 124820.000000 0 0 1
27.887579 -25.133030 -3.705818 37.724255 -0.733492 1.669189 0.019162 -0.022014 63080.200000 0 0 1
26.710379 -25.633030 -4.608018 37.305904 -0.764819 1.694632 0.029891 -0.028438 558091.000000 0 0 1
26.157779 -24.798030 -5.641318 36.482821 -0.758720 1.726049 0.033087 -0.041740 672601.000000 0 0 1
25.178679 -23.879430 -5.161518 35.083249 -0.758920 1.718454 0.041038 -0.040087 -210054.000000 0 0 1
24.619279 -22.848230 -6.180518 34.151857 -0.748105 1.752771 0.047472 -0.042944 64572.200000 0 0 1
23.951479 -23.497530 -7.263318 34.330207 -0.775831 1.783980 0.059881 -0.045092 667772.000000 0 0 1
22.924879 -22.747630 -7.949018 33.259460 -0.781517 1.812132 0.067694 -0.048859 275420.000000 0 0 1
23.243679 -21.455530 -8.696918 32.806170 -0.745415 1.839104 0.072514 -0.045441 -212151.000000 0 0 1
24.020279 -21.750530 -9.886018 33.879090 -0.735849 1.866908 0.084222 -0.044008 466869.000000 0 0 1
23.885779 -20.654230 -10.821518 33.380128 -0.712971 1.900952 0.095635 -0.041440 -103068.000000 0 0 1
24.817079 -20.779230 -12.043718 34.535706 -0.697072 1.927015 0.078352 -0.022638 -271124.000000 0 0 1
26.166979 -20.569430 -11.715318 35.285421 -0.666197 1.909236 0.077137 -0.028142 -547631.000000 0 0 1
26.863979 -20.140630 -12.840218 35.947039 -0.643326 1.936063 0.076801 -0.030954 768577.000000 0 0 1
28.394579 -20.542930 -12.827118 37.320224 -0.626312 1.921655 0.055962 -0.028058 842239.000000 0 0 1
28.727479 -21.851030 -13.067218 38.386036 -0.650271 1.918156 0.047635 -0.023931 260094.000000 0 0 1
28.957009 -22.725130 -11.930818 38.694759 -0.665397 1.884235 0.060094 -0.022152 -259282.000000 0 0 1
29.181939 -24.146730 -12.482118 39.880490 -0.691259 1.889134 0.039641 -0.021723 1076770.000000 0 0 1
30.546949 -24.298630 -12.974718 41.132504 -0.671962 1.891714 0.024717 -0.026363 1574710.000000 0 0 1
30.694399 -25.654530 -13.439418 42.200937 -0.696195 1.894903 0.033961 -0.024908 23738.300000 0 0 1
-2.931673 -8.730812 -27.314938 28.825815 1.246841 2.816390 0.066760 -0.027000 -164091.000000 0 0 1
-3.350973 -7.529812 -26.753918 27.994629 1.152085 2.842759 0.079623 -0.024383 -485627.000000 0 0 1
-4.462973 -7.008112 -27.415098 28.646455 1.003736 2.847327 0.067247 -0.018301 -254296.000000 0 0 1
-4.626873 -5.554912 -27.007738 27.958593 0.876294 2.880044 0.056599 -0.016429 92718.300000 0 0 1
-5.152773 -5.421512 -25.673498 26.740837 0.810807 2.858105 0.050473 -0.018212 380671.000000 0 0 1
-4.723973 -4.222412 -25.088088 25.875797 0.729394 2.894216 0.048537 -0.022522 37222.300000 0 0 1
-5.302573 -4.044312 -23.668018 24.589608 0.651584 2.866946 0.041402 -0.028385 82272.800000 0 1 0
-4.708673 -4.923512 -22.694718 23.695206 0.807699 2.849964 0.036056 -0.036201 430401.000000 0 1 0
-5.317173 -4.807612 -21.438718 22.605400 0.735113 2.818914 0.031137 -0.029551 -81915.400000 0 1 0
-4.715073 -5.809912 -20.421318 21.748959 0.889048 2.790380 0.029913 -0.037166 -672590.000000 0 1 0
-5.252473 -7.085812 -20.537818 22.351715 0.932908 2.735946 0.031634 -0.035391 867717.000000 0 1 0
-4.316973 -8.103512 -20.111718 22.108468 1.081310 2.713319 0.038630 -0.032659 193024.000000 0 1 0
-5.063673 -9.477012 -20.098618 22.790546 1.080078 2.650640 0.045809 -0.029215 348255.000000 0 1 0
-6.109073 -9.663412 -19.168318 22.318753 1.007046 2.603804 0.040106 -0.024835 -276986.000000 0 1 0
-7.362773 -9.197012 -19.563818 22.837216 0.895713 2.599564 0.037195 -0.021933 -172987.000000 0 1 0
-8.466773 -9.484712 -18.461318 22.415759 0.842043 2.538502 0.030902 -0.015461 412249.000000 0 1 0
-9.043473 -10.770012 -18.459318 23.206120 0.872318 2.490547 0.042292 -0.015572 -365857.000000 0 1 0
-9.799573 -11.020712 -17.357218 22.776320 0.843982 2.437305 0.053078 -0.014634 139631.000000 0 1 0
-10.908873 -12.121712 -17.556018 23.961494 0.838012 2.393042 0.062860 -0.002690 838086.000000 0 1 0
-12.102073 -11.903312 -18.293818 24.956217 0.777119 2.393572 0.079519 -0.018309 378210.000000 0 1 0
-11.936473 -12.036412 -19.675918 25.971068 0.789567 2.430439 0.081100 -0.026260 -470419.000000 0 0 1
-13.234573 -11.839612 -20.507118 27.126965 0.729822 2.427928 0.084294 -0.030991 1538530.000000 0 0 1
-14.266673 -12.893212 -20.418418 28.047900 0.734872 2.386173 0.077965 -0.024625 793513.000000 0 0 1
-15.007073 -12.936112 -19.249118 27.623971 0.711420 2.341760 0.079293 -0.022482 -91981.600000 0 0 1
-16.202573 -13.977912 -19.320118 28.830060 0.711819 2.305191 0.090806 -0.013929 723009.000000 0 0 1
-15.828173 -15.321312 -19.356818 29.325076 0.769128 2.291718 0.074600 -0.017153 -290455.000000 0 0 1
-16.141773 -15.846012 -20.645318 30.624861 0.776152 2.310591 0.094199 -0.014471 331483.000000 0 0 1
-15.488773 -17.273212 -20.717318 31.104231 0.839811 2.299712 0.050543 -0.010317 16173.400000 0 0 1
-16.074473 -18.354312 -19.906418 31.488648 0.851521 2.255157 0.066619 -0.008255 219722.000000 0 0 1
-15.647173 -19.645512 -20.312118 32.301119 0.898208 2.250852 0.049876 -0.008489 -350085.000000 0 0 1
-16.492373 -20.774912 -19.727018 33.056778 0.899810 2.210256 0.069059 -0.014119 -402309.000000 0 0 1
-16.105073 -22.054612 -20.120718 33.920828 0.940065 2.205783 0.062347 -0.010376 187852.000000 0 0 1
-16.900873 -23.103212 -19.545118 34.661355 0.939216 2.169882 0.087633 -0.010748 103191.000000 0 0 1
-16.451773 -24.533812 -19.972518 35.657681 0.980093 2.165325 0.083394 -0.013446 -69841.700000 0 0 1
-16.855273 -24.883912 -21.285118 36.828868 0.975430 2.187007 0.069084 -0.012919 391860.000000 0 0 1
-16.307773 -26.187052 -21.649218 37.688112 1.013823 2.182705 0.076623 -0.014045 73881.900000 0 0 1
-16.589073 -26.527142 -23.114218 38.899276 1.011937 2.207076 0.084474 -0.014885 -297243.000000 0 0 1
-17.785173 -27.153772 -23.476518 40.059788 0.990928 2.196956 0.103096 -0.013932 -475266.000000 0 0 1
-17.816173 -28.550062 -23.242318 40.898990 1.012893 2.175217 0.103964 -0.007411 -108711.000000 0 0 1
-18.820273 -29.260652 -24.219218 42.390553 0.999221 2.178928 0.106247 -0.014629 109677.000000 0 0 1
-18.472273 -29.307462 -25.650348 43.105598 1.008400 2.208135 0.103241 -0.011181 182894.000000 0 0 1
-18.636673 -28.051322 -26.288368 42.723302 0.984380 2.233584 0.124760 -0.024994 2711.290000 0 0 1
-17.522573 -27.686472 -27.302288 42.649692 1.006541 2.265493 0.129001 -0.021272 -13341.100000 0 0 1
-17.580073 -28.361372 -28.543738 43.910948 1.015902 2.278429 0.132595 -0.009802 414224.000000 0 0 1
-16.361173 -28.148462 -29.241708 43.761871 1.044281 2.302584 0.093055 0.003683 319139.000000 0 0 1
-16.502273 -28.531202 -30.761008 45.084300 1.046415 2.321700 0.106167 -0.002983 14806.700000 0 0 1
-16.487673 -29.905642 -31.015888 46.132159 1.066938 2.308144 0.082581 0.001247 243498.000000 0 0 1
-17.002873 -30.089022 -32.331308 47.326107 1.056445 2.322878 0.094544 0.000241 86120.700000 0 0 1
-16.942173 -31.553712 -32.916128 48.643041 1.078042 2.314050 0.084943 -0.001739 990425.000000 0 0 1
-15.655773 -31.864612 -33.530018 48.833583 1.114115 2.327623 0.080221 -0.009189 1206870.000000 0 0 1
-15.809573 -32.995192 33.678253 49.727759 1.123969 0.826774 0.075310 -0.017331 -687115.000000 0 0 1
-14.505673 -33.315932 32.986120 49.075961 1.160152 0.833695 0.067226 -0.025368 -486661.000000 0 0 1
-13.592173 -33.983242 33.830390 49.840779 1.190318 0.824711 0.079749 -0.019165 -539951.000000 0 0 1
-12.617773 33.483102 33.105721 48.747462 -1.210413 0.824224 0.077636 -0.020119 -302200.000000 0 0 1
-11.639573 32.673383 -34.009708 48.576639 -1.228573 2.346369 0.095493 -0.022038 4434.790000 0 0 1
-10.906673 33.521221 -33.177508 48.408417 -1.256233 2.325903 0.103906 -0.013545 -543759.000000 0 0 1
-10.144773 32.865485 -32.231618 47.137392 -1.271399 2.323727 0.103548 -0.018726 144727.000000 0 0 1
-9.310573 33.893586 -31.353478 47.100983 -1.302709 2.299181 0.090482 -0.015637 292939.000000 0 0 1
-10.072073 -33.572902 -30.360198 46.371630 1.279334 2.284602 0.109458 -0.015467 -117884.000000 0 0 1
-9.440573 -32.394532 -29.845548 45.047607 1.287225 2.294992 0.097134 -0.011331 -308665.000000 0 0 1
-10.264173 -31.544712 -28.864918 43.972782 1.256216 2.286869 0.113606 -0.009278 -20989.000000 0 0 1
-10.428373 -31.982022 -27.508748 43.454941 1.255597 2.256271 0.150023 -0.020656 -48991.100000 0 0 1
-11.197873 -33.169552 -27.327978 44.412047 1.245215 2.233598 0.149476 -0.019410 -165031.000000 0 0 1
-11.463673 -33.451712 -25.835158 43.793701 1.240646 2.201767 0.150260 -0.024174 669957.000000 0 0 1
-10.301673 -33.583802 -24.986418 43.108205 1.273163 2.189060 0.149509 -0.042603 404035.000000 0 0 1
-10.640873 -33.723212 -23.644018 42.538486 1.265148 2.160153 0.152214 -0.049097 24453.800000 0 0 1
-9.423173 -33.543972 -22.708418 41.589259 1.296935 2.148398 0.142677 -0.057984 168670.000000 0 0 1
-8.693573 33.381054 -22.614018 41.246416 -1.316021 2.151086 0.125959 -0.053465 -168501.000000 0 0 1
-7.797073 33.344247 -21.515218 40.441783 -1.341088 2.131763 0.119583 -0.052276 -140546.000000 0 0 1
-7.057073 32.016806 -21.454918 39.181522 -1.353848 2.150263 0.106357 -0.056815 -345707.000000 0 0 1
-5.848773 31.998566 -22.190518 39.376840 -1.390010 2.169464 0.083196 -0.064613 199123.000000 0 0 1
-5.291673 30.668406 -22.154918 38.202007 -1.399934 2.189453 0.067465 -0.050429 -638151.000000 0 0 1
-3.878973 30.690236 -22.701718 38.370627 -1.445072 2.203892 0.072494 -0.053599 -831730.000000 0 0 1
-3.752073 30.768166 -24.129718 39.281057 -1.449449 2.232274 0.086558 -0.049141 83670.600000 0 0 1
-2.475273 31.289166 -24.433618 39.776131 -1.491851 2.232267 0.063227 -0.053850 -82863.300000 0 0 1
-2.442673 31.643046 -25.959248 41.001605 -1.493755 2.256383 0.077551 -0.029504 -541405.000000 0 0 1
-1.503373 32.619198 -26.274268 41.911924 -1.524740 2.248354 0.081437 -0.044867 -500508.000000 0 0 1
-1.940073 33.935549 -26.081128 42.844027 -1.513689 2.225275 0.074059 -0.039993 -742232.000000 0 0 1
-1.034973 -33.090812 -26.645178 42.497512 1.539530 2.248470 0.025103 -0.021233 521192.000000 0 0 1
0.196127 -32.957242 -25.909518 41.922803 -1.564845 2.237030 0.053897 -0.029989 701999.000000 0 0 1
1.106727 -32.091212 -26.594608 41.693452 -1.536323 2.262513 0.032698 -0.017450 717794.000000 0 0 1
2.302427 -31.694482 -25.657808 40.843169 -1.498279 2.250038 0.044841 -0.022346 190388.000000 0 0 1
1.999427 -30.793192 -24.588018 39.456166 -1.505957 2.243590 0.038624 -0.021606 -109505.000000 0 0 1
3.189927 -30.405142 -23.944118 38.832578 -1.466265 2.235211 0.029044 -0.014974 -434271.000000 0 0 1
3.215027 -29.613662 -22.633518 37.410981 -1.462654 2.220558 0.041636 -0.010301 -394641.000000 0 0 1
3.205527 -30.527872 -21.534718 37.496273 -1.466176 2.182565 0.055539 -0.006495 497466.000000 0 0 1
3.197827 -29.775852 -20.283018 36.169439 -1.463810 2.166121 0.058369 -0.001874 -562608.000000 0 0 1
3.265227 -30.638402 -18.928718 36.161717 -1.464624 2.121687 0.062431 0.006155 -884400.000000 0 0 1
2.101027 -31.288302 -18.577318 36.448442 -1.503746 2.105618 0.050600 0.003181 -598510.000000 0 0 1
1.819127 -32.584162 -19.055418 37.790816 -1.515026 2.099291 0.057386 0.004024 -251110.000000 0 0 1
2.479227 -33.765682 -18.273218 38.473086 -1.497503 2.065716 0.041062 -0.002568 -324362.000000 0 0 1
3.858127 -33.866382 -18.463818 38.765056 -1.457363 2.067239 0.051429 0.002401 -501221.000000 0 0 1
4.325627 33.054010 -17.882818 37.829536 1.440670 2.063172 0.060560 -0.008424 142173.000000 0 0 1
5.456927 32.359106 -18.658018 37.749324 1.403732 2.087781 0.082427 -0.006777 -436686.000000 0 0 1
6.702027 32.970468 -18.612818 38.450045 1.370255 2.076105 0.110497 -0.010127 -1116800.000000 0 0 1
7.608227 32.181292 -19.294318 38.285656 1.338641 2.098970 0.099838 -0.027051 49107.900000 0 0 1
9.048927 32.712950 -19.538918 39.163625 1.300928 2.093131 0.085690 -0.031455 128061.000000 0 0 1
9.820427 32.820811 -18.396918 38.885641 1.280061 2.063606 0.074923 -0.022038 -675477.000000 0 0 1
10.962327 33.592919 -18.641318 39.951916 1.255363 2.056232 0.066020 -0.011071 -325214.000000 0 0 1
11.881027 33.718746 -17.413518 39.766107 1.232024 2.024056 0.043522 -0.011817 -214097.000000 0 0 1
12.624027 32.581920 -17.060818 38.884690 1.201151 2.025008 0.048796 -0.018102 -422294.000000 0 0 1
13.453827 32.896158 -15.986118 38.970741 1.182574 1.993479 0.046113 -0.022498 -592093.000000 0 0 1
14.630827 31.937766 -15.842718 38.536655 1.141223 1.994465 0.052906 -0.021535 -193519.000000 0 0 1
14.393427 30.761786 -15.127618 37.179337 1.133157 1.989835 0.069824 -0.014110 -1015370.000000 0 0 1
15.616727 30.335626 -14.644618 37.129466 1.095380 1.976233 0.076694 -0.017028 -748781.000000 0 0 1
15.575527 29.026206 -13.817918 35.721878 1.078297 1.967976 0.087261 -0.017385 168096.000000 0 0 1
15.089327 29.086426 -12.445318 35.051304 1.092241 1.933775 0.076423 -0.017819 -597935.000000 0 0 1
13.705127 29.214576 -12.327418 34.543990 1.132157 1.935702 0.098093 -0.023949 -492195.000000 0 0 1
13.025327 27.930236 -11.771818 32.989892 1.134427 1.935670 0.096721 -0.015306 -246526.000000 0 0 1
12.361327 27.121596 -12.740418 32.414529 1.143151 1.974739 0.072572 -0.015936 56080.900000 0 0 1
12.035427 25.811136 -12.282518 31.014940 1.134480 1.977974 0.095830 -0.022210 149621.000000 0 0 1
11.150527 25.621186 -11.015718 30.035404 1.160312 1.946318 0.093395 -0.026228 -567482.000000 0 0 1
9.840027 26.072346 -11.231718 30.045713 1.209912 1.953922 0.087454 -0.020351 -522089.000000 0 0 1
9.170327 26.201396 -9.986618 29.501536 1.234127 1.916131 0.065419 -0.015942 2398.180000 0 0 1
8.223227 27.411186 -10.012818 30.319155 1.279344 1.907362 0.073304 -0.023264 329175.000000 0 0 1
8.921227 28.606596 -10.340418 31.699368 1.268495 1.903080 0.081089 -0.026545 745882.000000 0 0 1
7.934727 29.665416 -10.291618 32.386945 1.309440 1.894174 0.066565 -0.021414 936248.000000 0 0 1
8.508027 31.078066 -10.585718 33.915928 1.303580 1.888216 0.094450 -0.029504 -456016.000000 0 0 1
9.309927 31.644246 -9.555618 34.341563 1.284664 1.852770 0.082586 -0.030317 -84095.500000 0 0 1
9.798127 32.951886 -9.808918 35.749755 1.281776 1.848738 0.101573 -0.029517 550992.000000 0 0 1
10.787127 33.020439 -11.053918 36.454089 1.255045 1.878875 0.086187 -0.021360 -265539.000000 0 0 1
12.107227 32.618521 -10.780618 36.424918 1.215382 1.871265 0.084138 -0.024807 -433188.000000 0 0 1
13.007027 33.073343 -11.719418 37.421565 1.196098 1.889328 0.090904 -0.024034 -882250.000000 0 0 1
14.483227 32.833306 -11.481118 37.677659 1.155357 1.880440 0.082900 -0.024732 -544466.000000 0 0 1
15.023927 33.539632 -10.377618 38.187960 1.149652 1.846008 0.080294 -0.025086 313241.000000 0 0 1
16.434427 33.624437 -10.562218 38.887706 1.116178 1.845860 0.070379 -0.017755 377728.000000 0 0 1
17.121027 -33.469912 -9.649618 38.813396 -1.097963 1.822047 0.078424 -0.026266 -121724.000000 0 0 1
17.128627 -33.841682 -8.303218 38.827732 -1.102249 1.786308 0.072314 -0.023843 33009.500000 0 0 1
17.698427 -32.919392 -7.417418 38.104315 -1.077500 1.766708 0.066496 -0.021820 -598978.000000 0 0 1
18.011927 -33.640892 -6.082918 38.641183 -1.079218 1.728874 0.062247 -0.015009 728143.000000 0 0 1
19.012227 33.449359 -6.110518 38.957193 1.053945 1.728299 0.037960 -0.013614 414309.000000 0 0 1
20.355527 33.883788 -6.206218 40.012195 1.029829 1.726533 0.046186 -0.012656 -432451.000000 0 0 1
21.255127 32.831178 -6.884918 39.712326 0.996246 1.745047 0.032369 -0.000618 -115157.000000 0 0 1
21.399527 31.567916 -6.247918 38.645952 0.975065 1.733180 0.032588 0.007028 -190985.000000 0 0 1
22.165227 31.598766 -5.073118 38.929627 0.959092 1.701483 0.029806 0.011258 -612709.000000 0 0 1
22.563727 30.174326 -4.572018 37.954119 0.928718 1.691551 0.020553 0.008080 -439329.000000 0 0 1
23.475627 29.565406 -5.418618 38.138953 0.899710 1.713354 0.030186 0.012267 -398674.000000 0 0 1
23.780227 28.263546 -5.010018 37.275026 0.871331 1.705611 0.036392 0.011663 -43592.100000 0 0 1
24.624527 27.516816 -6.062318 37.420506 0.840812 1.733519 0.030266 0.016986 569279.000000 0 0 1
25.990027 27.934006 -6.205718 38.656192 0.821433 1.732030 0.046070 0.009392 -20131.800000 0 0 1
26.769727 27.080676 -6.920018 38.702300 0.791172 1.750564 0.032931 0.007519 -266930.000000 0 0 1
27.529827 26.083986 -5.991518 38.394844 0.758437 1.727487 0.040226 0.009856 -569473.000000 0 0 1
28.676627 26.594836 -5.358718 39.475944 0.747751 1.706963 0.052230 0.004569 -83770.400000 0 0 1
29.340627 25.586256 -4.616418 39.202554 0.717152 1.688828 0.057113 0.004962 -1372290.000000 0 0 1
30.603627 26.077326 -4.043418 40.409877 0.705711 1.671024 0.058359 0.003701 -1511960.000000 0 0 1
30.424727 26.980536 -2.985818 40.774115 0.725472 1.644090 0.075107 -0.002880 -105057.000000 0 0 1
31.631327 27.246906 -2.319118 41.812834 0.711069 1.626289 0.094549 -0.022929 -103714.000000 0 0 1
31.566927 28.539946 -1.463018 42.580980 0.735081 1.605162 0.094572 -0.000948 102622.000000 0 0 1
31.456927 29.694456 -2.265218 43.317782 0.756585 1.623113 0.076989 0.000682 -32605.700000 0 0 1
31.200927 30.828166 -1.448618 43.885900 0.779389 1.603811 0.093607 0.002601 125477.000000 0 0 1
33.646339 22.191388 19.074938 44.591335 0.583058 1.128770 0.150520 -0.029239 -231370.000000 0 0 1
33.857909 22.073988 20.451238 45.297595 0.577752 1.102366 0.127821 -0.036088 -222691.000000 0 0 1
34.589959 23.146088 20.938638 46.590055 0.589724 1.104677 0.131057 -0.022183 -138536.000000 0 0 1
34.630559 23.271688 22.450638 47.380146 0.591685 1.077149 0.086195 -0.014558 28564.200000 0 0 1
33.520019 23.947488 22.995738 47.179210 0.620341 1.061672 0.086577 -0.018689 22688.800000 0 0 1
33.640849 24.065488 24.419178 48.032809 0.620964 1.037488 0.087934 -0.021881 525971.000000 0 0 1
32.357779 24.604788 25.157588 47.805081 0.650123 1.016608 0.076859 -0.018742 689374.000000 0 0 1
32.146179 25.988588 24.951618 48.284229 0.679872 1.027728 0.048210 -0.013481 286510.000000 0 0 1
30.914109 26.355488 25.552198 47.991757 0.705966 1.009329 0.035849 -0.006958 174386.000000 0 0 1
30.695429 27.860588 25.738948 48.794623 0.737023 1.015146 0.020381 -0.000683 -196208.000000 0 0 1
30.464929 28.618988 24.574348 48.487699 0.754166 1.039309 0.015356 0.007644 237805.000000 0 0 1
30.263369 29.934688 24.987138 49.359033 0.779938 1.039986 0.008728 0.004444 -102636.000000 0 0 1
30.168949 30.773388 23.688388 49.176281 0.795316 1.068199 0.022422 0.003003 879224.000000 0 0 1
31.502649 31.089488 23.239848 49.990636 0.778797 1.087293 0.014141 -0.004235 881470.000000 0 0 1
31.515449 31.845988 22.019038 49.922225 0.790615 1.114009 0.022563 0.003300 -514886.000000 0 0 1
32.895379 32.354388 21.668038 50.974663 0.777107 1.131752 0.025526 -0.012207 -418437.000000 0 0 1
33.484209 33.389188 22.441838 52.341821 0.783977 1.127682 0.031422 0.003255 271357.000000 0 0 1
34.883319 33.423188 22.201138 53.168092 0.764025 1.140032 0.034865 0.006317 237081.000000 0 0 1
35.566529 -33.556630 22.922838 54.004463 -0.756329 1.132429 0.047529 0.005855 -196296.000000 0 0 1
35.038769 -32.322630 22.544038 52.732357 -0.745098 1.129051 0.036893 0.006417 120729.000000 0 0 1
35.461249 -31.425930 23.556358 52.914944 -0.725141 1.109428 0.050306 0.001202 -529833.000000 0 0 1
34.934739 -29.967230 23.330428 51.602130 -0.709008 1.101654 0.058602 0.000968 1653050.000000 0 0 1
33.516029 -29.764630 23.586738 50.651670 -0.726186 1.086410 0.053867 0.003715 1650430.000000 0 0 1
32.562879 -30.191530 22.632438 49.840715 -0.747628 1.099440 0.048962 0.006298 -196084.000000 0 0 1
31.827579 -31.516430 22.883838 50.298611 -0.780486 1.098469 0.037184 0.011525 -76206.800000 0 0 1
30.673669 -31.449630 23.717758 49.924797 -0.797888 1.075753 0.045187 -0.002065 447739.000000 0 0 1
30.039559 -32.724430 23.812108 50.401190 -0.828149 1.078726 0.034070 0.001461 112631.000000 0 0 1
29.166199 -32.908430 25.067798 50.616465 -0.845611 1.052674 0.021927 -0.003945 -39845.100000 0 0 1
28.910919 33.856488 25.296248 51.205500 0.864028 1.054096 0.017814 -0.009268 105444.000000 0 0 1
28.187079 33.662288 26.503348 51.284389 0.873693 1.027697 0.014650 -0.010792 -378854.000000 0 0 1
27.856179 32.140188 26.722108 50.229767 0.856682 1.009839 0.011416 -0.007318 595824.000000 0 0 1
27.030579 31.469288 25.742148 48.822398 0.861129 1.015422 0.012246 -0.005384 302088.000000 0 0 1
25.678379 31.882588 25.788338 48.383024 0.892769 1.008650 0.015106 -0.010042 -171315.000000 0 0 1
24.981579 31.683488 24.369888 47.136124 0.903124 1.027441 0.047605 -0.012927 185092.000000 0 0 1
25.313079 32.561488 23.286268 47.362990 0.909993 1.056807 0.057337 -0.015141 1001030.000000 0 0 1
26.632479 32.383288 22.721438 47.688888 0.882537 1.074182 0.038910 -0.003485 838788.000000 0 0 1
26.828579 33.347788 21.548538 47.918547 0.893312 1.104377 0.045095 -0.007647 460738.000000 0 0 1
28.178379 33.390188 21.085438 48.513106 0.869847 1.121165 0.048303 -0.007950 322080.000000 0 0 1
28.381379 34.061088 19.859938 48.580629 0.876108 1.149654 0.045826 -0.009464 520686.000000 0 0 1
29.836629 -33.727530 19.401438 49.032505 -0.846534 1.163982 0.055302 -0.014782 714374.000000 0 0 1
30.500899 33.415488 18.640538 48.932294 0.830967 1.179978 0.059291 -0.009552 -60012.600000 0 0 1
31.515729 33.857488 17.764338 49.549394 0.821204 1.204117 0.063946 -0.001713 -35446.000000 0 0 1
32.346519 32.647388 17.279838 49.099308 0.790027 1.211157 0.055816 -0.003636 -293766.000000 0 0 1
33.244899 32.158288 18.220038 49.712661 0.768786 1.195544 0.053974 -0.002637 -374349.000000 0 0 1
34.016129 31.115288 17.690138 49.378125 0.740889 1.204394 0.077615 -0.004234 450781.000000 0 0 1
34.900939 30.371188 18.783038 49.932826 0.716111 1.185141 0.076039 -0.011897 328993.000000 0 0 1
35.923609 31.173588 19.306138 51.332497 0.714723 1.185213 0.081315 -0.009653 -84101.500000 0 0 1
36.845569 30.458088 20.085238 51.852752 0.690776 1.173039 0.102237 -0.012545 1358470.000000 0 0 1
-35.847503 31.247888 20.645138 51.842991 -0.716952 1.161216 0.112344 -0.015543 978149.000000 0 0 1
-34.978043 31.732388 19.648738 51.151548 -0.736784 1.176533 0.114471 -0.018755 287982.000000 0 0 1
-33.796923 32.309788 20.219538 50.940987 -0.762906 1.162637 0.100553 -0.010699 443745.000000 0 0 1
-33.812363 33.743188 20.881838 52.133768 -0.784374 1.158686 0.087668 -0.010980 -470159.000000 0 0 1
-34.460649 33.768088 22.112438 53.073346 -0.775248 1.141051 0.090486 -0.009371 88774.500000 0 0 1
-34.088353 -33.171330 22.790638 52.742451 0.771765 1.123963 0.079661 -0.007629 51034.600000 0 0 1
-34.295519 -33.299030 24.316348 53.631081 0.770657 1.100220 0.087803 -0.017991 725997.000000 0 0 1
-35.603694 -33.614130 24.814628 54.893520 0.756663 1.101734 0.082032 -0.015623 515370.000000 0 0 1
-35.448335 -34.055430 26.142908 55.675923 0.765360 1.082010 0.083580 -0.016904 605219.000000 0 0 1
-36.804323 33.658488 26.796778 56.617306 -0.740782 1.077767 0.052977 -0.018460 464791.000000 0 0 1
-36.763833 33.112588 28.087028 56.893796 -0.733193 1.054486 0.066828 -0.022461 -963290.000000 0 0 1
35.963899 33.023588 28.694378 56.633266 0.742803 1.039478 0.058144 -0.028120 -683199.000000 0 0 1
35.912369 31.938488 29.803978 56.551237 0.726897 1.015699 0.056256 -0.018950 -210982.000000 0 0 1
35.744579 30.593288 29.452668 55.507512 0.707901 1.011480 0.035840 -0.022109 -163958.000000 0 0 1
36.855829 30.017788 28.806528 55.580894 0.683499 1.025956 0.041663 -0.021220 -337588.000000 0 0 1
36.675839 28.510088 28.522348 54.511161 0.660779 1.020149 0.044849 -0.012511 369485.000000 0 0 1
35.621139 28.302988 27.542588 53.183822 0.671413 1.026431 0.048026 -0.012197 783979.000000 0 0 1
35.501999 26.945788 27.102228 52.163188 0.649232 1.024453 0.061044 -0.019211 -98689.100000 0 0 1
35.124509 25.800288 28.105208 51.858353 0.633532 0.998027 0.050746 -0.026459 -101783.000000 0 0 1
36.127579 25.423788 29.085458 52.891728 0.613220 0.988545 0.033426 -0.019140 606500.000000 0 0 1
35.977699 24.013388 29.450458 52.329410 0.588546 0.973039 0.032444 -0.011484 317625.000000 0 0 1
36.708169 23.197188 28.316158 51.840178 0.563571 0.992951 0.056078 -0.020478 -377246.000000 0 0 1
36.029729 23.251388 27.092898 50.722713 0.573092 1.007309 0.052502 -0.018133 -58261.100000 0 0 1
36.641789 22.480788 26.056898 50.268962 0.550308 1.025876 0.059909 -0.032810 -378105.000000 0 0 1
36.308709 20.978588 26.075338 49.379619 0.523924 1.014483 0.058166 -0.032663 -1079920.000000 0 0 1
34.977049 20.839088 25.678458 48.135691 0.537321 1.008111 0.083068 -0.014288 -279364.000000 0 0 1
34.533989 19.483788 25.822438 47.318207 0.513674 0.993550 0.082373 -0.008829 -364280.000000 0 0 1
34.088689 19.173188 27.305198 47.699305 0.512352 0.961312 0.058269 0.006690 -39046.200000 0 0 1
32.833789 19.627588 27.811968 47.294878 0.538790 0.942145 0.058472 0.002237 500917.000000 0 0 1
32.758099 21.034088 27.914188 47.903318 0.570804 0.948726 0.065542 -0.019682 -472975.000000 0 0 1
31.844269 21.653388 29.031818 48.226271 0.597161 0.924803 0.066884 -0.020715 459065.000000 0 0 1
30.432899 21.526588 28.893638 47.163521 0.615639 0.911416 0.079591 -0.025668 711191.000000 0 0 1
29.775059 22.398888 27.972278 46.590908 0.644952 0.926819 0.075697 -0.022016 -195927.000000 0 0 1
29.808849 23.900688 28.420118 47.618416 0.675837 0.931251 0.068728 -0.019920 -693961.000000 0 0 1
31.014529 24.623488 28.263168 48.652070 0.671031 0.950933 0.070111 -0.020479 -68888.000000 0 0 1
31.221269 25.711988 29.168218 49.866411 0.688931 0.946006 0.054314 -0.018054 39553.200000 0 0 1
31.504979 25.464688 30.676158 50.813785 0.679766 0.922665 0.049682 -0.023389 -590566.000000 0 0 1
32.720939 24.800988 30.796818 51.324389 0.648573 0.927242 0.040099 -0.021268 -836563.000000 0 0 1
33.148659 24.727488 32.118181 52.362772 0.640909 0.910465 0.054179 -0.017720 -338594.000000 0 0 1
32.589869 23.681988 33.090696 52.133773 0.628400 0.883142 0.062002 -0.013220 -439718.000000 0 0 1
33.171549 23.656788 -33.652138 52.843748 0.619507 2.261168 0.051078 -0.018914 -52177.400000 0 0 1
32.529769 22.730788 -32.822138 51.499198 0.609899 2.261829 0.040610 -0.026768 -333469.000000 0 0 1
33.261449 22.460888 -31.465268 50.998810 0.593944 2.235696 0.040586 -0.030406 -32134.400000 0 0 1
32.881759 23.504388 -30.553138 50.667155 0.620600 2.218074 0.039825 -0.037086 404289.000000 0 0 1
33.292969 23.247188 -29.234468 50.035065 0.609558 2.194788 0.062962 -0.047920 -943531.000000 0 0 1
34.596069 23.931988 -28.893298 51.033820 0.605171 2.172636 0.079049 -0.019473 -551615.000000 0 0 1
35.323139 23.218288 -27.929298 50.664176 0.581498 2.154674 0.080777 -0.022574 -684337.000000 0 0 1
36.458429 23.837988 -27.420318 51.471746 0.579070 2.132614 0.106902 -0.018137 -661638.000000 0 0 1
-36.879353 23.142688 -26.288558 50.860190 -0.560412 2.113997 0.099972 -0.015904 -258883.000000 0 0 1
-35.967958 22.173188 -26.794638 50.032958 -0.552442 2.135943 0.070219 -0.013941 176902.000000 0 0 1
-36.239523 20.924488 -26.194988 49.369167 -0.523632 2.130098 0.049120 -0.010820 374284.000000 0 0 1
-35.115565 19.856588 -26.465788 48.247538 -0.514638 2.151415 0.061061 -0.006669 932402.000000 0 0 1
-33.845483 20.208188 -25.921568 47.178547 -0.538264 2.152485 0.069469 -0.014649 377784.000000 0 0 1
-32.925363 19.111888 -25.964438 46.081404 -0.525929 2.169349 0.044181 -0.015204 609003.000000 0 0 1
-31.597673 19.527488 -25.275088 44.928452 -0.553553 2.168279 0.041032 -0.018058 226533.000000 0 0 1
-31.855403 19.464488 -23.877918 44.314647 -0.548488 2.139840 0.033334 -0.014592 119571.000000 0 0 1
-30.659503 19.378988 -23.145518 43.026333 -0.563668 2.138786 0.033154 -0.008237 -20233.700000 0 0 1
-30.952153 19.745888 -21.656218 42.625434 -0.567857 2.103726 0.026979 -0.009339 505966.000000 0 0 1
-31.945363 18.873788 -21.118618 42.693350 -0.533638 2.088238 0.006977 -0.007147 211479.000000 0 0 1
-32.601893 19.358388 -19.984618 42.860420 -0.535834 2.055868 0.004006 -0.000852 -683051.000000 0 0 1
-33.579823 18.316788 -19.402318 42.890082 -0.499359 2.040221 -0.017165 0.003061 137389.000000 0 0 1
-34.366968 18.686588 -18.285718 43.181530 -0.498022 2.008059 -0.002716 -0.003694 930854.000000 0 0 1
-35.335215 19.753988 -18.505018 44.511045 -0.509761 1.999553 0.012488 -0.002734 553043.000000 0 0 1
-36.401013 19.858788 -17.334418 44.943156 -0.499425 1.966759 0.022388 -0.004584 494748.000000 0 0 1
-35.889226 20.482488 -16.153118 44.367692 -0.518607 1.943435 0.020609 -0.014031 295496.000000 0 0 1
-36.844733 20.326488 -15.134718 44.718678 -0.504132 1.916058 0.028773 -0.005602 -336611.000000 0 0 1
-36.573413 21.317088 -13.981518 44.581561 -0.527719 1.889796 0.045319 -0.009698 -43379.800000 0 0 1
-36.898633 22.700988 -14.275818 45.614065 -0.551540 1.889114 0.061362 -0.017388 728345.000000 0 0 1
35.704679 23.002488 -13.993418 44.718613 0.572317 1.889064 0.064326 -0.019471 564089.000000 0 0 1
35.230399 24.452988 -14.350418 45.222386 0.606747 1.893709 0.067327 -0.026731 16084.300000 0 0 1
35.612899 25.417488 -13.376318 45.752084 0.619872 1.867496 0.064100 -0.021851 11312.500000 0 0 1
35.626809 26.736888 -13.849618 46.647000 0.643802 1.872244 0.057392 -0.009939 -1110120.000000 0 0 1
36.872009 27.234588 -14.514718 48.082688 0.636181 1.877450 0.079646 -0.018770 -903166.000000 0 0 1
-36.984443 26.985188 -15.886918 48.460742 -0.630340 1.904803 0.086825 -0.017776 199210.000000 0 0 1
-35.866930 27.725188 -16.374518 48.200078 -0.658060 1.917415 0.089425 -0.026437 -138728.000000 0 0 1
-35.441176 27.413288 -17.850618 48.230798 -0.658364 1.949922 0.081964 -0.029018 -124769.000000 0 0 1
-34.806929 26.186088 -18.095718 47.166604 -0.644987 1.964548 0.072993 -0.032293 17404.700000 0 0 1
-33.415533 26.228888 -17.846618 46.076612 -0.665485 1.968525 0.063336 -0.021685 176014.000000 0 0 1
-32.676433 24.893888 -18.294318 44.968178 -0.651029 1.989775 0.048976 -0.025772 12976.000000 0 0 1
-32.479273 24.850688 -19.723418 45.403448 -0.653111 2.020172 0.039695 -0.017538 110164.000000 0 0 1
-31.914863 23.609888 -20.018418 44.460346 -0.636926 2.037845 0.022202 -0.013160 -317619.000000 0 0 1
-31.590183 23.371188 -21.531918 44.808209 -0.636957 2.072061 0.017832 -0.004710 105167.000000 0 0 1
-32.751353 23.191088 -22.322518 45.921373 -0.616139 2.078421 0.050650 -0.006750 429772.000000 0 0 1
-32.408673 23.078088 -23.707218 46.313631 -0.618798 2.108173 0.059252 -0.008848 573699.000000 0 0 1
-33.480493 23.825488 -24.600118 47.893247 -0.618484 2.110224 0.038673 0.001568 437568.000000 0 0 1
-33.318433 25.214188 -24.594918 48.484876 -0.647816 2.102810 0.022787 0.008442 -239197.000000 0 0 1
-34.102055 25.841588 -25.555348 49.837873 -0.648457 2.109204 0.040690 -0.005947 -293844.000000 0 0 1
-33.710463 27.362088 -25.823828 50.516822 -0.681822 2.107368 0.022440 0.009160 705996.000000 0 0 1
-32.550963 27.477388 -26.670228 50.258065 -0.701079 2.130182 -0.001381 0.005866 474561.000000 0 0 1
-32.117863 28.887388 -26.702428 50.784426 -0.732494 2.124451 0.012836 -0.002154 1317020.000000 0 0 1
-30.830963 29.054388 -27.658068 50.593225 -0.755741 2.149185 0.020251 0.002245 419608.000000 0 0 1
-29.739183 28.537288 -26.962878 49.252336 -0.764777 2.150103 -0.004023 0.008404 277860.000000 0 0 1
-28.511853 28.551388 -27.769338 48.982075 -0.786091 2.173569 0.012522 0.006532 1533610.000000 0 0 1
-27.656233 29.819888 -27.526748 49.110231 -0.823025 2.165797 0.005850 -0.001109 -716631.000000 0 0 1
-27.137973 29.866988 -26.174948 48.100254 -0.833235 2.146202 0.014344 -0.003616 -88213.100000 0 0 1
-28.011983 30.166288 -25.098548 48.214243 -0.822411 2.118306 0.004629 0.004137 -239809.000000 0 0 1
-27.280593 30.529088 -23.776018 47.345063 -0.841532 2.096921 -0.008706 -0.003733 285399.000000 0 0 1
-26.596743 31.767988 -23.776218 47.769240 -0.873770 2.091777 -0.004492 0.003176 34894.700000 0 0 1
-25.825273 32.079688 -22.655518 47.003442 -0.892993 2.073729 0.018191 0.013551 -186701.000000 0 0 1
-25.300833 33.519888 -22.708918 47.743167 -0.924230 2.066496 0.019338 0.019026 1092490.000000 0 0 1
-26.370313 -33.571130 -22.702318 48.350899 0.904956 2.059558 0.005806 0.010464 1276340.000000 0 0 1
-25.851653 -32.348530 -23.140318 47.436375 0.896568 2.080385 0.023799 0.003805 72007.300000 0 0 1
17.323927 8.679488 -25.423238 31.965497 0.464457 2.490354 0.067671 -0.024216 217027.000000 0 0 1
16.016727 8.118088 -25.336178 31.054160 0.469113 2.525030 0.055972 -0.029947 560519.000000 0 0 1
16.123427 6.686088 -25.248618 30.694648 0.393098 2.536719 0.058276 -0.039982 -401079.000000 0 0 1
14.758627 6.030488 -25.192678 29.813670 0.387905 2.577369 0.084570 -0.041606 -373463.000000 0 0 1
14.040527 6.144288 -23.990518 28.468116 0.412504 2.573104 0.087856 -0.046428 -179068.000000 0 0 1
12.685027 5.844388 -24.151818 27.899411 0.431742 2.617293 0.071229 -0.036373 -85325.600000 0 0 1
11.716427 5.985388 -22.936518 26.442076 0.472293 2.620800 0.071089 -0.041720 170406.000000 0 0 1
11.955827 5.085988 -21.786418 25.366456 0.402208 2.603850 0.071241 -0.031094 81789.200000 0 0 1
11.160627 5.357488 -20.645818 24.073057 0.447548 2.601443 0.066139 -0.027022 -460641.000000 0 1 0
11.564527 6.615188 -19.853818 23.909686 0.519595 2.550563 0.070580 -0.035764 -170104.000000 0 1 0
11.071827 6.632688 -18.520318 22.573881 0.539728 2.532961 0.052693 -0.027631 -308217.000000 0 1 0
11.175627 7.899088 -17.953518 22.574744 0.615284 2.490286 0.054493 -0.029672 953020.000000 0 1 0
12.659627 8.251588 -17.527018 23.141980 0.577642 2.430071 0.047833 -0.026040 1043830.000000 0 1 0
13.201827 7.591188 -16.390218 22.373056 0.521842 2.392912 0.061676 -0.030798 -512197.000000 0 1 0
14.555327 7.874588 -16.307218 23.233425 0.495915 2.348838 0.050221 -0.024902 -1151680.000000 0 1 0
15.058127 7.570288 -14.883718 22.485140 0.465835 2.294195 0.053850 -0.032446 -247785.000000 0 1 0
16.386227 8.051988 -14.788218 23.495411 0.456734 2.251588 0.043780 -0.035684 362064.000000 0 1 0
16.803727 8.146388 -13.457918 23.018350 0.451411 2.195258 0.029251 -0.030238 -268725.000000 0 1 0
17.626327 9.407488 -13.144118 23.915603 0.490257 2.152687 0.072439 -0.041255 -513932.000000 0 1 0
16.946927 10.625888 -13.163618 23.945536 0.560043 2.152839 0.101681 -0.028419 192671.000000 0 1 0
17.713427 11.633988 -12.529418 24.619129 0.581133 2.104738 0.139888 -0.053840 -599648.000000 0 1 0
16.894927 12.833588 -11.983218 24.366720 0.649624 2.084936 0.157333 -0.047721 -450580.000000 0 1 0
15.940627 12.491088 -10.989218 23.041133 0.664661 2.067965 0.173706 -0.036778 650860.000000 0 1 0
15.294927 13.521588 -10.290918 22.862002 0.723937 2.037709 0.093137 -0.032389 -91224.500000 0 1 0
14.451127 14.574188 -11.050018 23.309761 0.789638 2.064682 0.071348 -0.036129 -611669.000000 0 1 0
13.529527 15.233688 -10.201418 22.785572 0.844577 2.035003 0.108470 -0.038925 -93090.300000 0 1 0
13.347027 16.592788 -10.456218 23.723327 0.893386 2.027238 0.112963 -0.039647 65714.900000 0 1 0
12.331227 17.250488 -9.496818 23.234200 0.950184 1.991873 0.107318 -0.032540 13421.100000 0 1 0
12.776027 17.128088 -8.157818 22.872435 0.929917 1.935493 0.098738 -0.027669 612073.000000 0 1 0
11.785527 17.402688 -7.144618 22.199049 0.975520 1.898472 0.089002 -0.023971 598417.000000 0 1 0
12.301827 17.160988 -5.655318 21.859028 0.948852 1.832491 0.083689 -0.018924 550043.000000 0 1 0
13.323927 18.056788 -5.239418 23.044004 0.935091 1.800168 0.104001 -0.023387 592022.000000 0 1 0
13.908127 17.732688 -3.942918 22.878611 0.905689 1.744002 0.112522 -0.016025 -306905.000000 0 1 0
15.076427 18.652388 -3.591718 24.250993 0.891025 1.719449 0.107008 -0.025377 -162892.000000 0 1 0
16.207527 18.473288 -4.434818 24.972263 0.850637 1.749333 0.112607 -0.040702 107849.000000 0 1 0
16.903127 19.680188 -4.536218 26.336340 0.861163 1.743901 0.081647 -0.035370 -1243260.000000 0 0 1
18.155227 19.644988 -5.371618 27.283550 0.824789 1.768972 0.076524 -0.025688 -568008.000000 0 0 1
19.255827 18.976988 -4.754018 27.450203 0.778105 1.744861 0.088386 -0.039612 180570.000000 0 0 1
19.322227 17.674188 -5.215318 26.700654 0.740882 1.767386 0.106257 -0.040032 -263509.000000 0 0 1
20.472727 16.815988 -4.598218 26.889656 0.687645 1.742644 0.116027 -0.040973 406326.000000 0 0 1
21.756627 17.296788 -4.977718 28.236632 0.671692 1.748008 0.091345 -0.043762 26189.800000 0 0 1
22.685427 16.388288 -4.430018 28.334249 0.625612 1.727789 0.088832 -0.043819 -9112.170000 0 0 1
24.188427 16.621988 -4.705518 29.723936 0.602075 1.729772 0.091756 -0.042980 522293.000000 0 0 1
24.853427 17.517388 -3.785918 30.641229 0.613959 1.694669 0.102474 -0.040205 808669.000000 0 0 1
26.273527 17.430788 -3.835318 31.762246 0.585762 1.691843 0.086777 -0.029009 410617.000000 0 0 1
27.016427 18.626288 -3.203918 32.971064 0.603606 1.668124 0.103406 -0.032895 -291991.000000 0 0 1
27.106027 19.818888 -3.987818 33.814608 0.631335 1.689003 0.104781 -0.030768 183014.000000 0 0 1
27.345527 20.940488 -3.109218 34.582498 0.653520 1.660825 0.119929 -0.010875 -148052.000000 0 0 1
27.280327 22.333388 -3.800718 35.460428 0.686018 1.678185 0.081396 -0.008568 26443.900000 0 0 1
28.352327 22.693688 -4.647618 36.612270 0.674995 1.698081 0.073411 0.000844 73391.300000 0 0 1
28.459127 21.935288 -5.838718 36.402876 0.656659 1.731884 0.082606 -0.005053 55682.100000 0 0 1
29.449927 22.411888 -6.933818 37.651943 0.650515 1.756009 0.065814 -0.002802 173691.000000 0 0 1
28.924227 23.516188 -7.655918 38.055684 0.682634 1.773355 0.056822 -0.002228 1101970.000000 0 0 1
29.978627 24.210188 -8.366218 39.431522 0.679347 1.784592 0.041527 0.002715 612205.000000 0 0 1
30.849027 23.600788 -9.468418 39.978877 0.653058 1.809904 0.036508 -0.008050 -74140.900000 0 0 1
30.237027 23.295188 -10.711418 39.644395 0.656442 1.844384 0.033956 -0.003250 -81149.600000 0 0 1
31.200727 22.734788 -11.566518 40.300624 0.629704 1.861896 0.024227 -0.012914 -89131.400000 0 0 1
30.629427 22.355988 -12.929218 40.063908 0.630503 1.899393 0.038935 -0.007784 70152.100000 0 0 1
30.547027 23.468988 -13.819518 40.925461 0.655105 1.915242 0.042219 -0.014813 -82300.700000 0 0 1
30.296027 23.066488 -15.136118 40.975776 0.650738 1.949151 0.047593 -0.019897 -94363.400000 0 0 1
30.574527 24.121688 -16.274418 42.207988 0.667965 1.966629 0.041414 -0.018920 492533.000000 0 0 1
31.954227 24.499988 -16.390318 43.473723 0.654117 1.957369 0.046319 -0.016896 436974.000000 0 0 1
32.211227 25.050988 -17.689518 44.475097 0.661001 1.979848 0.062108 -0.023921 725694.000000 0 0 1
33.697427 25.482688 -17.925418 45.893405 0.647470 1.972067 0.071070 -0.026663 401391.000000 0 0 1
34.582827 24.427588 -17.983818 46.001051 0.614975 1.972453 0.076683 -0.015489 -933905.000000 0 0 1
35.895327 24.807288 -18.278018 47.307103 0.604728 1.967488 0.084604 -0.025989 57071.300000 0 0 1
-36.981625 23.686388 -18.145918 47.517996 -0.569661 1.962620 0.073371 -0.028368 454806.000000 0 0 1
-36.929525 22.848488 -19.313818 47.527537 -0.554060 1.989275 0.063688 -0.013154 -222826.000000 0 0 1
-35.908725 23.259688 -20.161118 47.296092 -0.574788 2.011167 0.083588 -0.014549 -496340.000000 0 0 1
-35.901025 22.402388 -21.427218 47.432860 -0.557883 2.039509 0.080369 -0.018965 95389.100000 0 0 1
-35.731925 21.012788 -21.269018 46.590545 -0.531599 2.044864 0.041083 -0.009930 97968.600000 0 0 1
-35.795225 20.332088 -22.510518 46.919243 -0.516566 2.071191 0.037803 -0.013164 167569.000000 0 0 1
-35.494525 18.825088 -22.435618 46.017412 -0.487644 2.080074 0.018806 -0.010574 -93778.800000 0 0 1
-36.602125 18.075688 -22.025418 46.384966 -0.458710 2.065578 0.020935 -0.013198 -160985.000000 0 0 1
-36.276125 16.733888 -22.206518 45.706779 -0.432205 2.078129 0.012791 -0.013046 576855.000000 0 0 1
36.479227 15.747688 -22.144418 45.487349 0.407523 2.079249 0.027328 -0.010826 973661.000000 0 0 1
35.501827 15.788388 -23.212318 45.259967 0.418455 2.109317 0.065943 -0.017326 629092.000000 0 0 1
34.387527 14.964588 -23.000918 43.994126 0.410457 2.120950 0.087644 -0.004799 -283800.000000 0 0 1
34.583627 13.532388 -23.523018 43.960041 0.372979 2.135422 0.046488 -0.009688 -506547.000000 0 0 1
34.837027 13.522188 -24.888018 44.898569 0.370254 2.158338 0.048500 0.000823 296514.000000 0 0 1
35.257827 12.201188 -25.292068 45.074073 0.333157 2.166537 0.039118 0.002047 -422923.000000 0 0 1
35.073727 11.962688 -26.781228 45.722056 0.328700 2.196589 0.054155 -0.001113 -200987.000000 0 0 1
33.728027 11.916988 -27.191058 44.932706 0.339635 2.220751 0.042658 0.000446 -208889.000000 0 0 1
33.215527 13.085988 -27.767108 45.227499 0.375299 2.231843 0.050141 0.000508 -117659.000000 0 0 1
33.501027 13.253288 -29.308318 46.442933 0.376715 2.253716 0.053480 -0.003563 -955297.000000 0 0 1
34.721527 13.869288 -29.473368 47.609044 0.380027 2.238355 0.052736 -0.002828 -1003050.000000 0 0 1
35.001627 13.959088 -30.837278 48.691968 0.379482 2.256624 0.057949 -0.005641 -278490.000000 0 0 1
36.464427 14.340588 -31.214548 50.096456 0.374697 2.243482 0.084114 -0.016319 1242720.000000 0 0 1
-36.481725 13.372588 -30.861618 49.620377 -0.351347 2.242033 0.071433 -0.011777 647230.000000 0 0 1
-36.205425 13.213088 -29.453988 48.507277 -0.349929 2.223338 0.054873 -0.012238 -495430.000000 0 0 1
-35.020825 12.203088 -29.307238 47.268253 -0.335295 2.239564 0.058179 -0.014402 342953.000000 0 0 1
-35.334925 10.902488 -29.805968 47.495441 -0.299280 2.249204 0.055411 -0.018828 294756.000000 0 0 1
-34.418525 9.943788 -29.280828 46.269652 -0.281250 2.255999 0.046175 -0.025982 170676.000000 0 0 1
-34.699325 8.490288 -29.668028 46.436193 -0.239967 2.263862 0.039505 -0.023423 -347625.000000 0 0 1
-34.550525 8.404388 -31.112468 47.247838 -0.238615 2.289614 0.054378 -0.025528 -108300.000000 0 0 1
-34.701825 7.143588 -31.718238 47.553066 -0.203020 2.300981 0.054478 -0.023906 730444.000000 0 0 1
-36.126925 6.446888 -31.624928 48.444330 -0.176592 2.282084 0.057525 -0.011552 838827.000000 0 0 1
-36.333725 5.934288 -30.329298 47.699284 -0.161898 2.259898 0.048104 -0.015939 214094.000000 0 0 1
36.407727 5.232888 -30.331228 47.674827 0.142752 2.260373 0.034800 0.001550 -94615.500000 0 0 1
36.055327 4.479588 -28.969868 46.468340 0.123609 2.243921 0.036925 -0.010044 -97006.000000 0 0 1
36.807927 3.300388 -28.753668 46.824027 0.089426 2.232015 0.037042 0.000663 548844.000000 0 0 1
36.254727 2.563688 -27.666418 45.677220 0.070596 2.221434 0.041740 -0.002861 -331481.000000 0 0 1
-36.942225 1.292088 -27.346638 45.980823 -0.034962 2.207739 0.100712 -0.013255 -348712.000000 0 0 1
-35.715825 1.562688 -26.679878 44.608049 -0.043725 2.211919 0.113783 -0.013764 -25747.600000 0 0 1
-35.046325 0.348488 -26.507228 43.943139 -0.009943 2.218324 0.142942 -0.014292 66108.200000 0 0 1
-33.636625 0.459388 -25.881418 42.443861 -0.013657 2.226579 0.143912 -0.015185 134955.000000 0 0 1
-33.850625 0.756388 -24.496618 41.791401 -0.022341 2.197112 0.126435 -0.009724 470437.000000 0 0 1
-32.691225 0.685488 -23.677018 40.370624 -0.020965 2.197516 0.158382 -0.008225 5528.930000 0 0 1
-33.018025 0.356288 -22.192018 39.784451 -0.010790 2.162537 0.152280 -0.002125 -242192.000000 0 0 1
-33.373625 -0.997812 -21.973618 39.970419 0.029889 2.152858 0.165425 -0.015176 296762.000000 0 0 1
-33.523825 -1.284612 -20.605318 39.371007 0.038301 2.121589 0.124237 -0.012282 -672573.000000 0 0 1
-34.909825 -1.139112 -19.993518 40.245922 0.032619 2.090685 0.099814 -0.007427 -230763.000000 0 0 1
-35.760025 -2.289612 -20.255518 41.161969 0.063940 2.085289 0.095075 -0.008241 425917.000000 0 0 1
36.875827 -2.006212 -19.922518 41.961390 -0.054351 2.065513 0.075052 -0.003807 552903.000000 0 0 1
35.850527 -3.202412 -19.797318 41.078578 -0.089090 2.073661 0.072149 -0.010615 307215.000000 0 0 1
35.591027 -4.096412 -20.867818 41.460435 -0.114593 2.098232 0.078061 -0.004250 33257.600000 0 0 1
36.719027 -4.705512 -21.455418 42.787425 -0.127454 2.096061 0.074145 -0.011645 -224531.000000 0 0 1
36.305527 -5.619512 -22.616118 43.141152 -0.153565 2.122613 0.066908 -0.016712 -431809.000000 0 0 1
36.018427 -6.987412 -22.346818 42.959647 -0.191615 2.117860 0.082074 -0.015519 346183.000000 0 0 1
35.550327 -7.702612 -23.490318 43.300705 -0.213370 2.144198 0.076674 -0.010521 428755.000000 0 0 1
34.089227 -7.436312 -23.952618 42.321414 -0.214778 2.172405 0.051552 -0.004610 -253528.000000 0 0 1
33.860927 -6.246812 -24.696818 42.373552 -0.182433 2.193010 0.059594 -0.015780 400375.000000 0 0 1
32.465427 -6.137012 -24.970218 41.414716 -0.186828 2.217966 0.037482 -0.006686 509114.000000 0 0 1
32.088527 -4.821412 -25.696628 41.391259 -0.149138 2.240588 0.050663 -0.026493 31245.000000 0 0 1
32.569527 -4.744812 -27.040748 42.596824 -0.144665 2.258555 0.055863 -0.026596 389944.000000 0 0 1
31.874427 -3.771812 -27.846948 42.493037 -0.117786 2.285415 0.060432 -0.031080 -79044.100000 0 0 1
32.106327 -3.895512 -29.370548 43.687760 -0.120741 2.308085 0.067450 -0.026747 -35020.900000 0 0 1
31.450527 -2.918212 -30.146508 43.663069 -0.092522 2.332886 0.069313 -0.033997 -84277.100000 0 0 1
30.883427 -3.454812 -31.348258 44.141082 -0.111403 2.360555 0.081186 -0.039606 -362821.000000 0 0 1
30.099727 -2.393112 -32.102878 44.071707 -0.079339 2.386815 0.088738 -0.030297 -47210.500000 0 0 1
28.928627 -1.831812 -31.524898 42.825696 -0.063237 2.398118 0.079970 -0.025599 1221450.000000 0 0 1
27.698927 -2.597812 -31.533588 42.051711 -0.093514 2.418672 0.091291 -0.024739 1164830.000000 0 0 1
26.958027 -2.791612 -32.890388 42.618141 -0.103186 2.452379 0.120752 -0.032710 -70660.400000 0 0 1
27.653427 -3.818412 -33.644918 43.718106 -0.137213 2.448992 0.129695 -0.042777 302077.000000 0 0 1
27.075927 -3.950012 33.160336 42.992050 -0.144865 0.689894 0.117032 -0.037727 -573679.000000 0 0 1
27.793527 -5.026812 32.336763 42.935012 -0.178928 0.717950 0.095082 -0.041045 91515.600000 0 0 1
29.121627 -4.846212 31.906238 43.469104 -0.164902 0.746606 0.099813 -0.034801 -104790.000000 0 0 1
29.375527 -3.857412 30.995098 42.877702 -0.130567 0.762846 0.119730 -0.036357 -817275.000000 0 0 1
30.137127 -2.613612 31.449878 43.636822 -0.086508 0.765958 0.092897 -0.031292 1358370.000000 0 0 1
31.548027 -2.908512 31.717558 44.830135 -0.091933 0.784834 0.092102 -0.025483 1452200.000000 0 0 1
32.189727 -1.772412 32.277357 45.619599 -0.055006 0.784796 0.078781 -0.017822 492568.000000 0 0 1
33.677727 -1.989012 32.669188 46.961914 -0.058992 0.801468 0.066590 -0.015399 477664.000000 0 0 1
34.565027 -2.136312 31.573158 46.863304 -0.061727 0.831553 0.081432 -0.012856 366084.000000 0 0 1
35.910927 -2.284412 32.023208 48.169483 -0.063528 0.843566 0.064282 -0.010664 515824.000000 0 0 1
36.854427 -2.843212 30.944358 48.206701 -0.076995 0.873810 0.050275 -0.010365 38005.600000 0 0 1
-36.979525 -1.979812 29.829328 47.552011 0.053487 0.892716 0.054501 -0.000091 55420.100000 0 0 1
-36.018225 -2.452412 28.902988 46.246184 0.067983 0.895689 0.061833 -0.004864 99719.000000 0 0 1
-35.931725 -1.534112 27.654608 45.367606 0.042669 0.915282 0.073428 -0.006064 -490360.000000 0 0 1
36.942727 -1.623412 26.813928 45.676989 -0.043916 0.943407 0.087221 -0.018855 -399735.000000 0 0 1
-36.611525 -1.155512 25.545468 44.657697 0.031551 0.961820 0.098970 -0.028810 15942.800000 0 0 1
-26.745793 15.005188 12.627982 33.165630 -0.511272 1.180184 0.104986 -0.017248 -374792.000000 0 0 1
-28.010203 14.413288 12.637082 33.941275 -0.475238 1.189287 0.108831 -0.007188 -180264.000000 0 0 1
-28.962333 15.255488 13.282282 35.326557 -0.484807 1.185336 0.104559 -0.011174 295087.000000 0 0 1
-30.367113 14.615588 13.283282 36.224612 -0.448573 1.195345 0.099412 -0.001679 -257027.000000 0 0 1
-31.386053 15.335388 13.891282 37.592900 -0.454490 1.192305 0.093159 -0.005065 -822174.000000 0 0 1
-32.417093 14.504388 14.337782 38.299049 -0.420715 1.187086 0.104845 -0.018451 395942.000000 0 0 1
-33.412013 15.283688 15.271182 39.788977 -0.429016 1.176884 0.083247 -0.013307 561175.000000 0 0 1
-32.767953 15.562088 16.491782 39.848415 -0.443381 1.144103 0.061201 0.000146 178452.000000 0 0 1
-33.743113 15.929288 17.447782 41.191807 -0.441059 1.133409 0.064738 -0.008785 171573.000000 0 0 1
-33.214733 16.296888 18.870082 41.531759 -0.456142 1.099150 0.072511 0.003056 22435.900000 0 0 1
-32.874553 15.125288 19.604182 41.156221 -0.431214 1.074314 0.071741 0.000085 -154553.000000 0 0 1
-31.715673 15.202888 20.396882 40.657650 -0.446991 1.045264 0.079247 0.003549 49204.900000 0 0 1
-31.866273 15.746088 21.915382 41.757426 -0.458941 1.018286 0.076101 -0.012449 -101642.000000 0 0 1
-32.414113 17.057788 21.951782 42.702735 -0.484423 1.030885 0.059012 -0.010958 177030.000000 0 0 1
-32.595793 17.672988 23.219582 43.748934 -0.496824 1.011316 0.058953 -0.023068 -789240.000000 0 0 1
-33.516413 17.005388 24.299782 44.755028 -0.469530 0.996849 0.056142 -0.020182 2079510.000000 0 0 1
-34.901143 16.714988 23.881382 45.473080 -0.446645 1.017874 0.101007 -0.014724 1791280.000000 0 0 1
-35.715637 17.841988 23.650682 46.403642 -0.463293 1.035992 0.109531 -0.028317 -1181640.000000 0 0 1
36.828399 17.387488 23.321782 46.931453 0.441097 1.050736 0.064469 -0.029194 -297347.000000 0 0 1
36.399779 16.655088 24.467382 46.914696 0.429123 1.022154 0.074091 -0.023331 -188643.000000 0 0 1
35.894469 15.338388 24.172082 45.912619 0.403833 1.016341 0.101425 -0.021487 47313.100000 0 0 1
35.300989 14.755888 25.454782 45.954782 0.395928 0.983744 0.129905 -0.018372 -437867.000000 0 0 1
34.193229 15.478688 25.966082 45.639940 0.425083 0.965588 0.079329 -0.015021 368839.000000 0 0 1
33.635219 15.008288 27.229282 45.804044 0.419696 0.934186 0.077024 -0.013189 90206.800000 0 0 1
32.721329 13.783388 27.169082 44.708234 0.398678 0.917638 0.089668 -0.015275 -186263.000000 0 0 1
33.430829 12.554988 27.000282 44.768999 0.359254 0.923412 0.088624 -0.018337 830276.000000 0 0 1
32.486379 11.442688 27.033082 43.784557 0.338660 0.905349 0.076177 -0.012759 713827.000000 0 0 1
33.112659 10.066588 26.834482 43.793536 0.295132 0.911261 0.088857 -0.027346 -263318.000000 0 0 1
34.223389 9.761688 27.648082 45.066033 0.277856 0.910309 0.089096 -0.019600 -37902.900000 0 0 1
34.719669 8.451588 27.424782 45.044461 0.238780 0.916201 0.108053 -0.011201 114815.000000 0 0 1
35.770259 7.991688 28.468682 46.409529 0.219807 0.910408 0.090424 -0.013551 1150400.000000 0 0 1
-36.942703 8.685988 28.284282 47.330860 -0.230926 0.930309 0.076446 -0.016236 745654.000000 0 0 1
-35.904797 8.176688 29.096982 46.932366 -0.223914 0.902083 0.095843 -0.021155 -129372.000000 0 0 1
-34.676605 9.071188 29.138882 46.193374 -0.255860 0.888210 0.105188 -0.023842 -285321.000000 0 0 1
-33.890823 9.019888 27.971182 44.859038 -0.260116 0.897540 0.107903 -0.019217 905265.000000 0 0 1
-32.601813 9.661588 28.148382 44.142450 -0.288106 0.879325 0.091641 -0.016193 1139630.000000 0 0 1
-31.934453 10.198588 26.830582 42.938335 -0.309122 0.895840 0.077177 -0.013960 177146.000000 0 0 1
-31.334523 9.141588 26.070582 41.774348 -0.283863 0.896841 0.084653 -0.015483 347374.000000 0 0 1
-30.579993 9.783588 25.029482 40.710312 -0.309643 0.908640 0.085450 -0.015766 142343.000000 0 0 1
-30.022003 8.805388 24.031582 39.450886 -0.285297 0.915806 0.092823 -0.019756 -146324.000000 0 0 1
-29.134703 9.340088 23.099982 38.336371 -0.310232 0.924091 0.096631 -0.020720 -110493.000000 0 0 1
-28.403963 8.317888 22.422382 37.131329 -0.284877 0.922453 0.093229 -0.014636 223159.000000 0 0 1
-27.344313 8.908488 21.446682 35.875239 -0.314946 0.930026 0.095040 -0.012550 -94014.800000 0 0 1
-26.195343 9.346888 22.170182 35.567925 -0.342733 0.897816 0.096928 -0.015868 296989.000000 0 0 1
-25.227743 10.093388 21.475782 34.634155 -0.380585 0.901958 0.092688 -0.012817 1289310.000000 0 0 1
-24.293673 9.310988 20.406082 33.064864 -0.366000 0.905677 0.085037 -0.016065 764052.000000 0 0 1
-25.135363 9.083888 19.279982 32.954835 -0.346793 0.945864 0.090392 -0.017700 560466.000000 0 0 1
-24.463773 8.289488 18.337482 31.677358 -0.326705 0.953438 0.088063 -0.020029 -83759.400000 0 0 1
-24.410473 6.772288 18.617182 31.437788 -0.270627 0.937021 0.081288 -0.012296 -687366.000000 0 0 1
-23.334373 6.370188 19.417082 31.017661 -0.266502 0.894382 0.054995 -0.003015 122612.000000 0 0 1
-23.200173 4.977788 19.651982 30.809524 -0.211354 0.879088 0.059112 -0.008146 -180148.000000 0 0 1
-23.103473 3.914888 18.487682 29.847800 -0.167856 0.902820 0.071185 -0.010333 -272794.000000 0 0 1
-24.388573 3.674088 17.943782 30.500503 -0.149524 0.941828 0.106534 -0.008956 521750.000000 0 0 1
-24.441973 2.557888 17.062682 29.918020 -0.104272 0.963908 0.098513 -0.011648 -103668.000000 0 0 1
-24.316173 1.114288 17.672082 30.080232 -0.045793 0.942833 0.099351 -0.009584 -620794.000000 0 0 1
-23.046773 0.758588 18.126282 29.330722 -0.032903 0.904605 0.069584 0.000826 -167618.000000 0 0 1
-23.109673 -0.486712 18.787182 29.786777 0.021058 0.888313 0.100954 -0.015812 -65335.400000 0 0 1
-21.770373 -1.258612 18.856682 28.828938 0.057749 0.857819 0.093617 -0.002037 39785.300000 0 0 1
-20.808973 -0.658412 19.718082 28.674895 0.031630 0.812559 0.067191 -0.000441 -472512.000000 0 0 1
-19.896373 -1.673212 20.013282 28.270068 0.083899 0.784231 0.054334 -0.006547 -267005.000000 0 0 1
-18.894173 -1.229512 21.125682 28.368925 0.064982 0.730746 0.061672 -0.008506 120137.000000 0 0 1
-19.327473 -1.160112 22.438982 29.637897 0.059952 0.711927 0.074565 -0.014107 569018.000000 0 0 1
-18.201273 -1.038512 23.345582 29.620618 0.056995 0.662994 0.059334 -0.014670 170275.000000 0 0 1
-18.737073 -1.143312 24.748682 31.062555 0.060943 0.648920 0.071184 -0.014714 -41287.400000 0 0 1
-19.515873 -0.048212 25.098582 31.793245 0.002470 0.660914 0.066004 -0.019935 -61165.200000 0 0 1
-20.916273 -0.253412 24.959882 32.566093 0.012115 0.697520 0.096717 -0.022105 -106708.000000 0 0 1
-21.713273 0.858788 25.653882 33.620312 -0.039531 0.702782 0.081059 -0.021478 -316282.000000 0 0 1
-21.465573 2.163988 25.061782 33.068816 -0.100473 0.710758 0.069658 -0.020334 23327.600000 0 0 1
-22.618273 2.799588 24.554082 33.501148 -0.123149 0.748174 0.070522 -0.017425 -720099.000000 0 0 1
-22.368773 3.873688 23.445582 32.635299 -0.171473 0.769280 0.074649 -0.014552 -41048.200000 0 0 1
-21.885873 3.411488 22.170482 31.339431 -0.154632 0.784940 0.073215 -0.012924 -472592.000000 0 0 1
-20.551473 3.063288 22.228182 30.427600 -0.147965 0.751703 0.060964 -0.010451 -1437000.000000 0 0 1
-20.034873 2.207288 21.051982 29.145397 -0.109730 0.763661 0.054799 -0.007645 29524.700000 0 0 1
-19.591273 2.986488 19.910282 28.091928 -0.151275 0.783065 0.043940 0.004394 294924.000000 0 0 1
-19.268073 2.131488 18.841282 27.033235 -0.110175 0.799637 0.052237 -0.006452 54193.100000 0 0 1
-18.888573 2.996888 17.561982 25.965029 -0.157350 0.827972 0.044373 0.001832 -1320080.000000 0 0 1
-17.688773 3.616088 17.671382 25.263541 -0.201650 0.796124 0.045693 -0.014568 -1217970.000000 0 0 1
-17.295373 4.256788 16.476182 24.263444 -0.241326 0.824324 0.053532 -0.009962 -440603.000000 0 1 0
-15.872973 4.823188 16.457782 23.368205 -0.294996 0.789387 0.063158 -0.009427 -385223.000000 0 1 0
-15.686273 6.000588 17.309382 24.118062 -0.365362 0.770312 0.071014 -0.016161 61379.600000 0 1 0
-16.318073 7.240388 16.980682 24.638309 -0.417606 0.810414 0.059896 -0.027962 -196083.000000 0 1 0
-15.857473 8.040588 15.720782 23.732962 -0.469275 0.846775 0.049221 -0.029889 48229.900000 0 1 0
-16.135273 7.295888 14.487382 22.879275 -0.424657 0.885103 0.067317 -0.028767 1150610.000000 0 1 0
-17.506373 7.452188 14.066082 23.661421 -0.402450 0.934186 0.045060 -0.032383 882586.000000 0 1 0
-17.792873 6.592388 12.808382 22.893242 -0.354826 0.977034 0.050143 -0.026609 -211646.000000 0 1 0
-17.540373 5.211088 13.012582 22.453227 -0.288786 0.952630 0.050275 -0.024056 269460.000000 0 1 0
-17.764073 4.352988 11.911682 21.826565 -0.240309 0.993522 0.029417 -0.037687 10855.500000 0 1 0
-17.349173 2.916788 12.340782 21.489447 -0.166565 0.959082 0.035843 -0.012223 -850815.000000 0 1 0
-18.068273 2.338788 13.420482 22.628339 -0.128726 0.935914 0.043121 -0.016543 237278.000000 0 1 0
-17.673373 1.023088 13.649882 22.354286 -0.057824 0.913958 0.034495 -0.005373 -314577.000000 0 1 0
-18.621373 0.299388 14.672982 23.709524 -0.016076 0.903500 0.048699 -0.011179 1686590.000000 0 1 0
-19.953373 0.116788 14.094282 24.429480 -0.005853 0.955822 0.073739 -0.009146 1247710.000000 0 1 0
-20.890773 -0.249012 15.058882 25.753763 0.011919 0.946255 0.089965 -0.013164 862035.000000 0 0 1
-22.390073 -0.305912 14.556382 26.707624 0.013662 0.994375 0.112345 -0.013984 877635.000000 0 0 1
-22.454573 -1.468312 13.735482 26.363369 0.065297 1.022767 0.126195 -0.026000 413021.000000 0 0 1
-23.758873 -1.611012 13.192582 27.223586 0.067703 1.064889 0.154153 -0.027029 158244.000000 0 0 1
-23.913173 -2.917312 12.367482 27.079608 0.121396 1.096505 0.151074 -0.035257 -117497.000000 0 0 1
-23.965373 -4.100212 13.086182 27.611573 0.169448 1.077038 0.139538 -0.035272 290244.000000 0 0 1
-23.846773 -5.196112 12.201982 27.286563 0.214542 1.107187 0.150839 -0.041412 -154514.000000 0 0 1
-23.956773 -6.596912 12.963182 28.026600 0.268708 1.089948 0.139813 -0.043108 617652.000000 0 0 1
-25.222063 -6.740312 13.625782 29.449044 0.261136 1.089769 0.125387 -0.038227 753044.000000 0 0 1
-25.474143 -8.067412 14.039682 30.184893 0.306698 1.087023 0.144458 -0.055827 -61083.500000 0 0 1
-26.414203 -8.147112 15.262782 31.575909 0.299179 1.066298 0.143847 -0.046173 -188109.000000 0 0 1
-27.679093 -7.633812 14.945682 32.369440 0.269107 1.090861 0.129194 -0.039654 -161924.000000 0 0 1
-28.659683 -7.987112 15.907682 33.737601 0.271792 1.079792 0.120493 -0.037060 568540.000000 0 0 1
-30.131863 -7.542112 15.535682 34.729958 0.245264 1.107021 0.097578 -0.035390 1132240.000000 0 0 1
-30.922123 -8.149612 14.503682 35.113397 0.257693 1.144993 0.085268 -0.026163 703326.000000 0 0 1
-30.966293 -9.586812 14.490182 35.507515 0.300230 1.150438 0.077098 -0.023598 -830410.000000 0 0 1
-31.488253 -10.389712 15.677182 36.677380 0.318707 1.129143 0.068245 -0.020675 -184434.000000 0 0 1
-30.623423 -10.183412 16.814182 36.389732 0.321033 1.090481 0.088643 -0.024310 416868.000000 0 0 1
-31.059013 -10.749012 18.027482 37.485912 0.333181 1.069100 0.092702 -0.015136 -1065870.000000 0 0 1
-29.955593 -10.883112 19.019282 37.114859 0.348481 1.032768 0.110091 -0.009657 -116366.000000 0 0 1
-28.901453 -11.741712 18.508982 36.273188 0.385897 1.035302 0.125493 -0.016653 1425180.000000 0 0 1
-27.647543 -11.394612 19.151882 35.510821 0.390926 1.001161 0.116553 -0.025755 1171700.000000 0 0 1
-26.479223 -12.338512 18.677982 34.673551 0.436055 1.001926 0.137669 -0.022477 373905.000000 0 0 1
-25.995793 -12.140612 17.350882 33.529521 0.436919 1.026892 0.119831 -0.019225 1129700.000000 0 0 1
-24.805173 -12.964812 17.175082 32.838489 0.481615 1.020410 0.110121 -0.021540 683236.000000 0 0 1
-24.308173 -12.831212 15.787082 31.697937 0.485683 1.049451 0.100778 -0.026877 -113268.000000 0 0 1
-23.318873 -11.823312 15.601782 30.446283 0.469254 1.032777 0.101862 -0.031899 265732.000000 0 0 1
-22.887973 -11.826812 14.188182 29.411516 0.476939 1.067401 0.103413 -0.026939 -222023.000000 0 0 1
-21.677873 -10.947512 13.965682 28.014611 0.467646 1.048912 0.097274 -0.036482 -775262.000000 0 0 1
-21.941273 -9.521912 13.906182 27.667095 0.409446 1.044163 0.099431 -0.047713 854983.000000 0 0 1
-20.729673 -8.781812 13.629182 26.317184 0.400714 1.026424 0.105093 -0.047234 860690.000000 0 0 1
-20.221973 -8.811612 12.149382 25.182934 0.410936 1.067352 0.124709 -0.038508 -573096.000000 0 0 1
-19.487273 -9.902412 11.721282 24.803226 0.470144 1.078591 0.111587 -0.042519 -28933.600000 0 1 0
-19.371173 -10.003912 10.338682 24.129006 0.476707 1.127992 0.132709 -0.030168 -1424240.000000 0 1 0
-18.608573 -11.257212 9.808982 23.858330 0.544050 1.147098 0.104880 -0.022810 647607.000000 0 1 0
-17.193573 -11.193212 10.004782 22.825481 0.577086 1.117072 0.118390 -0.032883 743917.000000 0 1 0
-16.719473 -11.192612 11.328382 23.089988 0.589917 1.057997 0.120539 -0.027200 -791215.000000 0 1 0
-15.233873 -11.652112 11.323582 22.272541 0.652958 1.037459 0.136388 -0.031145 248969.000000 0 1 0
-15.037473 -13.017012 11.059282 22.756887 0.713503 1.063318 0.126264 -0.036102 349263.000000 0 1 0
-13.645673 -13.288512 11.088382 22.039536 0.772138 1.043599 0.153970 -0.035605 259610.000000 0 1 0
-13.364673 -14.809812 10.921582 22.742602 0.836646 1.069884 0.163684 -0.039011 -194247.000000 0 1 0
-13.194073 -15.273712 9.588482 22.345219 0.858321 1.127293 0.114293 -0.049892 370196.000000 0 1 0
-12.862173 -16.671812 9.712282 23.188644 0.913682 1.138631 0.096316 -0.037610 112706.000000 0 1 0
-13.163973 -17.633412 8.459082 23.575060 0.929516 1.203798 0.080930 -0.028192 -64165.600000 0 1 0
-12.383473 -17.411712 7.313582 22.583325 0.952583 1.241002 0.088590 -0.039987 29026.800000 0 1 0
-12.694473 -18.355612 6.320282 23.195346 0.965740 1.294826 0.065676 -0.029083 87041.700000 0 1 0
-11.789773 -18.132412 5.066282 22.213742 0.994277 1.340702 0.068640 -0.030458 54493.200000 0 1 0
-11.893873 -19.097012 4.012882 22.853081 1.013771 1.394286 0.072512 -0.030241 40157.500000 0 1 0
-11.233873 -18.739212 2.851182 22.033774 1.030756 1.441032 0.075824 -0.040934 -134303.000000 0 1 0
-11.592773 -19.785412 1.751182 22.998294 1.040790 1.494579 0.081855 -0.031509 -29471.500000 0 1 0
-11.165473 -21.141012 2.005482 23.992335 1.084889 1.487110 0.071344 -0.034274 -187228.000000 0 1 0
-11.526073 -21.988512 0.930882 24.843743 1.087988 1.533318 0.071045 -0.029707 16299.300000 0 1 0
-10.784273 -21.843512 -0.489318 24.365529 1.112197 1.590880 0.086146 -0.030901 131577.000000 0 1 0
-11.107573 -20.808012 -1.375118 23.627156 1.080466 1.629030 0.087373 -0.039880 502508.000000 0 1 0
-12.341773 -20.937612 -2.104118 24.395292 1.038167 1.657155 0.107437 -0.029950 289235.000000 0 1 0
-13.380173 -19.899412 -1.684618 24.038585 0.978842 1.640934 0.112257 -0.028023 -484783.000000 0 1 0
-13.905173 -20.231812 -0.439118 24.553470 0.968650 1.588681 0.103477 -0.025817 -616381.000000 0 1 0
-15.157773 -19.717312 -0.156618 24.870766 0.915400 1.577094 0.117286 -0.009329 -685987.000000 0 1 0
26.926827 -20.158712 -4.029818 33.877236 -0.642635 1.690032 0.063182 -0.019735 -262204.000000 0 0 1
25.686527 -20.227512 -3.353618 32.866346 -0.667057 1.673012 0.062865 -0.022717 131664.000000 0 0 1
25.671127 -21.348212 -2.547318 33.484948 -0.693717 1.646943 0.051154 -0.020006 -496127.000000 0 0 1
24.396827 -21.682412 -1.769718 32.687369 -0.726559 1.624964 0.044527 -0.022474 -746245.000000 0 0 1
23.450727 -22.239712 -2.613718 32.424881 -0.758900 1.651492 0.045394 -0.028055 -443494.000000 0 0 1
22.254827 -22.496912 -1.893018 31.701292 -0.790808 1.630546 0.053142 -0.027320 812089.000000 0 0 1
21.174727 -23.313312 -2.717518 31.611145 -0.833432 1.656870 0.067756 -0.035437 498877.000000 0 0 1
20.612227 -22.541712 -3.742618 30.773363 -0.830080 1.692717 0.069165 -0.036034 -504540.000000 0 0 1
19.495827 -23.191712 -4.273518 30.597479 -0.871763 1.710923 0.077989 -0.033947 -1002510.000000 0 0 1
18.522627 -22.353812 -5.041418 29.465175 -0.878851 1.742740 0.078759 -0.014760 -826153.000000 0 0 1
17.503227 -21.754012 -4.293918 28.249562 -0.893258 1.723387 0.082130 -0.015047 -551.001000 0 0 1
17.934727 -20.687612 -3.513718 27.603948 -0.856555 1.698433 0.067988 -0.024386 -317291.000000 0 0 1
16.752727 -20.126612 -2.679418 26.323253 -0.876629 1.672762 0.086191 -0.009417 128031.000000 0 0 1
16.401427 -21.022812 -1.680018 26.716809 -0.908263 1.633720 0.082904 -0.018707 280947.000000 0 0 1
15.444927 -20.367812 -0.847518 25.575610 -0.922004 1.603940 0.085167 -0.009535 105264.000000 0 0 1
14.925327 -21.061812 0.446482 25.817914 -0.954293 1.553502 0.071393 -0.012320 -148581.000000 0 0 1
14.080027 -22.156812 0.295182 26.253735 -1.004702 1.559553 0.075753 -0.015074 -391154.000000 0 0 1
13.505727 -22.519512 1.528082 26.303386 -1.030572 1.512669 0.066969 -0.006423 -4473.140000 0 0 1
12.536127 -23.707912 1.477082 26.858916 -1.084395 1.515774 0.067540 -0.010555 87445.400000 0 0 1
13.131827 -24.995612 1.598582 28.280399 -1.087063 1.514240 0.062196 -0.010459 205783.000000 0 0 1
12.172227 -26.000562 1.349882 28.740468 -1.132950 1.523811 0.057018 -0.011333 147201.000000 0 0 1
12.535227 -27.353592 2.084282 30.161153 -1.141090 1.501636 0.067195 -0.008788 81849.000000 0 0 1
12.367727 -27.260492 3.484782 30.137001 -1.144881 1.454906 0.083197 -0.013788 118392.000000 0 0 1
12.674027 -28.448872 4.193582 31.425394 -1.151689 1.436951 0.082547 -0.016970 -68839.300000 0 0 1
12.095327 -28.540922 5.604082 31.500586 -1.169952 1.391940 0.090558 -0.018577 -254319.000000 0 0 1
12.710227 -29.581942 6.294682 32.806466 -1.164984 1.377726 0.083778 -0.015223 -171572.000000 0 0 1
12.321127 -29.728362 7.667882 33.081446 -1.177889 1.336881 0.085077 -0.021726 137575.000000 0 0 1
12.930327 -30.990712 8.421582 34.619946 -1.175523 1.325073 0.086850 -0.014766 299244.000000 0 0 1
12.546527 -31.078342 9.814182 34.922727 -1.187099 1.285934 0.079100 -0.008443 343231.000000 0 0 1
11.361627 -31.855922 9.953682 35.255668 -1.228204 1.284576 0.075618 -0.007543 310433.000000 0 0 1
11.145627 -32.351992 11.402382 36.067862 -1.239020 1.249142 0.073850 -0.000203 -704654.000000 0 0 1
12.142027 -33.244142 11.758882 37.294411 -1.220611 1.250025 0.071413 0.000180 -188613.000000 0 0 1
12.030627 -33.599102 13.152282 38.034434 -1.226956 1.217706 0.075319 0.002981 129858.000000 0 0 1
10.940027 33.457328 13.362982 37.651644 1.254771 1.207977 0.071857 -0.000680 297040.000000 0 0 1
11.422527 32.190173 12.960482 36.532937 1.229812 1.208137 0.078687 -0.005094 -459520.000000 0 0 1
10.384427 31.312646 13.023682 35.467372 1.250573 1.194797 0.066553 -0.009221 -735424.000000 0 0 1
10.609427 30.221886 11.854282 34.153278 1.233185 1.216329 0.072246 -0.013845 119315.000000 0 0 1
10.154827 30.610836 10.542782 33.930725 1.250481 1.254851 0.066635 -0.011239 387685.000000 0 0 1
11.013927 31.594066 9.937682 34.903426 1.235363 1.282083 0.052416 -0.009187 246082.000000 0 0 1
10.685527 31.991436 8.483282 34.779284 1.248435 1.324393 0.043641 -0.008523 -213915.000000 0 0 1
9.511527 32.754753 8.506182 35.152499 1.288183 1.326391 0.050591 -0.010521 -411879.000000 0 0 1
8.813427 32.816584 7.296382 34.754020 1.308421 1.359279 0.039243 -0.019337 -139973.000000 0 0 1
9.243227 34.005512 6.457482 35.826125 1.305393 1.389561 0.046634 -0.012701 -56354.600000 0 0 1
8.872327 -32.884192 7.123082 34.796933 -1.307266 1.364635 0.054372 -0.012879 220188.000000 0 0 1
9.290727 -31.726982 6.390482 33.671312 -1.285927 1.379848 0.074146 -0.026403 191993.000000 0 0 1
8.385127 -30.523642 6.771182 32.370542 -1.302700 1.360063 0.062377 -0.021597 138641.000000 0 0 1
8.436027 -30.100922 8.103182 32.293863 -1.297548 1.317166 0.085461 -0.020177 102478.000000 0 0 1
7.804927 -28.821182 8.239082 30.975150 -1.306334 1.301565 0.082387 -0.018602 253801.000000 0 0 1
8.670127 -27.617362 7.726482 29.959778 -1.266602 1.309953 0.092853 -0.020745 434796.000000 0 0 1
9.615727 -27.096622 8.675782 30.032621 -1.229791 1.277741 0.096821 -0.017472 1355850.000000 0 0 1
10.538327 -26.006942 8.281582 29.257511 -1.185805 1.283815 0.100558 -0.027332 1121750.000000 0 0 1
9.917727 -24.886012 7.436082 27.802342 -1.191561 1.300038 0.099530 -0.027460 -355363.000000 0 0 1
9.859227 -25.196932 6.087082 27.733415 -1.197824 1.349509 0.097587 -0.023867 -136353.000000 0 0 1
8.948127 -24.340612 5.419182 26.493431 -1.218510 1.364794 0.083838 -0.020490 181550.000000 0 0 1
8.510327 -24.851212 4.048182 26.578115 -1.240862 1.417889 0.076310 -0.019008 354155.000000 0 0 1
7.542627 -25.899382 4.059882 27.279147 -1.287406 1.421414 0.058709 -0.016896 22397.300000 0 0 1
8.102527 -27.191182 4.053782 28.660853 -1.281190 1.428881 0.055481 -0.013959 -136112.000000 0 0 1
7.088727 -28.256852 3.651082 29.360350 -1.325001 1.446119 0.054521 -0.013904 -295601.000000 0 0 1
6.137527 -28.570132 4.635482 29.587318 -1.359189 1.413477 0.052651 -0.018650 368954.000000 0 0 1
5.063027 -29.415362 4.160082 30.136424 -1.400345 1.432312 0.045372 -0.017548 742350.000000 0 0 1
5.211627 -30.923492 4.290682 31.651751 -1.403832 1.434819 0.046202 -0.017338 482434.000000 0 0 1
6.360027 -31.414802 3.579282 32.251372 -1.371043 1.459586 0.039033 -0.013624 523863.000000 0 0 1
6.362827 -32.799772 3.765382 33.622741 -1.379186 1.458572 0.036496 -0.022142 195268.000000 0 0 1
7.461727 -33.466892 2.884782 34.409769 -1.351426 1.486862 0.043439 -0.019604 109557.000000 0 0 1
7.252527 -33.498402 1.524882 34.308415 -1.357583 1.526335 0.047162 -0.020192 -58339.800000 0 0 1
8.180827 33.665433 1.018082 34.660119 1.332413 1.541419 0.041144 -0.018574 -18923.800000 0 0 1
7.630727 32.877000 -0.228218 33.751700 1.342735 1.577558 0.054459 -0.015069 1010080.000000 0 0 1
6.494427 32.030736 -0.030718 32.682512 1.370752 1.571736 0.046368 -0.016834 117777.000000 0 0 1
5.236527 32.604625 0.201682 33.023075 1.411549 1.564689 0.049470 -0.022643 -187922.000000 0 0 1
4.085627 31.580916 0.354982 31.846077 1.442141 1.559649 0.048492 -0.025170 56216.200000 0 0 1
3.702327 30.912056 -0.819018 31.143751 1.451594 1.597097 0.060066 -0.018644 396003.000000 0 0 1
2.591727 30.056446 -0.505518 30.172215 1.484780 1.587552 0.065287 -0.032488 648514.000000 0 0 1
2.323527 28.939476 -1.551018 29.074004 1.490679 1.624169 0.069948 -0.024794 7214.510000 0 0 1
1.948427 29.434226 -2.854718 29.636455 1.504697 1.667270 0.078242 -0.030376 100565.000000 0 0 1
1.868227 28.406606 -3.848118 28.726879 1.505124 1.705156 0.083529 -0.032425 -206114.000000 0 0 1
1.568027 28.911816 -5.277218 29.431291 1.516615 1.751078 0.089361 -0.034095 268275.000000 0 0 1
0.260027 29.471796 -5.349218 29.954441 1.561974 1.750338 0.083753 -0.036471 399274.000000 0 0 1
0.015027 30.269786 -6.493218 30.958393 1.570300 1.782106 0.067460 -0.031094 -287843.000000 0 0 1
-0.125073 29.521896 -7.838518 30.545055 -1.566560 1.830321 0.067670 -0.024218 -313565.000000 0 0 1
-1.431573 29.025116 -8.120418 30.173630 -1.521514 1.843279 0.063966 -0.021560 310864.000000 0 0 1
-1.619973 28.594196 -9.469518 30.164949 -1.514203 1.890120 0.065161 -0.018487 -47756.300000 0 0 1
-1.631773 29.765666 -10.531818 31.616084 -1.516031 1.910403 0.046053 -0.015160 -1387940.000000 0 0 1
-0.452173 30.439386 -10.681418 32.262260 -1.555943 1.908245 0.054229 -0.019001 -1290590.000000 0 0 1
-0.535873 31.766726 -11.251218 33.704628 -1.553929 1.911148 0.027550 -0.014950 67824.100000 0 0 1
-0.905173 32.843834 -10.230618 34.412241 -1.543243 1.872656 0.027447 -0.011586 189579.000000 0 0 1
0.134527 33.067786 -9.293718 34.349232 1.566728 1.844777 0.030990 -0.023407 190659.000000 0 0 1
-0.174873 -33.924112 -8.466918 34.965192 1.565642 1.815380 0.038650 -0.024004 -240760.000000 0 0 1
0.821227 -33.752832 -7.274318 34.537571 -1.546471 1.783006 0.061218 -0.029330 101440.000000 0 0 1
1.986927 -33.089302 -7.685518 34.028179 -1.510821 1.798619 0.070011 -0.027756 -848423.000000 0 0 1
2.895227 -32.943972 -6.654018 33.733716 -1.483138 1.769350 0.074309 -0.038440 -1376490.000000 0 0 1
4.051427 -32.056062 -7.084918 33.078713 -1.445077 1.786652 0.051386 -0.036139 -849982.000000 0 0 1
4.777427 -32.508132 -8.144718 33.851719 -1.424880 1.813780 0.060503 -0.029148 135255.000000 0 0 1
5.846727 -33.388082 -7.731318 34.766673 -1.397440 1.795048 0.092628 -0.018890 -295471.000000 0 0 1
6.219827 33.513502 -8.699818 35.178515 1.387293 1.820694 0.098561 -0.016880 584052.000000 0 0 1
5.315827 32.368491 -8.737018 33.945732 1.408021 1.831108 0.082609 -0.023517 850364.000000 0 0 1
4.044227 32.641177 -9.349818 34.193879 1.447525 1.847759 0.080247 -0.024866 1034800.000000 0 0 1
3.153627 31.346756 -9.368818 32.868515 1.470529 1.859844 0.073218 -0.037026 216387.000000 0 0 1
3.717927 30.485096 -10.317818 32.397862 1.449437 1.894914 0.079512 -0.028258 86572.400000 0 0 1
3.011427 29.269276 -10.454118 31.225756 1.468270 1.912180 0.055851 -0.026608 107461.000000 0 0 1
3.834527 28.306846 -11.304918 30.721041 1.436153 1.947639 0.055230 -0.026819 26011.000000 0 0 1
3.844827 28.604776 -12.667618 31.519589 1.437185 1.984384 0.060055 -0.024384 -300092.000000 0 0 1
4.963127 28.070196 -13.304718 31.457655 1.395794 2.007484 0.070199 -0.031601 -326481.000000 0 0 1
5.071727 28.602376 -14.710118 32.560804 1.395302 2.039549 0.075685 -0.025361 -211182.000000 0 0 1
3.981327 28.225296 -15.507418 32.449936 1.430666 2.069045 0.065070 -0.020251 -225956.000000 0 0 1
4.010727 28.812556 -16.786218 33.586105 1.432484 2.094160 0.103634 -0.017232 104797.000000 0 0 1
2.971127 28.229856 -17.767618 33.487918 1.465935 2.130067 0.085923 -0.022542 56915.900000 0 0 1
3.267627 26.883876 -18.105618 32.576581 1.449844 2.160105 0.101531 -0.018649 -181834.000000 0 0 1
2.379527 26.319216 -19.026818 32.563524 1.480631 2.194812 0.108603 -0.032658 -92049.200000 0 0 1
3.085427 25.276836 -19.920618 32.330626 1.449332 2.234646 0.119559 -0.028172 310708.000000 0 0 1
3.478827 24.135906 -19.139018 30.999133 1.427647 2.236236 0.111014 -0.034015 476122.000000 0 0 1
4.351427 23.204036 -19.826618 30.829483 1.385420 2.269343 0.114871 -0.028475 612242.000000 0 0 1
4.784727 21.968506 -18.956518 29.408476 1.356346 2.271288 0.103495 -0.031025 68065.800000 0 0 1
3.803727 20.961206 -18.838818 28.438382 1.391285 2.294872 0.124099 -0.030089 -445519.000000 0 0 1
4.326127 19.740006 -18.324218 27.279300 1.355052 2.307333 0.098437 -0.021345 36872.800000 0 0 1
3.351927 18.612906 -17.931518 26.061754 1.392620 2.329580 0.094639 -0.030046 -173255.000000 0 0 1
2.401727 18.908606 -16.942718 25.502145 1.444455 2.297439 0.081726 -0.017126 -458514.000000 0 0 1
1.551627 17.855806 -16.621818 24.444267 1.484116 2.318543 0.056841 -0.011626 -179348.000000 0 1 0
2.190027 16.761706 -15.726918 23.088676 1.440876 2.320132 0.049692 -0.013671 299397.000000 0 1 0
3.279727 15.961106 -16.195418 22.974009 1.368135 2.353142 0.062305 -0.021140 28569.800000 0 1 0
2.998327 14.952706 -17.198418 22.986061 1.372900 2.416157 0.077553 -0.023033 -414758.000000 0 1 0
2.918227 15.380206 -18.727418 24.408666 1.383286 2.445330 0.080529 -0.023531 388227.000000 0 1 0
4.097127 15.896306 -19.402218 25.415056 1.318546 2.439379 0.092569 -0.019876 333873.000000 0 0 1
3.979927 16.133306 -20.798318 26.621297 1.328935 2.467488 0.088538 -0.032730 -482724.000000 0 0 1
4.145527 14.977606 -21.795018 26.768207 1.300774 2.522168 0.087024 -0.040569 218981.000000 0 0 1
3.190427 13.930306 -21.860418 26.117239 1.345652 2.562594 0.089313 -0.037713 132009.000000 0 0 1
1.958827 14.306806 -22.486918 26.724206 1.434727 2.570746 0.088279 -0.043536 502134.000000 0 0 1
1.066927 13.102006 -22.878618 26.386210 1.489543 2.620081 0.083860 -0.038297 -109056.000000 0 0 1
0.441527 12.447806 -21.840018 25.142180 1.535341 2.623288 0.082279 -0.028879 -673102.000000 0 0 1
-0.358773 11.456106 -22.338518 25.107379 -1.539489 2.667526 0.044288 -0.022843 -637078.000000 0 0 1
-0.852873 10.479706 -21.237118 23.697401 -1.489592 2.681878 0.030401 -0.021653 -742809.000000 0 1 0
-1.898573 11.107206 -20.530618 23.419669 -1.401501 2.639630 0.029469 -0.017949 62272.800000 0 1 0
-2.489473 10.297006 -19.467318 22.163084 -1.333582 2.643231 0.025701 -0.014170 208503.000000 0 1 0
-3.428173 9.148306 -19.889118 22.158991 -1.212260 2.685010 0.032506 -0.013460 -747045.000000 0 1 0
-2.867173 8.068806 -20.584818 22.294866 -1.229372 2.747378 0.026231 -0.012848 85733.300000 0 1 0
-3.820073 7.008906 -20.822418 22.300018 -1.071776 2.775519 0.031108 -0.010732 -181379.000000 0 1 0
-3.207073 5.970306 -21.709418 22.742663 -1.077856 2.839003 0.029502 -0.013656 20731.300000 0 1 0
-2.201873 5.234206 -20.981318 21.736165 -1.172599 2.877280 0.022122 -0.007700 450756.000000 0 1 0
-1.791773 4.098706 -21.701718 22.157943 -1.158675 2.938316 0.036154 -0.013798 -7378.160000 0 1 0
-1.015673 2.990006 -20.896318 21.133571 -1.243336 2.991610 0.028268 -0.015243 -219433.000000 0 1 0
0.372027 3.176006 -20.820618 21.064747 1.454191 2.989199 0.025491 -0.013690 -622332.000000 0 1 0
0.795527 2.256806 -19.849718 19.993433 1.231895 3.021620 0.029819 -0.020018 -1214380.000000 0 1 0
2.297327 2.226806 -19.917318 20.172653 0.769812 2.982318 0.026819 -0.020162 -991361.000000 0 1 0
2.841527 1.637906 -21.126318 21.379390 0.522899 2.987576 0.038258 -0.023409 177341.000000 0 1 0
4.223427 1.881606 -21.301018 21.797045 0.419119 2.927848 0.048964 -0.006431 319707.000000 0 1 0
5.002127 1.206006 -22.445318 23.027550 0.236584 2.916242 0.048801 -0.004186 31290.100000 0 1 0
6.397927 1.207206 -22.261818 23.194382 0.186495 2.857062 0.044968 -0.009713 -238274.000000 0 1 0
7.061027 0.705806 -23.400518 24.452822 0.099627 2.847157 0.044523 -0.009364 -77481.000000 0 1 0
8.583427 0.615806 -23.175718 24.721819 0.071621 2.786057 0.050315 -0.019626 -246129.000000 0 1 0
9.234927 1.858406 -23.091318 24.938856 0.198584 2.754253 0.059388 -0.032195 1201800.000000 0 1 0
10.618927 1.529806 -23.432918 25.772147 0.143080 2.712237 0.060134 -0.026759 852334.000000 0 0 1
14.546727 -21.166012 22.149938 33.914998 -0.968666 0.859123 0.104929 -0.012545 -16407.400000 0 0 1
13.465627 -21.568112 23.002438 34.287297 -1.012679 0.835410 0.094249 -0.013371 1027850.000000 0 0 1
12.287527 -20.745012 23.059718 33.362995 -1.036049 0.807681 0.076649 -0.025513 1145640.000000 0 0 1
11.431127 -20.698212 21.765238 32.137396 -1.066207 0.826770 0.093916 -0.034939 -673148.000000 0 0 1
11.760127 -19.571812 20.944538 30.984353 -1.029737 0.828514 0.103793 -0.033207 -165310.000000 0 0 1
11.142527 -19.689912 19.703338 30.001168 -1.055828 0.854292 0.125385 -0.026852 -68548.200000 0 0 1
11.333427 -18.497012 18.778038 28.691475 -1.021079 0.857300 0.129282 -0.034628 14673.900000 0 0 1
10.505127 -17.419912 19.168838 27.950946 -1.028135 0.815090 0.147744 -0.039608 -141752.000000 0 0 1
10.649627 -16.299012 18.334038 26.743398 -0.992041 0.815432 0.144478 -0.036345 715750.000000 0 0 1
9.635027 -15.103912 18.692438 25.891488 -1.002963 0.764176 0.121287 -0.035080 1970360.000000 0 0 1
8.291227 -15.346712 18.217438 25.221837 -1.075461 0.763691 0.094583 -0.039268 485152.000000 0 0 1
7.341327 -14.482612 18.799038 24.840390 -1.101639 0.712403 0.063002 -0.032149 793138.000000 0 1 0
5.884427 -14.890912 18.375038 24.372275 -1.194462 0.716769 0.021829 -0.022377 257492.000000 0 1 0
5.671327 -14.861312 16.944938 23.241202 -1.206237 0.753804 0.021170 -0.023135 -486238.000000 0 1 0
4.311527 -15.041312 16.665238 22.859582 -1.291636 0.753898 -0.002325 -0.018469 -595839.000000 0 1 0
3.811227 -16.492412 16.713938 23.788250 -1.343693 0.791733 -0.004961 -0.014758 -393741.000000 0 1 0
2.437627 -16.497212 16.381938 23.376654 -1.424098 0.794303 0.000779 -0.008481 -134272.000000 0 1 0
1.919327 -17.833012 16.459738 24.343852 -1.463581 0.828292 0.021943 -0.018493 173350.000000 0 1 0
0.429027 -18.016912 16.120238 24.179646 -1.546988 0.841042 0.039514 -0.004519 109895.000000 0 1 0
0.069027 -17.819912 14.782338 23.153219 -1.566923 0.878304 0.038220 -0.008987 223860.000000 0 1 0
-1.327273 -18.032512 14.596638 23.237792 1.497324 0.891633 0.040143 -0.002934 -92247.700000 0 1 0
-1.735073 -17.862312 13.107638 22.223475 1.473964 0.939972 0.034054 -0.031544 463477.000000 0 1 0
-3.081473 -18.261912 12.836038 22.533459 1.403633 0.964724 0.035890 -0.034546 431065.000000 0 1 0
-3.178973 -19.623612 12.424738 23.442827 1.410194 1.012194 0.047039 -0.035068 -495812.000000 0 1 0
-4.634673 -20.029812 12.248638 23.931208 1.343409 1.033486 0.045476 -0.037359 -229518.000000 0 1 0
-5.330273 -20.225112 13.455438 24.869978 1.313109 0.999133 0.049175 -0.040914 -179296.000000 0 1 0
-6.618373 -20.769812 13.323738 25.548189 1.262315 1.022172 0.049546 -0.035288 -57659.200000 0 0 1
-7.215173 -21.511212 14.534038 26.944930 1.247174 1.001074 0.050778 -0.029706 303439.000000 0 0 1
-8.629473 -21.522112 14.519638 27.358527 1.189464 1.011350 0.045213 -0.027942 61447.000000 0 0 1
-9.152873 -22.298512 15.610238 28.717212 1.181297 0.996094 0.048574 -0.031442 198861.000000 0 0 1
-10.659373 -22.052312 15.819938 29.158140 1.120543 0.997319 0.056440 -0.023785 39185.300000 0 0 1
-10.939473 -20.732112 16.272038 28.535447 1.085268 0.963999 0.041751 -0.027103 -248445.000000 0 0 1
-12.279473 -20.335612 16.033538 28.660023 1.027557 0.977087 0.048304 -0.025856 38451.000000 0 0 1
-12.609073 -19.086212 16.832938 28.401057 0.986979 0.936405 0.048651 -0.021190 -563860.000000 0 0 1
-12.955373 -19.440612 18.141838 29.578799 0.982973 0.910515 0.042043 -0.023703 -61315.100000 0 0 1
-13.149673 -18.336912 19.041138 29.524925 0.948676 0.869881 0.044788 -0.022506 -58321.500000 0 0 1
-13.425273 -18.813912 20.459038 30.867029 0.951013 0.846228 0.042658 -0.023997 398762.000000 0 0 1
-14.700673 -19.458212 20.480938 31.846517 0.923785 0.872239 0.055250 -0.029840 344786.000000 0 0 1
-14.873573 -20.185712 21.677538 33.145163 0.935773 0.857912 0.053187 -0.017250 -629745.000000 0 0 1
-16.263273 -20.801012 21.731338 34.196889 0.907221 0.882170 0.062983 -0.024771 -858862.000000 0 0 1
-16.375173 -21.936712 20.806438 34.384204 0.929556 0.920885 0.061578 -0.027914 638400.000000 0 0 1
-17.558373 -22.011712 19.999438 34.536784 0.897470 0.953201 0.062889 -0.029464 726019.000000 0 0 1
-18.823373 -22.610812 20.663138 35.951821 0.876553 0.958504 0.069896 -0.027603 112556.000000 0 0 1
-19.438373 -21.751812 21.650038 36.327893 0.841504 0.932333 0.080815 -0.025106 429090.000000 0 0 1
-20.164073 -22.435912 22.686638 37.744450 0.838677 0.925971 0.080389 -0.029091 274723.000000 0 0 1
-20.735973 -21.371712 23.726358 38.074542 0.800495 0.898025 0.074195 -0.013864 -289970.000000 0 0 1
-21.810473 -20.728112 23.124768 37.948732 0.759959 0.915532 0.086420 -0.010139 -385917.000000 0 0 1
-22.087873 -19.523412 23.796818 37.885700 0.723847 0.891660 0.082932 -0.018647 -106977.000000 0 0 1
-23.050873 -18.574112 23.072688 37.532510 0.678260 0.908742 0.094884 -0.019065 -208121.000000 0 0 1
-22.636873 -17.964612 21.894138 36.256152 0.670826 0.922444 0.103300 -0.014494 -61196.200000 0 0 1
-23.623573 -17.057912 21.427638 36.168899 0.625386 0.936721 0.098237 -0.015765 161563.000000 0 0 1
-23.095273 -16.355212 20.158138 34.745289 0.616183 0.951860 0.108391 -0.016276 -469496.000000 0 0 1
-21.890573 -15.712712 20.402638 33.798730 0.622562 0.922724 0.113045 -0.012128 -921867.000000 0 0 1
-21.618773 -15.027012 19.226538 32.601261 0.607424 0.940049 0.107708 -0.013547 -51911.900000 0 0 1
-20.505773 -13.965312 19.166338 31.350681 0.597889 0.913027 0.091123 -0.018232 6903.300000 0 0 1
-20.243273 -13.851812 17.783838 30.297322 0.600089 0.943476 0.094512 -0.017025 85852.800000 0 0 1
-19.526573 -12.698212 17.353338 29.045998 0.576589 0.930487 0.092366 -0.025905 -415088.000000 0 0 1
-19.101673 -12.928412 15.852938 27.988094 0.595000 0.968644 0.084254 -0.028430 -136809.000000 0 0 1
-18.585473 -11.834712 15.175838 26.754182 0.567020 0.967655 0.075537 -0.036322 -587719.000000 0 0 1
-17.264273 -11.563612 15.509638 25.929156 0.590169 0.929600 0.087899 -0.045334 -1169160.000000 0 0 1
-16.826773 -10.227612 14.868538 24.674233 0.546148 0.924049 0.097107 -0.052497 -109643.000000 0 1 0
-17.402973 -9.041712 15.343338 24.900483 0.479165 0.906905 0.101159 -0.045125 222454.000000 0 1 0
-16.895473 -7.965512 14.579038 23.695036 0.440555 0.908058 0.093025 -0.042463 -633867.000000 0 1 0
-17.159773 -6.626812 15.340338 23.952002 0.368539 0.875697 0.091639 -0.035273 119625.000000 0 1 0
-16.463973 -6.424912 16.567438 24.224407 0.372065 0.817681 0.076029 -0.021711 -948776.000000 0 1 0
-15.106873 -6.364312 16.358438 23.158596 0.398721 0.786446 0.080509 -0.022187 -1733150.000000 0 1 0
-14.126373 -6.254312 17.552738 23.383102 0.416800 0.721737 0.059733 -0.022801 208901.000000 0 1 0
-14.038473 -7.398512 18.428238 24.319060 0.485027 0.710909 0.040208 -0.030033 -17468.700000 0 1 0
-13.630673 -8.613512 17.827938 24.037954 0.563561 0.735258 0.063539 -0.026422 -579832.000000 0 1 0
-13.816873 -9.816312 18.821438 25.328097 0.617711 0.733098 0.050977 -0.029319 -96524.100000 0 0 1
-15.122573 -10.262412 19.034838 26.388148 0.596229 0.765061 0.051543 -0.027988 -699183.000000 0 0 1
-15.870773 -9.504912 19.908938 27.177023 0.539606 0.748714 0.034726 -0.026031 -977573.000000 0 0 1
-17.288673 -9.963412 20.348138 28.499378 0.522809 0.775622 0.038774 -0.017415 85915.300000 0 0 1
-18.360873 -9.953112 19.487838 28.565047 0.496744 0.819992 0.057424 -0.024100 -344595.000000 0 0 1
-18.689573 -8.696112 18.946038 27.997765 0.435498 0.827527 0.063455 -0.028934 -1134360.000000 0 0 1
-19.776273 -8.795612 17.873838 28.070231 0.418484 0.880515 0.107025 -0.040020 319217.000000 0 0 1
-21.054573 -9.160712 18.399438 29.423681 0.410389 0.895245 0.103732 -0.037800 436277.000000 0 0 1
-21.989673 -9.296512 17.329138 29.500337 0.399978 0.942927 0.135470 -0.042417 -718909.000000 0 0 1
-23.386873 -9.523812 17.845238 30.920888 0.386723 0.955592 0.131099 -0.038718 -1009540.000000 0 0 1
-24.010373 -8.379812 18.447838 31.417224 0.335791 0.943215 0.130105 -0.028362 894378.000000 0 0 1
-25.389093 -8.685812 18.685538 32.698604 0.329627 0.962528 0.126131 -0.019654 -144199.000000 0 0 1
-25.970273 -7.558112 19.440338 33.309261 0.283207 0.947602 0.129593 -0.026321 -550141.000000 0 0 1
-25.798863 -7.570812 20.865838 34.033538 0.285442 0.910822 0.142258 -0.030747 328694.000000 0 0 1
-26.417963 -6.442512 21.445838 34.631470 0.239200 0.902998 0.123877 -0.025448 -486079.000000 0 0 1
-26.521923 -6.428612 22.988838 35.682294 0.237802 0.870735 0.114003 -0.024843 1542610.000000 0 0 1
-25.310923 -6.076112 23.731918 35.224507 0.235601 0.831547 0.102273 -0.031851 1367770.000000 0 0 1
-24.191373 -6.936212 23.698268 34.567926 0.279232 0.815428 0.106516 -0.031639 -540872.000000 0 0 1
-23.280773 -6.737512 24.898458 34.746535 0.281706 0.771918 0.095815 -0.024752 -408243.000000 0 0 1
-22.637273 -5.479112 24.763428 33.995502 0.237472 0.754765 0.083593 -0.025014 200920.000000 0 0 1
-21.783673 -5.229412 25.878868 34.228511 0.235603 0.713521 0.086160 -0.028916 -57642.500000 0 0 1
-21.097373 -3.881212 25.761188 33.523153 0.181932 0.694366 0.086653 -0.031108 -652118.000000 0 0 1
-20.252373 -3.557712 26.826618 33.800642 0.173895 0.653975 0.073219 -0.026459 -574029.000000 0 0 1
-20.709073 -3.429012 28.143938 35.109900 0.164091 0.640837 0.081274 -0.024612 -160157.000000 0 0 1
-21.705773 -2.313712 28.521028 35.915775 0.106193 0.653257 0.088925 -0.029125 1354640.000000 0 0 1
-23.036973 -2.322512 27.963168 36.304751 0.100477 0.691588 0.096559 -0.030517 455315.000000 0 0 1
-23.809373 -1.301612 28.512388 37.169029 0.054614 0.696487 0.088479 -0.026962 22534.200000 0 0 1
-25.149693 -1.155612 27.767448 37.481644 0.045917 0.736494 0.097759 -0.029394 -724823.000000 0 0 1
-24.954073 -0.637612 26.460178 36.376549 0.025546 0.756276 0.106148 -0.029765 602601.000000 0 0 1
-26.160943 -0.222712 25.818458 36.756460 0.008513 0.792005 0.104759 -0.032274 402277.000000 0 0 1
-27.147043 -1.350712 25.352168 37.168788 0.049714 0.820190 0.098597 -0.030730 -289017.000000 0 0 1
-27.792963 -1.921412 26.448878 38.414630 0.069023 0.811363 0.083545 -0.030567 -261730.000000 0 0 1
-28.259153 -3.233212 26.153368 38.639773 0.113918 0.827320 0.072131 -0.025270 -101880.000000 0 0 1
-27.142213 -4.290112 26.075518 37.881888 0.156764 0.811602 0.076626 -0.028535 -964.318000 0 0 1
-26.632083 -4.527312 27.350878 38.442619 0.168385 0.779204 0.062328 -0.021266 243025.000000 0 0 1
-25.675483 -5.606412 27.397218 37.964060 0.214982 0.764596 0.078553 -0.028207 532174.000000 0 0 1
-25.166843 -5.984312 28.808488 38.718354 0.233450 0.731681 0.057643 -0.015502 -291476.000000 0 0 1
-26.292823 -6.386912 29.533008 40.053761 0.238299 0.741681 0.060116 -0.012746 -101632.000000 0 0 1
-26.034443 -7.059712 30.721668 40.883403 0.264800 0.720545 0.049649 -0.002909 -649545.000000 0 0 1
-27.236993 -7.433712 31.615218 42.386742 0.266438 0.728949 0.035368 -0.003502 -72102.100000 0 0 1
-28.071013 -8.310512 30.857778 42.535266 0.287832 0.759089 0.028179 -0.003334 190289.000000 0 0 1
-29.301643 -8.552412 31.508508 43.869307 0.283986 0.769533 0.027631 -0.003823 229930.000000 0 0 1
-30.255223 -9.476112 30.670818 44.112065 0.303528 0.801969 0.026400 -0.008102 -202581.000000 0 0 1
-29.896953 -10.813312 30.545758 44.088534 0.347047 0.805393 0.038267 -0.005510 -51548.100000 0 0 1
-30.842143 -11.470512 29.750628 44.361135 0.356059 0.835717 0.031712 -0.007233 -101458.000000 0 0 1
-30.310803 -12.715312 28.924628 43.784221 0.397201 0.849155 0.039972 -0.012374 170419.000000 0 0 1
-29.370413 -12.414712 27.907578 42.374275 0.399916 0.851843 0.055845 -0.014869 223590.000000 0 0 1
-28.530573 -13.513112 27.540678 41.893755 0.442335 0.853442 0.080027 -0.020743 -1675.520000 0 0 1
-27.315363 -13.005912 26.681088 40.338112 0.444377 0.848064 0.073790 -0.016738 382212.000000 0 0 1
-26.297143 -12.415412 27.504568 40.027284 0.441096 0.813244 0.065698 -0.016550 384267.000000 0 0 1
-26.614933 -11.177312 28.169668 40.333822 0.397597 0.797619 0.063832 -0.022338 -974897.000000 0 0 1
-27.030803 -9.949812 27.285188 39.675491 0.352700 0.812468 0.074281 -0.021174 520223.000000 0 0 1
-25.925143 -9.285312 26.645748 38.318742 0.343924 0.801860 0.062324 -0.021817 526947.000000 0 0 1
-25.301983 -9.999412 25.595438 37.353782 0.376364 0.815895 0.053916 -0.019909 -343636.000000 0 0 1
-25.984303 -10.136712 24.209598 36.932933 0.371951 0.855950 0.088922 -0.017229 -358590.000000 0 0 1
-27.122153 -10.975312 24.195688 37.967091 0.384519 0.879832 0.087044 -0.016645 -229640.000000 0 0 1
-27.864483 -10.659612 23.048498 37.700000 0.365375 0.913011 0.112087 -0.015074 -1493470.000000 0 0 1
-29.196033 -11.307412 22.999638 38.849057 0.369504 0.937226 0.108464 -0.014791 -1111740.000000 0 0 1
-30.314243 -10.826712 23.715348 39.982356 0.343030 0.935836 0.096336 -0.018012 193087.000000 0 0 1
-30.221193 -10.947812 25.185338 40.834744 0.347551 0.906173 0.098444 -0.018256 -125224.000000 0 0 1
-31.591743 -10.736512 25.916508 42.248980 0.327606 0.910408 0.049743 -0.016905 -64780.300000 0 0 1
-32.046793 -9.416412 25.683098 42.134158 0.285790 0.915297 0.056978 -0.024759 164036.000000 0 0 1
-33.412633 -9.179312 26.010158 43.326575 0.268111 0.926885 0.048912 -0.017780 469301.000000 0 0 1
-33.885233 -9.353112 27.460938 44.607094 0.269317 0.907626 0.037851 -0.012016 -733349.000000 0 0 1
-34.161493 -10.663612 27.829538 45.334351 0.302569 0.909839 0.037457 -0.019553 309708.000000 0 0 1
-34.839441 -10.526212 29.093978 46.594499 0.293414 0.896423 0.048538 -0.018174 -775202.000000 0 0 1
-35.441723 -11.840812 29.516988 47.619042 0.322434 0.902236 0.054411 -0.017007 468403.000000 0 0 1
-36.609123 -12.335512 28.821038 48.197977 0.325004 0.929828 0.045888 -0.019237 611534.000000 0 0 1
36.186619 -11.753912 29.329178 48.039844 -0.314063 0.914082 0.046873 -0.016201 -396800.000000 0 0 1
34.909189 -12.448812 28.772048 46.919667 -0.342547 0.910667 0.039587 -0.016546 162944.000000 0 0 1
34.806269 -12.050412 27.368878 45.888390 -0.333298 0.931759 0.040743 -0.016629 -457128.000000 0 0 1
33.687619 -12.608012 26.734668 44.816963 -0.358124 0.931626 0.042386 -0.009191 -406985.000000 0 0 1
33.480919 -12.116512 25.268038 43.660687 -0.347230 0.953618 0.043243 -0.020617 -240651.000000 0 0 1
33.061979 -10.814912 25.128618 42.912752 -0.316139 0.945208 0.064994 -0.035160 -10994.000000 0 0 1
33.434379 -10.262512 23.872558 42.344727 -0.297816 0.971857 0.051290 -0.032832 -348867.000000 0 0 1
33.012479 -8.799812 23.566778 41.504861 -0.260503 0.966956 0.104849 -0.019299 660300.000000 0 0 1
31.600499 -8.575012 23.448428 40.273455 -0.264976 0.949327 0.117112 -0.031693 585299.000000 0 0 1
31.367369 -7.213912 23.273088 39.718875 -0.226051 0.944750 0.132879 -0.025970 235063.000000 0 0 1
29.893759 -6.849912 22.958338 38.309835 -0.225253 0.928194 0.123332 -0.018962 307536.000000 0 0 1
29.468449 -7.228712 21.678138 37.290555 -0.240554 0.950433 0.123314 -0.022689 -188692.000000 0 0 1
28.141179 -6.916812 21.343238 35.990305 -0.241012 0.935983 0.134160 -0.034268 -487290.000000 0 0 1
14.412727 -16.788712 26.324108 34.388170 -0.861401 0.698980 0.070571 -0.021936 118813.000000 0 0 1
13.932327 -18.081312 26.122528 34.690490 -0.914280 0.718161 0.055855 -0.018610 835347.000000 0 0 1
15.054627 -18.959912 26.333578 35.771181 -0.899710 0.743406 0.065613 -0.015002 -135763.000000 0 0 1
14.721827 -20.439712 26.186658 36.335315 -0.946605 0.765993 0.054244 -0.020554 40027.100000 0 0 1
13.953227 -20.950712 27.261118 37.105168 -0.983254 0.745574 0.058426 -0.016397 736278.000000 0 0 1
12.588927 -20.530312 27.332198 36.428339 -1.020737 0.722280 0.067109 -0.018201 -141272.000000 0 0 1
11.918527 -21.056312 28.649698 37.499664 -1.055729 0.701308 0.061116 -0.016185 -234820.000000 0 0 1
12.291427 -20.416912 29.831888 38.182078 -1.028891 0.674041 0.064909 -0.022454 101491.000000 0 0 1
11.345127 -19.577512 30.496328 37.973898 -1.045588 0.638339 0.065326 -0.024984 -100800.000000 0 0 1
11.182527 -18.085112 29.970488 36.747114 -1.017009 0.617052 0.062337 -0.023099 -282856.000000 0 0 1
12.338427 -17.330312 30.107288 36.864961 -0.952091 0.615143 0.055708 -0.013873 -747632.000000 0 0 1
12.026027 -16.054012 29.625038 35.777081 -0.927873 0.595184 0.052849 -0.013819 -439917.000000 0 0 1
13.020027 -15.007812 30.041818 36.017584 -0.856201 0.584320 0.052807 -0.020113 -423879.000000 0 0 1
12.772227 -13.675312 29.569528 34.992870 -0.819531 0.564202 0.072057 -0.020967 663666.000000 0 0 1
13.615227 -12.719612 30.287468 35.559720 -0.751403 0.551508 0.070342 -0.019359 764559.000000 0 0 1
13.101327 -11.297912 29.819158 34.474190 -0.711620 0.525705 0.067198 -0.017929 281479.000000 0 0 1
13.256027 -10.744812 28.474038 33.195543 -0.681147 0.539887 0.084716 -0.016977 -531943.000000 0 0 1
14.578427 -10.768012 28.021068 33.371558 -0.636182 0.574123 0.091649 -0.016434 -804259.000000 0 0 1
14.812127 -9.812512 26.853938 32.199666 -0.585088 0.584511 0.088770 -0.008914 24380.100000 0 0 1
14.867227 -8.489512 27.183618 32.125619 -0.518839 0.562046 0.085337 -0.011057 1938230.000000 0 0 1
16.184727 -8.182112 27.795208 33.188341 -0.468074 0.578106 0.090489 -0.021420 1408560.000000 0 0 1
16.706227 -6.775312 27.621578 32.984155 -0.385287 0.578251 0.088215 -0.021057 1203230.000000 0 0 1
18.109227 -6.577812 27.937568 33.936992 -0.348412 0.603739 0.090350 -0.030107 1275140.000000 0 0 1
18.623127 -5.322912 27.569408 33.693123 -0.278400 0.612436 0.087997 -0.023830 -686669.000000 0 0 1
20.133527 -5.227112 27.450628 34.441525 -0.254014 0.648449 0.078755 -0.018932 -1323210.000000 0 0 1
20.615527 -5.839712 26.279938 33.907777 -0.276036 0.684015 0.080747 -0.020281 69748.900000 0 0 1
21.916427 -5.584612 25.802238 34.311415 -0.249504 0.719703 0.082740 -0.016614 630227.000000 0 0 1
23.111427 -6.034212 26.720578 35.840467 -0.255391 0.729448 0.085361 -0.021815 -235261.000000 0 0 1
23.314827 -5.118712 27.783398 36.629218 -0.216119 0.709782 0.088086 -0.008756 248169.000000 0 0 1
24.431327 -5.444112 28.619308 38.020954 -0.219251 0.718605 0.098071 -0.027430 261362.000000 0 0 1
25.102527 -4.223912 29.255348 38.779553 -0.166705 0.716055 0.101389 -0.020772 -235728.000000 0 0 1
26.001627 -3.551312 28.412478 38.677711 -0.135740 0.745726 0.087098 -0.010556 -85211.200000 0 0 1
26.398827 -2.303812 28.947168 39.244671 -0.087049 0.741276 0.072502 -0.017015 -537781.000000 0 0 1
27.299027 -1.576412 27.958868 39.107803 -0.057682 0.774290 0.077350 -0.016900 1149890.000000 0 0 1
28.648827 -2.123612 27.863428 40.020441 -0.073990 0.800664 0.089418 -0.019379 1106150.000000 0 0 1
29.458727 -1.377612 26.985898 39.974406 -0.046730 0.829724 0.093009 -0.014008 -240755.000000 0 0 1
30.846227 -1.139012 27.574788 41.390289 -0.036909 0.841676 0.086587 -0.009482 -520579.000000 0 0 1
30.992427 0.014488 28.381278 42.024133 0.000467 0.829348 0.072346 0.003331 -56968.500000 0 0 1
32.309427 0.130588 28.861628 43.323316 0.004042 0.841706 0.078530 0.000354 -51405.600000 0 0 1
32.581227 1.369688 29.723228 44.123494 0.042014 0.831677 0.083315 -0.006740 28013.200000 0 0 1
32.518727 2.590488 28.971358 43.629323 0.079494 0.844595 0.081243 -0.009451 127572.000000 0 0 1
32.886227 3.682288 29.808608 44.537808 0.111506 0.837547 0.078604 -0.005080 54199.300000 0 0 1
32.980527 4.986388 29.055448 44.235713 0.150055 0.854186 0.083926 -0.004086 -25377.300000 0 0 1
33.152527 6.191188 29.847948 45.036884 0.184622 0.846318 0.088855 -0.007377 208753.000000 0 0 1
32.027327 6.505188 30.658668 44.810949 0.200388 0.817320 0.089204 -0.008818 -62638.200000 0 0 1
32.327827 7.386788 31.906868 46.018489 0.224640 0.804670 0.071036 -0.017116 -210133.000000 0 0 1
32.877327 6.687288 32.975106 47.042492 0.200664 0.794048 0.066069 -0.013435 16668.800000 0 0 1
33.303127 7.605788 33.985648 48.186830 0.224530 0.787965 0.049057 -0.020474 -489576.000000 0 0 1
34.005227 6.921488 -32.875898 47.802585 0.200799 2.329172 0.051611 -0.015160 -118841.000000 0 0 1
33.253627 6.085488 -31.961158 46.522602 0.180999 2.328153 0.027755 -0.020831 180832.000000 0 0 1
32.768627 4.877388 -32.440838 46.367875 0.147758 2.345690 0.054521 -0.014918 -28986.200000 0 0 1
32.948027 3.807188 -31.386958 45.664081 0.115041 2.328623 0.047908 -0.012918 -184106.000000 0 0 1
32.715227 2.534288 -31.926318 45.782076 0.077311 2.342496 0.048749 -0.012028 146372.000000 0 0 1
33.081627 1.597288 -30.911138 45.303906 0.048246 2.321709 0.033274 -0.013237 849.270000 0 0 1
33.250427 0.135188 -31.379928 45.719898 0.004066 2.327257 0.031951 -0.022429 -107271.000000 0 0 1
34.445627 0.023188 -32.145138 47.114878 0.000673 2.321661 0.033284 -0.016551 531269.000000 0 0 1
35.156327 -1.234212 -32.221488 47.704454 -0.035092 2.312357 0.027260 -0.011240 666033.000000 0 0 1
35.870127 -1.648512 -30.917068 47.384056 -0.045925 2.281647 0.025747 -0.016936 -29843.400000 0 0 1
34.905327 -1.840212 -29.899568 45.997309 -0.052671 2.278418 0.028808 -0.021496 200112.000000 0 0 1
35.639327 -2.062812 -28.725598 45.821140 -0.057816 2.248373 0.054014 -0.022712 -106677.000000 0 0 1
34.800027 -1.768012 -27.513818 44.397950 -0.050761 2.239168 0.054967 -0.024323 -633977.000000 0 0 1
34.455627 -0.400512 -27.358318 43.998048 -0.011623 2.241845 0.026576 -0.019067 264610.000000 0 0 1
33.639827 -0.207212 -26.196768 42.637443 -0.006160 2.232431 0.018890 -0.012539 107779.000000 0 0 1
33.036027 1.253688 -26.156558 42.155858 0.037931 2.240142 -0.003186 -0.009284 -214735.000000 0 0 1
32.168027 1.532188 -27.219548 42.166733 0.047595 2.272503 0.010081 -0.018610 85919.300000 0 0 1
31.540527 2.798088 -27.095108 41.674681 0.088482 2.278588 0.015982 -0.008969 -191252.000000 0 0 1
30.687527 2.993688 -28.345288 41.882477 0.097246 2.314178 0.043436 -0.014773 -563085.000000 0 0 1
29.739727 3.992688 -28.099588 41.109364 0.133456 2.323388 0.044808 -0.008251 -238999.000000 0 0 1
28.995627 4.377188 -29.227288 41.402181 0.149829 2.354540 0.053661 -0.011087 -336436.000000 0 0 1
27.896927 5.332588 -28.746428 40.410793 0.188875 2.362221 0.058158 -0.018851 -513734.000000 0 0 1
26.662627 4.750188 -28.398568 39.242052 0.176309 2.379912 0.072768 -0.015952 -98240.100000 0 0 1
25.892927 5.665988 -27.677838 38.322446 0.215428 2.377826 0.074544 -0.023138 -285792.000000 0 0 1
24.495527 5.093688 -27.328268 37.051461 0.205022 2.400270 0.076631 -0.013971 28223.300000 0 0 1
23.741827 4.919888 -28.533128 37.443545 0.204332 2.437240 0.086060 -0.026151 191287.000000 0 0 1
22.397327 4.616988 -28.197368 36.304937 0.203293 2.460176 0.075182 -0.022672 131162.000000 0 0 1
21.508727 4.350288 -29.426558 36.707938 0.199565 2.500830 0.067138 -0.027077 -266395.000000 0 0 1
21.756427 3.135288 -30.023568 37.210036 0.143123 2.509626 0.074764 -0.027819 -158456.000000 0 0 1
21.022127 2.687888 -31.169928 37.692426 0.127170 2.544466 0.059125 -0.032763 -27018.600000 0 0 1
21.164827 3.377688 -32.543538 38.967173 0.158255 2.559207 0.059382 -0.023917 438401.000000 0 0 1
22.500327 3.185388 -32.998648 40.066472 0.140636 2.538521 0.072553 -0.023997 191457.000000 0 0 1
22.646427 3.388488 33.648414 40.700839 0.148524 0.597534 0.065479 -0.019237 -486835.000000 0 0 1
24.100727 3.191688 33.216765 41.162913 0.131665 0.631812 0.072217 -0.009034 -180586.000000 0 0 1
24.503127 1.856788 33.209243 41.312283 0.075633 0.637042 0.101573 -0.018594 -159193.000000 0 0 1
25.840827 1.610588 32.838819 41.817824 0.062247 0.667644 0.114817 -0.018349 -139892.000000 0 0 1
26.050727 0.053888 32.717720 41.822153 0.002069 0.672437 0.090888 -0.012104 -256133.000000 0 0 1
25.597727 -0.516912 31.438758 40.545115 -0.020191 0.683445 0.088543 -0.017950 1408090.000000 0 0 1
24.189927 -0.504912 31.096538 39.400536 -0.020870 0.661223 0.105617 -0.027423 950341.000000 0 0 1
23.330327 -1.510312 31.936348 39.579231 -0.064646 0.631917 0.100604 -0.039738 -354351.000000 0 0 1
23.394327 -2.915512 31.604648 39.429032 -0.123985 0.640900 0.111863 -0.048873 14321.000000 0 0 1
22.755427 -3.652112 32.613053 39.934429 -0.159137 0.615188 0.111591 -0.045594 6375.280000 0 0 1
22.726127 -5.125312 32.229426 39.767846 -0.221814 0.625895 0.107918 -0.040619 -66733.700000 0 0 1
23.945727 -5.751112 32.534015 40.803619 -0.235708 0.647935 0.107297 -0.030815 -122630.000000 0 0 1
23.828027 -7.168712 32.346053 40.809711 -0.292238 0.655724 0.121868 -0.037204 -456333.000000 0 0 1
25.146027 -7.831512 31.985308 41.433262 -0.301920 0.688859 0.099192 -0.033487 -237788.000000 0 0 1
25.621627 -7.527412 30.657468 40.657227 -0.285751 0.716594 0.106177 -0.040104 966941.000000 0 0 1
26.931227 -8.082612 30.368288 41.386623 -0.291567 0.746941 0.094544 -0.030999 1334480.000000 0 0 1
27.415427 -7.950212 28.897078 40.618378 -0.282249 0.779267 0.096047 -0.028602 113052.000000 0 0 1
26.623127 -8.718912 28.011278 39.616184 -0.316486 0.785455 0.092691 -0.024836 -209939.000000 0 0 1
26.875127 -8.466612 26.603818 38.752021 -0.305193 0.814112 0.108811 -0.023043 -291216.000000 0 0 1
26.003527 -9.244912 25.641188 37.671241 -0.341589 0.822137 0.093800 -0.026934 -838133.000000 0 0 1
24.659427 -8.867912 25.536888 36.590434 -0.345215 0.798319 0.098781 -0.029698 -806835.000000 0 0 1
24.102527 -9.647412 24.512748 35.705451 -0.380735 0.814095 0.112543 -0.034362 459616.000000 0 0 1
22.691327 -9.079512 24.143098 34.354375 -0.380620 0.791518 0.079515 -0.025357 558171.000000 0 0 1
21.656027 -9.444812 25.036628 34.424130 -0.411259 0.756418 0.069038 -0.014503 91766.700000 0 0 1
20.411727 -8.927912 24.587418 33.179623 -0.412319 0.736179 0.070241 -0.013366 960905.000000 0 0 1
19.340127 -8.804512 25.759148 33.393018 -0.427208 0.689769 0.073059 -0.013783 593650.000000 0 0 1
18.698427 -10.015412 26.195828 33.706989 -0.491743 0.680651 0.083965 -0.015528 326867.000000 0 0 1
19.460527 -10.729312 27.130048 35.069499 -0.503869 0.686281 0.081485 -0.021547 47419.400000 0 0 1
18.550927 -11.756012 27.866658 35.480859 -0.564842 0.667455 0.084154 -0.025610 326578.000000 0 0 1
18.093327 -12.794612 26.989828 34.921647 -0.615505 0.687448 0.085937 -0.024401 -169427.000000 0 0 1
17.293827 -13.749712 27.634748 35.380932 -0.671724 0.674430 0.083446 -0.022520 -622729.000000 0 0 1
17.857327 -14.786412 28.581378 36.802409 -0.691601 0.681518 0.091240 -0.016947 -602685.000000 0 0 1
16.904927 -15.707112 29.032248 37.085865 -0.748685 0.671581 0.071325 -0.015719 -56303.700000 0 0 1
17.535927 -16.825812 29.627288 38.319615 -0.764735 0.686984 0.080933 -0.019958 -211168.000000 0 0 1
18.026327 -17.907712 28.652928 38.296539 -0.782097 0.725473 0.076697 -0.015237 409229.000000 0 0 1
19.198327 -17.612612 27.887788 38.164232 -0.742347 0.751404 0.076571 -0.020577 595873.000000 0 0 1
19.452427 -18.679112 27.025878 38.179893 -0.765121 0.784338 0.063672 -0.012459 -512581.000000 0 0 1
20.421527 -18.319312 25.934318 37.752150 -0.731188 0.813495 0.070583 -0.018418 -735475.000000 0 0 1
21.705527 -17.983312 26.401118 38.620571 -0.691887 0.818109 0.099856 -0.020365 -451228.000000 0 0 1
22.486627 -17.651112 25.280538 38.161706 -0.665503 0.846701 0.100220 -0.018125 480572.000000 0 0 1
23.972927 -17.464612 25.735938 39.268976 -0.629608 0.856116 0.097950 -0.021569 442955.000000 0 0 1
24.719027 -18.602612 26.112528 40.483967 -0.645139 0.869761 0.087659 -0.022402 -715090.000000 0 0 1
25.998327 -18.259112 26.492438 41.366139 -0.612280 0.875728 0.089094 -0.023627 -742161.000000 0 0 1
26.932927 -19.490812 26.634218 42.598778 -0.626442 0.895365 0.069921 -0.020229 -130.860000 0 0 1
26.600127 -20.369512 27.705318 43.474918 -0.653516 0.879844 0.081372 -0.010299 149335.000000 0 0 1
27.503427 -21.464812 27.755678 44.581996 -0.662701 0.898766 0.077325 -0.014818 98624.000000 0 0 1
27.121727 -22.596312 28.673468 45.479107 -0.694627 0.888631 0.066422 -0.006794 8147.820000 0 0 1
27.089927 -22.194912 30.088498 46.171377 -0.686402 0.861012 0.062244 -0.009470 41354.200000 0 0 1
26.650227 -23.294312 30.844718 46.949507 -0.718306 0.853995 0.063310 -0.003735 -223647.000000 0 0 1
26.300427 -23.151112 32.282539 47.642930 -0.721799 0.826311 0.051399 -0.005843 81658.700000 0 0 1
25.856427 -24.435012 32.781976 48.376468 -0.757142 0.826243 0.044045 -0.007762 150962.000000 0 0 1
25.565827 -24.303112 -33.892228 48.917644 -0.760083 2.336220 0.054717 -0.003325 -425994.000000 0 0 1
25.210127 -25.639282 -33.215438 48.950880 -0.793838 2.316578 0.047988 -0.005207 -263774.000000 0 0 1
24.015927 -26.323062 -33.481128 48.894318 -0.831198 2.325078 0.056631 -0.013746 -331897.000000 0 0 1
23.706627 -26.755612 33.178574 48.771762 -0.845746 0.822648 0.046161 -0.013773 -526187.000000 0 0 1
22.392327 -27.516952 33.293396 48.652330 -0.887718 0.817136 0.065496 -0.017930 -451274.000000 0 0 1
22.426827 -28.784752 33.960510 49.848177 -0.908916 0.821288 0.070444 -0.028358 439760.000000 0 0 1
21.115227 -29.347582 33.948488 49.594690 -0.947111 0.816853 0.095023 -0.033476 54371.800000 0 0 1
20.991127 -30.879472 33.873684 50.414241 -0.973773 0.834016 0.068054 -0.034900 -262154.000000 0 0 1
21.517227 -31.632162 -33.043838 50.551756 -0.973461 2.283212 0.053875 -0.036538 168955.000000 0 0 1
22.905927 -31.806052 -33.114238 51.311395 -0.946658 2.272289 0.038956 -0.028861 -660325.000000 0 0 1
23.542427 -32.773932 -32.042298 51.527521 -0.947875 2.241897 0.033667 -0.035857 -931405.000000 0 0 1
24.813627 -33.187312 -32.457348 52.636425 -0.928779 2.235255 0.030348 -0.026441 424886.000000 0 0 1
25.584627 -33.913192 -31.428948 52.843699 -0.924475 2.207755 0.030946 -0.020254 727097.000000 0 0 1
26.146127 -33.001492 -30.318358 51.883729 -0.900786 2.194878 0.028141 -0.028493 -681073.000000 0 0 1
26.775627 -33.642162 -29.225218 51.988871 -0.898563 2.167772 0.048594 -0.018822 274915.000000 0 0 1
27.267427 -32.691012 -28.258748 51.095711 -0.875608 2.156823 0.048192 -0.021408 -496345.000000 0 0 1
27.398127 -33.187852 -26.799148 50.697981 -0.880671 2.127751 0.062217 -0.021806 10748.800000 0 0 1
28.536827 -33.995402 -26.615148 51.753299 -0.872470 2.110952 0.056200 -0.007071 57881.400000 0 0 1
29.679927 -33.254302 -26.216858 51.711414 -0.842133 2.102478 0.059775 -0.021042 27184.300000 0 0 1
-27.280093 -30.831430 9.542382 42.259172 0.846435 1.343026 0.062993 -0.010809 -125799.000000 0 0 1
-27.245053 -31.955930 10.416682 43.266403 0.864805 1.327651 0.070761 -0.008370 -281786.000000 0 0 1
-25.958363 -32.093130 10.951282 42.705224 0.890685 1.311460 0.058792 -0.006009 -266405.000000 0 0 1
-25.859493 -33.216330 11.999282 43.772374 0.909292 1.293112 0.055225 -0.002644 9354.220000 0 0 1
-26.025403 33.529588 11.679182 44.022246 -0.910742 1.302279 0.055586 0.012222 495483.000000 0 0 1
-27.285093 33.087288 11.155682 44.313589 -0.881211 1.316314 0.046331 -0.016001 443052.000000 0 0 1
-27.293643 31.550688 11.042282 43.154615 -0.857617 1.312041 0.057334 -0.005534 21485.700000 0 0 1
-26.625303 31.193688 9.866782 42.181824 -0.864246 1.334698 0.094904 -0.019878 -35991.000000 0 0 1
-26.846293 29.847488 9.473982 41.247452 -0.838286 1.339041 0.112059 -0.018005 -210672.000000 0 0 1
-26.149443 29.464388 8.194782 40.238016 -0.844934 1.365704 0.085560 -0.000803 3332.850000 0 0 1
-24.764373 29.176388 8.218282 39.141742 -0.867010 1.359260 0.060073 0.002897 459006.000000 0 0 1
-24.141473 29.180188 6.925582 38.500101 -0.879615 1.389927 0.044504 0.004288 480550.000000 0 0 1
-22.812573 28.370588 6.876582 37.048497 -0.893565 1.384103 0.083688 0.006593 199319.000000 0 0 1
-22.944873 26.938488 7.152782 36.101407 -0.865287 1.371346 0.080017 -0.005965 185645.000000 0 0 1
-23.697473 26.182688 6.216782 35.857381 -0.835181 1.396541 0.066349 -0.009096 -211008.000000 0 0 1
-23.879373 24.678688 6.608982 34.970569 -0.801858 1.380666 0.090833 -0.001094 376482.000000 0 0 1
-25.087173 24.519788 7.368782 35.845295 -0.773961 1.363748 0.106567 -0.011172 897067.000000 0 0 1
-25.444093 23.158788 7.707382 35.258120 -0.738413 1.350418 0.115781 -0.024091 155617.000000 0 0 1
-26.100383 22.156788 6.677882 34.881906 -0.703859 1.378165 0.108895 -0.035922 259448.000000 0 0 1
-27.392473 22.496288 6.198582 35.984065 -0.687569 1.397674 0.120362 -0.044343 245526.000000 0 0 1
-27.614963 22.059788 4.855682 35.676295 -0.674030 1.434269 0.108334 -0.043481 53459.500000 0 0 1
-27.192873 23.165988 3.851982 35.929836 -0.705604 1.463381 0.096968 -0.045516 214251.000000 0 0 1
-25.798353 23.372288 3.686682 35.005863 -0.736098 1.465285 0.093837 -0.044423 362859.000000 0 0 1
-25.590203 24.240688 2.621682 35.346041 -0.758323 1.496556 0.073459 -0.037130 15950.900000 0 0 1
-24.123073 24.712788 2.666082 34.637444 -0.797473 1.493749 0.061007 -0.026615 40918.000000 0 0 1
-23.758173 25.541988 1.592482 34.919621 -0.821565 1.525176 0.041521 -0.026737 132290.000000 0 0 1
-22.420373 26.020788 1.664582 34.387866 -0.859587 1.522371 0.045834 -0.024232 -147990.000000 0 0 1
-21.856273 26.586488 0.279882 34.418256 -0.882735 1.562664 0.046923 -0.020042 58491.700000 0 0 1
-21.594673 25.762488 -0.789118 33.625264 -0.873180 1.594266 0.046039 -0.019903 -587178.000000 0 0 1
-20.592273 24.849988 -0.574918 32.278385 -0.878820 1.588609 0.050226 -0.030325 -806173.000000 0 0 1
-20.161173 24.048388 -1.834418 31.435059 -0.873100 1.629185 0.049400 -0.032496 248046.000000 0 0 1
-21.252973 23.213488 -2.176518 31.548250 -0.829459 1.639841 0.040091 -0.031082 230620.000000 0 0 1
-20.834973 22.213088 -3.085618 30.611083 -0.817401 1.671769 0.037998 -0.027129 -202728.000000 0 0 1
-21.948173 21.483488 -3.867018 30.955070 -0.774699 1.696047 0.040772 -0.021079 -310852.000000 0 0 1
-22.578973 22.292588 -4.785018 32.088407 -0.779016 1.720474 0.033727 -0.011174 -162342.000000 0 0 1
-23.695673 21.759888 -5.465318 32.631999 -0.742838 1.739073 0.031193 -0.000759 78882.400000 0 0 1
-23.966173 22.524688 -6.762818 33.577890 -0.754402 1.773590 0.038635 -0.000424 -89212.500000 0 0 1
-23.114573 22.150188 -7.826318 32.957026 -0.764096 1.810557 0.039967 -0.010900 135217.000000 0 0 1
-23.223073 23.008488 -8.913318 33.884345 -0.780757 1.836980 0.042475 -0.012071 -10378.700000 0 0 1
-22.444773 22.500788 -10.148618 33.362370 -0.786644 1.879888 0.045450 -0.018269 -36882.400000 0 0 1
-23.212673 21.684388 -11.017718 33.621882 -0.751372 1.904659 0.030022 -0.013546 -82842.500000 0 0 1
-22.447073 21.102688 -12.031418 33.074908 -0.754538 1.943100 0.041683 -0.014266 -568437.000000 0 0 1
-23.173773 20.722888 -13.292818 33.810662 -0.729623 1.974856 0.040859 -0.020473 -522442.000000 0 0 1
-24.055573 19.650388 -13.182918 33.743113 -0.684946 1.972172 0.044388 -0.015256 639539.000000 0 0 1
-25.296773 19.896888 -13.861118 35.042024 -0.666479 1.977471 0.052723 -0.023617 523501.000000 0 0 1
-26.255243 18.737388 -14.092218 35.199689 -0.619837 1.982696 0.087560 -0.030794 -241708.000000 0 0 1
-25.966073 18.003788 -15.234318 35.077881 -0.606254 2.020057 0.084526 -0.027494 -96974.200000 0 0 1
-26.708963 16.816288 -15.267618 35.060753 -0.561909 2.021348 0.083878 -0.024559 7468.980000 0 0 1
-26.464183 16.034988 -16.616918 35.122582 -0.544756 2.063616 0.100236 -0.027120 595299.000000 0 0 1
-25.387673 15.095788 -16.479218 33.822794 -0.536448 2.079702 0.117713 -0.024924 517766.000000 0 0 1
-24.836573 14.781388 -17.764118 33.925045 -0.536843 2.121901 0.105410 -0.025129 451912.000000 0 0 1
-23.942973 13.493188 -17.731118 32.706645 -0.513191 2.143761 0.096936 -0.026566 183931.000000 0 0 1
-22.667473 13.552988 -17.134018 31.481302 -0.538877 2.146303 0.099358 -0.034065 89476.900000 0 0 1
-22.039973 12.273988 -17.338318 30.610921 -0.508123 2.172939 0.110348 -0.023598 310211.000000 0 0 1
-20.779673 12.056288 -16.464818 29.124545 -0.525731 2.171623 0.108791 -0.034620 409624.000000 0 0 1
-19.712873 12.989188 -16.617818 28.869850 -0.582620 2.184148 0.100570 -0.026187 385291.000000 0 0 1
-18.705573 12.764888 -15.647818 27.526261 -0.598823 2.175440 0.099877 -0.022784 -238779.000000 0 0 1
-17.660273 13.881588 -15.667518 27.387129 -0.666167 2.179831 0.102747 -0.026115 158085.000000 0 0 1
-16.787973 13.859688 -16.823318 27.512743 -0.690141 2.228718 0.124876 -0.031469 479697.000000 0 0 1
-16.101073 15.101888 -16.939018 27.825203 -0.753387 2.225300 0.114442 -0.017944 50345.600000 0 0 1
-15.232673 15.299588 -18.195218 28.234335 -0.787590 2.271082 0.130611 -0.015220 570813.000000 0 0 1
-14.168173 14.337688 -18.282518 27.213175 -0.791345 2.307468 0.122981 -0.014186 -12576.200000 0 0 1
-13.389173 14.523588 -19.418018 27.699530 -0.826017 2.347628 0.133337 -0.013159 886912.000000 0 0 1
-12.135073 13.567288 -19.588218 26.740037 -0.841064 2.392846 0.115570 -0.008866 890362.000000 0 0 1
-12.468073 12.224988 -19.857718 26.442998 -0.775554 2.420316 0.137672 -0.015813 -215235.000000 0 0 1
-11.364573 11.336888 -19.752618 25.452789 -0.784179 2.459173 0.103948 -0.008915 163843.000000 0 0 1
-11.589373 10.018388 -20.527518 25.613681 -0.712821 2.500475 0.114802 -0.018175 24462.000000 0 0 1
-11.481573 10.228888 -21.863118 26.729246 -0.727762 2.528630 0.125526 -0.024562 -167870.000000 0 0 1
-11.726773 9.052088 -22.618518 27.038026 -0.657381 2.561742 0.122973 -0.010275 76163.700000 0 0 1
-11.383173 9.110388 -24.127418 28.190568 -0.674947 2.598024 0.111737 -0.016569 354710.000000 0 0 1
-10.003573 8.990388 -24.453718 27.908473 -0.732106 2.638740 0.104466 -0.014262 188365.000000 0 0 1
-9.843573 8.433288 -25.715348 28.797490 -0.708388 2.674701 0.071063 -0.025348 -113902.000000 0 0 1
-9.911373 9.357488 -26.937258 30.189630 -0.756661 2.673141 0.098059 -0.026679 258413.000000 0 0 1
-8.643173 9.945488 -27.216828 30.238600 -0.855344 2.690724 0.069143 -0.025314 523395.000000 0 0 1
-8.307973 11.138688 -26.545838 29.962882 -0.929946 2.659351 0.060360 -0.018808 112751.000000 0 0 1
-6.825873 11.569888 -26.720278 29.906991 -1.037785 2.675756 0.055451 -0.020324 316578.000000 0 0 1
-6.454173 12.234888 -27.925308 31.163627 -1.085374 2.681669 0.067548 -0.040408 -564846.000000 0 0 1
-5.065473 12.271188 -28.020448 31.006235 -1.179310 2.699139 0.072731 -0.034687 -818819.000000 0 0 1
-4.606273 12.703988 -29.414998 32.370529 -1.222954 2.710948 0.077327 -0.031516 190460.000000 0 0 1
-3.193773 12.846688 -29.367858 32.213486 -1.327129 2.718110 0.104132 -0.046630 282546.000000 0 0 1
-2.571173 12.992488 -30.637378 33.377607 -1.375424 2.733557 0.110257 -0.046155 225941.000000 0 0 1
-1.045073 12.792788 -30.683468 33.259928 -1.489285 2.745396 0.139928 -0.060569 -293612.000000 0 0 1
-0.795373 11.474088 -30.148178 32.267630 -1.501588 2.777133 0.118884 -0.036870 807979.000000 0 0 1
0.545927 10.954188 -30.269888 32.195627 1.521000 2.793973 0.128891 -0.045885 952792.000000 0 0 1
0.981027 10.579988 -31.730008 33.461799 1.478336 2.818461 0.146616 -0.043292 -292026.000000 0 0 1
1.480227 11.651788 -32.484628 34.542818 1.444435 2.794649 0.148019 -0.049338 43330.800000 0 0 1
1.440127 11.262988 -33.865018 35.717899 1.443623 2.818080 0.159314 -0.047235 49769.300000 0 0 1
1.878227 12.378688 33.185712 35.469017 1.420214 0.360770 0.145373 -0.050564 181865.000000 0 0 1
3.290327 12.519188 33.185289 35.620496 1.313786 0.371911 0.158049 -0.054147 2736.830000 0 0 1
3.640427 13.358388 32.068850 34.930079 1.304737 0.407569 0.148452 -0.041876 245449.000000 0 0 1
5.174327 13.433888 31.877178 34.977100 1.203140 0.424189 0.152011 -0.042766 -27828.700000 0 0 1
5.735427 12.220088 31.489858 34.261303 1.131973 0.404984 0.169783 -0.048648 382571.000000 0 0 1
7.164527 12.285488 31.515678 34.576027 1.042844 0.423906 0.151402 -0.037889 751307.000000 0 0 1
7.821627 10.987588 30.952248 33.763096 0.952155 0.410934 0.123823 -0.027079 -2737.330000 0 0 1
7.490927 10.807688 29.569628 32.361753 0.964709 0.418446 0.129535 -0.029271 93535.800000 0 0 1
8.251527 9.798588 28.931658 31.640810 0.870898 0.416828 0.113383 -0.023406 107588.000000 0 0 1
7.498527 9.068688 27.787578 30.176456 0.879891 0.400576 0.094610 -0.019994 3041.530000 0 0 1
6.573027 8.171488 28.338618 30.216803 0.893387 0.354434 0.102489 -0.028112 -45464.200000 0 0 1
6.011927 7.288188 27.370058 28.954810 0.881064 0.332381 0.110571 -0.029487 -61016.000000 0 0 1
5.352727 6.012488 27.932278 29.069122 0.843384 0.280592 0.120489 -0.035467 37657.600000 0 0 1
6.195427 4.943788 28.346738 29.434027 0.673504 0.272652 0.100597 -0.029291 -97482.500000 0 0 1
5.649627 4.286488 29.459408 30.300974 0.649059 0.236233 0.089465 -0.034325 -414354.000000 0 0 1
6.419927 3.113988 30.055678 30.891037 0.451617 0.233087 0.102701 -0.025969 -343328.000000 0 0 1
6.300127 1.843688 29.443718 30.166593 0.284694 0.219359 0.090383 -0.018362 117627.000000 0 0 1
7.286227 1.591788 28.450558 29.411854 0.215086 0.256373 0.083692 -0.021052 93852.300000 0 0 1
7.131827 0.156388 27.877108 28.775347 0.021925 0.250517 0.061071 -0.018947 -49242.800000 0 0 1
7.487427 -0.828412 28.768288 29.738229 -0.110192 0.256105 0.048559 -0.018398 60179.600000 0 0 1
7.753427 -2.060512 28.091478 29.214594 -0.259751 0.278182 0.042283 -0.020121 -315463.000000 0 0 1
8.207527 -3.213112 28.994678 30.304768 -0.373143 0.295112 0.045940 -0.013042 483711.000000 0 0 1
9.555227 -3.090212 29.460478 31.125095 -0.312789 0.328527 0.052231 -0.020486 296277.000000 0 0 1
10.380627 -4.004412 28.753418 30.831020 -0.368169 0.369209 0.051346 -0.011502 -138373.000000 0 0 1
11.865127 -3.863512 29.199408 31.753951 -0.314792 0.403857 0.049755 -0.008629 366621.000000 0 0 1
12.726227 -4.875912 28.720458 31.789874 -0.365887 0.443054 0.065781 -0.009039 86159.800000 0 0 1
12.805227 -6.051912 29.518848 32.740829 -0.441499 0.447362 0.070105 -0.011779 -532209.000000 0 0 1
12.202527 -7.316112 28.881508 32.195787 -0.540094 0.457728 0.075585 -0.011374 -654834.000000 0 0 1
10.825627 -7.127112 28.754328 31.540471 -0.582227 0.423480 0.057898 -0.007693 -1103600.000000 0 0 1
10.236027 -8.342812 28.431388 31.348407 -0.683847 0.434814 0.052197 -0.008014 -548527.000000 0 0 1
8.731527 -8.136512 28.315758 30.728237 -0.750138 0.398897 0.057495 -0.010944 -254419.000000 0 0 1
7.973427 -7.884912 29.538138 31.595079 -0.779817 0.362828 0.070395 -0.014656 167047.000000 0 0 1
6.620427 -7.846112 29.140378 30.895844 -0.869922 0.338719 0.053501 -0.007578 255117.000000 0 0 1
5.782227 -7.098612 30.304728 31.657558 -0.887242 0.293398 0.053877 -0.019343 457410.000000 0 0 1
5.990527 -7.669712 31.567308 33.033405 -0.907710 0.299047 0.062250 -0.024853 36069.700000 0 0 1
5.327127 -6.915712 32.547719 33.698062 -0.914433 0.262041 0.065578 -0.022011 41493.000000 0 0 1
6.098427 -5.689912 33.196978 34.228720 -0.750758 0.246151 0.072813 -0.020674 142204.000000 0 0 1
6.060027 -4.578412 32.294556 33.175656 -0.647018 0.230985 0.073839 -0.016852 -76250.800000 0 0 1
6.650227 -3.482212 32.904223 33.749655 -0.482367 0.224301 0.067561 -0.007769 -332378.000000 0 0 1
6.640327 -2.175612 32.102306 32.854000 -0.316614 0.214325 0.060989 0.000721 -1014090.000000 0 0 1
5.345927 -1.792412 31.826678 32.322270 -0.323506 0.175341 0.071701 -0.003780 -1018820.000000 0 0 1
5.255427 -0.502612 31.298268 31.740412 -0.095347 0.167107 0.063530 -0.013651 -750982.000000 0 0 1
3.831127 -0.193912 30.880128 31.117478 -0.050572 0.123590 0.074686 -0.017460 -215753.000000 0 0 1
3.035527 0.057988 32.043690 32.187201 0.019101 0.094466 0.074032 -0.016208 -14112.800000 0 0 1
1.667027 0.290088 31.772288 31.817314 0.172290 0.053206 0.080554 -0.017810 12383.700000 0 0 1
0.897527 0.802788 33.006296 33.028255 0.729737 0.036467 0.074312 -0.016411 -146627.000000 0 0 1
1.213927 2.066588 33.467058 33.552770 1.039688 0.071493 0.077883 -0.010600 -62152.300000 0 0 1
0.543427 2.275088 -33.345618 33.427557 1.336330 3.071561 0.062071 -0.013508 -90742.400000 0 0 1
1.006627 3.525988 -32.471078 32.677466 1.292706 3.029142 0.068710 -0.017198 142330.000000 0 0 1
2.147727 3.253388 -31.684038 31.922963 0.987318 3.019169 0.050424 0.003829 -38055.900000 0 0 1
2.606827 4.325788 -30.895338 31.305429 1.028449 2.979553 0.053000 -0.002489 209469.000000 0 0 1
3.807827 3.950988 -29.977088 30.475165 0.803847 2.960549 0.050050 0.001689 94045.200000 0 0 1
3.453027 3.160188 -28.900218 29.276830 0.741146 2.981022 0.045251 -0.000007 -264066.000000 0 0 1
4.532727 2.925188 -28.033598 28.547942 0.573098 2.951481 0.048973 -0.003732 -294252.000000 0 0 1
4.201727 2.162088 -26.770278 27.184130 0.475237 2.966877 0.042458 -0.003270 -137076.000000 0 0 1
4.153327 0.746588 -27.016888 27.344465 0.177857 2.986650 0.045719 -0.004710 -65373.500000 0 0 1
3.568327 0.069288 -25.943958 26.188294 0.019415 3.004885 0.052503 -0.006517 -151247.000000 0 0 1
4.118427 -1.372912 -25.667308 26.031847 -0.321773 2.974043 0.054293 -0.019691 -812894.000000 0 0 1
5.388127 -1.379612 -25.133308 25.741376 -0.250661 2.923805 0.042386 -0.023681 -1054720.000000 0 0 1
5.706727 -2.721712 -24.917118 25.706755 -0.445022 2.893095 0.049907 -0.028752 374251.000000 0 0 1
7.153827 -3.149312 -24.492418 25.709414 -0.414698 2.832676 0.056872 -0.032459 829421.000000 0 0 1
8.137427 -2.932312 -25.490748 26.918292 -0.345864 2.814460 0.052479 -0.020372 247262.000000 0 0 1
9.401827 -3.396112 -24.988618 26.913918 -0.346634 2.761054 0.042941 -0.016653 622109.000000 0 0 1
-30.063383 -3.763412 17.490938 34.984328 0.124535 1.047238 0.141318 -0.034311 -252582.000000 0 0 1
-31.445373 -3.759612 17.708438 36.284087 0.118995 1.060942 0.102488 -0.013253 -579826.000000 0 0 1
-31.760703 -4.776712 18.642238 37.136132 0.149278 1.044890 0.091757 -0.016526 -132948.000000 0 0 1
-33.209983 -4.655812 19.119638 38.602333 0.139285 1.052619 0.072267 -0.011722 -138725.000000 0 0 1
-34.145003 -4.649512 18.064638 38.907973 0.135337 1.087962 0.062236 -0.015192 -419878.000000 0 0 1
-35.469883 -4.692212 18.533938 40.294371 0.131524 1.092842 0.063176 -0.002298 -321537.000000 0 0 1
-36.436363 -4.600412 17.347838 40.616743 0.125594 1.129502 0.036222 -0.001199 103181.000000 0 0 1
36.177569 -4.793412 17.705038 40.561826 -0.131730 1.119097 0.056262 -0.005506 323622.000000 0 0 1
35.257559 -4.817512 16.639338 39.283222 -0.135797 1.133410 0.034853 -0.006675 573513.000000 0 0 1
33.846679 -5.357712 17.013438 38.259115 -0.156991 1.109968 0.042983 -0.006300 285868.000000 0 0 1
33.113839 -4.579012 17.915438 37.926991 -0.137410 1.078823 0.074916 -0.019305 -213281.000000 0 0 1
31.916269 -5.220112 18.252338 37.135504 -0.162121 1.056978 0.133367 -0.026339 -549285.000000 0 0 1
31.422689 -4.823712 19.621538 37.358511 -0.152321 1.017820 0.143845 -0.022606 -231510.000000 0 0 1
30.409059 -3.835112 19.698438 36.434152 -0.125455 0.999577 0.147669 -0.023843 509327.000000 0 0 1
30.866319 -2.504112 19.381738 36.532890 -0.080950 1.011572 0.126161 -0.023623 -117901.000000 0 0 1
29.652589 -1.583512 19.468338 35.507742 -0.053351 0.990485 0.127140 -0.007946 138478.000000 0 0 1
30.051799 -0.199612 19.402938 35.771840 -0.006642 0.997495 0.111564 -0.007717 977990.000000 0 0 1
28.914019 0.649888 19.721038 35.005174 0.022473 0.972331 0.101142 -0.001844 1050560.000000 0 0 1
29.122019 2.070888 19.226738 34.957804 0.070991 0.988434 0.099939 -0.004861 91576.100000 0 0 1
29.152039 2.107488 17.813538 34.228717 0.072167 1.023446 0.095561 -0.010125 -22599.400000 0 0 1
28.912889 3.432688 17.390138 33.913942 0.118172 1.032385 0.091220 -0.007422 197582.000000 0 0 1
28.491279 3.479488 15.895938 32.810680 0.121523 1.065034 0.097727 -0.013136 -33603.900000 0 0 1
28.153979 4.748988 15.402038 32.441058 0.167106 1.076094 0.094738 -0.006300 139649.000000 0 0 1
27.741979 4.650288 14.019138 31.428949 0.166082 1.108440 0.081103 -0.008389 -555951.000000 0 0 1
27.246179 6.006688 13.446438 30.971621 0.216989 1.121698 0.081880 0.000886 183660.000000 0 0 1
26.060179 6.396688 14.141638 30.332103 0.240700 1.085776 0.067222 -0.000018 521963.000000 0 0 1
25.553079 7.618388 13.612138 29.938103 0.289749 1.098788 0.077006 -0.016374 -95041.300000 0 0 1
24.182379 8.115588 14.149438 29.169451 0.323788 1.064345 0.076896 -0.022639 424553.000000 0 0 1
22.951179 7.507388 13.841738 27.833635 0.316132 1.050309 0.086048 -0.017752 564233.000000 0 0 1
22.839679 6.151588 14.288938 27.634521 0.263094 1.027374 0.094524 -0.019070 -585340.000000 0 0 1
21.521679 5.486888 13.794438 26.145270 0.249629 1.015015 0.109907 -0.020679 51129.900000 0 0 1
21.343979 5.481088 12.362338 25.267275 0.251366 1.059552 0.115288 -0.027252 792478.000000 0 0 1
20.291879 4.612188 11.939338 23.991258 0.223495 1.049905 0.116825 -0.027078 19558.000000 0 1 0
20.115179 4.574888 10.451938 23.125593 0.223631 1.101830 0.128073 -0.033515 -546691.000000 0 1 0
21.159779 3.877788 9.828138 23.650916 0.181251 1.142249 0.141427 -0.034685 287107.000000 0 1 0
20.911479 3.674988 8.463738 22.856736 0.173964 1.191470 0.157393 -0.033228 -384661.000000 0 1 0
22.007679 2.874188 7.767138 23.514407 0.129864 1.234160 0.147490 -0.028427 -1149020.000000 0 1 0
22.166279 1.584688 8.229138 23.697550 0.071370 1.216152 0.149823 -0.037604 498435.000000 0 1 0
22.887679 0.699188 7.369738 24.055099 0.030539 1.259420 0.138779 -0.028075 -626167.000000 0 1 0
24.409279 0.909488 7.230538 25.473923 0.037243 1.282999 0.132998 -0.027921 -350565.000000 0 0 1
25.211579 0.453288 8.336438 26.557963 0.017977 1.251503 0.115088 -0.016123 166895.000000 0 0 1
25.099579 1.244788 9.495738 26.864613 0.049553 1.209522 0.116233 -0.024295 -1077270.000000 0 0 1
25.870579 0.585088 10.606038 27.966359 0.022612 1.181819 0.103700 -0.019634 221245.000000 0 0 1
27.285179 0.623788 10.426838 29.216247 0.022858 1.205865 0.094347 -0.027782 326654.000000 0 0 1
27.888479 -0.045512 11.488138 30.162007 -0.001632 1.180047 0.108488 -0.020428 -194071.000000 0 0 1
29.428119 -0.029712 11.575738 31.622979 -0.001010 1.196030 0.116022 -0.020330 264525.000000 0 0 1
29.942219 1.279788 11.895638 32.244078 0.042716 1.192944 0.106744 -0.006978 773317.000000 0 0 1
31.287669 1.180388 12.392738 33.673306 0.037709 1.193908 0.104437 -0.015690 470679.000000 0 0 1
31.872919 2.556188 12.825338 34.451508 0.080028 1.189340 0.090906 -0.016499 43000.800000 0 0 1
32.570139 3.276588 11.810538 34.799983 0.100264 1.224535 0.096526 -0.027947 401196.000000 0 0 1
33.090309 4.482088 12.328738 35.595723 0.134631 1.217114 0.087861 -0.026605 62912.100000 0 0 1
34.585409 4.775988 12.075838 36.943017 0.137225 1.237799 0.104144 -0.024054 28359.800000 0 0 1
35.436589 3.811788 12.654638 37.820913 0.107154 1.229622 0.103630 -0.029975 684794.000000 0 0 1
36.821509 4.050588 12.385938 39.059471 0.109565 1.248121 0.120921 -0.024209 509325.000000 0 0 1
-36.219823 3.072388 13.123138 38.646240 -0.084624 1.224336 0.123930 -0.019987 -955274.000000 0 0 1
-36.188793 1.709188 12.647338 38.373236 -0.047195 1.234930 0.109652 -0.023044 894305.000000 0 0 1
36.613079 0.874288 12.827938 38.805128 0.023875 1.233885 0.088537 -0.018969 372474.000000 0 0 1
36.156919 0.586888 14.240738 38.864713 0.016230 1.195640 0.088433 -0.011880 -320971.000000 0 0 1
-36.985023 -0.249812 15.045038 39.928780 0.006754 1.184460 0.090593 -0.014043 253312.000000 0 0 1
36.579949 -0.283512 16.383938 40.082496 -0.007750 1.149706 0.091760 -0.018032 -326507.000000 0 0 1
-36.354323 -0.949512 17.280338 40.263488 0.026112 1.127210 0.099565 -0.013722 -464163.000000 0 0 1
-35.143461 -0.248812 17.450538 39.238324 0.007080 1.109921 0.122823 -0.021272 -522338.000000 0 0 1
-34.214738 -0.914912 18.227138 38.777750 0.026734 1.081459 0.115246 -0.018893 -359771.000000 0 0 1
-34.354943 -0.761212 19.745038 39.632160 0.022154 1.049266 0.117152 -0.029903 -1117700.000000 0 0 1
-35.302352 -1.583812 20.306438 40.756790 0.044834 1.049235 0.095735 -0.025243 -498757.000000 0 0 1
-35.427799 -1.516312 21.716738 41.581785 0.042774 1.021291 0.097575 -0.025924 -21620.600000 0 0 1
-35.754406 -2.866512 22.453438 42.317270 0.080001 1.011491 0.062767 -0.021649 -214363.000000 0 0 1
-34.719218 -3.829912 22.432338 41.512674 0.109867 0.999916 0.080967 -0.022172 -171665.000000 0 0 1
-34.912361 -5.107412 23.025438 42.132285 0.145262 0.992613 0.067986 -0.017941 -105936.000000 0 0 1
-35.144040 -5.165312 24.550458 43.179961 0.145931 0.966040 0.067131 -0.027623 389869.000000 0 0 1
-33.929663 -4.822812 25.189448 42.532221 0.141196 0.936956 0.078932 -0.027286 -131725.000000 0 0 1
-34.120585 -4.726612 26.598298 43.520393 0.137651 0.913260 0.073297 -0.030718 -398593.000000 0 0 1
-32.959823 -4.017112 27.264098 42.962986 0.121281 0.883312 0.077688 -0.028462 -636415.000000 0 0 1
-32.908133 -2.602112 27.177188 42.758809 0.078908 0.882020 0.074673 -0.028774 -232204.000000 0 0 1
-32.455323 -2.070212 25.960448 41.612241 0.063700 0.897117 0.084820 -0.032712 -377408.000000 0 0 1
-32.491453 -0.482712 25.896138 41.551624 0.014855 0.897933 0.099057 -0.037981 722299.000000 0 0 1
-33.684213 0.095888 25.316468 42.137382 -0.002847 0.926285 0.104750 -0.037100 518109.000000 0 0 1
-33.608363 1.514388 25.135368 41.995264 -0.045029 0.929133 0.122636 -0.028851 844005.000000 0 0 1
-34.954280 2.204088 24.650228 42.828652 -0.062973 0.957514 0.124966 -0.025267 951028.000000 0 0 1
-35.354595 1.830788 23.342248 42.404713 -0.051737 0.987877 0.146934 -0.025902 -578086.000000 0 0 1
-36.512033 2.487388 22.926238 43.184813 -0.068020 1.011150 0.132319 -0.019478 -10053.100000 0 0 1
-36.192463 3.877388 22.232738 42.652352 -0.106725 1.022476 0.123140 -0.011741 -45497.000000 0 0 1
-35.579975 3.894388 20.974738 41.485425 -0.109021 1.040727 0.134810 -0.023101 -552545.000000 0 0 1
-36.422803 3.367888 19.995438 41.686698 -0.092204 1.070529 0.129820 -0.029151 -172221.000000 0 0 1
-35.822295 2.655688 18.731638 40.511279 -0.074000 1.090118 0.142988 -0.030972 -342301.000000 0 0 1
-35.177480 3.571888 17.898738 39.630523 -0.101192 1.102193 0.153207 -0.038513 -384658.000000 0 0 1
-34.580709 2.838088 16.878638 38.584564 -0.081888 1.118041 0.168426 -0.026075 53694.000000 0 0 1
-33.663133 3.779988 16.002338 37.464245 -0.111820 1.129473 0.160124 -0.024600 202636.000000 0 0 1
-34.411170 4.792788 15.371538 37.991889 -0.138390 1.154254 0.152704 -0.024961 -689061.000000 0 0 1
-33.622933 5.564188 14.544538 37.054087 -0.164002 1.167424 0.163347 -0.022260 -291670.000000 0 0 1
-34.217885 6.740988 13.664138 37.456818 -0.194511 1.197381 0.164354 -0.029914 1076880.000000 0 0 1
-33.102103 7.528188 13.162538 36.409823 -0.223620 1.200909 0.182918 -0.030454 1201210.000000 0 0 1
-33.603723 8.518988 12.301338 36.784593 -0.248282 1.229811 0.152999 -0.029834 240814.000000 0 0 1
-32.439743 9.339988 11.687038 35.723370 -0.280336 1.237506 0.184313 -0.031491 474659.000000 0 0 1
-32.957553 10.523488 11.090338 36.330974 -0.309072 1.260586 0.159612 -0.011398 640956.000000 0 0 1
-31.939973 11.229488 10.347238 35.402381 -0.338083 1.274191 0.161073 -0.033511 436203.000000 0 0 1
-32.296603 12.710688 9.981338 36.114530 -0.374943 1.290771 0.132918 -0.021485 48015.000000 0 0 1
-31.300973 13.442788 9.280838 35.307130 -0.405650 1.304811 0.143351 -0.029403 59979.800000 0 0 1
-31.541393 14.813688 9.468938 36.110464 -0.439081 1.305473 0.111379 -0.019163 150341.000000 0 0 1
-30.602803 15.778888 8.695338 35.512163 -0.476052 1.323426 0.105712 -0.016817 817514.000000 0 0 1
-29.245913 15.779188 9.172538 34.473782 -0.494773 1.301480 0.127603 -0.011625 507925.000000 0 0 1
-28.442563 16.613088 8.368538 33.985387 -0.528641 1.321998 0.113576 -0.033382 654378.000000 0 0 1
-26.933093 16.547588 8.839638 32.823061 -0.550938 1.298118 0.123048 -0.026877 741919.000000 0 0 1
-26.622523 16.931088 10.153238 33.143758 -0.566448 1.259451 0.116526 -0.026331 88644.300000 0 0 1
-26.820953 18.325688 10.355138 34.094329 -0.599403 1.262201 0.111141 -0.029613 -402404.000000 0 0 1
-26.685863 18.802788 11.813238 34.716462 -0.613805 1.223584 0.108039 -0.019224 -622588.000000 0 0 1
-25.438923 18.757288 12.427038 33.961830 -0.635353 1.196184 0.100065 -0.019073 -550105.000000 0 0 1
-25.419883 19.280588 13.748138 34.740795 -0.648909 1.163929 0.101705 -0.015658 11357.500000 0 0 1
-25.938903 18.382288 14.893738 35.107814 -0.616525 1.132686 0.091104 -0.012325 310096.000000 0 0 1
-25.111453 17.202888 15.037038 33.950507 -0.600630 1.111954 0.097717 -0.017270 353557.000000 0 0 1
-25.510943 16.471488 16.159738 34.398478 -0.573321 1.081754 0.104648 -0.014858 -968420.000000 0 0 1
-24.656473 15.330688 16.594838 33.441894 -0.556274 1.051546 0.096202 -0.016872 -1005180.000000 0 0 1
-23.547473 15.791088 17.310038 33.218660 -0.590725 1.022664 0.078461 -0.006990 49151.200000 0 0 1
-22.545773 14.759888 17.488438 32.124938 -0.579646 0.995137 0.060538 -0.015229 503763.000000 0 0 1
-22.792773 13.690588 18.580838 32.437482 -0.540901 0.960854 0.077663 -0.015798 -587954.000000 0 0 1
-22.730873 14.171388 19.908438 33.374642 -0.557478 0.931646 0.077955 -0.016081 178124.000000 0 0 1
-22.987173 13.106188 20.797438 33.655842 -0.518183 0.904671 0.078612 -0.021157 -515015.000000 0 0 1
-22.775173 13.549488 22.279138 34.621628 -0.536679 0.871730 0.076303 -0.008230 383742.000000 0 0 1
-21.456573 13.855188 22.724538 34.187065 -0.573369 0.843689 0.077655 -0.009402 433689.000000 0 0 1
-20.941573 15.089288 22.368938 34.155607 -0.624380 0.856729 0.065734 -0.003046 -819086.000000 0 0 1
-19.424073 15.232488 22.562638 33.442427 -0.665036 0.830277 0.061731 -0.009022 -91656.000000 0 0 1
-18.671573 14.551388 21.585938 32.036280 -0.662012 0.831461 0.043820 -0.010972 39408.700000 0 0 1
-18.192473 15.409388 20.535138 31.465969 -0.702761 0.859767 0.049000 -0.011974 -1402100.000000 0 0 1
-17.180173 14.828288 19.551638 29.955017 -0.712053 0.859654 0.029837 -0.005463 1449020.000000 0 0 1
-15.869873 14.545288 20.139238 29.478928 -0.741876 0.818696 0.028985 -0.005438 1648730.000000 0 0 1
-15.092773 15.705088 20.468038 29.889499 -0.805277 0.816480 0.020137 -0.009675 -169179.000000 0 0 1
-13.977073 15.480788 21.581938 30.013221 -0.836400 0.768317 0.008654 -0.002694 1947990.000000 0 0 1
-12.765473 14.832788 21.045538 28.738190 -0.860166 0.749074 0.004287 -0.005362 1045790.000000 0 0 1
-11.916673 14.542088 22.129338 29.037683 -0.884301 0.704261 0.023331 -0.000188 -454288.000000 0 0 1
-10.698173 13.727688 21.743138 27.850752 -0.908797 0.675008 0.022408 -0.001274 -1379160.000000 0 0 1
-10.219073 12.965588 22.841338 28.182666 -0.903311 0.625834 0.030706 -0.006776 941424.000000 0 0 1
-9.006473 12.202088 22.598838 27.216080 -0.934949 0.591063 0.046080 0.003813 1278300.000000 0 0 1
-7.725973 13.078088 22.620838 27.247557 -1.037201 0.591335 0.046317 0.008019 -696381.000000 0 0 1
-7.564273 13.804888 21.403938 26.569188 -1.069535 0.634121 0.042486 0.000675 -681500.000000 0 0 1
-6.856473 14.989488 21.541338 27.124255 -1.141790 0.653152 0.040567 0.004643 -472912.000000 0 0 1
-7.445573 16.181988 22.389738 28.611076 -1.139563 0.672037 0.038454 0.004203 137358.000000 0 0 1
-8.521073 16.904788 21.779738 28.857192 -1.103904 0.715535 0.005391 0.007133 147556.000000 0 0 1
-8.105973 17.772588 20.682738 28.449031 -1.142886 0.756839 0.022807 0.001750 -362016.000000 0 0 1
-9.270073 17.988388 19.672538 28.222777 -1.094955 0.799529 0.031635 0.006012 422821.000000 0 0 1
-10.314473 18.839688 20.019038 29.361269 -1.069885 0.820551 0.005942 0.010551 -561961.000000 0 0 1
-11.247573 18.261588 20.915638 29.957594 -1.018757 0.797951 0.007040 0.006636 -645352.000000 0 0 1
-12.596273 19.028188 20.880638 30.931199 -0.986046 0.829741 0.002099 0.005009 -109944.000000 0 0 1
-13.412773 18.680188 19.799738 30.346030 -0.948078 0.859963 0.008799 0.005592 -192060.000000 0 0 1
-14.594473 19.469088 19.836138 31.392936 -0.927537 0.886838 0.002681 -0.002307 277170.000000 0 0 1
-15.269473 19.368188 18.420338 30.782988 -0.903182 0.929302 0.014343 0.002387 -150839.000000 0 0 1
-15.977773 18.183788 18.190238 30.279104 -0.849885 0.926355 0.031214 0.001407 -214606.000000 0 0 1
-16.549873 18.287288 16.931438 29.916497 -0.835229 0.969203 0.041090 -0.004616 -1088760.000000 0 0 1
-17.362673 17.019888 16.546238 29.409471 -0.775429 0.973250 0.041311 -0.012154 915270.000000 0 0 1
-18.457273 16.657188 17.414338 30.354440 -0.734180 0.959780 0.048384 -0.016078 807307.000000 0 0 1
-19.536373 17.585488 17.446038 31.548114 -0.732893 0.984838 0.062905 -0.013338 -609593.000000 0 0 1
35.317719 -9.738012 11.510982 38.401470 -0.269041 1.266362 0.049456 -0.015582 690427.000000 0 0 1
33.930049 -10.109112 11.490582 37.221981 -0.289566 1.256966 0.073350 -0.014252 798618.000000 0 0 1
33.595589 -11.136112 12.404982 37.504136 -0.320077 1.233684 0.055861 -0.007577 -1276580.000000 0 0 1
32.177479 -11.614312 12.345182 36.368749 -0.346392 1.224470 0.091454 -0.001020 -1747780.000000 0 0 1
31.245009 -10.587712 12.561782 35.300830 -0.326717 1.206973 0.103529 -0.008058 808363.000000 0 0 1
29.877659 -11.017012 12.413982 34.178298 -0.353269 1.199083 0.105618 -0.003294 1192550.000000 0 0 1
29.285569 -11.857512 13.602882 34.398889 -0.384717 1.164244 0.106724 -0.000627 -1090410.000000 0 0 1
29.429819 -11.231412 14.868382 34.832853 -0.364574 1.129790 0.126460 -0.013235 614865.000000 0 0 1
28.601079 -11.851812 15.894582 34.801220 -0.392844 1.096486 0.132833 -0.020097 1845870.000000 0 0 1
27.061079 -11.475612 15.775082 33.359330 -0.401077 1.078236 0.138144 -0.029172 854755.000000 0 0 1
26.851679 -10.121512 16.101782 32.904788 -0.360472 1.059458 0.122017 -0.022422 -294661.000000 0 0 1
25.591979 -9.646812 15.690982 31.531212 -0.360476 1.049928 0.160686 -0.022427 78128.400000 0 0 1
25.418779 -8.212812 16.190982 31.236397 -0.312513 1.025891 0.190002 -0.030339 -21377.500000 0 0 1
26.309579 -7.347412 15.546482 31.430424 -0.272329 1.053385 0.177538 -0.028797 -235989.000000 0 0 1
26.215679 -6.035112 16.138082 31.370721 -0.226268 1.030452 0.166321 -0.034926 7124.530000 0 0 1
27.537079 -5.256912 15.992282 32.275051 -0.188633 1.052386 0.168245 -0.031806 -150925.000000 0 0 1
27.908279 -4.989312 14.699982 31.935165 -0.176906 1.092455 0.174019 -0.038355 -159734.000000 0 0 1
29.135129 -4.309712 14.724782 32.927930 -0.146857 1.107184 0.158533 -0.025535 -353088.000000 0 0 1
29.408849 -3.596212 13.401782 32.518009 -0.121679 1.146001 0.153621 -0.034687 -665165.000000 0 0 1
30.178669 -4.435112 12.629382 33.013991 -0.145917 1.178246 0.127020 -0.038223 -95808.200000 0 0 1
30.168629 -3.952612 11.306482 32.459296 -0.130275 1.215010 0.128710 -0.048470 -121118.000000 0 0 1
30.670439 -4.938112 10.234582 32.707911 -0.159636 1.252543 0.136586 -0.049915 -481678.000000 0 0 1
32.063559 -5.049812 10.163782 34.012864 -0.156211 1.267339 0.118645 -0.045083 -259721.000000 0 0 1
32.427449 -5.713512 8.997482 34.134123 -0.174404 1.304052 0.116591 -0.042265 313246.000000 0 0 1
33.829519 -6.406412 9.079082 35.607699 -0.187157 1.312974 0.093422 -0.031406 544795.000000 0 0 1
34.936829 -5.534012 8.959682 36.489495 -0.157095 1.322718 0.086029 -0.032179 376154.000000 0 0 1
36.145089 -6.305612 8.893182 37.753370 -0.172715 1.333002 0.080976 -0.035499 1455130.000000 0 0 1
-36.562703 -5.437212 8.486082 37.926351 0.147627 1.345134 0.085846 -0.023665 830871.000000 0 0 1
-36.645443 -4.864812 7.231582 37.667634 0.131982 1.377613 0.090074 -0.029709 -325330.000000 0 0 1
-35.654451 -3.889912 7.103682 36.562735 0.108671 1.375265 0.100419 -0.020152 -275765.000000 0 0 1
-35.621119 -3.145012 5.709382 36.212598 0.088062 1.412473 0.108365 -0.034659 -192884.000000 0 0 1
-35.222601 -3.870612 4.544882 35.724910 0.109451 1.443232 0.102771 -0.034491 110926.000000 0 0 1
-35.490477 -3.235512 3.322982 35.792243 0.090914 1.477822 0.103704 -0.026681 -24271.600000 0 0 1
-34.524889 -3.707512 2.219982 34.794280 0.106977 1.506950 0.126005 -0.029853 -58669.800000 0 0 1
-34.750988 -5.026112 1.723282 35.154838 0.143636 1.521757 0.127930 -0.018883 -719640.000000 0 0 1
-35.904825 -5.181312 0.977582 36.289917 0.143317 1.543855 0.122711 -0.018905 -986549.000000 0 0 1
-35.695975 -5.188412 -0.502618 36.074574 0.144339 1.584730 0.154807 -0.030641 -562648.000000 0 0 1
-35.081410 -6.451312 -0.814518 35.678960 0.181864 1.593627 0.143303 -0.037956 372620.000000 0 0 1
-34.263265 -6.422312 -1.955718 34.914785 0.185290 1.626840 0.148913 -0.039215 -45960.500000 0 0 1
-32.802683 -5.937812 -1.742118 33.381261 0.179077 1.623009 0.126457 -0.041472 -3109.730000 0 0 1
-32.064263 -6.982412 -1.047218 32.832418 0.214416 1.602698 0.129891 -0.036421 169796.000000 0 0 1
-30.983413 -6.354912 -0.364918 31.630522 0.202301 1.582333 0.126087 -0.042238 -153012.000000 0 0 1
-30.307433 -7.346912 0.594782 31.190886 0.237825 1.551726 0.133290 -0.036070 -681375.000000 0 0 1
-29.573313 -8.218812 -0.206318 30.694825 0.271073 1.577518 0.136480 -0.035323 72470.900000 0 0 1
-28.944603 -9.137012 0.653082 30.359538 0.305772 1.549283 0.143709 -0.026472 -360397.000000 0 0 1
-28.704493 -10.545312 0.059782 30.580305 0.352069 1.568841 0.125744 -0.025392 -398168.000000 0 0 1
-27.631053 -10.650712 -0.838418 29.624579 0.367911 1.599102 0.147710 -0.028374 -19271.200000 0 0 1
-27.310903 -11.932912 -1.421518 29.837904 0.411931 1.618456 0.140695 -0.014101 -66728.900000 0 0 1
-28.340293 -12.814412 -2.185918 31.179474 0.424651 1.640961 0.137294 -0.021604 -15773.400000 0 0 1
-29.330573 -13.504012 -1.455418 32.322733 0.431475 1.615839 0.148458 -0.030221 393962.000000 0 0 1
-30.217473 -14.187912 -2.296918 33.461446 0.438973 1.639494 0.127196 -0.030203 -281824.000000 0 0 1
-31.219553 -15.128712 -1.588218 34.728387 0.451245 1.616545 0.110022 -0.019630 -185806.000000 0 0 1
-30.642163 -16.282712 -1.032418 34.715051 0.488437 1.600540 0.067154 -0.013350 516174.000000 0 0 1
-31.593043 -16.882512 -0.159918 35.821294 0.490767 1.575261 0.077295 -0.005473 187908.000000 0 0 1
-31.710013 -18.450812 -0.345718 36.688921 0.526975 1.580219 0.072240 -0.006746 22728.000000 0 0 1
-30.597293 -19.126412 0.221482 36.084110 0.558672 1.564658 0.082361 -0.017529 547876.000000 0 0 1
-30.827903 -20.511812 0.195582 37.028803 0.587101 1.565514 0.079775 -0.021037 30116.200000 0 0 1
-31.627003 -21.166312 1.352782 38.080311 0.589788 1.535264 0.085213 -0.017812 237398.000000 0 0 1
-30.861953 -21.244012 2.589182 37.556252 0.602868 1.501800 0.086694 -0.025696 1480020.000000 0 0 1
-31.754313 -21.698012 3.643482 38.631788 0.599436 1.476343 0.082329 -0.029328 982600.000000 0 0 1
-30.864893 -21.860112 4.909782 38.139377 0.616243 1.441705 0.068317 -0.018645 233964.000000 0 0 1
-30.507983 -20.619112 5.510682 37.232411 0.594340 1.422243 0.051061 -0.021610 -1193350.000000 0 0 1
-29.406753 -20.835412 6.286982 36.584117 0.616424 1.398089 0.058507 -0.028521 -997175.000000 0 0 1
-28.975803 -19.528812 6.984182 35.633558 0.593041 1.373519 0.057631 -0.023691 -224704.000000 0 0 1
-28.048143 -19.852312 7.981182 35.277640 0.615938 1.342581 0.056139 -0.027817 -416422.000000 0 0 1
-27.383093 -18.747412 8.508182 34.259136 0.600339 1.319822 0.066807 -0.021568 49128.100000 0 0 1
-26.382493 -19.054912 9.628182 33.938584 0.625507 1.283152 0.079119 -0.015133 303582.000000 0 0 1
-27.067343 -19.554512 10.813682 35.099226 0.625628 1.257613 0.059549 -0.015876 389898.000000 0 0 1
-26.164183 -19.841812 11.851882 34.910300 0.648829 1.224416 0.063530 -0.012845 -237295.000000 0 0 1
-25.845423 -18.641512 12.745882 34.321267 0.624859 1.190312 0.059374 -0.008172 -448685.000000 0 0 1
-25.118573 -17.643412 12.062782 32.980955 0.612338 1.196358 0.064216 -0.003821 159274.000000 0 0 1
-24.671173 -16.479512 12.745882 32.290844 0.588902 1.165032 0.075268 -0.001014 382680.000000 0 0 1
-23.861973 -16.610412 14.073982 32.301339 0.608106 1.119971 0.077420 -0.005782 -287278.000000 0 0 1
-24.631573 -17.055112 15.132782 33.564748 0.605613 1.103075 0.076833 -0.016879 -120171.000000 0 0 1
-23.805173 -17.339612 16.243382 33.633255 0.629531 1.066769 0.092220 -0.013178 430573.000000 0 0 1
-24.612873 -18.002012 17.410282 35.113870 0.631495 1.052013 0.097081 -0.005942 427821.000000 0 0 1
-25.532693 -17.113012 18.034082 35.637083 0.590472 1.040199 0.113116 -0.009764 -554772.000000 0 0 1
-26.343493 -17.750512 18.930182 36.978535 0.592932 1.033374 0.087869 -0.001061 -1198290.000000 0 0 1
-27.313253 -16.721812 19.539082 37.515443 0.549359 1.022976 0.086692 -0.004422 -387393.000000 0 0 1
-26.726413 -15.950612 20.586982 37.316846 0.538071 0.986418 0.100608 -0.011668 259940.000000 0 0 1
-27.582233 -15.019012 21.209982 37.897409 0.498624 0.976811 0.102336 -0.016285 -42681.300000 0 0 1
-26.784163 -14.336612 22.344882 37.712379 0.491460 0.936628 0.102659 -0.017880 431150.000000 0 0 1
-25.691093 -13.604412 21.813982 36.345042 0.486998 0.927056 0.109862 -0.018053 821018.000000 0 0 1
-24.588173 -13.513812 22.728882 36.108218 0.502541 0.889931 0.099425 -0.018945 441973.000000 0 0 1
-23.364673 -12.720612 22.249082 34.680593 0.498563 0.874289 0.105322 -0.018384 -212911.000000 0 0 1
-23.503873 -11.319012 22.134982 34.212709 0.448804 0.867178 0.116897 -0.017282 -399917.000000 0 0 1
-22.568873 -10.740012 21.304682 32.841914 0.444164 0.864916 0.105775 -0.021418 -1007850.000000 0 0 1
-22.335173 -9.224112 21.693082 32.473589 0.391651 0.839248 0.100210 -0.021350 176316.000000 0 0 1
-21.694673 -8.995812 22.965082 32.847807 0.393076 0.796608 0.088004 -0.017254 -75001.100000 0 0 1
-20.348073 -9.355812 23.037382 32.129367 0.430964 0.771279 0.062595 -0.003924 -779254.000000 0 0 1
-19.909373 -9.530212 24.500182 32.976764 0.446446 0.733325 0.034203 -0.017270 59018.000000 0 0 1
-20.319773 -10.762712 24.995382 33.963190 0.487099 0.743720 0.048538 -0.011841 -14913.600000 0 0 1
-19.643673 -10.979612 26.222182 34.554719 0.509680 0.709236 0.048220 -0.019493 -695315.000000 0 0 1
-19.636273 -12.347212 26.939582 35.549654 0.561324 0.710859 0.052964 -0.027727 489278.000000 0 0 1
-20.877373 -12.681812 27.558282 36.825968 0.545874 0.725243 0.054150 -0.022393 682636.000000 0 0 1
-21.892273 -13.210512 26.675782 36.951138 0.542940 0.764223 0.049750 -0.017726 1763740.000000 0 0 1
-23.223773 -13.641312 27.462582 38.465860 0.531093 0.775677 0.047892 -0.014970 1211110.000000 0 0 1
-23.068873 -14.865612 28.076282 39.261137 0.572429 0.774006 0.043206 -0.013817 351490.000000 0 0 1
-22.352373 -14.670212 29.332882 39.689566 0.580802 0.739126 0.031824 -0.011931 285141.000000 0 0 1
-22.791273 -15.648512 30.456082 41.132602 0.601677 0.737077 0.024768 -0.010205 -533770.000000 0 0 1
-22.541373 -17.035812 30.184882 41.345610 0.647176 0.752383 0.028022 -0.010213 -84748.100000 0 0 1
-22.482173 -17.926512 31.289382 42.495098 0.673133 0.743202 0.028039 -0.010426 261658.000000 0 0 1
-23.827073 -18.295312 32.013582 43.901222 0.654820 0.753617 0.047952 -0.009694 808939.000000 0 0 1
-24.485773 -17.272512 32.758782 44.396290 0.614348 0.740884 0.051567 -0.008807 -113071.000000 0 0 1
-25.683413 -17.696812 33.345782 45.659128 0.603330 0.752006 0.066414 -0.017684 164901.000000 0 0 1
-26.553993 -16.618612 -33.912475 46.166533 0.559205 2.395827 0.054749 -0.016238 512370.000000 0 0 1
-26.183393 -16.314212 -32.544675 44.842830 0.557214 2.382920 0.060118 -0.021969 -180320.000000 0 0 1
-26.974913 -15.246012 -32.090975 44.608491 0.514432 2.373722 0.062855 -0.006687 -224810.000000 0 0 1
-26.586313 -14.501312 -30.729575 43.144256 0.499338 2.363497 0.057097 -0.000202 -138287.000000 0 0 1
-26.871383 -15.164112 -29.528375 42.707686 0.513772 2.334230 0.067385 0.001394 288029.000000 0 0 1
-26.433043 -14.386012 -28.412075 41.387306 0.498413 2.327451 0.068388 0.007394 -166559.000000 0 0 1
-26.493323 -15.157312 -27.070175 40.797483 0.519666 2.296318 0.083348 -0.002215 621310.000000 0 0 1
-27.744933 -15.332312 -26.370175 41.234054 0.504850 2.264676 0.080528 -0.003833 857425.000000 0 0 1
-28.088793 -14.352812 -25.387975 40.491144 0.472393 2.248493 0.078351 -0.003388 -650034.000000 0 0 1
-27.246443 -14.312112 -24.099275 39.089388 0.483669 2.235108 0.088719 -0.021185 -995247.000000 0 0 1
-25.987533 -13.812512 -24.404575 38.232455 0.488533 2.263111 0.088238 -0.023113 -255865.000000 0 0 1
-24.937473 -14.080912 -23.501875 37.047102 0.514020 2.258000 0.074807 -0.024125 9919.790000 0 0 1
-24.109673 -15.336212 -23.693875 37.119744 0.566543 2.263096 0.071892 -0.020399 -1158820.000000 0 0 1
-23.223973 -15.343712 -24.746675 37.244870 0.583849 2.297530 0.076954 -0.011298 -249344.000000 0 0 1
-22.736873 -16.679312 -24.825875 37.569787 0.632909 2.292672 0.090062 -0.015255 -371026.000000 0 0 1
-21.981173 -17.069012 -26.109675 38.160690 0.660264 2.324307 0.078375 -0.006222 -396530.000000 0 0 1
-22.586773 -17.198712 -27.342175 39.415131 0.650789 2.337406 0.081169 -0.006190 -412360.000000 0 0 1
-23.533973 -18.232112 -27.470175 40.507632 0.659132 2.316036 0.090195 -0.011481 -144241.000000 0 0 1
-24.261173 -18.282212 -28.807175 41.865225 0.645775 2.329654 0.080861 -0.008280 -413182.000000 0 0 1
-23.380273 -18.546012 -29.826175 42.192326 0.670601 2.355916 0.076951 -0.002046 55271.200000 0 0 1
-24.133073 -18.655112 -31.021075 43.505465 0.658066 2.364619 0.065451 0.001449 -288397.000000 0 0 1
-23.391573 -19.312212 -32.206375 44.242262 0.690160 2.386131 0.064587 -0.006052 53050.200000 0 0 1
-22.341173 -18.557812 -32.832575 43.834899 0.693156 2.417356 0.058881 -0.003575 1041460.000000 0 0 1
-21.033173 -18.674412 -32.268775 42.806563 0.726065 2.424665 0.068821 -0.010819 703622.000000 0 0 1
-20.186673 -19.858112 -32.899875 43.407927 0.777194 2.430920 0.067407 -0.010977 -323567.000000 0 0 1
-19.984473 -19.527112 33.769482 43.829957 0.773823 0.691225 0.061973 -0.010639 -125324.000000 0 0 1
-19.662673 -20.612012 32.949982 43.556596 0.808965 0.712872 0.070490 -0.012447 24801.500000 0 0 1
-20.796973 -21.221612 32.055582 43.708480 0.795504 0.747494 0.068138 -0.016688 120445.000000 0 0 1
-21.666273 -22.048112 32.792482 45.065436 0.794133 0.755887 0.069433 -0.014229 24446.400000 0 0 1
-22.767073 -22.599912 32.074482 45.363730 0.781714 0.785477 0.075251 -0.013920 47521.900000 0 0 1
-22.547673 -23.584812 30.926882 44.956789 0.807876 0.812171 0.086029 -0.014043 -709416.000000 0 0 1
-22.227873 -24.821612 31.508182 45.858001 0.840470 0.813332 0.099061 -0.010402 16361.100000 0 0 1
-22.177973 -25.958672 30.668882 45.894394 0.863778 0.838944 0.110621 -0.001926 -80768.200000 0 0 1
-21.775373 -27.270022 31.395482 46.941423 0.896965 0.838173 0.110694 -0.014224 147423.000000 0 0 1
-22.751973 -27.604352 32.377182 48.248673 0.881462 0.835175 0.104323 -0.007491 114836.000000 0 0 1
-22.325773 -28.611882 33.270682 49.234319 0.908185 0.828798 0.109133 -0.019014 -1123460.000000 0 0 1
-23.379973 -29.199462 -33.844275 50.444689 0.895629 2.306243 0.089605 -0.012005 -444556.000000 0 0 1
-24.400473 -29.869752 33.444582 51.050222 0.885838 0.856440 0.077303 -0.016679 1435140.000000 0 0 1
-25.560003 -29.102422 33.011782 50.892460 0.850113 0.864977 0.065115 -0.010762 88611.200000 0 0 1
-26.622833 -28.882782 -33.960875 51.926210 0.826091 2.283685 0.037519 -0.009842 -1530760.000000 0 0 1
-27.551283 -27.986032 33.590982 51.678286 0.793226 0.863209 0.039514 -0.008714 -110162.000000 0 0 1
-28.595983 -27.839032 -33.478475 52.091748 0.771986 2.268791 0.042371 -0.000125 88168.600000 0 0 1
-29.740613 -26.893502 -33.823275 52.457396 0.735168 2.271527 0.034378 -0.006067 -49990.000000 0 0 1
-30.844103 -27.418912 33.514582 53.163734 0.726677 0.888724 0.026704 -0.007605 -563304.000000 0 0 1
-31.841383 -26.513382 33.250782 53.126712 0.694347 0.894541 0.028266 -0.009085 -450087.000000 0 0 1
