# x y z rho theta phi s1 s2 stress_xx np intf bulk
-0.601898 -10.926123 -14.314515 18.017985 1.515764 2.488909 0.009863 -0.000796 -1579260.000000 1 0 0
2.188602 -13.474423 -12.945815 18.813404 -1.409776 2.329686 0.009220 0.002567 1742160.000000 1 0 0
2.288302 -11.130823 -14.556915 18.467142 -1.368039 2.478773 0.009582 0.000225 339948.000000 1 0 0
-5.513698 -6.339923 -16.531315 18.543998 0.854988 2.671363 0.028518 0.000160 821633.000000 1 0 0
4.681102 -14.147223 -11.520015 18.835270 -1.251251 2.228902 0.011617 0.004572 259936.000000 1 0 0
14.053602 -10.767023 -7.825615 19.356466 -0.653751 1.986998 0.030686 -0.002609 511743.000000 1 0 0
7.094902 10.868977 -10.775815 16.869810 0.992479 2.263686 0.013256 -0.009252 1194640.000000 1 0 0
5.767402 -4.200623 -12.661915 14.533831 -0.629493 2.628444 0.002675 -0.000051 2509840.000000 1 0 0
13.685202 0.639777 -10.086815 17.012875 0.046716 2.205443 0.004995 0.001635 53481.500000 1 0 0
14.134802 5.099977 -10.384715 18.265944 0.346272 2.175513 -0.003431 -0.003824 -150822.000000 1 0 0
4.097802 4.319577 -13.422215 14.683548 0.811739 2.724076 0.009121 -0.005415 2624570.000000 1 0 0
10.235102 -4.922923 -13.537215 17.670560 -0.448320 2.443530 0.011508 -0.009548 -404255.000000 1 0 0
2.590002 -7.590923 -11.903515 14.353533 -1.241985 2.548666 0.004360 0.001565 1839490.000000 1 0 0
-5.536398 -2.033723 -15.178615 16.284290 0.352035 2.770969 0.020231 -0.002391 661649.000000 1 0 0
10.742902 0.093377 -9.601715 14.408733 0.008692 2.300142 0.003964 -0.001283 2365880.000000 1 0 0
-1.465498 -9.581023 -16.763715 19.364035 1.419014 2.617371 0.014675 -0.004059 520235.000000 1 0 0
8.692402 1.815777 -17.948615 20.025176 0.205931 2.682156 0.028138 -0.012396 -389738.000000 1 0 0
16.521602 -5.940223 -8.803015 19.640332 -0.345151 2.035560 0.053530 -0.006927 -500703.000000 1 0 0
10.112002 7.611877 -9.834915 16.028687 0.645263 2.231385 0.003327 -0.005183 644581.000000 1 0 0
13.825002 -2.259123 -10.468915 17.488067 -0.161977 2.212588 0.023570 -0.005216 -521506.000000 1 0 0
7.244202 -1.764923 -13.670615 15.571742 -0.238977 2.642280 0.007902 -0.008025 932392.000000 1 0 0
-2.820798 6.534377 -13.809615 15.535780 -1.163276 2.665715 0.009862 -0.002750 637588.000000 1 0 0
11.330702 1.876677 -13.989515 18.100090 0.164138 2.454191 0.010900 -0.004276 1477090.000000 1 0 0
-2.401498 10.664677 -12.939015 16.938732 -1.349308 2.440087 0.007330 0.000266 -430955.000000 1 0 0
2.855602 -0.985423 -15.214015 15.511021 -0.332289 2.945585 0.012655 -0.004944 599679.000000 1 0 0
-9.089498 0.373777 -15.273815 17.777742 -0.041099 2.604410 0.021752 -0.001589 -1195060.000000 1 0 0
2.364702 -1.648323 -17.949615 18.179589 -0.608745 2.982364 0.025580 -0.014307 601130.000000 1 0 0
1.094202 7.815177 -13.248415 15.420596 1.431691 2.604379 0.012255 -0.001881 -816521.000000 1 0 0
9.443502 -9.089523 -9.767715 16.346480 -0.766301 2.211229 0.015493 0.005684 -1418600.000000 1 0 0
3.973502 7.251277 -13.443815 15.783089 1.069511 2.590181 0.009485 -0.008509 1837580.000000 1 0 0
-2.768798 9.001477 -15.493515 18.131240 -1.272387 2.595423 0.007317 0.001347 -424414.000000 1 0 0
5.542002 -7.638023 -15.253015 17.936211 -0.943108 2.587548 0.005287 0.000434 1216000.000000 1 0 0
4.227302 7.113677 -16.359515 18.333255 1.034616 2.673302 0.012631 -0.007919 -471675.000000 1 0 0
-0.276698 5.044777 -13.372615 14.295215 -1.516003 2.780357 0.011105 -0.008819 1408410.000000 1 0 0
8.848502 4.381877 -16.581615 19.298881 0.459809 2.604502 0.024676 -0.008936 -1227450.000000 1 0 0
5.331102 0.345377 -14.373715 15.334394 0.064695 2.785745 0.006161 -0.004216 -455791.000000 1 0 0
6.271702 7.961777 -11.486515 15.318752 0.903584 2.418607 0.003676 -0.005349 394776.000000 1 0 0
2.757702 -8.310323 -14.874615 17.260376 -1.250390 2.609561 0.007237 -0.005347 321461.000000 1 0 0
4.006102 11.311177 -13.842815 18.319801 1.230410 2.427397 0.011120 -0.011227 -877422.000000 1 0 0
0.566202 -4.574723 -13.695615 14.450555 -1.447655 2.816926 0.008057 -0.001449 2169750.000000 1 0 0
8.536602 -0.079823 -11.617115 14.416564 -0.009350 2.507851 0.002410 -0.002554 300627.000000 1 0 0
-0.939598 -5.087423 -16.289515 17.091314 1.388164 2.834073 0.012678 -0.002713 180307.000000 1 0 0
4.518702 0.920777 -11.659415 12.538280 0.201018 2.764952 0.007231 -0.006832 458781.000000 1 0 0
-2.834898 -7.239323 -15.557415 17.391884 1.197555 2.678156 0.009308 -0.000364 1625450.000000 1 0 0
11.421302 -3.751523 -11.249215 16.464049 -0.317365 2.323013 0.015228 -0.005187 782394.000000 1 0 0
6.530802 -7.033323 -12.494915 15.755695 -0.822429 2.486582 0.003240 0.001625 -1729740.000000 1 0 0
3.365102 -3.963423 -14.670015 15.564125 -0.866860 2.800989 0.009192 -0.003722 3545520.000000 1 0 0
-0.535198 -1.488323 -18.234515 18.302980 1.225597 3.055071 0.026067 -0.009905 1420330.000000 1 0 0
14.870802 3.048677 -8.460515 17.378593 0.202209 2.079260 -0.006871 0.001131 -990511.000000 1 0 0
6.954402 4.321377 -14.273415 16.455041 0.555997 2.620788 0.011669 -0.004990 3737380.000000 1 0 0
10.176802 -9.581523 -14.015415 19.794058 -0.755279 2.357546 0.027469 0.000474 -1794190.000000 1 0 0
9.028402 -3.098123 -15.480115 18.186379 -0.330562 2.589050 0.017771 -0.016638 860735.000000 1 0 0
-5.301798 -2.125723 -18.071315 18.952578 0.381320 2.835445 0.015693 0.005721 606682.000000 1 0 0
5.084002 -9.119423 -11.085415 15.228177 -1.062220 2.386130 -0.001277 0.004968 2086930.000000 1 0 0
-2.537198 3.850877 -17.189015 17.796878 -0.988216 2.879479 0.009596 0.002687 697722.000000 1 0 0
9.658302 9.228477 -14.414915 19.652923 0.762644 2.394216 0.028995 -0.015857 1173330.000000 1 0 0
9.887902 9.999477 -11.569115 18.210013 0.791008 2.259214 0.014510 -0.011568 1354590.000000 1 0 0
12.078902 -5.888723 -9.557515 16.490089 -0.453615 2.189024 0.020077 0.000885 -184074.000000 1 0 0
8.142502 6.936577 -13.653215 17.344357 0.705595 2.477027 0.012244 -0.003632 13914.200000 1 0 0
4.078302 -4.030223 -17.525215 18.439317 -0.779469 2.825401 0.023527 -0.014014 139320.000000 1 0 0
9.388102 -7.475723 -12.253015 17.151072 -0.672479 2.366587 0.015696 -0.001561 680301.000000 1 0 0
12.100102 -8.761523 -8.769615 17.322901 -0.626709 2.101620 0.025992 0.000430 866438.000000 1 0 0
-2.863398 -2.514623 -13.844715 14.359614 0.720637 2.872990 0.013309 -0.005534 -727917.000000 1 0 0
-0.412598 6.027877 -17.657915 18.662999 -1.502455 2.811912 0.005802 0.001427 925412.000000 1 0 0
1.116402 -8.466723 -17.308115 19.300327 -1.439695 2.683230 0.017163 -0.008809 -270895.000000 1 0 0
0.011602 8.484377 -16.002515 18.112573 1.569429 2.654085 -0.001027 0.005478 81905.000000 1 0 0
1.741902 3.383577 -14.845315 15.325345 1.095370 2.890644 0.014921 -0.005729 816901.000000 1 0 0
-1.947598 -0.363623 -15.741915 15.866104 0.184578 3.016393 0.013918 -0.004285 896376.000000 1 0 0
14.202902 -4.281123 -8.324915 17.010428 -0.292764 2.082199 0.029846 -0.003777 360553.000000 1 0 0
0.532102 0.645377 -14.487415 14.511542 0.881305 3.083921 0.014952 -0.004683 1277440.000000 1 0 0
8.878802 2.787077 -12.483815 15.570696 0.304162 2.501015 0.005977 -0.004009 2439340.000000 1 0 0
5.938702 1.048377 -17.038315 18.074055 0.174733 2.801413 0.020292 -0.007209 -303795.000000 1 0 0
15.335502 1.619577 -12.300015 19.725390 0.105220 2.244088 0.019153 -0.009457 -1676620.000000 1 0 0
8.885002 -11.257523 -11.950515 18.667884 -0.902645 2.265509 0.018249 0.004247 1156230.000000 1 0 0
-4.672998 0.714377 -15.116215 15.838157 -0.151699 2.838499 0.016069 -0.002056 780264.000000 1 0 0
2.364602 5.009077 -17.269915 18.136487 1.129747 2.831219 0.009782 -0.005477 2221310.000000 1 0 0
5.994202 -11.699123 -12.377815 18.055754 -1.097307 2.326132 0.007536 0.003045 -277035.000000 1 0 0
12.786102 7.207777 -8.625815 17.024721 0.513315 2.102107 -0.000402 -0.004212 -520756.000000 1 0 0
-5.054198 3.574277 -15.753315 16.925936 -0.615535 2.767174 0.005942 0.001410 -53013.200000 1 0 0
-0.567798 -4.298023 -19.062715 19.549489 1.439450 2.917970 0.028119 -0.009303 -153059.000000 1 0 0
9.901002 4.475577 -10.157115 14.873722 0.424543 2.322508 -0.002157 -0.000908 -594513.000000 1 0 0
13.385702 3.687877 -12.855615 18.922058 0.268839 2.317739 -0.000366 -0.008009 234126.000000 1 0 0
-6.123498 5.811077 -17.287015 19.238159 -0.759226 2.687318 0.008200 0.010581 -333687.000000 1 0 0
-10.305198 3.120677 -15.560515 18.922615 -0.294047 2.536279 0.035062 0.003493 134763.000000 1 0 0
10.662302 13.541877 -8.421315 19.182953 0.903812 2.025282 0.042898 -0.013653 -417807.000000 1 0 0
7.494702 13.354977 -12.375015 19.689260 1.059401 2.250440 0.030435 -0.017792 -417435.000000 1 0 0
5.295602 15.126877 -11.338215 19.632140 1.234051 2.186500 0.021402 -0.015539 791443.000000 1 0 0
14.140002 9.506777 -9.692315 19.602537 0.591915 2.087989 0.035381 -0.012962 -1259380.000000 1 0 0
8.326602 -17.327523 -2.004115 19.328524 -1.122836 1.674670 0.029853 -0.000841 -683204.000000 1 0 0
0.711402 -15.931223 0.006485 15.947100 -1.526171 1.570390 0.011443 -0.011934 2335180.000000 1 0 0
-9.116698 -11.688123 7.518485 16.620891 0.908372 1.101396 0.021135 -0.006741 -739575.000000 1 0 0
2.107702 -15.862223 -2.583815 16.208906 -1.438695 1.730886 0.007079 -0.010259 1107030.000000 1 0 0
-1.248698 -11.097323 -9.403215 14.598982 1.458745 2.270643 0.012183 -0.005216 -216544.000000 1 0 0
-4.736198 -12.715323 -13.057115 18.830806 1.214237 2.336981 0.033988 -0.001344 718694.000000 1 0 0
-8.236198 -17.890023 -1.735115 19.771153 1.139344 1.658669 0.025129 -0.013109 -937225.000000 1 0 0
-11.321398 -7.036623 -8.931115 16.045340 0.556102 2.161105 0.015585 -0.006677 1648370.000000 1 0 0
-13.483498 -11.414623 -4.718915 18.285691 0.702495 1.831816 0.024168 -0.012434 -948252.000000 1 0 0
-5.765098 -13.430223 9.751885 17.570045 1.165320 0.982399 0.020484 -0.012746 -573698.000000 1 0 0
0.203202 -14.028623 -3.648115 14.496631 -1.556313 1.825184 0.010233 -0.006153 18321.500000 1 0 0
-14.877498 -11.611723 1.882985 18.966225 0.662730 1.471352 0.028961 -0.005515 1060710.000000 1 0 0
-3.846198 -16.539123 -7.652315 18.625084 1.342306 1.994194 0.014465 -0.007696 576375.000000 1 0 0
0.733202 -15.359123 -9.274415 17.957033 -1.523095 2.113529 0.014563 0.001210 1245400.000000 1 0 0
4.628902 -14.204923 -2.598615 15.164411 -1.255781 1.743009 0.005630 -0.001843 1538130.000000 1 0 0
-3.462798 -18.003023 -2.446715 18.495573 1.380772 1.703472 0.008811 -0.015841 367944.000000 1 0 0
-0.945598 -13.421523 0.698485 13.472910 1.500459 1.518929 0.010730 -0.006958 4338860.000000 1 0 0
-8.456598 -11.419023 -10.615615 17.736951 0.933357 2.212427 0.016915 -0.003029 2713950.000000 1 0 0
-3.744998 -14.144223 -0.387015 14.636729 1.311963 1.597241 0.008307 -0.004077 3553480.000000 1 0 0
-1.424998 -14.999923 -7.297315 16.741539 1.476080 2.021813 0.005255 -0.002987 1734480.000000 1 0 0
-14.079898 -7.862723 -1.955215 16.244655 0.509297 1.691449 0.018688 -0.009198 504021.000000 1 0 0
-10.686498 -7.373723 -11.746315 17.508540 0.603985 2.306206 0.022576 -0.005865 685610.000000 1 0 0
-9.524198 -14.685523 6.794385 18.776011 0.995446 1.200528 0.013638 -0.004509 -105611.000000 1 0 0
-2.428898 -14.388023 -12.259415 19.058017 1.403559 2.269555 0.034009 -0.005832 186804.000000 1 0 0
2.378202 -17.687223 -4.777515 18.474803 -1.437139 1.832365 0.009648 -0.012909 12497.100000 1 0 0
-6.613498 -9.686123 -9.312115 14.975808 0.971721 2.241849 0.011547 -0.006685 1028860.000000 1 0 0
-10.973498 -15.344723 0.413685 18.869269 0.949987 1.548871 0.023851 -0.013046 878602.000000 1 0 0
-12.719898 -11.022923 4.065285 17.315518 0.714046 1.333807 0.031138 -0.005906 3797850.000000 1 0 0
-16.911898 -8.840023 -1.856015 19.172978 0.481650 1.667752 0.028851 -0.016429 -526863.000000 1 0 0
-1.284198 -19.220123 -3.867715 19.647430 1.504080 1.768947 0.009468 -0.009477 -723534.000000 1 0 0
3.512302 -14.256023 -8.829215 17.132586 -1.329234 2.112208 0.009096 -0.000463 1429640.000000 1 0 0
-4.194698 -8.028423 -12.989615 15.836072 1.089326 2.532653 0.009031 -0.001622 -13828.900000 1 0 0
5.536502 -16.633523 1.243785 17.574810 -1.249479 1.499966 0.022495 -0.003746 4774620.000000 1 0 0
-2.776498 -13.822523 -3.209315 14.459280 1.372567 1.794616 0.008586 -0.004537 288482.000000 1 0 0
-0.402898 -13.981523 3.626185 14.449724 1.541988 1.317133 0.013022 -0.007790 -5084320.000000 1 0 0
1.263702 -16.180023 7.073385 17.703753 -1.492852 1.159780 0.019731 -0.014990 1469530.000000 1 0 0
-5.438798 -10.320223 -14.546315 18.646255 1.085780 2.465654 0.026964 -0.006725 -531064.000000 1 0 0
-0.252098 -17.263423 -5.872315 18.236595 1.556194 1.898645 0.010266 -0.011551 -727545.000000 1 0 0
-6.441398 -13.421023 -1.357015 14.948477 1.123318 1.661701 0.009383 -0.004938 2345300.000000 1 0 0
-1.762798 -17.677923 -0.048515 17.765663 1.471407 1.573527 0.008422 -0.012827 3064880.000000 1 0 0
-9.510798 -9.810423 -4.882115 14.509815 0.800904 1.913962 0.012590 -0.002765 1461790.000000 1 0 0
-0.710298 -16.633923 4.888385 17.351894 1.528120 1.285210 0.026772 -0.016551 1245640.000000 1 0 0
-6.824298 -9.945923 -6.377215 13.644094 0.969433 2.057141 0.009629 -0.007599 3522810.000000 1 0 0
-5.961898 -14.587923 -8.685715 17.994259 1.182823 2.074524 0.018940 -0.007483 -55022.200000 1 0 0
-5.725598 -12.254623 -10.399015 17.061588 1.133715 2.226224 0.022047 -0.006222 -409271.000000 1 0 0
-10.681898 -12.101623 -8.845315 18.406299 0.847631 2.072089 0.031960 -0.016879 -712214.000000 1 0 0
4.058902 -17.253423 6.745785 18.964728 -1.339746 1.207132 0.030133 -0.010205 2119920.000000 1 0 0
-6.585698 -14.447423 -4.182715 16.419335 1.143097 1.828379 0.014226 -0.010653 -480077.000000 1 0 0
-2.777198 -12.279423 -7.138215 14.472428 1.348372 2.086594 0.014171 -0.006331 2268160.000000 1 0 0
-7.062198 -12.812023 4.333485 15.257839 1.067020 1.282815 0.005399 -0.003230 2862820.000000 1 0 0
2.588902 -16.345223 2.387785 16.720354 -1.413712 1.427499 0.016127 -0.013808 2178080.000000 1 0 0
-6.221098 -12.015423 7.182385 15.318587 1.093042 1.082788 0.005031 -0.005325 2387590.000000 1 0 0
-11.309098 -12.834023 -0.999815 17.134978 0.848476 1.629179 0.023313 -0.006207 555707.000000 1 0 0
-14.357198 -8.791023 4.555985 17.440419 0.549420 1.306499 0.023992 -0.004459 472273.000000 1 0 0
-7.995498 -15.543923 4.413585 18.028346 1.095710 1.323469 0.007163 -0.001814 1643650.000000 1 0 0
-16.463198 -9.218823 0.930785 18.891531 0.510462 1.521506 0.022155 -0.011196 -494907.000000 1 0 0
-6.665698 -17.108223 2.313285 18.506056 1.199271 1.445467 0.002821 -0.002866 2592430.000000 1 0 0
-11.522498 -14.951023 -4.595915 19.427390 0.914189 1.809629 0.048251 -0.013226 -1083540.000000 1 0 0
-10.012298 -10.153723 -12.691815 19.089955 0.792411 2.298079 0.022413 0.001298 -1439680.000000 1 0 0
-4.277198 -16.076023 -4.622515 17.265590 1.310760 1.841833 0.008957 -0.009636 -1117170.000000 1 0 0
-11.832998 -8.235023 -0.067515 14.416657 0.607994 1.575479 0.002736 -0.000563 -390911.000000 1 0 0
-9.650898 -11.215423 3.420485 15.186351 0.860237 1.343613 0.010631 0.000699 3477270.000000 1 0 0
-14.226198 -13.012723 -0.594115 19.289081 0.740878 1.601602 0.032339 -0.007550 133960.000000 1 0 0
5.761102 -14.978023 -7.144415 17.566278 -1.203604 1.989648 0.009747 -0.005135 525657.000000 1 0 0
-7.457798 -10.622223 -1.352215 13.049094 0.958666 1.674608 0.008282 -0.001396 1854660.000000 1 0 0
-11.478098 -8.127723 -6.170415 15.358406 0.616146 1.984236 0.011743 -0.006056 93977.000000 1 0 0
-14.312398 -6.658823 -9.291515 18.317121 0.435462 2.102797 0.028236 -0.012205 1661260.000000 1 0 0
-3.927698 -16.415823 1.466985 16.942789 1.335948 1.484103 0.008372 -0.010569 539090.000000 1 0 0
-7.961598 -15.577323 0.056785 17.494092 1.098307 1.567550 0.021714 -0.008466 2446360.000000 1 0 0
1.051002 -18.566423 3.662485 18.953376 -1.514249 1.376337 0.019473 -0.020644 179367.000000 1 0 0
-13.929298 -8.618423 -4.753415 17.055718 0.554075 1.853236 0.014981 -0.013353 -984422.000000 1 0 0
-3.323898 -14.619223 11.058785 18.629726 1.347232 0.935259 0.010156 -0.012938 222391.000000 1 0 0
-10.828898 -12.144023 -3.807415 16.710438 0.842582 1.800662 0.025819 -0.011622 1005540.000000 1 0 0
-10.044898 -10.674323 0.452785 14.664452 0.815768 1.539915 0.009700 0.000199 1601790.000000 1 0 0
-0.023798 -13.268723 -11.087415 17.291337 1.569003 2.266873 0.016687 -0.004835 698748.000000 1 0 0
-5.844398 -12.689323 -6.423815 15.376648 1.139182 2.001780 0.009063 -0.007817 2764680.000000 1 0 0
1.795202 -15.847023 9.905885 18.774382 -1.457994 1.014991 0.015273 -0.010221 -403333.000000 1 0 0
-8.915698 -15.703823 -5.406415 18.850174 1.054435 1.861691 0.040311 -0.017085 -538537.000000 1 0 0
-3.322198 -15.488823 5.805885 16.871542 1.359508 1.219492 0.006215 -0.012341 339401.000000 1 0 0
-17.379798 -5.483223 -6.655715 19.401589 0.305610 1.920958 0.033319 -0.014453 227011.000000 1 0 0
18.860802 5.620177 -2.800215 19.878567 0.289604 1.712132 0.015180 -0.001021 -1709800.000000 1 0 0
13.068602 -12.456423 -5.631715 18.912087 -0.761419 1.873167 0.045816 -0.005258 -1400110.000000 1 0 0
11.152702 -13.471323 -1.568315 17.559012 -0.879282 1.660232 0.040282 -0.007012 2604950.000000 1 0 0
18.673002 -2.888823 4.909985 19.522660 -0.153489 1.316565 0.041199 -0.011900 -807058.000000 1 0 0
8.592502 -16.796923 5.009085 19.520723 -1.097950 1.311290 0.044810 -0.019298 -1107230.000000 1 0 0
17.971802 -0.984023 6.897385 19.275058 -0.054699 1.204843 0.059195 -0.014589 -936772.000000 1 0 0
17.991902 -4.240623 -4.978615 19.143616 -0.231472 1.833888 0.052217 -0.011621 -333566.000000 1 0 0
5.681502 -11.638823 14.767885 19.642609 -1.116673 0.719965 0.015168 -0.000460 547804.000000 1 0 0
16.174202 -8.780423 -0.766815 18.419789 -0.497349 1.612438 0.044225 -0.008492 349455.000000 1 0 0
13.983902 -12.562323 -1.289815 18.842109 -0.731898 1.639304 0.040254 -0.008538 -164893.000000 1 0 0
10.957002 -1.905823 14.030585 17.903780 -0.172214 0.670251 0.008551 0.001122 392804.000000 1 0 0
17.171502 -5.975423 -1.251815 18.224522 -0.334878 1.639539 0.045166 -0.006841 -881901.000000 1 0 0
17.778902 3.635677 -0.952615 18.171818 0.201713 1.623243 0.016163 0.001407 -952516.000000 1 0 0
9.818102 -11.063423 9.534585 17.598374 -0.844965 0.998234 0.014394 -0.006281 -619976.000000 1 0 0
9.082002 -11.106623 4.348985 14.991781 -0.885349 1.276474 0.010773 -0.004381 -826919.000000 1 0 0
14.140702 -10.061423 6.932785 18.688370 -0.618417 1.190745 0.030064 -0.009169 1667850.000000 1 0 0
16.226002 -0.515423 -4.659315 16.889583 -0.031755 1.850290 0.020135 -0.001461 -2236180.000000 1 0 0
15.910902 -0.487423 -1.646415 16.003283 -0.030625 1.673859 0.022624 0.000368 1364850.000000 1 0 0
12.951502 -5.171123 -0.236315 13.947679 -0.379875 1.587740 0.015673 -0.004711 1985310.000000 1 0 0
14.386602 -7.526223 1.142385 16.276467 -0.481989 1.500552 0.022914 -0.002642 4322310.000000 1 0 0
15.517902 2.431577 3.704685 16.138232 0.155431 1.339171 0.023967 -0.003335 1503320.000000 1 0 0
15.897202 -7.078723 5.127185 18.141592 -0.418923 1.284272 0.034980 -0.012034 -1821690.000000 1 0 0
13.755502 -12.090723 3.365485 18.620577 -0.721076 1.389057 0.030114 -0.004816 1241590.000000 1 0 0
13.813702 -0.972323 9.241985 16.648665 -0.070272 0.982291 0.024513 -0.012705 -833875.000000 1 0 0
14.301202 -2.821323 -1.496415 14.653446 -0.194778 1.673095 0.009544 -0.000324 -224228.000000 1 0 0
14.999602 1.787577 9.185385 17.679219 0.118616 1.024462 0.039914 -0.013403 -2119690.000000 1 0 0
14.523002 -10.026123 -2.829515 17.873077 -0.604228 1.729777 0.040692 -0.010994 860829.000000 1 0 0
7.333002 -12.674723 6.168385 15.889320 -1.046296 1.172108 0.006125 -0.004660 462829.000000 1 0 0
12.399002 -4.567823 6.998885 14.952747 -0.352974 1.083694 0.011974 -0.007666 2995490.000000 1 0 0
15.051802 -9.026923 -5.630415 18.432136 -0.540216 1.881225 0.049557 -0.007496 -232836.000000 1 0 0
14.391502 -4.473123 4.742585 15.799249 -0.301351 1.265917 0.022372 -0.011542 770546.000000 1 0 0
17.300302 -4.198323 1.164585 17.840477 -0.238071 1.505472 0.036536 -0.009905 -276707.000000 1 0 0
10.230602 -14.448523 1.078885 17.736657 -0.954673 1.509931 0.034963 -0.003992 1204140.000000 1 0 0
16.270802 -2.496223 8.684785 18.611706 -0.152230 1.085319 0.054036 -0.015750 907110.000000 1 0 0
16.086702 -2.548723 3.381085 16.634593 -0.157131 1.366114 0.032778 -0.010024 1304950.000000 1 0 0
7.779702 -15.189223 2.671785 17.273526 -1.097448 1.415498 0.024577 -0.005210 2670110.000000 1 0 0
16.672402 -7.053223 8.039985 19.808036 -0.400216 1.152838 0.049315 -0.011525 12257.500000 1 0 0
10.308302 -8.531223 5.183385 14.349576 -0.691349 1.201218 0.009776 -0.007484 1269280.000000 1 0 0
10.968602 -11.867123 2.252585 16.316034 -0.824725 1.432294 0.023143 -0.003546 17771.800000 1 0 0
12.341002 -7.211323 12.043185 18.690688 -0.528824 0.870635 0.017824 -0.013845 -802500.000000 1 0 0
15.291202 -9.805123 4.386085 18.686868 -0.570183 1.333871 0.028609 -0.006658 -363836.000000 1 0 0
7.403502 -10.309123 7.814785 14.905057 -0.947992 1.018898 0.006138 -0.005837 1101750.000000 1 0 0
15.230302 -3.269423 -4.322315 16.165817 -0.211457 1.841463 0.030724 -0.002847 228887.000000 1 0 0
11.790502 -8.869823 9.758385 17.689425 -0.644962 0.986454 0.016830 -0.013870 -1839120.000000 1 0 0
17.032902 -6.610523 2.571985 18.450850 -0.370209 1.430944 0.036575 -0.007178 1541710.000000 1 0 0
17.546302 4.012477 2.046785 18.115242 0.224814 1.457568 0.021194 0.003214 25824.200000 1 0 0
14.732402 -4.949123 8.806085 17.862939 -0.324090 1.055284 0.038277 -0.014466 1756480.000000 1 0 0
12.976702 -12.587723 6.135185 19.091518 -0.770184 1.243635 0.034794 -0.008560 -1236550.000000 1 0 0
18.372402 0.819177 -1.014415 18.418611 0.044558 1.625900 0.035320 -0.000267 331919.000000 1 0 0
11.487402 -2.042923 11.052685 16.071583 -0.176000 0.812458 0.005760 -0.005141 1359360.000000 1 0 0
5.899402 -12.516123 10.551285 17.400744 -1.130335 0.919309 0.008882 -0.001902 -762040.000000 1 0 0
10.697402 -4.996123 11.074385 16.187577 -0.436934 0.817388 0.008881 -0.002871 -7283.750000 1 0 0
17.933602 1.299777 5.052985 18.677156 0.072351 1.296839 0.049248 -0.006960 -414126.000000 1 0 0
12.327602 -7.638323 7.179485 16.182050 -0.554715 1.111107 0.021339 -0.014030 -1395990.000000 1 0 0
10.689802 -7.928523 14.308685 19.541540 -0.638162 0.749222 0.025759 -0.008591 418780.000000 1 0 0
14.162402 -0.227023 3.863185 14.681599 -0.016029 1.304530 0.014280 -0.002505 1188360.000000 1 0 0
11.800302 -7.676623 2.643685 14.323642 -0.576758 1.385164 0.017752 -0.005067 956929.000000 1 0 0
9.340702 6.103177 3.559885 11.711971 0.578759 1.261957 0.004160 0.000891 1501990.000000 1 0 0
-3.998498 14.782477 -9.846315 18.206030 -1.306629 2.142216 0.012983 -0.003844 312464.000000 1 0 0
8.797702 -6.374923 9.283585 14.290701 -0.627054 0.863706 0.004029 -0.003815 576210.000000 1 0 0
5.868102 -10.619323 -8.453615 14.787436 -1.065969 2.179343 0.002653 0.003002 827667.000000 1 0 0
5.431202 1.107377 0.588385 5.574086 0.201135 1.465042 0.007596 0.001244 3606060.000000 1 0 0
-0.576198 9.918777 10.914985 14.759778 -1.512770 0.738456 -0.007796 0.003289 276052.000000 1 0 0
-6.299698 -5.214023 1.024785 8.241506 0.691382 1.446129 0.010972 -0.001383 4384260.000000 1 0 0
-1.089298 3.912977 -10.797015 11.535749 -1.299290 2.781776 0.014533 -0.007197 2057120.000000 1 0 0
10.900202 5.877777 1.223585 12.444269 0.494541 1.472312 0.001865 0.003614 1904440.000000 1 0 0
-10.162798 -1.845323 -13.566315 17.050883 0.179619 2.490855 0.016104 -0.003989 772573.000000 1 0 0
7.415902 10.984177 -5.979615 14.539723 0.976948 1.994633 0.002813 0.000153 1086880.000000 1 0 0
-12.441598 -2.927223 -9.666315 16.024970 0.231075 2.218308 0.008215 -0.003400 330615.000000 1 0 0
-3.882798 -8.630623 2.340285 9.748882 1.148037 1.328372 0.010345 -0.001504 -42646.200000 1 0 0
8.040902 -6.699823 -5.866015 11.998078 -0.694670 2.081639 0.006142 -0.002891 2394860.000000 1 0 0
14.351802 3.235377 -4.171515 15.291940 0.221727 1.847090 0.009567 0.000657 986749.000000 1 0 0
-2.552998 -5.004523 9.734285 11.239188 1.099071 0.523445 0.000234 0.000614 862846.000000 1 0 0
3.532002 -1.947223 -4.615515 6.129412 -0.503847 2.423423 0.004826 -0.002214 -2608970.000000 1 0 0
-4.062498 8.418577 -3.524215 9.989816 -1.121195 1.931338 0.005960 -0.001120 406075.000000 1 0 0
5.778602 0.155877 11.832885 13.169423 0.026968 0.454429 -0.002602 -0.000956 259992.000000 1 0 0
7.108402 4.762377 12.372885 15.043201 0.590282 0.605021 0.003791 -0.003106 1282880.000000 1 0 0
1.291202 -14.479823 12.457085 19.144488 -1.481859 0.862306 0.001518 -0.006835 387705.000000 1 0 0
3.016002 8.723577 -9.093215 12.956992 1.237931 2.348717 0.011515 -0.003197 713364.000000 1 0 0
-4.391598 -8.966623 -4.644115 11.011552 1.115365 2.006170 0.011828 -0.004343 1734180.000000 1 0 0
5.747902 -6.502423 -4.116815 9.605626 -0.846912 2.013721 0.004142 -0.004814 3431990.000000 1 0 0
-3.232198 3.454477 8.660785 9.868622 -0.818628 0.499946 -0.003261 0.000817 2512860.000000 1 0 0
-3.840298 3.117177 -11.158215 12.205345 -0.681836 2.724344 0.008745 -0.007902 242162.000000 1 0 0
2.973302 -6.094423 8.532085 10.898577 -1.116898 0.671543 -0.000097 0.002506 368548.000000 1 0 0
-5.161798 -8.718923 10.410185 14.527069 1.036263 0.771872 0.010185 -0.003357 1009160.000000 1 0 0
-13.309798 -2.478023 6.471685 15.005800 0.184073 1.124887 0.012184 -0.001056 323951.000000 1 0 0
3.989502 -5.942823 -8.389915 11.028325 -0.979583 2.435281 0.003644 -0.002374 4103760.000000 1 0 0
2.937202 -0.533323 12.420285 12.773999 -0.179618 0.235877 -0.004550 0.000213 1481980.000000 1 0 0
1.414402 -1.370223 -7.542215 7.795066 -0.769534 2.886194 0.010170 -0.005748 -885711.000000 1 0 0
3.583702 -3.600423 3.314485 6.065622 -0.787726 0.992692 0.003508 -0.001004 1265070.000000 1 0 0
1.618002 0.412877 -11.764315 11.882235 0.249845 3.000593 0.014000 -0.010866 933609.000000 1 0 0
4.091202 3.543877 -10.590215 11.893261 0.713835 2.669104 0.006656 -0.004647 288472.000000 1 0 0
2.784102 3.169477 3.392285 5.413354 0.850038 0.893548 -0.001605 0.004820 50910.400000 1 0 0
-5.309498 0.873277 2.571285 5.963631 -0.163015 1.125017 -0.000891 -0.001164 1974580.000000 1 0 0
-9.463298 -9.314423 5.642385 14.427370 0.777470 1.168982 0.014841 -0.002109 -1438470.000000 1 0 0
-3.057698 3.842677 -0.639015 4.952174 -0.898670 1.700194 -0.000401 -0.003180 -227167.000000 1 0 0
-15.991998 -6.558523 4.834785 17.948074 0.389194 1.298051 0.041005 -0.010228 281168.000000 1 0 0
1.050902 6.657777 -8.065715 10.511239 1.414242 2.445482 0.012159 -0.003881 1304960.000000 1 0 0
-1.578998 6.479077 -9.438915 11.557024 -1.331749 2.526509 0.011818 -0.004935 1947500.000000 1 0 0
2.053502 -0.417823 5.168885 5.577528 -0.200728 0.385171 0.000114 0.001262 3601320.000000 1 0 0
-3.486698 -0.639523 -6.402115 7.318001 0.181402 2.635912 0.010961 -0.009564 -182499.000000 1 0 0
2.025902 -1.108823 -2.460915 3.374888 -0.500786 2.387925 0.004911 -0.001246 1480880.000000 1 0 0
2.513302 -8.673123 -7.627615 11.820333 -1.288741 2.272207 0.002417 -0.002713 1068480.000000 1 0 0
-2.552398 14.073077 -5.546515 15.340472 -1.391379 1.940738 0.011220 0.000917 3047700.000000 1 0 0
6.931202 -5.155623 -8.178715 11.895940 -0.639539 2.328867 0.005274 -0.003461 3371980.000000 1 0 0
-14.152098 -4.951123 -2.244215 15.160211 0.336542 1.719376 0.008273 -0.006239 -216616.000000 1 0 0
-2.738098 6.851377 -6.814315 10.043577 -1.190599 2.316481 0.009715 -0.001700 -496920.000000 1 0 0
-5.737798 -1.132523 -8.108015 9.997242 0.194874 2.516699 0.008384 -0.010492 -254940.000000 1 0 0
-5.716598 -10.581323 3.455085 12.513253 1.075467 1.291048 0.008170 -0.001910 -2452220.000000 1 0 0
8.171702 -7.572723 6.723285 13.012509 -0.747373 1.027829 0.008031 -0.009353 341264.000000 1 0 0
8.788902 -6.004123 13.143985 16.913268 -0.599326 0.680687 0.011779 -0.000380 682446.000000 1 0 0
-4.728398 9.517077 -0.826515 10.659063 -1.109686 1.648415 0.002486 0.000164 1401190.000000 1 0 0
2.698802 6.585177 12.078885 14.019542 1.181845 0.532432 -0.002947 -0.004122 42632.900000 1 0 0
5.917202 -2.825123 11.007085 12.812124 -0.445439 0.537259 -0.002208 0.000512 -864352.000000 1 0 0
-9.697098 -6.541523 -1.227215 11.761432 0.593465 1.675329 0.008233 -0.000586 -562603.000000 1 0 0
0.859102 -13.427923 6.247585 14.835076 -1.506905 1.136099 0.009319 -0.005786 874468.000000 1 0 0
-0.531998 -3.155423 8.718885 9.287554 1.403769 0.351751 -0.003782 0.001290 1057730.000000 1 0 0
4.267402 0.705777 3.372685 5.484874 0.163904 0.908529 0.001300 0.002985 1558590.000000 1 0 0
-10.209398 5.505477 8.270085 14.245574 -0.494557 0.951408 0.008176 -0.004551 885707.000000 1 0 0
9.400102 8.052377 -0.080215 12.377767 0.708329 1.577277 0.000676 0.004471 9440.300000 1 0 0
4.236002 2.802177 8.211685 9.655448 0.584427 0.553915 -0.005589 0.000478 2787720.000000 1 0 0
1.383702 2.639677 -9.724315 10.170783 1.087982 2.844197 0.016309 -0.009364 1695410.000000 1 0 0
-1.376398 -10.124523 2.957385 10.637037 1.435678 1.289057 0.008929 -0.004476 -2219220.000000 1 0 0
-9.934598 9.481177 9.005785 16.422336 -0.762049 0.990363 0.005131 -0.004873 1000400.000000 1 0 0
9.930402 -1.947523 -7.619515 12.667389 -0.193659 2.216182 0.008996 -0.000562 1417090.000000 1 0 0
-5.203398 -1.943623 6.654085 8.667749 0.357481 0.695578 0.001435 -0.001889 725565.000000 1 0 0
3.206002 -7.855223 -4.949515 9.822458 -1.183296 2.098902 -0.001176 -0.003643 3322510.000000 1 0 0
-5.188498 4.824277 -13.140615 14.928829 -0.749039 2.647116 0.004914 -0.007603 2925120.000000 1 0 0
-5.708798 9.599877 5.481585 12.441696 -1.034302 1.114550 -0.001393 -0.000830 1731630.000000 1 0 0
-0.455098 -1.826823 -9.377015 9.564142 1.326646 2.943453 0.012294 -0.009555 755694.000000 1 0 0
-16.777098 0.064877 6.240785 17.900353 -0.003867 1.214676 0.029176 -0.006539 -1254400.000000 1 0 0
-5.898498 -2.935523 4.004885 7.710297 0.461784 1.024624 0.003688 0.000092 3286420.000000 1 0 0
1.026202 -5.697423 -5.276515 7.832964 -1.392590 2.309905 0.002757 -0.005421 1852310.000000 1 0 0
-7.068298 1.370677 -8.515915 11.151700 -0.191542 2.439733 0.008265 -0.006301 632307.000000 1 0 0
7.962802 1.921977 4.805785 9.497146 0.236839 1.040227 0.000087 0.001014 609874.000000 1 0 0
0.607402 -8.095423 -0.571715 8.138284 -1.495906 1.641104 0.003623 -0.001592 547507.000000 1 0 0
5.476102 5.584577 -3.405915 8.530853 0.795205 1.981491 0.003955 0.002233 986596.000000 1 0 0
-0.685898 -0.365123 -1.307615 1.521062 0.489174 2.605425 0.002512 -0.002048 610943.000000 1 0 0
9.139502 6.509577 -6.241215 12.839698 0.618898 2.078403 -0.002800 -0.001734 355792.000000 1 0 0
-15.040198 -7.163323 2.381785 16.828359 0.444491 1.428785 0.015610 -0.004165 347977.000000 1 0 0
-6.417398 6.696077 8.922085 12.869501 -0.806646 0.804775 -0.002121 0.001451 575242.000000 1 0 0
-9.464798 -3.136623 -9.740815 13.939307 0.320008 2.344518 0.007278 -0.003186 792097.000000 1 0 0
14.908002 3.529377 -1.210315 15.367820 0.232464 1.649634 -0.000865 0.002901 1351090.000000 1 0 0
12.118902 1.706077 -5.748215 13.521112 0.139859 2.009901 0.004604 -0.000055 -1158760.000000 1 0 0
1.659902 -9.519623 12.729785 15.982050 -1.398166 0.649303 -0.003271 0.000127 -390142.000000 1 0 0
-3.646198 6.360277 7.853685 10.743754 -1.050258 0.751010 -0.005094 0.002609 1438290.000000 1 0 0
-4.198198 12.956477 -12.388815 18.411353 -1.257448 2.308905 0.007069 -0.006815 1037960.000000 1 0 0
-10.233698 7.736777 6.490385 14.377461 -0.647336 1.102432 0.003070 -0.005297 -186340.000000 1 0 0
8.161002 -9.348923 -7.027615 14.261546 -0.853137 2.086063 0.005957 0.001351 725878.000000 1 0 0
5.860202 -3.828423 -0.358315 7.009078 -0.578686 1.621940 0.007279 -0.002046 -1312020.000000 1 0 0
-1.627698 -4.474223 4.121685 6.297329 1.221886 0.857258 0.002570 0.000401 1647250.000000 1 0 0
9.960202 -2.009123 -2.533915 10.472007 -0.199044 1.815192 0.007162 -0.002074 -2214580.000000 1 0 0
13.528502 7.116577 1.531485 15.362665 0.484264 1.470942 0.003752 0.006583 241006.000000 1 0 0
5.418202 -3.668423 -3.268315 7.314104 -0.595160 2.034039 0.006613 -0.004552 -3065690.000000 1 0 0
-12.338298 -5.955023 1.875585 13.828005 0.449668 1.434740 0.004787 -0.000563 2106220.000000 1 0 0
3.713702 -5.747523 -0.304015 6.849673 -0.997140 1.615195 0.004104 -0.002892 -248425.000000 1 0 0
-5.240498 3.670477 -8.724015 10.818672 -0.610998 2.508810 0.008447 -0.005719 2011710.000000 1 0 0
-1.659098 -9.318323 7.339285 11.977013 1.394596 0.911222 0.007921 -0.004104 1417270.000000 1 0 0
-7.476098 -7.396623 2.538885 10.818873 0.780055 1.333915 0.014337 -0.002025 -3991770.000000 1 0 0
-5.825398 13.111877 -8.440415 16.646237 -1.152706 2.102551 0.014160 -0.007804 1480580.000000 1 0 0
9.341202 -13.919723 -4.104515 17.258731 -0.979747 1.810920 0.025855 -0.000602 2408480.000000 1 0 0
-6.464298 -5.142623 -6.741315 10.662038 0.672017 2.255279 0.010431 -0.005038 1392850.000000 1 0 0
3.476502 0.374677 -6.235115 7.148644 0.107360 2.630498 0.008954 -0.005186 306881.000000 1 0 0
-3.693398 5.788377 4.869985 8.418031 -1.002852 0.953885 -0.003322 0.002607 954536.000000 1 0 0
-2.575898 -10.856323 -2.893015 11.526688 1.337833 1.824493 0.012129 -0.004279 1660320.000000 1 0 0
-12.514798 -0.449823 1.667985 12.633475 0.035928 1.438381 0.005386 -0.001549 -298441.000000 1 0 0
8.528102 -12.059123 -6.055915 15.963241 -0.955261 1.959908 0.016569 -0.001356 240171.000000 1 0 0
6.179502 3.995177 1.012185 7.427799 0.573926 1.434101 0.004123 0.002122 -621654.000000 1 0 0
3.494202 -4.839223 -10.997015 12.512469 -0.945419 2.644315 0.002867 -0.002113 -229444.000000 1 0 0
-7.643398 4.106277 8.552885 12.183386 -0.492988 0.792577 0.000953 -0.000954 1071840.000000 1 0 0
8.221702 8.785877 4.106285 12.714149 0.818558 1.241931 0.004172 0.001863 1677720.000000 1 0 0
0.287702 10.509277 -6.369315 12.292105 1.543427 2.115498 0.009699 0.000787 3063950.000000 1 0 0
5.463902 8.006977 3.342885 10.253818 0.971985 1.238713 0.004068 0.001916 3377900.000000 1 0 0
8.144202 6.698777 -3.675515 11.167410 0.688323 1.906177 -0.000502 0.001399 443503.000000 1 0 0
10.577202 2.596177 -8.218415 13.644035 0.240692 2.217232 -0.002116 0.000012 987422.000000 1 0 0
3.431802 -12.478223 -0.320315 12.945498 -1.302408 1.595542 0.003986 -0.001527 -3056850.000000 1 0 0
0.530102 2.064777 5.265585 5.680730 1.319488 0.384675 0.000287 0.003069 2017900.000000 1 0 0
-4.812798 13.406877 1.465385 14.319732 -1.226144 1.468284 -0.001843 0.001703 2215480.000000 1 0 0
8.303402 4.152677 -7.921015 12.203839 0.463742 2.277144 -0.000360 0.000413 1965090.000000 1 0 0
-14.001998 -0.487423 -3.658915 14.480373 0.034797 1.826247 0.006092 -0.003478 -433734.000000 1 0 0
-8.625998 0.060977 -0.518315 8.641771 -0.007069 1.630810 0.003942 -0.002778 428492.000000 1 0 0
1.781702 -3.824323 -1.196115 4.385271 -1.134810 1.847054 0.005798 -0.001876 -1649760.000000 1 0 0
8.086802 -5.625223 -0.344715 9.856892 -0.607770 1.605775 0.009916 -0.003728 1684310.000000 1 0 0
-2.320898 -1.134923 7.397785 7.835932 0.454810 0.335989 -0.002174 0.001147 1990490.000000 1 0 0
-5.853098 8.784077 -11.694215 15.753522 -0.983027 2.407328 0.005114 -0.002388 -1310980.000000 1 0 0
-6.269498 9.209177 -8.885715 14.250315 -0.973081 2.244066 0.005845 -0.000034 1100700.000000 1 0 0
-1.610498 13.879777 -8.342715 16.273992 -1.455281 2.109054 0.019348 -0.002493 -24877.800000 1 0 0
-1.477598 7.192177 9.771885 12.222947 -1.368171 0.644383 -0.004570 0.001031 1544050.000000 1 0 0
10.065102 2.344477 -3.975815 11.072938 0.228851 1.938054 0.001178 0.002213 -1204120.000000 1 0 0
-2.967198 -7.593023 -6.969515 10.725316 1.198264 2.278143 0.011399 -0.004747 578271.000000 1 0 0
-5.493798 -5.046823 -1.667515 7.644138 0.743019 1.790708 0.011327 -0.002945 1329790.000000 1 0 0
5.764902 7.416677 -8.763315 12.846668 0.910058 2.321491 0.002570 -0.002322 667292.000000 1 0 0
-9.611998 5.290277 -7.446415 13.259964 -0.503137 2.167080 0.010018 -0.001222 29973.400000 1 0 0
-0.472698 6.086977 -5.313815 8.093909 -1.493295 2.286993 0.011137 -0.003335 700532.000000 1 0 0
-8.183398 2.830777 -6.340215 10.732178 -0.333033 2.202805 0.009474 -0.003216 564218.000000 1 0 0
3.685402 1.442077 -1.995515 4.432139 0.372979 2.037828 0.008970 -0.001112 2164350.000000 1 0 0
-6.834698 12.545977 -3.441615 14.695556 -1.071976 1.807186 0.012073 0.002509 847505.000000 1 0 0
-6.516498 3.137077 -2.334515 7.599734 -0.448662 1.883029 0.003138 -0.002541 -1155710.000000 1 0 0
12.112102 4.003377 -0.687815 12.775098 0.319223 1.624663 -0.001122 0.004756 997323.000000 1 0 0
2.259702 12.371977 -5.639415 13.783145 1.390141 1.992322 0.006868 -0.000280 28696.000000 1 0 0
-9.224198 -1.362023 -4.262715 10.252399 0.146598 1.999594 0.004174 -0.003062 661158.000000 1 0 0
-1.233698 5.715177 3.336585 6.731869 -1.358195 1.052225 0.000240 0.001620 869823.000000 1 0 0
11.592102 2.700777 11.988485 16.893632 0.228901 0.781802 0.018563 0.000440 -171615.000000 1 0 0
-7.054898 -2.318223 -5.736615 9.383736 0.317482 2.228544 0.009030 -0.005264 -803767.000000 1 0 0
7.482402 -7.392423 10.803385 15.078043 -0.779349 0.772027 0.004902 -0.002027 -445645.000000 1 0 0
-5.597298 -2.001123 -10.956215 12.464866 0.343355 2.644490 0.013416 -0.006267 826224.000000 1 0 0
0.810002 -6.239823 4.456685 7.710612 -1.441707 0.954528 0.000551 0.000741 1979390.000000 1 0 0
-4.744698 -9.367223 7.292685 12.784376 1.101945 0.963758 0.001319 -0.001675 2538080.000000 1 0 0
-8.769898 9.306977 1.536985 12.879956 -0.815100 1.451180 -0.000742 -0.002129 1258080.000000 1 0 0
-8.209598 7.193177 -9.065815 14.189021 -0.719504 2.263905 0.008036 -0.001156 467187.000000 1 0 0
-1.173098 -10.645923 -0.157715 10.711522 1.461047 1.585521 0.006636 -0.001481 59490.600000 1 0 0
-3.973398 10.204377 7.755885 13.419052 -1.199477 0.954551 -0.000036 0.001287 3846830.000000 1 0 0
-7.454598 12.028177 1.974985 14.288059 -1.015973 1.432126 0.000671 -0.004773 1714190.000000 1 0 0
-8.128898 -8.286423 -2.888415 11.961887 0.794994 1.814675 0.012387 -0.003874 1024710.000000 1 0 0
5.386402 4.570477 -8.026115 10.692105 0.703635 2.419854 0.005474 -0.000216 2079050.000000 1 0 0
-9.046798 -0.141823 -10.260415 13.679941 0.015675 2.418909 0.009506 -0.004350 -2048610.000000 1 0 0
-15.218298 -2.212323 -1.571415 15.458341 0.144361 1.672627 0.008606 -0.003179 -382085.000000 1 0 0
-7.218698 -5.823823 8.677985 12.701730 0.678855 0.818643 0.008081 -0.002898 179229.000000 1 0 0
8.193702 3.479777 -0.978415 8.955607 0.401607 1.680267 0.002421 0.003935 1579580.000000 1 0 0
11.905702 7.366077 -5.800215 15.154119 0.554057 1.963566 -0.004934 -0.001994 -187430.000000 1 0 0
3.766602 13.305677 -9.583815 16.824918 1.294932 2.176840 0.007193 -0.005509 768175.000000 1 0 0
-9.744698 5.463977 -0.463315 11.181630 -0.511031 1.612244 0.002310 -0.002579 1003650.000000 1 0 0
11.343702 -1.230523 -5.059315 12.481604 -0.108054 1.988149 0.012682 -0.001730 -635000.000000 1 0 0
10.656202 1.717977 -1.248515 10.865766 0.159843 1.685954 0.002416 0.002707 -620680.000000 1 0 0
14.697702 5.035977 4.947885 16.305369 0.330100 1.262484 0.022154 -0.002030 2902830.000000 1 0 0
0.891202 -0.825023 10.313285 10.384544 -0.746856 0.117217 -0.003053 0.000677 3197610.000000 1 0 0
-7.980398 1.399277 -12.661915 15.032260 -0.173575 2.572363 0.010175 -0.004439 -569842.000000 1 0 0
3.233702 -11.587123 -7.806015 14.340576 -1.298644 2.146387 0.003701 0.000843 590852.000000 1 0 0
2.912702 5.018177 -6.728315 8.884602 1.044891 2.429966 0.009590 -0.002067 -460427.000000 1 0 0
6.498202 8.040777 0.605685 10.356041 0.891102 1.512277 0.006853 0.001378 1657080.000000 1 0 0
-9.143698 -5.437123 6.732385 12.589461 0.536462 1.006568 0.007663 0.000673 -3025310.000000 1 0 0
-0.254898 -6.984323 -11.787015 13.703265 1.534317 2.606382 0.005745 -0.002086 2021560.000000 1 0 0
6.505702 -13.434723 -4.669215 15.640253 -1.119832 1.873957 0.007954 0.000035 3555250.000000 1 0 0
-3.252198 -0.310623 10.016485 10.535808 0.095223 0.315283 -0.001811 -0.000200 514374.000000 1 0 0
8.605302 8.486077 6.978185 13.955636 0.778423 1.047167 0.005710 -0.000526 -632464.000000 1 0 0
-7.960398 5.693277 -2.706915 10.154247 -0.620855 1.840639 0.004905 -0.003323 672717.000000 1 0 0
-5.456098 5.793777 -6.557515 10.312025 -0.815405 2.259983 0.006611 -0.001278 -343271.000000 1 0 0
3.318702 -13.582823 2.524885 14.208515 -1.331160 1.392145 0.010952 -0.007167 -839462.000000 1 0 0
-11.331798 -7.079323 6.460685 14.841392 0.558406 1.120408 0.017713 -0.002712 345521.000000 1 0 0
-12.845398 -3.685223 -6.786315 14.987968 0.279387 2.040682 0.006780 -0.006938 1092310.000000 1 0 0
6.132902 0.320477 -7.336515 9.567635 0.052208 2.444646 0.003260 -0.000126 738078.000000 1 0 0
-1.527098 2.122777 -2.485715 3.607907 -0.947177 2.330854 0.004662 -0.003572 3108050.000000 1 0 0
7.646302 0.939577 -4.994615 9.181226 0.122267 2.145997 0.003524 0.001409 98440.600000 1 0 0
3.589902 -4.492323 10.875385 12.302128 -0.896593 0.486393 -0.005062 0.003458 -202341.000000 1 0 0
6.034002 -2.606323 2.025785 6.877928 -0.407734 1.271828 0.008763 -0.003177 -972412.000000 1 0 0
-6.303198 7.727577 1.068285 10.029306 -0.886570 1.464078 -0.000944 -0.000513 3184690.000000 1 0 0
6.006802 -3.454623 7.993485 10.578841 -0.521923 0.714211 -0.000634 -0.000852 -881169.000000 1 0 0
6.869402 -2.271223 -7.880715 10.698262 -0.319315 2.398878 0.004142 -0.003622 1163540.000000 1 0 0
12.212202 -8.232523 -5.809615 15.832370 -0.593147 1.946520 0.028777 -0.003745 1914560.000000 1 0 0
5.579902 -9.630723 9.957685 14.934578 -1.045672 0.840952 0.002722 -0.000962 2060220.000000 1 0 0
-6.696598 7.565977 -4.523115 11.070095 -0.846278 1.991704 0.002370 -0.000996 1037600.000000 1 0 0
-1.285298 -7.603023 9.870385 12.525272 1.403329 0.663182 0.000005 0.000312 -293812.000000 1 0 0
10.171002 -9.255823 0.906785 13.781937 -0.738324 1.504954 0.011970 -0.003639 1475600.000000 1 0 0
11.025702 6.078777 9.803985 15.957310 0.503862 0.909186 0.005041 -0.003487 1331420.000000 1 0 0
-15.277698 -4.201223 -5.022815 16.621883 0.268357 1.877776 0.019005 -0.008662 1773390.000000 1 0 0
-4.706498 -4.747023 7.781285 10.258350 0.789685 0.709739 0.005110 -0.003217 -124461.000000 1 0 0
2.876502 10.908777 -11.121815 15.842047 1.312978 2.349060 0.008586 -0.000213 -534679.000000 1 0 0
9.946902 -1.349823 1.606585 10.165825 -0.134879 1.412093 0.006518 -0.001561 225381.000000 1 0 0
-1.613798 -2.720923 0.505985 3.203714 1.035461 1.412195 0.001776 -0.000480 -1123440.000000 1 0 0
1.570102 2.977677 0.868985 3.476624 1.085555 1.318167 0.002997 0.001479 -1465160.000000 1 0 0
-8.930398 -2.400423 4.257785 10.180509 0.262586 1.139302 0.006025 -0.001277 4021640.000000 1 0 0
10.014202 4.908677 -2.702415 11.475295 0.455754 1.808528 -0.001059 0.000844 1270170.000000 1 0 0
2.594602 8.412477 2.551785 9.165879 1.271630 1.288668 0.000740 0.001507 1890100.000000 1 0 0
-8.140798 -0.047123 2.409385 8.489991 0.005788 1.283051 0.001881 -0.002017 518388.000000 1 0 0
6.913902 2.121377 13.777785 15.560515 0.297709 0.483373 0.001265 -0.003505 -926991.000000 1 0 0
6.848902 4.367777 3.827085 8.979505 0.567704 1.130506 -0.000396 0.003341 833218.000000 1 0 0
-0.414398 3.339877 7.764485 8.462489 -1.447351 0.409003 -0.005294 0.001181 -1454190.000000 1 0 0
2.697702 -10.276023 9.206585 14.058287 -1.314066 0.856764 0.010772 -0.004805 1810360.000000 1 0 0
1.248702 -4.588023 6.916885 8.393599 -1.305067 0.602244 -0.004254 0.001476 -458225.000000 1 0 0
-0.142998 10.838077 -2.057315 11.032539 -1.557603 1.758371 0.006883 -0.002903 2587070.000000 1 0 0
8.704202 5.558477 8.049185 13.093860 0.568317 0.908753 0.002297 -0.002941 -819782.000000 1 0 0
2.662102 11.450777 -3.027015 12.139601 1.342372 1.822806 0.009157 -0.004695 1864970.000000 1 0 0
1.533202 2.390577 -6.667815 7.247436 1.000524 2.738938 0.012049 -0.005334 1955050.000000 1 0 0
-13.579198 -2.137723 3.545485 14.196300 0.156145 1.318377 0.005882 -0.001800 882424.000000 1 0 0
-0.868098 -10.715723 -5.328015 11.998669 1.489961 2.030911 0.006921 -0.004042 -237431.000000 1 0 0
-5.657798 2.807277 0.399185 6.328573 -0.460586 1.507678 0.001469 -0.001920 2698250.000000 1 0 0
3.809102 7.332877 -5.019315 9.668189 1.091706 2.116662 0.006701 -0.001094 -2459900.000000 1 0 0
3.074502 9.811877 -6.542715 12.187396 1.267142 2.137487 0.010787 -0.000167 2143630.000000 1 0 0
-12.269698 1.691677 -2.598715 12.655457 -0.137011 1.777611 0.009605 -0.004534 1898380.000000 1 0 0
-2.415598 9.602177 -5.706515 11.428090 -1.324343 2.093634 0.007539 -0.000280 1367640.000000 1 0 0
-1.371498 3.325877 1.688585 3.974139 -1.179670 1.131952 -0.002487 0.000435 813207.000000 1 0 0
12.845602 3.712277 9.638985 16.483340 0.281327 0.946198 0.025035 -0.004532 1474670.000000 1 0 0
-2.639998 -9.660623 11.591585 15.318683 1.304035 0.712552 0.001543 -0.005473 510680.000000 1 0 0
-0.365198 -9.002523 -7.489515 11.716298 1.530252 2.264305 0.009077 -0.003868 1366220.000000 1 0 0
2.327202 7.695777 -0.527115 8.057214 1.277139 1.636265 0.005785 0.002172 587121.000000 1 0 0
-11.843998 -1.243223 -5.503715 13.119328 0.104584 2.003704 0.006979 -0.000565 -1032090.000000 1 0 0
-6.154898 -7.145223 -10.967915 14.464859 0.859721 2.431414 0.010415 -0.003789 1692110.000000 1 0 0
-4.680998 -2.289123 -1.513015 5.425960 0.454829 1.853390 0.004405 -0.003572 -2027850.000000 1 0 0
-10.480698 3.746177 4.460885 11.990762 -0.343284 1.189605 0.006439 -0.005870 3169870.000000 1 0 0
6.805102 9.388577 -3.617915 12.146773 0.943601 1.873236 -0.001680 0.003204 987514.000000 1 0 0
1.273202 -2.691523 -11.497715 11.876986 -1.128947 2.888197 0.009870 -0.006620 502536.000000 1 0 0
1.192302 8.797577 7.518385 11.633789 1.436091 0.868131 -0.006382 0.005040 492166.000000 1 0 0
10.258102 0.476277 10.533385 14.710802 0.046396 0.772697 0.000155 -0.002192 18565.300000 1 0 0
-5.256798 -0.882623 -3.997215 6.662633 0.166350 2.214229 0.007429 -0.006856 661327.000000 1 0 0
11.713602 5.628677 5.497085 14.110578 0.447946 1.170630 0.004570 -0.000186 3866690.000000 1 0 0
9.997202 -3.473523 3.637385 11.191067 -0.334401 1.239757 0.012374 -0.007670 -282792.000000 1 0 0
7.354602 -1.633623 -3.399115 8.265160 -0.218574 1.994630 0.007497 -0.001128 -3493460.000000 1 0 0
2.297302 9.261577 10.390885 14.107618 1.327657 0.742849 -0.006618 0.001707 1424200.000000 1 0 0
2.368302 -10.907123 6.417585 12.874765 -1.356982 1.048972 0.002880 -0.001685 1263160.000000 1 0 0
5.867902 -7.488623 -1.313415 9.603999 -0.906151 1.707983 0.005326 -0.003674 340088.000000 1 0 0
-0.244298 -5.614523 -2.426415 6.121278 1.527312 1.978378 0.004330 -0.001925 2136500.000000 1 0 0
7.833502 -5.083723 2.603985 9.694778 -0.575652 1.298861 0.010763 -0.005079 1986500.000000 1 0 0
-2.717898 -12.513123 4.588485 13.602184 1.356915 1.226712 0.008903 -0.004005 -523001.000000 1 0 0
4.915102 -10.252123 -1.170315 11.429518 -1.123746 1.673370 0.004379 -0.003673 901826.000000 1 0 0
0.927602 0.133977 1.067785 1.420760 0.143442 0.720374 -0.000111 0.002052 -1352200.000000 1 0 0
-1.647098 8.597877 2.428585 9.084847 -1.381519 1.300183 -0.002678 0.002609 -106325.000000 1 0 0
-7.546198 0.619377 -3.097715 8.180744 -0.081894 1.959144 0.003975 -0.002701 -1123790.000000 1 0 0
4.322302 -6.334023 12.877785 14.987978 -0.971984 0.537077 0.007108 -0.002315 -700439.000000 1 0 0
-5.151998 12.933577 8.473785 16.298022 -1.191719 1.024031 0.006878 -0.005102 1327460.000000 1 0 0
0.575302 6.040077 8.248885 10.240000 1.475835 0.634185 -0.005587 0.003319 1023090.000000 1 0 0
8.003702 -0.497423 -0.684315 8.048289 -0.062069 1.655925 0.009260 -0.000972 2293380.000000 1 0 0
2.466402 -9.209923 -2.401815 9.832321 -1.309138 1.817571 0.000304 -0.003021 431047.000000 1 0 0
-7.163298 12.092577 4.872085 14.875499 -1.036005 1.237114 0.003682 0.000600 78708.000000 1 0 0
-14.920398 0.311777 0.106785 14.924037 -0.020893 1.563641 0.012870 -0.005974 1248690.000000 1 0 0
6.768502 -0.557723 3.933685 7.848410 -0.082214 1.045802 0.001490 0.001294 -1103960.000000 1 0 0
-4.183098 -5.058523 5.048885 8.281196 0.879843 0.915139 0.005768 -0.001753 -1897920.000000 1 0 0
2.845002 4.999477 6.854985 8.948722 1.053438 0.698155 -0.004149 0.002071 -820368.000000 1 0 0
2.105202 -7.275023 1.804585 7.785522 -1.289117 1.336882 0.001902 -0.001614 2183080.000000 1 0 0
-2.537798 6.492777 -1.806015 7.201268 -1.198190 1.824294 0.004912 -0.001398 783705.000000 1 0 0
2.750202 -3.834923 -6.680015 8.178805 -0.948655 2.526547 0.004203 -0.005453 -52487.000000 1 0 0
-5.208898 0.883377 -12.202115 13.296789 -0.167992 2.732982 0.010181 -0.005319 95777.100000 1 0 0
-7.506598 6.364677 -11.827615 15.386703 -0.703261 2.447588 0.010593 -0.005363 2403320.000000 1 0 0
-1.107498 11.094377 -9.062315 14.367927 -1.471301 2.253293 0.011065 -0.001101 2632540.000000 1 0 0
4.625302 5.917577 -0.635515 7.537574 0.907363 1.655210 0.006202 0.002080 301734.000000 1 0 0
-2.613798 13.364577 3.536785 14.069567 -1.377658 1.316692 -0.003505 0.004775 2103940.000000 1 0 0
1.566102 -7.949823 10.223885 13.045312 -1.376289 0.670162 -0.002603 0.000577 -1005450.000000 1 0 0
13.068102 -0.294123 -0.968515 13.107243 -0.022503 1.644755 0.013542 -0.002586 1213590.000000 1 0 0
-1.087998 3.034477 -5.446115 6.328662 -1.226529 2.607140 0.011157 -0.006298 997572.000000 1 0 0
6.593902 1.082177 7.296085 9.893609 0.162668 0.741503 -0.003419 0.000890 1447490.000000 1 0 0
5.512002 -6.098123 6.814685 10.677509 -0.835839 0.878602 0.001104 -0.000624 2497990.000000 1 0 0
12.291702 -4.819523 2.698485 13.475739 -0.373674 1.369186 0.015228 -0.007493 -775879.000000 1 0 0
4.336202 -9.223723 13.871785 17.213545 -1.131342 0.633662 0.006135 0.000600 -527631.000000 1 0 0
-2.701498 -4.375823 -1.524115 5.363660 1.017703 1.858922 0.008418 -0.004276 1497410.000000 1 0 0
-9.239598 -5.111323 -7.634815 13.030203 0.505295 2.196826 0.008727 -0.005349 800751.000000 1 0 0
-10.650498 -3.112723 7.865285 13.600914 0.284342 0.954164 0.005183 -0.000297 546034.000000 1 0 0
12.070902 -0.576423 1.718885 12.206289 -0.047717 1.429507 0.011346 -0.003739 689442.000000 1 0 0
-7.634198 4.665377 4.309285 9.930592 -0.548553 1.121935 -0.000196 -0.003433 1866930.000000 1 0 0
-1.123798 10.620377 6.912585 12.721602 -1.465373 0.996346 -0.005580 0.005500 2146310.000000 1 0 0
7.406802 -10.010823 1.924385 12.600815 -0.933804 1.417477 0.008921 -0.003854 2692280.000000 1 0 0
-4.278598 -1.707523 1.563785 4.864921 0.379717 1.243546 0.000658 0.000686 1581070.000000 1 0 0
6.789102 -14.991823 -0.900315 16.482027 -1.145572 1.625448 0.016671 -0.001964 -1128220.000000 1 0 0
-10.477498 1.754277 2.326685 10.875151 -0.165894 1.355185 0.003731 -0.002547 1454800.000000 1 0 0
-3.034098 8.267477 -11.379415 14.389163 -1.219065 2.482964 0.003407 -0.000626 -335240.000000 1 0 0
-1.281198 -5.199023 -6.865615 8.706778 1.329180 2.479223 0.004970 -0.005540 -1106710.000000 1 0 0
12.682102 -0.453623 6.494085 14.255336 -0.035754 1.097801 0.012201 -0.008217 1823350.000000 1 0 0
5.919602 -13.305723 3.834785 15.059533 -1.152199 1.313319 0.009230 -0.001742 253778.000000 1 0 0
-5.516698 3.481077 -4.972115 8.202060 -0.562908 2.222074 0.005954 -0.004108 1157300.000000 1 0 0
-4.452798 8.105077 3.243485 9.799994 -1.068426 1.233467 -0.001311 0.001897 158746.000000 1 0 0
13.973002 6.248977 -3.929515 15.803025 0.420538 1.822089 0.012576 -0.001050 -437483.000000 1 0 0
-6.714798 -8.441623 5.305185 12.020586 0.898843 1.113703 0.013550 -0.001203 81996.400000 1 0 0
1.724602 11.284277 2.725985 11.736275 1.419138 1.336385 0.000470 0.000659 1109880.000000 1 0 0
-7.400698 7.162877 5.974385 11.906738 -0.769070 1.045158 -0.002058 -0.002170 784778.000000 1 0 0
-17.438898 -4.057823 4.954985 18.577755 0.228620 1.300812 0.035606 -0.011369 -843592.000000 1 0 0
7.630602 -13.087023 -8.568915 17.404671 -1.042921 2.085566 0.021160 0.000868 -1388690.000000 1 0 0
-2.341298 12.798577 -2.816215 13.312262 -1.389863 1.783957 0.001593 0.000918 1178830.000000 1 0 0
-5.615598 13.995777 -5.687415 16.117178 -1.189226 1.931443 0.013964 0.002606 3348730.000000 1 0 0
-5.653998 2.314277 7.384385 9.583982 -0.388512 0.691183 -0.000878 -0.000141 816869.000000 1 0 0
-7.338598 5.080677 1.409585 9.036329 -0.605555 1.414166 0.002098 -0.001336 869135.000000 1 0 0
10.802002 -5.730223 -5.002415 13.211467 -0.487732 1.959125 0.014611 -0.004573 3405400.000000 1 0 0
-9.586298 -0.752023 6.809885 11.782919 0.078287 0.954587 0.004977 -0.001722 542809.000000 1 0 0
-11.227098 -4.548123 -2.580815 12.385224 0.384897 1.780713 0.003424 -0.002589 -422806.000000 1 0 0
6.508902 -4.351923 13.502385 15.608313 -0.589347 0.525493 0.009267 -0.003922 83380.100000 1 0 0
0.218802 10.134677 -11.693515 15.475718 1.549210 2.427372 0.012868 -0.000628 -975815.000000 1 0 0
-11.784598 -3.241523 1.395585 12.301702 0.268426 1.457105 0.004292 -0.001551 4297250.000000 1 0 0
5.143402 5.946177 5.440085 9.560655 0.857662 0.965498 -0.001229 0.003209 -4005300.000000 1 0 0
-7.156498 -0.106023 8.086485 10.798979 0.014814 0.724517 0.002949 -0.001692 -499693.000000 1 0 0
1.673002 2.089377 9.621485 9.986861 0.895618 0.271334 -0.003441 -0.000409 2743180.000000 1 0 0
10.539202 -4.906523 -2.016015 11.798858 -0.435710 1.742504 0.014267 -0.005703 1710250.000000 1 0 0
-9.700798 -2.351023 -1.721815 10.129040 0.237769 1.741614 0.005324 -0.002960 -1215170.000000 1 0 0
-1.986698 -5.265023 -9.884815 11.374402 1.209977 2.624056 0.010055 -0.006410 150770.000000 1 0 0
7.629102 -1.607723 6.534085 10.172622 -0.207697 0.873274 0.001855 -0.002603 1204840.000000 1 0 0
1.606602 -11.857923 -2.591315 12.243628 -1.436129 1.784055 0.002833 -0.000907 -3777580.000000 1 0 0
-0.806798 -1.505123 4.758885 5.056016 1.078738 0.344537 0.001442 -0.000624 1850930.000000 1 0 0
7.587202 1.584377 9.946285 12.609697 0.205864 0.661974 -0.003760 0.000368 331961.000000 1 0 0
-3.935098 10.723277 -7.860215 13.865665 -1.219086 2.173514 0.008699 0.001190 3144210.000000 1 0 0
-9.549798 12.628577 6.388085 17.072997 -0.923336 1.187302 0.008130 0.000323 698192.000000 1 0 0
-2.588698 -2.458623 -10.980115 11.545957 0.759633 2.827225 0.014538 -0.008792 -1005680.000000 1 0 0
1.180402 -11.960523 11.048285 16.325197 -1.472423 0.827440 0.000714 -0.000641 1468450.000000 1 0 0
1.292102 3.454977 -1.966215 4.180000 1.212918 2.060525 0.007747 -0.000123 3833970.000000 1 0 0
-1.873498 -9.512123 -12.087715 15.495268 1.376327 2.465607 0.009045 -0.003965 1862980.000000 1 0 0
1.248302 -2.805423 1.511185 3.422329 -1.152141 1.113453 0.006528 -0.001573 2747350.000000 1 0 0
-1.049498 -2.304923 -6.605515 7.074387 1.143520 2.775471 0.009861 -0.010053 797733.000000 1 0 0
1.754102 5.784177 4.112585 7.310741 1.276353 0.973341 -0.003501 0.003364 825694.000000 1 0 0
-11.012798 8.596477 3.634685 14.435791 -0.662793 1.316274 -0.001434 -0.006586 2696310.000000 1 0 0
-16.394198 -1.557123 3.788885 16.898225 0.094696 1.344656 0.022053 -0.004300 187304.000000 1 0 0
-12.308298 0.244077 6.873585 14.099643 -0.019828 1.061571 0.004459 -0.000532 -294529.000000 1 0 0
-5.152398 3.001677 4.632485 7.550973 -0.527511 0.910317 -0.003608 -0.000165 2258190.000000 1 0 0
5.323502 -6.011223 3.911585 8.931683 -0.845998 1.117485 0.001655 -0.002895 1837500.000000 1 0 0
9.860202 3.452377 6.345285 12.223139 0.336793 1.024974 -0.003028 0.002558 -865731.000000 1 0 0
-12.152498 5.860077 3.188185 13.863197 -0.449316 1.338745 0.009048 -0.004916 826423.000000 1 0 0
-4.907998 12.269777 -1.275915 13.276439 -1.190284 1.667049 -0.002366 0.002200 2201820.000000 1 0 0
-1.713598 -12.323123 10.255185 16.123417 1.432627 0.881437 0.009089 -0.006706 1061020.000000 1 0 0
5.061002 6.394677 13.875485 16.094555 0.901297 0.531352 0.001865 -0.006997 1057200.000000 1 0 0
12.956202 -3.689223 -5.865115 14.692621 -0.277404 1.981427 0.009508 -0.002575 778148.000000 1 0 0
3.530102 -2.665423 6.325985 7.719079 -0.646729 0.610213 0.000579 0.001826 1818200.000000 1 0 0
7.287702 -11.824723 -0.649415 13.905265 -1.018470 1.617516 0.009648 -0.000823 -536057.000000 1 0 0
-5.997298 -6.642723 -4.208415 9.889596 0.836416 2.010354 0.015612 -0.003792 -86964.500000 1 0 0
0.316202 -8.932723 5.130385 10.306036 -1.535413 1.049732 0.008151 -0.003996 1598540.000000 1 0 0
-10.306898 2.552577 -0.414215 10.626353 -0.242772 1.609786 0.004212 -0.002204 -719024.000000 1 0 0
-1.844598 8.952977 -0.442015 9.151706 -1.367608 1.619114 0.004150 -0.000763 1291240.000000 1 0 0
-3.541298 2.223877 -6.683215 7.883641 -0.560742 2.582491 0.013139 -0.009144 1067600.000000 1 0 0
-12.709298 3.029177 6.340285 14.522444 -0.233978 1.118997 0.010054 -0.004535 418300.000000 1 0 0
11.216702 1.619777 8.005785 13.875542 0.143416 0.955781 0.009487 -0.008590 -2366080.000000 1 0 0
6.047202 2.698177 -3.210015 7.358873 0.419678 2.022179 0.007131 0.000933 988494.000000 1 0 0
10.439102 -2.405223 6.397585 12.477541 -0.226453 1.032437 0.009262 -0.007218 2750020.000000 1 0 0
-0.944498 10.995977 4.028085 11.748577 -1.485112 1.220840 -0.000825 0.003480 1199830.000000 1 0 0
-1.588098 -12.264023 7.363785 14.392833 1.442020 1.033717 0.008046 -0.002740 -378849.000000 1 0 0
8.088202 8.705377 -7.702315 14.160800 0.822132 2.145896 -0.000852 -0.001551 1682610.000000 1 0 0
-4.679498 -6.004223 -8.734315 11.586055 0.908763 2.424721 0.009880 -0.004651 1173010.000000 1 0 0
-8.532698 -5.353623 -11.775715 15.496312 0.560341 2.433962 0.011458 -0.002051 1284070.000000 1 0 0
6.101302 -0.633923 -10.005515 11.736187 -0.103528 2.591614 0.004783 -0.001659 -1035790.000000 1 0 0
-11.121098 -5.389823 -5.421215 13.495132 0.451291 1.984187 0.003428 -0.007521 -632087.000000 1 0 0
3.896102 8.972977 -2.725315 10.154864 1.161156 1.842502 0.011220 -0.001054 2254980.000000 1 0 0
11.814602 -10.340423 -3.867515 16.169936 -0.718957 1.812317 0.030034 -0.007918 1817660.000000 1 0 0
4.023802 -11.320823 4.093385 12.692825 -1.229289 1.242431 0.005327 -0.003997 -144429.000000 1 0 0
-1.045598 0.832177 3.155185 3.426512 -0.672227 0.400630 -0.000950 0.000826 -993093.000000 1 0 0
-10.638498 -5.091723 4.472985 12.613916 0.446392 1.208302 0.009184 -0.001143 3654180.000000 1 0 0
4.639102 -8.671923 2.878485 10.247399 -1.079576 1.286066 0.004930 -0.001955 5234990.000000 1 0 0
-3.673098 -5.769123 2.529785 7.292067 1.003840 1.216508 0.004398 0.001480 653344.000000 1 0 0
10.005502 5.099077 12.390285 16.722135 0.471320 0.736311 0.010890 0.000404 1146370.000000 1 0 0
1.691402 -12.414623 -5.276515 13.595047 -1.435387 1.969388 0.006661 -0.003587 2762830.000000 1 0 0
9.966402 -10.684523 -1.611815 14.699869 -0.820158 1.680666 0.017389 -0.005629 1245070.000000 1 0 0
9.725002 -4.476223 -9.138315 14.075548 -0.431370 2.277372 0.013061 -0.000732 1327990.000000 1 0 0
-7.443198 -3.116123 -13.198715 15.469890 0.396483 2.592862 0.012892 -0.000642 2739340.000000 1 0 0
0.379602 6.236977 -2.509815 6.733733 1.510008 1.952738 0.006826 -0.001458 2595220.000000 1 0 0
-6.050198 -9.482923 0.945585 11.288262 1.002896 1.486931 0.010467 -0.001925 273519.000000 1 0 0
-8.981398 -4.149723 0.537085 9.908288 0.432817 1.516564 0.004068 -0.000234 1053950.000000 1 0 0
1.902302 3.777677 12.068685 12.788383 1.104302 0.337086 -0.002134 -0.003330 675986.000000 1 0 0
6.544802 4.316077 9.631585 12.418952 0.583001 0.683202 -0.004704 0.001956 3345140.000000 1 0 0
-8.314198 9.938577 -3.734915 13.485207 -0.874158 1.851429 0.001065 0.000674 1656590.000000 1 0 0
16.416302 2.181677 -6.023415 17.622038 0.132123 1.919640 0.019783 -0.000896 -891375.000000 1 0 0
-10.927498 2.582477 -5.159015 12.356976 -0.232070 2.001487 0.009375 -0.001288 1601680.000000 1 0 0
-13.873498 4.070677 1.429885 14.528900 -0.285404 1.472220 0.012824 -0.001994 717899.000000 1 0 0
-17.394798 10.442377 3.515985 20.590881 -0.540652 1.399201 0.043156 -0.012622 1460270.000000 1 0 0
-14.411998 2.976877 -1.264715 14.770477 -0.203691 1.656526 0.010731 -0.000537 792530.000000 1 0 0
-14.417298 5.063377 5.093685 16.107200 -0.337745 1.249037 0.014460 -0.004548 1706780.000000 1 0 0
-17.591098 7.531377 3.163985 19.395339 -0.404524 1.406933 0.039972 -0.007772 -1161360.000000 1 0 0
-15.042698 12.587777 -3.320415 19.893719 -0.696783 1.738489 0.043373 -0.002840 -504637.000000 1 0 0
-8.508198 12.566577 -9.634815 17.976039 -0.975640 2.136466 0.007677 -0.010526 141431.000000 1 0 0
-12.590298 8.719877 -9.911815 18.242696 -0.605733 2.145196 0.014213 -0.000936 -111737.000000 1 0 0
-13.846098 -3.557423 -12.302615 18.860648 0.251487 2.281398 0.015357 0.001164 -463709.000000 1 0 0
-14.932398 5.740977 -7.667215 17.740392 -0.367042 2.017716 0.032096 0.000913 -837788.000000 1 0 0
-10.988398 13.515777 -8.550715 19.404532 -0.888175 2.027125 0.017602 -0.010335 1629540.000000 1 0 0
-10.855098 13.497677 3.900785 17.754903 -0.893488 1.349288 0.011330 -0.003165 -652366.000000 1 0 0
-15.246098 3.263177 2.984085 15.874401 -0.210852 1.381690 0.015473 0.000074 150813.000000 1 0 0
-11.198298 9.471677 -12.425115 19.222332 -0.702059 2.273639 0.021968 -0.007714 1106480.000000 1 0 0
-13.187798 11.524377 -9.062815 19.719633 -0.718188 2.048322 0.025454 -0.016950 -57982.600000 1 0 0
-8.910898 14.668277 -3.405915 17.497506 -1.024884 1.766698 0.017774 -0.004717 572704.000000 1 0 0
-16.650498 8.425377 -4.085715 19.102857 -0.468447 1.786341 0.029410 0.002933 623818.000000 1 0 0
-17.042198 6.637277 0.367185 18.292752 -0.371388 1.550722 0.032401 0.003273 1084530.000000 1 0 0
-10.557998 2.790577 -12.619715 16.688795 -0.258400 2.428250 0.020512 -0.003223 862540.000000 1 0 0
-16.910998 0.973977 2.282185 17.092070 -0.057531 1.436873 0.022997 -0.003871 1362070.000000 1 0 0
-12.626198 1.208677 -7.017315 14.495672 -0.095437 2.076128 0.006310 -0.002737 789025.000000 1 0 0
-12.352598 9.045177 -5.403815 16.235859 -0.632043 1.910102 0.017852 0.000580 -1029080.000000 1 0 0
-9.608598 13.959477 1.280085 16.995022 -0.967952 1.495404 0.020556 -0.002847 -141342.000000 1 0 0
-12.222798 11.131277 2.774585 16.763068 -0.738694 1.404513 0.011588 -0.003634 1135980.000000 1 0 0
-12.613798 6.865077 -3.552615 14.793859 -0.498419 1.813308 0.006826 0.002404 374884.000000 1 0 0
-16.230098 3.744377 -9.357015 19.104716 -0.226739 2.082628 0.051742 -0.006625 -1311880.000000 1 0 0
-15.145498 5.918277 -4.707515 16.928462 -0.372517 1.852594 0.017362 0.003695 1044400.000000 1 0 0
-18.170498 5.231877 7.425585 20.314499 -0.280349 1.196593 0.049648 -0.009495 464941.000000 1 0 0
-15.740598 10.107777 -1.930515 18.805863 -0.570835 1.673632 0.029206 0.002786 -1121830.000000 1 0 0
-8.886898 9.923777 -8.441515 15.770780 -0.840464 2.135615 0.009219 -0.004505 392271.000000 1 0 0
-17.122898 4.185277 -1.360015 17.679362 -0.239725 1.647799 0.021592 0.003555 864814.000000 1 0 0
-10.255798 5.368377 -4.534715 12.432398 -0.482230 1.944160 0.003824 0.000211 149291.000000 1 0 0
-18.262398 2.653877 6.088685 19.432713 -0.144309 1.252108 0.036253 -0.005242 1231220.000000 1 0 0
-10.448498 10.176777 -5.813915 15.701577 -0.772225 1.950102 0.005997 0.000224 1569820.000000 1 0 0
-15.324098 0.500077 -5.929715 16.438966 -0.032622 1.939826 0.012868 -0.001323 1025760.000000 1 0 0
-16.286498 -4.121323 -8.961715 19.040685 0.247849 2.060837 0.029125 -0.017373 -1600250.000000 1 0 0
-10.069398 9.735377 -1.230615 14.060041 -0.768534 1.658434 -0.001720 0.002377 1375560.000000 1 0 0
-17.392498 -2.985223 -3.287815 17.950495 0.169982 1.754996 0.032563 -0.009301 -281724.000000 1 0 0
-12.064498 4.961777 -11.551215 17.424176 -0.390185 2.295538 0.022567 -0.004246 336899.000000 1 0 0
-16.365298 6.973277 5.858785 18.728987 -0.402803 1.252637 0.032541 -0.007688 665737.000000 1 0 0
-12.240598 5.964177 -8.798015 16.211376 -0.453392 2.144452 0.012451 0.000081 3405680.000000 1 0 0
-14.534998 8.241777 0.068185 16.709210 -0.515824 1.566716 0.024268 0.002359 2010930.000000 1 0 0
-14.879898 11.967977 3.912085 19.492261 -0.677360 1.368725 0.018136 -0.008481 1135850.000000 1 0 0
-17.388098 4.218477 -4.195715 18.377854 -0.238009 1.801130 0.022928 -0.000713 -308818.000000 1 0 0
-13.798998 13.574977 -0.769015 19.372241 -0.777215 1.610504 0.033734 0.003415 -583167.000000 1 0 0
-10.139598 6.783877 -13.008015 17.833701 -0.589649 2.388250 0.013057 -0.008483 1689730.000000 1 0 0
-15.854198 -1.123023 -8.362615 17.959680 0.070716 2.055146 0.016369 -0.010648 -1097160.000000 1 0 0
-11.446598 11.990577 -0.059415 16.577155 -0.808604 1.574381 0.019723 -0.002166 -114981.000000 1 0 0
-11.981098 7.407677 -0.892615 14.114431 -0.553753 1.634080 0.002195 0.004712 2618030.000000 1 0 0
-11.525598 0.115777 -11.715015 16.434549 -0.010045 2.364319 0.010286 -0.004977 692826.000000 1 0 0
-19.076598 -1.179723 -4.852015 19.719290 0.061763 1.819404 0.029240 -0.006911 -548382.000000 1 0 0
-17.937998 1.524677 -5.299315 18.766437 -0.084793 1.857073 0.015241 0.002627 -506931.000000 1 0 0
-13.399598 -0.131823 -9.598215 16.483093 0.009838 2.192360 0.013560 -0.005176 414945.000000 1 0 0
-6.246298 11.172777 -13.324915 18.477028 -1.061021 2.376273 0.003208 -0.002681 -547315.000000 1 0 0
16.473102 5.859977 7.224885 18.918281 0.341770 1.178945 0.045740 -0.009325 -544825.000000 1 0 0
14.910802 10.141377 -5.505015 18.854303 0.597270 1.867089 0.045802 -0.016844 -544916.000000 1 0 0
2.422102 17.017577 4.366885 17.735112 1.429416 1.322010 0.013235 -0.006872 2671250.000000 1 0 0
-3.971998 18.201677 -5.885515 19.537582 -1.355943 1.876790 0.021911 -0.004022 590804.000000 1 0 0
5.367902 14.546077 5.752085 16.537509 1.217272 1.215551 0.005346 -0.004737 -1024490.000000 1 0 0
9.788702 6.085377 15.157985 19.042452 0.556204 0.650122 0.018610 -0.001765 -615005.000000 1 0 0
4.644002 12.830077 -1.076515 13.687093 1.223505 1.649530 0.008205 -0.001832 1797750.000000 1 0 0
3.524202 13.614477 13.006285 19.155611 1.317499 0.824423 0.005130 -0.004899 249825.000000 1 0 0
-0.788398 12.360877 9.144085 15.395686 -1.507101 0.934851 -0.006397 0.003446 1931170.000000 1 0 0
-7.801298 13.893377 8.364885 17.996041 -1.059158 1.087367 0.013124 -0.010312 1287420.000000 1 0 0
11.442802 12.967477 -4.167915 17.789455 0.847778 1.807286 0.031432 -0.006530 1239710.000000 1 0 0
-5.757598 16.148677 0.873085 17.166595 -1.228310 1.519915 0.005824 0.001250 276585.000000 1 0 0
3.173402 10.597177 6.786685 12.978048 1.279838 1.020505 -0.007693 0.006594 1333510.000000 1 0 0
-1.149098 15.547177 2.481785 15.785892 -1.497020 1.412926 -0.001743 -0.002084 -1404550.000000 1 0 0
9.824602 8.889977 9.585085 16.353236 0.735499 0.944525 0.010477 -0.002274 1250960.000000 1 0 0
7.179902 12.306677 6.168885 15.526121 1.042661 1.162198 0.006755 0.000018 235027.000000 1 0 0
11.901402 14.074577 -1.526715 18.495079 0.868865 1.653437 0.031235 -0.005181 -795683.000000 1 0 0
9.663902 15.955977 -1.272315 18.697673 1.026225 1.638896 0.021691 -0.008332 1805700.000000 1 0 0
10.209602 13.821277 3.027685 17.447938 0.934575 1.396387 0.014962 0.000878 2476660.000000 1 0 0
-6.030198 14.505877 6.244385 16.904914 -1.176823 1.192452 -0.001421 -0.003490 90470.500000 1 0 0
-0.958198 18.097077 -6.317015 19.191848 -1.517898 1.906201 0.028734 -0.001643 2428990.000000 1 0 0
-3.517698 15.654577 5.445085 16.943699 -1.349760 1.243627 -0.007528 0.000037 2734210.000000 1 0 0
7.085702 12.249877 10.615885 17.690779 1.046388 0.927195 0.006947 -0.000035 2228080.000000 1 0 0
1.479902 14.625777 6.193685 15.951965 1.469955 1.172042 -0.002722 -0.001886 1136710.000000 1 0 0
17.388002 7.788277 -1.337915 19.099473 0.421115 1.640904 0.016566 -0.002899 2210650.000000 1 0 0
2.034102 16.242577 -3.392415 16.717277 1.446212 1.775144 0.007994 -0.005153 1075850.000000 1 0 0
6.696902 11.150577 0.562685 13.019235 1.029945 1.527563 0.009213 0.000413 2074550.000000 1 0 0
12.668402 9.383577 3.307185 16.108302 0.637527 1.364017 0.016746 0.003453 -1343390.000000 1 0 0
5.982202 14.406077 -3.413115 15.967816 1.177208 1.786208 0.003139 -0.001540 367961.000000 1 0 0
3.113102 16.593177 1.485685 16.947926 1.385339 1.483022 0.013544 -0.013399 -51161.700000 1 0 0
2.840602 18.906077 -2.476115 19.277965 1.421664 1.699595 0.027467 -0.020534 -211554.000000 1 0 0
3.964902 11.819877 10.634585 16.386712 1.247148 0.864558 -0.000320 -0.002519 2731240.000000 1 0 0
8.065302 11.634677 3.343885 14.546352 0.964640 1.338844 0.004673 0.004259 1886720.000000 1 0 0
0.886002 12.481577 0.189985 12.514426 1.499930 1.555614 0.003284 -0.001224 -2540500.000000 1 0 0
11.989102 10.086577 -4.676015 16.350618 0.699429 1.860829 0.013697 -0.002660 1773380.000000 1 0 0
-1.357798 16.486077 9.996285 19.327702 -1.488621 1.027220 0.002395 0.000136 -1046630.000000 1 0 0
8.117002 15.008077 -7.964715 18.829891 1.075011 2.007531 0.015076 0.000721 2916740.000000 1 0 0
14.377602 7.661477 -1.301015 16.343387 0.489601 1.650486 0.002821 0.002332 -113197.000000 1 0 0
12.477902 8.311977 6.076185 16.177361 0.587635 1.185754 0.015196 -0.002117 -527401.000000 1 0 0
-3.082098 14.148177 10.140885 17.677890 -1.356303 0.959844 0.003349 -0.008783 791668.000000 1 0 0
-4.635998 17.198677 -3.094615 18.079370 -1.307499 1.742812 0.020198 -0.000883 478887.000000 1 0 0
-7.128998 16.475677 -1.718315 18.033945 -1.162423 1.666223 0.013856 0.001964 -250580.000000 1 0 0
8.362102 11.335177 -1.880015 14.210751 0.935206 1.703481 0.006665 0.000981 -286921.000000 1 0 0
8.523002 13.061677 -4.108915 16.128613 0.992652 1.828395 0.016714 -0.001200 1958390.000000 1 0 0
2.636102 14.864677 -7.392015 16.809210 1.395281 2.026128 0.009473 -0.001275 -885532.000000 1 0 0
11.293102 11.335377 9.767885 18.746640 0.787266 1.022719 0.023469 -0.005067 294781.000000 1 0 0
8.675502 15.845577 1.464785 18.124355 1.069872 1.489890 0.015226 -0.005526 1788070.000000 1 0 0
5.989402 9.925277 7.619985 13.872571 1.027844 0.989289 0.001772 0.003590 2815170.000000 1 0 0
14.510102 11.364977 2.629385 18.617718 0.664441 1.429092 0.032180 -0.000020 1794960.000000 1 0 0
12.145102 12.650877 1.188485 17.577278 0.805793 1.503130 0.022216 -0.001219 1879640.000000 1 0 0
5.012802 15.880077 8.255185 18.586369 1.265030 1.110568 0.013280 -0.002924 -2028200.000000 1 0 0
11.571502 15.088577 5.264985 19.730304 0.916564 1.300676 0.026353 0.001227 789964.000000 1 0 0
5.981602 16.902677 1.781785 18.018180 1.230665 1.471746 0.009285 -0.015613 899900.000000 1 0 0
-0.706598 16.176577 -4.232315 16.735992 -1.527144 1.826459 0.007823 0.001063 -65031.500000 1 0 0
16.047802 6.421877 2.596885 17.479023 0.380654 1.421673 0.011043 0.000939 320006.000000 1 0 0
7.542202 16.913077 -3.064615 18.770425 1.151325 1.734799 0.010076 -0.006024 1727630.000000 1 0 0
14.842502 8.239077 7.554085 18.580809 0.506751 1.152118 0.041169 -0.009296 933216.000000 1 0 0
2.088602 12.870477 8.541585 15.587498 1.409920 0.990853 -0.002513 0.001598 1305790.000000 1 0 0
15.885802 7.410877 -5.790415 18.461005 0.436498 1.889838 0.016417 -0.002033 -1902690.000000 1 0 0
-2.954898 16.992177 0.655285 17.259632 -1.398621 1.532821 -0.000230 -0.002557 219827.000000 1 0 0
-2.905798 18.491877 4.600085 19.275735 -1.414932 1.329825 -0.001706 -0.008445 1108440.000000 1 0 0
-0.956498 19.050077 0.766885 19.089485 -1.520629 1.530612 0.010153 -0.011008 -961605.000000 1 0 0
6.875002 16.982877 -5.942315 19.261227 1.186142 1.884424 0.013743 -0.004771 315895.000000 1 0 0
11.033802 10.096477 0.821485 14.978600 0.741068 1.515925 0.006653 0.003919 -1044380.000000 1 0 0
8.971502 8.790277 14.240585 18.988182 0.775195 0.722778 0.015994 -0.008055 -551399.000000 1 0 0
6.405202 12.561677 -8.328515 16.376401 1.099260 2.104317 0.012522 -0.003846 1362800.000000 1 0 0
6.197502 9.025477 13.345085 17.261505 0.969075 0.687063 0.005982 -0.007031 1639460.000000 1 0 0
16.700202 9.359377 2.991685 19.376399 0.510819 1.415778 0.034517 -0.006693 -177699.000000 1 0 0
2.563002 14.854377 -0.803315 15.095258 1.399937 1.624038 0.005886 -0.004758 374082.000000 1 0 0
9.039302 12.783377 8.305385 17.722955 0.955312 1.083065 0.012020 -0.007529 430177.000000 1 0 0
7.125902 9.334177 10.488985 15.745607 0.918761 0.841757 0.003198 -0.004120 1068300.000000 1 0 0
4.276002 15.889377 -5.308815 17.289882 1.307914 1.882885 0.014753 -0.005063 1132710.000000 1 0 0
0.236302 16.175677 -8.202015 18.137845 1.556189 2.040032 0.016967 -0.002682 657350.000000 1 0 0
-2.498698 15.662377 -1.983515 15.983988 -1.412594 1.695211 0.004017 -0.001486 -497257.000000 1 0 0
13.250202 10.522977 7.758185 18.614251 0.671179 1.140888 0.030354 -0.007310 1530430.000000 1 0 0
-1.012198 15.909277 7.075585 17.441145 -1.507259 1.153070 -0.000255 -0.002783 1615990.000000 1 0 0
13.245802 13.282477 6.769685 19.942520 0.786781 1.224454 0.031883 -0.008225 826577.000000 1 0 0
5.406902 17.356077 4.605485 18.753093 1.268797 1.322673 0.018842 -0.013942 -170485.000000 1 0 0
10.836602 9.610077 -1.867915 14.603925 0.725483 1.699053 0.005189 0.003816 1217160.000000 1 0 0
3.141002 12.763377 4.663785 13.947063 1.329496 1.229836 -0.000269 0.003895 1261790.000000 1 0 0
-0.159298 18.070477 3.453285 18.398171 -1.561981 1.381979 0.001648 -0.009468 2160610.000000 1 0 0
-7.758898 16.009177 -5.736515 18.692294 -1.119501 1.882722 0.031595 -0.008202 1404320.000000 1 0 0
-12.406098 -9.140123 8.255785 17.481736 0.634963 1.078952 0.027202 -0.005481 227558.000000 1 0 0
-13.221398 -11.722623 6.794285 18.931127 0.725385 1.203713 0.041845 -0.009826 -736405.000000 1 0 0
-6.483598 -12.255223 12.235885 18.491739 1.084181 0.847720 0.030125 -0.012339 -522198.000000 1 0 0
-1.846798 -10.817323 14.310685 18.033880 1.401701 0.654185 0.004389 -0.007051 539554.000000 1 0 0
-8.835498 2.753877 10.944485 14.332886 -0.302141 0.701938 0.009078 -0.003930 3075040.000000 1 0 0
0.431802 10.041777 15.240085 18.256065 1.527822 0.583035 -0.005307 -0.009147 -705816.000000 1 0 0
0.919702 -6.824123 16.520285 17.897886 -1.436831 0.394913 0.006172 -0.017566 1183860.000000 1 0 0
6.012702 2.359277 17.719585 18.860076 0.373922 0.349544 0.014132 -0.010649 900634.000000 1 0 0
-5.052798 -2.975123 17.479185 18.436486 0.532149 0.323666 0.013314 -0.013747 790538.000000 1 0 0
-4.385898 8.192377 13.094485 16.056671 -1.079260 0.617175 -0.001729 -0.000122 -355844.000000 1 0 0
-0.045798 -5.005123 18.568685 19.231469 1.561646 0.263300 0.014005 -0.020935 142283.000000 1 0 0
-11.742098 2.101377 11.196485 16.360132 -0.177086 0.817049 0.021837 -0.005406 816663.000000 1 0 0
-3.408098 -6.110923 14.280285 15.902360 1.062056 0.455599 0.011190 -0.009865 1290390.000000 1 0 0
-7.495598 -2.196123 14.474585 16.447509 0.285012 0.494835 0.018062 -0.008670 1394540.000000 1 0 0
-6.027998 -1.149023 10.593485 12.242505 0.188355 0.525040 0.009212 -0.004730 982962.000000 1 0 0
-3.978298 2.438877 11.139985 12.077841 -0.549956 0.396679 -0.001330 0.000770 554509.000000 1 0 0
-6.571998 6.326677 13.624085 16.396149 -0.766381 0.590016 0.001296 -0.001360 724718.000000 1 0 0
-8.992398 5.338477 12.501685 16.298917 -0.535749 0.696604 0.008474 -0.003995 670493.000000 1 0 0
-12.376998 -2.231723 15.740685 20.147948 0.178395 0.674123 0.017463 -0.003924 2290590.000000 1 0 0
-3.466298 -7.669223 16.839685 18.825705 1.146301 0.463474 0.014882 -0.010573 -652984.000000 1 0 0
-0.608798 -5.269023 14.424785 15.369048 1.455764 0.352360 -0.001284 -0.005165 2731210.000000 1 0 0
-14.384798 -2.302923 13.607185 19.934426 0.158747 0.819486 0.014990 -0.004690 -503682.000000 1 0 0
-6.416898 1.420577 12.185285 13.844702 -0.217867 0.494638 0.008323 -0.003941 3070430.000000 1 0 0
2.200002 -2.172623 14.603385 14.927128 -0.779137 0.208648 -0.001582 -0.000225 -126367.000000 1 0 0
-12.555698 3.976477 9.126785 16.023612 -0.306713 0.964797 0.011312 -0.002369 -918918.000000 1 0 0
-9.161298 -3.047623 12.439085 15.746372 0.321147 0.660044 0.011810 -0.001996 1721850.000000 1 0 0
-7.211298 -7.241323 15.276885 18.379956 0.787476 0.589586 0.025871 -0.005596 -1080970.000000 1 0 0
-3.088198 5.963077 19.488585 20.613107 -1.092942 0.331835 0.014303 -0.017419 964503.000000 1 0 0
0.529802 5.504577 16.127485 17.049247 1.474844 0.330330 0.001543 -0.011763 845029.000000 1 0 0
3.352702 1.532577 16.869185 17.267275 0.428757 0.215145 0.007828 -0.006918 1560440.000000 1 0 0
-11.728598 11.404877 7.780085 18.115213 -0.771405 1.126882 0.008967 -0.010884 -528437.000000 1 0 0
0.510102 -9.544723 15.398485 18.123887 -1.517404 0.555525 -0.008719 -0.003294 -363615.000000 1 0 0
-2.535798 -3.690623 18.773785 19.300413 0.968786 0.234140 0.018239 -0.021431 1681150.000000 1 0 0
-13.057198 2.249877 13.736785 19.085377 -0.170634 0.767348 0.026264 -0.007304 832117.000000 1 0 0
-5.431698 -0.560523 15.683485 16.606903 0.102831 0.335045 0.014129 -0.004914 1645920.000000 1 0 0
-4.477998 -6.010723 11.583785 13.797294 0.930502 0.574306 0.007658 -0.001836 -285167.000000 1 0 0
2.385602 1.799077 14.008685 14.323792 0.646145 0.210143 -0.002017 -0.003990 -203484.000000 1 0 0
0.046602 3.365377 14.249485 14.641576 1.556950 0.231947 0.002553 -0.004412 975589.000000 1 0 0
-13.012398 6.985977 12.199985 19.156357 -0.492707 0.880373 0.021661 -0.002725 61190.900000 1 0 0
0.771202 1.478077 18.305385 18.381147 1.089893 0.090825 0.009990 -0.007163 812987.000000 1 0 0
-2.077398 6.457477 12.467885 14.193757 -1.259548 0.498279 -0.007526 0.001329 1419220.000000 1 0 0
-13.551298 -2.779423 10.854285 17.583469 0.202298 0.905490 0.018021 -0.003286 -1008460.000000 1 0 0
-2.605998 3.653777 13.432485 14.162378 -0.951244 0.322448 -0.004068 -0.000657 81551.600000 1 0 0
3.423302 6.152777 16.325085 17.778753 1.063066 0.407194 0.001072 -0.008753 453678.000000 1 0 0
-3.803398 12.302777 12.311385 17.815565 -1.270967 0.807860 0.005243 -0.009890 853393.000000 1 0 0
3.663402 -1.416623 17.110285 17.555318 -0.368985 0.225646 0.017292 -0.011128 -657440.000000 1 0 0
-15.897698 0.233677 9.051485 18.295376 -0.014698 1.053259 0.022207 -0.001036 1076120.000000 1 0 0
-4.695398 4.643977 15.248485 16.617147 -0.779892 0.408707 0.006495 -0.006212 1525750.000000 1 0 0
-8.101098 -8.194423 10.472285 15.570649 0.791125 0.833126 0.017395 -0.006882 2821110.000000 1 0 0
-2.641198 -0.366623 14.767685 15.006494 0.137928 0.178640 0.003803 -0.002085 2366840.000000 1 0 0
-1.877598 0.982777 17.239885 17.369653 -0.482210 0.122314 0.007737 -0.010808 1075590.000000 1 0 0
-0.713298 -2.444123 14.494285 14.716209 1.286840 0.173887 0.003550 -0.002569 1089170.000000 1 0 0
4.971002 -8.269323 16.580485 19.183457 -1.029541 0.527016 0.014792 -0.003996 130174.000000 1 0 0
-4.571098 9.922877 10.667985 15.269719 -1.139111 0.797306 -0.001557 -0.002053 -1400360.000000 1 0 0
-6.232798 2.180377 15.189185 16.562402 -0.336517 0.410082 0.014240 -0.005023 -139292.000000 1 0 0
-4.885798 6.813577 17.319985 19.242602 -0.948707 0.450831 0.007378 -0.007904 381674.000000 1 0 0
-4.088698 9.189977 15.799185 18.729318 -1.152185 0.566930 0.002903 -0.004510 -491326.000000 1 0 0
-4.514098 -9.831723 18.308285 21.265774 1.140371 0.533707 0.033406 -0.016159 -1747520.000000 1 0 0
-6.782798 -4.147523 10.989685 13.563977 0.548816 0.626284 0.011309 -0.001418 1460360.000000 1 0 0
-2.349898 -0.878023 19.527585 19.688055 0.357580 0.127763 0.020046 -0.012599 31725.900000 1 0 0
-5.821998 -4.569423 15.119785 16.833989 0.665438 0.455207 0.016527 -0.009639 840107.000000 1 0 0
-12.992698 -0.061223 9.779585 16.262049 0.004712 0.925576 0.009653 0.000476 1129390.000000 1 0 0
-14.344498 8.838277 10.360685 19.779372 -0.552206 1.019476 0.008695 -0.002814 -1231590.000000 1 0 0
-8.402698 10.592077 12.681785 18.537128 -0.900154 0.817388 0.012841 -0.011400 -1399790.000000 1 0 0
-10.481598 7.099777 10.754285 16.611002 -0.595367 0.866603 0.017367 -0.002814 -1044430.000000 1 0 0
-9.923298 -6.431023 14.822485 18.961433 0.575019 0.673381 0.026233 -0.006707 -691709.000000 1 0 0
-0.719698 -13.482123 14.410285 19.746947 1.517465 0.752844 0.006330 -0.010118 376665.000000 1 0 0
3.713302 -5.686723 16.964585 18.273603 -0.992331 0.380805 0.023363 -0.013711 2067980.000000 1 0 0
-7.326798 9.255977 10.340785 15.693531 -0.901214 0.851414 0.002250 -0.004315 231233.000000 1 0 0
-10.344898 -6.762823 11.859785 17.129133 0.578996 0.806021 0.018517 -0.008840 3257090.000000 1 0 0
-10.963298 -4.040823 10.625485 15.793134 0.353128 0.832821 0.011014 -0.002788 312060.000000 1 0 0
-10.147598 -10.230323 9.802185 17.427452 0.789458 0.973442 0.025984 -0.009960 82612.200000 1 0 0
-9.875298 -3.510123 15.187285 18.452536 0.341517 0.604043 0.020027 -0.013291 1218690.000000 1 0 0
5.534802 -3.380023 16.058285 17.318403 -0.548239 0.383827 0.016091 -0.007458 458175.000000 1 0 0
-11.369898 0.529477 15.238885 19.020477 -0.046535 0.641527 0.024220 -0.010593 185596.000000 1 0 0
-3.271898 3.089577 18.829385 19.359662 -0.756746 0.234593 0.017091 -0.016607 831536.000000 1 0 0
0.419502 7.414177 13.915485 15.772974 1.514276 0.490206 -0.004005 -0.007864 1061130.000000 1 0 0
-13.151998 -7.523423 12.257885 19.489297 0.519604 0.890588 0.020324 -0.005581 -472990.000000 1 0 0
-1.490998 -1.079023 12.159285 12.297787 0.626450 0.150224 -0.001292 -0.000505 1130500.000000 1 0 0
1.919902 -4.780823 13.124585 14.099539 -1.188925 0.374059 -0.002246 -0.001394 554471.000000 1 0 0
-14.669098 -4.117723 8.476885 17.435471 0.273664 1.063076 0.022909 -0.008615 -2392220.000000 1 0 0
8.046302 0.939877 16.117985 18.039284 0.116282 0.465731 0.016612 -0.007788 -496676.000000 1 0 0
-1.309298 11.348177 13.349885 17.570282 -1.455929 0.707792 -0.007196 -0.003423 157688.000000 1 0 0
2.948902 -12.295823 -13.743615 18.675391 -1.335413 2.397822 0.011770 0.004015 -884438.000000 1 0 0
0.877202 -10.717423 -13.946815 17.610971 -1.489130 2.484774 0.002194 0.003101 -3547630.000000 1 0 0
3.288402 -14.428023 -12.235115 19.201028 -1.346707 2.261671 0.013863 -0.000498 -287982.000000 1 0 0
-5.019498 -10.273023 -16.086015 19.735507 1.116302 2.523663 0.027679 -0.009418 -145477.000000 1 0 0
-0.905198 -12.408123 -14.881215 19.396687 1.497973 2.445267 0.019686 -0.003996 -236181.000000 1 0 0
5.772302 -15.109723 -12.165815 20.239324 -1.205880 2.215671 0.012449 0.005095 -233790.000000 1 0 0
2.127402 -11.714623 -16.058415 19.990771 -1.391152 2.503598 0.014796 -0.000833 -712363.000000 1 0 0
1.279502 -14.370223 -13.918015 20.046236 -1.481992 2.338237 0.025575 0.005586 -429532.000000 1 0 0
-0.925298 -10.761423 -15.853615 19.183366 1.485024 2.543525 0.010551 -0.004249 -581634.000000 1 0 0
-5.820398 -5.693023 -15.118515 17.171402 0.774335 2.647601 0.026400 -0.000101 -218728.000000 1 0 0
-6.495298 -7.591823 -16.869715 19.606427 0.863080 2.606885 0.034709 0.006634 652521.000000 1 0 0
5.141502 -12.627823 -11.387115 17.764103 -1.184136 2.266621 0.005155 0.007458 -177446.000000 1 0 0
-1.711498 -15.483323 -13.111015 20.360777 1.460705 2.270427 0.031709 -0.007575 -203478.000000 1 0 0
15.867202 -7.391723 -8.730615 19.560913 -0.435956 2.033456 0.036968 0.000840 343151.000000 1 0 0
19.276802 -3.662523 -4.227615 20.071918 -0.187758 1.783009 0.049772 -0.015903 206743.000000 1 0 0
14.940502 -11.718023 -8.801615 20.928428 -0.665102 2.004856 0.033931 -0.003549 565635.000000 1 0 0
17.947802 -3.590123 -6.456215 19.408640 -0.197426 1.909905 0.065922 -0.008137 619317.000000 1 0 0
9.625502 -9.004923 -15.443615 20.303797 -0.752101 2.435075 0.034320 -0.008265 344096.000000 1 0 0
1.332302 1.885477 -15.101115 15.276575 0.955646 2.989885 0.017233 -0.005708 -21025.500000 1 0 0
4.826902 -4.253823 -13.987815 15.396525 -0.722372 2.710488 0.004972 -0.001466 1519270.000000 1 0 0
13.209002 -5.516323 -8.541515 16.669284 -0.395602 2.108786 0.021859 0.001422 -1167530.000000 1 0 0
3.038602 0.955977 -12.214515 12.623049 0.304807 2.886484 0.010912 -0.009613 -2830580.000000 1 0 0
0.634402 6.302177 -12.951615 14.417498 1.470470 2.686741 0.014510 -0.006386 54278.600000 1 0 0
3.118902 -1.057423 -16.740615 17.061474 -0.326875 2.947349 0.018579 -0.007398 -242863.000000 1 0 0
13.206502 4.363377 -11.441315 18.009843 0.319105 2.259169 -0.008503 -0.004804 572851.000000 1 0 0
-3.897998 9.337677 -16.584215 19.427373 -1.175339 2.593754 0.009408 0.002660 -485128.000000 1 0 0
-0.308698 -5.123123 -17.753415 18.480407 1.510613 2.860171 0.018850 -0.002016 262432.000000 1 0 0
-0.444698 -8.585523 -17.484515 19.483769 1.519046 2.684612 0.016824 -0.004464 -2475270.000000 1 0 0
5.581902 -10.178423 -12.175315 16.822492 -1.069178 2.380021 0.002472 0.003560 416108.000000 1 0 0
1.682302 -9.811623 -17.844915 20.433773 -1.400987 2.632742 0.024146 -0.011293 -1126200.000000 1 0 0
11.162302 8.586577 -14.338215 20.097530 0.655706 2.365180 0.044659 -0.022820 765865.000000 1 0 0
10.854802 -3.672423 -12.725515 17.124607 -0.326234 2.408507 0.010639 -0.010729 841950.000000 1 0 0
4.921502 7.433677 -12.166415 15.083183 0.985993 2.509210 0.004057 -0.005487 -224311.000000 1 0 0
9.606502 -5.931123 -12.478315 16.827699 -0.553121 2.406151 0.011901 -0.004546 -1507470.000000 1 0 0
-3.361398 0.322677 -15.945015 16.298670 -0.095702 2.932895 0.019022 -0.001115 -1879510.000000 1 0 0
-0.812898 10.693577 -12.819515 16.713868 -1.494925 2.444947 0.007068 -0.000738 -419635.000000 1 0 0
6.737702 -5.447423 -12.519215 15.225038 -0.679902 2.536199 0.003231 -0.000014 -178620.000000 1 0 0
17.993602 -6.007023 -8.158515 20.649828 -0.322208 1.976961 0.056225 -0.010092 302934.000000 1 0 0
13.230102 4.770877 -14.073615 19.896319 0.346093 2.356535 0.006015 -0.007680 240897.000000 1 0 0
14.254502 0.831077 -11.518915 18.345760 0.058237 2.249621 0.013541 -0.000588 -1375880.000000 1 0 0
15.058902 6.213577 -11.109315 19.717909 0.391337 2.169307 0.013143 -0.011897 376805.000000 1 0 0
8.318402 1.541877 -11.649615 14.397456 0.183277 2.513490 -0.001430 0.000123 812253.000000 1 0 0
9.977102 1.300477 -8.898415 13.431887 0.129615 2.294927 -0.001643 0.000393 305516.000000 1 0 0
-0.140998 -5.816623 -12.906315 14.157187 1.546561 2.718063 0.005085 -0.002184 324877.000000 1 0 0
10.648502 -5.685723 -8.877115 14.984032 -0.490434 2.204879 0.016386 -0.001664 -1434150.000000 1 0 0
10.290602 8.542477 -11.117615 17.391716 0.692841 2.264316 0.012710 -0.011821 616566.000000 1 0 0
8.537702 8.084777 -14.679915 18.808399 0.758157 2.466258 0.025245 -0.008577 965104.000000 1 0 0
8.669802 10.588477 -10.709015 17.377121 0.884699 2.234795 0.017212 -0.007714 -567960.000000 1 0 0
7.115602 1.819077 -17.789315 19.245794 0.250286 2.750052 0.025688 -0.011149 -1515590.000000 1 0 0
12.241102 2.617577 -12.899815 17.975025 0.210662 2.371221 0.003155 -0.005422 -1346490.000000 1 0 0
2.711202 -0.681523 -19.199515 19.401971 -0.246270 2.997004 0.037021 -0.019768 -304276.000000 1 0 0
10.360102 -2.168723 -15.361115 18.654729 -0.206354 2.538250 0.024447 -0.015492 830375.000000 1 0 0
8.341402 -0.760323 -13.027015 15.487421 -0.090899 2.570175 0.005629 -0.006100 765480.000000 1 0 0
0.494302 4.322977 -14.562015 15.198183 1.456948 2.851236 0.012956 -0.002261 -378900.000000 1 0 0
3.977402 -7.566423 -15.598715 17.787366 -1.086828 2.640285 0.009661 -0.007647 -515979.000000 1 0 0
11.463002 -5.628223 -14.262515 19.144102 -0.456414 2.411344 0.027966 -0.010025 -752733.000000 1 0 0
-5.829098 4.281877 -16.915515 18.396943 -0.633552 2.737537 0.005392 0.001817 -277019.000000 1 0 0
11.420902 7.944377 -9.026115 16.583754 0.607767 2.146320 0.004830 -0.007347 -1604990.000000 1 0 0
9.519802 6.197177 -13.287715 17.481276 0.577062 2.434281 0.011040 -0.005736 -580267.000000 1 0 0
12.118202 0.678277 -10.236715 15.877696 0.055913 2.271457 0.005027 0.000459 -1401130.000000 1 0 0
5.581602 -7.331023 -13.730015 16.535159 -0.920060 2.550537 0.004332 0.000824 -620002.000000 1 0 0
8.792002 -10.318923 -10.623615 17.223259 -0.865127 2.235490 0.014242 0.005768 231568.000000 1 0 0
10.195202 4.667177 -15.756615 19.338966 0.429306 2.523111 0.033201 -0.013866 -359022.000000 1 0 0
9.941702 -0.404823 -10.922715 14.775217 -0.040697 2.402766 0.000983 -0.001026 -301491.000000 1 0 0
-1.691798 5.471977 -13.958915 15.088275 -1.270944 2.752227 0.010184 -0.003909 -1284370.000000 1 0 0
1.306702 -0.679323 -14.923815 14.996307 -0.479422 3.043228 0.015647 -0.004454 -206593.000000 1 0 0
11.503502 -10.387523 -14.229915 21.040952 -0.734463 2.313519 0.049838 -0.006522 -1169810.000000 1 0 0
9.468302 -7.836623 -10.709615 16.302063 -0.691386 2.287560 0.014725 0.002098 86770.100000 1 0 0
14.026402 -0.884623 -9.602115 17.021255 -0.062985 2.170169 0.010827 0.000642 823961.000000 1 0 0
3.926102 11.134277 -12.267515 17.025814 1.231795 2.375355 0.013980 -0.009635 -647290.000000 1 0 0
-1.358098 2.819377 -17.017915 17.303259 -1.121894 2.959734 0.010966 -0.002904 -393314.000000 1 0 0
6.022302 -0.475623 -17.627615 18.634032 -0.078813 2.811432 0.013269 -0.004876 286397.000000 1 0 0
6.356902 -6.535423 -16.089515 18.493092 -0.799244 2.626056 0.012712 -0.001211 8526.490000 1 0 0
-1.728198 -5.091023 -19.838215 20.553831 1.243542 2.876940 0.031871 -0.012550 -246423.000000 1 0 0
0.015102 -4.360923 -15.209915 15.822749 -1.567333 2.862366 0.009853 -0.003678 -210958.000000 1 0 0
0.535402 0.737977 -12.918715 12.950848 0.943161 3.071135 0.014352 -0.010609 1076800.000000 1 0 0
15.805302 0.703977 -13.504015 20.800519 0.044511 2.277349 0.038061 -0.016786 412843.000000 1 0 0
-0.138198 6.898577 -16.335915 17.733347 -1.550766 2.741943 0.003408 0.004551 -245981.000000 1 0 0
-5.146898 -0.545023 -18.209915 18.931155 0.105500 2.864672 0.022892 -0.001585 -299413.000000 1 0 0
10.468202 -8.397223 -13.043115 18.714151 -0.676060 2.341953 0.017260 -0.004523 975191.000000 1 0 0
4.197102 8.524277 -17.088015 19.551962 1.113271 2.634128 0.015322 -0.014072 -203054.000000 1 0 0
9.327402 0.749177 -16.938615 19.351444 0.080148 2.636884 0.022977 -0.009492 -33670.900000 1 0 0
3.351402 4.706077 -18.492715 19.374199 0.951967 2.838782 0.016506 -0.007513 -569482.000000 1 0 0
1.484602 -8.188223 -15.814215 17.870099 -1.391435 2.657192 0.006138 -0.005178 -530109.000000 1 0 0
4.635202 7.530477 -14.868115 17.298961 1.019039 2.605048 0.011786 -0.008459 357154.000000 1 0 0
-5.727098 -0.473523 -15.220015 16.268766 0.082493 2.780570 0.015390 -0.002729 -723353.000000 1 0 0
2.775602 3.440277 -13.660915 14.358276 0.891925 2.828649 0.012105 -0.006743 -204335.000000 1 0 0
-2.235298 -10.232323 -18.021815 20.844251 1.355721 2.615138 0.026270 -0.008377 -144058.000000 1 0 0
6.159702 -9.099223 -15.512415 19.009808 -0.975710 2.525291 -0.000354 0.000718 -88269.000000 1 0 0
-1.814498 5.295477 -17.413415 18.291023 -1.240684 2.830566 0.008295 0.000363 625212.000000 1 0 0
10.106502 -12.287123 -11.868515 19.848839 -0.882469 2.211731 0.035907 0.007100 -263190.000000 1 0 0
11.005902 3.710677 -9.285215 14.869910 0.325185 2.245198 -0.001056 -0.003547 -1210470.000000 1 0 0
4.924202 -0.470323 -11.023915 12.082867 -0.095224 2.719807 0.006764 -0.007713 -514350.000000 1 0 0
6.272902 9.527777 -11.188715 15.978585 0.988552 2.346519 0.010274 -0.011832 252168.000000 1 0 0
10.914502 -9.529323 -9.517215 17.335274 -0.717746 2.151974 0.031122 0.002232 -2230330.000000 1 0 0
3.183402 -2.364723 -14.465015 14.998754 -0.638896 2.874016 0.010104 -0.004002 -3173.930000 1 0 0
9.126102 -4.388323 -14.550115 17.727069 -0.448214 2.533581 0.013507 -0.012491 102209.000000 1 0 0
-3.973698 -6.807123 -16.593615 18.370500 1.042407 2.698139 0.013844 0.001800 -59934.100000 1 0 0
5.950002 -7.738523 -11.244215 14.890253 -0.915321 2.426663 0.001868 0.001760 473283.000000 1 0 0
5.405302 6.316677 -17.027515 18.948720 0.862991 2.687388 0.017054 -0.009344 -1825200.000000 1 0 0
9.077702 1.347177 -19.412815 21.472703 0.147330 2.699994 0.039898 -0.016983 511521.000000 1 0 0
13.127202 5.810477 -9.345515 17.129616 0.416707 2.147873 -0.008585 -0.005106 686165.000000 1 0 0
-1.558298 -0.663723 -17.255915 17.338842 0.402656 3.043751 0.019049 -0.005236 1194740.000000 1 0 0
-0.403498 -0.602823 -19.544615 19.558072 0.980940 3.104495 0.032648 -0.014091 -401689.000000 1 0 0
2.822002 6.349277 -16.505115 17.907983 1.152559 2.743140 0.004740 -0.003558 -246430.000000 1 0 0
7.774502 3.913677 -15.561915 17.830675 0.466363 2.631626 0.018434 -0.007859 -1040930.000000 1 0 0
3.171102 -9.832823 -14.726415 17.989097 -1.258826 2.529818 0.009749 -0.003306 -388453.000000 1 0 0
9.052902 -10.501323 -13.375015 19.264575 -0.859335 2.338216 0.019908 0.003537 -85500.400000 1 0 0
3.818202 0.180377 -14.792615 15.278503 0.047206 2.888721 0.009091 -0.006182 -2543090.000000 1 0 0
-1.162498 -2.850923 -18.759615 19.010585 1.183616 2.978923 0.032845 -0.006462 61855.500000 1 0 0
9.357902 10.028977 -13.062815 18.941696 0.819999 2.331778 0.027217 -0.018305 276246.000000 1 0 0
4.620102 2.081577 -10.551215 11.704975 0.423309 2.693858 0.006856 -0.003637 -625326.000000 1 0 0
-0.402798 6.874877 -19.019915 20.228281 -1.512273 2.794200 0.003748 0.001251 288978.000000 1 0 0
0.844202 -1.859823 -17.556315 17.674723 -1.144691 3.025776 0.027973 -0.011335 -2501510.000000 1 0 0
-4.421098 -2.271023 -14.079715 14.931244 0.474530 2.802239 0.018162 -0.005101 -2278020.000000 1 0 0
10.083402 6.065977 -10.335115 15.661599 0.541581 2.291484 0.001603 -0.000982 -115916.000000 1 0 0
8.392302 5.698777 -17.307015 20.060897 0.596525 2.611428 0.041072 -0.017570 -618870.000000 1 0 0
11.556602 0.350077 -13.644315 17.884209 0.030283 2.438622 0.008485 0.003716 603585.000000 1 0 0
6.794902 12.035977 -11.795915 18.170830 1.056852 2.277286 0.020379 -0.014739 -181811.000000 1 0 0
-0.938598 0.635977 -15.061915 15.104527 -0.595521 3.066460 0.013574 -0.004953 -1081010.000000 1 0 0
-4.287498 -2.764523 -19.170815 19.837978 0.572702 2.881513 0.022532 0.003367 153056.000000 1 0 0
5.782502 -12.186623 -13.900915 19.369733 -1.127759 2.371235 0.006613 0.003297 -448233.000000 1 0 0
2.161102 -4.754823 -13.992515 14.935501 -1.144200 2.784345 0.005037 -0.001821 241825.000000 1 0 0
11.879802 2.199277 -15.448715 19.611969 0.183055 2.477893 0.029376 -0.008002 192220.000000 1 0 0
9.773302 2.225477 -13.725815 16.996123 0.223892 2.510842 0.010461 -0.007560 932162.000000 1 0 0
-2.195798 -4.128823 -16.434215 17.086607 1.082017 2.864367 0.009728 -0.001500 -1711880.000000 1 0 0
-2.946398 9.966877 -14.230515 17.621790 -1.283364 2.510786 0.008726 -0.004142 -271788.000000 1 0 0
3.455402 5.768777 -13.492315 15.075184 1.031125 2.679231 0.009457 -0.007770 -491214.000000 1 0 0
-5.087798 -2.636523 -16.593315 17.554915 0.478105 2.809074 0.020216 0.000987 143637.000000 1 0 0
-4.320798 6.046377 -13.554915 15.458451 -0.950333 2.640090 0.006549 -0.003103 -406804.000000 1 0 0
5.875202 -1.070823 -14.043615 15.260661 -0.180283 2.739514 0.008773 -0.005991 -1585050.000000 1 0 0
6.784202 -2.945523 -12.709715 14.705045 -0.409615 2.614573 0.004969 -0.006485 1186020.000000 1 0 0
3.094902 -3.027323 -18.259215 18.765448 -0.774360 2.908788 0.027368 -0.016217 -203529.000000 1 0 0
7.492602 -12.036923 -12.045715 18.604458 -1.014020 2.275048 0.014820 0.005827 -1970320.000000 1 0 0
-5.883598 -5.306623 -17.655015 19.351396 0.733883 2.719755 0.035248 -0.002297 115686.000000 1 0 0
0.622802 8.600377 -11.901615 14.697034 1.498507 2.514602 0.013500 -0.001950 191594.000000 1 0 0
0.378202 8.514277 -14.464215 16.788373 1.526406 2.609134 0.001516 0.001656 -104438.000000 1 0 0
7.702202 -2.325023 -15.061915 17.076034 -0.293167 2.650992 0.009321 -0.011733 -140393.000000 1 0 0
14.240102 1.688477 -8.964515 16.911357 0.118021 2.129501 -0.004767 0.005126 379766.000000 1 0 0
2.762602 10.677277 -14.612715 18.307585 1.317612 2.495061 0.007172 0.001530 -599920.000000 1 0 0
6.155602 1.087377 -15.465815 16.681285 0.174845 2.757492 0.012785 -0.006868 89691.400000 1 0 0
16.796002 -5.493823 -10.315015 20.461850 -0.316122 2.099147 0.073008 -0.007785 670806.000000 1 0 0
4.962802 -4.304823 -11.282015 13.055450 -0.714520 2.614278 0.004943 -0.000792 -1426420.000000 1 0 0
8.755802 -3.519723 -16.988615 19.433619 -0.382219 2.634555 0.008137 -0.017191 296781.000000 1 0 0
13.421902 -9.644623 -8.761515 18.706425 -0.623083 2.058241 0.040973 -0.000595 -460645.000000 1 0 0
2.302302 -7.746623 -13.470715 15.708944 -1.281910 2.601223 0.004955 -0.000741 -123181.000000 1 0 0
-6.820498 -2.538123 -18.464515 19.846904 0.356254 2.766155 0.024408 0.001601 -11961.000000 1 0 0
-1.461898 -6.450023 -15.721615 17.056058 1.347912 2.743395 0.009630 -0.003855 -202545.000000 1 0 0
1.698702 -7.325523 -18.215115 19.706326 -1.342935 2.750068 0.024370 -0.010238 -246941.000000 1 0 0
5.346702 10.588677 -14.361215 18.626642 1.103200 2.451212 0.023145 -0.026938 -63705.300000 1 0 0
5.489502 -3.319723 -17.240415 18.395301 -0.543898 2.785363 0.021258 -0.014079 -503438.000000 1 0 0
4.177502 12.896577 -14.155815 19.600008 1.257539 2.377825 0.010864 -0.009987 140249.000000 1 0 0
9.531402 10.208777 -15.695615 21.009976 0.819699 2.414418 0.047421 -0.024230 332638.000000 1 0 0
2.503202 3.870777 -16.162715 16.807210 0.996750 2.863766 0.012846 -0.007615 216988.000000 1 0 0
16.634102 1.823577 -11.381715 20.237644 0.109193 2.168086 0.030922 -0.008110 180838.000000 1 0 0
10.050802 -3.665023 -10.449815 14.954921 -0.349666 2.344451 0.016064 -0.000956 -462023.000000 1 0 0
14.515702 -2.191323 -11.932215 18.917856 -0.149831 2.253301 0.038949 -0.007298 216166.000000 1 0 0
-2.508798 -8.755023 -15.870515 18.298026 1.291719 2.620619 0.011867 -0.001925 -231807.000000 1 0 0
13.985202 8.158477 -8.902215 18.476906 0.528098 2.073507 0.022621 -0.006781 -417126.000000 1 0 0
-8.303898 -0.193423 -16.516615 18.487583 0.023289 2.675630 0.013144 -0.005925 -1042310.000000 1 0 0
-3.526598 3.915677 -15.920815 16.770265 -0.837630 2.821950 0.008904 -0.000734 -1944050.000000 1 0 0
15.128902 4.089577 -9.642015 18.400456 0.264006 2.122348 0.001699 -0.001731 471710.000000 1 0 0
5.418402 1.136477 -12.979715 14.111119 0.206747 2.738423 0.006215 -0.005123 331007.000000 1 0 0
7.925502 -7.657723 -12.814215 16.901432 -0.768216 2.431303 0.010260 0.000427 -3402200.000000 1 0 0
3.275302 -6.149423 -11.883015 13.774943 -1.081395 2.611291 0.004289 -0.000091 -915623.000000 1 0 0
-3.197798 3.576777 -18.645415 19.252812 -0.841281 2.889737 0.007702 0.002615 -212044.000000 1 0 0
0.822302 5.047977 -17.761315 18.483035 1.409317 2.861220 0.013349 -0.009015 -56792.800000 1 0 0
6.440002 7.094777 -10.144715 13.954380 0.833738 2.384727 0.000520 -0.002334 -127364.000000 1 0 0
9.802302 3.722977 -11.544715 15.595709 0.362978 2.404238 0.005082 -0.002467 419658.000000 1 0 0
4.583802 1.769277 -17.487615 18.164754 0.368366 2.867689 0.015873 -0.005568 -505345.000000 1 0 0
2.639602 8.119477 -13.267415 15.777126 1.256478 2.569791 0.006734 -0.004729 -1435740.000000 1 0 0
14.482602 -3.468723 -9.666515 17.754417 -0.235081 2.146538 0.032552 -0.002771 675960.000000 1 0 0
-1.417198 9.158677 -16.258315 18.714236 -1.417276 2.623504 0.003342 0.004509 -2311750.000000 1 0 0
-5.302098 1.997577 -15.784815 16.770896 -0.360306 2.796970 0.013476 -0.001639 274065.000000 1 0 0
4.571602 4.239177 -11.901515 13.435633 0.747687 2.659049 0.007554 -0.005128 250718.000000 1 0 0
9.248102 3.307777 -17.683115 20.227737 0.343492 2.634585 0.026579 -0.007881 828027.000000 1 0 0
-4.500998 14.165277 -13.362615 19.986834 -1.263137 2.303082 0.018644 -0.010209 -72965.700000 1 0 0
15.632402 -4.874023 -7.990115 18.220045 -0.302238 2.024764 0.040994 -0.003985 -218660.000000 1 0 0
1.105602 9.278277 -16.843215 19.261430 1.452195 2.635103 -0.001152 0.011014 -682555.000000 1 0 0
0.433102 -3.226323 -12.774315 13.182559 -1.437354 2.892074 0.008117 -0.002658 268158.000000 1 0 0
7.572702 3.550277 -13.041115 15.492610 0.438399 2.571338 0.007496 -0.003307 484524.000000 1 0 0
-2.908198 7.443777 -15.139315 17.119179 -1.198343 2.655892 0.006195 0.001945 20266.600000 1 0 0
12.192702 -5.170723 -10.971915 17.198293 -0.401094 2.262650 0.027191 -0.002873 -535060.000000 1 0 0
0.804602 -4.340123 -19.940315 20.423032 -1.387491 2.923741 0.042832 -0.013997 401369.000000 1 0 0
3.432802 -4.505323 -16.152315 17.116640 -0.919695 2.804323 0.013295 -0.009699 435804.000000 1 0 0
-5.743898 4.101977 -14.421315 16.055931 -0.620156 2.686437 0.007966 -0.001151 564583.000000 1 0 0
12.367002 -7.435623 -9.692415 17.383157 -0.541336 2.162258 0.020831 -0.000728 365951.000000 1 0 0
-2.051898 -1.763923 -14.991515 15.233753 0.710072 2.963022 0.015088 -0.001473 378083.000000 1 0 0
7.121502 5.877677 -14.184215 16.924977 0.690004 2.564521 0.015803 -0.007724 -606350.000000 1 0 0
4.348902 -5.337923 -18.422815 19.667397 -0.887145 2.783933 0.026208 -0.015664 234942.000000 1 0 0
7.579902 7.590077 -12.314815 16.331530 0.786069 2.425005 0.005937 -0.007315 -571671.000000 1 0 0
12.260102 -2.508923 -10.738515 16.490012 -0.201854 2.279978 0.013078 -0.007963 -857382.000000 1 0 0
7.514902 -0.733223 -10.665815 13.067937 -0.097261 2.525568 0.002314 -0.002516 -2688800.000000 1 0 0
5.339802 4.097477 -14.400015 15.895384 0.654511 2.704354 0.005478 -0.006007 1348210.000000 1 0 0
14.828002 2.982877 -12.880415 19.866361 0.198516 2.276216 0.010756 -0.014684 -94825.200000 1 0 0
-6.300898 6.641677 -15.946215 18.387359 -0.811722 2.620424 0.005498 0.008864 395706.000000 1 0 0
-11.447298 3.666377 -16.562715 20.464762 -0.309960 2.513804 0.066209 -0.014743 -76696.200000 1 0 0
-4.872598 6.426177 -18.061315 19.780017 -0.922041 2.721642 0.008052 0.014966 -421715.000000 1 0 0
-10.039798 1.563177 -15.790215 18.776900 -0.154458 2.569811 0.037142 -0.009709 160562.000000 1 0 0
-7.531198 5.869277 -18.096615 20.461057 -0.662009 2.656093 0.016209 0.005249 474536.000000 1 0 0
-8.936898 3.945077 -15.754215 18.537181 -0.415710 2.586537 0.017449 0.008632 -389410.000000 1 0 0
9.016002 13.413377 -11.949615 20.099758 0.978997 2.207459 0.044060 -0.027936 -1913680.000000 1 0 0
13.681902 9.217377 -11.217015 19.949334 0.592850 2.167931 0.015256 -0.014886 336253.000000 1 0 0
8.435202 16.159777 -9.073015 20.361990 1.089714 2.032625 0.038537 -0.011248 366776.000000 1 0 0
7.414102 13.475277 -13.985315 20.788002 1.067799 2.308728 0.031533 -0.016479 -148410.000000 1 0 0
4.725702 15.911677 -12.602915 20.840998 1.282098 2.220207 0.035880 -0.024046 -33136.300000 1 0 0
11.177802 10.993877 -11.427815 19.401122 0.777103 2.200653 0.039079 -0.017888 666700.000000 1 0 0
15.649902 10.010477 -9.617115 20.919321 0.569066 2.048481 0.054124 -0.006764 -415137.000000 1 0 0
13.160802 10.671777 -9.070315 19.218849 0.681338 2.062296 0.049767 -0.014258 676821.000000 1 0 0
10.091802 12.072377 -8.537415 17.901794 0.874521 2.067924 0.014105 0.000236 -68963.500000 1 0 0
5.498102 16.238177 -10.180315 19.938564 1.244321 2.106660 0.022894 -0.015997 -55369.700000 1 0 0
6.754802 14.554577 -11.708815 19.863520 1.136278 2.201191 0.025156 -0.006407 -213768.000000 1 0 0
10.832902 14.031077 -9.922415 20.314458 0.913323 2.081099 0.053406 -0.008088 -361267.000000 1 0 0
8.227002 -18.709823 -1.215115 20.474802 -1.156528 1.630178 0.049223 -0.000201 -219096.000000 1 0 0
7.300202 -17.289523 -3.252715 19.047328 -1.171272 1.742408 0.033154 -0.008740 -196371.000000 1 0 0
4.582302 -18.376023 5.700385 19.778020 -1.326417 1.278431 0.035989 -0.004508 252194.000000 1 0 0
9.824702 -17.196123 -2.524315 19.965059 -1.051723 1.697572 0.051191 -0.001344 -1071780.000000 1 0 0
-9.574798 -12.351823 -9.943015 18.523170 0.911378 2.137422 0.026967 -0.008394 -515477.000000 1 0 0
-5.006498 -6.957823 -12.087215 14.818134 0.947070 2.524742 0.007927 -0.002218 519711.000000 1 0 0
-10.819398 -9.482823 -5.700615 15.475152 0.719659 1.948054 0.011771 -0.003734 -1801430.000000 1 0 0
-4.543498 -11.517423 -14.031415 18.712964 1.195050 2.418591 0.028847 -0.005350 -14387.000000 1 0 0
-3.191298 -15.421723 7.429785 17.413088 1.366741 1.129980 0.011195 -0.010384 258839.000000 1 0 0
-4.747998 -12.048723 -11.596015 17.383405 1.195415 2.301070 0.023214 -0.004988 -168955.000000 1 0 0
-14.258698 -12.708223 -4.239415 19.564817 0.727966 1.789215 0.050993 -0.020065 -757834.000000 1 0 0
-3.207898 -12.264823 -3.254915 13.088581 1.314974 1.822117 0.011359 -0.005814 949152.000000 1 0 0
-2.522298 -17.285823 -1.380515 17.523341 1.425902 1.649660 0.002413 -0.012339 -823198.000000 1 0 0
-5.814798 -12.122923 3.603685 13.919902 1.123558 1.308926 0.003025 -0.002208 425124.000000 1 0 0
-8.801598 -10.886323 -12.084515 18.493666 0.890894 2.282917 0.018651 0.003694 -1445220.000000 1 0 0
-9.967898 -11.860923 -7.454415 17.193278 0.871903 2.019242 0.032267 -0.013473 -167149.000000 1 0 0
-10.949898 -15.151423 6.236785 19.706937 0.944999 1.248783 0.041976 -0.014534 -533778.000000 1 0 0
-9.468398 -15.822423 0.608185 18.449106 1.031542 1.537825 0.023603 -0.003242 -481295.000000 1 0 0
-14.793598 -7.711923 -8.187215 18.583724 0.480543 2.027017 0.023121 -0.014194 -163926.000000 1 0 0
-2.282398 -16.575523 5.152585 17.507325 1.433960 1.272063 0.014923 -0.010433 74670.000000 1 0 0
4.553702 -15.828423 6.201785 17.599355 -1.290670 1.210676 0.024894 -0.006169 -650670.000000 1 0 0
4.414602 -14.728623 -10.051915 18.370140 -1.279588 2.149797 0.012465 0.003253 74138.000000 1 0 0
-7.584898 -14.100723 -0.452315 16.017667 1.077284 1.599039 0.012389 -0.000388 815662.000000 1 0 0
3.076502 -14.908023 9.617685 18.005940 -1.367288 1.007307 0.018305 -0.011273 -385184.000000 1 0 0
2.274202 -17.331523 10.325685 20.302055 -1.440324 1.037235 0.031023 -0.009255 -476039.000000 1 0 0
-8.160698 -17.008923 -5.995915 19.795238 1.123448 1.878527 0.043739 -0.016613 -275213.000000 1 0 0
-6.451498 -9.226723 -7.729715 13.656601 0.960595 2.172449 0.011306 -0.008210 226954.000000 1 0 0
-6.005298 -13.198123 -4.925715 15.313939 1.143783 1.898267 0.008624 -0.007565 112840.000000 1 0 0
2.318702 -19.279223 -4.963915 20.042586 -1.451102 1.821069 0.010097 -0.015368 136515.000000 1 0 0
-5.453798 -12.954423 8.244585 16.295219 1.172319 1.040312 0.008207 -0.006244 1271700.000000 1 0 0
2.226902 -17.477223 3.406085 17.944744 -1.444062 1.379828 0.016701 -0.017426 584665.000000 1 0 0
-17.572898 -9.739823 -2.986815 20.312360 0.506102 1.718376 0.057851 -0.027977 643292.000000 1 0 0
-3.623598 -15.338323 2.614185 15.975875 1.338805 1.406424 0.007423 -0.009253 -3008.970000 1 0 0
-10.044098 -10.339723 -14.290015 20.297742 0.799900 2.351839 0.033730 -0.010597 -275246.000000 1 0 0
6.233302 -14.712523 -5.632015 16.942018 -1.170050 1.909674 0.005728 -0.003966 368523.000000 1 0 0
-7.209698 -12.410323 -10.901315 18.023167 1.044507 2.220374 0.021636 -0.007071 -2061900.000000 1 0 0
-7.059398 -14.364923 3.955485 16.487328 1.114026 1.328523 0.001629 -0.001300 662757.000000 1 0 0
3.288102 -14.931623 -3.110615 15.602593 -1.354045 1.771506 0.004120 -0.007042 -454826.000000 1 0 0
-7.592298 -11.376923 7.715885 15.703893 0.982326 1.057174 0.008867 -0.008946 -2061980.000000 1 0 0
-12.834798 -12.341623 -1.050915 17.836819 0.765812 1.629749 0.031921 -0.005013 -406501.000000 1 0 0
-1.883598 -13.669223 3.943585 14.350870 1.433860 1.292417 0.008274 -0.004903 -4000660.000000 1 0 0
-3.032998 -14.039123 5.139585 15.254881 1.358027 1.227159 0.000898 -0.006064 -849572.000000 1 0 0
-14.354198 -10.121223 -4.643415 18.167098 0.614144 1.829259 0.022692 -0.016047 248832.000000 1 0 0
-6.248498 -8.678723 -10.515315 14.997860 0.946787 2.347765 0.012892 -0.005716 130759.000000 1 0 0
0.805602 -19.482923 2.392085 19.645746 -1.529471 1.448732 0.029533 -0.020232 88376.700000 1 0 0
6.715902 -14.275923 -8.190515 17.776103 -1.131079 2.049648 0.016094 0.002165 -2054670.000000 1 0 0
-3.891898 -16.721423 -6.052515 18.204005 1.342118 1.909731 0.010500 -0.010821 -216562.000000 1 0 0
-3.526098 -13.738923 -13.198215 19.374836 1.319568 2.320202 0.041873 -0.005360 -913963.000000 1 0 0
-8.150598 -14.728523 -4.427715 17.405927 1.065355 1.828003 0.019940 -0.011324 -684863.000000 1 0 0
-4.633098 -14.388023 10.212485 18.242139 1.259270 0.976617 0.022034 -0.009525 -1911940.000000 1 0 0
-0.260898 -12.243823 -9.871815 15.729972 1.549491 2.249237 0.013376 -0.004627 361565.000000 1 0 0
2.433702 -17.225223 6.858385 18.699429 -1.430438 1.195262 0.018283 -0.015219 -28075.000000 1 0 0
-2.763298 -19.137923 -3.291515 19.614535 1.427399 1.739404 0.016261 -0.013502 -1269610.000000 1 0 0
0.695102 -15.419723 -3.071315 15.737979 -1.525748 1.767210 0.004127 -0.007022 -1323870.000000 1 0 0
5.849402 -18.068523 0.527485 18.999086 -1.257710 1.543029 0.022507 -0.004697 -304666.000000 1 0 0
-7.124698 -16.783723 3.816085 18.628397 1.169349 1.364483 0.005253 -0.000720 479058.000000 1 0 0
-5.225198 -13.541523 -9.597915 17.401021 1.202534 2.155044 0.019099 -0.008045 -476225.000000 1 0 0
5.761102 -15.211323 -2.049415 16.394351 -1.208753 1.696132 0.013513 -0.003070 -612105.000000 1 0 0
-8.921398 -10.471523 -0.705915 13.774703 0.865161 1.622066 0.006383 -0.001293 478823.000000 1 0 0
-7.402798 -18.228323 -3.048915 19.909020 1.185029 1.724544 0.025959 -0.018586 46680.200000 1 0 0
7.989402 -16.063923 -1.046515 17.971515 -1.109270 1.629061 0.021620 -0.001530 166015.000000 1 0 0
-8.092398 -10.174323 -9.684615 16.210969 0.898882 2.211065 0.014587 -0.005882 -1108260.000000 1 0 0
-9.126998 -14.930123 -6.791015 18.770417 1.022099 1.940987 0.038523 -0.020530 -384134.000000 1 0 0
-11.424698 -10.612723 -12.092315 19.732656 0.748570 2.230405 0.032266 0.004110 -492079.000000 1 0 0
6.574402 -16.235323 2.438885 17.684927 -1.186035 1.432448 0.029166 -0.006820 685878.000000 1 0 0
-2.155798 -11.276723 -6.063415 12.983719 1.381903 2.056693 0.013590 -0.006184 -393716.000000 1 0 0
-12.481098 -15.263623 -3.340815 19.997926 0.885354 1.738641 0.046779 -0.019849 -3003.290000 1 0 0
-0.261998 -19.446823 -2.687715 19.633425 1.557325 1.708122 0.019683 -0.021986 -672417.000000 1 0 0
-5.770498 -15.660423 -4.787015 17.362690 1.217757 1.850121 0.011263 -0.010648 -3174880.000000 1 0 0
1.915602 -15.847723 -1.009315 15.994954 -1.450504 1.633940 0.011285 -0.010803 -61941.200000 1 0 0
-13.283298 -12.011023 5.207085 18.650051 0.735142 1.287836 0.037780 -0.008588 508063.000000 1 0 0
2.263502 -15.263023 -8.862815 17.794179 -1.423570 2.092172 0.012185 0.000934 -1210110.000000 1 0 0
-11.902398 -16.613523 0.059785 20.437216 0.949130 1.567871 0.063577 -0.027661 415804.000000 1 0 0
-7.601398 -16.615023 -1.029415 18.300271 1.141722 1.627077 0.022991 -0.008000 436895.000000 1 0 0
-2.959298 -14.508223 -1.756515 14.910779 1.369583 1.688872 0.005770 -0.005406 631691.000000 1 0 0
-1.747298 -10.572623 -13.247615 17.039152 1.407010 2.461447 0.015369 -0.001490 325885.000000 1 0 0
1.401402 -19.469023 4.911285 20.127779 -1.498939 1.324302 0.030600 -0.023880 -5180.090000 1 0 0
-17.478298 -9.366223 2.184585 19.949673 0.491936 1.461072 0.048906 -0.015480 -24850.500000 1 0 0
-2.585198 -15.693323 -8.147715 17.870336 1.407530 2.044219 0.008805 -0.005782 -152864.000000 1 0 0
-10.616798 -12.115523 0.206685 16.110401 0.851232 1.557967 0.013217 0.001027 -57107.300000 1 0 0
-6.903898 -11.532923 -6.631715 14.988388 1.031388 2.029133 0.010441 -0.006056 141763.000000 1 0 0
-2.153998 -13.678923 -6.759315 15.409120 1.414610 2.024900 0.006935 -0.005220 857896.000000 1 0 0
-14.377398 -14.536423 -1.052215 20.472526 0.790898 1.622215 0.058400 -0.011119 -266785.000000 1 0 0
-9.560198 -11.299823 -4.280615 15.408019 0.868601 1.852318 0.013412 -0.008087 362518.000000 1 0 0
9.575902 -15.223623 -5.012415 18.670321 -1.009314 1.842600 0.035948 -0.001613 279206.000000 1 0 0
-5.610298 -10.944323 -9.495815 15.537830 1.097102 2.228298 0.016557 -0.006891 -461507.000000 1 0 0
-10.337598 -15.973423 -4.782215 19.618506 0.996410 1.817038 0.050757 -0.015859 -1852130.000000 1 0 0
2.172302 -17.332223 -3.227215 17.763439 -1.446113 1.753488 0.008419 -0.009648 223135.000000 1 0 0
-0.074798 -14.667723 -8.084415 16.748297 1.565697 2.074532 0.014126 -0.001509 72090.300000 1 0 0
-0.617598 -18.309423 -7.041615 19.626532 1.537078 1.937757 0.010720 -0.010077 77071.100000 1 0 0
-1.676098 -10.041923 -10.546115 14.658447 1.405411 2.373816 0.011302 -0.005260 402769.000000 1 0 0
-5.078198 -17.374623 2.030585 18.215073 1.286440 1.459086 0.008806 -0.007831 630557.000000 1 0 0
0.328402 -12.770523 -2.663215 13.049399 -1.545086 1.776328 0.007131 -0.004846 -2012960.000000 1 0 0
2.585702 -14.868323 3.044285 15.395472 -1.398612 1.371746 0.015954 -0.008484 -1629060.000000 1 0 0
-9.429898 -13.086323 6.775685 17.495277 0.946384 1.173110 0.014938 -0.006140 -518053.000000 1 0 0
-0.911498 -17.785323 -4.529215 18.375591 1.519591 1.819843 0.007247 -0.012888 -72857.000000 1 0 0
-9.784798 -17.699723 -2.075715 20.330545 1.065789 1.673073 0.048237 -0.020393 -736085.000000 1 0 0
1.316602 -16.249123 1.450185 16.366749 -1.489947 1.482074 0.013778 -0.014943 -307806.000000 1 0 0
-0.340298 -17.923023 4.069485 18.382363 1.551812 1.347567 0.024294 -0.022218 -486049.000000 1 0 0
-17.295598 -9.414323 -0.444415 19.696819 0.498471 1.593361 0.025823 -0.015303 1146140.000000 1 0 0
-14.635598 -7.320523 -10.718315 19.562031 0.463796 2.150665 0.038781 -0.017165 241536.000000 1 0 0
3.037902 -12.723523 -8.926315 15.836540 -1.336422 2.169598 0.001709 0.001998 609197.000000 1 0 0
-11.542898 -14.667323 1.741585 18.745719 0.904045 1.477756 0.032763 -0.008979 -100737.000000 1 0 0
-2.376598 -15.663823 10.262585 18.876552 1.420219 0.995995 0.024795 -0.013476 398028.000000 1 0 0
-7.064798 -15.904223 1.318585 17.452631 1.152769 1.495172 0.011440 -0.003082 -1551000.000000 1 0 0
-12.439498 -15.113423 -5.867415 20.434853 0.882142 1.862023 0.051363 -0.012174 -107678.000000 1 0 0
1.004202 -13.838523 -5.001915 14.748976 -1.498358 1.916795 0.007454 -0.003954 135013.000000 1 0 0
6.045002 -16.555323 -7.412815 19.119900 -1.220698 1.968933 0.028272 -0.010606 -24518.800000 1 0 0
-6.580298 -12.854623 5.858585 15.584116 1.097673 1.185393 0.008177 -0.006390 82361.500000 1 0 0
-2.603198 -13.536623 0.609485 13.798126 1.380808 1.526610 0.009882 -0.006008 3434150.000000 1 0 0
-4.358798 -15.513423 0.189885 16.115256 1.296889 1.559013 0.006407 -0.006019 75270.800000 1 0 0
-17.535198 -7.409323 -2.085015 19.150157 0.399785 1.679890 0.022437 -0.011860 328750.000000 1 0 0
1.249102 -12.763123 -11.881915 17.482490 -1.473239 2.318077 0.011243 -0.000316 -510596.000000 1 0 0
1.308502 -17.037223 -5.817815 18.050654 -1.494144 1.898960 0.013361 -0.010127 -924713.000000 1 0 0
-12.740098 -6.361423 -9.206515 16.956937 0.463106 2.144725 0.017371 -0.006416 -323820.000000 1 0 0
-11.669098 -13.374623 -8.814015 19.817549 0.853395 2.031700 0.050267 -0.017032 553004.000000 1 0 0
-4.289798 -9.832123 3.416485 11.258125 1.159390 1.262466 0.010630 -0.000449 -3509920.000000 1 0 0
-7.170998 -14.174723 9.640985 18.582103 1.102440 1.025313 0.024573 -0.017613 -1184220.000000 1 0 0
-5.191498 -15.940623 -8.280015 18.697962 1.255952 2.029549 0.018518 -0.008034 -358781.000000 1 0 0
-0.282898 -13.375223 2.156685 13.550937 1.549649 1.410963 0.011079 -0.008136 612915.000000 1 0 0
-10.981698 -13.440923 -4.679915 17.976588 0.885754 1.834164 0.039804 -0.010651 -753900.000000 1 0 0
-9.779098 -10.517523 6.622885 15.814919 0.821764 1.138701 0.022514 -0.004332 -974263.000000 1 0 0
-15.315198 -7.929323 -5.165615 18.003140 0.477740 1.861815 0.029482 -0.013551 -186645.000000 1 0 0
-14.672298 -7.394423 5.340985 17.276572 0.466820 1.256501 0.031808 -0.004577 640456.000000 1 0 0
-1.757998 -19.241623 0.183585 19.322637 1.479685 1.561295 0.022488 -0.014873 -217304.000000 1 0 0
-15.334298 -12.241223 -1.432015 19.673304 0.673698 1.643651 0.044949 -0.008230 -253167.000000 1 0 0
-4.350798 -12.223223 -6.908815 14.699264 1.228835 2.060100 0.011687 -0.008595 413627.000000 1 0 0
-7.442498 -18.435023 1.934485 19.974561 1.187091 1.473797 0.019628 -0.005916 -172871.000000 1 0 0
-2.478298 -11.827423 -8.681715 14.879586 1.364246 2.193785 0.013099 -0.005797 226551.000000 1 0 0
-1.153898 -20.379623 -4.935615 21.000495 1.514237 1.808039 0.014967 -0.004002 -47971.700000 1 0 0
-5.226298 -8.917623 -13.783015 17.228166 1.040687 2.498138 0.014275 -0.005191 -329614.000000 1 0 0
-8.148198 -19.192523 -0.693715 20.862102 1.169306 1.604055 0.024256 -0.006147 122575.000000 1 0 0
-17.171298 -7.280323 5.660885 19.491080 0.401008 1.276115 0.055084 -0.015723 -352570.000000 1 0 0
-3.537298 -14.671623 -4.312115 15.695966 1.334213 1.849103 0.008027 -0.008450 -2851760.000000 1 0 0
-3.094298 -14.844623 -10.860515 18.651764 1.365293 2.192324 0.023826 -0.009075 -487627.000000 1 0 0
-0.016298 -16.682123 6.287885 17.827815 1.569819 1.210340 0.028198 -0.019340 -1226870.000000 1 0 0
-11.201998 -11.583323 3.746085 16.543618 0.802132 1.342378 0.021594 -0.002523 2194270.000000 1 0 0
-0.243998 -14.642823 -0.105615 14.645236 1.554135 1.578008 0.003568 -0.008151 889911.000000 1 0 0
-7.235498 -9.541523 -2.485615 12.229938 0.921994 1.775462 0.013229 -0.001604 -67961.200000 1 0 0
-11.252898 -14.370923 -0.851915 18.272299 0.906487 1.617437 0.034038 -0.014343 15876.900000 1 0 0
0.297502 -14.728023 -10.602515 18.149835 -1.550599 2.194648 0.014742 -0.000730 -407341.000000 1 0 0
-1.339598 -14.013423 -3.891415 14.605261 1.475492 1.840493 0.006377 -0.005475 -2434930.000000 1 0 0
-11.162398 -8.048023 -7.726115 15.781719 0.624677 2.082383 0.012407 -0.003262 520650.000000 1 0 0
-0.220098 -17.222423 -0.258915 17.225775 1.558017 1.585828 0.010598 -0.016858 1023110.000000 1 0 0
-12.906098 -9.495723 4.543685 16.654765 0.634322 1.294478 0.024154 -0.003611 178432.000000 1 0 0
3.936902 -16.727823 1.558485 17.255380 -1.339652 1.480354 0.019041 -0.014725 1807890.000000 1 0 0
-3.660998 -18.027823 -8.322115 20.190664 1.370446 1.995638 0.029513 -0.014301 188194.000000 1 0 0
-13.514098 -11.253523 2.692385 17.791053 0.694379 1.418879 0.022170 -0.005543 727583.000000 1 0 0
-8.578098 -12.273123 3.997685 15.498219 0.960786 1.309902 0.013540 -0.001113 1558220.000000 1 0 0
-8.277498 -9.447723 -5.873215 13.866186 0.851323 2.008172 0.010517 -0.008363 471458.000000 1 0 0
3.888502 -17.286923 -5.092015 18.436018 -1.349540 1.850634 0.005374 -0.010729 -939810.000000 1 0 0
-2.567498 -13.209823 11.270985 17.553534 1.378827 0.873572 0.010493 -0.007263 556229.000000 1 0 0
0.341702 -16.897823 -9.503715 19.390043 -1.550577 2.083040 0.023620 -0.000675 -44528.500000 1 0 0
-6.994098 -10.723723 -14.573915 19.398831 0.992870 2.420793 0.029710 -0.000202 -992908.000000 1 0 0
-4.567098 -18.892023 -1.702815 19.510676 1.333600 1.658184 0.022301 -0.014595 -521470.000000 1 0 0
-2.529198 -17.119723 1.240485 17.349944 1.424121 1.499237 0.013605 -0.015764 -239177.000000 1 0 0
4.244902 -14.621223 -7.460415 16.954561 -1.288239 2.026422 0.007484 -0.003630 -819659.000000 1 0 0
-0.993698 -15.894723 -6.072015 17.044032 1.508360 1.935053 0.006589 -0.006238 -469543.000000 1 0 0
-9.451898 -15.273123 8.290685 19.782369 1.016626 1.138348 0.023486 -0.008594 -534164.000000 1 0 0
-7.131798 -12.083123 -1.890315 14.157602 1.037593 1.704716 0.010090 -0.002668 958053.000000 1 0 0
-7.336998 -15.044023 -9.392415 19.193010 1.117036 2.082159 0.034198 -0.011828 -123245.000000 1 0 0
-5.045898 -13.229823 -0.538215 14.169650 1.206424 1.608789 0.010307 -0.003931 1369760.000000 1 0 0
-6.363098 -13.853623 -7.347715 16.923380 1.140228 2.019919 0.013146 -0.007938 441531.000000 1 0 0
5.765602 -15.421823 0.245185 16.466174 -1.213026 1.555906 0.014500 -0.001310 342955.000000 1 0 0
-14.482798 -12.866223 0.959285 19.396169 0.726358 1.521319 0.023485 -0.003729 717260.000000 1 0 0
1.016302 -15.368323 11.173985 19.028299 -1.504763 0.943164 0.017035 -0.006337 -346796.000000 1 0 0
-9.360598 -10.866023 1.872385 14.463647 0.859689 1.440977 0.012834 0.000393 102888.000000 1 0 0
-9.437898 -8.924723 -3.579115 13.473480 0.757459 1.839666 0.008593 -0.003710 121935.000000 1 0 0
-12.224998 -7.339623 -12.278515 18.817082 0.540698 2.281701 0.032548 -0.009348 174709.000000 1 0 0
-13.191498 -8.472323 -0.797215 15.698135 0.570912 1.621602 0.007653 -0.005562 -1672840.000000 1 0 0
-11.269798 -9.660723 0.424585 14.849855 0.708672 1.542201 0.004056 0.001154 576656.000000 1 0 0
-15.989898 -12.115223 2.882085 20.267261 0.648398 1.428109 0.053770 -0.012652 -463437.000000 1 0 0
-10.513998 -12.560623 -2.312415 16.542692 0.873863 1.711040 0.027190 -0.010022 249443.000000 1 0 0
-3.373098 -8.956223 -12.043715 15.383199 1.210606 2.470132 0.008648 -0.003741 -1146360.000000 1 0 0
-0.218798 -15.499123 3.878085 15.978430 1.556680 1.325641 0.018910 -0.013640 -965754.000000 1 0 0
-15.617498 -7.846823 1.048885 17.509399 0.465596 1.510856 0.014077 -0.007859 539486.000000 1 0 0
-6.148198 -13.445023 -13.304915 19.889438 1.141901 2.303583 0.034055 -0.005450 -314253.000000 1 0 0
-15.411898 -10.411223 0.887785 18.620106 0.594115 1.523099 0.034703 -0.008646 -2992.690000 1 0 0
-9.908398 -8.536923 -12.518815 18.104589 0.711181 2.334321 0.020129 -0.003420 306826.000000 1 0 0
-12.996098 -11.562123 -6.262215 18.487742 0.727074 1.916355 0.028887 -0.013955 -264129.000000 1 0 0
-12.166198 -11.250223 -3.856315 17.013379 0.746301 1.799447 0.022114 -0.010949 -1597960.000000 1 0 0
-11.582598 -10.810723 -9.167615 18.305012 0.750943 2.095348 0.028980 -0.016577 370724.000000 1 0 0
-13.033998 -8.385923 -6.030115 16.630427 0.571713 1.941848 0.009147 -0.010831 -2304960.000000 1 0 0
-13.426998 -8.000523 -3.390215 15.993318 0.537365 1.784394 0.013923 -0.010650 -214247.000000 1 0 0
-4.301098 -17.139723 -3.416515 17.998392 1.324930 1.761779 0.009467 -0.010820 -22788.200000 1 0 0
-15.330598 -8.823823 -2.070515 17.809383 0.522262 1.687320 0.035215 -0.011321 -1876440.000000 1 0 0
-9.381898 -15.643523 3.554485 18.584246 1.030575 1.378347 0.014239 -0.006504 -376936.000000 1 0 0
4.718102 -17.444123 8.177385 19.835008 -1.306647 1.145852 0.037859 -0.013034 143548.000000 1 0 0
-8.366198 -15.471423 6.000185 18.583875 1.075081 1.242035 0.006481 -0.001541 -60918.700000 1 0 0
0.895502 -16.027223 8.598185 18.209958 -1.514981 1.079046 0.014627 -0.012143 -71650.000000 1 0 0
-10.819598 -7.805123 -10.201115 16.794237 0.624936 2.223602 0.018235 -0.006633 835623.000000 1 0 0
-4.800198 -16.046823 5.461385 17.617297 1.280131 1.255602 0.004600 -0.014027 -623271.000000 1 0 0
-1.329298 -13.282923 -11.962515 17.924978 1.471053 2.301462 0.017397 -0.006021 -1192690.000000 1 0 0
-6.157898 -14.371623 -2.622615 15.853749 1.165985 1.736986 0.012611 -0.007714 18980.300000 1 0 0
-17.551698 -6.948723 -7.301815 20.240142 0.376967 1.939878 0.048301 -0.021642 113343.000000 1 0 0
-17.158498 -4.020023 -10.308715 20.416764 0.230137 2.100079 0.047700 -0.018965 564585.000000 1 0 0
-15.234198 -5.329123 -9.166815 18.561003 0.336508 2.087337 0.026541 -0.013019 420271.000000 1 0 0
-15.994898 -5.330723 -5.871815 17.853055 0.321699 1.905932 0.027483 -0.012897 52042.300000 1 0 0
-15.263198 -4.319923 -12.414315 20.143043 0.275815 2.234842 0.047674 -0.015021 -298480.000000 1 0 0
-18.618698 -5.246823 -5.632815 20.147300 0.274681 1.854155 0.039994 -0.015951 320140.000000 1 0 0
-17.343098 -4.394723 -7.785515 19.511814 0.248175 1.981239 0.035234 -0.018204 1017880.000000 1 0 0
12.203602 -7.705623 8.771985 16.889412 -0.563204 1.024674 0.020086 -0.012758 154431.000000 1 0 0
16.203302 -3.263123 1.914985 16.639174 -0.198728 1.455452 0.029886 -0.009391 544410.000000 1 0 0
11.691302 -2.155423 12.615885 17.334732 -0.182314 0.755716 0.009591 -0.001354 420945.000000 1 0 0
9.775602 -10.013823 5.230885 14.939919 -0.797435 1.213089 0.007216 -0.005860 177564.000000 1 0 0
16.650302 -1.710923 7.389485 18.296565 -0.102397 1.155050 0.041254 -0.020303 -147799.000000 1 0 0
5.351302 -12.975823 9.119685 16.738490 -1.179641 0.994606 0.012950 -0.001957 -210396.000000 1 0 0
15.200802 -8.840223 -2.004815 17.698395 -0.526753 1.684317 0.031099 -0.008882 160539.000000 1 0 0
11.173902 -8.525423 6.485485 15.479032 -0.651754 1.138469 0.018404 -0.012176 -1784320.000000 1 0 0
19.984202 -3.233523 4.118085 20.658718 -0.160414 1.370113 0.058363 -0.015327 -776501.000000 1 0 0
13.608402 -8.493523 6.884685 17.456443 -0.557979 1.165390 0.022371 -0.011242 -1970410.000000 1 0 0
8.390202 -11.053223 8.848885 16.458189 -0.921514 1.003139 0.008672 -0.005668 -1031910.000000 1 0 0
17.060702 -0.026223 -0.650015 17.073100 -0.001537 1.608878 0.024153 0.001391 -459394.000000 1 0 0
12.438102 -12.372123 2.556085 17.728772 -0.782739 1.426115 0.026581 -0.006331 -1943500.000000 1 0 0
10.326302 -11.690923 3.633985 16.016118 -0.847299 1.341907 0.016545 -0.003057 -1342800.000000 1 0 0
16.277702 3.061877 2.393085 16.735158 0.185930 1.427307 0.016506 0.001573 750390.000000 1 0 0
18.612402 -3.226323 1.012985 18.917103 -0.171637 1.517222 0.049423 -0.011490 1136390.000000 1 0 0
13.579002 -11.670123 -0.039815 17.904822 -0.709940 1.573020 0.036937 -0.005506 -459333.000000 1 0 0
17.132602 -7.490423 -0.772115 18.714397 -0.412161 1.612066 0.048415 -0.004494 370566.000000 1 0 0
10.172502 -5.653123 9.763285 15.190764 -0.507229 0.872763 0.011688 -0.007151 776992.000000 1 0 0
11.479502 -13.135223 5.961685 18.435149 -0.852562 1.241490 0.035522 -0.010729 -617183.000000 1 0 0
12.850202 -1.541223 10.329785 16.559212 -0.119367 0.897190 0.017956 -0.007006 -431578.000000 1 0 0
15.676202 -2.044623 -1.262715 15.859326 -0.129696 1.650500 0.019798 -0.000584 -235717.000000 1 0 0
10.528802 -12.363323 8.989785 18.561348 -0.865365 1.065201 0.031476 -0.016797 -217261.000000 1 0 0
14.502202 1.247877 3.392185 14.945835 0.085836 1.341836 0.017329 -0.002537 752561.000000 1 0 0
15.015602 -5.780523 5.425985 16.980108 -0.367481 1.245542 0.032146 -0.013090 -701021.000000 1 0 0
14.360702 -3.366123 -2.978915 15.047740 -0.230242 1.770077 0.014720 -0.001712 971920.000000 1 0 0
13.992402 0.626877 9.489885 16.918575 0.044771 0.975306 0.032150 -0.013284 -455355.000000 1 0 0
15.493402 -3.419923 4.564585 16.509900 -0.217250 1.290672 0.031481 -0.010213 -2431100.000000 1 0 0
18.250102 4.823977 -4.045415 19.305501 0.258416 1.781908 -0.008155 -0.008451 579148.000000 1 0 0
18.101502 -5.814423 -5.139615 19.694860 -0.310802 1.834815 0.050564 -0.010602 475337.000000 1 0 0
17.436102 0.008577 5.792185 18.373000 0.000492 1.250071 0.057215 -0.010587 696371.000000 1 0 0
17.046402 -6.654823 4.171985 18.768909 -0.372199 1.346642 0.036886 -0.014190 -419677.000000 1 0 0
9.752102 -6.616823 14.262785 18.501699 -0.596152 0.690558 0.016958 -0.003613 -210281.000000 1 0 0
8.610502 -12.296523 5.287885 15.915619 -0.959910 1.232114 0.014238 -0.003541 -989806.000000 1 0 0
17.001502 -10.172723 -0.673515 19.823950 -0.539200 1.604778 0.051430 -0.005107 -204982.000000 1 0 0
15.150002 -8.759523 0.431785 17.505377 -0.524226 1.546128 0.042342 -0.008627 205869.000000 1 0 0
10.106102 -12.921923 1.462985 16.469660 -0.907072 1.481850 0.026948 -0.003719 98693.700000 1 0 0
16.958302 -8.375523 8.909085 20.907060 -0.458747 1.130588 0.064395 -0.018263 532515.000000 1 0 0
19.292802 0.027277 -2.052615 19.401705 0.001414 1.676790 0.051503 -0.000714 -103012.000000 1 0 0
13.251902 -1.183023 7.775485 15.410081 -0.089036 1.041911 0.014651 -0.011451 -273667.000000 1 0 0
12.946102 -9.724523 -2.920915 16.452952 -0.644240 1.749274 0.028117 -0.007168 -726344.000000 1 0 0
8.854702 -15.188323 1.490285 17.644031 -1.042975 1.486232 0.033443 -0.001987 51093.600000 1 0 0
11.401302 -8.202923 11.125385 17.917919 -0.623676 0.900895 0.020644 -0.010756 608521.000000 1 0 0
14.103802 -4.087623 -0.488315 14.692322 -0.282095 1.604039 0.013543 -0.005949 -373081.000000 1 0 0
7.307302 -13.281323 10.817285 18.622670 -1.067804 0.951004 0.017050 0.002364 174556.000000 1 0 0
15.506302 -6.666723 2.006185 16.997511 -0.406044 1.452492 0.025149 -0.006365 1378700.000000 1 0 0
15.995202 -5.796323 -2.315915 17.169953 -0.347660 1.706091 0.042291 -0.007237 -113506.000000 1 0 0
11.275802 -8.463423 3.917685 14.632891 -0.643874 1.299759 0.019575 -0.009265 401760.000000 1 0 0
10.703102 -14.535523 -0.469815 18.057091 -0.936094 1.596818 0.042694 -0.006511 831425.000000 1 0 0
13.723302 -12.830923 4.755385 19.379765 -0.751805 1.322886 0.035319 -0.004194 258094.000000 1 0 0
12.899702 -11.021723 6.516285 18.175331 -0.707053 1.204110 0.026633 -0.010706 708889.000000 1 0 0
10.999002 -10.441923 1.525785 15.242697 -0.759422 1.470529 0.015149 -0.004501 87488.000000 1 0 0
13.890302 -7.474823 11.823485 19.713149 -0.493686 0.927574 0.030597 -0.021565 -904323.000000 1 0 0
15.265202 -1.769623 -4.885315 16.125268 -0.115410 1.878594 0.021094 -0.000840 -481182.000000 1 0 0
12.992002 -11.526523 -6.927315 18.698677 -0.725699 1.950312 0.037065 0.000186 -89358.100000 1 0 0
17.728802 -5.236323 2.221485 18.618928 -0.287192 1.451198 0.044035 -0.012382 563555.000000 1 0 0
10.625602 -9.760723 9.118985 17.068421 -0.742999 1.007164 0.012354 -0.010806 -910965.000000 1 0 0
16.333602 1.840877 10.012585 19.246486 0.112231 1.023677 0.052350 -0.009758 -535662.000000 1 0 0
18.048302 3.522577 0.625685 18.399490 0.192752 1.536784 0.006619 -0.000591 333906.000000 1 0 0
13.295902 -3.940423 5.826285 15.041726 -0.288117 1.173050 0.023451 -0.018185 -510391.000000 1 0 0
12.150902 -6.124823 6.631685 15.137276 -0.466893 1.117309 0.017883 -0.014026 -168679.000000 1 0 0
16.649602 -10.040823 3.597785 19.772997 -0.542671 1.387823 0.029075 -0.008420 -585926.000000 1 0 0
16.436902 -8.203423 -5.544415 19.188758 -0.462916 1.863917 0.053200 -0.007031 720738.000000 1 0 0
13.891802 -0.332623 5.465485 14.931990 -0.023939 1.196062 0.020451 -0.007364 234090.000000 1 0 0
18.151602 -4.242823 5.492285 19.433152 -0.229621 1.284267 0.044689 -0.009276 -82936.800000 1 0 0
13.630702 -13.444223 7.314385 20.494960 -0.778511 1.205863 0.047214 -0.007492 -61521.500000 1 0 0
15.059402 -13.659223 -0.776015 20.346060 -0.736682 1.608946 0.039477 -0.003339 680164.000000 1 0 0
17.871702 -6.026423 8.377685 20.637371 -0.325231 1.152781 0.064974 -0.009164 -96415.100000 1 0 0
14.283502 3.255277 9.134585 17.264295 0.224077 1.013254 0.027706 -0.010825 -307306.000000 1 0 0
18.751002 3.788577 3.063985 19.373729 0.199363 1.411978 0.039384 -0.004405 -274665.000000 1 0 0
14.780402 -10.568023 8.334285 19.990090 -0.620724 1.140741 0.029520 -0.014504 -600853.000000 1 0 0
14.778102 -4.724523 10.389185 18.672133 -0.309429 0.980749 0.039907 -0.019316 255910.000000 1 0 0
17.980402 -7.802323 2.046485 19.706831 -0.409414 1.466762 0.064332 -0.008828 160500.000000 1 0 0
18.646902 -5.599023 -1.789115 19.551392 -0.291700 1.662433 0.058889 -0.011714 650819.000000 1 0 0
14.560902 -12.801123 -5.260715 20.088896 -0.721172 1.835758 0.049906 -0.008818 -1545890.000000 1 0 0
15.198202 -1.644823 9.495485 17.995972 -0.107805 1.014970 0.053695 -0.015645 -1773830.000000 1 0 0
12.935002 -9.952823 10.161485 19.225731 -0.655833 1.013922 0.011875 -0.021310 -1577480.000000 1 0 0
16.613102 2.163777 4.831885 17.436290 0.129516 1.290004 0.036164 -0.006514 -636563.000000 1 0 0
15.033102 2.445977 -0.049115 15.230869 0.161293 1.574021 0.006632 0.003592 -1397560.000000 1 0 0
15.137902 -9.956423 -6.920215 19.395252 -0.581780 1.935636 0.045229 -0.003005 1351110.000000 1 0 0
16.272702 -0.081523 -3.148315 16.574660 -0.005010 1.761905 0.022674 0.002052 -163440.000000 1 0 0
12.178202 2.544977 13.499585 18.358221 0.206013 0.744624 0.035405 -0.005451 -76176.000000 1 0 0
17.559502 -2.776123 9.635985 20.221156 -0.156800 1.074093 0.057762 -0.021182 585586.000000 1 0 0
7.751802 -18.065223 4.545285 20.176777 -1.165457 1.343573 0.056861 -0.021222 -279461.000000 1 0 0
6.844802 -11.252223 6.662485 14.759828 -1.024291 1.102470 0.009160 -0.006605 71569.100000 1 0 0
18.025902 2.253377 -1.671015 18.242893 0.124363 1.662523 0.023331 0.002398 311000.000000 1 0 0
17.550702 -2.236223 3.916085 18.120804 -0.126732 1.352968 0.033235 -0.010043 -172674.000000 1 0 0
12.739002 -13.323423 -1.873515 18.528514 -0.807818 1.672085 0.042697 -0.006891 -420264.000000 1 0 0
15.057802 -8.238223 4.436485 17.728173 -0.500619 1.317857 0.026266 -0.006981 -599422.000000 1 0 0
11.549702 -3.035723 15.008585 19.179907 -0.257026 0.672100 0.021097 -0.003865 248430.000000 1 0 0
12.261902 -13.783823 -6.038315 19.411575 -0.843764 1.887113 0.045857 -0.013928 -151145.000000 1 0 0
10.763102 -11.981023 -1.125715 16.144860 -0.838896 1.640579 0.030926 -0.008262 -877999.000000 1 0 0
13.257402 -8.094423 2.175585 15.684755 -0.548147 1.431641 0.017358 -0.002522 -543974.000000 1 0 0
8.792202 -7.833723 9.998485 15.447968 -0.727812 0.866843 0.007710 -0.005003 -1627720.000000 1 0 0
15.713502 -3.852023 8.120185 18.102199 -0.240400 1.105627 0.049521 -0.018692 277784.000000 1 0 0
10.022902 -17.292223 5.515085 20.733926 -1.045498 1.301562 0.060070 -0.014933 -656400.000000 1 0 0
15.239102 -6.417223 8.446285 18.567463 -0.398565 1.098540 0.039596 -0.007399 580955.000000 1 0 0
16.776002 -4.897523 -0.166315 17.477060 -0.284043 1.580313 0.034662 -0.005011 -393494.000000 1 0 0
14.085502 -10.519723 3.580785 17.941236 -0.641481 1.369863 0.029239 -0.007891 604720.000000 1 0 0
15.111002 -9.920223 -4.316615 18.584573 -0.580924 1.805206 0.050804 -0.010870 393635.000000 1 0 0
13.684702 -6.571723 0.038685 15.180912 -0.447702 1.568248 0.021437 -0.005410 538102.000000 1 0 0
17.750802 -0.801923 -4.855215 18.420292 -0.045146 1.837528 0.035349 -0.005994 -1650850.000000 1 0 0
14.511302 0.216877 -1.424415 14.582657 0.014944 1.668631 0.011867 0.001824 -1105270.000000 1 0 0
4.929002 -12.963723 11.750485 18.177653 -1.207461 0.867907 0.009225 0.000824 -375618.000000 1 0 0
12.021902 -7.425723 13.567285 19.589250 -0.553320 0.805725 0.019849 -0.011635 314368.000000 1 0 0
11.995802 -5.713823 11.663885 17.680306 -0.444524 0.850363 0.015678 -0.006106 397910.000000 1 0 0
13.212702 -4.613623 8.394285 16.319468 -0.335945 1.030521 0.023026 -0.012241 -47706.800000 1 0 0
15.337602 -1.120923 3.274485 15.723255 -0.072954 1.361003 0.029123 -0.004502 55468.000000 1 0 0
15.329302 -10.337623 5.858385 19.395221 -0.593317 1.263951 0.033956 -0.007561 663456.000000 1 0 0
13.820702 -8.048323 -5.714415 16.983576 -0.527332 1.913959 0.040797 -0.005853 -430185.000000 1 0 0
9.363402 -2.166023 13.788885 16.807685 -0.227330 0.608701 -0.001260 0.001958 718287.000000 1 0 0
9.951702 -9.129223 13.581085 19.152674 -0.742320 0.782581 0.027560 -0.006224 -292313.000000 1 0 0
20.321202 6.165677 -3.058215 21.455058 0.294583 1.713824 0.067410 -0.016227 -1108640.000000 1 0 0
11.118802 -3.538623 10.604385 15.767136 -0.308120 0.833130 0.012959 -0.004953 660440.000000 1 0 0
10.444302 -13.949123 -2.925715 17.669784 -0.928100 1.737140 0.034928 -0.004155 839115.000000 1 0 0
14.999702 -12.735623 2.536485 19.839882 -0.703947 1.442598 0.033581 0.000788 423184.000000 1 0 0
11.271402 -0.420423 14.586185 18.438493 -0.037283 0.658236 0.026108 -0.002043 154533.000000 1 0 0
18.989502 -1.995023 6.202985 20.076312 -0.104675 1.256686 0.069037 -0.012991 651915.000000 1 0 0
18.623302 -0.193623 8.115385 20.315618 -0.010396 1.159863 0.054616 -0.011905 -49934.600000 1 0 0
19.235002 0.900877 0.354185 19.259344 0.046801 1.552405 0.051209 -0.006266 -39923.500000 1 0 0
18.484602 0.709977 3.676485 18.860040 0.038390 1.374605 0.041144 -0.007306 47911.800000 1 0 0
16.712102 -3.820323 -4.114415 17.630021 -0.224735 1.806344 0.037408 -0.005316 -433133.000000 1 0 0
11.119502 -8.411523 15.803085 21.074499 -0.647626 0.722934 0.040577 -0.008098 567340.000000 1 0 0
16.641602 -7.496223 6.521185 19.382005 -0.423229 1.227646 0.043679 -0.010944 1044800.000000 1 0 0
19.010802 2.119677 5.949485 20.032473 0.111040 1.269255 0.060672 -0.008467 410802.000000 1 0 0
15.384702 1.549477 7.645785 17.249578 0.100377 1.111581 0.042374 -0.013238 184827.000000 1 0 0
8.692902 -15.626523 3.949585 18.312673 -1.063136 1.353413 0.035411 -0.012713 1139740.000000 1 0 0
11.453602 -15.139623 1.899785 19.078846 -0.923128 1.471056 0.039122 -0.005372 734332.000000 1 0 0
7.799702 -16.089623 6.209085 18.927864 -1.119410 1.236569 0.035969 -0.011415 -361225.000000 1 0 0
14.758802 -11.526923 -2.264015 18.863137 -0.663060 1.691110 0.037427 -0.011124 687643.000000 1 0 0
13.755002 -4.803623 3.282385 14.934822 -0.335986 1.349207 0.014684 -0.005731 -1987350.000000 1 0 0
-0.945298 10.112877 -5.439915 11.522003 -1.477592 2.062505 0.005784 0.002748 -1242790.000000 1 0 0
8.380202 -1.682023 -7.935015 11.662823 -0.198082 2.319061 0.002276 -0.001438 -1387950.000000 1 0 0
2.971502 -10.117023 7.640585 13.021617 -1.285117 0.943743 0.008142 -0.002845 790776.000000 1 0 0
-6.233598 1.157077 8.260585 10.413157 -0.183531 0.654613 -0.000103 -0.000975 -710086.000000 1 0 0
7.169902 -6.314323 -7.117815 11.913919 -0.722033 2.211097 0.003969 -0.001857 -94391.900000 1 0 0
-11.328998 -4.451523 -4.130315 12.853862 0.374398 1.897929 0.003201 -0.005388 100786.000000 1 0 0
2.096802 -3.437023 2.744685 4.872679 -1.023010 0.972446 0.002589 0.000974 662713.000000 1 0 0
-3.608698 -4.292823 8.867985 10.492482 0.871764 0.563904 0.002175 -0.000767 -2045130.000000 1 0 0
-4.751898 -1.033923 -2.504315 5.470021 0.214242 2.046344 0.003624 -0.003261 36089.500000 1 0 0
5.008102 -5.145223 -3.683615 8.069909 -0.798902 2.044812 0.006761 -0.004181 106862.000000 1 0 0
2.855602 14.392877 -8.894315 17.158619 1.374936 2.115727 0.015187 -0.004059 -679982.000000 1 0 0
5.409102 -5.528823 13.672185 15.708434 -0.796343 0.514839 0.010005 -0.002602 -642865.000000 1 0 0
-4.714098 -0.872223 9.760585 10.874397 0.182955 0.456559 0.004790 -0.001464 -3612350.000000 1 0 0
-1.009798 11.944277 -2.729415 12.293704 -1.486454 1.794679 0.001545 -0.002332 -485221.000000 1 0 0
3.143802 9.448577 -10.537115 14.497927 1.249591 2.384450 0.012735 -0.001196 -437053.000000 1 0 0
-10.663198 2.730677 1.104485 11.062562 -0.250697 1.470790 0.004583 -0.002893 115843.000000 1 0 0
5.721002 -8.947023 -0.724315 10.644422 -1.001887 1.638895 0.004849 -0.003243 797311.000000 1 0 0
-6.949198 5.264077 9.366885 12.796108 -0.648289 0.749528 0.001250 0.000614 37362.900000 1 0 0
-5.420398 -1.918723 5.096685 7.683646 0.340218 0.845555 0.003305 -0.002051 772069.000000 1 0 0
6.650002 -3.798723 -7.354315 10.617852 -0.519001 2.335935 0.004282 -0.003772 520420.000000 1 0 0
6.188102 4.819877 11.099785 13.591506 0.661738 0.615178 -0.000438 -0.001037 110693.000000 1 0 0
3.886002 -9.838823 3.647985 11.189783 -1.194637 1.238716 0.002007 -0.001625 989572.000000 1 0 0
-6.664598 6.524777 -5.775815 10.970398 -0.774798 2.125264 0.004188 -0.001268 -275785.000000 1 0 0
-11.037698 8.418277 5.266585 14.847056 -0.651570 1.208179 0.005170 -0.006103 71940.900000 1 0 0
-9.209798 -5.535923 5.095285 11.892382 0.541221 1.128020 0.007762 -0.000871 -711485.000000 1 0 0
3.297502 9.848277 -8.062015 13.147554 1.247699 2.230895 0.009502 -0.001355 585188.000000 1 0 0
-8.116098 -8.558623 6.035585 13.249504 0.811931 1.097826 0.008059 -0.001190 -1545600.000000 1 0 0
-7.741598 -5.678823 -7.576115 12.230245 0.632887 2.238848 0.007857 -0.005753 -323304.000000 1 0 0
9.181602 -1.564723 6.969985 11.633179 -0.168798 0.928361 0.000767 -0.005270 908110.000000 1 0 0
-4.068498 -0.426223 -4.952315 6.423377 0.104381 2.451180 0.009271 -0.008882 -489426.000000 1 0 0
9.113502 1.169577 -4.511615 10.236137 0.127637 2.027234 -0.000532 0.002188 -3209020.000000 1 0 0
-1.988598 -10.775723 10.642785 15.275457 1.388305 0.799975 0.002827 -0.004770 446644.000000 1 0 0
-13.034798 0.327977 -2.686915 13.312890 -0.025156 1.774020 0.007305 -0.004978 -750596.000000 1 0 0
-9.757098 -4.989523 -6.152215 12.567659 0.472705 2.082344 0.005480 -0.008079 -908379.000000 1 0 0
-5.566898 8.263277 -0.224715 9.966073 -0.977946 1.593346 0.001346 0.000131 449554.000000 1 0 0
6.234302 9.596577 0.415685 11.451358 0.994676 1.534488 0.009597 0.000115 669297.000000 1 0 0
-0.439398 -12.066023 0.001385 12.074021 1.534396 1.570682 0.007307 -0.002478 -360625.000000 1 0 0
6.247602 4.759277 2.407185 8.214486 0.650996 1.273390 0.006069 0.001528 228555.000000 1 0 0
3.495802 -7.530623 -8.281415 11.726583 -1.136187 2.354925 0.002491 -0.003967 828575.000000 1 0 0
-6.521998 -9.866123 4.624385 12.698889 0.986692 1.198069 0.009851 -0.000062 -2103140.000000 1 0 0
0.026202 6.539777 -9.286815 11.358447 1.566790 2.528050 0.014407 -0.005596 -42333.700000 1 0 0
-17.265298 -2.930623 3.894985 17.940178 0.168138 1.351944 0.033542 -0.007076 908818.000000 1 0 0
-8.400898 0.888377 -9.205315 12.494084 -0.105356 2.399083 0.011183 -0.005416 122912.000000 1 0 0
-9.994698 -5.932223 -11.878615 16.618868 0.535654 2.367087 0.012344 0.001286 -1206190.000000 1 0 0
2.088102 9.480877 6.342985 11.596579 1.354014 0.992055 -0.005287 0.005399 477877.000000 1 0 0
-11.409298 1.704377 -1.227115 11.600983 -0.148288 1.676771 0.006664 -0.004065 -827970.000000 1 0 0
-5.793398 -5.411823 -3.216915 8.555690 0.751358 1.956269 0.015524 -0.004700 683488.000000 1 0 0
-7.046898 -8.301623 1.276385 10.963798 0.866966 1.454114 0.013454 -0.000899 60145.500000 1 0 0
-0.071898 10.764477 -7.902615 13.354043 -1.564117 2.204058 0.012670 -0.000739 417202.000000 1 0 0
-2.865198 9.194877 -4.222615 10.515969 -1.268724 1.983998 0.007560 -0.002414 -170681.000000 1 0 0
3.343102 -4.790123 9.363985 11.036567 -0.961471 0.557745 -0.001554 0.001435 -565728.000000 1 0 0
-9.038498 1.602877 -0.488615 9.192519 -0.175514 1.623975 0.001668 -0.002570 -1936340.000000 1 0 0
2.525802 3.545877 -10.387715 11.263106 0.951849 2.744730 0.011329 -0.007006 -1471880.000000 1 0 0
-13.600898 0.470577 1.009885 13.646455 -0.034585 1.496725 0.009264 -0.003800 -769306.000000 1 0 0
9.590502 -12.696123 -5.093615 16.706711 -0.923856 1.880613 0.027779 -0.002316 -1447340.000000 1 0 0
-4.850098 9.452977 -8.191915 13.416024 -1.096743 2.227623 0.003900 -0.001349 -350840.000000 1 0 0
-2.357098 7.189977 8.378285 11.289258 -1.254006 0.734529 -0.002722 0.002059 65641.400000 1 0 0
-10.791198 -1.088223 -4.349115 11.685418 0.100504 1.952156 0.006478 -0.002758 -2264660.000000 1 0 0
2.783502 -7.262923 9.595185 12.351741 -1.204814 0.681183 -0.000235 0.002122 -1821190.000000 1 0 0
-16.254798 -6.579123 3.253885 17.835108 0.384594 1.387326 0.038279 -0.008142 -188735.000000 1 0 0
-10.877798 -0.004623 6.287985 12.564445 0.000425 1.046668 0.001538 -0.003131 -2250340.000000 1 0 0
-8.398098 9.800977 9.298485 15.907515 -0.862331 0.946491 0.002506 -0.004570 -362387.000000 1 0 0
0.248502 -6.087023 -3.860415 7.212240 -1.529994 2.135610 0.001031 -0.003843 1089990.000000 1 0 0
4.894002 1.622277 -2.981015 5.955627 0.320084 2.095016 0.008298 0.000053 -541829.000000 1 0 0
0.263702 5.334277 3.681285 6.486594 1.521401 0.967303 -0.001435 0.002843 -850371.000000 1 0 0
6.102802 -11.221723 -1.536215 12.865893 -1.072696 1.690484 0.002205 -0.001808 -1891510.000000 1 0 0
6.231902 -13.554823 5.368885 15.855433 -1.139860 1.225352 0.011298 -0.002770 126593.000000 1 0 0
8.236602 -8.276323 -5.871215 13.069441 -0.787804 2.036702 0.006437 -0.002078 708023.000000 1 0 0
-13.171098 -1.286523 -4.704715 14.045188 0.097369 1.912370 0.005504 -0.001284 -3848890.000000 1 0 0
-6.836798 -1.422823 -7.044515 9.919245 0.205184 2.360560 0.006859 -0.007041 -1001300.000000 1 0 0
-5.722398 12.936777 -4.525215 14.852058 -1.154334 1.880405 0.008015 0.000119 484141.000000 1 0 0
-4.341498 6.897577 -6.807515 10.619202 -1.009022 2.266671 0.008257 -0.001762 -948437.000000 1 0 0
-9.362098 -3.638723 -8.197015 12.964577 0.370697 2.255266 0.005728 -0.002321 603762.000000 1 0 0
-2.141298 -6.419223 9.233085 11.447333 1.248827 0.632468 -0.001588 0.000845 -378685.000000 1 0 0
7.393902 -5.985923 10.001385 13.803215 -0.680553 0.760387 0.002324 0.000522 603800.000000 1 0 0
9.562402 -4.949423 12.187585 16.262642 -0.477622 0.723607 0.007301 0.000437 -556870.000000 1 0 0
-6.562098 2.791877 -9.107515 11.567305 -0.402256 2.477295 0.007810 -0.006452 592986.000000 1 0 0
7.310202 5.526077 8.829985 12.725769 0.647292 0.803952 -0.002056 -0.002232 38417.200000 1 0 0
12.709802 3.460977 11.181785 17.278592 0.265862 0.866960 0.027222 -0.001813 -446854.000000 1 0 0
-7.421598 -7.247123 -3.912115 11.086278 0.773504 1.931443 0.012748 -0.006962 -755592.000000 1 0 0
2.420302 1.406577 -5.796315 6.436893 0.526450 2.691676 0.007224 -0.002951 -780359.000000 1 0 0
12.813302 6.960477 -7.031915 16.188786 0.497625 2.020135 -0.000869 -0.002722 -452047.000000 1 0 0
0.819002 -7.821423 1.020985 7.930185 -1.466464 1.441691 0.003195 -0.001085 840301.000000 1 0 0
-10.162598 -6.017523 -8.604115 14.612316 0.534609 2.200402 0.006547 -0.003634 -181104.000000 1 0 0
-6.723698 0.246077 3.043385 7.384501 -0.036582 1.146004 0.002269 -0.002452 -676752.000000 1 0 0
10.848402 -7.878723 1.363685 13.476711 -0.628131 1.469435 0.012747 -0.005710 195152.000000 1 0 0
6.206702 1.093877 10.589085 12.322679 0.174450 0.536864 -0.000814 -0.001333 -132416.000000 1 0 0
-12.928298 5.292677 1.884885 14.096316 -0.388572 1.436680 0.010116 -0.002376 496572.000000 1 0 0
2.102602 7.298977 3.622085 8.415195 1.290322 1.125836 -0.002682 0.002217 11844.500000 1 0 0
10.174402 -9.381223 -0.682715 13.856114 -0.744860 1.620088 0.012380 -0.004666 854445.000000 1 0 0
6.887702 -11.725923 -9.012915 16.314728 -1.039700 2.156085 0.002599 0.002812 -489159.000000 1 0 0
10.255202 3.553477 11.977185 16.163209 0.333558 0.736215 0.003997 -0.000517 -863013.000000 1 0 0
-11.078398 -3.080623 -1.966015 11.665606 0.271223 1.740135 0.004127 -0.000748 -998057.000000 1 0 0
12.167902 0.996877 6.849885 13.999018 0.081744 1.059496 0.013032 -0.006196 -25022.600000 1 0 0
-9.588698 9.081977 2.957485 13.534111 -0.758265 1.350498 0.002773 -0.002825 1999360.000000 1 0 0
-6.693598 7.658977 -8.811515 13.457600 -0.852559 2.284663 0.004010 -0.001992 -540686.000000 1 0 0
8.480902 5.516377 12.139385 15.802556 0.576689 0.694785 0.008025 -0.003239 -1708580.000000 1 0 0
1.276002 4.866077 -2.711615 5.714871 1.314346 2.065174 0.006745 -0.000040 1109270.000000 1 0 0
1.240302 0.528177 9.462085 9.557634 0.402587 0.141519 -0.001630 0.000121 707896.000000 1 0 0
2.579202 12.606677 -4.104015 13.506426 1.368991 1.879534 0.006419 -0.001618 576447.000000 1 0 0
1.987002 0.635677 13.019285 13.185372 0.309628 0.158889 -0.002024 -0.002975 248216.000000 1 0 0
-12.198398 -1.809423 0.757985 12.355139 0.147259 1.509408 0.003457 -0.002648 -85999.600000 1 0 0
3.240402 8.800277 -1.241915 9.459780 1.217987 1.702460 0.008660 0.000443 89367.900000 1 0 0
3.692102 -2.897523 -5.846815 7.497500 -0.665397 2.465199 0.005179 -0.002789 -969934.000000 1 0 0
-7.826998 -7.216523 9.220785 14.084139 0.744840 0.857020 0.009852 -0.004296 325526.000000 1 0 0
-7.139198 10.996077 -3.526215 13.576305 -0.994949 1.833542 0.006299 0.003241 15904.300000 1 0 0
0.357702 0.522777 2.473385 2.553209 0.970730 0.250714 -0.001073 0.002212 -2085210.000000 1 0 0
-7.084098 4.563777 -2.046315 8.671788 -0.572307 1.809017 0.003511 -0.003251 -744398.000000 1 0 0
-6.924698 -3.881823 -5.962015 9.928022 0.510927 2.214953 0.004754 -0.004634 -396548.000000 1 0 0
2.853202 -6.074423 13.406085 14.992081 -1.131675 0.464131 0.001003 -0.002284 -1001860.000000 1 0 0
-5.668198 -0.562223 -11.684315 12.998761 0.098866 2.688001 0.015788 -0.006995 -1100930.000000 1 0 0
11.878202 2.412377 -0.532615 12.132391 0.200368 1.614711 0.001673 0.004090 -1093290.000000 1 0 0
6.105502 -10.920323 10.728385 16.481166 -1.060997 0.861964 0.006564 -0.002045 499427.000000 1 0 0
-8.169498 6.306377 -10.361915 14.624650 -0.657397 2.358201 0.012576 -0.003912 711020.000000 1 0 0
2.681202 7.792277 10.999085 13.743664 1.239401 0.642997 -0.004175 -0.000988 872967.000000 1 0 0
-6.222798 -10.197023 -0.440815 11.953945 1.022869 1.607681 0.016179 -0.000686 588300.000000 1 0 0
11.206902 4.256677 6.134385 13.466426 0.362995 1.097827 0.004704 -0.001968 -493046.000000 1 0 0
-7.897598 10.621177 1.385285 13.307910 -0.931423 1.466513 -0.002194 -0.000285 323884.000000 1 0 0
4.334502 -2.658723 -3.541315 6.196582 -0.550204 2.179123 0.006282 -0.003442 -6039420.000000 1 0 0
6.327402 6.454777 6.308585 11.022631 0.795363 0.961452 -0.000263 0.000983 -4248590.000000 1 0 0
-0.462798 10.224577 -10.265515 14.496102 -1.525564 2.357681 0.013624 -0.002392 -109162.000000 1 0 0
13.818202 6.545777 -2.339415 15.468121 0.442393 1.722620 -0.002371 0.003448 959346.000000 1 0 0
1.512802 9.465077 -6.139115 11.382662 1.412307 2.140448 0.008182 -0.001422 1408970.000000 1 0 0
0.645102 7.322177 7.273985 10.341242 1.482921 0.790633 -0.004191 0.004024 -96859.500000 1 0 0
12.189502 6.364677 2.010085 13.897248 0.481206 1.425648 0.001554 0.003745 -957028.000000 1 0 0
-6.914198 6.804177 -3.146415 10.198181 -0.777378 1.884441 0.002629 -0.002120 202681.000000 1 0 0
1.023302 9.912877 11.049085 14.879333 1.467931 0.733883 -0.009099 0.001826 -1100620.000000 1 0 0
-3.758698 13.612977 -10.955715 17.873686 -1.301397 2.230588 0.012982 -0.001754 229075.000000 1 0 0
-10.052798 -5.559723 -2.390315 11.733835 0.505184 1.775944 0.004275 -0.001979 -974361.000000 1 0 0
-4.077298 3.814877 -12.573715 13.757760 -0.752160 2.723675 0.007341 -0.008508 40507.200000 1 0 0
-3.221698 8.624977 2.411285 9.517556 -1.213314 1.314653 -0.000996 0.004422 -2819090.000000 1 0 0
7.063102 8.907977 7.045585 13.374593 0.900402 1.015978 0.004394 0.001675 -898602.000000 1 0 0
-1.319098 -2.387123 -8.166615 8.609993 1.065967 2.819276 0.011557 -0.010254 -1393600.000000 1 0 0
0.800102 -1.397223 4.772185 5.036481 -1.050740 0.325398 0.001013 -0.000029 547081.000000 1 0 0
2.824402 -8.888723 -6.072015 11.129061 -1.263135 2.147901 0.000875 -0.003762 316125.000000 1 0 0
5.214802 3.917377 8.774185 10.932809 0.644271 0.639230 -0.001491 0.000477 371655.000000 1 0 0
6.135102 -7.338123 -2.844115 9.978803 -0.874452 1.859819 0.004873 -0.004809 755487.000000 1 0 0
1.793302 2.243177 -8.227715 8.714532 0.896393 2.805763 0.012968 -0.006774 91596.000000 1 0 0
-5.435098 10.918177 -0.625615 12.212218 -1.108908 1.622047 -0.000088 0.001064 445413.000000 1 0 0
-5.422498 3.280377 -3.433815 7.208013 -0.544056 2.067339 0.002893 -0.002020 -702162.000000 1 0 0
2.023502 13.703877 -6.470915 15.289328 1.424197 2.007805 0.003028 0.000765 787922.000000 1 0 0
-5.242698 -2.558923 2.588685 6.382418 0.454076 1.153165 0.000268 -0.000552 640647.000000 1 0 0
10.507002 -3.346923 -1.903915 11.190347 -0.308380 1.741767 0.009269 -0.002625 13495.100000 1 0 0
2.254302 -3.352523 6.961885 8.049169 -0.978822 0.525806 -0.000949 0.001704 -1329340.000000 1 0 0
-2.957998 9.855277 -11.671715 15.559729 -1.279208 2.419045 0.004149 0.001481 -2617330.000000 1 0 0
0.453002 -2.017323 9.268385 9.496197 -1.349905 0.219483 -0.002719 0.000149 -81268.600000 1 0 0
9.429002 2.503077 5.147285 11.030232 0.259481 1.085294 -0.000469 0.000470 -80076.200000 1 0 0
13.429602 2.165677 -4.966815 14.481492 0.159885 1.920880 0.006752 -0.000659 -1641350.000000 1 0 0
-6.504198 3.641777 7.558185 10.615710 -0.510421 0.778481 -0.001928 0.000869 -568303.000000 1 0 0
10.621002 0.094177 1.917985 10.793202 0.008867 1.392144 0.005026 0.000695 1180280.000000 1 0 0
15.346702 6.816577 -4.428015 17.366471 0.417997 1.828618 0.014837 -0.002462 -712815.000000 1 0 0
8.188902 -4.979723 -9.166015 13.261659 -0.546359 2.333898 0.007765 0.002068 730134.000000 1 0 0
4.428702 5.655177 -2.197515 7.511558 0.906431 1.867690 0.006709 -0.000152 445249.000000 1 0 0
-1.632898 -10.423623 1.395985 10.642699 1.415406 1.439249 0.009829 -0.003027 -1051520.000000 1 0 0
-2.936998 12.144077 -12.917815 17.971492 -1.333506 2.372864 0.005308 -0.004297 -176065.000000 1 0 0
8.482502 4.380377 -9.483115 13.456226 0.476683 2.352850 0.001817 -0.002668 -1946720.000000 1 0 0
4.199102 7.652277 -9.026315 12.556439 1.068922 2.372957 0.010043 -0.004995 -681232.000000 1 0 0
-1.769198 -5.093623 -2.579515 5.977370 1.236497 2.017003 0.008327 -0.004772 259689.000000 1 0 0
-3.199998 -9.113723 7.022685 11.942279 1.233125 0.942148 0.006877 -0.001788 -1463180.000000 1 0 0
1.025302 7.262377 -1.381915 7.463448 1.430543 1.757029 0.006572 -0.000926 709874.000000 1 0 0
0.539402 -0.493023 -2.303615 2.416748 -0.740506 2.834406 0.002840 -0.002321 -380530.000000 1 0 0
4.101702 -6.548323 7.467485 10.745595 -1.011209 0.802468 0.003348 0.000432 608873.000000 1 0 0
-13.976698 3.863777 5.955385 15.676207 -0.269708 1.181109 0.009226 -0.001824 -1073790.000000 1 0 0
4.190402 6.526077 12.539985 14.744503 0.999994 0.553889 0.002109 -0.007827 -2230370.000000 1 0 0
8.299002 10.191977 -7.125015 14.950441 0.887416 2.067552 0.008958 -0.005867 668066.000000 1 0 0
12.376202 5.257477 9.425385 16.421002 0.401706 0.959434 0.018639 -0.002010 990451.000000 1 0 0
7.586202 4.120877 0.335085 8.639697 0.497613 1.532002 0.004066 0.003631 -1425560.000000 1 0 0
-10.837598 -7.611023 -1.059415 13.285464 0.612254 1.650624 0.007584 -0.003589 -2349040.000000 1 0 0
10.502602 6.949477 0.141085 12.594435 0.584550 1.559594 0.001887 0.004167 -805739.000000 1 0 0
14.663902 3.526577 4.413385 15.714475 0.236012 1.286118 0.022097 -0.002521 151657.000000 1 0 0
2.100402 5.499077 8.190985 10.086812 1.205942 0.623142 -0.005706 0.002604 459439.000000 1 0 0
4.220002 0.164177 11.823785 12.555368 0.038885 0.343055 -0.001143 -0.000682 -3275460.000000 1 0 0
-1.250498 -1.731023 -0.683415 2.242151 0.945192 1.880528 0.000936 -0.003274 -796362.000000 1 0 0
3.136602 -5.244123 -9.523115 11.314982 -1.031762 2.571105 0.001848 -0.002895 266704.000000 1 0 0
-3.936198 -5.354623 -1.306815 6.772991 0.936898 1.764959 0.008070 -0.004237 -258444.000000 1 0 0
-1.188598 -8.738123 8.728985 12.408172 1.435602 0.790505 0.003563 -0.001656 -773365.000000 1 0 0
3.955602 8.584877 -6.030615 11.212280 1.139027 2.138691 0.007960 -0.000196 -370982.000000 1 0 0
-14.366498 -1.719723 -2.801415 14.737763 0.119137 1.762044 0.004189 -0.003502 -896869.000000 1 0 0
8.998102 -10.617923 -6.599715 15.403323 -0.867788 2.013585 0.007453 -0.000169 290825.000000 1 0 0
14.745002 6.140977 1.725885 16.065658 0.394631 1.463162 0.002563 0.005077 -1509370.000000 1 0 0
-5.796698 0.385177 -8.603215 10.381011 -0.066350 2.547658 0.010172 -0.010121 104270.000000 1 0 0
-8.034998 -4.580723 -13.120215 16.052547 0.518141 2.527557 0.014362 0.000803 681469.000000 1 0 0
0.883002 -10.700423 11.991285 16.095641 -1.488463 0.730258 -0.001403 -0.000885 -474394.000000 1 0 0
0.280702 11.699177 3.278385 12.153080 1.546808 1.297655 -0.000671 0.002140 -944568.000000 1 0 0
5.242202 -13.206923 -3.709215 14.685427 -1.192941 1.826140 0.004125 -0.002629 306386.000000 1 0 0
-7.470698 1.571377 -6.997815 10.356156 -0.207317 2.312731 0.006983 -0.004420 746280.000000 1 0 0
1.391202 2.768077 4.112085 5.148488 1.105081 0.645669 -0.001352 0.003518 -395653.000000 1 0 0
17.208402 5.540977 1.994685 18.188191 0.311509 1.460906 0.010347 -0.002717 -240943.000000 1 0 0
2.474402 -8.208623 -3.584115 9.292472 -1.278020 1.966764 -0.001829 -0.002020 665038.000000 1 0 0
-0.271498 -9.446023 -0.709515 9.476522 1.542062 1.645737 0.008248 -0.001839 -1047060.000000 1 0 0
0.765102 11.907977 -5.792615 13.264226 1.506633 2.022734 0.007404 0.000730 -1024780.000000 1 0 0
6.081002 -5.014023 7.815485 11.099586 -0.689526 0.789608 0.000648 0.001209 -568242.000000 1 0 0
-6.068898 -2.089823 -9.379915 11.365813 0.331632 2.541484 0.010671 -0.007229 39564.000000 1 0 0
2.201202 -1.257623 11.181985 11.465761 -0.519075 0.222947 -0.008638 -0.000092 330653.000000 1 0 0
17.992102 2.264277 -5.794615 19.037338 0.125190 1.880085 0.024944 -0.000831 -859560.000000 1 0 0
-8.886798 4.732077 7.767785 12.716376 -0.489296 0.913664 0.002417 -0.004191 -476450.000000 1 0 0
11.598102 -7.050123 -4.863015 14.417667 -0.546185 1.914839 0.017196 -0.004971 232823.000000 1 0 0
10.619302 0.591877 8.988585 13.925320 0.055678 0.869138 0.004633 -0.005627 -507715.000000 1 0 0
-8.403698 -7.361823 -1.606915 11.287194 0.719408 1.713648 0.011573 -0.003355 -953099.000000 1 0 0
10.360502 -10.437523 -3.131715 15.036274 -0.789101 1.780610 0.020416 -0.003456 1522250.000000 1 0 0
7.766202 -13.849123 -3.715215 16.306898 -1.059720 1.800646 0.016150 -0.003964 560425.000000 1 0 0
1.814702 -1.169823 -11.594015 11.793338 -0.572595 2.957478 0.011805 -0.008827 323854.000000 1 0 0
-11.762998 -2.563823 -6.405715 13.637247 0.214600 2.059772 0.006887 -0.003045 64033.100000 1 0 0
2.800802 -12.275823 -6.437315 14.141405 -1.346480 2.043405 0.003715 -0.000558 753373.000000 1 0 0
-5.459798 1.433477 1.107285 5.752420 -0.256756 1.377097 -0.003057 -0.001959 458198.000000 1 0 0
0.122002 6.805577 -3.958115 7.873845 1.552872 2.097506 0.011008 -0.003236 1259890.000000 1 0 0
5.507202 -11.759623 3.735085 13.511804 -1.132817 1.290718 0.002112 -0.004036 -2615610.000000 1 0 0
-4.477098 -9.203823 0.995485 10.283275 1.118056 1.473838 0.011811 -0.002258 -305827.000000 1 0 0
7.241202 -6.096823 -4.644715 10.544175 -0.699810 2.026953 0.009657 -0.004781 1256950.000000 1 0 0
-6.894298 -6.013123 2.211085 9.411583 0.717235 1.333647 0.012030 -0.000797 -487558.000000 1 0 0
-6.394098 -0.981523 7.032685 9.555445 0.152316 0.743673 0.001135 -0.002701 -1666050.000000 1 0 0
4.196402 -5.089623 3.174785 7.320745 -0.881293 1.122235 0.001034 -0.000542 12618.300000 1 0 0
-2.598598 10.525077 -8.741115 13.926129 -1.328741 2.249362 0.006589 0.000834 1115750.000000 1 0 0
-2.362098 -4.859723 2.727585 6.052779 1.118366 1.103322 0.003292 0.001914 -286331.000000 1 0 0
15.222702 5.146277 6.477185 17.325378 0.326004 1.187634 0.034402 -0.007867 812973.000000 1 0 0
6.825902 0.331977 0.127885 6.835166 0.048597 1.552085 0.008806 0.000110 3750460.000000 1 0 0
-9.755098 9.376277 0.305785 13.534032 -0.765600 1.548201 -0.002042 0.000421 -2082600.000000 1 0 0
7.283302 10.479477 -2.624915 13.029049 0.963430 1.773651 -0.000231 0.002973 -666453.000000 1 0 0
1.651202 -4.295723 -5.545715 7.206571 -1.203825 2.448911 0.003077 -0.005165 131824.000000 1 0 0
0.985502 -8.267123 -7.748815 11.373683 -1.452149 2.320324 0.002231 -0.001828 -1937350.000000 1 0 0
-10.506898 0.326477 -10.488815 14.849806 -0.031063 2.355092 0.011380 -0.003347 -4191200.000000 1 0 0
5.968802 -2.469223 0.473685 6.476730 -0.392251 1.497595 0.007509 -0.000425 -328132.000000 1 0 0
-3.325198 5.295977 -1.151515 6.358483 -1.010134 1.752900 0.002156 -0.003077 812768.000000 1 0 0
-0.454198 4.521977 -5.172615 6.885530 -1.470690 2.420720 0.009659 -0.003726 -445128.000000 1 0 0
3.985602 -9.811123 10.062185 14.607899 -1.184928 0.810939 0.004331 -0.002319 -989196.000000 1 0 0
7.352402 -13.468623 -0.711115 15.361227 -1.071113 1.617106 0.013740 -0.002565 437968.000000 1 0 0
13.038702 -0.006923 0.574585 13.051358 -0.000531 1.526757 0.007940 -0.005022 780145.000000 1 0 0
9.322402 2.382677 -0.731315 9.649826 0.250229 1.646654 0.004751 0.003719 -873365.000000 1 0 0
-0.768298 -5.851223 4.434085 7.381612 1.440238 0.926428 0.000975 0.001048 1101710.000000 1 0 0
11.564402 -3.612323 3.420685 12.589096 -0.302763 1.295619 0.014905 -0.007519 -1666870.000000 1 0 0
1.832702 -8.284423 11.759985 14.501300 -1.353080 0.625004 -0.004698 -0.000188 -248799.000000 1 0 0
9.470902 -5.941823 -5.915915 12.649162 -0.560307 2.057474 0.005392 -0.003151 817968.000000 1 0 0
3.170802 6.385977 -0.305115 7.136370 1.109932 1.613564 0.003340 0.002634 -1971480.000000 1 0 0
6.255702 -1.349923 11.642485 13.285464 -0.212532 0.502601 -0.002948 0.002020 419562.000000 1 0 0
-4.752198 -7.607923 -3.962915 9.806558 1.012457 1.986801 0.016009 -0.005033 355173.000000 1 0 0
-3.447098 -8.649623 -5.878615 11.011657 1.191561 2.133948 0.012452 -0.004900 -545031.000000 1 0 0
9.645602 5.471677 2.135985 11.293331 0.516007 1.380513 0.003076 0.001187 128432.000000 1 0 0
8.871602 -1.418623 0.345685 8.990957 -0.158564 1.532339 0.006893 -0.000101 1477330.000000 1 0 0
-3.916798 9.605277 9.229685 13.884874 -1.183605 0.843665 -0.002966 0.000801 296268.000000 1 0 0
-14.285998 -3.447623 -6.043015 15.890056 0.236801 1.960919 0.009872 -0.006093 737769.000000 1 0 0
10.669602 6.342877 -5.888115 13.738355 0.536352 2.013727 -0.004641 -0.000373 -1630620.000000 1 0 0
-1.886998 4.441477 2.676885 5.518441 -1.169046 1.064342 -0.001419 0.000758 181298.000000 1 0 0
6.952602 -3.743023 2.664185 8.333473 -0.493865 1.245387 0.009433 -0.005018 -1172250.000000 1 0 0
8.449002 -11.149323 -1.523015 14.071695 -0.922319 1.679241 0.014274 -0.004554 -1538220.000000 1 0 0
4.566702 0.475677 1.794185 4.929516 0.103788 1.198272 0.006907 0.001353 -32128.900000 1 0 0
-10.786898 2.335177 3.774385 11.664313 -0.213193 1.241282 0.003312 -0.003656 132421.000000 1 0 0
-0.897198 -3.048023 4.407485 5.433353 1.284527 0.624611 0.001759 0.000839 525717.000000 1 0 0
8.734702 -8.699523 -8.390015 14.912044 -0.783380 2.168364 0.007173 0.003817 -337771.000000 1 0 0
12.148102 -4.756723 1.079485 13.090763 -0.373210 1.488241 0.014216 -0.005557 332163.000000 1 0 0
2.882302 4.762977 3.554385 6.605094 1.026601 1.002582 -0.000805 0.003222 99344.100000 1 0 0
6.180102 7.449177 2.047885 9.893317 0.878244 1.362292 0.003617 0.002042 -227205.000000 1 0 0
-1.712198 -1.344723 -10.247415 10.476136 0.665761 2.932249 0.013385 -0.008190 1439860.000000 1 0 0
-0.901098 -8.640923 6.119485 10.626647 1.466889 0.957138 0.004724 -0.003344 -213859.000000 1 0 0
-4.201998 -0.262423 2.286985 4.791237 0.062371 1.073187 -0.002853 -0.000650 600610.000000 1 0 0
-8.555198 6.290277 -7.886215 13.226919 -0.633999 2.209587 0.007149 -0.001754 -1555440.000000 1 0 0
6.599902 11.348077 -9.340715 16.111689 1.044025 2.189215 0.011586 -0.002386 48175.400000 1 0 0
-11.221198 -5.756123 3.072385 12.980285 0.473969 1.331832 0.007003 0.000284 1114500.000000 1 0 0
1.613802 -6.382323 3.026985 7.245760 -1.323132 1.139818 -0.000939 0.000052 594961.000000 1 0 0
9.986902 2.312577 7.360685 12.620059 0.227550 0.948069 0.003039 -0.001144 -2091670.000000 1 0 0
-4.130798 -2.582323 -10.698515 11.755429 0.558699 2.714301 0.012594 -0.009091 -2030580.000000 1 0 0
-8.279798 11.786677 5.956785 15.587306 -0.958414 1.178668 0.004007 0.001554 -987641.000000 1 0 0
6.933602 6.021277 -2.885015 9.625691 0.715091 1.875196 0.002830 0.002779 -1756800.000000 1 0 0
3.966302 -9.778323 -2.364115 10.813704 -1.185453 1.791199 0.000456 -0.003072 -1182620.000000 1 0 0
8.619602 -12.889823 -7.389815 17.177149 -0.981378 2.015524 0.017996 -0.000179 96157.700000 1 0 0
-1.080298 9.485177 3.621085 10.210185 -1.457392 1.208252 -0.000698 0.003525 -110398.000000 1 0 0
0.492002 -13.223523 4.700485 14.042727 -1.533607 1.229480 0.009824 -0.006821 -869523.000000 1 0 0
-11.084298 -6.940523 -5.180015 14.066452 0.559432 1.947926 0.008324 -0.006184 -48651.700000 1 0 0
3.608802 10.305477 -3.474815 11.458650 1.233959 1.878896 0.010269 -0.002592 -680798.000000 1 0 0
11.619602 -8.314823 -7.278915 16.035399 -0.621110 2.041965 0.025266 -0.001765 268018.000000 1 0 0
11.762602 -4.759923 -5.886815 13.988219 -0.384522 2.005168 0.014507 -0.004491 454352.000000 1 0 0
1.386002 -10.296123 -2.723615 10.740076 -1.436987 1.827190 0.000696 -0.000627 -1594500.000000 1 0 0
2.480502 -12.036423 -3.894615 12.891718 -1.367559 1.877693 0.002564 -0.000226 -1162330.000000 1 0 0
-7.729798 -5.812723 7.215385 12.066454 0.644773 0.929830 0.005470 0.000039 -2779990.000000 1 0 0
-7.191898 -0.874723 9.504185 11.950651 0.121032 0.651317 0.008223 -0.003852 379563.000000 1 0 0
16.157102 2.687477 -7.544715 18.033225 0.164825 2.002456 0.012418 -0.000079 344697.000000 1 0 0
-2.073398 6.258877 -5.515615 8.596193 -1.250901 2.267424 0.007304 -0.001132 459946.000000 1 0 0
7.669802 1.171177 8.423185 11.451967 0.151529 0.744358 -0.000406 -0.002228 -1443910.000000 1 0 0
7.929502 8.274177 -3.717615 12.048223 0.806666 1.884476 0.000142 0.003053 -299818.000000 1 0 0
7.940602 0.516077 4.061785 8.934069 0.064901 1.098828 -0.000365 0.000716 204282.000000 1 0 0
-6.963598 5.750577 5.304785 10.473852 -0.690279 1.039700 0.000573 -0.003894 -153153.000000 1 0 0
-6.057998 -2.159023 -4.529615 7.866266 0.342358 2.184413 0.007997 -0.005518 -998849.000000 1 0 0
-15.066398 -2.049723 3.049185 15.507909 0.135216 1.372886 0.009242 -0.004216 -2301720.000000 1 0 0
1.093102 1.265177 -10.534215 10.666079 0.858236 2.984186 0.015434 -0.011184 702911.000000 1 0 0
1.475002 -9.289223 9.357785 13.267759 -1.413325 0.787946 0.004058 -0.002906 -1200430.000000 1 0 0
-0.055898 -6.765523 -1.263615 6.882743 1.562534 1.755435 0.003856 -0.001708 654172.000000 1 0 0
-0.352298 -10.260223 -8.461815 13.304082 1.536473 2.260141 0.007909 -0.003890 -631049.000000 1 0 0
-4.380398 6.548077 3.632985 8.675470 -0.981208 1.138711 -0.002754 0.000568 -387215.000000 1 0 0
10.886402 -1.120323 -8.587215 13.910756 -0.102549 2.236112 0.007527 -0.000424 110814.000000 1 0 0
3.033902 -1.139223 6.206285 7.001454 -0.359207 0.481226 0.000774 0.001840 744993.000000 1 0 0
1.744802 -12.263823 6.850685 14.155478 -1.429473 1.065622 0.009208 -0.003271 -612760.000000 1 0 0
2.864402 -4.951423 -1.392315 5.887268 -1.046335 1.809554 0.008382 -0.003251 -2133510.000000 1 0 0
-1.009698 9.510777 -1.682415 9.711071 -1.465029 1.744922 0.006187 -0.001842 581106.000000 1 0 0
4.552902 -2.653723 2.550485 5.854582 -0.527724 1.120048 0.006046 0.000144 -1991510.000000 1 0 0
17.927202 6.888377 -2.534315 19.371553 0.366848 1.701999 0.019816 0.001755 497328.000000 1 0 0
-7.055598 3.450577 -5.431515 9.549309 -0.454854 2.175826 0.005474 -0.003259 -1173400.000000 1 0 0
-13.870798 -6.110423 2.347285 15.337733 0.414946 1.417153 0.003248 -0.004252 -305122.000000 1 0 0
6.752802 -6.129123 3.161585 9.652051 -0.737021 1.237081 0.007108 -0.006213 932869.000000 1 0 0
-4.650998 1.972377 3.538585 6.167952 -0.401088 0.959774 -0.002289 -0.001270 395057.000000 1 0 0
7.019502 -12.136623 -5.439715 15.038668 -1.046430 1.940903 0.011468 -0.001953 614897.000000 1 0 0
2.985102 -12.199523 3.221385 12.965975 -1.330821 1.319718 0.005736 -0.004328 -134434.000000 1 0 0
3.387702 11.340377 -6.168615 13.346628 1.280506 2.051254 0.005544 0.002825 209187.000000 1 0 0
-5.569698 -8.298523 6.366985 11.850127 0.979684 1.003573 0.008672 0.000882 -535955.000000 1 0 0
-3.948198 6.553777 6.263085 9.887694 -1.028591 0.884829 -0.001719 0.002035 182880.000000 1 0 0
4.347102 4.307477 -6.883115 9.210262 0.780820 2.414833 0.008205 -0.001337 -1037830.000000 1 0 0
-0.360198 -2.838223 1.503985 3.232216 1.444561 1.086811 0.001952 0.000676 -389829.000000 1 0 0
-13.353598 -0.912423 6.512385 14.884967 0.068222 1.117964 0.005240 -0.000729 -97856.500000 1 0 0
-0.413698 -9.350223 -5.937315 11.083751 1.526580 2.136106 0.004740 -0.002303 468271.000000 1 0 0
2.118902 -1.769623 -3.926315 4.799715 -0.695816 2.528776 0.005062 -0.002322 -1132530.000000 1 0 0
11.388802 -1.923523 1.175985 11.609810 -0.167317 1.469330 0.012730 -0.005002 183434.000000 1 0 0
0.568802 -4.232923 -2.150415 4.781784 -1.437221 2.037237 0.003990 -0.001520 -543856.000000 1 0 0
1.168502 -7.447923 -11.196515 13.498108 -1.415175 2.548986 0.002716 -0.001335 -415251.000000 1 0 0
-4.605698 4.033377 -10.101415 11.811824 -0.719247 2.596724 0.008578 -0.006402 -284225.000000 1 0 0
-1.131598 5.871677 -2.183415 6.365879 -1.380409 1.920892 0.005630 -0.002617 -1648070.000000 1 0 0
-11.338998 1.697677 -3.912415 12.114536 -0.148616 1.899643 0.009358 -0.002276 12821.300000 1 0 0
-1.834198 -11.216923 4.109985 12.086175 1.408710 1.223819 0.012275 -0.003151 349591.000000 1 0 0
-3.524398 -5.465823 -9.680215 11.662040 0.998081 2.550015 0.007926 -0.002359 -2145340.000000 1 0 0
-12.776698 -3.784123 -8.357315 15.729219 0.287943 2.130959 0.012387 -0.003917 80550.000000 1 0 0
11.349502 4.533277 0.612185 12.236689 0.380011 1.520747 0.003201 0.004297 298732.000000 1 0 0
-8.897998 -2.303023 -3.068215 9.689800 0.253267 1.892985 0.006342 -0.004158 -387928.000000 1 0 0
-2.435098 -6.231523 -6.389215 9.251143 1.198271 2.333171 0.007223 -0.004444 252480.000000 1 0 0
-0.167998 2.743277 -1.870815 3.324717 -1.509633 2.168444 0.003180 -0.001682 173745.000000 1 0 0
8.165502 6.037777 -5.102715 11.365205 0.636699 2.036416 0.000068 0.000217 -672941.000000 1 0 0
-9.810698 -0.974223 -0.933115 9.903010 0.098978 1.665162 0.005100 -0.003216 128892.000000 1 0 0
6.186402 0.559277 -8.915215 10.865791 0.090159 2.533055 0.003992 -0.000874 147357.000000 1 0 0
-4.180698 2.492677 7.878885 9.261128 -0.537646 0.553390 -0.004543 0.001449 -2536180.000000 1 0 0
-10.131398 -3.410723 1.389485 10.780024 0.324731 1.441542 0.005528 -0.002019 2300900.000000 1 0 0
-1.751298 -8.214223 -7.755515 11.431908 1.360738 2.316392 0.006786 -0.005389 29209.500000 1 0 0
-9.399098 -9.858323 4.176285 14.246787 0.809240 1.273288 0.010892 -0.001269 -154152.000000 1 0 0
-1.118998 -10.782923 7.210785 13.019946 1.467391 0.983844 0.008797 -0.003731 -419613.000000 1 0 0
9.503702 3.812977 -3.749115 10.904816 0.381549 1.921761 -0.002323 0.002157 -770017.000000 1 0 0
12.845802 -0.764223 3.158585 13.250484 -0.059422 1.330104 0.010661 -0.003247 -275451.000000 1 0 0
6.541102 12.013977 -6.835415 15.291977 1.072218 2.034198 0.004529 0.000945 13560.400000 1 0 0
-11.829298 -0.045623 -6.552515 13.522937 0.003857 2.076643 0.006909 -0.000577 209145.000000 1 0 0
-7.525698 -6.614723 -11.582615 15.314949 0.721064 2.428427 0.012733 -0.002591 -747812.000000 1 0 0
4.014402 5.967877 6.516085 9.705171 0.978650 0.834695 -0.002903 0.003326 -3549450.000000 1 0 0
-4.342198 -1.518023 -7.428915 8.737726 0.336316 2.587183 0.009915 -0.010918 -906636.000000 1 0 0
9.626302 9.318477 0.897685 13.427790 0.769151 1.503894 0.006185 0.003622 -737568.000000 1 0 0
-8.939298 3.949077 4.884585 10.925449 -0.415985 1.107294 0.001832 -0.005150 -294170.000000 1 0 0
-6.994898 7.818677 -12.154915 16.056222 -0.840951 2.429540 0.006633 -0.004748 -1185180.000000 1 0 0
11.087902 -3.618323 7.249085 13.732555 -0.315435 1.014699 0.010034 -0.006764 804413.000000 1 0 0
11.749902 6.898377 6.456785 15.077728 0.530881 1.128260 0.006276 -0.004569 263461.000000 1 0 0
-10.067798 -0.732523 -14.694415 17.827591 0.072631 2.539675 0.020142 -0.004580 169851.000000 1 0 0
1.881802 -13.080623 11.918285 17.795769 -1.427915 0.836957 0.003644 -0.004932 248626.000000 1 0 0
2.908402 2.974877 13.025385 13.673673 0.796697 0.309163 -0.004380 -0.002363 -901202.000000 1 0 0
-2.585298 -1.383123 11.031785 11.414774 0.491250 0.259775 0.001903 -0.002541 152070.000000 1 0 0
2.627102 -10.155623 -8.185815 13.305860 -1.317661 2.233441 -0.000535 0.000290 -1203310.000000 1 0 0
13.845002 3.719577 -7.437615 16.150463 0.262461 2.049378 -0.001147 -0.003193 -2520760.000000 1 0 0
7.247102 -1.599523 5.002285 8.949961 -0.217229 0.977717 0.000415 0.000608 475066.000000 1 0 0
-1.121298 8.674177 10.135585 13.387634 -1.442241 0.711956 -0.004307 0.002002 -96665.200000 1 0 0
-12.271098 -4.667723 0.876485 13.158104 0.363482 1.504135 0.004694 -0.002161 64171.200000 1 0 0
-4.866798 4.819777 -5.414615 8.731210 -0.780544 2.239724 0.007126 -0.004352 -229415.000000 1 0 0
-11.211298 0.380177 1.873485 11.373112 -0.033897 1.405313 0.002248 -0.001800 -2858440.000000 1 0 0
-1.456098 2.111277 -4.128715 4.860453 -0.967033 2.585740 0.007403 -0.005266 736937.000000 1 0 0
3.092402 -9.929523 13.237585 16.834251 -1.268882 0.665921 0.004137 0.002551 -2949970.000000 1 0 0
8.975302 4.701677 -1.538315 10.248328 0.482542 1.721470 0.001564 0.001795 -1565370.000000 1 0 0
4.007602 2.271377 3.813985 5.980510 0.515625 0.879241 -0.000056 0.004958 -143186.000000 1 0 0
-5.455298 -3.378823 7.407385 9.800310 0.554537 0.713873 0.005075 -0.004070 -171994.000000 1 0 0
1.637502 -5.856323 7.759085 9.858059 -1.298147 0.664735 -0.002528 0.001952 -1342410.000000 1 0 0
-5.915898 -6.309223 -9.686715 12.986016 0.817561 2.412733 0.009948 -0.003844 -222806.000000 1 0 0
-11.736098 -5.784723 5.504185 14.194896 0.457951 1.172598 0.010847 -0.001235 -1777770.000000 1 0 0
10.653202 6.111777 4.398885 13.045870 0.520859 1.226870 -0.000563 0.001580 -1519000.000000 1 0 0
1.323902 -3.823623 0.301785 4.057571 -1.237473 1.496352 0.012723 -0.000759 -1482860.000000 1 0 0
8.730502 4.376077 6.947185 11.984786 0.464639 0.952476 -0.000689 0.002318 -583250.000000 1 0 0
-7.919498 12.047077 3.482885 14.831757 -0.989251 1.333757 0.003656 -0.001914 -408540.000000 1 0 0
-6.281998 13.293077 -6.945815 16.260804 -1.129327 2.012136 0.017549 -0.003916 341058.000000 1 0 0
4.409502 -6.940523 -1.011915 8.284838 -1.004805 1.693243 0.002215 -0.004419 -1328570.000000 1 0 0
-1.946298 -8.251023 11.212685 14.056733 1.339145 0.647369 -0.001918 -0.001663 -10942.700000 1 0 0
11.547202 8.915877 -5.718315 15.669393 0.657511 1.944360 0.002795 -0.005131 219749.000000 1 0 0
-3.304198 -2.941723 -1.978015 4.846030 0.727429 1.991247 0.008546 -0.004253 -2661240.000000 1 0 0
-2.079398 5.879777 4.667185 7.789627 -1.230871 0.928353 -0.004297 0.001678 928564.000000 1 0 0
0.429902 -11.523023 -5.678515 12.853420 -1.533506 2.028390 0.004836 -0.004932 -657939.000000 1 0 0
-8.905598 6.217977 -1.539915 10.970153 -0.609524 1.711635 0.001348 -0.001802 -809508.000000 1 0 0
2.885802 0.000377 3.857985 4.817873 0.000131 0.642225 0.001726 0.002036 421959.000000 1 0 0
-10.147498 4.003577 -1.097815 10.963829 -0.375789 1.671095 0.007464 -0.003424 -27008.200000 1 0 0
6.360502 5.515177 13.598885 15.993837 0.714337 0.554321 0.011731 -0.006551 123625.000000 1 0 0
-8.861098 -1.586723 5.638585 10.622165 0.177188 1.011214 0.004782 -0.002828 -49087.100000 1 0 0
13.055802 -1.845523 -1.358515 13.255394 -0.140426 1.673464 0.015341 -0.004617 -1422890.000000 1 0 0
5.426802 -5.446523 5.390985 9.390288 -0.787212 0.959289 0.001795 -0.003548 131715.000000 1 0 0
-8.993498 -1.200923 3.153785 9.605810 0.132747 1.236271 0.001806 -0.000881 525003.000000 1 0 0
1.888002 5.339677 5.637085 7.990834 1.230936 0.787747 0.000659 0.001539 -1311840.000000 1 0 0
9.342502 3.105077 -7.319115 12.267571 0.320875 2.210083 -0.001382 -0.000142 -718931.000000 1 0 0
2.212002 -2.330523 -1.492415 3.542823 -0.811484 2.005620 0.008577 -0.002721 -91160.200000 1 0 0
-6.221898 0.378177 -3.944815 7.376761 -0.060707 2.135023 0.004362 -0.002907 -1599000.000000 1 0 0
-4.081798 4.218777 4.980485 7.698336 -0.801899 0.867211 -0.003722 0.000508 1059850.000000 1 0 0
-6.484198 1.800577 -12.442315 14.145604 -0.270863 2.645794 0.012704 -0.006844 -3011430.000000 1 0 0
-0.315898 2.982077 6.249485 6.931712 -1.465258 0.447391 -0.001330 0.001198 1573080.000000 1 0 0
-8.930198 9.441977 -2.320415 13.201655 -0.813247 1.747481 -0.002344 0.003460 230266.000000 1 0 0
-1.342898 -3.795823 -6.152515 7.352897 1.230755 2.562112 0.006964 -0.007565 132880.000000 1 0 0
-3.567998 7.008777 -2.885415 8.377302 -1.099915 1.922431 0.004640 0.001122 550943.000000 1 0 0
7.052602 -0.379223 -4.339215 8.289258 -0.053719 2.121720 0.007060 0.000341 -91597.900000 1 0 0
-5.114298 -10.883823 6.859885 13.844554 1.131518 1.052394 0.001924 -0.002724 861696.000000 1 0 0
9.775302 8.490877 -1.553115 13.040847 0.715197 1.690176 0.001612 0.004887 -437239.000000 1 0 0
13.790002 4.717277 -4.356615 15.211737 0.329601 1.861262 0.001024 -0.002868 587271.000000 1 0 0
4.722102 1.012977 -6.965215 8.475765 0.211316 2.535324 0.006845 -0.001618 -494786.000000 1 0 0
9.121902 -4.830023 3.474085 10.890706 -0.486966 1.246127 0.007968 -0.005788 -397658.000000 1 0 0
-8.810498 -3.334523 -0.847915 9.458482 0.361811 1.660563 0.003896 -0.000982 121755.000000 1 0 0
-8.603498 -4.260923 -10.592215 14.295827 0.459844 2.405251 0.007055 -0.003985 214003.000000 1 0 0
10.225502 -1.109023 10.800585 14.914538 -0.108034 0.760974 0.001639 -0.004629 441424.000000 1 0 0
2.124202 -11.652623 9.790385 15.367091 -1.390482 0.880065 0.007474 -0.003716 526822.000000 1 0 0
-6.435398 -10.509123 2.060485 12.494063 1.021336 1.405122 0.014333 -0.002013 -887594.000000 1 0 0
-3.802998 -1.260523 6.849285 7.935012 0.320059 0.529277 0.002352 0.003281 -1709620.000000 1 0 0
4.787202 -7.497723 3.986285 9.748006 -1.002557 1.149511 0.002113 -0.000997 245191.000000 1 0 0
11.596302 -9.543623 -5.145015 15.875331 -0.688602 1.900845 0.025908 -0.005384 768825.000000 1 0 0
11.356302 1.207577 11.414585 16.146720 0.105937 0.785650 0.011144 -0.002757 -234627.000000 1 0 0
-10.231898 -3.468523 4.333685 11.640585 0.326834 1.189320 0.007036 -0.000231 2112340.000000 1 0 0
2.019802 8.840377 8.872085 12.686440 1.346177 0.796328 -0.006708 0.004666 -796016.000000 1 0 0
6.616202 8.824877 4.143485 11.782234 0.927473 1.211439 0.003095 0.001731 470140.000000 1 0 0
-4.217898 3.563777 0.413885 5.537371 -0.701536 1.495983 -0.000185 -0.002722 -412113.000000 1 0 0
4.863302 6.978477 4.291685 9.527298 0.962154 1.103514 0.002043 0.002801 -1407830.000000 1 0 0
-8.225298 13.145077 1.119485 15.546763 -1.011671 1.498726 0.005294 -0.001243 430549.000000 1 0 0
8.851502 8.274777 -9.072615 15.137152 0.751736 2.213499 -0.002052 -0.006135 -889262.000000 1 0 0
6.997802 2.023377 6.064985 9.478783 0.281468 0.876495 -0.004075 0.001867 -1099890.000000 1 0 0
11.776802 -6.213123 3.231285 13.701721 -0.485462 1.332723 0.015774 -0.006985 -206385.000000 1 0 0
11.450302 4.663477 -2.012515 12.526278 0.386766 1.732159 -0.002013 0.003775 156725.000000 1 0 0
-4.057898 14.511277 -5.884515 16.176255 -1.298124 1.943114 0.009637 0.003907 1540740.000000 1 0 0
7.156302 -3.007523 7.036985 10.477452 -0.397851 0.834388 0.001854 -0.003180 -1209500.000000 1 0 0
-7.948098 -0.449723 0.867485 8.007936 0.056522 1.462255 0.006136 -0.001849 661672.000000 1 0 0
-3.178998 1.126577 10.660785 11.181571 -0.340573 0.306403 0.000577 0.001642 158911.000000 1 0 0
7.171702 -1.260623 -1.834715 7.509238 -0.174000 1.817623 0.011161 -0.001126 -1855670.000000 1 0 0
-7.758298 5.363377 2.919085 9.873098 -0.604869 1.270650 0.001631 -0.002467 718122.000000 1 0 0
9.442302 -2.179223 2.877985 10.108851 -0.226822 1.282103 0.006163 -0.004981 -1230480.000000 1 0 0
0.231402 3.378277 1.616285 3.752157 1.502406 1.125460 0.001389 0.002325 -2461990.000000 1 0 0
-7.526998 -3.123023 3.999185 9.077580 0.393293 1.114578 0.005317 -0.001389 1370140.000000 1 0 0
-2.283598 8.383677 -6.715415 10.981697 -1.304862 2.228764 0.007863 -0.001383 -483637.000000 1 0 0
4.436102 9.713177 7.272985 12.919795 1.142377 0.972866 -0.003771 0.005222 357451.000000 1 0 0
-11.875498 -3.084823 6.851085 14.052792 0.254147 1.061544 0.011639 -0.002668 -1005530.000000 1 0 0
-4.743198 2.274177 -5.619315 7.697176 -0.447082 2.389190 0.009173 -0.006957 -283404.000000 1 0 0
-2.831898 2.890377 -1.893415 4.467544 -0.795617 2.008450 0.001439 -0.002567 1084000.000000 1 0 0
2.515602 5.130477 11.424885 12.774116 1.114919 0.463758 -0.003488 -0.003679 462411.000000 1 0 0
-0.805598 1.673777 4.479485 4.849361 -1.122216 0.393098 0.001316 0.000595 772525.000000 1 0 0
5.103602 1.528877 7.704685 9.367304 0.291061 0.604989 -0.004662 0.002427 482689.000000 1 0 0
3.390602 -8.257523 1.886385 9.123668 -1.181179 1.362537 0.004271 -0.002942 2811600.000000 1 0 0
5.123602 6.560677 -4.641415 9.530819 0.907776 2.079437 0.007476 -0.001282 -2546100.000000 1 0 0
-4.074398 2.756877 -8.059915 9.442634 -0.594871 2.593589 0.012308 -0.008047 449466.000000 1 0 0
-8.722598 -2.162323 -12.932515 15.748311 0.243000 2.534307 0.012392 -0.003720 433546.000000 1 0 0
-7.875898 8.123577 1.014185 11.360055 -0.800877 1.481401 -0.000076 -0.002316 -81995.300000 1 0 0
7.367202 1.008777 -6.572015 9.923945 0.136082 2.294598 0.001047 0.001149 415527.000000 1 0 0
9.000802 8.924677 5.515285 13.823265 0.781151 1.160386 0.003726 0.001911 569515.000000 1 0 0
9.411402 -1.029523 -1.357415 9.564360 -0.108958 1.713201 0.006719 -0.000569 371973.000000 1 0 0
5.393702 0.082077 4.284485 6.888800 0.015216 0.899567 -0.000719 0.002661 -3207220.000000 1 0 0
-4.165498 -7.317823 -7.972915 11.596089 1.053312 2.328909 0.012869 -0.006371 -311051.000000 1 0 0
-2.239298 7.447477 -0.583415 7.798702 -1.278717 1.645676 0.002308 0.000299 78998.400000 1 0 0
13.473302 -3.298423 -7.317215 15.682828 -0.240090 2.056211 0.015569 -0.002000 954873.000000 1 0 0
-4.786498 -5.004623 1.655685 7.120260 0.807672 1.336117 0.008184 -0.000925 1564730.000000 1 0 0
-8.932198 1.330877 2.493585 9.368744 -0.147910 1.301389 0.002110 -0.002289 -481137.000000 1 0 0
-1.109998 11.135277 10.095785 15.071541 -1.471442 0.836780 -0.005462 -0.000452 53089.300000 1 0 0
-8.573198 0.255377 7.508485 11.399223 -0.029779 0.851728 0.002589 -0.002072 -1341400.000000 1 0 0
-6.181998 12.891977 -2.046715 14.443311 -1.123664 1.712982 0.004550 0.001856 776761.000000 1 0 0
-12.943698 -0.689123 3.198985 13.350944 0.053190 1.328835 0.008172 -0.003095 527436.000000 1 0 0
-6.713398 12.709977 8.711385 16.807780 -1.084845 1.025941 0.009969 -0.004906 379466.000000 1 0 0
-8.119998 0.919077 -14.158315 16.347384 -0.112707 2.618124 0.013825 -0.000708 -669820.000000 1 0 0
7.443902 2.920077 3.727585 8.822325 0.373832 1.134575 0.002386 0.002328 -343366.000000 1 0 0
-1.737198 0.613977 -1.967915 2.695833 -0.339727 2.389095 0.003976 -0.004450 241822.000000 1 0 0
-6.226898 9.642277 -10.422115 15.503814 -0.997385 2.308012 0.005201 -0.001032 -143987.000000 1 0 0
-9.960498 13.712477 5.260085 17.745761 -0.942583 1.269861 0.003813 0.002261 708324.000000 1 0 0
-5.756198 8.421677 2.425685 10.485343 -0.971232 1.337341 -0.001758 -0.000069 -1502290.000000 1 0 0
-2.335398 -10.836423 -1.302815 11.161518 1.358529 1.687787 0.009678 -0.002365 574381.000000 1 0 0
-2.208698 -12.554923 8.804585 15.492745 1.396655 0.966353 0.007164 -0.004598 302326.000000 1 0 0
-14.668398 -6.366923 -1.797215 16.091289 0.409517 1.682719 0.018361 -0.005769 379747.000000 1 0 0
-2.744398 -9.410423 3.125585 10.288686 1.287032 1.262130 0.008070 -0.001572 -1542770.000000 1 0 0
4.667002 -2.774123 7.478185 9.241207 -0.536301 0.627970 -0.002430 0.003187 -1190850.000000 1 0 0
-15.022098 -1.236123 -0.362815 15.077237 0.082102 1.594862 0.005991 -0.005466 75984.300000 1 0 0
5.529102 8.832577 -2.789115 10.787240 1.011486 1.832324 0.004808 0.001660 1151010.000000 1 0 0
-5.630098 -5.801423 8.474885 11.712309 0.800384 0.761810 0.007858 -0.001511 -1861720.000000 1 0 0
3.384402 3.466277 7.047085 8.551646 0.797349 0.602252 -0.002030 0.002091 -22464.500000 1 0 0
3.251902 2.255377 9.340585 10.144364 0.606388 0.400757 -0.002272 -0.001735 157020.000000 1 0 0
9.879102 -3.220923 5.188685 11.614364 -0.315167 1.107670 0.009002 -0.006321 -570530.000000 1 0 0
6.508902 10.006377 -5.059015 12.964838 0.994087 1.971656 0.001842 -0.000192 292612.000000 1 0 0
-4.613998 12.048877 -8.395015 15.392878 -1.205083 2.147642 0.008351 -0.003825 -229377.000000 1 0 0
-3.217698 -7.195923 1.969585 8.124909 1.150310 1.325944 0.009476 0.000117 1381200.000000 1 0 0
-7.494098 -4.082723 1.098485 8.604464 0.498836 1.442782 0.005659 -0.000344 1592570.000000 1 0 0
-2.033498 -4.001523 -10.869515 11.759833 1.100625 2.749972 0.012050 -0.005590 -290422.000000 1 0 0
-5.299098 8.326877 -4.493215 10.844644 -1.004052 1.997998 0.002235 -0.001161 -1360560.000000 1 0 0
-10.976598 -3.195923 -10.240515 15.348218 0.283325 2.301256 0.009827 0.001036 -1041880.000000 1 0 0
4.807402 -11.440723 -7.622015 14.563529 -1.172998 2.121589 0.001334 -0.000830 -2148080.000000 1 0 0
-9.426898 -3.967023 7.256585 12.540403 0.398324 0.953716 0.007648 -0.001874 157775.000000 1 0 0
-5.727998 -9.705523 -5.208115 12.414975 1.037629 2.003694 0.012985 -0.009071 882993.000000 1 0 0
4.838202 4.414177 -9.510315 11.547262 0.739601 2.538524 0.006401 -0.001238 -67642.800000 1 0 0
-3.336598 -7.215523 -14.038215 16.132828 1.137663 2.626332 0.006069 0.001310 -577773.000000 1 0 0
0.605202 -0.790623 -8.760615 8.817014 -0.917465 3.028426 0.013343 -0.011458 26506.900000 1 0 0
-7.705598 2.202777 -2.928715 8.532634 -0.278441 1.921157 0.004121 -0.002964 201849.000000 1 0 0
-2.347698 7.493977 -12.614815 14.859507 -1.267203 2.584771 0.006105 -0.002818 268061.000000 1 0 0
-9.813298 8.837177 7.545585 15.209614 -0.733108 1.051688 0.001237 -0.004272 -271148.000000 1 0 0
-10.678298 -3.103123 -14.398515 18.192654 0.282812 2.483968 0.020458 0.002448 -236702.000000 1 0 0
-3.230598 4.850477 7.941585 9.850516 -0.983230 0.633078 -0.004997 0.001097 -882688.000000 1 0 0
8.739302 -2.284623 -3.464815 9.674701 -0.255697 1.937062 0.005740 -0.000253 -5558440.000000 1 0 0
2.060202 -8.421623 -1.115615 8.741439 -1.330876 1.698769 0.000487 -0.001759 -1698410.000000 1 0 0
-13.717798 -2.796223 4.979085 14.858941 0.201084 1.229095 0.015043 -0.004875 -102604.000000 1 0 0
7.008402 2.826977 -1.893915 7.790790 0.383408 1.816353 0.005920 0.001882 1411390.000000 1 0 0
-11.060898 4.315477 8.837085 14.800705 -0.371992 0.930950 0.009845 -0.003447 -3336260.000000 1 0 0
-1.752998 -2.445123 7.976285 8.524831 0.948794 0.360691 -0.001953 0.000366 -444223.000000 1 0 0
2.940902 11.978977 -9.925815 15.832454 1.330052 2.248401 0.007746 -0.002135 658064.000000 1 0 0
3.752502 -4.978623 -7.159215 9.493278 -0.924917 2.425133 0.001960 -0.005069 -12760.800000 1 0 0
8.593002 -13.568423 -9.723915 18.774885 -1.006244 2.115216 0.023060 0.003304 115197.000000 1 0 0
-6.304198 -5.787123 -0.479815 8.571110 0.742660 1.626806 0.013154 -0.002703 -493335.000000 1 0 0
-1.256898 -4.039123 9.869585 10.737924 1.269114 0.404921 -0.003501 0.001269 1227470.000000 1 0 0
2.758102 3.232177 1.794185 4.612287 0.864374 1.171249 -0.000125 0.004161 -1642610.000000 1 0 0
-9.146498 13.375377 7.725985 17.951323 -0.971005 1.125877 0.010890 -0.009444 -662845.000000 1 0 0
4.083002 -11.031323 -0.037915 11.762756 -1.216304 1.574020 0.002454 -0.000231 -250399.000000 1 0 0
-12.576098 -1.449223 -9.137615 15.612639 0.114730 2.196010 0.008865 -0.003539 383010.000000 1 0 0
-4.382098 0.957277 -13.568915 14.291068 -0.215073 2.822334 0.009133 -0.007610 286546.000000 1 0 0
3.919702 -3.115923 4.826085 6.954432 -0.671647 0.803825 0.000961 0.001827 -93373.700000 1 0 0
1.658302 -1.292023 1.156185 2.399177 -0.661881 1.067964 0.004814 0.000565 275834.000000 1 0 0
8.197602 -9.022623 7.431885 14.277300 -0.833272 1.023315 0.010819 -0.008549 -1185640.000000 1 0 0
-0.040998 2.229477 -6.379315 6.757804 -1.552409 2.805324 0.010788 -0.007386 203995.000000 1 0 0
-3.747598 -9.877923 -3.443915 11.112084 1.208181 1.885911 0.015799 -0.003785 1135690.000000 1 0 0
-9.381298 2.332677 -5.465315 11.104945 -0.243709 2.085356 0.010391 -0.002293 -1400130.000000 1 0 0
9.024002 -7.534623 5.333685 12.909351 -0.695694 1.144870 0.009422 -0.006731 1689950.000000 1 0 0
-5.437198 -4.265823 4.598385 8.300934 0.665257 0.983683 0.004875 -0.001197 -1976610.000000 1 0 0
-0.140398 -12.559623 10.362685 16.283399 1.559618 0.880980 0.010580 -0.003741 -1161550.000000 1 0 0
-14.362398 -8.468523 3.010785 16.942821 0.532761 1.392145 0.015239 -0.004437 -893990.000000 1 0 0
10.951602 -1.226423 -3.512215 11.566216 -0.111521 1.879330 0.010408 -0.000067 -565579.000000 1 0 0
-13.696898 3.012577 2.624685 14.267782 -0.216499 1.385784 0.010951 -0.003356 -773844.000000 1 0 0
-6.195698 6.130077 1.007585 8.773810 -0.780074 1.455702 0.003749 -0.001188 558466.000000 1 0 0
7.052402 -6.848223 -0.492315 9.842606 -0.770711 1.620836 0.004583 -0.004602 -375380.000000 1 0 0
-6.885798 7.775077 10.002985 14.419630 -0.845981 0.804175 0.001774 -0.001325 119160.000000 1 0 0
-12.594198 -5.065223 -2.018915 13.723933 0.382390 1.718441 -0.001205 -0.004475 -3097570.000000 1 0 0
-9.355498 -5.683323 0.117085 10.947110 0.545905 1.560101 0.007731 -0.000890 -601441.000000 1 0 0
-1.839898 1.807677 2.127785 3.343709 -0.776565 0.881033 -0.000830 0.000206 214427.000000 1 0 0
-7.115698 7.228177 7.562885 12.652151 -0.793240 0.930099 -0.002331 -0.001446 -52829.000000 1 0 0
5.519602 7.214777 -0.367215 9.091417 0.917738 1.611199 0.007233 0.000656 -1462720.000000 1 0 0
-0.109098 -4.060023 7.476985 8.508877 1.543931 0.497606 -0.002942 0.001538 -1673210.000000 1 0 0
6.336502 0.773277 13.152685 14.619929 0.121435 0.451850 0.000044 -0.001451 521372.000000 1 0 0
5.771602 6.113377 -7.859415 11.508917 0.814147 2.322519 0.000860 -0.001262 -153212.000000 1 0 0
9.830402 5.324477 9.129085 14.433539 0.496397 0.886031 0.001006 -0.003357 -2390340.000000 1 0 0
-1.253498 -5.068023 -8.473415 9.952632 1.328328 2.589396 0.009262 -0.005493 653997.000000 1 0 0
10.065202 -3.489923 -7.905415 13.265875 -0.333760 2.209209 0.013407 -0.005776 510778.000000 1 0 0
8.494002 -5.461823 1.176185 10.166759 -0.571454 1.454847 0.011280 -0.004961 1445860.000000 1 0 0
15.724502 3.186877 -4.992815 16.803105 0.199961 1.872489 0.013864 0.000800 -684726.000000 1 0 0
-6.901898 3.572577 1.117085 7.851585 -0.477646 1.428037 0.002213 -0.002147 1011480.000000 1 0 0
-1.721398 3.756877 0.219985 4.138325 -1.141145 1.517613 0.002250 -0.003252 -964917.000000 1 0 0
-2.580598 9.913377 6.908285 12.355522 -1.316133 0.977466 -0.002735 0.004321 1849730.000000 1 0 0
5.571002 -5.734023 -8.814815 11.900254 -0.799817 2.404945 0.003809 -0.004816 1415480.000000 1 0 0
-1.255298 -0.926323 6.211185 6.404113 0.635732 0.246082 -0.002054 0.000358 589910.000000 1 0 0
-5.667298 4.971877 -7.891415 10.913857 -0.720127 2.379024 0.006742 -0.004775 -165382.000000 1 0 0
6.695302 -1.273323 2.557585 7.279399 -0.187937 1.211788 0.002353 0.001201 -1222970.000000 1 0 0
8.885002 7.574477 3.241985 12.117195 0.705945 1.299944 0.003816 0.002042 76580.800000 1 0 0
-5.221498 -4.861323 -7.717415 10.509758 0.749692 2.395445 0.010603 -0.006966 1084260.000000 1 0 0
-2.248698 7.774177 -10.057215 12.908991 -1.289229 2.464003 0.006550 -0.000930 404365.000000 1 0 0
-2.823098 -2.344523 1.510485 3.968405 0.693051 1.180321 -0.001193 0.002142 -460905.000000 1 0 0
6.149902 -2.082323 -9.322615 11.360833 -0.326478 2.533243 0.002820 -0.001860 1173700.000000 1 0 0
1.173502 -7.589223 5.209785 9.279831 -1.417384 0.974708 0.001148 0.000444 683198.000000 1 0 0
1.790802 11.624177 1.169085 11.819273 1.417940 1.471721 0.002807 0.002562 -52610.300000 1 0 0
-1.175998 7.062077 2.442185 7.564402 -1.405787 1.242055 -0.001130 0.003149 707420.000000 1 0 0
8.768002 7.977277 -6.508015 13.522909 0.738212 2.072886 -0.001022 -0.001840 -642958.000000 1 0 0
3.685502 -11.390423 5.608885 13.220599 -1.257866 1.132659 0.008073 -0.004747 793673.000000 1 0 0
7.925502 -7.145723 12.333985 16.309571 -0.733705 0.713246 0.006028 -0.000176 985313.000000 1 0 0
-8.686898 0.085477 -3.987115 9.558588 -0.009839 2.001075 0.005084 -0.002815 -1951050.000000 1 0 0
-3.280898 -5.077423 11.153585 12.686488 0.997116 0.496678 0.002392 -0.001471 -98354.600000 1 0 0
-8.331498 0.181477 -11.637715 14.313742 -0.021779 2.520160 0.010345 -0.003790 -2226260.000000 1 0 0
1.368802 -5.086823 5.424185 7.561162 -1.307935 0.770770 -0.002940 0.002913 -172888.000000 1 0 0
6.749902 3.737477 -7.783115 10.959325 0.505686 2.360553 0.001357 0.000756 1026260.000000 1 0 0
16.329002 4.222677 -1.172215 16.906844 0.253056 1.640186 0.004757 0.005009 -1937230.000000 1 0 0
7.927602 7.535077 0.060085 10.937453 0.760018 1.565303 0.003920 0.000780 -1601280.000000 1 0 0
5.482302 -10.319823 13.944085 18.193182 -1.082470 0.697507 0.011395 -0.001619 -206878.000000 1 0 0
-5.148498 -9.195723 8.837785 13.754083 1.060400 0.872965 0.002013 -0.004116 722321.000000 1 0 0
-12.625998 -3.171823 2.754085 13.306437 0.246121 1.362316 0.004832 -0.000944 205274.000000 1 0 0
-2.183398 -1.405523 -5.980515 6.519915 0.571956 2.731964 0.008738 -0.010293 -1096520.000000 1 0 0
-2.625398 13.042477 -4.364015 14.001555 -1.372155 1.887758 0.008205 0.002089 478693.000000 1 0 0
4.010802 -0.505823 -5.055415 6.472991 -0.125453 2.467064 0.007278 -0.001161 -388531.000000 1 0 0
-8.728698 3.964077 -7.381215 12.099026 -0.426294 2.226941 0.014205 -0.004039 728217.000000 1 0 0
-4.572998 7.914577 -11.296815 14.531720 -1.046865 2.461302 0.005135 -0.002695 -2120100.000000 1 0 0
-10.218798 -6.409123 7.385185 14.143608 0.560172 1.021418 0.010670 -0.000380 -1514870.000000 1 0 0
8.101002 5.318477 4.219985 10.569801 0.580946 1.160099 0.000425 0.002026 -8825.690000 1 0 0
-6.772998 -7.588423 3.967385 10.917775 0.842116 1.198895 0.013534 0.000374 -294079.000000 1 0 0
-4.150298 11.769277 8.068485 14.860730 -1.231773 0.996862 0.000009 -0.002197 -344596.000000 1 0 0
-7.354998 10.012477 -7.975815 14.763446 -0.937235 2.141520 0.008433 -0.003133 -415811.000000 1 0 0
13.159302 5.488377 4.774285 15.036067 0.395136 1.247681 0.011203 0.001943 876875.000000 1 0 0
5.463702 4.010677 -3.808815 7.774615 0.633220 2.082776 0.006982 0.000720 483810.000000 1 0 0
-2.875198 -4.202023 5.081385 7.193346 0.970725 0.786396 0.002100 0.000164 -2027110.000000 1 0 0
12.447402 -2.351623 -5.198815 13.692904 -0.186724 1.960238 0.011490 -0.003087 -2120780.000000 1 0 0
-5.288398 9.627477 7.012985 13.032169 -1.068489 1.002581 -0.003483 0.000301 142753.000000 1 0 0
1.661202 3.854377 -0.446715 4.220826 1.163862 1.676831 0.007481 0.001492 637093.000000 1 0 0
-0.100898 9.691377 7.722485 12.392326 -1.560386 0.898011 -0.006098 0.004172 -1105790.000000 1 0 0
-5.512498 1.987277 5.824285 8.261913 -0.346002 0.788435 -0.002341 -0.000158 692632.000000 1 0 0
8.847702 1.159677 10.781685 13.995406 0.130328 0.691370 0.001893 -0.001403 -1828010.000000 1 0 0
0.493902 -2.878823 -10.145415 10.557510 -1.400887 2.861272 0.009778 -0.006967 -1217810.000000 1 0 0
1.266702 10.657877 -2.785315 11.088411 1.452500 1.824707 0.007456 -0.002017 -316064.000000 1 0 0
2.213602 -4.310423 11.639885 12.608199 -1.096370 0.394472 -0.004908 0.000723 -810760.000000 1 0 0
6.385902 -2.957623 9.441385 11.775696 -0.433735 0.640547 0.000250 -0.000519 430864.000000 1 0 0
-10.616198 -8.250423 5.571285 14.553775 0.660655 1.177964 0.013870 -0.001647 -1196250.000000 1 0 0
-3.026298 0.764577 -6.976715 7.643142 -0.247466 2.720902 0.014169 -0.009358 671037.000000 1 0 0
11.115902 2.634577 -5.042915 12.487404 0.232716 1.986507 0.000376 0.000637 -3505430.000000 1 0 0
-1.930698 -4.169923 -0.102815 4.596349 1.137180 1.593167 0.002984 -0.000977 959516.000000 1 0 0
-1.273298 -6.522423 -10.609015 12.518566 1.378002 2.581983 0.007210 -0.003407 1331920.000000 1 0 0
0.290602 6.738377 -6.619315 9.450159 1.527697 2.346817 0.013259 -0.001584 -2499830.000000 1 0 0
1.989602 3.860377 -6.245015 7.606658 1.094912 2.533945 0.008995 -0.003625 -1583970.000000 1 0 0
1.686302 -14.754823 6.544085 16.228785 -1.457002 1.155742 0.013154 -0.010384 -120285.000000 1 0 0
-1.749198 5.332277 -10.515815 11.919532 -1.253818 2.651382 0.009308 -0.004445 -62615.000000 1 0 0
13.673602 4.404477 -0.683915 14.381743 0.311621 1.618369 0.000235 0.002208 263249.000000 1 0 0
-2.330498 3.239077 -6.367915 7.514864 -0.947106 2.581820 0.013497 -0.008453 -1186240.000000 1 0 0
5.606102 7.815077 14.261585 17.201645 0.948524 0.593331 0.008034 -0.005948 800751.000000 1 0 0
15.988402 0.666477 -5.738515 17.000110 0.041661 1.915117 0.019121 -0.003294 278966.000000 1 0 0
6.189302 -8.321123 10.629285 14.850260 -0.931271 0.773079 0.004269 -0.002527 422268.000000 1 0 0
0.024102 -5.953523 -6.474915 8.795996 -1.566748 2.398117 0.004067 -0.005440 -1980950.000000 1 0 0
8.728502 5.558877 -7.456815 12.755076 0.567086 2.195202 -0.004034 0.001138 -119011.000000 1 0 0
-16.071798 -0.863323 5.164585 16.903282 0.053665 1.260294 0.021603 -0.006955 -783990.000000 1 0 0
-0.355298 3.966677 -12.228415 12.860595 -1.481464 2.826745 0.011477 -0.009748 736578.000000 1 0 0
-11.314498 3.665577 5.841985 13.250778 -0.313302 1.114219 0.011428 -0.005619 107227.000000 1 0 0
5.254802 -9.571923 -9.542015 14.501197 -1.068736 2.288977 -0.003313 0.003315 30168.800000 1 0 0
1.410002 11.113377 -11.685615 16.187923 1.444596 2.377301 0.009338 -0.001475 -3035030.000000 1 0 0
5.968402 2.459077 1.293485 6.583463 0.390822 1.373035 0.007250 0.002683 -56722.400000 1 0 0
5.727302 4.518577 4.924085 8.801485 0.667969 0.977061 -0.002272 0.003616 -336786.000000 1 0 0
0.412202 -1.647523 -6.358315 6.581217 -1.325634 2.880586 0.008479 -0.007281 -533483.000000 1 0 0
12.672502 6.999877 -4.449415 15.145556 0.504659 1.868972 0.000232 -0.003767 -18082.900000 1 0 0
7.364902 3.227577 12.736185 15.062186 0.413029 0.563158 0.001629 -0.001250 -294347.000000 1 0 0
-2.366798 -0.197723 8.668085 8.987576 0.083347 0.267435 -0.005993 0.000230 866446.000000 1 0 0
2.432502 -15.173723 13.427385 20.407195 -1.411839 0.852672 0.007725 0.000234 1053550.000000 1 0 0
18.837602 4.676677 -1.506615 19.467831 0.243343 1.648264 0.011744 -0.003237 355462.000000 1 0 0
-0.492298 -13.389923 7.090185 15.159258 1.534047 1.084095 0.007593 -0.006287 -1752650.000000 1 0 0
4.390502 1.612377 -0.558815 4.710471 0.351952 1.689709 0.007986 0.000246 958693.000000 1 0 0
2.710902 -0.455023 -7.342615 7.840283 -0.166299 2.783378 0.008654 -0.004433 283035.000000 1 0 0
7.168502 -11.246623 0.911385 13.368043 -1.003336 1.502567 0.006282 -0.000724 465636.000000 1 0 0
-11.928398 -7.331123 1.209685 14.053305 0.551081 1.484611 0.006035 -0.000385 119869.000000 1 0 0
0.203102 -7.101223 10.090885 12.340769 -1.542203 0.613415 -0.002423 0.000630 -830831.000000 1 0 0
-4.678298 -7.227823 10.577185 13.638355 0.996348 0.683215 0.008269 -0.000262 -900101.000000 1 0 0
11.927502 0.740577 -1.520415 12.046801 0.062010 1.697343 0.006748 0.001578 1026740.000000 1 0 0
6.634702 -9.768523 -7.314015 13.890217 -0.974172 2.125344 0.000480 0.000366 -22794.500000 1 0 0
-10.925798 4.940877 3.500985 12.491686 -0.424700 1.286726 0.004487 -0.006416 -624289.000000 1 0 0
6.036502 -9.154523 2.173685 11.178978 -0.987841 1.375106 0.004056 -0.003852 2406860.000000 1 0 0
11.499202 -1.337623 5.836085 12.964596 -0.115803 1.103857 0.010512 -0.009265 -146849.000000 1 0 0
-6.589798 3.467377 4.135585 8.517700 -0.484366 1.063829 -0.002910 -0.002526 -792972.000000 1 0 0
9.592902 6.368977 -3.133715 11.933474 0.586103 1.836511 -0.000089 0.001449 -420814.000000 1 0 0
-2.379298 6.612477 10.954885 13.015199 -1.225401 0.570374 -0.009427 0.000913 77923.000000 1 0 0
1.929202 9.753277 3.088385 10.410877 1.375517 1.269614 -0.002653 0.001333 -335322.000000 1 0 0
2.904302 6.151077 -5.590315 8.804677 1.129667 2.258709 0.008000 -0.002071 -1421100.000000 1 0 0
12.132202 0.128577 -5.426215 13.290999 0.010598 1.991346 0.008195 -0.000982 726143.000000 1 0 0
-2.661098 -12.545923 6.170485 14.232235 1.361785 1.122360 0.008519 -0.004270 231447.000000 1 0 0
10.988802 1.847577 -2.763915 11.480703 0.166575 1.813929 0.002372 0.003750 912111.000000 1 0 0
-8.741698 5.331377 0.765385 10.267750 -0.547652 1.496185 -0.001422 -0.002943 -1070690.000000 1 0 0
1.277202 -10.136223 5.550885 11.626976 -1.445453 1.073087 0.004758 -0.002250 -319355.000000 1 0 0
9.367102 -5.765623 -1.273715 11.072820 -0.551752 1.686082 0.015607 -0.006817 590050.000000 1 0 0
-7.855798 8.645477 -4.591415 12.551452 -0.833217 1.945297 0.001760 0.000302 -547925.000000 1 0 0
-7.492998 -0.024423 -1.616915 7.665509 0.003259 1.783327 0.003122 -0.002921 -1345600.000000 1 0 0
4.179002 8.781677 2.740085 10.103958 1.126632 1.296168 0.005460 0.001336 1272030.000000 1 0 0
-1.241498 -10.594623 -3.769515 11.313558 1.454146 1.910477 0.010216 -0.003308 -308756.000000 1 0 0
3.261902 7.927577 -3.684415 9.330670 1.180448 1.976724 0.009032 -0.001066 -481979.000000 1 0 0
-4.308298 1.578877 -11.108415 12.018784 -0.351275 2.749875 0.009325 -0.008159 -178448.000000 1 0 0
1.249802 2.871877 10.930285 11.370172 1.160329 0.279069 -0.002973 -0.001337 453527.000000 1 0 0
2.163302 5.525977 -8.094615 10.036887 1.197658 2.508982 0.010289 -0.001918 69455.800000 1 0 0
15.621602 6.027477 4.087885 17.235885 0.368242 1.331342 0.022398 -0.004511 428532.000000 1 0 0
-4.507198 8.998877 4.619285 11.073952 -1.106459 1.140510 -0.001431 0.001786 -34745.300000 1 0 0
-0.907398 -8.251923 -12.470815 14.981283 1.461274 2.554268 0.005160 -0.000990 34396.400000 1 0 0
14.293702 -4.203823 -5.179115 15.773562 -0.286038 1.905344 0.023565 -0.001487 216195.000000 1 0 0
-5.985898 -6.250523 -5.730515 10.379731 0.807021 2.155662 0.011160 -0.005023 536359.000000 1 0 0
-8.983798 2.620077 -12.345115 15.491136 -0.283774 2.492967 0.015762 -0.003161 87073.500000 1 0 0
10.525902 5.434977 13.895985 18.260120 0.476636 0.705940 0.020388 -0.001790 1198720.000000 1 0 0
-0.501098 10.985977 5.535085 12.311781 -1.525215 1.104505 -0.005841 0.006499 321282.000000 1 0 0
0.379402 11.319677 -0.679315 11.346387 1.537292 1.630703 0.003744 -0.000173 4588.330000 1 0 0
-1.454098 -0.643423 3.578185 3.915584 0.416590 0.418175 -0.001028 0.000197 -11977.600000 1 0 0
-4.825898 6.658177 8.868385 12.094166 -0.943614 0.747666 -0.003091 0.001431 -1573520.000000 1 0 0
3.513802 -8.822523 -11.312815 14.770359 -1.191777 2.443257 -0.000905 0.001985 908262.000000 1 0 0
6.682502 -3.808223 11.999185 14.252678 -0.517978 0.570021 0.006638 0.001774 -252429.000000 1 0 0
-2.360798 -1.939323 -12.449515 12.818922 0.687695 2.900940 0.013163 -0.007834 1202490.000000 1 0 0
-16.131598 -4.996223 5.100685 17.641080 0.300347 1.277471 0.029039 -0.007549 873857.000000 1 0 0
-8.977298 7.241777 5.713285 12.871552 -0.678799 1.110884 -0.003496 -0.003888 -3040100.000000 1 0 0
-12.874098 1.477377 6.068985 14.309354 -0.114256 1.132799 0.008107 -0.004871 323620.000000 1 0 0
-3.605498 3.633277 10.169485 11.385023 -0.789236 0.466309 -0.001967 0.000014 426989.000000 1 0 0
2.119802 -12.261223 -1.113815 12.492867 -1.399602 1.660071 0.003394 -0.001740 -3380210.000000 1 0 0
10.358702 -5.110623 -3.587015 12.094951 -0.458326 1.871897 0.013852 -0.003170 726387.000000 1 0 0
3.172002 -13.436823 0.931885 13.837565 -1.338973 1.503401 0.006865 -0.003013 502886.000000 1 0 0
10.170402 -1.470223 -6.130115 11.965657 -0.143564 2.108668 0.007721 -0.001764 181469.000000 1 0 0
11.951402 -5.402723 -1.507115 13.202152 -0.424564 1.685203 0.018114 -0.004553 -394971.000000 1 0 0
1.409702 0.869577 5.847785 6.077829 0.552718 0.276011 -0.000527 0.000732 422445.000000 1 0 0
-10.760598 11.622577 6.525385 17.130541 -0.823889 1.180004 0.002866 -0.004577 -543342.000000 1 0 0
4.744502 -14.060723 3.105785 15.161139 -1.245364 1.364484 0.009415 -0.004024 -2850210.000000 1 0 0
5.233602 -3.457423 -1.732115 6.507272 -0.583805 1.840226 0.007860 -0.001803 -1314720.000000 1 0 0
2.063102 -2.838623 -7.731615 8.490703 -0.942311 2.715524 0.004702 -0.005093 -119163.000000 1 0 0
-2.814398 14.826877 -8.803715 17.471764 -1.383211 2.098884 0.016833 -0.002059 -1361070.000000 1 0 0
-2.324198 6.036477 -8.143415 10.399816 -1.203265 2.470326 0.012706 -0.005207 -377382.000000 1 0 0
2.632702 -3.558823 -11.357815 12.190009 -0.933876 2.769948 0.003191 -0.003411 -350502.000000 1 0 0
14.617702 2.850277 -2.632615 15.123887 0.192572 1.745758 0.007087 0.003727 543652.000000 1 0 0
-3.382298 13.241877 2.154885 13.835851 -1.320719 1.414413 -0.003728 0.002639 -884968.000000 1 0 0
7.837502 -5.084023 13.964085 16.800874 -0.575446 0.589620 0.010233 -0.002774 -1591800.000000 1 0 0
-11.499698 7.284077 2.904085 13.918856 -0.564627 1.360608 0.002893 -0.005326 941030.000000 1 0 0
-2.298898 11.834977 3.962485 12.690662 -1.378939 1.253250 -0.003152 0.003634 -93321.000000 1 0 0
1.767502 1.392977 0.623985 2.335338 0.667446 1.300318 0.000295 0.001599 -1310320.000000 1 0 0
-6.912898 8.558577 5.304285 12.213633 -0.891368 1.121544 -0.002061 -0.000893 -746513.000000 1 0 0
-1.104598 9.080577 1.002685 9.202304 -1.449747 1.461619 -0.000213 0.001248 624922.000000 1 0 0
4.903602 13.016477 -8.527015 16.315146 1.210516 2.120746 0.008821 -0.008972 -2469730.000000 1 0 0
8.928502 6.927677 7.179485 13.388646 0.659876 1.004824 0.000910 -0.001724 -1360740.000000 1 0 0
7.181302 -13.734423 2.977085 15.781904 -1.089021 1.381020 0.019382 -0.002179 -490704.000000 1 0 0
4.227902 -13.334623 -1.314815 14.050483 -1.263761 1.664511 0.001982 0.000912 -2902380.000000 1 0 0
12.291002 -11.793623 -4.396915 17.592360 -0.764750 1.823408 0.035000 -0.005943 -372743.000000 1 0 0
3.199202 -0.063223 -2.120415 3.838626 -0.019760 2.156024 0.006527 0.000887 785247.000000 1 0 0
-13.575898 -3.239223 -10.761815 17.624252 0.234222 2.227646 0.012433 -0.005346 150409.000000 1 0 0
-6.573698 13.608177 5.006285 15.920392 -1.120784 1.250911 0.008591 -0.001337 199862.000000 1 0 0
7.325002 -4.322523 -0.673515 8.531909 -0.533112 1.649819 0.004460 -0.000947 -1604910.000000 1 0 0
11.795202 2.044477 -7.302415 14.022551 0.171626 2.118540 0.006084 -0.001702 -998396.000000 1 0 0
-7.452598 -4.562323 9.604085 12.984393 0.549326 0.738226 0.012524 -0.003056 290231.000000 1 0 0
0.882302 2.780277 8.429085 8.919522 1.263505 0.333155 -0.002131 0.000485 -1981490.000000 1 0 0
1.649102 8.051377 -8.664515 11.942279 1.368768 2.382605 0.013058 -0.004077 -798260.000000 1 0 0
-8.597998 -2.047423 -5.518115 10.419554 0.233774 2.128916 0.008604 -0.003422 -935402.000000 1 0 0
6.644502 -0.467423 7.058285 9.705013 -0.070232 0.756442 0.000052 -0.000768 275189.000000 1 0 0
-10.924798 6.478677 7.174885 14.587784 -0.535275 1.056592 0.009094 -0.004771 412796.000000 1 0 0
-5.983398 11.028777 4.871485 13.459805 -1.073709 1.200461 -0.002971 0.000725 -239684.000000 1 0 0
6.169902 -1.266523 -6.920515 9.357633 -0.202462 2.403210 0.003641 -0.000753 -758340.000000 1 0 0
4.392802 -5.785023 11.421085 13.535301 -0.921344 0.566471 0.001564 0.000111 -882415.000000 1 0 0
-9.034398 -7.304523 2.628085 11.911475 0.679917 1.348331 0.012020 -0.001393 -2931680.000000 1 0 0
-1.294698 12.648077 -9.337915 15.774878 -1.468788 2.204271 0.019438 -0.001154 898396.000000 1 0 0
-4.697498 9.293377 -2.395315 10.685078 -1.102784 1.796892 0.002053 -0.001377 423281.000000 1 0 0
-3.255898 9.691077 -0.212215 10.225599 -1.246676 1.591551 0.003280 -0.000986 -571066.000000 1 0 0
-3.420698 10.703077 -6.322915 12.893265 -1.261457 2.083350 0.006726 0.001633 930662.000000 1 0 0
4.917802 -4.895423 0.308385 6.945865 -0.783118 1.526383 0.005667 -0.002200 -1090610.000000 1 0 0
-2.313298 2.943177 -10.806515 11.436539 -0.904659 2.808120 0.014612 -0.007337 -1996120.000000 1 0 0
-3.649898 12.080277 -2.274715 12.822994 -1.277380 1.749134 -0.000402 0.001170 -315631.000000 1 0 0
-0.234898 0.315477 0.004385 0.393347 -0.930773 1.559649 -0.001139 0.000372 -1144750.000000 1 0 0
-4.771298 -1.737423 0.036185 5.077916 0.349216 1.563670 0.001656 -0.001763 161901.000000 1 0 0
2.506602 2.482177 -2.429815 4.283487 0.780502 2.173961 0.005489 -0.000557 1897200.000000 1 0 0
6.060502 -9.726123 8.441885 14.233501 -1.013553 0.935893 0.004454 -0.002851 -29918.000000 1 0 0
-4.179998 -5.585723 6.533385 9.558127 0.928361 0.818192 0.007770 -0.002489 153014.000000 1 0 0
-6.401798 5.217277 -12.118515 14.664972 -0.683803 2.543406 0.008184 -0.003569 1166050.000000 1 0 0
-12.975498 3.067277 7.921785 15.508914 -0.232129 1.034694 0.011614 -0.003390 671596.000000 1 0 0
4.797802 -7.508023 -4.926215 10.181204 -1.002176 2.075849 0.001842 -0.004159 1150910.000000 1 0 0
-5.976998 2.376977 -1.076215 6.521715 -0.378511 1.736575 0.001874 -0.002544 -897052.000000 1 0 0
-6.834798 -2.780323 -14.625815 16.381671 0.386345 2.674355 0.015989 -0.003137 -256494.000000 1 0 0
2.774702 -6.174623 0.887485 6.827340 -1.148465 1.440438 0.003041 -0.000980 -265289.000000 1 0 0
4.638802 -7.925323 12.972885 15.894180 -1.041245 0.615987 0.006310 0.000920 -223176.000000 1 0 0
-10.101798 -1.659023 8.056185 13.026926 0.162777 0.904059 0.008716 -0.003086 -296830.000000 1 0 0
-4.461298 13.279377 -0.089415 14.009034 -1.246686 1.577179 -0.002895 0.002201 588681.000000 1 0 0
6.910202 2.258077 -4.429515 8.512955 0.315836 2.118029 0.004773 0.001788 -1466150.000000 1 0 0
5.060902 4.542677 0.060385 6.800904 0.731489 1.561917 0.004015 0.002738 -1006700.000000 1 0 0
-5.876298 12.278477 1.894985 13.743466 -1.124427 1.432473 -0.001677 0.000354 -139720.000000 1 0 0
6.640202 -7.211723 6.572385 11.802435 -0.826634 0.980187 0.005078 -0.004834 -1006840.000000 1 0 0
-0.439698 4.943577 7.724885 9.181837 -1.482086 0.571071 -0.006452 0.000320 -1425670.000000 1 0 0
-5.743498 -3.457223 -1.646915 6.903078 0.541842 1.811697 0.007644 -0.003291 -837142.000000 1 0 0
2.361702 -6.565923 -5.322215 8.775816 -1.225515 2.222402 -0.000549 -0.003335 15666.400000 1 0 0
-14.426698 -4.855123 -3.828915 15.695937 0.324631 1.817226 0.011167 -0.008347 216039.000000 1 0 0
-12.327598 -5.085523 -6.351115 14.770541 0.391263 2.015273 0.010164 -0.010898 -1957970.000000 1 0 0
-14.721598 -3.747623 -1.342215 15.250301 0.249272 1.658923 0.004226 -0.004309 473709.000000 1 0 0
11.720302 2.841977 8.855985 14.962312 0.237892 0.937399 0.010638 -0.005469 -728703.000000 1 0 0
8.808502 -6.491823 7.714485 13.388306 -0.635126 0.956712 0.008257 -0.010030 278876.000000 1 0 0
-8.895198 -1.660723 -9.821315 13.354429 0.184574 2.397105 0.005796 -0.003941 -232806.000000 1 0 0
-8.830698 5.111277 -3.887415 10.918717 -0.524691 1.934815 0.005819 -0.003758 -1263260.000000 1 0 0
-4.123798 -6.226823 3.997885 8.471252 0.985848 1.079311 0.007323 0.000593 -1186920.000000 1 0 0
-0.237098 -9.187523 3.639685 9.885044 1.544996 1.193723 0.005228 -0.003940 761517.000000 1 0 0
7.966902 -10.487523 3.364585 13.593384 -0.921144 1.320680 0.007446 -0.004636 -46590.600000 1 0 0
-0.051698 6.425377 9.665685 11.606619 -1.562751 0.586698 -0.007481 0.001294 755613.000000 1 0 0
0.038002 3.493277 -9.717415 10.326306 1.559918 2.796473 0.016739 -0.008241 211537.000000 1 0 0
4.380502 -3.127323 11.074885 12.313489 -0.620007 0.452377 -0.004430 0.001583 -2821130.000000 1 0 0
8.617902 -9.185223 1.319385 12.664017 -0.817254 1.466423 0.009814 -0.004523 -1328.650000 1 0 0
-0.229198 -0.422523 11.416285 11.426400 1.073767 0.042080 -0.000537 -0.000415 -1014550.000000 1 0 0
10.848202 5.992777 11.388685 16.831488 0.504700 0.827621 0.010460 -0.002258 147662.000000 1 0 0
-6.329598 -3.033323 -11.984615 13.888696 0.446893 2.611785 0.011703 -0.004360 607244.000000 1 0 0
-1.748998 2.817977 8.387685 9.019603 -1.015326 0.376548 -0.004051 0.000461 -132128.000000 1 0 0
-1.924898 13.325377 -6.838815 15.101003 -1.427335 2.040780 0.011826 -0.003377 645199.000000 1 0 0
7.616302 3.138077 9.735985 12.753234 0.390826 0.702216 -0.000958 -0.000157 309171.000000 1 0 0
6.511002 8.465077 -7.849415 13.253829 0.915145 2.204629 0.004746 -0.001293 -360745.000000 1 0 0
6.695602 -3.005223 -3.874915 8.299242 -0.421885 2.056578 0.008228 -0.002130 -2167120.000000 1 0 0
2.074002 8.204077 1.018485 8.523243 1.323183 1.451015 0.004384 0.002828 708950.000000 1 0 0
-17.697098 6.150177 6.178785 19.727882 -0.334468 1.252235 0.039608 -0.011841 -107250.000000 1 0 0
-14.971598 3.242377 -10.252315 18.432898 -0.213275 2.160598 0.042445 -0.003961 -136945.000000 1 0 0
-18.307198 0.210277 -4.521015 18.858348 -0.011486 1.812890 0.032277 -0.004178 475957.000000 1 0 0
-12.978398 7.900477 0.260885 15.196198 -0.546822 1.553628 0.005878 0.000834 -330311.000000 1 0 0
-12.776798 -4.561423 -12.943115 18.750397 0.342905 2.332679 0.029416 0.007938 -343597.000000 1 0 0
-17.372998 -0.712923 -8.624015 19.408837 0.041013 2.031228 0.035476 -0.017520 -568614.000000 1 0 0
-16.714098 -2.232123 -2.081415 16.990460 0.132762 1.693610 0.023361 -0.008535 -1126460.000000 1 0 0
-15.474198 4.123977 1.644185 16.098489 -0.260453 1.468485 0.016434 -0.001041 -496613.000000 1 0 0
-13.225598 5.904777 4.359185 15.125651 -0.419911 1.278452 0.010874 -0.004085 566440.000000 1 0 0
-10.001198 14.256577 2.800585 17.638516 -0.959055 1.411345 0.020637 -0.001112 90768.400000 1 0 0
-11.784598 2.457477 -6.512915 13.687002 -0.205587 2.066723 0.006936 0.000450 84590.800000 1 0 0
-15.811698 10.682577 3.819185 19.460561 -0.594170 1.373262 0.019182 -0.011063 1055100.000000 1 0 0
-12.873898 1.040877 -8.613215 15.524437 -0.080676 2.158939 0.010858 -0.004977 744163.000000 1 0 0
-12.224398 14.322377 4.031085 19.256584 -0.864264 1.359901 0.030879 -0.006412 -333221.000000 1 0 0
-10.546398 11.218677 -1.117915 15.438101 -0.816276 1.643273 0.008244 0.002511 -167403.000000 1 0 0
-17.551198 5.750677 8.812585 20.464029 -0.316628 1.125597 0.054309 -0.005773 356307.000000 1 0 0
-11.779698 12.305877 -9.246015 19.382588 -0.807241 2.068065 0.012214 -0.013224 131651.000000 1 0 0
-17.192198 -0.452723 2.943085 17.448163 0.026327 1.401310 0.024215 -0.007957 698899.000000 1 0 0
-13.121398 15.013677 -0.475815 19.945125 -0.852554 1.594655 0.041759 -0.001451 208538.000000 1 0 0
-16.990598 4.741277 -10.374415 20.464326 -0.272130 2.102440 0.069630 -0.012289 372243.000000 1 0 0
-12.023198 7.551577 -9.000415 16.810446 -0.560814 2.135785 0.013281 -0.000935 -114280.000000 1 0 0
-14.752698 13.554977 -2.027615 20.136800 -0.743113 1.671659 0.044175 -0.007854 243811.000000 1 0 0
-11.970998 10.604977 -5.407315 16.882221 -0.724964 1.896839 0.018473 -0.002004 1420460.000000 1 0 0
-17.723698 2.789677 -0.817415 17.960511 -0.156117 1.616324 0.018931 0.001982 -449049.000000 1 0 0
-9.431498 15.416977 0.683785 18.086014 -1.021774 1.532980 0.026439 -0.001878 82249.300000 1 0 0
-8.203598 13.297677 -3.646215 16.044380 -1.018029 1.800058 0.010430 0.001599 -1338490.000000 1 0 0
-18.093898 11.587077 2.527485 21.634179 -0.569587 1.453701 0.081421 0.000469 362736.000000 1 0 0
-8.109498 15.646077 -7.253015 19.057018 -1.092609 1.961237 0.045552 -0.021309 -111225.000000 1 0 0
-6.311998 15.372177 -5.355715 17.459348 -1.181175 1.882576 0.013385 0.001449 -179871.000000 1 0 0
-17.606298 5.276477 -0.273615 18.381997 -0.291175 1.585682 0.036828 0.004081 904397.000000 1 0 0
-5.579398 12.155477 -12.253615 18.139360 -1.140481 2.312475 -0.001686 -0.006679 172575.000000 1 0 0
-11.185498 3.608877 -11.452715 16.410486 -0.312095 2.343244 0.016053 -0.003246 207836.000000 1 0 0
-11.904398 11.069777 1.219185 16.301567 -0.749085 1.495937 0.014136 -0.002935 363842.000000 1 0 0
-13.021398 0.258277 -11.096315 17.109989 -0.019832 2.276446 0.012729 -0.005438 1237940.000000 1 0 0
-13.989498 -2.214223 -13.142515 19.321867 0.156975 2.318816 0.024043 -0.006932 -57700.100000 1 0 0
-18.707698 -2.140723 -3.658315 19.181865 0.113934 1.762689 0.030201 -0.006385 1030030.000000 1 0 0
-18.459098 4.893377 -5.231815 19.800387 -0.259133 1.838200 0.050176 -0.005756 942384.000000 1 0 0
-8.212598 15.457677 -2.230915 17.645496 -1.082427 1.697565 0.021499 -0.003629 -623666.000000 1 0 0
-15.925398 9.270977 -5.242315 19.158580 -0.527191 1.847959 0.025388 0.002373 -210243.000000 1 0 0
-18.334098 1.767277 2.011985 18.528640 -0.096096 1.461994 0.032509 -0.005432 1537290.000000 1 0 0
-15.642298 -2.702723 -8.618415 18.062760 0.171094 2.068191 0.015324 -0.013651 -426314.000000 1 0 0
-9.892198 10.433877 -7.301615 16.125600 -0.812041 2.040696 0.010883 -0.005458 339301.000000 1 0 0
-14.005998 12.036377 -7.777515 20.038266 -0.709910 1.969401 0.039850 -0.012516 479852.000000 1 0 0
-11.094298 6.462677 -3.815415 13.394291 -0.527469 1.859650 0.000924 0.000900 -1228340.000000 1 0 0
-13.224798 4.790777 -12.672715 18.932632 -0.347552 2.304141 0.046921 -0.011465 183624.000000 1 0 0
-17.596598 9.078477 2.701285 19.983892 -0.476304 1.435208 0.031079 -0.009667 657454.000000 1 0 0
-13.448698 8.717577 -6.537115 17.308885 -0.575116 1.958079 0.016151 -0.002428 -835254.000000 1 0 0
-15.753198 7.093377 -3.817415 17.693273 -0.423088 1.788261 0.013441 0.006980 -672936.000000 1 0 0
-14.992298 -0.234023 -9.387615 17.690424 0.015608 2.130176 0.024921 -0.012393 301287.000000 1 0 0
-10.111298 5.826377 -6.041615 13.141010 -0.522754 2.048513 0.005920 -0.000113 474667.000000 1 0 0
-12.701498 12.431377 -0.909615 17.795915 -0.774651 1.621932 0.023621 -0.000570 -1366920.000000 1 0 0
-10.801298 3.372677 -14.044115 18.035525 -0.302655 2.463374 0.030951 -0.001340 313300.000000 1 0 0
-11.139898 6.180477 -11.905815 17.436859 -0.506525 2.322379 0.018640 -0.003826 -403993.000000 1 0 0
-5.759398 11.450877 -14.812415 19.588285 -1.104779 2.428263 0.011875 -0.010531 -416195.000000 1 0 0
-15.715098 13.310277 3.536485 20.895801 -0.702735 1.400734 0.028528 -0.009377 449010.000000 1 0 0
-14.874998 11.041477 -2.923015 18.754301 -0.638545 1.727293 0.027457 0.003418 809593.000000 1 0 0
-18.133698 7.997277 -4.597715 20.345182 -0.415359 1.798751 0.035093 -0.001585 671813.000000 1 0 0
-4.092398 16.207677 -10.575515 19.780749 -1.323468 2.134874 0.030364 -0.005022 -8347.480000 1 0 0
-15.858198 4.507977 -4.499815 17.089548 -0.276962 1.837246 0.020728 0.004408 -592212.000000 1 0 0
-18.505898 -1.906023 -6.184515 19.604832 0.102634 1.891736 0.023578 -0.009616 101747.000000 1 0 0
-10.879998 8.595977 -5.872915 15.058430 -0.668658 1.971437 0.006777 0.000003 249404.000000 1 0 0
-11.248398 13.477077 -6.983615 18.892563 -0.875292 1.949427 0.020250 -0.007343 503588.000000 1 0 0
-9.411298 10.608577 -4.672415 14.931373 -0.845132 1.889069 -0.000529 0.003194 -732456.000000 1 0 0
-10.985698 6.375877 -0.138015 12.702615 -0.525868 1.581662 0.002338 0.001365 -958419.000000 1 0 0
-14.695098 9.148677 -1.238415 17.354477 -0.556848 1.642217 0.028082 0.002965 -170277.000000 1 0 0
-18.724198 3.448077 4.788385 19.631950 -0.182111 1.324403 0.037875 -0.003699 450727.000000 1 0 0
-14.611498 13.275177 0.576785 19.749909 -0.737515 1.541588 0.022037 0.001222 -310536.000000 1 0 0
-17.192498 2.550577 -9.023515 19.583444 -0.147280 2.049662 0.053451 -0.012060 -147005.000000 1 0 0
-9.223498 8.471677 -9.041315 15.446282 -0.742936 2.196095 0.013812 -0.000094 -1338310.000000 1 0 0
-17.838398 4.666777 -2.752815 18.643102 -0.255879 1.718997 0.031955 0.002426 1313470.000000 1 0 0
-13.584598 5.972777 -4.458015 15.494814 -0.414233 1.862631 0.009750 0.004783 -1281790.000000 1 0 0
-12.225498 9.625077 3.350385 15.916344 -0.666946 1.358710 0.004316 -0.005692 952773.000000 1 0 0
-17.604198 2.627777 -4.193715 18.286614 -0.148176 1.802188 0.022845 -0.000096 1045160.000000 1 0 0
-11.246198 1.338677 -12.710815 17.024508 -0.118476 2.413761 0.017361 -0.001305 -11932.700000 1 0 0
-11.052498 11.973477 3.481985 16.662716 -0.825374 1.360276 0.009516 -0.004644 151548.000000 1 0 0
-16.538798 12.854377 -3.829115 21.293872 -0.660699 1.751602 0.063623 -0.011001 -76184.100000 1 0 0
-11.113798 4.036277 -4.570315 12.676586 -0.348365 1.939635 0.002544 0.000936 126406.000000 1 0 0
-11.533398 14.967877 -8.981115 20.921689 -0.914277 2.014484 0.046265 -0.013890 403972.000000 1 0 0
-15.479098 6.926077 0.001185 16.957978 -0.420729 1.570726 0.021336 0.005154 1133050.000000 1 0 0
-12.710698 8.404077 -3.955915 15.742923 -0.584195 1.824801 0.010257 0.002204 580708.000000 1 0 0
-19.212798 1.980977 -6.170615 20.276400 -0.102744 1.880026 0.045377 -0.007324 538082.000000 1 0 0
-13.026998 9.951077 -8.940415 18.672377 -0.652326 2.070089 0.024794 -0.012093 619131.000000 1 0 0
-16.530098 10.932877 -0.799115 19.834579 -0.584342 1.611096 0.027713 0.000513 345632.000000 1 0 0
-10.795198 6.398477 -14.457615 19.144175 -0.535046 2.426750 0.036421 -0.012847 175081.000000 1 0 0
-14.043898 12.980677 -4.543915 19.656455 -0.746076 1.804073 0.039362 0.001212 661908.000000 1 0 0
-17.911598 7.874477 -0.166315 19.566819 -0.414197 1.579296 0.034827 0.001159 -122803.000000 1 0 0
-12.885098 6.604777 -1.998715 14.616556 -0.473669 1.707969 0.003105 0.004275 887496.000000 1 0 0
-13.851198 8.217977 -10.805615 19.394643 -0.535482 2.161739 0.025359 -0.005673 -197615.000000 1 0 0
-15.027198 1.539377 -0.954615 15.135972 -0.102083 1.633908 0.013825 -0.004290 -1091620.000000 1 0 0
-13.396098 2.859177 -2.504115 13.924832 -0.210278 1.751611 0.005398 0.001048 720763.000000 1 0 0
-11.461598 9.392677 -10.851615 18.367040 -0.686513 2.202871 0.016432 -0.006566 -154300.000000 1 0 0
-15.768198 4.458877 -8.003915 18.236785 -0.275582 2.025158 0.040052 -0.002080 286454.000000 1 0 0
-18.209998 10.393677 4.881885 21.528246 -0.518648 1.342040 0.060681 -0.019461 69053.300000 1 0 0
-15.381398 6.300877 -6.239515 17.754436 -0.388791 1.929899 0.023458 0.002762 751813.000000 1 0 0
-7.851198 11.200077 -13.256615 19.047858 -0.959403 2.340557 0.003504 -0.001949 -596086.000000 1 0 0
-16.813398 9.388977 -2.819415 19.462589 -0.509286 1.716171 0.033331 0.003049 161075.000000 1 0 0
-20.660798 -0.902923 -4.991815 21.274446 0.043674 1.807644 0.046567 -0.011648 921525.000000 1 0 0
-15.499998 4.319677 4.170685 16.622400 -0.271792 1.317179 0.021164 -0.002605 233807.000000 1 0 0
-6.958298 12.516377 -9.383915 17.121200 -1.063408 2.150872 0.009962 -0.009838 -1766230.000000 1 0 0
-17.244498 1.461077 5.712385 18.224676 -0.084525 1.251980 0.033880 -0.007570 444822.000000 1 0 0
-10.373298 14.213177 -2.886915 17.831265 -0.940325 1.733414 0.034368 -0.008937 321157.000000 1 0 0
-10.072998 8.389377 -12.853215 18.358978 -0.694458 2.346341 0.004516 -0.008157 513068.000000 1 0 0
-13.670898 11.819677 2.907185 18.304370 -0.712902 1.411296 0.021467 -0.005322 -434707.000000 1 0 0
-17.129098 6.567777 1.958885 18.449361 -0.366139 1.464420 0.035771 0.001354 880272.000000 1 0 0
-9.374998 13.428177 -8.649915 18.521003 -0.961307 2.056728 0.022058 -0.012477 117644.000000 1 0 0
-5.653798 9.702277 -12.998115 17.177038 -1.043173 2.429069 0.004239 -0.003550 -340016.000000 1 0 0
-15.963198 1.900777 3.137585 16.379288 -0.118514 1.378047 0.017875 -0.002678 -1120730.000000 1 0 0
-18.696998 -4.884923 4.419985 19.823634 0.255555 1.345941 0.056138 -0.015000 -232792.000000 1 0 0
-5.356298 14.471877 -9.075115 17.902036 -1.216313 2.102418 0.012618 -0.004735 -329363.000000 1 0 0
-15.424898 -0.793123 -6.889815 16.912306 0.051373 1.990385 0.017544 -0.006481 595341.000000 1 0 0
-8.994898 11.028977 -9.607415 17.171167 -0.886634 2.164589 0.005603 -0.008341 185534.000000 1 0 0
-16.641698 1.353677 -6.202915 17.811646 -0.081164 1.926501 0.010564 -0.001062 -563161.000000 1 0 0
-11.296098 8.736677 -1.460315 14.354925 -0.658325 1.672702 0.000028 0.002456 -942218.000000 1 0 0
-10.731298 10.974777 -12.667315 19.901441 -0.796615 2.260751 0.019029 -0.007856 -471866.000000 1 0 0
-14.211398 11.793577 -10.237015 21.115132 -0.692689 2.076952 0.059127 -0.019367 -13153.000000 1 0 0
-13.371198 5.532877 -7.691115 16.387646 -0.392338 2.059321 0.016055 0.003461 -312955.000000 1 0 0
-8.966498 15.523477 -4.760315 18.548235 -1.047004 1.830346 0.029992 -0.007879 1256960.000000 1 0 0
-8.710198 6.117377 -12.832315 16.672078 -0.612284 2.449150 0.012427 -0.006597 -989027.000000 1 0 0
-16.494898 7.440377 4.337085 18.607826 -0.423745 1.335554 0.033556 -0.003934 462947.000000 1 0 0
-12.784898 5.320877 -10.196015 17.196630 -0.394380 2.205461 0.017118 0.000837 613348.000000 1 0 0
-12.559298 9.213077 -13.287715 20.473889 -0.632900 2.277076 0.048673 -0.017247 272725.000000 1 0 0
-10.851198 5.204977 -8.442315 14.700782 -0.447250 2.182517 0.006488 0.001579 151594.000000 1 0 0
-17.831698 -4.458523 -2.792515 18.591558 0.245010 1.721570 0.036172 -0.008891 594563.000000 1 0 0
-8.727898 13.204577 -11.114315 19.340762 -0.986744 2.182982 0.023778 -0.009820 466460.000000 1 0 0
-15.090098 6.039877 6.122385 17.368787 -0.380726 1.210562 0.024115 -0.009149 -337312.000000 1 0 0
-16.381998 -3.169923 -4.509515 17.284502 0.191138 1.834750 0.022873 -0.008373 -571602.000000 1 0 0
-11.183098 -1.296623 -12.455715 16.789513 0.115429 2.406658 0.009973 -0.001804 -121922.000000 1 0 0
-15.423598 6.898477 -8.669315 18.990350 -0.420579 2.044867 0.025445 0.000874 -114816.000000 1 0 0
-14.834898 9.067577 1.389285 17.442055 -0.548638 1.491060 0.024045 -0.003768 -319454.000000 1 0 0
-19.783898 5.369177 7.474685 21.819753 -0.265008 1.221151 0.060929 -0.011887 523601.000000 1 0 0
-16.218398 0.538177 0.974185 16.256541 -0.033171 1.510835 0.016536 -0.004985 -940527.000000 1 0 0
-17.684298 3.698577 7.140485 19.426796 -0.206173 1.194414 0.039186 -0.002110 585875.000000 1 0 0
-15.535698 4.053977 -1.550615 16.130625 -0.255254 1.667074 0.013724 0.001813 -1179140.000000 1 0 0
-10.730798 13.281977 0.468585 17.081584 -0.891244 1.543361 0.023258 -0.006943 -2087850.000000 1 0 0
-13.569398 3.395977 0.032785 13.987934 -0.245230 1.568453 0.011038 -0.001156 -239688.000000 1 0 0
-15.220298 0.221677 -4.332815 15.826557 -0.014564 1.848106 0.014257 -0.001416 -1162810.000000 1 0 0
-19.052098 7.027077 3.568685 20.617899 -0.353355 1.396833 0.048928 -0.009037 -22822.500000 1 0 0
-14.051698 1.432277 -6.334215 15.479791 -0.101578 1.992365 0.010183 0.001474 12423.400000 1 0 0
-14.300398 12.223477 5.377485 19.566096 -0.707254 1.292376 0.020081 -0.006369 246805.000000 1 0 0
17.802002 5.477977 6.490485 19.724246 0.298521 1.235487 0.048041 -0.009901 -1160950.000000 1 0 0
18.426802 7.740677 -0.084115 19.986800 0.397694 1.575005 0.025318 -0.002547 592776.000000 1 0 0
16.598402 5.382177 8.709385 19.502004 0.313561 1.107847 0.047048 -0.005906 318891.000000 1 0 0
11.538502 12.332177 11.033385 20.173130 0.818635 0.992098 0.020188 -0.007346 614028.000000 1 0 0
-2.256398 16.256877 -0.517415 16.420874 -1.432881 1.602311 0.001181 -0.002470 -71079.700000 1 0 0
15.202902 12.668977 3.304685 20.063702 0.694734 1.405333 0.048603 -0.005205 445032.000000 1 0 0
13.351002 11.720877 6.738185 19.000825 0.720472 1.208282 0.029488 -0.004903 547771.000000 1 0 0
-0.626498 15.931877 8.638385 18.133916 -1.531493 1.074279 -0.001750 0.001141 475259.000000 1 0 0
0.694502 12.958677 9.299985 15.965568 1.517254 0.948992 -0.006499 0.001101 -617446.000000 1 0 0
0.689802 15.526077 -3.937515 16.032434 1.526397 1.818932 0.007282 0.000210 -789366.000000 1 0 0
5.163802 10.207577 13.713285 17.858154 1.102456 0.695239 0.009309 -0.006527 526155.000000 1 0 0
-1.445498 16.468877 -2.892115 16.783257 -1.483249 1.743982 0.002940 0.001196 -759932.000000 1 0 0
8.635502 10.158277 3.393185 13.757768 0.866247 1.321587 0.004047 0.003361 518416.000000 1 0 0
12.547002 13.763877 -4.990915 19.281618 0.831615 1.832621 0.054616 -0.015768 254081.000000 1 0 0
2.330602 11.568277 7.724385 14.104002 1.371993 0.991215 -0.002935 0.004619 -50592.500000 1 0 0
-0.280398 14.697577 -8.492515 16.977050 -1.551721 2.094667 0.020133 -0.006077 -2025550.000000 1 0 0
2.317302 16.075277 0.192885 16.242587 1.427629 1.558921 0.009452 -0.005574 -542434.000000 1 0 0
1.783302 13.386577 5.243685 14.487127 1.438360 1.200432 0.001817 0.002370 65027.200000 1 0 0
17.371202 9.269277 -1.911915 19.782153 0.490165 1.667596 0.007544 -0.004859 239066.000000 1 0 0
-7.158498 14.880877 7.293885 18.052295 -1.122420 1.154865 0.011933 -0.008626 -1426470.000000 1 0 0
8.534302 15.961477 -0.131815 18.100288 1.079790 1.578079 0.014303 -0.010728 136428.000000 1 0 0
15.666902 10.336177 2.257285 18.904595 0.583196 1.451107 0.030930 -0.005316 -277497.000000 1 0 0
14.091302 7.464477 8.776185 18.201775 0.487142 1.067677 0.036192 -0.008475 -606747.000000 1 0 0
4.215602 18.354177 -1.854315 18.923150 1.345031 1.668946 0.028860 -0.026899 -970941.000000 1 0 0
-0.404398 17.558277 -4.974515 18.253833 -1.547769 1.846806 0.016397 0.000259 21695.900000 1 0 0
1.390502 13.756377 -0.643115 13.841423 1.470058 1.617276 0.003544 -0.003075 -422469.000000 1 0 0
10.360402 14.836177 4.224185 18.582083 0.961199 1.341466 0.020857 -0.003852 617996.000000 1 0 0
-1.548298 15.303377 -5.264215 16.257384 -1.469966 1.900544 0.013489 0.001831 263468.000000 1 0 0
15.052102 8.690477 -6.199215 18.453196 0.523606 1.913402 0.028097 -0.010994 -130268.000000 1 0 0
-2.410298 18.454277 0.857585 18.630763 -1.440922 1.524749 0.004584 -0.007373 -1227370.000000 1 0 0
-3.860998 19.363277 3.623685 20.074235 -1.373980 1.389287 0.011277 -0.011329 15956.500000 1 0 0
1.839702 17.682077 -2.785115 17.994366 1.467126 1.726198 0.011867 -0.007853 -85659.400000 1 0 0
2.878802 12.264777 3.189385 12.995554 1.340249 1.322842 0.000838 0.003780 -5359.760000 1 0 0
-2.503498 16.100877 1.856885 16.399810 -1.416543 1.457327 -0.000809 -0.006051 -1160310.000000 1 0 0
11.965202 12.907577 -2.638215 17.796960 0.823268 1.719584 0.025560 -0.001231 676233.000000 1 0 0
7.181702 11.874677 4.657685 14.638266 1.026861 1.246981 0.004560 0.004393 12520.500000 1 0 0
7.163202 15.844177 1.994685 17.502233 1.146195 1.456581 0.012998 -0.007793 -233061.000000 1 0 0
5.510002 12.131677 10.261085 16.817478 1.144469 0.914554 0.003338 0.002381 672436.000000 1 0 0
-1.234498 14.135277 3.221785 14.550256 -1.483683 1.347521 -0.004691 0.001462 -63968.500000 1 0 0
4.642502 16.116777 1.511585 16.840078 1.290335 1.480914 0.008077 -0.012618 -1566640.000000 1 0 0
7.231802 13.005177 12.037085 19.139619 1.063304 0.890647 0.015659 -0.003096 198815.000000 1 0 0
0.612902 16.856977 -9.637215 19.427024 1.534453 2.089866 0.026407 -0.007021 581490.000000 1 0 0
9.688002 9.681377 15.392785 20.603987 0.785056 0.727141 0.022938 -0.013488 -70013.000000 1 0 0
13.479202 7.646177 0.026185 15.496890 0.515996 1.569107 -0.003054 0.005551 -149478.000000 1 0 0
12.468302 13.652077 -0.057015 18.488943 0.830687 1.573880 0.027043 -0.003349 723798.000000 1 0 0
9.409602 12.517477 3.435785 16.032232 0.926197 1.354816 0.009632 0.006556 546493.000000 1 0 0
-0.504598 12.877277 0.818285 12.913113 -1.531631 1.507385 0.004062 -0.001578 -1382090.000000 1 0 0
15.878102 7.381077 -0.890415 17.532463 0.435142 1.621605 0.010370 -0.000146 -340137.000000 1 0 0
-4.121498 18.496677 -2.305515 19.090029 -1.351554 1.691863 0.010205 0.000448 -53023.400000 1 0 0
11.708802 9.512677 -3.193315 15.420257 0.682279 1.779392 0.011278 0.001026 247744.000000 1 0 0
14.683602 9.794477 7.900485 19.337983 0.588258 1.149934 0.036325 -0.007190 81663.500000 1 0 0
4.339602 13.794177 4.743785 15.218901 1.266002 1.253811 0.003722 0.004051 -188167.000000 1 0 0
2.111802 16.018177 5.640885 17.113190 1.439714 1.234893 0.003620 0.001364 120694.000000 1 0 0
6.207702 18.375777 5.463085 20.150683 1.245013 1.296249 0.027556 -0.020359 -533298.000000 1 0 0
10.648702 17.201277 -0.921915 20.251635 1.016477 1.616335 0.039092 -0.018982 -826125.000000 1 0 0
9.994002 13.714477 -4.328215 17.512864 0.941055 1.820529 0.031829 -0.006767 1868480.000000 1 0 0
16.567902 7.894177 2.380985 18.506282 0.444650 1.441781 0.014871 -0.001611 49308.700000 1 0 0
3.933802 14.114377 -0.487815 14.660437 1.298985 1.604077 0.004801 -0.003926 -518286.000000 1 0 0
5.607902 13.329477 -2.294115 14.641943 1.172561 1.728126 0.005748 0.000113 -95694.800000 1 0 0
-6.216798 17.009877 -2.907415 18.342234 -1.220396 1.729977 0.017885 0.003697 -646316.000000 1 0 0
18.227102 9.808877 2.671785 20.870547 0.493698 1.442427 0.053809 -0.014194 625806.000000 1 0 0
7.914802 12.881677 9.435885 17.821830 1.019839 1.012836 0.010869 -0.001251 -414755.000000 1 0 0
-2.549698 15.679277 6.714385 17.245975 -1.409592 1.170892 -0.007141 -0.002341 -604874.000000 1 0 0
11.099002 16.168477 6.394385 20.627546 0.969216 1.255611 0.024882 -0.002430 285971.000000 1 0 0
13.555402 11.915077 1.418285 18.103301 0.721086 1.492372 0.026995 -0.002339 616268.000000 1 0 0
17.439402 7.775277 -5.681915 19.921642 0.419394 1.860025 0.021342 0.009205 -469427.000000 1 0 0
9.382202 9.282577 8.094385 15.482604 0.780061 1.020658 0.009099 -0.001346 -629583.000000 1 0 0
-2.085098 14.103377 -1.948115 14.389164 -1.424016 1.706601 0.003315 -0.000791 629925.000000 1 0 0
10.953302 11.686077 0.755785 16.034663 0.817754 1.523644 0.010072 0.006435 -39827.700000 1 0 0
11.794402 9.793777 -0.545315 15.340253 0.692990 1.606352 0.004950 0.006022 -1449780.000000 1 0 0
-0.412298 16.229677 11.246085 19.749603 -1.545398 0.964980 0.004285 0.003786 -459720.000000 1 0 0
2.243002 19.917577 -1.398015 20.092172 1.458655 1.640433 0.043127 -0.030300 -817792.000000 1 0 0
9.434902 14.480077 1.822085 17.378435 0.993312 1.465756 0.016749 -0.001619 -224079.000000 1 0 0
8.471902 11.804877 -5.108415 15.402083 0.948315 1.908870 0.011774 -0.001206 -418847.000000 1 0 0
10.587802 10.055877 10.331285 17.887360 0.759637 0.955042 0.012537 -0.003420 99232.300000 1 0 0
-5.089998 15.729877 5.848585 17.536906 -1.257842 1.230781 -0.006258 -0.003046 708496.000000 1 0 0
14.367802 9.183777 -1.870615 17.154437 0.568739 1.680059 0.017446 -0.000802 -779512.000000 1 0 0
12.166102 9.518577 7.108285 17.004266 0.663908 1.139521 0.016384 -0.003952 -1763820.000000 1 0 0
3.166902 12.861477 9.706485 16.421410 1.329368 0.938390 -0.000055 -0.000445 -427368.000000 1 0 0
8.472602 12.701977 -2.589115 15.486404 0.982542 1.738771 0.011213 -0.001699 -529740.000000 1 0 0
9.470302 17.155177 2.020085 19.699428 1.066390 1.468070 0.018587 -0.007616 158769.000000 1 0 0
9.610702 14.433077 -7.576615 18.923118 0.983338 1.982738 0.037488 -0.014005 2053810.000000 1 0 0
6.273602 11.438477 7.191085 14.896595 1.069133 1.067023 0.002894 0.000462 -719712.000000 1 0 0
5.361502 17.043377 -5.459015 18.682164 1.266018 1.867328 0.024271 -0.008419 -1490990.000000 1 0 0
-4.242098 17.210277 -4.653215 18.325977 -1.329127 1.827521 0.015794 0.001453 362073.000000 1 0 0
-0.280198 18.693077 -0.655315 18.706659 -1.555808 1.605835 0.004549 -0.003119 -534880.000000 1 0 0
6.393402 15.802077 -2.773915 17.270664 1.186337 1.732109 0.009824 -0.003169 753862.000000 1 0 0
-1.054098 20.604977 0.851685 20.649493 -1.519683 1.529540 0.017306 -0.015441 -14258.200000 1 0 0
-1.399898 18.836477 4.151685 19.339314 -1.496614 1.354436 0.001874 -0.012177 53673.100000 1 0 0
7.221502 13.892877 -4.317115 16.241909 1.091435 1.839831 0.011749 0.001421 -690731.000000 1 0 0
-1.095098 12.000177 7.641285 14.268592 -1.479792 1.005659 -0.004336 0.008288 466094.000000 1 0 0
7.598802 10.809577 10.825785 17.081755 0.958080 0.884388 0.007405 -0.004444 -269589.000000 1 0 0
1.571802 16.060977 -7.326015 17.722755 1.473242 1.996946 0.015919 -0.001856 -130519.000000 1 0 0
8.828602 7.310677 14.797485 18.717793 0.691622 0.659078 0.015399 -0.005588 177814.000000 1 0 0
11.394302 11.552177 -4.861515 16.938632 0.792278 1.861898 0.026168 -0.006072 -165171.000000 1 0 0
-3.353298 16.941177 4.479585 17.841378 -1.375384 1.317002 -0.004312 -0.004836 -84895.800000 1 0 0
4.014102 15.382977 -6.800215 17.291383 1.315544 1.974984 0.019215 -0.007234 -394582.000000 1 0 0
-4.497998 13.999677 9.504885 17.509020 -1.259921 0.996962 0.010529 -0.008746 -1493510.000000 1 0 0
6.309702 17.945677 0.587285 19.031673 1.232697 1.539933 0.012440 -0.014590 -297470.000000 1 0 0
9.869102 10.861177 -2.091415 14.823574 0.833218 1.712356 0.008975 0.001567 -512782.000000 1 0 0
7.191202 18.227777 -2.234115 19.721980 1.195024 1.684320 0.023570 -0.009008 -49682.200000 1 0 0
3.561202 10.259577 10.433685 15.059975 1.236698 0.805419 -0.003536 0.001456 355143.000000 1 0 0
-0.009498 18.618977 1.956085 18.721449 -1.570286 1.466122 0.009274 -0.012084 -238692.000000 1 0 0
-0.922698 17.027277 -7.489815 18.624631 -1.516660 1.984656 0.024616 0.000485 383592.000000 1 0 0
9.906702 8.771177 12.968485 18.527220 0.724678 0.795442 0.012405 -0.005830 -336028.000000 1 0 0
3.619302 11.565577 5.583985 13.343268 1.267513 1.139018 -0.003442 0.003904 485862.000000 1 0 0
13.049902 13.788177 8.298985 20.719240 0.812900 1.158685 0.035565 -0.015958 -100502.000000 1 0 0
-0.488798 17.404877 6.765985 18.680129 -1.542720 1.200167 -0.004209 -0.003423 -489377.000000 1 0 0
11.977202 13.691777 5.846585 19.107608 0.852095 1.259827 0.018457 -0.002217 241564.000000 1 0 0
4.788802 14.682077 -4.385115 16.053823 1.255510 1.847463 0.007992 -0.002395 -1406440.000000 1 0 0
3.852202 17.660977 4.739185 18.687146 1.356041 1.314389 0.017026 -0.009880 -664546.000000 1 0 0
7.118802 11.775277 2.009485 13.905845 1.027034 1.425782 0.007863 0.002106 1313900.000000 1 0 0
6.289502 8.767777 11.769185 15.967012 0.948525 0.742037 0.002116 -0.003781 793384.000000 1 0 0
-5.366398 14.872577 1.803385 15.913641 -1.224511 1.457229 0.002564 0.002352 86672.200000 1 0 0
6.666202 13.776577 6.133585 16.487971 1.120128 1.189630 0.006663 -0.000566 -1290170.000000 1 0 0
5.852602 15.870277 4.995585 17.637305 1.217492 1.283626 0.007112 -0.009761 741144.000000 1 0 0
1.228602 18.134977 4.231385 18.662569 1.503152 1.342076 0.010429 -0.006585 565118.000000 1 0 0
7.176602 18.275477 -6.860315 20.798091 1.196607 1.906944 0.020394 -0.009818 509642.000000 1 0 0
-2.461798 18.639177 -5.948015 19.719489 -1.439480 1.877200 0.030013 -0.004576 -741981.000000 1 0 0
13.599202 10.228177 -4.653815 17.641199 0.644854 1.837760 0.023490 -0.006404 -1154040.000000 1 0 0
-1.699498 18.073477 9.879285 20.667345 -1.477039 1.072404 0.011949 -0.003245 -931830.000000 1 0 0
3.465502 11.889177 -1.683715 12.497885 1.287171 1.705927 0.007105 -0.003829 779716.000000 1 0 0
4.330202 13.922577 -10.939915 18.228290 1.269260 2.214499 0.010313 -0.014351 -337660.000000 1 0 0
11.699802 13.429277 2.540485 17.991245 0.854113 1.429116 0.024620 -0.001548 575868.000000 1 0 0
15.720102 6.270677 -6.919615 18.284531 0.379554 1.958908 0.000735 -0.002632 -154305.000000 1 0 0
2.572602 16.211677 2.947085 16.676992 1.413420 1.393148 0.010866 -0.008583 -325820.000000 1 0 0
13.463802 10.706077 3.593985 17.573013 0.671792 1.364826 0.023377 0.004686 -957172.000000 1 0 0
-4.895298 19.561877 -5.746015 20.967777 -1.325585 1.848388 0.013205 -0.001481 567238.000000 1 0 0
5.362102 11.953077 0.060485 13.100834 1.149111 1.566179 0.009249 -0.000056 1310390.000000 1 0 0
4.535302 15.465677 9.729285 18.825916 1.285544 1.027684 0.008275 0.003387 -216836.000000 1 0 0
7.641002 9.519477 13.846985 18.459262 0.894429 0.722526 0.013166 -0.009284 -1573520.000000 1 0 0
-5.071198 13.455577 6.944885 15.968752 -1.210375 1.120864 -0.001071 -0.001530 -1625220.000000 1 0 0
-4.525598 17.047377 0.579285 17.647370 -1.311310 1.537965 0.006846 -0.004934 -3103590.000000 1 0 0
-0.506098 16.522077 3.493485 16.894958 -1.540174 1.362517 -0.002003 -0.006107 -1570860.000000 1 0 0
7.751002 17.241477 -4.590215 19.452934 1.148312 1.809008 0.014548 -0.007177 1158010.000000 1 0 0
3.000102 16.532877 -4.623615 17.427405 1.391287 1.839319 0.014986 -0.004486 -833484.000000 1 0 0
9.517002 14.319377 8.123585 19.016059 0.984209 1.129407 0.017615 -0.007233 484505.000000 1 0 0
12.739902 10.895377 9.259985 19.151022 0.707515 1.066120 0.029079 -0.010827 213219.000000 1 0 0
3.784302 12.297377 12.128485 17.681815 1.272261 0.814916 0.004420 -0.003623 709378.000000 1 0 0
-3.149898 19.040677 6.098285 20.240018 -1.406851 1.264742 0.001822 -0.011583 20586.300000 1 0 0
-2.674898 15.662577 10.215485 18.889879 -1.401645 0.999419 0.005793 -0.009462 -1110670.000000 1 0 0
2.024502 14.189177 7.606685 16.226306 1.429074 1.082879 -0.001279 -0.000843 -1041310.000000 1 0 0
4.388702 17.304577 7.868185 19.509419 1.322418 1.155674 0.020871 -0.005987 -231364.000000 1 0 0
-1.926898 13.484177 9.268785 16.475629 -1.428857 0.973299 -0.000420 -0.003329 -395048.000000 1 0 0
5.823902 17.726177 3.126185 18.918462 1.253359 1.404790 0.008692 -0.020285 543566.000000 1 0 0
7.325402 15.596977 -6.670115 18.477490 1.131707 1.940121 0.015898 -0.002016 388713.000000 1 0 0
10.877102 7.673177 9.455485 16.327743 0.614370 0.953165 0.009776 -0.006387 417828.000000 1 0 0
9.006702 16.285477 -2.674215 18.801300 1.065614 1.713516 0.022463 -0.016255 1200600.000000 1 0 0
14.867402 11.267977 -6.620215 19.794802 0.648537 1.911810 0.074827 -0.014562 449166.000000 1 0 0
10.991002 6.505877 16.160485 20.598297 0.534463 0.668819 0.034873 -0.013242 403511.000000 1 0 0
8.451602 8.483277 10.303885 15.797645 0.787269 0.860258 0.006987 -0.003914 -604120.000000 1 0 0
16.494102 9.263777 4.605785 19.470136 0.511737 1.331976 0.046407 -0.002748 288006.000000 1 0 0
-3.365998 14.242577 4.612185 15.344484 -1.338721 1.265500 -0.007758 0.004072 -1328380.000000 1 0 0
4.806102 14.624977 12.904485 20.087665 1.253291 0.873160 0.013584 0.004757 194644.000000 1 0 0
16.108002 10.408377 -4.476015 19.693571 0.573672 1.800083 0.050805 -0.026842 154592.000000 1 0 0
14.591202 13.890577 6.098685 21.048640 0.760804 1.276839 0.045210 -0.007868 -134081.000000 1 0 0
6.124102 9.530577 9.200885 14.594273 0.999659 0.888670 -0.000697 0.000054 1061800.000000 1 0 0
10.350102 11.999977 8.663385 18.060407 0.859084 1.070496 0.020367 -0.008192 -613279.000000 1 0 0
7.927702 11.498577 -0.358715 13.971199 0.967186 1.596474 0.004956 0.001297 -397348.000000 1 0 0
7.367002 13.811877 -8.672815 17.895765 1.080801 2.076736 0.015362 -0.002341 -756531.000000 1 0 0
2.685002 15.261377 -2.334915 15.670695 1.396644 1.720352 0.009181 -0.007375 130804.000000 1 0 0
12.100002 13.487277 -7.753915 19.708878 0.839563 1.975148 0.053711 -0.030578 -614652.000000 1 0 0
-8.188598 14.608577 9.745285 19.376126 -1.059902 1.043784 0.022937 -0.015324 302743.000000 1 0 0
11.501302 9.640977 2.282185 15.180143 0.697633 1.419884 0.014651 0.004054 -1937780.000000 1 0 0
12.061202 8.745977 4.612885 15.596263 0.627395 1.270536 0.013099 0.000761 231735.000000 1 0 0
14.038602 8.010277 6.169185 17.300454 0.518513 1.206180 0.022721 -0.004943 -1864370.000000 1 0 0
16.266402 7.510877 7.281085 19.339682 0.432575 1.184798 0.052057 -0.010624 837751.000000 1 0 0
13.544402 8.329477 2.511485 16.097781 0.551358 1.414142 0.011128 0.004119 -1826350.000000 1 0 0
-4.368398 17.369277 -7.220915 19.311041 -1.324405 1.954036 0.020424 -0.005126 288792.000000 1 0 0
3.231502 19.796577 -3.772815 20.410321 1.408988 1.756714 0.043646 -0.011400 474675.000000 1 0 0
-0.131398 14.837777 6.332985 16.133307 -1.561941 1.167404 -0.001923 0.001878 493546.000000 1 0 0
6.578402 16.077777 8.349785 19.274055 1.182417 1.122741 0.024303 -0.005203 -1494620.000000 1 0 0
12.798602 15.304277 -2.062215 20.056865 0.874324 1.673797 0.057827 -0.016447 -286322.000000 1 0 0
12.784702 15.732977 4.397885 20.744073 0.888416 1.357168 0.036274 -0.003721 82228.700000 1 0 0
2.995602 18.156777 1.281885 18.446827 1.407284 1.501249 0.023658 -0.015592 -574637.000000 1 0 0
10.424402 14.548477 -1.360915 17.949330 0.949063 1.646689 0.022032 -0.001849 -2250620.000000 1 0 0
-6.342098 15.735377 -0.561315 16.974669 -1.187666 1.603870 0.007484 -0.001007 -362080.000000 1 0 0
-3.936998 15.866177 -2.571715 16.548391 -1.327571 1.726835 0.010878 -0.002147 -1743890.000000 1 0 0
-6.768198 17.105777 1.697185 18.474213 -1.194031 1.478799 0.008524 0.003478 215996.000000 1 0 0
-0.094498 19.381777 -6.731115 20.517557 -1.565921 1.905052 0.036647 -0.003291 -24820.500000 1 0 0
4.665202 14.805677 7.152185 17.091692 1.265549 1.139048 0.010423 -0.003232 -1361290.000000 1 0 0
8.605002 12.307677 6.841185 16.502327 0.960636 1.143338 0.010835 -0.001670 -1393540.000000 1 0 0
-7.733898 17.604877 -5.655315 20.043140 -1.156872 1.856838 0.039159 -0.003590 449833.000000 1 0 0
-7.881998 17.805677 -1.227215 19.510871 -1.154057 1.633737 0.027095 -0.002694 456062.000000 1 0 0
-13.701498 -9.172723 9.197585 18.880293 0.589940 1.061970 0.037689 -0.012105 24730.700000 1 0 0
-12.534898 -12.977223 7.577085 19.568960 0.802734 1.173204 0.040987 -0.009656 263916.000000 1 0 0
-3.782798 -15.143823 12.481285 19.985680 1.326014 0.896291 0.020277 -0.014918 488253.000000 1 0 0
-2.099998 -14.109523 14.937385 20.654638 1.423045 0.762375 0.034932 -0.011589 -966269.000000 1 0 0
-7.165498 -13.657923 12.730085 19.998457 1.087631 0.880775 0.043497 -0.017082 689354.000000 1 0 0
-9.862398 -11.562323 8.931385 17.627361 0.864576 1.039470 0.025897 -0.007027 634822.000000 1 0 0
-10.811598 -10.768223 11.157585 18.903359 0.783388 0.939436 0.054089 -0.012999 333930.000000 1 0 0
-5.961698 -12.201723 10.744385 17.316630 1.116314 0.901459 0.023039 -0.011258 885337.000000 1 0 0
-12.372298 -10.446123 7.303785 17.763460 0.701185 1.147060 0.020599 -0.004943 -1086160.000000 1 0 0
-7.681298 -11.211523 12.475585 18.448328 0.970123 0.828143 0.030033 -0.012007 435663.000000 1 0 0
-14.765398 -11.526623 7.136385 20.045149 0.662831 1.206796 0.063470 -0.014305 -406089.000000 1 0 0
-11.046698 -9.126123 9.122885 16.986544 0.690478 1.003842 0.023205 -0.008026 -596585.000000 1 0 0
-5.212998 -11.965823 13.179285 18.548580 1.159934 0.780548 0.028126 -0.016155 17341.500000 1 0 0
4.310102 -12.488423 14.754885 19.805159 -1.238469 0.730258 0.001821 0.000528 54993.200000 1 0 0
6.830902 -12.580623 14.108285 20.099179 -1.073366 0.792688 0.027598 -0.005576 320752.000000 1 0 0
6.525102 -8.430723 16.207885 19.399731 -0.912132 0.581810 0.012345 -0.003571 -265162.000000 1 0 0
0.691102 -1.657223 14.550785 14.661151 -1.175701 0.122778 0.001041 -0.002994 -945554.000000 1 0 0
-0.247898 -6.374823 15.533185 16.792250 1.531929 0.389705 0.003090 -0.012208 -334175.000000 1 0 0
-1.538898 -4.723123 18.103185 18.772357 1.255821 0.267808 0.014352 -0.029850 -2060510.000000 1 0 0
-5.219998 12.615877 13.029585 18.872700 -1.178481 0.808764 0.014281 -0.007170 4999.330000 1 0 0
-4.210298 8.740277 11.614185 15.133022 -1.121886 0.695906 -0.005100 -0.001430 -310106.000000 1 0 0
-0.570998 -3.893523 15.114685 15.618555 1.425181 0.254700 0.001858 -0.003645 -496626.000000 1 0 0
-4.331698 9.295577 14.229485 17.539943 -1.134720 0.624489 -0.001580 -0.004760 478976.000000 1 0 0
-13.562198 -2.394623 16.864185 21.773106 0.174765 0.684806 0.021232 -0.002193 163419.000000 1 0 0
-0.278198 0.969477 17.230285 17.259780 -1.291348 0.058470 0.007080 -0.008433 -917476.000000 1 0 0
-3.251798 -7.356123 15.268885 17.257624 1.154571 0.484814 0.010600 -0.010785 290830.000000 1 0 0
-7.414698 5.561177 12.581885 15.627164 -0.643514 0.634903 0.004155 -0.001150 -1398670.000000 1 0 0
-9.866498 10.336877 13.226285 19.471349 -0.808676 0.824030 0.021414 -0.007426 -890583.000000 1 0 0
-5.550098 2.196577 11.090885 12.595089 -0.376857 0.493728 0.003039 -0.001182 -1479110.000000 1 0 0
-7.079498 -7.360923 16.862685 19.714274 0.804884 0.544562 0.021071 -0.010306 -372836.000000 1 0 0
-4.868198 2.961477 18.547485 19.403064 -0.546523 0.298070 0.014715 -0.016822 394114.000000 1 0 0
0.870302 -8.431023 16.532485 18.578553 -1.467935 0.473738 0.003767 -0.009728 587009.000000 1 0 0
-15.096098 -3.713123 13.922785 20.869197 0.241178 0.840426 0.028281 -0.010252 316198.000000 1 0 0
-14.486598 2.094877 12.968085 19.555594 -0.143612 0.845791 0.015319 0.000377 151074.000000 1 0 0
-5.513898 1.013577 15.985285 16.939886 -0.181793 0.337312 0.015877 -0.007245 306249.000000 1 0 0
4.294302 5.723277 15.095485 16.705406 0.927089 0.442629 -0.000997 -0.008803 -179699.000000 1 0 0
-0.989698 -12.049323 13.759885 18.316662 1.488843 0.720884 -0.001887 -0.007536 -264920.000000 1 0 0
-5.952298 -4.008923 16.612785 18.096572 0.592724 0.407770 0.016888 -0.012831 485365.000000 1 0 0
-12.945198 -1.618723 9.976485 16.423418 0.124399 0.917944 0.008351 0.001227 -770590.000000 1 0 0
-14.188798 10.424477 10.183685 20.339596 -0.633635 1.046409 0.007330 -0.002042 496762.000000 1 0 0
-3.530898 -3.440923 17.517885 18.198447 0.772493 0.274343 0.012156 -0.018841 -873535.000000 1 0 0
-7.988298 9.314677 11.799785 17.023837 -0.861905 0.804970 0.005521 -0.008047 128069.000000 1 0 0
-4.112098 10.622077 16.453385 20.011290 -1.201436 0.605522 -0.002493 -0.005028 350314.000000 1 0 0
-12.483098 12.743677 8.210085 19.637580 -0.795727 1.139465 0.009276 -0.012116 32041.500000 1 0 0
-12.714598 3.145777 10.474785 16.771346 -0.242544 0.896223 0.015584 -0.000530 665669.000000 1 0 0
-10.160498 -3.388523 13.633185 17.337287 0.321900 0.665917 0.016109 -0.004458 -1482990.000000 1 0 0
-4.259998 -6.464623 17.595385 19.223332 0.988141 0.414509 0.018018 -0.012728 -259714.000000 1 0 0
0.872902 -3.804423 18.018785 18.436708 -1.345256 0.213327 0.014277 -0.015050 -929937.000000 1 0 0
-5.927098 1.910677 13.625485 14.981155 -0.311845 0.428697 0.009986 -0.001565 -1267120.000000 1 0 0
-10.575598 8.574677 10.160985 16.988643 -0.681291 0.929662 0.017136 -0.010521 -126033.000000 1 0 0
4.535802 2.538777 17.200985 17.969217 0.510275 0.293465 0.010459 -0.010746 -1612130.000000 1 0 0
0.452602 -5.315623 13.212285 14.248690 -1.485856 0.383761 -0.002582 -0.002480 -1777870.000000 1 0 0
-3.962798 5.693977 20.810385 21.936209 -0.962785 0.321769 0.017262 -0.018718 -273516.000000 1 0 0
-10.813698 10.766277 8.931485 17.681069 -0.783201 1.041248 0.012564 -0.007518 -5171.270000 1 0 0
0.690602 4.184577 13.023185 13.696385 1.407236 0.314832 0.002135 -0.003348 -2033240.000000 1 0 0
-3.246798 7.106577 13.368785 15.484494 -1.142242 0.528893 -0.001639 -0.000329 -134438.000000 1 0 0
0.753202 8.918277 14.180785 16.768949 1.486540 0.563001 -0.004789 -0.004663 417154.000000 1 0 0
-4.094198 -6.728323 12.960985 15.166407 1.024149 0.546045 0.011625 -0.006712 257802.000000 1 0 0
-5.105198 8.180377 16.533785 19.140210 -1.012860 0.527984 0.009675 -0.003826 302290.000000 1 0 0
1.480902 -10.776223 15.758185 19.147857 -1.434229 0.604170 -0.006533 -0.000971 -243388.000000 1 0 0
-15.367298 -1.197423 14.215885 20.968525 0.077763 0.825808 0.029154 -0.006826 330457.000000 1 0 0
-13.758698 -5.392423 8.123185 16.863159 0.373529 1.068189 0.033993 -0.010358 -319108.000000 1 0 0
-14.408098 -2.203923 12.049285 18.911262 0.151788 0.880003 0.021222 -0.001528 419917.000000 1 0 0
9.306802 1.293877 16.981285 19.407594 0.138139 0.505399 0.025729 -0.006844 -1341060.000000 1 0 0
4.841002 -6.777523 16.999285 18.930024 -0.950555 0.455579 0.020089 -0.008579 -215775.000000 1 0 0
-6.012598 -2.718123 11.034985 12.857310 0.424575 0.538916 0.010616 -0.003305 458136.000000 1 0 0
0.506102 -6.358923 17.984585 19.082383 -1.491375 0.340851 0.015459 -0.022636 -405256.000000 1 0 0
-8.477098 11.942977 11.810585 18.814511 -0.953525 0.892152 0.010418 -0.014971 68086.900000 1 0 0
-6.770698 -5.806423 14.732285 17.221995 0.708879 0.544408 0.022288 -0.008540 -865887.000000 1 0 0
-4.368198 -8.965723 16.962085 19.676830 1.117432 0.531528 0.024107 -0.014433 92625.700000 1 0 0
2.365602 -6.225623 16.235885 17.548744 -1.207668 0.389266 0.011584 -0.013143 -377664.000000 1 0 0
2.093002 5.301177 16.155485 17.131340 1.194765 0.339153 -0.000864 -0.008374 -2431990.000000 1 0 0
0.876202 -8.875623 13.969185 16.573549 -1.472395 0.568220 -0.000526 -0.006288 -348471.000000 1 0 0
-10.010298 -2.866423 11.112985 15.228949 0.278885 0.752873 0.005263 -0.004410 -531948.000000 1 0 0
-1.247098 10.093077 12.364685 16.009712 -1.447860 0.688305 -0.007950 -0.002918 -260278.000000 1 0 0
-12.416398 -3.800823 11.286785 17.204787 0.297056 0.855255 0.014578 -0.002589 -757347.000000 1 0 0
-1.626498 6.584177 19.869185 20.994794 -1.328614 0.328937 0.011076 -0.019802 317288.000000 1 0 0
0.207502 -13.457223 15.699985 20.679203 -1.555378 0.708688 -0.006346 -0.007727 -835192.000000 1 0 0
4.029302 -8.683823 15.345785 18.086933 -1.136360 0.557754 0.010309 -0.006133 -150406.000000 1 0 0
4.404302 -4.493123 16.163585 17.344956 -0.795381 0.371209 0.018166 -0.006874 -589828.000000 1 0 0
8.083102 1.849877 14.781985 16.948913 0.224983 0.511218 0.003471 -0.002696 -184223.000000 1 0 0
-6.219298 -0.170223 11.858485 13.391501 0.027363 0.483177 0.010463 -0.004837 64959.000000 1 0 0
-3.200998 -10.743623 18.561885 21.684450 1.281227 0.543315 0.037791 -0.012502 84864.500000 1 0 0
3.247002 -1.554823 13.604985 14.073241 -0.446584 0.258685 -0.002121 -0.001135 -31414.700000 1 0 0
-2.615698 8.556877 15.973785 18.309118 -1.274133 0.510604 0.004005 -0.008757 -1405310.000000 1 0 0
-3.285398 4.023877 14.821185 15.705188 -0.886090 0.337116 0.000384 -0.002257 -239940.000000 1 0 0
-4.768098 -8.858223 19.558885 21.994382 1.077005 0.475056 0.042252 -0.018625 -36629.200000 1 0 0
-5.751798 -2.958923 18.926585 20.001350 0.475128 0.329311 0.018487 -0.017567 -686851.000000 1 0 0
-6.660798 -8.665723 10.956185 15.475754 0.915474 0.784194 0.018033 -0.009575 -1175520.000000 1 0 0
-11.844798 2.476377 12.723685 17.559153 -0.206100 0.760316 0.027544 -0.009372 -43081.400000 1 0 0
-11.630398 -7.745723 11.832185 18.310188 0.587534 0.868192 0.024606 -0.003150 -247727.000000 1 0 0
-11.112098 -7.209723 15.530185 20.411895 0.575543 0.706190 0.038294 -0.022279 -829712.000000 1 0 0
-0.018098 5.584477 17.644785 18.507435 -1.567556 0.306521 0.004774 -0.015227 -219803.000000 1 0 0
-2.197598 -0.100123 13.248685 13.430082 0.045529 0.164544 0.001685 -0.001560 354480.000000 1 0 0
-5.743698 -10.799123 18.237985 21.959854 1.081981 0.590765 0.047728 -0.005506 -1084570.000000 1 0 0
0.178502 2.631377 19.258485 19.438242 1.503064 0.136102 0.011192 -0.010313 -664002.000000 1 0 0
-0.785398 10.929877 14.791985 18.408745 -1.499062 0.637594 -0.002070 -0.005498 -641843.000000 1 0 0
-12.934698 -2.247323 14.249685 19.375510 0.172026 0.744468 0.020374 -0.006173 -979051.000000 1 0 0
-13.568098 8.373477 11.690085 19.770344 -0.552930 0.938134 0.011972 -0.006155 97895.200000 1 0 0
-18.145698 -0.651923 6.580985 19.313227 0.035912 1.223082 0.051630 -0.012745 -667373.000000 1 0 0
-2.052598 -7.911023 17.578185 19.385304 1.316934 0.435216 0.002825 -0.012538 -1635910.000000 1 0 0
5.614802 2.693277 14.487085 15.768810 0.447255 0.405975 0.004412 -0.004316 -1943210.000000 1 0 0
-13.976798 -6.896723 11.046785 19.103589 0.458387 0.954206 0.021222 -0.011683 614924.000000 1 0 0
3.141902 7.764577 16.321585 18.345417 1.186292 0.474148 0.000274 -0.018906 -88193.000000 1 0 0
0.999002 2.162577 14.611685 14.804596 1.138050 0.161610 0.000731 -0.007308 -2770720.000000 1 0 0
-14.474998 0.465177 9.742885 17.454677 -0.032126 0.978603 0.014699 0.001805 -2325090.000000 1 0 0
-9.503298 -5.032323 15.493685 18.859778 0.486995 0.606725 0.014679 -0.006454 -421010.000000 1 0 0
-2.542098 -0.119423 18.137885 18.315550 0.046944 0.139399 0.012107 -0.012391 -73254.600000 1 0 0
6.872202 3.712977 17.575185 19.232797 0.495357 0.418220 0.028453 -0.008863 -616679.000000 1 0 0
-4.212298 -0.699623 14.658885 15.268131 0.164588 0.283448 0.010925 -0.001610 -329774.000000 1 0 0
4.714702 -9.175523 17.872685 20.636169 -1.096142 0.523479 0.021058 -0.003019 -430081.000000 1 0 0
1.812302 6.853877 13.376985 15.139478 1.312293 0.487337 -0.003358 -0.006197 -1088630.000000 1 0 0
-3.809098 -0.869323 20.245085 20.618642 0.224380 0.190643 0.019163 -0.014378 -31871.500000 1 0 0
-10.738198 1.597477 16.207285 19.507355 -0.147683 0.590200 0.033541 -0.015947 -536313.000000 1 0 0
-3.806198 7.013277 18.492285 20.140452 -1.073565 0.407369 0.010858 -0.013760 266493.000000 1 0 0
-12.790298 1.006677 14.653585 19.476465 -0.078544 0.719138 0.029038 -0.008384 568774.000000 1 0 0
-16.155398 -4.597323 8.288085 18.730313 0.277240 1.112416 0.042302 -0.013709 -1747650.000000 1 0 0
-2.396598 0.858877 15.732285 15.936942 -0.344115 0.160433 0.006963 -0.003625 -24166.800000 1 0 0
-13.749998 -8.970823 12.600085 20.695416 0.578077 0.916206 0.036301 -0.018849 482140.000000 1 0 0
6.058302 -3.229223 14.554885 16.092718 -0.489717 0.440733 0.011026 -0.004566 960086.000000 1 0 0
-15.798998 0.283477 7.483085 17.483857 -0.017941 1.128518 0.025546 -0.005331 46917.100000 1 0 0
-14.072198 5.829077 12.362285 19.617109 -0.392710 0.889013 0.025631 -0.005606 -782674.000000 1 0 0
0.242602 9.367477 16.743685 19.187482 1.544904 0.510223 -0.004319 -0.017249 -682143.000000 1 0 0
-10.425798 -5.561023 10.792185 16.002921 0.490002 0.830660 0.015368 -0.007844 228399.000000 1 0 0
-3.086898 -11.339923 15.212585 19.223567 1.305021 0.657781 0.023756 -0.004993 -779484.000000 1 0 0
-3.555298 2.730577 12.619785 13.392355 -0.654941 0.341323 0.000563 0.000395 -2545360.000000 1 0 0
-12.497898 -7.848723 7.321185 16.474212 0.560756 1.110289 0.029939 -0.005670 894774.000000 1 0 0
-8.273198 -1.869823 13.109085 15.613781 0.222275 0.574279 0.014573 -0.006517 12666.800000 1 0 0
-9.796998 6.399877 9.491785 15.067633 -0.578656 0.889314 0.007970 -0.003961 -470740.000000 1 0 0
-17.943298 -3.455723 6.386385 19.356908 0.190262 1.234569 0.048609 -0.023306 762292.000000 1 0 0
-1.321498 -0.226423 20.540485 20.584196 0.169690 0.065181 0.018076 -0.010715 -1605130.000000 1 0 0
-2.799598 2.519577 20.280385 20.627167 -0.732803 0.183626 0.022532 -0.012480 -630580.000000 1 0 0
-3.802098 11.179377 11.195185 16.271650 -1.242969 0.812042 0.000725 -0.005659 -1114460.000000 1 0 0
-4.287498 -4.848623 14.813785 16.166014 0.846739 0.411921 0.011595 -0.010154 -174080.000000 1 0 0
-0.029198 -14.372523 13.308585 19.587973 1.568765 0.823816 0.003832 -0.008444 -1151360.000000 1 0 0
-12.195898 0.412077 8.451985 14.844049 -0.033775 0.965038 0.009233 -0.000809 -247535.000000 1 0 0
-7.829998 2.088477 15.335785 17.345227 -0.260659 0.486125 0.016930 -0.007529 -460572.000000 1 0 0
3.496502 -2.150023 18.496385 18.946355 -0.551308 0.218377 0.020522 -0.012259 -288422.000000 1 0 0
-2.078898 4.902577 12.602185 13.681087 -1.169737 0.399799 -0.006292 0.001430 -462059.000000 1 0 0
-10.251098 -6.146823 13.293385 17.876871 0.540144 0.732346 0.009142 -0.008707 126541.000000 1 0 0
2.284502 -3.731923 14.328385 14.981616 -1.021490 0.296387 -0.002693 -0.001498 -824517.000000 1 0 0
6.734202 1.132477 16.993385 18.314123 0.166609 0.382099 0.009343 -0.007163 -1037810.000000 1 0 0
-2.015098 -5.611523 13.757585 14.994030 1.226038 0.408953 -0.000922 -0.005931 -2287020.000000 1 0 0
-13.124998 3.527477 14.714085 20.030301 -0.262556 0.745732 0.026370 -0.000926 161774.000000 1 0 0
-13.413998 -6.471123 13.420085 20.047679 0.449481 0.837384 0.026758 -0.013082 24046.900000 1 0 0
-9.558198 6.810277 12.035185 16.810256 -0.619070 0.772822 0.011350 -0.000205 -315661.000000 1 0 0
-1.075298 -2.412423 12.946385 13.213059 1.151496 0.201251 -0.000828 -0.001268 494756.000000 1 0 0
0.067602 6.770477 15.304285 16.735144 1.560812 0.416527 0.000628 -0.009205 6577.000000 1 0 0
-16.426198 -1.179123 9.480185 19.002216 0.071660 1.048469 0.028774 -0.003487 -193474.000000 1 0 0
-1.310398 2.760877 13.657285 13.995035 -1.127649 0.220142 -0.001107 -0.001849 -1098640.000000 1 0 0
-11.233698 -3.333123 15.994885 19.827809 0.288433 0.632268 0.017077 -0.012317 -268878.000000 1 0 0
-5.190798 -1.424123 17.010385 17.841684 0.267767 0.306462 0.020690 -0.007318 324895.000000 1 0 0
-11.905598 6.549777 11.127885 17.563390 -0.502953 0.884619 0.023649 -0.000503 -1938800.000000 1 0 0
-2.845598 4.612077 18.679485 19.449726 -1.017979 0.282368 0.014415 -0.017205 116682.000000 1 0 0
5.017502 -1.928223 16.497785 17.351377 -0.366899 0.314970 0.012371 -0.007038 -1122910.000000 1 0 0
-8.000598 -4.091723 12.040385 15.024068 0.472747 0.641153 0.015314 -0.003584 -368956.000000 1 0 0
-11.780298 -0.803123 16.020485 19.901667 0.068070 0.635151 0.037158 -0.012171 350930.000000 1 0 0
2.026602 2.086077 17.536285 17.775829 0.799859 0.164355 0.005269 -0.008931 -1545680.000000 1 0 0
-8.911698 -7.496223 11.650085 16.472286 0.699343 0.785190 0.016960 -0.008690 868675.000000 1 0 0
-7.332298 6.808077 14.936085 17.977740 -0.748342 0.590235 0.011563 -0.003416 -830521.000000 1 0 0
-5.667098 3.501977 15.818085 17.163672 -0.553513 0.398607 0.011711 -0.007744 239925.000000 1 0 0
-9.272098 4.148677 11.499585 15.343525 -0.420720 0.723528 0.004091 -0.003450 -145272.000000 1 0 0
-10.352098 0.219877 14.050885 17.453986 -0.021237 0.635080 0.019457 -0.007780 -543399.000000 1 0 0
8.068202 -0.612223 15.760785 17.716462 -0.075736 0.474300 0.012266 -0.006855 -48956.200000 1 0 0
-8.695198 -7.434223 14.819385 18.721333 0.707378 0.657410 0.028667 -0.005104 -2749310.000000 1 0 0
-0.157098 4.152077 15.587085 16.131387 -1.532978 0.260512 0.001996 -0.010769 153701.000000 1 0 0
-8.141698 2.995477 9.510685 12.872966 -0.352547 0.739492 0.001603 -0.002663 -501602.000000 1 0 0
-2.335698 -9.862423 13.144885 16.598520 1.338253 0.656831 0.002336 -0.002106 451808.000000 1 0 0
-6.102698 10.208477 10.472585 15.847112 -1.031991 0.848844 0.006928 -0.006845 -3607790.000000 1 0 0
-8.615298 -2.592223 15.566785 17.979649 0.292269 0.524049 0.018809 -0.014103 459886.000000 1 0 0
4.237802 5.666977 17.629685 18.996825 0.928701 0.381699 0.009141 -0.015223 141262.000000 1 0 0
-6.841798 -0.913723 15.027785 16.537213 0.132765 0.430576 0.018370 -0.007047 -587843.000000 1 0 0
-0.995098 -10.004823 15.366185 18.363179 1.471661 0.579396 -0.005237 -0.006171 -1777170.000000 1 0 0
-4.314698 5.758677 16.290085 17.808589 -0.927774 0.415952 0.005107 -0.010285 145961.000000 1 0 0
3.712102 0.123777 17.486585 17.876679 0.033332 0.209290 0.013984 -0.010256 -598566.000000 1 0 0
1.178902 0.250477 19.290385 19.327998 0.209353 0.062397 0.010554 -0.009424 -631253.000000 1 0 0
-6.337898 6.290677 17.817085 19.929628 -0.781659 0.464602 0.016587 -0.012751 75405.400000 1 0 0
-12.367698 0.635877 11.073685 16.612971 -0.051369 0.841200 0.019697 -0.002074 -206504.000000 1 0 0
-5.442798 5.266577 14.009585 15.925745 -0.768945 0.495604 0.003555 0.000481 -892863.000000 1 0 0
-8.744098 -9.536323 9.908485 16.296588 0.828708 0.917245 0.024288 -0.008549 -1383630.000000 1 0 0
6.838202 -3.752223 16.962085 18.669561 -0.501856 0.431015 0.023479 -0.008880 581265.000000 1 0 0
-16.843898 1.406477 9.685285 19.480755 -0.083307 1.050460 0.033530 0.000882 285646.000000 1 0 0
-4.204098 -9.581923 11.331785 15.423911 1.157335 0.745588 0.008785 -0.004684 -852698.000000 1 0 0
-11.199198 -3.856323 9.087585 14.929081 0.331623 0.916354 0.011797 -0.001458 -573293.000000 1 0 0
3.467302 -5.224323 18.462685 19.498371 -0.984861 0.327394 0.017702 -0.019541 -634588.000000 1 0 0
2.468802 -1.829823 16.142185 16.432083 -0.637831 0.188119 0.006823 -0.008176 -504374.000000 1 0 0
-3.323498 -4.530323 19.911885 20.689432 0.937866 0.275026 0.016119 -0.024072 -783480.000000 1 0 0
-6.330298 -3.319923 14.233385 15.927454 0.483015 0.465408 0.018841 -0.005725 1008370.000000 1 0 0
-9.728098 4.925477 13.880985 17.651571 -0.468686 0.665856 0.025743 -0.004401 597105.000000 1 0 0
-5.913998 -5.304123 11.692985 14.136300 0.731086 0.596761 0.012818 -0.000192 169035.000000 1 0 0
5.968802 2.062577 19.285385 20.293025 0.332714 0.316452 0.029403 -0.017377 -7622.430000 1 0 0
-2.825198 11.778877 13.440285 18.093229 -1.335390 0.733501 0.006023 -0.013885 -1863720.000000 1 0 0
3.313902 1.368077 15.257785 15.673340 0.391517 0.230788 0.003361 -0.004384 -580160.000000 1 0 0
-5.845698 7.654477 13.136985 16.289370 -0.918587 0.632629 -0.001711 0.001609 -1818110.000000 1 0 0
-1.903998 -1.710023 15.289685 15.502382 0.731777 0.165842 0.003209 -0.002823 642887.000000 1 0 0
-7.322498 10.696577 13.885885 18.996145 -0.970505 0.751033 0.022939 -0.015493 473755.000000 1 0 0
-10.241298 1.957777 10.696485 14.937599 -0.188886 0.772629 0.007799 -0.003909 189508.000000 1 0 0
-13.552498 5.235277 9.069185 17.126834 -0.368637 1.012749 0.016745 -0.002203 149486.000000 1 0 0
0.113302 -5.027923 20.158485 20.776365 -1.548266 0.244492 0.023171 -0.024453 -566398.000000 1 0 0
-14.428698 -2.897823 7.507185 16.520972 0.198201 1.099094 0.017284 -0.005875 22112.300000 1 0 0
-2.360698 2.446777 17.696285 18.019936 -0.803301 0.189815 0.007443 -0.008917 -231694.000000 1 0 0
-6.289798 -8.354423 14.586285 17.947636 0.925461 0.622002 0.022162 -0.006058 -80883.400000 1 0 0
-7.979398 1.910977 11.999085 14.536185 -0.235062 0.599774 0.006565 -0.002973 1453390.000000 1 0 0
-14.503898 -3.681423 9.976285 17.984499 0.248574 0.982775 0.010312 -0.004821 21007.400000 1 0 0
-0.657898 7.109177 12.798985 14.655621 -1.478517 0.508829 -0.005251 -0.002527 -1017070.000000 1 0 0
-1.869898 -2.352723 19.260285 19.493342 0.899246 0.154788 0.018284 -0.018547 -388801.000000 1 0 0
-12.754898 10.320177 7.280085 17.949739 -0.680274 1.153181 0.008247 -0.013763 -716689.000000 1 0 0
-19.647698 2.046277 6.787885 20.887668 -0.103774 1.239815 0.052376 -0.011882 2343080.000000 1 0 0
-16.218298 8.285677 6.752085 19.423601 -0.472317 1.215762 0.036795 -0.009438 266055.000000 1 0 0
-12.304598 7.275277 13.596285 19.727943 -0.533972 0.810427 0.028735 -0.001086 71081.900000 1 0 0
-15.922898 8.641377 10.527885 20.953483 -0.497222 1.044377 0.028746 0.011425 -646131.000000 1 0 0
1.798202 10.897677 15.299385 18.869660 1.407262 0.625291 -0.005408 -0.005544 -189571.000000 1 0 0
2.218702 14.415377 12.510585 19.215631 1.418083 0.861812 -0.003564 -0.005577 -181262.000000 1 0 0
-3.175198 13.608977 11.634885 18.183968 -1.341580 0.876502 -0.004291 -0.009680 116667.000000 1 0 0
9.010702 4.870977 15.910085 18.922208 0.495580 0.572008 0.019289 0.001632 75464.200000 1 0 0
-0.405498 12.557977 12.827385 17.955752 -1.538517 0.775046 -0.006918 -0.005221 -371881.000000 1 0 0
3.328502 13.130577 14.517385 19.855615 1.322533 0.750794 -0.000571 -0.008571 -117614.000000 1 0 0
-2.838798 -4.120223 -13.721615 14.605401 0.967497 2.791932 0.007116 -0.004136 -200204.000000 1 0 0
6.183302 -11.387023 16.305385 20.826980 -1.073333 0.671487 0.019279 -0.004560 468758.000000 1 0 0
7.954002 -13.518323 7.370085 17.330013 -1.038960 1.131527 0.007317 -0.005426 -93912.000000 1 0 0
-0.037698 15.496777 1.340785 15.554717 -1.568364 1.484491 -0.001051 -0.004080 -2296940.000000 1 0 0
-13.875498 8.076777 9.014985 18.412869 -0.527146 1.059163 0.018524 -0.004105 394332.000000 1 0 0
-15.633998 -9.728923 4.826485 19.035987 0.556650 1.314453 0.045033 -0.008774 -466657.000000 1 0 0
9.619802 -11.188723 11.138985 18.487971 -0.860654 0.924168 0.019739 -0.007467 197644.000000 1 0 0
-5.444698 -10.838323 -16.720115 20.656143 1.105266 2.514011 0.040689 -0.006144 75933.600000 1 0 0
-1.753398 -12.697123 -14.565715 19.402355 1.433570 2.419946 0.030627 -0.003349 -211739.000000 1 0 0
5.425602 -15.987623 -12.273415 20.872900 -1.243629 2.199389 0.019815 -0.003427 199216.000000 1 0 0
2.883402 -11.604123 -16.622915 20.476596 -1.327248 2.518026 0.023362 -0.004399 252264.000000 1 0 0
0.845202 -13.992623 -14.673815 20.293563 -1.510466 2.379043 0.039263 0.004995 227393.000000 1 0 0
-6.513398 -6.069523 -14.589015 17.091016 0.750137 2.593668 0.025792 0.000313 19228.800000 1 0 0
-6.151798 -8.287323 -17.418015 20.246274 0.932232 2.606668 0.029904 0.001614 87768.900000 1 0 0
-2.166598 -16.316523 -13.076415 21.021791 1.438783 2.242143 0.036190 -0.011891 299546.000000 1 0 0
16.507402 -8.047923 -8.481615 20.228722 -0.453625 2.003455 0.056536 -0.010696 78968.700000 1 0 0
19.227802 -2.804523 -3.822715 19.803708 -0.144836 1.765046 0.051404 -0.013198 109656.000000 1 0 0
15.811102 -11.363023 -8.937515 21.424015 -0.623149 2.001129 0.042484 -0.008801 247449.000000 1 0 0
18.305502 -2.712023 -6.515315 19.618761 -0.147084 1.909321 0.133586 -0.005540 -201721.000000 1 0 0
9.644102 -9.653823 -16.137215 21.133261 -0.785902 2.439656 0.057975 0.006088 149275.000000 1 0 0
-4.673498 9.803477 -16.294315 19.581993 -1.125947 2.553692 0.006170 0.006573 560628.000000 1 0 0
2.313602 -9.684223 -18.543315 21.047363 -1.336288 2.648827 0.026620 0.000671 314337.000000 1 0 0
11.524002 8.101877 -15.070815 20.629409 0.612766 2.389923 0.053950 -0.032442 332864.000000 1 0 0
18.356902 -5.142023 -8.307715 20.795057 -0.273114 1.981772 0.044891 -0.014197 165069.000000 1 0 0
12.373102 5.178677 -14.115515 19.472034 0.396389 2.381703 0.004398 -0.002148 104090.000000 1 0 0
15.877402 6.374477 -10.654815 20.155668 0.381783 2.127778 0.009940 -0.017422 122163.000000 1 0 0
3.380402 -0.008723 -19.153615 19.449632 -0.002580 2.966902 0.039818 -0.013525 138025.000000 1 0 0
10.193202 -1.394223 -14.837015 18.054978 -0.135936 2.535304 0.012027 -0.007125 130191.000000 1 0 0
12.189402 -5.899323 -13.713615 19.272954 -0.450743 2.362494 0.030838 -0.006264 502150.000000 1 0 0
10.149302 6.692577 -12.777015 17.636639 0.582964 2.381045 0.014824 -0.011724 569146.000000 1 0 0
10.525802 5.555677 -15.818015 19.795648 0.485651 2.496535 0.032008 -0.030222 420300.000000 1 0 0
12.041902 -9.900423 -14.842715 21.525147 -0.688110 2.331667 0.060303 -0.015395 322129.000000 1 0 0
-1.295298 2.342377 -17.837115 18.036829 -1.065665 2.992643 0.012308 -0.000397 215268.000000 1 0 0
6.310302 -1.144623 -17.017715 18.186058 -0.179439 2.781193 0.012583 -0.001044 -47187.200000 1 0 0
6.943202 -5.903723 -15.689915 18.144846 -0.704661 2.615356 0.003668 -0.004543 352865.000000 1 0 0
-2.163698 -4.478523 -20.419315 21.016355 1.120737 2.902662 0.041118 -0.017883 345730.000000 1 0 0
16.015402 -0.176523 -13.215915 20.764987 -0.011022 2.260686 0.035271 -0.010783 6384.170000 1 0 0
-4.264498 -0.241523 -18.388315 18.877882 0.056575 2.913355 0.022022 -0.007238 236540.000000 1 0 0
4.564102 8.440577 -17.960315 20.362890 1.075095 2.650912 0.026386 -0.015685 105572.000000 1 0 0
9.371502 -0.074523 -17.409915 19.772095 -0.007952 2.647775 0.026799 -0.011225 23609.700000 1 0 0
4.187502 4.364077 -18.198815 19.177519 0.806044 2.820738 0.022272 -0.014489 373786.000000 1 0 0
-2.927798 -10.848323 -17.813315 21.061157 1.307192 2.578840 0.041593 -0.020630 234890.000000 1 0 0
6.764802 -9.231723 -16.232615 19.861648 -0.938409 2.527479 0.033986 -0.006487 407570.000000 1 0 0
10.036202 -13.232923 -11.813715 20.381351 -0.921924 2.189075 0.017234 0.054659 6534.090000 1 0 0
6.224002 6.792177 -17.105115 19.428248 0.829022 2.647554 0.027644 -0.016076 300909.000000 1 0 0
8.331002 1.391477 -19.998415 21.708948 0.165496 2.741965 0.041574 -0.021096 146845.000000 1 0 0
-1.027998 -0.684123 -20.255915 20.293519 0.587188 3.080707 0.034567 -0.010556 158175.000000 1 0 0
-0.303798 6.321677 -19.785815 20.773406 -1.522777 2.832004 0.008759 -0.006583 136838.000000 1 0 0
8.895302 6.116777 -17.996115 20.985746 0.602383 2.601265 0.051574 -0.026201 75061.600000 1 0 0
12.110802 0.203477 -12.886815 17.685670 0.016800 2.387158 0.000276 -0.005112 -43100.000000 1 0 0
-4.422298 -2.434523 -20.051415 20.677110 0.503235 2.894959 0.027547 -0.000654 395867.000000 1 0 0
6.240402 -11.680523 -14.561715 19.683007 -1.080120 2.403586 0.007170 0.006566 166579.000000 1 0 0
11.165802 2.051677 -16.057615 19.665491 0.181719 2.526184 0.025027 -0.006116 -261259.000000 1 0 0
-2.978598 -4.485923 -16.836915 17.677027 0.984651 2.832055 0.015747 -0.009056 391366.000000 1 0 0
-6.764098 -5.033523 -17.425415 19.358060 0.639748 2.690941 0.036150 -0.005738 45472.300000 1 0 0
2.881002 10.587677 -15.551015 19.032424 1.305120 2.527124 -0.000351 -0.000400 365157.000000 1 0 0
17.236702 -6.200423 -10.772115 21.250591 -0.345310 2.102391 0.077105 -0.009836 -1777.010000 1 0 0
9.561002 -3.492723 -17.491915 20.238057 -0.350248 2.614569 0.008140 -0.021897 196998.000000 1 0 0
-7.218498 -1.755723 -18.827815 20.240452 0.238593 2.765773 0.023200 0.004513 439606.000000 1 0 0
1.514402 -7.535523 -19.123015 20.609882 -1.372470 2.759420 0.030872 -0.017365 351698.000000 1 0 0
6.024802 10.345477 -13.741915 18.225459 1.043448 2.424920 0.025877 -0.020390 570612.000000 1 0 0
6.238302 -3.658823 -17.716615 19.135879 -0.530441 2.754028 0.030199 -0.022462 528603.000000 1 0 0
4.888602 13.122177 -14.744015 20.334108 1.214180 2.381958 0.016096 -0.015726 136202.000000 1 0 0
9.206002 11.098377 -15.623015 21.260363 0.878330 2.396231 0.048601 -0.025021 138934.000000 1 0 0
16.764602 1.031777 -10.873215 20.008579 0.061467 2.145311 0.032380 -0.015026 -60626.500000 1 0 0
14.898002 -3.037323 -12.134215 19.452891 -0.201118 2.244359 0.047499 -0.011350 -64647.800000 1 0 0
-8.523698 0.026977 -17.414215 19.388374 -0.003165 2.686404 0.020128 -0.009997 434637.000000 1 0 0
-3.202398 4.395977 -19.126315 19.884565 -0.941208 2.864546 0.010068 0.001137 -22049.500000 1 0 0
4.036802 2.023177 -16.753515 17.351348 0.464594 2.878328 0.012156 -0.014291 382004.000000 1 0 0
-5.236998 14.177077 -13.963115 20.576303 -1.216945 2.316654 0.021224 -0.012781 303148.000000 1 0 0
1.507402 8.714877 -17.494115 19.602689 1.399522 2.673509 0.013671 -0.015988 356168.000000 1 0 0
1.165302 -5.184623 -20.183715 20.871526 -1.349709 2.884155 0.036053 0.004496 541831.000000 1 0 0
3.968502 -6.132623 -18.067515 19.488283 -0.996453 2.757387 0.025989 -0.019379 185985.000000 1 0 0
-5.852898 7.479377 -15.938415 18.553452 -0.906794 2.604215 -0.002659 0.004381 128055.000000 1 0 0
-11.964598 2.919777 -16.841015 20.863761 -0.239356 2.510172 0.075894 -0.027651 244968.000000 1 0 0
-4.115398 6.737877 -17.579715 19.271271 -1.022484 2.719476 0.004759 0.017726 550878.000000 1 0 0
-8.193798 5.364277 -17.640215 20.176496 -0.579655 2.634778 0.020506 -0.004339 338781.000000 1 0 0
-8.721198 4.506777 -15.019015 17.942719 -0.476967 2.562672 0.007432 -0.014242 549445.000000 1 0 0
9.519102 14.063077 -12.426315 21.042736 0.975752 2.202509 0.049366 -0.031614 484918.000000 1 0 0
14.162702 9.829877 -11.761115 20.869414 0.606734 2.169482 0.051731 -0.023011 163322.000000 1 0 0
8.559702 15.815477 -9.949615 20.552193 1.074717 2.076147 0.030472 -0.014255 -52668.700000 1 0 0
7.863702 14.269677 -14.248315 21.644306 1.067126 2.289346 0.044908 -0.026955 136140.000000 1 0 0
3.929802 15.605877 -13.021815 20.701556 1.324110 2.251096 0.030156 -0.020909 237279.000000 1 0 0
10.962402 11.898377 -11.233115 19.695901 0.826318 2.177701 0.039451 -0.017686 360280.000000 1 0 0
16.095802 9.595877 -8.887915 20.740076 0.537601 2.013671 0.082454 -0.052291 204010.000000 1 0 0
13.197302 11.456077 -9.605115 19.941633 0.714887 2.073346 0.059480 -0.017376 157873.000000 1 0 0
10.606202 11.405977 -8.097115 17.554233 0.821715 2.050214 0.020456 -0.009260 222401.000000 1 0 0
5.238002 17.075777 -10.545315 20.741806 1.273158 2.104132 0.044425 -0.008613 -65938.300000 1 0 0
11.605102 14.545077 -10.127515 21.185000 0.897355 2.069231 0.078773 -0.016776 -241710.000000 1 0 0
8.047302 -19.502123 -1.707415 21.166179 -1.179443 1.651551 0.041171 -0.004534 201093.000000 1 0 0
7.603702 -17.078023 -4.127715 19.144534 -1.151914 1.788111 0.035151 -0.003864 195645.000000 1 0 0
3.914202 -18.665723 5.090285 19.739331 -1.364091 1.309974 0.041031 -0.029871 72206.700000 1 0 0
10.364902 -17.859423 -2.111115 20.756854 -1.044943 1.672679 0.053189 -0.009165 337220.000000 1 0 0
-3.471498 -14.591823 7.797385 16.904786 1.337231 1.091389 0.026781 -0.043566 -64386.300000 1 0 0
-14.965598 -12.509823 -3.636515 19.841599 0.696254 1.755116 0.042332 -0.029918 45562.700000 1 0 0
-9.501498 -12.603923 -7.089915 17.303301 0.924834 1.992969 0.030530 -0.010893 242283.000000 1 0 0
-11.495098 -15.579123 6.886585 20.549243 0.935115 1.229057 0.042706 -0.008367 264410.000000 1 0 0
-14.744998 -7.240623 -7.363815 18.001871 0.456467 1.992218 0.050279 -0.032130 -194002.000000 1 0 0
5.492002 -15.691723 6.143385 17.723810 -1.234127 1.216834 0.034266 -0.010337 -358447.000000 1 0 0
2.956102 -14.155023 9.051185 17.059518 -1.364918 1.011529 0.016662 -0.009737 368233.000000 1 0 0
3.113402 -17.620923 9.987285 20.492341 -1.395914 1.061725 0.020373 -0.002435 51967.400000 1 0 0
-7.371998 -17.343523 -5.585515 19.655588 1.168877 1.858936 -0.004848 -0.014088 88373.100000 1 0 0
2.104002 -19.763223 -4.175115 20.308702 -1.464735 1.777855 0.019032 -0.014885 88651.800000 1 0 0
-17.021398 -10.392223 -3.402315 20.231215 0.548133 1.739771 -0.035159 -0.035338 -148017.000000 1 0 0
-4.350698 -14.741123 2.744985 15.612950 1.283804 1.394063 0.007203 -0.003843 176945.000000 1 0 0
-10.706998 -9.783723 -14.682315 20.638106 0.740370 2.362310 0.043439 -0.008567 218170.000000 1 0 0
0.459202 -20.341923 2.603585 20.513004 -1.548226 1.443529 0.032152 -0.020287 295310.000000 1 0 0
5.334602 -18.789123 0.871485 19.551179 -1.294157 1.526207 0.018370 0.005026 176832.000000 1 0 0
-7.791898 -18.852923 -3.649715 20.723581 1.178878 1.747834 0.033468 -0.021655 49816.600000 1 0 0
-9.410498 -15.588623 -7.414315 19.660486 1.027677 1.957478 0.051277 -0.018064 62276.900000 1 0 0
-11.919098 -11.235923 -12.611615 20.672777 0.755902 2.226931 0.040630 0.006704 317100.000000 1 0 0
-13.340398 -14.870223 -3.436715 20.270687 0.839574 1.741160 0.052656 -0.024655 153079.000000 1 0 0
-0.261898 -20.339623 -2.363215 20.478126 1.557921 1.686456 0.031587 -0.018981 336306.000000 1 0 0
-12.083898 -16.710923 -0.867615 20.640453 0.944726 1.612843 0.058620 -0.024262 246308.000000 1 0 0
0.772302 -19.309623 5.604985 20.121477 -1.530822 1.288505 0.042098 -0.045980 20486.400000 1 0 0
-18.398398 -9.168423 2.054885 20.658741 0.462308 1.471164 0.067839 -0.005170 102704.000000 1 0 0
-15.238998 -14.869123 -0.829615 21.307420 0.773114 1.609742 0.068959 -0.017300 -6111.620000 1 0 0
10.103702 -15.900323 -4.605015 19.393587 -1.004725 1.810537 0.039567 0.004922 -89112.800000 1 0 0
-0.293498 -19.191923 -6.905215 20.398481 1.555505 1.916136 0.009839 -0.008433 197065.000000 1 0 0
-10.227298 -18.501723 -2.327515 21.268021 1.065825 1.680453 0.050311 0.032291 559038.000000 1 0 0
-14.506198 -6.671723 -11.400115 19.618978 0.431075 2.190846 0.038215 -0.017971 30135.500000 1 0 0
-12.481598 -14.770923 1.844685 19.426099 0.869206 1.475694 0.053699 -0.027791 262460.000000 1 0 0
-2.688398 -16.560923 10.283985 19.678719 1.409866 1.020905 0.020657 -0.016972 211054.000000 1 0 0
-12.422898 -14.396023 -6.489915 20.092110 0.858838 1.899703 0.050045 -0.013785 139658.000000 1 0 0
5.227402 -17.038923 -7.425015 19.307550 -1.273120 1.965533 0.020817 -0.009744 223128.000000 1 0 0
-17.613898 -7.281023 -3.023015 19.297703 0.391977 1.728096 0.032111 -0.015339 -26902.300000 1 0 0
-12.220098 -13.474023 -9.581515 20.559317 0.834161 2.055609 0.057876 -0.022661 188861.000000 1 0 0
-7.835998 -14.027623 10.303285 19.087555 1.061365 1.000608 0.033258 -0.005129 584378.000000 1 0 0
-15.825198 -8.414123 -5.803815 18.839284 0.488678 1.883960 0.048838 -0.009091 339618.000000 1 0 0
-0.850398 -19.481723 0.328685 19.503044 1.527173 1.553943 0.022822 -0.019732 311010.000000 1 0 0
-15.219498 -11.298223 -1.438415 19.009261 0.638588 1.646538 0.045633 -0.016046 157722.000000 1 0 0
-6.926498 -19.078523 1.463185 20.349627 1.222541 1.498832 0.013276 -0.015423 -3931.520000 1 0 0
-2.013198 -20.708323 -5.172515 21.439275 1.473884 1.814464 0.018704 -0.006031 136935.000000 1 0 0
-9.027798 -19.502323 -0.512715 21.496619 1.137259 1.594650 0.037861 -0.020218 247380.000000 1 0 0
-17.870398 -7.548223 5.075985 20.052242 0.399655 1.314874 0.063589 -0.012169 58145.100000 1 0 0
-3.384498 -15.748923 -10.881115 19.439189 1.359112 2.164882 0.027645 -0.002891 190693.000000 1 0 0
-2.843898 -18.144623 -8.792515 20.362304 1.415326 2.017288 0.019171 -0.007914 315085.000000 1 0 0
4.424702 -18.041523 -5.305415 19.318954 -1.330292 1.848993 0.013925 0.013733 528520.000000 1 0 0
1.019902 -17.534023 -9.309115 19.878174 -1.512695 2.058172 0.027301 0.000605 -114280.000000 1 0 0
-7.522798 -9.951323 -14.735915 19.307214 0.923492 2.439099 0.025595 -0.010104 467589.000000 1 0 0
-5.175998 -19.279723 -2.320215 20.096817 1.308512 1.686506 0.025092 -0.020296 309653.000000 1 0 0
-8.671198 -15.810323 8.356585 19.874317 1.069143 1.136831 0.004526 -0.013382 259387.000000 1 0 0
-8.002798 -14.368023 -9.344315 18.915631 1.062605 2.087480 0.076270 -0.034668 302375.000000 1 0 0
-12.622398 -8.185623 -12.108615 19.311860 0.575320 2.248498 0.036563 -0.019388 340907.000000 1 0 0
-15.938698 -13.055623 3.006485 20.821391 0.686288 1.425896 0.060107 -0.012006 172322.000000 1 0 0
-6.301698 -14.341123 -13.029515 20.375168 1.156780 2.264618 0.026015 -0.001245 524234.000000 1 0 0
-13.768498 -11.848023 -6.735515 19.373032 0.710568 1.925886 0.041586 -0.014407 426142.000000 1 0 0
-11.738398 -10.260023 -8.409415 17.713733 0.718295 2.065465 0.030874 -0.010231 292959.000000 1 0 0
-9.775098 -14.795123 3.721985 18.119089 0.986938 1.363906 0.013349 -0.005296 441619.000000 1 0 0
4.671702 -18.348923 8.462885 20.739532 -1.321490 1.150473 0.035554 -0.011099 110160.000000 1 0 0
-4.918998 -16.952523 5.200585 18.401920 1.288388 1.284281 0.004356 0.002295 381180.000000 1 0 0
-18.042898 -7.461023 -6.670315 20.632648 0.392103 1.900000 0.049403 -0.030726 179188.000000 1 0 0
-17.233398 -4.840523 -10.781715 20.896556 0.273825 2.112920 0.066525 -0.013227 -158618.000000 1 0 0
-15.877398 -3.915623 -13.015815 20.900606 0.241791 2.243047 0.053416 -0.019397 248629.000000 1 0 0
-19.376098 -4.774623 -5.958315 20.826227 0.241605 1.860947 0.055069 -0.017763 85596.500000 1 0 0
5.733502 -13.736223 8.697485 17.239579 -1.175380 1.041986 0.029088 -0.006537 178652.000000 1 0 0
19.805602 -3.419323 3.203685 20.352327 -0.170959 1.412728 0.037027 -0.005865 38927.500000 1 0 0
18.415302 -2.349923 0.703885 18.577969 -0.126921 1.532899 0.045440 -0.018187 274213.000000 1 0 0
14.307402 -11.240123 0.392585 18.198798 -0.665908 1.549223 0.039227 -0.002759 87172.700000 1 0 0
11.226102 -13.799223 5.331185 18.570553 -0.887859 1.279622 0.032620 0.000356 507227.000000 1 0 0
10.907202 -12.183123 8.137285 18.265019 -0.840600 1.109050 0.064233 -0.034439 -148993.000000 1 0 0
18.253202 5.243777 -4.897615 19.612833 0.279746 1.823182 0.025840 0.006979 47064.400000 1 0 0
18.578802 -6.090023 -4.365815 20.032988 -0.316757 1.790491 0.032649 -0.015981 -57990.600000 1 0 0
17.931502 -10.172523 -0.479315 20.621560 -0.516028 1.594042 0.071341 -0.004472 284649.000000 1 0 0
17.790602 -8.759523 8.659385 21.638385 -0.457523 1.159076 0.101025 -0.023332 -68332.100000 1 0 0
20.162602 0.397777 -2.145515 20.280335 0.019726 1.676788 0.071138 -0.005722 65394.800000 1 0 0
7.738402 -13.007023 11.618185 19.080035 -1.034106 0.916100 0.025719 -0.008615 392407.000000 1 0 0
15.859002 -6.449523 -2.992015 17.379771 -0.386251 1.743813 0.027256 -0.009335 385713.000000 1 0 0
14.197602 -6.969023 11.080285 19.310927 -0.456308 0.959679 0.033129 -0.050642 293185.000000 1 0 0
16.700702 0.968077 10.088885 19.535511 0.057901 1.028110 0.078289 -0.025277 198835.000000 1 0 0
16.409002 -9.799323 2.710985 19.303666 -0.538352 1.429892 0.012249 -0.008725 428192.000000 1 0 0
16.368602 -7.307223 -5.852115 18.856667 -0.419870 1.886355 0.051276 -0.004777 224794.000000 1 0 0
18.845102 -4.532223 6.073585 20.311754 -0.236016 1.267133 0.149974 -0.019230 60378.200000 1 0 0
13.227902 -13.532123 8.170285 20.611872 -0.796766 1.163218 0.046834 -0.005709 67790.400000 1 0 0
15.267902 -14.321023 -1.424815 20.981673 -0.753408 1.638756 0.038974 -0.006878 199099.000000 1 0 0
18.437502 -6.451623 9.011385 21.512089 -0.336602 1.138564 0.072822 -0.021443 20507.700000 1 0 0
19.363302 3.169477 2.684185 19.803734 0.162246 1.434839 0.042574 -0.008177 123095.000000 1 0 0
15.677002 -10.877423 8.280685 20.800395 -0.606584 1.161349 0.053291 -0.024026 303238.000000 1 0 0
13.974402 -4.427823 10.799685 18.207765 -0.306845 0.935848 0.027271 -0.014077 -196827.000000 1 0 0
18.880602 -7.564423 2.234785 20.461962 -0.381062 1.461361 0.071836 -0.008857 -102841.000000 1 0 0
19.040202 -4.760723 -1.576915 19.689602 -0.245012 1.650971 0.056453 -0.010141 333999.000000 1 0 0
15.011902 -13.415923 -5.827315 20.959527 -0.729316 1.852536 0.062785 -0.012760 592405.000000 1 0 0
13.835002 -9.649023 10.152285 19.687047 -0.609003 1.028991 0.018947 -0.020631 326594.000000 1 0 0
14.420102 2.366277 0.672285 14.628417 0.162646 1.524823 0.003057 0.001520 -180829.000000 1 0 0
13.023402 2.971777 13.577585 19.047080 0.224346 0.777252 0.041572 -0.013136 152506.000000 1 0 0
18.014102 -3.551623 9.328685 20.594811 -0.194661 1.100710 0.060488 -0.017781 83955.100000 1 0 0
7.159802 -18.371423 5.222285 20.397161 -1.199179 1.311883 0.047855 -0.029163 297113.000000 1 0 0
12.367702 -2.801023 15.430885 19.972931 -0.222722 0.687886 0.022656 0.013293 297668.000000 1 0 0
11.632702 -13.588323 -6.722715 19.109086 -0.862783 1.930297 0.034756 -0.005499 106320.000000 1 0 0
10.567602 -17.686223 4.843885 21.164591 -1.032214 1.339882 0.051008 -0.011500 502742.000000 1 0 0
18.312202 -0.192023 -4.391215 18.832323 -0.010486 1.806137 0.050702 -0.016488 144530.000000 1 0 0
4.346102 -13.649823 11.447285 18.337028 -1.262546 0.896598 0.007673 -0.005742 80992.300000 1 0 0
9.001302 -2.758823 14.436985 17.235459 -0.297402 0.577861 0.004822 0.000196 332393.000000 1 0 0
9.001702 -9.127123 13.581685 18.676112 -0.792316 0.756530 0.021247 -0.021452 335951.000000 1 0 0
20.936102 5.500877 -2.771015 21.823348 0.256938 1.698115 0.077146 -0.014769 397181.000000 1 0 0
14.799702 -13.579923 2.149385 20.200627 -0.742444 1.464193 0.037122 0.002195 251852.000000 1 0 0
11.643602 0.175677 13.946985 18.169279 0.015087 0.695687 0.040851 -0.024656 -96411.000000 1 0 0
19.385002 0.306377 7.846585 20.915091 0.015804 1.186223 0.086014 -0.017767 50513.400000 1 0 0
20.070802 1.350777 0.315685 20.118681 0.067199 1.555105 0.063214 -0.006682 -5931.300000 1 0 0
17.978002 0.093477 3.160985 18.254016 0.005199 1.396752 0.038142 -0.004055 -106509.000000 1 0 0
10.422702 -8.835923 16.289685 21.261704 -0.703191 0.697965 0.044489 0.003477 153656.000000 1 0 0
19.281902 2.933277 5.540785 20.275506 0.150968 1.294001 0.064055 -0.006916 184074.000000 1 0 0
15.316202 2.264577 7.024185 17.001574 0.146791 1.144887 0.040146 -0.013983 50800.700000 1 0 0
11.414002 -16.086323 1.967285 19.822195 -0.953692 1.471386 0.020990 0.002101 297978.000000 1 0 0
8.324102 -16.293323 6.974585 19.580804 -1.098474 1.206604 0.038525 -0.003227 479648.000000 1 0 0
6.043702 6.541177 7.211085 11.459192 0.824907 0.890165 0.000843 0.002456 -935265.000000 1 0 0
18.518102 2.678577 -6.468615 19.797420 0.143650 1.903649 0.036100 -0.003440 353052.000000 1 0 0
13.967802 4.596077 -7.092515 16.325660 0.317889 2.020212 0.000983 -0.006101 56141.200000 1 0 0
-10.632098 -3.918823 -13.913715 17.944084 0.353134 2.458133 0.021500 -0.002558 -162347.000000 1 0 0
8.101102 -14.089523 -10.347615 19.266957 -1.048982 2.137751 0.018954 0.006824 190949.000000 1 0 0
2.020002 -15.591923 14.174085 21.168211 -1.441960 0.837136 -0.000264 -0.005594 327341.000000 1 0 0
-9.497098 -7.975223 2.139785 12.584822 0.698515 1.399937 0.015425 -0.000584 381705.000000 1 0 0
-14.172798 3.257077 -9.738315 17.501758 -0.225890 2.160866 0.030939 -0.002281 287323.000000 1 0 0
-13.129898 -5.031223 -13.689515 19.624226 0.365930 2.342814 0.039671 0.009261 237608.000000 1 0 0
-18.056498 -1.308523 -8.340015 19.932517 0.072342 2.002493 0.070907 -0.035193 424501.000000 1 0 0
-12.239698 15.265077 4.147485 20.000861 -0.894952 1.361915 0.033046 -0.010408 365367.000000 1 0 0
-18.077798 6.328877 9.351985 21.314809 -0.336756 1.116583 0.077397 -0.009083 19175.300000 1 0 0
-13.680798 15.634377 -0.023815 20.774950 -0.851940 1.571943 0.057336 -0.010563 156131.000000 1 0 0
-16.767998 5.658877 -10.269215 20.460827 -0.325479 2.096586 0.081206 -0.018106 -113065.000000 1 0 0
-18.469698 2.939977 -0.248715 18.703879 -0.157854 1.584094 0.053795 -0.003506 -4760.590000 1 0 0
-9.573898 15.459577 -0.254515 18.185786 -1.016317 1.584792 0.019166 -0.004131 -130331.000000 1 0 0
-18.586698 12.229377 3.024685 22.453769 -0.581953 1.435678 0.098685 -0.014479 78881.700000 1 0 0
-8.908398 16.095077 -7.503215 19.867292 -1.065281 1.958071 0.064311 -0.033215 111230.000000 1 0 0
-14.743298 -1.681123 -12.918815 19.674522 0.113536 2.287134 0.028039 -0.028677 166886.000000 1 0 0
-19.062098 5.452877 -4.756515 20.389259 -0.278618 1.806251 0.056130 -0.008429 -26243.700000 1 0 0
-16.424898 10.038577 -5.494915 20.018602 -0.548600 1.848856 0.032484 0.015632 152726.000000 1 0 0
-19.003598 1.663677 2.677885 19.263324 -0.087323 1.431330 0.036650 -0.017148 545441.000000 1 0 0
-13.869698 12.910477 -7.431315 20.353707 -0.749595 1.944546 0.032886 0.017523 -134445.000000 1 0 0
-14.105498 4.922477 -12.341715 19.378178 -0.335762 2.261250 0.087124 -0.031508 125787.000000 1 0 0
-13.885398 9.547477 -6.688715 18.130017 -0.602349 1.948654 0.018273 -0.004282 71953.500000 1 0 0
-6.453398 11.534377 -15.455715 20.336355 -1.060694 2.434116 0.018824 -0.017437 -126253.000000 1 0 0
-15.108298 13.915577 3.126685 20.776913 -0.744327 1.419734 0.036727 -0.013076 234369.000000 1 0 0
-18.431498 8.516177 -5.335715 20.993219 -0.432825 1.827779 0.043452 -0.006461 291422.000000 1 0 0
-4.516698 16.135877 -11.422415 20.279020 -1.297865 2.169125 0.025821 0.000286 71615.200000 1 0 0
-18.925098 -2.617523 -6.654015 20.230835 0.137438 1.905940 0.011824 -0.013463 -206441.000000 1 0 0
-10.458398 13.693177 -6.502215 18.416297 -0.918542 1.931645 0.019310 -0.014657 84442.700000 1 0 0
-19.462698 3.132477 4.280885 20.172630 -0.159579 1.356958 0.049686 -0.004526 48930.100000 1 0 0
-15.302698 12.632377 0.468985 19.848664 -0.690097 1.547166 0.030156 -0.000520 123066.000000 1 0 0
-17.071798 1.792077 -9.582615 19.659205 -0.104590 2.079948 0.012086 -0.005534 137714.000000 1 0 0
-16.730798 13.779877 -3.924515 22.027402 -0.688980 1.749918 0.047553 0.031170 377811.000000 1 0 0
-11.294398 15.708177 -8.435915 21.106277 -0.947423 1.981972 0.062115 -0.015406 -19104.000000 1 0 0
-19.192398 1.745477 -7.090715 20.534680 -0.090697 1.923359 0.057508 -0.019572 337299.000000 1 0 0
-17.174498 10.417577 -0.328215 20.089724 -0.545238 1.587135 0.038151 0.002741 51744.000000 1 0 0
-11.736798 6.503977 -14.526315 19.775439 -0.506026 2.395819 0.046845 -0.019866 379564.000000 1 0 0
-13.612998 12.337177 -5.094115 19.064881 -0.736273 1.841281 0.040010 -0.008559 120554.000000 1 0 0
-18.786098 7.866577 0.204885 20.367683 -0.396560 1.560737 0.039511 -0.005790 9340.660000 1 0 0
-14.636298 8.736577 -10.675115 20.112362 -0.538146 2.130310 0.031588 0.001543 439728.000000 1 0 0
-18.534398 11.251177 5.130885 22.280908 -0.545582 1.338429 0.059752 -0.022792 222875.000000 1 0 0
-8.143798 11.994277 -13.688015 19.938553 -0.974322 2.327475 0.002001 -0.001837 345225.000000 1 0 0
-20.890598 -0.964823 -5.911515 21.732326 0.046152 1.846283 0.037687 -0.011501 100782.000000 1 0 0
-10.691098 13.396377 -3.253515 17.445569 -0.897240 1.758390 0.025732 0.001605 370075.000000 1 0 0
-18.808398 -4.880723 3.476585 19.739907 0.253897 1.393753 0.052320 -0.018285 -81384.200000 1 0 0
-11.470698 11.566077 -12.588515 20.586932 -0.789538 2.228727 0.038269 -0.012908 242302.000000 1 0 0
-15.002598 11.288777 -10.090115 21.314898 -0.645070 2.063924 0.054849 -0.023591 172793.000000 1 0 0
-12.512398 9.694977 -14.105115 21.201579 -0.659204 2.298673 0.052406 -0.015748 387937.000000 1 0 0
-18.744098 -4.688123 -2.924315 19.541528 0.245084 1.721007 0.054919 -0.011786 -261380.000000 1 0 0
-9.123798 12.583577 -11.714415 19.463238 -0.943451 2.216642 0.013755 -0.008512 -131849.000000 1 0 0
-15.467098 7.738077 -8.227015 19.151834 -0.463882 2.014811 0.014689 0.000342 -66784.600000 1 0 0
-14.212498 9.061277 2.106885 16.986489 -0.567578 1.446443 0.020345 -0.003203 -419221.000000 1 0 0
-20.098798 6.239277 7.690085 22.405974 -0.300998 1.220458 0.069034 -0.012149 321612.000000 1 0 0
-19.121998 6.085577 3.673985 20.400569 -0.308115 1.389716 0.044990 -0.004069 286114.000000 1 0 0
-14.682798 12.982477 5.802085 20.439997 -0.724015 1.282980 0.032014 -0.009350 107640.000000 1 0 0
18.023602 6.161177 5.868785 19.931206 0.329386 1.271914 0.039027 -0.009144 293676.000000 1 0 0
18.411102 8.527877 0.447385 20.295160 0.433770 1.548751 0.037997 0.006428 -3320.240000 1 0 0
15.731502 5.097377 8.973685 18.814633 0.313348 1.073612 0.011965 0.001331 -211661.000000 1 0 0
12.113002 13.049277 10.791785 20.819968 0.822590 1.025890 0.039329 -0.015238 156909.000000 1 0 0
14.643602 13.162577 3.892985 20.070970 0.732186 1.375598 0.030432 0.008081 90150.300000 1 0 0
5.028402 10.297777 14.649285 18.599209 1.116553 0.663844 0.011502 -0.006057 160691.000000 1 0 0
12.077402 14.438877 -5.466615 19.601752 0.874221 1.853428 0.017889 0.018983 261385.000000 1 0 0
17.663202 9.319377 -2.814515 20.168316 0.485495 1.710805 0.014977 -0.009719 -60520.700000 1 0 0
14.436502 7.782477 9.602085 19.004725 0.494423 1.041128 0.039928 -0.007067 187797.000000 1 0 0
4.758702 19.117177 -1.695015 19.773335 1.326832 1.656624 0.029570 -0.024013 383710.000000 1 0 0
-4.612098 18.860277 3.331385 19.699737 -1.330963 1.400872 0.007723 -0.023348 301148.000000 1 0 0
6.568502 12.758077 12.670685 19.143145 1.095339 0.847457 0.016100 0.001040 -157128.000000 1 0 0
-0.109798 17.110577 -10.199215 19.920038 -1.564379 2.108317 0.024158 0.005290 -52860.000000 1 0 0
10.619402 9.590777 15.556185 21.136451 0.734546 0.743671 0.032611 -0.009340 219224.000000 1 0 0
-1.130898 12.163377 0.840585 12.244724 -1.478087 1.502094 -0.001278 0.002400 375056.000000 1 0 0
-4.487398 19.335277 -2.561115 20.013720 -1.342750 1.699116 0.015996 0.012008 57477.900000 1 0 0
6.064702 18.140877 6.372385 20.161332 1.248166 1.249212 0.032427 -0.023869 146791.000000 1 0 0
10.904602 17.671677 -1.706515 20.835324 1.017922 1.652793 0.039136 -0.010421 403249.000000 1 0 0
18.544002 10.402977 3.341885 21.523711 0.511241 1.414900 0.058777 -0.014811 343823.000000 1 0 0
11.487902 17.025177 6.262785 21.472099 0.977212 1.274823 0.034858 0.003953 -118470.000000 1 0 0
17.759802 8.035477 -4.826215 20.081629 0.424892 1.813502 0.006394 0.016274 463608.000000 1 0 0
-0.173998 15.312177 11.308885 19.036384 -1.559433 0.934691 -0.004383 0.008298 343568.000000 1 0 0
1.497002 20.454677 -1.637815 20.574675 1.497740 1.650484 0.043007 -0.008569 327940.000000 1 0 0
14.317302 9.913877 -1.264815 17.460523 0.605634 1.643298 0.020129 -0.005437 -20970.200000 1 0 0
10.085502 17.556177 1.417485 20.296452 1.049360 1.500900 0.038596 -0.017498 184517.000000 1 0 0
-0.033798 17.778477 -0.728015 17.793409 -1.568895 1.611723 0.005927 -0.004333 98480.800000 1 0 0
-0.270698 21.049577 1.153585 21.082901 -1.557937 1.516052 0.033213 -0.012315 242261.000000 1 0 0
5.852902 17.810777 -0.234715 18.749276 1.253298 1.583315 0.013329 -0.014542 -260252.000000 1 0 0
7.614802 19.012177 -2.562315 20.640096 1.189840 1.695260 0.028895 -0.020969 2671.270000 1 0 0
10.016202 9.656777 12.642785 18.799406 0.767130 0.833202 0.012645 -0.008952 139723.000000 1 0 0
12.857502 14.714077 8.389585 21.265102 0.852633 1.165247 0.037429 -0.013597 234334.000000 1 0 0
0.428302 17.492977 6.997585 18.845527 1.546317 1.190374 -0.002520 -0.005158 211746.000000 1 0 0
7.324002 18.134577 -7.788115 21.051333 1.186959 1.949760 0.030723 -0.016207 -45412.000000 1 0 0
-1.505898 18.428877 9.019885 20.573030 -1.489263 1.116942 0.040972 -0.019161 113304.000000 1 0 0
15.921702 6.548877 -7.805315 18.902680 0.390225 1.996455 0.029362 -0.003067 -39047.800000 1 0 0
-5.519198 19.508177 -6.460315 21.278303 -1.295085 1.879276 0.029213 -0.007679 139475.000000 1 0 0
3.677202 15.813577 9.941685 19.037545 1.342322 1.021351 0.006883 0.004152 261774.000000 1 0 0
8.812402 14.783877 7.687385 18.849863 1.033263 1.150729 0.011864 -0.003886 259730.000000 1 0 0
-2.650498 19.846877 6.155085 20.947762 -1.438035 1.272565 0.006851 -0.006417 149118.000000 1 0 0
4.643502 18.045677 8.404985 20.441437 1.318941 1.147055 0.021074 -0.005919 -16909.800000 1 0 0
14.277202 11.931177 -6.282115 19.638138 0.696122 1.896414 0.015421 -0.019627 76202.200000 1 0 0
11.561802 7.174177 15.799885 20.851389 0.555362 0.710957 0.037658 -0.004587 154856.000000 1 0 0
17.343202 9.349077 5.023185 20.332837 0.494407 1.321164 0.062684 -0.008145 251157.000000 1 0 0
5.080602 14.800577 12.012085 19.727133 1.240129 0.916108 0.006040 -0.019682 472682.000000 1 0 0
16.008202 11.252177 -4.051315 19.982171 0.612670 1.774958 0.054654 -0.005202 200856.000000 1 0 0
15.307502 13.954777 6.719385 21.776261 0.739203 1.257113 0.057322 0.005484 361042.000000 1 0 0
12.750002 14.057977 -8.146815 20.653326 0.834150 1.976271 0.097550 -0.041316 263676.000000 1 0 0
-8.670098 15.415177 9.603785 20.125381 -1.058453 1.073333 0.039158 -0.010950 203615.000000 1 0 0
-3.645998 16.870777 -7.584315 18.853070 -1.357956 1.984808 0.004741 0.011410 -19033.700000 1 0 0
2.678702 19.602677 -4.520715 20.294759 1.434988 1.795434 0.041724 -0.021621 127730.000000 1 0 0
6.960702 16.222077 9.207485 19.909418 1.165468 1.090019 0.027290 -0.011292 490415.000000 1 0 0
13.675102 15.334277 -1.697115 20.616223 0.842530 1.653209 0.084935 -0.026164 173263.000000 1 0 0
12.744902 16.675277 4.284385 21.420862 0.918206 1.369428 0.046373 -0.011982 302732.000000 1 0 0
2.143702 18.424577 0.957585 18.573569 1.454967 1.519217 0.013249 -0.019048 -473714.000000 1 0 0
-6.734198 18.023677 1.454985 19.295578 -1.213227 1.495320 -0.016074 0.024430 133103.000000 1 0 0
0.540302 19.605177 -6.060515 20.527658 1.543244 1.870499 0.042621 -0.009415 198483.000000 1 0 0
-7.664198 18.022477 -6.505715 20.636714 -1.168707 1.891516 0.051763 -0.010299 70846.500000 1 0 0
-7.327298 18.576777 -1.210315 20.006269 -1.195098 1.631330 0.022685 -0.000162 44763.200000 1 0 0
-14.538698 -9.086923 8.756785 19.251680 0.558611 1.098583 0.049365 -0.010710 404670.000000 1 0 0
-12.955798 -13.795523 7.340985 20.299242 0.816778 1.200772 0.045731 -0.010100 148336.000000 1 0 0
-3.496998 -16.038023 12.626985 20.709609 1.356112 0.915094 0.032037 -0.009957 -17437.100000 1 0 0
-1.963998 -15.046623 15.013785 21.346472 1.441003 0.790714 0.030820 -0.013776 408480.000000 1 0 0
-7.533298 -13.734723 13.602685 20.746716 1.069117 0.855747 0.040675 -0.010900 327289.000000 1 0 0
-10.313198 -11.441923 11.605085 19.286204 0.837235 0.925131 0.061554 -0.003319 88748.300000 1 0 0
-7.619798 -10.674423 13.256785 18.647975 0.950844 0.780024 0.035898 -0.000099 433806.000000 1 0 0
-15.041498 -11.895123 7.967285 20.765795 0.669118 1.177025 0.066127 0.000089 480739.000000 1 0 0
-4.594098 -12.680923 13.090185 18.795331 1.223220 0.800345 0.037585 -0.014736 301348.000000 1 0 0
3.945402 -12.609523 13.885985 19.167338 -1.267556 0.760544 0.005786 0.003205 424140.000000 1 0 0
6.872002 -13.412923 14.564385 20.958345 -1.097324 0.802487 0.029235 -0.005154 348526.000000 1 0 0
7.050702 -8.881123 16.858585 20.317446 -0.899787 0.592121 0.024059 -0.002968 545429.000000 1 0 0
-5.267698 13.407277 13.552885 19.778382 -1.196427 0.815867 0.011958 -0.004471 472333.000000 1 0 0
-13.728398 -1.608123 17.370385 22.198767 0.116607 0.672136 0.034229 -0.017658 215318.000000 1 0 0
-10.277798 9.499277 13.048085 19.134313 -0.746054 0.820411 0.020209 -0.004137 515504.000000 1 0 0
-7.385498 -8.210223 17.158585 20.405156 0.838230 0.571862 0.039666 -0.010196 270449.000000 1 0 0
-4.983698 2.046677 18.318985 19.094799 -0.389674 0.286034 0.018867 -0.012389 537962.000000 1 0 0
-15.894898 -3.620123 14.428485 21.770031 0.223934 0.846287 0.042574 -0.015818 168036.000000 1 0 0
-14.624998 2.769977 12.314185 19.318449 -0.187183 0.879636 0.025175 0.001416 225860.000000 1 0 0
-14.240798 10.567477 9.245885 19.998957 -0.638398 1.090188 -0.015201 -0.007449 -357168.000000 1 0 0
-3.886498 11.287377 15.813885 19.813851 -1.239188 0.646623 -0.012220 -0.006670 168132.000000 1 0 0
-13.408998 12.822677 8.012585 20.209498 -0.763050 1.163121 0.020614 -0.026840 133887.000000 1 0 0
-4.086098 -6.363323 18.523885 20.008058 0.999972 0.387594 0.020173 -0.012513 256686.000000 1 0 0
0.756702 -3.573623 17.104585 17.490289 -1.362132 0.210400 0.014192 -0.035732 255420.000000 1 0 0
-4.546698 6.417377 21.005685 22.429757 -0.954390 0.358256 0.024843 -0.018461 225270.000000 1 0 0
2.083202 -10.531423 16.450885 19.643885 -1.375509 0.578185 -0.000103 -0.007194 232152.000000 1 0 0
-15.257998 -0.310323 13.893785 20.638315 0.020336 0.832264 0.009878 -0.000775 120013.000000 1 0 0
-13.993298 -5.861923 7.331285 16.849993 0.396700 1.120657 0.028201 -0.008648 -91976.500000 1 0 0
10.073002 0.853977 16.632085 19.463321 0.084577 0.546142 0.028182 0.005665 388328.000000 1 0 0
-7.672798 12.448477 11.814785 18.799616 -1.018431 0.891226 0.015967 -0.007547 162146.000000 1 0 0
-1.550498 7.350777 20.425185 21.762953 -1.362914 0.352449 0.007603 -0.013886 373676.000000 1 0 0
1.102002 -13.771423 15.641385 20.869102 -1.490946 0.723490 -0.017993 0.001661 551889.000000 1 0 0
-2.883798 -11.212523 17.798985 21.233012 1.319058 0.576695 0.036079 -0.021346 539366.000000 1 0 0
-2.078698 9.061877 16.572985 19.002695 -1.345308 0.511240 0.002710 -0.014584 -155699.000000 1 0 0
-5.411698 -9.110723 20.210485 22.820067 1.034806 0.482915 0.077809 -0.024801 109469.000000 1 0 0
-6.658998 -2.677323 18.936785 20.251225 0.382282 0.362274 0.017019 -0.018772 14992.000000 1 0 0
-11.128198 -8.128123 15.287785 20.582020 0.630844 0.733593 0.086577 -0.024909 175191.000000 1 0 0
-0.592198 6.336377 17.731585 18.839041 -1.477607 0.344588 0.015135 -0.020151 -28515.300000 1 0 0
-6.038998 -11.271923 19.007285 22.908571 1.078955 0.592223 0.072908 -0.013279 378041.000000 1 0 0
0.486202 3.487177 18.983785 19.307534 1.432264 0.183385 0.011650 -0.008457 159202.000000 1 0 0
-18.182698 -1.289423 7.284285 19.629924 0.070796 1.190624 0.027144 -0.003067 176727.000000 1 0 0
-1.615598 -8.753423 17.534485 19.664453 1.388283 0.469744 0.004037 -0.009048 291118.000000 1 0 0
5.725402 3.506877 14.964785 16.401927 0.549569 0.421736 0.006255 -0.007607 454132.000000 1 0 0
-13.481398 -6.814423 10.240385 18.249656 0.468013 0.975049 0.011629 -0.009437 8937.830000 1 0 0
3.790302 8.255077 16.812985 19.109923 1.140361 0.495347 0.006629 -0.014452 159244.000000 1 0 0
6.308902 4.437577 17.329885 18.968902 0.612993 0.418758 0.029215 -0.034584 199231.000000 1 0 0
3.944602 -9.715023 17.737285 20.604680 -1.185102 0.533883 -0.013012 -0.012241 361268.000000 1 0 0
-4.543098 -0.737623 19.656585 20.188243 0.160957 0.230006 0.018260 -0.017408 753450.000000 1 0 0
-10.973498 1.560377 17.126885 20.400554 -0.141248 0.574378 0.044167 -0.016761 127976.000000 1 0 0
-16.745298 -3.922323 8.602385 19.229942 0.230086 1.107004 0.038013 -0.017788 241045.000000 1 0 0
-13.536598 -9.598923 11.920085 20.432015 0.616813 0.947885 0.061193 -0.025212 61437.500000 1 0 0
-14.995698 6.047377 12.317985 20.326694 -0.383326 0.919773 0.042036 -0.022006 318870.000000 1 0 0
0.964402 8.780877 16.936885 19.102145 1.461405 0.480750 -0.005775 -0.033952 141445.000000 1 0 0
-3.848098 -10.832623 14.956185 18.863749 1.229468 0.655320 0.027281 -0.005299 343717.000000 1 0 0
-18.252098 -4.145423 6.962085 19.969833 0.223332 1.214687 0.082127 -0.009960 -205197.000000 1 0 0
-0.682698 -0.877923 20.804885 20.834588 0.909846 0.053404 0.025824 -0.023842 237371.000000 1 0 0
-1.930198 2.140877 20.337285 20.540549 -0.837102 0.140799 0.015395 -0.017802 7770.250000 1 0 0
-8.119998 2.375177 16.193785 18.270591 -0.284571 0.481437 0.020602 -0.000459 613234.000000 1 0 0
2.582002 -2.217123 18.744585 19.051032 -0.709514 0.179605 0.012891 -0.016398 106031.000000 1 0 0
-12.588998 4.227377 14.359985 19.559211 -0.323968 0.746338 0.013671 0.001198 264871.000000 1 0 0
-13.617298 -5.594423 13.115685 19.716733 0.389809 0.843027 0.037158 -0.010169 34412.600000 1 0 0
-16.773398 -1.230123 10.362985 19.754785 0.073207 1.018573 0.010980 -0.001223 225594.000000 1 0 0
-7.386198 7.756477 14.929985 18.374529 -0.809846 0.622305 0.018974 -0.001938 -114222.000000 1 0 0
-9.606198 0.807577 14.023885 17.017655 -0.083871 0.602223 0.022517 -0.007771 274144.000000 1 0 0
7.232202 -0.809423 15.354885 16.992127 -0.111455 0.442586 0.008531 -0.001715 163146.000000 1 0 0
4.114202 6.279077 18.345585 19.822057 0.990757 0.388407 0.015362 -0.013872 16854.700000 1 0 0
1.800102 0.461677 19.977485 20.063734 0.251061 0.092756 0.017273 -0.010999 314668.000000 1 0 0
-7.081098 6.871977 17.927185 20.463381 -0.770412 0.503163 0.020065 -0.005441 755555.000000 1 0 0
7.503202 -3.075823 16.910885 18.754646 -0.389041 0.447133 0.016053 0.003824 409268.000000 1 0 0
-16.783998 2.258677 9.269885 19.306346 -0.133770 1.069974 0.041849 -0.002240 333247.000000 1 0 0
4.105202 -5.566123 19.078085 20.293046 -0.935322 0.347787 0.039156 -0.027056 85066.000000 1 0 0
-3.843798 -4.020423 20.521685 21.262129 0.807854 0.264683 0.014550 -0.015591 497345.000000 1 0 0
-9.824698 5.609777 14.532785 18.417278 -0.518813 0.661479 0.026931 -0.001266 29563.400000 1 0 0
6.409902 2.608877 19.925285 21.092891 0.386533 0.334287 0.045738 -0.013708 -34004.500000 1 0 0
-7.621098 11.265177 14.585785 19.943181 -0.976004 0.750472 0.026706 -0.017036 268101.000000 1 0 0
-14.407498 5.146277 8.664785 17.582340 -0.343070 1.055478 0.019893 -0.009484 340717.000000 1 0 0
0.764002 -5.649323 20.463485 21.242711 -1.436374 0.271693 0.032173 -0.020969 284352.000000 1 0 0
-6.345598 -8.244123 13.644285 17.158050 0.914799 0.651439 0.027015 -0.003823 369356.000000 1 0 0
-12.811698 10.088877 6.360385 17.503701 -0.667056 1.198910 -0.002281 -0.016786 131892.000000 1 0 0
-19.494098 1.599977 7.612385 20.988763 -0.081891 1.199645 0.020581 -0.006730 2232.170000 1 0 0
-16.474298 9.099077 6.333185 19.857113 -0.504622 1.246188 0.053670 -0.014478 100605.000000 1 0 0
-12.965298 7.455777 14.254685 20.661162 -0.521877 0.809409 0.034456 -0.004455 303912.000000 1 0 0
-16.464298 9.342277 10.871885 21.830005 -0.516124 1.049477 0.035617 0.002612 548837.000000 1 0 0
2.560702 10.333877 15.243885 18.593607 1.327892 0.609655 -0.002044 -0.026062 270759.000000 1 0 0
1.718002 14.833877 13.200985 19.931418 1.455494 0.846885 -0.002584 -0.008700 613156.000000 1 0 0
8.412702 5.137577 16.598385 19.304782 0.548245 0.535905 0.011710 -0.007727 -148309.000000 1 0 0
-0.217998 13.151677 13.544885 18.880626 -1.554222 0.770739 -0.006336 0.007791 272156.000000 1 0 0
3.955502 12.440477 14.699585 19.659330 1.262950 0.726181 0.013111 -0.009842 146568.000000 1 0 0
-3.703898 -4.450623 -13.509515 14.698092 0.876715 2.736673 0.010849 -0.005316 226137.000000 1 0 0
5.814802 -12.006723 16.923985 21.549816 -1.119791 0.667547 -0.008107 0.013852 177981.000000 1 0 0
8.899002 -13.615723 7.374385 17.859499 -0.991907 1.145148 0.023221 -0.007896 317495.000000 1 0 0
-0.331898 15.167577 0.499585 15.179431 -1.548918 1.537878 -0.002454 -0.002704 -277739.000000 1 0 0
-14.521498 7.546077 8.563885 18.470444 -0.479243 1.088682 0.034148 -0.004547 1873.970000 1 0 0
-16.341598 -9.675523 4.194785 19.448902 0.534575 1.353406 0.060718 -0.011208 206297.000000 1 0 0
8.912102 -10.678123 11.514585 18.056398 -0.875303 0.879286 0.002021 0.002796 107156.000000 1 0 0
-25.463568 6.038177 30.962789 40.540686 -0.232830 0.701700 0.060373 -0.025754 -763343.000000 0 0 1
-24.292298 5.466877 30.494179 39.368737 -0.221358 0.684748 0.047996 -0.022009 -770727.000000 0 0 1
-23.606998 4.923777 31.570409 39.726876 -0.205625 0.652306 0.033689 -0.007035 33855.500000 0 0 1
-22.279498 4.229977 31.123259 38.508778 -0.187626 0.629687 0.031502 -0.018149 -205436.000000 0 0 1
-22.486198 2.982577 30.462569 37.980166 -0.131871 0.640051 0.019056 -0.026372 358407.000000 0 0 1
-21.247098 2.331277 30.177639 36.980589 -0.109285 0.616270 0.018250 -0.027093 352440.000000 0 0 1
-20.862998 1.428877 31.389849 37.717754 -0.068382 0.587678 0.009298 -0.019725 -213629.000000 0 0 1
-21.400098 0.129277 31.430399 38.024346 -0.006041 0.597782 0.013431 -0.005693 58551.100000 0 0 1
-21.195498 -0.469823 32.682429 38.956528 0.022163 0.575452 0.010548 -0.006627 -309775.000000 0 0 1
-21.714598 -1.885723 32.671337 39.274623 0.086624 0.588330 0.027691 -0.027426 -436009.000000 0 0 1
-20.997598 -2.788523 31.824829 38.229501 0.132029 0.587249 0.037688 -0.032853 135356.000000 0 0 1
-21.296098 -4.172223 32.005419 38.668826 0.193465 0.595835 0.047323 -0.037261 52555.000000 0 0 1
-22.733998 -4.594123 31.554049 39.161188 0.199396 0.633859 0.039490 -0.033963 1021200.000000 0 0 1
-23.861998 -4.252223 32.375837 40.443432 0.176349 0.642631 0.037013 -0.032058 562003.000000 0 0 1
-23.923298 -4.809323 33.690819 41.599580 0.198387 0.626843 0.035579 -0.026713 -544586.000000 0 0 1
-25.141478 -4.320623 -33.623695 42.205623 0.170190 2.492552 0.036851 -0.024812 232603.000000 0 0 1
-25.164808 -4.924323 -32.340015 41.272183 0.193241 2.471202 0.044275 -0.017639 490683.000000 0 0 1
-26.370988 -4.472123 -31.726305 41.496835 0.167987 2.441135 0.049400 -0.014010 208681.000000 0 0 1
-26.424298 -5.127823 -30.317785 40.542647 0.191675 2.415538 0.037919 0.003309 -465937.000000 0 0 1
-26.757478 -6.483623 -30.298285 40.938809 0.237729 2.403996 0.035372 -0.005740 438953.000000 0 0 1
-26.715718 -7.013623 -28.965975 40.024345 0.256734 2.379958 0.022129 0.006621 -134712.000000 0 0 1
-26.874918 -8.575223 -28.863805 40.359818 0.308867 2.367652 0.024092 0.006712 -857764.000000 0 0 1
-28.143788 -9.113723 -28.840815 41.314954 0.313171 2.343498 0.044376 0.009295 -1158580.000000 0 0 1
-28.172388 -10.439523 -28.387245 41.334039 0.354871 2.327841 0.045251 0.007551 550964.000000 0 0 1
-29.576158 -10.724123 -27.770835 41.963976 0.347850 2.293984 0.095817 -0.004232 600519.000000 0 0 1
-29.650768 -11.469723 -26.570345 41.433149 0.369099 2.266965 0.110898 -0.011363 180455.000000 0 0 1
-31.027358 -11.611523 -26.204345 42.239699 0.358100 2.240014 0.106816 -0.014425 543553.000000 0 0 1
-31.177358 -12.412423 -24.860615 41.762975 0.378887 2.208409 0.104766 -0.017810 -126819.000000 0 0 1
-30.782018 -11.663823 -23.750115 40.591198 0.362200 2.195806 0.107813 -0.016027 84312.800000 0 0 1
-30.704148 -12.382923 -22.580715 40.074558 0.383346 2.169374 0.106084 -0.020374 -208445.000000 0 0 1
-30.103678 -11.570123 -21.381215 38.694387 0.366936 2.156237 0.111630 -0.023213 107460.000000 0 0 1
-29.968938 -12.269823 -20.141715 38.136262 0.388599 2.127218 0.111658 -0.019671 -342435.000000 0 0 1
-28.767588 -12.976623 -20.101515 37.417079 0.423756 2.137944 0.112907 -0.021776 -865467.000000 0 0 1
-28.354828 -13.257223 -18.678115 36.450271 0.437350 2.108805 0.095017 -0.027513 -240208.000000 0 0 1
-27.725198 -12.216423 -17.982915 35.232270 0.415031 2.106458 0.073933 -0.024316 55780.300000 0 0 1
-27.526678 -12.501323 -16.589215 34.484825 0.426302 2.072658 0.081499 -0.029251 -94511.300000 0 0 1
-27.245398 -11.198723 -15.799715 33.426847 0.389980 2.063109 0.067544 -0.021506 -853759.000000 0 0 1
-26.011098 -10.595623 -15.960115 32.304330 0.386827 2.087544 0.057507 -0.021673 -498624.000000 0 0 1
-25.936718 -9.348923 -15.254015 31.508740 0.345955 2.076154 0.059528 -0.031248 -837.280000 0 0 1
-24.522198 -8.768723 -15.509515 30.311281 0.343414 2.107929 0.065361 -0.028003 247310.000000 0 0 1
-23.515198 -9.453023 -14.805015 29.351536 0.382226 2.099487 0.059227 -0.027027 147563.000000 0 0 1
-22.271898 -8.775423 -14.888715 28.190767 0.375335 2.127207 0.094162 -0.050632 732669.000000 0 0 1
-21.218298 -9.165423 -13.791215 26.915029 0.407750 2.108772 0.068010 -0.027243 406101.000000 0 0 1
-20.436798 -10.340523 -13.942515 26.813856 0.468417 2.117617 0.065360 -0.018537 844355.000000 0 0 1
-19.170998 -10.220423 -13.274115 25.459504 0.489790 2.119265 0.085184 -0.021911 532814.000000 0 0 1
-18.160798 -11.230923 -13.826115 25.438351 0.553851 2.145415 0.089570 -0.012967 -505684.000000 0 0 1
-17.527998 -10.876123 -15.018715 25.516320 0.555357 2.200113 0.095805 -0.027049 -381512.000000 0 0 1
-18.286098 -10.985723 -16.189715 26.780112 0.540985 2.219988 0.085604 -0.034582 -599738.000000 0 0 1
-17.584198 -10.584623 -17.473715 26.954944 0.541844 2.276089 0.091286 -0.033450 -621662.000000 0 0 1
-18.412698 -10.709323 -18.571415 28.259769 0.526800 2.287852 0.058908 -0.020545 -219852.000000 0 0 1
-17.800698 -10.405123 -19.778315 28.571195 0.528970 2.335394 0.064411 -0.026998 -141313.000000 0 0 1
-18.718598 -10.703323 -21.000515 30.099314 0.519427 2.342989 0.072680 -0.025208 902427.000000 0 0 1
-19.943698 -9.950723 -21.019015 30.636041 0.462800 2.326894 0.054823 -0.033752 390200.000000 0 0 1
-20.915998 -10.551923 -21.830215 32.021561 0.467234 2.320928 0.063728 -0.019858 177836.000000 0 0 1
-22.067398 -9.544623 -22.061715 32.631107 0.408224 2.313246 0.050254 -0.019504 293140.000000 0 0 1
-21.586598 -8.503723 -22.925015 32.616727 0.375267 2.350208 0.052695 -0.031885 950229.000000 0 0 1
-22.667798 -8.201323 -23.833715 33.898920 0.347153 2.350518 0.057226 -0.029741 961368.000000 0 0 1
-22.095798 -7.440823 -25.090175 34.250650 0.324825 2.392851 0.045955 -0.030381 -205212.000000 0 0 1
-21.276898 -8.283323 -25.821235 34.468189 0.371258 2.417548 0.056993 -0.037512 -362449.000000 0 0 1
-20.617298 -7.606023 -26.859425 34.703794 0.353425 2.455871 0.046023 -0.046798 -840219.000000 0 0 1
-19.359298 -8.311723 -27.300235 34.484344 0.405541 2.484335 0.060363 -0.040108 -1067130.000000 0 0 1
-19.558698 -9.494123 -28.064555 35.500709 0.451913 2.482479 0.055204 -0.036505 191314.000000 0 0 1
-18.346598 -10.021323 -28.585265 35.413867 0.499938 2.510151 0.037696 -0.022921 -159079.000000 0 0 1
-18.426798 -11.169623 -29.575105 36.592270 0.544938 2.511943 0.036873 -0.021691 -267511.000000 0 0 1
-19.004898 -10.836023 -30.819905 37.795133 0.518197 2.524296 0.040606 -0.023152 389128.000000 0 0 1
-19.032298 -12.064723 -31.496625 38.727552 0.564979 2.520576 0.048517 -0.016513 -16158.900000 0 0 1
-19.790598 -12.161623 -32.880895 40.258243 0.551024 2.526551 0.045799 -0.018483 481555.000000 0 0 1
-19.075398 -11.533523 -33.957015 40.619846 0.543816 2.560696 0.041171 -0.019714 413419.000000 0 0 1
-19.801698 -11.609723 32.948042 40.155527 0.530285 0.608492 0.042927 -0.021462 122566.000000 0 0 1
-19.206898 -12.606423 31.952329 39.354519 0.580825 0.623380 0.050405 -0.020841 874021.000000 0 0 1
-17.849398 -12.255523 31.563479 38.275999 0.601681 0.601251 0.053067 -0.017421 1349430.000000 0 0 1
-17.193098 -13.025123 30.600659 37.438707 0.648334 0.613994 0.052513 -0.020875 18168.900000 0 0 1
-17.113898 -14.584823 30.775789 38.114981 0.705782 0.630986 0.051139 -0.010914 -2181500.000000 0 0 1
-18.265498 -15.140023 30.293359 38.477738 0.692108 0.664386 0.041576 -0.014351 -875014.000000 0 0 1
-18.492898 -16.443823 30.785629 39.498627 0.726814 0.677073 0.048365 -0.018284 -107921.000000 0 0 1
-19.008198 -16.520823 32.250023 40.918372 0.715503 0.662991 0.027460 -0.015925 -1012160.000000 0 0 1
-18.018398 -16.122123 33.156928 41.036172 0.729912 0.630059 0.047536 -0.014247 -256587.000000 0 0 1
-18.524698 -15.971623 -33.715075 41.652893 0.711523 2.513976 0.039121 -0.013545 -91332.400000 0 0 1
-17.423198 -15.547023 -32.730295 40.206343 0.728554 2.521902 0.053268 -0.010725 -271675.000000 0 0 1
-16.920098 -14.317423 -33.186355 39.907549 0.702271 2.552744 0.037649 -0.009000 -200159.000000 0 0 1
-15.677698 -13.894723 -32.660485 38.801557 0.725179 2.571278 0.043543 -0.009194 270563.000000 0 0 1
-15.725698 -13.538323 -31.163645 37.440040 0.710791 2.554151 0.057803 -0.018086 -608326.000000 0 0 1
-15.720498 -14.687523 -30.312335 37.171159 0.751441 2.524354 0.063602 -0.023011 -161151.000000 0 0 1
-16.214998 -14.436223 -29.019445 36.241674 0.727430 2.499293 0.058791 -0.023533 -75042.000000 0 0 1
-16.145798 -15.678423 -28.090215 35.993888 0.770713 2.466128 0.087005 -0.023439 -481244.000000 0 0 1
-14.887198 -16.036223 -27.623375 35.239750 0.822538 2.471670 0.075599 -0.034526 -478170.000000 0 0 1
-14.190598 -16.931723 -28.512475 36.069621 0.873247 2.482396 0.073683 -0.031670 -648155.000000 0 0 1
-12.844698 -17.367523 -27.956175 35.329377 0.933996 2.483730 0.063910 -0.035357 -450661.000000 0 0 1
-11.864898 -16.336923 -28.118295 34.616606 0.942661 2.518843 0.059040 -0.032912 -409008.000000 0 0 1
-10.589498 -16.782123 -27.716955 34.088220 1.007895 2.520245 0.071693 -0.034236 -511230.000000 0 0 1
-9.618698 -15.920623 -28.514805 34.045260 1.027319 2.563590 0.061474 -0.044073 -831044.000000 0 0 1
-9.710498 -14.488223 -28.380155 33.311193 0.980328 2.590534 0.059048 -0.035397 -52442.100000 0 0 1
-8.941198 -13.911423 -27.318565 31.933943 0.999553 2.597256 0.076533 -0.036750 16985.200000 0 0 1
-8.738098 -12.407223 -27.408455 31.329171 0.957207 2.635931 0.066385 -0.036401 -127074.000000 0 0 1
-7.842998 -12.067123 -28.433445 31.868305 0.994458 2.673027 0.081283 -0.035810 51677.600000 0 0 1
-7.570098 -10.700523 -28.556255 31.420810 0.955087 2.711273 0.081119 -0.026357 37458.400000 0 0 1
-6.747698 -10.356523 -29.831735 32.291197 0.993339 2.748777 0.087615 -0.022617 506510.000000 0 0 1
-5.365698 -10.743223 -29.802395 32.130831 1.107589 2.758552 0.097785 -0.028623 1121080.000000 0 0 1
-4.563698 -10.335623 -30.925125 32.924395 1.154991 2.791313 0.096127 -0.025768 330807.000000 0 0 1
-4.320698 -8.851123 -31.105555 32.627693 1.116672 2.834936 0.091610 -0.028853 -1091490.000000 0 0 1
-3.132598 -8.541223 -31.757065 33.034480 1.219267 2.862591 0.082650 -0.026936 -402670.000000 0 0 1
-3.142398 -7.144123 -32.111585 33.046438 1.156409 2.903167 0.069885 -0.023839 -55175.200000 0 0 1
-1.809698 -6.640323 -32.687275 33.403995 1.304726 2.934068 0.080419 -0.026643 -39417.100000 0 0 1
-1.551098 -7.109223 -34.023580 34.792973 1.355982 2.930901 0.072706 -0.026143 -137178.000000 0 0 1
-0.380398 -6.545323 33.552737 34.187309 1.512744 0.192973 0.074993 -0.023538 414035.000000 0 0 1
0.193402 -7.295623 32.258584 33.073853 -1.544293 0.222494 0.055980 -0.018943 76742.900000 0 0 1
-0.396098 -6.887923 31.067049 31.823920 1.513353 0.218531 0.056520 -0.015546 -196818.000000 0 0 1
0.154002 -7.455323 29.923609 30.838741 -1.550143 0.244224 0.052305 -0.020692 -182557.000000 0 0 1
-0.281798 -6.793023 28.616729 29.413292 1.529337 0.233259 0.044926 -0.012395 -65894.900000 0 0 1
0.194702 -5.475023 28.467379 28.989747 -1.535249 0.190123 0.049583 -0.016706 76478.000000 0 0 1
-0.117998 -5.046223 27.132409 27.597933 1.547417 0.183933 0.052936 -0.005874 -565596.000000 0 0 1
-1.388398 -4.248723 26.848149 27.217685 1.254955 0.164972 0.035530 0.004128 -341222.000000 0 0 1
-2.555698 -5.013623 26.982799 27.563371 1.099379 0.205609 0.026140 0.005372 -862012.000000 0 0 1
-3.666198 -4.158923 27.077939 27.639689 0.848282 0.201957 0.010894 0.005517 -1657230.000000 0 0 1
-4.903398 -4.846423 27.454979 28.307367 0.779554 0.246025 0.011520 0.010427 -1500640.000000 0 0 1
-5.408098 -5.620623 26.404009 27.531993 0.804666 0.287238 0.011664 0.013581 -455308.000000 0 0 1
-6.598398 -6.281823 26.762509 28.270692 0.760825 0.328113 0.005114 0.011915 168601.000000 0 0 1
-6.535798 -7.836223 26.610869 28.500200 0.875636 0.366163 0.013472 0.013987 162785.000000 0 0 1
-5.834198 -8.413523 27.696329 29.528154 0.964493 0.354087 0.017300 0.008557 -56279.000000 0 0 1
-5.730498 -9.806123 27.549199 29.798608 1.041942 0.391041 0.017895 0.003827 -291.910000 0 0 1
-5.209798 -10.474723 28.836489 31.119205 1.109256 0.385405 0.026278 -0.008780 2106.650000 0 0 1
-5.133398 -11.854023 28.710029 31.482303 1.162126 0.422804 0.044369 -0.019670 86367.800000 0 0 1
-4.748598 -12.505923 29.891149 32.747948 1.207905 0.420796 0.052872 -0.024623 -18075.400000 0 0 1
-4.721798 -14.037523 29.955789 33.417012 1.246315 0.459164 0.066534 -0.037727 657167.000000 0 0 1
-6.044998 -14.595723 29.963139 33.872804 1.178141 0.485208 0.093410 -0.040415 585484.000000 0 0 1
-5.980598 -16.003723 30.255269 34.745762 1.213165 0.514048 0.090638 -0.046277 42828.800000 0 0 1
-6.333198 -16.257523 31.748239 36.226608 1.199327 0.502505 0.102929 -0.050009 -104921.000000 0 0 1
-7.724998 -16.464023 31.808069 36.640045 1.132087 0.519388 0.104296 -0.044306 -296514.000000 0 0 1
-8.065698 -16.645523 33.153122 37.963909 1.119580 0.508902 0.113496 -0.039258 622340.000000 0 0 1
-9.561898 -17.030623 33.468530 38.750671 1.059202 0.528253 0.125359 -0.038970 873673.000000 0 0 1
-9.913098 -18.354623 33.122685 39.144271 1.075595 0.562041 0.120702 -0.039657 72584.200000 0 0 1
-10.445898 -18.445523 31.805099 38.221963 1.055517 0.587885 0.123433 -0.039478 -452437.000000 0 0 1
-11.085598 -19.831023 31.712679 39.010947 1.061067 0.621652 0.127234 -0.042355 -798674.000000 0 0 1
-12.235298 -20.112723 32.429446 40.073596 1.024270 0.627927 0.123545 -0.033555 -438253.000000 0 0 1
-12.633098 -21.473923 32.331951 40.817638 1.039025 0.656543 0.109003 -0.034564 11541.300000 0 0 1
-12.055698 -22.505023 33.402887 42.042464 1.079007 0.652607 0.117975 -0.039099 989953.000000 0 0 1
-10.618298 -22.618123 33.257417 41.597879 1.131878 0.644337 0.109591 -0.038111 1402110.000000 0 0 1
-9.896198 -23.303423 -33.825185 42.250768 1.169208 2.499061 0.104832 -0.039612 435853.000000 0 0 1
-10.218998 -24.814623 -33.750435 43.119431 1.180148 2.469820 0.110905 -0.030516 -375721.000000 0 0 1
-9.766498 -25.618613 33.292622 43.128836 1.206578 0.688918 0.102079 -0.027320 35711.600000 0 0 1
-9.754298 -26.981343 33.647578 44.218760 1.223896 0.706044 0.097894 -0.023453 -533502.000000 0 0 1
-9.049898 -27.862413 32.583633 43.816753 1.256739 0.732307 0.082198 -0.020861 714698.000000 0 0 1
-7.684698 -27.580153 32.271461 43.141240 1.299057 0.725689 0.080616 -0.024809 612564.000000 0 0 1
-6.740598 -28.122403 33.191038 44.022156 1.335547 0.716724 0.081025 -0.028119 871352.000000 0 0 1
-5.228398 -27.766363 32.922933 43.384635 1.384676 0.709233 0.080768 -0.026826 989465.000000 0 0 1
-4.863598 -26.580993 33.568153 43.093209 1.389825 0.677781 0.077087 -0.027665 -17592.000000 0 0 1
-5.037298 -25.352363 32.820810 41.777054 1.374659 0.667102 0.081462 -0.021172 -107125.000000 0 0 1
-4.631898 -24.089423 33.679768 41.666312 1.380835 0.629501 0.076207 -0.026619 648305.000000 0 0 1
-3.237898 -23.998623 33.971161 41.718793 1.436686 0.619293 0.060366 -0.022165 487665.000000 0 0 1
-2.935098 -22.819623 -33.417835 40.572179 1.442877 2.538638 0.056033 -0.021859 97498.700000 0 0 1
34.672615 -15.493123 2.395885 38.052166 -0.420223 1.507791 0.117902 -0.050937 -116238.000000 0 0 1
35.611915 -16.072323 3.242485 39.205124 -0.423950 1.487996 0.098855 -0.048023 -59678.500000 0 0 1
35.004855 -16.220723 4.492885 38.841186 -0.433929 1.454864 0.103446 -0.051235 -89931.100000 0 0 1
35.969885 -16.241323 5.687385 39.874297 -0.424122 1.427675 0.080578 -0.033660 -192954.000000 0 0 1
-36.561958 -17.204923 5.574285 40.790425 0.439827 1.433711 0.093914 -0.033055 -231556.000000 0 0 1
-35.920071 -17.282423 6.819085 40.440494 0.448442 1.401367 0.081191 -0.028230 -239264.000000 0 0 1
-34.538088 -17.949823 6.720985 39.499966 0.479292 1.399813 0.065520 -0.034097 -300342.000000 0 0 1
-34.689868 -19.372223 6.440885 40.251149 0.509300 1.410088 0.071303 -0.038327 462120.000000 0 0 1
-33.559088 -20.025023 7.007885 39.702952 0.537996 1.393359 0.043478 -0.029800 251835.000000 0 0 1
-33.656258 -21.560823 7.088985 40.593922 0.569752 1.395265 0.039372 -0.028897 -565272.000000 0 0 1
-33.481088 -22.285223 5.872485 40.646039 0.587268 1.425810 0.066562 -0.032449 242146.000000 0 0 1
-33.563408 -23.663823 6.125585 41.521099 0.614106 1.422726 0.089889 -0.034229 -230175.000000 0 0 1
-32.988708 -24.536623 4.978785 41.413633 0.639514 1.450284 0.090575 -0.022453 -574061.000000 0 0 1
-33.709378 -24.427923 3.797285 41.802691 0.627087 1.479833 0.091916 -0.023451 50475.100000 0 0 1
-33.149958 -25.200693 2.772585 41.733462 0.649999 1.504312 0.086072 -0.018138 -100728.000000 0 0 1
-33.859308 -24.882123 1.441885 42.043452 0.633746 1.536494 0.093621 -0.022545 -106452.000000 0 0 1
-35.189666 -25.353223 1.377785 43.393511 0.624335 1.539040 0.087588 -0.013081 -58547.700000 0 0 1
-35.738044 -24.994023 0.131885 43.611081 0.610301 1.567772 0.091739 -0.015653 -33757.800000 0 0 1
-36.721408 -23.783123 0.106385 43.750544 0.574731 1.568365 0.100802 -0.023436 199582.000000 0 0 1
35.479125 -24.221323 0.107385 42.958728 -0.599015 1.568297 0.077461 -0.005503 95293.900000 0 0 1
34.611405 -23.209023 0.535585 41.676072 -0.590693 1.557945 0.100579 -0.022588 -259348.000000 0 0 1
33.131705 -23.564523 0.362185 40.658674 -0.618228 1.561888 0.069167 -0.008753 -136228.000000 0 0 1
32.671255 -23.401823 -0.971115 40.199493 -0.621570 1.594956 0.073803 -0.017151 298948.000000 0 0 1
31.255175 -23.414823 -1.097515 39.068458 -0.642957 1.598892 0.069574 -0.011075 395926.000000 0 0 1
30.874275 -23.117623 -2.564915 38.655195 -0.642711 1.637199 0.060919 -0.005961 -139501.000000 0 0 1
31.228815 -21.835323 -3.036515 38.226177 -0.610192 1.650316 0.084384 -0.026156 -16295.500000 0 0 1
30.867105 -21.554723 -4.354915 37.899202 -0.609589 1.685959 0.073680 -0.041498 195441.000000 0 0 1
31.074825 -20.099123 -4.752815 37.312313 -0.574121 1.698523 0.084724 -0.043821 810999.000000 0 0 1
30.032475 -19.439923 -4.010115 35.999183 -0.574473 1.682423 0.085106 -0.048600 623472.000000 0 0 1
30.087865 -18.035823 -4.159015 35.325174 -0.540006 1.688805 0.090489 -0.046420 -20450.600000 0 0 1
29.075655 -17.399023 -3.186815 34.033447 -0.539246 1.664571 0.087574 -0.038984 -152484.000000 0 0 1
29.498815 -17.218223 -1.828115 34.205106 -0.528342 1.624267 0.097881 -0.032073 116155.000000 0 0 1
29.975455 -18.407323 -1.099615 35.193275 -0.550708 1.602046 0.093754 -0.029943 280267.000000 0 0 1
28.931065 -19.558923 -0.812815 34.931628 -0.594472 1.594067 0.082195 -0.021095 405793.000000 0 0 1
27.862405 -19.143323 0.027085 33.805046 -0.601993 1.569995 0.082468 -0.005872 163256.000000 0 0 1
27.154105 -20.303223 0.439385 33.908101 -0.642030 1.557838 0.063559 -0.003966 133878.000000 0 0 1
25.943805 -19.981023 1.368485 32.774915 -0.656283 1.529030 0.067207 0.006631 -56868.400000 0 0 1
25.218105 -21.154223 1.814685 32.965847 -0.697986 1.515721 0.057875 0.017058 -79755.800000 0 0 1
24.379705 -20.965523 2.899985 32.285183 -0.710247 1.480851 0.037157 0.016010 143295.000000 0 0 1
22.988005 -20.330723 2.592785 30.797876 -0.724132 1.486509 0.009391 0.015378 -541318.000000 0 0 1
22.944705 -18.961623 2.170185 29.844804 -0.690636 1.498016 0.053767 -0.007482 131442.000000 0 0 1
23.122405 -17.941523 3.169985 29.437946 -0.659895 1.462903 0.073116 -0.004716 -287177.000000 0 0 1
22.825305 -16.504723 2.676285 28.294221 -0.626054 1.476067 0.067904 0.000400 -642105.000000 0 0 1
21.484705 -16.213623 2.476885 27.029781 -0.646476 1.479032 0.051273 0.008030 -831093.000000 0 0 1
21.361405 -14.971623 1.816785 26.148801 -0.611311 1.501262 0.066197 -0.011261 -434363.000000 0 0 1
20.002005 -14.734123 1.190085 24.871487 -0.634891 1.522929 0.039923 -0.005324 -684535.000000 0 1 0
18.922705 -14.537123 2.078385 23.952377 -0.655071 1.483916 0.029995 -0.007678 178204.000000 0 1 0
18.041405 -13.494023 1.736085 22.596348 -0.642186 1.493890 0.040955 -0.013834 -480411.000000 0 1 0
18.583305 -12.087423 2.029685 22.261281 -0.576688 1.479494 0.070617 -0.013427 -300282.000000 0 1 0
19.603605 -11.583423 1.183285 22.800815 -0.533688 1.518876 0.073320 -0.015165 546324.000000 0 1 0
20.045805 -10.273723 1.555385 22.578815 -0.473607 1.501855 0.072940 -0.017096 -149880.000000 0 1 0
20.973705 -9.498723 0.607685 23.032397 -0.425252 1.544409 0.085739 -0.016838 216469.000000 0 1 0
20.317805 -9.131923 -0.609515 22.284001 -0.422400 1.598152 0.090889 -0.009298 974936.000000 0 1 0
21.306605 -8.553323 -1.440215 23.004455 -0.381747 1.633443 0.096800 -0.015241 -195410.000000 0 1 0
20.755005 -8.029023 -2.762215 22.424658 -0.369117 1.694288 0.114618 -0.014948 404679.000000 0 1 0
21.731505 -7.592423 -3.754715 23.323831 -0.336117 1.732482 0.116539 -0.016838 1023730.000000 0 1 0
22.729005 -8.468623 -4.247115 24.624444 -0.356657 1.744139 0.102969 -0.016331 -422981.000000 0 1 0
22.292705 -9.692823 -5.119915 24.842082 -0.410140 1.778382 0.088697 -0.015792 120735.000000 0 1 0
21.572905 -9.347723 -6.344015 24.351934 -0.408887 1.834351 0.070761 -0.021010 -205081.000000 0 1 0
20.238105 -9.016023 -6.225315 23.013564 -0.419103 1.844715 0.079011 -0.018260 -1153850.000000 0 1 0
19.521805 -9.011223 -7.625515 22.813406 -0.432457 1.911612 0.075969 -0.010876 -111525.000000 0 1 0
19.361205 -10.362223 -8.158515 23.426337 -0.491414 1.926513 0.070133 -0.011498 885018.000000 0 1 0
20.492005 -10.792623 -8.933515 24.823591 -0.484759 1.938936 0.054505 -0.008087 288919.000000 0 1 0
20.433905 -12.222923 -9.498615 25.635288 -0.539072 1.950375 0.042761 -0.011065 171507.000000 0 0 1
19.391105 -12.377423 -10.473815 25.276795 -0.568109 1.998041 0.057521 -0.009876 501936.000000 0 0 1
19.359305 -13.686223 -11.048415 26.156507 -0.615381 2.006884 0.061823 -0.006910 782599.000000 0 0 1
18.026805 -14.043223 -11.837115 25.735095 -0.661816 2.048747 0.065092 -0.013466 929099.000000 0 0 1
17.934205 -15.456123 -11.979015 26.533455 -0.711318 2.039207 0.057047 -0.017290 -18483.900000 0 0 1
17.221405 -15.705423 -13.162415 26.767261 -0.739390 2.084878 0.073214 -0.016689 -414869.000000 0 0 1
17.219605 -17.197223 -13.545815 27.852260 -0.784748 2.078698 0.057135 -0.017235 -843584.000000 0 0 1
16.461305 -18.000023 -12.737315 27.517532 -0.830019 2.052038 0.055941 -0.009824 -349294.000000 0 0 1
16.683905 -19.356823 -13.079815 28.707505 -0.859426 2.043869 0.054086 -0.018681 360768.000000 0 0 1
15.665505 -20.420723 -12.482915 28.604845 -0.916417 2.022381 0.053377 -0.018222 1148360.000000 0 0 1
14.319105 -20.245223 -12.923715 27.962980 -0.955199 2.051240 0.064547 -0.030242 160439.000000 0 0 1
13.425705 -20.965823 -12.107715 27.684148 -1.001227 2.023448 0.068388 -0.028097 -46065.200000 0 0 1
11.974205 -20.485323 -12.280815 26.717943 -1.041832 2.048394 0.072778 -0.024927 -119963.000000 0 0 1
11.093805 -21.099723 -11.359215 26.406488 -1.086738 2.015475 0.073645 -0.024868 218076.000000 0 0 1
9.746705 -20.820823 -11.783415 25.833192 -1.132974 2.044443 0.075507 -0.028265 688379.000000 0 0 1
8.773205 -21.208223 -10.648215 25.301034 -1.178561 2.005190 0.066599 -0.026641 -301650.000000 0 0 1
8.546605 -22.557323 -10.533215 26.321586 -1.208625 1.982503 0.074626 -0.023471 124945.000000 0 0 1
7.628905 -22.802123 -9.467415 25.841226 -1.247933 1.945900 0.062210 -0.018946 191210.000000 0 0 1
7.459805 -24.322523 -9.197515 27.052321 -1.273201 1.917702 0.059832 -0.014369 -512388.000000 0 0 1
8.606805 -24.982423 -8.810115 27.853486 -1.239017 1.892625 0.057532 -0.002331 -1034520.000000 0 0 1
8.834605 -26.171043 -9.587615 29.238606 -1.245236 1.904886 0.037356 -0.005540 628375.000000 0 0 1
10.257505 -26.776003 -9.375115 30.167259 -1.204956 1.886801 0.042205 -0.006511 546557.000000 0 0 1
10.593005 -27.266513 -8.096015 30.351605 -1.200244 1.840806 0.047063 -0.002557 1785230.000000 0 0 1
11.972005 -27.805363 -7.999615 31.312313 -1.164222 1.829139 0.050067 0.006213 2019280.000000 0 0 1
12.501205 -27.976163 -6.540415 31.332457 -1.150563 1.781085 0.045606 -0.001695 17830.400000 0 0 1
12.033205 -29.082423 -5.745915 31.993763 -1.178483 1.751371 0.045099 -0.004638 32223.500000 0 0 1
10.648105 -29.210223 -5.494915 31.572351 -1.221233 1.745729 0.042597 -0.004741 -188561.000000 0 0 1
10.209205 -30.332053 -4.532015 32.323373 -1.246125 1.711468 0.044316 -0.008526 46483.300000 0 0 1
10.433605 -31.710183 -4.967615 33.750156 -1.252924 1.718521 0.054152 -0.010723 -104340.000000 0 0 1
9.638505 -32.206583 -6.041515 34.156473 -1.280008 1.748609 0.058037 -0.017367 194976.000000 0 0 1
9.684105 -33.719713 -6.242815 35.633884 -1.291129 1.746898 0.052780 -0.013684 -157184.000000 0 0 1
9.210805 33.795790 -5.098715 35.397617 1.304716 1.715340 0.054095 -0.019308 -79695.200000 0 0 1
9.742705 32.477404 -4.939715 34.265185 1.279354 1.715462 0.049124 -0.014900 -378208.000000 0 0 1
9.090205 31.603748 -3.910315 33.116753 1.290726 1.689149 0.045796 -0.006943 -458424.000000 0 0 1
7.746405 31.386878 -4.247115 32.606455 1.328828 1.701421 0.039735 -0.009755 -877512.000000 0 0 1
7.179905 30.449098 -3.360415 31.464123 1.339226 1.677802 0.029129 -0.008360 761819.000000 0 0 1
5.776205 29.829878 -3.729115 30.611967 1.379525 1.692919 0.042813 -0.012234 807864.000000 0 0 1
5.717005 29.003158 -4.876715 29.960803 1.376175 1.734294 0.048818 -0.015975 -102647.000000 0 0 1
5.728005 29.790808 -6.054715 30.934801 1.380840 1.767793 0.040105 -0.019029 -332965.000000 0 0 1
6.112305 29.042878 -7.377815 30.582368 1.363366 1.814444 0.070546 -0.026286 -273702.000000 0 0 1
5.299505 27.936488 -7.758115 29.474065 1.383326 1.837153 0.103317 -0.032726 -81714.500000 0 0 1
5.404505 26.733228 -7.027415 28.164849 1.371321 1.822971 0.083387 -0.027192 -384080.000000 0 0 1
4.406305 25.628118 -7.428315 27.044331 1.400529 1.849045 0.090073 -0.037725 -638294.000000 0 0 1
3.074805 25.748668 -7.022715 26.865719 1.451943 1.835269 0.088263 -0.031711 141106.000000 0 0 1
2.128505 26.402828 -7.903915 27.642572 1.490354 1.860776 0.091165 -0.037075 629470.000000 0 0 1
1.726005 25.575348 -9.163015 27.222020 1.503411 1.914103 0.097048 -0.037755 -868421.000000 0 0 1
2.703405 25.377048 -10.151915 27.465694 1.464667 1.949398 0.096360 -0.036712 -268958.000000 0 0 1
2.338705 24.587148 -11.257315 27.142670 1.475963 1.998460 0.106883 -0.034091 -442044.000000 0 0 1
1.910005 23.109748 -11.065615 25.693510 1.488334 2.016040 0.110549 -0.033169 -625516.000000 0 0 1
0.720305 22.891948 -10.400715 25.154225 1.539341 1.997067 0.111931 -0.023098 -710390.000000 0 0 1
0.690005 21.473148 -10.137215 23.755743 1.538674 2.011667 0.079320 -0.019173 82147.100000 0 1 0
-0.621195 21.104148 -9.356215 23.093500 -1.541370 1.987934 0.077779 -0.008126 792984.000000 0 1 0
-1.757595 20.913848 -10.179515 23.325967 -1.486954 2.022393 0.082039 -0.018763 -382341.000000 0 1 0
-2.878995 20.536248 -9.445715 22.787006 -1.431513 1.998214 0.063030 -0.001158 412118.000000 0 1 0
-4.037395 19.869148 -10.255415 22.721293 -1.370327 2.039082 0.057061 -0.018462 500354.000000 0 1 0
-5.191395 19.486648 -9.554915 22.315386 -1.310436 2.013270 0.060056 -0.015864 176717.000000 0 1 0
-6.059395 18.707448 -10.372315 22.232180 -1.257557 2.056177 0.063999 -0.031285 -87706.500000 0 1 0
-6.993195 17.783548 -9.511915 21.345630 -1.196131 2.032657 0.057654 -0.028408 435647.000000 0 1 0
-7.985695 18.427348 -8.710615 21.890941 -1.161865 1.980033 0.070189 -0.017883 606479.000000 0 1 0
-9.224895 18.572948 -9.412215 22.773733 -1.109805 1.996863 0.075960 -0.023019 206975.000000 0 1 0
-10.376995 19.039348 -8.503515 23.291384 -1.071778 1.944529 0.095681 -0.023987 -41965.300000 0 1 0
-10.647795 18.050048 -7.571415 22.282417 -1.037833 1.917493 0.088576 -0.021019 -289819.000000 0 1 0
-11.644995 18.348648 -6.620715 22.718114 -1.005287 1.866517 0.095020 -0.012169 -218739.000000 0 1 0
-12.093295 17.098448 -5.767315 21.722492 -0.955205 1.839519 0.080042 -0.022104 -150666.000000 0 1 0
-13.125195 17.436248 -4.888515 22.364952 -0.925535 1.791155 0.088240 -0.013481 -283094.000000 0 1 0
-13.361495 16.486648 -3.951815 21.586013 -0.889720 1.754908 0.073333 -0.011528 -640954.000000 0 1 0
-14.498495 16.931048 -3.076715 22.501843 -0.862641 1.707958 0.064723 -0.007853 -884929.000000 0 1 0
-15.743295 16.987848 -3.708615 23.456175 -0.823403 1.729571 0.105061 -0.021321 265119.000000 0 1 0
-16.791595 17.384348 -2.797915 24.331082 -0.802741 1.686045 0.100239 -0.015007 248347.000000 0 1 0
-18.182995 17.399148 -3.428215 25.398904 -0.763373 1.706184 0.109067 -0.030507 -531358.000000 0 0 1
-18.290995 18.333648 -4.495315 26.284806 -0.786563 1.742665 0.093173 -0.030681 110514.000000 0 0 1
-19.593595 18.340948 -5.055515 27.310394 -0.752389 1.756983 0.079026 -0.033384 293820.000000 0 0 1
-19.698695 19.169848 -6.335815 28.207521 -0.771793 1.797344 0.066957 -0.016426 -2139.590000 0 0 1
-19.594395 20.578448 -6.173415 29.077894 -0.809889 1.784731 0.069780 -0.018649 -93812.700000 0 0 1
-19.628295 21.288348 -7.416615 29.890967 -0.825948 1.821538 0.057385 -0.006969 -5512.960000 0 0 1
-19.556895 22.830248 -7.175115 30.905900 -0.862470 1.805094 0.049748 -0.002192 814115.000000 0 0 1
-18.232295 23.252198 -6.782815 30.316463 -0.905819 1.796440 0.064013 -0.006273 912050.000000 0 0 1
-18.238595 23.958808 -5.597315 30.626799 -0.920135 1.754588 0.043735 -0.005481 452643.000000 0 0 1
-16.781995 24.397438 -5.227515 30.069873 -0.968265 1.745530 0.065617 -0.008046 336678.000000 0 0 1
-16.547695 25.048378 -4.014415 30.288001 -0.986985 1.703729 0.048970 -0.015654 362728.000000 0 0 1
-15.310995 25.775318 -3.943215 30.238098 -1.034787 1.701574 0.070195 -0.021883 629832.000000 0 0 1
-15.065195 27.014938 -4.832215 31.306825 -1.062090 1.725766 0.070742 -0.017725 119778.000000 0 0 1
-15.854395 28.167568 -4.497315 32.634332 -1.058134 1.709046 0.066101 -0.017444 562654.000000 0 0 1
-15.149995 29.330678 -5.033615 33.393837 -1.094017 1.722108 0.074784 -0.019336 526922.000000 0 0 1
-15.642195 30.704468 -4.489615 34.750529 -1.099622 1.700354 0.079172 -0.021843 572286.000000 0 0 1
-17.018995 30.963868 -4.750715 35.650759 -1.068229 1.704451 0.078345 -0.012468 353421.000000 0 0 1
-17.372395 32.173908 -4.085815 36.792042 -1.075700 1.682077 0.093603 -0.019907 -36062.600000 0 0 1
12.926702 -8.551623 19.168779 24.651003 -0.584450 0.679946 0.089080 -0.006073 160199.000000 0 1 0
13.243502 -9.936023 19.391179 25.497700 -0.643665 0.706703 0.078628 -0.009705 -19229.500000 0 0 1
13.872402 -10.512123 18.260779 25.227055 -0.648457 0.761420 0.091281 -0.014296 63884.200000 0 0 1
14.432402 -11.972723 18.554079 26.379806 -0.692515 0.790705 0.124922 -0.022266 620033.000000 0 0 1
15.555902 -11.939323 19.474179 27.636519 -0.654614 0.788861 0.105024 -0.023913 877759.000000 0 0 1
15.736502 -13.215423 20.134479 28.769465 -0.698539 0.795601 0.102710 -0.025582 62665.700000 0 0 1
16.203002 -14.465323 19.320179 29.069781 -0.728798 0.843819 0.114038 -0.026034 -285440.000000 0 0 1
15.211402 -14.860523 18.400679 28.121289 -0.773731 0.857496 0.124510 -0.033824 65158.500000 0 0 1
15.507202 -16.075523 17.807079 28.565500 -0.803391 0.897742 0.131286 -0.035726 -151074.000000 0 0 1
14.814402 -16.386523 16.455779 27.545912 -0.835743 0.930548 0.122409 -0.038161 727758.000000 0 0 1
13.385102 -16.196123 16.387779 26.646475 -0.880141 0.908401 0.114689 -0.032487 868527.000000 0 0 1
12.947002 -15.967523 15.060379 25.483360 -0.889484 0.938512 0.121910 -0.031953 -344039.000000 0 0 1
12.548602 -17.181523 14.244479 25.604244 -0.939987 0.980830 0.088884 -0.019688 -301364.000000 0 0 1
13.555102 -18.139323 13.947279 26.595158 -0.929040 1.018752 0.096582 -0.019239 421777.000000 0 0 1
12.957202 -19.349023 13.436479 26.885177 -0.980727 1.047460 0.086750 -0.019712 -89152.400000 0 0 1
14.020902 -20.339623 12.994079 27.912937 -0.967261 1.086572 0.097048 -0.022003 -260646.000000 0 0 1
14.687802 -21.066923 13.987579 29.243788 -0.961954 1.072068 0.067118 -0.016044 180206.000000 0 0 1
15.423502 -22.150223 13.402479 30.135415 -0.962549 1.109910 0.053567 -0.016857 224895.000000 0 0 1
16.292502 -23.041523 14.354479 31.660835 -0.955326 1.100239 0.045324 -0.019036 -200256.000000 0 0 1
17.498702 -22.414823 14.664579 31.994980 -0.907950 1.094670 0.048563 -0.015970 -415002.000000 0 0 1
18.202002 -23.141423 15.682179 33.358193 -0.904307 1.081376 0.039993 -0.018602 -492629.000000 0 0 1
19.579802 -22.634323 16.016979 33.944437 -0.857630 1.079399 0.042940 -0.014563 -138107.000000 0 0 1
20.623902 -23.032223 15.113979 34.413093 -0.840508 1.116096 0.035305 -0.022699 166141.000000 0 0 1
21.867802 -22.526123 15.554779 35.036811 -0.800226 1.110788 0.041060 -0.017065 -607360.000000 0 0 1
23.028102 -23.086623 14.771879 35.797961 -0.786667 1.145440 0.034125 -0.019480 -832849.000000 0 0 1
23.286702 -24.330623 15.232879 36.963364 -0.807318 1.146030 0.039512 -0.015745 -482810.000000 0 0 1
24.272802 -24.979023 14.516279 37.733842 -0.799736 1.175912 0.046861 -0.021740 -452446.000000 0 0 1
24.680002 -26.388093 15.146079 39.177004 -0.818833 1.173847 0.057643 -0.014383 128714.000000 0 0 1
25.412902 -26.277783 16.390279 40.062185 -0.802128 1.149306 0.049055 -0.004098 414465.000000 0 0 1
25.771002 -27.486053 17.047779 41.355222 -0.817590 1.145898 0.047409 0.003358 -440662.000000 0 0 1
26.427402 -27.322733 18.400679 42.231792 -0.802054 1.119973 0.032125 0.013167 160975.000000 0 0 1
25.590702 -26.884823 19.497879 41.926662 -0.810055 1.087108 0.040328 0.011524 326315.000000 0 0 1
26.321402 -26.769613 20.690979 42.866595 -0.793840 1.067081 0.037299 0.003457 -50709.300000 0 0 1
25.366202 -26.378953 21.819979 42.607568 -0.804968 1.033151 0.025184 -0.007109 116861.000000 0 0 1
24.548102 -27.466893 22.172579 42.996078 -0.841454 1.028985 0.041254 0.004595 734075.000000 0 0 1
23.319102 -27.086313 22.845279 42.418812 -0.859998 1.002063 0.045930 0.003335 856573.000000 0 0 1
22.501302 -28.354133 23.081979 42.930679 -0.899982 1.003141 0.094677 -0.003512 -441084.000000 0 0 1
23.121402 -29.236113 23.997869 44.331109 -0.901659 0.998775 0.064328 -0.004961 326728.000000 0 0 1
22.969902 -30.607473 23.540869 44.928903 -0.926996 1.019305 0.076138 -0.014365 60827.900000 0 0 1
24.127602 -31.507213 24.061369 46.408998 -0.917272 1.025743 0.044888 -0.010352 50052.100000 0 0 1
23.985802 -31.789923 25.468989 47.271421 -0.924415 1.001806 0.046767 -0.011740 408983.000000 0 0 1
25.164402 -32.288923 26.088789 48.543244 -0.908774 1.003405 0.055645 -0.011636 -612384.000000 0 0 1
24.931102 -32.671983 27.566329 49.486572 -0.918981 0.979971 0.055021 -0.016841 40201.200000 0 0 1
24.111602 -33.764023 27.827179 49.957286 -0.950656 0.980004 0.034038 -0.005983 218567.000000 0 0 1
22.779802 -33.778583 27.338119 49.064088 -0.977469 0.979796 0.033901 -0.007129 -493368.000000 0 0 1
22.026102 33.200292 27.833229 48.601412 0.985037 0.961021 0.069979 -0.022697 63966.200000 0 0 1
21.545302 33.321589 29.186629 49.258377 0.996824 0.936611 0.061387 -0.021283 389568.000000 0 0 1
20.914802 32.144888 29.675119 48.490571 0.993970 0.912238 0.064677 -0.032573 79025.600000 0 0 1
20.685702 32.271479 31.158279 49.398229 1.000781 0.888268 0.048062 -0.033896 -176726.000000 0 0 1
21.865502 32.164708 31.898909 50.301183 0.973758 0.883877 0.037385 -0.017477 -105068.000000 0 0 1
21.540802 32.629302 33.191118 51.286722 0.987307 0.866933 0.033549 -0.022125 295082.000000 0 0 1
22.736302 32.494379 -33.958305 52.211020 0.960272 2.278914 0.013665 -0.006466 310107.000000 0 0 1
22.993102 31.122348 -33.750325 51.345572 0.934504 2.288050 0.021780 -0.005952 856317.000000 0 0 1
24.284502 30.958678 -33.118625 51.429759 0.905630 2.270457 0.006833 0.006790 899606.000000 0 0 1
24.590002 29.446598 -32.975465 50.588059 0.875033 2.280808 0.028648 -0.010779 -97979.800000 0 0 1
24.812302 28.743868 33.958549 50.941568 0.858677 0.841134 0.043389 -0.018679 425904.000000 0 0 1
24.139402 27.489758 33.981179 49.931133 0.850200 0.822268 0.050731 -0.031784 -84238.900000 0 0 1
24.355002 26.675088 32.696580 48.721585 0.830832 0.835118 0.072022 -0.038841 1247820.000000 0 0 1
25.671702 26.066248 32.506046 48.940051 0.793024 0.844371 0.060441 -0.042047 1617410.000000 0 0 1
25.757102 25.480838 31.210799 47.820659 0.780006 0.859702 0.079663 -0.054252 -284635.000000 0 0 1
27.131002 24.808218 31.007339 48.093597 0.740707 0.870128 0.063708 -0.041693 -141199.000000 0 0 1
27.358802 23.779488 31.941809 48.314048 0.715519 0.848474 0.086716 -0.047272 772856.000000 0 0 1
28.441302 24.094088 32.839725 49.677764 0.702838 0.848573 0.091922 -0.058481 -469253.000000 0 0 1
28.583802 23.245738 -34.044817 50.164207 0.682767 2.316743 0.075254 -0.055236 268897.000000 0 0 1
27.693802 23.535008 -32.882525 49.011262 0.704395 2.306242 0.082446 -0.045909 1459850.000000 0 0 1
26.294102 23.563048 -33.118575 48.409060 0.730675 2.324220 0.079809 -0.040492 -110585.000000 0 0 1
25.616902 22.209948 -33.442515 47.622571 0.714283 2.349336 0.068969 -0.040361 -868427.000000 0 0 1
25.430602 21.474948 -32.275015 46.363407 0.701265 2.340791 0.060870 -0.040604 289010.000000 0 0 1
24.997702 20.163348 -32.457455 45.661057 0.678757 2.361480 0.066832 -0.032690 -163285.000000 0 0 1
24.852702 19.272048 -31.201135 44.301010 0.659592 2.352231 0.068238 -0.034121 -80108.900000 0 0 1
23.791702 19.668048 -30.351605 43.290844 0.690797 2.347748 0.061883 -0.025045 248048.000000 0 0 1
23.728102 18.881848 -29.182395 42.085142 0.672150 2.337012 0.066262 -0.024485 344060.000000 0 0 1
22.431702 19.126548 -28.338745 40.891204 0.706035 2.336477 0.087112 -0.025760 350591.000000 0 0 1
22.374302 18.367248 -27.053415 39.621364 0.687360 2.322383 0.091334 -0.021358 50302.300000 0 0 1
22.967602 19.140848 -26.037135 39.646125 0.694769 2.287282 0.076042 -0.015262 -105043.000000 0 0 1
22.972302 18.395548 -24.676115 38.406165 0.675211 2.268558 0.083367 -0.006014 -184038.000000 0 0 1
23.922302 17.378248 -24.725515 38.543886 0.628255 2.267235 0.089925 -0.023759 8071.580000 0 0 1
23.720702 16.427648 -23.702515 37.340977 0.605705 2.258493 0.104033 -0.024889 446568.000000 0 0 1
24.803402 15.263548 -23.738215 37.572430 0.551653 2.254668 0.114816 -0.021571 787526.000000 0 0 1
26.118702 15.698948 -23.393315 38.417324 0.541200 2.225503 0.129821 -0.026500 320265.000000 0 0 1
27.033402 14.638448 -23.260015 38.550192 0.496290 2.218516 0.133592 -0.035704 -124819.000000 0 0 1
26.989102 13.760348 -21.970415 37.422693 0.471495 2.198253 0.128838 -0.029188 -474525.000000 0 0 1
25.809802 12.988048 -21.878515 36.242305 0.466222 2.218897 0.117521 -0.023177 -108935.000000 0 0 1
25.421702 12.741848 -20.547515 35.083016 0.464623 2.196518 0.096852 -0.028675 -263390.000000 0 0 1
24.084802 11.977648 -20.670215 33.923436 0.461494 2.225999 0.099247 -0.015215 -710084.000000 0 0 1
23.073902 12.883748 -20.714415 33.578012 0.509246 2.235599 0.119725 -0.017293 -1330810.000000 0 0 1
21.767502 12.457748 -20.985115 32.701601 0.519810 2.267529 0.103696 -0.025673 2698.140000 0 0 1
20.720502 13.560848 -20.838515 32.364788 0.579508 2.270334 0.104211 -0.022154 -695534.000000 0 0 1
21.026402 14.639948 -21.675615 33.559946 0.608215 2.272969 0.093563 -0.014333 -23040.800000 0 0 1
20.123002 15.716648 -21.684515 33.498753 0.663066 2.274863 0.081556 -0.013024 179303.000000 0 0 1
18.823402 15.515148 -22.529915 33.205984 0.689352 2.316501 0.075114 -0.000822 259848.000000 0 0 1
17.808902 14.859148 -21.790315 31.824034 0.695348 2.325006 0.068543 -0.015992 766409.000000 0 0 1
16.641002 14.674048 -22.613015 31.679632 0.722669 2.365710 0.071963 -0.023542 1402770.000000 0 0 1
15.493502 13.708248 -22.093015 30.266582 0.724339 2.389041 0.041316 -0.020561 789894.000000 0 0 1
14.344902 13.816148 -22.907115 30.354540 0.766624 2.425920 0.041840 -0.017877 -522685.000000 0 0 1
13.237802 13.292348 -22.232515 29.089700 0.787454 2.440712 0.053892 -0.020368 -600111.000000 0 0 1
11.904302 13.512448 -22.944715 29.167767 0.848585 2.476154 0.059339 -0.022701 -426124.000000 0 0 1
11.536002 14.851148 -23.041115 29.741031 0.910378 2.457076 0.033834 -0.013906 10880.000000 0 0 1
11.103502 15.151048 -24.349415 30.752822 0.938359 2.484511 0.043864 -0.016867 -559908.000000 0 0 1
10.907602 16.716348 -24.497615 31.599766 0.992658 2.457902 0.040642 -0.019949 230095.000000 0 0 1
12.021902 17.613048 -24.530515 32.503720 0.971874 2.425991 0.054424 -0.017285 1073500.000000 0 0 1
13.195702 17.342148 -25.330405 33.414160 0.920353 2.431151 0.060447 -0.027002 771573.000000 0 0 1
12.963302 17.425748 -26.868585 34.548875 0.931200 2.461792 0.069074 -0.038368 -543243.000000 0 0 1
14.158702 17.364148 -27.592905 35.543648 0.886736 2.459588 0.057592 -0.038225 -268270.000000 0 0 1
13.855802 17.193248 -28.963355 36.420695 0.892477 2.490207 0.060565 -0.041314 -661117.000000 0 0 1
14.940302 17.550448 -29.950915 37.792700 0.865561 2.485702 0.060311 -0.036975 -374859.000000 0 0 1
16.022402 16.637448 -29.963035 37.832599 0.804228 2.484858 0.046382 -0.031436 -72191.700000 0 0 1
16.766402 16.765648 -31.159695 39.155151 0.785376 2.491125 0.050376 -0.017863 -256162.000000 0 0 1
18.033302 15.907348 -31.182435 39.377506 0.722843 2.484685 0.054326 -0.015657 -919121.000000 0 0 1
19.086402 16.336948 -30.385045 39.426357 0.707936 2.450702 0.067015 -0.023623 -520226.000000 0 0 1
20.087402 15.345448 -30.375095 39.517501 0.652359 2.447523 0.072307 -0.021306 -426850.000000 0 0 1
21.421002 15.829048 -30.931345 40.818699 0.636391 2.430691 0.072406 -0.021062 -720127.000000 0 0 1
21.406102 16.112548 -32.308975 41.972673 0.645232 2.449265 0.076162 -0.015134 -251814.000000 0 0 1
22.675702 16.459148 -32.764225 43.111315 0.627865 2.434096 0.087345 -0.013724 -471179.000000 0 0 1
22.465402 17.283148 34.045823 44.300334 0.655754 0.694267 0.072941 -0.001565 38311.500000 0 0 1
23.496102 18.143848 33.621673 44.851788 0.657563 0.723313 0.081292 -0.014366 37547.900000 0 0 1
23.222802 18.585048 32.316966 43.921394 0.674920 0.743962 0.103774 -0.019307 121184.000000 0 0 1
24.155102 19.781348 31.910109 44.643317 0.686178 0.774488 0.105153 -0.021389 124843.000000 0 0 1
25.524102 19.476448 31.865419 45.235127 0.651808 0.789163 0.082053 -0.026711 -414135.000000 0 0 1
26.222702 20.591048 31.381719 45.786828 0.665674 0.815661 0.072619 -0.037483 -165238.000000 0 0 1
27.734902 20.356548 31.203199 46.446243 0.633162 0.834142 0.054322 -0.038425 -35026.400000 0 0 1
28.372802 19.957848 32.394887 47.463252 0.613014 0.819584 0.052696 -0.041789 140491.000000 0 0 1
29.730902 19.600448 32.163277 47.985211 0.582859 0.836217 0.043174 -0.034654 374456.000000 0 0 1
30.325102 18.803948 33.335903 48.831165 0.555053 0.819377 0.031055 -0.034606 -332741.000000 0 0 1
30.616102 19.647748 -33.727125 49.607446 0.570551 2.318396 0.026181 -0.041695 728084.000000 0 0 1
29.496002 19.791348 -32.831425 48.369557 0.590986 2.316872 0.032576 -0.042914 452753.000000 0 0 1
30.029002 20.306148 -31.530345 48.044181 0.594586 2.286672 0.035648 -0.037371 -358869.000000 0 0 1
30.673102 19.307348 -30.814965 47.572839 0.561797 2.275414 0.032128 -0.035989 -215290.000000 0 0 1
31.103102 19.702948 -29.519945 47.191485 0.564668 2.246614 0.011103 -0.028423 -647.722000 0 0 1
32.477102 19.076048 -29.213125 47.666177 0.531080 2.230483 0.055570 -0.010439 -183367.000000 0 0 1
33.571202 19.649548 -29.876415 49.048247 0.529548 2.225751 0.010147 -0.010330 -228398.000000 0 0 1
34.776802 19.141648 -29.320645 49.351078 0.503161 2.206972 0.030450 -0.000097 433218.000000 0 0 1
35.975002 20.076148 -29.667965 50.768501 0.509009 2.194909 0.023138 0.006284 78433.800000 0 0 1
36.714202 19.691648 -30.808765 51.815766 0.492303 2.207543 0.014825 0.001387 875115.000000 0 0 1
-35.698501 20.588648 -30.977815 51.554830 -0.523139 2.215387 0.019408 -0.002814 1084190.000000 0 0 1
-34.790101 20.078548 -32.157455 51.454846 -0.523437 2.245882 0.010505 -0.010361 39635.900000 0 0 1
-34.107201 18.879748 -31.820765 50.322035 -0.505558 2.255370 0.041590 -0.000947 -70629.300000 0 0 1
-33.395001 18.404048 -32.907525 50.367056 -0.503689 2.282803 0.046582 0.000743 -966313.000000 0 0 1
-32.404701 17.339348 -32.625005 49.143755 -0.491322 2.296777 0.027828 0.016516 -788985.000000 0 0 1
-33.081901 16.157148 -32.399005 49.042443 -0.454323 2.292457 0.032779 0.015107 -269019.000000 0 0 1
-32.352201 15.046548 -32.802035 48.466866 -0.435328 2.314194 0.027605 0.017742 -28496.400000 0 0 1
-33.269001 13.868748 -33.276845 49.056264 -0.394962 2.316298 0.046600 0.010952 248537.000000 0 0 1
-32.559801 12.674148 -33.563805 48.448981 -0.371211 2.336114 0.062815 -0.001841 828782.000000 0 0 1
-33.549001 11.659648 -33.822055 49.045023 -0.334482 2.331750 0.076629 -0.006971 549163.000000 0 0 1
-32.961701 10.251948 -33.712635 48.250575 -0.301542 2.344374 0.085960 -0.014667 77828.700000 0 0 1
-32.171101 9.905948 33.300313 47.349957 -0.298702 0.790794 0.066857 -0.019373 -2890.960000 0 0 1
-32.359901 8.551948 32.998342 47.002017 -0.258369 0.792507 0.102769 -0.029408 -398201.000000 0 0 1
-31.307601 7.904648 32.104219 45.533836 -0.247315 0.788284 0.123718 -0.023068 -59010.100000 0 0 1
-30.047201 7.833848 32.753770 45.133280 -0.255041 0.758727 0.083768 -0.015047 707982.000000 0 0 1
-29.121301 7.017548 31.960669 43.803887 -0.236468 0.753014 0.086406 -0.013284 612719.000000 0 0 1
21.026102 -4.455023 -30.978135 37.703966 -0.208793 2.535034 0.042905 -0.021812 345064.000000 0 0 1
22.153902 -4.591123 -31.860605 39.076488 -0.204345 2.524112 0.039576 -0.023674 564879.000000 0 0 1
23.181902 -3.628023 -31.721255 39.456320 -0.155243 2.504719 0.036887 -0.024232 89579.500000 0 0 1
22.861802 -2.181123 -32.025115 39.408467 -0.095117 2.519474 0.033480 -0.022470 -1034410.000000 0 0 1
23.964002 -1.381823 -31.696895 39.760231 -0.057599 2.493441 0.029847 -0.019801 188338.000000 0 0 1
23.774102 -0.033123 -32.030485 39.889360 -0.001393 2.503080 0.020570 -0.021716 -16632.100000 0 0 1
24.795602 0.966477 -31.413755 40.032237 0.038958 2.473027 0.028132 -0.016680 45368.300000 0 0 1
26.100502 0.948277 -31.920915 41.244154 0.036316 2.455852 0.034440 -0.015184 -340904.000000 0 0 1
26.977102 1.765277 -31.190905 41.276541 0.065343 2.427453 0.052576 -0.015885 554377.000000 0 0 1
28.507402 1.512977 -31.414235 42.447794 0.053023 2.403967 0.056056 -0.014517 675505.000000 0 0 1
28.987702 2.162077 -32.594375 43.673273 0.074448 2.413317 0.066801 -0.012879 89546.300000 0 0 1
29.006502 1.279077 -33.677515 44.465585 0.044068 2.430094 0.053906 -0.017144 -260245.000000 0 0 1
29.595802 1.978877 33.188108 44.511548 0.066764 0.729352 0.055412 -0.021018 -442549.000000 0 0 1
28.681302 2.727877 32.469734 43.409008 0.094825 0.725760 0.046620 -0.015405 -428259.000000 0 0 1
29.002402 4.086277 32.420467 43.691231 0.139973 0.734694 0.048587 -0.007563 -259884.000000 0 0 1
28.019102 5.078177 31.768859 42.662845 0.179294 0.730787 0.037274 -0.003852 -282730.000000 0 0 1
28.602502 6.360277 31.641979 43.125063 0.218808 0.747007 0.053932 -0.008430 -59432.500000 0 0 1
27.839102 7.319077 30.965809 42.278432 0.257088 0.748918 0.050731 -0.003030 -317837.000000 0 0 1
28.174902 8.763277 31.427999 43.108459 0.301546 0.753871 0.046947 0.000865 -35695.900000 0 0 1
29.454702 9.199177 31.053369 43.778032 0.302717 0.782239 0.044081 -0.001195 -352969.000000 0 0 1
29.670502 10.598177 31.425259 44.499516 0.343071 0.786689 0.041870 0.006397 -98557.400000 0 0 1
31.037702 10.949777 30.812469 45.084862 0.339158 0.818342 0.057378 0.005932 -499469.000000 0 0 1
32.095002 10.326777 31.526929 46.159276 0.311296 0.818930 0.073995 -0.008370 158167.000000 0 0 1
33.380302 10.577377 30.991179 46.760866 0.306865 0.846299 0.092036 -0.012904 567286.000000 0 0 1
33.980802 12.076877 31.181929 47.674506 0.341480 0.857859 0.090889 -0.011768 -483990.000000 0 0 1
34.287102 12.442577 32.517781 48.865419 0.348115 0.842692 0.095932 -0.007699 98710.400000 0 0 1
34.630302 13.829677 32.776857 49.647156 0.379948 0.849717 0.094705 -0.003174 -124299.000000 0 0 1
33.609502 14.981877 32.584808 49.151042 0.419325 0.846041 0.076117 -0.017277 -942537.000000 0 0 1
33.358102 15.058377 31.198059 48.091959 0.424031 0.864899 0.071279 -0.023508 -216104.000000 0 0 1
32.563502 16.117477 30.783809 47.621399 0.459604 0.867903 0.062054 -0.028754 100228.000000 0 0 1
31.040802 15.876077 31.014469 46.663460 0.472772 0.843783 0.055460 -0.024239 -146748.000000 0 0 1
30.479102 14.862177 30.153089 45.376963 0.453694 0.843969 0.064330 -0.011496 22655.600000 0 0 1
29.193502 14.507277 30.624789 44.728060 0.461193 0.816620 0.055623 -0.014429 -119263.000000 0 0 1
28.319402 13.925677 29.518749 43.211914 0.457015 0.818776 0.052369 -0.005383 -259685.000000 0 0 1
28.622102 12.599177 29.083859 42.706379 0.414666 0.821643 0.047155 -0.001806 -98936.100000 0 0 1
27.966902 12.394177 27.846779 41.366730 0.417162 0.832311 0.056836 -0.010713 116740.000000 0 0 1
27.607502 10.888777 27.649399 40.561421 0.375681 0.820757 0.046382 0.004188 -289484.000000 0 0 1
28.675702 10.098177 27.233869 40.816084 0.338590 0.840308 0.056559 0.005183 -355148.000000 0 0 1
28.229802 8.812377 26.880099 39.963977 0.302580 0.833069 0.055235 0.010920 150737.000000 0 0 1
29.345102 7.859577 26.378319 40.233365 0.261691 0.855776 0.059246 0.008440 185858.000000 0 0 1
29.808002 8.056977 25.008769 39.735002 0.263987 0.890030 0.061261 0.012568 -407720.000000 0 0 1
30.861302 7.177977 24.801539 40.237540 0.228525 0.906661 0.067437 0.018281 -308850.000000 0 0 1
31.593902 7.534277 23.467889 40.070959 0.234100 0.945104 0.088161 0.014966 -249435.000000 0 0 1
32.161602 8.845577 23.465969 40.783141 0.268399 0.957723 0.094179 0.006460 -60980.700000 0 0 1
31.428602 9.985977 23.027579 40.221215 0.307647 0.961216 0.099437 0.002636 -43911.600000 0 0 1
30.729002 9.942577 21.609579 38.860009 0.312926 0.981125 0.079944 0.012392 492545.000000 0 0 1
31.648702 10.397777 20.614079 39.175175 0.317428 1.016668 0.107780 -0.008020 470052.000000 0 0 1
31.213202 10.214377 19.282779 38.084420 0.316261 1.039888 0.087771 -0.016568 -639565.000000 0 0 1
32.122402 10.949577 18.289279 38.551779 0.328519 1.076505 0.120769 -0.045430 1072660.000000 0 0 1
33.439502 10.487577 17.943379 39.372000 0.303913 1.097593 0.137656 -0.038148 1205940.000000 0 0 1
34.421702 10.491977 18.984079 40.685752 0.295861 1.085351 0.162326 -0.033893 528868.000000 0 0 1
35.800102 9.912077 18.495179 41.496605 0.270107 1.108836 0.182833 -0.038773 474563.000000 0 0 1
35.723002 8.483577 18.390479 41.064750 0.233163 1.106447 0.155275 -0.018132 414622.000000 0 0 1
36.573402 7.958377 17.379879 41.267538 0.214260 1.136082 0.181457 -0.021004 -306311.000000 0 0 1
36.395002 6.482077 16.980779 40.681204 0.176255 1.140202 0.182778 -0.021633 -413735.000000 0 0 1
35.152102 6.086777 16.439879 39.280895 0.171455 1.138980 0.134357 -0.020936 193384.000000 0 0 1
35.274802 4.856577 15.770479 38.943626 0.136818 1.153865 0.141713 -0.026646 -138670.000000 0 0 1
34.048702 3.919277 15.822479 37.749512 0.114604 1.138294 0.089123 -0.017564 -143718.000000 0 0 1
33.923202 3.338677 17.125679 38.147336 0.098103 1.105223 0.099085 -0.003219 310752.000000 0 0 1
32.790202 2.489777 17.264679 37.141156 0.075785 1.087343 0.067795 0.003747 230444.000000 0 0 1
32.663202 1.644877 18.541679 37.595003 0.050316 1.055037 0.048417 -0.005887 -69261.200000 0 0 1
33.480902 0.503577 18.520779 38.265436 0.015040 1.065567 0.061836 -0.007803 -131748.000000 0 0 1
33.432502 -0.226423 19.720979 38.816240 -0.006772 1.037865 0.053958 -0.010647 344922.000000 0 0 1
34.084802 -1.658723 19.714979 39.410728 -0.048626 1.046916 0.059968 -0.009578 224856.000000 0 0 1
33.764302 -2.369323 20.870479 39.764540 -0.070058 1.018256 0.065113 -0.003679 -220447.000000 0 0 1
34.194202 -3.674923 20.894179 40.240716 -0.107061 1.024847 0.059162 -0.004877 -242820.000000 0 0 1
33.692002 -4.531023 22.101979 40.548473 -0.133682 0.994317 0.054303 -0.000776 -258187.000000 0 0 1
34.271802 -4.229523 23.321659 41.669474 -0.122790 0.976794 0.073956 -0.015186 80951.100000 0 0 1
33.627602 -4.844123 24.408819 41.833857 -0.143068 0.947801 0.082885 -0.022382 -295315.000000 0 0 1
34.318802 -4.441723 25.666049 43.084279 -0.128710 0.932638 0.085263 -0.027654 -68329.800000 0 0 1
33.518402 -4.770623 26.799529 43.179357 -0.141379 0.901217 0.084084 -0.029911 101574.000000 0 0 1
34.042102 -4.339523 28.025759 44.307328 -0.126791 0.885980 0.087825 -0.026249 -562954.000000 0 0 1
33.113302 -4.584123 29.210539 44.393249 -0.137563 0.852643 0.091366 -0.028445 -260070.000000 0 0 1
33.046302 -5.936323 29.657099 44.797785 -0.177741 0.847284 0.091421 -0.044446 -344068.000000 0 0 1
32.119402 -6.095023 30.672879 44.828906 -0.187532 0.817261 0.098791 -0.051378 -989992.000000 0 0 1
31.914002 -7.490723 31.345369 45.355778 -0.230543 0.807787 0.097946 -0.042742 325647.000000 0 0 1
32.958002 -7.859823 32.258227 46.782474 -0.234107 0.809947 0.083993 -0.044876 -3310.350000 0 0 1
34.025602 -8.476423 31.575479 47.186886 -0.244149 0.837721 0.087332 -0.036252 177231.000000 0 0 1
35.294102 -8.595123 32.492938 48.737468 -0.238879 0.841033 0.084929 -0.022078 437750.000000 0 0 1
35.292902 -9.553723 33.548838 49.622445 -0.264362 0.828364 0.067490 -0.023376 92577.300000 0 0 1
36.590002 -9.631323 -34.012662 50.876830 -0.257384 2.303026 0.042826 -0.018538 177954.000000 0 0 1
36.550302 -9.981123 -32.469515 49.898064 -0.266579 2.279325 0.057108 -0.021436 -48622.000000 0 0 1
35.934602 -9.030023 -31.595645 48.694165 -0.246193 2.276880 0.048823 -0.023212 387661.000000 0 0 1
36.537202 -7.730123 -31.605085 48.924466 -0.208494 2.273126 0.055595 -0.017631 -109309.000000 0 0 1
35.808402 -6.703523 -30.741665 47.667902 -0.185063 2.271706 0.068931 -0.016704 -390855.000000 0 0 1
35.940502 -6.843323 -29.375475 46.919818 -0.188155 2.247310 0.055768 -0.004461 338839.000000 0 0 1
35.371902 -5.710423 -28.664175 45.884805 -0.160059 2.245542 0.060996 -0.008435 13044.800000 0 0 1
35.785102 -5.747623 -27.183715 45.305221 -0.159255 2.214314 0.051091 -0.010207 -268156.000000 0 0 1
-36.414901 -5.463323 -27.013485 45.668603 0.148919 2.203728 0.058005 -0.009482 -701498.000000 0 0 1
-36.019401 -5.212223 -25.710755 44.560156 0.143708 2.185835 0.055830 -0.008637 -37628.500000 0 0 1
-34.547901 -4.801423 -25.547465 43.235219 0.138094 2.202964 0.089780 -0.006906 -889001.000000 0 0 1
-34.237701 -4.232323 -24.277615 42.184539 0.122992 2.184024 0.099415 -0.009384 250899.000000 0 0 1
-32.878001 -4.033623 -23.956915 40.879908 0.122075 2.196949 0.109929 -0.009692 73981.100000 0 0 1
-32.064501 -3.032223 -24.781815 40.638221 0.094286 2.226624 0.110641 -0.009817 -636607.000000 0 0 1
-31.853301 -3.417523 -26.143735 41.349815 0.106881 2.255260 0.108149 0.008720 150811.000000 0 0 1
-30.755601 -2.693623 -26.680255 40.804395 0.087359 2.283468 0.114261 -0.001267 317607.000000 0 0 1
-30.080801 -3.456623 -27.882465 41.161083 0.114409 2.315017 0.109137 0.004764 101024.000000 0 0 1
-30.851901 -3.542923 -29.073945 42.540409 0.114336 2.323265 0.117034 0.004397 -96766.700000 0 0 1
-30.335701 -4.479123 -30.005985 42.903106 0.146593 2.345339 0.096066 0.012398 -1216380.000000 0 0 1
-31.399601 -5.057823 -30.918945 44.356484 0.159707 2.342079 0.076044 0.000760 -1471950.000000 0 0 1
-32.306501 -5.918123 -30.297395 44.684073 0.181178 2.315883 0.066411 0.000300 456210.000000 0 0 1
-33.443601 -5.285223 -29.693215 45.034377 0.156738 2.290744 0.079213 0.001330 201796.000000 0 0 1
-34.443801 -4.445023 -30.566035 46.264632 0.128342 2.292518 0.101415 -0.003744 -855608.000000 0 0 1
-34.058801 -3.231023 -31.202675 46.303870 0.094583 2.310227 0.127330 -0.005719 -228938.000000 0 0 1
-33.677401 -2.286823 -30.220735 45.306619 0.067800 2.301007 0.135338 -0.003074 -326100.000000 0 0 1
-33.488301 -0.826523 -30.672535 45.419752 0.024676 2.312185 0.127003 -0.008468 97585.900000 0 0 1
-34.656201 -0.192123 -31.173315 46.613998 0.005544 2.303328 0.150845 -0.013093 -75261.400000 0 0 1
-34.366901 1.113977 -31.587275 46.691335 -0.032403 2.313813 0.156205 -0.008626 255732.000000 0 0 1
-35.549401 2.030977 -32.023855 47.889582 -0.057069 2.303258 0.141280 -0.006414 233441.000000 0 0 1
-35.973401 1.869477 -33.366885 49.101218 -0.051922 2.317950 0.133467 -0.015799 -120366.000000 0 0 1
36.389202 2.554377 -33.643375 49.624344 0.070081 2.315782 0.105552 -0.009976 128116.000000 0 0 1
35.567202 2.098977 33.224834 48.716744 0.058946 0.820302 0.079320 -0.004223 134597.000000 0 0 1
36.104502 2.484977 31.977039 48.293283 0.068719 0.847122 0.085033 -0.014039 239766.000000 0 0 1
-36.659701 1.453777 31.425189 48.307242 -0.039635 0.862518 0.091332 -0.012420 -120385.000000 0 0 1
-36.531301 1.605277 29.878649 47.221251 -0.043914 0.885713 0.094660 -0.016135 -172941.000000 0 0 1
-35.615301 2.580277 29.468469 46.297928 -0.072322 0.880849 0.103653 -0.023637 82631.900000 0 0 1
-35.510701 2.718077 28.138399 45.389066 -0.076394 0.902133 0.088133 -0.025602 -74121.400000 0 0 1
-34.933601 4.098477 27.800319 44.833155 -0.116788 0.901947 0.080899 -0.022020 -423563.000000 0 0 1
-34.487601 4.202577 26.483919 43.685859 -0.121260 0.919478 0.084593 -0.017308 133287.000000 0 0 1
-34.093001 5.496177 26.145099 43.314050 -0.159836 0.922766 0.086387 -0.017693 -386030.000000 0 0 1
-33.282201 5.560477 24.852419 41.907834 -0.165542 0.935985 0.095994 -0.019972 -188633.000000 0 0 1
-32.055201 4.845977 24.938549 40.901719 -0.150040 0.915091 0.076244 -0.014711 408882.000000 0 0 1
-31.182601 5.076177 23.841329 39.579429 -0.161373 0.924334 0.075028 -0.015132 268184.000000 0 0 1
-31.682401 4.506177 22.489279 39.113270 -0.141282 0.958219 0.105902 -0.025907 -311276.000000 0 0 1
-31.687001 3.113977 22.512179 38.994373 -0.097958 0.955355 0.109244 -0.023225 -182682.000000 0 0 1
-32.342301 2.681577 21.335079 38.838137 -0.082723 0.989230 0.144390 -0.022901 -205875.000000 0 0 1
-32.129701 1.189377 20.844179 38.317256 -0.037001 0.995612 0.142640 -0.026874 -515326.000000 0 0 1
-30.862101 0.943477 20.314079 36.959725 -0.030561 0.988878 0.146725 -0.024483 -322406.000000 0 0 1
-30.647901 1.465177 19.007479 36.093280 -0.047770 1.016176 0.166309 -0.025784 240290.000000 0 0 1
-29.350701 1.012677 18.270779 34.587722 -0.034489 1.014264 0.165885 -0.034277 356688.000000 0 0 1
-29.541201 -0.378723 17.978579 34.584033 0.012819 1.024119 0.185956 -0.032374 387978.000000 0 0 1
-28.408201 -1.015723 17.397079 33.327405 0.035739 1.021596 0.196524 -0.035989 180317.000000 0 0 1
-28.138601 -0.791323 15.875979 32.318010 0.028115 1.057281 0.196359 -0.033208 -199316.000000 0 0 1
-27.687501 0.513577 15.576379 31.772395 -0.018547 1.058421 0.208604 -0.030329 182101.000000 0 0 1
-27.871201 0.806777 14.217579 31.298471 -0.028939 1.099257 0.197034 -0.031832 -192522.000000 0 0 1
-27.236601 2.141777 13.836979 30.624853 -0.078475 1.101990 0.185949 -0.029289 -127498.000000 0 0 1
-25.852101 2.082077 13.576079 29.274154 -0.080365 1.088566 0.153630 -0.036181 198580.000000 0 0 1
-25.329501 3.345077 13.147379 28.733721 -0.131303 1.095548 0.140990 -0.030568 -178184.000000 0 0 1
-23.821101 3.390177 12.887879 27.295340 -0.141369 1.079052 0.100428 -0.025831 -221401.000000 0 0 1
-22.999001 3.659177 14.020279 27.182933 -0.157779 1.028884 0.055929 -0.012077 118658.000000 0 0 1
-21.695601 3.982677 13.608479 25.918170 -0.181549 1.018016 0.036067 -0.010517 -474817.000000 0 0 1
-20.825501 4.523177 14.730879 25.906745 -0.213872 0.965979 0.014450 -0.011246 -610431.000000 0 0 1
-21.071401 5.883077 15.047079 26.552385 -0.272264 0.968308 0.008188 -0.002577 429245.000000 0 0 1
-20.390501 6.279677 16.228279 26.806043 -0.298753 0.920533 0.002436 0.008380 -206753.000000 0 0 1
-20.725901 7.746477 16.571979 27.644192 -0.357682 0.927952 0.010865 0.005184 -341660.000000 0 0 1
-20.179401 8.813777 15.786779 27.094525 -0.411798 0.948804 0.032414 -0.005143 278538.000000 0 0 1
-20.665001 10.094377 16.080579 28.062854 -0.454387 0.960610 0.035852 -0.001963 -323464.000000 0 0 1
-19.982701 10.842777 17.272779 28.552111 -0.497150 0.921085 0.047525 -0.006069 -51943.400000 0 0 1
-20.207401 10.222277 18.481879 29.230359 -0.468331 0.886299 0.033641 -0.011063 367280.000000 0 0 1
-19.613801 10.944677 19.530479 29.764522 -0.508971 0.855069 0.053238 -0.011746 -397716.000000 0 0 1
-12.431298 -33.541494 -20.048215 41.006096 1.215867 2.081634 0.084207 -0.039521 264068.000000 0 0 1
-13.570498 -34.101794 -19.393815 41.511575 1.192066 2.056907 0.109473 -0.032440 505078.000000 0 0 1
-14.715198 -33.276894 -19.640815 41.347919 1.154444 2.065776 0.091107 -0.041736 -405077.000000 0 0 1
-15.942498 -33.852794 -18.974715 41.954913 1.130669 2.040099 0.082906 -0.033574 -1477130.000000 0 0 1
-16.505598 33.349277 -19.768915 42.135722 -1.111212 2.059150 0.073860 -0.035968 48605.400000 0 0 1
-17.270998 32.366677 -19.145415 41.381591 -1.080628 2.051784 0.070878 -0.023416 -684518.000000 0 0 1
-18.656598 32.647377 -18.610015 41.955364 -1.051628 2.030371 0.075188 -0.018449 -1280830.000000 0 0 1
-18.602798 33.632777 -17.534715 42.245639 -1.065565 1.998811 0.079995 -0.023314 -512088.000000 0 0 1
-19.806898 33.825977 -16.865015 42.672458 -1.041067 1.977104 0.043800 -0.019146 -537946.000000 0 0 1
-19.823698 33.168377 -15.445515 41.613510 -1.032093 1.951061 0.046996 -0.017102 -16874.100000 0 0 1
-19.787498 31.744977 -15.517815 40.498040 -1.013401 1.964027 0.048369 -0.019017 197418.000000 0 0 1
-20.578998 31.203577 -14.461315 40.078523 -0.987766 1.939948 0.058436 -0.015110 259544.000000 0 0 1
-20.561198 29.729777 -14.469015 38.935523 -0.965728 1.951544 0.060873 -0.022237 165186.000000 0 0 1
-19.371598 29.374177 -13.784615 37.790432 -0.987788 1.944176 0.067826 -0.031929 180664.000000 0 0 1
-19.204898 27.911777 -13.803015 36.584404 -0.968131 1.957667 0.058713 -0.037809 246619.000000 0 0 1
-17.850598 27.440977 -13.197515 35.296253 -0.994063 1.954014 0.081832 -0.030658 87637.600000 0 0 1
-16.704498 27.878377 -13.879415 35.339529 -1.030971 1.974411 0.082800 -0.038734 -811455.000000 0 0 1
-15.639698 27.047777 -13.486815 34.030524 -1.046542 1.978296 0.092941 -0.044568 -466811.000000 0 0 1
-14.342198 27.465577 -14.176615 34.073934 -1.089556 1.999899 0.092495 -0.045950 -737744.000000 0 0 1
-14.467998 27.372277 -15.560815 34.651169 -1.084560 2.036521 0.072177 -0.042581 -461196.000000 0 0 1
-13.484198 28.053977 -16.249515 35.112619 -1.122747 2.051928 0.085352 -0.045350 -619642.000000 0 0 1
-13.725498 28.050477 -17.749515 35.920243 -1.115734 2.087638 0.100028 -0.055074 -98869.400000 0 0 1
-13.470298 26.754977 -18.281415 35.092562 -1.104377 2.118758 0.077751 -0.049518 153718.000000 0 0 1
-13.853598 26.607577 -19.651915 35.862001 -1.090755 2.150752 0.067207 -0.050571 -229986.000000 0 0 1
-13.023598 25.525377 -20.353815 35.148781 -1.099005 2.188391 0.038839 -0.031711 -492964.000000 0 0 1
-11.728098 25.965077 -20.664215 35.195785 -1.146540 2.198295 0.034409 -0.030938 -465294.000000 0 0 1
-11.026998 24.911477 -21.300615 34.581680 -1.154074 2.234389 0.047893 -0.030538 774702.000000 0 0 1
-9.667498 25.328077 -21.945915 34.879725 -1.206173 2.251305 0.070115 -0.036393 519825.000000 0 0 1
-10.043698 26.052077 -23.091715 36.232774 -1.202831 2.261806 0.071885 -0.032063 -380634.000000 0 0 1
-8.993298 26.352277 -23.935315 36.718132 -1.241918 2.280839 0.060905 -0.035822 -931572.000000 0 0 1
-9.426098 27.090877 -25.209785 38.187697 -1.235955 2.291821 0.076234 -0.032889 -558980.000000 0 0 1
-10.160398 26.324877 -26.081365 38.424868 -1.202450 2.316873 0.067269 -0.025523 -321181.000000 0 0 1
-10.475098 27.092377 -27.290895 39.856211 -1.201857 2.325035 0.093577 -0.025848 241444.000000 0 0 1
-11.794198 26.594177 -27.937255 40.334149 -1.153371 2.335946 0.070010 -0.016076 -60497.600000 0 0 1
-12.248598 27.259277 -29.042635 41.672185 -1.148494 2.341905 0.084512 -0.014515 -525164.000000 0 0 1
-13.440998 26.707577 -29.520325 42.016719 -1.104540 2.349820 0.073445 -0.011830 -183872.000000 0 0 1
-13.885298 27.078277 -30.938665 43.396263 -1.096974 2.364470 0.063193 -0.019352 280535.000000 0 0 1
-13.056698 26.434177 -31.940005 43.467310 -1.112015 2.396176 0.073858 -0.018451 462543.000000 0 0 1
-13.236298 24.989577 -32.070865 42.757677 -1.083693 2.418951 0.058469 -0.019930 77314.900000 0 0 1
-12.320998 24.344077 -33.120065 42.911302 -1.102266 2.452505 0.054307 -0.011826 199999.000000 0 0 1
-12.916698 24.461877 33.754777 43.641832 -1.084974 0.686530 0.048826 -0.003976 77528.500000 0 0 1
-12.070098 23.864177 32.844677 42.355153 -1.102533 0.683355 0.044340 -0.003347 -309690.000000 0 0 1
-12.633298 24.013577 31.374439 41.480207 -1.086495 0.713048 0.036551 0.005175 -82597.000000 0 0 1
-13.639398 23.062877 31.113719 41.060845 -1.036724 0.710943 0.052942 -0.003460 50582.700000 0 0 1
-14.155498 23.191777 29.769209 40.304373 -1.022789 0.739790 0.043349 -0.000038 1351510.000000 0 0 1
-15.544898 22.429977 29.562779 40.233141 -0.964756 0.745444 0.037726 -0.000225 1274420.000000 0 0 1
-15.349598 21.108277 29.853659 39.653631 -0.942058 0.718399 0.026280 -0.000071 -565575.000000 0 0 1
-16.537598 20.370677 29.895529 39.776869 -0.888881 0.720341 0.030233 -0.011426 -317267.000000 0 0 1
-16.398098 18.886477 30.216219 39.225203 -0.855805 0.691443 0.026603 -0.021319 -27999.300000 0 0 1
-16.052798 18.154177 29.050399 37.831100 -0.846752 0.695244 0.033172 -0.024529 190971.000000 0 0 1
-15.592098 16.805177 29.303869 37.205433 -0.822825 0.663854 0.025616 -0.034277 -24035.200000 0 0 1
-15.289998 16.122677 27.948439 35.704902 -0.811900 0.671705 0.022275 -0.035055 -341700.000000 0 0 1
-14.070798 16.577577 27.436789 35.008296 -0.867008 0.670160 0.026326 -0.028058 -342875.000000 0 0 1
-13.669498 15.704977 26.354519 33.586637 -0.854582 0.668628 0.027899 -0.024622 364751.000000 0 0 1
-12.513198 16.236077 25.465519 32.690717 -0.914176 0.677754 0.024945 -0.019517 185347.000000 0 0 1
-12.921698 17.132077 24.436669 32.521211 -0.924587 0.720604 0.021077 -0.023133 -58607.200000 0 0 1
-13.238298 18.508777 24.775089 33.639744 -0.949912 0.742940 0.020687 -0.022379 66233.400000 0 0 1
-12.134198 19.391777 25.433179 34.207110 -1.011666 0.732499 0.032338 -0.012964 103218.000000 0 0 1
-11.882398 19.160877 26.843659 35.055850 -1.015701 0.698606 0.039802 -0.014763 -605153.000000 0 0 1
-12.847398 19.648677 27.697699 36.308245 -0.991715 0.703089 0.037028 -0.003373 -629169.000000 0 0 1
-12.615098 19.329777 29.158619 37.188789 -0.992578 0.669600 0.035548 -0.005676 16318.200000 0 0 1
-11.437198 19.928577 29.676249 37.531819 -1.049782 0.658852 0.041925 -0.004740 14755.300000 0 0 1
-11.285998 19.741777 31.059509 38.494215 -1.051460 0.631976 0.035584 -0.004922 360205.000000 0 0 1
-10.173598 20.533177 31.807759 39.202640 -1.110778 0.624308 0.030692 -0.005348 1007120.000000 0 0 1
-8.823398 20.095377 31.706179 38.561099 -1.157064 0.605474 0.033847 -0.008024 631599.000000 0 0 1
-7.898598 20.998377 32.307116 39.332804 -1.211015 0.606973 0.032764 -0.000640 1002860.000000 0 0 1
-6.512098 20.352177 32.658801 39.028398 -1.261120 0.579392 0.038208 -0.004133 202861.000000 0 0 1
-6.477198 19.506377 33.751229 39.517063 -1.250196 0.546993 0.039749 -0.004687 -316447.000000 0 0 1
-5.218598 19.017777 -33.997075 39.302808 -1.302982 2.615954 0.039992 -0.002387 -46265.000000 0 0 1
-4.776398 17.778577 33.255702 38.010966 -1.308334 0.505572 0.026195 -0.012401 -163219.000000 0 0 1
-5.405798 16.556577 33.551954 37.803128 -1.255204 0.478809 0.024440 -0.011179 -13211.400000 0 0 1
-5.262698 15.658077 32.456023 36.417919 -1.246557 0.470790 0.034658 -0.013873 -209415.000000 0 0 1
-5.761398 14.255277 32.609858 36.052871 -1.186710 0.440588 0.038095 -0.025408 -611497.000000 0 0 1
-4.973198 13.462777 33.413494 36.365377 -1.216941 0.405698 0.047507 -0.021501 -149667.000000 0 0 1
-5.583298 12.138677 33.475370 36.043322 -1.139691 0.379760 0.051857 -0.021438 262092.000000 0 0 1
-4.650998 11.065377 34.040908 36.095121 -1.172896 0.338996 0.062682 -0.027431 -94034.800000 0 0 1
-4.357198 11.006377 -32.699195 34.775895 -1.193847 2.794258 0.085356 -0.035228 -267098.000000 0 0 1
-3.479798 9.956277 -32.394955 34.068601 -1.234560 2.826844 0.100528 -0.036695 -114595.000000 0 0 1
-3.635698 9.332777 -30.962015 32.541749 -1.199320 2.828726 0.107785 -0.037209 -280973.000000 0 0 1
-4.891298 8.790677 -30.701825 32.307938 -1.063038 2.824954 0.108766 -0.036546 -453052.000000 0 0 1
-5.378798 8.970877 -29.369965 31.176962 -1.030682 2.799458 0.122850 -0.039532 -376563.000000 0 0 1
-6.413998 8.009777 -28.875775 30.644841 -0.895585 2.800148 0.112967 -0.037647 -549377.000000 0 0 1
-5.959198 6.653377 -28.737765 30.093830 -0.840381 2.840250 0.107886 -0.029404 -91857.700000 0 0 1
-6.968698 5.815577 -28.208655 29.632953 -0.695443 2.830290 0.115697 -0.051781 -273723.000000 0 0 1
-6.807198 5.381777 -26.694605 28.069617 -0.668983 2.827297 0.106636 -0.053165 -176113.000000 0 0 1
-6.944598 6.387577 -25.720835 27.396897 -0.743642 2.789993 0.070896 -0.029939 -242458.000000 0 0 1
-5.769498 7.100577 -25.440115 27.035251 -0.888456 2.796364 0.082545 -0.035000 -513836.000000 0 0 1
-5.808398 8.076677 -24.220615 26.184125 -0.947329 2.751862 0.047766 -0.014616 -100463.000000 0 0 1
-6.125998 7.374577 -23.030615 24.946372 -0.877619 2.747135 0.034871 -0.009880 -165965.000000 0 1 0
-7.451998 7.554077 -22.573915 24.943496 -0.792201 2.702181 0.048471 -0.008716 49867.300000 0 1 0
-7.452598 7.807077 -21.042315 23.648905 -0.808624 2.667659 0.040677 -0.006488 90542.400000 0 1 0
-6.897898 9.064077 -20.571115 23.514023 -0.920283 2.635911 0.029655 0.000088 82425.200000 0 1 0
-6.731198 9.113077 -19.165115 22.263397 -0.934611 2.607705 0.030231 0.001165 -18008.800000 0 1 0
-7.994698 9.403777 -18.310715 22.082312 -0.866210 2.548476 0.029178 0.003294 -326869.000000 0 1 0
-7.762698 9.433177 -16.939715 20.885360 -0.882238 2.516794 0.018317 0.004878 191305.000000 0 1 0
-8.838298 9.711677 -16.028015 20.720267 -0.832446 2.455209 0.018230 -0.005849 277285.000000 0 1 0
-9.517398 11.073177 -16.140615 21.765008 -0.860813 2.406227 0.042238 -0.017198 31385.800000 0 1 0
-8.568698 12.138277 -15.961415 21.806585 -0.956106 2.391982 0.020759 -0.012025 378414.000000 0 1 0
-9.143598 13.364877 -16.312715 22.985430 -0.970786 2.359866 0.047981 -0.014750 41322.100000 0 1 0
-8.142798 14.511577 -16.071615 23.134127 -1.059453 2.338819 0.055332 -0.015647 295790.000000 0 1 0
-7.538098 14.660877 -14.765215 22.130879 -1.095882 2.301209 0.052850 -0.010732 711977.000000 0 1 0
-8.455298 15.125777 -13.768315 22.132503 -1.061070 2.242200 0.043850 -0.028358 -211001.000000 0 1 0
-7.696998 15.899177 -12.651615 21.727655 -1.119939 2.192329 0.035444 -0.022616 524498.000000 0 1 0
-7.114198 17.210177 -12.935315 22.674311 -1.178816 2.177890 0.045048 -0.024590 451308.000000 0 1 0
-6.091898 17.272577 -13.912915 23.000486 -1.231725 2.220432 0.058023 -0.023102 -204223.000000 0 1 0
-5.893498 18.677577 -14.478115 24.355719 -1.265146 2.207371 0.079424 -0.016968 107070.000000 0 1 0
-5.401498 19.651877 -13.587415 24.494700 -1.302561 2.158809 0.082519 -0.018195 -146311.000000 0 1 0
-5.735098 20.957077 -13.972215 25.832407 -1.303677 2.142279 0.096089 -0.019471 -240729.000000 0 0 1
-5.219498 22.060077 -13.007215 26.135757 -1.338465 2.091717 0.098133 -0.021750 -644269.000000 0 0 1
-5.518598 23.376677 -13.380415 27.494717 -1.338968 2.079052 0.087336 -0.024105 793061.000000 0 0 1
-6.870898 23.882977 -13.351315 28.211052 -1.290671 2.063790 0.085583 -0.024708 643512.000000 0 0 1
-7.558198 23.838977 -11.961115 27.721679 -1.263770 2.016920 0.055662 -0.023017 -622265.000000 0 0 1
-8.002098 22.556177 -11.610715 26.601192 -1.229885 2.022472 0.065958 -0.021481 -91840.800000 0 0 1
-8.697798 22.458777 -10.348615 26.213397 -1.201305 1.976628 0.069847 -0.019672 106805.000000 0 0 1
-7.942598 22.718077 -9.041615 25.708884 -1.234464 1.930175 0.064267 -0.017150 -240148.000000 0 0 1
-7.739398 24.114377 -8.851015 26.828007 -1.260236 1.907012 0.049135 -0.013698 321578.000000 0 0 1
-6.943698 24.477277 -7.692215 26.580486 -1.294379 1.864389 0.052443 -0.017263 364096.000000 0 0 1
-6.916398 26.019477 -7.470515 27.940264 -1.310988 1.841464 0.044281 -0.013006 54630.400000 0 0 1
-6.130098 26.893177 -8.281915 28.799500 -1.346683 1.862487 0.047136 -0.016719 -75283.700000 0 0 1
-6.350898 26.890177 -9.688315 29.279327 -1.338867 1.908046 0.049154 -0.011983 44677.600000 0 0 1
-5.642998 28.119977 -10.313215 30.478500 -1.372751 1.915988 0.050137 -0.014270 363945.000000 0 0 1
-6.348898 29.334877 -10.069215 31.658058 -1.357655 1.894481 0.041580 -0.016227 54511.700000 0 0 1
-7.214198 29.661577 -11.144515 32.496985 -1.332212 1.920841 0.044501 -0.016877 57897.300000 0 0 1
-8.230098 30.790877 -10.798715 33.651521 -1.309612 1.897474 0.056093 -0.022120 -324182.000000 0 0 1
-9.252998 30.286277 -9.986715 33.205588 -1.274285 1.876280 0.070588 -0.021461 -483327.000000 0 0 1
-10.300298 31.219677 -9.915615 34.337790 -1.252112 1.863735 0.069258 -0.025304 -661745.000000 0 0 1
-11.414998 30.828877 -8.986815 34.080562 -1.216179 1.837645 0.085194 -0.026949 -8610.800000 0 0 1
-12.306398 29.876677 -9.623315 33.714559 -1.180068 1.860257 0.087377 -0.033492 931809.000000 0 0 1
-13.541498 29.758277 -8.886115 33.880529 -1.143751 1.836178 0.098141 -0.023167 1532790.000000 0 0 1
-14.629398 28.793277 -9.488615 33.661639 -1.100703 1.856552 0.092584 -0.030442 310791.000000 0 0 1
-14.397498 27.433677 -9.169315 32.310539 -1.087497 1.858538 0.087981 -0.023947 2963.110000 0 0 1
-15.480698 26.655877 -9.625215 32.292918 -1.044643 1.873456 0.097274 -0.026319 -72913.300000 0 0 1
-15.547598 25.260677 -8.911815 30.971762 -1.019068 1.862663 0.088051 -0.024233 -368579.000000 0 0 1
-14.580698 24.352977 -9.315415 29.873755 -1.031316 1.887911 0.095023 -0.022804 -379119.000000 0 0 1
-14.985098 23.068677 -8.931815 28.922212 -0.994712 1.884751 0.101435 -0.023297 -111468.000000 0 0 1
-13.996798 21.924877 -9.183915 27.585411 -1.002620 1.910202 0.103392 -0.019776 -285537.000000 0 0 1
-13.712098 21.596777 -10.517415 27.659690 -1.005100 1.960856 0.101215 -0.015202 42657.800000 0 0 1
-13.372198 20.255477 -10.620315 26.493228 -0.987300 1.983262 0.100783 -0.021146 -303203.000000 0 0 1
-13.374698 19.732077 -12.065415 26.717254 -0.975115 2.039350 0.094231 -0.022435 -317727.000000 0 0 1
-14.657698 19.729077 -12.617615 27.627682 -0.931823 2.045081 0.104813 -0.012141 -870399.000000 0 0 1
-14.730898 19.346877 -13.978815 28.048321 -0.920033 2.092529 0.108887 -0.007323 1147470.000000 0 0 1
-16.192098 18.908677 -14.395215 28.756640 -0.862638 2.095074 0.087305 -0.010539 990262.000000 0 0 1
-17.113098 19.907677 -14.676215 30.075988 -0.860742 2.080560 0.066469 -0.012943 -450388.000000 0 0 1
-18.375098 19.383277 -15.038815 30.651617 -0.812093 2.083617 0.058858 -0.010621 -19603.800000 0 0 1
-19.244698 20.474577 -15.686215 32.181114 -0.816353 2.079947 0.046578 -0.014565 -180893.000000 0 0 1
-19.532298 21.571977 -14.816515 32.655627 -0.834980 2.041732 0.061088 -0.027774 269172.000000 0 0 1
-19.695998 22.759077 -15.541115 33.873798 -0.857422 2.047434 0.075408 -0.030928 -173178.000000 0 0 1
-20.207398 23.876677 -14.619915 34.527910 -0.868440 2.008017 0.069896 -0.023774 674258.000000 0 0 1
-21.574198 23.752177 -14.188515 35.084554 -0.833412 1.987129 0.086052 -0.021301 946183.000000 0 0 1
-21.866998 24.812777 -13.297215 35.646254 -0.848421 1.953072 0.082423 -0.024231 -26812.200000 0 0 1
-25.737758 -0.674323 3.921985 26.043596 0.026194 1.419628 0.122641 -0.038771 298934.000000 0 0 1
-26.398288 0.050577 4.972385 26.862554 -0.001916 1.384618 0.145468 -0.031793 445179.000000 0 0 1
-27.792248 -0.042323 5.166885 28.268490 0.001523 1.386984 0.142359 -0.020775 -63726.400000 0 0 1
-28.247768 0.721877 6.456985 28.985344 -0.025550 1.346144 0.139178 -0.010625 -269812.000000 0 0 1
-28.363518 2.124677 6.327885 29.138386 -0.074769 1.351885 0.152592 -0.016061 13498.300000 0 0 1
-28.479458 2.851277 7.561185 29.603730 -0.099784 1.312521 0.162644 -0.023587 182604.000000 0 0 1
-27.241968 2.996877 8.516885 28.699189 -0.109569 1.269494 0.159042 -0.023710 287353.000000 0 0 1
-26.845488 1.696077 9.050085 28.380644 -0.063095 1.246246 0.166351 -0.034083 416434.000000 0 0 1
-26.054138 1.746177 10.232385 28.045837 -0.066921 1.197330 0.170422 -0.041999 -432557.000000 0 0 1
-25.439088 0.350177 10.507185 27.525820 -0.013764 1.179139 0.160823 -0.039341 -212061.000000 0 0 1
-24.388498 0.089177 9.599585 26.209899 -0.003657 1.195812 0.137922 -0.038642 -225623.000000 0 0 1
-24.729998 -0.988023 8.771585 26.258136 0.039931 1.230197 0.114373 -0.036902 -179169.000000 0 0 1
-23.577398 -1.586823 7.911585 24.919970 0.067201 1.247726 0.102242 -0.038362 203632.000000 0 1 0
-22.669098 -2.208623 8.804485 24.418947 0.097122 1.201929 0.112505 -0.046773 -466009.000000 0 1 0
-21.407398 -2.402823 8.269785 23.074653 0.111775 1.204251 0.120994 -0.041472 149792.000000 0 1 0
-20.210698 -2.583523 9.286585 22.391685 0.127140 1.143146 0.084463 -0.029514 521320.000000 0 1 0
-19.700098 -1.333623 9.814285 22.049776 0.067593 1.109514 0.070520 -0.020799 479293.000000 0 1 0
-20.427198 -0.626223 10.799885 23.114932 0.030647 1.084646 0.088178 -0.026161 -828232.000000 0 1 0
-20.030998 0.853877 10.814385 22.779836 -0.042602 1.076133 0.053510 -0.014971 -97658.100000 0 1 0
-20.490098 1.575577 9.657685 22.706771 -0.076744 1.131479 0.061892 -0.018326 1200770.000000 0 1 0
-21.914998 1.753177 9.643285 24.006951 -0.079829 1.157438 0.085985 -0.008772 -38229.000000 0 1 0
-22.567198 3.050177 9.131185 24.534884 -0.134346 1.189449 0.088668 -0.025010 -247376.000000 0 1 0
-22.458798 4.147877 10.044085 24.949672 -0.182630 1.156469 0.081615 -0.023472 518587.000000 0 1 0
-22.749898 5.336377 9.336585 25.163597 -0.230402 1.190673 0.067355 -0.018495 -266276.000000 0 0 1
-22.582298 6.555977 10.259285 25.655291 -0.282548 1.159400 0.054022 -0.019959 -187948.000000 0 0 1
-23.624998 6.667577 11.186885 26.976722 -0.275071 1.143198 0.071672 -0.015111 57476.400000 0 0 1
-23.312298 7.596977 12.225085 27.397628 -0.315026 1.108271 0.067555 -0.015924 -6634.390000 0 0 1
-24.133098 7.384877 13.494085 28.618755 -0.296958 1.079792 0.092841 -0.019565 384432.000000 0 0 1
-25.549768 7.488977 13.470785 29.838523 -0.285127 1.102400 0.118503 -0.020805 229101.000000 0 0 1
-26.003068 6.736577 14.528985 30.539031 -0.253495 1.074978 0.120971 -0.025090 610281.000000 0 0 1
-27.542918 6.440277 14.618485 31.840063 -0.229700 1.093789 0.160553 -0.029944 538773.000000 0 0 1
-28.056828 5.766077 13.522785 31.674895 -0.202692 1.129707 0.181883 -0.024163 211674.000000 0 0 1
-29.442658 5.537877 13.771285 32.972511 -0.185918 1.139928 0.192764 -0.041580 222269.000000 0 0 1
-29.960208 4.566577 12.682885 32.853056 -0.151257 1.174452 0.200292 -0.029710 -671668.000000 0 0 1
-31.082328 3.832077 13.070385 33.935688 -0.122669 1.175424 0.193032 -0.039318 -131959.000000 0 0 1
-31.487528 2.994477 12.007385 33.832065 -0.094815 1.207977 0.198385 -0.015951 5858.230000 0 0 1
-32.688608 2.057577 12.264485 34.974224 -0.062862 1.212508 0.166139 -0.009063 -9639.180000 0 0 1
-32.394578 1.039077 13.085685 34.953162 -0.032065 1.187071 0.185339 -0.013561 -333505.000000 0 0 1
-33.557608 0.308777 13.327085 36.108442 -0.009201 1.192772 0.149330 -0.010612 -300540.000000 0 0 1
-33.487788 -0.751023 14.410285 36.464398 0.022423 1.164524 0.129851 -0.023728 -136358.000000 0 0 1
-32.793588 -1.929823 14.088285 35.743858 0.058780 1.165658 0.131063 -0.021772 219159.000000 0 0 1
-32.992688 -2.879623 15.114585 36.404126 0.087060 1.142646 0.135626 -0.021957 -31172.200000 0 0 1
-32.662428 -4.319023 14.678685 36.068712 0.131469 1.151668 0.123828 -0.023716 -19952.600000 0 0 1
-33.728418 -4.912123 13.954985 36.830378 0.144621 1.182190 0.088681 -0.010765 223886.000000 0 0 1
-33.555938 -6.248223 13.591885 36.739360 0.184095 1.191836 0.093905 -0.016938 -11043.200000 0 0 1
-34.657057 -6.692523 12.550585 37.462230 0.190759 1.229170 0.085644 -0.015748 850404.000000 0 0 1
-36.039822 -6.657623 12.816485 38.825958 0.182670 1.234386 0.073873 -0.012492 488851.000000 0 0 1
-36.657088 -5.441223 13.239585 39.352708 0.147360 1.227669 0.077199 -0.016239 -769416.000000 0 0 1
35.403095 -5.384223 12.918585 38.069132 -0.150927 1.224575 0.094297 -0.016494 201274.000000 0 0 1
34.499065 -6.169023 13.703785 37.630254 -0.176947 1.198056 0.079155 -0.013574 339479.000000 0 0 1
33.176355 -5.990723 13.259085 36.226546 -0.178647 1.196084 0.097093 -0.011415 659597.000000 0 0 1
32.030745 -6.970123 13.722485 35.536711 -0.214267 1.174343 0.077114 -0.003543 666087.000000 0 0 1
31.597175 -6.999823 15.055085 35.693621 -0.218012 1.135382 0.073405 0.002068 79780.300000 0 0 1
30.619105 -7.983423 15.311785 35.152743 -0.255055 1.120115 0.062202 0.002688 -53679.200000 0 0 1
30.112865 -8.006223 16.753285 35.377348 -0.259862 1.077468 0.055487 -0.004167 209628.000000 0 0 1
31.135115 -8.328423 17.685385 36.763172 -0.261374 1.068930 0.031297 0.001072 330578.000000 0 0 1
30.583605 -8.374623 19.021685 36.977232 -0.267276 1.030470 0.039495 -0.011980 324530.000000 0 0 1
31.598815 -8.738023 20.162085 38.488281 -0.269788 1.019432 0.045081 -0.013732 215435.000000 0 0 1
32.636535 -7.837523 20.459585 39.308584 -0.235683 1.023376 0.049300 -0.005345 323647.000000 0 0 1
33.863135 -8.385723 19.956385 40.190665 -0.242752 1.051185 0.021215 0.015529 125.543000 0 0 1
35.118535 -7.923123 20.683885 41.520001 -0.221896 1.049313 0.018843 0.000621 -290352.000000 0 0 1
35.410415 -8.571923 21.901185 42.509261 -0.237505 1.029544 0.029581 -0.003975 542364.000000 0 0 1
36.775305 -8.377223 22.289385 43.811158 -0.223973 1.037052 0.047696 -0.004549 661543.000000 0 0 1
-36.406278 -8.937723 23.676385 44.338146 0.240738 1.007477 0.055471 -0.008169 62119.600000 0 0 1
36.597535 -8.137023 24.760385 44.929582 -0.218779 0.987123 0.054759 -0.007382 332808.000000 0 0 1
36.525545 -8.828323 26.001085 45.695854 -0.237154 0.965503 0.050054 -0.012775 -103175.000000 0 0 1
36.112515 -7.992023 27.191785 45.906201 -0.217798 0.936844 0.067657 -0.014113 182447.000000 0 0 1
-36.331838 -7.510323 27.948185 46.448988 0.203844 0.925173 0.043211 -0.028721 364409.000000 0 0 1
36.759315 -6.633723 28.950685 47.258816 -0.178542 0.911452 0.051505 -0.039491 328312.000000 0 0 1
-35.621972 -6.052223 29.799785 46.835686 0.168294 0.881153 0.080054 -0.034653 483759.000000 0 0 1
-35.399246 -6.933623 30.846485 47.462484 0.193421 0.863326 0.071070 -0.029830 -541573.000000 0 0 1
-34.027138 -7.080923 31.058585 46.611386 0.205168 0.841520 0.080660 -0.038645 -558249.000000 0 0 1
-33.662088 -7.966423 32.266185 47.304405 0.232383 0.820170 0.062252 -0.025237 -154558.000000 0 0 1
-33.903648 -9.329723 32.134885 47.635616 0.268537 0.830377 0.051993 -0.019354 266342.000000 0 0 1
-33.258618 -10.131223 33.106685 48.008644 0.295689 0.809862 0.039808 -0.013589 -198533.000000 0 0 1
-33.448088 -11.648523 32.807485 48.278295 0.335121 0.823648 0.043113 -0.011471 45870.700000 0 0 1
-34.825768 -11.879123 33.030285 49.446409 0.328726 0.839276 0.034693 -0.012103 32972.800000 0 0 1
-35.138789 -13.237823 32.972885 49.971848 0.360286 0.850205 0.030599 -0.012324 609985.000000 0 0 1
-36.620158 -13.555623 33.360285 51.358539 0.354528 0.863795 0.039126 -0.009313 612417.000000 0 0 1
36.752865 -14.931323 33.621985 52.001494 -0.385894 0.867732 0.035384 -0.015432 47709.400000 0 0 1
35.382935 -15.170123 33.872385 51.277901 -0.405035 0.849225 0.028940 -0.015150 -81376.700000 0 0 1
35.142955 -16.688423 -34.044810 51.697000 -0.443344 2.289680 0.019976 -0.012118 -209776.000000 0 0 1
35.654195 -17.266623 -32.826710 51.448525 -0.450993 2.262759 0.026073 -0.020331 132898.000000 0 0 1
35.325775 -18.623123 -32.728810 51.632413 -0.485156 2.257357 0.028405 -0.030767 -686648.000000 0 0 1
35.795655 -19.352523 -31.482210 51.448796 -0.495628 2.229274 0.031264 -0.031971 -199103.000000 0 0 1
35.111615 -19.155323 -30.255510 50.151249 -0.499424 2.218410 0.023097 -0.028949 -452344.000000 0 0 1
35.533415 -19.993223 -29.247910 50.177612 -0.512511 2.193074 0.020600 -0.021093 -755364.000000 0 0 1
34.547565 -19.879823 -28.054710 48.742264 -0.522160 2.184100 0.019313 -0.017760 1175790.000000 0 0 1
33.216095 -20.379323 -28.245510 48.129353 -0.550314 2.197980 0.030044 -0.021254 976624.000000 0 0 1
32.381415 -19.793623 -29.202310 47.886516 -0.548661 2.226634 0.022003 -0.018194 -1021150.000000 0 0 1
30.992955 -20.431623 -29.430210 47.372478 -0.582840 2.241135 0.023981 -0.017089 -50955.700000 0 0 1
30.295175 -19.930423 -30.553610 47.418798 -0.581891 2.270950 0.012286 -0.010090 -675872.000000 0 0 1
29.053135 -20.553923 -30.526610 46.887336 -0.615715 2.279780 0.016101 -0.010000 -559423.000000 0 0 1
28.001905 -19.908023 -31.463710 46.587564 -0.618039 2.312259 0.020341 -0.005054 199810.000000 0 0 1
28.349505 -19.960623 -32.874510 47.779224 -0.613466 2.329595 0.008752 -0.001128 457820.000000 0 0 1
27.207405 -19.644723 -33.665610 47.534527 -0.625363 2.357791 0.053287 -0.002841 485745.000000 0 0 1
27.572905 -19.755723 32.988685 47.316033 -0.621708 0.799314 0.052560 -0.002944 585950.000000 0 0 1
28.623115 -18.890523 32.519185 47.261315 -0.583355 0.811968 0.033081 -0.006295 580640.000000 0 0 1
28.823595 -18.965323 31.114885 46.460942 -0.581964 0.836992 0.036858 -0.007777 98429.800000 0 0 1
27.713405 -18.225523 30.321085 44.939634 -0.581729 0.830229 0.045519 -0.005265 -14089.000000 0 0 1
27.731505 -16.797723 30.567185 44.559540 -0.544620 0.814839 0.060586 -0.010718 402237.000000 0 0 1
26.834405 -16.167323 29.662885 43.143416 -0.542245 0.812699 0.074838 -0.010183 37942.100000 0 0 1
26.530405 -14.711623 30.082285 42.722805 -0.506306 0.789603 0.088817 -0.015907 -44998.800000 0 0 1
27.630205 -13.826923 29.981685 43.052450 -0.463990 0.800429 0.091857 -0.009800 169707.000000 0 0 1
27.423905 -12.566723 30.634385 42.993704 -0.429685 0.777696 0.104094 -0.012677 -559731.000000 0 0 1
28.708875 -11.776423 30.743085 43.680898 -0.389270 0.790049 0.097350 -0.014433 -569378.000000 0 0 1
29.149315 -11.096823 29.638285 43.026154 -0.363749 0.810904 0.103525 -0.022896 -745631.000000 0 0 1
30.503385 -10.788323 29.701385 43.920572 -0.339946 0.828133 0.107419 -0.021020 -486449.000000 0 0 1
31.061535 -10.036423 28.485685 43.324161 -0.312525 0.853299 0.110428 -0.030376 -35475.600000 0 0 1
30.733885 -8.684923 28.557385 42.843013 -0.275404 0.841213 0.119486 -0.038752 -13574.500000 0 0 1
31.216005 -8.195123 27.342185 42.298866 -0.256736 0.867933 0.123696 -0.037487 -60463.500000 0 0 1
30.897645 -6.752223 27.104285 41.652121 -0.215153 0.862251 0.109622 -0.042730 173378.000000 0 0 1
29.541075 -6.359123 26.935785 40.480243 -0.212028 0.842759 0.118689 -0.038266 138893.000000 0 0 1
29.401395 -4.942923 26.736485 40.046400 -0.166561 0.839765 0.109990 -0.031335 351851.000000 0 0 1
27.900305 -4.569823 26.637385 38.844054 -0.162350 0.815160 0.091265 -0.027675 216118.000000 0 0 1
27.347505 -4.987523 25.401385 37.656231 -0.180393 0.830428 0.091853 -0.027830 710885.000000 0 0 1
25.927105 -4.774823 25.351685 36.574877 -0.182123 0.804953 0.089529 -0.023744 423704.000000 0 0 1
25.388205 -5.133723 23.978685 35.297215 -0.199519 0.823938 0.079838 -0.017025 -313288.000000 0 0 1
25.807405 -4.233423 22.948085 34.793083 -0.162591 0.850565 0.089338 -0.005367 188847.000000 0 0 1
25.587605 -4.717523 21.615085 33.825914 -0.182320 0.877586 0.085356 -0.004518 -80785.800000 0 0 1
25.893705 -3.638623 20.516885 33.236517 -0.139607 0.905491 0.087543 -0.007743 386679.000000 0 0 1
24.822005 -2.749723 20.214785 32.129899 -0.110328 0.890327 0.075844 -0.000117 361385.000000 0 0 1
25.292505 -1.605823 19.471185 31.959607 -0.063405 0.915690 0.078375 -0.002524 -55661.900000 0 0 1
24.099305 -0.732923 19.037285 30.720219 -0.030403 0.902437 0.060447 -0.010362 -92186.700000 0 0 1
23.302905 -1.438123 18.109385 29.547308 -0.061636 0.911078 0.066307 -0.011394 60537.900000 0 0 1
22.141705 -0.731723 17.712485 28.364108 -0.033035 0.896346 0.074689 -0.009226 777100.000000 0 0 1
20.965005 -1.571023 17.112185 27.107682 -0.074796 0.887611 0.075229 -0.015129 304021.000000 0 0 1
21.157305 -2.013923 15.801785 26.483652 -0.094902 0.931461 0.108958 -0.025375 297465.000000 0 0 1
20.093505 -2.869923 15.407785 25.483038 -0.141869 0.921496 0.110833 -0.033333 117012.000000 0 0 1
20.441205 -3.589423 14.080485 25.079610 -0.173825 0.974682 0.129943 -0.042373 -75254.700000 0 0 1
19.447505 -4.519023 13.699885 24.213919 -0.228318 0.969411 0.122165 -0.037098 665648.000000 0 1 0
19.532505 -4.723123 12.326685 23.574855 -0.237254 1.020577 0.118195 -0.037697 -368903.000000 0 1 0
18.443305 -5.690023 11.874785 22.661473 -0.299250 1.019247 0.088430 -0.036435 -217184.000000 0 1 0
18.747005 -6.964023 12.374885 23.517771 -0.355676 1.016679 0.124396 -0.044440 795776.000000 0 1 0
17.548405 -7.668223 12.626785 22.938698 -0.411970 0.987884 0.083433 -0.018286 32963.700000 0 1 0
17.793905 -9.155223 12.873085 23.794064 -0.475192 0.999146 0.120519 -0.045376 -489903.000000 0 1 0
18.515205 -9.742123 11.857785 24.048468 -0.484363 1.055171 0.103327 -0.053730 132004.000000 0 1 0
18.304005 -11.141823 11.752985 24.439915 -0.546799 1.069123 0.117199 -0.049377 4913.620000 0 1 0
19.047405 -11.817423 10.570285 24.782777 -0.555300 1.130157 0.117099 -0.042066 -238908.000000 0 1 0
18.460905 -11.466023 9.390485 23.673950 -0.555788 1.162922 0.101598 -0.030787 156945.000000 0 1 0
19.202105 -11.933623 8.278685 24.076312 -0.556060 1.219781 0.099025 -0.040405 -38128.500000 0 1 0
18.813905 -11.234123 6.934385 22.983782 -0.538298 1.264313 0.082529 -0.025983 -21666.400000 0 1 0
19.319505 -9.908123 6.903985 22.783309 -0.473879 1.262928 0.095911 -0.020302 676282.000000 0 1 0
19.335405 -9.468623 5.573785 22.239150 -0.455377 1.317466 0.043295 -0.020495 -520964.000000 0 1 0
20.090605 -8.137823 5.456985 22.352522 -0.384858 1.324171 0.080841 -0.016486 -401880.000000 0 1 0
20.417705 -7.887923 4.126085 22.273899 -0.368665 1.384477 0.072669 -0.018035 264669.000000 0 1 0
20.998105 -6.639623 4.130685 22.406864 -0.306253 1.385387 0.093071 -0.018338 -551565.000000 0 1 0
21.668805 -6.099123 2.822385 22.687050 -0.274371 1.446068 0.099308 -0.020199 -233592.000000 0 1 0
20.766205 -5.876023 1.763785 21.653495 -0.275752 1.489251 0.073333 -0.028982 279667.000000 0 1 0
21.346405 -5.295923 0.638085 22.002794 -0.243184 1.541792 0.080780 -0.019265 -144853.000000 0 1 0
-26.032198 -15.402623 0.062885 30.247646 0.534276 1.568717 0.077287 -0.016412 455147.000000 0 0 1
-25.008998 -14.713523 -0.729515 29.025333 0.531794 1.595933 0.068091 -0.010770 1685320.000000 0 0 1
-23.694798 -15.289623 -0.607715 28.206123 0.573045 1.592344 0.082963 -0.006703 1098600.000000 0 0 1
-22.873498 -15.000123 0.682085 27.361759 0.580432 1.545865 0.092195 -0.013930 -676885.000000 0 0 1
-23.397498 -15.557023 1.856785 28.158685 0.586779 1.504808 0.082605 -0.005090 -477736.000000 0 0 1
-22.616798 -15.213223 2.944785 27.415935 0.592135 1.463177 0.096880 -0.000100 -4666.360000 0 0 1
-23.110698 -15.860123 4.308585 28.358628 0.601450 1.418274 0.104700 0.000746 110912.000000 0 0 1
-22.916898 -17.237823 4.481985 29.024385 0.644900 1.415755 0.112144 -0.010704 338195.000000 0 0 1
-23.648498 -17.684323 5.637485 30.062734 0.642091 1.382155 0.120743 -0.012005 158340.000000 0 0 1
-23.794298 -19.266223 5.561685 31.117331 0.680627 1.391098 0.098589 -0.010978 72694.500000 0 0 1
-24.204598 -19.787523 6.812385 31.997144 0.685327 1.356248 0.088472 -0.011260 -115655.000000 0 0 1
-24.561498 -21.108823 6.628185 33.057260 0.709942 1.368922 0.093030 -0.020895 24732.600000 0 0 1
-25.038198 -21.922323 7.824685 34.186625 0.719144 1.339868 0.097762 -0.022776 245742.000000 0 0 1
-23.974198 -22.070423 8.730985 33.735676 0.744075 1.309011 0.105875 -0.022578 157199.000000 0 0 1
-24.390398 -23.122023 9.556985 34.940742 0.758709 1.293746 0.102174 -0.021078 709802.000000 0 0 1
-23.369198 -23.205723 10.735685 34.639283 0.781888 1.255679 0.115815 -0.023787 413793.000000 0 0 1
-23.587198 -22.172923 11.638585 34.401324 0.754502 1.225667 0.097823 -0.017102 279339.000000 0 0 1
-22.769598 -22.291023 12.804685 34.341000 0.774778 1.188698 0.101930 -0.014497 -106274.000000 0 0 1
-23.379698 -21.506223 14.005485 34.717165 0.743684 1.155548 0.086641 -0.009919 -249175.000000 0 0 1
-24.676298 -21.990423 14.242885 35.991084 0.727907 1.163930 0.081681 -0.009933 -425007.000000 0 0 1
-25.134908 -21.493123 15.466285 36.509230 0.707453 1.133351 0.086281 -0.004803 78162.300000 0 0 1
-26.469298 -22.158123 15.963885 38.032246 0.696972 1.137631 0.051785 0.004178 6213.110000 0 0 1
-27.534698 -21.797723 15.128985 38.238547 0.669626 1.164024 0.053918 0.004224 -353786.000000 0 0 1
-27.807818 -22.775523 14.139385 38.625398 0.686239 1.196020 0.046192 0.000573 -128368.000000 0 0 1
-28.916748 -23.799823 14.556685 40.180928 0.688636 1.200085 0.040792 0.000356 -168353.000000 0 0 1
-28.553968 -24.594623 15.643385 40.803677 0.711040 1.177341 0.041212 0.005855 -290041.000000 0 0 1
-29.542238 -25.478463 16.146385 42.220867 0.711673 1.178375 0.040510 0.004249 -78691.100000 0 0 1
-29.604998 -26.804293 15.273185 42.757411 0.735789 1.205522 0.069542 0.003677 36309.900000 0 0 1
-30.255038 -26.632213 14.010985 42.672588 0.721800 1.236254 0.081639 -0.013589 692629.000000 0 0 1
-31.570788 -27.206633 14.076685 43.989415 0.711285 1.245065 0.069968 -0.015614 571264.000000 0 0 1
-32.150838 -27.617643 12.684885 44.241574 0.709697 1.279996 0.076642 -0.018834 130796.000000 0 0 1
-31.509658 -28.761683 12.104585 44.346521 0.739836 1.294333 0.106986 -0.031140 137571.000000 0 0 1
-31.967028 -29.038763 10.816185 44.521124 0.737435 1.325396 0.083004 -0.015590 -39448.200000 0 0 1
-31.329958 -30.315293 10.203285 44.773768 0.768940 1.340891 0.093123 -0.031588 -63464.900000 0 0 1
-31.509618 -31.534493 10.953385 45.904868 0.785793 1.329862 0.072335 -0.022023 -93563.100000 0 0 1
-30.849608 -32.620613 10.375785 46.081011 0.813294 1.343685 0.078478 -0.023927 -349088.000000 0 0 1
-30.982728 -33.868253 11.218085 47.252867 0.829864 1.331102 0.065296 -0.021733 -631260.000000 0 0 1
-32.223588 33.778678 11.032385 47.969493 -0.808955 1.338731 0.055412 -0.015797 -504263.000000 0 0 1
-32.258848 32.526990 11.676885 47.275660 -0.789537 1.321218 0.062638 -0.022247 -1088670.000000 0 0 1
-33.578428 32.144378 12.309285 48.086281 -0.763582 1.311932 0.068793 -0.019314 389619.000000 0 0 1
-34.713086 31.887438 11.429785 48.502032 -0.742997 1.332903 0.033014 -0.017518 1157790.000000 0 0 1
-35.360785 33.064647 10.968585 49.638351 -0.751854 1.347987 0.052375 -0.012267 -179509.000000 0 0 1
36.735595 32.760768 10.508185 50.330844 0.728266 1.360467 0.046802 0.002804 341002.000000 0 0 1
36.642245 32.147448 9.261985 49.617506 0.720150 1.383027 0.035036 -0.000805 512841.000000 0 0 1
35.293845 32.023358 8.824585 48.466734 0.736853 1.387700 0.034615 0.003716 145297.000000 0 0 1
35.181195 31.378498 7.417585 47.721559 0.728328 1.414729 0.038436 -0.006612 70578.200000 0 0 1
35.628565 30.021188 7.461785 47.184156 0.700191 1.411988 0.054586 -0.017969 262996.000000 0 0 1
35.637075 29.491198 6.153685 46.664759 0.691311 1.438541 0.084196 -0.026966 -61069.100000 0 0 1
35.791355 27.918508 5.983085 45.784948 0.662448 1.439744 0.098107 -0.032529 117047.000000 0 0 1
34.686985 27.137298 6.414285 44.505763 0.663885 1.426170 0.093120 -0.031097 306036.000000 0 0 1
34.767085 26.837948 7.786285 44.605514 0.657393 1.395339 0.082255 -0.024251 -172553.000000 0 0 1
33.682845 25.822838 8.168585 43.221277 0.654070 1.380658 0.080084 -0.021350 -487081.000000 0 0 1
33.844965 24.646468 7.406985 42.518155 0.629413 1.395695 0.088894 -0.030426 -125125.000000 0 0 1
32.792235 23.761878 7.638985 41.210577 0.627058 1.384353 0.084977 -0.024729 -1018050.000000 0 0 1
33.034915 22.443848 6.837885 40.518991 0.596765 1.401227 0.074605 -0.018197 673670.000000 0 0 1
34.133875 21.640048 7.279485 41.065850 0.565028 1.392591 0.092716 -0.017119 25746.900000 0 0 1
35.442665 22.133148 7.253985 42.410836 0.558224 1.398910 0.091965 -0.024328 -1266940.000000 0 0 1
36.447605 21.023648 7.295585 42.704183 0.523200 1.399114 0.070215 -0.022658 -644443.000000 0 0 1
36.255435 20.232748 6.134485 41.969662 0.509011 1.424106 0.086077 -0.034112 118942.000000 0 0 1
36.553205 18.931348 6.488385 41.672915 0.477874 1.414462 0.095925 -0.034835 -265603.000000 0 0 1
36.103455 17.870948 5.524085 40.661355 0.459634 1.434519 0.096505 -0.033986 -356050.000000 0 0 1
-36.669658 17.659348 4.390185 40.936416 -0.448803 1.463346 0.105035 -0.031549 53502.600000 0 0 1
36.347175 16.544748 3.663185 40.103176 0.427159 1.479325 0.090470 -0.028329 -1164320.000000 0 0 1
-36.429578 16.085048 2.409885 39.895495 -0.415795 1.510355 0.101454 -0.014239 -651219.000000 0 0 1
-35.363338 15.240548 2.655185 38.599093 -0.406917 1.501953 0.105846 -0.022243 -736364.000000 0 0 1
-34.237087 15.976748 3.018185 37.901769 -0.436614 1.491080 0.115076 -0.025364 -1881980.000000 0 0 1
-32.872738 15.301948 2.985485 36.382409 -0.435661 1.488645 0.113134 -0.025852 -315577.000000 0 0 1
-32.665488 14.435248 4.096085 35.947023 -0.416107 1.456600 0.119981 -0.028069 -176677.000000 0 0 1
-31.362338 13.933248 4.088285 34.560754 -0.418076 1.452226 0.115568 -0.027151 -557734.000000 0 0 1
-30.885528 13.293848 5.425785 34.059968 -0.406455 1.410814 0.129786 -0.023045 -458638.000000 0 0 1
-31.409018 12.096448 5.841385 34.160976 -0.367619 1.398956 0.133750 -0.020713 17485.100000 0 0 1
-30.898058 11.619948 7.072885 33.760019 -0.359712 1.359728 0.113492 -0.019895 -171051.000000 0 0 1
-30.971428 10.096048 7.180185 33.357377 -0.315118 1.353848 0.129798 -0.013787 1195150.000000 0 0 1
-32.303298 9.542848 7.363585 34.478855 -0.287244 1.355570 0.124751 -0.016938 1031960.000000 0 0 1
-32.364868 8.136548 7.227485 34.145639 -0.246296 1.357517 0.135493 -0.011818 -307718.000000 0 0 1
-33.773078 7.542248 7.108085 35.327485 -0.219716 1.368208 0.128783 -0.002262 -285253.000000 0 0 1
-34.576995 7.600848 8.255985 36.352480 -0.216382 1.341688 0.125120 -0.010422 330242.000000 0 0 1
-35.856943 7.048248 7.913485 37.390125 -0.194091 1.357537 0.077361 -0.009336 1004790.000000 0 0 1
-36.605828 6.379448 9.151085 38.267824 -0.172541 1.329324 0.080597 -0.014683 81337.400000 0 0 1
36.466825 7.162648 10.203385 38.538836 0.193947 1.302846 0.085968 -0.019452 491033.000000 0 0 1
-36.119558 7.841348 11.028685 38.571247 -0.213777 1.280819 0.113670 -0.028255 -129390.000000 0 0 1
36.753835 8.859648 11.981085 39.659603 0.236541 1.263904 0.105368 -0.037320 1406.060000 0 0 1
35.777745 8.298248 12.869185 38.916884 0.227909 1.233768 0.091788 -0.029009 672519.000000 0 0 1
35.052315 9.290248 13.524485 38.702522 0.259083 1.213815 0.121268 -0.042959 -485601.000000 0 0 1
34.234225 8.754048 14.704585 38.273233 0.250346 1.176455 0.114630 -0.035084 401214.000000 0 0 1
32.914625 8.221848 14.505085 36.896732 0.244784 1.166767 0.100475 -0.037011 1245450.000000 0 0 1
32.329425 7.706348 15.743585 36.775535 0.234003 1.128408 0.094317 -0.026829 240849.000000 0 0 1
30.809915 7.482948 15.632885 35.350141 0.238261 1.112713 0.069306 -0.019735 -703985.000000 0 0 1
30.006525 8.551448 15.999885 35.064442 0.277626 1.096964 0.054647 -0.020913 -43483.900000 0 0 1
28.634005 8.253548 15.822885 33.740050 0.280636 1.082678 0.050006 -0.011372 242319.000000 0 0 1
27.879505 7.545048 16.976985 33.502426 0.264300 1.039398 0.046406 -0.005344 -501649.000000 0 0 1
27.728505 8.481248 18.063485 34.162714 0.296831 1.013671 0.068947 -0.013524 95145.000000 0 0 1
27.063105 8.030748 19.225285 34.154299 0.288465 0.972912 0.065293 -0.008353 101398.000000 0 0 1
27.887305 7.032448 20.104085 35.090331 0.247024 0.960728 0.063581 -0.010055 136323.000000 0 0 1
27.284405 6.885548 21.345585 35.319733 0.247201 0.921843 0.044636 0.010346 183440.000000 0 0 1
27.821505 5.710248 22.006085 35.929248 0.202435 0.911597 0.055774 0.008364 20419.300000 0 0 1
27.122505 5.504048 23.364285 36.218981 0.200214 0.869663 0.059657 0.016100 124639.000000 0 0 1
25.799805 5.067048 23.294585 35.127519 0.193930 0.845786 0.035662 0.006235 -72084.500000 0 0 1
24.742605 6.021048 23.431185 34.604479 0.238708 0.826962 0.054937 0.010094 664559.000000 0 0 1
23.323405 5.409648 23.297485 33.406860 0.227911 0.799052 0.065646 -0.008662 62320.300000 0 0 1
23.047705 4.926348 21.991385 32.234866 0.210577 0.819997 0.068115 -0.008182 1234190.000000 0 0 1
21.624605 4.929648 21.747185 31.062276 0.224135 0.795237 0.072857 -0.010616 254809.000000 0 0 1
20.718505 3.742948 22.027085 30.470618 0.178730 0.762812 0.083601 -0.012772 -11378.900000 0 0 1
19.627305 3.592248 21.133385 29.064674 0.181020 0.756685 0.083960 -0.023735 1089070.000000 0 0 1
18.460605 4.395948 21.475685 28.658739 0.233772 0.723703 0.093571 -0.019987 256112.000000 0 0 1
17.334705 4.113848 20.443685 27.117522 0.233008 0.716830 0.118213 -0.025217 -459652.000000 0 0 1
16.609705 3.002948 20.867085 26.839061 0.178863 0.680133 0.097297 -0.019864 334702.000000 0 0 1
15.494505 2.700248 20.004985 25.447405 0.172539 0.666273 0.103562 -0.029258 -78161.200000 0 0 1
14.502105 1.731648 20.619885 25.268346 0.118844 0.616277 0.099855 -0.025580 -868680.000000 0 0 1
14.944505 0.400648 20.749185 25.573960 0.026803 0.624355 0.071032 -0.027867 70950.700000 0 0 1
14.384605 -0.401952 21.803385 26.124050 -0.027936 0.583373 0.082438 -0.023311 -291412.000000 0 0 1
14.647105 -1.931652 21.728085 26.275057 -0.131123 0.597140 0.058309 -0.020797 -92423.700000 0 0 1
14.044205 -2.532752 20.615285 25.072784 -0.178424 0.605500 0.059660 -0.011190 66572.700000 0 0 1
14.416005 -3.879052 20.517385 25.373831 -0.262854 0.629021 0.047490 -0.004298 -291980.000000 0 0 1
13.892205 -4.535352 19.225585 24.149242 -0.315559 0.649948 0.043214 -0.005511 692599.000000 0 1 0
12.472105 -4.655852 19.118985 23.297337 -0.357280 0.608247 0.055899 -0.008897 522621.000000 0 1 0
12.109805 -5.227252 17.862985 22.204904 -0.407494 0.636028 0.053387 -0.002365 507309.000000 0 1 0
10.575205 -5.320752 17.604585 21.214777 -0.466152 0.592000 0.052791 -0.001097 543976.000000 0 1 0
10.035705 -6.263852 18.542685 21.995053 -0.557993 0.567888 0.056022 0.005102 -158375.000000 0 1 0
8.626505 -6.225152 18.383185 21.239364 -0.625096 0.524600 0.050758 -0.006582 101335.000000 0 1 0
7.951505 -7.225452 19.314285 22.101474 -0.737595 0.507646 0.056541 -0.014463 -359430.000000 0 1 0
8.080905 -8.595952 18.927985 22.303812 -0.816272 0.557381 0.051982 -0.015733 -107486.000000 0 1 0
9.105305 -9.305752 19.593685 23.524797 -0.796285 0.586478 0.067929 -0.011797 148660.000000 0 1 0
9.232405 -10.715552 18.983685 23.673627 -0.859612 0.640342 0.073278 -0.016639 226705.000000 0 1 0
9.645905 -10.601852 17.637985 22.727544 -0.832576 0.682399 0.068119 -0.013637 -92094.400000 0 1 0
9.781205 -11.903852 17.120185 23.032029 -0.882973 0.732775 0.057033 -0.017810 216111.000000 0 1 0
9.873105 -11.942352 15.635485 22.012868 -0.879968 0.780888 0.056439 -0.017515 168885.000000 0 1 0
10.480105 -13.074052 15.034385 22.512133 -0.895083 0.839500 0.051585 -0.017478 114644.000000 0 1 0
10.193705 -12.986252 13.666185 21.431728 -0.905293 0.879338 0.047604 -0.018864 -287202.000000 0 1 0
10.804705 -14.162152 12.792385 21.930647 -0.919072 0.947997 0.057102 -0.022790 266648.000000 0 1 0
12.185805 -14.208152 12.513385 22.515555 -0.861870 0.981512 0.049228 -0.020102 -156843.000000 0 1 0
12.508305 -13.244752 11.515585 21.552026 -0.813987 1.007098 0.033857 -0.019715 -344532.000000 0 1 0
14.001205 -13.147352 11.109585 22.188048 -0.753957 1.046388 0.066660 -0.023820 270048.000000 0 1 0
14.520105 -14.331552 10.544785 22.965611 -0.778863 1.093752 0.083541 -0.017801 -598696.000000 0 1 0
15.812305 -14.062252 10.104885 23.449618 -0.726885 1.125285 0.083394 -0.028032 -210013.000000 0 1 0
16.653605 -15.241452 9.465085 24.479220 -0.741152 1.173791 0.084684 -0.029592 679449.000000 0 1 0
17.302105 -16.070552 10.443385 25.820336 -0.748512 1.154404 0.096555 -0.026900 -351302.000000 0 0 1
16.414605 -16.931752 11.063685 26.048581 -0.800905 1.132130 0.127436 -0.022150 -349712.000000 0 0 1
16.898005 -17.600152 12.368485 27.354841 -0.805749 1.101622 0.106653 -0.022819 -255804.000000 0 0 1
17.934705 -18.506352 12.141685 28.487878 -0.801084 1.130502 0.133569 -0.025235 -325260.000000 0 0 1
18.340505 -19.325352 13.242585 29.752468 -0.811539 1.109519 0.112243 -0.021529 453825.000000 0 0 1
19.801605 -19.836652 13.049685 30.917480 -0.786282 1.135057 0.065616 -0.026700 288396.000000 0 0 1
20.751705 -18.810152 13.260185 30.988507 -0.736361 1.128621 0.070646 -0.031002 -67617.500000 0 0 1
22.035105 -19.324152 12.900685 32.021810 -0.719945 1.156144 0.049747 -0.031228 617650.000000 0 0 1
22.802405 -18.479252 11.834285 31.646211 -0.681055 1.187526 0.057437 -0.028430 -520356.000000 0 0 1
22.503005 -18.677952 10.462885 31.059991 -0.692780 1.227216 0.044056 -0.017084 303297.000000 0 0 1
21.252105 -18.295152 9.870285 29.728556 -0.710767 1.232359 0.055724 -0.021659 798615.000000 0 0 1
20.961405 -16.776952 9.971985 28.640654 -0.674969 1.215172 0.108489 -0.041619 -209307.000000 0 0 1
21.886405 -16.127852 9.141585 28.682588 -0.635057 1.246422 0.094627 -0.031257 -119526.000000 0 0 1
21.955605 -14.756052 9.427385 28.083184 -0.591745 1.228453 0.111990 -0.038967 18996.000000 0 0 1
-35.417647 24.861977 7.768285 43.964462 -0.612044 1.393169 0.089190 -0.037416 -511822.000000 0 0 1
-34.618106 24.349277 8.774985 43.223847 -0.612983 1.366363 0.083136 -0.025050 -522679.000000 0 0 1
-33.616488 25.229877 9.127685 43.010808 -0.643834 1.356952 0.088215 -0.022989 -443150.000000 0 0 1
-32.468078 24.596177 9.975185 41.936289 -0.648315 1.330629 0.104158 -0.019123 282454.000000 0 0 1
-31.848558 23.538377 9.238885 40.666237 -0.636470 1.341607 0.109357 -0.021739 754989.000000 0 0 1
-30.819648 22.809177 9.955085 39.613293 -0.637126 1.316766 0.102535 -0.019828 708183.000000 0 0 1
-29.970618 21.896977 8.994185 38.191765 -0.630979 1.333063 0.090546 -0.021519 -235666.000000 0 0 1
-30.689518 20.937077 8.263085 38.058984 -0.598695 1.351941 0.101006 -0.029752 -501628.000000 0 0 1
-29.866558 20.086977 7.515385 36.769266 -0.592070 1.364953 0.105119 -0.030810 -46960.300000 0 0 1
-30.657738 19.192277 6.482185 36.745872 -0.559331 1.393463 0.102996 -0.029163 9231.930000 0 0 1
-31.277178 18.055477 7.047385 36.795757 -0.523541 1.378079 0.116284 -0.029216 -34599.200000 0 0 1
-32.349058 17.718377 6.211085 37.402941 -0.501095 1.403965 0.089000 -0.022287 -121266.000000 0 0 1
-33.156768 16.433877 6.632985 37.595746 -0.460155 1.393439 0.089630 -0.015995 -115320.000000 0 0 1
-34.079436 16.701977 7.661385 38.717707 -0.455688 1.371604 0.082181 -0.026084 -383992.000000 0 0 1
-34.860125 15.583077 7.790085 38.971092 -0.420371 1.369547 0.089622 -0.027129 -623554.000000 0 0 1
-35.901023 15.733277 8.916085 40.198458 -0.413032 1.347135 0.102943 -0.034164 -410184.000000 0 0 1
36.713715 16.721077 8.704385 41.270541 0.427373 1.358290 0.108979 -0.031728 3598.300000 0 0 1
35.881185 16.956777 9.841785 40.888292 0.441473 1.327710 0.128359 -0.031946 432136.000000 0 0 1
34.975775 18.228477 9.970285 40.681553 0.480443 1.323193 0.112122 -0.025488 707543.000000 0 0 1
33.852235 18.048677 9.100485 39.427749 0.489823 1.337882 0.112584 -0.026328 579657.000000 0 0 1
33.063865 19.257777 8.939085 39.293617 0.527409 1.341292 0.096424 -0.017291 -168836.000000 0 0 1
31.673365 18.985277 8.349085 37.859609 0.539984 1.348441 0.089773 -0.018968 -467752.000000 0 0 1
31.070895 20.263977 8.288685 38.009625 0.577910 1.350962 0.080840 -0.019777 822044.000000 0 0 1
29.695725 20.391777 7.844385 36.867262 0.601738 1.356384 0.051991 -0.016910 1296110.000000 0 0 1
29.415725 20.047377 6.356485 36.160574 0.598215 1.394093 0.029664 -0.001398 -621703.000000 0 0 1
29.294855 18.662477 6.021085 35.252376 0.567222 1.399155 0.045122 -0.007849 315841.000000 0 0 1
29.019245 18.390877 4.613185 34.664426 0.564865 1.437319 0.046221 -0.010463 914482.000000 0 0 1
27.597905 18.777977 4.012585 33.620791 0.597459 1.451163 0.056515 -0.006310 413298.000000 0 0 1
26.524005 18.114777 4.683185 32.459208 0.599196 1.426012 0.060859 -0.015663 624360.000000 0 0 1
25.212605 18.456477 4.277385 31.537486 0.631903 1.434748 0.081193 -0.018175 -27533.300000 0 0 1
24.744505 19.898877 4.625085 32.088117 0.677281 1.426156 0.088867 -0.017170 -1003740.000000 0 0 1
25.333605 20.913277 3.830785 33.073125 0.690107 1.454708 0.072175 -0.016188 342297.000000 0 0 1
24.835005 22.204077 4.156785 33.571973 0.729526 1.446661 0.070437 -0.005475 38209.300000 0 0 1
25.889505 23.345777 4.002185 35.090016 0.733779 1.456493 0.045792 0.004479 -36917.100000 0 0 1
26.895905 23.324977 4.978485 35.947595 0.714413 1.431857 0.045046 -0.003078 -399131.000000 0 0 1
27.761505 24.395477 4.867585 37.276452 0.720951 1.439842 0.042203 -0.006236 -1859570.000000 0 0 1
29.031725 24.240177 5.679785 38.245094 0.695694 1.421735 0.049505 -0.007279 -759014.000000 0 0 1
29.963305 23.172677 5.424985 38.264906 0.658290 1.428543 0.045994 -0.009203 683213.000000 0 0 1
30.468845 23.126977 4.084585 38.469357 0.649260 1.464418 0.045835 -0.009845 -751853.000000 0 0 1
31.290235 24.317077 3.562185 39.788041 0.660649 1.481147 0.075467 -0.023932 -506036.000000 0 0 1
30.510955 25.494177 3.434085 39.908199 0.696059 1.484640 0.049284 -0.020350 226076.000000 0 0 1
31.356855 26.468477 2.800085 41.129954 0.701062 1.502665 0.096769 -0.021535 -567003.000000 0 0 1
30.891575 27.900677 2.725285 41.715277 0.734570 1.505419 0.079978 -0.011262 647910.000000 0 0 1
29.613595 28.216977 2.158685 40.961234 0.761253 1.518071 0.099959 -0.021017 241184.000000 0 0 1
28.498295 27.747377 2.843785 39.876771 0.772048 1.499421 0.071379 -0.014936 -1687340.000000 0 0 1
27.196505 28.288977 2.303085 39.309290 0.805085 1.512174 0.030168 -0.011408 -766373.000000 0 0 1
27.106405 29.670077 2.571985 40.270160 0.830521 1.506885 0.028170 -0.011857 728661.000000 0 0 1
25.865005 30.206477 2.080185 39.821563 0.862671 1.518535 0.019716 -0.006311 789258.000000 0 0 1
25.607205 31.659977 2.572485 40.800745 0.890701 1.507705 0.031876 -0.015258 -186862.000000 0 0 1
25.261705 31.802577 3.902285 40.801783 0.899523 1.475010 0.019588 -0.026379 386055.000000 0 0 1
26.418105 31.747077 4.730885 41.571318 0.876761 1.456748 0.023391 -0.027316 386084.000000 0 0 1
25.993705 31.523577 6.220885 41.329263 0.881246 1.419702 0.019575 -0.027505 313732.000000 0 0 1
25.508805 30.267677 6.728385 40.150997 0.870512 1.402425 0.026312 -0.030520 267930.000000 0 0 1
26.471005 29.224977 6.654385 39.988676 0.834804 1.403612 0.043303 -0.035575 -17924.200000 0 0 1
26.033205 27.805377 7.105885 38.747392 0.818303 1.386362 0.058560 -0.030260 12126.600000 0 0 1
25.026705 27.295577 6.233285 37.553140 0.828734 1.404039 0.034923 -0.028463 359691.000000 0 0 1
24.592905 25.979877 6.468385 36.353885 0.812817 1.391916 0.051390 -0.033949 -279161.000000 0 0 1
23.245805 25.592677 5.792685 35.055781 0.833415 1.404793 0.058367 -0.013980 50390.000000 0 0 1
23.193805 25.460577 4.378085 34.718312 0.831954 1.444357 0.038001 -0.012439 41287.600000 0 0 1
23.408005 26.702177 3.701285 35.702107 0.851042 1.466938 0.029682 -0.017137 -428576.000000 0 0 1
23.627805 26.494377 2.212485 35.568529 0.842528 1.508553 0.036427 -0.003311 344022.000000 0 0 1
24.861505 25.882277 1.828185 35.935066 0.805512 1.519900 0.008004 0.013811 659214.000000 0 0 1
24.812805 25.714877 0.414985 35.736570 0.803249 1.559184 0.024170 0.005448 -1042110.000000 0 0 1
25.958405 24.899677 -0.063015 35.969941 0.764584 1.572548 0.039901 0.002968 -1965890.000000 0 0 1
27.138805 25.642077 -0.109815 37.336884 0.757048 1.573738 0.050521 0.002703 259039.000000 0 0 1
28.256105 25.079577 -0.807715 37.789483 0.725911 1.592172 0.062583 0.003252 740254.000000 0 0 1
28.902615 23.781777 -0.185115 37.429512 0.688504 1.575742 0.055554 -0.001701 -694512.000000 0 0 1
28.104405 22.605877 -0.321015 36.069188 0.677390 1.579696 0.048448 -0.000866 222414.000000 0 0 1
28.318405 21.661277 0.711285 35.660187 0.652981 1.550849 0.040907 0.000295 -318947.000000 0 0 1
27.119705 20.744777 0.996385 34.158702 0.652990 1.541623 0.043021 -0.002702 -423796.000000 0 0 1
26.836205 19.772477 0.035785 33.333677 0.634989 1.569723 0.065243 -0.018141 246892.000000 0 0 1
25.713705 19.080377 0.519885 32.023830 0.638382 1.554561 0.064091 -0.014218 -341850.000000 0 0 1
25.233305 17.810177 -0.237415 30.886542 0.614621 1.578483 0.067408 -0.026491 1703770.000000 0 0 1
23.831305 17.560777 0.134485 29.602873 0.635050 1.566253 0.072892 -0.023190 1737820.000000 0 0 1
23.272805 16.517777 -0.619615 28.545478 0.617237 1.592504 0.084797 -0.053898 620542.000000 0 0 1
21.789405 16.234477 -0.217015 27.173213 0.640334 1.578783 0.099755 -0.037757 -512451.000000 0 0 1
21.136905 15.145977 -0.841915 26.016883 0.621757 1.603162 0.103010 -0.049399 578789.000000 0 0 1
19.724705 15.123477 -0.712215 24.865454 0.654121 1.599443 0.110195 -0.044610 -59723.900000 0 1 0
18.918105 16.247777 -1.363515 24.974870 0.709608 1.625419 0.126788 -0.043452 -1181320.000000 0 1 0
19.024005 17.495777 -0.702315 25.855526 0.743576 1.597963 0.104192 -0.033485 -231180.000000 0 0 1
18.104405 18.415877 -1.222015 25.853575 0.793927 1.618081 0.091810 -0.032863 -42634.600000 0 0 1
18.101805 19.753377 -0.512215 26.798015 0.828999 1.589911 0.089638 -0.015641 -266599.000000 0 0 1
17.601705 19.726977 0.792985 26.449999 0.842271 1.540811 0.081095 -0.010665 9742.510000 0 0 1
17.651205 20.956077 1.465885 27.438495 0.870792 1.517346 0.095155 -0.011759 347842.000000 0 0 1
16.689605 22.092277 0.941985 27.703771 0.923817 1.536788 0.089111 -0.020371 -323330.000000 0 0 1
15.342505 21.925177 1.231485 26.788475 0.960227 1.524809 0.064330 -0.021057 -322034.000000 0 0 1
14.603605 23.135677 0.922685 27.374736 1.007740 1.537084 0.055735 -0.015786 612061.000000 0 0 1
13.144605 23.130677 1.443785 26.643824 1.054030 1.516581 0.041185 -0.021041 254337.000000 0 0 1
13.029105 23.347677 2.821585 26.885553 1.061796 1.465655 0.043082 -0.001168 273606.000000 0 0 1
11.654905 23.351677 3.173785 26.290883 1.107866 1.449783 0.028899 -0.006127 442602.000000 0 0 1
11.503905 23.591677 4.710985 26.666466 1.117097 1.393201 0.044649 -0.009224 243022.000000 0 0 1
11.980105 22.488677 5.497785 26.067013 1.081319 1.358291 0.047493 -0.027760 132294.000000 0 0 1
11.374505 22.581777 6.752685 26.170876 1.104191 1.309821 0.047096 -0.008970 -918374.000000 0 0 1
11.813705 21.557777 7.819085 25.796113 1.069488 1.262841 0.049384 -0.013587 391294.000000 0 0 1
13.053105 21.890177 8.460685 26.854173 1.033102 1.250276 0.057230 -0.011405 882502.000000 0 0 1
14.178705 21.539477 7.667185 26.902982 0.988632 1.281796 0.052848 -0.008463 350349.000000 0 0 1
15.620005 21.577877 8.291585 27.898740 0.944216 1.269035 0.063648 -0.017394 832497.000000 0 0 1
15.878905 20.433977 9.142085 27.445669 0.910186 1.231210 0.070804 -0.026458 -88709.100000 0 0 1
17.119405 20.437677 9.798485 28.403925 0.873522 1.218590 0.061793 -0.025484 -244113.000000 0 0 1
17.350305 21.290377 11.089185 29.618968 0.887014 1.187052 0.041000 -0.020905 -864399.000000 0 0 1
16.616005 20.820677 12.129785 29.269846 0.897244 1.143499 0.049531 -0.033530 -435666.000000 0 0 1
16.801805 21.534377 13.306385 30.382395 0.908226 1.117464 0.051648 -0.021928 -783039.000000 0 0 1
17.879805 21.121077 14.273885 31.137294 0.868315 1.094582 0.054301 -0.013351 251618.000000 0 0 1
19.200605 21.484177 13.852685 31.970767 0.841468 1.122654 0.062189 -0.012668 986516.000000 0 0 1
20.213705 20.903877 14.731785 32.597414 0.802182 1.101867 0.055991 -0.012238 1084850.000000 0 0 1
21.657305 21.328977 14.367285 33.621169 0.777760 1.129260 0.068682 -0.016551 116462.000000 0 0 1
22.033705 20.911877 13.085285 33.075904 0.759282 1.164060 0.053974 -0.016209 -219793.000000 0 0 1
23.364405 21.340377 12.867485 34.159615 0.740154 1.184579 0.083974 -0.012260 165384.000000 0 0 1
24.025305 20.629177 11.571385 33.714614 0.709491 1.220458 0.071264 -0.005847 480211.000000 0 0 1
23.545305 21.177577 10.381985 33.326517 0.732505 1.254001 0.083974 -0.010005 141444.000000 0 0 1
24.505205 20.847777 9.422685 33.524944 0.704929 1.285893 0.089073 -0.017489 -363833.000000 0 0 1
24.526605 21.842377 8.165785 33.842633 0.727574 1.327105 0.087460 -0.019231 59893.200000 0 0 1
24.940705 23.150877 8.518385 35.079406 0.748198 1.325513 0.077667 -0.018216 -45138.500000 0 0 1
26.322005 23.364877 8.641985 36.241541 0.725953 1.330021 0.062155 -0.028401 -572436.000000 0 0 1
26.737705 24.630677 9.454485 37.562779 0.744403 1.316362 0.085978 -0.032900 -21591.800000 0 0 1
28.012705 25.107377 9.039585 38.688579 0.730759 1.334966 0.074164 -0.023562 446746.000000 0 0 1
28.443705 26.150977 9.873185 39.879791 0.743427 1.320621 0.088649 -0.026262 130612.000000 0 0 1
29.749365 26.837177 9.407185 41.155242 0.733979 1.340180 0.075709 -0.030257 191110.000000 0 0 1
29.638275 27.591377 8.210285 41.317311 0.749647 1.370752 0.075803 -0.029907 51688.800000 0 0 1
30.945705 27.796777 7.749185 42.312496 0.731844 1.386615 0.079977 -0.028689 -585618.000000 0 0 1
30.835865 28.565677 6.418385 42.521102 0.747199 1.419271 0.104166 -0.021384 143779.000000 0 0 1
30.816235 29.952177 6.598185 43.477687 0.771180 1.418447 0.091940 -0.023166 179147.000000 0 0 1
30.436685 30.720077 5.467885 43.589135 0.790032 1.445024 0.099185 -0.023088 -3862.690000 0 0 1
30.625315 32.233277 5.567985 44.809558 0.810973 1.446215 0.044946 -0.011039 385708.000000 0 0 1
29.592495 32.893577 6.301285 44.692386 0.838178 1.429333 0.043286 -0.019309 379061.000000 0 0 1
29.723505 -33.971494 6.094685 45.548813 -0.851992 1.436588 0.031461 -0.006111 -16828.500000 0 0 1
28.548235 -33.131394 6.640485 44.235586 -0.859568 1.420110 0.060983 -0.019739 -316200.000000 0 0 1
27.361805 -33.415194 6.007085 43.604227 -0.884671 1.432593 0.048649 -0.018598 -1094950.000000 0 0 1
26.184205 -32.825494 6.486885 42.487708 -0.897472 1.417520 0.039036 -0.029763 480103.000000 0 0 1
24.995505 -32.911594 5.493285 41.690820 -0.921259 1.438650 0.046013 -0.018656 315867.000000 0 0 1
25.236305 -32.096394 4.364985 41.062181 -0.904486 1.464293 0.023778 0.000775 -68570.200000 0 0 1
24.192205 -32.371894 3.472185 40.561785 -0.929012 1.485089 0.032663 -0.011518 -80386.100000 0 0 1
24.406205 -31.658394 2.070285 40.027526 -0.914038 1.519052 0.031196 0.008506 89819.700000 0 0 1
24.219405 -30.264394 2.133085 38.820912 -0.895896 1.515822 0.026818 0.017126 -285129.000000 0 0 1
24.909705 -29.720794 1.067485 38.793795 -0.873238 1.543276 0.024292 0.029312 -530078.000000 0 0 1
25.275105 -28.233494 1.260085 37.915023 -0.840630 1.537556 0.043340 0.028018 133847.000000 0 0 1
24.259605 -27.226594 1.244485 36.487869 -0.842961 1.536683 0.021301 0.024122 -174025.000000 0 0 1
23.638905 -27.124594 -0.013315 35.979739 -0.853956 1.571166 0.032087 0.021029 162380.000000 0 0 1
22.543605 -26.004694 -0.055715 34.416004 -0.856569 1.572415 0.021066 0.022867 341406.000000 0 0 1
23.056805 -24.682994 0.080885 33.776812 -0.819449 1.568402 0.029079 0.012309 16806.800000 0 0 1
23.363005 -24.223994 1.420885 33.684578 -0.803489 1.528602 0.020265 0.019093 90184.100000 0 0 1
22.164905 -24.193794 2.402885 32.899795 -0.829135 1.497695 0.003989 0.013711 -40075.200000 0 0 1
22.304005 -23.430794 3.543685 32.542717 -0.810031 1.461687 0.006078 0.002276 -323356.000000 0 0 1
21.162805 -23.468394 4.371985 31.902102 -0.837011 1.433320 0.020601 -0.003603 -89479.300000 0 0 1
21.253505 -22.652494 5.726485 31.585433 -0.817251 1.388487 0.020698 -0.008666 -76921.600000 0 0 1
21.550205 -21.260394 5.663585 30.797595 -0.778629 1.385847 0.034765 -0.000456 488421.000000 0 0 1
20.411605 -20.550094 5.136685 29.416416 -0.788779 1.395277 0.019932 -0.002417 -130484.000000 0 0 1
20.337905 -19.034794 5.469585 28.387852 -0.752313 1.376910 0.024290 -0.005171 -214356.000000 0 0 1
19.792305 -18.709794 6.735785 28.056417 -0.757290 1.328348 0.059450 -0.011272 846026.000000 0 0 1
18.351205 -18.698994 6.726485 27.049301 -0.794785 1.319484 0.047451 -0.009661 872674.000000 0 0 1
19.335702 -26.458213 -11.559615 34.749548 -0.939696 1.909914 0.085793 -0.027735 173149.000000 0 0 1
19.695402 -25.223953 -12.154815 34.232969 -0.907860 1.933776 0.073834 -0.029547 111608.000000 0 0 1
18.541402 -24.764523 -12.839915 33.495203 -0.928122 1.964202 0.068400 -0.025827 146363.000000 0 0 1
18.593602 -23.349323 -13.466115 32.745216 -0.898302 1.994609 0.053616 -0.031929 -57159.700000 0 0 1
18.756802 -22.219723 -12.606515 31.693184 -0.869708 1.979878 0.053844 -0.023457 -323384.000000 0 0 1
19.952202 -22.142023 -11.864015 32.079813 -0.837373 1.949620 0.054967 -0.030781 -675763.000000 0 0 1
19.925302 -22.747423 -10.427415 31.987402 -0.851436 1.902850 0.053912 -0.023221 -20775.500000 0 0 1
18.922302 -22.213023 -9.572515 30.710014 -0.865226 1.887785 0.048031 -0.020639 52574.500000 0 0 1
17.653102 -22.834523 -9.738115 30.461095 -0.912682 1.896199 0.062822 -0.017876 129647.000000 0 0 1
16.660602 -22.257223 -8.707715 29.133897 -0.928225 1.874321 0.055729 -0.006268 -641530.000000 0 0 1
16.657802 -20.879123 -8.811215 28.125747 -0.897385 1.889441 0.052909 -0.009216 518789.000000 0 0 1
15.804302 -20.097223 -7.907615 26.762001 -0.904408 1.870753 0.059974 -0.009696 110817.000000 0 0 1
14.303602 -20.153423 -8.165515 26.027469 -0.953566 1.889912 0.073871 -0.007482 -598175.000000 0 0 1
13.635002 -21.377923 -8.054715 26.604648 -1.003040 1.878379 0.062500 -0.006258 395337.000000 0 0 1
12.240102 -21.305023 -8.370415 25.957426 -1.049325 1.899131 0.062679 -0.007732 668055.000000 0 0 1
11.496502 -22.604223 -8.137115 26.633308 -1.100293 1.881285 0.063706 -0.003711 -250059.000000 0 0 1
11.590102 -22.845323 -6.763515 26.494988 -1.101302 1.828929 0.062670 -0.004633 729413.000000 0 0 1
10.748202 -23.970023 -6.372415 27.031343 -1.149272 1.808778 0.049458 -0.000597 414113.000000 0 0 1
11.280002 -24.576323 -5.082315 27.514796 -1.140501 1.756575 0.053198 -0.005212 -332155.000000 0 0 1
10.488102 -25.492993 -4.357615 27.908453 -1.180492 1.727577 0.057321 -0.005867 -622060.000000 0 0 1
11.131102 -26.038513 -3.252515 28.504113 -1.166822 1.685152 0.045468 -0.008860 -785759.000000 0 0 1
10.255702 -26.940273 -2.449315 28.930207 -1.207053 1.655561 0.050670 -0.013403 -118548.000000 0 0 1
9.373402 -26.175123 -1.621415 27.850076 -1.226921 1.629049 0.037605 -0.008545 -170641.000000 0 0 1
8.872102 -26.958513 -0.564915 28.386524 -1.252859 1.590698 0.041425 -0.015374 185368.000000 0 0 1
8.123902 -26.114593 0.504385 27.353686 -1.269200 1.552356 0.053314 -0.018170 182938.000000 0 0 1
6.809602 -25.716433 0.195785 26.603457 -1.311941 1.563437 0.041337 -0.024084 -314465.000000 0 0 1
6.168702 -25.200393 1.321485 25.978049 -1.330731 1.519905 0.042737 -0.024007 -96544.400000 0 0 1
4.702002 -24.773223 1.133985 25.240985 -1.383226 1.525855 0.054391 -0.029830 356727.000000 0 0 1
3.744302 -25.761823 0.773285 26.043987 -1.426464 1.541100 0.068915 -0.030392 430312.000000 0 0 1
2.445902 -25.213893 0.985285 25.351403 -1.474093 1.531921 0.073026 -0.031013 1236650.000000 0 0 1
1.205902 -26.007693 0.396485 26.038654 -1.524462 1.555569 0.083808 -0.026452 947504.000000 0 0 1
0.745002 -27.081503 1.200385 27.118329 -1.543294 1.526517 0.085061 -0.023951 192657.000000 0 0 1
1.544302 -28.294383 1.117685 28.358529 -1.516271 1.531373 0.065485 -0.028988 107320.000000 0 0 1
0.878802 -29.536713 1.713785 29.599438 -1.541052 1.512865 0.087454 -0.021082 37837.100000 0 0 1
1.087302 -29.552553 3.144685 29.739278 -1.534021 1.464856 0.070720 -0.017325 41938.600000 0 0 1
0.544102 -30.763303 3.637585 30.982396 -1.553111 1.453117 0.086773 -0.014314 41632.200000 0 0 1
0.492102 -30.718573 5.142685 31.149961 -1.554778 1.404943 0.078126 -0.007934 -424823.000000 0 0 1
1.776902 -30.561763 5.661285 31.132441 -1.512720 1.387934 0.048627 0.001199 -463610.000000 0 0 1
1.786202 -30.609233 7.112785 31.475504 -1.512507 1.342849 0.052322 -0.001074 1442600.000000 0 0 1
3.211302 -30.983723 7.763485 32.102574 -1.467520 1.326541 0.041456 0.000468 1797570.000000 0 0 1
3.632902 -32.284423 7.378685 33.315566 -1.458740 1.347466 0.037604 -0.004128 -556820.000000 0 0 1
4.962002 -32.604293 7.652285 33.855854 -1.419767 1.342801 0.031831 -0.006587 -278036.000000 0 0 1
5.307502 34.107263 7.500385 35.323233 1.416422 1.356832 0.040988 -0.002774 -68092.700000 0 0 1
5.490502 33.684023 6.146885 34.677705 1.409217 1.392597 0.030379 -0.007910 82938.200000 0 0 1
5.353002 32.257543 6.093985 33.261696 1.406349 1.386542 0.031817 -0.013279 -588500.000000 0 0 1
5.514902 31.599008 4.689285 32.417601 1.398009 1.425635 0.045673 -0.017075 1341690.000000 0 0 1
6.852102 31.659578 4.116785 32.653149 1.357653 1.444384 0.044496 -0.012782 1113420.000000 0 0 1
7.777702 30.779178 4.683985 32.090344 1.323284 1.424311 0.039430 -0.015705 544140.000000 0 0 1
9.253302 30.819928 4.124085 32.442251 1.279122 1.443331 0.009121 -0.004637 381057.000000 0 0 1
10.193902 31.338608 4.957885 33.325735 1.256309 1.421472 0.012169 -0.016611 -334033.000000 0 0 1
11.417802 31.659138 4.282485 33.926493 1.224667 1.444230 0.019686 -0.017239 129267.000000 0 0 1
12.544202 31.937208 5.251185 34.711918 1.196532 1.418934 0.025505 -0.029057 -540673.000000 0 0 1
12.900802 30.897408 6.214885 34.054447 1.175264 1.387269 0.031875 -0.019361 1238260.000000 0 0 1
14.216602 31.192898 6.771085 34.942185 1.143159 1.375783 0.045202 -0.018734 1489710.000000 0 0 1
14.745802 30.047358 7.696085 34.344026 1.114574 1.344789 0.042359 -0.009552 288211.000000 0 0 1
13.975402 29.922658 8.917285 34.208118 1.133854 1.307072 0.034740 -0.003737 599971.000000 0 0 1
14.504502 28.852848 9.698985 33.718507 1.104986 1.279029 0.027907 -0.002280 133559.000000 0 0 1
14.102702 28.819398 11.196285 33.982359 1.115707 1.235051 0.022584 -0.002233 -194485.000000 0 0 1
14.846402 29.788808 11.891285 35.343902 1.108439 1.227657 0.034543 -0.011152 2892.060000 0 0 1
14.423202 30.063138 13.186785 35.856831 1.123468 1.194195 0.039422 -0.009786 -302453.000000 0 0 1
15.278302 31.155568 13.863985 37.367178 1.114868 1.190689 0.037588 -0.012494 -51750.400000 0 0 1
16.531702 30.683618 14.289285 37.669155 1.076609 1.181717 0.034213 -0.016730 -3399.340000 0 0 1
17.288402 31.785778 14.869485 39.119383 1.072646 1.180886 0.040404 -0.014245 -313219.000000 0 0 1
18.373002 31.204268 15.765785 39.494728 1.038655 1.160166 0.044949 -0.016324 -560079.000000 0 0 1
19.468702 30.741348 15.008485 39.361345 1.006246 1.179594 0.041116 -0.014333 -159843.000000 0 0 1
19.749002 29.392708 15.039485 38.472594 0.979178 1.169172 0.033132 -0.014124 -250342.000000 0 0 1
21.108202 28.954808 14.480785 38.647513 0.940868 1.186735 0.067177 -0.029136 -115125.000000 0 0 1
22.265802 29.333948 15.203985 39.842284 0.921531 1.179265 0.085326 -0.027147 226674.000000 0 0 1
23.401802 29.103558 14.363885 40.012281 0.893568 1.203614 0.088119 -0.024485 465187.000000 0 0 1
24.721202 29.217778 15.188985 41.176713 0.868570 1.193000 0.096177 -0.023437 9278.790000 0 0 1
24.923502 28.179958 16.113585 40.926014 0.846644 1.166116 0.098943 -0.017972 -338847.000000 0 0 1
25.909702 28.504888 17.034585 42.119098 0.833055 1.154432 0.080699 -0.021846 -941641.000000 0 0 1
26.781002 27.339088 17.484885 42.075753 0.795710 1.142241 0.044982 -0.006343 -425339.000000 0 0 1
26.059002 26.274488 18.095485 41.193044 0.789516 1.115994 0.054618 -0.004472 166110.000000 0 0 1
26.174402 26.259208 19.503685 41.893186 0.787016 1.086532 0.088551 -0.007210 293441.000000 0 0 1
25.523402 24.925808 20.058485 40.927775 0.773553 1.058598 0.086882 -0.004833 145972.000000 0 0 1
26.335702 23.800338 19.888185 40.688637 0.734872 1.060094 0.057569 -0.005284 -53448.300000 0 0 1
25.681302 22.628748 20.304485 39.797759 0.722295 1.035389 0.058548 -0.002446 325509.000000 0 0 1
26.544302 21.386548 19.988985 39.516375 0.678202 1.040440 0.036896 -0.009739 230447.000000 0 0 1
25.716602 20.289048 20.203885 38.486180 0.667965 1.018123 0.021117 0.007908 167675.000000 0 0 1
26.441102 19.071448 20.224085 38.364901 0.624866 1.015552 0.026156 -0.014593 105464.000000 0 0 1
27.062302 18.677648 21.591985 39.337470 0.604100 0.989759 0.040706 -0.009577 204387.000000 0 0 1
26.188402 17.994248 22.484785 38.925453 0.602021 0.954965 0.023003 0.002595 263939.000000 0 0 1
26.911502 17.577348 23.606085 39.880313 0.578589 0.937353 0.057528 0.001487 689094.000000 0 0 1
25.871502 16.879248 24.565985 39.468104 0.578079 0.898957 0.040206 0.005807 648944.000000 0 0 1
25.465902 15.640448 24.066085 38.370721 0.550775 0.892844 0.046190 -0.004291 303956.000000 0 0 1
24.492302 14.998148 24.880485 37.998103 0.549459 0.856902 0.048869 -0.002727 99624.300000 0 0 1
23.948302 13.681748 24.318785 36.771112 0.519052 0.848172 0.047976 -0.006822 -32448.400000 0 0 1
22.816902 13.163848 24.973285 36.298249 0.523287 0.812063 0.026725 -0.003617 146054.000000 0 0 1
22.242402 12.041448 24.292085 35.068879 0.496196 0.805575 0.040750 -0.008141 462251.000000 0 0 1
20.863402 11.607948 24.877585 34.480722 0.507727 0.764841 0.049873 -0.013397 578133.000000 0 0 1
19.792402 12.514748 24.601385 33.964485 0.563832 0.760739 0.071164 -0.019769 -560887.000000 0 0 1
18.635302 11.759548 24.679585 33.085395 0.562928 0.728857 0.085634 -0.020076 364132.000000 0 0 1
17.279302 12.591548 24.792785 32.738411 0.629734 0.711628 0.083822 -0.030546 1092010.000000 0 0 1
17.271002 13.384948 25.996485 33.959705 0.659307 0.698963 0.090564 -0.009735 -850228.000000 0 0 1
16.069002 14.043348 26.119785 33.729388 0.718230 0.685042 0.102443 -0.015164 -1052290.000000 0 0 1
15.675102 14.343148 27.536085 34.780320 0.741056 0.657186 0.089803 0.004501 -145605.000000 0 0 1
15.297302 13.112948 28.211285 34.667470 0.708663 0.620190 0.088829 0.006970 119912.000000 0 0 1
15.374802 13.192548 29.641985 35.903692 0.709156 0.599537 0.073965 -0.000083 44877.000000 0 0 1
16.796402 12.896248 30.216185 36.897834 0.654795 0.611279 0.070711 0.009451 657973.000000 0 0 1
17.643202 14.055148 30.049685 37.574104 0.672684 0.643927 0.089971 -0.004697 266469.000000 0 0 1
19.006902 13.698548 30.212985 38.232669 0.624493 0.659596 0.072969 0.007063 -196219.000000 0 0 1
19.912302 14.826348 29.753885 38.750665 0.640025 0.695351 0.078931 0.008168 -631142.000000 0 0 1
19.903202 15.364148 28.435285 37.957343 0.657398 0.724037 0.089978 -0.002039 185957.000000 0 0 1
19.855002 14.580648 27.243085 36.728764 0.633414 0.735140 0.084973 -0.004368 -341854.000000 0 0 1
19.777702 15.556848 26.080385 36.240302 0.666508 0.767496 0.063719 -0.015230 -277388.000000 0 0 1
20.937302 16.334348 25.945185 37.125923 0.662523 0.797018 0.060373 -0.011694 -130142.000000 0 0 1
20.848402 16.966748 24.666285 36.482215 0.683108 0.828315 0.042974 -0.017853 -329124.000000 0 0 1
22.097102 17.675348 24.114585 37.178126 0.674677 0.865023 0.042925 -0.012672 -658175.000000 0 0 1
21.982302 18.009448 22.760485 36.408811 0.686381 0.895490 0.045603 -0.012959 26033.800000 0 0 1
23.021102 18.803948 22.179385 37.087528 0.684909 0.929758 0.043671 -0.009422 59481.800000 0 0 1
23.409902 20.197848 22.760785 38.393097 0.711873 0.936221 0.061251 -0.015069 27436.900000 0 0 1
22.482402 21.240448 22.425085 38.203396 0.757001 0.943458 0.054825 -0.014142 387025.000000 0 0 1
22.705602 22.438448 23.183085 39.452297 0.779480 0.942678 0.078918 -0.018920 129723.000000 0 0 1
21.747402 23.620088 22.870085 39.419524 0.826653 0.951857 0.081208 -0.028888 -219575.000000 0 0 1
22.058902 24.283268 21.684685 39.325537 0.833360 0.986737 0.092648 -0.019913 -465336.000000 0 0 1
21.170702 25.283848 21.359285 39.289829 0.873709 0.996036 0.095490 -0.024749 -711591.000000 0 0 1
21.536302 26.219708 20.166785 39.471314 0.883155 1.034539 0.093487 -0.026235 -162982.000000 0 0 1
21.400002 25.652108 18.919085 38.391698 0.875524 1.055502 0.082272 -0.026268 164343.000000 0 0 1
22.016502 26.493838 17.932085 38.835673 0.877434 1.090838 0.082330 -0.030770 148517.000000 0 0 1
22.010502 26.012748 16.488185 37.854795 0.868546 1.120132 0.067722 -0.014528 120171.000000 0 0 1
20.694702 25.860598 15.988585 36.778745 0.895909 1.121065 0.056726 -0.014533 -27298.900000 0 0 1
20.669602 25.427168 14.652885 35.895409 0.888242 1.150303 0.065307 -0.006527 -1218430.000000 0 0 1
19.469702 24.594748 14.382285 34.508275 0.901186 1.140899 0.053525 -0.010090 -18886.400000 0 0 1
18.246202 25.258428 14.050685 34.180899 0.945207 1.147171 0.040492 -0.007722 762411.000000 0 0 1
17.457002 25.946158 15.034185 34.698368 0.978548 1.122665 0.055231 -0.014629 -656524.000000 0 0 1
15.987502 26.156238 14.633585 33.968969 1.022160 1.125425 0.044522 -0.012990 -42211.000000 0 0 1
15.208602 24.938328 14.470185 32.597669 1.023167 1.110847 0.052599 -0.011032 396273.000000 0 0 1
15.037002 24.034058 15.577385 32.348142 1.011727 1.068369 0.067506 -0.016389 -311739.000000 0 0 1
14.226302 24.591818 16.802685 33.007202 1.046338 1.036703 0.093386 -0.025039 -20519.800000 0 0 1
14.827702 25.730418 17.357885 34.397839 1.048007 1.041853 0.077499 -0.026443 -37030.900000 0 0 1
13.883802 26.376998 18.177585 34.913186 1.086284 1.023183 0.088327 -0.036407 -250945.000000 0 0 1
14.298902 27.693548 18.848085 36.423090 1.094173 1.026897 0.102632 -0.040456 -470102.000000 0 0 1
14.360602 28.808068 18.004585 36.882201 1.108356 1.060811 0.097167 -0.038367 375896.000000 0 0 1
15.149602 29.861508 18.555385 38.282142 1.101303 1.064775 0.066442 -0.035611 -180887.000000 0 0 1
14.855102 31.122938 17.725385 38.775000 1.125470 1.096026 0.063064 -0.024052 -423456.000000 0 0 1
13.561902 31.610258 17.934585 38.791532 1.165513 1.090172 0.076305 -0.027356 -393947.000000 0 0 1
13.420902 32.791209 17.183885 39.378546 1.182313 1.119228 0.063611 -0.026065 -269276.000000 0 0 1
11.990502 33.346912 17.322285 39.444268 1.225623 1.116135 0.082064 -0.031232 -265469.000000 0 0 1
11.692202 -33.642373 16.800885 39.380027 -1.236311 1.130028 0.077179 -0.024063 -151223.000000 0 0 1
12.344402 -32.477443 17.300685 38.813429 -1.207569 1.108796 0.069385 -0.027165 -160324.000000 0 0 1
12.275802 -32.151563 18.853885 39.241397 -1.206068 1.069618 0.083230 -0.041938 -24292.900000 0 0 1
13.190402 -32.993263 19.552585 40.556697 -1.190470 1.067741 0.091526 -0.039007 396442.000000 0 0 1
13.093302 -32.649303 20.882885 40.908513 -1.189404 1.035056 0.089403 -0.040039 -880535.000000 0 0 1
14.209102 -33.176373 21.734285 42.130149 -1.166143 1.028757 0.094914 -0.039137 -654872.000000 0 0 1
15.431202 -32.523753 21.478485 41.919468 -1.127789 1.032848 0.100803 -0.038335 436706.000000 0 0 1
16.464002 -32.934793 22.402985 43.100553 -1.107231 1.024198 0.110645 -0.032157 539323.000000 0 0 1
17.892502 -32.447923 22.166685 43.178365 -1.066862 1.031684 0.117813 -0.034569 -111888.000000 0 0 1
17.976302 -31.081233 22.691885 42.474841 -1.046437 1.007184 0.131881 -0.039888 -302154.000000 0 0 1
19.098202 -30.422183 22.204485 42.229014 -1.010206 1.017128 0.129156 -0.036126 -666229.000000 0 0 1
-4.658698 13.286077 17.803579 22.697814 -1.233547 0.669110 0.012901 -0.001931 -166823.000000 0 1 0
-4.445798 14.690777 17.944479 23.613309 -1.276933 0.707590 0.010124 0.002625 -821262.000000 0 1 0
-5.574898 15.391577 17.625379 24.054815 -1.223291 0.748490 0.008585 -0.005591 -844921.000000 0 1 0
-5.300598 16.905077 17.587879 24.964204 -1.266955 0.789044 0.015010 -0.003896 -21474.000000 0 1 0
-4.904498 17.473977 18.796979 26.128919 -1.297162 0.767867 0.017453 0.001364 129827.000000 0 0 1
-4.716898 18.859277 18.639179 26.932145 -1.325714 0.806431 0.032998 -0.009908 -131332.000000 0 0 1
-3.954698 19.406277 19.892279 28.070376 -1.369765 0.783203 0.022877 -0.006731 110085.000000 0 0 1
-4.808998 19.519477 21.002779 29.073238 -1.329238 0.763516 0.018321 -0.005658 443623.000000 0 0 1
-4.161998 20.209677 22.053179 30.200927 -1.367695 0.752159 0.015969 -0.004486 505148.000000 0 0 1
-5.259198 20.386777 23.151349 31.293207 -1.318330 0.737993 0.025992 -0.005231 613178.000000 0 0 1
-5.706698 19.189477 23.803529 31.103222 -1.281739 0.699277 0.023071 -0.012511 716563.000000 0 0 1
-6.606598 19.394177 24.947209 32.282263 -1.242477 0.687581 0.019271 -0.011580 786817.000000 0 0 1
-5.946298 20.091177 26.173489 33.527084 -1.283045 0.675064 0.020652 -0.014215 -325822.000000 0 0 1
-5.552198 21.386177 25.773879 33.948318 -1.316788 0.708699 0.028004 -0.013340 195942.000000 0 0 1
-4.525598 21.911077 26.595849 34.755079 -1.367117 0.699388 0.035539 -0.012421 1668740.000000 0 0 1
-2.995298 21.562077 26.311589 34.149593 -1.432765 0.691202 0.043698 -0.010603 1137900.000000 0 0 1
-2.580298 20.228977 26.664989 33.569199 -1.443927 0.652894 0.051971 -0.015007 -757790.000000 0 0 1
-1.313498 20.093477 26.121659 32.982028 -1.505520 0.656724 0.052130 -0.006217 -717628.000000 0 0 1
-0.573898 18.880477 26.694359 32.701538 -1.540409 0.615815 0.056449 -0.006470 -308654.000000 0 0 1
-1.064498 17.643877 26.195919 31.601673 -1.510537 0.593585 0.052989 -0.005230 -178503.000000 0 0 1
-0.421698 16.489177 26.706649 31.389742 -1.545228 0.553275 0.050803 -0.003515 812557.000000 0 0 1
1.069602 16.245077 26.229779 30.871474 1.505050 0.555485 0.047868 0.002672 821146.000000 0 0 1
1.311502 15.896077 24.860609 29.537352 1.488478 0.570434 0.037857 0.005499 -228793.000000 0 0 1
0.993802 14.550277 24.613839 28.610125 1.502601 0.534901 0.043068 0.005118 -233315.000000 0 0 1
1.094202 14.132977 23.130769 27.128782 1.493529 0.549801 0.029085 0.006766 170909.000000 0 0 1
2.395502 14.229377 22.584879 26.800940 1.404011 0.568537 0.029061 0.002000 -10799.300000 0 0 1
2.410502 13.665477 21.309679 25.429475 1.396199 0.577205 0.021684 -0.006396 201453.000000 0 0 1
3.883002 13.512477 20.839879 25.138920 1.290972 0.593499 0.018509 -0.011866 278713.000000 0 0 1
4.351302 14.734277 20.339079 25.489427 1.283640 0.646924 0.020842 -0.011813 -112486.000000 0 0 1
5.749602 14.581077 20.156479 25.533299 1.195197 0.660934 0.025371 -0.012669 -32968.900000 0 0 1
6.378202 15.704177 19.353379 25.726561 1.185002 0.719292 0.040027 -0.017992 -317999.000000 0 0 1
6.128002 15.559277 17.958279 24.538608 1.195604 0.749782 0.045481 -0.031268 -40820.100000 0 1 0
6.632902 16.651177 17.241779 24.870385 1.191718 0.804786 0.045319 -0.019186 -131447.000000 0 1 0
6.612802 16.273677 15.724179 23.575655 1.184828 0.840666 0.043938 -0.013477 213757.000000 0 1 0
7.600602 15.430277 15.143079 22.916707 1.113105 0.848929 0.039477 -0.009827 3476.440000 0 1 0
7.640402 14.137777 15.682279 22.454094 1.075334 0.797616 0.040641 -0.017706 -9706.980000 0 1 0
8.816602 13.305877 15.138079 21.998642 0.985608 0.811878 0.038531 -0.018888 704439.000000 0 1 0
10.162802 13.735377 15.403579 23.004638 0.933791 0.837145 0.038748 -0.022361 575291.000000 0 1 0
10.972502 12.743877 14.787379 22.393499 0.859950 0.849522 0.037359 -0.008777 11234.000000 0 1 0
12.445102 13.209177 14.691679 23.349697 0.815173 0.890270 0.041585 -0.011996 -455837.000000 0 1 0
13.147202 13.405677 15.933479 24.625938 0.795132 0.867127 0.035474 -0.007869 1877430.000000 0 1 0
14.501002 13.951177 15.813379 25.592525 0.766076 0.904739 0.034757 -0.010653 2068410.000000 0 0 1
15.570702 13.152177 14.991579 25.301659 0.701394 0.936621 0.039319 -0.013840 -1582820.000000 0 0 1
16.794302 13.759577 14.913779 26.339995 0.686399 0.968905 0.035324 -0.022546 -685504.000000 0 0 1
17.681202 12.994777 14.103279 26.084317 0.633799 0.999551 0.039650 -0.022496 275155.000000 0 0 1
19.142802 13.506477 14.172979 27.381474 0.614451 1.026739 0.043278 -0.025030 426367.000000 0 0 1
19.841102 13.223377 15.399179 28.384181 0.587862 0.997354 0.025567 -0.026244 -592308.000000 0 0 1
21.111902 13.772577 15.336179 29.505841 0.578033 1.024217 0.041170 -0.022965 -307800.000000 0 0 1
22.076602 13.417177 16.532479 30.671157 0.546103 1.001519 0.042531 -0.017508 273385.000000 0 0 1
22.392702 12.035977 16.559479 30.339977 0.493192 0.993456 0.054114 -0.016679 83156.900000 0 0 1
23.052202 11.688477 17.726779 31.341078 0.469267 0.969625 0.041095 -0.017920 -198035.000000 0 0 1
23.638302 10.206477 17.781279 31.290819 0.407597 0.966408 0.061459 -0.011829 -429805.000000 0 0 1
22.740102 9.273577 18.253979 30.599334 0.387219 0.931603 0.040224 -0.012912 -20594.300000 0 0 1
22.349802 8.239277 17.375279 29.483888 0.353193 0.940586 0.042191 0.003966 134815.000000 0 0 1
21.393302 7.235777 18.111079 28.948938 0.326148 0.894868 0.074137 0.001114 141033.000000 0 0 1
21.077702 6.095077 17.403879 28.005615 0.281493 0.900214 0.083579 -0.013150 910848.000000 0 0 1
20.152802 5.252177 18.148779 27.624246 0.254947 0.853981 0.083871 -0.016004 297332.000000 0 0 1
20.060002 3.846977 17.545779 26.926887 0.189473 0.861094 0.118554 -0.007127 -611531.000000 0 0 1
19.227002 3.768577 16.387579 25.542759 0.193551 0.874247 0.107161 -0.013071 519186.000000 0 0 1
19.037802 2.461577 15.848479 24.893203 0.128586 0.880639 0.086188 -0.023862 -186676.000000 0 1 0
17.999802 1.634477 16.637679 24.565764 0.090557 0.826749 0.087716 -0.018734 -416355.000000 0 1 0
18.524902 1.140677 17.835879 25.740857 0.061498 0.805291 0.097822 -0.022709 163606.000000 0 0 1
17.557602 0.399577 18.566879 25.556957 0.022754 0.757596 0.085142 -0.021838 -191822.000000 0 0 1
18.145102 -0.314623 19.844079 26.891098 -0.017338 0.740780 0.094789 -0.023129 104971.000000 0 0 1
18.892802 -1.548023 19.674779 27.320894 -0.081755 0.766797 0.097948 -0.019693 232617.000000 0 0 1
18.288302 -2.768623 20.134579 27.340968 -0.150247 0.743025 0.067197 -0.021667 -91237.700000 0 0 1
18.291902 -3.996223 19.218779 26.831417 -0.215090 0.772341 0.061321 -0.009295 59994.600000 0 0 1
17.547602 -3.820123 18.021979 25.442158 -0.214356 0.783637 0.058644 -0.016368 344685.000000 0 0 1
17.463702 -5.066523 17.321779 25.113633 -0.282366 0.809672 0.085504 -0.017556 -123735.000000 0 0 1
16.906302 -5.063623 15.877679 23.739503 -0.291008 0.838163 0.057354 -0.017498 -723902.000000 0 1 0
15.542302 -4.832923 15.732179 22.636734 -0.301475 0.802398 0.043623 -0.012275 -433750.000000 0 1 0
15.033302 -4.746323 14.379179 21.337491 -0.305816 0.831331 0.037708 -0.016664 231147.000000 0 1 0
15.409902 -3.541623 13.511279 20.798145 -0.225905 0.863687 0.033155 -0.016185 -411366.000000 0 1 0
14.885902 -2.317923 13.963579 20.541285 -0.154472 0.823332 0.033444 -0.005506 250634.000000 0 1 0
15.221102 -1.298423 13.075479 20.108108 -0.085098 0.862871 0.036761 -0.013547 291899.000000 0 1 0
14.466502 0.046977 13.502579 19.788924 0.003247 0.819851 0.047015 0.001119 -237095.000000 0 1 0
14.846102 1.249677 12.878379 19.693173 0.083977 0.858001 0.049096 -0.002554 -514832.000000 0 1 0
15.819502 1.903677 13.596379 20.946173 0.119761 0.864382 0.067890 -0.014409 -814782.000000 0 1 0
16.157902 3.270477 13.035679 21.016725 0.199709 0.901732 0.070977 -0.015659 -261091.000000 0 1 0
15.190902 4.273077 13.259279 20.611433 0.274206 0.871999 0.068734 -0.012502 111319.000000 0 1 0
15.268302 5.434877 12.497679 20.465847 0.341973 0.913902 0.071965 -0.018706 -481303.000000 0 1 0
14.225902 6.496077 12.794979 20.206108 0.428360 0.885085 0.063357 -0.014240 -438422.000000 0 1 0
14.327602 7.645077 12.035279 20.213246 0.490158 0.933014 0.046427 -0.021571 507082.000000 0 1 0
13.330102 8.661477 12.263579 20.077554 0.576212 0.913713 0.028799 -0.014292 200658.000000 0 1 0
13.592902 9.617077 13.453679 21.406929 0.615747 0.891208 0.041252 -0.017413 -90878.000000 0 1 0
13.104402 9.080277 14.693079 21.680944 0.605957 0.826172 0.039918 -0.011448 706909.000000 0 1 0
13.721802 9.727877 15.801779 23.078467 0.616698 0.816607 0.058363 -0.018913 -261431.000000 0 1 0
13.309602 9.284577 17.234779 23.672484 0.609103 0.755322 0.059483 -0.018864 -246923.000000 0 1 0
11.943002 9.557377 17.464479 23.216089 0.674893 0.719314 0.051526 -0.030262 -190162.000000 0 1 0
11.330202 9.050077 18.613779 23.595553 0.673983 0.661831 0.055990 -0.016566 -224117.000000 0 1 0
11.738302 9.425277 20.034579 25.060086 0.676538 0.644398 0.077021 -0.017975 271016.000000 0 0 1
13.007602 8.842677 20.404879 25.763341 0.597046 0.656698 0.102008 -0.024387 856228.000000 0 0 1
13.508102 9.173177 21.699479 27.156645 0.596552 0.645085 0.102102 -0.011827 -205619.000000 0 0 1
14.954102 8.662077 21.796279 27.816084 0.525018 0.670380 0.109823 -0.016075 82430.200000 0 0 1
15.850602 9.510177 21.068879 28.028248 0.540411 0.720158 0.099316 -0.013087 381871.000000 0 0 1
16.903602 8.748377 20.467079 27.949368 0.477585 0.749116 0.087671 -0.014364 604980.000000 0 0 1
17.918502 9.673077 19.702679 28.334373 0.495007 0.801871 0.080538 -0.013122 -52750.800000 0 0 1
18.566702 10.542077 20.543179 29.629040 0.516403 0.804674 0.075828 -0.020110 174073.000000 0 0 1
19.505102 11.319477 19.783779 29.999624 0.525834 0.850686 0.061048 -0.024369 558997.000000 0 0 1
20.430202 12.238577 20.638479 31.513850 0.539716 0.856744 0.047368 -0.016092 -439232.000000 0 0 1
19.879802 13.480777 20.852179 31.808037 0.595886 0.855868 0.041308 -0.018174 -6417.490000 0 0 1
20.610002 14.484377 21.565479 33.160809 0.612592 0.862777 0.033768 -0.013977 293150.000000 0 0 1
21.849402 15.151777 20.852679 33.790634 0.606326 0.905726 0.011474 -0.006556 477434.000000 0 0 1
22.979302 14.336277 20.805879 34.153503 0.557792 0.915761 -0.014365 0.000784 -238185.000000 0 0 1
24.239302 14.964377 20.829579 35.289484 0.553087 0.939429 -0.006370 0.003941 226766.000000 0 0 1
25.433402 14.018577 20.627279 35.621104 0.503755 0.953203 0.006191 -0.006715 -165401.000000 0 0 1
25.569402 13.506377 19.320579 34.777885 0.485971 0.981782 0.009073 -0.016845 982869.000000 0 0 1
26.606302 12.476277 19.331379 35.174636 0.438477 0.988931 0.040920 -0.026044 874293.000000 0 0 1
27.027602 11.801677 18.006379 34.554313 0.411699 1.022653 0.074036 -0.029566 -178974.000000 0 0 1
27.555902 12.613677 17.001979 34.749099 0.429279 1.059534 0.083994 -0.038809 110466.000000 0 0 1
28.069202 11.929377 15.871879 34.381778 0.401870 1.090957 0.116189 -0.047902 129955.000000 0 0 1
26.976502 11.521677 14.848379 32.877881 0.403648 1.102214 0.092071 -0.048075 78610.900000 0 0 1
26.365502 12.604477 14.231179 32.504446 0.445948 1.117621 0.106147 -0.046527 -398493.000000 0 0 1
25.259702 12.183177 13.486679 31.118690 0.449401 1.122540 0.097306 -0.037406 -50286.200000 0 0 1
24.719602 13.235177 12.446679 30.678143 0.491574 1.153032 0.085867 -0.038022 79366.100000 0 0 1
24.218002 14.394477 13.065579 31.055143 0.536270 1.136555 0.060312 -0.024222 142908.000000 0 0 1
23.809502 15.378877 12.187079 30.853316 0.573497 1.164728 0.043065 -0.014749 -32775.900000 0 0 1
22.992402 16.532277 12.823779 31.087233 0.623385 1.145589 0.041864 -0.010164 235561.000000 0 0 1
21.687002 16.128577 13.264479 30.106535 0.639456 1.114546 0.050317 -0.020256 833563.000000 0 0 1
20.812702 17.195577 13.626679 30.241409 0.690517 1.103363 0.042838 -0.014968 -107356.000000 0 0 1
20.295902 18.075477 12.450579 29.894204 0.727596 1.141217 0.061128 -0.015085 -855169.000000 0 0 1
19.310102 17.320877 11.781379 28.490239 0.731147 1.144476 0.055549 -0.014947 476245.000000 0 0 1
18.002502 17.820177 12.134379 28.087220 0.780309 1.124059 0.038172 -0.025960 669676.000000 0 0 1
16.852102 17.117877 11.344079 26.565074 0.793222 1.129591 0.049633 -0.016105 -28414.900000 0 0 1
16.409602 15.959177 12.067379 25.876476 0.771484 1.085641 0.042839 -0.002512 823539.000000 0 0 1
15.156202 15.408977 11.653079 24.554863 0.793668 1.076317 0.042789 -0.004445 698454.000000 0 1 0
15.384302 14.285577 10.586879 23.512475 0.748383 1.103733 0.055989 -0.012182 -113543.000000 0 1 0
15.639902 13.028977 11.190279 23.228928 0.694577 1.068158 0.046216 -0.014683 438048.000000 0 1 0
16.223002 12.090477 10.290879 22.699507 0.640465 1.100273 0.066003 -0.006364 4188.770000 0 1 0
16.481302 10.730577 10.902679 22.486596 0.577131 1.064602 0.067920 -0.019721 -528114.000000 0 1 0
17.103702 9.783977 10.047879 22.118379 0.519606 1.099235 0.064866 -0.018085 402650.000000 0 1 0
17.513602 8.604077 10.715179 22.261434 0.456647 1.068621 0.054904 -0.017521 167855.000000 0 1 0
18.765402 8.609377 11.625979 23.694410 0.430140 1.057945 0.058675 -0.017325 -210692.000000 0 1 0
18.497402 9.287477 12.879479 24.378107 0.465323 1.014174 0.057381 -0.019817 717185.000000 0 1 0
19.666902 9.353977 13.721879 25.740510 0.443954 1.008554 0.065482 -0.019474 -315883.000000 0 0 1
19.494002 9.570377 15.213479 26.515244 0.456373 0.959703 0.059707 -0.003797 -211356.000000 0 0 1
18.879102 8.599977 16.048279 26.228369 0.427442 0.912377 0.075083 -0.004568 1157420.000000 0 0 1
17.527602 8.330977 15.646279 24.928459 0.443698 0.892269 0.079732 -0.016309 738188.000000 0 1 0
16.655102 7.139077 16.280179 24.359866 0.404951 0.838849 0.068807 -0.007851 230280.000000 0 1 0
15.870602 7.381977 17.464179 24.725839 0.435369 0.786520 0.086805 -0.009763 482423.000000 0 1 0
15.221202 6.254177 18.045479 24.422101 0.389855 0.739361 0.078491 0.010070 2848.810000 0 1 0
14.090502 5.674277 17.174379 22.928126 0.382834 0.724165 0.065742 -0.019847 -1108920.000000 0 1 0
13.749202 4.364777 17.631979 22.781100 0.307394 0.685703 0.071873 -0.011972 22454.700000 0 1 0
13.117202 3.688077 16.570179 21.453059 0.274087 0.688197 0.059508 -0.012101 -153401.000000 0 1 0
12.975902 2.138077 16.802779 21.337263 0.163306 0.664078 0.056719 -0.011144 296004.000000 0 1 0
14.240602 1.535577 17.068479 22.281959 0.107416 0.698166 0.061389 -0.006054 424111.000000 0 1 0
14.188502 0.112877 16.957479 22.110686 0.007955 0.696744 0.058584 -0.005557 49452.700000 0 1 0
13.237602 -0.772723 17.872279 22.254203 -0.058307 0.638322 0.048248 -0.010622 840759.000000 0 1 0
11.871602 -0.705223 17.480079 21.142030 -0.059334 0.597414 0.041814 -0.008169 122757.000000 0 1 0
11.089602 -1.523623 18.305879 21.457071 -0.136537 0.548822 0.041287 -0.015950 -143890.000000 0 1 0
-25.846178 13.886277 28.555239 40.942097 -0.493014 0.798957 0.066444 -0.001366 -374818.000000 0 0 1
-24.899498 13.976177 29.574069 41.108930 -0.511480 0.767848 0.063623 -0.003356 274462.000000 0 0 1
-24.171498 12.737177 29.806259 40.434021 -0.484975 0.741942 0.042545 -0.008206 176865.000000 0 0 1
-23.097998 12.889077 30.890429 40.667732 -0.508978 0.708128 0.043396 -0.013847 -350444.000000 0 0 1
-23.686498 13.223777 32.092039 42.021631 -0.509181 0.701767 0.038389 -0.016326 246007.000000 0 0 1
-22.675198 13.245477 33.105173 42.255884 -0.528676 0.670606 0.034452 -0.006942 194350.000000 0 0 1
-23.176898 13.427277 -33.602785 42.972172 -0.525089 2.468610 0.048802 -0.010424 -172894.000000 0 0 1
-23.649198 12.221477 -33.049585 42.437297 -0.476983 2.463525 0.023964 0.002814 124388.000000 0 0 1
-24.485098 12.539877 -31.935215 42.150048 -0.473315 2.430510 0.033330 -0.002604 47857.600000 0 0 1
-25.147128 11.273277 -31.308185 41.709319 -0.421433 2.419808 0.023802 -0.003244 -70965.200000 0 0 1
-24.401998 10.389077 -30.473145 40.398057 -0.402503 2.425417 0.051618 -0.013564 187017.000000 0 0 1
-23.681298 9.374077 -31.165045 40.248444 -0.376918 2.456431 0.031183 -0.012213 353788.000000 0 0 1
-22.866298 8.424977 -30.222825 38.823537 -0.353012 2.463015 0.035146 0.003639 42332.500000 0 0 1
-23.678998 7.495077 -29.546955 38.599141 -0.306551 2.442587 0.040450 0.000828 46656.800000 0 0 1
-22.863098 6.686277 -28.761365 37.344929 -0.284514 2.449880 0.032407 0.006601 -368176.000000 0 0 1
-23.567298 5.728877 -27.768425 36.868998 -0.238461 2.423656 0.035491 -0.005568 -142301.000000 0 0 1
-24.203198 4.639277 -28.416695 37.614176 -0.189383 2.427180 0.061052 -0.019252 226381.000000 0 0 1
-24.513698 3.590877 -27.496455 37.011766 -0.145450 2.408205 0.104524 -0.011800 -774512.000000 0 0 1
-25.224748 2.408977 -28.133255 37.862530 -0.095212 2.408393 0.115921 -0.011775 -677156.000000 0 0 1
-26.586378 2.508977 -28.401695 38.984443 -0.094092 2.386983 0.139516 -0.028966 -414237.000000 0 0 1
-26.847738 3.334577 -29.505135 40.030906 -0.123570 2.399504 0.120934 -0.023695 -1075010.000000 0 0 1
-28.260438 3.154977 -30.059395 41.378418 -0.111179 2.383940 0.147001 -0.028513 -941696.000000 0 0 1
-29.354318 3.407677 -29.215635 41.555284 -0.115570 2.350480 0.122879 -0.034032 1223150.000000 0 0 1
-30.615458 3.194377 -29.926175 42.931181 -0.103963 2.342104 0.121255 -0.025365 1260350.000000 0 0 1
-31.157938 4.499277 -30.505225 43.836393 -0.143411 2.340452 0.135695 -0.032720 -797321.000000 0 0 1
-30.446318 4.858977 -31.681575 44.207580 -0.158257 2.369790 0.144122 -0.032119 115826.000000 0 0 1
-30.713008 6.130277 -32.253295 44.957138 -0.197010 2.370893 0.136764 -0.034391 -750690.000000 0 0 1
-30.329588 7.425277 -31.446985 44.316267 -0.240097 2.359732 0.099101 -0.028213 559020.000000 0 0 1
-28.908898 7.597677 -31.283775 43.268045 -0.257003 2.378964 0.059772 -0.023148 1107960.000000 0 0 1
-28.424678 7.063277 -30.033385 41.950643 -0.243558 2.368740 0.049618 -0.022373 -235468.000000 0 0 1
-28.770848 7.980077 -28.790195 41.476725 -0.270565 2.338005 0.035463 -0.012703 273843.000000 0 0 1
-30.147338 8.054977 -28.432385 42.215462 -0.261088 2.309739 0.055785 -0.020472 682304.000000 0 0 1
-30.598648 7.156377 -27.399795 41.692203 -0.229749 2.287884 0.069594 -0.007144 234968.000000 0 0 1
-31.968778 7.437677 -26.730705 42.330278 -0.228588 2.254256 0.053561 -0.008339 172892.000000 0 0 1
-31.923328 8.456177 -25.695135 41.843109 -0.258943 2.232020 -0.002234 0.001616 30178.100000 0 0 1
-31.789858 7.938677 -24.403215 40.855044 -0.244718 2.210942 0.010956 0.003456 -200553.000000 0 0 1
-31.082058 8.900877 -23.424415 39.925220 -0.278903 2.197783 0.003720 0.000924 -65261.200000 0 0 1
-31.926388 9.866477 -22.789615 40.447598 -0.299728 2.169335 0.002102 0.004186 414007.000000 0 0 1
-31.175178 10.805877 -22.070015 39.695646 -0.333659 2.160339 0.005325 0.005020 -88903.400000 0 0 1
-32.107398 11.622777 -21.135115 40.158026 -0.347322 2.125038 -0.002359 0.002419 58653.300000 0 0 1
-32.614128 10.864677 -20.058915 39.800536 -0.321566 2.099004 -0.003365 -0.003103 -192833.000000 0 0 1
-33.195528 11.696177 -19.058415 40.024578 -0.338760 2.067088 -0.000207 0.000134 -254979.000000 0 0 1
-32.361838 12.659577 -18.133515 39.196656 -0.372887 2.051755 0.006642 -0.004217 -158406.000000 0 0 1
-31.665818 12.055677 -17.054515 37.933098 -0.363772 2.037108 0.029063 -0.003683 323110.000000 0 0 1
-32.453298 11.811977 -15.898615 38.019802 -0.349064 2.002222 0.031582 -0.005592 -85451.700000 0 0 1
-32.857558 13.042877 -14.990615 38.398624 -0.377876 1.971856 0.032863 0.003464 35934.400000 0 0 1
-33.700178 13.932977 -15.707715 39.705946 -0.392038 1.977519 0.018092 0.005379 360427.000000 0 0 1
-34.317548 14.900677 -14.878015 40.262633 -0.409637 1.949293 0.010988 0.010092 536995.000000 0 0 1
-35.242273 15.947577 -15.587115 41.704930 -0.424942 1.953842 0.003514 0.001816 556629.000000 0 0 1
-36.401658 15.505977 -16.272715 42.782208 -0.402691 1.960984 0.004225 -0.004735 565733.000000 0 0 1
36.399555 16.606777 -16.766015 43.379856 0.428027 1.967623 0.006465 -0.006929 -524978.000000 0 0 1
36.097475 16.486777 -18.331715 43.713766 0.428436 2.003534 0.007000 -0.007302 529954.000000 0 0 1
35.024125 15.610877 -18.724515 42.673133 0.419287 2.025047 0.054718 -0.011392 1422490.000000 0 0 1
33.729455 16.174177 -18.424315 41.698148 0.447135 2.028456 0.101364 -0.022475 175692.000000 0 0 1
32.582265 15.161777 -18.644915 40.486002 0.435536 2.049386 0.122932 -0.028865 -204473.000000 0 0 1
32.368025 14.893177 -19.979315 40.849343 0.431238 2.081851 0.113606 -0.024367 414417.000000 0 0 1
31.483615 13.813977 -20.260615 39.906597 0.413474 2.103310 0.086370 -0.016024 291655.000000 0 0 1
32.199095 12.463977 -19.965215 39.884110 0.369329 2.095066 0.088637 -0.000677 231911.000000 0 0 1
32.458705 12.244377 -18.615115 39.370227 0.360724 2.063287 0.116893 -0.007864 -105030.000000 0 0 1
33.023405 10.988677 -18.390715 39.363876 0.321229 2.056915 0.104069 -0.009893 -219138.000000 0 0 1
33.066385 10.757277 -16.864715 38.646131 0.314525 2.022377 0.097618 -0.008072 293649.000000 0 0 1
31.805645 10.558377 -16.242915 37.241250 0.320519 2.022116 0.104418 -0.012986 332202.000000 0 0 1
32.052475 10.364477 -14.872815 36.823690 0.312748 1.986564 0.074907 -0.014736 162401.000000 0 0 1
31.188945 11.167777 -13.871715 35.915095 0.343845 1.967344 0.100653 -0.020715 141716.000000 0 0 1
29.791705 10.918277 -13.851715 34.621156 0.351287 1.982416 0.102334 -0.013938 473163.000000 0 0 1
29.217035 11.899677 -12.972615 34.110500 0.386771 1.960929 0.118053 -0.014633 567128.000000 0 0 1
27.656405 11.959977 -13.053515 32.837662 0.408163 1.979605 0.120393 0.000378 470300.000000 0 0 1
27.022605 10.902377 -12.298115 31.627941 0.383480 1.970165 0.117028 -0.015691 1211090.000000 0 0 1
25.604305 10.709277 -12.483015 30.431804 0.396149 1.993466 0.116006 0.000535 1002460.000000 0 0 1
25.290405 9.915677 -13.767315 30.454297 0.373654 2.039875 0.110332 -0.012595 -1101980.000000 0 0 1
25.688405 8.579177 -13.795015 30.394060 0.322324 2.041902 0.107681 -0.012285 1296060.000000 0 0 1
26.994505 8.364177 -14.393715 31.715009 0.300466 2.041873 0.116257 -0.021791 950420.000000 0 0 1
27.908005 7.360477 -13.667515 31.934845 0.257869 2.013054 0.119103 -0.021402 -252374.000000 0 0 1
27.460705 6.017077 -13.817815 31.324552 0.215707 2.027640 0.112691 -0.032686 1003100.000000 0 0 1
26.536405 5.659277 -12.746515 29.978023 0.210117 2.009974 0.120311 -0.034235 459099.000000 0 0 1
26.207305 4.149977 -12.739115 29.433488 0.157048 2.018404 0.117003 -0.036136 -497185.000000 0 0 1
25.229805 3.868177 -11.801815 28.120965 0.152133 2.003889 0.124546 -0.039180 69872.300000 0 0 1
24.828505 2.504877 -11.839015 27.620488 0.100547 2.013774 0.119844 -0.042316 290445.000000 0 0 1
23.972505 2.098777 -10.591215 26.291818 0.087327 1.985406 0.113419 -0.043258 279852.000000 0 0 1
24.834305 1.947377 -9.481615 26.654005 0.078255 1.934491 0.117350 -0.032545 695104.000000 0 0 1
24.105905 1.870377 -8.268115 25.552978 0.077435 1.900294 0.122502 -0.023676 -144327.000000 0 0 1
24.982605 1.576777 -6.983115 25.988087 0.063031 1.842844 0.126699 -0.023037 -181717.000000 0 0 1
25.224005 0.204377 -6.675215 26.093116 0.008102 1.829495 0.106973 -0.029268 108240.000000 0 0 1
26.099605 -0.509823 -7.515015 27.164770 -0.019531 1.851098 0.095652 -0.028580 -512126.000000 0 0 1
26.084505 -2.056923 -7.318515 27.169707 -0.078693 1.843528 0.089456 -0.038455 -121379.000000 0 0 1
26.879305 -2.374523 -6.170615 27.680533 -0.088111 1.795608 0.096684 -0.042199 610482.000000 0 0 1
26.771405 -3.639723 -5.716315 27.615792 -0.135127 1.779298 0.105358 -0.047718 -344845.000000 0 0 1
28.013705 -4.030223 -4.902915 28.723665 -0.142886 1.742329 0.085359 -0.038412 156727.000000 0 0 1
29.232435 -4.069623 -5.606415 30.042120 -0.138327 1.758515 0.109400 -0.027973 365360.000000 0 0 1
30.373505 -4.558323 -4.941715 31.108659 -0.148964 1.730325 0.140087 -0.035603 -245561.000000 0 0 1
31.486615 -4.897623 -5.933715 32.413001 -0.154310 1.754900 0.147409 -0.027037 -629687.000000 0 0 1
31.319825 -5.922323 -6.850115 32.602598 -0.186885 1.782483 0.124110 -0.022018 -139917.000000 0 0 1
32.198625 -5.773123 -7.929115 33.659341 -0.177412 1.808601 0.119637 -0.032833 -575963.000000 0 0 1
31.660915 -6.485723 -9.227215 33.609815 -0.202054 1.848907 0.106425 -0.028103 1202710.000000 0 0 1
30.379815 -6.019123 -9.711215 32.457213 -0.195596 1.874651 0.111106 -0.019810 897550.000000 0 0 1
29.289245 -6.630623 -9.070015 31.370212 -0.222632 1.864112 0.119954 -0.017571 -648631.000000 0 0 1
27.969405 -5.846423 -9.117415 29.993258 -0.206062 1.879666 0.102252 -0.017694 -1058030.000000 0 0 1
27.274605 -5.659123 -10.313415 29.703472 -0.204584 1.925393 0.081789 -0.013711 75955.100000 0 0 1
26.056705 -4.990923 -10.078915 28.380375 -0.189249 1.933857 0.075758 -0.016751 984272.000000 0 0 1
24.837605 -5.881423 -9.575015 27.261303 -0.232512 1.929682 0.093167 -0.012266 -478658.000000 0 0 1
24.952305 -6.204023 -8.191815 26.985427 -0.243694 1.879228 0.087360 -0.020176 1350140.000000 0 0 1
23.756705 -6.806723 -7.613615 25.858841 -0.279043 1.869655 0.082833 -0.023679 995394.000000 0 0 1
22.609205 -5.861723 -7.177215 24.434573 -0.253677 1.868925 0.095229 -0.015840 -69660.000000 0 1 0
22.040005 -5.212323 -8.296115 24.119611 -0.232227 1.921924 0.095542 -0.011914 215086.000000 0 1 0
21.911705 -3.858323 -7.990715 23.640241 -0.174298 1.915601 0.094759 -0.020848 -167636.000000 0 1 0
21.799205 -2.905023 -9.222315 23.847339 -0.132482 1.967872 0.096592 -0.016387 279293.000000 0 1 0
23.032005 -2.762123 -9.931715 25.233738 -0.119355 1.975329 0.094015 -0.019348 848689.000000 0 0 1
23.009605 -1.924323 -11.027915 25.588276 -0.083437 2.016370 0.103289 -0.019532 348398.000000 0 0 1
24.409705 -1.979123 -11.737015 27.157101 -0.080902 2.017716 0.094722 -0.024277 808719.000000 0 0 1
25.367905 -1.163823 -11.043415 27.691914 -0.045846 1.981000 0.098826 -0.032960 891935.000000 0 0 1
26.632005 -1.267123 -11.680515 29.108482 -0.047543 1.983705 0.091818 -0.027466 232690.000000 0 0 1
27.789205 -0.368823 -11.157015 29.947536 -0.013271 1.952554 0.073469 -0.022845 -190341.000000 0 0 1
28.936025 -0.539023 -11.945915 31.309567 -0.018626 1.962260 0.092504 -0.023717 295451.000000 0 0 1
29.917715 0.501377 -11.732115 32.139751 0.016757 1.944466 0.093018 -0.023268 445733.000000 0 0 1
29.759575 1.729977 -12.669715 32.390536 0.058066 1.972682 0.093830 -0.027388 -258631.000000 0 0 1
30.228475 1.516377 -13.996915 33.346270 0.050122 2.003960 0.091956 -0.026476 424594.000000 0 0 1
30.231345 2.672977 -14.851515 33.788260 0.088188 2.025890 0.095400 -0.023126 6783.560000 0 0 1
30.493135 2.326777 -16.333015 34.670053 0.076157 2.061332 0.101936 -0.032017 1086690.000000 0 0 1
29.280375 1.711077 -16.852715 33.827240 0.058371 2.092317 0.075086 -0.017327 1167900.000000 0 0 1
29.503785 1.531277 -18.219615 34.709833 0.051855 2.123408 0.059354 -0.014943 -519264.000000 0 0 1
28.404205 0.849077 -18.987115 34.176459 0.029884 2.159834 0.028786 -0.004909 -673073.000000 0 0 1
28.248005 -0.530423 -18.721715 33.892975 -0.018775 2.156010 0.046705 -0.003553 215708.000000 0 0 1
28.273505 -1.252723 -19.921115 34.609410 -0.044278 2.184132 0.037446 -0.000284 -28158.800000 0 0 1
28.109005 -2.780723 -19.817815 34.504991 -0.098606 2.182602 0.041932 -0.006412 894276.000000 0 0 1
26.699105 -3.095223 -19.779915 33.371659 -0.115415 2.205223 0.042996 -0.000614 1197460.000000 0 0 1
26.350305 -4.474623 -19.677715 33.189958 -0.168208 2.205429 0.049653 -0.011128 -52681.300000 0 0 1
26.868505 -5.297023 -18.453515 33.022829 -0.194650 2.163748 0.055079 -0.008320 -116702.000000 0 0 1
28.249905 -5.584323 -18.480615 34.216589 -0.195160 2.141360 0.056869 -0.013913 82445.300000 0 0 1
28.822895 -5.736123 -17.188615 34.045717 -0.196446 2.100026 0.060493 -0.014938 269882.000000 0 0 1
30.339015 -5.434023 -17.180015 35.286504 -0.177231 2.079302 0.086310 -0.015940 540383.000000 0 0 1
31.210175 -6.279123 -17.961915 36.553150 -0.198538 2.084483 0.057492 -0.015027 851106.000000 0 0 1
32.480525 -5.656223 -18.176915 37.648076 -0.172413 2.074658 0.062903 -0.016547 445366.000000 0 0 1
33.442735 -6.561523 -18.978515 39.008386 -0.193741 2.078903 0.055022 -0.016288 -81399.400000 0 0 1
33.901905 -7.652923 -18.154215 39.210737 -0.222016 2.052163 0.070243 -0.018856 -53290.200000 0 0 1
34.596375 -8.630923 -18.878515 40.346008 -0.244484 2.057727 0.058057 -0.013891 -205504.000000 0 0 1
35.483375 -9.412623 -17.865715 40.827088 -0.259297 2.023718 0.061942 -0.012683 -638676.000000 0 0 1
34.769725 -10.218823 -16.951615 40.008941 -0.285851 2.008318 0.063911 -0.014096 91344.600000 0 0 1
35.578095 -11.072523 -16.158415 40.613988 -0.301716 1.979972 0.070910 -0.013278 -197985.000000 0 0 1
36.703675 -10.441323 -15.285015 41.107331 -0.277155 1.951778 0.083180 -0.023744 -316709.000000 0 0 1
-36.380978 -11.196523 -14.163915 40.614704 0.298559 1.927021 0.078219 -0.030277 287196.000000 0 0 1
-35.710604 -12.403023 -14.401615 40.453538 0.334286 1.934784 0.065887 -0.020337 432623.000000 0 0 1
-34.239155 -12.412523 -14.972515 39.377236 0.347788 1.960844 0.081805 -0.028959 587704.000000 0 0 1
-34.135053 -11.914923 -16.301015 39.659682 0.335830 1.994372 0.078914 -0.022139 -238701.000000 0 0 1
-32.784118 -12.006223 -16.681315 38.693851 0.351052 2.016519 0.110441 -0.028252 -281339.000000 0 0 1
-32.542658 -11.173423 -17.987515 38.825516 0.330736 2.052502 0.140844 -0.029675 131613.000000 0 0 1
-32.627468 -9.733023 -17.987415 38.507539 0.289903 2.056820 0.132000 -0.027703 889157.000000 0 0 1
-33.982218 -9.326023 -17.714615 39.440759 0.267844 2.036604 0.104807 -0.029296 548141.000000 0 0 1
-34.191791 -7.812523 -17.358015 39.133295 0.224635 2.030365 0.114165 -0.027697 -795355.000000 0 0 1
-35.548368 -7.529023 -17.287115 40.239496 0.208712 2.014852 0.109185 -0.032407 -686748.000000 0 0 1
-35.831837 -6.168023 -17.091815 40.175804 0.170467 2.010228 0.099615 -0.031233 -116274.000000 0 0 1
24.886002 27.586677 -27.353935 46.136489 0.836821 2.205441 0.059737 0.007994 31698.700000 0 0 1
25.421902 26.674777 -26.449905 45.358729 0.809443 2.193369 0.044481 0.000043 392331.000000 0 0 1
26.719902 26.212177 -26.841735 46.059854 0.775806 2.192914 0.048021 -0.004199 502362.000000 0 0 1
27.285802 25.148977 -25.915125 45.261239 0.744669 2.180431 0.039361 -0.000043 -412047.000000 0 0 1
27.528902 25.723977 -24.653115 45.025987 0.751518 2.150207 0.037918 0.006211 159909.000000 0 0 1
27.776102 24.692077 -23.683115 44.069269 0.726687 2.138155 0.035924 0.006640 -301315.000000 0 0 1
28.504802 25.240877 -22.451315 44.200534 0.724744 2.103590 0.030305 0.011291 -233439.000000 0 0 1
27.821602 26.252277 -21.754815 44.005631 0.756384 2.087900 0.025374 0.004281 -292683.000000 0 0 1
28.539402 26.703977 -20.643015 44.201063 0.752186 2.056720 0.005284 0.008225 -251473.000000 0 0 1
27.784402 27.670677 -19.722515 43.893245 0.783347 2.036811 0.020146 0.003113 -315570.000000 0 0 1
26.867802 27.057777 -18.844315 42.533637 0.788921 2.029789 0.032915 -0.005911 -37258.700000 0 0 1
26.036802 28.093677 -18.364715 42.478612 0.823378 2.017870 0.035871 -0.012595 164589.000000 0 0 1
24.986002 27.654477 -17.296815 41.088322 0.836047 2.005307 0.039712 -0.009553 396154.000000 0 0 1
23.891302 26.896977 -17.801615 40.138998 0.844510 2.030295 0.049529 -0.006358 364502.000000 0 0 1
22.857202 26.835777 -16.828815 39.061741 0.865291 2.016204 0.042318 0.005709 414414.000000 0 0 1
21.722102 25.840177 -17.211515 37.891961 0.871766 2.042300 0.037600 0.008954 187049.000000 0 0 1
21.071202 26.196777 -18.400215 38.325378 0.893413 2.071571 0.041329 0.005916 83585.700000 0 0 1
20.220802 25.139377 -18.870015 37.375749 0.893410 2.100031 0.046478 0.009669 362404.000000 0 0 1
19.613902 25.462977 -20.267715 37.998008 0.914435 2.133398 0.038172 0.008262 -101230.000000 0 0 1
18.561202 26.374677 -20.164315 38.036054 0.957557 2.129558 0.031301 0.007209 -355888.000000 0 0 1
17.701102 26.347277 -21.317315 38.235271 0.979222 2.162204 0.029186 0.001489 205475.000000 0 0 1
16.632102 27.449077 -21.166515 38.446066 1.026031 2.153820 0.026250 0.002903 -402187.000000 0 0 1
15.831502 27.164277 -20.051515 37.290718 1.043115 2.138513 0.033468 0.003206 -195164.000000 0 0 1
14.838302 28.129977 -19.768215 37.446671 1.085399 2.126926 0.027350 -0.006491 265058.000000 0 0 1
14.380502 28.135577 -18.336215 36.532538 1.098297 2.096607 0.034487 -0.006005 592740.000000 0 0 1
13.491902 27.081477 -17.847515 35.127932 1.108592 2.103741 0.040526 -0.003530 480372.000000 0 0 1
13.121202 27.305877 -16.480815 34.487594 1.122848 2.069032 0.068157 -0.004216 -5077.650000 0 0 1
12.121502 26.167877 -16.115915 33.036515 1.137003 2.080389 0.085767 -0.009273 75502.700000 0 0 1
12.727602 24.906677 -16.061315 32.253686 1.098378 2.092051 0.055084 -0.011002 -134913.000000 0 0 1
11.816702 23.853777 -15.819815 30.966170 1.110851 2.106998 0.098565 -0.016196 139290.000000 0 0 1
12.538602 22.511377 -15.993915 30.327940 1.062603 2.126293 0.071001 -0.015863 218352.000000 0 0 1
12.770102 22.299177 -17.372615 31.018326 1.050714 2.165274 0.060024 -0.010895 265338.000000 0 0 1
13.809802 21.398877 -17.738715 31.036826 0.997696 2.179175 0.068826 -0.013192 315845.000000 0 0 1
13.207702 19.961077 -17.915815 29.897566 0.986259 2.213348 0.071018 -0.011909 403833.000000 0 0 1
12.728702 19.396177 -16.691815 28.580557 0.990041 2.194477 0.070079 -0.022090 260206.000000 0 0 1
12.111102 18.120377 -16.957015 27.614620 0.981616 2.231990 0.069546 -0.026219 64766.200000 0 0 1
13.154002 16.970677 -17.128915 27.466914 0.911423 2.244161 0.072442 -0.025607 269500.000000 0 0 1
13.764802 16.764277 -15.858715 26.870236 0.883334 2.202098 0.089324 -0.035503 -398909.000000 0 0 1
14.851002 15.910277 -16.016715 27.022664 0.819820 2.205221 0.083987 -0.031443 -810169.000000 0 0 1
15.402502 15.316177 -14.687615 26.221144 0.782588 2.165356 0.124549 -0.025705 -514387.000000 0 0 1
16.279002 15.952477 -13.791015 26.639811 0.775268 2.114939 0.114131 -0.022712 985442.000000 0 0 1
17.625802 16.251677 -14.191715 27.860199 0.744859 2.105272 0.099510 -0.019280 621788.000000 0 0 1
18.544702 15.053677 -14.640415 28.015369 0.681865 2.120677 0.086838 -0.015382 -505161.000000 0 0 1
19.001602 14.168377 -13.607715 27.330820 0.640706 2.091959 0.107376 -0.022100 -342460.000000 0 0 1
19.973802 14.697577 -12.798715 27.906606 0.634379 2.047246 0.102261 -0.017398 -1152310.000000 0 0 1
20.753402 13.551077 -12.116015 27.588643 0.578451 2.025467 0.121966 -0.024889 136399.000000 0 0 1
19.889602 12.800077 -11.235415 26.185355 0.571832 2.014262 0.163980 -0.033286 917487.000000 0 0 1
20.588502 11.745977 -10.581815 25.958220 0.518455 1.990673 0.170013 -0.016004 37675.100000 0 0 1
20.824802 10.451377 -11.415115 25.946262 0.465144 2.026342 0.138788 -0.014456 -590703.000000 0 0 1
21.660402 10.596877 -12.526615 27.173202 0.454993 2.049909 0.117951 -0.000137 56846.600000 0 0 1
21.722102 9.427877 -13.341315 27.179501 0.409488 2.083872 0.113799 -0.005373 -470646.000000 0 0 1
22.327802 8.108877 -12.848915 27.007022 0.348363 2.066627 0.112605 0.006917 -545117.000000 0 0 1
21.608002 7.529477 -11.739515 25.717990 0.335300 2.044821 0.113559 -0.010843 485066.000000 0 0 1
22.197902 6.389977 -11.176815 25.661252 0.280286 2.021448 0.113993 0.006170 -779146.000000 0 0 1
21.862602 5.054977 -11.968215 25.431562 0.227223 2.060772 0.103546 -0.005792 598807.000000 0 0 1
20.488902 4.681377 -11.880615 24.142481 0.224628 2.085302 0.058698 -0.021894 1025040.000000 0 1 0
19.548402 5.356577 -12.709815 23.924304 0.267451 2.130873 0.017073 -0.027658 -132885.000000 0 1 0
18.542902 4.355077 -13.325415 23.245916 0.230684 2.181247 0.009298 -0.030559 -112885.000000 0 1 0
19.205002 3.444377 -14.186015 24.123409 0.177461 2.199455 0.028536 -0.038398 281963.000000 0 1 0
18.881702 2.071277 -13.910315 23.543698 0.109261 2.202883 0.049487 -0.036060 -907373.000000 0 1 0
19.908002 1.030977 -14.358015 24.567134 0.051741 2.194986 0.076977 -0.035536 -117631.000000 0 1 0
21.078602 0.921977 -13.528915 25.063700 0.043712 2.140974 0.097863 -0.027528 1207710.000000 0 0 1
22.251502 0.668577 -14.319215 26.469157 0.030037 2.142395 0.081901 -0.029847 580167.000000 0 0 1
22.519802 -0.804923 -14.756415 26.935871 -0.035728 2.150571 0.085713 -0.022828 -672649.000000 0 0 1
21.582802 -1.216923 -15.706815 26.720821 -0.056324 2.199148 0.076818 -0.018470 -151617.000000 0 0 1
22.138802 -2.188623 -16.547315 27.725985 -0.098539 2.210324 0.076873 -0.019332 -574223.000000 0 0 1
21.178202 -2.892523 -17.499515 27.624554 -0.135740 2.256835 0.075710 -0.019940 -613223.000000 0 0 1
20.431602 -3.863823 -16.805815 26.736023 -0.186903 2.250527 0.091337 -0.025031 -181336.000000 0 0 1
19.781602 -4.637823 -17.739815 26.972620 -0.230292 2.288554 0.086175 -0.019362 -841123.000000 0 0 1
18.923502 -5.691623 -17.115915 26.142839 -0.292163 2.284592 0.082859 -0.022695 -426240.000000 0 0 1
19.697402 -6.691323 -16.494815 26.548830 -0.327475 2.241198 0.092317 -0.019600 213113.000000 0 0 1
18.855602 -7.565123 -15.868315 25.779221 -0.381552 2.233876 0.095829 -0.016835 -256002.000000 0 0 1
19.764502 -8.648923 -15.258315 26.424526 -0.412493 2.186374 0.114282 -0.018870 312296.000000 0 0 1
20.314402 -9.572623 -16.203515 27.692308 -0.440363 2.195833 0.104063 -0.018320 838082.000000 0 0 1
21.254502 -10.409823 -15.495315 28.288214 -0.455430 2.150488 0.092116 -0.020678 -68148.700000 0 0 1
21.932102 -11.428523 -16.403115 29.676429 -0.480374 2.156435 0.084893 -0.019792 -620384.000000 0 0 1
22.924102 -10.955523 -17.266515 30.719220 -0.445815 2.167689 0.087505 -0.017049 -11715.800000 0 0 1
23.320102 -11.846823 -18.273515 31.907612 -0.470034 2.180593 0.080366 -0.012710 48403.400000 0 0 1
22.427802 -11.694023 -19.589015 31.991968 -0.480627 2.229776 0.085526 -0.009049 1203940.000000 0 0 1
21.087502 -12.187223 -19.546815 31.229619 -0.524038 2.247089 0.096570 -0.022365 547364.000000 0 0 1
20.942402 -13.601523 -19.369715 31.603346 -0.576005 2.230523 0.076081 -0.013773 58866.100000 0 0 1
19.436802 -13.999623 -19.475515 30.871903 -0.624197 2.253444 0.076666 -0.012298 766741.000000 0 0 1
18.862702 -13.787923 -20.782715 31.270267 -0.631205 2.297776 0.082427 -0.007380 51402.000000 0 0 1
17.462402 -13.964623 -20.786415 30.529023 -0.674556 2.319752 0.072096 -0.002798 -4485.060000 0 0 1
16.839002 -13.230023 -21.950215 30.665900 -0.665946 2.368545 0.068468 -0.001325 -171563.000000 0 0 1
16.951602 -13.966323 -23.151615 31.912572 -0.689142 2.382513 0.062879 0.004937 121090.000000 0 0 1
16.102802 -13.484023 -24.159015 32.012140 -0.697117 2.425967 0.070235 -0.004421 -262041.000000 0 0 1
16.089902 -14.256823 -25.504235 33.355778 -0.725067 2.441236 0.066571 -0.014707 -496457.000000 0 0 1
15.275102 -15.401323 -25.568615 33.530338 -0.789513 2.438045 0.071987 -0.016554 -185577.000000 0 0 1
15.467302 -16.125623 -26.745655 34.851158 -0.806233 2.445612 0.080797 -0.017552 -209162.000000 0 0 1
16.479102 -17.275323 -26.683765 35.805320 -0.808982 2.411700 0.076715 -0.020518 -109995.000000 0 0 1
17.838902 -16.909023 -26.617725 36.230440 -0.758644 2.395989 0.072796 -0.017524 -339282.000000 0 0 1
18.630102 -18.046923 -26.804585 37.299570 -0.769499 2.372626 0.077279 -0.020573 140202.000000 0 0 1
20.111402 -17.645623 -27.057045 38.051546 -0.720184 2.361805 0.073147 -0.018471 256268.000000 0 0 1
20.706102 -17.114223 -25.905445 37.319316 -0.690710 2.338044 0.073775 -0.015527 -471566.000000 0 0 1
22.071502 -16.842323 -26.091485 38.099615 -0.651820 2.325157 0.076997 -0.015116 -134352.000000 0 0 1
22.763402 -16.491923 -24.745815 37.450118 -0.626976 2.292637 0.067770 -0.007747 -100665.000000 0 0 1
22.683602 -15.127323 -24.279315 36.508449 -0.588153 2.298334 0.083906 -0.015289 -269129.000000 0 0 1
21.397802 -14.762923 -23.826815 35.263677 -0.603934 2.312677 0.096946 -0.010987 -48773.300000 0 0 1
21.291902 -13.383923 -23.158515 34.187590 -0.561178 2.315012 0.094723 -0.007348 53483.400000 0 0 1
21.483602 -12.299223 -24.060015 34.521013 -0.519949 2.341956 0.103715 -0.014850 174707.000000 0 0 1
21.141502 -11.154623 -23.312515 33.389550 -0.485497 2.343674 0.110820 -0.011442 20247.200000 0 0 1
20.997102 -9.777023 -24.081415 33.412318 -0.435781 2.375658 0.114144 -0.011031 -44103.200000 0 0 1
20.374802 -8.755023 -23.353515 32.205118 -0.405844 2.382047 0.112509 -0.008378 177781.000000 0 0 1
20.408102 -7.600323 -24.104415 32.485048 -0.356504 2.406868 0.091019 -0.008066 -146466.000000 0 0 1
19.856102 -6.323023 -23.398715 31.332815 -0.308289 2.414003 0.084741 -0.013201 558373.000000 0 0 1
18.470502 -6.519723 -23.081415 30.272396 -0.339327 2.437899 0.088841 -0.006562 975088.000000 0 0 1
17.830902 -5.569523 -22.161215 28.984135 -0.302750 2.441214 0.072773 -0.006553 286219.000000 0 0 1
18.284202 -5.714123 -20.712715 28.213114 -0.302900 2.395213 0.084622 -0.019558 -446111.000000 0 0 1
17.793702 -6.790723 -19.872915 27.525670 -0.364576 2.377452 0.097432 -0.019034 267902.000000 0 0 1
18.282102 -8.066423 -20.247715 28.447713 -0.415528 2.362786 0.111360 -0.008713 -29336.000000 0 0 1
17.877902 -9.122323 -19.164115 27.750666 -0.471819 2.333090 0.096232 -0.010516 588766.000000 0 0 1
16.465602 -9.252923 -19.011915 26.798984 -0.511975 2.359481 0.079274 -0.016245 124317.000000 0 0 1
16.112802 -10.396623 -18.295015 26.503202 -0.573022 2.332692 0.089213 -0.016055 60375.800000 0 0 1
14.574702 -10.507123 -18.051015 25.468819 -0.624625 2.358521 0.071057 -0.007614 645755.000000 0 0 1
14.004602 -9.549623 -17.109315 24.084286 -0.598469 2.360853 0.071224 -0.007590 401904.000000 0 1 0
13.970202 -8.232723 -17.673115 23.985063 -0.532519 2.399178 0.070089 -0.021593 -1036580.000000 0 1 0
12.876302 -7.325323 -17.115115 22.635960 -0.517238 2.428134 0.063344 -0.008547 -453804.000000 0 1 0
11.612002 -7.492023 -17.673315 22.434684 -0.572991 2.477973 0.043995 -0.019242 -693656.000000 0 1 0
10.677702 -6.531123 -17.296015 21.349966 -0.548949 2.515152 0.029420 -0.017299 1241520.000000 0 1 0
9.192102 -6.691523 -17.849115 21.162753 -0.629249 2.574416 0.016143 -0.012225 1386430.000000 0 1 0
9.150802 -6.498923 -19.249215 22.282403 -0.617541 2.613709 0.027069 -0.018245 185251.000000 0 1 0
7.906702 -5.937123 -19.655615 22.002467 -0.644075 2.675513 0.031827 -0.017913 455678.000000 0 1 0
7.693402 -5.698823 -21.165615 23.230331 -0.637549 2.716789 0.044519 -0.026719 35546.500000 0 1 0
7.511602 -6.909623 -21.863515 24.128414 -0.743680 2.704843 0.038782 -0.021657 225427.000000 0 1 0
6.684202 -6.716923 -23.009615 24.884493 -0.787840 2.750930 0.048077 -0.025660 -42459.600000 0 1 0
6.636902 -7.923923 -23.879815 26.020811 -0.873558 2.733098 0.038742 -0.018369 50408.400000 0 0 1
6.039102 -9.101623 -23.305615 25.738337 -0.984976 2.703312 0.047830 -0.016517 103192.000000 0 0 1
6.111302 -10.130223 -24.236815 26.970218 -1.027973 2.687481 0.056584 -0.009385 107971.000000 0 0 1
5.160402 -11.332223 -24.014915 27.051159 -1.143482 2.663250 0.061827 -0.013199 242940.000000 0 0 1
5.744802 -12.104823 -22.988015 26.607862 -1.127684 2.613869 0.059279 -0.010784 -70488.900000 0 0 1
5.202102 -13.407923 -22.924115 27.061953 -1.200689 2.581296 0.069325 -0.008404 -613302.000000 0 0 1
5.933302 -14.495423 -22.076515 27.068319 -1.182279 2.524536 0.077249 -0.011920 -406848.000000 0 0 1
7.056002 -15.105023 -22.654915 28.128172 -1.133789 2.507175 0.074927 -0.011652 56614.300000 0 0 1
8.279402 -14.383223 -22.764515 28.171772 -1.048489 2.511650 0.088735 -0.012969 700201.000000 0 0 1
9.015602 -14.004023 -21.430415 27.141415 -0.998801 2.480926 0.067374 -0.010306 -326959.000000 0 0 1
9.565702 -14.994723 -20.532615 27.164916 -1.002947 2.427748 0.078029 -0.011489 693673.000000 0 0 1
8.570602 -15.796723 -19.866615 26.789440 -1.073686 2.406225 0.087662 -0.012741 151326.000000 0 0 1
9.030602 -16.306023 -18.506315 26.266364 -1.065025 2.352604 0.085786 -0.006318 -300562.000000 0 0 1
9.920102 -17.357923 -18.577415 27.291505 -1.051594 2.319518 0.101714 -0.001567 -869671.000000 0 0 1
10.400002 -17.754223 -17.297915 26.881041 -1.040901 2.269857 0.089461 -0.007184 -370571.000000 0 0 1
9.477002 -18.281823 -16.146015 26.167392 -1.092550 2.235757 0.091140 -0.025983 -180591.000000 0 0 1
8.884902 -19.614123 -16.214715 26.955005 -1.145463 2.216233 0.104830 -0.031921 582689.000000 0 0 1
8.026102 -19.950923 -17.288815 27.592767 -1.188315 2.247941 0.106279 -0.026349 45608.400000 0 0 1
6.538502 -19.508523 -17.257515 26.854354 -1.247402 2.268727 0.100785 -0.014086 15562.700000 0 0 1
6.357702 -18.154723 -17.306115 25.875007 -1.233947 2.303437 0.085297 -0.013304 202202.000000 0 0 1
4.954902 -17.888623 -17.292115 25.368704 -1.300584 2.320787 0.061449 -0.018488 710277.000000 0 0 1
4.644802 -16.338623 -17.209515 24.180409 -1.293820 2.362730 0.040327 -0.006547 200331.000000 0 1 0
5.032002 -15.663823 -16.009415 22.955996 -1.259960 2.342554 0.028863 -0.017537 230174.000000 0 1 0
4.477202 -14.345923 -15.975815 21.933479 -1.268286 2.386745 0.014632 -0.007779 113486.000000 0 1 0
10.945002 29.691377 -18.042615 36.426733 1.217626 2.088991 0.086793 -0.028311 -816535.000000 0 0 1
10.073702 29.096577 -18.905415 36.131773 1.237496 2.121439 0.118305 -0.035018 -1040340.000000 0 0 1
9.064802 28.492377 -18.171915 34.988637 1.262774 2.116905 0.123190 -0.031419 -433411.000000 0 0 1
7.932902 27.846677 -19.002115 34.633059 1.293270 2.151569 0.119067 -0.030522 233087.000000 0 0 1
6.833202 28.698477 -19.255315 35.228716 1.337046 2.149071 0.131498 -0.050742 318651.000000 0 0 1
5.966402 28.177977 -20.280515 35.226349 1.362138 2.184281 0.120376 -0.050946 1137350.000000 0 0 1
5.048702 29.194377 -21.081515 36.362499 1.399556 2.189230 0.103291 -0.045185 166424.000000 0 0 1
3.859402 29.540877 -20.454715 36.137983 1.440886 2.172463 0.087059 -0.036171 -156562.000000 0 0 1
2.990702 30.262377 -21.342115 37.151604 1.472290 2.182741 0.074072 -0.042535 281507.000000 0 0 1
1.515202 30.442177 -20.842615 36.924742 1.521064 2.170578 0.083823 -0.043323 827444.000000 0 0 1
0.772902 29.203277 -20.941915 35.944298 1.544336 2.192747 0.088479 -0.060870 404623.000000 0 0 1
0.316102 28.819477 -22.276515 36.426712 1.559828 2.228806 0.113755 -0.073088 -722170.000000 0 0 1
-0.249898 27.438177 -22.338215 35.382367 -1.561689 2.254073 0.110574 -0.067832 713356.000000 0 0 1
-1.578298 27.417177 -21.786715 35.055008 -1.513294 2.241453 0.113068 -0.068426 638938.000000 0 0 1
-2.019598 26.142877 -21.443815 33.872792 -1.493697 2.256308 0.121293 -0.071042 -354373.000000 0 0 1
-3.181798 26.187877 -20.466415 33.388664 -1.449890 2.230617 0.087733 -0.068667 8456.120000 0 0 1
-4.472898 26.515377 -20.987315 34.110694 -1.403679 2.233526 0.092556 -0.068230 514127.000000 0 0 1
-5.448798 26.029977 -20.082315 33.324893 -1.364448 2.217579 0.082245 -0.066676 -789136.000000 0 0 1
-6.643298 26.955177 -20.028415 34.232330 -1.329155 2.195767 0.092454 -0.076937 -1010710.000000 0 0 1
-7.652798 26.325077 -19.270315 33.509999 -1.287890 2.183476 0.083317 -0.060364 -1016970.000000 0 0 1
-8.485298 27.314877 -18.761915 34.206904 -1.269600 2.151346 0.079859 -0.065409 -230397.000000 0 0 1
-9.793798 26.697877 -18.229415 33.778791 -1.219200 2.140842 0.080401 -0.046526 -81221.600000 0 0 1
-9.468798 25.791077 -17.175415 32.401122 -1.218939 2.129500 0.085628 -0.056411 187957.000000 0 0 1
-10.641898 25.158377 -16.670015 32.001302 -1.170624 2.118721 0.043093 -0.042426 293582.000000 0 0 1
-10.426398 24.423577 -15.366715 30.681539 -1.167318 2.095372 0.053408 -0.031630 14260.500000 0 0 1
-10.012598 23.065077 -15.561215 29.570278 -1.161241 2.124975 0.064933 -0.035964 -112220.000000 0 0 1
-10.049898 22.402377 -14.293515 28.410764 -1.149100 2.097981 0.080910 -0.020591 -152355.000000 0 0 1
-9.375398 20.974877 -14.203815 27.010959 -1.150455 2.124515 0.093055 -0.014502 138750.000000 0 0 1
-10.149498 19.826777 -14.579115 26.620744 -1.097667 2.150361 0.070173 -0.013742 -147999.000000 0 0 1
-10.660798 19.674277 -15.897515 27.449240 -1.074220 2.188495 0.085901 -0.010645 16660.100000 0 0 1
-9.696098 19.851377 -17.094315 27.933978 -1.116444 2.229325 0.091989 -0.022240 -257512.000000 0 0 1
-8.773598 18.801477 -17.149315 26.917849 -1.134188 2.261524 0.082737 -0.019259 -204863.000000 0 0 1
-7.818898 18.958477 -18.196915 27.416906 -1.179627 2.296566 0.098094 -0.028050 461228.000000 0 0 1
-7.101498 17.537077 -18.356215 26.361544 -1.186037 2.341061 0.092376 -0.023364 247983.000000 0 0 1
-7.950698 16.459777 -18.760915 26.193698 -1.120810 2.369192 0.080618 -0.027413 37185.300000 0 0 1
-7.476698 15.555177 -19.820715 26.281653 -1.122743 2.425179 0.089797 -0.031907 236381.000000 0 0 1
-6.248698 14.645777 -19.597015 25.250505 -1.167524 2.459260 0.080929 -0.024606 -458820.000000 0 0 1
-6.487698 13.515977 -18.730115 23.991438 -1.123275 2.466582 0.053764 -0.017579 -129515.000000 0 1 0
-5.353298 12.710677 -18.446715 23.032595 -1.172178 2.499587 0.059947 -0.011216 -52440.300000 0 1 0
-4.543098 13.300777 -17.325015 22.309338 -1.241654 2.460018 0.038089 0.001493 -495128.000000 0 1 0
-3.836198 14.471177 -17.617515 23.119434 -1.311664 2.437226 0.047324 -0.012874 -540097.000000 0 1 0
-3.359898 15.089577 -16.427315 22.557503 -1.351707 2.386549 0.037067 -0.006187 250624.000000 0 1 0
-2.625298 16.433877 -16.462315 23.408809 -1.412386 2.350759 0.068919 -0.009897 98304.700000 0 1 0
-3.449698 17.546777 -16.666315 24.444956 -1.376672 2.321002 0.070795 -0.024456 -264536.000000 0 1 0
-2.664798 18.744277 -16.714915 25.255444 -1.429577 2.294059 0.079462 -0.026375 123163.000000 0 0 1
-3.369698 19.979777 -17.263215 26.618884 -1.403713 2.276451 0.094828 -0.030025 54163.900000 0 0 1
-3.528598 19.824577 -18.678115 27.465194 -1.394650 2.318648 0.108592 -0.035785 -290882.000000 0 0 1
-4.064998 20.972277 -19.307215 28.794603 -1.379343 2.305699 0.124604 -0.039126 279510.000000 0 0 1
-3.142898 22.233177 -19.485515 29.730074 -1.430366 2.285527 0.095932 -0.045512 -255046.000000 0 0 1
-2.178998 22.160377 -20.515615 30.277398 -1.472783 2.315275 0.119554 -0.040918 329805.000000 0 0 1
-1.039198 22.971177 -20.265015 30.650053 -1.525588 2.293179 0.104876 -0.043890 492017.000000 0 0 1
0.086902 22.463277 -19.355215 29.651825 1.566928 2.282005 0.109167 -0.040700 -669438.000000 0 0 1
-0.354998 22.390777 -18.013215 28.739326 -1.554943 2.248209 0.099136 -0.035195 -143858.000000 0 0 1
0.732202 22.049477 -17.179115 27.961358 1.537601 2.232406 0.095640 -0.030798 93250.300000 0 0 1
0.299002 22.075377 -15.718115 27.101122 1.557253 2.189501 0.093249 -0.034758 366119.000000 0 0 1
-0.557998 21.008077 -15.261615 25.972439 -1.544241 2.198896 0.094874 -0.025027 219197.000000 0 0 1
-0.574698 20.939377 -13.854015 25.114170 -1.543357 2.155127 0.095653 -0.022815 168787.000000 0 0 1
-1.455298 19.782277 -13.280915 23.871303 -1.497363 2.160789 0.077109 -0.014534 273986.000000 0 1 0
-1.002098 18.449577 -13.479115 22.870891 -1.516534 2.201059 0.065737 -0.016933 -544913.000000 0 1 0
-1.801298 17.571877 -12.796415 21.812010 -1.468643 2.197735 0.049852 -0.011764 -488465.000000 0 1 0
-1.393998 16.093477 -12.867815 20.652455 -1.484393 2.243451 0.032033 -0.009892 -154183.000000 0 1 0
-0.140098 15.881777 -12.213615 20.035540 -1.561975 2.226349 0.030307 -0.004590 459614.000000 0 1 0
0.140302 14.509477 -12.303315 19.024095 1.561127 2.274076 0.029996 -0.000907 -124300.000000 0 1 0
0.629702 13.850677 -13.622315 19.437213 1.525364 2.347366 0.019297 0.000127 -876297.000000 0 1 0
-0.198498 13.629577 -14.710015 20.054658 -1.556234 2.394248 0.021793 -0.006431 -454003.000000 0 1 0
0.446302 12.802877 -15.673615 20.242902 1.535951 2.456368 0.015737 0.000652 -237761.000000 0 1 0
-0.165498 12.796277 -17.084115 21.345704 -1.557864 2.498681 0.021272 0.007676 -145883.000000 0 1 0
-0.170798 14.049877 -17.701715 22.600419 -1.558640 2.470668 0.029313 0.004219 -238004.000000 0 1 0
-0.458398 14.055677 -19.069015 23.693871 -1.538195 2.506148 0.038540 0.004244 -196970.000000 0 1 0
-0.942398 15.441877 -19.555215 24.934838 -1.509843 2.472287 0.056872 -0.006515 -405916.000000 0 1 0
-0.020698 16.473977 -19.390415 25.443674 -1.569540 2.437334 0.048947 -0.015540 -415371.000000 0 0 1
-0.515098 17.702777 -19.881415 26.625633 -1.541708 2.413886 0.102704 -0.028406 463557.000000 0 0 1
0.650702 18.718677 -20.140815 27.503904 1.536048 2.392474 0.124000 -0.032895 452741.000000 0 0 1
1.223902 18.457677 -21.372615 28.266101 1.504585 2.428163 0.106466 -0.039978 223298.000000 0 0 1
2.376502 19.278277 -21.620515 29.064522 1.448142 2.409654 0.123898 -0.040821 611667.000000 0 0 1
2.813202 19.127677 -23.118815 30.137381 1.424768 2.445127 0.136567 -0.050130 411892.000000 0 0 1
3.603702 17.946177 -23.390815 29.701552 1.372626 2.477584 0.092411 -0.037939 155375.000000 0 0 1
3.890502 17.930977 -24.780715 30.834069 1.357137 2.504250 0.097360 -0.050218 476308.000000 0 0 1
4.801802 16.681677 -25.102635 30.520124 1.290524 2.536579 0.054760 -0.029087 156143.000000 0 0 1
6.116002 16.782277 -24.571915 30.378106 1.221323 2.513023 0.039062 -0.015395 317699.000000 0 0 1
6.928802 15.682677 -25.001915 30.315844 1.154772 2.540493 0.032452 -0.022723 160031.000000 0 0 1
7.444802 15.607477 -26.427695 31.582297 1.125716 2.562187 0.027913 -0.029301 -1219600.000000 0 0 1
8.413402 16.636377 -26.638585 32.514129 1.102581 2.530973 0.011863 -0.026738 283110.000000 0 0 1
8.786402 16.835977 -28.027465 33.855425 1.089796 2.546074 0.025015 -0.038531 67178.700000 0 0 1
9.537702 15.627277 -28.666025 34.013535 1.022820 2.573229 0.037947 -0.042445 666264.000000 0 0 1
10.814002 15.345277 -28.012415 33.721144 0.956915 2.551174 0.053814 -0.038930 1194520.000000 0 0 1
11.285302 14.020777 -28.190535 33.446173 0.893076 2.573378 0.050208 -0.031832 -312760.000000 0 0 1
10.707202 13.007977 -27.206945 32.001086 0.882112 2.587139 0.049354 -0.033865 982195.000000 0 0 1
9.261802 12.978577 -27.359395 31.666401 0.950986 2.613934 0.054732 -0.035735 998365.000000 0 0 1
8.825502 12.054977 -26.340165 30.282276 0.938847 2.625636 0.053406 -0.035158 -293759.000000 0 0 1
7.356802 11.669977 -26.474255 29.852924 1.008320 2.661220 0.059471 -0.046137 132814.000000 0 0 1
6.368802 12.645677 -26.184095 29.767123 1.104245 2.645883 0.066805 -0.038227 -277555.000000 0 0 1
5.073102 12.134377 -26.122385 29.246512 1.174804 2.675163 0.081397 -0.041563 -88338.300000 0 0 1
3.906102 13.105477 -26.397965 29.729846 1.281128 2.663617 0.093997 -0.042609 -437075.000000 0 0 1
3.651702 13.295277 -27.781615 31.014794 1.302745 2.680920 0.101731 -0.050424 272525.000000 0 0 1
4.156502 14.526777 -28.278285 32.061896 1.292115 2.650866 0.104503 -0.052165 -43203.600000 0 0 1
4.137702 14.453977 -29.824925 33.400063 1.291985 2.674675 0.117699 -0.059263 -537812.000000 0 0 1
5.094402 13.610177 -30.343735 33.644199 1.212632 2.694947 0.111444 -0.053675 -916253.000000 0 0 1
5.026102 13.374677 -31.725445 34.794361 1.211331 2.718439 0.109967 -0.051794 -1275720.000000 0 0 1
6.059002 12.381077 -32.307455 35.125123 1.115684 2.738321 0.105980 -0.038904 915458.000000 0 0 1
7.421702 12.837277 -32.156645 35.410834 1.046608 2.709525 0.108603 -0.032695 920137.000000 0 0 1
7.927902 12.891577 -30.805135 34.322016 1.019444 2.684938 0.095590 -0.035445 -1371270.000000 0 0 1
8.081902 11.557777 -30.001425 33.150941 0.960567 2.702164 0.105769 -0.033865 -517687.000000 0 0 1
9.107002 10.760277 -30.514375 33.613214 0.868423 2.708826 0.087094 -0.027272 -764520.000000 0 0 1
9.047002 9.442477 -29.967705 32.696666 0.806784 2.730131 0.088374 -0.028426 -714014.000000 0 0 1
10.195102 8.494677 -30.226845 33.011541 0.694666 2.727905 0.065572 -0.022281 -114007.000000 0 0 1
11.372702 8.807677 -29.482545 32.804481 0.658971 2.687673 0.060805 -0.028382 593837.000000 0 0 1
12.255702 7.686277 -29.379375 32.747958 0.560151 2.684040 0.025499 -0.015256 -926766.000000 0 0 1
13.393402 7.843777 -28.384685 32.351173 0.529797 2.641197 0.028230 -0.006330 -399167.000000 0 0 1
14.142602 6.727377 -28.106885 32.175578 0.444004 2.633239 0.026402 -0.007980 -61718.200000 0 0 1
15.002302 6.263177 -29.131885 33.361103 0.395485 2.632586 0.024238 -0.009723 -1081770.000000 0 0 1
15.695902 4.925277 -28.873385 33.230890 0.304063 2.623715 0.018711 -0.009220 374482.000000 0 0 1
16.661802 5.039277 -27.822155 32.818932 0.293698 2.582520 0.013193 -0.022062 377307.000000 0 0 1
17.495402 3.926777 -27.648295 32.953557 0.220787 2.566254 0.021203 -0.014537 -345350.000000 0 0 1
18.177402 4.021977 -26.304165 32.225818 0.217754 2.525677 0.026529 -0.017257 -840616.000000 0 0 1
19.223802 4.936277 -26.267025 32.922303 0.251349 2.494515 0.050200 -0.026906 -240709.000000 0 0 1
19.656502 5.245077 -24.956615 32.198161 0.260761 2.457661 0.065318 -0.032096 -247907.000000 0 0 1
20.765302 6.291877 -25.086145 33.167758 0.294206 2.428498 0.057266 -0.028275 -554829.000000 0 0 1
20.300302 7.574677 -25.475085 33.443354 0.357131 2.436788 0.064440 -0.030934 364483.000000 0 0 1
21.237902 8.411477 -26.174885 34.740841 0.377105 2.424064 0.061181 -0.037345 -392000.000000 0 0 1
21.372702 8.119277 -27.691025 35.909719 0.363051 2.451409 0.069572 -0.034602 305169.000000 0 0 1
20.285402 8.456377 -28.549315 36.028756 0.394964 2.485536 0.059520 -0.027314 1112720.000000 0 0 1
19.055002 7.721677 -28.395115 35.057096 0.385008 2.514893 0.050603 -0.024609 880378.000000 0 0 1
17.817002 8.452077 -29.021245 35.087260 0.442945 2.544754 0.034308 -0.018631 4771.400000 0 0 1
17.828902 8.158477 -30.451995 36.218152 0.429155 2.569544 0.028563 -0.013367 365530.000000 0 0 1
16.996002 9.086577 -31.109285 36.595322 0.490967 2.586951 0.017454 -0.010295 -502921.000000 0 0 1
16.799802 8.598777 -32.549815 37.625295 0.473073 2.616155 0.015279 0.003290 27436.600000 0 0 1
15.957202 7.468677 -32.758525 37.195892 0.437758 2.648140 0.026374 0.003487 815282.000000 0 0 1
14.559202 7.809377 -32.854935 36.775039 0.492332 2.675660 0.021627 -0.000282 871978.000000 0 0 1
13.706102 6.547477 -33.220225 36.528209 0.445653 2.712732 0.021660 -0.002611 200085.000000 0 0 1
13.472202 5.588177 -32.165985 35.318247 0.393194 2.715886 0.034503 -0.003205 -338658.000000 0 0 1
12.699702 4.556277 -32.648735 35.326789 0.344467 2.749711 0.039339 -0.011655 -401392.000000 0 0 1
12.507102 3.386477 -31.632935 34.183891 0.264424 2.752821 0.047764 -0.012295 222843.000000 0 0 1
13.558502 2.448077 -31.409735 34.298652 0.178632 2.728221 0.044730 -0.017299 254731.000000 0 0 1
13.200402 1.601277 -30.329625 33.116474 0.120715 2.728409 0.048268 -0.013965 16855.600000 0 0 1
12.373102 0.334777 -30.616025 33.023427 0.027050 2.757397 0.054292 -0.011928 -143402.000000 0 0 1
12.981602 -0.711223 -31.344565 33.933900 -0.054732 2.748411 0.050336 -0.009103 266173.000000 0 0 1
14.065702 -1.390223 -30.696155 33.793944 -0.098518 2.710077 0.053920 -0.011363 509955.000000 0 0 1
14.474902 -2.652923 -31.522155 34.788030 -0.181266 2.704818 0.056071 -0.010317 304119.000000 0 0 1
13.595402 -3.796823 -31.477555 34.497642 -0.272334 2.720041 0.073247 -0.008269 292132.000000 0 0 1
14.178802 -4.932723 -32.049415 35.391174 -0.334798 2.703533 0.081868 -0.007038 -10924.500000 0 0 1
13.298502 -6.214523 -31.979125 35.187141 -0.437155 2.711267 0.083627 -0.003835 134406.000000 0 0 1
13.408202 -6.732623 -30.650355 34.125538 -0.465348 2.686374 0.079830 -0.000751 561648.000000 0 0 1
12.847402 -8.096023 -30.607735 34.167745 -0.562307 2.681042 0.088706 -0.009634 211565.000000 0 0 1
13.368802 -8.903623 -29.432205 33.529898 -0.587541 2.642025 0.068314 -0.007495 842787.000000 0 0 1
14.789902 -9.163223 -29.426725 34.185348 -0.554677 2.607635 0.085514 -0.012006 1176050.000000 0 0 1
15.220902 -9.879623 -28.239185 33.566864 -0.575730 2.570446 0.092981 -0.014304 131609.000000 0 0 1
14.916902 -11.439123 -28.214845 33.903466 -0.654202 2.553880 0.076279 -0.007649 -656958.000000 0 0 1
13.582602 -11.821423 -28.157535 33.422745 -0.716182 2.572641 0.066266 -0.011763 -701282.000000 0 0 1
13.352602 -13.203123 -28.274615 33.942132 -0.779769 2.555348 0.063328 -0.017838 147629.000000 0 0 1
-10.965998 -3.590123 -18.030515 21.406578 0.316389 2.572311 0.062256 0.014889 184870.000000 0 1 0
-11.495698 -2.821423 -19.095715 22.466817 0.240676 2.586690 0.070240 0.000506 -87673.700000 0 1 0
-12.486298 -3.578323 -19.756315 23.643689 0.279100 2.559993 0.073478 0.001614 -490889.000000 0 1 0
-13.269298 -2.681223 -20.744915 24.771248 0.199378 2.563414 0.072336 -0.026584 -155464.000000 0 1 0
-14.166598 -1.898323 -20.017115 24.596362 0.133206 2.521499 0.064718 -0.025272 -624921.000000 0 1 0
-15.253998 -1.387523 -20.711215 25.759738 0.090712 2.504813 0.070062 -0.026385 -13226.300000 0 0 1
-15.831498 -0.002923 -20.305515 25.747821 0.000185 2.479375 0.066301 -0.017538 137602.000000 0 0 1
-15.066398 1.100377 -20.736915 25.655932 -0.072906 2.512004 0.073476 -0.023887 -81554.300000 0 0 1
-15.694498 2.301677 -20.386215 25.830462 -0.145617 2.480353 0.074746 -0.011391 78098.500000 0 0 1
-15.047998 3.612877 -21.095615 26.163335 -0.235630 2.508674 0.088784 -0.034657 606227.000000 0 0 1
-13.709898 3.846677 -20.677215 25.105885 -0.273543 2.538526 0.096525 -0.032566 115746.000000 0 0 1
-13.247698 4.894977 -21.431715 25.666724 -0.353937 2.558929 0.110000 -0.043559 633440.000000 0 0 1
-11.843898 5.426777 -20.943115 24.664588 -0.429645 2.585107 0.088020 -0.036417 671776.000000 0 1 0
-11.990598 6.021977 -19.715615 23.848357 -0.465426 2.544027 0.094907 -0.037270 273456.000000 0 1 0
-10.758698 6.324977 -19.102615 22.818081 -0.531471 2.562885 0.076439 -0.024228 -263137.000000 0 1 0
-11.009398 6.881277 -17.696015 21.947842 -0.558626 2.508625 0.070263 -0.024732 208567.000000 0 1 0
-11.641698 8.153077 -17.688015 22.690696 -0.610950 2.464707 0.073684 -0.027905 -388545.000000 0 1 0
-12.950598 8.148077 -17.199315 23.020113 -0.561590 2.414549 0.105883 -0.018397 -648376.000000 0 1 0
-13.601598 9.558777 -17.108415 23.855221 -0.612582 2.370539 0.109627 -0.025327 -217814.000000 0 1 0
-12.986598 10.547477 -16.274915 23.340392 -0.682125 2.342400 0.073099 -0.016879 -324265.000000 0 1 0
-13.591798 11.777477 -16.367915 24.317784 -0.714003 2.309167 0.074869 -0.020111 -508863.000000 0 1 0
-12.888098 13.018977 -15.779715 24.178425 -0.790450 2.281855 0.080862 -0.011524 -493121.000000 0 1 0
-12.915898 13.054477 -14.417615 23.347536 -0.790734 2.236385 0.092836 -0.016499 494376.000000 0 1 0
-12.177598 14.135677 -13.750115 23.177078 -0.859675 2.205903 0.088349 -0.023683 -356012.000000 0 1 0
-12.637398 14.252577 -12.246915 22.645678 -0.845392 2.142191 0.072990 -0.026179 198496.000000 0 1 0
-13.915698 14.784677 -12.027415 23.598560 -0.815667 2.105594 0.059987 -0.023300 349329.000000 0 1 0
-15.022298 13.971077 -12.418615 23.980877 -0.749157 2.115138 0.072300 -0.020763 354188.000000 0 1 0
-16.395998 14.363677 -11.758915 24.767238 -0.719423 2.065507 0.047762 -0.010762 1077990.000000 0 1 0
-17.487698 13.559477 -12.152515 25.246042 -0.659543 2.073006 0.037678 -0.012294 400135.000000 0 0 1
-18.695498 13.658377 -11.428515 25.820222 -0.630950 2.029313 0.097354 -0.013131 954142.000000 0 0 1
-20.006698 13.138777 -12.105515 26.822359 -0.581084 2.039042 0.075608 -0.021085 370487.000000 0 0 1
-20.239598 11.738077 -12.055815 26.320457 -0.525551 2.046585 0.086291 -0.018901 472700.000000 0 0 1
-21.521698 11.434077 -12.587815 27.429450 -0.488358 2.047571 0.106072 -0.020689 39399.600000 0 0 1
-22.110498 10.170277 -11.937215 27.107301 -0.431118 2.026806 0.093905 -0.024225 290541.000000 0 0 1
-21.398098 8.919077 -12.205115 26.199110 -0.394919 2.055403 0.093548 -0.030538 865437.000000 0 0 1
-22.072598 7.931477 -11.453415 26.101507 -0.344968 2.025062 0.094546 -0.025014 -69525.200000 0 0 1
-21.356198 6.592177 -11.498215 25.134696 -0.299399 2.045937 0.118948 -0.029630 -206629.000000 0 0 1
-21.237798 5.983277 -12.745215 25.481056 -0.274610 2.094608 0.123507 -0.028618 594281.000000 0 0 1
-20.117698 5.099877 -12.667315 24.314428 -0.248272 2.118794 0.124735 -0.032176 245262.000000 0 1 0
-19.960698 3.842277 -13.556915 24.433226 -0.190166 2.158986 0.127235 -0.048730 -636090.000000 0 1 0
-20.868398 2.839977 -13.256915 24.885765 -0.135259 2.132597 0.123279 -0.048106 -106792.000000 0 1 0
-20.602098 1.723377 -14.038215 24.989757 -0.083456 2.167307 0.116954 -0.052113 -137563.000000 0 1 0
-21.579398 0.523377 -13.842315 25.642817 -0.024249 2.141011 0.130112 -0.042689 410391.000000 0 0 1
-22.885798 0.814477 -14.336215 27.017591 -0.035574 2.130134 0.102686 -0.036673 526985.000000 0 0 1
-23.538998 -0.427523 -14.571315 27.687370 0.018160 2.125016 0.089005 -0.042372 -713454.000000 0 0 1
-24.903398 -0.310723 -15.241815 29.199122 0.012476 2.119985 0.079974 -0.036315 -957383.000000 0 0 1
-25.884988 -0.009423 -14.302915 29.573740 0.000364 2.075600 0.123706 -0.032890 -342226.000000 0 0 1
-27.154278 -0.366623 -14.849315 30.951436 0.013501 2.071179 0.090113 -0.013176 -215317.000000 0 0 1
-28.277128 0.001377 -13.892815 31.505655 -0.000049 2.027467 0.086780 -0.005920 -602827.000000 0 0 1
-28.472558 -0.815323 -12.753415 31.208988 0.028628 1.991766 0.104706 -0.015166 247599.000000 0 0 1
-29.747058 -0.496523 -12.216415 32.161698 0.016690 1.960424 0.123593 -0.020563 322636.000000 0 0 1
-29.963908 -1.091623 -10.810315 31.873035 0.036415 1.916829 0.123687 -0.033279 -173247.000000 0 0 1
-30.215468 -2.513223 -10.711715 32.156363 0.082986 1.910400 0.131759 -0.037346 -307085.000000 0 0 1
-29.141688 -3.337123 -11.031015 31.337800 0.114017 1.930507 0.138939 -0.034175 -720120.000000 0 0 1
-29.270308 -4.796423 -10.544515 31.479254 0.162423 1.912367 0.135527 -0.043205 -582681.000000 0 0 1
-30.185268 -5.510323 -11.305515 32.700593 0.180562 1.923811 0.116228 -0.034088 -209892.000000 0 0 1
-30.491018 -6.766023 -10.823115 33.054819 0.218364 1.904378 0.125904 -0.038164 -198413.000000 0 0 1
-29.636068 -7.844423 -11.468415 32.731576 0.258758 1.928771 0.127293 -0.042799 -437662.000000 0 0 1
-28.279288 -7.793023 -11.146415 31.379801 0.268899 1.933935 0.082891 -0.036005 -607159.000000 0 0 1
-27.538648 -8.782823 -11.800415 31.221226 0.308729 1.958390 0.091252 -0.032359 -325986.000000 0 0 1
-26.053978 -8.751123 -11.414115 29.760275 0.324045 1.964418 0.107575 -0.043377 -564208.000000 0 0 1
-25.346838 -7.592323 -11.823315 28.980965 0.291032 1.991024 0.081103 -0.038938 595763.000000 0 0 1
-24.019798 -7.447023 -11.331115 27.582658 0.300639 1.994134 0.081282 -0.047203 95604.800000 0 0 1
-23.843598 -7.268023 -9.807515 26.786726 0.295874 1.945647 0.085889 -0.047798 -738029.000000 0 0 1
-24.179898 -6.045223 -9.175315 26.559341 0.244988 1.923530 0.087745 -0.042024 333071.000000 0 0 1
-25.544288 -5.689223 -9.274415 27.764954 0.219143 1.911376 0.100075 -0.041360 -473543.000000 0 0 1
-25.809358 -4.318523 -8.640715 27.557840 0.165788 1.889724 0.099658 -0.048171 -463025.000000 0 0 1
-25.752798 -4.333723 -7.198715 27.088914 0.166720 1.839772 0.098640 -0.042298 414823.000000 0 0 1
-25.868068 -3.008123 -6.809415 26.917910 0.115767 1.826545 0.134450 -0.044304 -174359.000000 0 0 1
-25.751078 -2.721923 -5.264415 26.424250 0.105310 1.771365 0.123721 -0.039448 -169838.000000 0 0 1
-24.516698 -3.268223 -4.841115 25.202900 0.132525 1.764083 0.094322 -0.033403 74182.800000 0 0 1
-24.277398 -2.900823 -3.486615 24.697436 0.118923 1.712443 0.071711 -0.028104 -227747.000000 0 1 0
-22.986198 -3.466123 -2.885115 23.424415 0.149664 1.694277 0.059141 -0.011286 -224353.000000 0 1 0
-23.011598 -4.860523 -2.760915 23.680815 0.208161 1.687651 0.082543 -0.013096 -12630.700000 0 1 0
-21.764098 -5.384523 -2.420115 22.550521 0.242534 1.678323 0.075148 -0.016696 -512130.000000 0 1 0
-21.774098 -6.934423 -2.418815 22.979300 0.308316 1.676252 0.098111 -0.018012 -89200.300000 0 1 0
-22.365398 -7.398423 -1.227715 23.589298 0.319467 1.622865 0.097332 -0.006918 127555.000000 0 1 0
-23.274198 -8.413023 -1.495415 24.793215 0.346860 1.631148 0.116180 -0.021337 -433385.000000 0 1 0
-23.521198 -9.233323 -0.248915 25.269804 0.374070 1.580647 0.109986 -0.029154 -177753.000000 0 0 1
-22.430098 -10.074123 0.055385 24.588622 0.422134 1.568544 0.095032 -0.015830 418574.000000 0 1 0
-22.697598 -10.795823 1.225085 25.164093 0.443968 1.522093 0.082754 -0.017464 835319.000000 0 0 1
-21.294798 -11.223323 1.781785 24.137236 0.485049 1.496910 0.072209 -0.015884 644427.000000 0 1 0
-20.592298 -12.201023 1.056185 23.958782 0.534890 1.526699 0.079124 -0.014718 -198473.000000 0 1 0
-19.476698 -12.590723 1.796385 23.261450 0.573876 1.493494 0.073281 -0.020404 -868175.000000 0 1 0
-18.832998 -13.806323 1.179785 23.381366 0.632592 1.520317 0.075871 -0.014214 -513716.000000 0 1 0
-19.656198 -14.972923 1.003685 24.729778 0.650973 1.530199 0.088654 -0.012874 239382.000000 0 1 0
-19.120798 -16.034823 0.194585 24.955126 0.697842 1.562999 0.083056 -0.024600 -21523.600000 0 1 0
-17.869298 -16.828623 0.675985 24.555474 0.755415 1.543264 0.078587 -0.015335 266449.000000 0 1 0
-16.702898 -16.006123 0.556585 23.140712 0.764099 1.546742 0.085522 -0.015561 192009.000000 0 1 0
-15.550198 -16.574923 1.156585 22.756854 0.817285 1.519951 0.083804 -0.027241 259201.000000 0 1 0
-15.410398 -16.622723 2.681085 22.825063 0.823226 1.453062 0.092977 -0.020522 -415582.000000 0 1 0
-15.170798 -15.332823 3.227885 21.809810 0.790710 1.422249 0.073629 -0.022735 -265979.000000 0 1 0
-14.197998 -15.336223 4.222685 21.321678 0.823918 1.371432 0.046709 -0.016981 -203114.000000 0 1 0
-14.687598 -15.751223 5.650385 22.265521 0.820327 1.314218 0.090030 -0.018667 -567265.000000 0 1 0
-15.455598 -14.779823 6.291285 22.291230 0.763051 1.284677 0.080211 -0.021663 -62751.900000 0 1 0
-15.721598 -15.058623 7.679485 23.084741 0.763862 1.231668 0.083757 -0.028581 -346574.000000 0 1 0
-16.681698 -16.189623 8.094885 24.615241 0.770430 1.235704 0.077986 -0.016410 -676441.000000 0 1 0
-16.230298 -17.497423 7.910285 25.142693 0.822950 1.250745 0.079002 -0.005754 -326932.000000 0 0 1
-16.995698 -18.498023 8.564985 26.540339 0.827699 1.242199 0.076687 -0.010549 -36355.900000 0 0 1
-16.669598 -18.648123 10.052885 26.957160 0.841360 1.188641 0.091764 -0.017661 -411750.000000 0 0 1
-15.410198 -19.158623 10.339585 26.672721 0.893410 1.172719 0.076195 -0.011907 -538792.000000 0 0 1
-15.176298 -19.263723 11.785785 27.208744 0.903528 1.122799 0.086927 -0.009681 680161.000000 0 0 1
-13.841798 -20.058323 12.004785 27.167012 0.966761 1.113094 0.067170 -0.004754 878676.000000 0 0 1
-12.629398 -19.361623 11.767385 25.939265 0.992813 1.099938 0.053705 -0.008885 53852.800000 0 0 1
-11.486798 -20.180923 11.904385 26.094646 1.053339 1.097076 0.052063 -0.007415 85579.600000 0 0 1
-10.268598 -19.346923 12.325085 25.132752 1.082844 1.058248 0.078877 -0.016566 282516.000000 0 0 1
-9.431698 -18.810323 11.274785 23.872703 1.106021 1.078912 0.062853 -0.017236 711933.000000 0 1 0
-8.356098 -18.033123 11.805885 23.117024 1.136876 1.034797 0.061381 -0.020841 535668.000000 0 1 0
-7.418498 -17.326223 10.823585 21.734353 1.166247 1.049512 0.044321 -0.018226 552835.000000 0 1 0
-6.543598 -18.141823 10.027085 21.736762 1.224629 1.091341 0.037938 -0.019575 378106.000000 0 1 0
-5.791598 -17.457523 9.013085 20.482759 1.250468 1.115161 0.029731 -0.015354 489628.000000 0 1 0
-4.630898 -18.300523 8.421885 20.670813 1.322952 1.151160 0.024088 -0.018011 58395.200000 0 1 0
-3.430698 -18.328023 9.139385 20.765704 1.385754 1.115065 0.031462 -0.017512 -358217.000000 0 1 0
-2.434798 -18.999623 8.384985 20.909851 1.443341 1.158181 0.040321 -0.019470 612519.000000 0 1 0
-1.027898 -19.055723 9.056385 21.123334 1.516907 1.127700 0.046415 -0.027378 -71867.800000 0 1 0
-0.068898 -19.546323 8.199285 21.196503 1.567271 1.173613 0.044457 -0.023151 -907878.000000 0 1 0
1.084002 -19.919023 8.897985 21.843000 -1.516430 1.151234 0.042394 -0.024162 -266274.000000 0 1 0
2.236602 -20.467123 8.043585 22.104406 -1.461950 1.198355 0.047047 -0.030910 -131316.000000 0 1 0
1.964702 -21.727823 7.470385 23.060030 -1.480618 1.240891 0.056426 -0.033907 -5603.710000 0 1 0
2.615602 -22.693423 8.268885 24.294182 -1.456045 1.223491 0.071094 -0.036133 -240920.000000 0 1 0
1.969702 -24.094423 8.127085 25.504322 -1.489228 1.246486 0.072094 -0.033635 66095.400000 0 0 1
2.304802 -24.962723 9.124585 26.677850 -1.478728 1.221722 0.076234 -0.026581 -278231.000000 0 0 1
1.766602 -26.199703 8.780785 27.688400 -1.503470 1.248096 0.083692 -0.023836 -685270.000000 0 0 1
1.895702 -27.388183 9.802085 29.151108 -1.501690 1.227863 0.085303 -0.018543 240539.000000 0 0 1
1.159902 -27.234733 11.022085 29.403442 -1.528233 1.186554 0.083670 -0.023872 -452710.000000 0 0 1
-0.202398 -27.456533 10.854185 29.524828 1.563425 1.194338 0.075430 -0.017923 -1120170.000000 0 0 1
-0.974098 -27.601373 12.137785 30.168037 1.535519 1.156726 0.073337 -0.024139 -156307.000000 0 0 1
-0.566598 -28.706443 12.870885 31.464910 1.551061 1.149378 0.073607 -0.026904 -197988.000000 0 0 1
-1.030698 -28.624053 14.214685 31.975866 1.534804 1.110131 0.081495 -0.033451 93398.600000 0 0 1
-0.569298 -29.755913 15.239185 33.436076 1.551666 1.097558 0.050700 -0.017307 90263.600000 0 0 1
-0.857198 -29.436043 16.558585 33.784643 1.541684 1.058567 0.056160 -0.017879 44972.700000 0 0 1
-0.438298 -30.451243 17.463585 35.106226 1.556404 1.050140 0.040381 -0.013696 -158112.000000 0 0 1
-0.826398 -30.086733 18.848485 35.512812 1.543336 1.011309 0.037750 -0.022351 385118.000000 0 0 1
-2.218098 -30.185483 19.131285 35.806276 1.497446 1.007117 0.026587 -0.014441 298407.000000 0 0 1
-2.524198 -29.899283 20.481285 36.329351 1.486573 0.971857 0.041946 -0.022075 -523013.000000 0 0 1
-4.002998 -30.077683 20.838685 36.809534 1.438485 0.969003 0.071859 -0.028884 -367461.000000 0 0 1
-4.885498 -29.190733 20.152785 35.806448 1.404969 0.972996 0.065680 -0.031539 743992.000000 0 0 1
-6.143998 -28.973063 20.797885 36.190318 1.361833 0.958582 0.071069 -0.033358 658780.000000 0 0 1
-6.134498 -27.892363 21.886585 35.981086 1.354308 0.916904 0.077739 -0.035601 -482367.000000 0 0 1
-5.209998 -28.302863 22.872385 36.760605 1.388754 0.899249 0.076530 -0.034414 58355.900000 0 0 1
-5.122498 -27.301213 23.885685 36.634985 1.385324 0.860589 0.074275 -0.033702 37371.100000 0 0 1
-3.989698 -27.485323 24.953285 37.336672 1.426646 0.838832 0.074840 -0.034172 294328.000000 0 0 1
-3.991398 -28.659253 25.717985 38.713031 1.432416 0.844208 0.074625 -0.030237 -45246.900000 0 0 1
-3.440298 -29.803393 25.112885 39.124607 1.455872 0.873863 0.060851 -0.026613 -100461.000000 0 0 1
-3.669798 -30.985413 26.090385 40.672735 1.452909 0.874382 0.067244 -0.022348 443382.000000 0 0 1
-2.935298 -30.839573 27.312885 41.299987 1.475903 0.848207 0.072488 -0.032084 52180.500000 0 0 1
-3.529598 -31.620973 28.294885 42.578686 1.459634 0.843929 0.075228 -0.022101 -273306.000000 0 0 1
-2.952698 -31.570463 29.736585 43.470415 1.477540 0.817475 0.094739 -0.027620 -698718.000000 0 0 1
-1.688998 -32.120573 29.863385 43.890838 1.518262 0.822486 0.092502 -0.030717 -776126.000000 0 0 1
-1.190398 -31.964783 31.146685 44.646168 1.533573 0.798707 0.088958 -0.036471 -390582.000000 0 0 1
-28.950508 2.944777 -9.710015 30.677158 -0.101369 1.892858 0.135646 -0.022041 -778911.000000 0 0 1
-29.878368 2.684077 -10.672515 31.840599 -0.089593 1.912599 0.107667 -0.022324 -317558.000000 0 0 1
-30.718828 3.799277 -10.948715 32.832229 -0.123054 1.910783 0.082196 -0.016856 505105.000000 0 0 1
-31.848018 3.653677 -12.011715 34.233418 -0.114223 1.929304 0.086964 -0.022664 552143.000000 0 0 1
-32.868248 2.724377 -11.589215 34.957887 -0.082699 1.908710 0.116409 -0.030788 557170.000000 0 0 1
-33.868228 2.746577 -12.617215 36.246306 -0.080919 1.926336 0.126495 -0.027572 -474125.000000 0 0 1
-34.980637 1.816777 -12.191315 37.088729 -0.051890 1.905730 0.106552 -0.027605 -736174.000000 0 0 1
-34.534742 0.494077 -12.028215 36.572811 -0.014306 1.905918 0.115988 -0.022909 -334277.000000 0 0 1
-35.469237 -0.466123 -12.418915 37.583421 0.013141 1.907562 0.096557 -0.022552 -519861.000000 0 0 1
-34.995508 -1.933523 -12.377315 37.170176 0.055194 1.910270 0.104204 -0.025271 -177434.000000 0 0 1
-33.975948 -2.273223 -13.311015 36.561123 0.066807 1.943436 0.092527 -0.020700 397287.000000 0 0 1
-33.349518 -3.501823 -13.002915 35.965663 0.104620 1.940712 0.100609 -0.028605 274388.000000 0 0 1
-34.169348 -4.734023 -13.521115 37.050990 0.137670 1.944357 0.105360 -0.029987 160919.000000 0 0 1
-33.718208 -5.971823 -13.042915 36.642842 0.175292 1.934724 0.106470 -0.039084 14745.400000 0 0 1
-34.441576 -7.079623 -13.592015 37.697296 0.202731 1.939661 0.106761 -0.036903 -542707.000000 0 0 1
-34.145319 -8.383023 -12.903115 37.452213 0.240748 1.922526 0.088988 -0.038187 -646866.000000 0 0 1
-32.825438 -8.836823 -12.899515 36.359267 0.262972 1.933474 0.083461 -0.037434 -195709.000000 0 0 1
-32.255678 -9.174923 -14.169715 36.405890 0.277125 1.970575 0.087489 -0.033371 -672773.000000 0 0 1
-31.076608 -10.155423 -13.990215 35.561416 0.315847 1.975134 0.091499 -0.041653 -329377.000000 0 0 1
-31.354048 -11.454123 -13.633215 36.057424 0.350253 1.958537 0.090410 -0.038918 -1064340.000000 0 0 1
-30.196558 -12.147523 -13.471115 35.225919 0.382472 1.963211 0.090430 -0.028508 -1141060.000000 0 0 1
-30.333508 -13.608523 -13.980115 36.066012 0.421714 1.968851 0.094803 -0.027596 -131368.000000 0 0 1
-30.277368 -13.727623 -15.401315 36.638329 0.425674 2.004639 0.088837 -0.032306 -25024.300000 0 0 1
-30.597628 -15.064423 -15.845915 37.606445 0.457500 2.005743 0.092543 -0.027125 -179504.000000 0 0 1
-29.591938 -16.136223 -15.449415 37.077553 0.499221 2.000585 0.065405 -0.016417 -203051.000000 0 0 1
-28.338098 -16.088623 -16.069315 36.333380 0.516360 2.028929 0.067652 -0.018304 -561525.000000 0 0 1
-27.594018 -17.257823 -16.197815 36.354250 0.558901 2.032590 0.077920 -0.019889 182511.000000 0 0 1
-26.145968 -16.980423 -16.642315 35.339964 0.575986 2.061130 0.078976 -0.033979 42940.800000 0 0 1
-26.187158 -16.366723 -17.955115 35.721465 0.558592 2.097449 0.065785 -0.026698 -37335.200000 0 0 1
-24.910198 -16.075623 -18.499515 34.945324 0.573094 2.128671 0.048361 -0.012905 -145333.000000 0 0 1
-24.986998 -15.386023 -19.886915 35.448120 0.551928 2.166407 0.046427 -0.014278 6269.950000 0 0 1
-25.469408 -16.123723 -20.986715 36.730198 0.564376 2.178977 0.045437 -0.020274 363919.000000 0 0 1
-26.879138 -16.261523 -21.043215 37.811931 0.544078 2.160991 0.060922 -0.026471 -252755.000000 0 0 1
-27.304668 -17.516123 -21.845715 39.110034 0.570381 2.163458 0.060525 -0.023153 -80902.600000 0 0 1
-27.011548 -17.499223 -23.246115 39.701743 0.574857 2.196316 0.056730 -0.014315 211223.000000 0 0 1
-27.606108 -18.654423 -23.825315 40.960107 0.594255 2.191578 0.045769 -0.010487 -169624.000000 0 0 1
-27.055258 -19.012323 -25.268055 41.616464 0.612550 2.223284 0.048859 -0.013047 1111300.000000 0 0 1
-25.750058 -19.641423 -25.281995 41.085646 0.651625 2.233624 0.056090 -0.017890 803985.000000 0 0 1
-25.602048 -20.986923 -24.781915 41.352861 0.686660 2.213397 0.050179 -0.016655 -838073.000000 0 0 1
-24.130298 -21.212023 -24.430515 40.361755 0.721126 2.220925 0.049064 -0.010425 -51973.800000 0 0 1
-23.367698 -21.386023 -25.631295 40.747694 0.741148 2.251094 0.054246 -0.010358 -246993.000000 0 0 1
-22.049298 -21.767323 -25.290905 39.995222 0.778963 2.255377 0.056548 -0.014880 760399.000000 0 0 1
-21.004598 -21.454723 -26.449915 40.013701 0.795999 2.292976 0.063336 -0.020638 407590.000000 0 0 1
-20.878798 -22.411423 -27.517715 41.175487 0.820787 2.302722 0.065721 -0.017531 357510.000000 0 0 1
-21.895998 -22.223923 -28.526285 42.273945 0.792831 2.311484 0.071539 -0.017723 648185.000000 0 0 1
-21.255098 -22.252323 -29.949305 42.940726 0.808315 2.342639 0.068706 -0.026384 479089.000000 0 0 1
-20.660698 -23.509623 -30.346535 43.594484 0.849808 2.340761 0.062291 -0.035455 118599.000000 0 0 1
-20.007898 -23.436223 -31.587405 44.128638 0.864148 2.368569 0.059469 -0.034420 160186.000000 0 0 1
-19.363198 -24.789023 -32.005355 44.875070 0.907674 2.364864 0.053421 -0.035179 -63982.700000 0 0 1
-18.769498 -24.989823 -33.270305 45.647547 0.926601 2.387440 0.052996 -0.035019 -325416.000000 0 0 1
-19.592598 -24.864823 33.726800 46.256095 0.903437 0.753744 0.038454 -0.022592 -724665.000000 0 0 1
-18.850198 -24.818523 32.375233 44.938233 0.921229 0.766362 0.038250 -0.023552 -322154.000000 0 0 1
-18.146198 -23.646923 32.023379 43.748809 0.916264 0.749569 0.047394 -0.020889 -156337.000000 0 0 1
-17.647698 -23.565523 30.704449 42.538668 0.928014 0.764395 0.047460 -0.014342 -111671.000000 0 0 1
-16.762998 -22.354223 30.390089 41.282768 0.927372 0.743440 0.061906 -0.011709 -375637.000000 0 0 1
-17.445098 -21.138523 30.152269 40.747122 0.880833 0.737748 0.054393 -0.019963 -666284.000000 0 0 1
-16.681098 -20.032923 29.842629 39.625239 0.876441 0.718002 0.051605 -0.019067 -794568.000000 0 0 1
-15.955798 -19.391123 31.052369 39.935608 0.882283 0.680019 0.059127 -0.024336 52865.000000 0 0 1
-15.436698 -18.128623 30.784679 38.918313 0.865426 0.658342 0.060975 -0.022833 74882.500000 0 0 1
-14.670798 -17.601523 31.877179 39.258126 0.875962 0.623244 0.065171 -0.029030 624482.000000 0 0 1
-13.931098 -16.240023 31.598199 38.160975 0.861777 0.595222 0.077981 -0.027948 -59868.500000 0 0 1
-12.871498 -16.206323 30.686849 37.013552 0.899585 0.593353 0.096516 -0.033481 -197610.000000 0 0 1
-12.363698 -14.900823 30.581039 36.195241 0.878187 0.564435 0.084957 -0.031236 -13259.800000 0 0 1
-10.879298 -14.679323 30.241069 35.332194 0.932996 0.543494 0.107782 -0.030206 6835.490000 0 0 1
-10.580798 -13.336423 30.196209 34.664456 0.900107 0.513359 0.099012 -0.027459 -114853.000000 0 0 1
-9.187298 -13.140823 30.342189 34.318160 0.960647 0.486138 0.089103 -0.024019 243925.000000 0 0 1
-8.932798 -11.609123 30.393059 33.738771 0.914954 0.449108 0.081437 -0.017477 39961.200000 0 0 1
-9.714098 -10.930123 31.369299 34.610175 0.844234 0.436207 0.072217 -0.012866 124575.000000 0 0 1
-9.456998 -9.520623 31.446659 34.190195 0.788751 0.403336 0.054769 -0.010573 -337255.000000 0 0 1
-10.266498 -8.722923 32.477478 35.160730 0.704290 0.393204 0.046270 -0.008583 -279781.000000 0 0 1
-11.607798 -8.524423 32.091459 35.174828 0.633423 0.421829 0.042697 -0.015165 -110076.000000 0 0 1
-12.385198 -7.766723 33.028098 36.118837 0.560106 0.416702 0.034539 -0.016371 -15434.600000 0 0 1
-12.058498 -6.266223 33.335640 35.999136 0.479245 0.387088 0.024522 -0.010829 -455825.000000 0 0 1
-12.196798 -5.272723 32.273552 34.901943 0.408041 0.390570 0.033679 -0.014158 186222.000000 0 0 1
-12.439598 -3.968623 32.735034 35.243099 0.308824 0.379540 0.031642 -0.018293 -427809.000000 0 0 1
-11.992898 -2.850723 31.748009 34.057192 0.233370 0.370361 0.034094 -0.009540 235178.000000 0 0 1
-10.628098 -2.476523 31.887979 33.703603 0.228931 0.329730 0.041652 -0.015696 338054.000000 0 0 1
-10.341598 -1.350123 31.097669 32.799947 0.129818 0.323586 0.040602 -0.002377 -30076.700000 0 0 1
-8.890398 -0.834323 31.254849 32.505397 0.093571 0.278285 0.042919 -0.005994 166545.000000 0 0 1
-8.522498 -0.325923 32.533805 33.633133 0.038224 0.256381 0.062002 -0.029461 -167741.000000 0 0 1
-7.150098 -0.009623 32.518124 33.294930 0.001346 0.216436 0.069190 -0.030605 124604.000000 0 0 1
-6.619298 0.656277 33.861905 34.509048 -0.098823 0.193968 0.115061 -0.044579 105296.000000 0 0 1
-7.238598 1.934077 -34.051171 34.865746 -0.261090 2.925007 0.110400 -0.042310 362629.000000 0 0 1
-6.628598 2.985377 33.341153 34.124526 -0.423169 0.214684 0.114250 -0.039407 362583.000000 0 0 1
-7.523598 4.267877 33.352352 34.455750 -0.516002 0.253756 0.122391 -0.041115 667922.000000 0 0 1
-8.732898 4.093477 32.628401 34.024001 -0.438330 0.287408 0.095625 -0.026233 180220.000000 0 0 1
-9.622098 5.170277 32.840746 34.609697 -0.493067 0.321101 0.080265 -0.016459 850036.000000 0 0 1
-11.069798 4.979277 32.243136 34.452191 -0.422694 0.360046 0.058269 -0.006457 666454.000000 0 0 1
-11.895498 6.050377 32.595291 35.221626 -0.470526 0.388617 0.059561 -0.006220 626509.000000 0 0 1
-13.199198 5.903377 32.002249 35.117127 -0.420567 0.424365 0.026401 -0.005843 848735.000000 0 0 1
-14.148198 7.113277 32.053809 35.752159 -0.465860 0.458865 0.030495 -0.008403 1611.790000 0 0 1
-14.547198 7.511777 33.370552 37.170439 -0.476660 0.456113 0.034514 -0.010207 495007.000000 0 0 1
-15.419698 8.675677 33.276281 37.687469 -0.512493 0.488680 0.040574 -0.003990 205506.000000 0 0 1
-16.044798 8.935277 -33.477015 38.183573 -0.508122 2.639835 0.032998 0.002568 -560182.000000 0 0 1
-15.167898 9.253277 -32.447545 36.993668 -0.547781 2.640610 0.026533 -0.002168 -1004200.000000 0 0 1
-15.791798 9.564477 -31.274275 36.317219 -0.544572 2.608308 0.022983 0.000157 -1564210.000000 0 0 1
-14.931998 10.121077 -30.172355 35.153546 -0.595678 2.602748 0.034794 -0.010790 -506637.000000 0 0 1
-14.246698 11.303077 -30.309645 35.346889 -0.670693 2.601170 0.047914 -0.011132 266866.000000 0 0 1
-13.130898 11.218877 -31.208445 35.668624 -0.707036 2.636139 0.055607 -0.020078 -108108.000000 0 0 1
-12.210098 12.460677 -31.276775 35.813289 -0.795555 2.632791 0.063812 -0.015957 51312.000000 0 0 1
-12.754098 13.533677 -32.006525 37.016822 -0.815045 2.615246 0.062748 -0.019961 41377.200000 0 0 1
-11.860298 14.618177 -32.097285 37.210126 -0.889179 2.611174 0.066303 -0.019455 -117893.000000 0 0 1
-12.167598 15.691277 -31.043285 36.850403 -0.911213 2.572544 0.070740 -0.016054 -421621.000000 0 0 1
-13.411298 16.309477 -31.122925 37.609818 -0.882604 2.545475 0.072942 -0.020604 -378800.000000 0 0 1
-13.620598 17.149877 -30.001815 37.144958 -0.899596 2.511029 0.060329 -0.022056 -388703.000000 0 0 1
-15.027198 17.744777 -30.052955 37.998341 -0.868133 2.483078 0.052980 -0.024537 -528353.000000 0 0 1
-15.265898 18.536277 -31.241885 39.404272 -0.881849 2.486276 0.052906 -0.023202 87439.000000 0 0 1
-16.574398 19.023477 -31.462585 40.329860 -0.854088 2.465672 0.051715 -0.023176 435675.000000 0 0 1
-17.162098 20.204477 -30.618275 40.499843 -0.866639 2.427992 0.037667 -0.028884 -577376.000000 0 0 1
-16.457898 21.386377 -30.889645 41.017188 -0.914900 2.423543 0.041683 -0.020621 13454.500000 0 0 1
-17.055298 22.613777 -30.485835 41.613126 -0.924613 2.392932 0.021369 -0.022120 123601.000000 0 0 1
-18.384198 23.028277 -31.200055 42.915309 -0.897074 2.384760 0.029662 -0.023309 140971.000000 0 0 1
-19.398498 22.186377 -30.740315 42.585256 -0.852339 2.377273 0.036686 -0.024650 -793311.000000 0 0 1
-20.473098 21.964677 -31.614725 43.601441 -0.820531 2.381953 0.060919 -0.027469 -350226.000000 0 0 1
-21.674998 21.303777 -30.847665 43.303983 -0.776761 2.363640 0.077308 -0.034787 698258.000000 0 0 1
-22.543198 22.187477 -30.063775 43.638406 -0.777446 2.330807 0.103472 -0.030353 903545.000000 0 0 1
-23.281898 23.180977 -30.748145 44.998366 -0.783226 2.323092 0.100972 -0.030363 53775.100000 0 0 1
-24.685798 22.674177 -31.215205 45.802795 -0.742949 2.320625 0.118052 -0.040408 135406.000000 0 0 1
-24.576098 21.845277 -32.349755 46.127079 -0.726639 2.348041 0.116886 -0.038150 2231080.000000 0 0 1
-25.918868 21.354677 -32.772465 46.923815 -0.689148 2.343982 0.133512 -0.035207 2042180.000000 0 0 1
-25.884268 20.471277 -34.026811 47.401397 -0.669153 2.371497 0.126435 -0.024713 -96169.700000 0 0 1
-25.661728 19.101577 -33.755945 46.506541 -0.639882 2.383040 0.118717 -0.027197 134039.000000 0 0 1
-25.463408 18.445377 33.129431 45.674679 -0.626907 0.759276 0.098525 -0.035369 -276440.000000 0 0 1
-24.866898 17.040977 33.244656 44.877218 -0.600783 0.736549 0.077834 -0.016258 -6545.700000 0 0 1
-25.799318 16.033677 33.644707 45.328246 -0.556062 0.734381 0.072203 -0.008814 363333.000000 0 0 1
-26.028138 15.243377 32.538454 44.368632 -0.529801 0.747536 0.075304 -0.007432 -214009.000000 0 0 1
-26.839788 13.994477 33.009014 44.786322 -0.480627 0.742126 0.041060 0.001339 891841.000000 0 0 1
-28.227228 14.211677 33.324878 45.927069 -0.466423 0.758884 0.042987 0.005535 1132200.000000 0 0 1
-29.126288 13.090577 33.195130 46.061052 -0.422390 0.766018 0.053507 0.011005 586382.000000 0 0 1
-29.000888 11.954777 -33.908625 46.192674 -0.390997 2.395092 0.044883 0.001855 -424896.000000 0 0 1
-27.812368 11.205377 -33.805615 45.187475 -0.382997 2.416019 0.058346 -0.012087 -347098.000000 0 0 1
-28.083788 9.823377 -33.915235 45.115863 -0.336486 2.421487 0.071762 -0.008770 -382809.000000 0 0 1
-26.860888 8.881577 -33.755315 44.043286 -0.319334 2.444033 0.060439 -0.011043 512967.000000 0 0 1
-25.900438 8.724177 33.342041 43.111897 -0.324899 0.686635 0.041590 -0.008858 388005.000000 0 0 1
-25.102078 9.841077 33.004982 42.617954 -0.373628 0.684969 0.029106 -0.010162 -230478.000000 0 0 1
-23.796498 9.436177 32.253402 41.177624 -0.377517 0.670880 0.018457 -0.001231 221427.000000 0 0 1
-23.965198 9.185377 30.869109 40.144785 -0.366010 0.693608 0.016095 -0.005563 -59866.200000 0 0 1
-22.710298 9.033377 30.263489 38.900364 -0.378579 0.679361 0.019729 -0.005797 -84582.200000 0 0 1
-22.784598 8.960377 28.721399 37.740496 -0.374687 0.705907 0.035606 -0.018159 -31477.900000 0 0 1
-23.266298 10.132377 28.032849 37.813044 -0.410727 0.735711 0.042168 -0.013608 342337.000000 0 0 1
-23.445698 9.821777 26.668879 36.842871 -0.396706 0.761424 0.042747 -0.021394 -941410.000000 0 0 1
-23.710398 11.124477 25.821479 36.778876 -0.438690 0.792491 0.056927 -0.017206 82973.400000 0 0 1
-24.871898 11.880177 26.068269 37.938168 -0.445612 0.813272 0.066441 -0.017398 44214.600000 0 0 1
-26.081078 11.271577 25.633419 38.266738 -0.407932 0.836774 0.063355 -0.015520 161663.000000 0 0 1
-27.344398 12.133077 25.877029 39.554371 -0.417614 0.857653 0.066820 -0.012095 170577.000000 0 0 1
-27.415298 13.311477 25.091399 39.476225 -0.452020 0.882001 0.073183 -0.014980 -163948.000000 0 0 1
-28.689548 13.864177 25.329629 40.704984 -0.450157 0.899153 0.075421 -0.018829 224797.000000 0 0 1
-29.082848 15.127977 24.501959 40.926932 -0.479652 0.928950 0.101529 -0.019393 -142830.000000 0 0 1
-28.481508 16.297677 24.937469 41.215142 -0.519742 0.920960 0.098922 -0.019525 -305829.000000 0 0 1
-28.740138 17.344177 24.061079 41.300745 -0.542976 0.948894 0.098278 -0.026423 -56052.600000 0 0 1
-22.876598 -9.096223 32.022979 40.392465 0.378454 0.655414 0.060347 -0.022606 536409.000000 0 0 1
-21.889698 -8.717123 31.037979 38.967977 0.378979 0.649313 0.049300 -0.023518 438630.000000 0 0 1
-22.291098 -9.124323 29.713379 38.249591 0.388520 0.681182 0.045734 -0.018134 546063.000000 0 0 1
-21.208698 -8.798923 28.607349 36.682562 0.393262 0.676350 0.061065 -0.019890 -46066.500000 0 0 1
-20.910898 -7.450323 28.443949 36.080898 0.342266 0.662693 0.052013 -0.020970 958640.000000 0 0 1
-19.731598 -7.044623 29.209719 35.946771 0.342917 0.622227 0.047022 -0.017203 1771140.000000 0 0 1
-18.322698 -7.343523 28.547759 34.707681 0.381186 0.604969 0.054882 -0.017033 60976.500000 0 0 1
-17.998298 -8.767523 28.423319 34.766266 0.453299 0.613645 0.056982 -0.016889 18425.300000 0 0 1
-17.652598 -9.474323 29.612729 35.753192 0.492582 0.594812 0.058571 -0.019664 -770871.000000 0 0 1
-16.358598 -9.050723 30.331779 35.630551 0.505350 0.552365 0.058266 -0.017179 205395.000000 0 0 1
-15.225398 -9.490823 29.564609 34.582576 0.557415 0.545440 0.054711 -0.015529 491248.000000 0 0 1
-13.939798 -9.147223 30.075319 34.387708 0.580718 0.506196 0.056890 -0.018521 1055500.000000 0 0 1
-12.801098 -10.008223 29.428419 33.616432 0.663560 0.504497 0.062050 -0.015257 344462.000000 0 0 1
-12.515298 -9.919823 28.052529 32.279714 0.670222 0.517527 0.083681 -0.018775 -348339.000000 0 0 1
-11.356298 -10.629223 27.703909 31.771882 0.752340 0.511598 0.085986 -0.018296 -39000.600000 0 0 1
-10.765598 -10.367523 26.272389 30.226182 0.766564 0.517228 0.077692 -0.012764 -243460.000000 0 0 1
-11.633598 -10.772123 25.282699 29.842823 0.746968 0.560113 0.085144 -0.017627 -314717.000000 0 0 1
-11.179298 -10.382123 24.007359 28.445008 0.748443 0.566113 0.076231 -0.012980 -50759.500000 0 0 1
-12.247798 -10.803323 23.005879 28.213309 0.722816 0.617331 0.085280 -0.012008 -748836.000000 0 0 1
-12.297098 -12.176223 22.812979 28.634089 0.780459 0.648970 0.088594 -0.013434 -322145.000000 0 0 1
-13.451998 -12.666123 22.194879 28.879051 0.755318 0.694231 0.082360 -0.012514 -135311.000000 0 0 1
-14.633398 -12.728223 23.205159 30.242741 0.715881 0.696181 0.084093 -0.014089 -1005160.000000 0 0 1
-15.838498 -13.134623 22.643979 30.596178 0.692344 0.737590 0.061446 -0.004525 85051.900000 0 0 1
-16.904498 -13.098723 23.598729 31.847113 0.659226 0.736237 0.057430 -0.003396 1227180.000000 0 0 1
-18.290498 -13.721123 23.181899 32.560896 0.643615 0.778518 0.061558 -0.004403 509813.000000 0 0 1
-18.226998 -15.117123 23.117479 33.093333 0.692401 0.797422 0.058512 -0.002393 186018.000000 0 0 1
-19.485998 -15.739823 22.939679 33.965792 0.679449 0.829322 0.064392 -0.002451 63524.000000 0 0 1
-20.312698 -15.898323 24.246739 35.401507 0.664090 0.816320 0.057346 -0.002560 93435.800000 0 0 1
-19.622598 -16.635723 25.296729 36.079331 0.703206 0.793799 0.056537 -0.005100 278293.000000 0 0 1
-20.470098 -16.655523 26.408249 37.333992 0.683010 0.785052 0.044036 -0.008506 -374286.000000 0 0 1
-20.056198 -17.470223 27.622009 38.346253 0.716596 0.766516 0.051296 -0.010060 -252284.000000 0 0 1
-20.055998 -18.829923 27.322879 38.773042 0.753879 0.788814 0.053358 -0.001264 213768.000000 0 0 1
-20.144998 -19.592323 28.513749 40.033910 0.771491 0.778112 0.044724 -0.007271 -347985.000000 0 0 1
-19.945798 -21.105323 28.220609 40.492867 0.813637 0.799692 0.048114 0.002001 5943.510000 0 0 1
-21.072198 -21.620623 27.510009 40.844699 0.798243 0.831826 0.043649 0.001630 430002.000000 0 0 1
-20.943398 -23.034123 27.281979 41.394482 0.832903 0.851211 0.057183 0.008988 285198.000000 0 0 1
-22.282098 -23.687723 26.842029 42.167459 0.815966 0.880769 0.059094 0.006430 461812.000000 0 0 1
-23.255298 -23.755023 27.883969 43.389235 0.796028 0.872848 0.048713 0.008026 -307001.000000 0 0 1
-24.388598 -24.423723 27.412429 44.076788 0.786118 0.899599 0.038610 0.012988 -147678.000000 0 0 1
-25.043398 -25.376003 28.480739 45.631851 0.791995 0.896764 0.026175 0.013018 168461.000000 0 0 1
-25.805988 -24.632123 29.448539 46.259128 0.762129 0.880715 0.028512 0.011664 298243.000000 0 0 1
-26.406288 -25.576013 30.322179 47.653531 0.769427 0.881097 0.028051 0.007936 224847.000000 0 0 1
-27.469128 -24.968723 31.306069 48.559861 0.737751 0.870178 0.041291 0.006772 36797.300000 0 0 1
-28.621478 -24.597323 30.618879 48.597665 0.709926 0.889181 0.043058 0.004223 -531250.000000 0 0 1
-29.557168 -23.928023 31.437979 49.340886 0.680537 0.879990 0.057002 -0.010044 49618.900000 0 0 1
-30.788258 -23.520423 30.568839 49.351606 0.652364 0.902806 0.069886 -0.012757 91448.700000 0 0 1
-31.694588 -24.598523 30.377239 50.323065 0.660004 0.922732 0.070438 -0.016945 -34846.000000 0 0 1
-32.761388 -24.327423 29.513939 50.360745 0.638725 0.944620 0.064088 -0.024363 -151600.000000 0 0 1
-34.071148 -24.910923 30.074889 51.825632 0.631324 0.951688 0.073282 -0.024854 -132622.000000 0 0 1
-34.083044 -26.318023 29.794949 52.364408 0.657542 0.965516 0.079960 -0.026386 862420.000000 0 0 1
-35.235129 -26.885823 30.461639 53.779859 0.651795 0.968649 0.079366 -0.017526 841986.000000 0 0 1
-35.066202 -28.420483 30.705289 54.590999 0.681099 0.973437 0.077606 -0.020697 -44474.200000 0 0 1
-34.188010 -28.723583 31.753429 54.791829 0.698757 0.952646 0.075748 -0.021578 -106041.000000 0 0 1
-33.775148 -30.110203 31.797979 55.303675 0.728093 0.958228 0.082967 -0.032672 114922.000000 0 0 1
-32.679508 -30.327353 32.865999 55.388379 0.748084 0.935553 0.076519 -0.021680 -175404.000000 0 0 1
-33.167478 -30.394803 -33.972115 56.374021 0.741804 2.217577 0.066346 -0.011395 -55458.100000 0 0 1
-32.123798 -30.534723 -33.006485 55.260617 0.760043 2.210911 0.052860 -0.019723 173995.000000 0 0 1
-32.574568 -30.285653 -31.538725 54.525356 0.749001 2.187591 0.049727 -0.022221 -65226.800000 0 0 1
-32.736198 -28.939793 -31.154555 53.663550 0.723922 2.190204 0.044818 -0.015255 10088.000000 0 0 1
-31.549998 -28.311263 -30.684015 52.330094 0.731347 2.197348 0.041783 -0.014713 61908.900000 0 0 1
-31.569308 -26.748433 -30.682785 51.512457 0.702920 2.208856 0.030034 -0.007378 -267710.000000 0 0 1
-32.419378 -26.246663 -29.686195 51.197398 0.680566 2.189326 0.023767 -0.014692 -214870.000000 0 0 1
-32.403268 -24.836623 -29.684105 50.477478 0.653968 2.199462 0.034826 -0.010486 -82088.900000 0 0 1
-31.223358 -24.086323 -29.022785 48.962957 0.657070 2.205265 0.029003 -0.012977 -216208.000000 0 0 1
-31.281848 -22.655123 -29.065775 48.338679 0.626801 2.215916 0.032725 -0.014730 -42259.300000 0 0 1
-30.264748 -22.136223 -28.247055 46.945324 0.631503 2.216426 0.044609 -0.010731 -61788.500000 0 0 1
-29.955588 -20.675423 -28.525695 46.244196 0.604120 2.235530 0.054811 -0.024089 -55749.200000 0 0 1
-29.364688 -20.345623 -29.763355 46.498243 0.605918 2.265420 0.056102 -0.013445 195803.000000 0 0 1
-28.955438 -19.012823 -29.710325 45.635603 0.581017 2.279742 0.053393 -0.019970 -450307.000000 0 0 1
-28.512138 -18.468723 -31.085715 46.047339 0.574792 2.311872 0.063249 -0.013782 722067.000000 0 0 1
-29.462878 -18.304323 -32.190405 47.321577 0.555911 2.318897 0.077128 -0.027842 885880.000000 0 0 1
-30.566248 -17.437123 -31.929535 47.516776 0.518423 2.307653 0.073443 -0.028175 -252424.000000 0 0 1
-31.225168 -16.767323 -33.145115 48.525796 0.492793 2.322715 0.073373 -0.035827 792344.000000 0 0 1
-32.293148 -17.491523 -33.803685 49.914827 0.496408 2.314784 0.076504 -0.040304 1566160.000000 0 0 1
-33.611568 -17.068023 -33.397045 50.362859 0.469870 2.295787 0.076610 -0.033451 1169150.000000 0 0 1
-34.754096 -17.651323 33.852350 51.627493 0.469941 0.855682 0.086925 -0.031794 -42461.200000 0 0 1
-34.911974 -18.999123 34.037605 52.329448 0.498380 0.862622 0.062323 -0.034858 -357752.000000 0 0 1
-35.704346 -19.541723 33.050778 52.431223 0.500784 0.888774 0.070084 -0.031276 -559835.000000 0 0 1
-35.999915 -21.015323 33.347548 53.382550 0.528393 0.896062 0.062682 -0.034518 -297154.000000 0 0 1
-34.844253 -21.787223 33.205749 52.833955 0.558797 0.891183 0.073336 -0.035058 -302502.000000 0 0 1
-34.998927 -23.141023 33.578717 53.739762 0.584203 0.895871 0.070012 -0.037230 -48807.100000 0 0 1
-33.730438 -24.073523 33.483966 53.277133 0.619864 0.891190 0.068845 -0.028574 1150920.000000 0 0 1
-32.746178 -23.955423 -33.611385 52.686808 0.631587 2.262626 0.047796 -0.029800 767399.000000 0 0 1
-31.875598 -22.814523 -33.671125 51.674954 0.621209 2.280481 0.052771 -0.029674 755950.000000 0 0 1
-30.529228 -22.913623 -32.848265 50.359472 0.643851 2.281379 0.057765 -0.021468 1071060.000000 0 0 1
-29.547168 -23.885623 -33.265525 50.499043 0.679836 2.289934 0.047999 -0.017122 1092920.000000 0 0 1
-28.322378 -23.771023 -32.527515 49.246907 0.698250 2.292279 0.055176 -0.019110 510177.000000 0 0 1
-28.243298 -24.253323 -31.064885 48.486438 0.709540 2.266196 0.041421 -0.003471 -925813.000000 0 0 1
-28.030648 -25.629153 -30.957825 48.999568 0.740674 2.254667 0.045044 -0.013899 18707.400000 0 0 1
-27.679908 -25.905563 -29.616225 48.108173 0.752298 2.233965 0.025210 -0.011565 -57491.500000 0 0 1
-27.262828 -27.394803 -29.424625 48.575154 0.787813 2.221510 0.029271 -0.016762 489840.000000 0 0 1
-28.375598 -28.308523 -29.560085 49.803069 0.784215 2.206246 0.016031 -0.002611 845196.000000 0 0 1
-28.095598 -29.560833 -28.996585 50.040058 0.810806 2.188871 0.023041 -0.004955 -249971.000000 0 0 1
-28.791608 -30.701023 -29.725905 51.528040 0.817482 2.185710 0.029847 0.002669 -212020.000000 0 0 1
-28.417468 -30.876103 -31.081425 52.220123 0.826840 2.208311 0.036729 -0.020873 350983.000000 0 0 1
-28.986628 -32.059493 -31.593165 53.536565 0.835692 2.202008 0.063437 -0.009424 -309917.000000 0 0 1
-28.359018 -32.382363 -32.956945 54.212652 0.851539 2.224234 0.062621 -0.026243 -567478.000000 0 0 1
-27.003528 -32.702633 -32.804275 53.616912 0.880562 2.229165 0.057620 -0.032329 -616297.000000 0 0 1
-26.486718 -33.014523 34.051350 54.323102 0.894670 0.893318 0.076158 -0.039624 -448832.000000 0 0 1
-24.979398 -33.256213 33.952636 53.691038 0.926579 0.886187 0.063627 -0.036131 -343958.000000 0 0 1
-24.725098 -34.056133 32.799191 53.356702 0.942826 0.908771 0.066781 -0.031722 269263.000000 0 0 1
-23.790398 33.116192 32.939800 52.418467 -0.947833 0.891301 0.055709 -0.018657 -217891.000000 0 0 1
-23.708998 32.311012 31.623459 51.050576 -0.937761 0.902750 0.061056 -0.020487 364454.000000 0 0 1
-24.910198 31.590688 31.306389 50.976265 -0.903089 0.909505 0.090938 -0.037924 515569.000000 0 0 1
-24.703998 30.558478 30.363799 49.659525 -0.890944 0.912918 0.091801 -0.025088 -299957.000000 0 0 1
-25.970938 29.765458 30.008679 49.608396 -0.853373 0.921142 0.104747 -0.020401 -259062.000000 0 0 1
-26.498608 29.057288 31.084719 50.127458 -0.831422 0.901909 0.090052 -0.023708 -448089.000000 0 0 1
-27.815808 28.703118 30.794919 50.457063 -0.801096 0.914333 0.090995 -0.023276 -538415.000000 0 0 1
-28.339438 27.507978 31.552509 50.550702 -0.770511 0.896721 0.063827 -0.043588 -709340.000000 0 0 1
-27.630718 26.354938 31.324879 49.389143 -0.761771 0.883763 0.076514 -0.041539 -347913.000000 0 0 1
-28.217048 25.205058 31.911469 49.495845 -0.729077 0.870126 0.071301 -0.024512 166762.000000 0 0 1
-29.394318 24.687488 31.066609 49.382509 -0.698585 0.890400 0.072176 -0.018981 199819.000000 0 0 1
-28.893608 24.243588 29.796949 48.067144 -0.698111 0.902178 0.073068 -0.017015 -53183.500000 0 0 1
-29.925108 23.746358 28.991289 47.957236 -0.670781 0.921628 0.085732 -0.008519 169937.000000 0 0 1
-29.391738 23.576818 27.538289 46.670098 -0.676055 0.939660 0.098093 -0.028353 59757.100000 0 0 1
-28.313328 22.711248 27.345039 45.444433 -0.676044 0.925138 0.090121 -0.021943 -211850.000000 0 0 1
-27.786088 22.446648 26.074249 44.224260 -0.679502 0.940243 0.090780 -0.023479 90267.600000 0 0 1
-26.395498 21.776948 26.195989 43.095100 -0.689815 0.917428 0.099931 -0.024926 -17456.800000 0 0 1
-26.366918 20.422648 26.657669 42.695787 -0.659032 0.896481 0.107955 -0.027166 -103960.000000 0 0 1
-25.088718 20.036848 27.090839 42.009911 -0.673911 0.869946 0.099175 -0.024141 -223536.000000 0 0 1
-25.168338 18.830348 27.971519 42.076515 -0.642333 0.843600 0.106469 -0.019980 -212102.000000 0 0 1
-23.940998 18.471048 28.552419 41.588360 -0.657135 0.814065 0.097158 -0.014328 -17626.300000 0 0 1
-24.025098 17.253248 29.271829 41.613939 -0.622793 0.790607 0.088992 -0.013147 523412.000000 0 0 1
-22.749698 16.341148 29.052049 40.355959 -0.622904 0.767145 0.070719 -0.016429 743356.000000 0 0 1
-21.713098 16.705948 29.958759 40.596485 -0.655799 0.740747 0.097269 -0.013590 -457428.000000 0 0 1
-20.615198 15.874048 29.825419 39.579381 -0.656189 0.717336 0.068704 -0.016793 -390560.000000 0 0 1
-19.424298 16.218448 30.757509 39.829208 -0.695696 0.688445 0.048352 -0.019082 -173520.000000 0 0 1
-19.683898 16.062948 32.146552 40.974077 -0.684448 0.668813 0.050514 -0.014868 67583.000000 0 0 1
-18.706898 16.661448 32.968775 41.406425 -0.727630 0.649769 0.045381 -0.021537 -829435.000000 0 0 1
-18.882298 16.518948 -33.604385 41.936518 -0.718738 2.500287 0.047823 -0.027608 223997.000000 0 0 1
-19.926698 17.304048 -33.023445 42.273530 -0.715071 2.467358 0.057205 -0.026752 -34585.500000 0 0 1
-21.180398 16.701248 -33.177415 42.758413 -0.667704 2.458980 0.067600 -0.022931 -803664.000000 0 0 1
-22.260798 17.420248 -32.316515 42.934431 -0.664011 2.422942 0.083184 -0.030918 -30306.600000 0 0 1
-22.260798 17.188748 -30.924725 41.801135 -0.657529 2.403578 0.078225 -0.025374 11141.600000 0 0 1
-23.167598 18.063348 -30.290535 42.196430 -0.662228 2.371500 0.064710 -0.021993 -284566.000000 0 0 1
-23.273798 17.828548 -28.777475 41.081260 -0.653685 2.346896 0.067798 -0.028525 438029.000000 0 0 1
-24.011498 16.701948 -28.291975 40.693280 -0.607754 2.339563 0.060157 -0.028274 388329.000000 0 0 1
-25.397998 16.521248 -28.505175 41.599940 -0.576723 2.325704 0.066320 -0.024271 453281.000000 0 0 1
-26.062138 15.352548 -27.707535 41.020035 -0.532348 2.312389 0.072388 -0.021457 11970.600000 0 0 1
-25.670818 14.062648 -28.170195 40.623994 -0.501158 2.337045 0.054774 -0.011392 131971.000000 0 0 1
-26.462578 13.082948 -27.507225 40.349461 -0.459153 2.320914 0.036800 -0.006953 230353.000000 0 0 1
-26.008968 11.583248 -27.564165 39.628541 -0.418985 2.340000 0.054008 -0.009101 118525.000000 0 0 1
-25.051298 11.136248 -26.628185 38.218370 -0.418302 2.341636 0.062096 -0.012273 327340.000000 0 0 1
-24.188898 10.137148 -27.166275 37.760708 -0.396848 2.373781 0.050568 -0.003065 -57808.100000 0 0 1
-23.144898 9.613148 -26.175615 36.238954 -0.393666 2.377927 0.077760 -0.012100 -358531.000000 0 0 1
-23.504798 8.507748 -25.320405 35.580616 -0.347288 2.362619 0.086185 -0.016753 425290.000000 0 0 1
-22.457398 8.045248 -24.438615 34.151232 -0.344001 2.368279 0.101282 -0.016453 391296.000000 0 0 1
-22.872498 6.793148 -23.614415 33.569907 -0.288703 2.351022 0.090818 -0.016139 156600.000000 0 0 1
-22.965598 5.700848 -24.440915 34.018770 -0.243316 2.372373 0.102461 -0.025816 -126429.000000 0 0 1
-23.694898 4.691748 -23.888715 33.972510 -0.195478 2.350653 0.085444 -0.012199 -499995.000000 0 0 1
35.637565 24.052177 -10.556115 44.271603 0.593688 1.811555 0.025494 0.004829 159279.000000 0 0 1
36.326815 23.717777 -9.374015 44.385162 0.578411 1.783596 0.023597 -0.001824 359487.000000 0 0 1
-36.006040 23.010077 -9.619715 43.799972 -0.568647 1.792230 0.028263 0.001438 484142.000000 0 0 1
-35.313281 22.698577 -8.272915 42.786614 -0.571281 1.765375 0.012457 0.001657 -455596.000000 0 0 1
-35.804588 21.651177 -7.553115 42.518132 -0.543871 1.749389 0.019762 -0.003404 -812115.000000 0 0 1
-35.059388 21.364677 -6.425215 41.555908 -0.547292 1.726035 0.040085 -0.009936 -1039880.000000 0 0 1
-35.452732 20.209177 -5.513915 41.179003 -0.518092 1.705101 0.043587 -0.006502 -552160.000000 0 0 1
-35.522804 18.933377 -6.158615 40.721873 -0.489692 1.722615 0.040946 -0.004067 536572.000000 0 0 1
-36.094378 17.946177 -5.300215 40.656632 -0.461406 1.701534 0.043196 -0.017571 -176901.000000 0 0 1
-36.707918 16.780377 -6.102315 40.820223 -0.428769 1.720851 0.048577 -0.006363 -117156.000000 0 0 1
35.641995 17.135677 -6.741415 40.117701 0.448147 1.739638 0.045622 -0.014639 -4913.230000 0 0 1
35.026925 16.016677 -7.392815 39.218275 0.428881 1.760435 0.060820 -0.013139 489833.000000 0 0 1
33.753625 16.415977 -8.189015 38.416812 0.452666 1.785607 0.048219 -0.020336 316868.000000 0 0 1
33.179125 15.349077 -8.972715 37.642504 0.433293 1.811480 0.063972 -0.026485 -72827.000000 0 0 1
32.501515 15.991377 -10.025915 37.584459 0.457243 1.840823 0.074225 -0.013471 -210046.000000 0 0 1
31.717005 14.953777 -10.950815 36.735599 0.440568 1.873496 0.081161 -0.012588 765525.000000 0 0 1
30.563355 14.292877 -10.407115 35.308824 0.437432 1.869985 0.082492 -0.010283 793171.000000 0 0 1
30.750565 13.539777 -9.187315 34.832881 0.414766 1.837708 0.072197 -0.018948 -657779.000000 0 0 1
29.614405 12.494877 -9.023915 33.385116 0.399258 1.844498 0.096016 -0.013042 163392.000000 0 0 1
29.748825 11.348377 -9.832315 33.323455 0.364434 1.870311 0.099913 -0.015655 521640.000000 0 0 1
28.751265 10.416777 -9.436015 32.002857 0.347596 1.870094 0.112097 -0.011506 -90931.600000 0 0 1
29.106735 9.008877 -9.966815 32.057749 0.300160 1.886938 0.128948 -0.014394 -21247.200000 0 0 1
30.248165 8.553777 -9.257515 32.769195 0.275591 1.857203 0.113141 -0.020599 363873.000000 0 0 1
30.265845 7.166177 -9.017515 32.383500 0.232493 1.852987 0.113822 -0.024762 -542188.000000 0 0 1
31.470735 6.747777 -8.190615 33.211833 0.211216 1.819985 0.118690 -0.023935 912391.000000 0 0 1
32.763525 7.079377 -8.747715 34.642296 0.212803 1.826075 0.111463 -0.029692 1530550.000000 0 0 1
33.873595 6.911777 -7.866915 35.455344 0.201283 1.794541 0.113384 -0.032316 584328.000000 0 0 1
35.299365 7.098577 -8.407315 36.974558 0.198450 1.800184 0.107653 -0.031727 94551.400000 0 0 1
35.626705 6.184177 -9.435115 37.370142 0.171870 1.826036 0.107219 -0.033213 807155.000000 0 0 1
-36.533898 6.337477 -9.745915 38.338912 -0.171759 1.827821 0.111166 -0.032635 -41866.800000 0 0 1
-36.050188 5.577877 -11.018615 38.106937 -0.153508 1.864135 0.106997 -0.027259 -518122.000000 0 0 1
-34.686081 5.617277 -11.331515 36.919931 -0.160552 1.882753 0.110041 -0.024116 -90292.700000 0 0 1
-34.204049 6.780077 -11.974215 36.868255 -0.195688 1.901580 0.088402 -0.019191 -580057.000000 0 0 1
-33.593208 7.799077 -11.014615 36.202914 -0.228121 1.879944 0.073716 -0.012056 -1326550.000000 0 0 1
-34.383543 8.352677 -10.019515 36.774800 -0.238310 1.846741 0.087863 -0.024003 -391097.000000 0 0 1
-34.855892 9.669177 -10.404915 37.638922 -0.270600 1.850884 0.080727 -0.022539 -54955.600000 0 0 1
-35.680983 10.415477 -9.384315 38.336407 -0.284014 1.818098 0.081685 -0.019218 -815805.000000 0 0 1
-34.974163 10.912777 -8.327515 37.571642 -0.302451 1.794296 0.074508 -0.017650 -474815.000000 0 0 1
-35.692007 11.623077 -7.317915 38.243525 -0.314819 1.763334 0.074637 -0.016622 -489309.000000 0 0 1
-34.762171 12.562377 -6.524815 37.533919 -0.346777 1.745522 0.076690 -0.022965 -131770.000000 0 0 1
-34.051928 13.440577 -7.381615 37.345297 -0.375936 1.769765 0.057478 -0.016803 -251238.000000 0 0 1
-33.648638 14.498477 -6.605115 37.229884 -0.406839 1.749155 0.059132 -0.016740 -165205.000000 0 0 1
-32.845268 15.559777 -7.468115 37.103788 -0.442411 1.773457 0.037705 -0.009053 263050.000000 0 0 1
-33.578258 16.357977 -8.377315 38.278744 -0.453323 1.791432 0.015844 -0.007180 97566.000000 0 0 1
-32.852668 17.544977 -8.549315 38.212757 -0.490515 1.796435 0.009487 0.000770 349363.000000 0 0 1
-33.585148 18.291177 -9.663415 39.445037 -0.498704 1.818300 -0.001278 -0.003609 238604.000000 0 0 1
-33.138808 18.080877 -10.982015 39.315434 -0.499467 1.853894 -0.006325 -0.003127 257927.000000 0 0 1
-34.128264 18.565377 -11.895115 40.631335 -0.498216 1.867905 -0.008208 -0.000627 -163253.000000 0 0 1
-33.647278 18.558577 -13.305315 40.664377 -0.504042 1.904133 -0.001712 0.016605 233247.000000 0 0 1
-32.694538 19.615477 -13.516015 40.452224 -0.540391 1.911471 -0.001105 0.012920 472795.000000 0 0 1
-32.567628 19.938477 -14.879115 40.982696 -0.549355 1.942345 -0.010487 0.012319 -320006.000000 0 0 1
-31.784148 21.235177 -15.174415 41.126971 -0.588998 1.948692 0.014690 0.007157 -546631.000000 0 0 1
-30.447618 21.138877 -14.722715 39.883179 -0.606870 1.948886 0.013572 0.008488 202744.000000 0 0 1
-29.801958 22.390377 -14.544415 40.012819 -0.644336 1.942812 0.011603 0.004512 34592.400000 0 0 1
-29.207418 22.973877 -15.828715 40.390847 -0.666502 1.973480 0.024669 -0.005476 -1407930.000000 0 0 1
-30.212468 23.403077 -16.643715 41.683456 -0.659070 1.981537 0.016083 0.004607 -326816.000000 0 0 1
-29.684028 23.982577 -17.868815 42.137870 -0.679557 2.008716 0.022120 -0.001505 100184.000000 0 0 1
-28.720288 25.188377 -17.757415 42.126418 -0.719975 2.005925 0.027385 0.002389 -11013.000000 0 0 1
-29.309798 26.398677 -17.386615 43.107410 -0.733189 1.985952 0.045259 -0.000922 -440875.000000 0 0 1
-28.438168 27.491177 -17.481215 43.244504 -0.768468 1.986946 0.047405 -0.004524 -172846.000000 0 0 1
-28.994448 28.917077 -17.133915 44.389711 -0.784062 1.967075 0.041547 -0.007384 -173707.000000 0 0 1
-29.360988 29.272577 -15.802915 44.369849 -0.783890 1.934955 0.042327 -0.016608 518911.000000 0 0 1
-28.266058 29.307277 -14.889415 43.354137 -0.803481 1.921370 0.050654 -0.017066 72164.600000 0 0 1
-28.608788 30.078377 -13.614515 43.686686 -0.810434 1.887715 0.046975 -0.015587 -174103.000000 0 0 1
-28.260638 31.451377 -13.642315 44.429332 -0.838783 1.882895 0.056460 -0.014389 152809.000000 0 0 1
-28.745178 32.170577 -12.496815 44.915495 -0.841571 1.852747 0.049245 -0.019738 246430.000000 0 0 1
-28.094668 33.598177 -12.212515 45.467498 -0.874371 1.842734 0.034564 -0.016456 154945.000000 0 0 1
-28.288278 -33.815894 -13.357415 46.066929 0.874170 1.864978 0.026308 -0.025356 95115.600000 0 0 1
-27.420828 -32.699494 -13.477715 44.752738 0.872975 1.876705 0.041500 -0.024925 71738.100000 0 0 1
-27.636678 -32.020294 -14.869715 44.835183 0.858747 1.908851 0.039894 -0.027702 -68194.600000 0 0 1
-27.011828 -32.768194 -15.888515 45.341353 0.881395 1.928816 0.038031 -0.029175 -31186.300000 0 0 1
-27.334408 -32.219394 -17.130415 45.592876 0.867241 1.955976 0.035402 -0.018428 -184759.000000 0 0 1
-26.538698 -32.803494 -18.301715 45.992657 0.890579 1.980052 0.039351 -0.017735 -437918.000000 0 0 1
-26.914648 -34.119994 -18.762215 47.334903 0.902908 1.978358 0.036647 -0.007131 -104012.000000 0 0 1
-26.246638 33.066577 -18.119515 45.941282 -0.899877 1.976218 0.023550 -0.017902 -625447.000000 0 0 1
-26.553578 31.722077 -18.764915 45.425816 -0.873857 1.996640 0.032056 -0.021858 -219926.000000 0 0 1
-27.895358 31.302977 -18.826515 45.961561 -0.842897 1.992828 0.047692 -0.017118 220474.000000 0 0 1
-28.597488 31.717877 -20.031915 47.171153 -0.837087 2.009388 0.053004 -0.009084 380312.000000 0 0 1
-30.126068 31.503177 -20.141715 48.017901 -0.807740 2.003650 0.057411 -0.022722 307951.000000 0 0 1
-30.595938 30.155677 -20.184215 47.464501 -0.778151 2.010033 0.050243 -0.023317 -286886.000000 0 0 1
-31.838358 30.075877 -20.794915 48.483687 -0.756939 2.014077 0.059744 -0.027910 -807055.000000 0 0 1
-32.294218 28.610377 -20.871815 47.928101 -0.724986 2.021370 0.062085 -0.023866 -903593.000000 0 0 1
-33.581938 28.536277 -21.390415 48.985871 -0.704349 2.022685 0.059363 -0.027638 -355773.000000 0 0 1
-33.857598 27.189677 -21.890115 48.629134 -0.676604 2.037723 0.055921 -0.016601 -445791.000000 0 0 1
-35.350899 26.838177 -21.887315 49.487659 -0.649359 2.028934 0.054961 -0.008299 -8917.940000 0 0 1
-35.981095 27.605777 -22.951815 50.828181 -0.654437 2.039306 0.043581 -0.003509 191558.000000 0 0 1
36.319395 27.020977 -23.284215 50.905661 0.639638 2.045865 0.044057 0.000516 427161.000000 0 0 1
35.602175 27.559877 -24.539415 51.276160 0.658752 2.069826 0.052493 -0.003175 215992.000000 0 0 1
36.302555 27.413077 -25.760725 52.277789 0.646775 2.086062 0.044511 -0.005877 -114548.000000 0 0 1
35.373155 27.404177 -26.805805 52.161290 0.659133 2.110524 0.065503 -0.014057 33249.100000 0 0 1
36.088855 27.806477 -28.088985 53.521927 0.656493 2.123291 0.060515 -0.015173 341968.000000 0 0 1
-36.710948 26.766777 -28.758785 53.770083 -0.630005 2.135123 0.039035 0.006624 354746.000000 0 0 1
-35.944511 27.429177 -29.759865 54.129634 -0.651831 2.152908 0.015370 0.007121 -847837.000000 0 0 1
-35.504672 26.461677 -30.942445 54.020709 -0.640487 2.180700 0.001851 0.009943 635489.000000 0 0 1
-34.764460 25.307377 -30.502765 52.720487 -0.629250 2.187777 0.002957 0.011237 -789021.000000 0 0 1
-33.518158 25.522477 -29.979355 51.707113 -0.650790 2.189269 -0.004640 0.024503 -1655620.000000 0 0 1
-33.259678 24.461577 -28.941455 50.420063 -0.634138 2.182187 -0.022533 0.020337 -60096.800000 0 0 1
-32.981728 23.161377 -29.443335 49.911459 -0.612234 2.201745 0.001977 0.009088 152023.000000 0 0 1
-32.927748 22.238277 -28.339495 48.804760 -0.594001 2.190349 0.019379 0.007359 -136378.000000 0 0 1
-32.613538 20.832177 -28.802915 48.241377 -0.568432 2.210625 0.015375 0.004400 325993.000000 0 0 1
-31.225138 20.569477 -29.030165 47.337756 -0.582500 2.230973 0.070548 -0.004946 573381.000000 0 0 1
-31.066098 19.238277 -29.432325 46.919884 -0.554468 2.248864 0.060789 -0.011269 749464.000000 0 0 1
-29.560058 18.816877 -29.582835 45.858653 -0.566872 2.271934 0.092198 -0.022153 725793.000000 0 0 1
-28.906628 19.249877 -30.769925 46.399776 -0.587494 2.295813 0.099599 -0.024605 -520751.000000 0 0 1
-27.679678 18.704877 -31.080855 45.629558 -0.594273 2.320137 0.104046 -0.029265 -777966.000000 0 0 1
-27.727468 17.301077 -31.762395 45.574000 -0.557857 2.341919 0.099510 -0.027176 -252046.000000 0 0 1
-28.195318 16.250677 -30.949095 44.909988 -0.522856 2.331093 0.064708 -0.017056 116532.000000 0 0 1
-28.109348 15.019077 -31.697315 44.949171 -0.490717 2.353475 0.036890 -0.003965 -89371.700000 0 0 1
-28.588008 13.764177 -30.949325 44.323668 -0.448711 2.343756 0.035113 -0.000787 -1114660.000000 0 0 1
-29.964998 13.775577 -30.866435 45.170837 -0.430909 2.323106 0.021678 -0.000480 -956270.000000 0 0 1
-30.649768 12.540177 -30.705505 45.160739 -0.388364 2.318444 0.016191 0.002252 84297.400000 0 0 1
-30.241928 11.609777 -29.487865 43.805198 -0.366548 2.309269 0.015365 -0.011705 -449395.000000 0 0 1
-30.537768 12.165777 -28.235905 43.333910 -0.379113 2.280474 -0.002188 -0.007710 225908.000000 0 0 1
-30.568578 11.209877 -27.167495 42.404860 -0.351485 2.266166 0.000724 -0.004861 -53859.800000 0 0 1
-30.586098 11.917577 -25.787715 41.743794 -0.371544 2.236689 -0.006978 -0.007298 550891.000000 0 0 1
-29.336418 12.509777 -25.398095 40.769881 -0.403077 2.243320 0.018625 -0.012327 452104.000000 0 0 1
-29.263658 13.008077 -24.078915 40.067018 -0.418282 2.215505 0.013058 -0.007855 121422.000000 0 0 1
-27.787528 13.182677 -23.652015 38.798808 -0.442967 2.226361 0.024258 -0.005324 -44748.900000 0 0 1
-26.950508 14.064877 -24.397115 38.979096 -0.480996 2.247085 0.044256 -0.007125 1032750.000000 0 0 1
-25.567508 14.088777 -24.005815 37.795109 -0.503643 2.259008 0.054520 -0.014366 1013770.000000 0 0 1
-25.244288 14.644877 -22.572815 36.895508 -0.525678 2.229135 0.051580 -0.013483 -1163540.000000 0 0 1
-25.447078 16.007477 -22.550715 37.580951 -0.561506 2.214369 0.070138 -0.019897 150607.000000 0 0 1
-25.581558 16.348877 -21.206615 37.032721 -0.568666 2.180525 0.063800 -0.012347 310824.000000 0 0 1
-27.052248 16.543477 -20.731715 37.885549 -0.548860 2.149835 0.046741 -0.016675 -38863.100000 0 0 1
-27.852578 15.390977 -20.799615 38.016737 -0.504827 2.149713 0.047277 -0.014051 232215.000000 0 0 1
-29.080678 15.766177 -20.178915 38.748507 -0.496799 2.118545 0.041825 -0.005875 -774179.000000 0 0 1
-30.216878 14.735377 -20.219715 39.230447 -0.453722 2.112281 0.001974 -0.009357 169495.000000 0 0 1
-30.889968 14.540277 -21.491715 40.342330 -0.439944 2.132624 -0.000409 -0.007539 269599.000000 0 0 1
-31.610988 15.636177 -21.944415 41.536755 -0.459353 2.127409 -0.000553 -0.003597 -992870.000000 0 0 1
-32.091158 15.497477 -23.382415 42.623369 -0.449891 2.151464 -0.002473 -0.002576 -5444.770000 0 0 1
-33.179518 14.612377 -23.638515 43.280266 -0.414845 2.148585 0.004759 -0.004176 432088.000000 0 0 1
-33.588568 14.832477 -25.013775 44.428406 -0.415841 2.168823 0.008274 -0.012979 623604.000000 0 0 1
-34.882375 14.017777 -25.387505 45.363020 -0.382107 2.164762 0.005454 -0.009585 391704.000000 0 0 1
-34.714662 12.608677 -25.576085 44.924633 -0.348393 2.176464 0.007952 -0.010066 165781.000000 0 0 1
-34.375704 11.758877 -24.480115 43.809089 -0.329592 2.163723 0.002262 -0.011889 -185887.000000 0 0 1
-34.522482 10.312177 -25.014775 43.862077 -0.290272 2.177674 0.009751 -0.014469 -467705.000000 0 0 1
-35.842574 10.004577 -25.368155 45.036929 -0.272198 2.169140 0.025621 -0.014674 -267805.000000 0 0 1
-35.861378 8.794377 -26.137595 45.238848 -0.240487 2.186789 0.018642 0.000702 391402.000000 0 0 1
36.238985 8.417677 -26.520155 45.688510 0.228235 2.190085 0.053194 -0.001092 710530.000000 0 0 1
35.379185 7.927477 -25.483895 44.316594 0.220431 2.183452 0.039403 0.008181 832955.000000 0 0 1
34.298575 7.103977 -25.957135 43.596234 0.204234 2.208558 0.054952 0.006072 713932.000000 0 0 1
33.520535 6.415677 -24.804015 42.190358 0.189108 2.199266 0.060593 -0.001161 64256.500000 0 0 1
34.392645 5.503577 -24.213415 42.419723 0.158677 2.178283 0.049344 -0.008693 110390.000000 0 0 1
33.697875 4.602777 -23.378815 41.271071 0.135749 2.173012 0.050209 -0.005798 170096.000000 0 0 1
34.634855 3.707277 -22.552015 41.495909 0.106633 2.145368 0.047572 -0.007954 114315.000000 0 0 1
35.510575 2.808977 -23.193815 42.506992 0.078938 2.147957 0.052544 -0.017517 69243.100000 0 0 1
36.147895 2.012177 -22.233515 42.485861 0.055608 2.121534 0.089375 -0.021226 -426562.000000 0 0 1
36.763405 0.818577 -22.867715 43.303007 0.022262 2.127141 0.091581 -0.016928 -14443.300000 0 0 1
35.850185 -0.138423 -23.363215 42.791293 -0.003861 2.148355 0.061600 -0.012484 242505.000000 0 0 1
36.652865 -1.181323 -23.837515 43.738486 -0.032219 2.147187 0.069915 -0.017413 348308.000000 0 0 1
-23.531398 29.073377 27.027339 46.146127 -0.890362 0.945065 0.059596 -0.010894 -633094.000000 0 0 1
-24.786998 29.465977 26.524899 46.756918 -0.871429 0.967581 0.063182 -0.014493 233931.000000 0 0 1
-25.028798 28.875677 25.253149 45.803570 -0.856642 0.986832 0.062509 -0.000918 -67614.200000 0 0 1
-25.448828 27.358677 25.228419 45.084512 -0.821549 0.976917 0.061222 -0.003595 106322.000000 0 0 1
-26.687488 27.061277 25.888509 45.986407 -0.792352 0.972833 0.072294 -0.007126 358782.000000 0 0 1
-26.586368 26.668577 27.232249 46.471963 -0.786942 0.944691 0.081910 -0.012672 -548698.000000 0 0 1
-25.765108 25.393077 27.607979 45.506589 -0.778126 0.918918 0.078368 -0.015128 1360100.000000 0 0 1
-24.349698 25.603477 27.817159 44.969325 -0.810492 0.903861 0.072040 -0.014948 906243.000000 0 0 1
-24.042398 25.781377 29.215149 45.784727 -0.820287 0.878771 0.063955 -0.013686 1334030.000000 0 0 1
-22.581098 25.370577 29.706639 45.122684 -0.843505 0.852168 0.061465 -0.012259 1147850.000000 0 0 1
-21.528298 26.160477 29.169839 44.707021 -0.882228 0.859962 0.068106 -0.015044 666352.000000 0 0 1
-20.238698 26.032377 29.755639 44.414948 -0.909962 0.836660 0.074683 -0.020733 560307.000000 0 0 1
-19.462698 24.768077 29.415769 43.099208 -0.904776 0.819601 0.075635 -0.018615 -1062310.000000 0 0 1
-19.069898 24.733377 28.059209 41.984761 -0.913978 0.838850 0.077211 -0.011539 204972.000000 0 0 1
-19.826098 23.951177 27.090399 41.238608 -0.879350 0.854072 0.083528 -0.013542 -89945.500000 0 0 1
-19.708598 22.397977 27.281229 40.427264 -0.849182 0.830072 0.064503 -0.009680 165898.000000 0 0 1
-20.269198 21.953777 28.533349 41.315381 -0.825274 0.808446 0.074988 -0.005574 140876.000000 0 0 1
-20.380898 20.563477 28.562719 40.670217 -0.789857 0.792172 0.077496 -0.013004 114271.000000 0 0 1
-20.849398 20.006477 29.878669 41.565507 -0.764770 0.768674 0.086276 -0.022155 196495.000000 0 0 1
-19.847198 20.251577 30.844509 41.897749 -0.795482 0.743380 0.071371 -0.021583 329894.000000 0 0 1
-20.371398 19.936977 32.134094 42.954359 -0.774621 0.725604 0.070337 -0.021875 -232691.000000 0 0 1
-19.544998 20.459377 33.301221 43.698563 -0.808251 0.704297 0.079236 -0.022838 -547893.000000 0 0 1
-19.579898 21.937177 33.492077 44.568278 -0.842116 0.720497 0.047980 -0.020194 194859.000000 0 0 1
-18.785798 22.669477 32.547148 43.887678 -0.878809 0.735342 0.059501 -0.015485 188187.000000 0 0 1
-17.328098 22.865277 33.030150 43.750140 -0.922300 0.715184 0.043946 -0.010860 53694.800000 0 0 1
-16.675798 21.657777 33.331055 43.105693 -0.914638 0.686861 0.061464 -0.009962 -1051860.000000 0 0 1
-15.363198 21.820877 33.766419 43.038931 -0.957351 0.668818 0.051706 -0.005139 -1168060.000000 0 0 1
-14.638398 20.509977 33.613220 42.009409 -0.950921 0.643275 0.049654 -0.009292 -415254.000000 0 0 1
-13.273398 20.438577 33.958518 41.798319 -0.994823 0.622476 0.044785 -0.009347 168507.000000 0 0 1
-12.968998 20.396177 -32.807085 40.749280 -1.004430 2.506634 0.059073 -0.016010 283404.000000 0 0 1
-11.454698 20.181477 -32.482825 39.920372 -1.054553 2.521269 0.051118 -0.009964 933477.000000 0 0 1
-10.660298 21.372777 -32.520065 40.348385 -1.108126 2.508129 0.050622 -0.008785 475667.000000 0 0 1
-9.305698 21.076177 -32.161415 39.562077 -1.155011 2.519972 0.048720 -0.008724 550646.000000 0 0 1
-8.369198 22.303577 -32.234585 40.081935 -1.211815 2.505154 0.056445 -0.011607 56897.600000 0 0 1
-8.443598 23.218477 -31.141885 39.751843 -1.222006 2.470926 0.067266 -0.016442 -222505.000000 0 0 1
-7.727298 22.899677 -29.976305 38.505652 -1.245353 2.463054 0.059051 -0.013912 -125459.000000 0 0 1
-7.301898 24.079777 -29.053415 38.435066 -1.276372 2.427838 0.072175 -0.014693 764648.000000 0 0 1
-6.167098 24.823677 -29.542765 39.077142 -1.327290 2.427994 0.069519 -0.012133 554250.000000 0 0 1
-5.666698 25.687477 -28.545145 38.817306 -1.353672 2.397011 0.094478 -0.014851 485509.000000 0 0 1
-4.292798 26.369377 -28.892415 39.351542 -1.409417 2.395303 0.057595 -0.017960 336669.000000 0 0 1
-3.180798 25.503977 -28.613385 38.461619 -1.446719 2.409753 0.072068 -0.006524 824277.000000 0 0 1
-1.974498 25.792177 -29.306825 39.089961 -1.494391 2.418447 0.095534 -0.011558 695598.000000 0 0 1
-1.268498 27.168377 -29.013935 39.768559 -1.524140 2.388489 0.102063 -0.026218 -720399.000000 0 0 1
-0.716098 27.278177 -27.700045 38.883213 -1.544551 2.363696 0.103668 -0.041112 385536.000000 0 0 1
-0.127998 28.580477 -27.601075 39.732599 -1.566318 2.338758 0.109818 -0.041007 -771835.000000 0 0 1
0.340902 28.790677 -26.122265 38.876626 1.558956 2.307604 0.117357 -0.054434 108659.000000 0 0 1
1.433502 28.063477 -25.595465 38.009756 1.519760 2.309584 0.141882 -0.064412 358413.000000 0 0 1
2.673402 28.293277 -26.221035 38.667807 1.476587 2.315985 0.135900 -0.062894 -425680.000000 0 0 1
3.958802 28.217077 -25.375135 38.154594 1.431408 2.298372 0.139604 -0.063975 -63013.400000 0 0 1
4.415802 26.967477 -25.022935 37.052549 1.408491 2.312217 0.136917 -0.055390 567421.000000 0 0 1
5.607302 27.128077 -24.232115 36.804481 1.366969 2.289489 0.111910 -0.047453 558529.000000 0 0 1
6.331702 25.828877 -23.798615 35.687469 1.330397 2.300786 0.106686 -0.048805 -573577.000000 0 0 1
7.373102 26.121777 -22.932615 35.533290 1.295694 2.272322 0.111288 -0.046953 -645536.000000 0 0 1
8.086102 24.898677 -22.641815 34.611862 1.256781 2.283872 0.097547 -0.030554 686317.000000 0 0 1
9.539302 25.069877 -22.106115 34.758846 1.207205 2.260081 0.094428 -0.018811 -226503.000000 0 0 1
9.668202 25.707877 -20.834315 34.473726 1.211080 2.219750 0.106621 -0.018932 868159.000000 0 0 1
11.047002 26.041377 -20.574115 34.978333 1.169595 2.199623 0.120600 -0.022209 1410430.000000 0 0 1
12.028502 24.895477 -20.139415 34.206223 1.120711 2.200326 0.080202 -0.009866 -51007.500000 0 0 1
12.343802 24.022577 -21.159015 34.309730 1.096137 2.235348 0.073780 -0.011771 -203286.000000 0 0 1
12.398902 22.762177 -20.602715 33.110744 1.072020 2.242393 0.052227 -0.004671 -225253.000000 0 0 1
12.469002 21.641577 -21.678015 33.072197 1.048091 2.285608 0.064072 -0.013101 -65594.400000 0 0 1
11.357102 21.579277 -22.549715 33.213531 1.086333 2.317103 0.062131 -0.022501 68107.100000 0 0 1
11.509602 20.742277 -23.706715 33.536865 1.064210 2.355881 0.050999 -0.027534 -522416.000000 0 0 1
10.655802 21.014577 -24.914315 34.291131 1.101511 2.384088 0.063478 -0.034369 -714446.000000 0 0 1
9.279702 20.873477 -24.725215 33.662311 1.152468 2.395737 0.044760 -0.036701 -469364.000000 0 0 1
8.645602 20.364077 -25.878935 34.046459 1.169306 2.434273 0.043064 -0.037970 537102.000000 0 0 1
7.078802 20.274377 -25.783705 33.555316 1.234879 2.447124 0.045454 -0.045796 704987.000000 0 0 1
6.337702 21.457877 -25.660965 34.045442 1.283606 2.424511 0.081677 -0.046429 -176439.000000 0 0 1
6.464402 22.098777 -24.380715 33.534515 1.286213 2.384788 0.087581 -0.045412 -652998.000000 0 0 1
5.171402 22.331977 -23.554615 32.867621 1.343238 2.369785 0.110880 -0.043234 -509662.000000 0 0 1
4.434102 23.358877 -24.041815 33.812827 1.383203 2.361753 0.116461 -0.047561 318972.000000 0 0 1
3.025002 23.072377 -23.787215 33.276371 1.440431 2.367189 0.136332 -0.042620 1265470.000000 0 0 1
2.174702 24.029077 -24.622215 34.472879 1.480539 2.366347 0.125541 -0.040197 -241972.000000 0 0 1
0.786202 23.808177 -24.639815 34.271970 1.537786 2.373086 0.132951 -0.061805 34389.500000 0 0 1
0.032002 24.839077 -25.342585 35.485594 1.569508 2.366227 0.116582 -0.049458 274745.000000 0 0 1
-1.460698 24.501277 -25.209045 35.184403 -1.511250 2.369545 0.128999 -0.046863 -384232.000000 0 0 1
-1.727198 23.295377 -25.858495 34.847089 -1.496788 2.406929 0.149717 -0.049902 -428643.000000 0 0 1
-2.984998 23.379177 -26.472695 35.444319 -1.443806 2.414156 0.141328 -0.034940 -343049.000000 0 0 1
-3.428998 22.008277 -27.052395 35.042180 -1.416234 2.452770 0.111350 -0.030597 -123912.000000 0 0 1
-2.747398 21.651177 -28.279215 35.721642 -1.444577 2.484309 0.138584 -0.042541 790928.000000 0 0 1
-3.412698 20.467777 -28.805515 35.501185 -1.405581 2.517333 0.095038 -0.035387 285128.000000 0 0 1
-4.569098 20.654777 -29.791425 36.538001 -1.353090 2.524138 0.076344 -0.027542 -196082.000000 0 0 1
-4.216398 20.998977 -31.154325 37.806442 -1.372641 2.539316 0.077195 -0.023330 -36187.000000 0 0 1
-3.415298 22.134577 -31.358695 38.535328 -1.417707 2.521397 0.081424 -0.024641 18185.700000 0 0 1
-2.973798 22.230377 -32.858985 39.783741 -1.437814 2.542664 0.064265 -0.017434 -52909.100000 0 0 1
-2.070998 21.224077 -33.262815 39.511585 -1.473526 2.571498 0.070329 -0.015560 68201.300000 0 0 1
-1.546598 21.574577 33.616071 39.973673 -1.499233 0.571750 0.068639 -0.007607 -137063.000000 0 0 1
-0.639198 20.487977 33.008660 38.855340 -1.539608 0.555708 0.083908 -0.010531 64821.600000 0 0 1
-1.287298 19.330577 32.484458 37.822855 -1.504301 0.537761 0.079450 0.001581 174343.000000 0 0 1
-0.344298 18.485477 31.837859 36.816853 -1.552173 0.526118 0.091983 -0.015204 173067.000000 0 0 1
-0.915498 17.129977 31.486999 35.856734 -1.517403 0.498850 0.072498 -0.017039 66546.200000 0 0 1
-1.811298 17.150477 30.396359 34.947937 -1.465574 0.516078 0.074973 -0.010131 112549.000000 0 0 1
-2.261398 15.846077 29.986109 33.990864 -1.429043 0.490322 0.050155 -0.008917 -474431.000000 0 0 1
-3.339698 15.860277 28.923929 33.155628 -1.363258 0.510769 0.058451 -0.013841 -45692.800000 0 0 1
-4.659498 16.287777 29.283799 33.831102 -1.292165 0.524473 0.047732 -0.014987 551680.000000 0 0 1
-4.874298 17.683777 29.361439 34.620353 -1.301838 0.558412 0.055648 -0.018262 -1181190.000000 0 0 1
-6.307398 18.061877 29.651679 35.287912 -1.234825 0.572999 0.034227 -0.020228 -756397.000000 0 0 1
-7.143298 17.560677 28.645349 34.350547 -1.184460 0.584637 0.025626 -0.017821 -29268.700000 0 0 1
-8.512498 17.944377 28.850389 35.025822 -1.127852 0.602910 0.023943 -0.004274 776192.000000 0 0 1
-9.386598 17.060977 27.839509 33.973864 -1.067815 0.610365 0.024378 -0.013130 253341.000000 0 0 1
-9.622898 15.730677 28.221199 33.711874 -1.021798 0.578782 0.032741 -0.021015 -156627.000000 0 0 1
-10.441998 15.543077 29.353489 34.817379 -0.979241 0.567830 0.037740 -0.020581 -592859.000000 0 0 1
-10.881998 14.091177 29.527899 34.480081 -0.913203 0.542587 0.043275 -0.025144 354799.000000 0 0 1
-9.736298 13.244877 29.621299 33.876889 -0.936900 0.506638 0.047524 -0.021957 305823.000000 0 0 1
-8.972198 13.209277 30.797789 34.691341 -0.974143 0.478328 0.049559 -0.024218 -405994.000000 0 0 1
-9.569898 12.773977 32.169816 35.911760 -0.927826 0.460565 0.062435 -0.023848 -373100.000000 0 0 1
-9.669998 11.349677 32.289227 35.565689 -0.865139 0.432607 0.065248 -0.022469 480365.000000 0 0 1
-10.383898 11.095177 33.509834 36.794528 -0.818501 0.425751 0.073576 -0.019339 213754.000000 0 0 1
-11.034698 9.662577 33.616485 36.676941 -0.719200 0.411414 0.092374 -0.015558 159636.000000 0 0 1
-10.080798 8.597377 33.710179 36.220347 -0.706144 0.374482 0.097430 -0.018488 405124.000000 0 0 1
-9.719198 8.025677 -33.160205 35.474970 -0.690249 2.778349 0.119234 -0.032395 -149985.000000 0 0 1
-8.813398 8.876677 -32.230825 34.573075 -0.788975 2.771385 0.104416 -0.037730 -16302.400000 0 0 1
-9.505098 9.972977 -31.597715 34.470607 -0.809414 2.730430 0.094084 -0.036129 7837.770000 0 0 1
-8.735498 10.689177 -30.692385 33.653974 -0.885638 2.718927 0.086158 -0.032244 -284124.000000 0 0 1
-7.765498 11.718377 -31.318245 34.328644 -0.985561 2.719678 0.067437 -0.021045 47029.700000 0 0 1
-8.376098 12.886677 -31.817535 35.335266 -0.994434 2.691592 0.058524 -0.015050 -786117.000000 0 0 1
-7.446298 13.843077 -32.054315 35.700942 -1.077284 2.685673 0.045537 -0.012289 -741482.000000 0 0 1
-8.068598 15.205777 -32.440295 36.724524 -1.082948 2.653740 0.044616 -0.007043 27235.800000 0 0 1
-8.598398 15.327877 -33.756215 38.057303 -1.059574 2.661569 0.045619 -0.011389 61583.700000 0 0 1
-8.955298 16.656377 -34.055043 38.953540 -1.077484 2.634680 0.059037 -0.012066 -1278450.000000 0 0 1
-9.447498 16.850677 32.625109 37.915673 -1.059806 0.534615 0.048061 -0.014289 486917.000000 0 0 1
-10.611198 16.148377 32.193857 37.547464 -0.989442 0.540566 0.046575 -0.020754 1393160.000000 0 0 1
-11.791198 16.422677 32.988817 38.691068 -0.948103 0.549815 0.052075 -0.021750 -620257.000000 0 0 1
-13.146198 15.848777 32.628292 38.582531 -0.878338 0.562967 0.047822 -0.028586 -556171.000000 0 0 1
-13.270098 14.421577 32.548275 37.992994 -0.826956 0.541975 0.044389 -0.028480 46837.500000 0 0 1
-14.590498 13.940077 32.665217 38.395635 -0.762605 0.553379 0.042762 -0.022367 -119256.000000 0 0 1
-14.772898 12.400577 32.621683 37.897058 -0.698316 0.533962 0.050926 -0.016771 -234614.000000 0 0 1
-14.735498 11.897777 31.308559 36.591227 -0.679251 0.544029 0.034669 -0.014889 -271868.000000 0 0 1
-13.487498 11.434577 30.871209 35.576589 -0.703210 0.520160 0.043233 -0.016891 -480245.000000 0 0 1
-13.549798 10.909777 29.480189 34.230130 -0.677880 0.533101 0.041487 -0.017312 -214345.000000 0 0 1
-14.453098 9.808777 29.432459 34.225339 -0.596262 0.535603 0.036151 -0.013286 195557.000000 0 0 1
-14.578498 9.315977 28.097569 32.996870 -0.568619 0.551915 0.026868 -0.003542 393511.000000 0 0 1
-15.451298 8.037677 27.958099 32.939371 -0.479672 0.557133 0.033421 -0.001143 197709.000000 0 0 1
-14.762898 6.917677 28.516329 32.847807 -0.438202 0.519364 0.025918 0.003169 419.288000 0 0 1
-15.263598 5.578777 28.265819 32.604550 -0.350412 0.521789 0.028980 0.003241 -1066730.000000 0 0 1
-14.208498 4.521477 28.285379 31.974800 -0.308091 0.485129 0.036331 0.004969 -923832.000000 0 0 1
-13.300898 4.571777 27.228419 30.646400 -0.331069 0.476795 0.032199 -0.000546 -560454.000000 0 0 1
-13.819898 4.383177 25.933709 29.711262 -0.307128 0.509768 0.045539 0.001945 -881689.000000 0 0 1
-12.785798 4.278677 24.804199 28.231755 -0.322929 0.497890 0.034180 0.002539 -402597.000000 0 0 1
-12.102998 3.062177 24.763829 27.732773 -0.247809 0.466952 0.029278 -0.002374 -204340.000000 0 0 1
-11.448698 2.886677 23.534539 26.330213 -0.246992 0.464998 0.031802 -0.005863 -148790.000000 0 0 1
-10.411598 1.728777 23.496909 25.758392 -0.164542 0.422165 0.035405 -0.015511 721379.000000 0 0 1
-9.074298 2.139977 23.825639 25.584829 -0.231597 0.372993 0.029580 -0.026267 126852.000000 0 0 1
-8.316198 1.021977 24.134949 25.547981 -0.122277 0.334145 0.014852 -0.011505 231846.000000 0 0 1
-6.799998 1.409177 24.159959 25.138205 -0.204340 0.279892 0.026573 -0.023783 183951.000000 0 0 1
-6.371398 1.966477 22.898479 23.849572 -0.299366 0.283361 0.029093 -0.026412 739597.000000 0 1 0
-4.960998 2.078277 22.643079 23.273155 -0.396712 0.233222 0.024132 -0.027671 656398.000000 0 1 0
-4.287298 3.291577 23.335049 23.952869 -0.654765 0.227617 0.026298 -0.027726 -669690.000000 0 1 0
-4.308498 3.180677 24.751649 25.324375 -0.635928 0.213079 0.038720 -0.024741 -158758.000000 0 0 1
-3.884598 4.385877 25.291639 25.961376 -0.845935 0.227636 0.038384 -0.024666 -94040.000000 0 0 1
5.124802 -23.421823 13.035585 27.290508 -1.355387 1.072807 0.068339 -0.016448 236953.000000 0 0 1
4.456002 -24.321623 13.903585 28.367357 -1.389594 1.058562 0.087804 -0.024391 678474.000000 0 0 1
3.185202 -24.755623 13.356485 28.308692 -1.442834 1.079447 0.092722 -0.026064 1004870.000000 0 0 1
2.763602 -26.175363 13.975585 29.801075 -1.465606 1.082681 0.083743 -0.025738 -24900.400000 0 0 1
2.316802 -26.124113 15.309285 30.367928 -1.482343 1.042426 0.075774 -0.026653 49294.600000 0 0 1
2.461602 -27.411813 15.835385 31.752581 -1.481236 1.048684 0.063299 -0.026936 -369257.000000 0 0 1
2.155002 -27.407513 17.308485 32.486912 -1.492330 1.008910 0.056527 -0.026729 -441094.000000 0 0 1
2.971502 -26.709643 18.189585 32.451438 -1.460000 0.975786 0.069593 -0.036277 -201813.000000 0 0 1
2.962102 -27.191323 19.527785 33.607685 -1.462289 0.950777 0.058963 -0.031536 -59236.900000 0 0 1
3.660502 -26.162293 20.456185 33.411380 -1.431784 0.911891 0.062714 -0.030167 -222727.000000 0 0 1
2.925902 -25.008623 20.715585 32.605637 -1.454330 0.882351 0.063621 -0.030313 -87705.800000 0 0 1
3.532602 -24.274223 21.739585 32.776923 -1.426282 0.845631 0.070711 -0.027605 -5628.940000 0 0 1
2.699602 -23.024023 22.142185 32.057290 -1.454078 0.808330 0.077688 -0.026942 60278.800000 0 0 1
2.399202 -21.957723 21.197385 30.614161 -1.461963 0.805980 0.074494 -0.025277 51795.000000 0 0 1
3.500102 -21.392423 20.534385 29.858791 -1.408619 0.812457 0.064507 -0.013635 -29716.600000 0 0 1
3.015402 -20.106523 19.793385 28.375042 -1.421934 0.798805 0.047580 -0.016715 262854.000000 0 0 1
2.603802 -19.085823 20.671885 28.255535 -1.435207 0.750123 0.024839 -0.014561 -42648.300000 0 0 1
1.734002 -18.222623 19.964585 27.086074 -1.475925 0.742058 0.013543 -0.020589 147115.000000 0 0 1
1.475002 -16.953523 20.813085 26.884606 -1.484012 0.685404 0.034059 -0.010801 988713.000000 0 0 1
2.578702 -16.003223 20.700885 26.292194 -1.411033 0.664315 -0.013819 0.005432 734670.000000 0 0 1
2.160802 -14.711523 21.094585 25.808515 -1.424961 0.614000 0.008205 0.003883 39638.200000 0 0 1
3.095902 -13.507523 20.818685 25.009107 -1.345489 0.587292 -0.023848 0.006479 -836878.000000 0 0 1
3.255002 -13.141023 19.421485 23.674366 -1.327986 0.608757 -0.035787 -0.002968 416881.000000 0 1 0
2.081502 -12.691323 18.699685 22.695386 -1.408234 0.602463 -0.017110 0.000778 782125.000000 0 1 0
1.321802 -11.456523 19.230285 22.423267 -1.455929 0.540204 -0.015802 -0.005360 -746727.000000 0 1 0
1.921802 -10.214223 19.082985 21.729795 -1.384821 0.498722 -0.004772 -0.002372 -518858.000000 0 1 0
1.476502 -9.269923 20.084485 22.169755 -1.412844 0.437200 0.003378 -0.014904 -562108.000000 0 1 0
0.061802 -8.742723 20.023485 21.849004 -1.563728 0.411684 0.004882 -0.020697 -638387.000000 0 1 0
-0.450398 -8.276523 21.248685 22.808119 1.516431 0.371929 0.004538 -0.018804 -362830.000000 0 1 0
-1.791398 -7.864923 21.144585 22.630943 1.346846 0.364445 0.010961 -0.017906 -198331.000000 0 1 0
-2.255298 -7.175623 22.438885 23.665998 1.266272 0.323437 0.015862 -0.013571 -325794.000000 0 1 0
-2.422798 -8.036123 23.578285 25.027679 1.277975 0.341992 0.017437 -0.001044 29052.400000 0 0 1
-2.416098 -7.340423 24.840485 26.014785 1.252816 0.301607 0.018809 0.001364 28696.500000 0 0 1
-2.557898 -8.335823 25.971085 27.395730 1.273061 0.323912 0.022260 0.003209 -188595.000000 0 0 1
-1.438398 -9.170123 26.074085 27.677031 1.415207 0.342006 0.017228 -0.002111 -178447.000000 0 0 1
-1.644898 -10.181223 27.090885 28.987567 1.410618 0.363750 0.036536 -0.008368 -355767.000000 0 0 1
-0.488698 -11.178723 27.110885 29.329213 1.527107 0.391430 0.035586 -0.011180 -577170.000000 0 0 1
0.682502 -10.642423 27.644585 29.630222 -1.506754 0.368174 0.036410 -0.009366 -425663.000000 0 0 1
1.710502 -11.561223 27.918785 30.266256 -1.423910 0.396446 0.044870 -0.017159 -384087.000000 0 0 1
2.866202 -11.056923 28.745085 30.931385 -1.317157 0.378235 0.065305 -0.020611 -507572.000000 0 0 1
2.548402 -10.848323 30.104085 32.100411 -1.340068 0.354529 0.063431 -0.029759 -91286.900000 0 0 1
3.675702 -10.543423 30.900185 32.855684 -1.235347 0.346750 0.074682 -0.012907 -250227.000000 0 0 1
3.324902 -10.276323 32.394685 34.147817 -1.257877 0.321823 0.065280 -0.010148 -33727.900000 0 0 1
2.901702 -11.378523 33.205485 35.220660 -1.321103 0.339911 0.061352 -0.012350 264631.000000 0 0 1
2.343702 -11.096423 -33.642810 35.502988 -1.362643 2.816450 0.054474 -0.017987 -272141.000000 0 0 1
3.353602 -10.672123 -32.553410 34.421873 -1.266328 2.810595 0.042884 -0.000890 -192000.000000 0 0 1
3.939802 -9.421623 -32.912910 34.460828 -1.174728 2.840732 0.037951 -0.010409 146996.000000 0 0 1
4.425302 -8.733423 -31.802910 33.275833 -1.101796 2.842947 0.053652 -0.005050 -420108.000000 0 0 1
3.433702 -7.659023 -31.286810 32.393138 -1.149339 2.879488 0.038387 -0.001720 37065.000000 0 0 1
3.194702 -6.628923 -32.228310 33.057717 -1.121706 2.917114 0.067662 -0.008289 175934.000000 0 0 1
2.613502 -5.459823 -31.671810 32.245055 -1.124351 2.952750 0.054249 -0.001087 143058.000000 0 0 1
2.897302 -4.198123 -32.570110 32.967114 -0.966717 2.986243 0.068004 -0.003101 -10412.500000 0 0 1
2.121802 -4.255123 -33.736310 34.069733 -1.108232 3.001575 0.073186 -0.013148 -343136.000000 0 0 1
2.526102 -3.416823 33.381185 33.650548 -0.934170 0.126613 0.087245 -0.000878 -23691.500000 0 0 1
1.796602 -3.565323 31.998385 32.246487 -1.104026 0.124128 0.094028 -0.004288 1434310.000000 0 0 1
0.432102 -3.081423 31.998185 32.149117 -1.431477 0.096937 0.080776 -0.017955 811091.000000 0 0 1
-0.228998 -3.380823 30.789585 30.975489 1.503165 0.109615 0.082075 -0.010837 -389785.000000 0 0 1
-1.737698 -3.548223 30.832985 31.085084 1.115392 0.127444 0.057994 -0.016146 -231033.000000 0 0 1
-2.514198 -2.360123 30.753785 30.946513 0.753799 0.111662 0.052113 -0.018657 379807.000000 0 0 1
-3.907698 -2.612223 30.614185 30.972926 0.589258 0.152347 0.036089 -0.015042 458044.000000 0 0 1
-4.729398 -1.518923 29.958885 30.367896 0.310760 0.164310 0.037916 -0.012158 -457655.000000 0 0 1
-4.488998 -1.498923 28.539485 28.929225 0.322270 0.164332 0.032424 -0.006961 -135559.000000 0 0 1
-5.409498 -0.819223 27.698985 28.234156 0.150299 0.195012 0.024675 -0.009450 181854.000000 0 0 1
-5.795198 0.706077 28.002585 28.604678 -0.121241 0.205539 0.037589 -0.011828 -364129.000000 0 0 1
-6.992298 0.826977 28.687785 29.539213 -0.117723 0.240679 0.032323 -0.011672 -661868.000000 0 0 1
-7.454098 2.228577 28.821885 29.853495 -0.290515 0.263654 0.042683 -0.014085 -858932.000000 0 0 1
-8.810098 2.345077 29.470085 30.848065 -0.260149 0.300022 0.048035 -0.014808 -996276.000000 0 0 1
-9.732398 1.800377 28.552385 30.219193 -0.182920 0.333682 0.027869 -0.000432 -80815.900000 0 0 1
-11.071598 2.032877 28.946985 31.058667 -0.181589 0.370877 0.022836 0.000672 126544.000000 0 0 1
-12.130898 1.151277 28.245385 30.761760 -0.094621 0.407289 0.023288 0.001421 9403.550000 0 0 1
-12.100898 -0.186523 28.690785 31.138845 0.015413 0.399174 0.028433 0.007076 -153957.000000 0 0 1
-12.549998 -0.954923 27.632685 30.364117 0.075943 0.427406 0.026865 0.014703 -1401060.000000 0 0 1
-12.111598 -2.470823 27.718285 30.349614 0.201243 0.419484 0.027633 0.015877 700939.000000 0 0 1
-10.702598 -2.689523 27.972785 30.070847 0.246198 0.375759 0.032394 0.007996 1420520.000000 0 0 1
-9.772598 -2.085223 27.092785 28.876821 0.210222 0.353349 0.035137 0.004527 -1022830.000000 0 0 1
-9.766698 -2.689023 25.689185 27.614370 0.268669 0.375612 0.020561 0.007285 -877566.000000 0 0 1
-10.819098 -2.250723 24.847885 27.194411 0.205107 0.418467 0.018254 0.002609 320054.000000 0 0 1
-10.849698 -2.867123 23.534485 26.073134 0.258353 0.444947 0.028832 -0.000459 -237818.000000 0 0 1
-9.690698 -2.511823 22.592685 24.711299 0.253618 0.417106 0.027841 -0.002278 -8145.490000 0 1 0
-8.386698 -2.859923 22.969385 24.619271 0.328641 0.368180 0.028116 -0.000597 -316280.000000 0 1 0
-7.438198 -2.264823 22.110785 23.438068 0.295567 0.338148 0.012750 -0.006073 -216407.000000 0 1 0
-5.966198 -2.355423 22.540385 23.435283 0.376011 0.277242 0.008940 -0.004494 -17911.900000 0 1 0
-5.342798 -3.607823 22.397985 23.307329 0.593934 0.280256 0.008002 -0.007711 -150656.000000 0 1 0
-5.706398 -4.503523 23.408585 24.511355 0.668124 0.301103 0.004439 0.003080 -374236.000000 0 1 0
-5.669598 -6.013223 23.013085 24.452101 0.814803 0.344781 0.023768 0.000169 -282109.000000 0 1 0
-6.562898 -6.574923 22.079385 23.954133 0.786313 0.398263 0.029341 -0.005883 -172749.000000 0 1 0
-6.268398 -6.161923 20.749185 22.534213 0.776833 0.400706 0.028670 -0.014056 -87401.400000 0 1 0
-7.486098 -6.121523 19.783085 22.020108 0.685452 0.454661 0.029184 -0.010478 -247393.000000 0 1 0
-8.403398 -5.161723 20.162985 22.445633 0.550826 0.454904 0.029728 -0.008866 -975323.000000 0 1 0
-9.266198 -4.936623 19.075585 21.774081 0.489508 0.503149 0.033778 -0.012384 -150264.000000 0 1 0
-9.788898 -3.521023 19.009385 21.669722 0.345286 0.500730 0.027046 -0.020141 154121.000000 0 1 0
-8.853198 -2.551723 18.563785 20.724491 0.280620 0.460700 0.021588 -0.021276 -59033.600000 0 1 0
-9.482098 -1.326523 18.615485 20.933373 0.138996 0.475043 0.019724 -0.016171 10889.800000 0 1 0
-8.448298 -0.228023 18.288685 20.147003 0.026984 0.432878 0.013171 -0.015263 150337.000000 0 1 0
-7.345398 -0.094123 19.159185 20.519213 0.012813 0.366131 0.019736 -0.007903 431177.000000 0 1 0
-7.655998 0.688877 20.333885 21.738347 -0.089737 0.361429 0.027848 -0.008043 -185743.000000 0 1 0
-7.621098 2.181477 20.128185 21.632933 -0.278787 0.375180 0.037503 -0.020014 -460733.000000 0 1 0
-8.579198 2.599577 19.189085 21.179741 -0.294215 0.437033 0.030895 -0.026573 47028.100000 0 1 0
-8.456798 4.050877 18.943585 21.137323 -0.446714 0.459634 0.038008 -0.025579 -52097.200000 0 1 0
-9.382398 4.548777 17.830385 20.655348 -0.451430 0.529156 0.038708 -0.016943 -854372.000000 0 1 0
-10.737598 4.534377 18.167385 21.584959 -0.399573 0.570430 0.036507 -0.009641 -582564.000000 0 1 0
-11.560298 5.048677 17.157385 21.295668 -0.411760 0.633982 0.036664 0.006662 -169520.000000 0 1 0
-11.706798 6.593277 17.041885 21.701296 -0.512922 0.667626 0.041997 0.010534 -992433.000000 0 1 0
-10.504098 7.203177 16.731685 21.027865 -0.601098 0.650649 0.042006 0.001699 -459459.000000 0 1 0
-10.706698 8.618777 16.615385 21.563574 -0.677776 0.691124 0.038978 -0.006360 124211.000000 0 1 0
-9.400598 9.435077 16.400685 21.127574 -0.787229 0.682070 0.032657 -0.009960 -22091.200000 0 1 0
-8.768798 9.573177 17.645985 21.907038 -0.829225 0.634288 0.043135 -0.002024 79071.500000 0 1 0
-7.731598 10.557577 17.752485 22.054268 -0.938702 0.635213 0.035665 -0.008007 347227.000000 0 1 0
-8.106798 12.044477 17.647885 22.852515 -0.978372 0.688419 0.023669 -0.002816 -493287.000000 0 1 0
-8.276698 12.513977 16.349285 22.190143 -0.986451 0.742499 0.020829 -0.013307 204415.000000 0 1 0
-9.067698 13.710277 16.216485 23.090457 -0.986463 0.792170 0.032149 -0.020237 -344755.000000 0 1 0
-8.881998 14.413377 14.885985 22.543910 -1.018526 0.849564 0.028151 -0.015128 997998.000000 0 1 0
-7.587798 14.981777 14.609585 22.259117 -1.101987 0.854837 0.030388 -0.010267 676329.000000 0 1 0
-7.585098 15.387477 13.258285 21.681565 -1.112813 0.912841 0.023540 -0.024499 -160966.000000 0 1 0
-6.597098 16.547377 13.038085 22.075530 -1.191429 0.938979 -0.000865 -0.013904 351515.000000 0 1 0
-5.239598 16.158877 13.210985 21.519591 -1.257238 0.909798 0.003372 -0.016509 -513559.000000 0 1 0
-4.481498 17.299977 13.271885 22.260188 -1.317322 0.932017 0.014643 -0.020779 221177.000000 0 1 0
-2.946598 17.058977 13.431785 21.911275 -1.399754 0.910934 0.017098 -0.018147 269052.000000 0 1 0
-2.325598 16.556077 14.584085 22.185753 -1.431241 0.853483 0.016931 -0.016416 -280849.000000 0 1 0
-2.549798 15.207777 14.985985 21.502504 -1.404677 0.799673 0.011107 -0.011251 -860197.000000 0 1 0
-1.563598 14.724777 15.967885 21.776989 -1.465005 0.747713 0.003970 -0.004977 37320.600000 0 1 0
-0.253398 14.288077 15.553385 21.121580 -1.553063 0.743101 -0.007551 -0.010151 563150.000000 0 1 0
0.444402 13.682977 16.616785 21.529953 1.538329 0.689132 -0.003557 0.006052 311927.000000 0 1 0
1.541302 14.563977 17.267485 22.641799 1.465359 0.703415 -0.000324 -0.003392 -278498.000000 0 1 0
0.964502 15.651677 17.885285 23.786313 1.509251 0.719834 -0.004984 -0.007697 -729208.000000 0 1 0
1.862602 16.618877 18.323085 24.807092 1.459185 0.739771 0.012363 -0.009690 -224536.000000 0 1 0
1.088802 17.876577 18.926385 26.056967 1.509965 0.757805 0.011276 -0.005583 744433.000000 0 0 1
0.457602 18.780277 18.041285 26.046039 1.546435 0.805613 0.011517 -0.002665 -444661.000000 0 0 1
-0.725998 18.309577 17.456885 25.308309 -1.531166 0.809627 0.015288 -0.006951 -668468.000000 0 0 1
-1.361598 19.393277 16.565385 25.541439 -1.500702 0.865093 0.012828 -0.000584 -158111.000000 0 0 1
-1.920998 20.478977 17.289385 26.870087 -1.477267 0.871808 0.012906 -0.004283 -159692.000000 0 0 1
-2.703398 21.248877 16.437585 27.000321 -1.444251 0.916259 0.028309 -0.012366 -1104240.000000 0 0 1
-3.389298 22.416877 17.121685 28.410488 -1.420739 0.923974 0.026279 -0.005580 -414468.000000 0 0 1
-4.428398 22.031177 18.009785 28.798191 -1.372434 0.895179 0.031882 -0.007858 65518.500000 0 0 1
-4.948798 23.250777 18.528985 30.139882 -1.361081 0.908707 0.031932 -0.011990 -494483.000000 0 0 1
-5.972698 22.936877 19.611685 30.763479 -1.316056 0.879549 0.034698 -0.018215 -858388.000000 0 0 1
-7.203298 22.560677 19.104485 30.427833 -1.261742 0.891993 0.032062 -0.017692 -559547.000000 0 0 1
-8.075398 21.908477 20.073385 30.791788 -1.217651 0.860700 0.025998 -0.015180 1599640.000000 0 0 1
-9.567498 22.241877 19.678085 31.200403 -1.164566 0.888342 0.025092 -0.016203 864523.000000 0 0 1
-10.102398 23.551777 19.842685 32.411060 -1.165590 0.911932 0.031664 -0.012516 442849.000000 0 0 1
-11.374198 23.600877 19.191485 32.475943 -1.121701 0.938567 0.021013 -0.013515 256312.000000 0 0 1
-11.932598 25.034277 19.163385 33.709602 -1.126002 0.966134 0.021463 -0.006100 -94347.000000 0 0 1
-12.633998 25.322777 20.364585 34.865130 -1.108014 0.947030 0.021771 -0.003849 220283.000000 0 0 1
-13.003998 26.685177 20.549285 36.103681 -1.117351 0.965295 0.028972 -0.000529 -169129.000000 0 0 1
-13.954998 26.933077 21.746085 37.323248 -1.092745 0.948821 0.038028 -0.007674 160773.000000 0 0 1
-15.276898 26.419777 21.612385 37.396302 -1.046533 0.954608 0.034386 -0.009046 393697.000000 0 0 1
-15.973898 26.733277 22.832085 38.615251 -1.032196 0.938162 0.032124 -0.005375 -761459.000000 0 0 1
-17.408898 26.261877 22.823785 38.906054 -0.985409 0.943895 0.052169 -0.005974 -831960.000000 0 0 1
-17.526498 24.854477 23.021285 38.143187 -0.956613 0.922851 0.059277 -0.010775 -579266.000000 0 0 1
-18.858398 24.445277 23.078185 38.546250 -0.913706 0.928902 0.080640 -0.010066 -468764.000000 0 0 1
27.288702 23.890977 23.208949 43.059347 0.719107 1.001548 0.063097 -0.020363 -194650.000000 0 0 1
27.269702 23.195577 24.435669 43.344819 0.704842 0.971877 0.076842 -0.028425 190000.000000 0 0 1
27.017202 21.842577 24.214459 42.348169 0.679884 0.962105 0.080278 -0.018296 -210079.000000 0 0 1
26.851802 21.008677 25.497219 42.573371 0.663913 0.928669 0.102389 -0.023498 118576.000000 0 0 1
25.544202 21.199777 25.997389 42.163978 0.692724 0.906407 0.087633 -0.021548 102577.000000 0 0 1
25.353302 20.504377 27.236389 42.485766 0.680051 0.874903 0.095011 -0.023489 -586964.000000 0 0 1
24.034302 20.975977 27.818109 42.325955 0.717555 0.853652 0.092818 -0.029733 -654201.000000 0 0 1
24.084202 22.291277 28.339619 43.359933 0.746756 0.858478 0.092000 -0.039072 548831.000000 0 0 1
22.895502 22.518077 29.105349 43.340387 0.777088 0.834494 0.121957 -0.043159 266906.000000 0 0 1
22.722702 23.955677 29.613979 44.352941 0.811806 0.839696 0.101499 -0.045621 -933927.000000 0 0 1
22.133902 24.880577 28.758679 44.000163 0.843754 0.858460 0.078606 -0.045176 -166225.000000 0 0 1
21.834402 26.018777 29.520949 45.002270 0.872618 0.855305 0.087531 -0.047897 11895.400000 0 0 1
20.442202 26.004977 30.227049 44.808670 0.904596 0.830400 0.103593 -0.041465 -527582.000000 0 0 1
19.396902 26.114077 29.231929 43.734317 0.931935 0.838743 0.103613 -0.047977 712615.000000 0 0 1
18.251402 26.780877 29.774409 44.009595 0.972589 0.827738 0.092492 -0.046383 229543.000000 0 0 1
17.288802 25.850577 30.507159 43.564226 0.981320 0.795007 0.094311 -0.025729 -858690.000000 0 0 1
17.692702 25.538277 31.845559 44.490167 0.964925 0.773043 0.084511 -0.033878 162581.000000 0 0 1
16.768202 24.601177 32.341562 43.958698 0.972525 0.744058 0.091887 -0.023802 225504.000000 0 0 1
17.240302 24.050477 33.713305 44.858003 0.948859 0.720379 0.107352 -0.018734 -45059.100000 0 0 1
17.348202 25.085377 -33.488255 45.295690 0.965753 2.402864 0.092505 -0.024424 91293.200000 0 0 1
17.515802 24.659077 -32.143025 44.136691 0.953179 2.386577 0.063218 -0.010758 176975.000000 0 0 1
18.027502 25.820577 -31.191935 44.324145 0.961291 2.351421 0.060992 0.001524 676184.000000 0 0 1
16.956502 26.771277 -30.964915 44.306323 1.006191 2.344630 0.067167 -0.009406 1036570.000000 0 0 1
17.406202 28.049377 -30.450635 44.910852 1.015399 2.315867 0.074500 -0.011464 362482.000000 0 0 1
16.772702 28.343577 -29.006875 43.887136 1.036455 2.292870 0.087226 -0.017222 173777.000000 0 0 1
17.345902 27.414177 -28.086235 42.909836 1.006654 2.284371 0.061986 -0.011464 394965.000000 0 0 1
16.970502 27.739977 -26.757745 42.112720 1.021767 2.259302 0.044658 -0.005352 -443772.000000 0 0 1
17.649702 26.926977 -25.609685 41.139155 0.990589 2.242747 0.037046 -0.004107 -257387.000000 0 0 1
18.990902 27.343277 -25.610775 42.002630 0.963747 2.226532 0.057209 0.000238 -879949.000000 0 0 1
19.661502 26.805177 -24.517615 41.306242 0.937941 2.206268 0.052501 -0.000885 526020.000000 0 0 1
21.219102 26.756577 -24.575915 42.073035 0.900312 2.194598 0.045005 0.000899 370074.000000 0 0 1
21.843102 26.131477 -23.515715 41.387970 0.874550 2.175086 0.045479 0.005941 -48463.900000 0 0 1
23.244002 26.173877 -23.777715 42.317079 0.844617 2.167470 0.046738 0.010980 1068870.000000 0 0 1
24.220202 26.059777 -22.544615 42.118759 0.821968 2.135615 0.060356 0.009874 513353.000000 0 0 1
23.997902 24.834877 -21.937515 40.913628 0.802536 2.136714 0.067248 0.004445 132954.000000 0 0 1
24.385302 24.943077 -20.583915 40.503057 0.796705 2.103897 0.049353 0.008975 -189006.000000 0 0 1
23.908202 23.740177 -19.789215 39.074431 0.781872 2.101858 0.044348 0.000628 -725126.000000 0 0 1
24.619702 22.549077 -19.965515 38.900031 0.741528 2.109766 0.048773 0.007010 153010.000000 0 0 1
24.343302 21.644577 -18.851615 37.635986 0.726782 2.095427 0.065597 0.002206 -727325.000000 0 0 1
24.357802 20.087577 -19.152415 36.927338 0.689614 2.116069 0.084072 0.002280 356925.000000 0 0 1
23.326602 19.516877 -19.947715 36.372382 0.696710 2.151282 0.066891 -0.001266 1311980.000000 0 0 1
21.943902 19.716477 -19.562015 35.396988 0.731983 2.156333 0.064786 -0.009614 1149810.000000 0 0 1
20.966802 19.589577 -20.769915 35.422418 0.751453 2.197341 0.076544 -0.007100 167251.000000 0 0 1
21.216202 20.437277 -21.924115 36.721606 0.766700 2.210597 0.072041 -0.001718 -183954.000000 0 0 1
21.364802 21.857077 -21.761615 37.520054 0.796787 2.189524 0.057839 0.006227 -76636.000000 0 0 1
20.956502 22.606777 -23.043815 38.487125 0.823262 2.212724 0.059450 0.003480 -199170.000000 0 0 1
19.574002 22.552177 -23.226715 37.831502 0.855977 2.231854 0.086453 -0.001796 -772126.000000 0 0 1
19.131502 22.990977 -24.507015 38.667728 0.876768 2.257233 0.069622 -0.005103 -162102.000000 0 0 1
17.639802 22.746577 -24.743915 37.958276 0.911179 2.280846 0.062352 -0.013247 -129589.000000 0 0 1
16.809802 23.603477 -23.952915 37.595688 0.951946 2.261551 0.054215 -0.011255 321094.000000 0 0 1
15.482602 23.596277 -24.464915 37.350065 0.990113 2.285001 0.059755 -0.017099 214824.000000 0 0 1
14.527302 24.543377 -23.721715 37.096356 1.036352 2.264595 0.049074 -0.011969 -140084.000000 0 0 1
14.796502 25.923077 -23.940015 38.263125 1.052136 2.246784 0.032328 -0.011200 197143.000000 0 0 1
13.740202 26.697377 -23.404315 38.069740 1.095486 2.232897 0.053522 -0.015848 185886.000000 0 0 1
13.895902 28.179877 -23.818815 39.427624 1.112672 2.219451 0.049397 -0.022871 114677.000000 0 0 1
13.684802 28.233777 -25.210565 40.249131 1.119467 2.247675 0.056210 -0.037407 -230983.000000 0 0 1
13.118202 29.438477 -25.715355 41.230943 1.151596 2.244252 0.091796 -0.045362 -255857.000000 0 0 1
14.017302 30.664377 -25.859445 42.491172 1.142037 2.225071 0.114036 -0.042841 -427124.000000 0 0 1
15.019002 30.630777 -26.828035 43.399982 1.114920 2.237193 0.080916 -0.028782 -237991.000000 0 0 1
15.740102 31.832877 -26.877815 44.536500 1.111590 2.218681 0.086244 -0.030304 -400532.000000 0 0 1
17.184102 31.838077 -27.367945 45.364754 1.075869 2.218412 0.066406 -0.009682 -611941.000000 0 0 1
18.041002 31.040577 -26.620105 44.694800 1.044310 2.208805 0.023956 -0.003538 -1039340.000000 0 0 1
19.306102 31.044277 -27.175735 45.552094 1.014437 2.210037 0.040329 0.001918 -475278.000000 0 0 1
20.357502 30.200877 -26.309355 44.929979 0.977686 2.196371 0.023404 0.013304 569990.000000 0 0 1
20.902402 30.772777 -25.130195 44.893217 0.974133 2.164913 0.032323 0.008029 160995.000000 0 0 1
21.742802 31.909177 -25.269815 46.146599 0.972665 2.150288 0.032913 -0.001305 -250801.000000 0 0 1
23.262502 31.740877 -25.437465 46.858211 0.938337 2.144636 0.018365 0.005964 -141006.000000 0 0 1
23.574702 31.082077 -26.646945 47.243219 0.921899 2.170063 0.021632 0.009397 225533.000000 0 0 1
24.707702 31.602577 -27.330685 48.540290 0.907236 2.168870 0.003509 0.022847 -536333.000000 0 0 1
24.817902 31.250477 -28.821145 49.225796 0.899626 2.196279 0.016916 0.016912 -604287.000000 0 0 1
23.877302 31.737077 -29.718905 49.604243 0.925795 2.213198 0.033740 0.002339 60991.700000 0 0 1
22.624202 31.048077 -29.577995 48.483971 0.941078 2.226929 0.029261 -0.003915 -280270.000000 0 0 1
21.502602 31.676777 -30.401705 48.888074 0.974432 2.241916 0.029231 -0.005664 -878821.000000 0 0 1
21.091902 32.932877 -29.860375 49.204519 1.001163 2.222903 0.049833 -0.001468 293258.000000 0 0 1
20.392302 33.700377 -30.867905 50.043870 1.026631 2.235489 0.062143 -0.014149 703393.000000 0 0 1
18.827002 33.600577 -30.779495 49.303470 1.060066 2.245014 0.055035 -0.022127 757312.000000 0 0 1
18.204702 32.289777 -31.054895 48.357496 1.057426 2.268153 0.091806 -0.029700 587128.000000 0 0 1
18.484702 31.649777 -32.367805 48.898542 1.042196 2.294198 0.098860 -0.033416 -604514.000000 0 0 1
17.794202 32.189577 -33.637565 49.842635 1.065811 2.311592 0.118895 -0.044599 -483421.000000 0 0 1
18.234702 33.462477 -33.957405 51.042601 1.071854 2.298659 0.100996 -0.037116 421052.000000 0 0 1
17.672202 33.985477 32.917942 50.506537 1.091283 0.860899 0.086396 -0.038838 1264080.000000 0 0 1
16.146402 -33.857194 32.819747 49.841265 -1.125801 0.851992 0.102085 -0.036978 793737.000000 0 0 1
15.257202 33.248777 32.725699 49.083956 1.140582 0.840985 0.109969 -0.035111 1247260.000000 0 0 1
13.847402 33.521577 32.841824 48.928847 1.179057 0.834948 0.087543 -0.036282 1118010.000000 0 0 1
13.227002 34.087577 31.573199 48.309247 1.200651 0.858512 0.077781 -0.035955 -1197700.000000 0 0 1
13.633202 -32.838194 31.295459 47.366834 -1.177287 0.849040 0.098565 -0.026897 -32481.100000 0 0 1
13.049802 -32.405794 30.144419 46.142376 -1.187965 0.858873 0.090219 -0.029524 -403363.000000 0 0 1
13.527802 -30.966594 29.748399 45.021091 -1.158930 0.848958 0.084539 -0.028645 -37314.500000 0 0 1
13.286802 -29.982194 30.766129 44.966941 -1.153648 0.817298 0.072643 -0.024287 290181.000000 0 0 1
13.582402 -28.725594 30.274139 43.888095 -1.129118 0.809579 0.088215 -0.033248 -587395.000000 0 0 1
13.315702 -27.674294 31.343299 43.881395 -1.122336 0.775211 0.075757 -0.030037 370949.000000 0 0 1
11.985902 -27.173694 31.388209 43.212165 -1.155381 0.757764 0.056708 -0.032307 414512.000000 0 0 1
11.435302 -26.410194 30.291069 41.782931 -1.162179 0.759816 0.039615 -0.029578 -382721.000000 0 0 1
11.630202 -24.877294 30.575609 41.097557 -1.133483 0.731795 0.030754 -0.025500 -21985.200000 0 0 1
10.843602 -24.545894 31.687949 41.523617 -1.154809 0.702652 0.043918 -0.031016 97838.300000 0 0 1
11.330502 -23.367094 32.213920 41.377989 -1.119309 0.678479 0.037056 -0.025358 369973.000000 0 0 1
10.459202 -22.945994 33.459605 41.898195 -1.143115 0.645842 0.052397 -0.025103 66887.800000 0 0 1
10.596502 -23.713894 -33.484655 42.377550 -1.150567 2.481851 0.057962 -0.026347 945926.000000 0 0 1
11.936402 -23.823694 -32.962125 42.385703 -1.106325 2.461749 0.050936 -0.025707 915087.000000 0 0 1
12.438302 -22.597094 -32.176695 41.239298 -1.067617 2.465851 0.055887 -0.028676 -355319.000000 0 0 1
12.785502 -21.450094 -32.931395 41.328591 -1.033280 2.492808 0.037441 -0.017094 218807.000000 0 0 1
13.702902 -20.657494 -32.189725 40.628561 -0.985102 2.485354 0.042387 -0.023411 -169257.000000 0 0 1
14.201802 -19.468494 -33.020705 40.878851 -0.940560 2.511156 0.029150 -0.017912 -532250.000000 0 0 1
14.842902 -19.842294 33.898568 41.989776 -0.928548 0.631225 0.048794 -0.011309 303999.000000 0 0 1
14.513902 -19.005594 32.787957 40.582214 -0.918607 0.630150 0.020586 -0.005443 92396.600000 0 0 1
15.352702 -17.673394 32.642298 40.169316 -0.855551 0.622167 0.040073 -0.010605 -239087.000000 0 0 1
14.981302 -16.704094 33.600519 40.403726 -0.839716 0.588779 0.030990 -0.007795 458903.000000 0 0 1
15.643302 -15.452394 33.362933 39.957160 -0.779259 0.582722 0.055015 -0.018170 1078780.000000 0 0 1
17.142002 -15.404294 33.860833 40.959694 -0.732057 0.597603 0.065008 -0.011845 1244910.000000 0 0 1
18.118602 -16.036994 32.988039 40.910630 -0.724529 0.632852 0.073840 -0.013871 998820.000000 0 0 1
19.442102 -15.772294 33.457530 41.787162 -0.681560 0.642391 0.104687 -0.015162 630336.000000 0 0 1
20.568302 -16.457194 32.638519 41.942427 -0.674817 0.679043 0.121503 -0.029538 -123455.000000 0 0 1
20.772902 -15.779094 31.398559 40.821107 -0.649617 0.693248 0.103498 -0.017775 322026.000000 0 0 1
21.537302 -16.517394 30.463649 40.800902 -0.654242 0.727797 0.097138 -0.021814 -267372.000000 0 0 1
21.801802 -15.834294 29.074479 39.640494 -0.628149 0.747407 0.086944 -0.009751 173784.000000 0 0 1
22.640502 -14.670894 29.186109 39.744892 -0.574963 0.746108 0.071090 -0.010381 696638.000000 0 0 1
22.673702 -14.038394 27.874689 38.576827 -0.554381 0.763275 0.054658 -0.008807 -73101.400000 0 0 1
23.289802 -12.619194 27.893529 38.466971 -0.496552 0.759574 0.049568 0.004588 -311292.000000 0 0 1
22.492802 -11.622794 28.438119 38.075479 -0.476945 0.727427 0.054397 -0.003599 3451.820000 0 0 1
23.232502 -10.424594 28.692439 38.362447 -0.421778 0.725858 0.056279 -0.010672 256997.000000 0 0 1
22.337602 -9.186094 28.886509 37.653462 -0.390158 0.696383 0.056676 -0.015391 550802.000000 0 0 1
21.315302 -9.340194 29.885129 37.877464 -0.412991 0.661625 0.060191 -0.021611 295482.000000 0 0 1
20.352402 -8.320094 29.787509 37.023505 -0.388071 0.635868 0.047000 -0.019897 312106.000000 0 0 1
19.087202 -8.370894 30.683169 37.092452 -0.413300 0.596676 0.038492 -0.009509 -33086.000000 0 0 1
19.227602 -7.888494 31.973599 38.134499 -0.389328 0.576377 0.045327 -0.012621 401750.000000 0 0 1
19.998602 -8.701494 32.888851 39.463104 -0.410399 0.585551 0.047827 -0.014661 -230605.000000 0 0 1
20.103602 -8.126294 -33.836385 40.188213 -0.384140 2.571680 0.050544 -0.018144 -474813.000000 0 0 1
18.920602 -8.009294 -33.095755 38.954679 -0.400439 2.586016 0.043992 -0.019469 -450747.000000 0 0 1
19.076802 -7.448394 -31.832795 37.851417 -0.372240 2.569913 0.043840 -0.021200 -538333.000000 0 0 1
17.794202 -7.075694 -31.096215 36.519497 -0.378471 2.589629 0.043645 -0.015870 -457201.000000 0 0 1
17.998902 -6.230294 -30.005155 35.539927 -0.333240 2.575991 0.043812 -0.013168 247130.000000 0 0 1
16.800302 -5.775894 -29.401475 34.351970 -0.331138 2.598064 0.052934 -0.004636 148464.000000 0 0 1
17.085102 -4.712894 -28.291675 33.384592 -0.269155 2.581954 0.042414 -0.002581 -228651.000000 0 0 1
17.754702 -5.028594 -27.072265 32.763146 -0.275998 2.543307 0.039264 -0.006874 13044.300000 0 0 1
17.229402 -6.049294 -26.255645 31.981325 -0.337657 2.533901 0.058902 -0.005483 232025.000000 0 0 1
15.787202 -5.828294 -25.701045 30.720490 -0.353657 2.561860 0.052702 -0.000112 527228.000000 0 0 1
15.740902 -4.729494 -24.859615 29.801755 -0.291878 2.557415 0.034189 0.007008 -344763.000000 0 0 1
14.386402 -4.541194 -24.524615 28.793189 -0.305760 2.590114 0.041974 -0.008050 -125795.000000 0 0 1
14.205002 -3.315494 -23.639815 27.777967 -0.229298 2.588735 0.045671 -0.012559 -23805.400000 0 0 1
14.394302 -2.071694 -24.237915 28.265958 -0.142943 2.601177 0.028579 -0.019981 104142.000000 0 0 1
14.121902 -1.022694 -23.316515 27.278818 -0.072293 2.595861 0.044503 -0.027521 -157890.000000 0 0 1
14.545802 0.365306 -23.860515 27.947057 0.025109 2.593991 0.026422 -0.028592 -705753.000000 0 0 1
13.716902 0.913306 -24.847315 28.396771 0.066484 2.636242 0.037114 -0.025386 9916.630000 0 0 1
14.237802 2.124306 -25.377935 29.176485 0.148109 2.625609 0.033912 -0.013194 -96250.100000 0 0 1
13.446502 2.660306 -26.600575 29.924509 0.195321 2.665784 0.035676 -0.010068 -257268.000000 0 0 1
12.180802 3.161306 -26.250815 29.111357 0.253929 2.694570 0.046664 -0.020845 -224751.000000 0 0 1
11.693402 3.734306 -27.449195 30.068904 0.309115 2.721072 0.051042 -0.013429 891326.000000 0 0 1
10.346602 4.576306 -27.321435 29.571195 0.416432 2.749001 0.066455 -0.012157 1031590.000000 0 0 1
10.505602 5.829306 -26.739035 29.314237 0.506579 2.719300 0.056035 -0.027593 -100596.000000 0 0 1
9.310002 6.549306 -26.885525 29.195907 0.613051 2.741093 0.070486 -0.034003 -84336.800000 0 0 1
8.354402 5.246777 -30.943235 32.477816 0.560772 2.832960 0.065707 -0.017836 40724.300000 0 0 1
8.374702 4.253577 -29.907505 31.347846 0.469954 2.837279 0.053849 0.000439 119753.000000 0 0 1
8.489402 2.965677 -30.462285 31.761864 0.336086 2.854544 0.047445 0.002384 -59827.600000 0 0 1
8.300602 1.774977 -29.485285 30.682773 0.210664 2.861291 0.050845 0.003464 -732191.000000 0 0 1
9.410502 1.572177 -28.692225 30.236949 0.165537 2.820568 0.059132 -0.004175 -184243.000000 0 0 1
9.144502 0.513177 -27.814985 29.284103 0.056060 2.823495 0.055262 -0.009456 -75091.200000 0 0 1
10.415402 0.249377 -26.985595 28.926893 0.023939 2.773150 0.057125 -0.022254 -160459.000000 0 0 1
11.272302 -0.558723 -27.739425 29.947499 -0.049525 2.755184 0.059693 -0.015138 -308090.000000 0 0 1
12.378602 -1.020623 -26.997705 29.717798 -0.082264 2.710403 0.053069 -0.020850 27053.600000 0 0 1
13.005802 -2.347923 -27.457525 30.472599 -0.178605 2.692995 0.051893 -0.014018 -166894.000000 0 0 1
12.084802 -3.406623 -27.397745 30.137750 -0.274763 2.711876 0.070604 -0.009813 -124337.000000 0 0 1
12.528902 -4.611323 -27.928085 30.955058 -0.352668 2.695672 0.061358 -0.004427 -144706.000000 0 0 1
11.624702 -5.724023 -27.358685 30.272030 -0.457551 2.699273 0.048196 -0.006442 57419.000000 0 0 1
11.787802 -5.872023 -25.967385 29.115941 -0.462162 2.672240 0.057439 -0.007811 -168715.000000 0 0 1
11.059102 -6.937323 -25.446055 28.599509 -0.560248 2.667566 0.060737 -0.010614 -324255.000000 0 0 1
10.890102 -6.784223 -23.872715 27.102150 -0.557139 2.648434 0.059681 -0.011055 -557716.000000 0 0 1
12.017602 -6.705023 -23.067515 26.860572 -0.508914 2.603694 0.041385 -0.004721 -582486.000000 0 0 1
11.661802 -6.667923 -21.697415 25.519339 -0.519407 2.587226 0.043875 -0.013156 547921.000000 0 0 1
12.953802 -6.465223 -20.849415 25.383030 -0.462926 2.534643 0.052567 -0.018867 549465.000000 0 0 1
13.437602 -5.170323 -20.707415 25.220992 -0.367304 2.534025 0.048935 -0.025833 -346138.000000 0 0 1
14.445402 -5.188923 -19.728415 24.996098 -0.344855 2.480399 0.054945 -0.023394 -159765.000000 0 1 0
15.041702 -3.819523 -19.397715 24.841757 -0.248673 2.466823 0.068495 -0.024471 13869.300000 0 1 0
15.842602 -3.169223 -20.397315 26.020809 -0.197438 2.471694 0.062823 -0.017780 744929.000000 0 0 1
16.336002 -1.870523 -19.928815 25.836437 -0.114007 2.451749 0.064857 -0.015104 395201.000000 0 0 1
17.531302 -1.319823 -20.739315 27.188374 -0.075142 2.438430 0.039691 -0.009751 882492.000000 0 0 1
18.797502 -1.999323 -20.672215 28.012209 -0.105963 2.400856 0.052308 -0.015040 690971.000000 0 0 1
19.621802 -1.482123 -21.694015 29.288942 -0.075391 2.404893 0.054011 -0.013885 1231100.000000 0 0 1
21.078002 -2.142023 -21.729715 30.348821 -0.101276 2.368850 0.051186 -0.011616 185688.000000 0 0 1
21.882302 -1.744323 -20.699715 30.172106 -0.079546 2.326849 0.053877 -0.013536 515201.000000 0 0 1
23.233302 -2.232723 -20.680815 31.184411 -0.095806 2.295853 0.046542 -0.010872 1335160.000000 0 0 1
24.225102 -1.722923 -21.778815 32.621171 -0.071002 2.301815 0.042922 -0.008089 -797372.000000 0 0 1
23.987802 -2.271823 -23.069415 33.358263 -0.094426 2.334450 0.046206 -0.008063 71404.600000 0 0 1
24.633002 -1.467323 -24.031015 34.444557 -0.059497 2.342940 0.043689 -0.003120 161169.000000 0 0 1
26.067502 -1.922923 -24.387815 35.748816 -0.073634 2.321563 0.040862 -0.013715 -345124.000000 0 0 1
27.067202 -1.946623 -23.379715 35.819462 -0.071795 2.281952 0.035571 -0.008232 795314.000000 0 0 1
28.241602 -2.690523 -23.717815 36.977855 -0.094981 2.267126 0.021330 -0.005518 478460.000000 0 0 1
29.284102 -2.007923 -24.601215 38.298958 -0.068460 2.268353 0.024629 -0.013702 -1309670.000000 0 0 1
28.935802 -1.897123 -25.947595 38.912176 -0.065469 2.300736 0.041012 -0.012308 32228.800000 0 0 1
29.494202 -0.846523 -26.700765 39.793912 -0.028693 2.306321 0.038409 -0.014346 -1527620.000000 0 0 1
28.856202 -0.716723 -28.063835 40.258824 -0.024833 2.342121 0.046368 -0.022440 1368070.000000 0 0 1
27.454002 -0.326223 -27.890215 39.136846 -0.011882 2.364041 0.040466 -0.011968 1453330.000000 0 0 1
27.216702 1.013677 -27.500665 38.704819 0.037227 2.361038 0.030391 -0.009552 -77853.900000 0 0 1
25.760802 1.570477 -27.779435 37.918100 0.060888 2.392955 0.033380 -0.013541 1614080.000000 0 0 1
24.793102 0.994577 -26.846975 36.557450 0.040094 2.395546 0.033176 -0.015059 364759.000000 0 0 1
23.484802 1.320077 -27.214415 35.970862 0.056151 2.428846 0.029167 -0.014138 -90139.900000 0 0 1
22.410302 1.091377 -26.110265 34.426134 0.048661 2.431717 0.041059 -0.014554 139414.000000 0 0 1
22.518602 1.985677 -25.010045 33.712501 0.087952 2.406640 0.048100 -0.015962 479293.000000 0 0 1
21.501302 1.728177 -24.054215 32.309408 0.080203 2.410575 0.049208 -0.020284 -12439.900000 0 0 1
21.789002 2.291177 -22.656115 31.516815 0.104768 2.372954 0.051987 -0.017086 -314933.000000 0 0 1
21.763502 3.722477 -22.620515 31.610039 0.169403 2.368296 0.055905 -0.023870 409714.000000 0 0 1
22.037702 4.173577 -21.343715 30.961803 0.187167 2.331397 0.057108 -0.021537 -166126.000000 0 0 1
21.497102 5.634577 -21.084515 30.633815 0.256342 2.329906 0.067628 -0.020113 54.398900 0 0 1
22.355902 6.571777 -21.668715 31.819928 0.285908 2.319896 0.056269 -0.016955 149435.000000 0 0 1
22.033302 7.880377 -21.192415 31.570321 0.343480 2.306726 0.052232 -0.021482 -354225.000000 0 0 1
22.310902 8.284377 -19.664215 30.872133 0.355536 2.261341 0.059495 -0.018343 -386036.000000 0 0 1
23.680602 8.237377 -19.350415 31.671183 0.334761 2.228092 0.055466 -0.013772 60619.000000 0 0 1
23.994202 8.483477 -17.956815 31.147044 0.339846 2.185256 0.079480 -0.026478 36677.200000 0 0 1
23.737702 9.908677 -17.346615 31.025239 0.395436 2.164112 0.089333 -0.032330 266081.000000 0 0 1
22.366002 10.228877 -17.141315 29.978203 0.428941 2.179486 0.088920 -0.039486 365885.000000 0 0 1
22.153202 11.586577 -16.703515 30.066934 0.481894 2.159814 0.072607 -0.027295 429373.000000 0 0 1
20.631202 11.926377 -16.628715 29.058547 0.524142 2.180042 0.065534 -0.030958 806490.000000 0 0 1
19.820602 11.757877 -17.778815 29.106532 0.535416 2.227891 0.064900 -0.037335 244203.000000 0 0 1
19.154502 10.526877 -17.846415 28.217098 0.502519 2.255532 0.064465 -0.041460 -61669.100000 0 0 1
18.410802 10.370277 -19.207715 28.555851 0.512975 2.308563 0.074013 -0.029592 1161680.000000 0 0 1
19.371402 10.095877 -20.273615 29.802641 0.480443 2.318917 0.090244 -0.028895 1455080.000000 0 0 1
18.570502 9.744877 -21.415915 29.974449 0.483251 2.366666 0.066811 -0.034770 250368.000000 0 0 1
19.265602 9.869877 -22.794215 31.434919 0.473444 2.382011 0.081846 -0.037449 -281293.000000 0 0 1
19.320202 11.212577 -23.255015 32.245741 0.525849 2.376302 0.082663 -0.035332 172701.000000 0 0 1
20.168002 11.351477 -24.370615 33.608499 0.512652 2.382023 0.079279 -0.035205 -46024.700000 0 0 1
20.450602 12.856577 -24.602015 34.478658 0.561230 2.365339 0.091550 -0.029400 -95563.600000 0 0 1
21.302702 13.220577 -25.659145 35.874510 0.555433 2.367774 0.089246 -0.028245 80910.800000 0 0 1
21.267502 14.641677 -25.898025 36.570385 0.602934 2.357698 0.100522 -0.024046 -475283.000000 0 0 1
20.112902 15.191377 -26.745575 36.750953 0.646888 2.385835 0.081500 -0.020608 -598147.000000 0 0 1
18.918102 15.101377 -26.035555 35.549913 0.673673 2.392587 0.078801 -0.020736 -890044.000000 0 0 1
17.841102 15.514177 -26.847715 35.774215 0.715749 2.419579 0.066948 -0.024970 567751.000000 0 0 1
16.428902 15.180377 -26.261015 34.496284 0.745920 2.436067 0.062634 -0.026984 522224.000000 0 0 1
16.249802 13.764777 -26.171495 33.741255 0.702793 2.458545 0.054398 -0.025820 682294.000000 0 0 1
14.873502 13.364577 -26.106285 32.884208 0.732013 2.487968 0.043878 -0.028367 626076.000000 0 0 1
14.783002 11.842877 -25.824075 32.026142 0.675420 2.508740 0.038598 -0.033975 556054.000000 0 0 1
13.436802 11.359277 -25.873135 31.288975 0.701809 2.544385 0.041061 -0.036647 523580.000000 0 0 1
13.358502 10.050377 -25.321615 30.342114 0.645009 2.558088 0.048409 -0.034441 -496102.000000 0 0 1
12.000302 9.385877 -25.090035 29.353225 0.663753 2.595889 0.070594 -0.051442 -311847.000000 0 0 1
11.198002 10.071877 -24.159415 28.469550 0.732503 2.584140 0.080053 -0.049766 197763.000000 0 0 1
9.996802 9.361577 -23.896815 27.543292 0.752596 2.621170 0.083945 -0.049234 139941.000000 0 0 1
9.034602 9.852077 -22.819215 26.446248 0.828654 2.611683 0.065593 -0.045417 -217529.000000 0 0 1
8.447402 11.091177 -23.151015 27.024846 0.919892 2.599550 0.059437 -0.040054 -281022.000000 0 0 1
7.664902 11.635777 -22.135115 26.155408 0.988305 2.579782 0.050913 -0.022877 -289165.000000 0 0 1
8.376702 12.605977 -21.204015 26.051681 0.984294 2.521666 0.049745 -0.024300 198339.000000 0 0 1
9.272902 11.885077 -20.351815 25.326629 0.908237 2.504072 0.056325 -0.037765 196830.000000 0 0 1
10.101902 12.722877 -19.528315 25.402266 0.899728 2.447701 0.063850 -0.034791 315334.000000 0 0 1
11.244402 11.931877 -18.812115 24.953997 0.815052 2.424732 0.073043 -0.043048 569980.000000 0 1 0
12.327002 11.391977 -19.589415 25.796847 0.745998 2.433144 0.083281 -0.042829 705412.000000 0 0 1
11.886902 10.365777 -20.508415 25.871662 0.717147 2.486018 0.088388 -0.044773 -719453.000000 0 0 1
12.961902 9.778477 -21.465715 26.914800 0.646312 2.494008 0.073453 -0.040663 475841.000000 0 0 1
13.805502 8.849377 -20.743115 26.442016 0.570025 2.472646 0.095855 -0.050341 275191.000000 0 0 1
14.962302 8.466177 -21.431715 27.474808 0.514918 2.465542 0.089751 -0.051608 -401841.000000 0 0 1
15.608402 7.191577 -20.898415 27.057065 0.431758 2.453381 0.113030 -0.049290 -122253.000000 0 0 1
16.364402 7.412377 -19.722915 26.678275 0.425311 2.402808 0.078755 -0.042235 977.627000 0 0 1
16.562302 6.142177 -19.135215 26.042132 0.355130 2.396137 0.067559 -0.043287 -34473.500000 0 0 1
17.511802 6.194477 -17.908515 25.802125 0.339995 2.337925 0.063660 -0.036408 -435733.000000 0 0 1
18.853702 6.486077 -18.247915 27.028091 0.331339 2.311959 0.068957 -0.046776 -177468.000000 0 0 1
19.588902 6.642177 -17.072115 26.819782 0.326912 2.260812 0.070046 -0.053324 -237396.000000 0 0 1
20.204202 5.380877 -16.426115 26.589112 0.260283 2.236708 0.076927 -0.054543 -713550.000000 0 0 1
21.518302 5.115377 -16.866515 27.815171 0.233390 2.222294 0.069666 -0.045521 27692.500000 0 0 1
22.095902 4.102177 -16.085715 27.637058 0.183563 2.192024 0.091610 -0.050352 1799640.000000 0 0 1
23.575902 3.731577 -16.632615 29.092812 0.156977 2.179383 0.061161 -0.015364 1811050.000000 0 0 1
24.193402 2.775477 -15.796515 29.026778 0.114221 2.146237 0.065535 -0.019483 322100.000000 0 0 1
25.537402 2.542477 -16.211415 30.355116 0.099232 2.134190 0.061489 -0.018962 327283.000000 0 0 1
26.273702 1.540477 -15.356815 30.471499 0.058565 2.098989 0.084614 -0.030567 -317247.000000 0 0 1
25.781202 0.252577 -15.528715 30.097760 0.009797 2.112904 0.095420 -0.024706 -242744.000000 0 0 1
26.820702 -0.657723 -15.615515 31.042341 -0.024518 2.097908 0.083356 -0.017472 -281746.000000 0 0 1
26.246402 -2.060323 -15.949915 30.781786 -0.078339 2.115495 0.065109 -0.021164 -46712.300000 0 0 1
25.640002 -2.695523 -14.869515 29.762023 -0.104745 2.093949 0.070737 -0.018567 347371.000000 0 0 1
25.236602 -4.021923 -15.251915 29.760424 -0.158040 2.108878 0.064278 -0.014298 -605172.000000 0 0 1
24.675602 -4.924723 -14.062315 28.825109 -0.196990 2.080421 0.062240 -0.017728 372860.000000 0 0 1
23.363802 -4.720223 -13.571515 27.428703 -0.199348 2.088392 0.072803 -0.006801 169623.000000 0 0 1
22.392202 -5.233623 -14.471915 27.170533 -0.229604 2.132505 0.079501 -0.004675 -363328.000000 0 0 1
20.960102 -5.144023 -13.888415 25.664663 -0.240663 2.142600 0.094719 -0.014955 -172883.000000 0 0 1
20.845702 -6.138823 -12.891015 25.266711 -0.286393 2.106211 0.103386 -0.018727 357429.000000 0 0 1
20.746902 -5.707023 -11.555515 24.424045 -0.268439 2.063626 0.108276 -0.016404 -362972.000000 0 1 0
20.569402 -6.848823 -10.572415 24.120171 -0.321416 2.024528 0.102936 -0.018982 -280427.000000 0 1 0
19.315102 -7.484123 -10.570415 23.255514 -0.369663 2.042645 0.097927 -0.015003 245192.000000 0 1 0
19.152602 -8.434323 -11.629515 23.941712 -0.414821 2.078009 0.097332 -0.021246 730143.000000 0 1 0
17.713602 -9.115923 -11.562915 23.034165 -0.475282 2.096694 0.100728 -0.019012 908578.000000 0 1 0
16.689502 -8.237123 -11.928215 22.105926 -0.458475 2.140751 0.091776 -0.014597 -879047.000000 0 1 0
15.492802 -8.944223 -12.097515 21.595738 -0.523572 2.165400 0.083131 -0.012483 -62647.200000 0 1 0
14.304902 -7.958123 -12.369415 20.517416 -0.507684 2.217895 0.054558 -0.009336 11111.000000 0 1 0
14.384402 -7.145323 -13.577115 21.031042 -0.461037 2.272572 0.056642 -0.012141 761459.000000 0 1 0
15.474902 -6.215023 -13.682415 21.570989 -0.381902 2.257895 0.065287 -0.012496 296560.000000 0 1 0
15.124102 -5.072023 -14.635815 21.648810 -0.323574 2.313194 0.044544 -0.017890 -33111.700000 0 1 0
14.142102 -4.181423 -14.147315 20.435995 -0.287481 2.335432 0.052747 -0.023441 193611.000000 0 1 0
13.691402 -3.154323 -15.024615 20.570447 -0.226436 2.389701 0.037755 -0.030117 526101.000000 0 1 0
14.763402 -2.059123 -15.481715 21.491429 -0.138581 2.375128 0.058058 -0.024665 -332500.000000 0 1 0
15.748802 -2.501023 -16.382115 22.861618 -0.157492 2.369679 0.051471 -0.021324 575920.000000 0 1 0
16.937802 -1.697523 -16.355415 23.606574 -0.099887 2.336207 0.056783 -0.019419 1100670.000000 0 1 0
17.917502 -2.129223 -15.178515 23.578757 -0.118280 2.270168 0.072977 -0.021710 -497536.000000 0 1 0
17.497802 -1.773523 -13.868815 22.397823 -0.101012 2.238525 0.059608 -0.010837 -58066.800000 0 1 0
18.378202 -2.359123 -12.932515 22.595878 -0.127667 2.180152 0.055879 -0.005910 -199566.000000 0 1 0
17.883802 -2.399223 -11.515515 21.405460 -0.133360 2.138825 0.052349 -0.002681 -601745.000000 0 1 0
17.857402 -1.237323 -10.772615 20.891793 -0.069179 2.112549 0.056642 -0.006527 728422.000000 0 1 0
17.695302 -1.553523 -9.412715 20.103143 -0.087568 2.058073 0.063944 -0.007172 -802154.000000 0 1 0
17.844102 -0.376823 -8.519315 19.777075 -0.021114 2.016139 0.066612 -0.009501 979984.000000 0 1 0
19.153602 0.094377 -8.088015 20.791473 0.004927 1.970349 0.079697 -0.008188 1944320.000000 0 1 0
20.052502 0.689077 -9.033315 22.004055 0.034350 1.993831 0.083325 -0.003781 -18744.900000 0 1 0
19.689902 2.026277 -9.708815 22.046749 0.102548 2.026812 0.081627 -0.007380 -546656.000000 0 1 0
19.613802 3.053077 -8.741115 21.689389 0.154420 1.985603 0.075050 -0.007163 518502.000000 0 1 0
18.674902 4.016877 -9.151015 21.180848 0.211867 2.017552 0.048677 -0.019374 -743771.000000 0 1 0
18.854002 5.502277 -8.807815 21.525010 0.283950 1.992362 0.067083 -0.005182 -194030.000000 0 1 0
17.846602 6.313277 -9.380515 21.127062 0.340014 2.030860 0.035838 -0.014935 722309.000000 0 1 0
18.397002 7.628777 -9.521715 22.075121 0.393093 2.016765 0.071808 0.001107 291973.000000 0 1 0
-26.772368 -29.324853 6.012685 40.160417 0.830868 1.420515 0.081713 -0.012115 163637.000000 0 0 1
-26.839318 -28.251693 6.941685 39.581487 0.811030 1.394508 0.092164 -0.016021 -1055340.000000 0 0 1
-25.688468 -27.495353 6.872585 38.250807 0.819359 1.390144 0.084593 -0.016738 -1141760.000000 0 0 1
-25.809968 -26.174543 7.687285 37.554700 0.792411 1.364644 0.091606 -0.015956 -856359.000000 0 0 1
-26.774728 -25.194593 7.300185 37.482613 0.755002 1.374782 0.082441 -0.021508 2031380.000000 0 0 1
-28.171738 -25.601543 7.549185 38.808195 0.737638 1.375023 0.076073 -0.019905 1547730.000000 0 0 1
-28.544528 -25.751383 9.055685 39.495939 0.734000 1.339457 0.055386 -0.015842 -845388.000000 0 0 1
-27.832048 -26.775433 9.739285 39.829642 0.766051 1.323768 0.066901 -0.016598 -336181.000000 0 0 1
-28.301958 -26.940453 10.999985 40.592961 0.760757 1.296383 0.063384 -0.012404 -127735.000000 0 0 1
-27.252398 -27.817323 11.743185 40.674304 0.795656 1.277914 0.052859 -0.013778 982807.000000 0 0 1
-26.029708 -27.157213 12.070885 39.506533 0.806594 1.260289 0.065511 -0.012399 234258.000000 0 0 1
-26.141588 -26.209313 13.168085 39.290065 0.786692 1.229031 0.068975 -0.006236 -969166.000000 0 0 1
-24.803098 -25.735583 13.719785 38.285068 0.803847 1.204287 0.079117 -0.011879 -134581.000000 0 0 1
-24.120698 -26.769693 14.453085 38.824170 0.837404 1.189342 0.077199 -0.016049 -476249.000000 0 0 1
-22.983098 -26.277003 15.094085 38.033342 0.852166 1.162698 0.101504 -0.019056 -65795.800000 0 0 1
-22.183298 -27.420653 15.829185 38.659462 0.890592 1.148943 0.103879 -0.023025 -157861.000000 0 0 1
-22.931998 -28.057923 16.824085 39.952139 0.885590 1.136132 0.107670 -0.016240 75017.100000 0 0 1
-22.355098 -29.324923 17.182185 40.680818 0.919454 1.134743 0.100809 -0.013710 -48468.000000 0 0 1
-23.112498 -30.196403 18.219185 42.165733 0.917508 1.123993 0.114876 -0.025165 393817.000000 0 0 1
-24.418998 -30.559593 17.768985 42.964090 0.896628 1.144416 0.071961 -0.015008 561444.000000 0 0 1
-24.850998 -31.636133 18.588885 44.316629 0.904944 1.137950 0.083727 -0.013364 614607.000000 0 0 1
-25.989478 -32.573873 17.972585 45.381978 0.897360 1.163608 0.075612 -0.019391 756194.000000 0 0 1
-25.518188 -33.307543 16.862285 45.220648 0.917046 1.188676 0.083385 -0.033839 286523.000000 0 0 1
-26.241228 33.726358 16.674985 45.870736 -0.909576 1.198751 0.072005 -0.033093 -737006.000000 0 0 1
-26.031258 33.021522 15.288485 44.741313 -0.903223 1.222062 0.067161 -0.036649 155234.000000 0 0 1
-24.742098 32.439840 15.082585 43.497115 -0.919212 1.216693 0.054987 -0.033787 568163.000000 0 0 1
-23.846898 33.457714 14.630785 43.613680 -0.951566 1.228699 0.053468 -0.034660 -371947.000000 0 0 1
-22.339798 33.119076 14.700885 42.568249 -0.977370 1.218186 0.078773 -0.039276 257468.000000 0 0 1
-21.955998 32.147678 13.758185 41.289548 -0.971589 1.231088 0.066713 -0.033153 1074060.000000 0 0 1
-20.513698 31.944008 13.838885 40.407255 -0.999940 1.221236 0.077639 -0.027734 1466880.000000 0 0 1
-20.054998 30.871788 12.837085 38.987960 -0.994687 1.235279 0.066070 -0.027774 -60207.700000 0 0 1
-19.971598 31.376568 11.540385 38.942705 -1.003961 1.269935 0.053564 -0.022211 -116555.000000 0 0 1
-19.976598 30.399358 10.500985 37.861011 -0.989419 1.289755 0.055313 -0.011828 34870.600000 0 0 1
-19.784898 30.851678 9.078785 37.758345 -1.000568 1.327973 0.046449 -0.009466 862051.000000 0 0 1
-18.394898 30.984948 8.719085 37.073734 -1.035043 1.333390 0.054645 -0.017876 642682.000000 0 0 1
-18.085298 31.308198 7.419885 36.909836 -1.046970 1.368390 0.079683 -0.025070 -26730.900000 0 0 1
-17.265098 30.236938 6.709985 35.459554 -1.051978 1.380419 0.082032 -0.022015 18932.100000 0 0 1
-18.100398 29.152358 6.286685 34.885625 -1.015158 1.389598 0.063052 -0.009777 309504.000000 0 0 1
-18.242198 28.086308 7.194485 34.254622 -0.994769 1.359191 0.040143 -0.003541 486661.000000 0 0 1
-19.395898 27.145808 6.664185 34.022157 -0.950400 1.373644 0.021540 0.005215 386128.000000 0 0 1
-19.072198 26.405258 5.518785 33.037001 -0.945268 1.402961 0.035381 0.000535 -206066.000000 0 0 1
-20.123598 25.659998 4.981585 32.988042 -0.905739 1.419205 0.020712 -0.000051 -1213460.000000 0 0 1
-19.816998 24.990348 3.603685 32.097001 -0.900347 1.458284 0.034251 -0.010194 -945939.000000 0 0 1
-19.504398 25.804228 2.470885 32.440484 -0.923555 1.494556 0.038185 -0.010737 1266730.000000 0 0 1
-18.230198 26.490378 2.394585 32.246152 -0.968046 1.496468 0.053440 -0.012596 1365330.000000 0 0 1
-16.899798 25.647588 2.469885 30.813995 -0.988174 1.490556 0.058618 -0.018135 69147.800000 0 0 1
-16.695598 24.629728 1.559785 29.795964 -0.975082 1.518424 0.081895 -0.022021 80554.000000 0 0 1
-16.477398 24.982258 0.203685 29.927569 -0.987727 1.563990 0.076774 -0.024366 -423960.000000 0 0 1
-16.104598 23.708178 -0.555915 28.666092 -0.974109 1.590190 0.078276 -0.024537 431269.000000 0 0 1
-17.154398 22.749648 -0.781115 28.503158 -0.924708 1.598204 0.084647 -0.037842 619003.000000 0 0 1
-16.736598 21.709748 -1.692215 27.464349 -0.914037 1.632450 0.088481 -0.034639 1156210.000000 0 0 1
-15.631898 20.687848 -1.086515 25.952338 -0.923716 1.612674 0.087269 -0.035849 1125870.000000 0 0 1
-16.192298 19.826448 -0.098615 25.598600 -0.885954 1.574649 0.104642 -0.040144 -461098.000000 0 0 1
-15.292698 18.919848 0.398985 24.330772 -0.891022 1.554397 0.124595 -0.040026 -677315.000000 0 1 0
-15.913198 17.781348 1.265285 23.895756 -0.840785 1.517821 0.108858 -0.033608 -94074.000000 0 1 0
-16.624098 16.867648 0.506185 23.688276 -0.792670 1.549426 0.095686 -0.025842 227755.000000 0 1 0
-17.491198 16.059848 1.312285 23.781986 -0.742762 1.515589 0.116223 -0.039470 162193.000000 0 1 0
-17.959798 14.823348 0.588885 23.294480 -0.690016 1.545514 0.112044 -0.031846 -269949.000000 0 1 0
-19.014398 15.133448 -0.294715 24.303404 -0.672232 1.582923 0.134125 -0.034928 -142024.000000 0 1 0
-19.460398 13.892948 -0.753815 23.922570 -0.620000 1.602312 0.112271 -0.030485 -528302.000000 0 1 0
-20.642898 14.192148 -1.689715 25.107797 -0.602292 1.638146 0.102555 -0.019240 -394172.000000 0 0 1
-21.471598 13.097748 -2.071315 25.236301 -0.547743 1.652966 0.089969 -0.023155 1464460.000000 0 0 1
-22.542998 12.678048 -1.187715 25.890739 -0.512309 1.616687 0.110262 -0.027198 904305.000000 0 0 1
-23.840998 13.540748 -1.137315 27.441548 -0.516528 1.612253 0.105413 -0.026603 -133101.000000 0 0 1
-23.636698 14.775148 -0.477215 27.878778 -0.558667 1.587915 0.113480 -0.035715 31675.200000 0 0 1
-24.842798 15.441148 -0.193115 29.251171 -0.556118 1.577398 0.099428 -0.029047 -496855.000000 0 0 1
-24.684698 16.660148 0.678985 29.788519 -0.593693 1.548001 0.101767 -0.041277 -238431.000000 0 0 1
-24.441398 16.323748 2.027585 29.461124 -0.588837 1.501920 0.110167 -0.024952 17401.200000 0 0 1
-24.290898 17.474448 2.811885 30.055129 -0.623616 1.477102 0.091218 -0.027840 385658.000000 0 0 1
-25.584248 18.288248 3.143485 31.605305 -0.620606 1.471171 0.085779 -0.025566 -147515.000000 0 0 1
-26.466138 17.650248 4.095485 32.074300 -0.588164 1.442759 0.096357 -0.025216 904443.000000 0 0 1
-27.711488 18.341348 4.230785 33.499719 -0.584673 1.444165 0.096308 -0.029568 262325.000000 0 0 1
-28.714278 18.115448 3.105585 34.092872 -0.562821 1.479578 0.081813 -0.030233 -1738210.000000 0 0 1
-29.906468 18.799848 3.269585 35.475644 -0.561199 1.478501 0.080422 -0.032350 -683128.000000 0 0 1
-30.621738 18.871848 2.081185 36.030110 -0.552311 1.513002 0.075216 -0.038320 160137.000000 0 0 1
-31.885448 19.801148 2.233685 37.599955 -0.555724 1.511355 0.082713 -0.043216 -29874.900000 0 0 1
-33.059988 19.076148 2.532285 38.252774 -0.523348 1.504549 0.079568 -0.032699 28910.200000 0 0 1
-34.189960 19.876648 2.764885 39.644408 -0.526600 1.500998 0.092437 -0.035149 -132433.000000 0 0 1
-34.263623 20.447048 4.214585 40.122816 -0.538031 1.465560 0.090713 -0.040427 -609211.000000 0 0 1
-33.187508 21.287148 4.570985 39.691905 -0.570320 1.455379 0.094891 -0.043943 474907.000000 0 0 1
-33.492608 21.884548 5.836685 40.432105 -0.578772 1.425933 0.098815 -0.042449 -253768.000000 0 0 1
-32.446578 22.924348 6.216085 40.211266 -0.615092 1.415588 0.095624 -0.043230 -476138.000000 0 0 1
-32.442768 23.997128 5.287985 40.698380 -0.636861 1.440497 0.091582 -0.041912 236003.000000 0 0 1
-31.405278 24.872178 5.643285 40.456933 -0.669828 1.430851 0.077745 -0.042022 -388832.000000 0 0 1
-31.672828 26.410518 5.450685 41.597999 -0.695046 1.439386 0.077321 -0.034702 -979079.000000 0 0 1
-32.629518 26.902698 6.329885 42.761058 -0.689496 1.422221 0.084807 -0.029594 -174913.000000 0 0 1
-32.877488 28.287558 5.999685 43.784831 -0.710497 1.433337 0.076180 -0.025085 -159702.000000 0 0 1
-34.020678 28.790778 6.933385 45.104183 -0.702326 1.416465 0.068291 -0.027708 -418238.000000 0 0 1
-33.504378 29.004248 8.214085 45.069513 -0.713530 1.387518 0.068497 -0.019615 168748.000000 0 0 1
-34.369282 29.555188 9.182485 46.250132 -0.710231 1.370929 0.065996 -0.016511 228473.000000 0 0 1
-35.663083 28.791198 9.673685 46.844090 -0.679183 1.362792 0.066700 -0.013837 555434.000000 0 0 1
-35.455531 27.532458 10.351385 46.068233 -0.660268 1.344164 0.071571 -0.018361 476561.000000 0 0 1
-36.555258 27.314028 11.221185 46.992106 -0.641706 1.329678 0.072879 -0.017401 113088.000000 0 0 1
-36.248528 26.070978 12.106685 46.262550 -0.623515 1.306018 0.096254 -0.011155 -56499.400000 0 0 1
-35.142000 26.361098 12.928285 45.793102 -0.643585 1.284585 0.098574 -0.016224 87608.000000 0 0 1
-34.575885 25.260918 13.636785 44.939601 -0.630965 1.262488 0.099662 -0.013832 -740344.000000 0 0 1
-33.462398 25.824348 14.472685 44.677597 -0.657272 1.240909 0.101724 -0.013714 -928795.000000 0 0 1
-33.752138 26.585858 15.640685 45.723579 -0.667183 1.221677 0.114374 -0.022336 -66427.300000 0 0 1
-32.567298 26.802268 16.384285 45.248594 -0.688598 1.200282 0.133528 -0.020401 176217.000000 0 0 1
-32.803188 27.960118 17.345985 46.461818 -0.705862 1.188191 0.134352 -0.038006 -21417.100000 0 0 1
-32.975828 29.167548 16.667085 47.073802 -0.724193 1.208885 0.139756 -0.034265 40619.200000 0 0 1
-33.252598 30.209628 17.500085 48.214209 -0.737486 1.199348 0.123081 -0.031554 -50449.500000 0 0 1
-32.902228 31.566768 16.821885 48.600343 -0.764686 1.217357 0.097886 -0.029138 -578802.000000 0 0 1
-31.545758 31.736298 16.584985 47.721999 -0.788409 1.215857 0.083521 -0.018953 -882022.000000 0 0 1
-31.283138 32.849963 15.755885 48.020857 -0.809824 1.236499 0.078365 -0.015498 -242629.000000 0 0 1
-29.817288 32.900120 15.274385 46.955249 -0.834513 1.239471 0.097559 -0.021566 -4118.220000 0 0 1
-29.338058 31.986818 14.248985 45.682730 -0.828564 1.253592 0.078146 -0.015425 134192.000000 0 0 1
-29.178418 30.630668 14.667485 44.774469 -0.809675 1.237049 0.084614 -0.021714 -303345.000000 0 0 1
-30.304188 29.692328 14.179585 44.732972 -0.775200 1.248250 0.101665 -0.019602 104584.000000 0 0 1
-30.351348 29.441548 12.772285 44.171715 -0.770183 1.277457 0.108208 -0.026156 -72093.700000 0 0 1
-31.254458 28.437438 12.330185 44.017752 -0.738240 1.286879 0.111911 -0.022208 175415.000000 0 0 1
-31.401708 28.304868 10.779585 43.628343 -0.733577 1.321133 0.103547 -0.016037 -799262.000000 0 0 1
-30.248058 27.875318 10.136085 42.364119 -0.744598 1.329192 0.099272 -0.010143 -642947.000000 0 0 1
-30.366258 27.722288 8.767185 42.041628 -0.739913 1.360719 0.094422 -0.020110 703438.000000 0 0 1
-29.044808 27.082568 8.181185 40.546247 -0.750452 1.367627 0.088636 -0.019587 929786.000000 0 0 1
-28.903318 27.139208 6.796485 40.225995 -0.753930 1.401024 0.071104 -0.021796 338207.000000 0 0 1
-27.660478 26.497328 6.427785 38.839759 -0.763924 1.404536 0.067058 -0.016660 864513.000000 0 0 1
-27.247818 26.656668 4.944485 38.437865 -0.774432 1.441803 0.059091 -0.016371 213623.000000 0 0 1
-26.419468 27.836738 4.761385 38.672252 -0.811514 1.447362 0.035624 -0.005203 503848.000000 0 0 1
-26.148918 28.058158 3.408785 38.505142 -0.820605 1.482152 0.025743 -0.003228 -330756.000000 0 0 1
-25.143848 29.183818 3.080585 38.644513 -0.859625 1.490996 0.018972 0.000825 -158827.000000 0 0 1
-23.819898 28.755178 3.335385 37.488300 -0.878995 1.481707 0.009267 0.004228 -243314.000000 0 0 1
-23.003098 29.894638 3.084985 37.846388 -0.914949 1.489192 0.013755 0.007737 197298.000000 0 0 1
-21.497198 29.584108 3.261385 36.714924 -0.942410 1.481849 0.021152 -0.001359 -137440.000000 0 0 1
-20.621198 30.471878 2.679385 36.891033 -0.975860 1.498103 0.037546 -0.006135 -274040.000000 0 0 1
-19.278198 30.160858 3.033785 35.923950 -1.002066 1.486245 0.063092 -0.015079 523737.000000 0 0 1
-18.229698 31.142228 2.475785 36.170289 -1.041204 1.502295 0.066705 -0.021836 -76904.800000 0 0 1
-18.152298 32.416016 3.099285 37.281492 -1.060324 1.487568 0.079912 -0.022972 -463239.000000 0 0 1
-16.932098 33.070867 2.973785 37.272263 -1.097599 1.490926 0.099172 -0.027692 -682128.000000 0 0 1
-16.860098 -33.922843 3.881285 38.080002 1.109541 1.468695 0.098888 -0.030707 58712.800000 0 0 1
-17.806398 -32.866563 3.663585 37.559295 1.074287 1.473100 0.094262 -0.032097 278984.000000 0 0 1
-17.688798 -31.809693 4.597985 36.686395 1.063296 1.445134 0.080968 -0.037282 386377.000000 0 0 1
-18.965798 -30.917103 4.790185 36.585716 1.020553 1.439489 0.078829 -0.028941 262779.000000 0 0 1
-18.991098 -29.919333 3.805785 35.641441 1.005221 1.463813 0.084643 -0.026240 525125.000000 0 0 1
-20.112998 -29.031433 3.849885 35.527150 0.964918 1.462219 0.081763 -0.030008 -111099.000000 0 0 1
-20.325998 -28.302963 2.466785 34.932634 0.947987 1.500122 0.074098 -0.033637 328134.000000 0 0 1
-19.394898 -27.229893 2.264085 33.507540 0.951886 1.503175 0.069959 -0.025289 503188.000000 0 0 1
-19.792298 -26.417853 1.175085 33.030574 0.927806 1.535213 0.060313 -0.030752 -221210.000000 0 0 1
-18.975798 -25.137403 1.239285 31.519927 0.924177 1.531469 0.070018 -0.034648 561013.000000 0 0 1
-17.623798 -25.439593 0.878185 30.960335 0.964939 1.542428 0.083872 -0.033450 187055.000000 0 0 1
-16.765298 -24.302123 0.938385 29.538940 0.966902 1.539023 0.081681 -0.026193 764953.000000 0 0 1
-15.366398 -24.625823 0.323285 29.028639 1.012920 1.559659 0.080373 -0.027826 247943.000000 0 0 1
-15.331798 -24.685223 -1.086215 29.079273 1.015012 1.608159 0.071646 -0.021070 -28468.300000 0 0 1
-15.293598 -23.421523 -1.726615 28.025757 0.992335 1.632444 0.085579 -0.026660 -312650.000000 0 0 1
-15.320698 -23.573423 -3.275415 28.304742 0.994482 1.686776 0.051207 -0.013960 100116.000000 0 0 1
-14.181398 -24.124423 -3.918015 28.256870 1.039363 1.709902 0.067326 -0.014192 -49647.600000 0 0 1
-14.284498 -24.088723 -5.301915 28.503048 1.035543 1.757898 0.056698 -0.007504 451478.000000 0 0 1
-13.015598 -24.662923 -5.997615 28.524322 1.085204 1.782641 0.077130 -0.010959 293412.000000 0 0 1
-13.007698 -26.079223 -6.053615 29.765287 1.108128 1.775603 0.069065 -0.015057 -368371.000000 0 0 1
-12.027098 -26.530523 -6.949215 29.946808 1.145176 1.804983 0.077236 -0.012407 34782.200000 0 0 1
23.595302 13.496377 28.140919 39.125462 0.519572 0.768077 0.057473 -0.001023 -156259.000000 0 0 1
24.261102 12.247277 28.127509 39.112065 0.467489 0.768216 0.045469 -0.003844 252618.000000 0 0 1
23.693802 11.133577 28.846739 38.954937 0.439274 0.736959 0.044637 -0.009490 -394436.000000 0 0 1
23.673402 11.155677 30.361289 40.083500 0.440370 0.711396 0.060421 -0.005495 267355.000000 0 0 1
22.632202 11.951077 30.911959 40.132207 0.485840 0.691558 0.062318 -0.004847 406521.000000 0 0 1
22.964302 12.114277 32.285453 41.430247 0.485426 0.677292 0.069960 -0.009740 314806.000000 0 0 1
22.102802 13.175077 33.044756 41.881647 0.537533 0.661611 0.060919 -0.001292 10951.200000 0 0 1
20.802302 12.737977 33.329544 41.301941 0.549440 0.631788 0.055638 0.001362 -436309.000000 0 0 1
20.119802 13.647877 -34.008109 41.804575 0.596034 2.520945 0.053224 0.005316 641435.000000 0 0 1
18.815602 13.051077 -33.336965 40.443921 0.606438 2.539719 0.043718 0.008541 694009.000000 0 0 1
17.702402 12.867277 33.955123 40.396686 0.628530 0.572513 0.041887 0.008294 462701.000000 0 0 1
16.653002 12.258377 -33.372815 39.259841 0.634550 2.586876 0.037252 0.002602 559159.000000 0 0 1
15.337702 12.042177 34.010899 39.204596 0.665611 0.520595 0.037160 0.006970 -191228.000000 0 0 1
15.466502 11.023577 33.059941 38.127308 0.619224 0.521459 0.036977 0.012515 -11268.300000 0 0 1
14.268302 10.577077 32.427698 36.973160 0.637909 0.501088 0.040570 0.011217 189268.000000 0 0 1
14.434702 9.586177 31.212479 35.699779 0.586228 0.506795 0.050558 0.017124 -80692.600000 0 0 1
14.841802 8.329277 31.751169 36.024890 0.511404 0.492047 0.032729 0.010799 87502.700000 0 0 1
15.255802 7.426277 30.723539 35.097364 0.453019 0.504575 0.031479 -0.003542 220777.000000 0 0 1
15.644002 5.995477 31.244709 35.452960 0.365979 0.492189 0.060509 -0.017980 349481.000000 0 0 1
14.522802 5.171577 31.476439 35.048869 0.342099 0.455428 0.061306 -0.011715 -144314.000000 0 0 1
15.007802 3.984777 31.999779 35.568222 0.259526 0.451776 0.063907 -0.017579 362363.000000 0 0 1
13.895202 3.001477 32.463625 35.439702 0.212740 0.412742 0.043678 -0.009926 60997.000000 0 0 1
14.438402 1.781277 32.854067 35.930907 0.122751 0.416852 0.054075 -0.016963 51026.400000 0 0 1
13.421802 0.853177 33.238873 35.856594 0.063481 0.384477 0.057353 -0.016895 3564.090000 0 0 1
13.914202 -0.536023 33.635170 36.403530 -0.038504 0.392506 0.045552 -0.017451 -297802.000000 0 0 1
14.091602 -1.377523 32.565817 35.510608 -0.097445 0.410120 0.038078 -0.011218 183683.000000 0 0 1
14.593802 -2.647923 33.010890 36.189907 -0.179489 0.422279 0.061024 -0.014451 -174368.000000 0 0 1
14.792302 -3.672523 31.849129 35.308167 -0.243352 0.446340 0.065287 -0.009697 -757939.000000 0 0 1
15.153702 -5.046223 32.109509 35.862510 -0.321453 0.461579 0.066810 -0.008581 484133.000000 0 0 1
16.400502 -5.290023 32.746715 37.004164 -0.312017 0.484417 0.047009 -0.015804 355614.000000 0 0 1
17.741802 -5.002923 32.046309 36.969808 -0.274848 0.522000 0.052893 -0.018959 -428651.000000 0 0 1
17.881402 -3.613423 31.949919 36.791285 -0.199392 0.518810 0.056143 -0.022988 41757.600000 0 0 1
19.027902 -3.230923 31.213299 36.698364 -0.168195 0.553792 0.071391 -0.035980 -10723.300000 0 0 1
19.224802 -1.680323 31.252559 36.730627 -0.087182 0.553180 0.077550 -0.037414 -283179.000000 0 0 1
19.734902 -1.132723 32.473728 38.017002 -0.057334 0.546806 0.057103 -0.030303 180331.000000 0 0 1
19.694002 0.276277 32.530150 38.028157 0.014028 0.544430 0.048216 -0.021416 262016.000000 0 0 1
20.833802 0.993377 31.719099 37.962288 0.047645 0.581677 0.072934 -0.026989 -439501.000000 0 0 1
20.682402 1.007077 30.314689 36.711801 0.048654 0.599270 0.084621 -0.031649 14667.500000 0 0 1
21.544702 1.984377 29.716809 36.758681 0.091846 0.629317 0.069641 -0.022653 146466.000000 0 0 1
20.973302 3.401377 29.525969 36.376250 0.160777 0.623769 0.064413 -0.011361 -230833.000000 0 0 1
20.766902 3.889277 30.803279 37.352814 0.185138 0.601200 0.066964 -0.017895 240082.000000 0 0 1
20.155002 5.151777 30.738179 37.116042 0.250250 0.594972 0.058085 -0.016972 -163721.000000 0 0 1
19.923002 5.813877 32.140047 38.258460 0.283933 0.573371 0.056681 -0.013660 102454.000000 0 0 1
18.829402 5.109077 32.717567 38.093152 0.264956 0.537711 0.056098 -0.009372 380749.000000 0 0 1
18.568402 5.615677 34.007001 39.150958 0.293686 0.518402 0.047175 -0.007976 -442099.000000 0 0 1
17.412902 4.922377 -33.434645 38.017292 0.275497 2.645521 0.060404 -0.010948 -763571.000000 0 0 1
17.749502 3.610677 -33.065285 37.701391 0.200686 2.640443 0.048538 -0.011455 -39140.700000 0 0 1
16.670002 2.738877 -32.819925 36.912571 0.162845 2.666228 0.045229 -0.013492 -168506.000000 0 0 1
17.085002 1.243277 -33.016665 37.196011 0.072642 2.662991 0.043067 -0.015311 138197.000000 0 0 1
17.864902 0.772777 -31.913515 36.581749 0.043230 2.630865 0.025636 -0.015347 260899.000000 0 0 1
18.514702 -0.464323 -32.159175 37.110946 -0.025073 2.619081 0.043061 -0.015092 -288747.000000 0 0 1
19.580902 -0.784823 -31.088425 36.749393 -0.040060 2.579155 0.063989 -0.018106 -644652.000000 0 0 1
19.260002 -0.868323 -29.713165 35.419964 -0.045054 2.566022 0.054533 -0.018956 -86315.700000 0 0 1
19.035602 0.393877 -29.169085 34.833099 0.020689 2.563297 0.039471 -0.012748 -397385.000000 0 0 1
18.445702 0.281077 -27.775305 33.343523 0.015237 2.555313 0.026390 -0.009210 -418020.000000 0 0 1
17.203002 -0.353223 -27.650075 32.566773 -0.020530 2.584938 0.031602 -0.016873 -149552.000000 0 0 1
16.846002 -0.663623 -26.317825 31.254697 -0.039373 2.571857 0.036093 -0.019430 -533404.000000 0 0 1
17.439502 -1.938923 -25.717435 31.133296 -0.110725 2.542846 0.045475 -0.013423 -1021250.000000 0 0 1
18.790902 -1.673923 -25.469025 31.694972 -0.088847 2.504060 0.044537 -0.012371 -811418.000000 0 0 1
19.494202 -2.881523 -25.359625 32.116003 -0.146752 2.480995 0.048186 -0.004986 90228.900000 0 0 1
20.383802 -3.145423 -26.610885 33.667971 -0.153102 2.482244 0.052058 -0.015099 657164.000000 0 0 1
21.644702 -2.431523 -26.621895 34.396667 -0.111869 2.455879 0.053801 -0.009097 660101.000000 0 0 1
22.138502 -2.355023 -27.952505 35.735164 -0.105978 2.469006 0.048101 -0.013615 -1656690.000000 0 0 1
23.577802 -2.088823 -28.095365 36.737249 -0.088362 2.441473 0.040485 -0.019081 -1636140.000000 0 0 1
24.406602 -3.199723 -27.789765 37.124002 -0.130357 2.416693 0.040322 -0.019794 493764.000000 0 0 1
25.765702 -2.874723 -28.116035 38.244566 -0.111112 2.396705 0.027473 -0.021459 453878.000000 0 0 1
26.779602 -3.935723 -27.647275 38.691198 -0.145923 2.366795 0.034599 -0.022405 -347878.000000 0 0 1
26.885702 -4.991023 -28.555945 39.537239 -0.183549 2.377853 0.061422 -0.034443 679130.000000 0 0 1
28.099902 -5.743423 -28.464275 40.407999 -0.201616 2.352405 0.056236 -0.032465 474053.000000 0 0 1
28.027802 -6.847923 -27.423445 39.805742 -0.239631 2.330811 0.053975 -0.020204 -203512.000000 0 0 1
28.046102 -6.388123 -26.109685 38.847234 -0.223952 2.307854 0.041278 -0.010781 238366.000000 0 0 1
27.684102 -7.359223 -25.132965 38.108183 -0.259820 2.290971 0.018444 -0.003883 -288443.000000 0 0 1
27.787002 -6.840123 -23.688415 37.148967 -0.241364 2.262253 0.001201 -0.000984 133414.000000 0 0 1
29.115302 -6.505923 -23.327215 37.870659 -0.219842 2.234414 -0.006175 0.000298 21135.000000 0 0 1
29.198202 -6.249223 -21.930215 37.047566 -0.210847 2.204269 0.003229 -0.000111 -731310.000000 0 0 1
30.452602 -5.607823 -21.378315 37.627663 -0.182109 2.175057 0.024517 -0.005219 -806920.000000 0 0 1
30.674702 -4.310423 -21.863015 37.914490 -0.139606 2.185407 0.030022 -0.012389 -304213.000000 0 0 1
32.008402 -3.899823 -21.741615 38.890156 -0.121240 2.164038 0.043741 -0.011119 -245331.000000 0 0 1
32.392002 -2.612523 -22.396815 39.467511 -0.080479 2.174232 0.056142 -0.016389 115024.000000 0 0 1
31.772002 -1.476823 -21.755015 38.534683 -0.046448 2.170692 0.039500 -0.017300 323147.000000 0 0 1
32.385302 -0.290523 -22.168015 39.246823 -0.008971 2.171031 0.040837 -0.016482 262152.000000 0 0 1
31.432102 0.946377 -22.016615 38.387550 0.030100 2.181611 0.038865 -0.011855 369962.000000 0 0 1
30.362002 0.917277 -22.946315 38.068700 0.030202 2.217753 0.024618 -0.005681 -15833.400000 0 0 1
29.284102 1.704077 -22.493415 36.965068 0.058126 2.224971 0.021208 -0.001058 -199802.000000 0 0 1
28.235702 1.779877 -23.631815 36.863064 0.062953 2.266688 0.012011 0.001421 13156.000000 0 0 1
27.133102 2.590477 -23.235515 35.816267 0.095184 2.276726 0.013923 -0.000510 -313732.000000 0 0 1
26.227802 2.741277 -24.273115 35.841266 0.104140 2.314800 0.029438 -0.004289 -330992.000000 0 0 1
25.229902 3.860477 -23.875215 34.949637 0.151834 2.322839 0.035846 -0.005011 -85021.300000 0 0 1
25.856502 5.123477 -23.646115 35.411121 0.195617 2.301991 0.026685 -0.000160 389178.000000 0 0 1
24.897702 6.146877 -23.339515 34.675822 0.242045 2.309158 0.055190 -0.018200 47435.600000 0 0 1
25.476702 7.420177 -22.652515 34.889222 0.283413 2.277420 0.078583 -0.013397 -71440.200000 0 0 1
26.131702 8.296277 -23.564115 36.151924 0.307415 2.280762 0.062005 -0.009619 -60560.300000 0 0 1
26.572802 9.485277 -23.025115 36.417581 0.342857 2.255254 0.082039 -0.013197 -500913.000000 0 0 1
27.386102 10.234277 -24.089715 37.882098 0.357633 2.259987 0.114038 -0.011924 60527.000000 0 0 1
26.709302 10.484877 -25.349885 38.287545 0.374072 2.294403 0.105587 -0.022101 265109.000000 0 0 1
25.533502 11.248277 -25.356835 37.702156 0.414951 2.308454 0.108741 -0.029792 -8818.570000 0 0 1
24.851402 11.532177 -26.702535 38.257139 0.434472 2.343363 0.091680 -0.033379 -115383.000000 0 0 1
24.307502 10.432977 -27.419715 38.099113 0.405430 2.374158 0.075538 -0.026658 634387.000000 0 0 1
25.240502 9.518177 -28.021855 38.896054 0.360610 2.375217 0.072705 -0.028869 504065.000000 0 0 1
26.162102 10.017977 -29.202035 40.466953 0.365696 2.376946 0.066541 -0.020224 -32943.500000 0 0 1
27.187202 10.950377 -28.777295 41.075387 0.382898 2.347030 0.056251 -0.013587 1329950.000000 0 0 1
28.130802 11.341377 -29.778555 42.505661 0.383233 2.347004 0.053103 -0.007528 708662.000000 0 0 1
29.114602 10.203677 -30.235555 43.196804 0.337090 2.346122 0.045392 -0.006532 -719105.000000 0 0 1
28.524902 9.344077 -31.158775 43.264894 0.316560 2.374867 0.043169 -0.011936 -46269.900000 0 0 1
29.381202 8.295677 -31.522655 43.883380 0.275183 2.372192 0.036190 -0.010805 -288689.000000 0 0 1
28.815702 7.351577 -32.613025 44.136150 0.249795 2.402260 0.036693 -0.014304 -167408.000000 0 0 1
27.598502 6.817677 -32.164705 42.926988 0.242182 2.417784 0.046098 -0.017745 -389715.000000 0 0 1
27.103302 5.858077 -33.049135 43.141064 0.212864 2.443503 0.057595 -0.013285 -137899.000000 0 0 1
25.846902 5.095077 -32.526795 41.857073 0.194630 2.460828 0.053409 -0.014782 657997.000000 0 0 1
24.624402 5.821577 -32.589995 41.259662 0.232152 2.481402 0.056336 -0.015563 260517.000000 0 0 1
24.389602 6.576977 -31.465935 40.351139 0.263398 2.465147 0.062858 -0.015336 243573.000000 0 0 1
22.898602 7.073677 -31.444085 39.536229 0.299614 2.490337 0.055372 -0.018685 793136.000000 0 0 1
22.498502 8.099877 -32.374555 40.248011 0.345572 2.505422 0.060503 -0.017487 -1113380.000000 0 0 1
21.150102 8.297877 -32.199255 39.407786 0.373879 2.527122 0.054537 -0.012057 -1219890.000000 0 0 1
20.481602 9.273477 -33.154385 40.058790 0.425156 2.545692 0.048610 -0.007328 -512607.000000 0 0 1
20.087802 8.641677 33.768233 40.230485 0.406263 0.574675 0.052308 -0.008338 51380.200000 0 0 1
19.816402 9.707877 32.839811 39.564957 0.455528 0.591648 0.048868 -0.000794 28655.600000 0 0 1
18.928402 9.314077 31.627359 38.017447 0.457283 0.588243 0.048345 0.000621 173261.000000 0 0 1
19.536402 8.441277 30.671089 37.331513 0.407852 0.606607 0.056282 -0.005887 728179.000000 0 0 1
20.549502 8.897777 29.739429 37.227491 0.408621 0.645404 0.066539 -0.005610 321150.000000 0 0 1
20.084502 9.959477 28.716099 36.430657 0.460345 0.662853 0.075043 -0.006657 43301.200000 0 0 1
19.054702 9.542577 27.820929 35.044922 0.464287 0.653658 0.060197 -0.001084 547274.000000 0 0 1
17.794502 10.133077 28.077329 34.751402 0.517653 0.630135 0.071385 -0.012548 -462015.000000 0 0 1
16.613702 9.393677 27.496969 33.471474 0.514603 0.606752 0.080910 -0.010498 -753968.000000 0 0 1
16.509202 9.516177 26.116959 32.329660 0.522898 0.630330 0.091596 -0.014771 104730.000000 0 0 1
15.296602 9.098277 25.530079 31.121530 0.536580 0.608800 0.103412 -0.018770 51007.000000 0 0 1
15.110502 7.573477 25.281789 30.411407 0.464612 0.589307 0.097344 -0.013294 -34374.600000 0 0 1
15.093502 6.723177 26.383119 31.130112 0.419051 0.559518 0.073429 -0.010734 -315411.000000 0 0 1
14.324102 5.637377 26.110179 30.310087 0.374941 0.532707 0.083824 -0.009053 -609365.000000 0 0 1
14.465202 4.599277 27.265959 31.206216 0.307846 0.507968 0.090376 -0.007513 897640.000000 0 0 1
15.715102 3.875377 27.362539 31.791375 0.241778 0.534172 0.068790 -0.005556 1021500.000000 0 0 1
16.265702 3.692677 28.643769 33.146258 0.223238 0.527312 0.056919 -0.008318 389216.000000 0 0 1
17.269802 2.475477 28.717309 33.601456 0.142372 0.545930 0.075974 -0.013803 287133.000000 0 0 1
16.746102 1.171677 28.714769 33.261730 0.069853 0.529029 0.072577 -0.023224 220977.000000 0 0 1
15.829102 0.817177 29.774859 33.730853 0.051579 0.489179 0.050622 -0.018686 638312.000000 0 0 1
15.438602 -0.683023 29.775459 33.546906 -0.044212 0.478738 0.072382 -0.024636 259151.000000 0 0 1
14.743702 -1.185123 28.560929 32.163767 -0.080209 0.477852 0.065241 -0.021979 559856.000000 0 0 1
15.432402 -1.126723 27.311279 31.390038 -0.072881 0.515468 0.078244 -0.020902 -1280000.000000 0 0 1
16.435602 -2.279323 27.202649 31.863905 -0.137803 0.547721 0.068339 -0.021780 461773.000000 0 0 1
17.708102 -2.186423 27.844799 33.070986 -0.122848 0.569871 0.066797 -0.029674 856651.000000 0 0 1
18.548402 -1.126023 27.381159 33.091374 -0.060633 0.596261 0.072323 -0.026333 254691.000000 0 0 1
20.068102 -1.116123 27.798149 34.303229 -0.055560 0.626021 0.084030 -0.022788 968225.000000 0 0 1
20.889802 -1.831723 26.909379 34.115300 -0.087461 0.661979 0.061811 -0.027634 -1527750.000000 0 0 1
22.189302 -1.566123 27.267219 35.189758 -0.070463 0.684299 0.062694 -0.030665 -869060.000000 0 0 1
23.292402 -2.209923 26.399919 35.275706 -0.094594 0.725168 0.063453 -0.026123 -74999.200000 0 0 1
23.398102 -1.648923 25.104999 34.357693 -0.070356 0.751457 0.066687 -0.010711 415727.000000 0 0 1
22.359602 -2.123523 24.237839 33.044424 -0.094687 0.747350 0.080200 -0.002257 197661.000000 0 0 1
22.373902 -1.598823 22.801679 31.985376 -0.071338 0.777202 0.064743 -0.020693 257513.000000 0 0 1
21.647902 -0.346523 22.753279 31.408015 -0.016006 0.760572 0.056969 -0.013204 340267.000000 0 0 1
21.472002 0.003377 21.361379 30.287875 0.000157 0.787981 0.051329 -0.006387 -222475.000000 0 0 1
-30.601198 -27.295294 -9.890315 42.181569 0.728360 1.807470 0.011573 0.015238 153940.000000 0 0 1
-30.570568 -26.104794 -9.101515 41.217199 0.706765 1.793450 0.013634 0.016575 -165881.000000 0 0 1
-31.355748 -26.259494 -7.923615 41.659665 0.697175 1.762161 0.034888 -0.000147 -604542.000000 0 0 1
-31.554758 -24.915194 -7.055215 40.819673 0.668359 1.744507 0.059926 -0.007474 -175567.000000 0 0 1
-30.427168 -24.262394 -6.543615 39.462580 0.673149 1.737384 0.053453 -0.011635 -1285200.000000 0 0 1
-29.785968 -24.977094 -5.558815 39.267793 0.697810 1.712835 0.049925 -0.013669 -533170.000000 0 0 1
-28.546278 -24.179494 -5.112715 37.758149 0.702766 1.706620 0.044891 -0.013513 -424662.000000 0 0 1
-28.710668 -23.054294 -4.235315 37.064010 0.676560 1.685317 0.064649 -0.023242 -512528.000000 0 0 1
-29.523368 -22.057494 -4.703015 37.152129 0.641655 1.697725 0.077086 -0.026846 -594772.000000 0 0 1
-29.411548 -20.763594 -3.805415 36.202862 0.614720 1.676105 0.081812 -0.030458 -893389.000000 0 0 1
-28.385838 -19.925094 -4.130415 34.926001 0.612025 1.689336 0.082803 -0.039583 -669710.000000 0 0 1
-28.002058 -19.028994 -3.076215 33.995308 0.596874 1.661410 0.096676 -0.030963 -111888.000000 0 0 1
-26.861738 -18.123794 -3.525915 32.595352 0.593548 1.679181 0.094744 -0.029090 -179731.000000 0 0 1
-27.380998 -17.107294 -4.346715 32.577178 0.558446 1.704624 0.089012 -0.040209 -49811.000000 0 0 1
-26.425248 -16.119394 -4.617715 31.296196 0.547740 1.718886 0.089771 -0.038712 -436114.000000 0 0 1
-26.823558 -14.977094 -5.602915 31.228341 0.509236 1.751191 0.080794 -0.051187 -348667.000000 0 0 1
-27.938958 -14.300894 -5.100415 31.798038 0.473092 1.731893 0.081146 -0.044559 -238714.000000 0 0 1
-28.517258 -13.314894 -5.930915 32.026492 0.436824 1.757059 0.110869 -0.055347 -101099.000000 0 0 1
-29.943798 -12.921394 -5.527815 33.077942 0.407381 1.738699 0.114593 -0.046640 -38692.600000 0 0 1
-31.021298 -13.649894 -6.094315 34.435174 0.414521 1.748713 0.112407 -0.039592 188467.000000 0 0 1
-32.196718 -12.865194 -6.044415 35.194841 0.380145 1.743394 0.099500 -0.039307 42238.600000 0 0 1
-33.362868 -13.563194 -6.810315 36.652716 0.386128 1.757689 0.062990 -0.033298 -41636.900000 0 0 1
-33.850798 -14.648494 -6.047515 37.376829 0.408406 1.733309 0.070912 -0.037254 198011.000000 0 0 1
-33.939498 -15.665594 -6.998015 38.029891 0.432437 1.755865 0.077074 -0.037443 -460085.000000 0 0 1
-34.803763 -16.866694 -6.519515 39.221058 0.451270 1.737796 0.063754 -0.034589 -169737.000000 0 0 1
-36.199178 -16.821294 -6.488315 40.440508 0.435000 1.731934 0.057986 -0.033405 -442143.000000 0 0 1
-36.688718 -16.149194 -5.389215 40.446287 0.414647 1.704438 0.085138 -0.033652 -661484.000000 0 0 1
35.346745 -16.294494 -5.205315 39.268285 -0.431955 1.703745 0.098528 -0.035760 -78070.300000 0 0 1
34.583125 -15.497094 -6.138215 38.390495 -0.421282 1.731374 0.097958 -0.037429 262756.000000 0 0 1
33.192695 -15.692594 -6.180615 37.231875 -0.441629 1.737572 0.095483 -0.037529 -153748.000000 0 0 1
32.403615 -14.867394 -5.174715 36.025149 -0.430164 1.714937 0.113938 -0.039312 -875292.000000 0 0 1
32.448265 -15.388694 -3.863215 36.119610 -0.442839 1.677957 0.110726 -0.044416 448718.000000 0 0 1
31.829505 -14.584494 -2.849915 35.127580 -0.429658 1.652016 0.103181 -0.042504 -976674.000000 0 0 1
31.874215 -15.162894 -1.404815 35.324955 -0.444028 1.610575 0.113608 -0.046111 527861.000000 0 0 1
33.141505 -15.287594 -0.725015 36.504733 -0.432197 1.590658 0.138280 -0.046024 1250600.000000 0 0 1
34.231025 -15.974994 -1.338315 37.798870 -0.436640 1.606210 0.122381 -0.046354 -168084.000000 0 0 1
34.033945 -17.478894 -1.739615 38.299444 -0.474446 1.616233 0.111204 -0.048876 -689459.000000 0 0 1
33.838105 -18.455494 -0.709515 38.550305 -0.499309 1.589202 0.129668 -0.047151 445583.000000 0 0 1
33.423045 -19.779894 -1.156315 38.854616 -0.534371 1.600561 0.115107 -0.042881 104854.000000 0 0 1
34.457535 -20.571794 -2.028015 40.182500 -0.538225 1.621288 0.115021 -0.051614 327235.000000 0 0 1
34.604995 -20.025794 -3.286915 40.116604 -0.524608 1.652822 0.108076 -0.051435 -746274.000000 0 0 1
35.731265 -20.529094 -3.890215 41.392038 -0.521490 1.664920 0.107281 -0.042674 -590173.000000 0 0 1
35.914525 -19.861294 -5.261015 41.376351 -0.505156 1.698292 0.112643 -0.043194 -355907.000000 0 0 1
34.865055 -20.204894 -6.099915 40.755598 -0.525222 1.721031 0.101888 -0.047113 -355561.000000 0 0 1
34.891665 -19.376994 -7.254215 40.565007 -0.506939 1.750593 0.101323 -0.044901 239122.000000 0 0 1
33.738165 -19.526894 -8.313815 39.858285 -0.524669 1.780924 0.097418 -0.055943 243947.000000 0 0 1
33.789865 -20.725194 -9.084015 40.667038 -0.550182 1.796072 0.109222 -0.054740 348488.000000 0 0 1
32.871055 -20.745894 -10.183115 40.182014 -0.562995 1.827015 0.110147 -0.057972 120948.000000 0 0 1
32.734685 -22.146394 -10.741015 40.955974 -0.594808 1.836157 0.116999 -0.049891 -133968.000000 0 0 1
32.186315 -23.137794 -9.918015 40.861760 -0.623279 1.815966 0.117401 -0.046623 -110438.000000 0 0 1
32.004925 -24.391594 -10.584315 41.608807 -0.651213 1.828000 0.085383 -0.029595 -583638.000000 0 0 1
31.274605 -25.313694 -9.659315 41.378574 -0.680447 1.806408 0.076663 -0.025568 326392.000000 0 0 1
29.947485 -24.836994 -9.406115 40.027530 -0.692384 1.808006 0.073120 -0.027575 509727.000000 0 0 1
29.141085 -25.838694 -8.821015 39.933085 -0.725405 1.793528 0.040872 -0.009926 -327612.000000 0 0 1
27.651905 -25.550494 -8.638415 38.627423 -0.745920 1.796338 0.031590 -0.018433 -160449.000000 0 0 1
27.035305 -25.276894 -9.877315 38.306533 -0.751797 1.831592 0.022118 -0.018180 -597200.000000 0 0 1
25.743605 -24.773894 -9.742315 37.032307 -0.766205 1.837006 0.030877 -0.020378 -558120.000000 0 0 1
24.978405 -24.254994 -10.948415 36.497853 -0.770706 1.875462 0.052430 -0.024825 -495010.000000 0 0 1
24.379805 -25.327694 -11.563815 37.007956 -0.804465 1.888587 0.051504 -0.021046 -149202.000000 0 0 1
23.559505 -24.824394 -12.602115 36.470730 -0.811535 1.923611 0.062261 -0.009713 -318817.000000 0 0 1
22.894105 -25.914394 -13.393815 37.082208 -0.847200 1.940343 0.075301 -0.019430 -159010.000000 0 0 1
23.723105 -26.669494 -14.290915 38.448379 -0.843800 1.951626 0.069641 -0.020136 364030.000000 0 0 1
23.411205 -28.064594 -14.069615 39.161972 -0.875553 1.938279 0.084922 -0.013390 -303933.000000 0 0 1
24.415605 -29.002694 -14.702315 40.662466 -0.871059 1.940747 0.083898 -0.018451 -522981.000000 0 0 1
24.333605 -29.065994 -16.099715 41.184429 -0.873789 1.972425 0.081530 -0.013257 230074.000000 0 0 1
24.632305 -30.401594 -16.535615 42.478629 -0.889848 1.970634 0.080629 -0.018270 -201200.000000 0 0 1
24.489305 -30.562394 -18.048115 43.122157 -0.895270 2.002628 0.072651 -0.012116 -17513.500000 0 0 1
23.119605 -30.479194 -18.379715 42.441858 -0.921854 2.018677 0.076825 -0.014344 165005.000000 0 0 1
22.914705 -30.407894 -19.803015 42.917166 -0.925010 2.050396 0.056743 -0.005512 -256844.000000 0 0 1
21.515005 -29.899094 -20.167515 41.994999 -0.947045 2.071720 0.048269 -0.001991 -440838.000000 0 0 1
21.274105 -30.138794 -21.505815 42.701693 -0.956141 2.098591 0.022933 0.002866 290184.000000 0 0 1
19.958705 -29.776994 -21.878015 41.996034 -0.980301 2.118765 0.037751 -0.011181 -171868.000000 0 0 1
19.705805 -30.036594 -23.379815 42.861772 -0.990173 2.147746 0.032307 -0.009069 -162376.000000 0 0 1
20.635405 -29.311994 -24.192415 43.246802 -0.957396 2.164462 0.043772 -0.005649 654469.000000 0 0 1
20.396105 -29.449394 -25.562265 44.007923 -0.965067 2.190576 0.037737 -0.007201 -430115.000000 0 0 1
20.995005 -28.338994 -26.481655 44.104046 -0.933176 2.214842 0.045139 -0.015131 261146.000000 0 0 1
20.176405 -27.160294 -26.731015 43.119788 -0.931878 2.239443 0.069089 -0.027848 269695.000000 0 0 1
19.130605 -27.465794 -27.628245 43.401265 -0.962407 2.260848 0.086408 -0.031876 -697816.000000 0 0 1
18.335105 -26.251794 -28.035345 42.559527 -0.961123 2.289929 0.086873 -0.038752 -407705.000000 0 0 1
17.525505 -25.839694 -26.935885 41.235604 -0.974824 2.282625 0.065101 -0.023149 -113282.000000 0 0 1
17.110405 -24.487894 -27.024955 40.283633 -0.960924 2.306173 0.060176 -0.017825 -804185.000000 0 0 1
15.980805 -24.279594 -26.065645 39.042319 -0.988679 2.301811 0.061936 -0.016358 -131872.000000 0 0 1
14.729005 -24.925694 -26.409625 39.188035 -1.037083 2.310299 0.088193 -0.032325 1048710.000000 0 0 1
13.558605 -24.463694 -25.740945 38.011898 -1.064708 2.314721 0.078958 -0.024615 491738.000000 0 0 1
13.426505 -24.663894 -24.233515 37.092344 -1.072279 2.282770 0.076331 -0.019621 -186094.000000 0 0 1
14.425505 -23.977394 -23.451215 36.509863 -1.029180 2.268325 0.053002 -0.014682 78751.100000 0 0 1
14.376505 -24.248594 -22.056215 35.793223 -1.035629 2.234720 0.060063 -0.016350 444241.000000 0 0 1
15.612905 -23.817494 -21.197415 35.501637 -0.990549 2.210656 0.033998 -0.020373 507732.000000 0 0 1
15.715605 -22.434794 -20.925415 34.469889 -0.959734 2.223157 0.039191 -0.027971 -508680.000000 0 0 1
16.921905 -22.127494 -20.305515 34.471594 -0.917925 2.200680 0.040967 -0.025351 -812437.000000 0 0 1
17.222305 -20.612394 -19.983915 33.478881 -0.874762 2.210442 0.062620 -0.012810 13710.000000 0 0 1
16.541305 -20.074094 -18.867915 32.133818 -0.881584 2.198351 0.052132 -0.017749 484818.000000 0 0 1
15.164805 -19.823794 -19.164715 31.468086 -0.917777 2.225622 0.067625 -0.021770 68699.500000 0 0 1
14.261805 -19.817894 -17.930215 30.292584 -0.947009 2.204212 0.071762 -0.023363 -232681.000000 0 0 1
14.461905 -18.684894 -17.110415 29.172560 -0.912118 2.197557 0.066974 -0.023696 -26812.200000 0 0 1
13.924505 -18.875794 -15.834115 28.300294 -0.935220 2.164583 0.064859 -0.028574 -268808.000000 0 0 1
13.875705 -17.554194 -15.026915 26.953536 -0.901906 2.162182 0.079917 -0.022717 -806197.000000 0 0 1
12.630705 -16.920894 -15.098415 25.957918 -0.929567 2.191552 0.081486 -0.029082 -234582.000000 0 0 1
12.616105 -15.740694 -14.333515 24.746418 -0.895144 2.188563 0.068122 -0.024878 401668.000000 0 1 0
11.186705 -15.136194 -14.182615 23.566784 -0.934327 2.216556 0.062837 -0.016634 368902.000000 0 1 0
10.595205 -14.729994 -15.412215 23.806879 -0.947238 2.274945 0.074875 -0.006638 347299.000000 0 1 0
9.305905 -14.189794 -15.115315 22.724940 -0.990343 2.298481 0.064745 -0.004180 647715.000000 0 1 0
8.573305 -13.467494 -16.279415 22.801191 -1.003904 2.365951 0.049034 0.000693 172635.000000 0 1 0
9.049805 -12.204594 -16.672915 22.557420 -0.932752 2.402577 0.042836 0.002891 -535547.000000 0 1 0
10.197605 -12.193394 -17.467715 23.617601 -0.874297 2.403281 0.063103 -0.002178 -242015.000000 0 1 0
10.303705 -10.996094 -18.465515 23.833919 -0.817894 2.457128 0.050677 -0.001279 78969.800000 0 1 0
9.293605 -10.950594 -19.464715 24.190117 -0.867066 2.505892 0.048978 -0.003013 228023.000000 0 1 0
9.465705 -9.809094 -20.295615 24.448515 -0.803212 2.550150 0.039211 -0.005452 91798.500000 0 1 0
9.063805 -10.041794 -21.751015 25.614388 -0.836542 2.585211 0.039655 -0.001554 -440592.000000 0 0 1
10.036205 -10.750794 -22.420315 26.813719 -0.819761 2.561024 0.046275 -0.000413 -927475.000000 0 0 1
9.992105 -10.472794 -23.816815 27.870455 -0.808882 2.595488 0.044227 0.009725 110079.000000 0 0 1
11.127105 -11.258094 -24.508115 29.175415 -0.791250 2.568128 0.069948 0.004849 60840.400000 0 0 1
11.087105 -12.676894 -24.420615 29.664693 -0.852198 2.537859 0.070722 -0.003215 -181156.000000 0 0 1
12.275305 -13.296294 -24.883715 30.768065 -0.825304 2.512822 0.063666 -0.009591 31678.500000 0 0 1
12.344005 -14.807694 -24.633815 31.280459 -0.875888 2.477562 0.061101 -0.011233 -438917.000000 0 0 1
11.282805 -15.529894 -25.209365 31.685823 -0.942491 2.490800 0.062906 -0.010946 -410293.000000 0 0 1
11.333105 -16.872994 -24.850315 32.104133 -0.979337 2.456015 0.076090 -0.016391 79690.500000 0 0 1
10.022805 -17.547194 -25.281215 32.365112 -1.051829 2.467263 0.075326 -0.012447 30565.900000 0 0 1
10.108705 -18.286894 -26.485755 33.735614 -1.065818 2.473650 0.077945 -0.029686 -632223.000000 0 0 1
9.132205 -19.266894 -26.520575 34.028683 -1.128177 2.464439 0.089321 -0.028422 -433449.000000 0 0 1
9.194605 -20.219994 -27.765305 35.557012 -1.144017 2.466849 0.088338 -0.035331 -26352.700000 0 0 1
10.147605 -21.261894 -27.632585 36.312557 -1.125500 2.435596 0.082731 -0.037533 222708.000000 0 0 1
10.008505 -22.206794 -28.654015 37.608037 -1.147364 2.437056 0.086725 -0.035589 -216880.000000 0 0 1
10.801805 -23.465294 -28.375105 38.372459 -1.139384 2.403072 0.071965 -0.031516 -197354.000000 0 0 1
10.828405 -24.345994 -29.450825 39.715651 -1.152299 2.406162 0.066771 -0.030342 -69275.400000 0 0 1
11.557005 -25.506994 -29.161035 40.429409 -1.145374 2.376449 0.087984 -0.032746 -289973.000000 0 0 1
10.889505 -26.555394 -28.240015 40.264982 -1.181641 2.348092 0.091615 -0.029536 78203.700000 0 0 1
11.168905 -26.199794 -26.900865 39.176909 -1.167827 2.327669 0.100281 -0.026824 -331335.000000 0 0 1
10.249505 -26.732894 -25.974605 38.657213 -1.204678 2.307596 0.092499 -0.022969 141011.000000 0 0 1
9.255705 -25.716894 -25.404475 37.315065 -1.225323 2.319664 0.087620 -0.023438 -107360.000000 0 0 1
9.935005 -24.747794 -24.647815 36.313530 -1.189040 2.316856 0.088487 -0.024482 -687477.000000 0 0 1
9.162305 -23.633494 -24.368315 35.161124 -1.200953 2.336504 0.087012 -0.023599 -448728.000000 0 0 1
9.865005 -22.251194 -24.381215 34.451090 -1.153489 2.357041 0.097800 -0.024646 100457.000000 0 0 1
10.623405 -22.024494 -23.196015 33.704454 -1.121372 2.329826 0.099915 -0.018014 -28868.000000 0 0 1
11.539305 -20.987594 -23.386715 33.474963 -1.068095 2.344282 0.077349 -0.014840 -155330.000000 0 0 1
12.318905 -20.528694 -22.133215 32.604630 -1.030316 2.316973 0.070704 -0.011930 430990.000000 0 0 1
11.478005 -19.916094 -21.120915 31.216798 -1.047972 2.313916 0.083314 -0.006863 491896.000000 0 0 1
11.082705 -18.570694 -21.337715 30.380835 -1.032744 2.349478 0.085239 -0.012000 15385.200000 0 0 1
12.160705 -17.498294 -21.020515 29.932175 -0.963457 2.349380 0.068133 -0.013676 198256.000000 0 0 1
13.140805 -17.376394 -22.011915 30.970054 -0.923311 2.361358 0.063286 -0.000678 475958.000000 0 0 1
14.456005 -17.044994 -21.516915 31.023951 -0.867401 2.337213 0.063610 -0.004708 1003400.000000 0 0 1
15.554005 -17.311994 -22.573315 32.422011 -0.838837 2.340934 0.048679 -0.001758 79360.800000 0 0 1
16.849305 -17.094694 -22.038715 32.585773 -0.792627 2.313564 0.057548 -0.007403 -199177.000000 0 0 1
17.790005 -17.172094 -23.057715 33.808628 -0.767726 2.321299 0.059918 -0.008644 1013250.000000 0 0 1
19.301905 -17.286194 -22.566215 34.360007 -0.730362 2.287308 0.051566 -0.006565 1216540.000000 0 0 1
19.670705 -18.608594 -22.151415 34.984305 -0.757659 2.256453 0.054264 -0.008699 11670.000000 0 0 1
21.037905 -18.711794 -21.821515 35.621668 -0.726946 2.230131 0.052970 -0.019072 66696.100000 0 0 1
21.501705 -20.084594 -21.430815 36.400468 -0.751335 2.200309 0.051743 -0.024360 -207912.000000 0 0 1
20.863505 -20.630794 -20.290215 35.673637 -0.779790 2.175810 0.049241 -0.028879 45736.000000 0 0 1
21.255405 -21.923294 -19.981415 36.492191 -0.800865 2.150234 0.054556 -0.021193 -113989.000000 0 0 1
-16.467898 12.787777 28.907589 35.642217 -0.660264 0.624853 0.036857 -0.026116 -577060.000000 0 0 1
-17.692198 13.342177 28.495099 36.097067 -0.646138 0.660962 0.036385 -0.026450 -291363.000000 0 0 1
-17.760798 13.393777 27.089739 35.052720 -0.646133 0.687510 0.036753 -0.030661 139752.000000 0 0 1
-19.140198 13.838277 26.544379 35.530961 -0.625993 0.727142 0.050459 -0.029399 93158.300000 0 0 1
-19.538898 15.117077 26.925539 36.541473 -0.658492 0.742399 0.051246 -0.028275 -167155.000000 0 0 1
-20.484098 15.674977 26.052339 36.660981 -0.653175 0.780405 0.077305 -0.032781 -626268.000000 0 0 1
-20.542598 17.270277 26.151829 37.472376 -0.699073 0.798340 0.072868 -0.024926 1085130.000000 0 0 1
-19.376698 17.967977 25.615269 36.802808 -0.747694 0.800965 0.048217 -0.026480 1031740.000000 0 0 1
-18.312698 18.061477 26.541919 36.960051 -0.778492 0.769693 0.039203 -0.013425 390424.000000 0 0 1
-17.057598 18.911977 26.132499 36.490164 -0.836907 0.772523 0.040478 -0.017383 512702.000000 0 0 1
-17.234998 20.309877 26.097399 37.290890 -0.867115 0.795633 0.043857 -0.018792 173258.000000 0 0 1
-16.057498 20.965377 25.630689 36.801121 -0.917193 0.800337 0.054935 -0.018050 244446.000000 0 0 1
-16.051098 22.483877 25.498349 37.594259 -0.950806 0.825416 0.048841 -0.014942 -95342.400000 0 0 1
-15.812698 23.315277 26.644519 38.775946 -0.974843 0.813251 0.045661 -0.006120 -3969.870000 0 0 1
-16.115898 24.658577 26.366109 39.534027 -0.991921 0.840726 0.046553 -0.011737 -309103.000000 0 0 1
-15.813898 25.728077 27.418859 40.789792 -1.019671 0.833621 0.036402 -0.002015 -374221.000000 0 0 1
-14.411998 25.810677 27.446699 40.338791 -1.061547 0.822482 0.052707 -0.007357 -391609.000000 0 0 1
-13.983498 26.960677 28.149209 41.410075 -1.092330 0.823351 0.046343 -0.005427 1380960.000000 0 0 1
-12.405798 26.941277 28.325209 41.012848 -1.139265 0.808419 0.056404 -0.008477 1554680.000000 0 0 1
-11.607698 27.110277 27.177429 40.103846 -1.166247 0.826198 0.058582 -0.010207 -929725.000000 0 0 1
-10.265598 27.209677 27.488169 40.016852 -1.210030 0.813561 0.050962 -0.001817 -1453670.000000 0 0 1
-9.453098 27.689277 26.326939 39.359432 -1.241804 0.838088 0.052882 -0.008692 -275301.000000 0 0 1
-8.085398 27.918977 26.628259 39.419629 -1.288906 0.829143 0.059271 -0.014744 471561.000000 0 0 1
-7.373698 28.408177 25.491299 38.874185 -1.316838 0.855636 0.064195 -0.019182 -825683.000000 0 0 1
-5.925398 27.979577 25.499559 38.317027 -1.362104 0.842648 0.043980 -0.023227 -1481100.000000 0 0 1
-5.148498 28.630177 26.439279 39.309408 -1.392870 0.833088 0.053476 -0.023402 844559.000000 0 0 1
-3.743098 28.335977 26.238259 38.799286 -1.439460 0.828128 0.039051 -0.012879 1418160.000000 0 0 1
-2.920398 29.277277 25.307619 38.809319 -1.471376 0.860443 0.025050 -0.005985 -514913.000000 0 0 1
-2.971598 29.042777 23.922419 37.743813 -1.468833 0.884327 0.017992 -0.006740 -36702.100000 0 0 1
-2.651198 30.212677 23.162209 38.161796 -1.483269 0.918582 0.012879 -0.011027 -565124.000000 0 0 1
-2.968498 29.953177 21.657779 37.081858 -1.472014 0.947083 0.012723 -0.001362 1052140.000000 0 0 1
-4.369498 30.002577 21.357579 37.086296 -1.426176 0.957106 0.013424 0.003109 338064.000000 0 0 1
-5.071298 28.844777 21.687979 36.443212 -1.396762 0.933385 0.017764 -0.001197 -1743520.000000 0 0 1
-6.481798 28.884277 21.177979 36.398104 -1.350048 0.949803 0.031928 -0.005057 -1619680.000000 0 0 1
-6.707998 28.893677 19.776779 35.650565 -1.342676 0.982746 0.024199 -0.002374 289670.000000 0 0 1
-7.578998 27.892377 19.233979 34.718466 -1.305479 0.983637 0.024795 -0.004346 -644538.000000 0 0 1
-6.928398 26.522077 18.981079 33.342235 -1.315275 0.965166 0.016797 -0.004801 246837.000000 0 0 1
-5.953798 26.446677 17.928779 32.501009 -1.349363 0.986470 0.013125 -0.008232 360482.000000 0 0 1
-4.681698 26.906377 18.350679 32.903174 -1.398522 0.979163 0.016580 -0.002131 -630978.000000 0 0 1
-3.708098 27.024077 17.165179 32.228778 -1.434433 1.009122 0.013770 -0.001694 -397932.000000 0 0 1
-3.447698 25.851277 16.505179 30.864155 -1.438212 1.006563 0.026685 -0.008213 -169502.000000 0 0 1
-2.583398 26.188277 15.451479 30.516356 -1.472467 1.039868 0.036016 -0.016055 -161014.000000 0 0 1
-2.042198 24.984577 14.639379 29.029486 -1.489239 1.042233 0.040390 -0.020413 440048.000000 0 0 1
-0.940698 24.399177 15.368479 28.851255 -1.532261 1.009033 0.029928 -0.020805 725514.000000 0 0 1
-0.380698 23.216577 14.753079 27.510139 -1.554400 1.004775 0.026429 -0.025290 -143964.000000 0 0 1
0.936802 22.791577 15.443879 27.547177 1.529716 0.975645 0.021205 -0.020903 49653.100000 0 0 1
1.960502 23.742277 15.220479 28.270166 1.488409 1.002267 0.032426 -0.025882 -205256.000000 0 0 1
3.177902 23.286777 15.770479 28.303375 1.435166 0.979793 0.031397 -0.022334 -134167.000000 0 0 1
4.379302 24.225377 15.498679 29.090484 1.391954 1.008920 0.051696 -0.026392 -172058.000000 0 0 1
5.545402 23.591877 15.949979 29.012583 1.339932 0.988719 0.061896 -0.022207 -717365.000000 0 0 1
6.657602 24.423477 15.898379 29.892948 1.304672 1.010020 0.079302 -0.027736 965588.000000 0 0 1
8.102802 23.730477 15.797779 29.637152 1.241757 1.008607 0.096790 -0.022809 1460900.000000 0 0 1
8.511702 23.298577 14.512979 28.738464 1.220529 1.041412 0.084229 -0.022248 68272.400000 0 0 1
9.359202 24.177877 13.813879 29.376652 1.201462 1.081241 0.092465 -0.023025 -263421.000000 0 0 1
9.990302 23.516877 12.568179 28.474704 1.169083 1.113660 0.083360 -0.015879 -161251.000000 0 0 1
11.006302 22.581277 12.839679 28.211879 1.117273 1.098294 0.080084 -0.016649 8721.470000 0 0 1
11.617002 22.010277 11.704479 27.502761 1.085158 1.131199 0.080119 -0.016766 371819.000000 0 0 1
12.869602 21.142277 12.004079 27.508552 1.023994 1.119229 0.067492 -0.027451 346565.000000 0 0 1
12.557902 19.937277 12.594379 26.717303 1.008702 1.079925 0.065315 -0.018435 232851.000000 0 0 1
13.768902 19.199477 12.709079 26.827659 0.948653 1.077274 0.053674 -0.026973 213748.000000 0 0 1
14.105602 18.989977 14.231879 27.606768 0.931924 1.029180 0.061442 -0.021933 -466663.000000 0 0 1
15.282202 18.217677 14.290879 27.742723 0.872801 1.029647 0.046603 -0.029806 -9650.990000 0 0 1
15.694702 17.959377 15.612879 28.506576 0.852590 0.991191 0.040479 -0.028577 -72088.000000 0 0 1
16.946702 17.062677 15.619379 28.675611 0.788808 0.994774 0.030173 -0.027102 -113413.000000 0 0 1
17.263002 16.677577 16.939379 29.378485 0.768151 0.956246 0.030314 -0.031100 228787.000000 0 0 1
18.395902 15.832777 17.003379 29.634455 0.710655 0.959694 0.023156 -0.021918 -70280.500000 0 0 1
18.934602 15.417477 18.361079 30.550728 0.683369 0.926041 0.030331 -0.023211 -276526.000000 0 0 1
19.467402 16.500877 19.171079 31.918473 0.703108 0.926512 0.043309 -0.023070 46564.100000 0 0 1
18.550602 17.375777 19.770579 32.201215 0.752709 0.909716 0.036790 -0.020262 -438646.000000 0 0 1
19.220102 18.444577 20.691379 33.730519 0.764811 0.910397 0.033184 -0.018773 250035.000000 0 0 1
18.315202 19.381277 21.233879 34.087507 0.813671 0.898323 0.064426 -0.017315 843492.000000 0 0 1
19.187002 20.305977 21.896579 35.495548 0.813724 0.906021 0.062196 -0.015707 572900.000000 0 0 1
18.381602 21.419877 22.535479 36.118447 0.861586 0.897031 0.089900 -0.018131 459141.000000 0 0 1
17.442602 20.962477 23.535819 36.022279 0.876794 0.858771 0.086961 -0.018238 357069.000000 0 0 1
16.671302 22.034077 23.967189 36.576755 0.923075 0.856273 0.081985 -0.030996 -6981.600000 0 0 1
15.732902 21.816877 25.177529 36.843022 0.946027 0.818423 0.107472 -0.035924 412748.000000 0 0 1
14.716002 20.828577 25.044369 35.743681 0.955702 0.794466 0.099715 -0.038107 71432.400000 0 0 1
13.942602 20.801077 26.240439 36.271774 0.980295 0.762025 0.096739 -0.032524 269155.000000 0 0 1
12.752602 19.793377 26.196139 35.222781 0.998448 0.732168 0.102910 -0.029327 94130.300000 0 0 1
12.998402 18.404977 26.314429 34.643193 0.955892 0.708122 0.102124 -0.029589 -240583.000000 0 0 1
13.701702 17.795977 25.259699 33.800678 0.914660 0.726787 0.108224 -0.033260 210914.000000 0 0 1
12.884502 17.518277 23.926499 32.332302 0.936647 0.737699 0.116119 -0.034559 -94738.300000 0 0 1
12.516202 18.593677 23.102479 32.188580 0.978324 0.770270 0.104315 -0.032120 -536536.000000 0 0 1
13.528802 19.245577 22.411279 32.491324 0.958089 0.809636 0.098900 -0.028979 -100700.000000 0 0 1
14.347702 18.436577 21.340579 31.641495 0.909478 0.830578 0.104521 -0.030036 -46451.600000 0 0 1
13.547102 17.999577 20.272579 30.306537 0.925611 0.838045 0.098636 -0.026923 -105009.000000 0 0 1
14.200702 17.023777 19.495579 29.521967 0.875565 0.849478 0.078052 -0.023202 168050.000000 0 0 1
13.293802 16.349277 18.423079 27.989889 0.888111 0.852365 0.075691 -0.021414 400359.000000 0 0 1
12.626002 17.252377 17.532079 27.648404 0.939018 0.883942 0.081194 -0.024814 -391317.000000 0 0 1
11.701802 16.561577 16.788679 26.326370 0.955679 0.879270 0.060606 -0.021796 -382137.000000 0 0 1
11.148402 17.361477 15.575179 25.851382 0.999970 0.924180 0.054915 -0.014301 424245.000000 0 0 1
10.241202 18.463677 15.813679 26.379197 1.064377 0.927951 0.062663 -0.023853 621524.000000 0 0 1
9.726102 18.874677 14.547179 25.738510 1.094985 0.970131 0.057159 -0.006483 281651.000000 0 0 1
8.516802 19.839677 14.548479 26.034726 1.165305 0.977846 0.067242 -0.007736 369536.000000 0 0 1
7.285802 19.421277 15.102579 25.658465 1.211898 0.941470 0.037689 -0.006574 -521331.000000 0 0 1
6.379302 20.454477 15.093679 26.208782 1.268478 0.957090 0.051175 -0.016248 -274712.000000 0 0 1
5.040702 20.106277 15.787679 26.056129 1.325156 0.919887 0.037878 -0.014533 318482.000000 0 0 1
4.218002 19.219977 15.029679 24.760661 1.354762 0.918518 0.039386 -0.016867 795341.000000 0 1 0
2.913002 19.079177 15.631379 24.836276 1.419287 0.890045 0.022948 -0.010847 1231910.000000 0 1 0
1.782002 18.595877 14.684879 23.761899 1.475260 0.904599 0.014392 -0.011657 -127205.000000 0 1 0
1.156702 19.635877 13.992079 24.138846 1.511957 0.952497 0.017125 -0.018709 -271110.000000 0 1 0
0.155802 19.030577 13.205479 23.164020 1.562610 0.964186 0.016159 -0.020415 -534600.000000 0 1 0
-0.813098 19.918077 12.458579 23.507597 -1.529997 1.012218 0.023019 -0.029127 513380.000000 0 1 0
-1.842998 20.545377 13.279279 24.532599 -1.481332 0.998824 0.034319 -0.029402 201234.000000 0 1 0
-2.997398 20.689877 12.515579 24.365860 -1.426925 1.031360 0.041057 -0.034406 410547.000000 0 1 0
-4.205898 21.423477 13.230779 25.528581 -1.376940 1.025966 0.040821 -0.028558 497470.000000 0 0 1
-4.844298 20.604277 14.139779 25.454603 -1.339879 0.981844 0.035324 -0.030826 -105413.000000 0 0 1
-5.883598 21.343777 14.778379 26.619054 -1.301818 0.982216 0.041167 -0.028038 -333659.000000 0 0 1
-6.623498 20.603977 15.916079 26.864776 -1.259763 0.936698 0.031636 -0.022440 -447070.000000 0 0 1
-7.678098 19.755677 15.478579 26.245502 -1.200110 0.940033 0.026362 -0.019573 128967.000000 0 0 1
-8.449598 19.218477 16.520779 26.714822 -1.156574 0.904075 0.010917 -0.008279 -800982.000000 0 0 1
-9.598698 20.074677 16.989679 27.996015 -1.124781 0.918692 0.015448 -0.004457 -579843.000000 0 0 1
-10.715098 20.155077 16.089879 27.927131 -1.082164 0.956801 0.009417 -0.009943 516682.000000 0 0 1
-11.747198 19.323077 16.604979 28.055361 -1.024562 0.937426 0.002217 -0.004649 52455.800000 0 0 1
-13.061598 19.275177 15.765679 28.119289 -0.975236 0.975600 0.000004 -0.008248 65729.200000 0 0 1
-13.766998 20.471577 15.673779 29.228121 -0.978771 1.004800 -0.006224 0.002238 -269314.000000 0 0 1
-14.453798 20.528177 14.450979 28.968071 -0.957327 1.048515 -0.000806 -0.005320 -509470.000000 0 0 1
-15.333898 21.784377 14.513879 30.337109 -0.957462 1.071942 0.006535 -0.009162 -97959.700000 0 0 1
-16.547498 21.516377 15.198579 31.109018 -0.915205 1.060359 0.007269 -0.007012 680808.000000 0 0 1
-17.410698 22.694277 15.252479 32.416057 -0.916388 1.080914 0.026738 -0.015792 228028.000000 0 0 1
-18.722598 22.500677 15.998879 33.358362 -0.876792 1.070590 0.055475 -0.015362 -1125920.000000 0 0 1
-19.577398 21.571377 15.373379 32.938422 -0.833818 1.085206 0.058265 -0.016328 451589.000000 0 0 1
-20.833798 21.386377 16.020979 33.883566 -0.798485 1.078303 0.066001 -0.022980 631113.000000 0 0 1
-21.858498 22.531377 16.142979 35.299471 -0.800555 1.095823 0.068577 -0.022774 -1218010.000000 0 0 1
-22.651698 22.632477 14.997579 35.358957 -0.784974 1.132771 0.070621 -0.017097 11260.400000 0 0 1
-23.469998 23.806377 15.075879 36.672422 -0.792513 1.147141 0.086924 -0.021332 11709.300000 0 0 1
-23.064498 25.058377 14.200479 36.899146 -0.826808 1.175756 0.063856 -0.007263 700937.000000 0 0 1
-21.796498 25.611377 14.595079 36.661237 -0.865694 1.161344 0.041401 -0.003363 795493.000000 0 0 1
-21.306698 26.641777 13.729879 36.773214 -0.896209 1.188161 0.051765 -0.004105 -586826.000000 0 0 1
-19.891398 27.177477 13.924879 36.444276 -0.938975 1.178743 0.042946 -0.001163 -759471.000000 0 0 1
-18.955898 26.297777 13.394379 35.075754 -0.946235 1.178978 0.037131 0.003150 -893832.000000 0 0 1
-17.654898 26.804577 13.470779 34.808658 -0.988363 1.173426 0.016030 -0.003841 -276523.000000 0 0 1
-16.678898 26.024677 12.512279 33.347063 -1.000854 1.186169 0.022810 -0.004353 -229584.000000 0 0 1
-15.430798 26.637677 12.612279 33.267777 -1.045748 1.181958 0.026572 -0.002067 -1274360.000000 0 0 1
-14.439498 25.923177 11.981079 32.000882 -1.062586 1.187048 0.024569 -0.002674 2646.020000 0 0 1
-13.047398 26.627877 12.178479 32.056104 -1.115189 1.181096 0.020349 0.001402 -446794.000000 0 0 1
-11.974698 25.791577 11.868479 30.813303 -1.136125 1.175400 0.011485 -0.004627 298402.000000 0 0 1
-10.688798 26.361777 12.090279 30.909037 -1.185587 1.168908 0.025030 -0.011281 471463.000000 0 0 1
-10.164798 27.589877 11.313479 31.504274 -1.217803 1.203483 0.023677 -0.020044 -63913.200000 0 0 1
-8.871798 28.038077 11.752779 31.669708 -1.264345 1.190598 0.039527 -0.028876 819293.000000 0 0 1
-8.594298 29.284677 11.167279 32.498652 -1.285337 1.220024 0.044603 -0.027723 -204750.000000 0 0 1
-7.275698 29.937977 11.613279 32.925469 -1.332392 1.210326 0.033956 -0.020648 1087680.000000 0 0 1
-6.095498 29.148177 11.276079 31.842131 -1.364646 1.208819 0.048045 -0.023542 1128640.000000 0 0 1
-4.972098 29.459477 12.094279 32.231260 -1.403595 1.186147 0.063309 -0.021750 63919.900000 0 0 1
-3.635398 28.963377 11.545479 31.390945 -1.445932 1.194158 0.068941 -0.032806 -149437.000000 0 0 1
-3.162498 29.687377 10.413579 31.619367 -1.464670 1.235190 0.086720 -0.037467 -74813.200000 0 0 1
-1.881498 29.406677 9.918879 31.091427 -1.506901 1.246098 0.091218 -0.042155 -73289.900000 0 0 1
-1.521498 30.106677 8.565779 31.338467 -1.520302 1.293942 0.090268 -0.038919 228067.000000 0 0 1
-2.229798 29.669677 7.403879 30.660710 -1.495783 1.326908 0.090021 -0.036005 90647.000000 0 0 1
-1.952698 30.531277 6.344479 31.244589 -1.506926 1.366316 0.093747 -0.036469 77104.100000 0 0 1
11.968802 34.090177 -26.504775 44.809547 1.233149 2.203712 0.150661 -0.048949 -109254.000000 0 0 1
12.307402 -33.988894 -25.141595 44.031998 -1.223382 2.178501 0.144965 -0.047903 462980.000000 0 0 1
13.478402 -33.190094 -25.093655 43.737183 -1.185045 2.181858 0.137548 -0.040966 231305.000000 0 0 1
14.229102 -33.294494 -23.727415 43.289501 -1.166919 2.150899 0.120287 -0.029047 -541224.000000 0 0 1
13.546402 -32.561294 -22.683515 41.931906 -1.176550 2.142375 0.126007 -0.038050 761516.000000 0 0 1
14.201902 -32.586094 -21.408815 41.495601 -1.159791 2.112889 0.089904 -0.025606 651772.000000 0 0 1
15.685402 -32.067594 -21.311415 41.575700 -1.115878 2.108998 0.051212 -0.006243 594836.000000 0 0 1
16.531202 -33.021394 -21.915415 42.941571 -1.106652 2.106393 0.060998 -0.008529 267183.000000 0 0 1
17.875602 -32.910994 -21.425015 43.147444 -1.073228 2.090420 0.038252 -0.009738 318781.000000 0 0 1
18.852202 -34.057194 -21.633515 44.534335 -1.065235 2.078042 0.018063 0.006751 -123879.000000 0 0 1
20.113302 -33.716294 -21.071015 44.556942 -1.032921 2.063376 0.013898 0.014418 456511.000000 0 0 1
21.010202 33.439977 -21.137015 44.793237 1.009830 2.062218 0.020243 0.011568 79200.300000 0 0 1
22.480202 33.789377 -20.786215 45.597678 0.983738 2.044136 0.030444 0.012907 -116442.000000 0 0 1
23.191302 -33.987394 -21.920615 46.620734 -0.972014 2.060303 0.024675 0.012546 -734145.000000 0 0 1
24.496302 -33.744194 -21.537015 46.931679 -0.942871 2.047555 0.018879 0.015245 -693531.000000 0 0 1
25.362302 -33.074194 -22.639215 47.430821 -0.916610 2.068388 0.032036 0.010511 141827.000000 0 0 1
25.071402 -31.680594 -22.697915 46.340378 -0.901333 2.082667 0.032485 0.002862 -51321.200000 0 0 1
23.974002 -31.382194 -23.528715 45.969504 -0.918435 2.108114 0.020390 0.006526 -24149.600000 0 0 1
23.746502 -29.852494 -23.545815 44.827148 -0.898829 2.123815 0.023580 -0.011512 -386455.000000 0 0 1
24.781702 -29.133794 -24.172815 45.246389 -0.865944 2.134415 0.027775 -0.009845 -131331.000000 0 0 1
24.707902 -27.735594 -23.945015 44.193974 -0.843067 2.143393 0.047894 -0.010469 -183477.000000 0 0 1
25.325702 -26.863294 -25.001915 44.588379 -0.814852 2.166060 0.047789 -0.019540 -367475.000000 0 0 1
24.501502 -26.602494 -26.072595 44.584712 -0.826487 2.195415 0.042886 -0.019582 -845304.000000 0 0 1
25.188902 -25.903494 -27.058865 45.140381 -0.799384 2.213595 0.042075 -0.018440 -1185080.000000 0 0 1
24.371202 -25.569094 -28.275585 45.246467 -0.809380 2.245830 0.041852 -0.014800 -274210.000000 0 0 1
23.552902 -24.426494 -28.221265 44.134257 -0.803604 2.264568 0.056174 -0.017767 -773561.000000 0 0 1
22.289102 -24.656894 -27.687695 43.259392 -0.835792 2.265345 0.055202 -0.020211 -1114580.000000 0 0 1
21.520502 -23.347394 -27.438935 41.965795 -0.826093 2.283445 0.059904 -0.016888 -606965.000000 0 0 1
20.870602 -22.972394 -28.587185 42.196446 -0.833301 2.315125 0.078350 -0.020007 -179450.000000 0 0 1
20.480902 -21.591494 -28.556145 41.244556 -0.811789 2.335553 0.069935 -0.006454 -475120.000000 0 0 1
19.389502 -21.251794 -29.562965 41.249975 -0.831189 2.369824 0.099525 -0.023507 -457936.000000 0 0 1
18.157902 -21.806694 -29.180285 40.702953 -0.876446 2.370154 0.078759 -0.024815 75351.700000 0 0 1
17.066802 -21.201294 -29.878025 40.416172 -0.893021 2.402766 0.065076 -0.031016 412548.000000 0 0 1
15.793502 -22.083394 -29.743775 40.271617 -0.949958 2.401757 0.054200 -0.031341 -355535.000000 0 0 1
15.809002 -23.245494 -30.538015 41.507203 -0.973559 2.397537 0.053207 -0.024371 259548.000000 0 0 1
15.051302 -24.319094 -29.988165 41.439716 -1.016589 2.379884 0.067179 -0.028795 -161855.000000 0 0 1
15.174302 -25.658694 -30.766935 42.839612 -1.036732 2.371992 0.095653 -0.029641 244064.000000 0 0 1
14.425602 -26.704394 -30.115325 42.756935 -1.075511 2.352286 0.107285 -0.035254 190471.000000 0 0 1
14.770402 -27.944894 -30.650495 44.028795 -1.084567 2.340812 0.147329 -0.033016 420256.000000 0 0 1
14.101402 -29.188494 -29.872445 44.081524 -1.120748 2.315377 0.145272 -0.042821 340548.000000 0 0 1
14.537102 -29.427094 -28.533225 43.490529 -1.111957 2.286408 0.173043 -0.046575 58510.300000 0 0 1
14.262702 -28.383194 -27.617025 42.091929 -1.105147 2.286452 0.139456 -0.036002 333012.000000 0 0 1
15.416502 -28.290694 -26.557515 41.753246 -1.071852 2.260176 0.100497 -0.021416 185901.000000 0 0 1
15.437602 -29.383794 -25.624635 41.932670 -1.087053 2.228233 0.107111 -0.027826 334606.000000 0 0 1
16.309902 -29.198994 -24.499515 41.458659 -1.061392 2.203018 0.109072 -0.033362 -690981.000000 0 0 1
15.947702 -27.977994 -23.560115 39.902085 -1.052721 2.202410 0.094738 -0.029136 1135370.000000 0 0 1
14.716302 -28.079294 -22.833515 39.068987 -1.088057 2.194987 0.080058 -0.028443 1014980.000000 0 0 1
13.460202 -28.297294 -23.440615 39.132804 -1.126801 2.213050 0.101729 -0.026562 -464206.000000 0 0 1
12.238402 -28.279294 -22.522615 38.167593 -1.162364 2.201976 0.088865 -0.021229 -231442.000000 0 0 1
12.010102 -26.948594 -22.187815 36.915693 -1.151551 2.215598 0.074489 -0.021276 953425.000000 0 0 1
10.858102 -26.824694 -21.308415 35.937601 -1.186176 2.205487 0.068869 -0.021461 298133.000000 0 0 1
10.375002 -25.383494 -21.050115 34.569782 -1.182787 2.225490 0.085262 -0.022890 -741653.000000 0 0 1
11.129402 -24.598494 -20.196515 33.717188 -1.145913 2.213045 0.074768 -0.019586 -153188.000000 0 0 1
10.633102 -23.293994 -20.100415 32.553029 -1.142572 2.236315 0.081171 -0.023815 -128804.000000 0 0 1
11.154302 -22.594994 -18.850215 31.468760 -1.112232 2.213065 0.072297 -0.027305 -58646.100000 0 0 1
10.461502 -23.030894 -17.725015 30.887559 -1.144424 2.182003 0.069628 -0.029753 184691.000000 0 0 1
10.871702 -22.250194 -16.621215 29.824987 -1.116301 2.161917 0.067935 -0.030659 105853.000000 0 0 1
10.021202 -22.652494 -15.370415 29.151495 -1.154290 2.126169 0.056157 -0.029005 250456.000000 0 0 1
10.313202 -23.940294 -14.947415 30.048711 -1.164033 2.091441 0.067108 -0.026273 -89338.900000 0 0 1
9.404702 -24.370894 -13.955715 29.616733 -1.202505 2.061459 0.065815 -0.025567 -64738.500000 0 0 1
9.476502 -25.920794 -13.629815 30.780895 -1.220297 2.029517 0.056665 -0.018894 -584889.000000 0 0 1
10.640302 -26.354494 -13.017415 31.260654 -1.187072 2.000295 0.045100 -0.014107 -808005.000000 0 0 1
10.714802 -27.755994 -13.190815 32.545350 -1.202386 1.988110 0.037879 -0.010638 -828006.000000 0 0 1
11.964202 -28.281294 -12.471115 33.143664 -1.170584 1.956568 0.053955 -0.016795 968594.000000 0 0 1
13.253302 -27.925394 -13.009415 33.536883 -1.127677 1.969163 0.054574 -0.018990 928191.000000 0 0 1
13.583402 -28.321894 -14.341715 34.530035 -1.123595 1.999113 0.050703 -0.023288 -504348.000000 0 0 1
14.964602 -27.855794 -14.878015 34.946243 -1.077820 2.010576 0.041986 -0.022007 971678.000000 0 0 1
16.097502 -28.526494 -14.256315 35.723003 -1.057041 1.981309 0.079759 -0.029809 663380.000000 0 0 1
17.230802 -27.907994 -14.843515 36.001203 -1.017670 1.995780 0.100632 -0.030378 446269.000000 0 0 1
18.654602 -28.462794 -14.586015 37.025352 -0.990632 1.975718 0.096143 -0.026514 600054.000000 0 0 1
18.785902 -29.569194 -15.425915 38.278012 -1.004810 1.985585 0.084839 -0.013670 -619811.000000 0 0 1
20.124302 -29.833494 -15.716215 39.268618 -0.977353 1.982557 0.099047 -0.007470 -243463.000000 0 0 1
20.183002 -30.916694 -16.818815 40.571765 -0.992442 1.998239 0.079190 -0.013087 65219.200000 0 0 1
19.923602 -32.231294 -16.360215 41.273028 -1.017142 1.978378 0.069767 0.000555 -72781.000000 0 0 1
20.187802 -33.084994 -17.412615 42.489568 -1.022925 1.993041 0.056819 -0.004308 12910.800000 0 0 1
20.109602 33.594177 -17.184015 42.758101 1.031404 1.984375 0.037655 0.007843 447830.000000 0 0 1
21.172602 32.961777 -16.433415 42.483114 0.999826 1.967979 0.066195 -0.005857 576072.000000 0 0 1
20.944102 31.627477 -16.027515 41.180505 0.985884 1.970561 0.053130 -0.015220 84461.500000 0 0 1
21.923802 31.055877 -14.940215 40.845203 0.956090 1.945263 0.049341 -0.016791 -150851.000000 0 0 1
23.285202 30.924077 -15.231515 41.599258 0.925391 1.945663 0.051411 -0.016051 245603.000000 0 0 1
24.144802 30.551877 -14.132815 41.426141 0.902005 1.918944 0.066474 -0.017919 464992.000000 0 0 1
23.934402 29.191977 -13.397915 40.056601 0.884041 1.911844 0.064881 -0.019250 -1124360.000000 0 0 1
24.048602 28.010677 -14.136115 39.531798 0.861359 1.936481 0.054646 -0.018597 47326.300000 0 0 1
23.775502 26.820277 -13.395615 38.262831 0.845504 1.928469 0.028721 -0.014408 238484.000000 0 0 1
22.312802 26.707377 -12.847615 37.097255 0.874807 1.924445 0.028068 -0.008397 344471.000000 0 0 1
21.437902 26.342677 -13.936515 36.711670 0.887692 1.960183 0.032612 -0.002754 2164210.000000 0 0 1
19.992002 26.457177 -13.667115 35.867149 0.923698 1.961726 0.031196 -0.003036 2362280.000000 0 0 1
19.388802 27.905977 -13.949515 36.732250 0.963575 1.960335 0.034713 -0.010092 -136166.000000 0 0 1
19.385102 28.474177 -15.277215 37.682280 0.973076 1.988236 0.037364 -0.007499 78513.100000 0 0 1
18.393002 27.947877 -16.137615 37.145780 0.988735 2.020213 0.033775 0.005385 -287992.000000 0 0 1
18.415102 28.544777 -17.543415 38.232077 0.997852 2.047515 0.033280 0.003420 198902.000000 0 0 1
17.663202 29.756877 -17.484415 38.770675 1.035108 2.038648 0.029739 -0.002177 1584.150000 0 0 1
18.108002 30.594677 -18.492015 40.073540 1.036378 2.050428 0.020693 0.005545 -227441.000000 0 0 1
17.155702 31.725177 -18.931015 40.733135 1.075075 2.054157 0.017471 0.003796 -11785.300000 0 0 1
16.819802 32.764177 -17.990015 40.988263 1.096518 2.025178 0.042378 -0.013782 618015.000000 0 0 1
15.827102 33.667577 -18.547515 41.569378 1.131354 2.033291 0.043948 -0.010353 537376.000000 0 0 1
15.611902 -33.386094 -17.636115 40.858235 -1.133389 2.017108 0.050529 -0.006116 195455.000000 0 0 1
14.670202 -32.446394 -18.165215 39.974471 -1.146167 2.042518 0.041028 -0.006164 208665.000000 0 0 1
14.406102 -31.483394 -17.217515 38.667593 -1.141659 2.032272 0.044111 -0.011346 -598786.000000 0 0 1
13.316402 -30.498794 -17.616415 37.654231 -1.159124 2.057649 0.032882 -0.014911 502446.000000 0 0 1
12.053502 -31.197494 -17.623215 37.804077 -1.202103 2.055756 0.038409 -0.005188 399387.000000 0 0 1
10.955202 -30.404794 -17.973215 36.979784 -1.224965 2.078336 0.027945 -0.004286 -472362.000000 0 0 1
9.721602 -31.182594 -18.383915 37.481089 -1.268582 2.083443 0.050005 -0.014289 -1797850.000000 0 0 1
9.036802 -31.777394 -17.255315 37.272141 -1.293732 2.052122 0.047282 -0.010327 1125330.000000 0 0 1
7.842702 -32.454894 -17.718815 37.799266 -1.333692 2.058684 0.064042 -0.008762 1341600.000000 0 0 1
6.645202 -31.661394 -18.336615 37.186477 -1.363916 2.086445 0.073658 -0.001783 -575780.000000 0 0 1
6.962002 -31.040194 -19.548815 37.337907 -1.350158 2.121826 0.066385 0.002148 -312434.000000 0 0 1
6.875402 -31.923494 -20.654115 38.639010 -1.358665 2.134760 0.089651 -0.010378 -920013.000000 0 0 1
7.532302 -31.416994 -21.912715 39.037548 -1.335485 2.166781 0.104205 -0.010257 -131422.000000 0 0 1
8.938702 -31.385094 -22.047815 39.383127 -1.293335 2.164976 0.088343 -0.013223 475760.000000 0 0 1
9.630902 -32.664594 -22.166015 40.633265 -1.284078 2.147799 0.094302 -0.012923 -52795.000000 0 0 1
9.236602 -33.681494 -23.289015 41.977805 -1.303143 2.158911 0.115951 -0.027479 363980.000000 0 0 1
7.926602 34.027677 -23.043915 41.853744 1.341932 2.153858 0.116464 -0.039471 613471.000000 0 0 1
7.641102 32.934277 -23.907715 41.408114 1.342819 2.186298 0.112915 -0.050846 25679.200000 0 0 1
6.533002 31.968777 -23.315515 40.103567 1.369216 2.191223 0.129164 -0.063004 420161.000000 0 0 1
5.209302 32.407977 -23.412415 40.318172 1.411418 2.190374 0.130461 -0.056320 -9908.000000 0 0 1
4.810302 33.506477 -22.579915 40.689994 1.428207 2.159070 0.098540 -0.045341 -1400700.000000 0 0 1
3.508602 -34.110194 -23.041915 41.312776 -1.468296 2.162461 0.079126 -0.040664 -1061810.000000 0 0 1
2.402102 33.399577 -22.638715 40.420456 1.499000 2.165279 0.076516 -0.049823 -36683.200000 0 0 1
1.236202 33.850277 -23.343015 41.137159 1.534293 2.174194 0.071740 -0.038535 246203.000000 0 0 1
-0.058298 33.236477 -22.771115 40.288838 -1.569042 2.171468 0.065792 -0.043313 -408685.000000 0 0 1
-0.492098 33.826977 -21.567015 40.120353 -1.556250 2.138335 0.046437 -0.040012 399631.000000 0 0 1
-1.516498 33.043077 -20.918615 39.137363 -1.524934 2.134703 0.044943 -0.042298 566571.000000 0 0 1
-1.860598 33.472777 -19.507315 38.786905 -1.515268 2.097788 0.057378 -0.039655 127556.000000 0 0 1
-0.867398 33.053077 -18.599915 37.936989 -1.544560 2.083212 0.051218 -0.044472 4001.130000 0 0 1
-1.347398 33.158177 -17.270115 37.410387 -1.530183 2.050639 0.027415 -0.028932 267699.000000 0 0 1
-0.763098 32.039477 -16.333315 35.970649 -1.546983 2.042128 0.020071 -0.014865 187751.000000 0 0 1
0.594102 32.209977 -16.029015 35.982842 1.552354 2.032487 0.015900 -0.014313 -332524.000000 0 0 1
1.111502 31.137577 -15.215615 34.674185 1.535115 2.025078 0.034897 -0.010126 99906.900000 0 0 1
2.135602 31.550077 -14.170215 34.652030 1.503210 1.992076 0.055407 -0.014327 -447273.000000 0 0 1
3.289202 32.150777 -14.696315 35.503141 1.468846 1.997579 0.062112 -0.017372 -182942.000000 0 0 1
4.104302 32.641477 -13.646715 35.616628 1.445714 1.964007 0.072191 -0.021006 -123511.000000 0 0 1
5.501102 33.097877 -14.109415 36.397901 1.406095 1.968870 0.071891 -0.027750 -155249.000000 0 0 1
6.336102 32.050377 -14.477415 35.734695 1.375621 1.987924 0.077658 -0.027390 -857055.000000 0 0 1
7.397302 32.451277 -15.293715 36.629267 1.346675 2.001519 0.073652 -0.015452 -655487.000000 0 0 1
8.383102 31.310277 -15.465715 35.913761 1.309190 2.015992 0.071302 -0.025845 -187037.000000 0 0 1
9.369502 31.277277 -14.444215 35.702815 1.279741 1.987303 0.071639 -0.034831 214096.000000 0 0 1
10.335102 30.200777 -14.475815 35.049258 1.241075 1.996557 0.075522 -0.037569 498891.000000 0 0 1
9.929202 28.801777 -14.063515 33.554640 1.238813 2.003275 0.089551 -0.036835 -549162.000000 0 0 1
9.031802 28.158077 -14.913915 33.119113 1.260410 2.037910 0.104721 -0.039004 -218896.000000 0 0 1
8.707902 26.906977 -14.339015 31.708364 1.257804 2.040044 0.093167 -0.030794 -300713.000000 0 0 1
7.923202 25.927377 -15.186715 31.074786 1.274217 2.081413 0.103608 -0.030555 -264184.000000 0 0 1
8.591402 25.402677 -16.280215 31.371223 1.244665 2.116423 0.107372 -0.026993 -626243.000000 0 0 1
7.753002 24.505877 -16.921115 30.772897 1.264387 2.153006 0.091221 -0.017806 78708.800000 0 0 1
8.502902 23.792577 -18.109715 31.086136 1.227565 2.192678 0.101079 -0.013449 415684.000000 0 0 1
7.802602 22.794777 -18.853515 30.593096 1.241000 2.234790 0.091543 -0.013259 -328756.000000 0 0 1
8.722302 21.997477 -19.541515 30.689385 1.193299 2.261074 0.078033 -0.011282 -337190.000000 0 0 1
8.221002 21.130077 -20.687215 30.692441 1.199751 2.310429 0.051290 -0.007169 290749.000000 0 0 1
7.240902 20.159277 -20.262215 29.485327 1.225963 2.328419 0.050209 -0.003192 584920.000000 0 0 1
6.722202 19.477077 -21.410215 29.714337 1.238463 2.375370 0.041290 0.000806 133221.000000 0 0 1
24.876402 -12.869623 -9.153115 29.465948 -0.477425 1.886656 0.068944 0.000526 -27295.500000 0 0 1
25.588002 -12.041923 -8.226115 29.452041 -0.439859 1.853867 0.068861 -0.008581 493791.000000 0 0 1
24.853702 -11.826623 -7.024115 28.406226 -0.444141 1.820662 0.047423 -0.003574 -574773.000000 0 0 1
25.654402 -11.220723 -5.878115 28.611277 -0.412310 1.777717 0.035383 -0.010581 -501805.000000 0 0 1
25.875202 -9.797823 -5.819715 28.273530 -0.361973 1.778114 0.048556 -0.016948 212429.000000 0 0 1
26.907502 -9.298523 -6.623915 29.229308 -0.332726 1.799401 0.053572 -0.016046 -1055090.000000 0 0 1
27.148402 -7.792623 -6.252715 28.928483 -0.279523 1.788660 0.097784 -0.017905 -76689.900000 0 0 1
27.741002 -7.477923 -5.002115 29.163396 -0.263304 1.743169 0.098445 -0.029661 471143.000000 0 0 1
29.003502 -8.064723 -4.720915 30.471789 -0.271209 1.726350 0.104637 -0.031619 -90932.100000 0 0 1
29.509102 -7.847423 -3.254215 30.707638 -0.259917 1.676970 0.103866 -0.030142 -260325.000000 0 0 1
29.727502 -6.522323 -2.824015 30.565342 -0.215981 1.663321 0.113584 -0.034746 393219.000000 0 0 1
30.434202 -6.591623 -1.581215 31.179967 -0.213292 1.621531 0.115176 -0.028041 235533.000000 0 0 1
30.696202 -5.150723 -0.937715 31.139461 -0.166248 1.600914 0.120271 -0.034891 23668.700000 0 0 1
29.511402 -4.554623 -0.462315 29.864379 -0.153126 1.586277 0.128405 -0.037801 -55910.400000 0 0 1
29.685502 -3.253023 0.023585 29.863217 -0.109147 1.570007 0.132725 -0.029946 -252420.000000 0 0 1
30.194502 -3.074123 1.452785 30.385338 -0.101461 1.522966 0.128638 -0.023618 245911.000000 0 0 1
29.173502 -3.374923 2.422585 29.467817 -0.115173 1.488492 0.125331 -0.031077 758514.000000 0 0 1
29.705602 -3.224823 3.736885 30.112897 -0.108136 1.446380 0.130688 -0.026694 49345.600000 0 0 1
29.212502 -4.211123 4.769085 29.897291 -0.143169 1.410596 0.133014 -0.036308 -351765.000000 0 0 1
29.911802 -5.423923 4.540685 30.736829 -0.179381 1.422526 0.129653 -0.042471 399436.000000 0 0 1
29.727802 -6.328123 5.642485 30.913184 -0.209738 1.387241 0.120933 -0.045217 264047.000000 0 0 1
30.731402 -7.524023 5.439485 32.103239 -0.240109 1.400538 0.093422 -0.037043 281588.000000 0 0 1
32.073102 -7.181523 5.700585 33.357979 -0.220278 1.399062 0.107912 -0.035175 -454102.000000 0 0 1
32.841802 -8.358923 5.587485 34.346405 -0.249229 1.407390 0.097519 -0.031478 -1306660.000000 0 0 1
34.291902 -8.099023 5.841485 35.716266 -0.231929 1.406506 0.110467 -0.028256 -1126000.000000 0 0 1
34.979702 -7.616623 4.684985 36.104592 -0.214398 1.440668 0.110896 -0.027476 944490.000000 0 0 1
36.398602 -7.601423 4.893885 37.504532 -0.205879 1.439935 0.123934 -0.023618 858611.000000 0 0 1
-36.195901 -7.290623 3.750685 37.112856 0.198762 1.469562 0.131855 -0.021496 -3725.260000 0 0 1
-36.099401 -8.380523 2.862485 37.169796 0.228111 1.493709 0.125088 -0.020474 630127.000000 0 0 1
-34.966101 -8.120723 2.034785 35.954342 0.228200 1.514173 0.155544 -0.029675 17453.100000 0 0 1
-34.547901 -9.290923 1.118285 35.792866 0.262713 1.539548 0.142792 -0.025171 -141845.000000 0 0 1
-34.319101 -10.405823 1.928485 35.913798 0.294397 1.517073 0.136959 -0.023718 319961.000000 0 0 1
-34.110301 -11.490223 1.073885 36.009597 0.324917 1.540970 0.122775 -0.029543 -834640.000000 0 0 1
-34.040901 -12.883123 1.799885 36.441699 0.361801 1.521385 0.113404 -0.031831 517001.000000 0 0 1
-32.778901 -13.119423 2.413785 35.389292 0.380713 1.502537 0.107131 -0.029206 565173.000000 0 0 1
-31.753401 -13.481023 1.498385 34.529142 0.401493 1.527388 0.104215 -0.020378 -439310.000000 0 0 1
-30.431701 -13.891323 2.160585 33.522014 0.428226 1.506299 0.104706 -0.016353 -429204.000000 0 0 1
-29.615901 -12.838623 2.549285 32.379480 0.409052 1.491983 0.108816 -0.015873 -189853.000000 0 0 1
-28.498001 -13.297523 3.257885 31.616040 0.436583 1.467568 0.101666 -0.008643 -250590.000000 0 0 1
-27.495501 -12.182423 3.636485 30.292541 0.417076 1.450461 0.112993 -0.010872 41547.300000 0 0 1
-26.327501 -12.678123 4.267685 29.531090 0.448783 1.425774 0.106357 -0.005881 379313.000000 0 0 1
-25.479601 -11.631523 4.721185 28.404084 0.428249 1.403806 0.100600 0.002888 805320.000000 0 0 1
-24.039601 -12.161623 5.083785 27.416279 0.468356 1.384287 0.093633 0.007641 728900.000000 0 0 1
-23.843301 -12.745223 6.367385 27.775660 0.490897 1.339496 0.088721 0.000685 5911.850000 0 0 1
-22.464401 -12.973323 6.582785 26.763585 0.523715 1.322286 0.087679 0.002408 173745.000000 0 0 1
-21.807701 -12.216423 7.724085 26.162536 0.510632 1.271095 0.089469 -0.014485 -653199.000000 0 0 1
-21.864501 -10.793323 7.667185 25.560476 0.458551 1.266143 0.097930 -0.011002 176034.000000 0 0 1
-22.992801 -10.090523 8.160185 26.402200 0.413548 1.256579 0.091195 -0.016518 -617194.000000 0 0 1
-23.285701 -10.057623 9.666485 27.144439 0.407720 1.206692 0.080602 -0.011997 -223758.000000 0 0 1
-23.874801 -11.242823 10.228985 28.302638 0.440104 1.201012 0.058564 -0.007790 877731.000000 0 0 1
-25.261401 -11.474323 9.945185 29.473805 0.426361 1.226617 0.043620 -0.003388 608226.000000 0 0 1
-26.177801 -10.994823 11.098785 30.485184 0.397633 1.198161 0.053929 -0.009252 -561690.000000 0 0 1
-26.203901 -11.853723 12.225785 31.251000 0.424819 1.168847 0.050763 -0.006649 247557.000000 0 0 1
-27.273301 -11.568923 13.114885 32.398660 0.401180 1.154039 0.041042 -0.010235 96155.800000 0 0 1
-27.233101 -12.338323 14.448185 33.205814 0.425399 1.120636 0.047647 -0.011083 -76089.800000 0 0 1
-27.431401 -13.761323 14.427185 33.911642 0.464977 1.131354 0.033536 -0.011550 240136.000000 0 0 1
-27.484001 -14.240023 15.754285 34.732493 0.478039 1.100008 0.041689 -0.010491 -231019.000000 0 0 1
-27.420101 -15.767723 15.930185 35.415446 0.521866 1.104245 0.042599 -0.000593 -136163.000000 0 0 1
-28.603301 -16.475623 15.657385 36.534213 0.522589 1.127889 0.032077 0.001936 -317159.000000 0 0 1
-28.322501 -17.827623 15.714985 36.972273 0.561794 1.131782 0.031896 -0.001473 141489.000000 0 0 1
-29.397701 -18.813023 16.290985 38.516890 0.569277 1.134090 0.015461 0.012047 159101.000000 0 0 1
-29.496901 -18.713923 17.710385 39.165493 0.565357 1.101573 0.028177 0.011716 -161207.000000 0 0 1
-30.047801 -19.870623 18.340585 40.423867 0.584278 1.099876 0.036838 0.019198 113902.000000 0 0 1
-29.160401 -21.175723 18.456085 40.489101 0.628082 1.097494 0.026878 0.017347 -191740.000000 0 0 1
-28.059801 -20.933123 19.274485 39.963156 0.640948 1.067511 0.041966 0.011286 -401573.000000 0 0 1
-27.346601 -22.105423 19.578285 40.246684 0.679807 1.062766 0.048609 0.008792 293756.000000 0 0 1
-25.999401 -21.888523 20.348485 39.612336 0.699764 1.031316 0.064961 0.009561 1323860.000000 0 0 1
-24.959301 -21.352923 19.479685 38.188639 0.707684 1.035506 0.059522 0.005899 18198.800000 0 0 1
-23.703201 -21.401023 20.055785 37.710476 0.734401 1.010029 0.071984 0.002132 -921037.000000 0 0 1
-22.526201 -21.005523 19.189785 36.289249 0.750480 1.013609 0.077669 -0.006547 -432469.000000 0 0 1
-22.314701 -21.852423 18.081785 36.089129 0.774932 1.046006 0.077444 -0.018099 935113.000000 0 0 1
-20.966801 -21.681723 17.603085 34.922378 0.802160 1.042499 0.082531 -0.015439 827945.000000 0 0 1
-20.632801 -22.486723 16.275385 34.586895 0.828367 1.080865 0.088433 -0.006518 -462302.000000 0 0 1
-20.664801 -23.902523 16.322185 35.563722 0.857919 1.093977 0.087899 -0.011887 363175.000000 0 0 1
-19.667701 -24.608023 17.055985 35.822896 0.896519 1.074560 0.094097 -0.021214 713396.000000 0 0 1
-18.162501 -24.574123 16.641785 34.795301 0.934314 1.072105 0.080196 -0.025299 314447.000000 0 0 1
-17.469901 -23.383023 16.779685 33.667804 0.929142 1.049056 0.086968 -0.025536 -515850.000000 0 0 1
-16.178001 -23.608123 16.268585 32.920177 0.970023 1.053902 0.089420 -0.027230 -38215.100000 0 0 1
-15.271801 -22.348723 16.042585 31.465185 0.971339 1.035784 0.081726 -0.020947 -426538.000000 0 0 1
-15.583201 -21.392823 15.050785 30.446924 0.941243 1.053734 0.091222 -0.009785 -176373.000000 0 0 1
-16.747901 -20.648923 15.322485 30.686296 0.889336 1.047975 0.097733 -0.016168 -214943.000000 0 0 1
-16.404901 -19.347923 16.027985 30.005986 0.867529 1.007283 0.078212 -0.023422 -301528.000000 0 0 1
-15.781801 -18.315523 15.270685 28.595759 0.859570 1.007449 0.071051 -0.018719 198273.000000 0 0 1
-15.616401 -17.133023 16.118685 28.235163 0.831675 0.963228 0.057193 -0.015609 -100590.000000 0 0 1
-14.990401 -15.887723 15.326985 26.684234 0.814450 0.958945 0.056083 -0.006983 145960.000000 0 0 1
-15.785901 -15.177823 14.408185 26.213675 0.765762 0.988859 0.074883 -0.019508 -134466.000000 0 0 1
-15.993101 -15.954123 13.225985 26.177089 0.784178 1.041124 0.106954 -0.018171 59103.200000 0 0 1
-17.031401 -15.290123 12.274585 25.971560 0.731577 1.078539 0.088830 -0.010817 449889.000000 0 0 1
-18.380301 -15.478523 12.677685 27.168803 0.699905 1.085324 0.074441 -0.009260 128928.000000 0 0 1
-19.206401 -14.600023 11.921485 26.910376 0.649975 1.111846 0.107837 -0.015840 455154.000000 0 0 1
-20.735901 -14.737923 12.266885 28.242883 0.617901 1.121496 0.068751 -0.017103 611922.000000 0 0 1
-21.329101 -15.862323 11.734085 29.055681 0.639453 1.155077 0.075134 -0.023061 -102806.000000 0 0 1
-21.785701 -15.777123 10.395685 28.837556 0.626781 1.202002 0.097611 -0.014708 -354005.000000 0 0 1
-22.335701 -17.080723 9.811985 29.781029 0.652860 1.235053 0.101971 -0.011217 -175877.000000 0 0 1
-21.355301 -18.047023 9.612485 29.565923 0.701633 1.239657 0.104344 -0.006902 -775186.000000 0 0 1
-21.953801 -19.229723 9.209685 30.603430 0.719350 1.265122 0.102503 -0.009375 -341672.000000 0 0 1
-21.162201 -20.528623 9.136385 30.866432 0.770202 1.270297 0.101541 -0.005536 -415441.000000 0 0 1
-20.072501 -20.605923 8.261385 29.929247 0.798511 1.291135 0.118313 -0.010032 -289398.000000 0 0 1
-19.661101 -22.002923 8.154785 30.613527 0.841546 1.301163 0.116231 -0.014491 -495666.000000 0 0 1
-18.498201 -22.301423 7.230385 29.863278 0.878347 1.326250 0.093305 -0.020818 -616154.000000 0 0 1
-17.351301 -21.694323 7.769385 28.845704 0.896172 1.298086 0.072252 -0.016005 -32853.000000 0 0 1
-16.141201 -22.164323 7.171585 28.341263 0.941360 1.314971 0.075812 -0.011652 446531.000000 0 0 1
-14.884401 -21.821823 7.999985 27.599585 0.972193 1.276717 0.044040 -0.001973 1177950.000000 0 0 1
-13.659401 -22.234923 7.310585 27.100105 1.019912 1.297650 0.044215 -0.001474 1509340.000000 0 0 1
-12.488301 -21.749423 8.000685 26.325007 1.049571 1.261992 0.044737 -0.000330 512855.000000 0 0 1
-11.200401 -22.228123 7.348585 25.952652 1.104046 1.283716 0.039611 -0.000783 -270959.000000 0 0 1
-10.982601 -23.594723 7.698385 27.140258 1.135153 1.283196 0.030511 -0.000842 212338.000000 0 0 1
-9.658601 -24.051723 7.409385 26.956872 1.188932 1.292352 0.053935 -0.008936 656871.000000 0 0 1
-9.666201 -25.609173 7.347485 28.341678 1.209879 1.308554 0.049167 -0.003573 -234461.000000 0 0 1
-10.209501 -26.159143 6.180885 28.753052 1.198694 1.354141 0.049140 -0.008869 -244880.000000 0 0 1
-10.224601 -27.554263 6.304485 30.058716 1.215474 1.359488 0.069319 -0.006946 8313.200000 0 0 1
-9.087701 -28.224893 5.512285 30.159844 1.259303 1.386994 0.077611 -0.006625 -143294.000000 0 0 1
-7.781301 -27.830753 5.899085 29.494044 1.298164 1.369429 0.079872 -0.006489 -322886.000000 0 0 1
-6.754301 -28.678533 5.476485 29.967828 1.339494 1.387018 0.090339 0.000450 101652.000000 0 0 1
-6.643301 -30.039973 6.172285 31.378823 1.353151 1.372803 0.099369 -0.011908 -586539.000000 0 0 1
-6.739301 -30.084373 7.588685 31.750210 1.350421 1.329448 0.094264 -0.006725 150924.000000 0 0 1
-6.744301 -31.429503 8.025385 33.131647 1.359417 1.326136 0.129670 -0.015267 -35521.300000 0 0 1
-6.952301 -31.563223 9.563385 33.705042 1.353992 1.283107 0.109659 -0.021283 -78944.100000 0 0 1
-5.952301 -31.036313 10.396185 33.268052 1.381312 1.252975 0.095428 -0.012369 125678.000000 0 0 1
-6.387301 -31.203393 11.734785 33.943402 1.368887 1.217794 0.078782 -0.018078 -147377.000000 0 0 1
-5.525301 -30.583183 12.853985 33.631606 1.392060 1.178621 0.072771 -0.014411 44581.700000 0 0 1
-5.893301 -29.211963 13.092385 32.549659 1.371726 1.156847 0.076029 -0.002947 137457.000000 0 0 1
-4.981301 -28.606173 13.953285 32.215224 1.398391 1.122837 0.068679 -0.017131 -300940.000000 0 0 1
-5.665301 -27.994323 15.173085 32.341927 1.371120 1.082473 0.071131 -0.015077 -18134.800000 0 0 1
-6.189301 -28.883613 16.184885 33.682652 1.359704 1.069559 0.065643 -0.024751 185680.000000 0 0 1
-5.186301 -29.679543 16.742085 34.468397 1.397800 1.063607 0.059491 -0.031530 -217140.000000 0 0 1
-5.636301 -31.087533 17.101685 35.925899 1.391440 1.074665 0.049793 -0.025979 -150048.000000 0 0 1
-6.307301 -31.706603 16.021385 36.080126 1.374433 1.110682 0.045286 -0.020197 283316.000000 0 0 1
-6.796301 -32.957593 16.388585 37.429645 1.367433 1.117590 0.044044 -0.022414 -263255.000000 0 0 1
-6.059301 34.105504 15.730685 38.044119 -1.394968 1.144518 0.036499 -0.025356 -454608.000000 0 0 1
-6.337301 34.067004 14.358585 37.508547 -1.386874 1.177962 0.051074 -0.023937 587051.000000 0 0 1
-5.526301 33.061800 13.757685 36.233914 -1.405177 1.181334 0.055131 -0.029295 -118043.000000 0 0 1
-4.287301 33.464280 12.984985 36.150364 -1.443375 1.203392 0.076701 -0.033837 -473795.000000 0 0 1
-4.596301 33.758043 11.640885 36.003357 -1.435474 1.241552 0.085445 -0.029854 -5029.400000 0 0 1
-3.491301 -33.894093 11.014485 35.809462 1.468152 1.258141 0.093673 -0.032190 -1023500.000000 0 0 1
-3.672301 -33.732383 9.493785 35.234804 1.462358 1.297981 0.093757 -0.027773 -670514.000000 0 0 1
-3.756301 33.334159 8.735285 34.663831 -1.458583 1.316050 0.108483 -0.037933 477590.000000 0 0 1
-4.722301 32.336878 9.054685 33.911077 -1.425787 1.300505 0.105092 -0.038569 1749210.000000 0 0 1
-6.264301 32.689420 9.318685 34.564108 -1.381461 1.297813 0.115509 -0.029978 1089800.000000 0 0 1
-7.065301 32.797886 8.154485 34.527025 -1.358619 1.332367 0.120041 -0.028125 -444522.000000 0 0 1
-8.367301 33.089758 8.616585 35.202122 -1.323121 1.323509 0.092555 -0.028840 96598.800000 0 0 1
-9.390401 33.440440 7.477985 35.529747 -1.297037 1.358740 0.100415 -0.042154 114606.000000 0 0 1
-9.350501 -33.562323 6.912785 35.519684 1.299085 1.374928 0.126738 -0.034757 79475.100000 0 0 1
-10.277401 -33.542493 5.848485 35.565834 1.273479 1.405605 0.110263 -0.024050 -77745.000000 0 0 1
-10.438701 -32.136193 5.241685 34.193225 1.256721 1.416893 0.099683 -0.019504 -64833.100000 0 0 1
-11.217401 -31.268733 6.011485 33.759468 1.226355 1.391773 0.110843 -0.021970 441748.000000 0 0 1
-12.427701 -30.909133 5.312785 33.734966 1.188505 1.412652 0.113389 -0.018875 1081520.000000 0 0 1
-13.365601 -29.890263 6.054385 33.297488 1.150310 1.387952 0.102835 -0.024636 339018.000000 0 0 1
-14.179301 -30.417423 7.079885 34.298644 1.134588 1.362883 0.109052 -0.028691 -619570.000000 0 0 1
-15.030801 -29.449383 7.514785 33.906683 1.098868 1.347309 0.093347 -0.026847 -576932.000000 0 0 1
34.306665 -12.921923 -12.548915 38.747885 -0.360225 1.900604 0.080088 -0.017854 -447670.000000 0 0 1
33.191215 -12.958423 -11.707015 37.505089 -0.372218 1.888246 0.088315 -0.009285 -73937.100000 0 0 1
32.764735 -14.258423 -11.350615 37.492225 -0.410458 1.878369 0.089092 -0.016117 -293149.000000 0 0 1
33.458955 -14.954323 -10.143815 38.026707 -0.420311 1.840821 0.070264 -0.023732 755339.000000 0 0 1
34.809305 -15.229323 -10.582315 39.441163 -0.412417 1.842431 0.079295 -0.025600 420989.000000 0 0 1
35.708525 -15.212823 -9.514615 39.963191 -0.402741 1.811189 0.074379 -0.026709 -760250.000000 0 0 1
-36.384608 -15.391823 -9.879115 40.722780 0.400202 1.815835 0.060978 -0.026623 -739682.000000 0 0 1
-35.953588 -14.305923 -10.643515 40.132335 0.378694 1.839219 0.049807 -0.024085 548554.000000 0 0 1
-34.528746 -14.307923 -10.764415 38.895033 0.392839 1.851212 0.042088 -0.022875 762481.000000 0 0 1
-33.808138 -12.981323 -11.081115 37.872101 0.366612 1.867734 0.060879 -0.032785 28377.500000 0 0 1
-34.007968 -12.024423 -10.017215 37.436256 0.339858 1.841678 0.069511 -0.028728 99277.800000 0 0 1
-33.299868 -10.861523 -10.277515 36.503167 0.315293 1.856207 0.079616 -0.032778 -414729.000000 0 0 1
-33.653158 -9.735223 -9.293215 36.244634 0.281594 1.830095 0.078738 -0.034635 -192466.000000 0 0 1
-33.129788 -9.840423 -7.999115 35.473971 0.288727 1.798245 0.094658 -0.028231 93142.900000 0 0 1
-33.612488 -8.784723 -7.230515 35.485928 0.255635 1.775990 0.128107 -0.036076 -316032.000000 0 0 1
-33.027988 -8.776223 -5.800315 34.662858 0.259719 1.738922 0.120636 -0.027098 -638860.000000 0 0 1
-31.721598 -8.263223 -5.853315 33.298678 0.254829 1.747497 0.126407 -0.041569 -157503.000000 0 0 1
-31.108098 -8.189423 -4.553215 32.488647 0.257416 1.711407 0.132908 -0.034801 -177948.000000 0 0 1
-30.349548 -9.422923 -4.043815 32.034965 0.301043 1.697365 0.119363 -0.026956 -824892.000000 0 0 1
-31.061418 -10.583123 -3.747615 33.028152 0.328380 1.684509 0.128334 -0.024148 -295408.000000 0 0 1
-31.776628 -10.540823 -2.533415 33.575009 0.320294 1.646323 0.114348 -0.026299 -279412.000000 0 0 1
-32.272438 -11.950823 -2.205615 34.484738 0.354653 1.634799 0.118496 -0.024127 -19911.700000 0 0 1
-33.605608 -12.077223 -2.672215 35.809733 0.345008 1.645488 0.112866 -0.028605 371919.000000 0 0 1
-34.173713 -13.305323 -2.199415 36.738423 0.371286 1.630699 0.118999 -0.039273 -527496.000000 0 0 1
-35.696153 -13.352623 -2.228515 38.176880 0.357949 1.629203 0.101195 -0.032987 -737297.000000 0 0 1
-36.273868 -12.563023 -1.244915 38.407979 0.333409 1.603215 0.103286 -0.034280 -1231270.000000 0 0 1
35.927385 -12.776623 -1.200615 38.150499 -0.341676 1.602272 0.114278 -0.032152 -1370880.000000 0 0 1
35.251675 -11.944923 -0.112915 37.220619 -0.326705 1.573830 0.106804 -0.027987 -252487.000000 0 0 1
35.426565 -12.374823 1.249885 37.546504 -0.336059 1.537501 0.117231 -0.024282 -110937.000000 0 0 1
35.553685 -11.226723 2.035885 37.339639 -0.305860 1.516246 0.105210 -0.028530 -54921.900000 0 0 1
35.884225 -11.466023 3.573785 37.840708 -0.309275 1.476213 0.107197 -0.040109 22268.400000 0 0 1
34.740585 -11.894223 4.264385 36.967090 -0.329864 1.455183 0.099965 -0.042324 -4609.140000 0 0 1
35.098145 -12.433223 5.503485 37.639781 -0.340449 1.424056 0.096765 -0.038334 440025.000000 0 0 1
34.014515 -12.274423 6.650585 36.767907 -0.346315 1.388915 0.092440 -0.033237 458595.000000 0 0 1
33.828035 -11.001623 7.275785 36.308521 -0.314433 1.369043 0.077579 -0.034483 168972.000000 0 0 1
33.264015 -11.131623 8.578585 36.110938 -0.322930 1.330941 0.064487 -0.015329 13022.500000 0 0 1
32.364405 -9.908823 8.974885 35.016968 -0.297102 1.311603 0.067424 -0.026195 745472.000000 0 0 1
30.985665 -9.978423 8.596385 33.668653 -0.311546 1.312614 0.078553 -0.023516 541737.000000 0 0 1
30.195255 -9.006023 9.187785 32.821902 -0.289859 1.287077 0.094223 -0.013696 -182208.000000 0 0 1
28.694965 -9.132923 8.847285 31.386075 -0.308138 1.285037 0.081201 -0.017338 -98786.500000 0 0 1
28.371505 -8.697523 7.566185 30.624114 -0.297463 1.321145 0.101316 -0.022385 -13826.100000 0 0 1
27.530405 -9.631523 6.901085 29.971893 -0.336542 1.338460 0.120514 -0.036516 -316381.000000 0 0 1
26.538705 -9.001423 5.922585 28.642721 -0.327004 1.362519 0.135007 -0.037275 -1610570.000000 0 0 1
25.494905 -8.430723 6.587285 27.648862 -0.319363 1.330235 0.141672 -0.038081 -306578.000000 0 0 1
24.476405 -8.039723 5.636285 26.372320 -0.317366 1.355415 0.140825 -0.039994 331779.000000 0 0 1
24.711905 -6.656123 4.928385 26.062832 -0.263105 1.380555 0.133162 -0.038052 -1356560.000000 0 0 1
25.648205 -6.646623 3.926085 26.784737 -0.253568 1.423687 0.121850 -0.039507 -283612.000000 0 0 1
25.831205 -5.294423 3.478385 26.596639 -0.202162 1.439638 0.119907 -0.039287 -93447.600000 0 0 1
26.585805 -5.198223 2.144885 27.174015 -0.193090 1.491783 0.126370 -0.044493 -373600.000000 0 0 1
25.802805 -5.533623 1.031085 26.409636 -0.211258 1.531744 0.127526 -0.043913 -32315.600000 0 0 1
26.475505 -5.412123 -0.238415 27.024068 -0.201642 1.579619 0.126135 -0.044139 -156373.000000 0 0 1
25.564405 -5.718223 -1.436715 26.235492 -0.220057 1.625586 0.119832 -0.037331 -310464.000000 0 0 1
24.544105 -4.814023 -1.657715 25.066630 -0.193679 1.636977 0.122729 -0.034079 -489729.000000 0 0 1
23.959105 -4.880823 -2.923515 24.625354 -0.200965 1.689797 0.113804 -0.031731 48373.300000 0 1 0
22.751805 -3.921323 -3.096815 23.294026 -0.170675 1.704136 0.095356 -0.028925 -96784.500000 0 1 0
23.033805 -2.565223 -3.055315 23.376730 -0.110911 1.701870 0.084033 -0.031189 450092.000000 0 1 0
23.778805 -1.909723 -4.110215 24.206868 -0.080140 1.741418 0.097650 -0.028999 -196664.000000 0 1 0
22.919705 -1.215223 -5.155315 23.523752 -0.052971 1.791743 0.107321 -0.022056 -408655.000000 0 1 0
22.181905 -0.174923 -4.538515 22.642121 -0.007886 1.772609 0.074482 -0.014605 312059.000000 0 1 0
21.426005 0.613777 -5.440015 22.114343 0.028639 1.819342 0.088312 -0.011512 -196725.000000 0 1 0
21.034905 2.005677 -4.878015 21.686055 0.095063 1.797676 0.076970 -0.004057 -687172.000000 0 1 0
22.105405 2.889777 -4.655815 22.774467 0.129990 1.776679 0.099579 -0.014426 61953.600000 0 1 0
22.736005 2.627577 -3.412015 23.140266 0.115059 1.718785 0.108178 -0.013991 -520138.000000 0 1 0
24.031005 3.412377 -3.284115 24.493242 0.141056 1.705284 0.128783 -0.031167 -646922.000000 0 1 0
23.701005 4.773977 -3.137315 24.379730 0.198765 1.699840 0.114178 -0.017424 75974.300000 0 1 0
24.686505 5.506977 -2.494315 25.415978 0.219483 1.669094 0.115488 -0.027385 -601042.000000 0 0 1
24.411805 7.020677 -2.493615 25.523406 0.280036 1.668652 0.112852 -0.029848 -430737.000000 0 0 1
23.236305 7.293577 -1.793315 24.420035 0.304148 1.644299 0.130292 -0.035357 -66462.900000 0 1 0
22.618505 8.447377 -2.233315 24.247529 0.357430 1.663032 0.117528 -0.029857 -744983.000000 0 1 0
21.516905 8.902577 -1.294715 23.321864 0.392302 1.626340 0.095661 -0.029876 -407886.000000 0 1 0
22.072405 9.461877 -0.084915 24.015107 0.404979 1.574332 0.079427 -0.033029 1148080.000000 0 1 0
21.023005 9.901077 0.770085 23.250615 0.440150 1.537669 0.058111 -0.028940 131437.000000 0 1 0
21.619605 10.333477 2.150785 24.058552 0.445867 1.481279 0.083689 -0.028077 -323640.000000 0 1 0
22.443905 11.478077 2.155685 25.300634 0.472735 1.485490 0.094451 -0.042667 171946.000000 0 0 1
21.919505 12.736977 1.781485 25.413952 0.526391 1.500640 0.099985 -0.035070 275061.000000 0 0 1
20.795505 13.356077 2.731385 24.865604 0.570913 1.460728 0.083934 -0.020777 532750.000000 0 1 0
19.552205 12.649177 2.672785 23.440012 0.574224 1.456521 0.113480 -0.024951 1231490.000000 0 1 0
18.557905 13.444777 3.426185 23.171029 0.626965 1.422387 0.101709 -0.021708 712852.000000 0 1 0
18.614105 13.463277 4.942485 23.498359 0.626182 1.358881 0.092843 -0.011272 -543622.000000 0 1 0
18.289905 12.188977 5.517285 22.661249 0.587840 1.324857 0.083594 -0.010290 280041.000000 0 1 0
18.440905 12.126477 6.904185 23.125445 0.581689 1.267620 0.080345 -0.014013 -66557.700000 0 1 0
18.482005 10.750977 7.521785 22.665949 0.526855 1.232528 0.060491 -0.009923 105107.000000 0 1 0
19.594905 10.041277 6.985485 23.099449 0.473553 1.263577 0.057301 -0.014532 493056.000000 0 1 0
19.679105 8.712677 7.456885 22.776809 0.416798 1.237257 0.068412 -0.010941 617090.000000 0 1 0
20.772805 7.899777 6.663485 23.201679 0.363404 1.279496 0.084003 -0.016504 446911.000000 0 1 0
20.300605 7.645077 5.364785 22.345977 0.360167 1.328350 0.069436 -0.017894 1475650.000000 0 1 0
21.264105 6.972277 4.470485 22.820167 0.316843 1.373621 0.078601 -0.022399 702894.000000 0 1 0
20.577305 6.514577 3.217385 21.822391 0.306607 1.422822 0.054271 -0.020007 -790594.000000 0 1 0
21.498805 6.062577 2.302185 22.455590 0.274859 1.468094 0.055783 -0.016484 91740.900000 0 1 0
20.935205 5.798877 1.023485 21.747581 0.270217 1.523717 0.039411 -0.010915 -225703.000000 0 1 0
21.962205 4.998277 0.214785 22.524816 0.223774 1.561261 0.082114 -0.016604 50004.800000 0 1 0
21.880605 3.626177 0.591185 22.186922 0.164233 1.544148 0.063874 -0.012241 -354227.000000 0 1 0
22.948305 2.966777 0.054185 23.139347 0.128568 1.568455 0.085591 -0.019063 -912427.000000 0 1 0
23.127505 1.489877 0.310985 23.177531 0.064331 1.557378 0.114223 -0.023745 -164920.000000 0 1 0
22.118005 0.769577 -0.356715 22.134264 0.034780 1.586913 0.063852 -0.024170 278367.000000 0 1 0
22.553805 -0.511423 -0.831715 22.574929 -0.022672 1.607647 0.094689 -0.028446 -886235.000000 0 1 0
22.668305 -1.797323 0.062985 22.739533 -0.079122 1.568026 0.116950 -0.017809 354622.000000 0 1 0
23.629205 -1.823523 1.132485 23.726506 -0.077020 1.523047 0.125869 -0.017170 -373719.000000 0 1 0
24.921305 -2.008623 0.661885 25.010879 -0.080425 1.544329 0.140356 -0.029877 -1350870.000000 0 0 1
25.853705 -1.705423 1.848185 25.975725 -0.065869 1.499586 0.145297 -0.033918 -503160.000000 0 0 1
25.807405 -0.321723 2.131385 25.897267 -0.012466 1.488402 0.141423 -0.033005 641975.000000 0 0 1
26.646905 0.093977 3.226885 26.841743 0.003527 1.450286 0.141845 -0.034954 209916.000000 0 0 1
26.401105 1.598877 3.656785 26.701064 0.060487 1.433412 0.151238 -0.034076 -117567.000000 0 0 1
26.649805 2.610377 2.697185 26.912840 0.097640 1.470409 0.166338 -0.035197 55879.400000 0 0 1
28.039205 2.796677 2.535885 28.292210 0.099413 1.481044 0.172205 -0.032150 -100350.000000 0 0 1
28.317905 3.803477 1.372385 28.605133 0.133514 1.522801 0.188215 -0.035064 -164694.000000 0 0 1
27.836405 3.415877 0.074485 28.045306 0.122102 1.568140 0.200949 -0.030034 481757.000000 0 0 1
28.455905 4.105477 -1.025115 28.768808 0.143286 1.606437 0.202560 -0.025490 76519.600000 0 0 1
29.876875 3.683677 -1.447215 30.137876 0.122676 1.618835 0.183562 -0.021231 -303284.000000 0 0 1
30.877875 3.948477 -0.509515 31.133474 0.127184 1.587163 0.172381 -0.021946 -703171.000000 0 0 1
32.156695 3.658377 -1.003115 32.379669 0.113280 1.601781 0.142151 -0.022323 -291385.000000 0 0 1
33.196055 4.311477 -0.067015 33.474937 0.129156 1.572798 0.086659 -0.015414 -422442.000000 0 0 1
33.445095 3.534677 1.075085 33.648538 0.105295 1.538840 0.091535 -0.021780 126988.000000 0 0 1
32.793215 3.944477 2.274385 33.107804 0.119708 1.502046 0.091635 -0.010950 37808.800000 0 0 1
32.961085 2.907977 3.393585 33.262680 0.087997 1.468595 0.096710 -0.014323 595902.000000 0 0 1
31.954365 1.840677 3.417885 32.189307 0.057540 1.464415 0.129342 -0.021250 871371.000000 0 0 1
32.121035 0.747277 4.342285 32.421825 0.023260 1.436462 0.126255 -0.022522 92893.200000 0 0 1
33.396215 -0.136123 4.144485 33.652674 -0.004076 1.447328 0.119553 -0.014891 827594.000000 0 0 1
34.648985 0.410077 4.548585 34.948676 0.011835 1.440276 0.115462 -0.017939 82082.500000 0 0 1
35.619575 -0.592223 4.494885 35.906947 -0.016625 1.445286 0.113788 -0.026546 -543549.000000 0 0 1
-36.537428 -0.046923 4.923585 36.867703 0.001284 1.436849 0.131131 -0.034753 452656.000000 0 0 1
-35.869735 0.919577 4.121685 36.117472 -0.025631 1.456428 0.118587 -0.034389 319700.000000 0 0 1
-35.676908 0.539077 2.736885 35.785792 -0.015109 1.494242 0.145297 -0.032804 -911017.000000 0 0 1
-36.015926 1.747377 1.888085 36.107688 -0.048479 1.518482 0.115670 -0.036053 720560.000000 0 0 1
-35.001316 2.784777 1.879385 35.162184 -0.079395 1.517322 0.143298 -0.043068 1290450.000000 0 0 1
-33.866748 2.515977 1.037385 33.975917 -0.074154 1.540259 0.186465 -0.038178 -210217.000000 0 0 1
-32.645378 3.350977 1.386985 32.846210 -0.102290 1.528557 0.191019 -0.035422 -646734.000000 0 0 1
-31.968768 2.890977 2.531385 32.198879 -0.090186 1.492098 0.173035 -0.036207 160976.000000 0 0 1
-31.048568 3.862377 3.020885 31.433379 -0.123762 1.474543 0.175374 -0.019427 -419291.000000 0 0 1
-31.171648 4.071377 4.590385 31.769787 -0.129876 1.425800 0.165315 -0.014672 262368.000000 0 0 1
-32.361498 4.761077 4.987085 33.087844 -0.146074 1.419497 0.159030 0.010395 1378850.000000 0 0 1
-33.570878 3.956077 4.928785 34.160611 -0.117302 1.426008 0.148805 0.007250 196929.000000 0 0 1
-33.773708 3.034777 6.198185 34.471593 -0.089616 1.390008 0.131199 0.007064 -684905.000000 0 0 1
-34.156481 3.827177 7.291185 35.135080 -0.111583 1.361759 0.129980 0.004647 80611.600000 0 0 1
-34.025318 3.206277 8.525385 35.223354 -0.093955 1.326331 0.128656 -0.002652 500791.000000 0 0 1
-35.023368 2.026677 8.928285 36.200249 -0.057802 1.321589 0.120229 -0.004421 469220.000000 0 0 1
-34.602066 0.771077 8.403585 35.616257 -0.022280 1.332602 0.123137 -0.005946 461084.000000 0 0 1
-35.544649 -0.276223 8.689985 36.592543 0.007771 1.331026 0.112999 -0.004118 365084.000000 0 0 1
-35.411972 -1.066223 10.028885 36.820146 0.030100 1.294936 0.124594 -0.006678 379600.000000 0 0 1
-34.251174 -1.880623 9.844785 35.687525 0.054852 1.291311 0.106338 -0.009798 460552.000000 0 0 1
-34.079018 -2.777223 11.004185 35.919139 0.081314 1.259430 0.095350 0.000070 -127527.000000 0 0 1
-32.866638 -3.732023 10.981585 34.853108 0.113066 1.250253 0.112184 0.002809 -234941.000000 0 0 1
-32.880028 -4.702223 9.968885 34.678319 0.142048 1.279215 0.097627 -0.002083 693343.000000 0 0 1
-31.839348 -5.711823 10.087185 33.883924 0.177507 1.268516 0.080081 -0.010298 553088.000000 0 0 1
-31.940668 -6.788323 9.014085 33.875379 0.209413 1.301456 0.085285 0.001804 18766.500000 0 0 1
-33.047138 -7.636523 9.160085 35.133132 0.227094 1.307023 0.102358 -0.008296 -239989.000000 0 0 1
-33.230338 -8.377823 7.956385 35.181634 0.246967 1.342671 0.107683 -0.019211 -124112.000000 0 0 1
-34.179845 -9.549323 8.187685 36.421004 0.272438 1.344052 0.113421 -0.023798 407645.000000 0 0 1
-35.545569 -9.162823 8.293285 37.632744 0.252284 1.348598 0.121370 -0.023615 723447.000000 0 0 1
-36.430918 -10.294923 8.293985 38.755482 0.275406 1.355120 0.114056 -0.024547 229871.000000 0 0 1
8.124502 -23.860923 10.630685 27.356217 -1.242615 1.171682 0.082611 -0.031547 -66454.000000 0 0 1
7.571102 -24.590423 9.553285 27.445869 -1.272118 1.215277 0.088098 -0.036648 -551342.000000 0 0 1
6.261702 -24.980423 9.849585 27.572536 -1.325192 1.205502 0.082778 -0.038195 21471.600000 0 0 1
5.656602 -25.960003 8.797685 27.987821 -1.356253 1.251035 0.070568 -0.022957 -67507.800000 0 0 1
5.295702 -25.322083 7.607185 26.965192 -1.364634 1.284802 0.077377 -0.026127 -348672.000000 0 0 1
5.217002 -26.259603 6.528585 27.557327 -1.374680 1.331613 0.063597 -0.019865 -1287410.000000 0 0 1
4.549302 -25.619753 5.272885 26.549410 -1.395058 1.370860 0.064698 -0.022829 -394800.000000 0 0 1
3.172202 -25.590933 5.489385 26.364598 -1.447467 1.361051 0.070078 -0.032531 -708851.000000 0 0 1
2.504302 -26.835173 5.216585 27.451972 -1.477744 1.379608 0.070463 -0.022597 -239232.000000 0 0 1
0.960802 -26.752693 5.018385 27.236261 -1.534898 1.385484 0.077212 -0.024226 132259.000000 0 0 1
0.268102 -26.340693 6.174685 27.056066 -1.560618 1.340549 0.074120 -0.022670 -627099.000000 0 0 1
-1.130898 -26.358403 6.113085 27.081620 1.527918 1.343106 0.075703 -0.020130 209009.000000 0 0 1
-1.795598 -27.751143 6.270685 28.507395 1.506183 1.349016 0.076739 -0.008680 -401186.000000 0 0 1
-1.503098 -28.254023 7.537985 29.280887 1.517647 1.310427 0.069578 -0.017657 -132577.000000 0 0 1
-2.080098 -29.502243 7.778385 30.581243 1.500406 1.313619 0.081899 -0.011227 -77225.900000 0 0 1
-1.754398 -30.208613 9.178285 31.620865 1.512785 1.276297 0.080638 -0.008471 296931.000000 0 0 1
-0.438598 -30.683913 9.414985 32.098860 1.556503 1.273107 0.078711 -0.007316 95187.700000 0 0 1
-0.322098 -31.192223 10.748885 32.993894 1.560470 1.238955 0.072765 -0.002327 -35144.300000 0 0 1
1.109702 -31.497873 11.222085 33.455681 -1.535580 1.228733 0.055919 -0.004146 -414134.000000 0 0 1
1.637202 -32.776223 10.873085 34.571450 -1.520887 1.250855 0.056804 -0.006295 -1097930.000000 0 0 1
2.962202 -32.901953 11.195585 34.880571 -1.481007 1.244044 0.051171 -0.003762 -1109800.000000 0 0 1
3.302602 -33.380683 12.608385 35.835018 -1.472180 1.211255 0.055624 -0.004528 -441825.000000 0 0 1
2.910702 -32.486733 13.646585 35.356602 -1.481438 1.174537 0.039160 0.000093 37660.200000 0 0 1
3.505802 -32.791863 14.851485 36.168543 -1.464290 1.147664 0.048362 -0.004736 -597994.000000 0 0 1
3.130602 -31.801173 16.081985 35.773531 -1.472670 1.104535 0.055654 -0.007139 29359.400000 0 0 1
3.675202 -30.490963 15.973085 34.617125 -1.450841 1.091200 0.050192 -0.010345 334091.000000 0 0 1
5.079902 -30.528903 16.173185 34.919783 -1.405911 1.089247 0.049122 0.000358 33739.200000 0 0 1
5.827702 -29.310433 15.532385 33.679646 -1.374529 1.091472 0.054261 -0.004612 -160820.000000 0 0 1
5.930902 -29.299933 14.090585 33.048544 -1.371075 1.130331 0.053278 -0.000160 -481742.000000 0 0 1
4.769902 -29.258563 13.303385 32.493007 -1.409192 1.148975 0.043531 0.008011 -923463.000000 0 0 1
5.008302 -29.087663 11.796285 31.785650 -1.400289 1.190582 0.038313 0.003891 93533.800000 0 0 1
5.463202 -30.223003 11.064985 32.645220 -1.391964 1.224999 0.043062 -0.004163 454791.000000 0 0 1
6.770002 -30.689273 11.393685 33.428737 -1.353675 1.222991 0.041731 -0.001595 -85773.400000 0 0 1
7.086302 -32.010693 10.724385 34.495109 -1.352937 1.254661 0.034861 -0.001371 -62735.900000 0 0 1
6.647702 -33.114423 11.495185 35.677671 -1.372680 1.242749 0.028486 -0.004864 157875.000000 0 0 1
7.067802 33.916114 10.950585 36.334171 1.365346 1.264651 0.046437 -0.009733 -9567.880000 0 0 1
6.830402 32.634087 11.886685 35.396770 1.364472 1.228328 0.056350 -0.009437 -333533.000000 0 0 1
5.492102 32.288338 12.070585 34.905573 1.402313 1.217698 0.053346 -0.010013 -600423.000000 0 0 1
5.303602 31.069548 12.740285 33.996469 1.401725 1.186666 0.069688 -0.005240 234460.000000 0 0 1
4.027102 30.886958 13.594285 33.985678 1.441146 1.159279 0.063895 -0.011553 175538.000000 0 0 1
4.192502 31.601148 14.837885 35.162089 1.438897 1.135162 0.076048 -0.016757 401439.000000 0 0 1
3.071802 31.547808 15.730485 35.385708 1.473733 1.110132 0.066386 -0.020370 357901.000000 0 0 1
3.392302 31.821668 17.198085 36.330434 1.464594 1.077673 0.067606 -0.018985 -92371.100000 0 0 1
3.576402 33.184627 17.641085 37.752059 1.463438 1.084576 0.072085 -0.016509 341921.000000 0 0 1
4.184802 33.142687 18.946585 38.404731 1.445195 1.054871 0.072283 -0.016095 109264.000000 0 0 1
4.279402 -33.810613 19.677985 39.353448 -1.444896 1.047161 0.064176 -0.020226 -197724.000000 0 0 1
3.075902 -33.225903 20.097385 38.952877 -1.478484 1.028691 0.062735 -0.021388 -532875.000000 0 0 1
3.295302 -32.227663 21.025885 38.620838 -1.468900 0.995101 0.060671 -0.026503 157474.000000 0 0 1
2.065702 -31.319093 21.324385 37.945778 -1.504935 0.974031 0.046954 -0.023779 436464.000000 0 0 1
1.040202 -32.054253 21.953785 38.865483 -1.538356 0.970526 0.049500 -0.018762 207884.000000 0 0 1
-0.089698 -31.352383 22.458485 38.566352 1.567935 0.949200 0.031241 -0.020888 297952.000000 0 0 1
-1.201098 -32.278003 23.026585 39.667817 1.533602 0.951472 0.024118 -0.014365 -777800.000000 0 0 1
-1.754698 -33.065493 21.994385 39.751211 1.517779 0.984474 0.020718 -0.017464 291003.000000 0 0 1
-2.625598 34.122142 22.433085 40.920138 -1.494001 0.990566 0.026856 -0.012983 640988.000000 0 0 1
-4.028698 -33.757703 22.994485 41.043382 1.452017 0.976111 0.046656 -0.012997 181633.000000 0 0 1
-4.992898 -33.392233 22.021185 40.310083 1.422373 0.992862 0.045656 -0.021518 -341153.000000 0 0 1
-6.164098 -32.866553 22.580885 40.349755 1.385401 0.976859 0.055381 -0.012943 -584773.000000 0 0 1
-7.220298 -32.534773 21.563385 39.694127 1.352410 0.996507 0.052934 -0.019330 -700097.000000 0 0 1
-8.095998 -33.569733 21.274585 40.559587 1.334146 1.018637 0.039544 -0.003505 524559.000000 0 0 1
-9.249398 -33.118563 20.513485 40.039900 1.298454 1.032905 0.043029 -0.021587 369558.000000 0 0 1
-10.372398 34.121101 20.462785 41.116442 -1.275685 1.049876 0.057174 -0.024726 -335801.000000 0 0 1
-10.973498 34.048544 21.761785 41.872381 -1.259018 1.024277 0.063765 -0.025903 566176.000000 0 0 1
-12.351698 33.644220 21.751985 41.924299 -1.218946 1.025303 0.041184 -0.016956 873653.000000 0 0 1
-12.902098 33.491417 23.208785 42.740927 -1.203082 0.996778 0.040497 -0.011722 -292640.000000 0 0 1
-13.080698 -33.535303 23.880485 43.197208 1.198890 0.985046 0.029066 -0.008334 709267.000000 0 0 1
-11.860698 -33.001303 24.435985 42.742011 1.225771 0.962209 0.039353 -0.009663 682969.000000 0 0 1
-12.042798 -31.684533 25.183985 42.227618 1.207576 0.931804 0.038536 -0.009758 -256778.000000 0 0 1
-12.684298 -31.722233 26.402985 43.177646 1.190415 0.912846 0.024053 -0.000913 -41475.900000 0 0 1
-13.126098 -30.433603 26.792985 42.618806 1.163599 0.890960 0.036232 -0.006947 -44675.500000 0 0 1
-14.037298 -30.408043 28.020885 43.667663 1.138312 0.874103 0.033741 -0.011964 -269650.000000 0 0 1
-13.288298 -30.090453 29.196285 43.982238 1.154940 0.844882 0.047105 -0.004098 280503.000000 0 0 1
-14.088498 -29.780783 30.305485 44.763861 1.128921 0.827107 0.049882 -0.012218 -734969.000000 0 0 1
-13.309598 -29.308763 31.519185 45.051171 1.144524 0.795916 0.057031 -0.012707 -483651.000000 0 0 1
-14.103698 -29.021663 32.652485 45.905947 1.118434 0.779463 0.054003 -0.015455 251726.000000 0 0 1
-13.413398 -28.656383 33.846185 46.332189 1.133012 0.751726 0.058976 -0.016701 -101901.000000 0 0 1
-12.694098 -29.751023 -33.422910 46.511874 1.167506 2.372567 0.067664 -0.009400 586875.000000 0 0 1
-11.398598 -30.029663 -33.956110 46.741053 1.208018 2.383972 0.064733 -0.009914 167368.000000 0 0 1
-10.831498 -31.066673 -33.167110 46.717413 1.235322 2.360226 0.060299 -0.000032 -541897.000000 0 0 1
-9.357098 -31.284663 -33.452610 46.747861 1.280170 2.368274 0.068979 0.000525 -360112.000000 0 0 1
-8.482598 -30.525133 -32.649410 45.494199 1.299746 2.371234 0.083909 -0.014179 888170.000000 0 0 1
-7.097598 -30.925703 -32.665510 45.539110 1.345198 2.370725 0.081967 -0.021521 1703720.000000 0 0 1
-6.151298 -30.126153 -31.689110 44.154538 1.369380 2.371270 0.082154 -0.021285 453122.000000 0 0 1
-6.523498 -30.434803 -30.355810 43.477677 1.359648 2.343667 0.093250 -0.028250 207124.000000 0 0 1
-5.806198 -29.634923 -29.428610 42.166143 1.377323 2.343286 0.082863 -0.027391 22286.600000 0 0 1
-6.410598 -29.771433 -27.989510 41.362382 1.358707 2.314054 0.076493 -0.035606 -152640.000000 0 0 1
-6.218698 -31.007733 -27.362110 41.819096 1.372869 2.284049 0.077113 -0.038701 -78199.300000 0 0 1
-7.222798 -31.499143 -26.490710 41.786631 1.345392 2.257449 0.082344 -0.039977 -180291.000000 0 0 1
-6.884398 -32.909723 -25.873810 42.425214 1.364580 2.226691 0.074099 -0.042463 470447.000000 0 0 1
-5.869398 -32.726423 -24.878510 41.526002 1.393336 2.213181 0.052440 -0.046726 267328.000000 0 0 1
-5.846998 -33.837063 -24.038310 41.916280 1.399687 2.181549 0.061796 -0.051217 446286.000000 0 0 1
-4.870998 -33.647153 -22.787310 40.928218 1.427028 2.161280 0.079432 -0.062765 519579.000000 0 0 1
-5.306498 -32.835523 -21.705510 39.717246 1.410573 2.148977 0.083665 -0.051653 -3618.750000 0 0 1
-5.078498 -31.446013 -21.893010 38.651607 1.410680 2.172951 0.050566 -0.030388 -313137.000000 0 0 1
-5.656698 -30.621753 -20.751110 37.420563 1.388127 2.158604 0.087132 -0.031995 166228.000000 0 0 1
-7.079898 -30.750193 -20.684310 37.729829 1.344501 2.151033 0.102150 -0.036065 670858.000000 0 0 1
-7.779598 -29.589433 -20.258110 36.693974 1.313697 2.155656 0.103847 -0.031727 175024.000000 0 0 1
-7.999298 -28.554603 -21.429810 36.586758 1.297657 2.196572 0.113026 -0.048714 -848733.000000 0 0 1
-6.762998 -28.063793 -21.846710 36.202118 1.334319 2.218636 0.109422 -0.033945 -582690.000000 0 0 1
-6.781698 -27.551203 -23.177010 36.636512 1.329446 2.255729 0.130319 -0.050169 -1208480.000000 0 0 1
-5.707898 -28.111033 -24.122110 37.479147 1.370471 2.270008 0.116366 -0.045662 246755.000000 0 0 1
-4.351598 -27.725613 -23.988510 36.920111 1.415114 2.278040 0.109966 -0.033374 249784.000000 0 0 1
-3.768398 -27.876993 -22.718110 36.158541 1.436431 2.250152 0.073547 -0.033951 -238043.000000 0 0 1
-2.225498 -27.468573 -22.787310 35.759430 1.489953 2.261707 0.069191 -0.034038 1098330.000000 0 0 1
-1.862498 -26.143263 -23.063110 34.911977 1.499674 2.292424 0.070469 -0.029521 96614.300000 0 0 1
-2.222698 -25.214183 -22.038010 33.561425 1.482871 2.287161 0.086948 -0.028741 -729852.000000 0 0 1
-2.363498 -23.725523 -22.508310 32.788879 1.471506 2.327408 0.087664 -0.017424 203286.000000 0 0 1
-3.250998 -23.554223 -23.619210 33.514735 1.433641 2.352854 0.094769 -0.028043 708515.000000 0 0 1
-4.602898 -23.459323 -23.158910 33.284555 1.377050 2.340309 0.099065 -0.027238 -289609.000000 0 0 1
-5.662898 -23.432823 -24.251710 34.195190 1.333677 2.359179 0.087682 -0.021697 -203037.000000 0 0 1
-5.722198 -22.167923 -24.962810 33.871850 1.318181 2.399385 0.100813 -0.021758 31446.800000 0 0 1
-5.577398 -22.326123 -26.330210 34.969173 1.325992 2.423337 0.104314 -0.023099 251243.000000 0 0 1
-5.976598 -21.117423 -27.268710 35.003540 1.294992 2.463909 0.099950 -0.018868 270821.000000 0 0 1
-6.342398 -21.467823 -28.597510 36.316814 1.283531 2.477450 0.099194 -0.022615 864582.000000 0 0 1
-5.168998 -21.727423 -29.400710 36.921554 1.337236 2.491953 0.087778 -0.022754 996940.000000 0 0 1
-5.648198 -22.056223 -30.832810 38.328074 1.320102 2.505536 0.099322 -0.026941 -17355.700000 0 0 1
-6.009298 -20.856223 -31.539610 38.286299 1.290265 2.538849 0.107871 -0.035855 106452.000000 0 0 1
-6.907098 -21.181923 -32.596610 39.483171 1.255584 2.542030 0.111561 -0.035621 22360.100000 0 0 1
-6.806698 -20.307123 -33.912910 40.109797 1.247378 2.578301 0.107510 -0.040311 975634.000000 0 0 1
-5.478898 -20.498923 33.703985 39.826910 1.309624 0.561868 0.096005 -0.030717 433444.000000 0 0 1
-5.337698 -19.841023 32.519085 38.466194 1.307995 0.563494 0.096871 -0.030279 -611926.000000 0 0 1
-4.105798 -20.280823 31.779685 37.922522 1.371049 0.577159 0.058342 -0.029787 -2254180.000000 0 0 1
-4.065498 -21.666723 31.451885 38.408283 1.385315 0.611334 0.076132 -0.030563 976347.000000 0 0 1
-2.885598 -22.159523 30.745985 38.009035 1.441306 0.628496 0.067349 -0.026088 289132.000000 0 0 1
-1.553098 -21.886123 31.387485 38.296066 1.499952 0.610082 0.047619 -0.031044 -2088310.000000 0 0 1
-1.065098 -20.659223 31.050885 37.310794 1.519286 0.587692 0.036765 -0.034576 166278.000000 0 0 1
-0.098998 -20.042123 31.951785 37.717543 1.565857 0.560229 0.038762 -0.029771 365181.000000 0 0 1
-0.644798 -19.702123 33.353585 38.743400 1.538081 0.533791 0.032440 -0.028010 -607135.000000 0 0 1
-1.637998 -18.725123 33.217385 38.166843 1.483542 0.514944 0.030815 -0.027570 -348043.000000 0 0 1
-2.272098 -18.511223 -33.655910 38.477890 1.448666 2.635575 0.040354 -0.027148 -55711.600000 0 0 1
-3.210098 -17.317723 -33.586810 37.924689 1.387512 2.658621 0.045056 -0.032736 183441.000000 0 0 1
-2.547498 -16.055923 -33.709410 37.424680 1.413444 2.692236 0.053892 -0.037417 39883.200000 0 0 1
-3.496798 -15.029623 -33.533310 36.913412 1.342203 2.710313 0.066749 -0.034016 138098.000000 0 0 1
-3.114898 -13.626123 -34.043010 36.800820 1.346060 2.751993 0.072440 -0.033477 4799.120000 0 0 1
-2.123398 -12.983623 -33.243510 35.752122 1.408687 2.764756 0.070240 -0.030531 163590.000000 0 0 1
-2.084598 -11.553523 -33.346310 35.352593 1.392287 2.803079 0.069542 -0.024229 -263730.000000 0 0 1
-1.353598 -11.004923 33.599385 35.381622 1.448412 0.318749 0.071138 -0.023364 -799630.000000 0 0 1
-2.197698 -11.063723 32.488785 34.391234 1.374709 0.334172 0.068100 -0.023055 181383.000000 0 0 1
-1.564598 -10.742223 31.226585 33.059687 1.426164 0.334570 0.069412 -0.015962 81594.300000 0 0 1
-0.529298 -11.717723 30.679185 32.845054 1.525656 0.365184 0.050272 -0.023687 -535385.000000 0 0 1
-1.132698 -12.875723 30.182585 32.833758 1.483051 0.404613 0.057462 -0.030989 -110991.000000 0 0 1
-0.248798 -13.929623 29.861685 32.951730 1.552937 0.436528 0.044024 -0.037005 -296821.000000 0 0 1
-0.744198 -15.264523 30.408585 34.032947 1.522081 0.465707 0.037175 -0.039340 25231.100000 0 0 1
-1.853498 -15.917223 29.831785 33.863385 1.454872 0.492941 0.044343 -0.043504 160155.000000 0 0 1
-1.915398 -17.228823 30.339785 34.942862 1.460077 0.519095 0.051622 -0.037974 -131693.000000 0 0 1
-2.271498 -18.299823 29.271085 34.595370 1.447301 0.562174 0.060963 -0.029145 -52959.500000 0 0 1
-3.589798 -18.101823 28.786885 34.194259 1.375025 0.570070 0.076069 -0.029692 180515.000000 0 0 1
-4.037798 -19.312723 28.152585 34.378090 1.364691 0.611286 0.091825 -0.031754 727820.000000 0 0 1
-5.164998 -19.028023 27.082385 33.499230 1.305741 0.629286 0.075286 -0.033709 267601.000000 0 0 1
-5.716398 -20.209223 26.526185 33.833835 1.295137 0.669691 0.084582 -0.024504 53391.500000 0 0 1
-4.817198 -20.955023 25.703585 33.511082 1.344839 0.696617 0.085966 -0.027641 -77207.200000 0 0 1
-30.086188 -33.312094 -0.637315 44.891876 0.836237 1.584993 0.026219 -0.014101 13630.800000 0 0 1
-29.307108 -32.193194 -0.190715 43.535557 0.832292 1.575177 0.034933 -0.028216 204370.000000 0 0 1
-29.574578 -31.832394 1.156085 43.466004 0.822150 1.544196 0.024703 -0.013438 -193554.000000 0 0 1
-28.768218 -30.607194 1.590585 42.034993 0.816360 1.532948 0.047689 -0.014088 360851.000000 0 0 1
-27.381548 -30.813894 1.840285 41.262960 0.844310 1.526183 0.059409 -0.020030 -88240.500000 0 0 1
-26.768238 -29.572394 1.998985 39.938215 0.835129 1.520723 0.066733 -0.013627 -26673.100000 0 0 1
-25.256078 -29.704294 2.258285 39.055274 0.866157 1.512941 0.060891 -0.017607 -88500.600000 0 0 1
-24.887098 -30.345494 3.455685 39.397442 0.883904 1.482970 0.054696 -0.009119 -277274.000000 0 0 1
-23.488298 -30.345694 3.597785 38.542254 0.912096 1.477314 0.055162 -0.005467 -294004.000000 0 0 1
-22.976298 -31.065494 4.850485 38.942296 0.933979 1.445916 0.062784 -0.011889 -293702.000000 0 0 1
-23.549998 -30.469994 5.982985 38.972029 0.912805 1.416667 0.060673 -0.014861 -98409.600000 0 0 1
-23.074898 -31.062994 7.147185 39.350258 0.931892 1.388153 0.062040 -0.019644 -290458.000000 0 0 1
-23.588598 -30.433094 8.441785 39.419017 0.911426 1.354970 0.062469 -0.017333 -103403.000000 0 0 1
-23.155198 -29.115194 8.671885 38.197635 0.898930 1.341773 0.078585 -0.017016 -111167.000000 0 0 1
-23.524398 -28.725394 9.981385 38.447024 0.884612 1.308174 0.073992 -0.019018 -105092.000000 0 0 1
-22.876698 -27.396994 10.412285 37.180025 0.875071 1.286950 0.087933 -0.020854 874249.000000 0 0 1
-21.470798 -27.627694 10.579485 36.554208 0.910146 1.277176 0.073978 -0.022359 372613.000000 0 0 1
-20.867998 -26.577894 11.309385 35.633692 0.905168 1.247832 0.089449 -0.020258 610928.000000 0 0 1
-19.576298 -26.902394 12.110885 35.406833 0.941735 1.221699 0.094748 -0.017598 500146.000000 0 0 1
-19.844098 -27.594794 13.314885 36.504069 0.947350 1.197431 0.097899 -0.017784 -399387.000000 0 0 1
-18.641998 -27.748294 14.013585 36.247379 0.979231 1.173844 0.094246 -0.026911 -118401.000000 0 0 1
-18.583498 -28.876694 15.082385 37.505842 0.998971 1.156950 0.120927 -0.035603 -53718.900000 0 0 1
-18.502098 -30.150294 14.515785 38.237101 1.020392 1.181405 0.123329 -0.037947 12749.600000 0 0 1
-18.517798 -31.128794 15.504885 39.399392 1.034152 1.166327 0.126218 -0.042475 72451.800000 0 0 1
-18.072998 -32.515394 14.983785 40.104837 1.063489 1.187893 0.126958 -0.052042 77159.500000 0 0 1
-18.226698 -33.519094 15.945385 41.352116 1.072748 1.174938 0.123768 -0.039450 -63996.000000 0 0 1
-17.481498 33.602277 15.567085 40.951800 -1.091082 1.180857 0.110667 -0.038401 -367104.000000 0 0 1
-17.386098 32.489277 16.602085 40.416071 -1.079439 1.147488 0.104731 -0.030467 -245583.000000 0 0 1
-18.596798 31.772477 16.721585 40.434423 -1.041247 1.144449 0.103008 -0.035435 93739.600000 0 0 1
-18.569998 30.694877 17.694185 40.001306 -1.026718 1.112590 0.066760 -0.019724 280063.000000 0 0 1
-19.395498 31.044877 18.992385 41.239307 -1.012372 1.092192 0.073446 -0.025602 263388.000000 0 0 1
-18.652798 31.888577 19.842185 41.934717 -1.041526 1.077912 0.066706 -0.020993 4264.240000 0 0 1
-19.455898 32.361877 20.880885 43.148979 -1.029496 1.065662 0.074217 -0.023797 -352482.000000 0 0 1
-18.755998 33.303777 21.877685 44.040460 -1.057891 1.050931 0.057554 -0.004457 365823.000000 0 0 1
-17.613898 32.628777 22.444485 43.343297 -1.075797 1.026483 0.029740 -0.009705 179297.000000 0 0 1
-17.182698 33.453677 23.494085 44.343722 -1.096307 1.012411 0.031906 -0.012649 143803.000000 0 0 1
-17.886298 33.072977 24.883385 45.087962 -1.075034 0.986173 0.019968 -0.010108 1161880.000000 0 0 1
-19.318598 33.182277 24.832485 45.726623 -1.043571 0.996714 0.013388 -0.008755 593858.000000 0 0 1
-19.977898 32.273477 25.675385 45.824874 -1.016509 0.976056 0.032307 -0.001095 -216963.000000 0 0 1
-21.496598 32.382777 25.466285 46.468050 -0.984761 0.990779 0.099846 -0.007337 -11037.400000 0 0 1
-21.924598 32.026377 24.107185 45.689530 -0.970495 1.014988 0.091873 0.000873 -400902.000000 0 0 1
-23.305898 32.002777 23.938785 46.264544 -0.941364 1.026948 0.075709 -0.002994 -539741.000000 0 0 1
-23.703698 31.720377 22.426785 45.508332 -0.929044 1.055485 0.062762 -0.013428 -59991.600000 0 0 1
-23.415298 32.699277 21.465485 45.588222 -0.949360 1.080536 0.071129 -0.012908 61083.100000 0 0 1
-23.605598 32.275777 20.115685 44.761488 -0.939324 1.104706 0.052568 -0.005231 -52229.800000 0 0 1
-23.254298 33.309677 19.027985 44.859349 -0.961330 1.132751 0.067390 -0.011640 -564177.000000 0 0 1
-21.907898 33.681077 19.046885 44.465209 -0.994104 1.128125 0.084278 -0.013799 -494571.000000 0 0 1
-21.506198 -33.763094 17.987385 43.886320 1.003633 1.148492 0.103660 -0.012957 -909866.000000 0 0 1
-20.135098 -33.177694 18.170585 42.852675 1.025329 1.132912 0.103909 -0.018972 -1307860.000000 0 0 1
-20.133398 -32.143694 19.172685 42.498972 1.011222 1.102762 0.118183 -0.036430 -614201.000000 0 0 1
-18.948098 -31.452894 19.223485 41.447043 1.028594 1.088507 0.096660 -0.034618 -1114230.000000 0 0 1
-18.874998 -30.410294 20.358585 41.176735 1.015311 1.053629 0.091841 -0.028956 129248.000000 0 0 1
-19.796298 -29.343894 20.123885 40.717666 0.977300 1.053848 0.128014 -0.035162 540991.000000 0 0 1
-20.158098 -28.677694 21.339985 41.038446 0.958114 1.023946 0.113476 -0.022474 -140934.000000 0 0 1
-21.094498 -27.487494 21.216485 40.628554 0.916238 1.021360 0.108271 -0.022717 -675282.000000 0 0 1
-20.475898 -26.363094 20.592785 39.221651 0.910433 1.018039 0.103263 -0.021931 212757.000000 0 0 1
-21.251298 -25.208494 20.366085 38.753881 0.870368 1.017466 0.106434 -0.011992 -817923.000000 0 0 1
-22.422998 -25.247294 19.404785 38.945634 0.844575 1.049213 0.102755 -0.013407 -248059.000000 0 0 1
-23.606998 -25.850794 19.930685 40.283820 0.830735 1.053242 0.097516 -0.012990 730405.000000 0 0 1
-24.668998 -25.740794 18.984285 40.392462 0.806657 1.081510 0.078703 0.001043 -64221.400000 0 0 1
-26.089668 -25.988194 19.548885 41.691917 0.783450 1.082764 0.061121 -0.003685 147179.000000 0 0 1
-26.610918 -27.288394 19.453985 42.793165 0.797967 1.098868 0.048103 -0.000893 -184543.000000 0 0 1
-26.779348 -27.819394 18.141285 42.663314 0.804445 1.131592 0.067768 -0.013677 -358959.000000 0 0 1
-27.722048 -29.051394 18.153785 44.068757 0.808809 1.146212 0.069875 -0.022707 640058.000000 0 0 1
-29.081948 -28.766594 18.434285 44.867577 0.779947 1.147399 0.039394 -0.014444 -444298.000000 0 0 1
-29.972508 -29.662994 17.868185 45.798652 0.780208 1.170006 0.041880 0.002802 1705930.000000 0 0 1
-31.488568 -29.142794 18.117985 46.573531 0.746728 1.171230 0.043816 -0.001408 1852080.000000 0 0 1
-31.799138 -27.980094 17.457685 45.813116 0.721599 1.179851 0.052074 0.002839 -455687.000000 0 0 1
-33.064208 -27.572594 17.913985 46.630469 0.695079 1.176489 0.055014 0.010786 -309766.000000 0 0 1
-33.478198 -26.191894 17.397385 45.929011 0.663890 1.182309 0.052196 0.005565 -319390.000000 0 0 1
-33.899078 -26.182594 16.039585 45.737775 0.657664 1.212493 0.064263 -0.003672 144688.000000 0 0 1
-34.690578 -25.031294 15.792085 45.600349 0.625049 1.217156 0.059626 0.001647 -208981.000000 0 0 1
-33.980408 -23.694694 15.460385 44.216854 0.608915 1.213600 0.041947 0.000066 118698.000000 0 0 1
-33.214188 -23.006394 16.463785 43.629493 0.605788 1.183858 0.038127 0.010132 351580.000000 0 0 1
-32.944508 -21.724794 15.934985 42.558560 0.582980 1.187020 0.037883 0.012512 -191878.000000 0 0 1
-33.926318 -20.618194 16.356585 42.937663 0.546087 1.179986 0.040695 -0.000484 -59742.700000 0 0 1
-33.832728 -20.328894 17.742185 43.274733 0.541055 1.148354 0.050234 0.011739 512695.000000 0 0 1
-34.642878 -19.196194 18.076285 43.535904 0.505998 1.142629 0.059131 0.011963 128229.000000 0 0 1
-35.006967 -19.212894 19.629685 44.496602 0.501945 1.113916 0.056676 -0.006597 -89993.200000 0 0 1
-36.116788 -19.990894 20.031885 45.883926 0.505532 1.119005 0.062582 -0.004494 255809.000000 0 0 1
-36.552278 -19.576994 21.324185 46.626694 0.491712 1.095796 0.081214 -0.002715 639060.000000 0 0 1
35.481505 -19.889494 21.629085 46.068932 -0.510914 1.082079 0.096812 -0.003782 1135360.000000 0 0 1
34.981975 -21.229594 21.662285 46.299987 -0.545457 1.083919 0.096165 -0.013748 273799.000000 0 0 1
35.710835 -22.084994 22.582085 47.675583 -0.553868 1.077353 0.081108 -0.002169 -225645.000000 0 0 1
34.981425 -23.367294 22.999485 47.944831 -0.588919 1.070475 0.100251 0.000520 108399.000000 0 0 1
33.995405 -23.007794 23.979985 47.540360 -0.594979 1.042094 0.104765 -0.011352 268780.000000 0 0 1
33.808575 -24.136094 24.863985 48.412690 -0.619997 1.031440 0.101556 -0.021344 312063.000000 0 0 1
32.629585 -24.020994 25.899485 48.088265 -0.634592 1.002043 0.110713 -0.021824 -269932.000000 0 0 1
31.353045 -24.098694 25.367985 46.981860 -0.655314 1.000415 0.091836 -0.012724 -597530.000000 0 0 1
30.485175 -23.995794 26.504285 46.985329 -0.666844 0.971457 0.045512 -0.011612 -791834.000000 0 0 1
29.145945 -24.679294 26.323985 46.384327 -0.702604 0.967307 0.031322 -0.008740 -742467.000000 0 0 1
28.292505 -23.875694 25.527485 44.968512 -0.700935 0.967118 0.027548 -0.002412 -406408.000000 0 0 1
27.093205 -24.566194 25.248685 44.441374 -0.736520 0.966559 0.025721 0.003270 -175916.000000 0 0 1
25.977605 -23.565694 24.881885 43.003326 -0.736754 0.953781 0.022092 0.009941 -574221.000000 0 0 1
25.960605 -22.996894 23.554785 41.924194 -0.724936 0.974185 0.035834 0.003449 200495.000000 0 0 1
27.062805 -22.153094 23.232685 41.987053 -0.685968 0.984440 0.027319 0.010961 153396.000000 0 0 1
26.868805 -21.622894 21.843685 40.824365 -0.677636 1.006212 0.034455 0.008807 -64539.900000 0 0 1
26.195105 -20.419494 21.781385 39.718610 -0.662125 0.990356 0.030545 0.004062 -267025.000000 0 0 1
26.191905 -19.960094 20.436385 38.756510 -0.651182 1.015374 0.015852 0.008176 422917.000000 0 0 1
25.262305 -18.681594 20.262985 37.386823 -0.636750 0.998003 0.028576 0.007841 332732.000000 0 0 1
25.726605 -17.575294 20.937985 37.538625 -0.599332 0.979098 0.031572 -0.009809 23169.700000 0 0 1
25.345205 -17.641594 22.301985 38.091781 -0.608072 0.945324 0.038384 -0.008008 -86164.000000 0 0 1
25.802005 -16.323494 22.942285 38.190946 -0.564078 0.926388 0.050617 -0.005208 -445425.000000 0 0 1
24.845505 -15.325894 22.879785 37.089981 -0.552716 0.906034 0.017161 -0.002266 -454719.000000 0 0 1
25.093105 -14.237094 23.785285 37.391156 -0.516082 0.881336 0.028084 -0.000853 1097660.000000 0 0 1
23.769105 -13.372794 23.775985 36.181479 -0.512475 0.853790 0.013065 0.000003 1615680.000000 0 0 1
22.573105 -14.013194 24.186285 35.928972 -0.555567 0.832310 0.030563 0.002500 677244.000000 0 0 1
21.378905 -13.213994 24.110985 34.828247 -0.553612 0.806149 0.037728 0.002589 976657.000000 0 0 1
20.125405 -13.986094 24.596385 34.722110 -0.607327 0.783599 0.053077 -0.002811 -111001.000000 0 0 1
19.700205 -14.878794 23.660485 34.194958 -0.646860 0.806639 0.056712 -0.004771 584634.000000 0 0 1
18.442705 -15.483794 24.044485 34.029671 -0.698403 0.786151 0.059150 -0.003466 929799.000000 0 0 1
17.936505 -16.492894 22.966585 33.484291 -0.743493 0.814969 0.072905 -0.006876 291451.000000 0 0 1
18.691005 -17.703294 23.074085 34.571284 -0.758266 0.840037 0.059561 -0.001682 142154.000000 0 0 1
18.063105 -18.659194 22.309185 34.236545 -0.801629 0.861079 0.076593 0.000533 -91073.400000 0 0 1
18.348505 -20.061494 22.802285 35.483452 -0.829966 0.872887 0.062325 0.006778 -318112.000000 0 0 1
17.620505 -20.466494 23.925085 36.080040 -0.859983 0.845828 0.076870 0.009070 -31087.800000 0 0 1
18.004505 -21.715694 24.461085 37.337357 -0.878561 0.856432 0.093864 0.003658 -18.618300 0 0 1
17.675605 -22.989194 23.627085 37.405470 -0.915330 0.887119 0.090056 0.000670 -38039.300000 0 0 1
18.495505 -23.083994 22.495585 37.161887 -0.895308 0.920603 0.086787 0.006318 -236555.000000 0 0 1
19.208605 -24.303694 22.509885 38.292753 -0.901963 0.942414 0.077947 -0.001304 471795.000000 0 0 1
20.289205 -24.452894 21.359885 38.286297 -0.878191 0.978944 0.062005 0.014452 538461.000000 0 0 1
19.730805 -24.798794 20.102285 37.528479 -0.898722 1.005514 0.067929 -0.003939 237225.000000 0 0 1
20.689405 -25.433894 19.265885 38.027737 -0.887903 1.039528 0.059012 -0.006520 114992.000000 0 0 1
20.134305 -25.910894 17.922485 37.389572 -0.910201 1.070889 0.061507 -0.013167 111649.000000 0 0 1
19.681305 -27.253394 18.050685 38.156631 -0.945352 1.078026 0.074739 -0.025213 -393019.000000 0 0 1
18.753905 -27.654994 17.105285 37.537960 -0.974894 1.097661 0.082570 -0.025468 -97403.000000 0 0 1
17.942905 -28.962194 17.519685 38.310519 -1.016141 1.095831 0.073402 -0.021360 261769.000000 0 0 1
17.050805 -28.640794 18.560785 38.151380 -1.033816 1.062713 0.098714 -0.030164 -454953.000000 0 0 1
16.387805 -29.775594 19.009385 38.942302 -1.067664 1.060836 0.106761 -0.034332 721833.000000 0 0 1
15.096205 -29.412194 19.857885 38.565634 -1.096594 1.029892 0.098468 -0.031098 1399920.000000 0 0 1
14.052805 -28.809994 19.074385 37.300526 -1.116976 1.034018 0.090473 -0.027745 18716.000000 0 0 1
12.879305 -28.525894 19.766385 37.017740 -1.146700 1.007507 0.068233 -0.027600 198880.000000 0 0 1
11.699705 -27.953094 18.922485 35.725607 -1.174403 1.012595 0.064435 -0.024762 121605.000000 0 0 1
11.113005 -28.845094 18.063385 35.802573 -1.203057 1.041962 0.075926 -0.029049 -125788.000000 0 0 1
10.498605 -28.159094 16.980385 34.517948 -1.213928 1.056492 0.074777 -0.026068 49370.000000 0 0 1
10.432305 -29.069594 15.700185 34.646358 -1.226238 1.100494 0.074347 -0.023300 -28266.500000 0 0 1
9.473205 -30.091294 15.808585 35.286526 -1.265803 1.106262 0.079110 -0.017348 99161.100000 0 0 1
9.684605 -30.972094 14.745485 35.643955 -1.267740 1.144295 0.067446 -0.015109 -582143.000000 0 0 1
8.486505 -31.838394 14.428685 35.970697 -1.310303 1.158054 0.057888 -0.009944 -711577.000000 0 0 1
8.219805 -32.692794 15.490285 37.098961 -1.324476 1.140060 0.070693 -0.015889 -131146.000000 0 0 1
7.379505 -33.752994 15.134285 37.719601 -1.355551 1.157936 0.050815 -0.010372 -178744.000000 0 0 1
7.200905 33.327977 16.146685 37.726947 1.358005 1.128531 0.088036 -0.025076 527622.000000 0 0 1
8.300005 32.409377 16.165785 37.156297 1.320086 1.120674 0.089111 -0.027441 422247.000000 0 0 1
8.058105 31.395777 17.164385 36.677568 1.319557 1.083792 0.099954 -0.037393 164744.000000 0 0 1
9.323405 30.568577 17.478785 36.426250 1.274759 1.070324 0.097910 -0.038618 -38949.500000 0 0 1
9.870305 29.834577 16.406385 35.449885 1.251296 1.089639 0.092139 -0.033646 327212.000000 0 0 1
11.094105 29.207277 16.789285 35.468638 1.207789 1.077700 0.081471 -0.036955 367156.000000 0 0 1
11.856505 28.584177 15.583285 34.647809 1.177603 1.104297 0.077337 -0.029760 -435810.000000 0 0 1
11.329905 27.488077 14.866085 33.240963 1.179838 1.107139 0.089980 -0.030369 -564256.000000 0 0 1
12.207805 26.874777 13.970585 32.656720 1.144416 1.128738 0.099500 -0.023017 -307030.000000 0 0 1
-9.065798 -9.771123 19.160379 23.340601 0.822824 0.607805 0.047063 -0.010881 101413.000000 0 1 0
-9.488098 -9.533823 17.852979 22.352777 0.787802 0.645678 0.051889 -0.019237 19325.900000 0 1 0
-9.385998 -10.702423 17.104779 22.253366 0.850836 0.694087 0.067842 -0.033553 92619.600000 0 1 0
-9.894098 -10.638523 15.643279 21.349087 0.821638 0.748460 0.071460 -0.035109 -166668.000000 0 1 0
-11.299198 -10.568623 15.522579 21.916161 0.752002 0.783751 0.072802 -0.026693 178263.000000 0 1 0
-11.810298 -11.276423 14.390779 21.765463 0.762278 0.848413 0.087922 -0.019930 109326.000000 0 1 0
-11.857198 -12.837223 14.461679 22.683201 0.825063 0.879482 0.070341 -0.017669 -972100.000000 0 1 0
-10.586198 -13.373423 14.255979 22.229462 0.901208 0.874592 0.089409 -0.019164 -345192.000000 0 1 0
-10.469798 -14.746123 14.556779 23.215612 0.953388 0.893067 0.099052 -0.024799 70531.000000 0 1 0
-10.292898 -15.025523 16.087379 24.300491 0.970190 0.847287 0.119456 -0.025721 -160916.000000 0 1 0
-11.497498 -14.823723 16.790279 25.176352 0.911102 0.840747 0.100574 -0.021784 -102834.000000 0 0 1
-11.331098 -15.120923 18.163679 26.209833 0.927701 0.805140 0.142037 -0.017695 -417807.000000 0 0 1
-12.462798 -14.597523 19.058979 27.049098 0.864123 0.788927 0.075221 -0.021216 -1158980.000000 0 0 1
-12.811098 -13.277923 18.821379 26.356627 0.803290 0.775453 0.078380 -0.012511 -197402.000000 0 0 1
-13.985798 -13.176923 18.059079 26.369759 0.755628 0.816412 0.101585 -0.018902 124392.000000 0 0 1
-15.355398 -13.432923 18.762079 27.717274 0.718717 0.827241 0.061140 -0.007241 -317781.000000 0 0 1
-15.509898 -14.865923 18.961079 28.654408 0.764201 0.847691 0.058176 -0.012130 -551995.000000 0 0 1
-16.451698 -15.052423 19.964879 29.930423 0.741012 0.840564 0.055844 -0.006538 -417524.000000 0 0 1
-17.012698 -16.515423 20.087679 31.075810 0.770568 0.867928 0.049633 -0.015687 -395297.000000 0 0 1
-18.159098 -16.745623 19.338379 31.371032 0.744925 0.906582 0.050827 -0.004785 -699757.000000 0 0 1
-18.737298 -17.974023 19.661779 32.568964 0.764610 0.922666 0.070531 -0.015563 -118831.000000 0 0 1
-20.054698 -18.175623 18.898379 33.010497 0.736286 0.961249 0.071424 -0.017934 -444319.000000 0 0 1
-19.877798 -18.455823 17.503079 32.281605 0.748320 0.997743 0.071002 -0.021172 53851.000000 0 0 1
-19.848998 -17.279923 16.656379 31.145039 0.716315 1.006525 0.072631 -0.019716 -545401.000000 0 0 1
-19.344798 -17.503923 15.275079 30.231384 0.735482 1.041099 0.080454 -0.027267 -383319.000000 0 0 1
-20.065698 -18.511523 14.576779 30.948202 0.745133 1.080366 0.085257 -0.021196 348868.000000 0 0 1
-19.424898 -18.694623 13.316679 30.069079 0.766243 1.112000 0.082520 -0.026806 263611.000000 0 0 1
-19.772998 -20.070423 12.697079 30.903222 0.792863 1.147393 0.100773 -0.026567 47565.500000 0 0 1
-19.022398 -21.172923 13.227679 31.386554 0.838849 1.135759 0.100772 -0.016820 95677.600000 0 0 1
-18.809598 -22.160423 12.291279 31.558848 0.867004 1.170738 0.093296 -0.010324 -42641.600000 0 0 1
-17.821698 -23.273223 12.799879 31.985821 0.917285 1.159090 0.087216 -0.004848 305310.000000 0 0 1
-17.618598 -24.310523 11.858079 32.280498 0.943664 1.194644 0.088643 -0.018837 -154378.000000 0 0 1
-16.864098 -24.089523 10.689079 31.288326 0.960030 1.222144 0.072241 -0.014849 -412216.000000 0 0 1
-16.870198 -25.154183 9.508579 31.745072 0.980026 1.266597 0.064807 -0.016683 375744.000000 0 0 1
-18.187298 -25.377283 8.982079 32.487875 0.948966 1.290672 0.066023 -0.011799 408335.000000 0 0 1
-18.162298 -26.390933 7.987479 33.017423 0.968032 1.326455 0.080574 -0.020442 -139330.000000 0 0 1
-19.426098 -26.342513 7.127879 33.497880 0.935380 1.356371 0.069921 -0.025171 -60917.200000 0 0 1
-19.534798 -25.156343 6.377679 32.482683 0.910528 1.373172 0.067364 -0.022809 620621.000000 0 0 1
-20.621398 -25.179683 5.411679 32.993102 0.884595 1.406027 0.076977 -0.022983 799704.000000 0 0 1
-20.822198 -23.855423 4.615479 31.999184 0.853186 1.426054 0.079214 -0.021220 63127.400000 0 0 1
-21.839698 -23.881523 3.633079 32.565301 0.830027 1.459001 0.079973 -0.026267 73800.500000 0 0 1
-22.009098 -22.561523 3.019379 31.662902 0.797792 1.475291 0.077483 -0.020733 121906.000000 0 0 1
-22.672298 -22.700323 1.651179 32.125755 0.786016 1.519376 0.052749 -0.017078 -163364.000000 0 0 1
-21.851198 -23.446323 0.801779 32.060065 0.820598 1.545785 0.055458 -0.028099 -46068.000000 0 0 1
-22.183598 -23.281123 -0.554321 32.162556 0.809534 1.588032 0.053586 -0.027545 -183111.000000 0 0 1
-21.371698 -24.185123 -1.531721 32.311234 0.847076 1.618219 0.062977 -0.027855 192672.000000 0 0 1
-20.030998 -23.732923 -1.764821 31.106384 0.869786 1.627562 0.063470 -0.031264 670527.000000 0 0 1
-19.432598 -24.214123 -2.965521 31.188843 0.894514 1.666023 0.069470 -0.022223 72712.900000 0 0 1
-19.128398 -25.732473 -3.092521 32.212101 0.931561 1.666949 0.074368 -0.020533 -390783.000000 0 0 1
-20.309098 -26.504313 -3.226221 33.546186 0.916972 1.667118 0.100534 -0.032757 969.163000 0 0 1
-19.991398 -27.843213 -3.485721 34.453603 0.948092 1.672141 0.094844 -0.026161 -153412.000000 0 0 1
-21.121898 -28.553173 -4.230121 35.767474 0.933895 1.689341 0.095407 -0.031778 -232232.000000 0 0 1
-21.492798 -27.921293 -5.423821 35.650481 0.914766 1.723528 0.087348 -0.027705 455232.000000 0 0 1
-22.638998 -28.559613 -6.000921 36.934899 0.900527 1.733993 0.092148 -0.036684 650268.000000 0 0 1
-23.302198 -27.943363 -7.248821 37.099452 0.875719 1.767450 0.082173 -0.019614 505406.000000 0 0 1
-22.388798 -27.942483 -8.397021 36.777039 0.895296 1.801151 0.098052 -0.018512 543576.000000 0 0 1
-22.900398 -28.059813 -9.714721 37.498762 0.886298 1.832853 0.096619 -0.011438 25104.300000 0 0 1
-23.804098 -26.860683 -10.198721 37.311463 0.845655 1.847660 0.071089 -0.002363 -12353.600000 0 0 1
-23.185398 -25.653873 -10.572621 36.158874 0.835898 1.867525 0.067744 0.000621 145103.000000 0 0 1
-22.538498 -24.961323 -9.481821 34.942188 0.836361 1.845599 0.060296 -0.002199 166416.000000 0 0 1
-22.294598 -23.463723 -9.856321 33.834043 0.810943 1.866396 0.055586 -0.003129 412815.000000 0 0 1
-23.492498 -22.702323 -9.947321 34.150287 0.768295 1.866362 0.054173 -0.005972 294037.000000 0 0 1
-23.174798 -21.390323 -10.348921 33.192128 0.745378 1.887871 0.061855 0.000446 -283562.000000 0 0 1
-24.414598 -20.541223 -10.511421 33.593220 0.699451 1.889044 0.082296 -0.000541 -907381.000000 0 0 1
-25.266798 -20.838223 -11.625721 34.753417 0.689638 1.911892 0.066945 0.003119 1132210.000000 0 0 1
-26.503068 -20.110223 -11.668921 35.256168 0.649102 1.908133 0.062700 -0.000797 704615.000000 0 0 1
-26.357538 -18.543623 -11.699621 34.285083 0.613099 1.919038 0.058542 -0.009795 -1010360.000000 0 0 1
-25.587088 -18.104923 -12.825221 33.866999 0.615795 1.959181 0.066077 -0.003091 630230.000000 0 0 1
-25.225238 -16.696723 -12.856221 32.869068 0.584699 1.972660 0.078295 -0.011986 -40144.600000 0 0 1
-24.094198 -16.284723 -11.910021 31.425645 0.594352 1.959501 0.057101 -0.010895 -575684.000000 0 0 1
-24.494298 -16.464123 -10.570621 31.349259 0.591797 1.914726 0.088137 -0.018613 168296.000000 0 0 1
-23.384998 -16.338923 -9.723921 30.139230 0.609848 1.899307 0.081117 -0.018909 -163790.000000 0 0 1
-23.867798 -16.635223 -8.298521 30.253395 0.608692 1.848659 0.070006 -0.030769 155794.000000 0 0 1
-23.968698 -18.076923 -8.062121 31.084907 0.646177 1.833154 0.069326 -0.019823 86222.400000 0 0 1
-24.659398 -18.310023 -6.848421 31.468138 0.638695 1.790182 0.069262 -0.013093 -381814.000000 0 0 1
-25.290488 -19.684223 -6.809821 32.763563 0.661384 1.780170 0.070059 -0.012913 -1147710.000000 0 0 1
-26.433258 -19.660223 -7.567421 33.800996 0.639501 1.796592 0.058523 -0.020110 -1113270.000000 0 0 1
-27.191268 -20.839323 -7.579921 35.087001 0.653913 1.788545 0.049436 -0.006149 -155602.000000 0 0 1
-26.583998 -22.087123 -8.291121 35.542828 0.693267 1.806237 0.034804 -0.004064 -184601.000000 0 0 1
-27.306938 -23.283623 -8.117721 36.792572 0.706038 1.793262 0.034287 0.000958 -401660.000000 0 0 1
-26.509968 -24.263323 -8.719221 36.979887 0.741178 1.808820 0.034046 0.006246 192532.000000 0 0 1
-26.918748 -25.737143 -8.598921 38.222519 0.762962 1.797709 0.022285 -0.000566 19158.100000 0 0 1
-26.615828 -26.422223 -7.351621 38.217568 0.781748 1.764365 0.047389 -0.020732 518437.000000 0 0 1
-27.475698 -27.580163 -7.275421 39.604433 0.787296 1.755548 0.047896 -0.028411 546706.000000 0 0 1
-27.223988 -28.376553 -5.961721 39.773313 0.806125 1.721256 0.060494 -0.035556 95147.200000 0 0 1
-27.778728 -27.741813 -4.811921 39.552756 0.784733 1.692757 0.054985 -0.030477 36309.600000 0 0 1
-27.171568 -28.079193 -3.579621 39.237085 0.801824 1.662154 0.060797 -0.039790 -193677.000000 0 0 1
-27.329218 -29.500133 -3.017921 40.326813 0.823580 1.645703 0.068824 -0.030452 -320015.000000 0 0 1
-26.667718 -30.498763 -3.787421 40.690125 0.852314 1.664011 0.083273 -0.036864 139781.000000 0 0 1
-26.773908 -31.763383 -3.094221 41.657279 0.870428 1.645143 0.068892 -0.040773 -103533.000000 0 0 1
-26.113548 -31.963933 -1.670321 41.308599 0.885794 1.611243 0.073893 -0.040436 -290825.000000 0 0 1
-24.726298 -31.820093 -1.809821 40.338364 0.910197 1.615677 0.082472 -0.048381 -382290.000000 0 0 1
-24.054798 -31.830183 -0.538821 39.900930 0.923643 1.584301 0.127533 -0.038276 247707.000000 0 0 1
-22.756698 -31.005513 -0.570621 38.464721 0.937642 1.585632 0.116983 -0.036422 -171766.000000 0 0 1
-22.921598 -29.602813 -0.421521 37.442007 0.911921 1.582055 0.086354 -0.032580 -19941.100000 0 0 1
-23.484298 -28.882783 -1.537921 37.257115 0.888125 1.612087 0.098373 -0.042424 -180720.000000 0 0 1
-23.958798 -27.456603 -1.209021 36.460263 0.853324 1.603962 0.059009 -0.032438 74407.000000 0 0 1
-25.146208 -27.598283 -0.457321 37.339070 0.831854 1.583044 0.077380 -0.036539 -312186.000000 0 0 1
-25.754698 -26.434953 0.057079 36.906835 0.798432 1.569250 0.075027 -0.036064 205369.000000 0 0 1
-25.072198 -25.721653 1.278779 35.942368 0.798184 1.535210 0.078613 -0.025275 11776.400000 0 0 1
-25.247938 -26.442873 2.477879 36.644560 0.808511 1.503125 0.067126 -0.017701 -111984.000000 0 0 1
-24.674998 -25.768473 3.580379 35.856504 0.807072 1.470777 0.078134 -0.018980 377884.000000 0 0 1
-25.549908 -24.567123 4.093879 35.680543 0.765791 1.455806 0.086308 -0.021452 301000.000000 0 0 1
-25.743538 -23.508923 3.227979 35.011699 0.740059 1.478468 0.068435 -0.024038 -266837.000000 0 0 1
-26.721468 -22.625423 3.699379 35.208408 0.702583 1.465531 0.061237 -0.017507 -227170.000000 0 0 1
-26.831498 -21.411123 2.765779 34.438569 0.673511 1.490399 0.056263 -0.012437 288735.000000 0 0 1
-25.729568 -20.511723 2.807279 33.024571 0.673034 1.485688 0.060172 -0.005039 70347.000000 0 0 1
-25.746948 -19.611823 1.760979 32.413423 0.650956 1.516441 0.050596 -0.004399 -196587.000000 0 0 1
-24.502798 -18.725423 1.803879 30.891464 0.652537 1.512369 0.062763 -0.006794 794088.000000 0 0 1
-23.289498 -19.455823 1.454579 30.381665 0.695951 1.522901 0.057539 -0.011567 1128910.000000 0 0 1
-22.158898 -18.609223 1.652979 28.983655 0.698547 1.513734 0.065072 -0.008794 882038.000000 0 0 1
-20.761998 -19.313123 1.587379 28.400300 0.749260 1.514874 0.059285 -0.023670 373954.000000 0 0 1
-20.431698 -19.748323 0.298579 28.417243 0.768392 1.560289 0.036410 -0.011320 -69035.100000 0 0 1
-19.220098 -20.462323 0.303579 28.075096 0.816692 1.559983 0.073183 -0.014850 -191228.000000 0 0 1
-18.762698 -20.808823 -1.136921 28.041729 0.837059 1.611351 0.076451 -0.020217 -109750.000000 0 0 1
-18.250898 -19.698723 -1.843921 26.917188 0.823531 1.639353 0.080873 -0.027830 -20593.100000 0 0 1
-18.046398 -19.993023 -3.155921 27.117398 0.836527 1.687441 0.075947 -0.022649 -313639.000000 0 0 1
-17.221398 -19.064123 -4.002621 26.000737 0.836139 1.725354 0.090329 -0.019787 -894735.000000 0 0 1
-15.850198 -19.041423 -3.760321 25.058822 0.876605 1.721425 0.124088 -0.034517 -756367.000000 0 0 1
-15.343598 -18.196923 -4.743821 24.270514 0.870265 1.767519 0.129505 -0.029551 -1308380.000000 0 1 0
-13.849198 -18.037123 -4.757521 23.232996 0.915990 1.777029 0.145062 -0.036044 -1121950.000000 0 1 0
-13.122298 -19.179323 -5.177821 23.808632 0.970760 1.790025 0.112768 -0.032469 732920.000000 0 1 0
-11.818898 -18.846623 -5.701821 22.965024 1.010681 1.821703 0.102796 -0.040220 717846.000000 0 1 0
-10.860798 -20.029223 -5.618021 23.466761 1.073925 1.812548 0.102939 -0.044591 -28804.300000 0 1 0
-11.150498 -21.086823 -6.563021 24.739866 1.084383 1.839292 0.090769 -0.033701 -311135.000000 0 1 0
-10.026098 -21.909723 -6.734221 25.018160 1.141632 1.843331 0.094572 -0.026809 93583.800000 0 0 1
-10.244498 -23.149723 -7.647521 26.445113 1.154170 1.864171 0.091317 -0.013913 -271918.000000 0 0 1
-10.663198 -22.794823 -8.977221 26.718874 1.133247 1.913450 0.083692 -0.018007 -13386.700000 0 0 1
-10.737898 -23.952323 -9.798021 28.018163 1.149355 1.928050 0.088213 -0.012769 -155511.000000 0 0 1
-11.445798 -23.686323 -11.141921 28.569050 1.120659 1.971428 0.104518 -0.018932 -160149.000000 0 0 1
-10.856698 -22.771023 -12.033421 27.949787 1.125899 2.015884 0.089904 -0.016689 -744266.000000 0 0 1
-11.729098 -22.415323 -13.045921 28.464267 1.088712 2.046907 0.097779 -0.027557 -973769.000000 0 0 1
-11.269598 -21.330323 -14.059421 27.922282 1.084737 2.098464 0.093081 -0.012079 -331462.000000 0 0 1
-11.312898 -20.037723 -13.431821 26.644058 1.056828 2.099160 0.090608 -0.011064 -123420.000000 0 0 1
-11.001498 -19.013223 -14.308121 26.215605 1.046243 2.148124 0.084494 0.002153 51086.400000 0 0 1
-10.445798 -17.768623 -13.552421 24.667930 1.039337 2.152436 0.096568 0.002917 -567563.000000 0 1 0
-11.386098 -17.196223 -12.668021 24.203968 0.985943 2.121616 0.099642 -0.006803 -382378.000000 0 1 0
-10.849998 -16.327823 -11.709921 22.835116 0.984288 2.109243 0.081593 -0.008426 -137960.000000 0 1 0
-10.552098 -14.900423 -12.156321 21.935029 0.954605 2.158194 0.083210 -0.006243 -104012.000000 0 1 0
-11.646498 -14.158423 -12.638721 22.267445 0.882435 2.174369 0.074431 0.002653 -354018.000000 0 1 0
-11.767798 -14.149623 -14.044621 23.150470 0.877041 2.222657 0.090028 -0.009793 -1219680.000000 0 1 0
-13.024898 -13.511623 -14.549921 23.746834 0.803738 2.230281 0.085232 -0.013916 -857388.000000 0 1 0
-13.103598 -12.134923 -14.232021 22.836617 0.747036 2.243638 0.071623 0.000821 1666.390000 0 1 0
-14.161298 -11.458723 -14.902521 23.535714 0.680300 2.256461 0.077099 -0.012245 162296.000000 0 1 0
-14.214698 -10.001123 -14.439121 22.595759 0.613122 2.264019 0.061784 -0.018532 -916228.000000 0 1 0
-13.085898 -9.268823 -14.653021 21.722404 0.616279 2.311162 0.048495 -0.004775 -798790.000000 0 1 0
-13.386498 -8.210423 -15.552021 22.101465 0.550168 2.351338 0.058377 -0.022805 602862.000000 0 1 0
-12.210998 -7.169223 -15.621221 21.083851 0.530889 2.405220 0.048047 -0.013925 863579.000000 0 1 0
-11.006698 -7.684823 -16.170121 21.016106 0.609514 2.448722 0.051828 -0.001876 186123.000000 0 1 0
-9.884898 -6.964623 -15.714121 19.828030 0.613788 2.485727 0.033308 0.005305 189477.000000 0 1 0
11.434502 22.078977 15.882779 29.504097 1.092939 1.002349 0.092126 -0.015490 -92188.000000 0 0 1
12.219202 21.777577 17.046679 30.235096 1.059478 0.971811 0.108679 -0.026027 -113712.000000 0 0 1
12.760502 20.563477 17.024579 29.589243 1.015409 0.957747 0.092582 -0.017464 -426265.000000 0 0 1
13.887902 20.346777 18.066679 30.549469 0.971871 0.938014 0.091838 -0.025540 -229169.000000 0 0 1
15.071502 21.006777 17.738779 31.354412 0.948449 0.969453 0.069494 -0.021556 -559135.000000 0 0 1
16.032202 20.902077 18.777079 32.349761 0.916494 0.951528 0.082292 -0.028794 -136828.000000 0 0 1
17.421302 21.360477 18.343079 33.109520 0.886624 0.983620 0.073278 -0.014217 -1189080.000000 0 0 1
17.644902 22.738977 18.115079 34.008230 0.910877 1.009047 0.088174 -0.014189 464361.000000 0 0 1
18.930802 23.145677 17.638579 34.716237 0.885237 1.037844 0.078987 -0.010795 1858630.000000 0 0 1
20.249502 22.776077 18.456879 35.629319 0.844053 1.026256 0.066742 -0.015826 593314.000000 0 0 1
20.653002 21.448477 18.197879 34.896224 0.804290 1.022205 0.067099 -0.006670 -365399.000000 0 0 1
21.887302 21.096477 18.747479 35.715309 0.767002 1.018182 0.076292 -0.010047 -222052.000000 0 0 1
22.151302 19.631377 18.547979 34.929911 0.725161 1.011009 0.061220 -0.011391 -107191.000000 0 0 1
22.163202 19.115577 17.214179 33.954981 0.711702 1.039130 0.032797 -0.002142 2081.770000 0 0 1
21.903202 17.746177 17.104279 32.973223 0.680935 1.025429 0.032120 0.002090 255975.000000 0 0 1
23.080002 16.816477 17.550179 33.518490 0.629675 1.019729 0.017715 -0.000257 810362.000000 0 0 1
24.243002 16.825177 16.720579 33.917363 0.606703 1.055285 0.032125 -0.010873 299353.000000 0 0 1
25.076602 15.709277 16.973879 34.113486 0.559642 1.050000 0.025537 -0.009471 -612905.000000 0 0 1
26.255502 15.759377 15.972679 34.537455 0.540590 1.090013 0.128293 -0.037365 -1019160.000000 0 0 1
27.161802 16.826877 16.145179 35.799079 0.554638 1.102917 0.114831 -0.036852 788796.000000 0 0 1
28.237302 16.566477 17.085879 36.928588 0.530574 1.089788 0.121816 -0.047804 367296.000000 0 0 1
29.209902 15.388877 16.805079 37.046546 0.484887 1.099972 0.127594 -0.056011 -1042410.000000 0 0 1
30.225702 15.854077 15.924679 37.663513 0.483073 1.134247 0.184036 -0.046483 -149816.000000 0 0 1
30.435602 14.902977 14.832779 36.992376 0.455338 1.158222 0.200312 -0.056544 91234.000000 0 0 1
29.435502 14.855177 13.647379 35.684394 0.467376 1.178353 0.164018 -0.035307 2780.950000 0 0 1
29.788102 15.860377 12.697679 36.057088 0.489262 1.210924 0.169481 -0.023297 -126250.000000 0 0 1
29.049502 15.837877 11.504079 35.029355 0.499153 1.236174 0.141278 -0.021337 365664.000000 0 0 1
27.679802 16.588877 11.454779 34.242871 0.539915 1.229705 0.126431 -0.021328 190282.000000 0 0 1
27.686002 18.061577 11.361879 34.954650 0.578041 1.239736 0.107496 -0.008386 140675.000000 0 0 1
28.292102 18.808477 12.424479 36.174155 0.586706 1.220195 0.110182 -0.013129 265450.000000 0 0 1
27.453702 18.782177 13.776479 36.003712 0.600002 1.178144 0.098755 -0.017003 461918.000000 0 0 1
26.413102 19.751377 13.746879 35.731576 0.642083 1.175885 0.096438 -0.008744 -146483.000000 0 0 1
25.652602 19.732977 14.912079 35.634484 0.655701 1.139033 0.078934 -0.011030 -337319.000000 0 0 1
26.296102 20.348377 16.207379 36.989465 0.658571 1.117243 0.081649 -0.015181 -78308.300000 0 0 1
26.566402 21.714177 16.085379 37.894836 0.685234 1.132415 0.059127 -0.003668 880495.000000 0 0 1
25.446502 22.554477 16.454179 37.775242 0.725222 1.120113 0.072435 -0.008439 781971.000000 0 0 1
25.733602 23.977077 15.889979 38.595465 0.750078 1.146471 0.072808 -0.004341 43814.400000 0 0 1
25.671202 24.205077 14.493279 38.143826 0.756011 1.181039 0.114157 -0.015739 101266.000000 0 0 1
25.695002 25.554377 14.196579 38.920459 0.782654 1.197423 0.117239 -0.027380 -234999.000000 0 0 1
25.242402 25.828077 12.735279 38.294330 0.796866 1.231776 0.097253 -0.031328 571456.000000 0 0 1
23.901802 25.415577 12.443479 37.041704 0.816083 1.228202 0.097633 -0.015430 689488.000000 0 0 1
23.549902 25.665277 11.127279 36.566661 0.828354 1.261592 0.082967 -0.029113 -516890.000000 0 0 1
22.743602 24.513877 10.575779 35.072050 0.822841 1.264484 0.076637 -0.028886 -225886.000000 0 0 1
21.429602 24.388777 11.137079 34.323094 0.849893 1.240337 0.079797 -0.024758 630056.000000 0 0 1
20.770302 23.138777 11.105579 33.017303 0.839286 1.227751 0.088352 -0.022440 -13891.400000 0 0 1
20.564402 22.500677 9.711279 31.991937 0.830330 1.262376 0.092565 -0.018186 -1271100.000000 0 0 1
19.566702 23.057777 8.919479 31.528939 0.867119 1.283982 0.086357 -0.010865 -237028.000000 0 0 1
20.025202 23.650577 7.695679 31.930894 0.868215 1.327389 0.079154 -0.012720 290004.000000 0 0 1
18.854402 24.094377 6.757879 31.332035 0.906803 1.353402 0.071060 -0.002487 110358.000000 0 0 1
18.151002 23.010377 6.138879 29.943650 0.902911 1.364318 0.069256 0.003552 809533.000000 0 0 1
17.223102 23.238077 5.079279 29.367372 0.932978 1.396966 0.101830 -0.008186 318185.000000 0 0 1
15.939602 24.044977 5.320379 29.334932 0.985401 1.388420 0.064016 -0.001683 -303771.000000 0 0 1
16.158002 25.439277 5.224779 30.586536 1.004925 1.399135 0.075157 -0.006831 1251170.000000 0 0 1
14.917302 26.061877 5.630779 30.552463 1.050933 1.385438 0.066923 -0.009894 856075.000000 0 0 1
14.590802 27.472077 5.019779 31.508804 1.082569 1.410801 0.070370 -0.014675 -596497.000000 0 0 1
14.090402 27.381077 3.727279 31.018630 1.095534 1.450343 0.069141 -0.010216 300471.000000 0 0 1
13.618402 28.615277 3.219579 31.853738 1.126603 1.469550 0.059136 -0.015326 -276368.000000 0 0 1
12.981202 28.581877 1.806879 31.443602 1.144475 1.513301 0.071725 -0.018682 81146.600000 0 0 1
13.922102 28.317377 0.772979 31.564161 1.113855 1.546305 0.106709 -0.022766 266782.000000 0 0 1
14.190802 26.947377 0.467379 30.459127 1.086087 1.555451 0.072559 -0.015913 604727.000000 0 0 1
15.389202 26.779677 -0.549521 30.891433 1.049218 1.588586 0.084956 -0.021746 770327.000000 0 0 1
15.029202 26.903677 -1.934221 30.877596 1.061352 1.633479 0.081794 -0.018129 430084.000000 0 0 1
16.211002 26.959277 -2.735321 31.576592 1.029411 1.657530 0.084599 -0.008470 790195.000000 0 0 1
15.798402 27.495577 -4.145921 31.981009 1.049278 1.700799 0.097769 -0.016595 -195965.000000 0 0 1
14.847602 26.694077 -4.784221 30.917856 1.063195 1.726160 0.100138 -0.018299 -557205.000000 0 0 1
14.624802 27.187077 -6.085821 31.465206 1.077265 1.765437 0.080431 -0.014911 92390.800000 0 0 1
13.393202 26.602277 -6.787521 30.547168 1.104384 1.794865 0.079609 -0.025952 132134.000000 0 0 1
13.539202 25.214577 -7.135021 29.495651 1.078020 1.815121 0.090805 -0.026094 -387128.000000 0 0 1
12.313002 24.732577 -7.618021 28.659111 1.108874 1.839846 0.071129 -0.021612 -49198.400000 0 0 1
12.330302 23.311977 -8.107821 27.590241 1.084277 1.869065 0.077852 -0.028500 -356452.000000 0 0 1
12.788302 23.148077 -9.416421 28.072106 1.066069 1.912865 0.080449 -0.027120 55093.700000 0 0 1
12.648402 21.848777 -9.927321 27.127529 1.046031 1.945450 0.084312 -0.027152 -279056.000000 0 0 1
12.423102 21.708977 -11.371021 27.475685 1.051026 1.997484 0.079249 -0.028410 11910.700000 0 0 1
12.126702 20.384277 -11.740921 26.465541 1.034132 2.030442 0.094643 -0.033503 -54643.900000 0 0 1
12.268602 20.174277 -13.144321 27.023938 1.024420 2.078756 0.095083 -0.037613 -297262.000000 0 0 1
13.589602 19.504177 -13.526721 27.350729 0.962253 2.088131 0.098162 -0.036416 -550585.000000 0 0 1
14.715502 20.295777 -13.301421 28.379436 0.943454 2.058614 0.086688 -0.026605 -814973.000000 0 0 1
15.867402 19.621577 -13.768721 28.746450 0.890790 2.070279 0.085498 -0.022448 207940.000000 0 0 1
17.139202 20.460177 -13.450021 29.887692 0.873495 2.037583 0.091295 -0.014526 -1537.500000 0 0 1
17.325802 21.602577 -14.296321 31.164716 0.894822 2.047366 0.081080 -0.012118 256113.000000 0 0 1
16.387102 22.673177 -14.117721 31.335605 0.944963 2.038158 0.068178 -0.014259 319539.000000 0 0 1
17.026702 23.970077 -14.663521 32.855624 0.953170 2.033425 0.061591 -0.009792 120786.000000 0 0 1
17.264902 24.036877 -16.058521 33.670824 0.947915 2.067951 0.057495 -0.007979 145945.000000 0 0 1
16.075002 24.158377 -16.832521 33.546485 0.983671 2.096437 0.063573 -0.007280 311421.000000 0 0 1
16.322002 24.221877 -18.346821 34.492215 0.977835 2.131653 0.047384 0.002182 68118.900000 0 0 1
16.703802 22.980377 -18.967921 34.159871 0.942262 2.159483 0.056374 0.001128 183890.000000 0 0 1
16.769202 23.089377 -20.360421 35.055274 0.942654 2.190519 0.054942 0.003988 -176199.000000 0 0 1
16.928202 21.701577 -21.042221 34.645310 0.908342 2.223531 0.067159 0.003716 132546.000000 0 0 1
15.806902 20.847677 -20.933021 33.506345 0.922062 2.245605 0.077677 0.002045 36492.600000 0 0 1
16.037802 19.746177 -21.724121 33.452355 0.888662 2.277598 0.080190 -0.001160 647124.000000 0 0 1
14.892002 18.644077 -21.878721 32.373628 0.896817 2.312872 0.073213 -0.002735 -37761.300000 0 0 1
14.536902 17.994377 -20.694321 31.038267 0.891282 2.300617 0.077992 -0.009542 671616.000000 0 0 1
13.575302 16.933177 -20.900721 30.130739 0.895021 2.337365 0.063535 -0.009854 63456.400000 0 0 1
12.122202 17.311377 -21.144521 29.895189 0.959906 2.356451 0.052854 -0.005904 -944490.000000 0 0 1
11.337002 17.240377 -19.962721 28.710076 0.989108 2.339663 0.050064 -0.007519 541530.000000 0 0 1
9.994802 17.710277 -20.104521 28.596184 1.057002 2.350472 0.034993 -0.003822 558756.000000 0 0 1
9.124402 17.447377 -18.875721 27.275603 1.088944 2.335103 0.034636 -0.010034 -338722.000000 0 0 1
9.161302 16.002477 -18.686821 26.252733 1.050848 2.362861 0.038180 -0.025945 432308.000000 0 0 1
7.865902 15.468677 -18.431521 25.315477 1.100368 2.386303 0.041666 -0.017804 761771.000000 0 0 1
7.205102 15.555277 -17.019821 24.156872 1.137025 2.352591 0.047215 -0.028738 262647.000000 0 1 0
6.973202 16.888977 -16.526221 24.636945 1.179232 2.306070 0.063117 -0.029301 -300994.000000 0 1 0
6.364702 16.989377 -15.277921 23.718416 1.212352 2.270691 0.052608 -0.036848 -460285.000000 0 1 0
6.103802 18.423177 -14.895621 24.465269 1.250867 2.225403 0.054421 -0.038473 14446.900000 0 1 0
7.241602 19.269377 -14.631321 25.255202 1.211317 2.188714 0.052614 -0.036460 338835.000000 0 0 1
7.708702 19.977377 -15.765821 26.590991 1.202529 2.205453 0.074581 -0.032063 -592895.000000 0 0 1
8.996602 20.734677 -15.472921 27.391184 1.161419 2.171093 0.074783 -0.020186 -524619.000000 0 0 1
8.980202 21.955077 -14.706821 27.909855 1.182533 2.125793 0.084998 -0.022991 -53425.900000 0 0 1
8.770102 21.758877 -13.323021 26.978998 1.187656 2.087284 0.067137 -0.034602 -260821.000000 0 0 1
8.479602 23.094277 -12.567121 27.625745 1.218905 2.043063 0.083361 -0.030704 706383.000000 0 0 1
7.138702 23.562877 -12.871121 27.781937 1.276623 2.052502 0.079903 -0.031806 982371.000000 0 0 1
6.618602 24.410377 -11.867621 27.937660 1.306023 2.009526 0.068947 -0.027851 274982.000000 0 0 1
6.023902 23.697177 -10.605321 26.651762 1.321865 1.980047 0.058909 -0.035654 -1043690.000000 0 0 1
7.040502 23.397377 -9.733621 26.301127 1.278505 1.949896 0.053645 -0.028962 -648253.000000 0 0 1
6.627902 23.045577 -8.418521 25.414547 1.290754 1.908422 0.051832 -0.042535 -172564.000000 0 0 1
7.733302 23.174977 -7.343221 25.510908 1.248723 1.862774 0.047737 -0.035143 -79784.400000 0 0 1
7.823302 24.469177 -6.785721 26.570485 1.261347 1.829043 0.044005 -0.033326 200978.000000 0 0 1
8.552102 24.584477 -5.562921 26.617307 1.236024 1.781345 0.040138 -0.028400 77094.300000 0 0 1
8.683602 26.016777 -5.065221 27.891470 1.248653 1.753414 0.029205 -0.018443 131988.000000 0 0 1
9.499802 26.724977 -5.979821 28.986702 1.229261 1.778584 0.039309 -0.022480 68297.800000 0 0 1
9.534202 28.093077 -5.622021 30.194852 1.243615 1.758081 0.037648 -0.021950 76753.000000 0 0 1
9.766902 29.092177 -6.741621 31.419685 1.246897 1.787045 0.039977 -0.011821 677577.000000 0 0 1
11.150302 29.238477 -7.089921 32.085585 1.206464 1.793604 0.050404 -0.011654 512674.000000 0 0 1
11.332802 30.113177 -8.187621 33.200497 1.210851 1.819978 0.047437 -0.014777 -3399.530000 0 0 1
12.743702 29.989877 -8.794421 33.751096 1.168982 1.834406 0.056557 -0.021598 205332.000000 0 0 1
13.807202 30.219277 -7.916621 34.154303 1.142219 1.804714 0.049032 -0.009584 -303041.000000 0 0 1
15.051302 30.422477 -8.578221 35.009351 1.111363 1.818343 0.048174 -0.010562 103099.000000 0 0 1
16.183602 30.660277 -7.609121 35.494511 1.085129 1.786848 0.053422 -0.013621 -276482.000000 0 0 1
16.761902 29.503177 -6.964321 34.639581 1.054134 1.773227 0.056886 -0.016632 -353379.000000 0 0 1
17.909402 29.921177 -6.286021 35.433566 1.031442 1.749143 0.067585 -0.010579 99695.600000 0 0 1
19.059102 28.920077 -5.996721 35.150831 0.988102 1.742235 0.065399 -0.012428 -52666.500000 0 0 1
18.778402 27.980177 -4.970721 34.062101 0.979708 1.717250 0.080055 -0.020009 762285.000000 0 0 1
19.905802 27.090677 -4.686721 33.942762 0.937105 1.709316 0.075929 -0.019431 841555.000000 0 0 1
20.072302 25.974077 -5.696821 33.316719 0.912873 1.742631 0.068718 -0.005904 -254194.000000 0 0 1
20.458502 26.400877 -6.972621 34.119995 0.911538 1.776602 0.057921 -0.007239 116619.000000 0 0 1
20.339802 25.316377 -7.836421 33.407125 0.893971 1.807576 0.052649 -0.019164 -679008.000000 0 0 1
20.860402 25.610277 -9.287421 34.311789 0.887257 1.844893 0.053960 -0.020867 -515090.000000 0 0 1
22.243102 25.738577 -9.357921 35.281732 0.858120 1.839243 0.050796 -0.019596 -396760.000000 0 0 1
22.991302 24.518677 -9.452521 34.915837 0.817536 1.844940 0.047336 -0.017282 -143029.000000 0 0 1
24.508602 24.801177 -9.475021 36.132340 0.791332 1.836130 0.023189 -0.015221 65985.700000 0 0 1
25.096102 25.040177 -10.753421 37.046739 0.784283 1.865301 0.024353 -0.013427 -1319630.000000 0 0 1
26.425002 25.309377 -10.613521 38.098453 0.763837 1.853113 0.025808 -0.005476 -1352420.000000 0 0 1
27.192302 25.396277 -11.921321 39.070578 0.751259 1.880864 0.036883 -0.012150 -137462.000000 0 0 1
27.050802 26.620377 -12.547521 39.972874 0.777379 1.890095 0.044083 -0.016729 -194825.000000 0 0 1
27.857602 26.719077 -13.709021 40.962084 0.764540 1.912058 0.041004 -0.017591 84540.600000 0 0 1
27.633902 27.906677 -14.623021 41.907611 0.790309 1.927230 0.046536 -0.025344 -169929.000000 0 0 1
28.207502 29.120477 -14.212121 42.961026 0.801322 1.907963 0.059731 -0.029660 74852.300000 0 0 1
28.043102 30.032977 -15.292321 43.843476 0.819648 1.927080 0.048503 -0.019310 -257590.000000 0 0 1
28.583902 31.415877 -14.952221 45.028499 0.832563 1.909284 0.043409 -0.020379 502573.000000 0 0 1
29.996702 31.437777 -14.740221 45.884748 0.808851 1.897840 0.058429 -0.029026 579287.000000 0 0 1
30.447402 32.793077 -14.624121 47.077543 0.822473 1.886662 0.058004 -0.026185 8050.820000 0 0 1
16.384202 -32.668994 -28.157905 46.136459 -1.105932 2.227258 0.101043 -0.041526 270970.000000 0 0 1
17.615502 -33.142794 -27.606805 46.592772 -1.082265 2.204971 0.081256 -0.030513 699218.000000 0 0 1
17.830902 -32.744394 -26.293195 45.623114 -1.072148 2.185006 0.080378 -0.035758 -263695.000000 0 0 1
19.171802 -33.217194 -25.702875 46.169013 -1.047337 2.161220 0.012292 -0.017484 634383.000000 0 0 1
20.415602 -32.590594 -26.025035 46.435397 -1.011172 2.165734 0.025614 -0.020058 1030810.000000 0 0 1
21.008902 -33.091794 -27.211635 47.717019 -1.005133 2.177632 0.038755 -0.016420 -463420.000000 0 0 1
22.452602 -32.574494 -27.427685 48.140367 -0.967308 2.176991 0.057716 -0.011410 60595.700000 0 0 1
22.507602 -31.176494 -27.725445 47.405340 -0.945496 2.195503 0.056286 -0.022612 1133210.000000 0 0 1
23.823602 -30.716794 -27.341025 47.524910 -0.911119 2.183766 0.023655 -0.001902 672309.000000 0 0 1
24.203202 -29.490694 -28.183075 47.431864 -0.883556 2.207042 0.007187 0.004866 -172611.000000 0 0 1
24.429502 -29.827694 -29.561005 48.583381 -0.884564 2.224914 0.001548 -0.003223 293552.000000 0 0 1
25.151202 -28.811294 -30.276655 48.778576 -0.853121 2.240426 0.011226 -0.017105 236032.000000 0 0 1
25.345002 -29.232494 -31.729075 50.036407 -0.856507 2.257666 0.027947 -0.010014 431338.000000 0 0 1
26.526602 -29.999694 -31.979915 51.247997 -0.846763 2.244677 0.036200 -0.020660 316613.000000 0 0 1
26.626802 -30.413794 -33.274615 52.356332 -0.851692 2.259506 0.035538 -0.018846 -261360.000000 0 0 1
27.913702 -31.208694 -33.575715 53.670159 -0.841072 2.246689 0.019926 -0.020138 591355.000000 0 0 1
29.027802 -30.305594 -33.742725 53.848062 -0.806931 2.248016 0.037033 -0.026955 -348525.000000 0 0 1
30.211402 -31.041594 -33.849595 54.973671 -0.798951 2.234124 0.035743 -0.019926 -170932.000000 0 0 1
31.413102 -30.062794 -33.953275 55.166833 -0.763437 2.233773 0.061414 -0.030788 -123777.000000 0 0 1
31.476902 -29.208094 33.026835 54.172686 -0.748029 0.915167 0.070157 -0.029220 -138768.000000 0 0 1
32.630502 -28.404594 32.935123 54.371803 -0.716271 0.920102 0.083651 -0.034749 -57167.300000 0 0 1
32.726402 -27.657094 31.563159 53.218091 -0.701643 0.935904 0.072312 -0.031090 37400.500000 0 0 1
33.965702 -26.957094 31.459119 53.572661 -0.670861 0.943172 0.064001 -0.033925 625403.000000 0 0 1
34.003702 -26.145694 30.294349 52.512824 -0.655492 0.955875 0.086061 -0.028680 -50113.500000 0 0 1
34.582102 -26.830594 28.969429 52.488383 -0.659842 0.986130 0.089576 -0.021048 -55383.900000 0 0 1
33.810202 -27.884394 28.418829 52.233122 -0.689641 0.995508 0.076662 -0.027237 101861.000000 0 0 1
32.690302 -27.472394 27.696729 50.896926 -0.698885 0.995393 0.075970 -0.026198 -422154.000000 0 0 1
32.143802 -28.448994 26.674319 50.537991 -0.724496 1.014779 0.056242 -0.016410 37079.700000 0 0 1
30.877502 -28.074794 26.165049 49.256715 -0.737892 1.010783 0.029593 -0.008127 388634.000000 0 0 1
30.256902 -29.162894 25.470929 49.139828 -0.766989 1.025893 0.020053 -0.002775 210961.000000 0 0 1
28.907802 -28.753794 24.847749 47.747799 -0.782727 1.023482 0.006909 0.003948 -33592.500000 0 0 1
27.816702 -28.612494 25.714119 47.472725 -0.799500 0.998385 0.006271 0.003348 -135020.000000 0 0 1
26.611502 -28.293494 25.035149 46.210957 -0.816023 0.998269 0.009926 0.012920 161844.000000 0 0 1
25.451802 -28.183094 26.030849 46.040049 -0.836278 0.969883 0.021545 0.010043 -310568.000000 0 0 1
25.291702 -26.838994 26.491039 45.406794 -0.815070 0.947868 0.015505 0.004238 -251905.000000 0 0 1
24.241702 -26.765494 27.401549 45.330968 -0.834837 0.921687 0.036984 -0.008091 -385806.000000 0 0 1
24.017802 -25.360894 28.025089 44.782088 -0.812591 0.894626 0.040058 0.010883 -858574.000000 0 0 1
22.856802 -25.291794 28.794809 44.623416 -0.835928 0.869400 0.068492 0.008110 -238812.000000 0 0 1
22.824802 -24.337994 29.814929 44.746391 -0.817472 0.841548 0.068906 0.010912 -557565.000000 0 0 1
22.362302 -22.964194 29.369089 43.473787 -0.798676 0.829074 0.067899 0.000526 -524980.000000 0 0 1
23.160402 -22.309994 28.394459 42.899713 -0.766698 0.847472 0.075167 -0.001412 258780.000000 0 0 1
22.740802 -20.960994 28.101539 41.787604 -0.744694 0.833235 0.091357 0.006141 185709.000000 0 0 1
23.457402 -19.892794 29.005859 42.276623 -0.703355 0.814686 0.087530 0.004346 79925.000000 0 0 1
23.131402 -19.848194 30.399309 43.048003 -0.709156 0.786719 0.101380 0.001395 68301.900000 0 0 1
24.065102 -19.067894 31.097109 43.700617 -0.670057 0.779032 0.102927 -0.011873 -222445.000000 0 0 1
23.549702 -18.870394 32.542368 44.381144 -0.675534 0.747710 0.133464 -0.019813 -21447.800000 0 0 1
23.813602 -19.935894 33.415097 45.619033 -0.696995 0.748836 0.104828 -0.012916 130254.000000 0 0 1
23.012302 -19.862494 -33.565645 45.285067 -0.712065 2.405664 0.107483 -0.017746 -84540.800000 0 0 1
23.114502 -21.070694 -32.636925 45.204239 -0.739176 2.377468 0.083052 -0.011467 -62640.700000 0 0 1
24.311602 -21.232594 -31.917665 45.393991 -0.717896 2.350580 0.066842 -0.006205 -81879.400000 0 0 1
24.098902 -22.283594 -31.015455 45.158323 -0.746280 2.327896 0.053952 -0.004195 1031990.000000 0 0 1
25.288602 -22.540794 -29.972175 45.231981 -0.728011 2.295124 0.046233 -0.007856 935878.000000 0 0 1
26.478902 -23.021994 -30.548865 46.522872 -0.715676 2.287154 0.036072 -0.010299 -178105.000000 0 0 1
27.236902 -23.760694 -29.608825 46.723677 -0.717339 2.257124 0.036107 -0.018185 -535809.000000 0 0 1
28.392702 -24.604694 -30.141345 48.166764 -0.714044 2.246915 0.030625 -0.019770 -501741.000000 0 0 1
29.418802 -23.851294 -30.739495 48.777728 -0.681262 2.252601 0.032825 -0.019514 -85923.000000 0 0 1
29.202502 -23.698194 -32.152595 49.479086 -0.681721 2.278146 0.032630 -0.016613 -385031.000000 0 0 1
29.508402 -24.956794 -32.945665 50.783897 -0.702023 2.276727 0.035906 -0.027143 -483096.000000 0 0 1
28.528502 -25.974994 -32.944065 50.733492 -0.738582 2.277533 0.056484 -0.026397 -181709.000000 0 0 1
28.963102 -27.210094 -33.461465 51.951132 -0.754201 2.270636 0.050864 -0.026865 -76132.600000 0 0 1
28.482402 -27.466194 33.218762 51.663577 -0.767237 0.872411 0.047698 -0.013235 -365577.000000 0 0 1
29.152402 -26.602294 32.414217 51.070794 -0.739692 0.883187 0.031901 -0.019682 -106764.000000 0 0 1
28.664102 -26.689194 31.094599 50.008178 -0.749735 0.899770 0.029446 -0.008123 -502437.000000 0 0 1
29.624402 -25.938494 30.169759 49.604687 -0.719158 0.917001 0.035068 -0.020061 -252696.000000 0 0 1
29.692702 -24.571594 30.040859 48.865867 -0.691303 0.908713 0.030859 -0.018146 61480.000000 0 0 1
30.028902 -23.932794 31.281669 49.528339 -0.672904 0.887192 0.029621 -0.018082 -1429950.000000 0 0 1
30.484002 -22.442994 31.137059 49.015087 -0.634625 0.882458 0.024950 -0.009789 905857.000000 0 0 1
31.814802 -22.325094 30.637709 49.490006 -0.611880 0.903240 0.042218 -0.012886 504661.000000 0 0 1
32.890002 -22.802394 31.403389 50.871153 -0.606210 0.905475 0.046793 -0.022606 -1571850.000000 0 0 1
34.252502 -22.322894 30.955709 51.281589 -0.577580 0.922735 0.061603 -0.032172 -802269.000000 0 0 1
34.622902 -22.764794 29.710609 50.987268 -0.581634 0.948741 0.072401 -0.029147 416823.000000 0 0 1
35.902602 -22.162694 29.476889 51.469105 -0.553043 0.960988 0.076185 -0.030032 615410.000000 0 0 1
36.502602 -22.316994 28.045009 51.156727 -0.548746 0.990565 0.085159 -0.029196 -159820.000000 0 0 1
-36.549001 -23.597094 27.782959 51.619232 0.573296 1.002462 0.087669 -0.026674 249735.000000 0 0 1
-36.092601 -23.664094 26.432059 50.609475 0.580336 1.021280 0.085192 -0.017864 24511.500000 0 0 1
-35.938501 -25.175794 26.024559 51.016411 0.611078 1.035470 0.074001 -0.029730 518624.000000 0 0 1
36.352702 -25.847594 25.881519 51.570050 -0.618085 1.045036 0.085588 -0.029720 609147.000000 0 0 1
36.414002 -27.198594 25.505629 52.117945 -0.641531 1.059414 0.089776 -0.018031 87917.800000 0 0 1
-36.411201 -28.172094 26.470289 53.104790 0.658510 1.048982 0.083383 -0.023785 -511934.000000 0 0 1
-36.335401 -29.457494 25.779639 53.409691 0.681238 1.067087 0.080193 -0.023317 796630.000000 0 0 1
-35.396801 -30.411794 26.346339 53.590487 0.709792 1.056843 0.085003 -0.026262 1820640.000000 0 0 1
-33.872701 -30.006394 26.469329 52.424889 0.724947 1.041530 0.100791 -0.018995 641017.000000 0 0 1
-33.152401 -29.716594 25.295239 51.205535 0.730802 1.054119 0.086946 -0.015219 321801.000000 0 0 1
-31.859401 -29.172294 25.536129 50.181053 0.741399 1.036913 0.066771 -0.009843 269176.000000 0 0 1
-31.092501 -29.013894 24.209379 48.935097 0.750830 1.053279 0.060971 -0.006887 -410830.000000 0 0 1
-30.831201 -30.241294 23.625109 49.226463 0.775739 1.070225 0.071267 -0.013374 102723.000000 0 0 1
-30.188801 -30.138994 22.383179 48.173949 0.784573 1.087577 0.062014 -0.007525 -482514.000000 0 0 1
-30.241901 -31.366294 21.442279 48.561181 0.803647 1.113469 0.072152 -0.015000 234823.000000 0 0 1
-29.504901 -32.542194 21.779679 49.029461 0.834311 1.110497 0.074797 -0.017184 815298.000000 0 0 1
-28.084101 -32.473094 21.631579 48.074357 0.857748 1.104075 0.092586 -0.013431 637882.000000 0 0 1
-27.324601 -33.813394 21.448779 48.477104 0.891136 1.112466 0.082609 -0.002044 -40457.700000 0 0 1
-27.639301 33.629077 20.296279 48.028999 -0.882851 1.134502 0.074163 -0.007146 656325.000000 0 0 1
-28.844701 32.844577 20.459579 48.263624 -0.850147 1.133035 0.083186 -0.012631 738907.000000 0 0 1
-28.817601 31.623777 21.425579 47.849481 -0.831793 1.106526 0.091789 -0.011600 -41842.700000 0 0 1
-28.073001 30.511377 20.931679 46.445374 -0.826996 1.103277 0.079313 -0.011095 -32343.300000 0 0 1
-27.903701 29.476477 21.900179 46.120463 -0.812801 1.076006 0.085278 -0.017822 -672619.000000 0 0 1
-26.889201 28.392277 21.547479 44.648006 -0.812581 1.067166 0.081525 -0.009891 167880.000000 0 0 1
-25.555501 28.916377 21.579079 44.214219 -0.847019 1.060934 0.083482 -0.009438 218165.000000 0 0 1
-24.610301 27.915377 21.367579 42.912803 -0.848238 1.049586 0.070145 -0.018076 75856.400000 0 0 1
-23.126601 28.347777 21.291779 42.329375 -0.886485 1.043727 0.053924 -0.004090 532011.000000 0 0 1
-22.471701 28.419177 22.587779 42.694669 -0.901738 1.013311 0.063485 -0.008745 860515.000000 0 0 1
-21.126201 28.860577 22.496279 42.253188 -0.938909 1.009344 0.068864 -0.003973 511159.000000 0 0 1
-20.264301 28.809777 23.805979 42.513172 -0.957804 0.976450 0.061926 -0.000200 -433687.000000 0 0 1
-20.157801 27.512877 24.389939 41.930472 -0.938480 0.950009 0.053350 -0.011736 389638.000000 0 0 1
-20.176001 27.636477 25.804909 42.857196 -0.940186 0.924650 0.065672 -0.011842 383731.000000 0 0 1
-18.734201 27.950377 26.320979 42.719876 -0.980306 0.906977 0.062301 -0.003995 -205908.000000 0 0 1
-18.268401 29.195477 25.939999 43.116052 -1.011674 0.925254 0.031444 -0.002053 1280980.000000 0 0 1
-16.941801 29.550177 26.457889 43.130702 -1.050223 0.910393 0.029163 0.001434 1305230.000000 0 0 1
-16.773501 29.910277 27.923839 44.223476 -1.059704 0.887406 0.014489 0.009159 -576407.000000 0 0 1
-16.917701 28.774977 28.800649 44.087247 -1.039298 0.858908 0.027761 0.003180 310545.000000 0 0 1
-17.017601 29.108677 30.198699 45.264503 -1.041760 0.840406 0.025772 0.003806 -489959.000000 0 0 1
-17.003301 27.906477 31.216769 45.192592 -1.023570 0.808271 0.032470 0.003148 -562857.000000 0 0 1
-15.732501 27.367377 31.402369 44.526326 -1.049065 0.788015 0.036743 0.002760 -432146.000000 0 0 1
-15.656101 26.175277 32.258872 44.394746 -1.031756 0.757382 0.047947 0.005642 -234006.000000 0 0 1
-16.159601 26.345177 33.692847 45.720991 -1.020597 0.742289 0.032855 0.002999 -76831.900000 0 0 1
-17.561001 26.265677 33.821136 46.283299 -0.981463 0.751389 0.028419 -0.004720 -302182.000000 0 0 1
-17.987201 26.780377 -33.068155 46.197737 -0.979348 2.368560 0.040189 -0.008612 673578.000000 0 0 1
-19.430201 26.302777 -32.682125 46.232998 -0.934558 2.355903 0.027313 -0.009300 452024.000000 0 0 1
-20.456001 26.600777 -33.553535 47.454073 -0.915246 2.356148 0.031964 -0.002210 -303480.000000 0 0 1
-21.750901 26.296177 -33.084495 47.530774 -0.879718 2.340698 0.061470 -0.012122 269879.000000 0 0 1
-22.839201 26.128777 33.961460 48.556389 -0.852475 0.796206 0.066956 -0.031101 -401358.000000 0 0 1
-22.694601 25.008877 32.997558 47.215757 -0.833874 0.796983 0.075754 -0.021096 -103904.000000 0 0 1
-22.876901 23.660477 33.543902 46.993235 -0.802234 0.775883 0.080395 -0.025475 12784.100000 0 0 1
-23.144201 22.699877 32.348910 45.797276 -0.775706 0.786468 0.078533 -0.022966 610519.000000 0 0 1
-24.484301 22.797977 31.862069 46.199786 -0.749748 0.809779 0.100446 -0.030991 301404.000000 0 0 1
-24.681701 22.082377 30.646609 45.122416 -0.729872 0.824140 0.112457 -0.026526 -439427.000000 0 0 1
-26.165101 22.012377 30.322049 45.701028 -0.699414 0.845326 0.109894 -0.020222 -330917.000000 0 0 1
-26.846601 20.868777 30.878229 45.931589 -0.660767 0.833531 0.126051 -0.024240 -824705.000000 0 0 1
-28.037001 20.727977 30.200569 46.128048 -0.636623 0.856995 0.108097 -0.021042 -1167150.000000 0 0 1
-28.475301 19.289177 30.376219 45.887142 -0.595397 0.847343 0.119675 -0.016559 -374737.000000 0 0 1
-29.020601 19.067177 31.670689 46.997714 -0.581296 0.831352 0.107991 -0.016496 -48554.000000 0 0 1
-28.980101 17.755577 32.182029 46.805873 -0.549692 0.812668 0.096698 -0.009350 -405220.000000 0 0 1
-29.876801 16.709477 31.497859 46.518222 -0.509940 0.826971 0.072864 -0.004138 -65935.900000 0 0 1
-31.254701 16.950577 31.673479 47.617094 -0.496941 0.843074 0.056146 -0.003595 -323757.000000 0 0 1
-32.088201 15.990277 31.110449 47.467901 -0.462305 0.856085 0.058700 0.012822 -326838.000000 0 0 1
-33.562401 16.392677 31.258779 48.705912 -0.454344 0.873971 0.051216 0.008653 -255438.000000 0 0 1
-34.143301 16.011477 32.521099 49.797131 -0.438500 0.859163 0.045212 0.005509 1355150.000000 0 0 1
-35.582001 16.164277 32.462055 50.804997 -0.426409 0.877659 0.061830 -0.003150 903931.000000 0 0 1
-36.035201 16.491077 33.872843 52.133107 -0.429187 0.863557 0.068519 0.000160 -679593.000000 0 0 1
36.139602 16.722577 33.994170 52.357607 0.433383 0.864173 0.051944 -0.006186 -269666.000000 0 0 1
35.859202 17.337277 -32.848225 51.628185 0.450346 2.260419 0.041308 -0.011194 883417.000000 0 0 1
34.322702 17.636477 -32.719515 50.593081 0.474661 2.274071 0.033595 -0.019362 1107350.000000 0 0 1
33.536602 16.425977 -32.711495 49.644318 0.455448 2.290175 0.041991 -0.012936 224373.000000 0 0 1
32.244502 16.749077 -32.219465 48.562675 0.479078 2.296232 0.042562 -0.013774 67837.200000 0 0 1
31.248702 15.566477 -32.311105 47.568941 0.462165 2.317534 0.041218 -0.010063 -201797.000000 0 0 1
30.852902 15.247477 -33.643155 48.127425 0.458996 2.344855 0.052905 -0.022156 -201083.000000 0 0 1
29.999502 14.120377 -33.639875 47.233424 0.439923 2.363431 0.050690 -0.021912 -230529.000000 0 0 1
30.605902 12.708477 -33.813985 47.345667 0.393566 2.366268 0.045838 -0.016632 -13704.400000 0 0 1
31.250802 12.225077 -32.654785 46.823073 0.372891 2.342571 0.052438 -0.012418 319004.000000 0 0 1
32.187802 11.201677 -33.003375 47.442122 0.334901 2.340128 0.072039 -0.014236 269771.000000 0 0 1
18.111302 -21.231023 9.834185 29.588626 -0.864529 1.231988 0.061115 -0.019880 141370.000000 0 0 1
17.782302 -22.509023 10.288285 30.474828 -0.902178 1.226431 0.058011 -0.024540 -47740.400000 0 0 1
18.884602 -23.109723 10.909585 31.775879 -0.885672 1.220337 0.043943 -0.026620 -34498.900000 0 0 1
18.417602 -24.371823 11.694385 32.710127 -0.923662 1.205190 0.040490 -0.026129 521798.000000 0 0 1
17.708102 -25.355773 10.912785 32.796051 -0.961155 1.231581 0.040878 -0.022983 588382.000000 0 0 1
16.353502 -25.604743 11.265685 32.403017 -1.002413 1.215707 0.052927 -0.021587 353333.000000 0 0 1
15.622802 -26.500043 10.271385 32.431860 -1.038104 1.248541 0.051975 -0.020254 -215851.000000 0 0 1
15.489402 -25.830513 9.049385 31.448821 -1.030630 1.278920 0.056933 -0.023675 -67928.500000 0 0 1
14.645402 -26.516783 8.184185 31.378471 -1.066184 1.306923 0.068989 -0.021224 -337584.000000 0 0 1
14.524402 -25.683713 6.896885 30.301458 -1.056123 1.341175 0.081591 -0.024984 -42328.000000 0 0 1
13.577302 -24.638023 6.985785 28.985798 -1.067131 1.327393 0.089672 -0.036858 -40137.700000 0 0 1
13.403902 -24.047823 5.716985 28.118433 -1.062301 1.366051 0.092122 -0.025113 417032.000000 0 0 1
12.480202 -22.767023 5.872085 26.619056 -1.069359 1.348370 0.095589 -0.026760 223657.000000 0 0 1
12.169102 -22.170323 4.634885 25.711717 -1.068805 1.389542 0.104294 -0.027556 -393933.000000 0 0 1
11.413602 -21.044123 4.863685 24.429098 -1.073834 1.370363 0.111294 -0.025947 -26080.100000 0 1 0
10.537202 -20.527723 3.680085 23.365852 -1.096553 1.412639 0.095385 -0.027774 185141.000000 0 1 0
11.326602 -19.981023 2.691485 23.125252 -1.055095 1.454145 0.081344 -0.021115 704625.000000 0 1 0
10.452702 -19.777423 1.562985 22.424280 -1.084596 1.501039 0.061150 0.000922 908689.000000 0 1 0
11.432102 -19.350623 0.464285 22.480105 -1.037178 1.550142 0.056635 0.001830 251857.000000 0 1 0
11.826902 -18.048223 0.666785 21.588389 -0.990708 1.539905 0.047157 -0.003032 -144449.000000 0 1 0
12.725302 -17.749023 -0.391215 21.842943 -0.948780 1.588708 0.060079 -0.004930 -437832.000000 0 1 0
13.829302 -16.748623 -0.056415 21.720247 -0.880581 1.573394 0.049106 -0.003474 -92783.000000 0 1 0
14.818002 -17.254523 0.825085 22.759009 -0.861222 1.534535 0.046611 -0.011427 -410513.000000 0 1 0
16.000202 -16.525423 0.714085 23.013170 -0.801545 1.539762 0.044320 -0.014169 -1002700.000000 0 1 0
17.153902 -17.070423 1.497385 24.246605 -0.782959 1.509001 0.024032 -0.000248 -1061150.000000 0 1 0
17.744402 -18.207123 0.907085 25.439849 -0.798268 1.535133 0.031054 0.001036 26068.900000 0 0 1
18.821102 -18.700223 1.674085 26.584484 -0.782177 1.507782 0.017534 0.003201 22623.200000 0 0 1
19.380302 -19.973323 1.048585 27.850121 -0.800466 1.533136 -0.000948 -0.003089 -192889.000000 0 0 1
18.592602 -21.138623 1.249585 28.179561 -0.849392 1.526438 0.005252 0.007286 38047.000000 0 0 1
19.040502 -22.305223 0.593585 29.332849 -0.864196 1.550559 0.019741 0.007798 276252.000000 0 0 1
17.890202 -23.358223 0.500385 29.426455 -0.917193 1.553791 0.026826 0.009204 322256.000000 0 0 1
17.752602 -24.201423 1.600285 30.057023 -0.937916 1.517530 0.015608 0.010714 -290732.000000 0 0 1
16.780202 -25.190513 1.412885 30.300715 -0.983164 1.524151 0.034108 0.004328 -750796.000000 0 0 1
16.682002 -26.060013 2.715185 31.060999 -1.001385 1.483270 0.039229 -0.000975 -298950.000000 0 0 1
17.720702 -26.933243 2.996585 32.379042 -0.988853 1.478117 0.032544 -0.004719 -27768.200000 0 0 1
18.872202 -26.265873 3.540185 32.535964 -0.947758 1.461772 0.020206 0.000813 -53234.900000 0 0 1
20.064202 -27.149533 3.918785 33.985676 -0.934356 1.455232 0.030130 0.003379 -203758.000000 0 0 1
20.700002 -27.671593 2.773185 34.668396 -0.928538 1.490719 0.026123 0.012664 -693760.000000 0 0 1
21.588202 -28.698733 3.020685 36.038761 -0.925866 1.486880 0.036920 0.018342 -906845.000000 0 0 1
20.981702 -30.100463 3.228285 36.833293 -0.962049 1.483038 0.043378 0.009922 -162802.000000 0 0 1
20.808502 -30.504333 4.587885 37.209633 -0.972152 1.447183 0.073185 0.001208 -176978.000000 0 0 1
20.357302 -31.843453 4.596585 38.073006 -1.001985 1.449770 0.063156 -0.017879 -102802.000000 0 0 1
20.102702 -32.436823 6.008985 38.631257 -1.015982 1.414615 0.080342 -0.026295 489718.000000 0 0 1
21.286302 -32.868253 6.674985 39.723848 -0.996093 1.401961 0.061527 -0.031618 548787.000000 0 0 1
20.850202 -33.390153 7.890785 40.148446 -1.012599 1.372968 0.056099 -0.029865 410228.000000 0 0 1
21.939602 33.983823 8.554285 41.345159 0.997528 1.362392 0.066041 -0.032176 245247.000000 0 0 1
22.953902 -33.552023 9.228185 41.686679 -0.970802 1.347577 0.076191 -0.033196 58560.500000 0 0 1
23.998102 33.821717 9.629585 42.574010 0.953692 1.342637 0.099079 -0.035604 908374.000000 0 0 1
25.140002 -33.690693 10.480185 43.323397 -0.929732 1.326467 0.099400 -0.031607 773498.000000 0 0 1
25.933202 -32.857723 9.637685 42.953997 -0.902640 1.344498 0.079971 -0.021698 316425.000000 0 0 1
26.811002 -32.019143 10.418385 43.041818 -0.873696 1.326316 0.067070 -0.018551 331601.000000 0 0 1
27.462702 -30.988893 9.473885 42.476652 -0.845652 1.345867 0.063876 -0.021500 -664778.000000 0 0 1
26.586702 -29.943343 9.090285 41.062023 -0.844707 1.347568 0.048410 -0.025151 -26818.000000 0 0 1
26.992802 -29.089323 8.024785 40.487001 -0.822764 1.371269 0.057863 -0.023499 -164496.000000 0 0 1
26.546602 -27.650173 8.240385 39.206607 -0.805758 1.359039 0.051831 -0.023021 -128400.000000 0 0 1
27.222502 -26.937863 9.245885 39.397962 -0.780143 1.333908 0.054323 -0.023864 -54251.200000 0 0 1
26.757602 -25.602493 9.437485 38.216790 -0.763341 1.321269 0.064371 -0.016599 40454.400000 0 0 1
27.584002 -24.871623 10.529385 38.604957 -0.733736 1.294549 0.077085 -0.019485 -436910.000000 0 0 1
28.918202 -24.694023 10.207885 39.373317 -0.706769 1.308541 0.054295 -0.019433 -882177.000000 0 0 1
29.601202 -23.866523 11.153185 39.626198 -0.678552 1.285481 0.049604 -0.027087 1180230.000000 0 0 1
31.091302 -23.577423 10.719685 40.465733 -0.648810 1.302688 0.049697 -0.026500 1064620.000000 0 0 1
31.079002 -22.836923 9.503185 39.720774 -0.633703 1.329203 0.048916 -0.024812 329673.000000 0 0 1
32.414802 -22.573023 9.077285 40.529715 -0.608292 1.344914 0.043858 -0.030809 515442.000000 0 0 1
32.518302 -21.942223 7.681485 39.973820 -0.593588 1.377431 0.053274 -0.020200 -625121.000000 0 0 1
31.955602 -20.680623 7.567985 38.808801 -0.574381 1.374532 0.065018 -0.012984 -69516.500000 0 0 1
32.136002 -20.208023 6.210385 38.466293 -0.561347 1.408637 0.060533 -0.013107 -9039.210000 0 0 1
31.675102 -18.741523 6.079685 37.303074 -0.534279 1.407085 0.071855 -0.011465 708476.000000 0 0 1
32.503102 -17.860923 6.884585 37.720839 -0.502470 1.387253 0.066935 -0.006782 615072.000000 0 0 1
31.908602 -16.592623 6.837885 36.609161 -0.479523 1.382912 0.072515 -0.004917 80571.000000 0 0 1
32.287002 -15.767823 8.113285 36.836125 -0.454296 1.348722 0.068267 -0.042873 -216765.000000 0 0 1
33.627102 -15.488823 8.415185 37.967103 -0.431638 1.347296 0.065798 -0.029295 -436379.000000 0 0 1
33.788902 -14.915323 9.691785 38.184911 -0.415702 1.314177 0.061675 -0.035537 333907.000000 0 0 1
35.279902 -14.830923 10.116485 39.584985 -0.397950 1.312366 0.047533 -0.035728 461659.000000 0 0 1
36.066202 -13.972123 9.297985 39.779940 -0.369599 1.334878 0.081013 -0.026617 1107200.000000 0 0 1
-36.123401 -14.463823 9.229685 39.991116 0.380851 1.337903 0.081471 -0.036488 1337220.000000 0 0 1
-35.169301 -13.615523 8.377985 38.632277 0.369373 1.352195 0.084405 -0.033900 -65707.300000 0 0 1
-35.533301 -13.573423 6.971385 38.671094 0.364886 1.389532 0.102100 -0.038258 377323.000000 0 0 1
-34.634801 -12.771123 6.203285 37.431962 0.353268 1.404307 0.106727 -0.028879 803577.000000 0 0 1
-33.445301 -13.546623 5.498585 36.501145 0.384842 1.419579 0.091502 -0.025109 416316.000000 0 0 1
-32.529701 -14.018023 6.441985 36.002578 0.406883 1.390896 0.090098 -0.024315 -920888.000000 0 0 1
-31.599801 -14.847023 5.881785 35.405888 0.439234 1.403898 0.084720 -0.013944 -735780.000000 0 0 1
-30.851501 -15.611023 6.926785 35.263288 0.468440 1.373080 0.064385 -0.015775 -659466.000000 0 0 1
-31.751101 -16.380223 7.608685 36.528567 0.476282 1.360966 0.062274 -0.026751 -446250.000000 0 0 1
-31.231801 -16.720823 8.855485 36.516174 0.491548 1.325846 0.038837 -0.027404 -403844.000000 0 0 1
-32.240501 -17.569523 9.581985 37.946706 0.498959 1.315521 0.024014 -0.026040 -1492620.000000 0 0 1
-33.398201 -16.881423 9.860585 38.699527 0.468005 1.313157 0.047409 -0.027664 -678566.000000 0 0 1
-34.257001 -17.480023 10.807585 39.948682 0.471823 1.296846 0.048334 -0.032282 244758.000000 0 0 1
-35.189401 -18.674923 10.503685 41.199200 0.487903 1.313002 0.045916 -0.034516 -467490.000000 0 0 1
-34.494101 -19.881623 10.245185 41.110653 0.522869 1.318932 0.052026 -0.031655 -146206.000000 0 0 1
-33.833901 -20.497823 11.376585 41.162122 0.544700 1.290766 0.053694 -0.031357 -977719.000000 0 0 1
-34.690001 -21.140423 12.500685 42.503891 0.547310 1.272275 0.056276 -0.030572 159854.000000 0 0 1
-35.381501 -22.322523 12.073085 43.541992 0.562838 1.289840 0.036292 -0.026712 810316.000000 0 0 1
-36.577801 -22.022123 11.309885 44.168121 0.541935 1.311848 0.036791 -0.029724 -35301.300000 0 0 1
36.172702 -23.316423 11.089885 44.442159 -0.572560 1.318596 0.039504 -0.015279 -58490.800000 0 0 1
35.688002 -23.966323 12.273085 44.706227 -0.591377 1.292698 0.091935 -0.006797 -40991.500000 0 0 1
35.006102 -25.136683 11.903385 44.709849 -0.622748 1.301310 0.040080 0.009568 -87777.700000 0 0 1
34.384102 -25.780493 13.155285 44.943985 -0.643360 1.273743 0.040581 -0.013591 -1156.870000 0 0 1
33.315102 -25.050323 13.706185 43.877946 -0.644729 1.253109 0.035724 -0.008254 -232632.000000 0 0 1
33.005802 -25.374243 15.037585 44.264705 -0.655413 1.224178 0.043761 0.004349 -171911.000000 0 0 1
32.594302 -24.102323 15.824985 43.517130 -0.636724 1.198614 0.043575 -0.002165 -357511.000000 0 0 1
33.597502 -23.131723 16.004185 43.817835 -0.602963 1.196902 0.055717 -0.003766 -66897.000000 0 0 1
33.972102 -22.415323 14.848285 43.324611 -0.583245 1.220984 0.049136 -0.006622 -25408.200000 0 0 1
35.201002 -21.494823 15.065385 43.910178 -0.548200 1.220586 0.049240 -0.017568 -20936.100000 0 0 1
35.040002 -20.296423 15.772085 43.456935 -0.525012 1.199380 0.076539 -0.007830 24237.700000 0 0 1
34.780702 -20.292823 17.163785 43.773181 -0.528162 1.167875 0.058710 -0.008303 -132442.000000 0 0 1
35.005802 -18.946923 17.824085 43.612957 -0.496101 1.149780 0.054355 -0.006185 -474836.000000 0 0 1
34.414702 -17.876523 17.152285 42.404512 -0.479082 1.154373 0.053204 -0.007846 -64118.200000 0 0 1
34.341202 -16.621423 17.863585 42.127159 -0.450773 1.132895 0.051777 -0.008815 -856422.000000 0 0 1
35.615102 -15.895323 18.224985 43.049353 -0.419780 1.133655 0.055506 -0.014449 -924211.000000 0 0 1
36.198702 -16.347223 19.396585 44.201869 -0.424181 1.116513 0.066908 -0.000367 119111.000000 0 0 1
-36.324201 -15.483023 19.848885 44.194455 0.402925 1.105009 0.049916 -0.004569 -27479.500000 0 0 1
-35.925801 -15.741623 21.259885 44.614399 0.412973 1.074098 0.053439 0.000901 -31971.100000 0 0 1
-34.854801 -16.663323 21.417085 44.172560 0.445957 1.064604 0.055569 0.002229 382442.000000 0 0 1
-34.460601 -16.583523 22.792085 44.519944 0.448520 1.033340 0.051955 0.006426 268547.000000 0 0 1
-33.556901 -17.759023 23.248285 44.518887 0.486750 1.021354 0.053813 0.007035 -539180.000000 0 0 1
-34.296901 -18.968123 23.312885 45.602168 0.505187 1.034189 0.053522 0.007746 678351.000000 0 0 1
-33.507701 -20.153123 23.568385 45.655045 0.541483 1.028356 0.038716 0.008634 -141366.000000 0 0 1
-32.258101 -20.512523 22.725985 44.472678 0.566390 1.034437 0.036160 0.011733 -299354.000000 0 0 1
-31.185201 -19.725423 23.176385 43.574693 0.563992 1.009981 0.044680 0.019035 -268333.000000 0 0 1
-29.991501 -20.114523 22.503685 42.549971 0.590772 1.013520 0.044837 0.014378 -148843.000000 0 0 1
-28.900801 -19.062923 22.612385 41.351799 0.583093 0.992224 0.053817 0.020389 -745298.000000 0 0 1
-28.400401 -18.979123 23.859785 41.666284 0.589111 0.961074 0.039532 0.018936 -685012.000000 0 0 1
-27.183801 -18.314623 23.776085 40.493045 0.592879 0.943245 0.066712 0.009321 -616216.000000 0 0 1
-26.717201 -17.692523 25.112785 40.712236 0.584914 0.906079 0.059534 0.000683 -22372.100000 0 0 1
-25.601801 -16.798923 25.072685 39.576452 0.580695 0.884695 0.061789 -0.003084 462228.000000 0 0 1
-25.093801 -16.197423 26.227385 39.748347 0.573188 0.850196 0.057181 -0.009463 667730.000000 0 0 1
-24.053001 -17.122223 26.962285 39.983524 0.618637 0.830733 0.054865 -0.005072 155740.000000 0 0 1
-24.729001 -18.222423 27.578685 41.281522 0.635054 0.839193 0.055372 -0.004496 -15846.000000 0 0 1
-23.785201 -19.072123 28.174785 41.512651 0.675867 0.824800 0.045700 -0.004744 -340248.000000 0 0 1
-24.344101 -20.346423 28.835785 42.873240 0.696183 0.833103 0.042840 0.003941 -42840.200000 0 0 1
-25.370801 -20.041823 29.761485 43.944262 0.668587 0.826771 0.042139 -0.004439 -75770.800000 0 0 1
-25.865701 -21.238523 30.275285 45.129837 0.687480 0.835444 0.036032 -0.003991 354411.000000 0 0 1
-27.146201 -21.046823 31.171385 46.384698 0.659506 0.833865 0.051715 -0.009555 -256606.000000 0 0 1
-26.829001 -20.427223 32.407485 46.768705 0.650748 0.805250 0.059325 -0.019826 701678.000000 0 0 1
-27.851101 -20.406323 33.421385 48.053000 0.632333 0.801666 0.066639 -0.027942 762574.000000 0 0 1
-29.259201 -19.794223 33.167385 48.456037 0.594788 0.816901 0.061986 -0.032865 73625.900000 0 0 1
-29.988401 -20.374723 32.070985 48.404355 0.596780 0.846559 0.063291 -0.030283 -676238.000000 0 0 1
-31.204601 -19.723023 32.182885 48.974104 0.563656 0.853777 0.071047 -0.033660 -1236860.000000 0 0 1
-32.359901 -20.228723 31.327085 49.373583 0.558683 0.883447 0.071320 -0.007529 -490622.000000 0 0 1
-32.392301 -19.746323 30.031585 48.384652 0.547448 0.901181 0.061483 -0.017547 201093.000000 0 0 1
-33.561401 -20.170323 29.363285 48.942947 0.541153 0.927359 0.067538 -0.020327 -10333.300000 0 0 1
-33.850701 -19.371323 28.101185 48.070726 0.519771 0.946434 0.060804 -0.009695 -580946.000000 0 0 1
-35.001001 -19.732123 27.409285 48.638417 0.513345 0.972142 0.049497 -0.012167 -222577.000000 0 0 1
-35.435501 -18.744123 26.480485 48.044073 0.486550 0.987030 0.069375 -0.001407 -284177.000000 0 0 1
-36.646501 -19.267923 25.700785 48.731399 0.484057 1.015263 0.051930 -0.000393 -319844.000000 0 0 1
35.841902 -19.658223 26.530685 48.733611 -0.501668 0.995120 0.066546 -0.001566 -258656.000000 0 0 1
34.673702 -19.904823 25.781185 47.572440 -0.521128 0.998058 0.109528 -0.012062 359361.000000 0 0 1
33.493502 -20.373523 26.688185 47.425250 -0.546488 0.973097 0.094068 -0.016456 399684.000000 0 0 1
32.676602 -19.403923 27.367485 46.832166 -0.535861 0.946688 0.080563 -0.009718 44465.700000 0 0 1
31.637502 -20.008023 28.038385 46.769686 -0.563914 0.927921 0.068036 -0.006630 -560802.000000 0 0 1
-30.210448 -5.824723 33.706108 45.636611 0.190468 0.739841 0.062502 -0.020205 -493966.000000 0 0 1
-31.246098 -5.552323 32.842550 45.670341 0.175861 0.768258 0.073707 -0.021834 -351408.000000 0 0 1
-30.856248 -4.549123 31.934709 44.638864 0.146375 0.773598 0.085844 -0.023409 -289605.000000 0 0 1
-31.492758 -4.567323 30.573669 44.129395 0.144024 0.805406 0.081809 -0.029075 -460236.000000 0 0 1
-31.054858 -5.647823 29.781799 43.396517 0.179900 0.814446 0.073302 -0.032143 319979.000000 0 0 1
-29.783608 -5.389323 29.187389 42.047732 0.179012 0.803559 0.055429 -0.031277 388756.000000 0 0 1
-29.418678 -6.395623 28.063339 41.157182 0.214069 0.820497 0.053436 -0.031268 16011.000000 0 0 1
-30.108398 -6.173923 26.843899 40.807204 0.202253 0.852872 0.062628 -0.035312 -65233.300000 0 0 1
-29.530218 -6.876423 25.793609 39.807402 0.228784 0.865893 0.079088 -0.025907 14640.100000 0 0 1
-30.205318 -6.569823 24.422719 39.395343 0.214170 0.902131 0.079765 -0.025019 351973.000000 0 0 1
-29.790768 -5.234823 23.948609 38.580165 0.173944 0.901098 0.095543 -0.024601 -23241.800000 0 0 1
-30.533178 -4.872123 22.842679 38.442171 0.158234 0.934515 0.109530 -0.024754 -102851.000000 0 0 1
-29.967168 -3.569623 22.237879 37.487286 0.118559 0.935754 0.113740 -0.028140 -588961.000000 0 0 1
-28.769428 -3.786823 21.586479 36.166229 0.130874 0.931204 0.140680 -0.028082 -744301.000000 0 0 1
-28.318058 -2.560023 20.910679 35.294796 0.090157 0.936690 0.151351 -0.027646 679210.000000 0 0 1
-26.830798 -2.618823 20.456079 33.840821 0.097297 0.921684 0.148445 -0.025984 352771.000000 0 0 1
-26.794868 -3.467223 19.318779 33.214482 0.128684 0.950056 0.170139 -0.029769 -157971.000000 0 0 1
-25.554588 -3.393323 18.659079 31.823150 0.132015 0.944267 0.133897 -0.024127 -334993.000000 0 0 1
-25.515938 -4.125723 17.275479 31.089015 0.160305 0.981618 0.137228 -0.027963 -627695.000000 0 0 1
-26.360098 -3.596823 16.345579 31.224507 0.135612 1.019860 0.164779 -0.032110 -580816.000000 0 0 1
-26.217118 -4.277323 15.098279 30.554718 0.161725 1.053952 0.158895 -0.034586 344931.000000 0 0 1
-27.515928 -4.269223 14.229079 31.270102 0.153927 1.098382 0.167784 -0.038415 467007.000000 0 0 1
-27.889508 -2.998723 13.660379 31.199727 0.107110 1.117605 0.175523 -0.040401 626918.000000 0 0 1
-29.211788 -3.061623 13.121179 32.169356 0.104427 1.150667 0.159169 -0.040421 786815.000000 0 0 1
-29.801008 -1.732323 12.481979 32.355847 0.058064 1.174752 0.149584 -0.025719 434661.000000 0 0 1
-28.940668 -1.295523 11.410379 31.135790 0.044735 1.195583 0.152556 -0.027288 807758.000000 0 0 1
-29.508108 -0.180423 10.691979 31.385975 0.006114 1.223176 0.152704 -0.017307 161192.000000 0 0 1
-30.667658 -0.469123 9.721579 32.175059 0.015296 1.263853 0.151584 -0.005132 219794.000000 0 0 1
-30.261908 -1.223423 8.576779 31.477627 0.040406 1.294835 0.124194 -0.009123 62275.600000 0 0 1
-31.399528 -1.757023 7.925179 32.431866 0.055899 1.323933 0.113297 -0.007040 206527.000000 0 0 1
-31.068488 -2.629423 6.701479 31.891608 0.084432 1.359085 0.126310 -0.013177 -150617.000000 0 0 1
-30.568568 -1.982623 5.501579 31.122910 0.064768 1.393093 0.149834 -0.029211 385515.000000 0 0 1
-31.459228 -1.053023 4.907679 31.857137 0.033460 1.416128 0.161054 -0.018236 -330485.000000 0 0 1
-31.146568 -0.587123 3.490479 31.347039 0.018848 1.459215 0.142430 -0.022441 -214115.000000 0 0 1
-31.619148 -1.455023 2.479579 31.749582 0.045985 1.492619 0.157362 -0.046266 207224.000000 0 0 1
-31.365038 -0.793123 1.259679 31.400342 0.025281 1.530669 0.153221 -0.055592 37148.000000 0 0 1
-32.280108 -1.322223 0.136079 32.307463 0.040938 1.566584 0.160386 -0.056608 -720097.000000 0 0 1
-33.626168 -1.029423 0.220679 33.642646 0.030604 1.564237 0.153870 -0.049642 -752857.000000 0 0 1
-34.298412 -1.363123 -0.980821 34.339499 0.039722 1.599363 0.154862 -0.054029 342312.000000 0 0 1
-35.777789 -0.863623 -1.026521 35.802930 0.024134 1.599472 0.145670 -0.039039 456661.000000 0 0 1
-36.551088 -1.609723 -0.068921 36.586582 0.044012 1.572680 0.145958 -0.033542 435924.000000 0 0 1
35.637835 -1.238523 -0.096021 35.659479 -0.034739 1.573489 0.140266 -0.027319 139865.000000 0 0 1
34.608805 -2.331623 0.219579 34.687953 -0.067269 1.564466 0.132605 -0.024785 -284927.000000 0 0 1
34.626855 -2.773423 1.567779 34.773106 -0.079924 1.525695 0.132076 -0.029079 382144.000000 0 0 1
33.772745 -3.894023 1.798879 34.044055 -0.114794 1.517932 0.127919 -0.020355 -61037.700000 0 0 1
33.790235 -4.394423 3.260379 34.230410 -0.129324 1.475404 0.135531 -0.025442 131374.000000 0 0 1
33.424635 -3.435223 4.242379 33.867459 -0.102416 1.445202 0.133163 -0.027750 179612.000000 0 0 1
33.237455 -4.064723 5.517979 33.936683 -0.121689 1.407475 0.136897 -0.032881 42844.900000 0 0 1
32.854945 -3.012023 6.658279 33.657872 -0.091421 1.371660 0.148217 -0.028892 -247142.000000 0 0 1
31.523925 -2.584323 6.640979 32.319331 -0.081797 1.363842 0.147999 -0.032419 -383483.000000 0 0 1
31.211825 -1.668723 7.642179 32.177097 -0.053414 1.331001 0.152807 -0.031052 201946.000000 0 0 1
29.730685 -1.629923 8.123379 30.863564 -0.054768 1.304456 0.133758 -0.027902 -201305.000000 0 0 1
28.851105 -0.954123 7.208579 29.753323 -0.033059 1.326083 0.138773 -0.032792 851730.000000 0 0 1
27.508505 -1.015323 7.722779 28.590034 -0.036893 1.297277 0.135913 -0.024598 706302.000000 0 0 1
26.746805 -2.280623 7.290379 27.816226 -0.085061 1.305608 0.157704 -0.039533 -1073570.000000 0 0 1
27.136705 -3.386923 8.054179 28.508627 -0.124168 1.284379 0.135367 -0.044331 274238.000000 0 0 1
26.674505 -4.614723 7.488579 28.087429 -0.171306 1.300915 0.149692 -0.055676 -199311.000000 0 0 1
26.862705 -5.875723 8.398579 28.751785 -0.215340 1.274368 0.125004 -0.033459 -88772.800000 0 0 1
26.115205 -5.666723 9.588279 28.391033 -0.213677 1.226301 0.128448 -0.029346 611011.000000 0 0 1
26.596205 -6.403723 10.710779 29.378335 -0.236278 1.197614 0.110371 -0.026408 39913.700000 0 0 1
25.693705 -6.147623 11.959079 28.999643 -0.234851 1.145724 0.112879 -0.025893 1550250.000000 0 0 1
24.391705 -6.790123 11.791279 27.930186 -0.271504 1.134959 0.138736 -0.041526 1232200.000000 0 0 1
23.545905 -6.492623 12.903979 27.623839 -0.269057 1.084752 0.147543 -0.044308 369012.000000 0 0 1
22.362805 -7.487623 12.940679 26.900199 -0.323092 1.068930 0.139367 -0.048116 77590.600000 0 0 1
22.829705 -8.769023 13.315279 27.845787 -0.366730 1.072216 0.117714 -0.046462 1024370.000000 0 0 1
21.738405 -9.719523 13.248179 27.249617 -0.420450 1.063085 0.162547 -0.071299 613884.000000 0 0 1
22.031005 -10.977023 14.064579 28.349120 -0.462249 1.051671 0.132016 -0.061740 -233087.000000 0 0 1
22.132605 -10.660423 15.472379 29.032591 -0.448869 1.008735 0.110405 -0.058658 532842.000000 0 0 1
22.732805 -11.803823 16.120179 30.265010 -0.478922 1.009086 0.102615 -0.051396 -88383.700000 0 0 1
22.869405 -11.708623 17.671779 31.183221 -0.473184 0.968292 0.110942 -0.048841 554516.000000 0 0 1
21.571305 -11.592823 18.289179 30.564830 -0.493133 0.929327 0.109093 -0.040466 589548.000000 0 0 1
21.379805 -12.024023 19.617779 31.409082 -0.512314 0.896191 0.136761 -0.024214 -31739.600000 0 0 1
21.687005 -11.129423 20.840579 32.070547 -0.474139 0.863428 0.090953 -0.019185 -17856.000000 0 0 1
20.755905 -10.098123 21.118279 31.285162 -0.452804 0.829797 0.084113 -0.023725 1641.000000 0 0 1
20.698205 -9.022823 20.210579 30.303375 -0.411086 0.840700 0.081805 -0.015947 -1001760.000000 0 0 1
21.443005 -7.711323 20.644079 30.748089 -0.345219 0.834708 0.074044 -0.002134 776007.000000 0 0 1
22.857105 -7.788123 20.796779 31.868607 -0.328394 0.859813 0.085345 -0.010248 549250.000000 0 0 1
23.533405 -7.936323 19.568579 31.618597 -0.325259 0.903462 0.087172 -0.022737 -1013450.000000 0 0 1
24.920505 -8.586823 19.534279 32.807821 -0.331828 0.933014 0.084502 -0.018269 45427.800000 0 0 1
24.822805 -9.936923 19.918979 33.341863 -0.380777 0.930521 0.071405 -0.021954 -415589.000000 0 0 1
26.072705 -10.566723 19.927579 34.475353 -0.385049 0.954491 0.063044 -0.029154 -116151.000000 0 0 1
25.961505 -12.101023 20.340079 35.130518 -0.436173 0.953312 0.029176 -0.025304 -238430.000000 0 0 1
25.273305 -12.885223 19.446379 34.393758 -0.471485 0.969873 0.059272 -0.038701 -340369.000000 0 0 1
25.146105 -14.232223 19.919379 35.095077 -0.515030 0.967229 0.027670 -0.032705 -241128.000000 0 0 1
24.287605 -15.111823 18.996379 34.338278 -0.556586 0.984580 0.070690 -0.031570 -201136.000000 0 0 1
24.771505 -15.193023 17.682979 34.016807 -0.550161 1.024144 0.056638 -0.035179 272408.000000 0 0 1
23.734605 -15.546023 16.772979 32.959720 -0.579878 1.036898 0.049911 -0.030955 68685.800000 0 0 1
23.270305 -17.014823 16.813079 33.372008 -0.631348 1.042795 0.048597 -0.026429 -552935.000000 0 0 1
24.298505 -17.846923 16.407879 34.324168 -0.633498 1.072389 0.056808 -0.023609 -368393.000000 0 0 1
23.895505 -19.203223 16.469079 34.799274 -0.676952 1.077809 0.052555 -0.004613 -246934.000000 0 0 1
25.047005 -20.166723 16.213779 36.012995 -0.677876 1.103784 0.038517 0.003403 -252956.000000 0 0 1
25.560105 -20.119123 14.880079 35.770306 -0.666844 1.141765 0.054414 -0.013818 -356414.000000 0 0 1
26.403105 -21.186823 14.659879 36.890615 -0.676225 1.162128 0.048919 -0.011504 -443710.000000 0 0 1
27.075005 -21.090623 13.259679 36.792518 -0.661786 1.202110 0.053158 -0.026001 -488124.000000 0 0 1
26.175705 -21.188923 12.218179 35.824878 -0.680500 1.222760 0.055536 -0.021575 -327689.000000 0 0 1
26.795905 -21.096623 10.945679 35.817536 -0.666954 1.260233 0.067679 -0.026175 471710.000000 0 0 1
25.757705 -21.136523 9.737579 34.713577 -0.687171 1.286469 0.042113 -0.024523 1182650.000000 0 0 1
25.031405 -22.329523 9.335679 34.818583 -0.728411 1.299352 0.036653 -0.023549 268521.000000 0 0 1
23.932905 -22.647723 10.153579 34.478957 -0.757815 1.271878 0.021495 -0.013444 166256.000000 0 0 1
22.877205 -23.595423 9.451479 34.197090 -0.800852 1.290768 0.026812 -0.011454 284709.000000 0 0 1
23.127405 -24.969623 9.462379 35.325565 -0.823682 1.299623 0.027715 -0.012078 -105116.000000 0 0 1
23.059605 -25.538103 8.155079 35.361637 -0.836354 1.338082 0.034784 -0.006073 -548475.000000 0 0 1
21.688405 -26.030203 7.724679 34.750957 -0.876136 1.346637 0.041566 -0.003350 -332399.000000 0 0 1
20.668905 -25.065123 7.508479 33.344284 -0.881229 1.343668 0.025064 -0.005471 -450078.000000 0 0 1
19.434405 -25.745703 7.591679 33.138662 -0.924192 1.339655 0.053470 -0.020405 -273236.000000 0 0 1
18.292005 -24.726923 7.574179 31.676274 -0.933881 1.329345 0.047421 -0.026161 -533223.000000 0 0 1
18.168105 -24.051523 6.310279 30.795704 -0.923859 1.364427 0.059651 -0.024712 -30803.300000 0 0 1
17.492505 -22.836723 6.474179 29.485906 -0.917145 1.349424 0.091455 -0.021060 -241466.000000 0 0 1
17.123105 -22.164823 5.167379 28.481255 -0.913028 1.388355 0.091247 -0.015342 -438940.000000 0 0 1
16.260805 -21.072223 5.278379 27.135100 -0.913570 1.375026 0.135678 -0.016638 -72083.500000 0 0 1
15.981105 -20.603223 3.991279 26.378378 -0.911074 1.418904 0.125468 -0.013382 -116837.000000 0 0 1
15.066605 -19.379023 4.136279 24.892929 -0.909945 1.403859 0.137728 -0.003078 -147396.000000 0 1 0
15.738405 -18.239023 4.589179 24.523864 -0.858862 1.382555 0.089075 -0.008628 171318.000000 0 1 0
14.931405 -17.084023 4.425279 23.116959 -0.852534 1.378177 0.067050 0.003368 350419.000000 0 1 0
15.851705 -15.831223 4.468179 22.844448 -0.784752 1.373936 0.045403 -0.002125 -66112.100000 0 1 0
16.349305 -15.563723 5.798679 23.305663 -0.760787 1.319345 0.065238 -0.014771 251221.000000 0 1 0
17.341505 -14.555423 5.854479 23.385103 -0.698273 1.317754 0.052863 -0.016854 1379090.000000 0 1 0
18.800305 -15.011323 5.433379 24.664000 -0.673802 1.348678 0.074437 -0.030829 899379.000000 0 1 0
19.811405 -14.019623 5.557679 24.898381 -0.615845 1.345685 0.097676 -0.026281 -660544.000000 0 1 0
21.088405 -14.522323 5.476979 26.184270 -0.603061 1.360070 0.106084 -0.022724 -940776.000000 0 0 1
22.099305 -13.346523 5.523079 26.401010 -0.543307 1.360040 0.107189 -0.025779 -478916.000000 0 0 1
22.120305 -12.602323 6.699679 26.325123 -0.517855 1.313468 0.125915 -0.034197 -308624.000000 0 0 1
23.112505 -11.636923 6.689879 26.727520 -0.466436 1.317807 0.131599 -0.038568 -521263.000000 0 0 1
23.287405 -10.945423 8.024779 26.953712 -0.439373 1.268488 0.138915 -0.037725 -225853.000000 0 0 1
23.826305 -11.734123 9.020079 28.048962 -0.457618 1.243395 0.129575 -0.039420 157200.000000 0 0 1
24.147705 -11.042623 10.185379 28.439288 -0.428904 1.204516 0.147328 -0.051606 -44658.700000 0 0 1
24.692905 -11.861823 11.335879 29.646999 -0.447824 1.178445 0.114481 -0.041479 833351.000000 0 0 1
23.655605 -12.784423 11.798879 29.363969 -0.495473 1.157298 0.118089 -0.044556 1653090.000000 0 0 1
24.228205 -13.710323 12.751779 30.620038 -0.514955 1.141257 0.106812 -0.045363 23888.700000 0 0 1
23.217405 -14.834123 13.020479 30.473463 -0.568548 1.129322 0.086056 -0.046434 496313.000000 0 0 1
22.101905 -14.348723 13.788079 29.740396 -0.575818 1.088726 0.093938 -0.057186 643598.000000 0 0 1
21.070805 -15.310623 13.967079 29.554581 -0.628374 1.078574 0.090132 -0.054202 36510.500000 0 0 1
19.749905 -14.673423 14.413879 28.515399 -0.638981 1.040862 0.083594 -0.052027 -895300.000000 0 0 1
19.795905 -14.350123 15.752379 29.085070 -0.627245 0.998461 0.092311 -0.044940 533007.000000 0 0 1
19.050105 -13.156423 16.066279 28.180193 -0.604404 0.964136 0.110052 -0.055917 1092690.000000 0 0 1
17.483905 -13.129323 15.983679 27.084018 -0.644101 0.939550 0.127604 -0.047742 579338.000000 0 0 1
16.962505 -12.998223 14.614379 25.889389 -0.653846 0.970977 0.125590 -0.062883 409816.000000 0 0 1
15.543805 -13.059923 14.661579 25.042631 -0.698778 0.945343 0.133823 -0.048986 388275.000000 0 0 1
14.848605 -11.694023 14.370779 23.743431 -0.667103 0.920713 0.099993 -0.043082 -374325.000000 0 1 0
14.902005 -10.736923 15.338879 23.929740 -0.624354 0.875001 0.094473 -0.033218 9380.200000 0 1 0
14.444505 -9.444223 14.945079 22.829640 -0.579062 0.857097 0.069453 -0.030375 -629719.000000 0 1 0
14.974205 -8.332123 15.897379 23.374724 -0.507768 0.822884 0.075400 -0.028060 858815.000000 0 1 0
16.397205 -8.118123 15.875879 24.224281 -0.459713 0.856123 0.076291 -0.038946 804678.000000 0 1 0
17.041205 -8.914223 16.855379 25.572834 -0.481955 0.851158 0.097868 -0.036064 -2158090.000000 0 0 1
18.500605 -9.031123 16.669079 26.489465 -0.454125 0.890180 0.100205 -0.039107 -1834650.000000 0 0 1
19.171105 -7.872923 16.944279 26.769811 -0.389667 0.885423 0.082620 -0.030421 -542015.000000 0 0 1
20.460405 -7.818123 16.402979 27.364373 -0.364989 0.928010 0.075408 -0.023160 -15683.200000 0 0 1
21.238605 -6.460223 16.644279 27.746078 -0.295281 0.927447 0.068820 -0.008130 143656.000000 0 0 1
21.603905 -6.145123 17.954479 28.755079 -0.277126 0.896442 0.086719 -0.013768 285159.000000 0 0 1
22.204205 -4.868923 18.156279 29.092672 -0.215863 0.896837 0.086172 -0.013819 104646.000000 0 0 1
-5.888698 -33.162094 -5.884315 34.191028 1.395055 1.743759 0.061874 -0.028398 -112594.000000 0 0 1
-6.520098 -31.928594 -6.147915 33.162383 1.369357 1.757263 0.061313 -0.026722 114917.000000 0 0 1
-6.228898 -30.936094 -5.162515 31.976439 1.372106 1.732954 0.072516 -0.030406 -614540.000000 0 0 1
-6.963098 -29.617294 -5.450015 30.909085 1.339887 1.748047 0.072688 -0.025388 823188.000000 0 0 1
-8.351298 -29.596994 -5.108315 31.174046 1.295779 1.735403 0.072195 -0.020626 540981.000000 0 0 1
-9.223198 -30.161794 -6.071915 32.119610 1.274035 1.760982 0.068001 -0.017822 -1753510.000000 0 0 1
-10.643598 -29.915694 -5.696415 32.259636 1.228976 1.748307 0.048140 -0.006174 -953794.000000 0 0 1
-11.573798 -30.463894 -6.628715 33.255699 1.207721 1.771466 0.046793 -0.008851 -302299.000000 0 0 1
-12.904698 -30.349594 -6.201515 33.557233 1.168755 1.756669 0.052932 -0.004907 245943.000000 0 0 1
-13.923198 -30.890494 -7.261615 34.652693 1.147337 1.781915 0.068280 -0.014661 287917.000000 0 0 1
-14.021298 -30.066494 -8.369915 34.214710 1.134435 1.817934 0.082301 -0.026858 -108414.000000 0 0 1
-14.971898 -30.545194 -9.287815 35.262305 1.115055 1.837333 0.096616 -0.025294 7595.130000 0 0 1
-15.067298 -29.648794 -10.579215 34.899775 1.100616 1.878773 0.108738 -0.028491 -108745.000000 0 0 1
-15.661598 -28.366294 -10.336015 34.011256 1.066327 1.879580 0.115379 -0.031859 205276.000000 0 0 1
-14.727698 -27.402494 -9.888215 32.643201 1.077633 1.878549 0.104204 -0.025877 -60609.600000 0 0 1
-15.305298 -25.993394 -9.479215 31.619048 1.038642 1.875274 0.101936 -0.015761 -38554.400000 0 0 1
-15.730898 -25.226694 -10.602315 31.563529 1.013218 1.913361 0.114440 -0.026483 205933.000000 0 0 1
-15.898198 -23.903194 -10.211115 30.469366 0.983874 1.912537 0.092729 -0.010753 -275810.000000 0 0 1
-16.488998 -22.908994 -11.215515 30.372633 0.946931 1.949013 0.105611 -0.009772 -427352.000000 0 0 1
-17.771898 -23.326994 -11.583015 31.530228 0.919748 1.946968 0.106136 -0.017414 -477225.000000 0 0 1
-17.969298 -23.094094 -12.995215 32.017315 0.909558 1.988739 0.110562 -0.025475 1414670.000000 0 0 1
-19.469998 -23.520594 -13.434115 33.358277 0.879341 1.985285 0.091862 -0.011105 1808850.000000 0 0 1
-19.863298 -24.884794 -13.500815 34.584326 0.897148 1.971834 0.111912 -0.020763 45491.600000 0 0 1
-19.739098 -25.578894 -12.279115 34.564266 0.913555 1.933983 0.117202 -0.024289 -1050620.000000 0 0 1
-19.814498 -27.101194 -12.480415 35.816893 0.939482 1.926714 0.111735 -0.031262 283699.000000 0 0 1
-18.964998 -27.653094 -13.472715 36.136946 0.969652 1.952847 0.106615 -0.028714 421811.000000 0 0 1
-17.562598 -27.453694 -13.432915 35.250438 1.001684 1.961751 0.115225 -0.032176 -349635.000000 0 0 1
-16.725498 -28.647694 -13.769715 35.917095 1.042348 1.964244 0.098051 -0.026906 -516013.000000 0 0 1
-16.790398 -28.914594 -15.141915 36.704888 1.044697 1.996027 0.083012 -0.026887 -117175.000000 0 0 1
-15.916098 -29.927394 -15.567615 37.300426 1.082015 2.001332 0.103541 -0.023144 -6812.130000 0 0 1
-16.459098 -31.373794 -15.313815 38.597018 1.087653 1.978783 0.098957 -0.030032 -247272.000000 0 0 1
-16.554198 -31.744194 -13.948215 38.422494 1.090107 1.942306 0.100659 -0.025670 -78067.400000 0 0 1
-17.052198 -33.040494 -13.792015 39.656921 1.094352 1.926002 0.072591 -0.018238 -786577.000000 0 0 1
-17.751598 -33.264794 -12.423815 39.699080 1.080596 1.889093 0.086683 -0.023143 6404.760000 0 0 1
-19.085998 -32.790794 -12.403315 39.916835 1.043677 1.886756 0.092315 -0.018514 191052.000000 0 0 1
-19.378998 -31.382194 -12.466315 38.933234 1.017597 1.896734 0.099140 -0.019298 -547652.000000 0 0 1
-18.756898 -30.546694 -11.313915 37.588914 1.020117 1.876528 0.110726 -0.028614 -154922.000000 0 0 1
-19.382198 -30.759694 -10.072115 37.726329 1.008526 1.841053 0.106726 -0.028627 144269.000000 0 0 1
-18.807698 -29.844994 -9.206215 36.458299 1.008481 1.826073 0.104871 -0.027635 -72200.500000 0 0 1
-19.190198 -30.094694 -7.748415 36.523859 1.003145 1.784567 0.105528 -0.030880 12068.500000 0 0 1
-18.349098 -31.020794 -7.121415 36.738177 1.036643 1.765874 0.103694 -0.030878 -135716.000000 0 0 1
-18.632098 -31.133594 -5.745615 36.735104 1.031513 1.727848 0.116448 -0.037318 -74939.000000 0 0 1
-17.749698 -32.185194 -5.066115 37.102615 1.066813 1.707768 0.105385 -0.025046 -31636.500000 0 0 1
-16.447198 -31.879494 -4.635615 36.170449 1.094496 1.699310 0.092488 -0.021925 135375.000000 0 0 1
-16.411698 -31.749094 -3.210415 35.883918 1.093706 1.660383 0.093600 -0.020408 -162799.000000 0 0 1
-15.069198 -31.257194 -2.661915 34.801993 1.121568 1.647359 0.089559 -0.017172 344071.000000 0 0 1
-13.926498 -32.081294 -2.879615 35.092007 1.161243 1.652948 0.066537 -0.012407 1417870.000000 0 0 1
-12.716898 -31.390494 -2.429515 33.955635 1.185884 1.642407 0.065825 -0.012376 1298460.000000 0 0 1
-11.363598 -32.094394 -2.544915 34.141735 1.230502 1.645405 0.061469 -0.019880 -622772.000000 0 0 1
-11.260798 -33.107194 -1.578615 35.005484 1.242940 1.615908 0.067938 -0.013861 1219570.000000 0 0 1
-9.928098 -33.716394 -1.571815 35.182851 1.284431 1.615487 0.079459 -0.023382 720672.000000 0 0 1
-8.897198 -32.937994 -0.829015 34.128564 1.306973 1.595090 0.083323 -0.024537 -1555600.000000 0 0 1
-9.160098 -32.680794 0.543185 33.944613 1.297519 1.554794 0.081557 -0.025678 -183108.000000 0 0 1
-8.034498 -32.277494 1.302185 33.287918 1.326835 1.531668 0.080489 -0.025584 436973.000000 0 0 1
-7.092698 -33.444494 1.728585 34.231982 1.361819 1.520279 0.094640 -0.022361 -45795.700000 0 0 1
-7.735898 33.919077 2.668085 34.892214 -1.346562 1.494255 0.106261 -0.031541 -66875.600000 0 0 1
-6.976398 32.855277 3.213485 33.741160 -1.361567 1.475412 0.095736 -0.024167 -188192.000000 0 0 1
-6.233698 33.170177 4.561285 34.057671 -1.385032 1.436464 0.108562 -0.028652 -621404.000000 0 0 1
-5.146298 33.978877 4.345185 34.639993 -1.420483 1.445027 0.106383 -0.024037 -1131070.000000 0 0 1
-4.555598 -33.963994 5.596885 34.722205 1.437462 1.408900 0.099352 -0.018743 34205.700000 0 0 1
-3.293698 -33.088594 5.464285 33.698100 1.471581 1.407923 0.101492 -0.013757 16800.900000 0 0 1
-3.579198 -31.795094 4.959685 32.378035 1.458697 1.417010 0.099943 -0.007483 118373.000000 0 0 1
-3.518498 -31.794094 3.544985 32.184020 1.460580 1.460425 0.100271 -0.020974 -241947.000000 0 0 1
-3.959498 -30.490294 2.869285 30.879904 1.441658 1.477745 0.095691 -0.024489 -49388.500000 0 0 1
-3.113898 -29.396694 3.114485 29.724771 1.465263 1.465826 0.093488 -0.021232 -65641.300000 0 0 1
-3.497798 -28.309994 2.335585 28.620715 1.447866 1.489101 0.096714 -0.026821 535389.000000 0 0 1
-2.750198 -27.011894 2.851185 27.300829 1.469332 1.466170 0.095252 -0.029293 486295.000000 0 0 1
-3.125898 -25.899994 2.052585 26.168570 1.450686 1.492279 0.104818 -0.028322 -305979.000000 0 0 1
-2.860798 -24.722094 2.764585 25.040148 1.455590 1.460165 0.074255 -0.023238 -348358.000000 0 0 1
-4.005098 -24.058694 3.535285 24.644671 1.405837 1.426849 0.050597 -0.024163 -449069.000000 0 1 0
-4.343998 -24.825994 4.665285 25.631332 1.397572 1.387761 0.091379 -0.026056 -146078.000000 0 0 1
-5.196298 -24.037494 5.475985 25.195020 1.357898 1.351704 0.062224 -0.019313 -403815.000000 0 0 1
-5.949798 -24.970994 6.389585 26.453307 1.336889 1.326842 0.072826 -0.011841 -141524.000000 0 0 1
-5.101098 -25.509194 7.423185 27.052613 1.373429 1.292833 0.083117 -0.017190 367294.000000 0 0 1
-5.858698 -26.331994 8.303885 28.225038 1.351869 1.272175 0.078416 -0.013387 194458.000000 0 0 1
-5.152398 -26.977294 9.548285 29.077334 1.382079 1.236213 0.066311 -0.009682 -156626.000000 0 0 1
-4.773998 -26.120694 10.616585 28.597091 1.390025 1.190445 0.071207 -0.012335 -66661.700000 0 0 1
-5.760998 -25.608994 11.499885 28.657582 1.349520 1.157876 0.062763 -0.015348 -423166.000000 0 0 1
-5.199798 -24.497894 12.394185 27.942808 1.361645 1.111234 0.073973 -0.013009 -556352.000000 0 0 1
-4.272498 -25.075594 13.209885 28.662532 1.402032 1.091814 0.076012 -0.013237 -1019060.000000 0 0 1
-3.727798 -24.127894 14.116185 28.201391 1.417507 1.046563 0.077386 -0.022357 93866.900000 0 0 1
-2.691598 -24.799894 15.035385 29.126315 1.462687 1.028373 0.077955 -0.026975 -160176.000000 0 0 1
-3.223098 -25.656194 16.042585 30.430136 1.445825 1.015501 0.070862 -0.027308 -484289.000000 0 0 1
-2.247798 -26.385594 16.718085 31.316873 1.485811 1.007665 0.068498 -0.020016 -299780.000000 0 0 1
-2.671098 -26.742094 18.143785 32.426398 1.471243 0.976969 0.069406 -0.031107 -10199.800000 0 0 1
-2.676698 -25.615594 19.010085 32.011040 1.466679 0.934948 0.076790 -0.029409 -129084.000000 0 0 1
-2.842998 -26.057894 20.322785 33.167937 1.462123 0.911294 0.078572 -0.029318 32707.700000 0 0 1
-2.828598 -24.825494 21.247685 32.798936 1.457346 0.866082 0.089001 -0.038586 47208.500000 0 0 1
-2.747998 -25.058694 22.642585 33.884750 1.461570 0.838978 0.077187 -0.039682 12982.000000 0 0 1
-3.116198 -23.938394 23.479085 33.675285 1.441349 0.799284 0.088302 -0.036199 745235.000000 0 0 1
-2.105698 -22.706394 23.433185 32.697530 1.478325 0.771787 0.094794 -0.037095 441847.000000 0 0 1
-2.213998 -22.024594 22.193085 31.345136 1.470609 0.784101 0.098808 -0.027494 -469482.000000 0 0 1
-1.172898 -21.152394 21.845685 30.430797 1.515403 0.770043 0.094490 -0.025975 -370439.000000 0 0 1
-1.557998 -19.970594 20.882185 28.936441 1.492939 0.764603 0.102541 -0.001025 420364.000000 0 0 1
-2.358098 -18.856794 21.370885 28.598147 1.446389 0.726834 0.102329 -0.017997 720799.000000 0 0 1
-3.711298 -19.044694 21.720485 29.124793 1.378335 0.729102 0.126994 -0.025165 133924.000000 0 0 1
-4.833898 -19.045594 20.671985 28.520732 1.322238 0.760044 0.121877 -0.038216 -48105.000000 0 0 1
-4.724098 -20.229494 19.876785 28.751280 1.341382 0.807460 0.124788 -0.036071 -45133.800000 0 0 1
-5.548098 -21.350794 20.234885 29.934735 1.316565 0.828521 0.114952 -0.023974 304224.000000 0 0 1
-5.415898 -22.461694 19.121185 29.991321 1.334195 0.879473 0.105390 -0.018278 232745.000000 0 0 1
-6.062798 -23.696294 19.435585 31.241220 1.320315 0.899357 0.086137 -0.020093 -68999.200000 0 0 1
-5.914398 -24.532794 18.288085 31.165560 1.334229 0.943690 0.087588 -0.020730 -29050.500000 0 0 1
-6.790798 -25.792894 18.323685 32.359632 1.313357 0.968846 0.068991 -0.026335 1483300.000000 0 0 1
-8.223898 -25.543794 18.391085 32.532290 1.259323 0.969978 0.074143 -0.033340 958301.000000 0 0 1
-8.878498 -26.714794 17.943185 33.383616 1.249937 1.003345 0.064992 -0.034152 -713232.000000 0 0 1
-10.385298 -26.611594 18.024185 33.777250 1.198719 1.007922 0.082920 -0.036363 -1409360.000000 0 0 1
-11.008498 -25.872294 16.970485 32.841437 1.168508 1.027758 0.089807 -0.036117 173599.000000 0 0 1
-12.418398 -25.870894 17.083085 33.396880 1.123265 1.033847 0.077925 -0.037014 341993.000000 0 0 1
-13.074098 -25.056794 18.221885 33.627549 1.089878 0.998131 0.077633 -0.037293 -920594.000000 0 0 1
-13.050898 -23.662794 17.922285 32.426256 1.066774 0.985185 0.072143 -0.032367 -53323.900000 0 0 1
-13.125998 -22.774394 18.992685 32.429723 1.047949 0.945106 0.070100 -0.026983 21054.400000 0 0 1
-11.816198 -22.075294 19.483385 31.726069 1.079334 0.909535 0.049808 -0.027730 375557.000000 0 0 1
-11.126798 -22.886194 20.415385 32.624706 1.118266 0.894685 0.057186 -0.032401 787753.000000 0 0 1
-9.700198 -22.902394 20.212685 32.049433 1.170159 0.888377 0.066207 -0.039026 1057390.000000 0 0 1
-9.060598 -23.961594 21.133785 33.209777 1.209284 0.881010 0.061908 -0.031902 -31775.900000 0 0 1
-9.144898 -23.680794 22.542585 33.949629 1.202266 0.844639 0.054070 -0.026601 71227.100000 0 0 1
-8.255398 -24.470194 23.295185 34.779414 1.245421 0.836860 0.064859 -0.029878 62984.600000 0 0 1
-8.205198 -24.063894 24.783085 35.504895 1.242184 0.798169 0.065786 -0.027138 1139.360000 0 0 1
-7.082598 -24.617494 25.439285 36.101820 1.290656 0.788861 0.076400 -0.029018 46007.900000 0 0 1
-6.873898 -23.959694 26.671085 36.505673 1.291406 0.751594 0.080166 -0.028190 185534.000000 0 0 1
-5.695498 -24.577594 27.482185 37.306398 1.343080 0.742676 0.070850 -0.029503 702564.000000 0 0 1
-4.435698 -24.185994 26.942685 36.476650 1.389413 0.739763 0.069507 -0.025080 252261.000000 0 0 1
-3.367098 -24.261294 27.885985 37.115709 1.432892 0.720728 0.053779 -0.022759 315846.000000 0 0 1
-2.043198 -23.795894 27.272185 36.251776 1.485143 0.719251 0.050372 -0.024227 -1015820.000000 0 0 1
-2.093598 -22.450094 26.871385 35.077930 1.477810 0.698126 0.062193 -0.019843 -685915.000000 0 0 1
-0.913798 -21.727494 26.764185 34.485368 1.528764 0.682335 0.066263 -0.021593 -242696.000000 0 0 1
0.108502 -21.649894 27.927785 35.336820 -1.565785 0.659447 0.063780 -0.025037 -87025.200000 0 0 1
0.774502 -22.866694 28.306985 36.397403 -1.536939 0.679766 0.065606 -0.025352 -16643.100000 0 0 1
1.596402 -22.545194 29.403685 37.086533 -1.500105 0.655341 0.052455 -0.034197 -438243.000000 0 0 1
2.239602 -23.800094 29.955585 38.324892 -1.476972 0.673534 0.069020 -0.041895 -746158.000000 0 0 1
3.195602 -24.381494 29.105485 38.102472 -1.440473 0.701502 0.070961 -0.047648 34634.300000 0 0 1
3.782502 -25.563094 29.631785 39.316940 -1.423895 0.717176 0.063993 -0.036292 -306349.000000 0 0 1
5.027902 -25.280694 30.540385 39.963839 -1.374475 0.700996 0.057347 -0.037742 -142151.000000 0 0 1
6.150602 -24.701194 29.930485 39.291383 -1.326759 0.704776 0.057545 -0.037740 -42056.200000 0 0 1
6.908702 -25.679594 29.213385 39.504349 -1.307984 0.738472 0.054406 -0.036862 -891005.000000 0 0 1
8.248002 -25.143794 28.699385 39.037093 -1.253823 0.744861 0.048141 -0.024010 -478282.000000 0 0 1
8.093002 -24.184094 27.710985 37.659869 -1.247869 0.743916 0.056325 -0.030128 29323.800000 0 0 1
9.248502 -24.044394 26.917385 37.258734 -1.203599 0.763464 0.036342 -0.010848 -114393.000000 0 0 1
9.009002 -22.957394 25.824585 35.708728 -1.196839 0.762370 0.044106 -0.006785 63154.900000 0 0 1
8.128802 -23.248394 24.759585 34.922805 -1.234433 0.782745 0.049043 -0.010342 16466.900000 0 0 1
7.817502 -22.063894 24.098785 33.595836 -1.230285 0.770856 0.038305 -0.009716 18295.300000 0 0 1
7.103502 -22.258694 22.752785 32.612857 -1.261879 0.798666 0.038882 -0.007043 248701.000000 0 0 1
7.910802 -22.951794 21.796585 32.626013 -1.238877 0.839179 0.042991 -0.006202 347995.000000 0 0 1
7.322102 -22.883394 20.505685 31.587118 -1.261117 0.864292 0.054089 -0.014695 117509.000000 0 0 1
7.991002 -24.026594 19.666385 32.060880 -1.249715 0.910428 0.059076 -0.027371 -399355.000000 0 0 1
9.267502 -23.630794 19.318385 31.898292 -1.197050 0.920246 0.052868 -0.018885 -1039710.000000 0 0 1
9.930002 -24.535194 18.433385 32.254773 -1.186223 0.962472 0.058292 -0.027998 88717.700000 0 0 1
11.321502 -24.040294 18.029485 32.111905 -1.130667 0.974650 0.054544 -0.021169 -116009.000000 0 0 1
11.186402 -23.008994 17.015085 30.725600 -1.118270 0.983905 0.058674 -0.015378 -44693.500000 0 0 1
12.352602 -22.877694 16.220885 30.644620 -1.075709 1.012995 0.064078 -0.019816 109207.000000 0 0 1
-12.327398 22.617677 11.692885 28.288648 -1.071774 1.144675 0.022227 -0.017840 -107888.000000 0 0 1
-13.389098 21.888577 11.058585 27.940473 -1.021823 1.163867 0.012627 -0.012486 441574.000000 0 0 1
-13.003198 20.591477 10.650585 26.580577 -1.007548 1.158526 0.036255 -0.017697 -508705.000000 0 0 1
-13.988198 19.876677 9.739185 26.184035 -0.957558 1.189686 0.052431 -0.013964 -715513.000000 0 0 1
-14.112698 20.518777 8.460185 26.301391 -0.968309 1.243311 0.060173 -0.014357 -217387.000000 0 0 1
-14.827198 19.885777 7.445985 25.898506 -0.930105 1.279174 0.055295 -0.012439 -350108.000000 0 0 1
-16.352598 19.850177 7.533485 26.799074 -0.881710 1.285846 0.047110 -0.014830 -390778.000000 0 0 1
-16.991698 19.016977 8.493285 26.879344 -0.841583 1.249309 0.032071 -0.014136 1959680.000000 0 0 1
-18.449498 19.099877 8.596885 27.912286 -0.802717 1.257710 0.043077 -0.007960 1596400.000000 0 0 1
-18.831898 18.094877 9.649385 27.841975 -0.765442 1.216877 0.041412 -0.013374 -270882.000000 0 0 1
-18.546098 16.733777 9.200585 26.620064 -0.734073 1.217891 0.040166 -0.015601 252367.000000 0 0 1
-19.068498 15.729777 10.019485 26.672525 -0.689746 1.185700 0.051612 -0.024346 -161310.000000 0 0 1
-18.053198 15.082777 10.989185 25.964790 -0.695994 1.133784 0.050780 -0.016540 153258.000000 0 0 1
-17.206198 14.075377 10.413785 24.548247 -0.685645 1.132699 0.039446 -0.004063 424487.000000 0 1 0
-16.573198 13.159277 11.351985 24.014684 -0.671078 1.078433 0.029248 -0.004883 501530.000000 0 1 0
-17.555298 12.207377 12.099285 24.568297 -0.607610 1.055865 0.042258 -0.009007 -86405.100000 0 1 0
-18.220398 11.341577 11.259285 24.236043 -0.556775 1.087650 0.034838 -0.009560 -269956.000000 0 1 0
-19.108298 10.509277 11.968985 24.876265 -0.502832 1.068841 0.049588 -0.008050 168083.000000 0 1 0
-20.076098 9.631577 11.085185 24.873647 -0.447320 1.108885 0.052712 -0.013064 200183.000000 0 1 0
-19.472598 8.605277 10.296685 23.648564 -0.416112 1.120309 0.043843 -0.010865 181500.000000 0 1 0
-18.877098 9.072477 9.079085 22.827274 -0.448014 1.161755 0.054223 -0.009463 -189245.000000 0 1 0
-19.833798 9.543577 7.941185 23.399184 -0.448477 1.224540 0.061711 -0.017914 30339.300000 0 1 0
-20.637298 8.550877 7.365485 23.521606 -0.392808 1.252302 0.055859 -0.023050 71767.000000 0 1 0
-21.513598 9.104077 6.423685 24.227729 -0.400326 1.302450 0.063337 -0.013815 -140957.000000 0 1 0
-21.927698 8.046077 5.422785 23.978530 -0.351683 1.342671 0.080200 -0.014525 -286657.000000 0 1 0
-22.510498 6.937977 6.055985 24.321452 -0.298972 1.319151 0.076442 -0.013661 45737.600000 0 1 0
-22.339998 5.794377 5.202485 23.658321 -0.253780 1.349084 0.079610 -0.003635 -349772.000000 0 1 0
-23.233698 4.595877 5.509085 24.316185 -0.195290 1.342252 0.089289 -0.012965 -675413.000000 0 1 0
-24.538398 4.728677 5.034385 25.491928 -0.190372 1.372000 0.121239 -0.006787 -329370.000000 0 0 1
-25.154358 3.433877 5.089385 25.892761 -0.135674 1.372952 0.127970 -0.016610 -551925.000000 0 0 1
-26.194128 3.307577 3.998185 26.703144 -0.125607 1.420504 0.130262 -0.020013 -812453.000000 0 0 1
-25.676638 3.139977 2.735885 26.012195 -0.121685 1.465424 0.129225 -0.016605 220306.000000 0 0 1
-26.716818 2.946177 1.811085 26.939717 -0.109830 1.503518 0.138131 -0.024937 -114162.000000 0 0 1
-26.218568 2.933577 0.344085 26.384419 -0.111426 1.557755 0.147724 -0.034909 -453709.000000 0 0 1
-25.685938 4.144377 -0.116915 26.018396 -0.159969 1.575290 0.140989 -0.037111 370805.000000 0 0 1
-25.572108 4.126877 -1.530515 25.948147 -0.160002 1.629814 0.143912 -0.035805 -430159.000000 0 0 1
-26.828498 4.628977 -2.286515 27.320759 -0.170857 1.654586 0.166091 -0.045359 -43730.100000 0 0 1
-27.916408 3.786077 -1.992615 28.242357 -0.134799 1.641409 0.157886 -0.049870 458503.000000 0 0 1
-29.131028 4.547577 -1.787715 29.537996 -0.154858 1.631356 0.138788 -0.032623 643131.000000 0 0 1
-30.371748 3.637477 -1.698015 30.635887 -0.119197 1.626250 0.136183 -0.032016 -323055.000000 0 0 1
-30.642898 2.911177 -2.880815 30.915389 -0.094719 1.664116 0.135697 -0.039635 42299.500000 0 0 1
-31.574518 1.895377 -2.661715 31.743147 -0.059957 1.654747 0.151271 -0.044048 -367948.000000 0 0 1
-31.975428 1.232477 -4.004715 32.248795 -0.038525 1.695300 0.144939 -0.063230 -142558.000000 0 0 1
-30.890258 0.611677 -4.689815 31.250225 -0.019799 1.721438 0.149433 -0.052578 258746.000000 0 0 1
-31.120808 -0.133823 -5.900915 31.675597 0.004300 1.758183 0.147808 -0.049158 -383312.000000 0 0 1
-31.692288 0.653977 -7.180815 32.502199 -0.020632 1.793568 0.137028 -0.039745 235927.000000 0 0 1
-33.017178 1.150877 -7.079215 33.787185 -0.034843 1.781884 0.144175 -0.052189 273310.000000 0 0 1
-33.304778 1.841277 -8.245715 34.359720 -0.055229 1.813144 0.125474 -0.039930 -525419.000000 0 0 1
-34.792141 2.183877 -8.363815 35.849907 -0.062687 1.806267 0.139856 -0.035690 -471280.000000 0 0 1
-35.239887 3.006977 -7.361015 36.125837 -0.085123 1.775994 0.117430 -0.029422 -955874.000000 0 0 1
-36.608498 3.169177 -7.389515 37.481072 -0.086354 1.769250 0.120084 -0.021057 -1401540.000000 0 0 1
36.343955 3.924677 -6.298815 37.093951 0.107570 1.741430 0.141993 -0.036952 1271260.000000 0 0 1
34.883725 3.896177 -6.438815 35.686311 0.111229 1.752218 0.146671 -0.041129 1710700.000000 0 0 1
34.321335 4.499077 -5.297115 35.017926 0.130344 1.722648 0.142925 -0.039637 855143.000000 0 0 1
32.847475 4.050777 -4.970115 33.467409 0.122701 1.719854 0.142903 -0.045866 699534.000000 0 0 1
32.871735 2.679277 -4.585015 33.297926 0.081327 1.708932 0.150910 -0.045056 -653287.000000 0 0 1
31.618415 2.099977 -4.557315 32.014109 0.066319 1.713635 0.145332 -0.048692 -880801.000000 0 0 1
31.612515 0.774477 -3.695315 31.837184 0.024494 1.687128 0.161754 -0.039062 -65188.000000 0 0 1
32.587215 -0.180823 -4.094115 32.843889 -0.005549 1.695775 0.134459 -0.045184 157261.000000 0 0 1
32.549495 -1.427123 -3.443515 32.762236 -0.043817 1.676097 0.138377 -0.030682 -116393.000000 0 0 1
33.739205 -2.331623 -3.805415 34.033096 -0.068998 1.682846 0.134772 -0.033331 -73206.200000 0 0 1
33.706225 -3.542123 -3.100215 34.033330 -0.104704 1.662016 0.119814 -0.025874 -256031.000000 0 0 1
34.771115 -4.324823 -3.535915 35.217002 -0.123744 1.671369 0.140924 -0.026251 -128476.000000 0 0 1
34.563205 -5.758323 -3.062315 35.173160 -0.165086 1.657971 0.132458 -0.018881 187734.000000 0 0 1
34.487775 -5.926123 -1.615015 35.030470 -0.170171 1.616916 0.132932 -0.012724 3233.720000 0 0 1
34.660325 -7.263623 -1.353815 35.439119 -0.206576 1.609007 0.129687 -0.020572 -36332.000000 0 0 1
34.319705 -7.649123 0.103285 35.161938 -0.219294 1.567859 0.117811 -0.012568 -249854.000000 0 0 1
32.943185 -7.500623 0.341985 33.788012 -0.223867 1.560675 0.093940 -0.019605 -121933.000000 0 0 1
32.475315 -7.720023 1.682285 33.422671 -0.233388 1.520441 0.094126 -0.027252 -244769.000000 0 0 1
32.294605 -9.273423 2.005585 33.659475 -0.279627 1.511176 0.106771 -0.028801 -91946.100000 0 0 1
31.140055 -9.949323 1.558185 32.727969 -0.309252 1.523168 0.102038 -0.033428 1075800.000000 0 0 1
29.878645 -9.616223 2.167985 31.462761 -0.311374 1.501835 0.082823 -0.042039 1291870.000000 0 0 1
28.596155 -10.358123 1.623885 30.457639 -0.347520 1.517455 0.109553 -0.035879 1762450.000000 0 0 1
27.300305 -10.128723 2.292585 29.208793 -0.355269 1.492226 0.146210 -0.044180 2033550.000000 0 0 1
26.584705 -9.015423 1.812785 28.130243 -0.326950 1.506309 0.140379 -0.039353 -227308.000000 0 0 1
25.910605 -9.155623 0.445185 27.484233 -0.339660 1.554598 0.135466 -0.029294 -676156.000000 0 0 1
26.876405 -9.045123 -0.580715 28.363579 -0.324638 1.591272 0.119304 -0.037893 638311.000000 0 0 1
26.329305 -9.242623 -1.915315 27.970106 -0.337600 1.639327 0.104813 -0.036131 -176100.000000 0 0 1
25.730405 -10.586923 -2.353615 27.922682 -0.390343 1.655187 0.095374 -0.022080 -890985.000000 0 0 1
24.441905 -10.755823 -1.870015 26.769225 -0.414554 1.640710 0.122576 -0.017033 -595250.000000 0 0 1
24.123705 -12.120823 -2.033315 27.074007 -0.465601 1.645969 0.102485 -0.010996 414215.000000 0 0 1
22.671005 -12.456423 -1.555315 25.914396 -0.502415 1.630850 0.117520 -0.007749 567681.000000 0 0 1
21.664105 -12.015223 -2.443015 24.893118 -0.506379 1.669095 0.099450 -0.008861 120605.000000 0 1 0
20.403305 -12.476323 -2.014215 24.000220 -0.548822 1.654820 0.115804 -0.008546 -473913.000000 0 1 0
19.175005 -11.929023 -2.706115 22.744350 -0.556521 1.690059 0.099982 -0.007608 -469724.000000 0 1 0
19.095205 -12.333923 -4.078215 23.095115 -0.573500 1.748311 0.084954 -0.015521 286450.000000 0 1 0
18.042005 -11.659823 -4.731615 21.996672 -0.573741 1.787597 0.075592 -0.022278 -196601.000000 0 1 0
17.857105 -12.181023 -6.145815 22.472751 -0.598638 1.847804 0.067823 -0.029980 -259645.000000 0 1 0
17.439705 -13.546323 -6.366315 22.982083 -0.660404 1.851479 0.078765 -0.022591 409682.000000 0 1 0
17.393405 -13.772123 -7.760915 23.503908 -0.669722 1.907308 0.066167 -0.027976 -352708.000000 0 1 0
16.856305 -15.122523 -8.232115 24.095507 -0.731235 1.919463 0.071660 -0.021030 394502.000000 0 1 0
15.439505 -15.314623 -8.302215 23.277516 -0.781338 1.935489 0.075470 -0.011896 750040.000000 0 1 0
15.085105 -16.454723 -9.056415 24.090184 -0.828796 1.956205 0.076988 -0.010642 -197127.000000 0 1 0
14.745105 -16.153423 -10.591415 24.300808 -0.830945 2.021775 0.076718 -0.016657 304900.000000 0 1 0
13.444905 -15.591023 -10.835815 23.265003 -0.859177 2.055285 0.064933 -0.004659 667216.000000 0 1 0
13.347505 -14.194023 -10.446815 22.107965 -0.816125 2.062963 0.047999 -0.004229 -454530.000000 0 1 0
13.284405 -13.234923 -11.637215 22.069512 -0.783532 2.126214 0.052288 0.009072 -207799.000000 0 1 0
14.489805 -13.225123 -12.371315 23.192839 -0.739798 2.133424 0.063459 0.000488 121384.000000 0 1 0
14.320105 -12.366623 -13.468015 23.224689 -0.712328 2.189403 0.082742 -0.013632 140951.000000 0 1 0
15.560405 -11.901223 -14.277915 24.240961 -0.652931 2.200617 0.088842 -0.024894 201759.000000 0 1 0
16.384605 -12.898423 -14.851615 25.600685 -0.666905 2.189679 0.088200 -0.023415 191317.000000 0 0 1
17.571505 -12.312923 -15.340615 26.376132 -0.611217 2.191502 0.090504 -0.026232 885576.000000 0 0 1
18.745005 -13.298423 -15.774615 27.875827 -0.617032 2.172307 0.079610 -0.012480 806344.000000 0 0 1
19.519505 -13.778223 -14.682515 28.043301 -0.614654 2.121827 0.068466 -0.033461 404762.000000 0 0 1
20.592605 -14.655823 -15.042415 29.412970 -0.618537 2.107634 0.056332 -0.021870 306978.000000 0 0 1
21.658605 -14.756123 -13.919415 29.674711 -0.598069 2.059030 0.049048 -0.022520 -68938.900000 0 0 1
22.394505 -13.567223 -13.940115 29.663280 -0.544694 2.060025 0.054785 -0.020777 353940.000000 0 0 1
23.519705 -13.432023 -13.050915 30.065298 -0.518896 2.019819 0.046130 -0.015850 758563.000000 0 0 1
24.200105 -12.083823 -13.265915 30.127203 -0.463111 2.026763 0.061033 -0.013576 -746568.000000 0 0 1
23.368205 -11.060623 -12.821115 28.858125 -0.442076 2.031168 0.060187 -0.007106 -74234.400000 0 0 1
23.893805 -9.748923 -12.808915 28.810132 -0.387393 2.031521 0.072534 -0.012018 -352427.000000 0 0 1
24.931405 -9.411423 -11.740015 29.120058 -0.360954 1.985763 0.068718 -0.011952 307930.000000 0 0 1
26.245205 -9.902823 -11.982015 30.503203 -0.360802 1.974483 0.079316 -0.004690 749855.000000 0 0 1
27.118005 -9.664423 -10.855615 30.767379 -0.342351 1.931389 0.086297 -0.005506 653166.000000 0 0 1
28.505105 -10.352623 -11.058015 32.279986 -0.348372 1.920443 0.105315 -0.000435 110955.000000 0 0 1
29.193875 -9.776423 -12.101815 33.080428 -0.323141 1.945321 0.097553 -0.005048 -65472.400000 0 0 1
30.334175 -10.529023 -12.494415 34.454795 -0.334090 1.941887 0.088123 -0.005336 703072.000000 0 0 1
31.255345 -9.922623 -13.603915 35.502416 -0.307406 1.964036 0.081428 -0.002565 341399.000000 0 0 1
30.767045 -10.234123 -14.897615 35.683151 -0.321120 2.001486 0.073385 -0.003112 717932.000000 0 0 1
31.510255 -9.533223 -15.955515 36.583561 -0.293789 2.022100 0.056011 -0.004458 318382.000000 0 0 1
31.254915 -10.144723 -17.367815 37.167541 -0.313852 2.057013 0.015296 -0.001088 367526.000000 0 0 1
29.926865 -10.164223 -17.882515 36.314088 -0.327412 2.085688 0.037887 -0.003948 371336.000000 0 0 1
29.722915 -9.035523 -18.646115 36.232167 -0.295115 2.111371 0.014568 -0.001746 87215.400000 0 0 1
28.234305 -8.957823 -19.089115 35.239366 -0.307222 2.143253 -0.011972 -0.000147 251512.000000 0 0 1
27.766605 -9.796323 -20.122915 35.663483 -0.339176 2.170314 -0.017069 0.009829 -650382.000000 0 0 1
26.402505 -9.589523 -20.255515 34.631447 -0.348390 2.195538 0.034796 0.015215 -878179.000000 0 0 1
25.911605 -10.055423 -21.606315 35.204483 -0.370177 2.231582 0.053245 -0.005089 -215443.000000 0 0 1
25.658005 -11.443123 -21.612015 35.445133 -0.419511 2.226518 0.045353 -0.000027 121550.000000 0 0 1
25.053505 -11.902323 -22.814415 35.914356 -0.443510 2.259122 0.062111 -0.011367 -789802.000000 0 0 1
25.476705 -13.301123 -23.391415 37.055913 -0.481163 2.253956 0.053447 -0.005022 603180.000000 0 0 1
26.653505 -13.496723 -24.188815 38.440469 -0.468736 2.251389 0.045030 -0.003415 276264.000000 0 0 1
27.828005 -13.219723 -23.469915 38.729780 -0.443490 2.221808 0.019757 0.003562 -1200760.000000 0 0 1
29.100425 -13.900023 -23.933815 40.160589 -0.445614 2.209248 0.007738 0.004766 -358919.000000 0 0 1
29.531855 -13.418823 -25.201535 41.076911 -0.426494 2.231308 0.014199 -0.010116 -1080180.000000 0 0 1
30.883965 -13.643823 -25.321865 42.203910 -0.415995 2.214283 -0.009775 -0.009092 -1186880.000000 0 0 1
31.518715 -13.121623 -26.600265 43.280255 -0.394489 2.232682 0.010336 -0.006905 -184427.000000 0 0 1
31.209795 -13.888723 -27.730925 43.999456 -0.418698 2.252679 0.021340 -0.016753 87822.900000 0 0 1
32.063495 -13.530223 -28.793725 45.168720 -0.399312 2.262007 0.016612 -0.012395 113207.000000 0 0 1
31.871275 -14.473123 -30.011225 46.107734 -0.426268 2.279557 0.026851 -0.021684 214679.000000 0 0 1
32.556615 -15.730823 -29.913145 46.927478 -0.450104 2.261959 0.036571 -0.016075 -102524.000000 0 0 1
32.544705 -16.518323 -31.098725 47.949385 -0.469676 2.276506 0.006608 -0.015060 110889.000000 0 0 1
31.218785 -17.089823 -31.681845 47.648860 -0.500861 2.298160 0.006930 -0.006948 515015.000000 0 0 1
30.420685 -16.082123 -32.327195 47.213349 -0.486310 2.324995 0.010916 -0.008334 -268319.000000 0 0 1
29.262565 -16.633023 -32.871555 47.047787 -0.516865 2.344353 0.019719 -0.006972 -296328.000000 0 0 1
28.691125 -15.800823 34.029813 47.232138 -0.503397 0.766302 0.054458 -0.007457 152123.000000 0 0 1
28.012905 -14.605723 -33.687455 46.183272 -0.480615 2.388284 0.068956 -0.013586 -93252.700000 0 0 1
28.797615 -13.454223 -33.876565 46.453637 -0.437064 2.388029 0.074629 -0.015162 55834.100000 0 0 1
28.063505 -12.171923 -33.341795 45.248109 -0.409240 2.399219 0.083680 -0.021144 952750.000000 0 0 1
26.766605 -11.921423 -33.887985 44.799185 -0.419009 2.428652 0.091531 -0.019809 239495.000000 0 0 1
26.349305 -10.610123 -33.597755 43.996247 -0.382808 2.439745 0.069791 -0.031827 94766.200000 0 0 1
21.009502 -29.434294 8.956785 37.255883 -0.950884 1.328005 0.057671 -0.032042 -58518.800000 0 0 1
21.654702 -29.101794 7.740085 37.091097 -0.931081 1.360574 0.058973 -0.030855 -1185610.000000 0 0 1
22.801002 -29.817194 7.620485 38.301730 -0.917958 1.370500 0.058842 -0.025705 -1137190.000000 0 0 1
23.414502 -29.512194 6.240685 38.185791 -0.900103 1.406630 0.050346 -0.017998 -317093.000000 0 0 1
23.715702 -28.190894 6.008885 37.326502 -0.871402 1.409111 0.047345 -0.004852 176384.000000 0 0 1
24.542802 -27.982394 4.864285 37.536979 -0.850789 1.440844 0.039615 0.007216 -56730.100000 0 0 1
24.622602 -26.491394 4.507885 36.447051 -0.821943 1.446796 0.032799 0.001491 173471.000000 0 0 1
25.398902 -25.725994 5.436785 36.558031 -0.791796 1.421526 0.047294 -0.004405 141898.000000 0 0 1
25.254702 -24.311394 5.289885 35.451752 -0.766369 1.421023 0.045765 0.002457 265678.000000 0 0 1
26.178402 -23.393794 6.176985 35.647349 -0.729284 1.396637 0.047475 -0.004256 1102990.000000 0 0 1
27.553302 -23.307994 5.781185 36.549543 -0.702123 1.411955 0.041172 0.002969 970751.000000 0 0 1
28.451202 -22.456894 6.509085 36.825958 -0.668190 1.393110 0.057599 -0.011164 578312.000000 0 0 1
28.179202 -20.953694 6.641185 35.738355 -0.639384 1.383882 0.065631 -0.011848 -381890.000000 0 0 1
28.126402 -20.302594 5.377885 35.102870 -0.625230 1.416987 0.057598 0.004402 134755.000000 0 0 1
27.537402 -19.011394 5.424185 33.899312 -0.604243 1.410097 0.068312 -0.003198 -137337.000000 0 0 1
27.636402 -18.214994 4.088685 33.350773 -0.582742 1.447891 0.082343 -0.001813 333163.000000 0 0 1
28.960602 -17.890294 3.687085 34.239943 -0.553366 1.462903 0.102857 -0.006704 270051.000000 0 0 1
28.999002 -17.093894 2.527985 33.756985 -0.532637 1.495838 0.099101 -0.003978 3629.090000 0 0 1
30.156202 -16.087094 2.495785 34.269812 -0.490055 1.497904 0.110002 -0.021784 49862.000000 0 0 1
29.893802 -15.148694 3.481885 33.693409 -0.469033 1.467271 0.114837 -0.027693 -326137.000000 0 0 1
30.844502 -14.149494 3.504785 34.115612 -0.430095 1.467882 0.096447 -0.030873 -366825.000000 0 0 1
30.540502 -13.037394 4.517985 33.512805 -0.403469 1.435571 0.100703 -0.029713 82512.500000 0 0 1
30.485502 -13.473594 5.865185 33.842340 -0.416154 1.396608 0.088119 -0.021012 -30904.000000 0 0 1
29.970702 -12.478894 6.681185 33.145196 -0.394538 1.367832 0.076878 -0.018867 -265776.000000 0 0 1
29.857102 -12.912394 8.205585 33.548593 -0.408183 1.323702 0.082247 -0.015348 497875.000000 0 0 1
28.703402 -13.760294 8.432185 32.929208 -0.447029 1.311842 0.059346 -0.013685 835059.000000 0 0 1
28.116602 -13.468194 9.723085 32.656912 -0.446717 1.268478 0.082299 -0.009917 221574.000000 0 0 1
28.522902 -14.423694 10.869185 33.760007 -0.468188 1.243003 0.072520 -0.010949 -1332740.000000 0 0 1
29.858902 -14.394294 11.150285 34.972540 -0.449207 1.246302 0.053965 -0.009145 -1465210.000000 0 0 1
30.305902 -15.559894 11.787085 36.048486 -0.474332 1.237692 0.055037 -0.007989 362575.000000 0 0 1
31.131102 -15.256894 13.096985 37.060077 -0.455684 1.209595 0.051856 -0.007567 -701691.000000 0 0 1
32.499702 -15.171094 12.978485 38.142283 -0.436743 1.223598 0.041057 -0.006423 -846364.000000 0 0 1
33.125902 -14.888794 14.231385 39.006844 -0.422405 1.197332 0.034343 -0.008917 -177270.000000 0 0 1
34.644702 -14.733094 14.146785 40.217545 -0.402093 1.211349 0.051064 -0.011115 -547774.000000 0 0 1
35.063202 -13.498694 13.678185 39.984192 -0.367493 1.221656 0.057385 -0.012859 551441.000000 0 0 1
36.462602 -13.462994 13.411085 41.117280 -0.353700 1.238551 0.069700 -0.012547 122937.000000 0 0 1
-36.676601 -12.050394 13.042385 40.749097 0.317447 1.244998 0.071055 -0.016640 -1388320.000000 0 0 1
-35.380401 -12.104594 12.595585 39.458114 0.329644 1.245896 0.089711 -0.018710 -1234050.000000 0 0 1
-34.672501 -10.924294 12.843985 38.555032 0.305225 1.231171 0.088266 -0.025817 204939.000000 0 0 1
-33.263001 -10.893794 12.185885 37.062080 0.316496 1.235767 0.095022 -0.027298 704686.000000 0 0 1
-32.345401 -11.929694 12.580785 36.699029 0.353343 1.220890 0.088746 -0.021727 435738.000000 0 0 1
-32.435901 -13.081494 11.750785 36.895720 0.383350 1.246664 0.080977 -0.023595 -558413.000000 0 0 1
-31.500801 -14.238694 12.106385 36.627933 0.424525 1.233938 0.047356 -0.020439 918210.000000 0 0 1
-30.155301 -13.956794 11.675585 35.220073 0.433472 1.232899 0.056351 -0.016687 615540.000000 0 0 1
-29.276901 -15.058494 11.850085 34.990280 0.475059 1.225296 0.045719 -0.004185 318522.000000 0 0 1
-27.847001 -14.854194 11.307585 33.525573 0.490026 1.226768 0.035406 0.002703 14936.800000 0 0 1
-27.882901 -14.758894 9.874985 33.057472 0.486825 1.267443 0.043980 -0.001254 307630.000000 0 0 1
-26.616001 -15.082594 9.326085 31.982371 0.515555 1.274896 0.044837 -0.001707 188760.000000 0 0 1
-26.504601 -14.847594 7.786285 31.361938 0.510632 1.319901 0.072133 0.002195 122854.000000 0 0 1
-27.085301 -15.890594 7.001085 32.173587 0.530573 1.351438 0.078725 0.006203 223069.000000 0 0 1
-26.900101 -15.652594 5.635685 31.628786 0.526988 1.391658 0.090007 0.000001 -277186.000000 0 0 1
-27.296201 -16.812194 4.627585 32.390539 0.552041 1.427437 0.077707 0.000725 -181778.000000 0 0 1
-28.660901 -17.132094 4.610785 33.707792 0.538764 1.433579 0.057818 -0.011570 -340055.000000 0 0 1
-28.971901 -18.066094 3.606085 34.333055 0.557572 1.465570 0.055804 -0.007390 -56435.400000 0 0 1
-30.463401 -18.441994 3.685085 35.800919 0.544367 1.467681 0.068195 -0.018667 -217548.000000 0 0 1
-31.390401 -17.460994 3.332285 36.074198 0.507631 1.478291 0.079644 -0.019841 -67098.600000 0 0 1
-32.694701 -17.887094 3.707285 37.451777 0.500610 1.471646 0.091070 -0.027857 483753.000000 0 0 1
-33.863801 -17.046094 3.132485 38.041278 0.466342 1.488359 0.105185 -0.034191 256098.000000 0 0 1
-33.983201 -17.154494 1.690185 38.105004 0.467475 1.526426 0.115468 -0.035424 -272924.000000 0 0 1
-35.098201 -16.470594 1.188585 38.788876 0.438764 1.540149 0.130670 -0.037949 -214031.000000 0 0 1
-35.580401 -17.067794 -0.142315 39.462575 0.447273 1.574403 0.127365 -0.039497 -1085210.000000 0 0 1
-34.609001 -17.152194 -1.094615 38.641673 0.460121 1.599127 0.124121 -0.037377 -482903.000000 0 0 1
-35.015401 -17.785794 -2.289615 39.340248 0.469981 1.629030 0.118844 -0.035512 -2055.990000 0 0 1
-33.757201 -18.139994 -3.103015 38.447844 0.493092 1.651591 0.105666 -0.034587 147503.000000 0 0 1
-34.144401 -19.020894 -4.133515 39.302933 0.508257 1.676162 0.099909 -0.042648 562407.000000 0 0 1
-33.051601 -19.797994 -4.591315 38.800117 0.539686 1.689407 0.082592 -0.031902 -20486.400000 0 0 1
-33.580801 -20.795294 -5.652615 39.900708 0.554462 1.712942 0.096674 -0.035844 111722.000000 0 0 1
-34.429401 -21.743194 -5.052815 41.032683 0.563281 1.694251 0.112382 -0.039811 57225.900000 0 0 1
-34.914301 -22.752894 -5.952715 42.096763 0.577554 1.712677 0.101393 -0.032934 171592.000000 0 0 1
-35.348701 -24.157094 -5.431215 43.157780 0.599494 1.696976 0.112273 -0.031276 45890.400000 0 0 1
-34.320701 -24.997094 -4.913315 42.742320 0.629493 1.686003 0.103332 -0.031560 -246387.000000 0 0 1
-34.862001 -26.199794 -4.425815 43.833505 0.644479 1.671937 0.092589 -0.026428 1206210.000000 0 0 1
-33.785801 -27.287294 -3.867815 43.600881 0.679392 1.659623 0.061166 -0.024140 798333.000000 0 0 1
-32.826201 -27.682594 -4.841215 43.212531 0.700596 1.683065 0.054334 -0.023467 303648.000000 0 0 1
-32.088801 -28.866394 -4.583715 43.404727 0.732582 1.676598 0.046189 -0.021236 362033.000000 0 0 1
-30.947701 -28.819594 -3.528415 42.435586 0.749807 1.654040 0.057924 -0.025922 -763609.000000 0 0 1
-31.466601 -28.526494 -2.277215 42.533441 0.736430 1.624361 0.055795 -0.022342 -226572.000000 0 0 1
-30.570901 -28.685694 -1.192615 41.938901 0.753595 1.599237 0.056526 -0.019744 -491223.000000 0 0 1
-31.206201 -28.445094 0.148285 42.225257 0.739144 1.567285 0.055784 -0.016199 -285017.000000 0 0 1
-31.997801 -29.527794 0.556285 43.543764 0.745274 1.558021 0.043489 -0.010699 -281827.000000 0 0 1
-32.729301 -29.282894 1.716685 43.950450 0.729879 1.531727 0.061267 -0.009355 -32180.300000 0 0 1
-33.220101 -30.575494 2.455485 45.215765 0.743968 1.516464 0.043246 -0.005914 -582239.000000 0 0 1
-34.238101 -30.322894 3.386985 45.860628 0.724829 1.496875 0.042192 -0.004889 383244.000000 0 0 1
-34.773601 -31.561394 3.926285 47.124735 0.737012 1.487383 0.036315 0.007292 -13936.200000 0 0 1
-35.691501 -32.462994 3.112385 48.346832 0.738063 1.506376 0.029603 0.009623 -396985.000000 0 0 1
-36.441801 -33.490594 3.761485 49.636414 0.743222 1.494943 0.040584 0.001076 282822.000000 0 0 1
36.226002 -34.099094 2.841085 49.831147 -0.755163 1.513751 0.047920 -0.000269 -408235.000000 0 0 1
35.042002 33.393477 3.542685 48.534697 0.761314 1.497739 0.041156 0.000617 340711.000000 0 0 1
34.084002 34.070777 4.363485 48.389844 0.785204 1.480500 0.035438 -0.001325 558253.000000 0 0 1
33.548902 -32.993594 3.862385 47.212542 -0.777053 1.488896 0.029899 0.004479 -584836.000000 0 0 1
32.484402 -33.054894 2.734685 46.425649 -0.794103 1.511858 0.051314 -0.001769 -347654.000000 0 0 1
33.093202 -33.556594 1.583385 47.156252 -0.792351 1.537213 0.049870 -0.006354 308097.000000 0 0 1
32.269702 -33.283694 0.410485 46.360613 -0.800865 1.561942 0.063430 -0.003098 64601.700000 0 0 1
32.880902 -33.955394 -0.862215 47.274368 -0.801473 1.589036 0.052215 -0.004317 593784.000000 0 0 1
33.980602 -33.369294 -1.519415 47.649761 -0.776322 1.602689 0.044143 0.000547 875899.000000 0 0 1
35.213102 -33.310994 -0.740415 48.478171 -0.757647 1.586070 0.060003 -0.004211 207118.000000 0 0 1
36.451702 -32.999294 -1.583515 49.195401 -0.735729 1.602990 0.029983 0.002188 -660279.000000 0 0 1
36.761202 34.117577 -2.336015 50.208087 0.748118 1.617340 0.036194 -0.002198 -68787.100000 0 0 1
-35.840401 -33.836094 -3.317015 49.400589 0.756640 1.637992 0.037590 -0.003636 -884996.000000 0 0 1
-35.280001 33.173677 -4.069415 48.597649 -0.754638 1.654631 0.040733 -0.005718 165654.000000 0 0 1
-34.086301 32.759377 -3.426815 47.400378 -0.765550 1.643155 0.045467 -0.004167 177673.000000 0 0 1
-33.258201 31.911677 -4.188815 46.281846 -0.764739 1.661427 0.069975 -0.006825 -13481.200000 0 0 1
-32.020401 31.325977 -3.505815 44.932323 -0.774436 1.648900 0.079961 -0.008020 112172.000000 0 0 1
-31.005801 32.334977 -3.230315 44.914868 -0.806380 1.642779 0.055573 -0.019353 205830.000000 0 0 1
-29.769601 31.704777 -3.003415 43.594066 -0.816867 1.639746 0.060567 -0.011414 -94495.800000 0 0 1
-29.464001 31.297577 -1.565215 43.012970 -0.815566 1.607194 0.047098 0.000408 -29189.600000 0 0 1
-30.402701 30.357177 -0.995115 42.975257 -0.784649 1.593954 0.043643 0.004182 272603.000000 0 0 1
-30.265601 30.204577 0.424785 42.761005 -0.784389 1.560862 0.040613 -0.000454 476317.000000 0 0 1
-31.488301 29.436277 1.063185 43.117721 -0.751730 1.546136 0.041984 -0.006738 587740.000000 0 0 1
-31.649701 28.070477 0.594885 42.308500 -0.725537 1.556735 0.054946 -0.018026 -15497.900000 0 0 1
-32.803601 27.971277 -0.200815 43.110427 -0.706053 1.575455 0.065086 -0.016279 -179862.000000 0 0 1
-33.122201 26.515277 -0.656615 42.433139 -0.675063 1.586271 0.081679 -0.014922 -4358.390000 0 0 1
-33.429901 25.662577 0.454485 42.146562 -0.654704 1.560013 0.096398 -0.023375 64815.300000 0 0 1
-33.959101 24.468277 -0.031915 41.855921 -0.624367 1.571559 0.086097 -0.016743 -328944.000000 0 0 1
-33.804401 23.303777 0.966985 41.069924 -0.603557 1.547249 0.092286 -0.030227 284991.000000 0 0 1
-32.432401 22.988877 1.156285 39.770418 -0.616624 1.541718 0.106101 -0.035428 355048.000000 0 0 1
-31.856201 23.541377 2.321385 39.678745 -0.636417 1.512258 0.101430 -0.039631 -685531.000000 0 0 1
-30.332401 23.259677 2.342685 38.295631 -0.654183 1.509584 0.090175 -0.046347 389172.000000 0 0 1
-29.529801 23.980777 1.404585 38.066517 -0.682068 1.533890 0.095006 -0.041029 180534.000000 0 0 1
-29.324001 25.348677 1.827185 38.804524 -0.712815 1.523692 0.065201 -0.030992 -431577.000000 0 0 1
-28.766501 26.392477 0.789685 39.047382 -0.742385 1.550571 0.033401 -0.018557 -474857.000000 0 0 1
-27.504901 26.003077 0.387385 37.852737 -0.757338 1.560562 0.027634 -0.018993 -1142020.000000 0 0 1
-26.935001 26.822477 -0.575315 38.016714 -0.783305 1.585930 0.022007 -0.011116 -91302.500000 0 0 1
-25.700201 26.299977 -1.305415 36.795288 -0.796932 1.606282 0.025151 -0.007601 -441054.000000 0 0 1
-26.002201 25.290977 -2.204815 36.340187 -0.771533 1.631505 0.055840 -0.018864 -329699.000000 0 0 1
-24.879501 24.588977 -2.672615 35.082050 -0.779525 1.647052 0.044609 -0.008851 166182.000000 0 0 1
-24.149501 23.583977 -1.733915 33.799539 -0.773551 1.622119 0.025239 -0.009347 -142555.000000 0 0 1
-24.851301 22.421177 -1.531815 33.505862 -0.734037 1.616530 0.056745 -0.021061 -829018.000000 0 0 1
-24.072701 21.540977 -0.804715 32.313406 -0.729951 1.595702 0.033586 -0.027398 -1176720.000000 0 0 1
-24.644901 20.130377 -0.553115 31.826234 -0.684911 1.588176 0.060019 -0.030492 -148618.000000 0 0 1
-25.572001 20.004677 0.516185 32.471230 -0.663847 1.554899 0.052926 -0.030471 662231.000000 0 0 1
-26.826301 20.692077 0.481085 33.882797 -0.657017 1.556597 0.048133 -0.035085 569355.000000 0 0 1
-27.861701 20.274877 -0.617515 34.463406 -0.629074 1.588715 0.049858 -0.045918 -308266.000000 0 0 1
-28.452701 19.028277 -0.349515 34.230888 -0.589456 1.581007 0.045852 -0.046906 144104.000000 0 0 1
-29.392201 18.699677 -1.365515 34.863219 -0.566621 1.609974 0.059561 -0.042563 5574.670000 0 0 1
-29.708101 17.178577 -1.377115 34.344887 -0.524270 1.610904 0.067008 -0.034404 -219963.000000 0 0 1
-30.555901 16.652377 -0.381515 34.801010 -0.498981 1.581759 0.073708 -0.032021 281161.000000 0 0 1
-30.497401 15.224077 -0.357215 34.087998 -0.463001 1.581276 0.088738 -0.034073 -381726.000000 0 0 1
-29.244401 14.552077 0.218485 32.665665 -0.461727 1.564108 0.109162 -0.032721 -560840.000000 0 0 1
-29.082401 14.709677 1.615585 32.630826 -0.468271 1.521265 0.127993 -0.027888 1059150.000000 0 0 1
-27.712001 14.599877 2.048485 31.389612 -0.484891 1.505490 0.134419 -0.027064 1119040.000000 0 0 1
-26.998601 13.186677 2.049185 30.116641 -0.454341 1.502702 0.141408 -0.028770 -175174.000000 0 0 1
-26.789501 12.542077 0.783085 29.590443 -0.437862 1.544329 0.126472 -0.035988 474766.000000 0 0 1
-26.250001 11.240077 1.044385 28.574335 -0.404572 1.534238 0.138407 -0.024725 -148526.000000 0 0 1
-26.180301 10.382177 -0.247815 28.164857 -0.377541 1.579595 0.127715 -0.026914 25946.900000 0 0 1
-27.428001 10.030277 -0.829215 29.216251 -0.350588 1.599182 0.136616 -0.030521 526235.000000 0 0 1
-27.264101 9.153677 -1.928015 28.824265 -0.323916 1.637735 0.138299 -0.038828 335265.000000 0 0 1
-28.646001 8.765677 -2.542015 30.064802 -0.296952 1.655449 0.138031 -0.041463 288907.000000 0 0 1
-28.612201 7.989977 -3.709915 29.937623 -0.272314 1.695037 0.127348 -0.037614 -811034.000000 0 0 1
-29.904701 7.906177 -4.171515 31.212182 -0.258465 1.704848 0.130664 -0.037290 -925263.000000 0 0 1
-11.455898 17.570877 -19.623315 28.723646 -0.993029 2.322900 0.103555 -0.025553 292624.000000 0 0 1
-11.779798 16.668477 -20.672215 29.050684 -0.955580 2.362557 0.091309 -0.027606 286772.000000 0 0 1
-10.800598 16.705177 -21.728715 29.459344 -0.996856 2.400280 0.090821 -0.027048 405652.000000 0 0 1
-10.962798 15.512877 -22.722715 29.616787 -0.955594 2.445298 0.081458 -0.016637 -315246.000000 0 0 1
-10.339898 14.324877 -22.324515 28.469274 -0.945580 2.472140 0.101874 -0.026236 -21283.600000 0 0 1
-10.519698 13.316877 -23.298815 28.824262 -0.902212 2.512065 0.097435 -0.027075 49055.000000 0 0 1
-9.544298 12.138177 -23.028715 27.726354 -0.904463 2.550929 0.091664 -0.024629 -1346710.000000 0 0 1
-8.239898 12.489777 -23.214515 27.618910 -0.987610 2.569057 0.091901 -0.025415 -1568880.000000 0 0 1
-7.456798 11.545877 -22.506115 26.371127 -0.997351 2.593342 0.077078 -0.018069 1062190.000000 0 0 1
-5.894398 11.746477 -22.554915 26.104556 -1.105709 2.614001 0.070105 -0.011899 1197970.000000 0 0 1
-5.266998 11.183977 -23.717115 26.745545 -1.130665 2.661103 0.060139 -0.020193 876636.000000 0 0 1
-3.832398 11.218077 -23.515615 26.334705 -1.241600 2.674656 0.044741 -0.014539 1227200.000000 0 0 1
-3.015098 10.943177 -24.792915 27.267794 -1.301944 2.712246 0.060246 -0.030187 -216909.000000 0 0 1
-2.919198 9.636777 -25.120605 27.063518 -1.276660 2.760367 0.057652 -0.035498 283.390000 0 0 1
-2.555898 9.410877 -26.507655 28.244522 -1.305603 2.789074 0.063207 -0.037938 -200109.000000 0 0 1
-2.419298 7.888777 -26.973255 28.207132 -1.273226 2.844722 0.065699 -0.022480 -469431.000000 0 0 1
-1.405998 7.060777 -26.493145 27.453928 -1.374239 2.876254 0.068155 -0.032703 -256325.000000 0 0 1
-1.392898 6.842477 -25.096765 26.050092 -1.369974 2.870221 0.069367 -0.042388 -482594.000000 0 0 1
-0.381398 5.769577 -24.747915 25.414421 -1.504787 2.912067 -0.000502 -0.023496 -426090.000000 0 0 1
0.996302 6.066877 -24.884315 25.632572 1.408029 2.899375 0.029598 -0.001978 369053.000000 0 0 1
1.793702 5.338777 -23.954015 24.607209 1.246669 2.910668 0.021190 0.016159 51617.200000 0 1 0
1.826502 5.919977 -22.483015 23.320982 1.271531 2.872709 0.016639 0.006568 -573643.000000 0 1 0
2.385402 7.191577 -22.262015 23.516085 1.250522 2.813541 0.010834 -0.007683 -145682.000000 0 1 0
2.293202 7.584877 -20.923315 22.373517 1.277195 2.779570 0.019694 -0.010313 17349.700000 0 1 0
2.706402 9.105577 -20.751315 22.822209 1.281888 2.712298 0.010265 -0.022956 -240483.000000 0 1 0
2.794902 9.584677 -19.382315 21.802561 1.287063 2.665937 0.023112 -0.033160 -46700.000000 0 1 0
2.985002 10.988177 -19.503215 22.583748 1.305542 2.613154 0.014179 -0.013276 -289337.000000 0 1 0
4.036602 11.590677 -18.535015 22.230266 1.235670 2.556705 0.012818 -0.021544 896312.000000 0 1 0
5.341002 11.155677 -18.951115 22.630073 1.124277 2.563361 0.028593 -0.016182 -56210.000000 0 1 0
6.240302 10.996677 -17.906215 21.920329 1.054638 2.526772 0.027875 -0.022809 74289.100000 0 1 0
7.382602 9.983377 -18.231015 22.057664 0.934056 2.543687 0.059783 -0.038435 5004.480000 0 1 0
6.981102 8.679277 -18.598115 21.678458 0.893414 2.601980 0.047692 -0.028040 -97429.500000 0 1 0
6.679502 8.524777 -19.949415 22.699488 0.906173 2.644240 0.042845 -0.016367 -276964.000000 0 1 0
6.357602 7.017977 -20.242115 22.347580 0.834730 2.704026 0.056704 -0.022110 -198570.000000 0 1 0
7.443402 6.115277 -20.183415 22.364505 0.687756 2.696278 0.058994 -0.027229 27255.300000 0 1 0
7.117402 4.771377 -20.502215 22.220807 0.590570 2.745715 0.056168 -0.019033 -1971.250000 0 1 0
7.395202 4.407877 -21.954315 23.581992 0.537507 2.767879 0.076512 -0.026251 123788.000000 0 1 0
6.455602 5.067877 -22.803515 24.235480 0.665549 2.796117 0.073632 -0.024186 186110.000000 0 1 0
6.827302 5.030877 -24.150415 25.596178 0.635049 2.803884 0.084552 -0.022796 -323253.000000 0 0 1
5.836802 5.762177 -25.080175 26.387234 0.778965 2.825529 0.066128 -0.022827 1235.190000 0 0 1
5.707702 7.177877 -24.980515 26.610636 0.899002 2.789757 0.067068 -0.026623 239553.000000 0 0 1
5.064602 7.616277 -23.775715 25.474350 0.983969 2.774347 0.066639 -0.038323 -1333290.000000 0 0 1
4.815002 9.119977 -23.774015 25.914514 1.085030 2.732298 0.071806 -0.039870 246052.000000 0 0 1
3.855502 9.702577 -24.636915 26.757849 1.192560 2.740759 0.070558 -0.041822 346823.000000 0 0 1
2.524802 9.221677 -24.558215 26.353745 1.303556 2.770325 0.047470 -0.031831 -207405.000000 0 0 1
1.567302 9.784477 -25.631555 27.480339 1.411963 2.772689 0.066771 -0.024884 10014.000000 0 0 1
1.404402 11.175977 -25.441025 27.823022 1.445789 2.724789 0.084810 -0.048198 254170.000000 0 0 1
0.410402 11.723277 -26.306455 28.803355 1.535803 2.722141 0.105446 -0.053473 16472.100000 0 0 1
0.327802 13.319077 -26.443515 29.610214 1.546190 2.674884 0.104743 -0.053786 -383974.000000 0 0 1
-0.130198 13.953477 -25.315765 28.906824 -1.561466 2.637828 0.094003 -0.049484 -75245.700000 0 0 1
-0.308798 15.343677 -25.494205 29.756987 -1.550674 2.599725 0.102126 -0.057780 -203766.000000 0 0 1
-0.859798 15.960477 -24.151415 28.961473 -1.516978 2.556961 0.104801 -0.042642 -422546.000000 0 0 1
-2.120598 15.458377 -23.873315 28.520055 -1.434466 2.562704 0.094009 -0.038553 -972203.000000 0 0 1
-2.676798 15.813777 -22.669215 27.769302 -1.403116 2.525843 0.094663 -0.042672 -708081.000000 0 0 1
-3.931798 15.016177 -22.211215 27.097651 -1.314708 2.531636 0.094978 -0.040203 138195.000000 0 0 1
-5.185398 15.460977 -22.654215 27.913145 -1.247199 2.517676 0.114434 -0.041348 -485933.000000 0 0 1
-5.342298 15.207877 -24.026915 28.932894 -1.232977 2.550686 0.099621 -0.041242 -1601760.000000 0 0 1
-6.769798 15.280377 -24.532815 29.684661 -1.153746 2.543565 0.079150 -0.034348 -599798.000000 0 0 1
-7.343198 16.560077 -24.630615 30.574923 -1.153421 2.507454 0.075830 -0.032051 -476149.000000 0 0 1
-8.616698 16.376277 -25.173955 31.243527 -1.086433 2.507709 0.072740 -0.023441 -345314.000000 0 0 1
-9.499098 17.572977 -25.643685 32.506015 -1.075236 2.479798 0.067775 -0.023584 429597.000000 0 0 1
-10.057498 18.364977 -24.587215 32.294842 -1.069763 2.436167 0.069281 -0.026303 -176482.000000 0 0 1
-11.093198 19.142577 -25.115545 33.470702 -1.045584 2.419424 0.069653 -0.017576 -95389.500000 0 0 1
-11.762398 20.049177 -24.037615 33.438458 -1.040230 2.372959 0.068650 -0.016783 -37174.300000 0 0 1
-11.011598 21.172377 -23.570215 33.542211 -1.091204 2.349986 0.063818 -0.018585 -97384.100000 0 0 1
-11.410598 22.426977 -24.022615 34.788750 -1.100142 2.333015 0.057610 -0.019266 -200222.000000 0 0 1
-10.873798 22.949877 -25.400845 35.918509 -1.128322 2.356298 0.059018 -0.016213 -225805.000000 0 0 1
-11.278398 22.154477 -26.456125 36.303577 -1.099911 2.387287 0.063501 -0.019242 40844.800000 0 0 1
-11.228898 22.854577 -27.685415 37.615184 -1.114117 2.397964 0.070541 -0.015389 -27016.600000 0 0 1
-11.801498 22.163977 -29.003115 38.362716 -1.081517 2.428013 0.067393 -0.018450 230781.000000 0 0 1
-10.955798 21.154577 -29.509875 37.925959 -1.092937 2.462418 0.058339 -0.012507 -58583.100000 0 0 1
-10.732998 19.996977 -28.705755 36.593671 -1.078197 2.472599 0.055434 -0.012347 -216104.000000 0 0 1
-9.861298 18.972777 -29.425605 36.374135 -1.091466 2.513195 0.057069 -0.015349 -1055770.000000 0 0 1
-8.517998 19.343777 -29.392385 36.202905 -1.155998 2.518160 0.057145 -0.016166 -428306.000000 0 0 1
-7.605298 18.367077 -29.916365 35.919062 -1.178218 2.555092 0.059940 -0.013438 493531.000000 0 0 1
-7.297198 17.076777 -29.155735 34.567648 -1.166965 2.574451 0.064846 -0.021863 -779359.000000 0 0 1
-8.393898 16.204577 -29.148425 34.390065 -1.092856 2.582210 0.051093 -0.017874 -437120.000000 0 0 1
-8.227098 14.936177 -28.540615 33.246673 -1.067326 2.603037 0.049135 -0.021011 -470577.000000 0 0 1
-9.471198 14.049477 -28.410705 33.079595 -0.977643 2.603834 0.045963 -0.012996 -389195.000000 0 0 1
-10.385298 14.512477 -27.451985 32.742601 -0.949669 2.565170 0.064190 -0.021177 -485396.000000 0 0 1
-11.611198 13.861877 -27.667605 33.052503 -0.873525 2.562721 0.083056 -0.020005 213471.000000 0 0 1
-12.764498 14.282877 -26.703445 32.863460 -0.841477 2.519323 0.085522 -0.018691 370610.000000 0 0 1
-13.182598 15.623577 -26.920355 33.802109 -0.869934 2.492133 0.076090 -0.018929 -187474.000000 0 0 1
-14.026698 15.995777 -25.834555 33.466960 -0.850891 2.452687 0.065272 -0.017957 185380.000000 0 0 1
-14.934798 17.208377 -26.174235 34.702551 -0.856013 2.425300 0.042737 -0.013600 156181.000000 0 0 1
-14.279498 18.471177 -26.297635 35.166093 -0.912694 2.415557 0.053461 -0.012059 -173972.000000 0 0 1
-15.248398 19.477377 -26.393225 36.172976 -0.906584 2.388591 0.043556 -0.011228 -302869.000000 0 0 1
-14.720198 20.890677 -26.570195 36.865701 -0.956970 2.375650 0.044144 -0.009079 813244.000000 0 0 1
-15.770498 21.839577 -26.942045 38.099207 -0.945387 2.356263 0.024851 -0.014278 1228810.000000 0 0 1
-15.206098 23.136077 -27.166125 38.787909 -0.989344 2.346721 0.036664 -0.011387 226223.000000 0 0 1
-14.695998 23.890277 -25.863415 38.152771 -1.019315 2.315686 0.020389 -0.010307 92658.700000 0 0 1
-14.401498 25.227677 -26.184495 39.108396 -1.052078 2.304381 0.043787 -0.019037 59910.800000 0 0 1
-14.165198 25.977577 -25.011695 38.743674 -1.071580 2.272564 0.048120 -0.025610 -60233.300000 0 0 1
-13.900198 27.505977 -25.229675 39.828769 -1.102876 2.256805 0.070360 -0.030760 853668.000000 0 0 1
-15.138998 28.189377 -25.543705 40.942779 -1.077953 2.244504 0.068140 -0.031266 854289.000000 0 0 1
-15.740898 28.692077 -24.361815 40.798397 -1.069017 2.210711 0.065992 -0.031280 -826542.000000 0 0 1
-17.126098 29.275177 -24.598715 41.897924 -1.041476 2.198281 0.060963 -0.033800 -836011.000000 0 0 1
-18.084998 28.276377 -24.649715 41.644077 -1.001781 2.204228 0.051994 -0.028565 -1072730.000000 0 0 1
-19.293698 28.798477 -25.125255 42.812119 -0.980520 2.197987 0.036995 -0.024962 134708.000000 0 0 1
-20.471698 27.772577 -25.191515 42.720240 -0.935590 2.201466 0.030520 -0.011210 107225.000000 0 0 1
-20.930398 27.361877 -23.919815 41.939378 -0.917797 2.177719 0.044033 -0.020837 56451.400000 0 0 1
-21.842498 26.263977 -23.901515 41.691410 -0.877051 2.181319 0.060235 -0.028170 -60689.700000 0 0 1
-22.387398 26.032877 -22.544415 41.075016 -0.860545 2.151796 0.053964 -0.023480 -208502.000000 0 0 1
-23.276998 27.099277 -22.219815 42.070294 -0.861128 2.127228 0.055065 -0.019236 -5693.250000 0 0 1
-23.621198 26.941677 -20.852515 41.456512 -0.850974 2.097860 0.039483 -0.017340 -22321.900000 0 0 1
-24.925098 27.674577 -20.422115 42.475941 -0.837622 2.072355 0.024343 -0.007596 750114.000000 0 0 1
-26.114798 27.045677 -20.904115 43.016664 -0.802907 2.078251 0.024396 -0.009084 -22971.700000 0 0 1
-27.214038 27.897077 -20.831715 44.190623 -0.797791 2.061680 0.032644 -0.001421 362510.000000 0 0 1
-28.580178 27.271077 -21.274915 44.868254 -0.761963 2.064811 0.031909 -0.009330 570563.000000 0 0 1
-28.647968 27.051377 -22.661215 45.453424 -0.756742 2.092732 0.030925 -0.004364 288371.000000 0 0 1
-29.998128 26.918577 -23.106715 46.458775 -0.731345 2.091349 0.016669 -0.002479 544105.000000 0 0 1
-30.104098 26.270577 -24.513115 46.875290 -0.717502 2.121097 0.021998 0.009363 -101414.000000 0 0 1
-29.624358 24.958277 -24.669815 45.925135 -0.700119 2.137880 0.043118 0.005074 -48693.500000 0 0 1
-29.734398 24.520977 -26.049075 46.518460 -0.689602 2.165149 0.049808 0.006137 -144263.000000 0 0 1
-29.710458 23.011877 -26.204045 45.813860 -0.659021 2.179699 0.065091 -0.001496 -501407.000000 0 0 1
-28.453008 22.425577 -26.340995 44.792055 -0.667481 2.199470 0.067751 -0.002695 -250157.000000 0 0 1
-28.625028 21.096977 -26.854795 44.560686 -0.635137 2.217622 0.081040 -0.018670 115319.000000 0 0 1
-27.435308 20.210177 -26.422685 43.119667 -0.634901 2.230365 0.089831 -0.024036 30057.000000 0 0 1
-27.390418 19.822277 -25.034315 42.069878 -0.626452 2.208143 0.085753 -0.017974 -16391.300000 0 0 1
-26.787418 18.550077 -24.874015 40.992533 -0.605669 2.222817 0.062978 -0.021338 274897.000000 0 0 1
-27.766738 17.322477 -24.983015 41.172940 -0.557777 2.222803 0.059834 -0.012433 -91238.900000 0 0 1
-28.507278 17.191477 -26.157305 42.336939 -0.542663 2.236785 0.068967 -0.019284 248536.000000 0 0 1
-29.250148 15.953177 -26.037675 42.285170 -0.499309 2.234151 0.037479 -0.016751 -189698.000000 0 0 1
-30.115558 15.627877 -27.249945 43.517088 -0.478677 2.247453 0.031748 -0.019515 -363403.000000 0 0 1
-31.287068 16.393377 -27.402915 44.705069 -0.482637 2.230612 0.022304 -0.019238 248478.000000 0 0 1
-31.985948 15.776177 -28.527605 45.670701 -0.458211 2.245463 0.021553 -0.007973 1058250.000000 0 0 1
-33.406378 16.284377 -28.932275 47.098234 -0.453568 2.232290 0.024355 -0.012415 666825.000000 0 0 1
-34.484741 16.092177 -28.075305 47.290362 -0.436610 2.206420 0.010835 -0.009843 620113.000000 0 0 1
-35.781840 16.219377 -28.673765 48.637363 -0.425583 2.201288 0.014044 -0.014290 1378040.000000 0 0 1
36.551515 16.024977 -27.719475 48.592000 0.413184 2.177854 0.016439 -0.002584 203723.000000 0 0 1
36.222605 17.083877 -26.852265 48.218048 0.440700 2.161436 0.016189 -0.007945 -53560.900000 0 0 1
35.126725 16.647477 -26.089075 46.815223 0.442572 2.161900 0.022748 -0.006266 -73235.200000 0 0 1
34.544385 17.754877 -25.170705 46.282984 0.474763 2.145807 0.027096 -0.000894 37154.600000 0 0 1
34.148395 18.928577 -25.866815 46.834774 0.506141 2.155916 0.020870 -0.011604 136287.000000 0 0 1
33.649405 19.859477 -24.932115 46.349667 0.533174 2.138756 0.032097 -0.002668 -457165.000000 0 0 1
33.048635 21.122677 -25.573855 46.823091 0.568702 2.148594 0.029258 -0.004203 1010080.000000 0 0 1
31.728955 21.000277 -26.137155 46.161554 0.584671 2.172697 0.029433 -0.011451 1222260.000000 0 0 1
30.631955 21.399477 -25.305425 45.128913 0.609786 2.166071 0.048407 -0.004358 834991.000000 0 0 1
29.239025 21.248577 -25.974805 44.509697 0.628435 2.193922 0.026664 -0.015397 335510.000000 0 0 1
28.795995 19.939677 -26.151375 43.711491 0.605638 2.212140 0.041486 -0.028426 -358639.000000 0 0 1
27.599205 19.849277 -26.885035 43.341839 0.623494 2.239924 0.036471 -0.028682 -654009.000000 0 0 1
27.050805 18.446377 -27.024305 42.453833 0.598486 2.260823 0.072508 -0.029054 505426.000000 0 0 1
27.981005 17.598077 -27.748115 43.157698 0.561420 2.269136 0.064426 -0.033870 1276450.000000 0 0 1
29.098555 17.086577 -27.002785 43.218369 0.530952 2.245670 0.062042 -0.024133 382623.000000 0 0 1
30.013785 16.162777 -27.841845 44.013986 0.493980 2.255661 0.053729 -0.014861 -102223.000000 0 0 1
29.396105 14.968877 -28.323325 43.478834 0.470991 2.280261 0.063297 -0.020961 272637.000000 0 0 1
28.793965 14.023277 -27.420715 42.162072 0.453211 2.278861 0.069029 -0.019201 139081.000000 0 0 1
29.692965 13.356477 -26.330165 41.872966 0.422704 2.250819 0.063973 -0.011582 105287.000000 0 0 1
29.865165 14.212377 -25.218345 41.591882 0.444170 2.222232 0.072470 -0.022944 476028.000000 0 0 1
30.924815 13.646477 -24.431715 41.707064 0.415578 2.196655 0.062040 -0.015781 496751.000000 0 0 1
-14.858498 -31.496394 -23.959915 42.271449 1.130001 2.173426 0.089352 -0.017793 -197870.000000 0 0 1
-14.155298 -30.424694 -24.528715 41.565519 1.135327 2.202006 0.085455 -0.025584 -40660.200000 0 0 1
-14.634698 -30.010194 -25.783895 42.185251 1.117071 2.228380 0.068968 -0.020534 -403783.000000 0 0 1
-13.820798 -28.908394 -26.437575 41.541005 1.124830 2.260646 0.080725 -0.025623 -320437.000000 0 0 1
-14.107798 -27.595394 -25.898625 40.389040 1.098199 2.266895 0.076994 -0.015359 33506.700000 0 0 1
-13.466398 -26.537694 -26.553125 39.883099 1.101211 2.299327 0.066486 -0.016530 -482717.000000 0 0 1
-13.903698 -25.171694 -26.173215 38.883984 1.066147 2.309203 0.056223 -0.015801 -215078.000000 0 0 1
-13.499698 -24.869094 -24.860515 37.666416 1.073474 2.291639 0.066659 -0.024125 104171.000000 0 0 1
-14.095698 -23.643594 -24.553015 36.885754 1.033195 2.299161 0.059913 -0.027339 -136613.000000 0 0 1
-13.749498 -23.090994 -23.125215 35.454454 1.033730 2.281347 0.064781 -0.018036 -748500.000000 0 0 1
-12.388498 -22.810394 -23.053915 34.717027 1.073260 2.297022 0.071676 -0.027925 -799284.000000 0 0 1
-12.065998 -22.184494 -21.832315 33.382482 1.072654 2.283663 0.059867 -0.024399 -757139.000000 0 0 1
-10.566798 -21.997594 -21.882015 32.777644 1.122983 2.301763 0.074481 -0.023423 -963949.000000 0 0 1
-10.130898 -21.045794 -22.822515 32.656206 1.122160 2.344616 0.089790 -0.024611 144794.000000 0 0 1
-8.724598 -20.875894 -22.771915 32.101117 1.174932 2.359416 0.098280 -0.016884 338597.000000 0 0 1
-8.221698 -19.626894 -23.638615 31.805588 1.174104 2.408670 0.107530 -0.009761 17581.300000 0 0 1
-8.868398 -18.430194 -23.290115 30.995968 1.122311 2.420965 0.088900 -0.010914 -268207.000000 0 0 1
-9.025398 -17.415194 -24.269615 31.205144 1.092657 2.461865 0.091886 -0.007632 -839241.000000 0 0 1
-7.801598 -16.621294 -24.736715 30.806451 1.131949 2.503061 0.099980 -0.015598 -324425.000000 0 0 1
-7.043598 -17.396194 -25.637265 31.772775 1.186079 2.509671 0.084103 -0.020655 -159421.000000 0 0 1
-6.089598 -16.590994 -26.303665 31.689543 1.219020 2.549980 0.070946 -0.023379 31227.100000 0 0 1
-5.608398 -17.365494 -27.546445 33.042717 1.258409 2.556501 0.064447 -0.011062 977142.000000 0 0 1
-6.648098 -17.330894 -28.584965 34.083095 1.204509 2.565660 0.078554 -0.019821 1168840.000000 0 0 1
-6.262998 -18.167494 -29.628855 35.315040 1.238818 2.566215 0.076250 -0.025272 322762.000000 0 0 1
-7.028098 -17.860894 -30.995475 36.457169 1.195914 2.587140 0.089022 -0.029969 167378.000000 0 0 1
-6.604298 -16.726394 -31.725895 36.468088 1.194744 2.625924 0.092446 -0.034260 20712.800000 0 0 1
-6.853998 -15.450394 -31.079705 35.378525 1.153266 2.643490 0.083193 -0.032493 -34094.100000 0 0 1
-7.742598 -14.580994 -31.979355 35.989337 1.082653 2.665034 0.072121 -0.031371 -52536.500000 0 0 1
-7.027898 -14.117494 -33.126235 36.688451 1.108898 2.697280 0.089394 -0.041134 79978.300000 0 0 1
-7.702898 -13.131494 -33.872135 37.136132 1.040290 2.719192 0.090919 -0.031324 -441805.000000 0 0 1
-7.557698 -11.701494 -33.296295 36.092756 0.997327 2.745356 0.079898 -0.031914 736250.000000 0 0 1
-6.276298 -11.085294 -33.468895 35.811208 1.055614 2.777909 0.083443 -0.027663 417399.000000 0 0 1
-6.126898 -10.544994 33.380176 35.538316 1.044446 0.350291 0.055564 -0.025476 188059.000000 0 0 1
-4.967498 -9.509694 33.314655 34.999665 1.089420 0.311560 0.059299 -0.018226 164417.000000 0 0 1
-5.008398 -8.777094 32.107629 33.660381 1.052259 0.304923 0.045523 -0.014091 865456.000000 0 0 1
-3.912898 -7.812894 32.068429 33.237572 1.106488 0.266021 0.050842 -0.025206 342928.000000 0 0 1
-4.061298 -6.836594 30.825199 31.834353 1.034761 0.252464 0.037874 -0.013182 1011550.000000 0 0 1
-5.205498 -5.954194 30.950579 31.945078 0.852387 0.250178 0.020791 -0.008667 1431850.000000 0 0 1
-6.410398 -6.518494 30.405119 31.749886 0.793759 0.292087 0.029728 -0.001715 -253699.000000 0 0 1
-7.739798 -5.871494 30.686439 32.187520 0.648989 0.306603 0.024918 -0.004958 -224109.000000 0 0 1
-8.824098 -6.547394 30.061539 32.006706 0.638355 0.350427 0.021108 0.007458 -249140.000000 0 0 1
-9.937498 -5.721494 29.900069 32.023483 0.522396 0.366208 0.031941 -0.002594 -172317.000000 0 0 1
-11.004398 -6.239494 28.911859 31.558258 0.515801 0.412448 0.043172 -0.005695 -25509.000000 0 0 1
-10.550598 -6.107294 27.640639 30.209586 0.524729 0.415381 0.031119 -0.000995 364311.000000 0 0 1
-11.550498 -6.580394 26.762059 29.881824 0.517847 0.461026 0.045837 -0.009221 -55140.400000 0 0 1
-11.178698 -6.305994 25.294209 28.364165 0.513610 0.469562 0.040071 -0.005815 -672500.000000 0 0 1
-10.182998 -7.197794 24.942129 27.885686 0.615305 0.463614 0.034740 0.000296 -412670.000000 0 0 1
-9.536498 -6.849394 23.720869 26.467690 0.622856 0.459623 0.025554 -0.005812 -407974.000000 0 0 1
-10.309498 -6.985494 22.416779 25.643613 0.595519 0.507080 0.044150 -0.010181 -737377.000000 0 0 1
-11.362898 -6.087594 22.318779 25.774060 0.491832 0.523770 0.035170 -0.010127 -502267.000000 0 0 1
-12.097598 -6.279194 21.108779 25.126892 0.478767 0.573352 0.035604 -0.015197 158884.000000 0 0 1
-13.188998 -5.199694 20.964079 25.307689 0.375535 0.594608 0.034365 -0.011180 362114.000000 0 0 1
-12.609898 -3.939394 20.660479 24.523127 0.302798 0.568908 0.015764 -0.010001 -567834.000000 0 1 0
-13.656198 -3.049694 20.754679 25.030963 0.219714 0.593193 0.024111 -0.009403 -347032.000000 0 0 1
-13.470798 -1.677694 20.163579 24.307344 0.123905 0.592538 0.023594 -0.011040 -329539.000000 0 1 0
-12.706398 -0.816694 20.953279 24.518553 0.064186 0.546038 0.036348 -0.011386 -251331.000000 0 1 0
-12.873398 0.567306 20.687679 24.372654 -0.044040 0.557072 0.045961 -0.016999 -482922.000000 0 1 0
-12.548698 1.170306 19.310779 23.059610 -0.092992 0.578235 0.050214 -0.030355 198230.000000 0 1 0
-13.445998 0.814306 18.251279 22.684073 -0.060487 0.635819 0.054550 -0.024909 88579.300000 0 1 0
-14.730198 1.383306 18.365679 23.583690 -0.093635 0.678134 0.047250 -0.016725 -473043.000000 0 1 0
-15.749698 0.612306 17.517979 23.564963 -0.038858 0.732670 0.055833 -0.007743 -426125.000000 0 1 0
-15.894598 -0.695694 17.928679 23.969976 0.043741 0.725807 0.028011 -0.010610 64399.200000 0 1 0
-16.824598 -1.496694 17.241179 24.136393 0.088725 0.775140 0.026826 -0.008898 -236370.000000 0 1 0
-16.718798 -2.959694 17.614479 24.465238 0.175213 0.767023 0.022240 -0.007366 -316804.000000 0 1 0
-17.159798 -3.249694 18.913179 25.743495 0.187162 0.745604 0.032075 -0.009623 -60075.300000 0 0 1
-17.080598 -4.600194 19.244179 26.138995 0.263081 0.743321 0.049468 -0.011830 47303.600000 0 0 1
-18.106198 -4.980394 20.351779 27.691761 0.268427 0.745218 0.060353 -0.007882 -208681.000000 0 0 1
-17.863898 -4.401494 21.638779 28.402971 0.241579 0.704633 0.057974 -0.003818 275235.000000 0 0 1
-18.829198 -4.708894 22.648879 29.827573 0.245058 0.708518 0.065280 -0.005867 -354933.000000 0 0 1
-18.774498 -6.214394 23.124879 30.427956 0.319651 0.707502 0.069085 -0.004655 264449.000000 0 0 1
-17.630898 -6.725194 23.791499 30.366301 0.364408 0.670544 0.053100 -0.006244 302276.000000 0 0 1
-16.436098 -6.824094 23.067279 29.134395 0.393532 0.657121 0.052903 -0.009584 92566.700000 0 0 1
-15.191198 -7.491394 23.740119 29.163106 0.458145 0.619711 0.071762 -0.009452 527510.000000 0 0 1
-15.380198 -8.849394 24.107569 29.933880 0.522117 0.634513 0.076696 -0.010861 299421.000000 0 0 1
-14.801198 -9.058494 25.417239 30.776092 0.549204 0.599042 0.085515 -0.009299 147427.000000 0 0 1
-15.741698 -9.873694 26.300089 32.202260 0.560203 0.615100 0.068724 -0.011682 -96846.400000 0 0 1
-15.809598 -11.278294 26.115879 32.545083 0.619651 0.639403 0.072816 -0.018951 -222319.000000 0 0 1
-14.853398 -11.976394 26.869659 32.955061 0.678575 0.617476 0.073738 -0.017361 -238073.000000 0 0 1
-14.955898 -13.540194 26.788109 33.535333 0.735758 0.645494 0.065353 -0.019830 156540.000000 0 0 1
-15.938398 -14.139794 27.627529 34.889062 0.725672 0.656935 0.061091 -0.027039 84910.100000 0 0 1
-16.197398 -15.495294 27.314389 35.334625 0.763248 0.687208 0.071575 -0.013410 -110780.000000 0 0 1
-15.196398 -16.588194 27.763489 35.733878 0.829159 0.680987 0.066954 -0.016535 -6073.470000 0 0 1
-13.954698 -16.508194 27.074199 34.644860 0.869026 0.673765 0.069497 -0.025949 -93867.200000 0 0 1
-13.088298 -17.332894 27.814829 35.290190 0.924031 0.662959 0.077429 -0.022846 599719.000000 0 0 1
-11.619598 -17.422894 27.234229 34.355138 0.982621 0.655527 0.070783 -0.030566 859628.000000 0 0 1
-10.779398 -18.170994 28.078429 35.139417 1.035377 0.645070 0.090518 -0.039138 410755.000000 0 0 1
-9.677798 -18.800194 27.391129 34.603194 1.095402 0.657409 0.085840 -0.035422 368106.000000 0 0 1
-8.601698 -19.267794 28.357149 35.346358 1.150916 0.639716 0.098002 -0.043565 -716769.000000 0 0 1
-8.943998 -20.478394 29.059129 36.657778 1.159013 0.655548 0.097711 -0.040939 -192409.000000 0 0 1
-7.891598 -21.109094 29.753849 37.325095 1.213036 0.648230 0.100706 -0.043064 -166934.000000 0 0 1
-8.243098 -22.395094 30.494289 38.721965 1.218110 0.664023 0.095731 -0.032063 58187.600000 0 0 1
-8.193998 -23.500594 29.619809 38.687887 1.235305 0.698808 0.087122 -0.033100 69145.200000 0 0 1
-8.612198 -24.665594 30.334989 40.034648 1.234872 0.710987 0.084659 -0.031139 -32033.900000 0 0 1
-8.795598 -25.888094 29.428599 40.169620 1.243278 0.748650 0.082008 -0.023141 -536142.000000 0 0 1
-9.889598 -25.804294 28.566299 39.745430 1.204809 0.768820 0.076042 -0.023389 -254196.000000 0 0 1
-9.914398 -26.909494 27.648009 39.835017 1.217794 0.803679 0.068570 -0.021389 -70189.600000 0 0 1
-11.261298 -27.044494 26.891889 39.766760 1.176233 0.828149 0.052872 -0.014016 97061.300000 0 0 1
-11.435698 -26.305494 25.726299 38.530464 1.160716 0.839699 0.052018 -0.013972 222443.000000 0 0 1
-11.795098 -24.928794 25.878209 37.818657 1.128857 0.817193 0.048971 -0.012031 -333825.000000 0 0 1
-12.010898 -24.322694 24.431699 36.507027 1.112109 0.837621 0.045574 -0.023941 -306511.000000 0 0 1
-13.163298 -24.783494 23.763729 36.772392 1.082555 0.868151 0.031636 -0.017179 135979.000000 0 0 1
-13.224098 -24.117894 22.532279 35.556338 1.069251 0.884461 0.045168 -0.030346 -162355.000000 0 0 1
-14.598598 -24.369394 21.899379 35.868778 1.031072 0.914052 0.047441 -0.026316 -333234.000000 0 0 1
-14.892898 -25.705194 21.493879 36.668000 1.045682 0.944466 0.047947 -0.025381 516882.000000 0 0 1
-16.159098 -25.701794 20.830279 36.818463 1.009530 0.969446 0.068487 -0.027108 347006.000000 0 0 1
-16.476498 -27.031594 20.173179 37.538503 1.023401 1.003446 0.079693 -0.029205 -83364.800000 0 0 1
-15.542698 -27.453194 19.207179 36.934659 1.055636 1.023909 0.076877 -0.033502 96337.100000 0 0 1
-15.623898 -28.845994 19.048279 37.934608 1.074401 1.044731 0.094371 -0.024960 101467.000000 0 0 1
-14.646298 -29.348594 17.947079 37.389192 1.107912 1.070133 0.079841 -0.033768 -99982.700000 0 0 1
-15.099398 -29.153794 16.624579 36.800981 1.092914 1.102078 0.094928 -0.041050 -105405.000000 0 0 1
-14.046998 -29.313794 15.707079 36.101648 1.123932 1.120670 0.092015 -0.042576 -84760.400000 0 0 1
-14.319198 -28.673294 14.313079 35.100733 1.107636 1.150784 0.087575 -0.034659 -14747.800000 0 0 1
-14.490498 -27.229394 14.165479 33.942234 1.081750 1.140279 0.082867 -0.030057 -132034.000000 0 0 1
-14.770198 -26.857694 12.832479 33.229009 1.067997 1.174306 0.084925 -0.023723 -575435.000000 0 0 1
-13.643998 -26.860794 11.822179 32.363944 1.100807 1.196854 0.065280 -0.019854 -396594.000000 0 0 1
-13.988798 -26.204794 10.603279 31.540565 1.080456 1.227939 0.055570 -0.009851 74842.800000 0 0 1
-13.001898 -26.440094 9.598679 30.988104 1.113771 1.255862 0.055628 -0.012483 130679.000000 0 0 1
-13.300598 -25.742894 8.265279 30.131667 1.093901 1.292929 0.060954 -0.010741 -823124.000000 0 0 1
-14.468998 -26.110094 7.612679 30.806522 1.064770 1.321097 0.071802 -0.018549 -737311.000000 0 0 1
-14.567998 -25.411694 6.416579 29.985884 1.050256 1.355142 0.068387 -0.021044 -20816.100000 0 0 1
-15.723098 -25.757094 5.459579 30.666769 1.022737 1.391813 0.069896 -0.019095 -221054.000000 0 0 1
-15.547998 -27.072794 4.889579 31.600386 1.049486 1.415441 0.091308 -0.028218 -99589.200000 0 0 1
-16.203498 -27.250694 3.664079 31.915187 1.034350 1.455736 0.099804 -0.018532 -138925.000000 0 0 1
-15.717198 -28.504594 2.962379 32.685133 1.066885 1.480038 0.094135 -0.013633 253644.000000 0 0 1
-14.415498 -28.409094 2.404679 31.947859 1.101226 1.495456 0.090846 -0.005258 -89040.300000 0 0 1
-14.134698 -29.710894 1.881479 32.955529 1.126743 1.513674 0.095129 -0.010237 1290060.000000 0 0 1
-12.686798 -29.814894 1.203879 32.424252 1.168486 1.533659 0.066658 -0.008356 1555560.000000 0 0 1
-12.458198 -29.145594 -0.051721 31.696609 1.166855 1.572428 0.071239 -0.007118 -199635.000000 0 0 1
-12.445298 -27.705894 -0.024121 30.372728 1.148614 1.571590 0.066833 -0.012861 -253781.000000 0 0 1
-12.216998 -26.972194 -1.384521 29.642389 1.145494 1.617521 0.066891 -0.012839 -99551.800000 0 0 1
-10.879598 -27.051894 -1.799021 29.213133 1.188416 1.632418 0.077243 -0.015731 -608077.000000 0 0 1
-10.687598 -26.501494 -3.166521 28.750318 1.187463 1.681159 0.095020 -0.016437 -908071.000000 0 0 1
-9.238498 -26.441394 -3.530521 28.230511 1.234660 1.696185 0.089039 -0.019404 -1062820.000000 0 0 1
-8.940898 -25.699494 -4.704521 27.614058 1.235992 1.741998 0.088653 -0.019165 -241341.000000 0 0 1
-7.636198 -26.011694 -5.157121 27.595573 1.285251 1.758784 0.099051 -0.012064 383674.000000 0 0 1
-6.946998 -24.773694 -5.807921 26.376669 1.297400 1.792807 0.073356 -0.015999 84983.200000 0 0 1
-7.221098 -24.643594 -7.204621 26.671287 1.285754 1.844321 0.084224 -0.011966 126986.000000 0 0 1
-6.374798 -23.639294 -7.734221 25.676301 1.307393 1.876768 0.071724 -0.008691 -10394.200000 0 0 1
-6.546598 -23.541194 -9.252821 26.127772 1.299559 1.932788 0.073972 -0.012999 77803.600000 0 0 1
-5.907098 -24.592794 -9.976821 27.188900 1.335066 1.946519 0.058034 -0.012808 -59647.600000 0 0 1
-6.149098 -24.559694 -11.412121 27.770965 1.325466 1.994278 0.048722 -0.007987 -316542.000000 0 0 1
-7.515298 -25.077994 -11.854221 28.738616 1.279636 1.995976 0.058129 -0.010151 -307870.000000 0 0 1
-7.733798 -24.809494 -13.254821 29.172126 1.268616 2.042457 0.064252 -0.009560 -363037.000000 0 0 1
-8.896098 -25.498694 -13.614521 30.243663 1.235116 2.037742 0.076359 -0.014602 -908368.000000 0 0 1
-9.127698 -25.557794 -15.121021 31.067040 1.227775 2.079130 0.081863 -0.018310 448270.000000 0 0 1
-8.183098 -26.258594 -15.946921 31.792785 1.268700 2.096231 0.074746 -0.022257 968447.000000 0 0 1
-6.832498 -25.790094 -15.989721 31.104391 1.311819 2.110715 0.076329 -0.017488 237164.000000 0 0 1
-5.858298 -26.803194 -16.601121 32.067555 1.355613 2.114948 0.069082 -0.009619 -425494.000000 0 0 1
-6.074898 -27.120394 -17.986721 33.105019 1.350436 2.145187 0.103457 -0.012417 -456356.000000 0 0 1
-4.990798 -27.664294 -18.655321 33.737846 1.392310 2.156696 0.092083 -0.017298 -535811.000000 0 0 1
-25.750508 14.209977 -4.664515 29.778681 -0.504249 1.728083 0.088433 -0.037803 -263643.000000 0 0 1
-25.346298 12.983877 -4.088215 28.770287 -0.473407 1.713377 0.084547 -0.033580 -232065.000000 0 0 1
-24.138698 12.527877 -4.602415 27.582724 -0.478728 1.738439 0.099843 -0.030191 -835156.000000 0 0 1
-23.910298 11.003177 -4.380015 26.682519 -0.431292 1.735696 0.108336 -0.043922 -25902.800000 0 0 1
-24.544498 10.127477 -5.322415 27.079998 -0.391336 1.768628 0.095543 -0.040196 216055.000000 0 0 1
-25.948918 10.022177 -5.294015 28.316373 -0.368577 1.758862 0.101086 -0.040033 -446315.000000 0 0 1
-26.543288 9.500577 -6.562815 28.946116 -0.343720 1.799510 0.113693 -0.033577 -288776.000000 0 0 1
-26.541768 10.486677 -7.591915 29.530883 -0.376276 1.830800 0.144329 -0.025915 -56618.100000 0 0 1
-26.706018 9.805777 -8.797315 29.778473 -0.351893 1.870697 0.128365 -0.025626 -425431.000000 0 0 1
-26.912058 10.764277 -9.954415 30.646679 -0.380489 1.901609 0.108361 -0.022488 460116.000000 0 0 1
-25.832128 11.652877 -10.306615 30.154846 -0.423768 1.919617 0.099323 -0.012740 517296.000000 0 0 1
-26.151538 12.135577 -11.614015 31.081514 -0.434475 1.953751 0.095920 -0.016254 256013.000000 0 0 1
-25.368378 13.349677 -12.259615 31.177984 -0.484413 1.974921 0.064745 -0.008877 172018.000000 0 0 1
-25.529948 14.479777 -11.420315 31.493901 -0.515929 1.941874 0.073136 -0.007349 126431.000000 0 0 1
-25.091298 15.585877 -12.166715 31.945606 -0.555838 1.961520 0.054997 -0.002923 -71430.600000 0 0 1
-25.163608 16.873977 -11.417815 32.377535 -0.590700 1.931194 0.089370 -0.002796 36092.700000 0 0 1
-24.101398 16.993677 -10.496715 31.302452 -0.614135 1.912754 0.079031 0.004746 223.816000 0 0 1
-24.010998 18.292377 -9.976115 31.790910 -0.651031 1.889993 0.047518 0.010413 -108397.000000 0 0 1
-22.878098 18.518277 -8.960615 30.767297 -0.680466 1.866317 0.050897 0.003042 -199242.000000 0 0 1
-23.058798 17.811277 -7.723915 30.143136 -0.657702 1.829928 0.065941 -0.012131 549334.000000 0 0 1
-23.823298 18.663277 -6.857115 31.030428 -0.664539 1.793616 0.052613 -0.014665 -124484.000000 0 0 1
-24.176998 18.056377 -5.500715 30.672754 -0.641476 1.751107 0.057974 -0.019949 -444370.000000 0 0 1
-23.179398 17.966777 -4.535415 29.675909 -0.659384 1.724229 0.070311 -0.028618 -229172.000000 0 0 1
-23.701098 17.549077 -3.301315 29.675088 -0.637350 1.682276 0.067434 -0.031093 390137.000000 0 0 1
-22.583098 17.240177 -2.232515 28.499196 -0.652029 1.649213 0.082958 -0.038491 83895.400000 0 0 1
-21.869698 18.413677 -1.895815 28.652074 -0.699815 1.637011 0.074014 -0.038915 691228.000000 0 0 1
-20.714598 18.223777 -1.077215 27.610886 -0.721517 1.609820 0.128373 -0.051583 170692.000000 0 0 1
-20.085198 19.495877 -0.594215 27.997455 -0.770510 1.592022 0.102823 -0.043961 -770.559000 0 0 1
-20.968298 20.211377 0.256385 29.124475 -0.767019 1.561993 0.077603 -0.031735 268092.000000 0 0 1
-20.405898 21.425877 0.600585 29.594418 -0.809776 1.550501 0.075144 -0.037942 -348124.000000 0 0 1
-21.239998 22.138277 1.620585 30.722421 -0.806103 1.518023 0.047898 -0.025085 -288495.000000 0 0 1
-21.116198 21.565577 2.896185 30.320881 -0.795926 1.475133 0.061451 -0.020876 301483.000000 0 0 1
-22.235898 21.940877 3.688485 31.455400 -0.778720 1.453265 0.041935 -0.021919 21498.700000 0 0 1
-22.176498 21.589077 5.137485 31.373222 -0.771977 1.406302 0.048396 -0.014457 -318190.000000 0 0 1
-21.238698 22.407877 5.827485 31.419020 -0.812179 1.384240 0.044237 -0.010195 98768.400000 0 0 1
-20.657098 21.892577 7.018685 30.907322 -0.814426 1.341710 0.041304 -0.000650 -252349.000000 0 0 1
-21.423898 21.734677 8.379085 31.647886 -0.792599 1.302842 0.034664 -0.010276 -284916.000000 0 0 1
-22.518798 20.815277 8.270985 31.761316 -0.746107 1.307349 0.048352 -0.006884 714801.000000 0 0 1
-23.007998 20.291577 9.489685 32.111839 -0.722745 1.270797 0.062139 -0.005903 -52644.400000 0 0 1
-23.613098 21.239977 10.588685 33.478878 -0.732539 1.248991 0.072458 -0.006809 -621944.000000 0 0 1
-24.835798 21.773277 10.101085 34.538737 -0.719786 1.274001 0.091866 -0.005918 566698.000000 0 0 1
-25.501688 22.497477 11.171185 35.794803 -0.722891 1.253405 0.104955 -0.005346 382856.000000 0 0 1
-26.915588 23.018477 10.810485 37.029255 -0.707511 1.274537 0.105510 -0.013770 132803.000000 0 0 1
-27.583668 23.714277 11.866785 38.262858 -0.710111 1.255458 0.106955 -0.015768 246578.000000 0 0 1
-27.434868 25.128877 11.826285 39.038359 -0.741556 1.263020 0.095626 -0.016947 20762.700000 0 0 1
-27.894138 25.807777 13.159885 40.215754 -0.746567 1.237423 0.108834 -0.017175 40283.200000 0 0 1
-26.975988 25.676277 14.235985 39.870270 -0.760718 1.205680 0.088487 -0.017618 -71944.500000 0 0 1
-27.287958 26.275477 15.505485 40.932303 -0.766498 1.182288 0.096379 -0.015599 62667.200000 0 0 1
-26.106768 26.294277 16.523585 40.570694 -0.788976 1.151324 0.080685 -0.015419 122579.000000 0 0 1
-25.858318 25.095077 17.240985 39.945802 -0.770420 1.124520 0.091782 -0.019423 462315.000000 0 0 1
-24.814898 25.137677 18.224085 39.746689 -0.791860 1.094483 0.081918 -0.018701 385483.000000 0 0 1
-24.396898 23.751177 18.783685 38.886423 -0.771988 1.066673 0.082185 -0.018817 160270.000000 0 0 1
-23.158598 23.742577 19.489685 38.469188 -0.797849 1.039524 0.086346 -0.029113 854473.000000 0 0 1
-22.759198 22.426977 20.006685 37.699043 -0.778046 1.011376 0.091976 -0.030630 -566179.000000 0 0 1
-21.303798 22.376277 20.443485 37.047074 -0.809946 0.986246 0.082422 -0.028459 -611771.000000 0 0 1
-20.371598 22.555677 19.342785 36.026433 -0.836233 1.004032 0.071175 -0.028479 -242984.000000 0 0 1
-19.053898 22.354877 19.691285 35.362950 -0.864947 0.980227 0.062100 -0.024837 -874291.000000 0 0 1
-18.517098 20.881577 19.810685 34.225523 -0.845340 0.953506 0.062489 -0.027486 -760924.000000 0 0 1
-19.066998 20.052377 20.840385 34.640581 -0.810582 0.925272 0.070148 -0.030677 206458.000000 0 0 1
-18.532798 20.155077 22.152785 35.219847 -0.827306 0.890548 0.058276 -0.032500 -386752.000000 0 0 1
-19.654698 19.833277 23.145685 36.268289 -0.789920 0.878665 0.065155 -0.031464 -438848.000000 0 0 1
-20.503098 20.946477 23.255385 37.415837 -0.796095 0.900091 0.071645 -0.028981 -66278.500000 0 0 1
-21.396798 20.759377 24.348985 38.492178 -0.770279 0.885930 0.078453 -0.026829 112702.000000 0 0 1
-22.489998 21.841977 24.406285 39.730828 -0.770782 0.909309 0.087206 -0.025322 -618325.000000 0 0 1
-21.920298 23.097277 24.816985 40.371604 -0.811537 0.908773 0.090934 -0.032427 411777.000000 0 0 1
-22.777298 24.241077 24.964685 41.589309 -0.816520 0.926962 0.088144 -0.025810 23775.500000 0 0 1
-23.759598 24.586177 23.801385 41.659387 -0.802494 0.962667 0.079561 -0.030142 -415.021000 0 0 1
-24.806098 23.645477 23.685685 41.658886 -0.761448 0.966039 0.080397 -0.030415 -44287.300000 0 0 1
-25.592658 24.038077 22.547085 41.727501 -0.754085 0.999954 0.069449 -0.025333 181750.000000 0 0 1
-26.643748 23.028477 22.037885 41.543573 -0.712744 1.011634 0.083606 -0.022494 -862116.000000 0 0 1
-27.850838 23.132377 22.686185 42.725157 -0.693112 1.011040 0.088309 -0.027241 -1292250.000000 0 0 1
-28.779338 22.346177 22.018585 42.572526 -0.660225 1.027218 0.083387 -0.024057 1388770.000000 0 0 1
-30.311878 22.546677 22.468985 43.954725 -0.639536 1.034234 0.096773 -0.016447 575278.000000 0 0 1
-30.764218 23.740077 21.908185 44.609382 -0.657231 1.057431 0.093341 -0.017568 754548.000000 0 0 1
-32.178778 23.964177 21.994985 45.755163 -0.640113 1.069332 0.092620 -0.019673 913016.000000 0 0 1
-33.092238 23.077277 21.124885 45.540287 -0.608953 1.088435 0.087758 -0.020853 -1267980.000000 0 0 1
-33.109748 21.752577 21.712985 45.176141 -0.581269 1.069424 0.071428 -0.018068 84774.300000 0 0 1
-33.673188 20.715077 20.907385 44.722665 -0.551507 1.084347 0.095271 -0.022200 -84652.600000 0 0 1
-35.198574 20.803577 20.675385 45.817027 -0.533801 1.102620 0.110272 -0.028798 -416110.000000 0 0 1
-35.588997 19.884077 19.713185 45.283141 -0.509509 1.120390 0.112025 -0.021486 1035410.000000 0 0 1
36.546775 19.992677 19.462285 45.979935 0.500571 1.133736 0.124374 -0.035082 1059390.000000 0 0 1
36.074805 19.176777 18.267285 44.753034 0.488594 1.150337 0.125850 -0.039389 -270262.000000 0 0 1
36.254955 17.790877 18.361085 44.362895 0.456193 1.144080 0.152028 -0.051596 54121.100000 0 0 1
35.441625 17.015777 17.513985 43.039344 0.447607 1.151706 0.176568 -0.064915 -178696.000000 0 0 1
35.538965 15.501677 17.663785 42.606681 0.411309 1.143318 0.190216 -0.074863 -262151.000000 0 0 1
34.753575 14.806377 16.736985 41.317871 0.402750 1.153732 0.224340 -0.074907 -211910.000000 0 0 1
34.990715 13.428677 16.765885 41.058183 0.366444 1.150157 0.181442 -0.057844 1080710.000000 0 0 1
33.921355 12.696077 15.796385 39.514231 0.358139 1.159536 0.167540 -0.064304 891733.000000 0 0 1
34.017635 13.120477 14.454285 39.220820 0.368115 1.193363 0.160062 -0.061874 406941.000000 0 0 1
33.069995 12.436877 13.645685 37.874862 0.359715 1.202225 0.168693 -0.051725 -77877.400000 0 0 1
33.239595 12.866377 12.183685 37.667712 0.369319 1.241421 0.176814 -0.054420 -91773.600000 0 0 1
34.467895 12.550077 11.554085 38.458251 0.349189 1.265651 0.150956 -0.054921 191245.000000 0 0 1
34.435255 12.566877 10.144285 38.034454 0.349924 1.300815 0.128337 -0.041627 -297211.000000 0 0 1
35.909945 12.538677 9.710585 39.256057 0.335935 1.320836 0.111541 -0.033212 42727.500000 0 0 1
36.639575 11.328977 10.049385 39.645861 0.299876 1.314522 0.106960 -0.035583 2043580.000000 0 0 1
-35.505811 11.294077 9.660885 38.490928 -0.307970 1.317092 0.106036 -0.026152 1596030.000000 0 0 1
-35.106062 11.041477 8.195385 37.702973 -0.304722 1.351680 0.108995 -0.039311 -92023.900000 0 0 1
-35.600525 12.168677 7.411885 38.345927 -0.329362 1.376282 0.098899 -0.041901 313382.000000 0 0 1
-35.061873 12.134977 6.098685 37.600353 -0.333198 1.407879 0.113195 -0.041387 63917.100000 0 0 1
-35.955720 12.905077 5.097385 38.540085 -0.344595 1.438146 0.113280 -0.040660 -432522.000000 0 0 1
36.327715 12.334077 4.971285 38.685217 0.327310 1.441934 0.109211 -0.041014 -65303.700000 0 0 1
35.233375 13.228077 4.830385 37.943449 0.359158 1.443145 0.090191 -0.035316 332262.000000 0 0 1
34.704065 13.871677 6.070685 37.863554 0.380259 1.409771 0.115865 -0.033483 -1360190.000000 0 0 1
33.859525 14.985377 5.826685 37.483052 0.416662 1.414715 0.103677 -0.024847 399667.000000 0 0 1
33.028655 15.438077 6.888185 37.103549 0.437241 1.384065 0.109097 -0.025001 924171.000000 0 0 1
31.831575 14.523277 7.320785 35.745890 0.428042 1.364536 0.125499 -0.036240 -139919.000000 0 0 1
32.318705 13.307377 7.862985 35.824733 0.390598 1.349510 0.133665 -0.028971 48801.700000 0 0 1
31.346825 12.267277 7.930685 34.583309 0.373019 1.339416 0.153457 -0.024964 49054.800000 0 0 1
31.433405 11.277177 6.729785 34.066460 0.344461 1.371940 0.148010 -0.027668 -229953.000000 0 0 1
30.961495 11.805577 5.538885 33.595611 0.364281 1.405171 0.125202 -0.035278 187246.000000 0 0 1
31.419155 10.949577 4.509785 33.576699 0.335338 1.436076 0.137873 -0.046087 206661.000000 0 0 1
30.657965 11.288077 3.178185 32.824265 0.352790 1.473820 0.109571 -0.051189 -1318880.000000 0 0 1
29.306325 11.157777 3.239985 31.525453 0.363784 1.467841 0.102925 -0.051640 -1594460.000000 0 0 1
28.809005 11.424177 1.946085 31.052501 0.377528 1.508084 0.114392 -0.046359 -795589.000000 0 0 1
27.292405 11.285677 1.849885 29.591619 0.392098 1.508242 0.137288 -0.042282 -490580.000000 0 0 1
26.971005 9.903277 1.724085 28.783371 0.351899 1.510862 0.119848 -0.041008 -171829.000000 0 0 1
25.631605 9.563177 1.994185 27.430098 0.357105 1.498032 0.120917 -0.039666 -282041.000000 0 0 1
25.215505 8.077777 2.163785 26.566033 0.310020 1.489257 0.130947 -0.037497 343946.000000 0 0 1
25.891505 7.395677 3.220285 27.118929 0.278232 1.451769 0.146109 -0.030641 259225.000000 0 0 1
27.267005 7.129877 3.040585 28.347308 0.255757 1.463328 0.178693 -0.039496 -178637.000000 0 0 1
27.884005 6.443677 4.287285 28.938202 0.227102 1.422096 0.182332 -0.040343 -413728.000000 0 0 1
29.270465 6.278277 4.205485 30.230167 0.211290 1.431228 0.195614 -0.040633 -157175.000000 0 0 1
29.784835 5.556177 5.319685 30.762096 0.184424 1.396993 0.184735 -0.029862 524382.000000 0 0 1
31.336815 5.639677 5.457185 32.304532 0.178064 1.401053 0.168709 -0.035409 463157.000000 0 0 1
31.739345 6.896877 5.934085 33.017666 0.213971 1.390090 0.156815 -0.038394 -459178.000000 0 0 1
33.080735 6.804477 6.354785 34.365960 0.202864 1.384811 0.106578 -0.030382 221875.000000 0 0 1
33.629665 8.007477 7.170385 35.305644 0.233755 1.366279 0.108700 -0.038965 309184.000000 0 0 1
33.058105 7.929977 8.469185 35.034981 0.235431 1.326643 0.122740 -0.040584 498281.000000 0 0 1
33.661565 8.950777 9.286085 36.047867 0.259891 1.310254 0.110844 -0.043013 296543.000000 0 0 1
32.969335 8.925477 10.662685 35.781756 0.264383 1.268208 0.129756 -0.045024 -99289.800000 0 0 1
31.610125 9.314177 10.657685 34.634378 0.286549 1.258001 0.143280 -0.045562 34263.400000 0 0 1
31.063145 9.005277 11.893285 34.459603 0.282167 1.218412 0.126694 -0.044153 665214.000000 0 0 1
29.514055 9.235477 12.109385 33.211604 0.303266 1.197579 0.116499 -0.048458 1035320.000000 0 0 1
29.023625 10.579677 12.347285 33.267940 0.349551 1.190553 0.145257 -0.046561 398017.000000 0 0 1
29.138935 11.517577 11.241485 33.288182 0.376417 1.226322 0.150516 -0.054563 101312.000000 0 0 1
27.823705 11.589377 10.392585 31.882253 0.394674 1.238761 0.115675 -0.038260 337787.000000 0 0 1
27.807105 12.559277 9.353685 31.913350 0.424231 1.273333 0.105430 -0.017634 -474653.000000 0 0 1
26.538605 12.643477 8.798685 30.685044 0.444605 1.279972 0.093310 -0.019407 -765938.000000 0 0 1
26.402305 13.797677 7.768885 30.786574 0.481559 1.315692 0.080724 -0.017798 -151114.000000 0 0 1
26.493905 15.094377 8.340685 31.612248 0.517865 1.303792 0.077643 -0.007457 330072.000000 0 0 1
26.510705 16.125777 7.365585 31.892162 0.546481 1.337739 0.066034 -0.005163 -912065.000000 0 0 1
26.209205 17.531077 7.883385 32.502444 0.589540 1.325805 0.084490 -0.008730 686071.000000 0 0 1
24.854705 17.966077 8.024685 31.700660 0.625894 1.314872 0.091909 -0.007304 649445.000000 0 0 1
24.016605 17.208877 8.893185 30.855008 0.621741 1.278424 0.086217 -0.005494 -24212.400000 0 0 1
22.615405 17.859077 9.080485 30.213546 0.668420 1.265534 0.081564 -0.010896 332702.000000 0 0 1
21.891005 18.015577 7.846285 29.416684 0.688589 1.300799 0.088937 -0.017991 321013.000000 0 0 1
20.866005 18.974877 8.016885 29.320753 0.737967 1.293849 0.111719 -0.023738 -90161.600000 0 0 1
20.384605 19.591577 6.654585 29.045576 0.765563 1.339635 0.108479 -0.017251 -29485.200000 0 0 1
21.337505 20.409277 6.017085 30.133586 0.763167 1.369765 0.074204 -0.001777 84503.700000 0 0 1
20.825105 21.002877 4.846485 29.971557 0.789648 1.408380 0.089459 -0.008461 -8481.400000 0 0 1
17.151702 16.477177 32.973476 40.656222 0.765343 0.624883 0.105090 -0.010616 23399.800000 0 0 1
16.876702 17.496977 32.018749 40.201587 0.803441 0.649387 0.084709 -0.009940 217138.000000 0 0 1
16.501402 16.866977 30.790419 38.792281 0.796353 0.653887 0.086539 -0.015419 38396.500000 0 0 1
16.150102 17.971477 29.707049 38.292408 0.838727 0.682823 0.098208 -0.018552 517700.000000 0 0 1
17.263202 18.413477 28.925549 38.389604 0.817629 0.717467 0.106461 -0.018166 424595.000000 0 0 1
16.797702 18.818477 27.642889 37.422282 0.842075 0.739694 0.105473 -0.028377 64251.500000 0 0 1
17.948902 19.090277 26.646519 37.371630 0.816204 0.777008 0.098810 -0.021550 -396926.000000 0 0 1
18.544002 20.274577 26.902579 38.453703 0.829950 0.795945 0.102164 -0.028211 -424240.000000 0 0 1
19.584902 20.537777 25.998449 38.487505 0.809143 0.829149 0.079061 -0.018792 -50780.200000 0 0 1
20.313202 21.892177 26.287909 39.786276 0.822792 0.849008 0.080099 -0.023490 -320837.000000 0 0 1
19.497802 22.948377 25.990429 39.778068 0.866513 0.858748 0.087668 -0.034461 -123812.000000 0 0 1
20.059102 24.132177 26.509789 41.079173 0.877308 0.869336 0.072310 -0.031416 222622.000000 0 0 1
19.235502 25.428877 26.161339 41.243763 0.923184 0.883680 0.100199 -0.033153 420108.000000 0 0 1
19.409702 25.772777 24.768319 40.674835 0.925309 0.916079 0.104892 -0.036223 -141768.000000 0 0 1
18.484002 26.760177 24.465069 40.697727 0.966320 0.925868 0.114272 -0.046277 -414521.000000 0 0 1
18.748002 27.511677 23.180579 40.567465 0.972625 0.962576 0.098782 -0.047132 -69795.900000 0 0 1
19.985202 28.171477 23.320079 41.675730 0.953781 0.976941 0.096815 -0.039784 -290277.000000 0 0 1
20.087502 29.163977 22.296679 41.847188 0.967642 1.008876 0.080687 -0.036573 -76319.200000 0 0 1
21.435002 29.915177 22.219379 42.989277 0.949065 1.027619 0.087811 -0.030338 -235374.000000 0 0 1
22.428302 29.116877 21.648979 42.655592 0.914439 1.038481 0.101140 -0.035208 -635127.000000 0 0 1
23.495902 29.821277 21.050379 43.410649 0.903483 1.064533 0.093410 -0.041501 -11516.900000 0 0 1
23.472002 29.994177 19.531479 42.802619 0.906785 1.096947 0.088894 -0.038319 -340150.000000 0 0 1
22.548802 30.929877 19.037679 42.749725 0.940852 1.109255 0.066345 -0.024733 131841.000000 0 0 1
22.626202 30.942477 17.600279 42.179992 0.939414 1.140361 0.074487 -0.013505 -397919.000000 0 0 1
22.035202 32.184977 16.969279 42.536799 0.970452 1.160445 0.082617 -0.022470 -403063.000000 0 0 1
22.739902 33.422277 17.211979 43.936363 0.973359 1.168266 0.084793 -0.017714 357845.000000 0 0 1
22.865102 -34.001494 16.056179 44.008128 -0.978784 1.197329 0.081850 -0.021029 -41965.000000 0 0 1
23.941702 33.810977 15.000979 44.061510 0.954652 1.223395 0.067379 -0.020349 -5854.680000 0 0 1
23.599502 32.730577 14.162579 42.764539 0.946100 1.233247 0.086522 -0.024045 600159.000000 0 0 1
22.528602 33.002677 13.231179 42.092502 0.971824 1.251039 0.071261 -0.023494 563228.000000 0 0 1
22.041002 31.760177 12.462479 40.618075 0.964120 1.258945 0.073200 -0.036304 -86365.600000 0 0 1
22.998202 31.377377 11.462279 40.556638 0.938294 1.284268 0.096849 -0.046167 255240.000000 0 0 1
22.649802 30.141077 10.812679 39.222597 0.926362 1.291505 0.082087 -0.039800 -1138020.000000 0 0 1
23.659502 29.606977 9.706579 39.122408 0.896593 1.320070 0.082268 -0.035012 1437620.000000 0 0 1
24.872902 29.029377 10.249879 39.578100 0.862357 1.308832 0.090760 -0.033818 816755.000000 0 0 1
25.709102 29.983177 10.843879 40.957765 0.861993 1.302844 0.082304 -0.043394 -1734520.000000 0 0 1
27.128902 29.519777 11.187379 41.623935 0.827578 1.298678 0.091334 -0.042111 -144621.000000 0 0 1
27.287002 28.700377 12.355679 41.484394 0.810637 1.268368 0.098047 -0.032791 119764.000000 0 0 1
28.600602 28.697077 12.898279 42.519199 0.787082 1.262588 0.083979 -0.015511 272754.000000 0 0 1
28.934702 27.436377 13.776079 42.187108 0.758825 1.238148 0.066837 -0.027570 -398826.000000 0 0 1
30.160502 27.538277 14.439079 43.318582 0.739983 1.230970 0.039298 -0.030297 -223423.000000 0 0 1
30.304502 26.515377 15.394279 43.109302 0.718810 1.205636 0.046212 -0.028599 166070.000000 0 0 1
31.512802 26.645677 16.362279 44.393389 0.701905 1.193321 0.044829 -0.036207 -575624.000000 0 0 1
32.764502 26.512077 15.785179 45.006385 0.680308 1.212444 0.071755 -0.025687 -443388.000000 0 0 1
33.709702 26.542677 16.868279 46.102023 0.667004 1.196207 0.049391 -0.026251 702025.000000 0 0 1
35.208202 26.643977 16.458179 47.121021 0.647810 1.213999 0.068772 -0.036472 345674.000000 0 0 1
35.523402 27.890577 15.908379 47.883952 0.665609 1.232132 0.073529 -0.029716 225045.000000 0 0 1
-36.656001 28.221077 15.748879 48.868383 -0.656109 1.242668 0.091723 -0.032570 519862.000000 0 0 1
-36.450901 29.430277 14.783479 49.125967 -0.679234 1.265129 0.070601 -0.027968 98517.900000 0 0 1
36.566202 30.614877 15.337879 50.095991 0.697042 1.259629 0.067595 -0.032567 187835.000000 0 0 1
36.329102 31.587877 14.283579 50.215717 0.715702 1.282369 0.050105 -0.009466 -496903.000000 0 0 1
35.563602 32.764177 14.696479 50.539564 0.744451 1.275742 0.019693 -0.004630 -1234820.000000 0 0 1
35.339802 33.670977 13.656279 50.686588 0.761221 1.298000 -0.008416 -0.001638 254506.000000 0 0 1
34.190202 -33.772094 13.862179 50.016840 -0.779246 1.289969 -0.015006 0.011596 977660.000000 0 0 1
32.850602 33.762877 13.397579 48.975392 0.799092 1.293707 0.019558 0.009201 344110.000000 0 0 1
32.331302 32.848377 14.379279 48.281390 0.793331 1.268386 0.021515 -0.012809 -4871.070000 0 0 1
31.641602 31.827977 13.716579 46.929262 0.788335 1.274184 0.048879 -0.012536 -433761.000000 0 0 1
31.248602 30.705577 14.749379 46.226094 0.776633 1.246048 0.078346 -0.021506 -502501.000000 0 0 1
30.190402 31.075577 15.569279 46.038618 0.799845 1.225815 0.068670 -0.021080 -271066.000000 0 0 1
29.886202 30.148177 16.572979 45.571496 0.789762 1.198592 0.066774 -0.021777 -366452.000000 0 0 1
28.742902 30.538977 17.507379 45.445482 0.815686 1.175329 0.053205 -0.022259 -530748.000000 0 0 1
28.568102 29.559477 18.539479 45.095581 0.802452 1.147119 0.045907 -0.019407 6558.140000 0 0 1
29.153002 30.031777 19.757379 46.283465 0.800245 1.129759 0.036648 -0.022327 58748.100000 0 0 1
29.041202 29.101577 20.986479 46.159782 0.786437 1.098819 0.040001 -0.020055 -19526.800000 0 0 1
27.752302 28.925877 21.535479 45.504653 0.806101 1.077810 0.055973 -0.029004 -66144.000000 0 0 1
27.817702 28.056177 22.632479 45.532436 0.789666 1.050586 0.042392 -0.024781 267262.000000 0 0 1
26.453402 27.803177 23.330979 44.912512 0.810271 1.024559 0.059553 -0.030588 451167.000000 0 0 1
25.498802 27.050877 22.533279 43.470536 0.814925 1.025867 0.101924 -0.034657 555780.000000 0 0 1
24.250602 26.912277 23.187229 43.011742 0.837375 1.001439 0.102426 -0.045651 93247.600000 0 0 1
24.198902 25.780277 24.232469 42.865162 0.817028 0.969977 0.086284 -0.044059 -898547.000000 0 0 1
25.005202 25.990877 25.361609 44.090782 0.804724 0.957931 0.058819 -0.036606 -203933.000000 0 0 1
24.703702 24.983477 26.347719 43.916390 0.791029 0.927355 0.071484 -0.040698 -680339.000000 0 0 1
25.898502 24.703777 27.264919 44.993164 0.761792 0.919800 0.080355 -0.040355 -166239.000000 0 0 1
26.377502 25.830477 28.044919 46.362740 0.774921 0.921153 0.097015 -0.046778 34574.800000 0 0 1
27.170302 26.678677 27.308899 46.858863 0.776269 0.948638 0.064927 -0.026271 -1287780.000000 0 0 1
27.561502 27.984577 28.063629 48.273597 0.793015 0.950415 0.031775 -0.021103 225912.000000 0 0 1
28.329002 27.666877 29.268399 49.240508 0.773574 0.934281 0.048740 -0.019285 572398.000000 0 0 1
28.542202 28.799677 30.134259 50.518831 0.789888 0.931669 0.050500 -0.022375 368372.000000 0 0 1
30.055402 29.048177 30.402389 51.685869 0.768358 0.941947 0.046344 -0.017056 247111.000000 0 0 1
30.627002 29.600777 29.248649 51.669166 0.768361 0.969059 0.019802 -0.015171 -680078.000000 0 0 1
32.007702 29.750677 29.426129 52.682946 0.748868 0.978158 0.048321 -0.020565 -200132.000000 0 0 1
32.760902 30.161077 28.133829 52.673329 0.744103 1.007331 0.035150 -0.011816 -227943.000000 0 0 1
32.474402 31.472577 27.675939 53.019501 0.769733 1.021608 0.034264 -0.013493 293718.000000 0 0 1
33.234102 31.747577 26.514779 53.060792 0.762526 1.047537 0.031254 -0.013521 -48795.700000 0 0 1
32.952002 33.234177 26.116729 53.595042 0.789661 1.061804 0.031460 -0.018104 -545876.000000 0 0 1
33.770702 34.093477 26.852019 54.989603 0.790154 1.060643 0.047590 -0.018051 -58141.800000 0 0 1
33.434602 -32.813094 26.571849 53.857543 -0.776017 1.054833 0.048364 -0.015123 -444521.000000 0 0 1
34.314002 -31.725394 27.186699 54.065404 -0.746220 1.043905 0.059860 -0.017421 -338343.000000 0 0 1
34.198502 -31.658194 28.583239 54.669739 -0.746844 1.020623 0.063530 -0.019753 445107.000000 0 0 1
35.121102 -30.735394 29.136419 55.018971 -0.718901 1.012702 0.072240 -0.025242 -163330.000000 0 0 1
34.939502 -30.430994 30.636169 55.546278 -0.716539 0.986583 0.073134 -0.022683 -337347.000000 0 0 1
35.011902 -31.518294 31.491019 56.664984 -0.732935 0.981543 0.079579 -0.018654 220530.000000 0 0 1
33.877602 -32.355894 31.564829 56.488355 -0.762427 0.977877 0.066429 -0.022099 -281294.000000 0 0 1
33.971202 -33.306794 32.762199 57.764581 -0.775523 0.967734 0.082842 -0.022202 -302922.000000 0 0 1
33.770402 -32.711794 34.031330 58.039925 -0.769476 0.944259 0.072709 -0.020788 167812.000000 0 0 1
34.066102 -33.626994 -33.046725 58.166658 -0.778912 2.175039 0.067559 -0.019609 -129553.000000 0 0 1
33.145002 33.396677 -32.757895 57.332442 0.789180 2.178968 0.057207 -0.017545 -129721.000000 0 0 1
33.248502 32.456877 -33.778605 57.444808 0.773351 2.199403 0.070692 -0.027379 355884.000000 0 0 1
32.384102 31.335577 -33.576545 56.196377 0.768944 2.211159 0.074553 -0.025697 151495.000000 0 0 1
32.590002 30.288277 33.399520 55.632867 0.748808 0.926850 0.063797 -0.017875 -136694.000000 0 0 1
33.846202 29.679477 33.534803 56.133945 0.719901 0.930533 0.075690 -0.031757 -177264.000000 0 0 1
34.114102 28.818177 32.441623 55.197085 0.701443 0.942532 0.066427 -0.024541 1429980.000000 0 0 1
35.628502 28.297677 32.464705 55.893700 0.671221 0.951049 0.060250 -0.018606 1482230.000000 0 0 1
35.758802 27.123877 33.228348 55.843708 0.648934 0.933501 0.056086 -0.016259 839626.000000 0 0 1
-36.434301 26.690577 33.284397 56.104334 -0.632250 0.935695 0.033979 -0.009540 607361.000000 0 0 1
-36.397201 25.248977 33.907176 55.784977 -0.606490 0.917485 0.010651 -0.001523 107757.000000 0 0 1
36.676102 24.230877 33.022416 54.979558 0.583841 0.926506 0.010675 0.000101 269210.000000 0 0 1
36.381402 23.076377 33.774101 54.743177 0.565252 0.905928 0.005532 -0.004675 -93880.300000 0 0 1
35.907802 21.887977 32.887678 53.385889 0.547420 0.907095 0.003010 -0.014116 83913.500000 0 0 1
-36.604301 21.277977 32.132601 53.151964 -0.526554 0.921605 0.014242 -0.004204 166231.000000 0 0 1
36.419202 20.386377 31.230539 52.127816 0.510313 0.928401 0.021530 -0.004401 -433140.000000 0 0 1
-36.106601 19.559177 30.471209 51.134554 -0.496453 0.932407 0.021024 -0.009809 -36973.200000 0 0 1
-35.526401 20.187277 29.312039 50.287642 -0.516734 0.948519 0.024650 -0.002374 531384.000000 0 0 1
-34.485101 19.529877 28.589129 48.866928 -0.515293 0.945866 0.033942 0.001066 212849.000000 0 0 1
-34.992601 18.545377 27.518409 48.225263 -0.487343 0.963533 0.053635 0.002618 -130589.000000 0 0 1
-35.607101 17.372377 28.095049 48.569506 -0.453913 0.953969 0.044531 0.002720 334297.000000 0 0 1
-36.135801 16.550177 27.085249 48.096936 -0.429486 0.972617 0.057016 -0.005203 -157750.000000 0 0 1
-36.721401 15.252377 27.623009 48.416185 -0.393672 0.963642 0.057989 -0.023252 -309779.000000 0 0 1
-35.745801 14.343877 28.041379 47.642713 -0.381605 0.941499 0.068198 -0.015127 -99807.700000 0 0 1
-36.247201 13.417677 28.946929 48.288905 -0.354531 0.927979 0.091076 -0.019006 -449949.000000 0 0 1
-35.162901 12.397877 29.184919 47.348669 -0.338975 0.906655 0.097103 -0.012743 -858329.000000 0 0 1
-33.999301 12.953177 29.703559 46.968486 -0.364006 0.886130 0.100411 -0.006005 -673445.000000 0 0 1
-33.263801 11.920377 30.293169 46.543012 -0.344102 0.862074 0.090597 -0.008090 88854.500000 0 0 1
-31.730301 12.151277 30.413649 45.601048 -0.365727 0.840688 0.096255 -0.004628 -468811.000000 0 0 1
-31.056201 12.225077 29.148039 44.311943 -0.375015 0.852913 0.088347 0.000171 820014.000000 0 0 1
-29.670201 12.555177 29.273649 43.530447 -0.400309 0.833233 0.065465 -0.000682 1174280.000000 0 0 1
-28.720001 11.490677 29.942569 43.051499 -0.380587 0.801673 0.066645 -0.005452 -563476.000000 0 0 1
-28.455101 10.410177 29.085919 42.000658 -0.350721 0.805832 0.068077 -0.010371 -248333.000000 0 0 1
-27.334001 9.719677 29.575609 41.428690 -0.341645 0.775756 0.067385 -0.011972 -321534.000000 0 0 1
-26.981001 8.527577 28.641119 40.261740 -0.306124 0.779346 0.057579 -0.020095 866449.000000 0 0 1
-27.898501 7.363377 28.596309 40.623818 -0.258050 0.789881 0.071379 -0.025284 800004.000000 0 0 1
-29.165601 7.635477 28.031159 41.166475 -0.256051 0.821775 0.073372 -0.026386 30633.900000 0 0 1
-30.066101 6.346077 27.948829 41.537696 -0.208018 0.832736 0.078154 -0.024683 108568.000000 0 0 1
-30.670201 5.990577 29.162709 42.743559 -0.192894 0.819931 0.090842 -0.019172 -402765.000000 0 0 1
-31.445901 4.867977 29.020859 43.066834 -0.153586 0.831381 0.108183 -0.024660 -773154.000000 0 0 1
-32.186601 4.466877 30.296369 44.427472 -0.137900 0.820400 0.092422 -0.025104 -573302.000000 0 0 1
-33.385701 5.182277 30.374399 45.431984 -0.153995 0.838514 0.106587 -0.029774 -417741.000000 0 0 1
-34.005601 4.957477 31.646169 46.716566 -0.144764 0.826563 0.118465 -0.030569 -417988.000000 0 0 1
-35.484601 5.251377 31.811979 47.945134 -0.146924 0.845299 0.108444 -0.024463 -673220.000000 0 0 1
-35.828801 6.654277 31.961359 48.471753 -0.183632 0.850801 0.107790 -0.022989 970867.000000 0 0 1
36.309702 6.854277 32.134765 48.969569 0.186577 0.854999 0.116010 -0.019767 936252.000000 0 0 1
36.074502 8.288577 32.669016 49.369371 0.225843 0.847677 0.095586 -0.014046 -255654.000000 0 0 1
36.340702 8.421277 34.038885 50.499606 0.227712 0.831128 0.099460 -0.015138 115756.000000 0 0 1
36.134302 9.737277 -33.645525 50.324186 0.263222 2.303088 0.096545 -0.015235 -31866.800000 0 0 1
35.990702 9.792477 -32.060585 49.184391 0.265653 2.280811 0.087238 -0.014145 -180059.000000 0 0 1
34.755302 9.359877 -31.560765 47.870870 0.263067 2.290670 0.092228 -0.012760 -157448.000000 0 0 1
34.674502 9.522077 -30.143415 46.921387 0.268007 2.268453 0.061511 -0.004198 -492264.000000 0 0 1
33.416002 8.912877 -29.565845 45.499536 0.260657 2.278125 0.064105 0.001950 -751945.000000 0 0 1
33.453202 7.499777 -29.476165 45.212915 0.220541 2.280938 0.065597 -0.005231 -329710.000000 0 0 1
32.335002 6.938277 -28.892315 43.914211 0.211370 2.288858 0.062318 -0.000986 -1174250.000000 0 0 1
35.648935 5.707477 -19.425815 40.997368 0.158755 2.064432 0.078574 -0.022943 -381994.000000 0 0 1
35.185725 6.602977 -18.452315 40.275582 0.185503 2.046711 0.079432 -0.021024 206354.000000 0 0 1
35.601075 7.915977 -18.711615 40.990533 0.218793 2.044838 0.054226 -0.015904 523876.000000 0 0 1
-36.516938 8.304777 -18.207715 41.641049 -0.223619 2.023339 0.059890 -0.022537 1885540.000000 0 0 1
-35.374059 7.702977 -18.890415 40.835128 -0.214411 2.051724 0.066521 -0.031074 1366450.000000 0 0 1
-34.875330 8.369577 -20.074515 41.101395 -0.235531 2.081068 0.050930 -0.023844 -44505.000000 0 0 1
-33.979088 7.494977 -20.966915 40.624680 -0.217100 2.113103 0.025068 -0.007978 414894.000000 0 0 1
-34.715630 6.531277 -21.779515 41.499155 -0.185963 2.123298 0.037278 -0.003319 755645.000000 0 0 1
-35.388080 6.980177 -22.943615 42.748668 -0.194747 2.137329 0.032428 0.003591 220658.000000 0 0 1
-35.636564 5.865677 -23.931715 43.325488 -0.163134 2.156001 0.066082 -0.001478 896236.000000 0 0 1
-34.407144 5.559077 -24.624215 42.674429 -0.160183 2.185878 0.074526 -0.008403 827204.000000 0 0 1
-34.379270 4.324077 -25.240895 42.868808 -0.125119 2.200362 0.099024 -0.009924 -213381.000000 0 0 1
-33.150038 4.121077 -26.126475 42.408738 -0.123681 2.234532 0.107575 -0.008379 933652.000000 0 0 1
-31.878588 4.049677 -25.439965 40.985804 -0.126358 2.240434 0.090502 -0.013040 1547760.000000 0 0 1
-30.783888 3.670677 -26.320975 40.668359 -0.118680 2.274715 0.105607 -0.012112 1079220.000000 0 0 1
-29.381538 3.828077 -25.700725 39.223160 -0.129559 2.285301 0.101909 -0.023002 -32908.400000 0 0 1
-28.989038 5.143177 -25.417405 38.895515 -0.175591 2.282968 0.077395 -0.009049 562459.000000 0 0 1
-27.636068 5.335277 -24.998715 37.645096 -0.190709 2.297036 0.066098 -0.011964 770502.000000 0 0 1
-27.118378 6.795977 -25.207265 37.643033 -0.245547 2.304520 0.053890 -0.009911 78458.000000 0 0 1
-27.932248 7.715377 -24.493915 37.943239 -0.269498 2.272528 0.057024 -0.011074 96752.300000 0 0 1
-27.632958 9.124577 -24.671315 38.151174 -0.318934 2.274010 0.032697 -0.010325 80164.400000 0 0 1
-26.299748 9.519077 -23.974615 36.838455 -0.347277 2.279439 0.083021 -0.013607 116965.000000 0 0 1
-26.421338 9.835377 -22.619515 36.145044 -0.356359 2.246951 0.043188 -0.011674 -523828.000000 0 0 1
-25.144048 9.971277 -22.090615 34.923414 -0.377543 2.255630 0.084322 -0.025044 -812592.000000 0 0 1
-25.044698 10.371077 -20.548115 34.015014 -0.392604 2.219419 0.098012 -0.039454 -1307310.000000 0 0 1
-25.317918 11.762177 -20.304415 34.519778 -0.434912 2.199623 0.075084 -0.034503 -72370.900000 0 0 1
-26.671728 12.108277 -20.257815 35.614190 -0.426154 2.175858 0.067054 -0.014406 -472618.000000 0 0 1
-27.523038 11.460077 -19.121615 35.418740 -0.394548 2.141082 0.041942 -0.014719 -874888.000000 0 0 1
-27.150208 11.883177 -17.781515 34.561915 -0.412564 2.111201 0.044307 -0.024003 21166.100000 0 0 1
-27.962218 11.372577 -16.769415 34.531644 -0.386279 2.077874 0.021266 -0.027687 -769291.000000 0 0 1
-27.231698 11.088477 -15.432515 33.206660 -0.386689 2.054139 0.045144 -0.029301 508726.000000 0 0 1
-26.374068 9.906577 -15.395315 32.105256 -0.359312 2.070911 0.060491 -0.032855 1314480.000000 0 0 1
-25.065698 10.198977 -15.898015 31.385590 -0.386432 2.101962 0.073241 -0.028477 -367824.000000 0 0 1
-24.204198 8.939077 -16.079615 30.402374 -0.353781 2.128092 0.061639 -0.024417 504117.000000 0 0 1
-22.828898 9.280377 -15.855015 29.302995 -0.386113 2.142507 0.078987 -0.027250 511091.000000 0 0 1
-22.074698 8.202177 -15.386015 28.130010 -0.355755 2.149526 0.089170 -0.026639 -551744.000000 0 0 1
-20.589298 8.503577 -15.200415 26.968178 -0.391671 2.169585 0.119610 -0.036345 -627131.000000 0 0 1
-19.992098 8.793577 -16.412515 27.319986 -0.414383 2.215237 0.125943 -0.053921 232911.000000 0 0 1
-18.587398 8.969277 -16.287915 26.291358 -0.449587 2.238922 0.127565 -0.050579 -298322.000000 0 0 1
-17.879098 9.471077 -17.573115 26.798840 -0.487147 2.285961 0.099743 -0.038457 -60022.100000 0 0 1
-17.701798 8.553077 -18.621315 27.078814 -0.450098 2.329073 0.136619 -0.058171 247178.000000 0 0 1
-16.763898 7.518377 -18.352815 25.968830 -0.421594 2.355654 0.144199 -0.053913 -594765.000000 0 0 1
-16.416298 6.729077 -19.645815 26.471369 -0.389014 2.407074 0.118471 -0.050936 -606913.000000 0 0 1
-17.341798 5.912577 -20.226015 27.290809 -0.328584 2.405547 0.116205 -0.046023 -1319510.000000 0 0 1
-18.322798 6.562477 -20.954215 28.598430 -0.343925 2.393085 0.113873 -0.051740 -405444.000000 0 0 1
-19.284998 5.623977 -21.734915 29.596399 -0.283755 2.395545 0.096829 -0.034619 -207606.000000 0 0 1
-20.046098 4.857077 -20.860915 29.336241 -0.237714 2.361854 0.111535 -0.040870 -150088.000000 0 0 1
-20.827298 3.895077 -21.523915 30.203094 -0.184882 2.364050 0.067277 -0.011199 -188347.000000 0 0 1
-21.749198 3.162077 -20.494815 30.051020 -0.144377 2.321291 0.077856 -0.019832 -191344.000000 0 0 1
-22.346398 2.034977 -21.037215 30.758203 -0.090815 2.323966 0.086044 -0.019003 -107570.000000 0 0 1
-23.070898 1.377677 -20.052315 30.598361 -0.059644 2.285428 0.078570 -0.021648 -484977.000000 0 0 1
-23.775598 0.092177 -20.526715 31.410724 -0.003877 2.282987 0.074378 -0.012505 -268003.000000 0 0 1
-22.975998 -1.061923 -20.497615 30.808707 0.046186 2.298717 0.077329 -0.019618 210681.000000 0 0 1
-23.718398 -2.260123 -20.770215 31.608107 0.095003 2.287784 0.081839 -0.020231 -153899.000000 0 0 1
-24.218598 -2.448623 -22.238715 32.971150 0.100763 2.311070 0.095806 -0.021166 798148.000000 0 0 1
-23.112398 -2.561023 -23.150015 32.812574 0.110357 2.353957 0.068656 -0.016595 647542.000000 0 0 1
-22.288298 -3.716723 -23.024615 32.260117 0.165236 2.365588 0.063199 -0.027987 -229891.000000 0 0 1
-21.355698 -3.677623 -24.265015 32.532779 0.170535 2.412627 0.062210 -0.022164 -209172.000000 0 0 1
-22.031198 -3.705723 -25.518035 33.915722 0.166644 2.422487 0.064304 -0.022820 55367.700000 0 0 1
-21.153998 -3.536823 -26.602735 34.171718 0.165662 2.463071 0.060862 -0.029976 -129249.000000 0 0 1
-21.850198 -3.755023 -27.950455 35.675752 0.170191 2.471007 0.052669 -0.029900 8405.300000 0 0 1
-22.184698 -5.096223 -28.174585 36.220707 0.225800 2.462047 0.062146 -0.025869 128245.000000 0 0 1
-22.872898 -5.354823 -29.388195 37.623259 0.229970 2.467250 0.041690 -0.019468 -521606.000000 0 0 1
-22.486898 -6.597523 -30.182895 38.212499 0.285385 2.481393 0.060788 -0.025779 106074.000000 0 0 1
-21.183198 -6.489123 -30.736465 37.888876 0.297257 2.517043 0.054084 -0.028138 -196166.000000 0 0 1
-20.586898 -7.703023 -30.932535 37.947051 0.358044 2.523784 0.047045 -0.027639 -498943.000000 0 0 1
-19.182498 -7.498823 -31.540285 37.669486 0.372654 2.563104 0.052149 -0.027306 -438822.000000 0 0 1
-19.142398 -7.066523 -32.879185 38.696356 0.353637 2.586158 0.052664 -0.030026 334861.000000 0 0 1
-19.300198 -8.079723 -33.833465 39.780434 0.396466 2.587741 0.049685 -0.026236 -591240.000000 0 0 1
-19.323998 -7.534923 32.812048 38.817811 0.371792 0.563701 0.045616 -0.019419 -215600.000000 0 0 1
-18.090898 -7.216223 32.220662 37.650040 0.379546 0.543713 0.050722 -0.020218 -21581.000000 0 0 1
-17.375298 -6.068723 32.701670 37.525053 0.336027 0.512620 0.038439 -0.021656 174706.000000 0 0 1
-16.028198 -5.947523 31.943749 36.230916 0.355317 0.491404 0.038225 -0.022283 -32177.900000 0 0 1
-16.240798 -5.750923 30.547829 35.071448 0.340326 0.513528 0.041506 -0.018877 315486.000000 0 0 1
-15.116798 -5.128223 29.955799 33.943573 0.327057 0.489607 0.040867 -0.017194 162122.000000 0 0 1
-15.378498 -5.064123 28.467789 32.749940 0.318115 0.517119 0.048291 -0.007138 24291.400000 0 0 1
-16.354098 -4.095023 28.161959 32.822579 0.245353 0.539422 0.046256 -0.013703 -244526.000000 0 0 1
-16.961398 -4.190823 26.907849 32.082462 0.242229 0.575888 0.064750 -0.011124 -288653.000000 0 0 1
-16.162698 -3.949923 25.594319 30.527101 0.239687 0.576431 0.062557 -0.009762 -78097.200000 0 0 1
-15.739598 -2.594823 25.441109 30.028621 0.163390 0.560050 0.059958 0.003241 -245336.000000 0 0 1
-14.960798 -2.364623 24.323029 28.653563 0.156758 0.556960 0.045590 0.001145 -459.798000 0 0 1
-14.414398 -0.905223 24.336959 28.299856 0.062718 0.535590 0.053258 -0.002727 41454.200000 0 0 1
-15.422198 -0.029523 23.890529 28.435936 0.001914 0.573232 0.051785 -0.006452 -61227.000000 0 0 1
-15.189898 1.331877 24.195839 28.599747 -0.087458 0.562329 0.043829 -0.002521 -17022.700000 0 0 1
-16.189498 2.314577 23.507989 28.637085 -0.142006 0.607823 0.042681 -0.002631 111172.000000 0 0 1
-15.997198 2.529377 22.097279 27.397041 -0.156816 0.632491 0.054304 -0.004225 3784.550000 0 0 1
-16.515398 3.739977 21.687979 27.515709 -0.222698 0.662912 0.035523 -0.002243 -405372.000000 0 0 1
-15.608098 4.401877 20.637079 26.246491 -0.274886 0.666032 0.029337 0.001508 -616628.000000 0 0 1
-14.441198 4.873377 21.195879 26.106767 -0.325463 0.623410 0.044940 -0.001339 -395809.000000 0 0 1
-13.523898 5.371077 20.218679 24.910626 -0.378051 0.623827 0.052755 -0.005792 140632.000000 0 1 0
-12.473098 6.351677 20.714679 25.000398 -0.471004 0.594241 0.051733 -0.006750 -156790.000000 0 0 1
-12.928398 7.699277 20.789479 25.663686 -0.537128 0.626518 0.052173 -0.008858 983214.000000 0 0 1
-11.835398 8.674777 20.834979 25.483814 -0.632501 0.613606 0.052123 -0.004950 833963.000000 0 0 1
-12.239198 10.185077 20.917179 26.288061 -0.694051 0.650648 0.042386 0.005031 -85978.000000 0 0 1
-12.734098 10.653477 19.682979 25.750213 -0.696669 0.700715 0.049315 -0.001001 137158.000000 0 0 1
-13.166398 11.954577 19.739679 26.569172 -0.737196 0.733323 0.032208 -0.000228 -679187.000000 0 0 1
-13.525398 12.528477 18.367179 26.024073 -0.747153 0.787278 0.030477 -0.003897 37104.600000 0 0 1
-12.467098 13.017077 17.525079 25.139635 -0.806976 0.799438 0.025808 -0.011470 734764.000000 0 0 1
-11.812098 14.213677 17.994279 25.794347 -0.877415 0.798746 0.019905 -0.019334 -841179.000000 0 0 1
-12.587298 15.522677 17.660479 26.669947 -0.889446 0.847063 0.006883 -0.017841 -16757.900000 0 0 1
-12.578998 16.110177 16.334879 26.164810 -0.907866 0.896552 -0.003772 -0.013701 303890.000000 0 0 1
-13.370698 15.283477 15.472279 25.529427 -0.852053 0.919703 0.013187 -0.010692 -211950.000000 0 0 1
-13.792698 15.839877 14.104279 25.299623 -0.854374 0.979437 0.005699 -0.010826 182751.000000 0 0 1
-14.833998 16.850677 14.125579 26.524042 -0.848961 1.009177 0.015081 -0.017594 591984.000000 0 0 1
-15.360198 17.004177 12.829379 26.261582 -0.836150 1.060400 -0.001627 -0.017093 44026.300000 0 0 1
-16.505098 18.047177 12.784179 27.596270 -0.829999 1.089129 0.028615 -0.021303 176533.000000 0 0 1
-17.751198 17.577977 13.282279 28.293272 -0.780495 1.082128 0.044927 -0.020948 578007.000000 0 0 1
-18.666998 18.683777 13.390079 29.611392 -0.785847 1.101573 0.058056 -0.021642 953411.000000 0 0 1
-20.168798 18.348177 13.655279 30.494306 -0.738165 1.106496 0.066015 -0.018787 691265.000000 0 0 1
-20.776198 17.643477 12.596379 30.026846 -0.704039 1.137898 0.059972 -0.018421 -513001.000000 0 0 1
-21.984898 17.064377 12.999079 30.716523 -0.660051 1.133828 0.101137 -0.028919 -458179.000000 0 0 1
-22.778598 16.470877 11.840979 30.501854 -0.626052 1.172113 0.093443 -0.026798 -268580.000000 0 0 1
-22.396998 15.174577 11.385179 29.351586 -0.595484 1.172455 0.092391 -0.022244 67246.300000 0 0 1
-23.127998 14.756077 10.263179 29.291278 -0.567906 1.212816 0.101378 -0.019038 -215978.000000 0 0 1
-22.601398 13.375077 9.864779 28.054051 -0.534354 1.211480 0.106866 -0.026127 -61839.700000 0 0 1
-22.930898 12.210177 10.720979 28.104340 -0.489290 1.179410 0.103000 -0.034785 819713.000000 0 0 1
-24.286898 11.738477 10.717879 29.026164 -0.450219 1.192596 0.124645 -0.039631 712521.000000 0 0 1
-24.835898 11.073677 9.413079 28.775931 -0.419417 1.237546 0.133491 -0.023920 -165678.000000 0 0 1
-25.332688 12.070177 8.487179 29.316659 -0.444644 1.277092 0.147790 -0.025599 247743.000000 0 0 1
-26.317048 11.585377 7.610879 29.744470 -0.414694 1.312043 0.163987 -0.027563 -502299.000000 0 0 1
-26.762798 12.679677 6.582979 30.337389 -0.442452 1.352064 0.141529 -0.017710 -316487.000000 0 0 1
-25.992438 13.004777 5.435679 29.568187 -0.463911 1.385909 0.141685 -0.017985 -68980.400000 0 0 1
-24.700698 13.504477 5.638979 28.710512 -0.500325 1.373103 0.134992 -0.018284 -759323.000000 0 0 1
-24.488198 14.985477 6.116179 29.353774 -0.549158 1.360898 0.127989 -0.016509 705359.000000 0 0 1
-23.083198 15.276077 6.338079 28.396546 -0.584614 1.345701 0.096285 -0.011536 1436090.000000 0 0 1
-22.871098 16.612377 6.893179 29.095947 -0.628191 1.331610 0.091516 -0.011332 1259510.000000 0 0 1
-21.443398 17.228977 6.531279 28.272152 -0.676849 1.337676 0.068626 -0.008825 1182500.000000 0 0 1
-21.106798 17.652277 5.202579 28.002976 -0.696505 1.383924 0.078314 -0.024171 277869.000000 0 0 1
-19.809498 18.206577 5.236579 27.410170 -0.743259 1.378570 0.081973 -0.015934 -188927.000000 0 0 1
-19.474898 19.184277 4.093279 27.641691 -0.777881 1.422166 0.086837 -0.019219 250051.000000 0 0 1
-18.058598 19.376877 4.192979 26.817110 -0.820598 1.413798 0.075308 -0.018886 838262.000000 0 0 1
-17.556698 20.479777 3.415279 27.190496 -0.862097 1.444858 0.081219 -0.010573 205595.000000 0 0 1
-17.814898 21.925077 3.974579 28.528528 -0.888459 1.431022 0.068618 -0.016297 -403968.000000 0 0 1
-17.167098 22.067177 5.187879 28.435605 -0.909648 1.387326 0.091410 -0.020307 -177546.000000 0 0 1
-17.435598 23.303277 5.799179 29.676140 -0.928446 1.374115 0.066138 -0.014972 -621136.000000 0 0 1
-16.760098 23.581377 7.133479 29.797127 -0.952902 1.329047 0.048447 0.002612 -215509.000000 0 0 1
-17.275398 22.852077 8.218879 29.802798 -0.923488 1.291400 0.034746 0.000870 29055.900000 0 0 1
-16.525798 23.066177 9.397279 29.890791 -0.949114 1.250985 0.035463 -0.000418 116629.000000 0 0 1
-17.081698 22.329277 10.652279 30.064133 -0.917770 1.208611 0.024149 -0.004935 938977.000000 0 0 1
-18.251598 22.975077 11.200379 31.407380 -0.899474 1.206153 0.020712 0.008166 500545.000000 0 0 1
-19.141998 22.087877 11.890779 31.554414 -0.856727 1.184420 0.018425 0.001573 493792.000000 0 0 1
-20.423598 22.910677 12.211379 33.032412 -0.842728 1.192133 0.023796 -0.006364 -261769.000000 0 0 1
-21.055298 23.464877 11.096979 33.422582 -0.839469 1.232352 0.027630 -0.006007 -156337.000000 0 0 1
-20.636998 24.809577 10.750779 34.014410 -0.876954 1.249217 0.027075 0.004285 -804608.000000 0 0 1
-21.671298 25.633377 10.009479 35.027202 -0.868960 1.280994 0.040815 0.006843 -496166.000000 0 0 1
-22.600298 26.159377 10.928679 36.256344 -0.858261 1.264606 0.051335 -0.007142 95985.000000 0 0 1
-23.213498 27.325177 10.323779 37.311020 -0.866576 1.290443 0.064135 -0.010643 -42117.900000 0 0 1
-23.925698 28.255477 11.321779 38.716840 -0.868184 1.274034 0.061117 -0.005760 -185195.000000 0 0 1
-23.088098 28.999377 12.183079 39.018605 -0.898402 1.253249 0.082050 -0.017077 313508.000000 0 0 1
-23.850198 29.918777 12.948679 40.393483 -0.897787 1.244472 0.079699 -0.016701 -61509.400000 0 0 1
9.302302 -33.208094 28.323799 44.626762 -1.297675 0.883199 0.050641 -0.023388 -517922.000000 0 0 1
10.523702 -33.043394 27.631709 44.341014 -1.262472 0.898015 0.048310 -0.037372 293735.000000 0 0 1
10.525002 -32.352594 26.435369 43.084739 -1.256273 0.910227 0.058184 -0.032515 255335.000000 0 0 1
11.932302 -32.434394 25.765329 43.107098 -1.218273 0.930161 0.041789 -0.027017 234272.000000 0 0 1
12.449102 -33.704794 25.466629 44.040237 -1.216982 0.954204 0.058978 -0.034793 -435779.000000 0 0 1
13.843002 -33.604594 25.553769 44.428511 -1.180041 0.957989 0.071489 -0.027064 -315613.000000 0 0 1
14.577902 33.298877 25.473419 44.387222 1.158143 0.959547 0.094135 -0.023818 -93749.100000 0 0 1
14.448702 32.672077 24.210549 43.155304 1.154419 0.975191 0.088904 -0.037471 385139.000000 0 0 1
15.393902 31.610177 24.118319 42.636473 1.117609 0.969547 0.098276 -0.033734 -201055.000000 0 0 1
15.743402 31.116277 22.695579 41.607292 1.102397 0.993845 0.096905 -0.043944 -313167.000000 0 0 1
14.824702 30.295877 22.008679 40.273985 1.115721 0.992648 0.089611 -0.036914 -193201.000000 0 0 1
14.801702 28.848677 22.314979 39.361083 1.096739 0.968022 0.093452 -0.035783 -176583.000000 0 0 1
14.463502 28.230877 23.695159 39.593382 1.097334 0.929216 0.106485 -0.039815 3856.560000 0 0 1
15.439902 28.490177 24.696489 40.743065 1.074164 0.919583 0.100493 -0.034359 211579.000000 0 0 1
15.017302 28.093677 25.975839 41.103750 1.079897 0.886719 0.100157 -0.036819 -154551.000000 0 0 1
15.971502 28.476777 27.146359 42.461047 1.059653 0.877178 0.115565 -0.039023 115500.000000 0 0 1
16.072502 29.852777 27.357899 43.565677 1.076909 0.891855 0.118795 -0.034870 56522.100000 0 0 1
16.508002 30.156477 28.704939 44.787283 1.069943 0.875104 0.118424 -0.036398 91404.600000 0 0 1
16.292802 31.647977 29.086979 45.968491 1.095368 0.885685 0.118278 -0.036866 -233519.000000 0 0 1
17.136402 32.477077 28.391199 46.416344 1.085277 0.912634 0.104148 -0.031809 -203530.000000 0 0 1
16.727602 33.793577 28.673159 47.370545 1.111162 0.920660 0.106885 -0.023409 409355.000000 0 0 1
17.575602 -33.408594 27.846569 46.909139 -1.086503 0.935237 0.098051 -0.024470 -184797.000000 0 0 1
17.363902 -33.318694 26.430249 45.936897 -1.090375 0.957752 0.104216 -0.021693 -70599.400000 0 0 1
17.839602 -32.121294 25.859599 44.930477 -1.063830 0.957524 0.113412 -0.027667 -591644.000000 0 0 1
19.321102 -31.759794 25.762689 45.229478 -1.024259 0.964778 0.106879 -0.019636 -579289.000000 0 0 1
19.842802 -31.109994 26.897189 45.662099 -1.003026 0.940916 0.097855 -0.018534 -544909.000000 0 0 1
20.958902 -30.326794 26.678599 45.505359 -0.966067 0.944345 0.102368 -0.018863 -652360.000000 0 0 1
21.186802 -29.429794 27.938689 45.777327 -0.946833 0.914335 0.100266 -0.014298 75013.800000 0 0 1
20.111602 -28.531494 28.184799 44.865416 -0.956795 0.891549 0.106630 -0.012730 295161.000000 0 0 1
20.365402 -27.730694 29.362579 45.231649 -0.937355 0.864317 0.116279 -0.004925 -69933.100000 0 0 1
19.069502 -27.297694 30.049279 44.852750 -0.961027 0.836650 0.096310 -0.005794 -4081.240000 0 0 1
18.205002 -26.479694 29.305339 43.490219 -0.968504 0.831406 0.127946 -0.006761 154501.000000 0 0 1
16.946402 -26.298994 29.917879 43.288533 -0.998386 0.807749 0.096275 -0.005531 467202.000000 0 0 1
15.800502 -25.578994 29.132419 41.864527 -1.017454 0.801161 0.086593 0.003479 48480.400000 0 0 1
15.308802 -26.428294 28.108029 41.507535 -1.045768 0.826874 0.087017 -0.002091 235960.000000 0 0 1
14.684102 -25.827294 26.964099 40.121498 -1.053823 0.833808 0.087467 -0.026125 -864447.000000 0 0 1
13.304302 -25.150594 27.069499 39.272314 -1.084230 0.810306 0.052548 -0.012189 -11669.100000 0 0 1
12.182902 -25.997794 27.246639 39.581406 -1.132572 0.811557 0.047967 -0.009846 321814.000000 0 0 1
11.949402 -26.861394 26.132109 39.334588 -1.152230 0.844167 0.048816 -0.018350 -1362320.000000 0 0 1
11.049102 -28.079794 26.446359 40.124399 -1.195915 0.851163 0.056281 -0.025991 1185240.000000 0 0 1
9.672802 -27.609994 26.568989 39.519439 -1.233821 0.833483 0.044740 -0.032099 906344.000000 0 0 1
8.844202 -28.760894 26.624669 40.178128 -1.272466 0.846424 0.041627 -0.032405 -1157480.000000 0 0 1
7.418902 -28.367094 26.974019 39.841308 -1.314994 0.827068 0.044675 -0.035830 -457940.000000 0 0 1
6.519302 -28.173294 25.868829 38.799898 -1.343399 0.840992 0.064192 -0.040512 374064.000000 0 0 1
6.810102 -27.012194 25.112569 37.505696 -1.323831 0.837171 0.078961 -0.040806 -756642.000000 0 0 1
5.624702 -26.612394 24.191009 36.401397 -1.362505 0.843888 0.079256 -0.037672 -171054.000000 0 0 1
5.372802 -27.646594 23.156189 36.461079 -1.378850 0.882667 0.063259 -0.031445 45933.100000 0 0 1
4.623502 -28.798694 23.550249 37.488075 -1.411609 0.891551 0.060007 -0.032475 313251.000000 0 0 1
3.116902 -28.508994 23.888689 37.324888 -1.461898 0.876272 0.050987 -0.033785 -286730.000000 0 0 1
2.429302 -28.116694 22.728879 36.236059 -1.484610 0.892786 0.046940 -0.034536 -82340.800000 0 0 1
1.046202 -27.927794 22.942379 36.158111 -1.533353 0.883433 0.053698 -0.031974 118342.000000 0 0 1
0.630702 -26.518194 23.407719 35.377022 -1.547017 0.847760 0.060674 -0.035995 -485595.000000 0 0 1
1.037902 -26.270794 24.700019 36.073852 -1.531309 0.816595 0.055866 -0.037444 -160685.000000 0 0 1
1.085302 -24.866594 24.896229 35.204369 -1.527179 0.785278 0.068268 -0.031942 -242603.000000 0 0 1
2.129202 -24.344094 25.901399 35.609702 -1.483556 0.756316 0.068199 -0.029301 -1214050.000000 0 0 1
3.411202 -24.304494 25.381609 35.306810 -1.431354 0.768596 0.074434 -0.030687 230583.000000 0 0 1
4.391102 -23.579194 26.216829 35.532834 -1.386678 0.740962 0.069366 -0.023071 1161090.000000 0 0 1
4.173202 -22.046494 26.337859 34.599803 -1.383719 0.705613 0.059601 -0.015885 -703036.000000 0 0 1
4.292802 -21.435794 25.107759 33.291455 -1.373148 0.716391 0.057869 -0.016019 389504.000000 0 0 1
3.665802 -20.150794 25.117519 32.409603 -1.390846 0.684077 0.066150 -0.015306 21620.600000 0 0 1
3.881702 -19.320794 23.809319 30.907028 -1.372528 0.691402 0.060974 -0.018278 65734.600000 0 0 1
5.002502 -18.454994 23.781169 30.514846 -1.306092 0.677199 0.051929 -0.008044 33414.200000 0 0 1
5.012602 -17.639494 22.642779 29.137148 -1.293926 0.680735 0.039900 -0.002200 543868.000000 0 0 1
6.494402 -17.319094 22.290479 28.965389 -1.212039 0.692651 0.034419 0.000013 291111.000000 0 0 1
7.289502 -18.342294 21.683779 29.321713 -1.192520 0.738450 0.028354 0.000789 280596.000000 0 0 1
8.497402 -17.890594 21.090079 28.932173 -1.127377 0.754011 0.019755 0.000641 544402.000000 0 0 1
9.749502 -17.903094 22.005179 29.996691 -1.072131 0.747211 0.044442 0.005057 -94271.900000 0 0 1
9.610302 -16.934394 23.077679 30.194550 -1.054615 0.700842 0.058060 0.014875 717777.000000 0 0 1
10.625002 -17.224294 24.071649 31.448549 -1.018071 0.699088 0.065462 0.014187 605872.000000 0 0 1
10.412402 -16.283594 25.303039 31.840498 -1.001880 0.652314 0.078382 -0.009706 26283.400000 0 0 1
10.960902 -14.960994 25.202669 31.291329 -0.938504 0.634412 0.088323 -0.003384 255853.000000 0 0 1
11.016702 -14.433794 26.512629 32.134431 -0.918864 0.600499 0.079684 -0.010811 20775.400000 0 0 1
11.289902 -12.933594 26.588369 31.649346 -0.853150 0.573343 0.088028 -0.010331 -205171.000000 0 0 1
10.198202 -12.186194 26.148639 30.598333 -0.873977 0.546060 0.097076 -0.009688 -13287.600000 0 0 1
10.631402 -10.866794 25.925939 30.054421 -0.796347 0.530344 0.095118 -0.010209 705483.000000 0 0 1
9.601302 -10.093394 24.991009 28.611399 -0.810379 0.508525 0.096298 -0.010681 1292870.000000 0 0 1
8.346802 -9.725194 25.588709 28.618709 -0.861523 0.464322 0.084758 -0.008856 460957.000000 0 0 1
7.471602 -9.175594 24.608779 27.305830 -0.887402 0.448201 0.073907 -0.003608 -519671.000000 0 0 1
6.052902 -9.415894 25.099289 27.482194 -0.999472 0.419500 0.071774 -0.011381 -1713140.000000 0 0 1
5.652402 -8.435294 26.039389 27.949125 -0.980428 0.371811 0.086597 -0.010295 297316.000000 0 0 1
4.306002 -8.516494 26.493999 28.160332 -1.102673 0.345734 0.067241 -0.009919 1369550.000000 0 0 1
3.137402 -8.447094 25.436999 26.985878 -1.215170 0.340451 0.044307 -0.017725 -53917.800000 0 0 1
2.797702 -7.144794 24.934689 26.088579 -1.197576 0.298528 0.064815 -0.017261 158459.000000 0 0 1
1.639802 -7.225494 24.102329 25.215451 -1.347630 0.298239 0.049414 -0.019249 634622.000000 0 0 1
1.499302 -5.949994 23.258949 24.054709 -1.323951 0.257935 0.048483 -0.027982 125533.000000 0 1 0
1.202102 -4.717694 23.986329 24.475409 -1.321299 0.200247 0.051242 -0.021391 75905.700000 0 1 0
1.768102 -3.595394 23.302279 23.644222 -1.113756 0.170276 0.052935 -0.028948 -481913.000000 0 1 0
0.867902 -2.882694 22.246279 22.449056 -1.278355 0.134509 0.032700 -0.029809 432705.000000 0 1 0
-0.083898 -1.945694 22.716379 22.799707 1.527703 0.085522 0.032782 -0.026062 984347.000000 0 1 0
-1.252298 -2.508694 23.391269 23.558719 1.107802 0.119300 0.028806 -0.018594 290210.000000 0 1 0
-2.103098 -1.408694 24.010019 24.143083 0.590182 0.105038 0.025575 -0.017918 -329935.000000 0 1 0
-1.565598 -0.602694 25.058229 25.114322 0.367475 0.066848 0.032176 -0.019920 -239605.000000 0 0 1
-2.339898 0.535306 25.228629 25.342561 -0.224903 0.094858 0.036398 -0.029160 -285399.000000 0 0 1
-1.895798 1.351306 26.469869 26.572054 -0.619258 0.087727 0.054669 -0.028463 -376323.000000 0 0 1
-2.204898 0.735306 27.700109 27.797451 -0.321889 0.083712 0.073089 -0.022681 302271.000000 0 0 1
-1.416398 -0.413694 28.105669 28.144377 0.284170 0.052453 0.071727 -0.025818 -192141.000000 0 0 1
0.032002 -0.162694 28.570589 28.571070 -1.376577 0.005804 0.089834 -0.029214 -85122.300000 0 0 1
0.983502 0.167306 27.570059 27.588103 0.168499 0.036170 0.071986 -0.029623 245024.000000 0 0 1
1.482002 -0.853694 26.659369 26.714174 -0.522616 0.064066 0.064608 -0.028589 -148636.000000 0 0 1
2.644802 -1.687694 27.195759 27.376132 -0.567977 0.114856 0.075345 -0.025654 -448478.000000 0 0 1
2.129902 -2.692694 28.083119 28.292201 -0.901572 0.121649 0.080476 -0.025447 47097.100000 0 0 1
3.017202 -3.686294 28.562149 28.956668 -0.884881 0.165260 0.096430 -0.015312 -360594.000000 0 0 1
3.658002 -4.645794 27.587029 28.213623 -0.903799 0.211147 0.085910 -0.013199 -219406.000000 0 0 1
4.688502 -4.075694 26.830329 27.540150 -0.715590 0.227533 0.091117 -0.015027 -716236.000000 0 0 1
5.177902 -4.841994 25.830859 26.785982 -0.751887 0.267849 0.084840 -0.018446 -129054.000000 0 0 1
6.364102 -4.181094 25.076539 26.207177 -0.581267 0.294809 0.085513 -0.020945 -59822.100000 0 0 1
7.620302 -3.955694 25.649609 27.048456 -0.478810 0.323012 0.073213 -0.012165 -158449.000000 0 0 1
8.415702 -5.118594 25.791729 27.608646 -0.546441 0.364814 0.077056 -0.007312 -421935.000000 0 0 1
9.406402 -5.319294 24.648329 26.913108 -0.514663 0.413180 0.069855 -0.015844 -864496.000000 0 0 1
8.780202 -5.781894 23.466389 25.713686 -0.582338 0.421190 0.074178 -0.018575 -298050.000000 0 0 1
9.559802 -5.920294 22.295279 24.970366 -0.554483 0.467119 0.083549 -0.022596 -171946.000000 0 1 0
9.708602 -4.557794 21.573879 24.092793 -0.438918 0.461356 0.090030 -0.022427 28939.600000 0 1 0
8.478202 -3.996894 21.183679 23.164700 -0.440533 0.416573 0.080308 -0.021951 -479996.000000 0 1 0
8.590902 -2.824694 20.497979 22.404232 -0.317666 0.415498 0.070146 -0.020628 284329.000000 0 1 0
7.201902 -2.208694 20.127379 21.490861 -0.297576 0.358126 0.055198 -0.018563 546905.000000 0 1 0
6.578502 -1.708694 21.304979 22.362881 -0.254124 0.308817 0.056888 -0.017546 -58823.300000 0 1 0
5.540302 -0.801694 20.973779 21.707995 -0.143705 0.260825 0.041091 -0.019433 258678.000000 0 1 0
4.690302 -0.416694 22.236979 22.730064 -0.088609 0.208672 0.039848 -0.023653 660715.000000 0 1 0
3.413302 0.185306 22.057179 22.320486 0.054236 0.153753 0.036070 -0.024551 589374.000000 0 1 0
2.816602 0.452306 23.376989 23.550402 0.159226 0.121429 0.043248 -0.024237 210682.000000 0 1 0
1.371502 0.967306 23.315839 23.376164 0.614267 0.071857 0.036361 -0.026947 -208262.000000 0 1 0
1.155302 2.303306 22.919579 23.063977 1.105882 0.111958 0.032967 -0.022248 638059.000000 0 1 0
-0.254698 2.500306 22.788479 22.926648 -1.469280 0.109842 0.024691 -0.025086 461508.000000 0 1 0
-0.723298 3.895306 22.443079 22.790093 -1.387203 0.174730 0.028173 -0.023060 -444244.000000 0 1 0
-0.669998 4.888306 23.391239 23.905951 -1.434584 0.207887 0.035698 -0.018449 -45212.100000 0 1 0
-1.456298 6.001306 23.013679 23.827839 -1.332734 0.262163 0.028090 -0.021249 -344801.000000 0 1 0
-1.384198 7.202306 23.945949 25.043915 -1.380923 0.297206 0.041433 -0.010411 266202.000000 0 0 1
-0.278698 8.034306 23.623899 24.954285 -1.536122 0.328005 0.034146 -0.007603 119177.000000 0 1 0
-0.360198 9.323306 24.220239 25.955226 -1.532181 0.367705 0.040653 0.001556 -1260650.000000 0 0 1
0.332902 10.487306 23.459549 25.699121 1.539064 0.420576 0.030490 0.000527 1203900.000000 0 0 1
1.761202 10.467306 23.263939 25.571022 1.404100 0.428049 0.032421 -0.006132 767727.000000 0 0 1
2.419802 10.468306 24.521629 26.772209 1.343631 0.412962 0.048604 0.001103 -303253.000000 0 0 1
3.866902 11.139306 24.461129 27.154813 1.236671 0.449182 0.038731 -0.000694 1385820.000000 0 0 1
4.969202 10.433306 23.934619 26.578428 1.126302 0.449814 0.033665 -0.000049 222765.000000 0 0 1
4.842702 10.187306 22.521679 25.188469 1.127049 0.464319 0.035039 -0.012689 -458742.000000 0 0 1
6.212902 9.976306 21.832279 24.794661 1.013805 0.493831 0.032175 -0.011806 239937.000000 0 1 0
6.988802 11.110306 21.582879 25.260699 1.009299 0.546391 0.033707 -0.020423 -382396.000000 0 0 1
8.300402 10.778306 21.227479 25.212584 0.914553 0.569928 0.047309 -0.020496 -426489.000000 0 0 1
9.112902 12.030306 20.825479 25.719133 0.922515 0.627109 0.055084 -0.033165 -569941.000000 0 0 1
8.773402 12.526306 19.529279 24.804710 0.959803 0.664344 0.042983 -0.037707 195997.000000 0 1 0
9.570102 13.597306 19.047179 25.283762 0.957509 0.717675 0.059032 -0.031697 2399400.000000 0 0 1
11.088602 13.181306 18.609979 25.358139 0.871412 0.746771 0.064231 -0.031758 2130740.000000 0 0 1
12.030302 13.028306 19.653479 26.471195 0.825204 0.734079 0.072003 -0.034697 658231.000000 0 0 1
13.318602 12.764306 19.093479 26.549456 0.764150 0.768194 0.070549 -0.032632 764606.000000 0 0 1
14.519402 12.525306 20.040779 27.736783 0.711798 0.763335 0.083174 -0.031400 342339.000000 0 0 1
14.929302 13.709306 20.721479 28.986356 0.742824 0.774358 0.083811 -0.031695 -141958.000000 0 0 1
16.143502 13.517306 21.403479 30.023976 0.697088 0.777201 0.091261 -0.029002 275344.000000 0 0 1
16.897602 14.842306 21.698979 31.251699 0.720734 0.803308 0.097725 -0.025345 196343.000000 0 0 1
16.287402 15.476306 22.850479 32.045903 0.759868 0.776951 0.096306 -0.026747 814682.000000 0 0 1
17.090302 16.609306 23.179119 33.244834 0.771126 0.799278 0.085349 -0.019206 30245.600000 0 0 1
-20.987498 12.616177 -24.640915 34.739282 -0.541249 2.359315 0.046671 -0.007882 -79289.900000 0 0 1
-20.928398 12.622277 -26.044535 35.716069 -0.542708 2.387964 0.055284 -0.017377 -449565.000000 0 0 1
-21.893998 13.362877 -26.696065 37.021528 -0.547991 2.376179 0.075087 -0.020606 -447741.000000 0 0 1
-21.647998 13.361877 -28.254905 38.019932 -0.552995 2.408578 0.072790 -0.019171 354057.000000 0 0 1
-20.374798 13.844377 -28.653535 37.786562 -0.596825 2.431497 0.065161 -0.018360 -23614.700000 0 0 1
-20.433598 14.400777 -29.922365 38.990541 -0.613913 2.445613 0.072432 -0.027865 -1033460.000000 0 0 1
-19.151998 15.037277 -30.351285 38.911685 -0.665623 2.465469 0.056911 -0.022587 -1360750.000000 0 0 1
-18.195598 14.080077 -30.631995 38.309888 -0.658571 2.497399 0.051302 -0.012759 50102.800000 0 0 1
-16.861498 14.632377 -30.717675 37.973572 -0.714736 2.513113 0.049452 -0.014116 1779990.000000 0 0 1
-15.855398 13.955577 -29.688175 36.435416 -0.721755 2.523209 0.065023 -0.008008 358398.000000 0 0 1
-16.232798 14.235477 -28.354005 35.638493 -0.719938 2.490795 0.080852 -0.007022 -416078.000000 0 0 1
-16.992498 13.247077 -27.767545 35.146360 -0.662168 2.481694 0.086708 -0.008011 -443596.000000 0 0 1
-17.749698 13.763377 -26.546265 34.773360 -0.659569 2.439370 0.078058 -0.025742 -345683.000000 0 0 1
-16.889398 14.045877 -25.452845 33.621210 -0.693737 2.429578 0.089779 -0.023426 4602.520000 0 0 1
-17.566598 14.474077 -24.280915 33.281333 -0.689178 2.388483 0.086852 -0.017420 -258057.000000 0 0 1
-16.685198 14.854077 -23.052115 32.100459 -0.727405 2.371899 0.084008 -0.019753 -209360.000000 0 0 1
-16.092598 16.069277 -23.269315 32.536970 -0.784673 2.367657 0.060413 -0.020721 -489992.000000 0 0 1
-15.670698 16.635177 -22.053715 31.759507 -0.815244 2.338378 0.071040 -0.011482 -454510.000000 0 0 1
-15.348898 18.166377 -22.216315 32.544901 -0.869266 2.322160 0.062514 -0.012015 343957.000000 0 0 1
-16.467698 19.022477 -22.301815 33.621581 -0.857260 2.296041 0.040357 -0.008536 194307.000000 0 0 1
-17.448098 18.790977 -23.293415 34.642750 -0.822437 2.308228 0.028242 -0.008663 -161013.000000 0 0 1
-18.628798 19.783377 -23.277815 35.780872 -0.815447 2.279126 0.028227 -0.010474 -132584.000000 0 0 1
-18.282898 21.150877 -23.521515 36.536087 -0.857999 2.270235 0.026543 -0.010011 -261660.000000 0 0 1
-19.397398 21.986777 -23.701315 37.701854 -0.847886 2.250614 0.059756 -0.025543 -138773.000000 0 0 1
-19.015098 23.469777 -23.962215 38.556350 -0.889870 2.241434 0.043263 -0.026187 71587.900000 0 0 1
-18.598098 24.119577 -22.743315 38.011862 -0.913941 2.212201 0.048169 -0.024368 -304260.000000 0 0 1
-17.852398 25.246877 -23.025315 38.552277 -0.955312 2.210863 0.038608 -0.011138 425906.000000 0 0 1
-16.629598 25.379377 -22.007115 37.482922 -0.990746 2.198297 0.027947 -0.022256 958998.000000 0 0 1
-15.522098 24.488977 -22.101615 36.457193 -1.005865 2.222114 0.037915 -0.032739 232149.000000 0 0 1
-15.823998 23.144277 -21.756815 35.488244 -0.971086 2.230738 0.046699 -0.014877 -1035260.000000 0 0 1
-14.635098 22.185977 -21.661815 34.287577 -0.987663 2.254629 0.061291 -0.015399 -148758.000000 0 0 1
-13.996098 22.365577 -20.420515 33.363262 -1.011631 2.229467 0.069672 -0.025257 -797444.000000 0 0 1
-12.873798 21.575977 -20.234615 32.259838 -1.032827 2.248799 0.077223 -0.024656 -745845.000000 0 0 1
-12.127998 21.886677 -18.954015 31.390598 -1.064790 2.219071 0.073764 -0.027844 -115309.000000 0 0 1
-12.883498 21.705377 -17.744615 30.854162 -1.035124 2.183538 0.078841 -0.026576 437481.000000 0 0 1
-13.721798 22.803477 -17.366815 31.778807 -1.029097 2.148964 0.070327 -0.031284 -80906.800000 0 0 1
-14.360498 22.678577 -16.000115 31.249727 -1.006309 2.108317 0.075993 -0.031536 17567.000000 0 0 1
-13.554698 22.999977 -14.877915 30.562741 -1.038255 2.079218 0.078524 -0.039101 407092.000000 0 0 1
-14.399898 23.442977 -13.802615 30.780553 -1.019963 2.035793 0.085140 -0.041007 251153.000000 0 0 1
-13.589798 23.755677 -12.564415 30.114437 -1.051170 2.001183 0.103574 -0.035594 -191397.000000 0 0 1
-13.011698 25.030877 -12.570015 30.884533 -1.091414 1.989964 0.100525 -0.039197 188662.000000 0 0 1
-12.022598 25.181177 -11.568815 30.207152 -1.125356 1.963819 0.070815 -0.032414 111351.000000 0 0 1
-11.719298 26.720477 -11.574115 31.389266 -1.157472 1.948437 0.086492 -0.029604 -54844.500000 0 0 1
-11.031998 27.107277 -12.751015 31.923312 -1.184291 1.981687 0.082171 -0.035651 89322.500000 0 0 1
-10.959698 28.496877 -12.857715 33.128656 -1.203642 1.969381 0.067179 -0.026740 -682576.000000 0 0 1
-10.325798 28.907677 -14.224415 33.832084 -1.227722 2.004728 0.095428 -0.044677 303529.000000 0 0 1
-8.923698 28.884077 -14.352915 33.465333 -1.271150 2.014059 0.085921 -0.046080 43729.100000 0 0 1
-8.245998 27.626577 -14.222315 32.148072 -1.280734 2.029070 0.087934 -0.044140 239609.000000 0 0 1
-6.826598 27.659577 -14.888815 32.145474 -1.328824 2.052365 0.090555 -0.047253 615977.000000 0 0 1
-5.916498 28.478377 -14.210115 32.372060 -1.365956 2.025240 0.073789 -0.041088 -868841.000000 0 0 1
-4.636798 28.260177 -14.743915 32.210566 -1.408170 2.046243 0.089083 -0.042344 625479.000000 0 0 1
-3.494798 29.304577 -14.351715 32.816819 -1.452099 2.023422 0.065160 -0.032553 638092.000000 0 0 1
-3.717498 30.639277 -14.523915 34.110544 -1.450055 2.010631 0.053875 -0.022857 -207118.000000 0 0 1
-4.703298 31.162577 -13.654215 34.346249 -1.420999 1.979637 0.052693 -0.024354 94185.200000 0 0 1
-4.934398 32.692077 -13.864715 35.851786 -1.420991 1.967872 0.053094 -0.024618 -607720.000000 0 0 1
-3.872898 33.456077 -13.420715 36.254986 -1.455549 1.949994 0.025952 -0.020723 -376835.000000 0 0 1
-4.292998 -33.442594 -13.494615 36.317235 1.443125 1.951502 0.049796 -0.013164 860417.000000 0 0 1
-3.233598 -32.613494 -12.699015 35.147705 1.471970 1.940463 0.047747 -0.012227 561252.000000 0 0 1
-3.199998 -33.037794 -11.276515 35.055608 1.474239 1.898294 0.043372 -0.021089 -177418.000000 0 0 1
-2.408198 -32.150594 -10.582015 33.932863 1.496032 1.887937 0.046157 -0.021380 -276141.000000 0 0 1
-2.763298 -32.308594 -9.067915 33.670583 1.485476 1.843476 0.046328 -0.030112 -226223.000000 0 0 1
-1.933398 -31.489294 -8.302015 32.622648 1.509475 1.828113 0.057983 -0.026462 -103551.000000 0 0 1
-2.173998 -31.573894 -6.893815 32.390766 1.502051 1.785270 0.064691 -0.032451 487338.000000 0 0 1
-1.150998 -30.681594 -6.094015 31.302109 1.533300 1.766731 0.080240 -0.030039 341346.000000 0 0 1
-1.136498 -30.785694 -4.669815 31.158591 1.533897 1.721236 0.088341 -0.031477 -837354.000000 0 0 1
-0.080098 -30.148194 -4.066215 30.421278 1.568140 1.704861 0.081764 -0.031095 -817002.000000 0 0 1
0.032502 -30.297894 -2.485215 30.399667 -1.569724 1.652639 0.088580 -0.026938 -136038.000000 0 0 1
0.272702 -31.632594 -1.926215 31.692360 -1.562176 1.631612 0.080404 -0.027647 304261.000000 0 0 1
1.438402 -32.333994 -2.360215 32.451915 -1.526340 1.643590 0.067249 -0.025191 1102660.000000 0 0 1
2.801102 -31.871094 -1.725515 32.040447 -1.483133 1.624677 0.060102 -0.024056 -142778.000000 0 0 1
2.910902 -32.181594 -0.314415 32.314505 -1.480589 1.580526 0.066430 -0.016765 621726.000000 0 0 1
4.190902 -31.983794 0.317985 32.258764 -1.440507 1.560939 0.054208 -0.017505 752604.000000 0 0 1
4.652802 -30.548494 0.471285 30.904388 -1.419649 1.555546 0.043925 -0.019839 -749138.000000 0 0 1
5.025402 -29.939694 -0.738915 30.367515 -1.404496 1.595131 0.031820 -0.023836 -8152.340000 0 0 1
4.960102 -28.564794 -0.629915 28.999084 -1.398867 1.592520 0.054497 -0.019801 -187616.000000 0 0 1
4.455302 -27.760494 -1.835115 28.175564 -1.411663 1.635974 0.043038 -0.016394 -266636.000000 0 0 1
3.124602 -28.067594 -2.188815 28.325676 -1.459929 1.648147 0.067432 -0.015526 -143024.000000 0 0 1
2.599602 -27.153694 -3.133415 27.457227 -1.475351 1.685165 0.064773 -0.017037 43161.800000 0 0 1
3.009902 -27.278794 -4.655115 27.836347 -1.460902 1.738817 0.043769 -0.014168 -105368.000000 0 0 1
2.508202 -28.462294 -5.262415 29.053163 -1.482900 1.752932 0.044199 -0.018997 -87042.200000 0 0 1
2.965402 -28.604694 -6.587815 29.502906 -1.467497 1.795989 0.050963 -0.022839 -479201.000000 0 0 1
2.105202 -29.482794 -7.542515 30.505025 -1.499513 1.820642 0.049812 -0.011047 -294054.000000 0 0 1
0.916902 -28.748894 -7.786115 29.798712 -1.538914 1.835155 0.056464 -0.007945 -344833.000000 0 0 1
0.470802 -28.983594 -9.129415 30.391061 -1.554554 1.875906 0.061615 0.003360 -580137.000000 0 0 1
-0.900998 -28.427894 -9.438115 29.967232 1.539113 1.891198 0.047712 -0.002247 -1292230.000000 0 0 1
-0.968398 -27.058594 -9.158115 28.582799 1.535023 1.896955 0.046119 -0.001509 1189290.000000 0 0 1
-2.326798 -26.510794 -9.098815 28.125160 1.483253 1.900235 0.051800 -0.009480 1772850.000000 0 0 1
-3.172498 -27.022494 -7.910815 28.334801 1.453929 1.853748 0.058778 -0.002006 -522746.000000 0 0 1
-2.764698 -26.527894 -6.627615 27.482686 1.466953 1.814353 0.068229 -0.008524 693696.000000 0 0 1
-1.587598 -27.194394 -6.105615 27.916556 1.512483 1.791288 0.065322 -0.015207 854059.000000 0 0 1
-1.235998 -26.825294 -4.653415 27.253961 1.524753 1.742380 0.084823 -0.014147 152360.000000 0 0 1
-2.210698 -27.205694 -3.683415 27.542776 1.489716 1.704933 0.104698 -0.022816 168256.000000 0 0 1
-1.942598 -26.661394 -2.408615 26.840362 1.498063 1.660656 0.106689 -0.022972 -241174.000000 0 0 1
-3.100298 -26.892194 -1.443215 27.108759 1.456017 1.624059 0.103737 -0.018926 187197.000000 0 0 1
-4.268898 -26.102094 -1.660115 26.500921 1.408685 1.633481 0.094923 -0.012816 -360380.000000 0 0 1
-5.152198 -26.287094 -0.606115 26.794101 1.377253 1.593419 0.098764 -0.017793 -178468.000000 0 0 1
-6.324498 -25.262494 -0.865215 26.056506 1.325487 1.604008 0.080350 -0.013676 105450.000000 0 0 1
-5.980098 -23.904294 -0.624115 24.648862 1.325659 1.596119 0.069793 -0.015734 143049.000000 0 1 0
-6.694598 -23.245094 0.439085 24.193901 1.290384 1.552647 0.070972 -0.014460 -21795.300000 0 1 0
-6.135498 -21.842094 0.631585 22.696262 1.296951 1.542965 0.045458 -0.017158 176529.000000 0 1 0
-5.060998 -21.848394 1.549385 22.480361 1.343169 1.501820 0.040711 -0.016411 -207834.000000 0 1 0
-4.516498 -20.565994 1.695885 21.124273 1.354618 1.490429 0.011711 -0.011771 -142736.000000 0 1 0
-3.502598 -20.371594 2.845785 20.865487 1.400526 1.433983 0.020255 -0.009347 -412984.000000 0 1 0
-4.016498 -20.364094 4.150285 21.167273 1.376061 1.373447 0.017510 0.001436 -116122.000000 0 1 0
-3.015098 -19.962094 5.073685 20.816299 1.420888 1.324580 0.038642 -0.014452 894562.000000 0 1 0
-1.924598 -21.042294 5.458985 21.823903 1.479587 1.317974 0.045468 -0.026224 356059.000000 0 1 0
-1.145398 -21.464094 4.378585 21.936073 1.517483 1.369840 0.063699 -0.030154 -940974.000000 0 1 0
-0.344698 -22.510994 4.819485 23.023708 1.555485 1.359910 0.075349 -0.036687 -1052980.000000 0 1 0
0.533702 -23.072794 3.643785 23.364842 -1.547669 1.414206 0.077569 -0.038938 310571.000000 0 1 0
1.709402 -22.366294 3.271085 22.668771 -1.494517 1.425992 0.045582 -0.037146 -101098.000000 0 1 0
2.694102 -22.747794 4.204785 23.289494 -1.452912 1.389257 0.061111 -0.040600 -1242050.000000 0 1 0
3.895102 -21.786894 4.340385 22.553925 -1.393884 1.377143 0.060326 -0.037921 269293.000000 0 1 0
4.846602 -21.894294 3.294685 22.665053 -1.352946 1.424915 0.039668 -0.024391 -605474.000000 0 1 0
6.085102 -21.365694 3.683185 22.518597 -1.293336 1.406496 0.053022 -0.017149 -113668.000000 0 1 0
6.824602 -20.868894 2.446785 22.092367 -1.254736 1.459816 0.060839 -0.012528 -278083.000000 0 1 0
7.322502 -21.920894 1.620085 23.168282 -1.248408 1.500812 0.067466 -0.009561 -11444.100000 0 1 0
7.010702 -21.686994 0.282285 22.793757 -1.258132 1.558412 0.053448 -0.020353 659635.000000 0 1 0
8.009202 -22.531994 -0.639815 23.921694 -1.229266 1.597546 0.054985 -0.012521 352552.000000 0 1 0
9.259902 -21.940894 -0.808615 23.828606 -1.171437 1.604737 0.057661 -0.004247 -775547.000000 0 1 0
10.069102 -22.778694 -1.618415 24.957464 -1.154581 1.635689 0.054219 -0.003694 507736.000000 0 1 0
11.480002 -22.243394 -1.974515 25.108917 -1.094345 1.649516 0.057082 0.002096 481169.000000 0 0 1
11.435702 -21.240394 -2.942415 24.302005 -1.076907 1.692171 0.053772 0.007709 292683.000000 0 1 0
12.774902 -20.952294 -3.321715 24.763492 -1.023265 1.705339 0.055814 0.001006 429856.000000 0 1 0
12.785902 -19.796294 -4.334615 23.961666 -0.997327 1.752696 0.058738 -0.004119 82027.100000 0 1 0
12.782502 -18.477994 -3.741015 22.777704 -0.965616 1.735784 0.072799 -0.006524 117992.000000 0 1 0
12.782802 -17.358694 -4.626315 22.048290 -0.936061 1.782194 0.066799 -0.015284 -866294.000000 0 1 0
13.257202 -16.036294 -3.816315 21.153732 -0.879986 1.752198 0.073444 -0.015916 172412.000000 0 1 0
14.585802 -16.050094 -3.367415 21.947451 -0.833158 1.724836 0.061074 -0.010927 718.324000 0 1 0
15.582702 -16.065194 -4.380415 22.805681 -0.800643 1.764073 0.056799 -0.010748 -394941.000000 0 1 0
16.996802 -15.664994 -3.906515 23.442359 -0.744645 1.738221 0.051665 -0.009892 32754.400000 0 1 0
17.627102 -16.574394 -3.036615 24.385370 -0.754628 1.695647 0.049303 -0.015411 -71064.100000 0 1 0
19.003002 -16.277094 -3.099715 25.212420 -0.708287 1.694052 0.042005 -0.002430 299413.000000 0 0 1
19.897802 -17.135894 -2.099915 26.343330 -0.710958 1.650594 0.032366 -0.006756 124957.000000 0 0 1
21.274802 -17.089494 -2.354215 27.389968 -0.676734 1.656854 0.036401 -0.003157 -489587.000000 0 0 1
21.916502 -17.643294 -1.254515 28.163677 -0.677796 1.615355 0.034868 -0.002845 423127.000000 0 0 1
23.477002 -17.594694 -1.342315 29.369111 -0.643145 1.616517 0.049874 -0.007013 295570.000000 0 0 1
24.079002 -16.353594 -1.311515 29.136891 -0.596605 1.615824 0.065105 -0.011540 -252573.000000 0 0 1
25.363402 -16.553394 -0.759115 30.296753 -0.578235 1.595855 0.086970 -0.010581 -131041.000000 0 0 1
26.007902 -15.227094 -0.375615 30.139948 -0.529674 1.583259 0.077780 -0.016327 -293953.000000 0 0 1
25.230602 -14.448394 0.486285 29.078787 -0.520069 1.554073 0.073843 -0.017054 -352810.000000 0 0 1
26.020302 -13.530794 1.143185 29.350390 -0.479526 1.531837 0.065638 -0.016620 -230712.000000 0 0 1
25.361502 -12.799494 2.337885 28.504360 -0.467386 1.488686 0.086590 -0.026359 -18672.600000 0 0 1
24.943602 -13.499994 3.523485 28.580554 -0.496078 1.447199 0.103810 -0.017644 1013730.000000 0 0 1
26.037002 -14.029894 4.321785 29.890487 -0.494238 1.425700 0.119635 -0.012213 915452.000000 0 0 1
25.524502 -14.631694 5.658785 29.960115 -0.520511 1.380778 0.100480 -0.006680 -32047.200000 0 0 1
24.729602 -15.774394 5.491785 29.841991 -0.567804 1.385713 0.111377 -0.012391 38852.200000 0 0 1
24.242802 -16.252994 6.760085 29.959506 -0.590600 1.343196 0.082667 -0.009328 186183.000000 0 0 1
23.559302 -17.660994 6.723585 30.201954 -0.643271 1.346294 0.077005 -0.013325 58202.800000 0 0 1
24.543002 -18.614094 6.423885 31.466009 -0.648873 1.365198 0.083260 -0.011808 54993.600000 0 0 1
23.996202 -19.911894 6.632685 31.879362 -0.692646 1.361210 0.043388 -0.001481 -255864.000000 0 0 1
1.525302 23.632977 -3.043515 23.876916 1.506344 1.698611 0.074310 -0.013692 -199274.000000 0 1 0
2.430302 24.605077 -2.647615 24.866163 1.472343 1.677473 0.081371 -0.016102 -411534.000000 0 1 0
3.372002 24.844077 -3.678515 25.340285 1.435894 1.716476 0.089199 -0.015306 -69794.100000 0 0 1
4.469302 25.813877 -3.226115 26.395809 1.399360 1.693323 0.070411 -0.009778 -340656.000000 0 0 1
5.299002 25.305277 -2.193915 25.947056 1.364376 1.655451 0.053841 -0.014966 -36531.400000 0 0 1
6.175702 26.333877 -1.739915 27.104237 1.340444 1.635034 0.046567 -0.017093 -308925.000000 0 0 1
7.331502 25.766777 -0.938315 26.805935 1.293589 1.605807 0.022512 -0.029204 -572401.000000 0 0 1
8.285902 25.095577 -1.722915 26.484195 1.251892 1.635897 0.021928 -0.028670 -769792.000000 0 0 1
9.274102 24.479977 -0.951715 26.195114 1.208660 1.607136 0.016227 -0.027372 -268665.000000 0 0 1
10.376702 24.018677 -1.955615 26.237325 1.162989 1.645401 0.028021 -0.026531 -376770.000000 0 0 1
11.472702 24.927477 -1.937115 27.509170 1.139457 1.641272 0.033962 -0.015822 586907.000000 0 0 1
12.385802 24.947977 -3.059915 28.020934 1.109981 1.680216 0.062332 -0.019858 997837.000000 0 0 1
13.393602 23.760577 -3.060915 27.446727 1.057503 1.682551 0.063763 -0.023818 -417659.000000 0 0 1
12.790402 22.500777 -3.337615 26.096341 1.053904 1.699044 0.066529 -0.030386 -56203.500000 0 0 1
12.841302 22.198377 -4.705115 26.073072 1.046351 1.752249 0.093097 -0.035145 -174913.000000 0 0 1
11.883502 21.082677 -5.200215 24.753568 1.057525 1.782453 0.083535 -0.034421 630353.000000 0 1 0
10.517402 21.449277 -5.005715 24.407876 1.114908 1.777348 0.065826 -0.032294 -45311.400000 0 1 0
9.688902 20.363077 -4.903015 23.077463 1.126689 1.784887 0.050221 -0.026501 -864453.000000 0 1 0
8.207202 20.684277 -4.763515 22.757165 1.193065 1.781675 0.039814 -0.024939 -495655.000000 0 1 0
7.803302 21.000477 -3.436315 22.665388 1.215030 1.722994 0.042201 -0.036775 -457454.000000 0 1 0
6.544902 21.603977 -3.464015 22.837841 1.276636 1.723063 0.048012 -0.020318 -302331.000000 0 1 0
6.061902 22.214777 -2.130315 23.125337 1.304405 1.663048 0.047337 -0.024995 7518.210000 0 1 0
5.638102 21.250677 -1.200315 22.018634 1.311457 1.625337 0.041744 -0.033757 -12530.300000 0 1 0
4.920502 21.950077 -0.197615 22.495695 1.350274 1.579581 0.056538 -0.027424 173590.000000 0 1 0
4.285902 21.077177 0.920885 21.528223 1.370188 1.528008 0.031319 -0.023620 75293.800000 0 1 0
3.546302 21.914777 1.828385 22.275024 1.410365 1.488622 0.036305 -0.012507 266054.000000 0 1 0
3.138502 21.028477 2.850785 21.451667 1.422640 1.437509 0.031440 -0.016155 442757.000000 0 1 0
2.112102 21.711677 3.875185 22.155698 1.473822 1.394985 0.030358 -0.010881 494276.000000 0 1 0
0.802402 21.634977 3.360785 21.909152 1.533725 1.416792 0.033341 -0.019108 -727989.000000 0 1 0
-0.082498 22.074277 4.338385 22.496713 -1.567059 1.376735 0.033333 -0.029342 -587587.000000 0 1 0
-1.525198 22.267477 3.922285 22.661666 -1.502409 1.396840 0.026842 -0.027642 -698952.000000 0 1 0
-2.473598 22.486377 4.912685 23.149305 -1.461233 1.356953 0.038281 -0.036851 -292720.000000 0 1 0
-3.764398 22.534977 4.322485 23.252522 -1.405278 1.383816 0.036488 -0.030568 587598.000000 0 1 0
-4.907898 22.866877 5.326285 23.986472 -1.359375 1.346876 0.046072 -0.038573 -487423.000000 0 1 0
-5.238898 24.229677 5.537985 25.400641 -1.357856 1.351006 0.056804 -0.029351 -136199.000000 0 0 1
-6.273198 24.241977 6.477685 25.864780 -1.317577 1.317657 0.062228 -0.029871 -79395.900000 0 0 1
-6.893398 25.543277 6.987085 27.364161 -1.307204 1.312600 0.065938 -0.030467 -720755.000000 0 0 1
-6.080298 26.050977 7.996285 27.920673 -1.341501 1.280336 0.045640 -0.040969 -444306.000000 0 0 1
-6.466098 27.168877 8.740685 29.263593 -1.337147 1.267479 0.081912 -0.029568 -501543.000000 0 0 1
-6.435298 28.528277 7.972985 30.312442 -1.348934 1.304638 0.091749 -0.026746 289547.000000 0 0 1
-7.446698 28.656877 6.983085 30.420937 -1.316562 1.339182 0.073388 -0.035357 -278556.000000 0 0 1
-7.291498 29.801077 6.185785 31.297509 -1.330838 1.371842 0.094714 -0.039447 78856.600000 0 0 1
-8.600298 30.056777 5.330185 31.714127 -1.292108 1.401925 0.081019 -0.037031 1501830.000000 0 0 1
-9.731898 30.572377 6.024485 32.644670 -1.262615 1.385185 0.089977 -0.028097 417705.000000 0 0 1
-10.346798 29.697777 6.969785 32.211676 -1.235545 1.352697 0.072113 -0.028563 -805032.000000 0 0 1
-11.326798 30.355877 7.980985 33.368724 -1.213663 1.329280 0.059532 -0.029149 72708.100000 0 0 1
-10.783498 31.083377 9.148885 34.149118 -1.236866 1.299573 0.068103 -0.027306 -319877.000000 0 0 1
-11.797398 31.661277 9.927985 35.216189 -1.214120 1.285006 0.072883 -0.020003 -310389.000000 0 0 1
-11.287898 32.113577 11.304885 35.867798 -1.232786 1.250148 0.065816 -0.020611 90104.500000 0 0 1
-10.306598 33.142377 11.332185 36.511115 -1.269297 1.255207 0.054638 -0.021887 358215.000000 0 0 1
-9.704498 33.231877 12.605885 36.843497 -1.286673 1.221596 0.059457 -0.027392 158042.000000 0 0 1
-9.220898 -33.578294 12.828785 37.109359 1.302794 1.217809 0.065739 -0.029857 835633.000000 0 0 1
-10.312698 -32.751494 13.326885 36.832295 1.265747 1.200570 0.065264 -0.022690 1089080.000000 0 0 1
-10.009198 -31.376194 13.170285 35.469790 1.261995 1.190377 0.062180 -0.023757 -147136.000000 0 0 1
-10.960698 -30.491994 13.969485 35.285197 1.225718 1.163746 0.065362 -0.023859 -458854.000000 0 0 1
-11.031698 -30.677094 15.357785 36.036704 1.225589 1.130541 0.060187 -0.032761 632749.000000 0 0 1
-9.912198 -30.124294 16.072585 35.553520 1.252912 1.101715 0.057805 -0.031428 674215.000000 0 0 1
-10.044698 -30.588294 17.531885 36.659333 1.253507 1.072149 0.045681 -0.039727 551239.000000 0 0 1
-11.009198 -29.760194 18.217585 36.588960 1.216478 1.049623 0.062130 -0.035019 761262.000000 0 0 1
-11.550298 -30.405394 19.353985 37.848040 1.207757 1.034029 0.050839 -0.036013 -218347.000000 0 0 1
-11.823298 -29.364394 20.503485 37.715394 1.188016 0.996032 0.049036 -0.035691 50390.600000 0 0 1
-10.647998 -29.205594 21.281985 37.673193 1.221185 0.970471 0.049553 -0.031207 610624.000000 0 0 1
-10.913498 -28.438394 22.449285 37.839359 1.204368 0.935671 0.037108 -0.025498 993816.000000 0 0 1
-9.615098 -28.359694 23.365085 37.982227 1.243918 0.908210 0.059017 -0.027302 972900.000000 0 0 1
-9.398198 -29.573494 24.067685 39.270487 1.263098 0.911109 0.064031 -0.014757 -132268.000000 0 0 1
-8.185498 -29.547494 24.773685 39.418172 1.300545 0.891194 0.074505 -0.015475 -128635.000000 0 0 1
-8.063698 -30.649894 25.896385 40.927521 1.313536 0.885713 0.079168 -0.018688 -70703.600000 0 0 1
-7.821098 -31.939494 25.438285 41.574117 1.330650 0.912364 0.097820 -0.011408 202363.000000 0 0 1
-7.952898 -32.854694 26.463985 42.930432 1.333302 0.906584 0.102690 -0.006200 -306457.000000 0 0 1
-7.896398 33.944977 25.979285 43.468814 -1.342238 0.930225 0.092384 -0.014114 -90305.300000 0 0 1
-6.613498 33.664677 25.447085 42.715372 -1.376814 0.932615 0.089611 -0.012389 254934.000000 0 0 1
-6.479698 32.363477 24.901585 41.345738 -1.373193 0.924446 0.076745 -0.007319 140865.000000 0 0 1
-7.330998 32.023677 23.614285 40.458545 -1.345750 0.947560 0.069774 -0.009052 256158.000000 0 0 1
-8.505898 31.287377 23.866985 40.260194 -1.305348 0.936242 0.065492 -0.006944 211325.000000 0 0 1
-9.220198 31.047477 22.647585 39.520513 -1.282121 0.960563 0.050081 -0.001068 82462.500000 0 0 1
-9.921498 29.641377 22.668785 38.612448 -1.247800 0.943343 0.047065 -0.013017 388410.000000 0 0 1
-9.115698 28.435377 22.588185 37.441858 -1.260571 0.923180 0.052092 -0.010043 385416.000000 0 0 1
-9.961798 27.317177 22.862385 36.988569 -1.221111 0.904482 0.045050 -0.006713 166306.000000 0 0 1
-9.298798 25.936777 22.610385 35.642861 -1.226553 0.883617 0.041733 -0.007760 -458392.000000 0 0 1
-8.223598 25.673277 23.438885 35.722906 -1.260805 0.855117 0.040066 -0.016340 -666858.000000 0 0 1
-7.621398 24.447977 23.099585 34.487391 -1.268605 0.836860 0.036331 -0.019532 234905.000000 0 0 1
-6.271098 24.322677 23.871085 34.651811 -1.318463 0.810848 0.032333 -0.019447 739677.000000 0 0 1
-5.252798 25.106977 23.238785 34.612040 -1.364554 0.834690 0.020415 -0.018493 -3128.710000 0 0 1
-3.949098 24.892077 23.722685 34.611799 -1.413459 0.815653 0.025062 -0.017203 -130808.000000 0 0 1
-2.923198 25.548777 22.806085 34.371538 -1.456875 0.845287 0.015778 -0.006911 -446182.000000 0 0 1
-2.795698 24.825577 21.601185 33.026298 -1.458655 0.857857 0.022462 -0.007458 330108.000000 0 0 1
-1.697098 25.285177 20.824885 32.800856 -1.503779 0.882932 0.020859 -0.003749 195043.000000 0 0 1
-1.172598 24.403677 19.661985 31.360932 -1.522783 0.893154 0.012974 -0.006392 -569221.000000 0 0 1
-0.097398 23.570377 20.013985 30.921380 -1.566664 0.866820 0.007323 -0.003854 -242240.000000 0 0 1
0.091702 22.615877 18.963985 29.514726 1.566742 0.873006 0.012197 -0.003753 -166679.000000 0 0 1
1.269702 21.678677 19.260885 29.026865 1.512294 0.845237 0.006429 0.008597 1004730.000000 0 0 1
2.586602 22.241977 19.033685 29.388386 1.455023 0.866287 0.008837 -0.009522 321013.000000 0 0 1
3.537602 21.340477 19.447485 29.088404 1.406521 0.838519 0.015074 -0.001376 -607442.000000 0 0 1
4.984702 21.742377 19.136785 29.390385 1.345429 0.861732 0.025828 -0.010968 -149869.000000 0 0 1
5.899702 20.667177 19.018685 28.699287 1.292730 0.846393 0.042858 -0.011747 367565.000000 0 0 1
7.180802 21.256377 18.751785 29.240843 1.245014 0.874621 0.065275 -0.018087 712932.000000 0 0 1
8.338902 20.225377 18.521485 28.664413 1.179733 0.868268 0.070329 -0.015836 210463.000000 0 0 1
8.808202 19.743777 19.751885 29.283752 1.151169 0.830509 0.067725 -0.018629 -405540.000000 0 0 1
9.681902 18.689577 19.499785 28.692876 1.092823 0.823574 0.070735 -0.023774 13646.400000 0 0 1
10.155102 17.944677 20.777685 29.271995 1.055819 0.781562 0.088158 -0.027076 -603464.000000 0 0 1
9.146402 17.150477 21.264885 28.809562 1.080863 0.740518 0.070682 -0.020428 -810792.000000 0 0 1
9.563102 16.318777 22.270685 29.218809 1.040721 0.704086 0.071050 -0.022650 169252.000000 0 0 1
8.451702 15.309477 22.703785 28.657864 1.066375 0.656332 0.056110 -0.016866 -161863.000000 0 0 1
7.318602 15.910177 23.270585 29.124144 1.139662 0.645143 0.030495 -0.001298 -181964.000000 0 0 1
6.267802 15.008277 23.616785 28.675534 1.175191 0.603091 0.031265 0.002561 397865.000000 0 0 1
6.557202 13.859477 24.612785 28.997779 1.128883 0.557119 0.038719 0.003452 -648507.000000 0 0 1
7.013802 14.299277 25.890885 30.397379 1.114777 0.551485 0.047972 -0.003242 -62692.200000 0 0 1
7.394602 13.164677 26.603585 30.589861 1.059015 0.516230 0.064942 -0.011834 -776828.000000 0 0 1
8.122202 13.517477 27.909985 32.057130 1.029740 0.514309 0.049260 0.001641 -242107.000000 0 0 1
9.456002 13.938577 27.762885 32.472722 0.974711 0.545322 0.092968 -0.002320 11671.500000 0 0 1
9.781202 15.135777 27.052085 32.505060 0.997076 0.587656 0.078025 -0.003958 -640123.000000 0 0 1
11.116302 14.961977 26.289485 32.226851 0.931810 0.616749 0.104713 -0.018786 81910.400000 0 0 1
10.982802 14.220677 25.075885 30.848818 0.913168 0.621744 0.093265 -0.024907 -16772.800000 0 0 1
12.245802 13.839677 24.576185 30.748743 0.846424 0.644736 0.120901 -0.036001 -380609.000000 0 0 1
12.203102 12.793977 23.423585 29.347331 0.809032 0.646577 0.097573 -0.034370 40257.600000 0 0 1
11.811702 11.454577 23.783785 28.920443 0.770050 0.605203 0.101250 -0.028182 265201.000000 0 0 1
10.428102 11.361477 24.049385 28.569238 0.828208 0.570200 0.095315 -0.017478 -474100.000000 0 0 1
10.053102 9.981277 24.631085 28.414452 0.781813 0.521946 0.098003 -0.016894 -7535.180000 0 0 1
10.274402 8.898577 23.674685 27.299060 0.713762 0.521176 0.091341 -0.009987 138439.000000 0 0 1
10.005702 7.645777 24.233485 27.309957 0.652491 0.479231 0.082398 -0.013380 54877.300000 0 0 1
10.576802 6.446277 23.384185 26.462111 0.547356 0.487118 0.076271 -0.015824 1128020.000000 0 0 1
12.026902 6.449277 23.325785 27.024651 0.492216 0.529361 0.087599 -0.012884 1724680.000000 0 0 1
12.580702 5.519577 22.339985 26.226222 0.413445 0.551349 0.089082 -0.025403 163866.000000 0 0 1
12.354402 4.033577 22.582685 26.055300 0.315578 0.522205 0.068145 -0.027702 -232873.000000 0 0 1
13.066202 3.500477 23.723985 27.309457 0.261756 0.518205 0.081851 -0.014552 398419.000000 0 0 1
12.612402 2.245477 24.075085 27.271314 0.176191 0.489009 0.070248 -0.019860 3546.490000 0 0 1
13.598902 1.619377 25.154385 28.640803 0.118523 0.498562 0.059393 -0.014645 435132.000000 0 0 1
14.626002 0.904477 24.506985 28.553989 0.061762 0.538910 0.077448 -0.015262 337691.000000 0 0 1
15.867202 1.627177 24.661585 29.370215 0.102192 0.574102 0.068976 -0.014961 579625.000000 0 0 1
17.008702 0.949977 23.830585 29.293261 0.055794 0.620621 0.068460 -0.028723 -7836.340000 0 0 1
17.311502 -0.361423 24.328785 29.861488 -0.020875 0.618548 0.064628 -0.034000 319246.000000 0 0 1
18.350202 -0.961923 23.558685 29.877530 -0.052372 0.662416 0.059927 -0.017874 230733.000000 0 0 1
18.607002 -2.462223 23.865885 30.362205 -0.131563 0.666421 0.047414 -0.012621 -287690.000000 0 0 1
17.580802 -3.339623 23.484885 29.525878 -0.187722 0.651129 0.046477 -0.008946 32330.500000 0 0 1
18.040602 -4.663923 23.767985 30.201533 -0.252985 0.664898 0.045397 -0.006666 303322.000000 0 0 1
17.107102 -5.832923 23.342485 29.521984 -0.328603 0.658875 0.046443 -0.011762 89381.700000 0 0 1
17.040002 -5.939923 21.990085 28.446584 -0.335415 0.687191 0.047128 -0.009403 79629.400000 0 0 1
16.124602 -6.895123 21.476785 27.727203 -0.404084 0.684754 0.063403 -0.015188 -92610.000000 0 0 1
16.717602 -8.312623 21.229685 28.271495 -0.461435 0.721339 0.072670 -0.016885 51497.100000 0 0 1
16.697102 -9.145523 22.401185 29.398076 -0.501100 0.704408 0.059751 -0.011174 -260145.000000 0 0 1
17.519502 -10.247423 22.282285 30.140385 -0.529254 0.738791 0.048814 -0.013631 -275130.000000 0 0 1
17.382302 -11.120623 23.559885 31.319017 -0.569148 0.719319 0.048438 -0.009907 -367048.000000 0 0 1
16.241902 -11.925823 23.438485 30.909338 -0.633353 0.710098 0.085687 -0.021854 -142368.000000 0 0 1
16.106402 -12.664123 24.623385 32.032909 -0.666318 0.694005 0.075814 -0.012552 -879102.000000 0 0 1
14.962502 -13.634323 24.542285 31.813440 -0.738987 0.689689 0.088879 -0.008558 -753878.000000 0 0 1
14.909902 -14.592423 23.443785 31.382400 -0.774637 0.727204 0.096634 -0.020369 61416.800000 0 0 1
13.666102 -15.252723 23.303085 31.023244 -0.840208 0.720995 0.096503 -0.022650 -102267.000000 0 0 1
13.638002 -16.031323 22.002585 30.448516 -0.865890 0.763217 0.087204 -0.024426 -264621.000000 0 0 1
14.286502 -17.251023 22.109285 31.472566 -0.879123 0.791901 0.107929 -0.022704 36860.000000 0 0 1
14.455402 -17.917623 20.850785 31.060507 -0.891941 0.834841 0.093934 -0.013091 56941.200000 0 0 1
-24.655798 -32.650594 26.252419 48.612336 0.924013 1.000316 0.065401 -0.012970 34489.000000 0 0 1
-24.300698 -34.004594 26.582939 49.532706 0.950319 1.004305 0.084861 -0.010831 -59967.500000 0 0 1
-25.448068 33.515477 26.892909 49.941165 -0.921374 1.002150 0.097985 -0.020402 -300356.000000 0 0 1
-25.845178 33.438977 28.375149 50.904690 -0.912796 0.979525 0.092939 -0.013557 -124073.000000 0 0 1
-26.507108 -33.627094 28.800909 51.603300 0.903251 0.978676 0.127776 -0.026698 106444.000000 0 0 1
-26.536598 -33.645194 30.169199 52.405827 0.902972 0.957356 0.098562 -0.028969 -289357.000000 0 0 1
-27.755838 -32.912594 30.744129 52.903940 0.870193 0.950678 0.087661 -0.040178 -340987.000000 0 0 1
-27.687138 -31.531294 30.569209 51.916054 0.850222 0.941198 0.086030 -0.031617 385614.000000 0 0 1
-28.545208 -30.813894 31.469399 52.484741 0.823599 0.927806 0.066657 -0.016255 132919.000000 0 0 1
-28.825678 -29.331194 31.055919 51.533569 0.794090 0.923998 0.070188 -0.021500 -110650.000000 0 0 1
-29.695748 -29.149294 29.953049 51.270888 0.776112 0.946888 0.077302 -0.009278 334054.000000 0 0 1
-29.979818 -27.794494 29.789539 50.583990 0.747591 0.941084 0.075640 -0.007723 -175534.000000 0 0 1
-30.744528 -27.428694 28.523309 50.111261 0.728460 0.965264 0.067153 -0.016162 -39918.800000 0 0 1
-29.917498 -27.422994 27.366759 48.949125 0.741922 0.977514 0.063459 -0.012454 479289.000000 0 0 1
-29.229348 -26.159694 27.242989 47.758401 0.730035 0.963763 0.065362 -0.011765 -15645.200000 0 0 1
-28.490628 -25.967694 25.911549 46.448309 0.739103 0.978994 0.049071 0.000998 -67447.300000 0 0 1
-29.290808 -26.033794 24.764809 46.357369 0.726595 1.007217 0.035792 -0.003930 -311360.000000 0 0 1
-28.427718 -25.893794 23.678699 45.158659 0.738785 1.018851 0.061963 0.003145 -339881.000000 0 0 1
-28.853758 -26.561994 22.389879 45.159557 0.744066 1.052046 0.027276 0.005024 -389564.000000 0 0 1
-29.779048 -25.668794 21.826679 44.967573 0.711405 1.063990 0.028515 -0.006440 -31280.600000 0 0 1
-30.142338 -26.006994 20.487979 44.773671 0.711882 1.095514 0.021245 0.012309 -99236.500000 0 0 1
-30.835468 -24.846894 19.809579 44.278817 0.678261 1.106960 0.032579 0.009930 -392181.000000 0 0 1
-32.108178 -24.442294 20.230279 45.140060 0.650661 1.106083 0.044318 0.003506 -106450.000000 0 0 1
-32.612468 -23.357694 19.491779 44.599153 0.621529 1.118487 0.042340 0.012591 -526749.000000 0 0 1
-34.063648 -22.995194 19.815979 45.626572 0.593795 1.121527 0.055254 0.008366 126373.000000 0 0 1
-35.011821 -23.992694 19.347879 46.645658 0.600774 1.143091 0.048913 0.010305 -610361.000000 0 0 1
-36.246728 -23.409994 19.197679 47.227153 0.573453 1.152180 0.054688 0.002212 -1269770.000000 0 0 1
36.391985 -24.403794 18.491079 47.558824 -0.590708 1.171463 0.054792 -0.002330 -487731.000000 0 0 1
35.974765 -25.430394 19.338379 48.113008 -0.615339 1.157165 0.049565 -0.001921 -78313.800000 0 0 1
35.301865 -26.435294 18.583479 47.858041 -0.642755 1.172006 0.046706 0.002906 226386.000000 0 0 1
34.779485 -27.670994 19.385779 48.488194 -0.672060 1.159493 0.041587 -0.006238 346329.000000 0 0 1
33.624375 -27.578994 20.218979 47.958384 -0.686942 1.135594 0.038324 -0.006716 103297.000000 0 0 1
33.763305 -26.834094 21.402179 48.146471 -0.671544 1.110155 0.053032 -0.012856 377170.000000 0 0 1
32.430905 -26.762694 22.210279 47.553148 -0.689932 1.084831 0.048568 -0.011420 343970.000000 0 0 1
31.279895 -26.279894 21.579079 46.203044 -0.698749 1.084846 0.050870 -0.004794 -664930.000000 0 0 1
30.361735 -25.863394 22.528779 45.807161 -0.705562 1.056620 0.039467 0.000974 -487773.000000 0 0 1
29.445955 -24.706194 21.998679 44.287720 -0.698094 1.050979 0.039958 0.008531 -248932.000000 0 0 1
30.046715 -23.609394 21.341679 43.768434 -0.665995 1.061453 0.037362 0.013057 -56233.200000 0 0 1
30.897945 -22.809994 22.163079 44.341638 -0.635930 1.047399 0.060185 -0.000463 136237.000000 0 0 1
31.709995 -21.806194 21.330079 44.000070 -0.602407 1.064692 0.066418 -0.001856 -345899.000000 0 0 1
30.985945 -20.631394 21.000479 42.741120 -0.587424 1.057167 0.060131 -0.003227 -217518.000000 0 0 1
31.690305 -19.566294 20.387079 42.458783 -0.553131 1.069957 0.068451 -0.005261 -1013870.000000 0 0 1
30.802795 -18.353594 20.351379 41.229179 -0.537356 1.054554 0.041994 0.003507 -151913.000000 0 0 1
30.496225 -17.844094 21.648779 41.437918 -0.529410 1.021088 0.077832 -0.003362 -207613.000000 0 0 1
29.411865 -18.495794 22.237379 41.251100 -0.561367 1.001459 0.075481 -0.012654 -988435.000000 0 0 1
29.268665 -18.314294 23.805909 41.937923 -0.559124 0.967152 0.064232 -0.011306 -14192.200000 0 0 1
29.021925 -16.974394 24.180899 41.413984 -0.529229 0.947293 0.073090 -0.008493 224520.000000 0 0 1
29.419415 -16.721994 25.544329 42.398583 -0.516860 0.924191 0.072376 -0.008618 -220259.000000 0 0 1
29.316675 -15.237994 25.997819 42.042246 -0.479340 0.904125 0.072991 -0.007908 375111.000000 0 0 1
27.966405 -14.770794 25.994819 40.939306 -0.485923 0.882840 0.079663 -0.008784 562175.000000 0 0 1
27.762005 -13.429994 26.420139 40.609327 -0.450567 0.862431 0.068579 -0.015188 -18069.500000 0 0 1
28.359205 -12.259994 25.547939 40.090512 -0.408047 0.879863 0.082339 -0.027340 -218755.000000 0 0 1
27.842205 -12.116594 24.249429 38.859169 -0.410468 0.896902 0.072989 -0.016436 -234320.000000 0 0 1
28.481405 -11.132294 23.507499 38.570985 -0.372604 0.915416 0.085125 -0.011970 -115959.000000 0 0 1
29.717645 -11.610794 22.711679 39.163367 -0.372467 0.952164 0.079116 -0.019589 -104963.000000 0 0 1
29.421265 -12.547794 21.662079 38.630346 -0.403130 0.975501 0.055088 -0.020631 28196.200000 0 0 1
29.338125 -13.873794 22.144579 39.288549 -0.441728 0.972011 0.074213 -0.023032 -578852.000000 0 0 1
28.682245 -14.767294 21.090579 38.542920 -0.475464 0.991784 0.063816 -0.020417 -415434.000000 0 0 1
29.398135 -14.849894 19.905079 38.483527 -0.467744 1.027178 0.055338 -0.014381 -212657.000000 0 0 1
28.665455 -15.663594 19.015779 37.797570 -0.500096 1.043620 0.058617 -0.024067 -108882.000000 0 0 1
29.155715 -15.524494 17.554279 37.406127 -0.489284 1.082311 0.057457 -0.026726 64703.100000 0 0 1
28.670975 -16.418394 16.551579 36.953257 -0.520065 1.106375 0.055968 -0.033420 811546.000000 0 0 1
27.318905 -16.277294 16.051179 35.621808 -0.537344 1.103359 0.057135 -0.031849 679560.000000 0 0 1
27.012605 -15.333894 14.859079 34.432563 -0.516298 1.124595 0.060266 -0.033369 -380381.000000 0 0 1
27.132805 -15.914894 13.536679 34.244921 -0.530475 1.164413 0.063384 -0.033809 799636.000000 0 0 1
26.198705 -16.995994 13.251479 33.923998 -0.575485 1.169489 0.061420 -0.038012 303784.000000 0 0 1
26.485605 -17.606394 11.845779 33.938103 -0.586677 1.214249 0.072399 -0.028152 -279114.000000 0 0 1
25.911005 -16.875094 10.781579 32.747388 -0.577268 1.235303 0.088562 -0.025212 -234935.000000 0 0 1
26.138305 -17.460194 9.475279 32.830630 -0.588920 1.278021 0.071901 -0.036461 -280124.000000 0 0 1
27.567205 -17.458994 8.918679 33.827653 -0.564563 1.303992 0.073774 -0.019584 -264459.000000 0 0 1
28.416805 -18.296294 9.624179 35.141059 -0.572043 1.293379 0.067443 -0.018852 -1034390.000000 0 0 1
29.765085 -18.231594 9.238779 36.106874 -0.549572 1.312046 0.070475 -0.012160 -163483.000000 0 0 1
30.590885 -19.176094 10.173779 37.510407 -0.559933 1.296130 0.070185 -0.024797 -236222.000000 0 0 1
30.832995 -18.649394 11.482379 37.819552 -0.543979 1.262318 0.065004 -0.026125 93117.300000 0 0 1
30.996015 -19.718794 12.384279 38.767953 -0.566593 1.245651 0.029932 -0.025838 -92406.400000 0 0 1
30.887475 -19.367794 13.902879 39.018426 -0.560068 1.206474 0.055933 -0.020829 104801.000000 0 0 1
30.647515 -20.482994 14.727279 39.695289 -0.589161 1.190702 0.065979 -0.020537 71733.200000 0 0 1
30.441775 -20.025494 16.067779 39.823305 -0.581860 1.155483 0.070552 -0.016731 129814.000000 0 0 1
30.078875 -21.060794 17.165979 40.533524 -0.610850 1.133490 0.066080 -0.009974 551677.000000 0 0 1
28.745835 -21.562794 17.161579 39.822066 -0.643577 1.125244 0.024782 0.002421 257283.000000 0 0 1
28.455405 -22.441694 18.209679 40.557763 -0.667789 1.105171 0.036596 0.001006 52477.100000 0 0 1
27.106505 -23.163194 17.978679 39.931555 -0.707115 1.103765 0.033957 0.005171 300697.000000 0 0 1
25.989505 -22.402594 18.451179 38.958652 -0.711412 1.077412 0.047405 0.000877 166012.000000 0 0 1
24.849605 -23.232794 18.309179 38.632779 -0.751785 1.077049 0.044723 0.002714 287657.000000 0 0 1
23.587705 -22.756994 19.089979 37.930040 -0.767475 1.043389 0.046282 0.002174 436399.000000 0 0 1
22.920405 -21.625994 18.488879 36.535835 -0.756349 1.040200 0.044279 0.002459 1227930.000000 0 0 1
21.719205 -21.142194 19.172879 35.865241 -0.771937 1.006784 0.052062 -0.003228 1249040.000000 0 0 1
21.824205 -20.417694 20.559479 36.274927 -0.752114 0.968218 0.053060 -0.001041 -369212.000000 0 0 1
22.212505 -21.381094 21.484779 37.578482 -0.766329 0.962182 0.054019 0.002720 -233683.000000 0 0 1
22.311605 -20.849394 22.779679 38.097490 -0.751533 0.929879 0.036662 0.001686 111729.000000 0 0 1
22.774905 -21.843094 23.821149 39.538136 -0.764517 0.924185 0.034865 0.003131 313435.000000 0 0 1
21.721605 -22.716194 24.244159 39.694242 -0.807776 0.913760 0.059982 0.014597 456451.000000 0 0 1
22.204205 -23.756194 25.140849 41.102868 -0.819153 0.912643 0.063768 0.015217 -199007.000000 0 0 1
21.134405 -24.687194 25.732969 41.452459 -0.862779 0.901056 0.079738 0.009353 -396028.000000 0 0 1
20.533705 -25.620194 24.888079 41.200047 -0.895162 0.922187 0.095215 -0.002215 584214.000000 0 0 1
19.452805 -26.236094 25.626489 41.514590 -0.932788 0.905505 0.106197 -0.000513 835177.000000 0 0 1
18.762305 -27.456294 24.876379 41.529585 -0.971331 0.928540 0.118315 -0.014088 279240.000000 0 0 1
18.053105 -26.959294 23.753099 40.211041 -0.980736 0.938857 0.116513 -0.016045 473715.000000 0 0 1
17.005305 -27.857294 23.353139 40.132011 -1.022733 0.949723 0.114439 -0.023268 -186653.000000 0 0 1
16.159705 -27.256094 22.247279 38.716562 -1.035626 0.958658 0.112598 -0.031211 444130.000000 0 0 1
14.902405 -26.728494 22.716779 38.112283 -1.062177 0.932225 0.087977 -0.031579 541048.000000 0 0 1
14.322105 -25.844594 21.787879 36.712088 -1.064763 0.935421 0.059969 -0.024593 794390.000000 0 0 1
12.936905 -25.255994 22.256579 36.063611 -1.097412 0.905684 0.044065 -0.017507 796841.000000 0 0 1
11.936305 -26.229094 22.425379 36.514906 -1.143727 0.909497 0.044522 -0.028175 -295254.000000 0 0 1
10.663205 -25.624594 22.419479 35.678520 -1.176461 0.891334 0.041001 -0.020207 -234235.000000 0 0 1
9.483905 -26.582294 22.425279 36.047967 -1.228098 0.899380 0.042355 -0.027965 -436366.000000 0 0 1
9.305405 -27.337494 21.245879 35.851311 -1.242708 0.936500 0.051918 -0.029076 1136790.000000 0 0 1
7.909305 -27.697194 21.156479 35.739170 -1.292636 0.937297 0.059033 -0.027758 929209.000000 0 0 1
7.543705 -28.577594 19.968379 35.669630 -1.312711 0.976634 0.071242 -0.027513 31434.200000 0 0 1
8.243105 -29.812194 19.912279 36.786065 -1.301035 0.998814 0.074448 -0.030020 212777.000000 0 0 1
7.748505 -30.623094 18.880879 36.800826 -1.322970 1.032055 0.064468 -0.025804 339372.000000 0 0 1
8.446905 -32.068794 18.844779 38.142935 -1.313247 1.054047 0.071190 -0.029392 78834.300000 0 0 1
7.949505 -32.939894 19.819879 39.256323 -1.333991 1.041549 0.081428 -0.037826 -100006.000000 0 0 1
8.796405 -34.011194 19.993679 40.421347 -1.317709 1.053385 0.093136 -0.042968 -544679.000000 0 0 1
8.196105 33.175077 20.872379 40.042703 1.328590 1.022478 0.103179 -0.044519 -651805.000000 0 0 1
7.184005 32.396577 20.342279 38.922441 1.352576 1.020856 0.097444 -0.047067 -606753.000000 0 0 1
7.259105 31.111077 20.893579 38.172443 1.341569 0.991605 0.098174 -0.054345 -233839.000000 0 0 1
6.196205 30.066677 20.515479 36.922661 1.367559 0.981671 0.090720 -0.047610 305408.000000 0 0 1
4.888005 30.475477 20.920179 37.286743 1.411759 0.975128 0.076904 -0.043451 822826.000000 0 0 1
3.918605 29.473677 20.521079 36.127106 1.438619 0.966693 0.072268 -0.039750 828481.000000 0 0 1
2.524605 29.552077 21.176379 36.443627 1.485574 0.950751 0.048450 -0.027292 136796.000000 0 0 1
2.482605 28.956577 22.421779 36.706714 1.485270 0.913680 0.043858 -0.027762 200249.000000 0 0 1
1.121305 28.904377 22.824779 36.846857 1.532022 0.902755 0.026168 -0.015769 241849.000000 0 0 1
0.865305 28.238477 24.194339 37.195784 1.540163 0.862608 0.039937 -0.017983 -170487.000000 0 0 1
1.142505 29.061077 25.302989 38.549874 1.531503 0.854799 0.051122 -0.027988 162400.000000 0 0 1
0.843205 28.536877 26.567779 38.998862 1.541257 0.821334 0.044574 -0.021317 -2945.420000 0 0 1
2.101005 28.044677 27.332239 39.216953 1.496020 0.799661 0.030517 -0.022196 289639.000000 0 0 1
2.682105 26.825877 26.830189 38.035252 1.471145 0.787804 0.035910 -0.026527 500808.000000 0 0 1
3.606605 26.199577 27.713379 38.307399 1.433997 0.762014 0.017566 -0.015752 373574.000000 0 0 1
4.253005 24.906377 27.137029 37.078754 1.401668 0.749726 0.015357 -0.000524 85530.800000 0 0 1
3.216505 23.958577 26.846849 36.126342 1.437342 0.733049 0.036450 -0.004146 445551.000000 0 0 1
3.748405 22.729977 26.498559 35.112334 1.407357 0.715631 0.042991 0.001846 -475025.000000 0 0 1
2.660705 21.668177 26.342269 34.212635 1.448615 0.692022 0.046182 0.004559 -338284.000000 0 0 1
3.029705 20.319977 26.559459 33.578050 1.422787 0.658392 0.048140 0.006523 -291627.000000 0 0 1
3.594605 19.755277 25.440769 32.410259 1.390809 0.668164 0.042381 0.009987 -731086.000000 0 0 1
4.049105 18.291777 25.839559 31.916566 1.352947 0.627331 0.040975 0.006841 -201119.000000 0 0 1
5.191205 18.178277 26.645389 32.670707 1.292628 0.617075 0.030043 0.002039 -128903.000000 0 0 1
6.374505 18.276077 25.883049 32.319987 1.235200 0.642104 0.026220 0.002533 -816336.000000 0 0 1
7.712405 18.157077 26.672479 33.175017 1.169129 0.636816 0.023258 -0.004542 351006.000000 0 0 1
8.209205 19.252777 27.419509 34.494781 1.167748 0.651972 0.021921 -0.011638 89815.100000 0 0 1
8.520905 20.349277 26.524459 34.499939 1.174246 0.693793 0.021338 -0.013384 -685982.000000 0 0 1
8.941605 21.593777 27.346209 35.973027 1.178209 0.707196 0.014655 -0.010780 209977.000000 0 0 1
10.177605 21.370677 28.005289 36.668593 1.126335 0.701708 0.040181 -0.031791 104058.000000 0 0 1
10.515505 22.413377 28.834819 38.005027 1.132122 0.709465 0.053531 -0.036397 -623155.000000 0 0 1
11.465005 22.084377 29.972489 38.955310 1.091950 0.692884 0.083490 -0.038583 -754078.000000 0 0 1
12.737505 21.807377 29.512839 38.843447 1.042156 0.707807 0.088129 -0.042536 -720091.000000 0 0 1
13.737805 21.613577 30.510189 39.833976 1.004604 0.698304 0.092994 -0.031949 -180211.000000 0 0 1
15.125505 21.496177 29.925089 39.829354 0.957634 0.720717 0.085298 -0.032939 -598657.000000 0 0 1
15.656005 22.724777 29.435009 40.347810 0.967532 0.753159 0.078835 -0.041338 -643317.000000 0 0 1
16.885605 22.516077 28.828659 40.288819 0.927337 0.773385 0.118335 -0.026268 -474957.000000 0 0 1
-8.715298 16.834777 4.558785 19.497401 -1.093092 1.334797 0.031604 -0.009958 65538.600000 0 1 0
-8.564698 18.140477 5.080285 20.693967 -1.129691 1.322765 0.036178 -0.011866 961164.000000 0 1 0
-7.197198 18.388277 5.467985 20.489687 -1.197724 1.300658 0.033029 -0.005717 847722.000000 0 1 0
-6.933098 19.766677 6.077385 21.811098 -1.233456 1.288421 0.031215 -0.008914 -145892.000000 0 1 0
-7.002298 20.945677 5.254885 22.701704 -1.248169 1.337202 0.029533 -0.014174 1509450.000000 0 1 0
-8.399798 21.290177 4.893985 23.404686 -1.195007 1.360139 0.031283 -0.016339 2044440.000000 0 1 0
-8.542098 22.431177 3.842685 24.308257 -1.206939 1.412049 0.063376 -0.021239 -50039.000000 0 1 0
-8.099698 22.215177 2.523885 23.780017 -1.221173 1.464461 0.043373 -0.021069 -271921.000000 0 1 0
-8.695098 21.119977 1.857885 22.915277 -1.180244 1.489631 0.057800 -0.019037 -1190770.000000 0 1 0
-8.303498 21.005577 0.414485 22.591019 -1.194348 1.552448 0.047315 -0.009938 620797.000000 0 1 0
-6.956298 20.601077 0.202085 21.744776 -1.245151 1.561503 0.037421 -0.004903 617136.000000 0 1 0
-5.901698 21.476377 0.584485 22.280180 -1.302617 1.544560 0.041032 -0.017110 447263.000000 0 1 0
-4.481198 21.103477 -0.000815 21.574009 -1.361560 1.570834 0.034384 -0.011856 919548.000000 0 1 0
-4.413198 21.410377 -1.385715 21.904355 -1.367519 1.634101 0.027021 -0.011549 571682.000000 0 1 0
-3.086998 21.703477 -1.861915 22.000846 -1.429509 1.655527 0.038743 -0.003710 571599.000000 0 1 0
-3.000998 21.825177 -3.441815 22.297768 -1.434152 1.725773 0.042455 0.006550 -298488.000000 0 1 0
-1.806398 22.276777 -4.013215 22.707351 -1.489885 1.748466 0.059934 0.004530 -208905.000000 0 1 0
-1.962998 22.347177 -5.411915 23.076796 -1.483180 1.807519 0.066514 -0.010709 316269.000000 0 1 0
-0.665498 22.907877 -6.035115 23.698868 -1.541753 1.828291 0.082960 -0.022983 79038.300000 0 1 0
0.506602 22.143677 -5.891515 22.919621 1.547922 1.830766 0.079006 -0.014313 -483237.000000 0 1 0
1.520202 22.819677 -6.596915 23.802688 1.504277 1.851623 0.093588 -0.016690 55716.500000 0 1 0
2.896602 22.110677 -6.640715 23.267390 1.440533 1.860229 0.065577 -0.001362 257388.000000 0 1 0
2.775402 20.966977 -7.396515 22.405924 1.439191 1.907221 0.065289 -0.018670 -72321.800000 0 1 0
3.954002 20.188577 -7.345315 21.844140 1.377391 1.913739 0.050400 -0.014396 159047.000000 0 1 0
3.986002 18.999977 -8.321715 21.121986 1.364005 1.975758 0.037370 -0.016669 113427.000000 0 1 0
4.247102 19.411477 -9.714315 22.118120 1.355397 2.025506 0.042813 -0.022746 -217506.000000 0 1 0
3.125902 19.204077 -10.532715 22.124781 1.409439 2.066965 0.044938 -0.025566 -707004.000000 0 1 0
3.381202 19.308177 -12.045215 23.007074 1.397437 2.121802 0.042129 -0.031880 -90801.200000 0 1 0
3.558102 20.680077 -12.476115 24.412684 1.400410 2.107203 0.078768 -0.033328 11731.800000 0 1 0
3.888002 20.837677 -13.852115 25.322055 1.386332 2.149618 0.082078 -0.031202 -81534.100000 0 0 1
4.253702 22.264077 -14.270215 26.784737 1.382015 2.132672 0.088117 -0.035073 -127151.000000 0 0 1
3.170902 23.152077 -14.269215 27.380354 1.434683 2.118992 0.102867 -0.039072 -390415.000000 0 0 1
3.526502 24.374377 -14.795115 28.730505 1.427113 2.111760 0.096995 -0.043239 -140072.000000 0 0 1
2.323502 25.156977 -15.357715 29.565716 1.478697 2.116996 0.088713 -0.033163 397633.000000 0 0 1
1.358502 25.546577 -14.364015 29.339360 1.517669 2.082406 0.099924 -0.034565 440189.000000 0 0 1
1.182602 26.953977 -14.433915 30.598257 1.526950 2.062041 0.075626 -0.028067 -620437.000000 0 0 1
0.386502 27.548177 -13.225815 30.560982 1.556767 2.018357 0.085765 -0.024092 1312130.000000 0 0 1
-1.046198 27.417777 -13.200615 30.448075 -1.532657 2.019220 0.064763 -0.031706 878936.000000 0 0 1
-1.706298 26.152477 -13.135015 29.315391 -1.505644 2.035389 0.060213 -0.036948 -27858.400000 0 0 1
-1.382098 25.203577 -11.953615 27.928828 -1.516014 2.013078 0.091301 -0.033917 -182294.000000 0 0 1
-2.360098 25.304977 -10.928715 27.664937 -1.477799 1.976906 0.085295 -0.024779 40137.000000 0 0 1
-2.565998 24.028577 -10.323115 26.277815 -1.464410 1.974520 0.108724 -0.023804 -12759.600000 0 0 1
-3.588798 23.985777 -9.151615 25.921980 -1.422276 1.931620 0.085482 -0.014506 -197463.000000 0 0 1
-3.377598 24.469177 -7.862615 25.922375 -1.433628 1.878965 0.095782 -0.018519 -287758.000000 0 0 1
-3.010698 25.832477 -7.761215 27.140701 -1.454773 1.860807 0.097714 -0.019439 -148747.000000 0 0 1
-2.988198 26.404977 -6.342015 27.319834 -1.458108 1.805073 0.088650 -0.016790 1074060.000000 0 0 1
-1.752098 26.059877 -5.643915 26.721542 -1.503664 1.783611 0.095084 -0.013841 1072080.000000 0 0 1
-1.695298 26.393277 -4.265115 26.789370 -1.506652 1.730686 0.098310 -0.018309 -65591.000000 0 0 1
-2.506498 25.522277 -3.250015 25.850179 -1.472902 1.696855 0.088367 -0.016731 726203.000000 0 0 1
-3.917198 25.668977 -3.353615 26.181817 -1.419360 1.699239 0.061987 -0.012991 38903.000000 0 0 1
-4.644898 25.110277 -2.321615 25.641587 -1.387884 1.661462 0.059069 -0.010074 -852616.000000 0 0 1
-5.879998 24.362977 -2.766215 25.214698 -1.333976 1.680724 0.033371 -0.008630 -899269.000000 0 0 1
-6.933498 25.227877 -3.088715 26.345006 -1.302584 1.688308 0.028273 -0.008710 -732341.000000 0 0 1
-7.911698 24.595277 -3.873515 26.125213 -1.259574 1.719612 0.039428 -0.002510 442020.000000 0 0 1
-9.067098 25.616377 -4.212815 27.498343 -1.230601 1.724605 0.032242 -0.006643 719223.000000 0 0 1
-9.821298 25.865877 -3.011515 27.831111 -1.207911 1.679215 0.050100 -0.007075 -302438.000000 0 0 1
-11.164798 26.221377 -3.218515 28.680519 -1.168257 1.683253 0.061585 -0.011220 315495.000000 0 0 1
-11.998598 26.331077 -1.893015 28.997853 -1.143227 1.636124 0.067884 -0.012007 252100.000000 0 0 1
-12.248898 25.168277 -1.153015 28.014409 -1.117861 1.611966 0.063178 -0.010527 -21753.600000 0 0 1
-11.137998 24.818677 -0.364115 27.205777 -1.148962 1.584180 0.069963 -0.017448 -149961.000000 0 0 1
-11.264298 23.411077 0.165685 25.980577 -1.122340 1.564419 0.061771 -0.014338 -484104.000000 0 0 1
-12.214498 23.281977 1.158185 26.317025 -1.087637 1.526773 0.075946 -0.012816 -505859.000000 0 0 1
-12.622998 21.918977 1.209185 25.322792 -1.048291 1.523027 0.092241 -0.021738 -36927.300000 0 0 1
-13.727298 21.668677 2.268185 25.751018 -1.006102 1.482601 0.100752 -0.022155 51616.400000 0 0 1
-13.324698 21.711177 3.645585 25.733501 -1.020346 1.428651 0.103596 -0.027951 -81168.500000 0 0 1
-13.252498 23.027277 4.113885 26.885093 -1.048577 1.417176 0.087045 -0.028136 -6297.050000 0 0 1
-13.043098 23.017477 5.699685 27.063131 -1.055252 1.358600 0.088060 -0.028100 385055.000000 0 0 1
-11.750298 22.691677 6.206785 26.296500 -1.092991 1.332517 0.078569 -0.022419 508213.000000 0 0 1
-11.787598 22.382377 7.638085 26.424584 -1.086060 1.277560 0.066874 -0.020888 432676.000000 0 0 1
-10.380398 22.069077 8.262785 25.750154 -1.131141 1.244135 0.051665 -0.022630 439827.000000 0 0 1
-9.673098 23.195077 8.670685 26.584981 -1.175694 1.238569 0.051219 -0.029059 792909.000000 0 0 1
-8.446798 22.935277 9.406185 26.188769 -1.217923 1.203419 0.045977 -0.029404 882781.000000 0 0 1
-8.531198 22.631577 10.960785 26.553878 -1.210308 1.145297 0.041104 -0.034583 -318245.000000 0 0 1
-9.405798 21.535877 11.157885 26.014639 -1.159015 1.127513 0.041730 -0.033066 127166.000000 0 0 1
-9.112098 20.962877 12.451485 26.029061 -1.160757 1.072000 0.035215 -0.031240 591233.000000 0 0 1
-10.188698 19.864977 12.861785 25.765333 -1.096884 1.048133 0.035349 -0.024118 304910.000000 0 0 1
-10.136498 18.714277 12.058685 24.461902 -1.074390 1.055310 0.041480 -0.030480 11987.500000 0 1 0
-10.594798 17.598977 12.773785 24.189736 -1.028899 1.014474 0.028482 -0.026247 -230659.000000 0 1 0
-10.929998 16.348277 11.909685 22.990685 -0.981476 1.026259 0.031953 -0.022973 -341523.000000 0 1 0
-11.242698 15.161177 12.589385 22.688150 -0.932728 0.982568 0.025951 -0.018241 -130038.000000 0 1 0
-11.676198 14.217077 11.606785 21.752617 -0.883214 1.007967 0.020262 -0.010167 -36131.800000 0 1 0
-11.866998 12.784777 12.193985 21.283079 -0.822611 0.960705 0.016986 -0.018863 56936.200000 0 1 0
-13.030298 12.856077 12.994885 22.448484 -0.778668 0.953447 0.032497 -0.013827 85630.600000 0 1 0
-13.277998 11.643477 13.707585 22.355618 -0.719905 0.910741 0.030517 0.004273 63468.500000 0 1 0
-14.156498 11.865877 14.952385 23.765086 -0.697599 0.890306 0.032874 0.002859 223141.000000 0 1 0
-15.433098 12.402477 14.676885 24.645748 -0.676950 0.932891 0.039619 -0.007034 169513.000000 0 1 0
-16.130498 12.762077 15.876185 25.983010 -0.669338 0.913446 0.036854 -0.000341 858827.000000 0 0 1
-17.350798 13.752477 15.739085 27.164308 -0.670221 0.952800 0.050612 -0.009466 651144.000000 0 0 1
-18.397098 13.380277 14.893985 27.190363 -0.628817 0.991103 0.054729 -0.009669 -769785.000000 0 0 1
-19.320598 14.404377 14.760185 28.260125 -0.640644 1.021254 0.081875 -0.014831 -171811.000000 0 0 1
-20.504698 13.915277 13.876585 28.401359 -0.596245 1.060325 0.082999 -0.018381 -159924.000000 0 0 1
-21.384998 13.053177 14.542285 28.968632 -0.548024 1.044885 0.083255 -0.016696 -1307430.000000 0 0 1
-22.531498 12.909577 13.819785 29.416187 -0.520297 1.081730 0.071180 -0.015732 -1191330.000000 0 0 1
-23.408198 11.761777 14.337185 29.863657 -0.465617 1.070041 0.068245 -0.010281 -442477.000000 0 0 1
-23.987298 12.175077 15.534085 31.063335 -0.469680 1.047108 0.075487 -0.013250 133979.000000 0 0 1
-25.085188 11.330877 15.877885 31.776763 -0.424263 1.047579 0.069422 -0.015556 231862.000000 0 0 1
-25.964408 11.918477 16.981985 33.235349 -0.430339 1.034493 0.068552 -0.015720 -215210.000000 0 0 1
-26.929648 12.887277 16.642285 34.179724 -0.446344 1.062253 0.084665 -0.018899 226305.000000 0 0 1
-27.683718 13.325177 17.754985 35.485040 -0.448605 1.046792 0.074414 -0.006043 -325729.000000 0 0 1
-28.748518 14.320177 17.360485 36.509330 -0.462142 1.075255 0.079300 -0.010049 -284608.000000 0 0 1
-28.248578 15.636977 17.223285 36.594245 -0.505564 1.080763 0.090230 -0.012859 64255.100000 0 0 1
-29.326428 16.502677 16.942585 37.675309 -0.512559 1.104367 0.085620 -0.012316 -42133.600000 0 0 1
-28.965178 18.035777 16.915685 38.084264 -0.556923 1.110555 0.088810 -0.009180 -154536.000000 0 0 1
-28.426748 18.606777 18.134885 38.511897 -0.579568 1.080496 0.076605 -0.013360 -315252.000000 0 0 1
-29.176538 18.634277 19.306985 39.639202 -0.568371 1.062067 0.079684 -0.021760 -1157750.000000 0 0 1
-28.253638 18.801677 20.536985 39.667857 -0.587167 1.026608 0.084893 -0.027528 345632.000000 0 0 1
-27.649138 17.629777 21.126785 39.008011 -0.567626 0.998456 0.077349 -0.020271 533910.000000 0 0 1
-26.807968 16.889377 20.240585 37.597865 -0.562196 1.002326 0.079209 -0.011718 -494421.000000 0 0 1
-26.293978 15.506577 20.772285 36.923096 -0.532840 0.973290 0.066749 -0.017875 250084.000000 0 0 1
-27.337728 14.589077 21.090885 37.483569 -0.490212 0.973184 0.075506 -0.020352 458976.000000 0 0 1
-26.866618 13.299077 21.461085 36.868127 -0.459643 0.949482 0.062083 -0.016283 4514.480000 0 0 1
-28.101688 12.438277 21.805685 37.681607 -0.416697 0.953684 0.064131 -0.016471 205085.000000 0 0 1
-29.101068 12.440177 20.807085 37.875651 -0.403971 0.989207 0.067638 -0.018625 13809.700000 0 0 1
-30.130858 11.508877 21.050785 38.515690 -0.364861 0.992556 0.095846 -0.022211 -169277.000000 0 0 1
-31.007628 11.338677 19.783085 38.489077 -0.350569 1.030964 0.116611 -0.026487 -190281.000000 0 0 1
-30.366498 10.775677 18.632185 37.220931 -0.340993 1.046524 0.140431 -0.029716 557003.000000 0 0 1
-29.778048 9.458677 18.862485 36.496466 -0.307560 1.027652 0.165554 -0.030565 300012.000000 0 0 1
-28.816878 9.009077 17.700185 34.998178 -0.303005 1.040550 0.185152 -0.032950 129411.000000 0 0 1
-29.414038 8.470977 16.505485 34.776057 -0.280403 1.076262 0.180521 -0.028747 386882.000000 0 0 1
-30.192708 9.435177 15.791785 35.355377 -0.302884 1.107769 0.166223 -0.032290 -46283.900000 0 0 1
-29.405878 10.521377 15.012485 34.652269 -0.343605 1.122720 0.143922 -0.020907 -148546.000000 0 0 1
-28.913638 10.091977 13.777085 33.580568 -0.335818 1.148047 0.127387 -0.032822 86405.700000 0 0 1
-28.081878 11.061677 13.207785 32.945381 -0.375244 1.158298 0.102955 -0.021327 -378068.000000 0 0 1
-27.982098 11.051477 11.631985 32.255791 -0.376144 1.201867 0.120335 -0.016138 -904468.000000 0 0 1
-27.283758 10.005277 11.119885 31.115284 -0.351485 1.205338 0.144123 -0.019480 -173598.000000 0 0 1
-27.999278 8.789477 11.040185 31.354428 -0.304176 1.210973 0.134270 -0.024583 -133372.000000 0 0 1
-27.198748 7.680877 10.332485 30.091993 -0.275231 1.220301 0.139877 -0.022604 -29111.600000 0 0 1
-26.876688 7.984277 9.013785 29.450864 -0.288767 1.259743 0.139521 -0.015994 180758.000000 0 0 1
-26.050078 7.014877 8.396185 28.254398 -0.263045 1.269075 0.155037 -0.016487 -360653.000000 0 0 1
-25.454638 7.658577 7.132385 27.522052 -0.292256 1.308653 0.132706 -0.004030 -545937.000000 0 0 1
-26.376038 8.045777 6.135185 28.250140 -0.296075 1.351878 0.142687 -0.008167 21347.700000 0 0 1
-25.731498 8.504377 4.962485 27.551056 -0.319202 1.389688 0.133947 -0.018391 -585042.000000 0 0 1
-26.730508 8.925477 3.915685 28.452009 -0.322266 1.432734 0.131833 -0.011046 -397773.000000 0 0 1
-27.497038 7.882077 3.300385 28.794215 -0.279166 1.455924 0.158512 -0.020085 592294.000000 0 0 1
-26.800018 6.853877 2.559185 27.780677 -0.250375 1.478545 0.153296 -0.017070 43683.200000 0 0 1
-25.802768 7.028977 1.375185 26.778359 -0.265958 1.519419 0.152453 -0.019157 302040.000000 0 0 1
-24.570998 7.570377 1.782385 25.772494 -0.298873 1.501583 0.124643 -0.013097 -148069.000000 0 0 1
-23.589898 7.617677 0.811585 24.802640 -0.312351 1.538069 0.124135 -0.007301 -1295680.000000 0 1 0
-22.333898 8.321877 1.206185 23.864441 -0.356675 1.520232 0.096948 -0.008467 -1148890.000000 0 1 0
-22.511998 9.708277 1.412585 24.556793 -0.407152 1.513241 0.089507 -0.012832 544363.000000 0 1 0
-21.396698 10.316777 2.026685 23.840345 -0.449280 1.485683 0.098006 -0.016338 -138226.000000 0 1 0
-21.743898 11.771477 2.337585 24.836044 -0.496193 1.476536 0.091855 -0.019638 -1234230.000000 0 1 0
-20.879398 12.391077 3.149385 24.482783 -0.535596 1.441802 0.109485 -0.020805 -821117.000000 0 1 0
-21.460598 13.438077 3.930085 25.623910 -0.559443 1.416813 0.121631 -0.032474 -499882.000000 0 0 1
-20.413898 14.259677 4.704085 25.341548 -0.609737 1.384086 0.097752 -0.018360 -293977.000000 0 0 1
-19.690498 13.436677 5.556185 24.477157 -0.598812 1.341806 0.078654 -0.021155 -240824.000000 0 1 0
-18.810398 14.157977 6.373385 24.390560 -0.645206 1.306422 0.076146 -0.017738 -209679.000000 0 1 0
-18.024998 13.278677 7.358285 23.566251 -0.634922 1.253248 0.038037 -0.021534 -186267.000000 0 1 0
-17.102498 12.343877 6.876385 22.184486 -0.625180 1.255642 0.050659 -0.016681 -61779.400000 0 1 0
-16.463398 11.720577 7.935185 21.711346 -0.618679 1.196642 0.037308 -0.013548 -454486.000000 0 1 0
10.418902 -33.641794 -14.679915 38.155258 -1.270463 1.965724 0.024940 -0.009625 -907427.000000 0 0 1
11.470702 -33.339494 -13.836015 37.875245 -1.239425 1.944757 0.023571 -0.013136 -392513.000000 0 0 1
12.056502 -32.051094 -14.065815 37.019982 -1.211005 1.960541 0.037719 -0.021285 451407.000000 0 0 1
13.343802 -31.859094 -13.186815 36.972301 -1.174156 1.935495 0.039147 -0.020890 63914.100000 0 0 1
14.446602 -32.490694 -13.751315 38.124116 -1.152410 1.939813 0.052171 -0.020843 -1687390.000000 0 0 1
15.617302 -31.854394 -13.416815 37.929059 -1.114962 1.932357 0.055087 -0.018076 -507540.000000 0 0 1
16.826102 -32.625794 -14.024015 39.296732 -1.094644 1.935717 0.078278 -0.019897 245253.000000 0 0 1
16.987402 -33.917594 -13.419615 40.237558 -1.106474 1.910820 0.074496 -0.022578 -320589.000000 0 0 1
18.090802 33.558477 -13.836015 40.557167 1.076373 1.918935 0.084153 -0.010050 137623.000000 0 0 1
18.015402 32.164777 -13.227815 39.167623 1.060234 1.915293 0.066953 -0.017590 149535.000000 0 0 1
18.617202 32.029877 -11.937615 38.923256 1.044282 1.882516 0.068320 -0.020896 -124444.000000 0 0 1
18.579202 30.753077 -11.459315 37.712788 1.027337 1.879535 0.050602 -0.019443 -154813.000000 0 0 1
19.472302 30.307977 -10.307015 37.469702 0.999725 1.849465 0.052467 -0.020403 -150350.000000 0 0 1
20.847802 30.222077 -10.613315 38.218415 0.966935 1.852197 0.045360 -0.025013 231062.000000 0 0 1
21.560202 29.744177 -9.454515 37.933445 0.943583 1.822691 0.047580 -0.022947 60443.900000 0 0 1
22.826702 28.949177 -9.711515 38.123834 0.903101 1.828371 0.050738 -0.018323 -364841.000000 0 0 1
23.990002 29.572477 -10.167815 39.413653 0.889247 1.831724 0.063739 -0.025839 -46833.200000 0 0 1
25.161402 28.861777 -9.859815 39.538769 0.853787 1.822827 0.062813 -0.025440 995716.000000 0 0 1
26.474902 29.268877 -10.657515 40.879949 0.835478 1.834546 0.055155 -0.027670 1072770.000000 0 0 1
27.168002 30.463177 -10.231915 42.080846 0.842513 1.816407 0.067617 -0.038595 531702.000000 0 0 1
28.074202 30.791977 -11.295915 43.172959 0.831534 1.835521 0.066626 -0.030720 244090.000000 0 0 1
28.620002 32.236677 -11.068115 44.506303 0.844758 1.822120 0.058365 -0.029788 364715.000000 0 0 1
27.746402 33.271477 -11.489415 44.820315 0.875700 1.830034 0.055614 -0.022198 807456.000000 0 0 1
28.564702 -33.833094 -11.201115 45.673684 -0.869631 1.818566 0.065053 -0.021313 517452.000000 0 0 1
27.809202 -32.518594 -11.431315 44.288663 -0.863304 1.831861 0.064568 -0.016264 661251.000000 0 0 1
26.620102 -32.547794 -10.615215 43.366710 -0.885249 1.818087 0.078516 -0.021984 801530.000000 0 0 1
25.496402 -31.760794 -11.028315 42.195240 -0.894373 1.835231 0.078394 -0.021151 837160.000000 0 0 1
25.619602 -30.240494 -10.775915 41.072763 -0.867933 1.836265 0.038819 -0.012349 -566119.000000 0 0 1
26.474302 -29.589094 -11.657215 41.379872 -0.840900 1.856374 0.036354 -0.005065 -535022.000000 0 0 1
26.731702 -28.296294 -11.175715 40.498898 -0.813823 1.850375 0.028635 0.004010 -196095.000000 0 0 1
27.508702 -27.519594 -12.239215 40.790380 -0.785596 1.875543 0.039792 -0.000438 718868.000000 0 0 1
28.764702 -28.138194 -12.607815 42.167796 -0.774388 1.874432 0.030795 0.002686 720223.000000 0 0 1
28.755502 -29.009694 -13.686715 43.078619 -0.789799 1.894115 0.044014 -0.001365 51405.000000 0 0 1
30.163202 -29.626794 -13.940515 44.518576 -0.776427 1.889293 0.046046 0.003061 464914.000000 0 0 1
30.575902 -30.599894 -12.988315 45.165647 -0.785790 1.862486 0.044775 -0.004075 -229814.000000 0 0 1
31.697002 -31.343394 -13.363015 46.536851 -0.779789 1.862046 0.048348 -0.008215 -492982.000000 0 0 1
32.273202 -32.315794 -12.352015 47.312180 -0.786058 1.834932 0.058385 -0.005989 460899.000000 0 0 1
33.258802 -33.097694 -13.071615 48.708032 -0.782970 1.842493 0.053175 -0.012853 1439380.000000 0 0 1
34.220402 -33.921594 -12.325815 49.735663 -0.781013 1.821232 0.058856 -0.009552 1079460.000000 0 0 1
33.637102 33.062477 -11.605815 48.572389 0.776783 1.812069 0.056275 -0.022859 222692.000000 0 0 1
32.921402 33.347477 -10.396815 47.999653 0.791828 1.789129 0.048587 -0.024593 -91342.700000 0 0 1
32.291102 32.248277 -9.863015 46.689889 0.784735 1.783645 0.060290 -0.026234 -359512.000000 0 0 1
31.615802 32.614177 -8.536115 46.218056 0.800941 1.756555 0.041487 -0.021292 336514.000000 0 0 1
30.605702 33.621977 -8.644415 46.280366 0.832326 1.758683 0.041377 -0.022480 112591.000000 0 0 1
29.788502 33.614777 -7.455115 45.528967 0.845673 1.735281 0.032755 -0.017552 800857.000000 0 0 1
28.691402 -33.508694 -7.481615 44.743756 -0.862692 1.738796 0.030771 -0.019512 154364.000000 0 0 1
29.241902 -32.181994 -7.543915 44.132530 -0.833227 1.742578 0.013335 -0.022283 -148251.000000 0 0 1
28.453202 -31.119894 -8.037215 42.925859 -0.830132 1.759143 0.021598 -0.010784 -152138.000000 0 0 1
27.319502 -30.554194 -7.169215 41.609033 -0.841232 1.743960 0.027065 -0.007219 219333.000000 0 0 1
26.450302 -29.651094 -7.818715 40.496150 -0.842390 1.765089 0.023339 -0.014470 -79472.800000 0 0 1
25.483002 -29.141094 -6.924215 39.325965 -0.852267 1.747791 0.038061 -0.018980 21320.100000 0 0 1
24.360002 -28.340194 -7.594715 38.134709 -0.860780 1.771292 0.063120 -0.023466 -541060.000000 0 0 1
23.501802 -29.072794 -8.407115 38.317641 -0.890968 1.792002 0.083079 -0.025505 -709509.000000 0 0 1
22.613102 -28.243894 -9.053015 37.296475 -0.895667 1.815977 0.086991 -0.034181 -283775.000000 0 0 1
21.379002 -29.014694 -9.590015 37.294538 -0.935775 1.830861 0.097948 -0.032746 -128452.000000 0 0 1
21.665302 -29.670694 -10.830915 38.302012 -0.940093 1.857484 0.106576 -0.030973 -255966.000000 0 0 1
20.643302 -30.376994 -11.488915 38.482501 -0.973914 1.873968 0.107934 -0.031483 130946.000000 0 0 1
20.193402 -31.707594 -10.806415 39.114238 -1.003712 1.850716 0.108739 -0.038262 146896.000000 0 0 1
21.249002 -32.633594 -10.888815 40.435601 -0.993621 1.843450 0.100773 -0.032980 -254802.000000 0 0 1
20.837602 -33.934894 -10.478115 41.177343 -1.020113 1.828089 0.089886 -0.029246 1040530.000000 0 0 1
21.983902 33.185977 -10.486515 41.165131 0.985722 1.828378 0.084548 -0.024304 1716090.000000 0 0 1
23.044802 33.501077 -9.549615 41.768172 0.968249 1.801470 0.090431 -0.028925 723047.000000 0 0 1
24.242202 32.781877 -9.826215 41.939126 0.934049 1.807292 0.084668 -0.029259 479229.000000 0 0 1
25.499702 33.287977 -9.061215 42.900231 0.917113 1.783615 0.077351 -0.032579 -13893.300000 0 0 1
25.662102 32.898177 -7.674215 42.423191 0.908341 1.752694 0.075080 -0.037364 -32884.700000 0 0 1
26.008802 31.574377 -7.532415 41.594908 0.881752 1.752891 0.060449 -0.027499 -485071.000000 0 0 1
26.125202 31.041877 -6.092915 41.027405 0.871192 1.719856 0.058240 -0.029562 270100.000000 0 0 1
27.193102 31.604477 -5.321015 42.031190 0.860284 1.697734 0.052037 -0.024466 -31721.100000 0 0 1
28.228102 30.817177 -4.856015 42.072616 0.829219 1.686474 0.066707 -0.023837 -251367.000000 0 0 1
27.836202 29.622077 -3.896815 40.835117 0.816469 1.666370 0.067908 -0.020684 -766017.000000 0 0 1
27.369502 30.067077 -2.623215 40.743098 0.832330 1.635225 0.058984 -0.013444 -184162.000000 0 0 1
26.991202 29.029677 -1.819315 39.680688 0.821770 1.616661 0.044157 -0.011374 328762.000000 0 0 1
25.549002 28.479477 -2.088915 38.317042 0.839585 1.625340 0.034544 -0.005564 -82644.800000 0 0 1
24.540802 29.184077 -1.435115 38.157841 0.871611 1.608415 0.034546 -0.007085 -954992.000000 0 0 1
23.327302 28.499377 -1.508615 36.859916 0.884864 1.611736 0.053165 -0.004452 -642665.000000 0 0 1
22.176402 29.083877 -0.714815 36.581083 0.919344 1.590338 0.080607 -0.016151 -361299.000000 0 0 1
22.354302 29.288477 0.653585 36.850466 0.918872 1.553059 0.093141 -0.024672 639794.000000 0 0 1
21.133402 29.864377 1.152485 36.603687 0.954957 1.539306 0.069944 -0.023208 866326.000000 0 0 1
20.322702 29.014677 2.158285 35.489743 0.959783 1.509944 0.068565 -0.033629 -457059.000000 0 0 1
19.747002 27.893177 1.598585 34.212993 0.954754 1.524055 0.091351 -0.025600 102737.000000 0 0 1
19.040602 27.248977 2.651185 33.347864 0.960900 1.491211 0.097601 -0.018202 -81769.900000 0 0 1
18.330402 25.932677 2.153885 31.829964 0.955491 1.503076 0.110828 -0.008576 328309.000000 0 0 1
19.176502 24.847677 1.706785 31.433396 0.913512 1.516471 0.114804 -0.017588 720281.000000 0 0 1
20.077602 24.282877 2.662585 31.620525 0.879914 1.486492 0.098460 -0.001264 -35245.300000 0 0 1
21.299202 23.565477 2.095985 31.833644 0.835869 1.504907 0.084263 0.000188 -295886.000000 0 0 1
20.914702 22.418177 1.320585 30.687837 0.820080 1.527750 0.091229 0.003240 375844.000000 0 0 1
22.020402 21.564477 1.140685 30.841951 0.774938 1.533803 0.062016 -0.001989 -52879.900000 0 0 1
21.904102 20.550277 -0.051415 30.035083 0.753520 1.572508 0.089436 -0.013076 -154983.000000 0 0 1
21.808002 21.202177 -1.349415 30.445725 0.771313 1.615133 0.071594 -0.006822 404280.000000 0 0 1
22.021002 20.225677 -2.366015 29.993342 0.742927 1.649763 0.101286 -0.019791 -5654.000000 0 0 1
21.816202 20.830277 -3.770215 30.398382 0.762284 1.695143 0.078985 -0.020232 -481935.000000 0 0 1
22.772802 21.760577 -4.165915 31.772285 0.762673 1.702293 0.070413 -0.014240 -160610.000000 0 0 1
22.496102 22.456177 -5.370715 32.236611 0.784510 1.738180 0.068080 -0.017214 -435283.000000 0 0 1
23.413702 23.657677 -5.670415 33.764489 0.790581 1.739536 0.062134 -0.007696 -235286.000000 0 0 1
23.376802 24.835777 -4.873815 34.453516 0.815650 1.712733 0.056332 -0.009194 -154436.000000 0 0 1
23.694102 24.829777 -3.475915 34.496526 0.808798 1.671729 0.056847 -0.008172 23357.100000 0 0 1
22.604802 24.389577 -2.440515 33.343435 0.823358 1.644055 0.057072 -0.011315 -632735.000000 0 0 1
21.544402 25.316177 -2.318715 33.323363 0.865714 1.640435 0.075053 -0.010383 512511.000000 0 0 1
20.544202 24.917077 -1.376715 32.323680 0.881292 1.613401 0.099923 -0.005903 621199.000000 0 0 1
19.551002 23.821077 -1.904915 30.875785 0.883534 1.632532 0.114908 -0.014809 -712276.000000 0 0 1
18.719002 24.262277 -2.929815 30.783810 0.913660 1.666115 0.099846 -0.017526 -114764.000000 0 0 1
17.797702 23.292777 -3.364515 29.506467 0.918341 1.685071 0.101020 -0.024312 197794.000000 0 0 1
17.241202 23.594977 -4.784715 29.612083 0.939752 1.733088 0.095320 -0.027511 4542.260000 0 0 1
16.473602 22.589777 -5.397515 28.474739 0.940708 1.761505 0.109605 -0.035253 151323.000000 0 0 1
16.149402 22.955277 -6.711915 28.858235 0.957715 1.805528 0.097609 -0.028035 23535.200000 0 0 1
15.517202 21.778877 -7.510315 27.776031 0.951738 1.844593 0.100409 -0.032034 -69925.700000 0 0 1
16.482102 20.914377 -8.125615 27.840555 0.903369 1.866970 0.106609 -0.030585 605202.000000 0 0 1
15.865402 20.092077 -9.072615 27.160907 0.902408 1.911375 0.140145 -0.040389 -222303.000000 0 0 1
16.621102 18.750877 -9.196015 26.691255 0.845536 1.922537 0.132573 -0.040367 228989.000000 0 0 1
17.796802 18.842877 -9.986515 27.776081 0.813941 1.938567 0.122942 -0.036777 363495.000000 0 0 1
18.418702 17.577877 -10.176115 27.418674 0.762044 1.951031 0.125909 -0.035617 -805289.000000 0 0 1
19.881502 17.790477 -10.514315 28.676227 0.729949 1.946209 0.105788 -0.035232 -1008920.000000 0 0 1
20.101302 18.019877 -11.892115 29.499165 0.730852 1.985735 0.102971 -0.029967 70335.000000 0 0 1
21.435102 18.307977 -12.240515 30.732326 0.706876 1.980453 0.084721 -0.018356 -114668.000000 0 0 1
21.606302 18.646277 -13.698615 31.657037 0.711994 2.018303 0.072051 -0.012203 -100953.000000 0 0 1
21.393202 17.600177 -14.609915 31.319083 0.688430 2.056110 0.073360 -0.007376 220959.000000 0 0 1
21.491302 18.071677 -15.895415 32.266481 0.699177 2.085905 0.066350 -0.004965 82533.200000 0 0 1
21.391802 17.010277 -16.992215 32.182202 0.671793 2.127041 0.070568 -0.009946 369705.000000 0 0 1
22.423102 16.016177 -16.853015 32.300736 0.620240 2.119701 0.075972 0.000430 628848.000000 0 0 1
22.811702 15.259277 -18.014415 32.828927 0.589563 2.151648 0.085301 -0.015238 129943.000000 0 0 1
23.560302 16.021477 -19.187915 34.350424 0.597190 2.163485 0.094299 -0.012359 784245.000000 0 0 1
24.953002 16.311977 -18.992115 35.347324 0.578977 2.138029 0.108643 -0.005879 868074.000000 0 0 1
25.533002 17.001177 -20.082115 36.664227 0.587438 2.150446 0.130115 -0.016307 527522.000000 0 0 1
27.055602 17.259377 -19.829915 37.724226 0.567838 2.124281 0.105183 -0.015083 637518.000000 0 0 1
27.172702 18.260077 -18.798315 37.751328 0.591686 2.092031 0.077649 -0.003409 226153.000000 0 0 1
28.533002 18.432977 -18.436615 38.649911 0.573574 2.068052 0.064437 -0.005971 173558.000000 0 0 1
28.559002 19.445077 -17.170315 38.581697 0.597774 2.032013 0.055663 -0.004990 80506.200000 0 0 1
27.875202 18.888677 -16.049015 37.301205 0.595545 2.015571 0.051161 -0.007919 -368368.000000 0 0 1
26.620702 19.492677 -15.968615 36.655462 0.632036 2.021546 0.059546 0.000549 -625790.000000 0 0 1
25.877802 19.116477 -14.658115 35.354783 0.636243 1.998300 0.050673 -0.002889 52864.900000 0 0 1
26.533502 19.572077 -13.497315 35.626822 0.635541 1.959353 0.039776 -0.003726 69519.100000 0 0 1
25.796302 19.206277 -12.367515 34.457012 0.639995 1.937913 0.049592 -0.007777 -252844.000000 0 0 1
26.441302 19.604877 -11.044615 34.719982 0.638006 1.894527 0.041111 -0.015474 -404478.000000 0 0 1
26.530002 21.018077 -10.877615 35.551696 0.669990 1.881749 0.043614 -0.018341 71325.800000 0 0 1
27.022202 21.433077 -9.616315 35.805722 0.670560 1.842704 0.053129 -0.017915 176113.000000 0 0 1
25.964902 21.392977 -8.470915 34.692823 0.689157 1.817459 0.053111 -0.024420 -10075.200000 0 0 1
25.871102 20.076777 -7.978715 33.705352 0.659954 1.809784 0.059779 -0.031100 368792.000000 0 0 1
25.181302 19.877877 -6.707515 32.775276 0.668238 1.776904 0.072675 -0.031308 116922.000000 0 0 1
23.803302 19.207077 -6.986015 31.373769 0.678939 1.795349 0.109716 -0.033609 -30000.400000 0 0 1
22.903802 20.170177 -7.484915 31.423624 0.722020 1.811302 0.080089 -0.034669 -745410.000000 0 0 1
21.770702 19.599277 -8.057615 30.381249 0.732958 1.839225 0.060621 -0.036606 -578834.000000 0 0 1
20.642302 20.673877 -8.032115 30.298988 0.786162 1.839099 0.092991 -0.029682 -395062.000000 0 0 1
20.808902 21.888577 -8.750915 31.443580 0.810679 1.852826 0.081136 -0.024683 -70996.500000 0 0 1
20.422402 21.845677 -10.143015 31.578297 0.819058 1.897795 0.092524 -0.027032 948755.000000 0 0 1
18.886802 22.111177 -10.418015 30.889326 0.863884 1.914811 0.094641 -0.026045 803897.000000 0 0 1
18.475102 23.379977 -9.975715 31.423997 0.902053 1.893841 0.081943 -0.025454 184100.000000 0 0 1
17.126002 23.666077 -10.297415 30.974504 0.944372 1.909694 0.078361 -0.021518 206180.000000 0 0 1
16.704202 25.071077 -9.788415 31.676527 0.983066 1.884950 0.066736 -0.019502 216891.000000 0 0 1
17.299302 26.091177 -10.618515 33.057045 0.985314 1.897812 0.078738 -0.013777 368830.000000 0 0 1
17.240902 27.305677 -9.937015 33.787468 1.007605 1.869314 0.077340 -0.018725 30990.000000 0 0 1
20.265602 29.040177 33.068100 48.451272 0.961517 0.819616 0.058372 0.000080 744290.000000 0 0 1
18.905202 29.405377 33.276675 48.264065 0.999417 0.810038 0.075483 -0.019148 91910.100000 0 0 1
18.059802 28.317677 33.541017 47.466273 1.003076 0.786074 0.077829 -0.020658 403783.000000 0 0 1
16.556902 28.706377 33.558677 47.163247 1.047635 0.779105 0.122459 -0.032688 154387.000000 0 0 1
15.954402 29.087977 32.385842 46.362659 1.069115 0.797451 0.117973 -0.032686 75867.800000 0 0 1
14.597302 29.470277 32.613775 46.316701 1.110897 0.789575 0.125934 -0.032360 1020280.000000 0 0 1
13.725002 29.543877 31.276989 45.160452 1.135898 0.805744 0.115995 -0.032537 516489.000000 0 0 1
13.306802 28.295577 30.725149 43.837717 1.131207 0.794160 0.111621 -0.038257 949279.000000 0 0 1
11.875802 28.132777 30.788729 43.363967 1.171356 0.781288 0.111563 -0.025345 857808.000000 0 0 1
11.443502 26.606977 30.705079 42.210032 1.164619 0.756219 0.085207 -0.023820 -25381.500000 0 0 1
11.683102 25.837577 29.511099 40.926522 1.146135 0.765443 0.085192 -0.021952 1041470.000000 0 0 1
13.071702 25.544677 29.262819 40.984296 1.097817 0.775600 0.077344 -0.026917 803232.000000 0 0 1
13.083102 24.690177 27.997969 39.555767 1.083523 0.784403 0.094517 -0.032107 -448686.000000 0 0 1
12.970402 25.461877 26.817739 39.188386 1.099653 0.817114 0.083706 -0.032043 61984.200000 0 0 1
12.943102 24.690377 25.638819 37.874631 1.087964 0.827200 0.099709 -0.038614 712216.000000 0 0 1
11.522002 24.151377 25.230799 36.778238 1.125657 0.814784 0.091177 -0.032926 534310.000000 0 0 1
11.666502 23.344077 24.064459 35.498611 1.107338 0.825896 0.103889 -0.033863 493100.000000 0 0 1
10.509802 22.546277 23.787069 34.418239 1.134599 0.807761 0.090162 -0.027869 229753.000000 0 0 1
10.484102 22.153677 22.297179 33.134061 1.128781 0.832622 0.101079 -0.033926 -114156.000000 0 0 1
10.213002 23.232177 21.416179 33.206809 1.156620 0.869860 0.102696 -0.032884 115764.000000 0 0 1
10.438402 22.944177 20.037979 32.201182 1.143835 0.899151 0.104430 -0.022534 -755416.000000 0 0 1
10.056402 24.182677 19.180779 32.462831 1.176700 0.938680 0.099922 -0.025724 -120814.000000 0 0 1
8.691102 24.343277 18.897579 32.019508 1.227879 0.939503 0.097082 -0.030281 -312927.000000 0 0 1
7.997502 24.982277 19.939779 32.949492 1.260978 0.920827 0.104322 -0.037524 -14656.200000 0 0 1
6.532702 25.390277 19.574979 32.718835 1.318967 0.929445 0.097829 -0.035416 533018.000000 0 0 1
6.408202 26.548277 18.685879 33.091361 1.333948 0.970756 0.099865 -0.042058 913622.000000 0 0 1
5.083302 26.527077 18.107279 32.517677 1.381465 0.980215 0.073304 -0.042905 125795.000000 0 0 1
4.805702 27.533977 16.963479 32.695172 1.398000 1.025306 0.079910 -0.039528 69383.600000 0 0 1
5.563702 27.355777 15.738179 32.046585 1.370150 1.057441 0.087930 -0.034565 -80994.200000 0 0 1
6.587302 28.318377 15.726079 33.054993 1.342245 1.074974 0.095875 -0.029075 73819.300000 0 0 1
7.559802 28.089077 14.497079 32.500956 1.307889 1.108448 0.091423 -0.030724 275693.000000 0 0 1
7.025102 28.301177 13.196379 32.007079 1.327488 1.145824 0.092254 -0.031328 -399196.000000 0 0 1
6.700102 27.096577 12.692279 30.662841 1.328391 1.144029 0.070798 -0.028211 -36753.300000 0 0 1
6.028502 27.182377 11.288179 30.044092 1.352549 1.185622 0.068855 -0.030318 -62989.900000 0 0 1
6.836102 27.749577 10.264479 30.366607 1.329256 1.225986 0.055302 -0.021958 155318.000000 0 0 1
6.919602 29.208877 10.236779 31.714839 1.338184 1.242136 0.050036 -0.022814 -53226.500000 0 0 1
7.373302 29.681277 8.819679 31.829711 1.327309 1.290033 0.043925 -0.015597 -646922.000000 0 0 1
6.438802 29.580977 7.803279 31.263134 1.356472 1.318529 0.051353 -0.030099 -421960.000000 0 0 1
6.335202 28.358177 7.158179 29.925917 1.351006 1.329258 0.052600 -0.019375 553136.000000 0 0 1
4.826502 28.065377 6.856679 29.291203 1.400489 1.334517 0.052984 -0.027372 468492.000000 0 0 1
4.244802 29.009777 6.003879 29.927113 1.425504 1.368809 0.041572 -0.026979 -1063240.000000 0 0 1
2.872102 28.825777 5.996179 29.582572 1.471488 1.366689 0.077513 -0.027985 -503053.000000 0 0 1
1.998602 29.918177 5.320479 30.453230 1.504093 1.395185 0.085872 -0.031536 -377307.000000 0 0 1
2.182002 29.961177 3.919479 30.295141 1.498097 1.441056 0.074434 -0.034371 -1449.320000 0 0 1
1.225902 30.704977 3.197679 30.895365 1.530892 1.467110 0.070297 -0.036939 223153.000000 0 0 1
-0.142198 30.012477 3.003679 30.162743 -1.566058 1.471049 0.091613 -0.025324 -222842.000000 0 0 1
-0.263098 29.327277 1.771779 29.381927 -1.561825 1.510458 0.082142 -0.021668 -84221.400000 0 0 1
-1.293998 28.349877 1.781779 28.435272 -1.525184 1.508094 0.086052 -0.021115 176166.000000 0 0 1
-1.599298 27.807577 0.324879 27.855424 -1.513347 1.559133 0.082071 -0.023499 -73311.400000 0 0 1
-2.340698 28.745577 -0.408121 28.843606 -1.489547 1.584946 0.089972 -0.026322 -164998.000000 0 0 1
-1.617798 29.301777 -1.510921 29.385273 -1.515641 1.622237 0.077838 -0.020999 -92345.000000 0 0 1
-2.371298 30.490077 -2.128521 30.656133 -1.493180 1.640284 0.082255 -0.023652 349461.000000 0 0 1
-3.564598 30.182477 -2.853221 30.525877 -1.453239 1.664402 0.074011 -0.022510 60065.400000 0 0 1
-3.497698 29.460477 -4.055021 29.943226 -1.452624 1.706637 0.065078 -0.017870 -267259.000000 0 0 1
-4.822198 28.963377 -4.720221 29.739053 -1.405817 1.730192 0.057470 -0.013779 23777.100000 0 0 1
-5.488598 30.026777 -5.312921 30.983208 -1.390002 1.743125 0.053202 -0.021095 -270477.000000 0 0 1
-6.336898 29.580977 -6.359621 30.913351 -1.359764 1.778000 0.037726 -0.014990 -242122.000000 0 0 1
-7.104198 30.725377 -6.980121 32.299234 -1.343573 1.788623 0.048770 -0.018889 52996.900000 0 0 1
-8.162198 31.232977 -6.143721 32.861309 -1.315180 1.758862 0.053025 -0.016885 503938.000000 0 0 1
-8.509698 32.493777 -6.648821 34.241310 -1.314662 1.766213 0.048788 -0.021682 211581.000000 0 0 1
-9.581298 33.296777 -5.842821 35.137092 -1.290611 1.737859 0.054433 -0.023490 613592.000000 0 0 1
-10.933798 32.902077 -5.975121 35.182335 -1.249964 1.741457 0.066627 -0.024078 24682.400000 0 0 1
-11.792098 34.003877 -5.663421 36.433385 -1.236987 1.726875 0.060494 -0.017084 1245810.000000 0 0 1
-13.300898 33.676577 -5.996721 36.701313 -1.194642 1.734925 0.087465 -0.019648 1019130.000000 0 0 1
-13.617098 33.860577 -7.357921 37.230405 -1.188436 1.769738 0.080307 -0.021871 -290341.000000 0 0 1
-14.995698 33.641277 -7.513821 37.590744 -1.151480 1.772037 0.069530 -0.020418 -535758.000000 0 0 1
-15.531198 33.812377 -8.961221 38.272685 -1.140207 1.807132 0.087705 -0.015992 653327.000000 0 0 1
-16.915398 33.516177 -9.114521 38.633396 -1.103401 1.808965 0.098311 -0.022291 360477.000000 0 0 1
-17.834498 -33.720394 -8.862621 39.162231 1.084302 1.799079 0.096390 -0.023856 -277994.000000 0 0 1
-19.354098 -34.002394 -9.151921 40.180861 1.053333 1.800581 0.089095 -0.018332 1096910.000000 0 0 1
-20.021098 33.410677 -8.172721 39.798380 -1.030934 1.777621 0.082899 -0.017342 248989.000000 0 0 1
-20.053298 33.904077 -6.885921 39.987962 -1.036671 1.743859 0.077002 -0.018002 -1015700.000000 0 0 1
-20.678098 32.927677 -5.896421 39.326625 -1.010053 1.721298 0.071053 -0.018728 -505791.000000 0 0 1
-20.373998 33.232177 -4.568621 39.247289 -1.020814 1.687467 0.064252 -0.022374 298007.000000 0 0 1
-21.518398 33.390977 -3.737021 39.899425 -0.998341 1.664595 0.054709 -0.025572 119920.000000 0 0 1
-22.299798 -33.525094 -3.822421 40.445319 0.983832 1.665446 0.090932 -0.031209 -85935.500000 0 0 1
-22.952898 -33.405594 -5.066021 40.846467 0.968782 1.695142 0.095475 -0.032769 397723.000000 0 0 1
-23.854598 -32.279994 -5.144921 40.466160 0.934379 1.698283 0.090339 -0.035944 -53707.800000 0 0 1
-24.427498 -32.170794 -6.510021 40.915071 0.921366 1.730586 0.095881 -0.032819 -638448.000000 0 0 1
-23.532998 -31.716394 -7.486421 40.196743 0.932446 1.758135 0.112895 -0.027690 -305130.000000 0 0 1
-23.891398 -32.025194 -8.840521 40.921471 0.929848 1.788549 0.094153 -0.025596 -32736.100000 0 0 1
-25.155268 -31.500394 -9.554721 41.428916 0.896928 1.803521 0.079350 -0.024609 -784505.000000 0 0 1
-26.324778 -32.092994 -9.043021 42.482119 0.883820 1.785304 0.072337 -0.017990 182132.000000 0 0 1
-27.533398 -31.804494 -9.753521 43.182694 0.857253 1.798629 0.033559 -0.012608 531535.000000 0 0 1
-28.082848 -30.366794 -9.711621 42.486517 0.824454 1.801416 0.014490 -0.001048 -1241390.000000 0 0 1
-27.318658 -29.335194 -10.318121 41.392346 0.820977 1.822729 0.019856 0.003239 -350170.000000 0 0 1
-27.434388 -29.369594 -11.729521 41.866459 0.819453 1.854762 0.013737 0.004979 -367785.000000 0 0 1
-26.393788 -28.626294 -12.564421 40.914074 0.825952 1.882933 0.045545 0.004369 -438407.000000 0 0 1
-25.093628 -29.144494 -12.449221 40.423691 0.859946 1.883853 0.050491 -0.010077 -299864.000000 0 0 1
-24.217398 -28.536294 -13.369821 39.743611 0.867085 1.913890 0.057140 -0.014030 -402955.000000 0 0 1
-22.830698 -29.155294 -13.523021 39.422634 0.906463 1.920934 0.074254 -0.022528 -427877.000000 0 0 1
-22.758598 -30.370094 -14.221421 40.528326 0.927695 1.929329 0.077483 -0.025290 -162845.000000 0 0 1
-23.310498 -31.485694 -13.562121 41.456717 0.933499 1.904071 0.065733 -0.021633 -111693.000000 0 0 1
-23.389498 -32.768194 -14.377521 42.749693 0.950877 1.913801 0.061478 -0.017405 66171.900000 0 0 1
-24.190298 -33.777094 -13.812421 43.781795 0.949297 1.891762 0.056772 -0.024925 -148286.000000 0 0 1
-24.271998 33.293477 -14.539921 43.692045 -0.940851 1.910048 0.062262 -0.021356 -26236.400000 0 0 1
-24.787198 32.167377 -13.586021 42.822019 -0.914260 1.893643 0.052909 -0.023006 335597.000000 0 0 1
-23.880198 31.638177 -12.597721 41.592556 -0.924236 1.878514 0.049724 -0.017774 339313.000000 0 0 1
-23.454198 32.586877 -11.611521 41.795112 -0.946942 1.852320 0.070116 -0.014601 329699.000000 0 0 1
-22.463098 31.922277 -10.623921 40.453557 -0.957604 1.836533 0.063504 -0.006690 143207.000000 0 0 1
-23.200798 31.209377 -9.622921 40.061239 -0.931538 1.813374 0.063310 -0.006754 478252.000000 0 0 1
-22.455598 30.409477 -8.680221 38.785776 -0.934734 1.796507 0.071012 -0.001019 -584683.000000 0 0 1
-23.355198 29.604477 -7.801021 38.506445 -0.902856 1.774798 0.069793 0.000434 -428984.000000 0 0 1
-23.861498 28.453077 -8.518921 38.098828 -0.872942 1.796303 0.077028 0.002686 487635.000000 0 0 1
-24.573798 27.545777 -7.624221 37.693105 -0.842359 1.774473 0.065150 0.009746 358347.000000 0 0 1
-23.716898 26.845377 -6.530921 36.411790 -0.847193 1.751135 0.058863 0.009170 -6700.950000 0 0 1
-23.620698 27.653277 -5.368821 36.762282 -0.863884 1.717362 0.057330 0.017812 196339.000000 0 0 1
-22.760098 27.285377 -4.296321 35.790673 -0.875576 1.691127 0.035043 0.016877 369280.000000 0 0 1
-21.302698 27.812377 -4.326721 35.299487 -0.917169 1.693677 0.019180 0.015242 84324.500000 0 0 1
-20.521798 27.381077 -5.405421 34.642260 -0.927623 1.727472 0.027772 0.004268 684685.000000 0 0 1
-19.265698 28.081677 -5.363121 34.474785 -0.969488 1.726997 0.050030 -0.000697 1228180.000000 0 0 1
-18.248298 27.938277 -6.558221 34.008205 -0.992200 1.764854 0.060054 -0.007070 123144.000000 0 0 1
-18.634798 28.647677 -7.745221 35.041883 -0.994082 1.793664 0.072340 -0.007357 218201.000000 0 0 1
-18.370698 30.022477 -7.754121 36.041061 -1.021674 1.787639 0.076678 -0.013639 -270019.000000 0 0 1
-18.353198 30.672977 -9.141621 36.894995 -1.031590 1.821178 0.080487 -0.019630 -977554.000000 0 0 1
-17.289898 30.318277 -9.927821 36.286363 -1.052517 1.847927 0.081048 -0.025345 -903729.000000 0 0 1
-17.383898 30.810977 -11.247821 37.121823 -1.057108 1.878633 0.082054 -0.024564 -600539.000000 0 0 1
-16.025398 31.146977 -11.853321 36.979032 -1.095609 1.897098 0.079661 -0.026088 -537041.000000 0 0 1
-15.999898 31.763177 -13.119021 37.907847 -1.104173 1.924182 0.091273 -0.027235 -308148.000000 0 0 1
-16.140198 30.939477 -14.233421 37.687498 -1.089963 1.958074 0.080718 -0.032401 -99358.300000 0 0 1
-15.843898 31.545477 -15.620921 38.602583 -1.105346 1.987403 0.117987 -0.028743 992222.000000 0 0 1
-14.410598 31.597477 -15.716621 38.119261 -1.142908 1.995775 0.108070 -0.036722 551135.000000 0 0 1
-13.981298 32.088377 -16.984221 38.905069 -1.159887 2.022563 0.074818 -0.041707 -803520.000000 0 0 1
-12.472498 32.181877 -17.111821 38.523381 -1.201057 2.031070 0.103597 -0.048867 -792983.000000 0 0 1
-11.894098 30.899677 -17.086621 37.258720 -1.203352 2.047209 0.108488 -0.060680 443261.000000 0 0 1
-10.618698 30.795877 -17.750321 37.097395 -1.238753 2.069718 0.115483 -0.057812 752892.000000 0 0 1
-10.610098 30.762377 -19.352921 37.860713 -1.238668 2.107331 0.125061 -0.067512 -172556.000000 0 0 1
-11.201698 29.550977 -19.858221 37.324084 -1.208468 2.131814 0.100894 -0.071695 567507.000000 0 0 1
-10.778398 29.446877 -21.233221 37.870069 -1.219914 2.166010 0.104156 -0.077948 -338243.000000 0 0 1
-11.865898 28.964277 -22.239121 38.396711 -1.181979 2.188535 0.092545 -0.063997 669634.000000 0 0 1
-12.894798 29.895677 -22.569121 39.615560 -1.163579 2.176941 0.092362 -0.066089 620777.000000 0 0 1
-13.953298 30.108277 -21.646421 39.620328 -1.136824 2.148792 0.094585 -0.065068 -156904.000000 0 0 1
-14.573998 31.510177 -21.876221 41.034884 -1.137582 2.133072 0.111061 -0.061043 -8700.690000 0 0 1
-15.245898 31.767877 -23.087921 42.127040 -1.123345 2.150833 0.083193 -0.045667 43163.800000 0 0 1
-15.827598 33.064177 -22.991721 43.270913 -1.124339 2.130982 0.074155 -0.048058 152543.000000 0 0 1
-16.297198 33.533177 -24.402021 44.559301 -1.118410 2.150326 0.069354 -0.035048 39096.500000 0 0 1
-15.224298 33.887477 -25.253921 44.921052 -1.148558 2.167821 0.083210 -0.029941 123523.000000 0 0 1
-15.453698 33.482877 -26.578521 45.456987 -1.138387 2.195302 0.091086 -0.023016 161860.000000 0 0 1
-16.130498 -33.612394 -27.405621 46.271526 1.123360 2.204680 0.069610 -0.016602 1092260.000000 0 0 1
-17.478998 -33.312194 -27.012221 46.312825 1.087582 2.193527 0.064307 -0.012129 672012.000000 0 0 1
-18.100498 -32.269394 -27.712521 46.226893 1.059609 2.213659 0.038791 0.001506 420943.000000 0 0 1
-19.571498 -31.978994 -27.295521 46.376126 1.021592 2.200083 0.035041 -0.011659 682274.000000 0 0 1
-20.458798 -33.029294 -27.629021 47.674516 1.016224 2.188954 0.034589 -0.011451 -882468.000000 0 0 1
-21.779598 -32.779994 -27.272621 47.881884 0.984353 2.176793 0.037444 -0.007836 -185168.000000 0 0 1
-22.732398 -33.981294 -27.415121 49.224782 0.981202 2.161490 0.023828 0.001232 -75532.700000 0 0 1
-22.875598 33.481677 -26.237521 48.298273 -0.971416 2.145087 0.042877 -0.007040 159919.000000 0 0 1
-23.804398 32.367777 -26.351021 48.048920 -0.936682 2.151271 0.022621 -0.000267 627699.000000 0 0 1
-23.328498 31.089277 -27.061221 47.361078 -0.927058 2.178984 0.029005 -0.002417 -408957.000000 0 0 1
-22.731498 30.189777 -26.144121 45.952788 -0.925408 2.176006 0.035342 -0.017795 44821.100000 0 0 1
-23.618798 29.340277 -25.392821 45.425707 -0.893017 2.163972 0.036543 -0.018576 -254075.000000 0 0 1
31.530695 9.872277 -26.620945 42.430193 0.303432 2.249013 0.049669 -0.005814 39383.700000 0 0 1
31.164455 8.572577 -26.211385 41.614289 0.268436 2.252176 0.030167 0.002691 -382412.000000 0 0 1
29.796805 8.311577 -26.357365 40.640406 0.272027 2.276475 0.031165 -0.001436 -260382.000000 0 0 1
29.426175 6.877177 -25.989395 39.857797 0.229589 2.281085 0.020151 -0.000706 -151317.000000 0 0 1
29.690155 6.682377 -24.615215 39.141644 0.221382 2.250902 0.015486 0.006279 100587.000000 0 0 1
29.293265 5.422777 -24.104815 38.321587 0.183048 2.251081 0.015037 0.005827 -13402.800000 0 0 1
29.226755 5.392577 -22.587715 37.329452 0.182456 2.220676 0.018964 0.005112 250949.000000 0 0 1
30.463605 5.085877 -21.966815 37.900374 0.165424 2.189026 0.032342 -0.000930 409026.000000 0 0 1
30.234185 5.024477 -20.538515 36.894199 0.164680 2.161188 0.048918 -0.008105 -927031.000000 0 0 1
31.483505 4.746477 -19.768715 37.477223 0.149634 2.126435 0.056142 -0.015674 -819861.000000 0 0 1
31.970605 3.385777 -19.787715 37.750983 0.105510 2.122530 0.073266 -0.013619 487847.000000 0 0 1
32.990715 3.202677 -18.804215 38.108305 0.096775 2.086838 0.085861 -0.023970 -135286.000000 0 0 1
33.644335 1.804277 -18.872415 38.618192 0.053577 2.081387 0.089040 -0.025466 -411673.000000 0 0 1
32.806685 0.726677 -18.589815 37.714558 0.022147 2.086225 0.097403 -0.017827 -875815.000000 0 0 1
33.437775 -0.499323 -18.724315 38.326676 -0.014932 2.081218 0.113057 -0.017710 -548024.000000 0 0 1
32.713295 -1.809923 -18.254015 37.505260 -0.055270 2.079111 0.096607 -0.012619 53966.900000 0 0 1
32.541515 -1.827223 -16.828415 36.680846 -0.056092 2.047417 0.104838 -0.018315 -415997.000000 0 0 1
31.213255 -1.586923 -16.467615 35.326590 -0.050798 2.055734 0.092611 -0.022012 -536433.000000 0 0 1
30.946625 -1.867923 -14.952015 34.420132 -0.060286 2.020165 0.102120 -0.030251 -130272.000000 0 0 1
30.652435 -3.151623 -14.552315 34.077476 -0.102458 2.012009 0.103718 -0.025680 735036.000000 0 0 1
29.444925 -3.099823 -13.775015 32.655222 -0.104889 2.006261 0.098661 -0.022040 266873.000000 0 0 1
29.052015 -4.467423 -13.234815 32.235660 -0.152578 1.993869 0.096911 -0.024535 -254533.000000 0 0 1
28.559395 -5.362423 -14.169415 32.329042 -0.185603 2.024489 0.082186 -0.026073 175831.000000 0 0 1
28.269805 -6.595023 -13.492715 32.011397 -0.229189 2.005892 0.085241 -0.013803 -96079.800000 0 0 1
27.868105 -7.715623 -14.542215 32.367239 -0.270097 2.036765 0.066315 -0.008021 97029.500000 0 0 1
26.517105 -7.492223 -14.911215 31.331048 -0.275365 2.066811 0.062767 -0.009994 118496.000000 0 0 1
26.163105 -8.468623 -15.854215 31.742429 -0.313043 2.093777 0.051993 -0.008338 226488.000000 0 0 1
24.689705 -8.354523 -16.324015 30.754724 -0.326286 2.130318 0.049940 -0.011937 135919.000000 0 0 1
24.411605 -7.278323 -17.213815 30.744363 -0.289759 2.165063 0.051970 -0.013854 59188.600000 0 0 1
23.051405 -7.272823 -17.606415 29.903964 -0.305620 2.200327 0.084344 -0.014804 186174.000000 0 0 1
22.826505 -7.751923 -19.048715 30.724505 -0.327382 2.239519 0.071898 -0.005823 -122190.000000 0 0 1
23.201005 -6.713623 -19.992215 31.353597 -0.281674 2.262223 0.055102 -0.008013 358778.000000 0 0 1
23.089705 -7.100623 -21.396015 32.269843 -0.298345 2.295661 0.078205 -0.015651 -66391.500000 0 0 1
23.673905 -6.029623 -22.402915 33.146655 -0.249392 2.312944 0.068705 -0.012593 -33872.300000 0 0 1
23.824305 -6.403323 -23.708715 34.215541 -0.262568 2.336331 0.078024 -0.014742 217458.000000 0 0 1
24.030405 -5.323923 -24.586715 34.789525 -0.218028 2.355658 0.065042 -0.016399 -135709.000000 0 0 1
23.915805 -5.744723 -26.066505 35.838949 -0.235740 2.385210 0.079982 -0.019290 -236639.000000 0 0 1
22.680505 -6.338523 -26.374535 35.358143 -0.272517 2.412719 0.089006 -0.014215 -235054.000000 0 0 1
22.543905 -6.547323 -27.770975 36.363748 -0.282650 2.439821 0.071540 -0.018161 235531.000000 0 0 1
21.293405 -7.347923 -28.213685 36.102813 -0.332285 2.467833 0.068226 -0.024781 116582.000000 0 0 1
21.340905 -8.749523 -27.897185 36.197256 -0.389087 2.450734 0.069544 -0.022067 184920.000000 0 0 1
20.360905 -9.521423 -28.578335 36.358564 -0.437420 2.475131 0.066962 -0.027179 -100519.000000 0 0 1
20.343905 -10.989023 -28.182435 36.453844 -0.495259 2.454509 0.082002 -0.029674 -711439.000000 0 0 1
19.366705 -11.294323 -27.243075 35.281952 -0.527962 2.453019 0.088703 -0.021571 -168013.000000 0 0 1
19.251105 -12.653423 -26.823285 35.358207 -0.581478 2.431982 0.091913 -0.024559 -155833.000000 0 0 1
19.083505 -13.814823 -27.892515 36.510572 -0.626596 2.440220 0.090128 -0.024164 -722155.000000 0 0 1
17.950405 -13.699723 -28.689245 36.509892 -0.651895 2.474775 0.081114 -0.022046 -230889.000000 0 0 1
17.995905 -14.646723 -29.726785 37.710222 -0.683154 2.478830 0.072105 -0.020027 -138086.000000 0 0 1
16.723105 -14.630223 -30.629505 37.840088 -0.718746 2.514004 0.061967 -0.024055 272462.000000 0 0 1
15.719605 -15.398923 -29.974835 37.184991 -0.775093 2.508329 0.054275 -0.024754 540624.000000 0 0 1
14.707505 -15.863723 -30.899855 37.719616 -0.823201 2.530809 0.043888 -0.028304 520069.000000 0 0 1
13.523305 -16.519323 -30.149355 36.942542 -0.884795 2.525452 0.054902 -0.028841 -97016.300000 0 0 1
13.752605 -17.870923 -29.756585 37.335752 -0.914899 2.493108 0.041782 -0.030211 331472.000000 0 0 1
12.749105 -18.387223 -28.874615 36.529071 -0.964536 2.482349 0.051423 -0.028607 311989.000000 0 0 1
13.125505 -19.757223 -28.290315 36.918406 -0.984407 2.443848 0.055493 -0.029914 -32090.600000 0 0 1
14.105905 -19.641123 -27.280535 36.455149 -0.947971 2.416339 0.048802 -0.023589 -61756.700000 0 0 1
14.167005 -20.834123 -26.506285 36.569767 -0.973626 2.381561 0.044064 -0.019864 -15045.600000 0 0 1
14.999605 -20.715023 -25.219275 35.918131 -0.944083 2.349184 0.045102 -0.012315 1121580.000000 0 0 1
16.432605 -20.766023 -25.423395 36.709770 -0.901369 2.335816 0.063752 -0.015536 1377960.000000 0 0 1
17.127105 -20.879923 -24.167215 36.240353 -0.883819 2.300782 0.072418 -0.003835 -547660.000000 0 0 1
18.638505 -21.003823 -24.314715 37.145118 -0.844994 2.284433 0.058427 -0.012885 -424986.000000 0 0 1
19.174105 -22.247923 -24.790515 38.434178 -0.859470 2.271836 0.058228 -0.020349 408457.000000 0 0 1
19.092705 -23.299423 -23.845215 38.418599 -0.884308 2.240391 0.055066 -0.026277 -744800.000000 0 0 1
19.667905 -24.681523 -24.224715 39.784933 -0.897968 2.225459 0.045921 -0.022149 -967376.000000 0 0 1
21.033305 -24.651623 -23.953415 40.297252 -0.864435 2.207338 0.057629 -0.020940 -400309.000000 0 0 1
21.512105 -25.900813 -23.333115 40.964094 -0.877699 2.176814 0.070702 -0.034283 -33975.500000 0 0 1
21.371005 -25.954553 -21.796315 40.067918 -0.881948 2.145974 0.079362 -0.024458 84084.000000 0 0 1
20.011305 -25.875753 -21.375115 39.075599 -0.912511 2.149596 0.059401 -0.015416 592209.000000 0 0 1
20.043605 -26.025203 -19.976415 38.446254 -0.914516 2.117171 0.054150 -0.025320 547100.000000 0 0 1
18.725005 -26.584813 -19.340215 37.834138 -0.957157 2.107358 0.054118 -0.017583 -116916.000000 0 0 1
18.746305 -28.017413 -19.486215 38.937282 -0.981115 2.094916 0.062196 -0.015618 1001360.000000 0 0 1
17.628205 -28.746623 -18.904615 38.658847 -1.020708 2.081752 0.056224 -0.010203 1908360.000000 0 0 1
16.174205 -28.466813 -19.455715 38.085288 -1.054104 2.106965 0.052303 -0.015299 703839.000000 0 0 1
15.412005 -27.494203 -18.754315 36.676770 -1.059886 2.107540 0.056455 -0.014564 -1723.600000 0 0 1
14.175205 -27.264653 -19.403115 36.342518 -1.091347 2.133998 0.040704 -0.006228 59564.200000 0 0 1
13.220305 -26.387563 -18.558315 34.863893 -1.106345 2.132120 0.042577 -0.012843 -757482.000000 0 0 1
12.662205 -27.074593 -17.458915 34.614718 -1.133339 2.099458 0.036099 -0.014652 -419871.000000 0 0 1
11.791205 -26.216583 -16.814515 33.302697 -1.148141 2.100062 0.051662 -0.023521 -338710.000000 0 0 1
10.298205 -26.377243 -17.179915 33.120408 -1.198576 2.116139 0.050469 -0.015147 -456580.000000 0 0 1
9.613705 -27.550333 -16.735515 33.638098 -1.235057 2.091530 0.055407 -0.008085 -115365.000000 0 0 1
8.225605 -27.423293 -16.906415 33.249428 -1.279386 2.104206 0.056003 0.003813 116440.000000 0 0 1
7.563705 -27.938423 -18.212115 34.197167 -1.306406 2.132421 0.077538 0.002523 -201113.000000 0 0 1
7.647405 -27.064673 -19.331915 34.127735 -1.295415 2.172997 0.086582 -0.010044 64573.200000 0 0 1
7.243605 -27.747053 -20.501415 35.251621 -1.315437 2.191458 0.077931 -0.007578 -188492.000000 0 0 1
7.092405 -26.826703 -21.731415 35.245264 -1.312331 2.235184 0.081914 -0.007654 870126.000000 0 0 1
5.753205 -26.258873 -21.783115 34.599594 -1.355109 2.251805 0.094908 -0.010772 1286730.000000 0 0 1
5.517505 -25.342123 -22.858215 34.571145 -1.356421 2.293205 0.094488 -0.017755 255177.000000 0 0 1
4.041005 -24.897723 -23.113115 34.211729 -1.409895 2.312561 0.068062 -0.012398 387789.000000 0 0 1
3.260805 -26.003363 -23.532515 35.221968 -1.446048 2.302476 0.053153 -0.010036 73244.800000 0 0 1
1.997405 -25.548883 -24.001615 35.111431 -1.492775 2.323458 0.053823 -0.009856 175701.000000 0 0 1
1.158205 -26.671003 -24.565515 36.278759 -1.527398 2.314655 0.050924 -0.018225 -539638.000000 0 0 1
1.729805 -27.099293 -25.754925 37.425661 -1.507051 2.329749 0.034899 -0.015736 -54346.300000 0 0 1
0.916905 -27.954993 -26.532535 38.552533 -1.538009 2.329826 0.035625 -0.021668 -219161.000000 0 0 1
1.668205 -28.717053 -27.638385 39.891508 -1.512770 2.336215 0.028062 -0.017317 -1255870.000000 0 0 1
2.058605 -27.897323 -28.710515 40.084812 -1.497138 2.369202 0.034577 -0.016085 -16302.400000 0 0 1
2.747305 -28.765623 -29.585915 41.356198 -1.475579 2.367982 0.046821 -0.021795 736737.000000 0 0 1
4.202805 -29.229573 -29.226565 41.547847 -1.427989 2.351027 0.050489 -0.025355 -371509.000000 0 0 1
4.443905 -30.247173 -28.251505 41.626762 -1.424920 2.316768 0.052042 -0.032677 138385.000000 0 0 1
5.728705 -30.860953 -28.336785 42.286994 -1.387256 2.305148 0.081604 -0.038820 532937.000000 0 0 1
5.899905 -32.044413 -27.363675 42.549078 -1.388719 2.269347 0.101206 -0.048556 -209736.000000 0 0 1
5.023805 -33.118763 -27.635375 43.425857 -1.420253 2.260593 0.085259 -0.053838 43723.700000 0 0 1
5.269505 33.961779 -26.845355 43.610128 1.416864 2.233913 0.089401 -0.059170 -493920.000000 0 0 1
4.016805 33.128551 -26.579525 42.662710 1.450136 2.243388 0.103721 -0.060690 -730283.000000 0 0 1
3.477705 32.503308 -27.723625 42.862092 1.464206 2.274190 0.085750 -0.056972 40936.200000 0 0 1
2.212905 31.985198 -27.373235 42.157370 1.501721 2.277474 0.069396 -0.058381 -470010.000000 0 0 1
1.157005 32.292463 -28.413685 43.028820 1.534983 2.292069 0.065399 -0.043688 -707947.000000 0 0 1
1.200305 31.302678 -29.393195 42.956470 1.532470 2.324378 0.067907 -0.044776 -95978.600000 0 0 1
0.185205 31.491668 -30.327965 43.721219 1.564915 2.337364 0.065291 -0.034301 -329465.000000 0 0 1
0.045705 30.340648 -31.353345 43.630142 1.569290 2.372607 0.048975 -0.028198 -452186.000000 0 0 1
0.987405 30.321238 -32.386165 44.375851 1.538243 2.388848 0.061600 -0.027688 -310738.000000 0 0 1
0.742905 29.379188 -33.378315 44.472470 1.545515 2.419673 0.068956 -0.027683 -260481.000000 0 0 1
1.968805 29.034208 33.882815 44.664377 1.503090 0.709620 0.056109 -0.016697 -75222.800000 0 0 1
2.227405 30.063378 32.987201 44.686950 1.496841 0.740422 0.047087 -0.021831 -284610.000000 0 0 1
3.267305 29.759028 32.088649 43.885720 1.461442 0.750737 0.030057 -0.017125 -151304.000000 0 0 1
2.876305 28.870508 30.799559 42.313027 1.471496 0.755545 0.029625 -0.014725 -124271.000000 0 0 1
2.579405 27.489488 30.972219 41.492212 1.477238 0.728072 0.042692 -0.024380 -18411.900000 0 0 1
3.694105 26.710318 31.358549 41.357540 1.433366 0.710201 0.029895 -0.013003 -22057.700000 0 0 1
3.201505 25.293828 31.738129 40.710395 1.444893 0.676757 0.039316 -0.023786 -164153.000000 0 0 1
2.689205 24.639908 30.616789 39.392191 1.462086 0.680545 0.049110 -0.010154 17222.600000 0 0 1
2.803605 23.257918 30.777619 38.678842 1.450831 0.650597 0.047262 -0.014644 61537.200000 0 0 1
1.858605 22.453248 29.816879 37.371768 1.488208 0.647084 0.046562 -0.005179 743386.000000 0 0 1
0.531005 22.359548 30.348719 37.699816 1.547052 0.635104 0.061115 -0.009474 112200.000000 0 0 1
-0.279395 21.768648 29.370849 36.559525 -1.557962 0.637862 0.071566 -0.007820 205429.000000 0 0 1
-1.706195 21.351748 29.817669 36.713780 -1.491057 0.622942 0.068190 -0.006494 65112.300000 0 0 1
-2.554395 22.410548 30.159139 37.660739 -1.457304 0.642148 0.073859 -0.009372 378120.000000 0 0 1
-3.858995 21.930448 30.499759 37.763365 -1.396614 0.630633 0.055526 -0.004190 532150.000000 0 0 1
-4.833195 23.108448 30.779409 38.790878 -1.364616 0.654306 0.033225 -0.010601 -121551.000000 0 0 1
-4.749695 23.644868 32.059309 40.117810 -1.372558 0.644951 0.043107 -0.003632 292274.000000 0 0 1
-5.538895 24.827388 32.207591 41.041534 -1.351295 0.668494 0.030023 -0.013768 103722.000000 0 0 1
-5.664795 25.141348 33.706619 42.430101 -1.349179 0.652772 0.062943 -0.011235 159937.000000 0 0 1
-6.824595 25.889478 34.033012 43.302264 -1.313055 0.666580 0.060249 -0.007307 142953.000000 0 0 1
-6.916295 26.152808 -32.707955 42.445434 -1.312258 2.450560 0.056858 -0.005426 349441.000000 0 0 1
-8.335195 26.613218 -32.267045 42.648577 -1.267276 2.428863 0.089423 -0.004853 81043.400000 0 0 1
-8.647395 27.952278 -32.824655 43.972324 -1.270772 2.413559 0.085482 -0.013914 -225718.000000 0 0 1
-9.914895 28.477398 -32.533705 44.358870 -1.235755 2.394137 0.083259 -0.017138 -212107.000000 0 0 1
-10.127695 28.791358 -31.076085 43.557268 -1.232553 2.365211 0.082262 -0.018715 -437066.000000 0 0 1
-9.353095 29.860108 -30.539235 43.723579 -1.267246 2.344042 0.089847 -0.012962 199915.000000 0 0 1
-9.387895 29.981938 -29.117285 42.835330 -1.267348 2.318217 0.097911 -0.019687 155586.000000 0 0 1
-8.628395 31.320538 -28.643005 43.311050 -1.301978 2.293390 0.078837 -0.018766 263846.000000 0 0 1
-7.250895 31.294278 -28.922075 43.224921 -1.343114 2.303802 0.064922 -0.016674 -454977.000000 0 0 1
-6.715595 32.511495 -28.454235 43.723450 -1.367100 2.279404 0.063847 -0.014203 -17097.800000 0 0 1
-5.158195 32.426401 -28.376395 43.396985 -1.413044 2.283497 0.073898 -0.018982 128398.000000 0 0 1
-4.642795 33.683352 -27.960915 44.022001 -1.433823 2.259009 0.079565 -0.024178 -177431.000000 0 0 1
-4.608895 -33.478523 -28.891095 44.460643 1.433989 2.278134 0.077123 -0.031951 -219659.000000 0 0 1
-3.519295 -33.544473 -30.029255 45.159421 1.466264 2.298238 0.073759 -0.033933 161363.000000 0 0 1
-3.655395 33.639920 -30.953515 45.859855 -1.462559 2.311705 0.067539 -0.027315 222562.000000 0 0 1
-4.456295 33.996292 -32.089425 46.961023 -1.440458 2.323097 0.079237 -0.021911 477795.000000 0 0 1
-3.731395 -33.322453 -33.158975 47.157468 1.459282 2.350620 0.058683 -0.024892 114863.000000 0 0 1
-3.690995 -31.993663 -32.826435 45.986876 1.455938 2.365737 0.057623 -0.027150 -112639.000000 0 0 1
-2.955895 -31.181633 -33.692765 46.002543 1.476283 2.392653 0.036966 -0.036282 -150237.000000 0 0 1
32.259755 17.870877 12.721779 39.011584 0.505885 1.238618 0.162728 -0.033449 131551.000000 0 0 1
33.598105 17.826577 13.186579 40.255501 0.487813 1.237064 0.143423 -0.042944 152850.000000 0 0 1
33.998725 16.477077 13.497279 40.119620 0.451283 1.227677 0.149787 -0.022153 216918.000000 0 0 1
35.492685 16.404077 13.906079 41.499439 0.432938 1.229095 0.145247 -0.049488 185008.000000 0 0 1
36.494975 16.114177 12.972379 41.950358 0.415801 1.256411 0.125433 -0.028149 -124436.000000 0 0 1
36.656435 14.723277 12.594879 41.462032 0.381933 1.262150 0.149764 -0.048583 441413.000000 0 0 1
-35.437983 14.148377 12.323679 40.098632 -0.379854 1.258406 0.147089 -0.037965 932971.000000 0 0 1
-34.833888 13.540877 13.414479 39.707724 -0.370751 1.226185 0.125180 -0.039290 -458489.000000 0 0 1
-35.430456 12.324877 13.777279 39.962898 -0.334768 1.218822 0.126467 -0.040627 -402960.000000 0 0 1
-34.848303 11.770677 15.076179 39.752286 -0.325737 1.181807 0.141571 -0.039999 -113297.000000 0 0 1
-35.065875 12.483977 16.274679 40.624260 -0.342023 1.158609 0.150285 -0.040650 -189394.000000 0 0 1
-34.460725 11.964877 17.414579 40.422363 -0.334181 1.125400 0.154369 -0.026478 -171919.000000 0 0 1
-34.547612 12.921077 18.594079 41.306555 -0.357901 1.103865 0.144796 -0.032881 1420990.000000 0 0 1
-35.883416 13.065177 19.167779 42.728470 -0.349181 1.105604 0.169908 -0.045010 1402040.000000 0 0 1
-35.809473 13.684677 20.443579 43.445698 -0.365026 1.080877 0.177005 -0.039138 -289552.000000 0 0 1
36.470095 13.518677 21.263879 44.328039 0.354977 1.070491 0.180437 -0.054910 -286703.000000 0 0 1
36.228245 12.142777 21.494279 43.839900 0.323407 1.058373 0.146949 -0.038689 305384.000000 0 0 1
35.120105 11.889977 22.350679 43.293720 0.326440 1.028322 0.160879 -0.045264 50974.300000 0 0 1
35.083625 10.451377 22.818379 43.136648 0.289528 1.013399 0.123188 -0.029781 440214.000000 0 0 1
36.244465 9.915677 23.498619 44.318923 0.267043 1.011941 0.110897 -0.019828 580308.000000 0 0 1
36.386475 10.287077 24.878519 45.263012 0.275526 0.988859 0.117743 -0.010895 314837.000000 0 0 1
-35.674022 10.489877 25.275509 44.961369 -0.285987 0.973800 0.111834 -0.014068 320910.000000 0 0 1
-35.015446 11.651877 24.886119 44.510297 -0.321238 0.977485 0.090805 -0.021433 -536538.000000 0 0 1
-33.952338 11.369677 24.034269 43.123971 -0.323134 0.979630 0.104299 -0.034902 -199485.000000 0 0 1
-33.027868 12.584177 23.684639 42.546019 -0.364035 0.980409 0.108802 -0.037968 540054.000000 0 0 1
-32.299958 13.185777 24.769199 42.786274 -0.387580 0.953411 0.092308 -0.034438 5972.920000 0 0 1
-33.111048 13.694377 25.792649 44.149046 -0.392166 0.946881 0.089818 -0.031534 -275061.000000 0 0 1
-32.333208 14.474977 26.929119 44.498750 -0.420924 0.920822 0.091026 -0.021024 246711.000000 0 0 1
-31.825538 15.718177 26.524599 44.311176 -0.458744 0.929046 0.100708 -0.019824 -94548.900000 0 0 1
-31.238398 16.524577 27.531799 44.798428 -0.486564 0.908955 0.087542 -0.006983 350456.000000 0 0 1
-30.636668 17.875577 27.047769 44.606317 -0.528176 0.919313 0.078838 -0.003020 -290473.000000 0 0 1
-31.666408 18.649277 26.549669 45.336981 -0.532240 0.945167 0.078222 -0.031500 -69411.400000 0 0 1
-31.237348 20.006077 26.471859 45.571640 -0.569635 0.950981 0.079612 -0.031023 -161409.000000 0 0 1
-32.083668 20.807477 25.488319 45.956145 -0.575347 0.982887 0.087993 -0.016365 -1048890.000000 0 0 1
-33.407168 20.924377 25.894679 47.163575 -0.559565 0.989581 0.062592 -0.015928 -415680.000000 0 0 1
-34.127857 21.852777 25.115249 47.676307 -0.569541 1.015980 0.056250 -0.008994 -483457.000000 0 0 1
-33.927668 23.370977 25.413659 48.406026 -0.603202 1.018069 0.067017 -0.010679 -767535.000000 0 0 1
-34.889473 24.205977 24.826449 49.188995 -0.606546 1.041744 0.072760 -0.010584 2742.590000 0 0 1
-34.541271 25.583577 24.765679 49.608041 -0.637501 1.048090 0.079515 -0.004858 202238.000000 0 0 1
-35.541342 26.356777 23.869109 50.275253 -0.638091 1.076095 0.093673 -0.008477 280323.000000 0 0 1
-35.175217 26.277477 22.511779 49.341483 -0.641607 1.097026 0.094264 -0.023953 107015.000000 0 0 1
-36.116648 26.942577 21.731279 50.025626 -0.640928 1.121421 0.094962 -0.033707 -122044.000000 0 0 1
-35.762808 26.702377 20.256079 49.013306 -0.641355 1.144746 0.117477 -0.045920 128149.000000 0 0 1
-35.800623 25.363777 19.839479 48.151955 -0.616390 1.146128 0.106555 -0.039516 213350.000000 0 0 1
-35.515884 25.276777 18.466379 47.342377 -0.618538 1.170099 0.108102 -0.042566 -175436.000000 0 0 1
-35.492584 23.913577 17.773179 46.340788 -0.592899 1.177178 0.110355 -0.029210 622377.000000 0 0 1
36.743205 23.463177 17.475579 46.967858 0.568299 1.189552 0.110562 -0.028368 212350.000000 0 0 1
-36.775018 22.481577 16.458779 46.137996 -0.548707 1.206032 0.109642 -0.026885 178987.000000 0 0 1
35.539505 22.347977 15.536579 44.764649 0.561342 1.216349 0.087836 -0.014249 -207460.000000 0 0 1
34.467225 21.710177 16.140779 43.816049 0.562100 1.193535 0.112912 -0.029591 -578552.000000 0 0 1
33.484185 21.432077 15.163279 42.549378 0.569360 1.206417 0.119487 -0.025145 -739959.000000 0 0 1
32.273655 20.568977 15.639079 41.343106 0.567417 1.182864 0.119043 -0.033099 -33984.100000 0 0 1
31.458745 21.218077 16.531879 41.390367 0.593388 1.159919 0.099212 -0.031517 -427579.000000 0 0 1
30.619555 22.216377 15.985579 41.069006 0.627676 1.170993 0.093320 -0.016550 -310298.000000 0 0 1
29.620185 22.833677 17.027679 41.093479 0.656732 1.143552 0.072704 -0.016647 244415.000000 0 0 1
30.345935 23.567477 17.984879 42.423550 0.660326 1.133009 0.029180 -0.011326 -481601.000000 0 0 1
29.576435 24.155077 18.968579 42.638483 0.684841 1.109767 0.033374 -0.001459 -509038.000000 0 0 1
30.425165 24.652077 20.146079 44.037258 0.680962 1.095639 0.027174 -0.013207 -176009.000000 0 0 1
31.158555 25.751877 19.737579 44.984294 0.690679 1.116571 0.031191 -0.017344 -24417.700000 0 0 1
32.043415 26.125977 20.801879 46.282451 0.684019 1.104641 0.033617 -0.016015 -139613.000000 0 0 1
32.551885 27.533877 20.564779 47.335502 0.702077 1.121372 0.058016 -0.025843 434728.000000 0 0 1
33.770075 27.917177 21.212279 48.680053 0.690801 1.119926 0.054885 -0.023233 860258.000000 0 0 1
33.453015 28.661177 22.330879 49.388616 0.708405 1.101626 0.034734 -0.014188 -269196.000000 0 0 1
34.437255 28.670777 23.524399 50.609637 0.694276 1.087364 0.024835 -0.012125 -180592.000000 0 0 1
35.508515 29.563877 23.363039 51.775564 0.694297 1.102646 0.063208 -0.016535 71844.900000 0 0 1
36.324815 29.594577 24.550959 52.896888 0.683653 1.088146 0.076460 -0.003959 6525.720000 0 0 1
-36.065790 30.597977 24.479019 53.255984 -0.703561 1.093197 0.085311 -0.008996 -99203.200000 0 0 1
-34.927890 29.950977 23.930849 51.862357 -0.708837 1.091190 0.091185 -0.016400 -333061.000000 0 0 1
-33.844888 30.812177 24.049829 51.703588 -0.738528 1.086994 0.098891 -0.015452 -312150.000000 0 0 1
-32.398458 30.457677 23.645749 50.363197 -0.754531 1.082067 0.134999 -0.020518 312650.000000 0 0 1
-32.062228 30.284077 22.252979 49.399462 -0.756885 1.103505 0.114902 -0.017021 62231.000000 0 0 1
-32.431158 29.008677 21.833279 48.682394 -0.729751 1.105728 0.112548 -0.021475 -207555.000000 0 0 1
-31.779628 27.739577 22.497479 47.807588 -0.717624 1.080844 0.100108 -0.015985 -519109.000000 0 0 1
-30.375868 27.752477 22.428679 46.860847 -0.740298 1.071711 0.076834 -0.016084 -299208.000000 0 0 1
-29.772638 26.731277 23.183529 46.243347 -0.731624 1.045652 0.079350 -0.018521 -434767.000000 0 0 1
-29.525248 27.014677 24.652799 47.003123 -0.741024 1.018677 0.095421 -0.011027 -687232.000000 0 0 1
-30.649408 27.103177 25.517519 48.219417 -0.724071 1.013144 0.087484 -0.003664 17229.100000 0 0 1
-30.319238 27.296577 26.881369 48.856600 -0.732984 0.988181 0.105923 -0.009069 -279017.000000 0 0 1
-31.555268 27.469277 27.798419 50.229954 -0.716283 0.984328 0.108102 -0.011422 74241.100000 0 0 1
-32.299038 26.263977 27.751199 50.031524 -0.682708 0.982825 0.088217 -0.010359 537293.000000 0 0 1
-33.475768 26.388977 28.569319 51.314824 -0.667567 0.980333 0.085185 -0.006997 667312.000000 0 0 1
-34.106523 25.073177 29.050569 51.340576 -0.633925 0.969344 0.063076 -0.007487 -18030.200000 0 0 1
-33.362268 24.413077 30.055899 51.111607 -0.631723 0.942157 0.063002 -0.002690 -47039.100000 0 0 1
-34.123671 23.441977 30.762039 51.577653 -0.601928 0.931760 0.032521 -0.010373 280550.000000 0 0 1
-33.359348 22.540777 31.836979 51.327634 -0.594228 0.901710 0.049854 -0.016918 -1104210.000000 0 0 1
-32.382448 21.733277 31.283389 49.996087 -0.591096 0.894746 0.056613 -0.016506 -319026.000000 0 0 1
-31.650748 20.978877 32.254462 49.822018 -0.585338 0.866636 0.061513 -0.014346 220015.000000 0 0 1
-30.672958 21.697077 33.168837 50.117514 -0.615654 0.847551 0.061117 -0.021399 -1275810.000000 0 0 1
-31.370278 22.511677 34.023674 51.463388 -0.622448 0.848481 0.080218 -0.025853 -435527.000000 0 0 1
-31.385008 22.157477 -32.723965 50.466132 -0.614734 2.276322 0.066911 -0.017773 145799.000000 0 0 1
-30.082598 22.317277 -31.874505 49.183408 -0.638275 2.275850 0.081682 -0.016537 168096.000000 0 0 1
-29.699418 23.637177 -31.666215 49.431981 -0.672224 2.266078 0.061958 -0.012973 -75115.500000 0 0 1
-28.905308 23.691377 -30.501085 48.240174 -0.686591 2.255283 0.093929 -0.011478 -84136.200000 0 0 1
-29.080128 24.995577 -29.698615 48.501964 -0.710007 2.229785 0.057532 -0.007369 123591.000000 0 0 1
-28.708498 26.165277 -30.427265 49.341849 -0.739085 2.235292 0.065716 -0.017079 425934.000000 0 0 1
-29.834818 26.692077 -31.111375 50.700109 -0.729858 2.231453 0.041591 -0.008496 19459.800000 0 0 1
-29.516248 28.002877 -31.830895 51.658261 -0.759093 2.234682 0.063950 -0.012018 -188087.000000 0 0 1
-29.783798 29.116077 -31.013175 51.929160 -0.774062 2.210828 0.056196 -0.017781 -28272.100000 0 0 1
-29.149208 30.232777 -31.513585 52.505268 -0.803644 2.214546 0.067093 -0.031628 -451454.000000 0 0 1
-29.381108 31.563577 -30.757535 52.967300 -0.821194 2.190371 0.057061 -0.020540 -3455.110000 0 0 1
-28.807588 31.667777 -29.448775 51.961097 -0.832658 2.173348 0.042885 -0.013830 263591.000000 0 0 1
-29.005458 32.991377 -29.042805 52.661486 -0.849602 2.154958 0.035603 -0.016840 -354146.000000 0 0 1
-28.386078 33.323977 -27.682365 51.793535 -0.865246 2.134683 0.026900 -0.017211 1051850.000000 0 0 1
-26.950658 33.459877 -27.553405 51.040097 -0.892734 2.141041 0.018468 -0.006715 1268630.000000 0 0 1
-26.482018 -33.427694 -27.555355 50.774065 0.900819 2.144451 0.019496 0.011112 -321027.000000 0 0 1
-26.884468 -32.524694 -26.376475 49.762926 0.880053 2.129447 0.014975 0.017611 -162271.000000 0 0 1
-28.217878 -32.070994 -26.512655 50.276418 0.849222 2.126261 0.017868 0.000738 8911.940000 0 0 1
-28.616698 -31.240694 -25.392215 49.392924 0.829208 2.110738 0.008590 0.002409 90268.200000 0 0 1
-30.137378 -31.014494 -25.281355 50.092987 0.799740 2.099817 -0.001741 -0.000997 -75373.000000 0 0 1
-30.598418 -30.126894 -26.288635 50.348638 0.777633 2.120145 0.008113 -0.001583 601112.000000 0 0 1
-31.956318 -29.778994 -25.999935 50.832976 0.750144 2.107700 0.009078 -0.003292 481777.000000 0 0 1
-32.581568 -28.833194 -27.049655 51.230806 0.724440 2.127035 0.022691 -0.010639 75036.200000 0 0 1
-33.958978 -28.606594 -26.784655 51.855252 0.700058 2.113587 0.037979 -0.018608 380526.000000 0 0 1
-34.493242 -27.875194 -27.871285 52.379564 0.679682 2.131878 0.044254 -0.024359 -172265.000000 0 0 1
-36.004837 -28.026194 -28.099055 53.585192 0.661431 2.122784 0.037183 -0.026137 -193705.000000 0 0 1
36.688175 -27.562994 -27.098225 53.292163 -0.644318 2.104220 0.037618 -0.017082 -1176200.000000 0 0 1
35.386005 -27.774994 -27.493885 52.721280 -0.665475 2.119398 0.044273 -0.019286 -1176040.000000 0 0 1
34.336695 -27.358494 -26.460825 51.260814 -0.672769 2.113204 0.034077 -0.012270 -309083.000000 0 0 1
34.358295 -28.082394 -25.264875 51.062973 -0.685225 2.088377 0.023480 -0.009801 404757.000000 0 0 1
33.302345 -27.578294 -24.457515 49.676740 -0.691653 2.085565 0.043999 -0.008297 188545.000000 0 0 1
32.934885 -28.341594 -23.182915 49.248352 -0.710578 2.060920 0.038020 -0.005940 -300592.000000 0 0 1
32.357105 -29.595294 -23.358615 49.683887 -0.740848 2.060251 0.053717 -0.011120 246531.000000 0 0 1
31.708315 -30.228394 -22.250915 49.135285 -0.761509 2.040756 0.054268 -0.015743 -270246.000000 0 0 1
32.621395 -30.574694 -21.075515 49.428177 -0.753023 2.011291 0.044672 -0.005465 -284140.000000 0 0 1
33.783695 -31.319994 -21.450315 50.817282 -0.747573 2.006564 0.030137 -0.006167 808461.000000 0 0 1
34.803265 -31.287594 -20.455515 51.074543 -0.732254 1.982862 0.014928 -0.000836 587882.000000 0 0 1
35.725645 -30.058994 -20.205815 50.873763 -0.699471 1.979234 0.011304 -0.003066 -83638.700000 0 0 1
35.027745 -28.905094 -19.745715 49.521113 -0.689922 1.980931 0.010640 0.005073 320216.000000 0 0 1
35.791285 -27.754194 -20.142815 49.568583 -0.659588 1.989266 -0.002313 0.005049 297027.000000 0 0 1
35.120295 -26.394094 -19.833815 48.202319 -0.644482 1.994863 -0.000259 0.009108 -225585.000000 0 0 1
34.016225 -26.158994 -20.659415 47.625707 -0.655560 2.019488 0.020460 0.002301 210251.000000 0 0 1
33.028885 -25.379394 -19.920415 46.171894 -0.655173 2.016885 0.047053 -0.001293 27406.600000 0 0 1
31.793915 -25.155994 -20.792415 45.563161 -0.669365 2.044677 0.052937 -0.009078 -422404.000000 0 0 1
31.115585 -26.377894 -21.066515 45.910467 -0.703180 2.047509 0.069497 -0.013058 39319.200000 0 0 1
29.956095 -26.107194 -21.834215 45.339675 -0.716853 2.073241 0.059151 -0.017574 38217.300000 0 0 1
29.265175 -27.401894 -22.318015 45.884726 -0.752529 2.078753 0.070020 -0.020805 185323.000000 0 0 1
28.502085 -28.082994 -21.299115 45.328531 -0.777992 2.059955 0.074780 -0.020557 457978.000000 0 0 1
27.980805 -29.355594 -21.739115 46.013753 -0.809371 2.062863 0.067080 -0.018790 408735.000000 0 0 1
27.063305 -29.990994 -20.624015 45.356722 -0.836667 2.042839 0.069205 -0.015948 328636.000000 0 0 1
27.741505 -30.612594 -19.494515 45.681048 -0.834560 2.011695 0.077359 -0.021264 362276.000000 0 0 1
28.270605 -31.929494 -19.763515 47.003364 -0.846102 2.004760 0.078607 -0.015249 147497.000000 0 0 1
29.309505 -32.466894 -18.760415 47.593061 -0.836464 1.975976 0.052375 -0.019152 -354752.000000 0 0 1
28.860815 -32.923294 -17.508415 47.153309 -0.851056 1.951214 0.051077 -0.020130 -68695.700000 0 0 1
28.335805 -31.950094 -16.614715 45.823303 -0.845279 1.941834 0.038830 -0.018717 -174729.000000 0 0 1
27.706905 -32.544194 -15.375915 45.422637 -0.865512 1.916127 0.046336 -0.011806 207627.000000 0 0 1
26.479005 -33.217294 -15.645515 45.269289 -0.897799 1.923685 0.053867 -0.012598 44492.600000 0 0 1
25.954205 -33.930594 -14.571315 45.135676 -0.917814 1.899518 0.066466 -0.013789 209268.000000 0 0 1
24.410105 -34.071094 -14.735215 44.427686 -0.949118 1.908867 0.077096 -0.014633 263217.000000 0 0 1
23.809905 -32.853894 -14.426315 43.062844 -0.943671 1.912408 0.082689 -0.010818 268032.000000 0 0 1
22.471905 -33.058994 -13.962115 42.341756 -0.973790 1.906833 0.095604 -0.014018 576199.000000 0 0 1
-0.163198 -7.113223 -29.013875 29.873559 1.547857 2.901108 0.092883 -0.028224 216642.000000 0 0 1
0.215302 -8.466123 -28.956795 30.169813 -1.545371 2.857063 0.086269 -0.022338 -88941.100000 0 0 1
0.023702 -9.078823 -30.203525 31.538525 -1.568186 2.849595 0.075794 -0.022366 -40630.300000 0 0 1
0.277602 -10.600223 -30.134695 31.945918 -1.544614 2.803242 0.096055 -0.013528 733855.000000 0 0 1
1.627002 -10.884123 -29.746945 31.717377 -1.422411 2.787252 0.025981 -0.004956 427462.000000 0 0 1
1.815202 -12.255323 -29.442855 31.943225 -1.423750 2.743300 0.028719 -0.007711 -577249.000000 0 0 1
3.133902 -12.641823 -28.786705 31.596067 -1.327796 2.716705 0.041942 -0.003758 -1148110.000000 0 0 1
4.084402 -12.835423 -29.789445 32.693141 -1.262715 2.716943 0.055671 -0.011659 580854.000000 0 0 1
5.365302 -13.337923 -29.301825 32.638683 -1.188344 2.685462 0.071743 -0.012891 1227440.000000 0 0 1
5.433302 -14.797023 -28.851535 32.876796 -1.218891 2.641557 0.084232 -0.014910 -1118390.000000 0 0 1
4.969702 -15.054423 -27.565485 31.799207 -1.251944 2.619667 0.086993 -0.012887 -245285.000000 0 0 1
5.452202 -16.261623 -26.967705 31.959725 -1.247295 2.575127 0.108362 -0.008275 61165.900000 0 0 1
5.146102 -17.649123 -27.622125 33.180653 -1.287084 2.554359 0.093519 -0.022221 30582.100000 0 0 1
5.805202 -17.952123 -28.845115 34.467663 -1.258038 2.562345 0.099249 -0.041460 85360.100000 0 0 1
5.438702 -19.263323 -29.181165 35.386374 -1.295624 2.540369 0.095198 -0.035812 -42450.500000 0 0 1
6.079902 -19.645123 -30.532445 36.812040 -1.270659 2.548855 0.097698 -0.047475 165885.000000 0 0 1
7.490602 -19.779923 -30.516305 37.129494 -1.208788 2.535515 0.101203 -0.039265 36884.100000 0 0 1
7.842102 -20.363923 -31.718705 38.500184 -1.203202 2.538982 0.104972 -0.040074 -310475.000000 0 0 1
9.327502 -20.311123 -32.100075 39.114688 -1.140292 2.533371 0.084540 -0.034800 -308844.000000 0 0 1
9.633802 -19.037823 -32.632725 38.989019 -1.102333 2.562523 0.081285 -0.032496 341341.000000 0 0 1
10.690102 -18.973523 -33.586725 40.029251 -1.057707 2.566339 0.068897 -0.029160 -303064.000000 0 0 1
10.838202 -17.525523 34.050244 39.799870 -1.016940 0.544210 0.061838 -0.017958 -147383.000000 0 0 1
9.820802 -17.133223 33.170562 38.604167 -1.050314 0.536998 0.076037 -0.012082 -35336.400000 0 0 1
10.007402 -15.824923 32.723778 37.701750 -1.006906 0.519708 0.067814 -0.006422 -26316.400000 0 0 1
8.923602 -15.466823 31.698509 36.381984 -1.047497 0.513014 0.080087 -0.017948 -148945.000000 0 0 1
8.953302 -16.132223 30.471429 35.621878 -1.064126 0.544448 0.076527 -0.012310 89109.700000 0 0 1
7.962202 -15.768923 29.523089 34.404482 -1.103213 0.539204 0.085790 -0.013170 -194227.000000 0 0 1
8.081302 -16.533923 28.244219 33.710739 -1.116172 0.577481 0.072725 -0.008386 -486384.000000 0 0 1
7.466002 -17.775423 28.362409 34.294797 -1.173153 0.597014 0.068693 -0.014052 23868.000000 0 0 1
7.473302 -18.537723 27.205309 33.758351 -1.187586 0.633630 0.053907 -0.011668 -63345.400000 0 0 1
7.041702 -19.984023 27.567759 34.769643 -1.232015 0.655294 0.050813 -0.015383 -302348.000000 0 0 1
7.764202 -20.426823 28.682669 36.058750 -1.207563 0.651059 0.061865 -0.014893 368321.000000 0 0 1
7.080702 -21.490923 29.293299 37.014774 -1.252523 0.657709 0.056917 -0.018789 -325712.000000 0 0 1
7.670002 -21.857623 30.672039 38.436423 -1.233313 0.646837 0.056498 -0.026070 -272944.000000 0 0 1
7.312502 -21.154123 31.858969 38.935376 -1.237978 0.612432 0.080704 -0.037648 71085.000000 0 0 1
7.611702 -19.781623 31.863389 38.269128 -1.203473 0.586987 0.074202 -0.033985 -64812.400000 0 0 1
6.741602 -19.035523 32.908468 38.610460 -1.230421 0.550391 0.081933 -0.036567 1109670.000000 0 0 1
5.321702 -19.060023 32.708086 38.228574 -1.298523 0.544102 0.084488 -0.038378 686480.000000 0 0 1
4.608902 -18.163723 33.550202 38.428881 -1.322299 0.509381 0.086854 -0.033128 581924.000000 0 0 1
3.048102 -18.225623 33.449102 38.213959 -1.405087 0.504718 0.080591 -0.032791 635560.000000 0 0 1
2.523902 -19.287323 -33.877295 39.064588 -1.440678 2.620373 0.069641 -0.041674 47772.700000 0 0 1
2.289302 -18.881623 -32.532735 37.684685 -1.450140 2.612545 0.074635 -0.048175 -571430.000000 0 0 1
1.725502 -19.970123 -31.629875 37.446391 -1.484606 2.576746 0.074986 -0.027833 -443799.000000 0 0 1
0.420302 -20.421323 -31.917055 37.893344 -1.550218 2.572308 0.046430 -0.018069 65832.800000 0 0 1
-0.074098 -21.361523 -30.967015 37.620157 1.567328 2.537732 0.046275 -0.017699 -142590.000000 0 0 1
-0.736198 -20.699823 -29.743005 36.244600 1.535246 2.533290 0.051304 -0.016882 -860563.000000 0 0 1
-1.772298 -19.893723 -30.244105 36.243719 1.481943 2.557957 0.043934 -0.017654 -316078.000000 0 0 1
-2.063398 -18.949723 -29.259655 34.921011 1.462336 2.564186 0.059070 -0.016598 -21351.700000 0 0 1
-2.188298 -17.508223 -29.891525 34.710658 1.446454 2.608349 0.061443 -0.015614 -57376.400000 0 0 1
-2.471098 -16.512423 -28.966055 33.433498 1.422248 2.618700 0.067564 -0.016079 -200722.000000 0 0 1
-2.238998 -15.257323 -29.534095 33.317590 1.425087 2.660396 0.069962 -0.019854 427856.000000 0 0 1
-3.390198 -14.240523 -29.202655 32.666206 1.337080 2.676927 0.088159 -0.022119 700975.000000 0 0 1
-3.270898 -13.778223 -27.872645 31.263758 1.337715 2.671513 0.080301 -0.024978 80388.700000 0 0 1
-4.379098 -12.967023 -27.525445 30.740370 1.245112 2.680163 0.090240 -0.030153 134720.000000 0 0 1
-4.456398 -12.629523 -26.016945 29.261678 1.231580 2.666200 0.084947 -0.027904 -281504.000000 0 0 1
-4.741598 -13.713623 -25.112535 29.003200 1.237905 2.617651 0.076356 -0.022577 150089.000000 0 0 1
-4.944298 -13.444823 -23.746015 27.732338 1.218399 2.598776 0.073566 -0.020104 142919.000000 0 0 1
-6.083698 -12.460923 -23.334715 27.143967 1.116615 2.605410 0.076243 -0.025029 2355470.000000 0 0 1
-7.449598 -13.032623 -23.519215 27.901600 1.051512 2.573510 0.068458 -0.021313 2036930.000000 0 0 1
-8.433998 -12.079523 -23.117215 27.412640 0.961275 2.574200 0.074965 -0.021631 538479.000000 0 0 1
-9.845198 -12.722823 -23.253715 28.276022 0.912223 2.536383 0.076334 -0.027704 127985.000000 0 0 1
-10.255498 -13.626523 -22.309715 28.081680 0.925625 2.488911 0.076672 -0.023049 159006.000000 0 0 1
-11.437898 -14.281623 -22.789115 29.225572 0.895518 2.465089 0.067534 -0.021236 649843.000000 0 0 1
-12.024398 -15.444823 -21.936615 29.399724 0.909279 2.413057 0.068076 -0.018564 18065.000000 0 0 1
-11.236698 -16.563023 -22.195115 29.886791 0.974700 2.407800 0.087426 -0.021496 -35969.100000 0 0 1
-11.911798 -17.829923 -22.028615 30.741779 0.981817 2.369668 0.083380 -0.024062 50518.400000 0 0 1
-12.760398 -18.439923 -23.143115 32.225181 0.965461 2.371963 0.061802 -0.016239 -46829.200000 0 0 1
-13.871898 -17.633323 -23.403515 32.420490 0.904226 2.377303 0.056922 -0.015554 -425268.000000 0 0 1
-14.611898 -18.038123 -24.549615 33.787055 0.889953 2.384154 0.031321 -0.022240 86108.100000 0 0 1
-15.889798 -17.221623 -24.784515 34.107802 0.825599 2.384233 0.055262 -0.019065 -77431.900000 0 0 1
-16.999398 -17.505723 -23.908315 34.161929 0.800071 2.345987 0.070690 -0.021976 1065430.000000 0 0 1
-18.218598 -17.290523 -24.651815 35.193629 0.759268 2.346842 0.072554 -0.021376 395787.000000 0 0 1
-18.823698 -15.886623 -24.435415 34.695906 0.700982 2.352196 0.084110 -0.018472 -836346.000000 0 0 1
-19.461298 -15.888723 -23.196915 34.194890 0.684677 2.316343 0.068143 -0.014737 -258838.000000 0 0 1
-20.053298 -14.663723 -22.897115 33.785166 0.631385 2.315463 0.061528 -0.016169 -69742.200000 0 0 1
-20.719498 -14.704423 -21.539015 33.308360 0.617200 2.273987 0.049515 -0.016448 -303336.000000 0 0 1
-19.781298 -14.496323 -20.515115 31.973631 0.632421 2.267413 0.058565 -0.015919 171571.000000 0 0 1
-20.303598 -14.390623 -19.169615 31.413377 0.616589 2.227156 0.047230 -0.012281 47499.200000 0 0 1
-21.049398 -13.080423 -18.791215 31.101196 0.556018 2.219553 0.042213 -0.016082 -568751.000000 0 0 1
-22.297798 -12.870923 -19.367815 32.217460 0.523507 2.215747 0.050684 -0.019310 -540465.000000 0 0 1
-22.907198 -11.927623 -18.509715 31.774478 0.480065 2.192639 0.057465 -0.014941 -120255.000000 0 0 1
-24.365998 -11.570323 -18.848715 32.906661 0.443330 2.180706 0.066632 -0.017084 -64098.400000 0 0 1
-24.464698 -10.722923 -19.988315 33.362183 0.413083 2.213212 0.064170 -0.017867 49004.900000 0 0 1
-25.813868 -10.538923 -20.363715 34.526882 0.387612 2.201599 0.066050 -0.024929 -118423.000000 0 0 1
-26.246808 -9.686423 -21.545715 35.312032 0.353545 2.227049 0.078996 -0.021373 -310123.000000 0 0 1
-25.848958 -10.136223 -22.819815 35.939611 0.373706 2.258739 0.057840 -0.015462 155731.000000 0 0 1
-26.765258 -9.850823 -23.864215 37.187613 0.352659 2.267542 0.055986 -0.005245 -90447.400000 0 0 1
-26.384908 -10.451223 -25.200805 37.953551 0.377145 2.296940 0.041026 -0.007154 -137198.000000 0 0 1
-25.189368 -9.977223 -25.768635 37.390799 0.377130 2.331140 0.024306 -0.002460 134056.000000 0 0 1
-24.244898 -11.056523 -25.933635 37.183534 0.427861 2.342629 0.041254 -0.007918 490001.000000 0 0 1
-23.251398 -10.669823 -27.053665 37.234036 0.430222 2.384134 0.054765 -0.011599 -366980.000000 0 0 1
-23.822098 -10.948223 -28.307095 38.582996 0.430794 2.394500 0.059779 -0.002741 100620.000000 0 0 1
-22.925398 -10.613423 -29.348445 38.724022 0.433575 2.430865 0.063548 0.000201 55585.900000 0 0 1
-23.403298 -10.941623 -30.794215 40.195985 0.437332 2.443550 0.052179 -0.004951 1146010.000000 0 0 1
-24.500298 -10.076223 -31.230805 40.953121 0.390183 2.438118 0.042915 -0.006981 1194320.000000 0 0 1
-24.010898 -9.215823 -32.218075 41.224495 0.366479 2.467907 0.042307 -0.009075 -476457.000000 0 0 1
-25.148348 -8.355323 -32.765395 42.140503 0.320768 2.461521 0.045594 -0.012725 -520326.000000 0 0 1
-26.096928 -8.958523 -33.629565 43.500028 0.330675 2.454499 0.059816 -0.026894 1179980.000000 0 0 1
-27.238738 -9.580323 -33.035765 43.875884 0.338203 2.423310 0.063535 -0.017647 -119332.000000 0 0 1
-28.294418 -8.724323 -32.350295 43.854641 0.299091 2.400411 0.055066 -0.003965 -761090.000000 0 0 1
-29.548518 -9.363023 -32.197005 44.692598 0.306861 2.375190 0.057618 -0.004401 -156178.000000 0 0 1
-30.337258 -8.737223 -31.260025 44.428341 0.280414 2.351255 0.067247 0.002088 -303690.000000 0 0 1
-31.776218 -9.287223 -31.181865 45.478448 0.284350 2.326280 0.062924 -0.000786 -7773.250000 0 0 1
-31.909708 -10.671223 -30.787585 45.606796 0.322728 2.311850 0.050025 -0.006726 226373.000000 0 0 1
-33.275878 -11.046223 -30.639115 46.562415 0.320513 2.288986 0.037469 -0.010785 203530.000000 0 0 1
-33.635738 -12.501623 -30.911395 47.362093 0.355854 2.281888 0.043529 -0.015719 -439209.000000 0 0 1
-34.964950 -12.815523 -30.567105 48.178141 0.351320 2.258106 0.031005 -0.013218 -399345.000000 0 0 1
-35.356154 -14.063823 -31.090815 49.137435 0.378588 2.255872 0.025575 -0.018145 -198449.000000 0 0 1
36.669395 -14.115023 -30.901165 49.987603 -0.367445 2.237217 0.029467 -0.029961 -57136.900000 0 0 1
36.282235 -14.452923 -29.583135 48.994382 -0.379081 2.219064 0.018501 -0.022228 -102594.000000 0 0 1
36.317255 -15.788023 -29.250175 49.231874 -0.410079 2.206981 0.017807 -0.020471 -166569.000000 0 0 1
36.300175 -16.120623 -27.716545 48.433295 -0.417930 2.180058 0.033038 -0.011849 644162.000000 0 0 1
-35.943946 -15.928023 -27.181775 47.796633 0.417130 2.175717 0.039535 -0.023757 531690.000000 0 0 1
-35.879549 -16.135223 -25.775545 47.032608 0.422609 2.150810 0.052901 -0.025765 -213031.000000 0 0 1
-34.548492 -15.707923 -25.142295 45.524413 0.426725 2.155895 0.077692 -0.026083 459683.000000 0 0 1
-33.483568 -16.682923 -25.225795 45.119951 0.462240 2.164076 0.067924 -0.018726 1013250.000000 0 0 1
-32.425618 -16.318923 -24.313015 43.690396 0.466262 2.160945 0.083366 0.001512 447901.000000 0 0 1
-31.109078 -17.082223 -24.528415 43.141862 0.502158 2.175542 0.060958 -0.003329 -139516.000000 0 0 1
-30.888878 -18.387423 -23.882615 43.157843 0.536939 2.157211 0.055833 -0.013689 -74273.900000 0 0 1
-31.570128 -19.488923 -24.466615 44.442169 0.553059 2.153792 0.052451 -0.018127 -118475.000000 0 0 1
-31.344928 -20.855323 -23.778715 44.529499 0.587090 2.134120 0.046125 -0.020200 -53686.100000 0 0 1
-30.022538 -21.324623 -23.873715 43.886748 0.617597 2.145975 0.045831 -0.006263 -184766.000000 0 0 1
-29.927278 -22.454523 -23.096815 43.969426 0.643695 2.123855 0.040997 -0.006347 229367.000000 0 0 1
-28.527628 -23.213723 -23.152315 43.459547 0.683056 2.132623 0.045188 -0.008941 1464730.000000 0 0 1
-27.439488 -22.420323 -22.658315 42.059430 0.685071 2.139715 0.047277 -0.010241 234844.000000 0 0 1
-27.427338 -22.110923 -21.271115 41.153519 0.678488 2.113990 0.054224 -0.018309 -731955.000000 0 0 1
-27.319398 -23.299823 -20.231815 41.213561 0.706156 2.083921 0.056421 -0.008309 -45395.100000 0 0 1
-27.174238 -22.757023 -18.938415 40.186875 0.697162 2.061514 0.054165 -0.010920 101347.000000 0 0 1
-27.358188 -23.865723 -18.078315 40.556981 0.717323 2.032809 0.055851 0.011641 89732.000000 0 0 1
-27.453578 -23.394923 -16.600015 39.706194 0.705748 2.002117 0.050041 0.007814 -477330.000000 0 0 1
-28.617708 -22.670923 -16.428515 40.035485 0.669966 1.993633 0.041595 0.001764 -733941.000000 0 0 1
-28.473008 -21.773423 -15.341315 38.989102 0.652845 1.975207 0.041007 0.004156 609091.000000 0 0 1
-29.839948 -21.222523 -14.807215 39.497742 0.618211 1.955072 0.038254 0.011044 321097.000000 0 0 1
-30.512348 -20.382023 -15.665515 39.897852 0.588920 1.974297 0.036903 0.015777 -555921.000000 0 0 1
-31.470028 -19.618123 -14.971215 39.992133 0.557441 1.954496 0.046824 0.013960 -26587.800000 0 0 1
-32.465578 -18.951023 -15.969515 40.843365 0.528368 1.972508 0.057473 -0.009260 -34981.100000 0 0 1
-33.215968 -19.939023 -16.649415 42.167146 0.540628 1.976694 0.040324 0.008025 -203516.000000 0 0 1
-34.039938 -19.332423 -17.630215 42.933489 0.516507 1.993952 0.041860 0.000717 -98189.600000 0 0 1
-34.832285 -20.336123 -18.467415 44.360922 0.528445 2.000168 0.025472 0.007532 712802.000000 0 0 1
-35.985166 -20.967423 -17.889515 45.327693 0.527578 1.976506 0.015093 0.009026 532410.000000 0 0 1
-35.687974 -22.051123 -17.002515 45.265539 0.553468 1.955859 0.027941 0.008881 65093.800000 0 0 1
-36.718148 -23.209623 -17.125415 46.692492 0.563690 1.946331 0.023338 0.022554 -533719.000000 0 0 1
35.540585 -22.891223 -16.767915 45.478613 -0.572207 1.948405 0.031952 0.004258 -1078470.000000 0 0 1
34.831955 -24.065523 -16.660615 45.497149 -0.604595 1.945708 0.033123 0.007435 -479922.000000 0 0 1
33.398685 -23.980923 -16.092815 44.153545 -0.622718 1.943864 0.039944 -0.004236 46443.200000 0 0 1
32.432255 -23.760123 -17.121915 43.698451 -0.632277 1.973405 0.029699 -0.012834 517973.000000 0 0 1
31.168375 -24.152823 -16.573615 42.772785 -0.659257 1.968693 0.044456 -0.017687 928368.000000 0 0 1
29.906845 -24.057123 -17.493915 42.180583 -0.677419 1.998452 0.056896 -0.023775 529742.000000 0 0 1
29.526675 -22.694223 -17.703215 41.234162 -0.655300 2.014551 0.045080 -0.027426 547321.000000 0 0 1
28.244105 -22.609823 -18.327415 40.556475 -0.675055 2.039689 0.064043 -0.035562 -7306.880000 0 0 1
34.992315 29.447777 -18.192515 49.219928 0.699568 1.949393 0.063199 -0.026936 -206782.000000 0 0 1
33.984605 29.551977 -19.156815 48.941356 0.715746 1.972975 0.057896 -0.030920 -259692.000000 0 0 1
34.468315 29.404477 -20.453515 49.709499 0.706284 1.994853 0.057054 -0.016198 -383187.000000 0 0 1
33.391505 29.712977 -21.521815 49.608892 0.727171 2.019535 0.052103 -0.007759 -926325.000000 0 0 1
32.510565 28.603177 -21.652015 48.413721 0.721549 2.034461 0.047903 -0.013267 333929.000000 0 0 1
31.622125 28.776977 -22.747915 48.430784 0.738327 2.059747 0.060397 0.000460 197186.000000 0 0 1
30.486875 29.821177 -22.629815 48.278988 0.774360 2.058649 0.051801 -0.004338 -1399340.000000 0 0 1
30.910925 31.165477 -22.658615 49.398230 0.789499 2.047320 0.065018 -0.009290 -116016.000000 0 0 1
29.844875 32.103177 -22.740015 49.380551 0.821837 2.049361 0.057743 -0.002659 -245382.000000 0 0 1
30.224055 33.605677 -22.576215 50.522475 0.838327 2.034043 0.055720 0.002847 -62157.100000 0 0 1
30.750385 33.969477 -21.352315 50.551290 0.835096 2.006876 0.052343 -0.007778 238451.000000 0 0 1
32.167535 33.860677 -21.275215 51.321833 0.811035 1.998239 0.042401 -0.013155 13340.700000 0 0 1
32.633715 33.483677 -19.852915 50.796203 0.798253 1.972335 0.050149 -0.023903 -362806.000000 0 0 1
32.594365 -33.640994 -19.014615 50.553583 -0.801199 1.956410 0.048534 -0.020752 272950.000000 0 0 1
32.628835 -34.064394 -17.643815 50.361970 -0.806920 1.928730 0.057437 -0.030787 -517676.000000 0 0 1
32.640645 -32.779294 -16.734315 49.192796 -0.787518 1.917903 0.057121 -0.022743 1085060.000000 0 0 1
33.865455 -31.996094 -16.803915 49.527676 -0.757023 1.916951 0.061499 -0.012807 1346460.000000 0 0 1
34.957735 -32.520994 -16.043215 50.369068 -0.749303 1.894957 0.062905 -0.017882 394764.000000 0 0 1
36.291695 -31.812994 -16.369015 50.961734 -0.719731 1.897795 0.060436 -0.000982 36147.100000 0 0 1
-36.563138 -32.043694 -17.572515 51.695790 0.719619 1.917630 0.049627 -0.007659 -201779.000000 0 0 1
-35.434515 -31.186494 -17.631215 50.389106 0.721720 1.928262 0.037053 0.001086 -402743.000000 0 0 1
-34.356498 -31.696594 -18.554115 50.292129 0.745151 1.948650 0.051619 -0.011307 -929918.000000 0 0 1
-33.729988 -32.862094 -18.001215 50.415009 0.772366 1.935916 0.057517 -0.018927 -12498.800000 0 0 1
-32.762288 -33.516094 -18.761015 50.484372 0.796771 1.951550 0.067698 -0.021833 -57424.800000 0 0 1
-31.371448 -32.924694 -19.043415 49.303701 0.809551 1.967356 0.044281 -0.019776 -904333.000000 0 0 1
-31.419168 -31.726094 -19.890815 48.881016 0.790259 1.989879 0.040396 -0.014660 303881.000000 0 0 1
-30.147928 -31.212394 -20.278115 47.898988 0.802744 2.007938 0.045353 -0.008207 496937.000000 0 0 1
-29.189938 -32.093794 -21.107615 48.245161 0.832747 2.023621 0.039941 -0.002854 -448057.000000 0 0 1
-29.816318 -32.610394 -22.235315 49.465745 0.830126 2.037012 0.034960 0.001940 -121480.000000 0 0 1
-29.055808 -33.698894 -22.744915 49.971858 0.859251 2.043342 0.027683 0.003549 -65026.100000 0 0 1
-29.731948 33.714677 -23.834815 50.879924 -0.848089 2.058334 0.032331 -0.000857 92433.700000 0 0 1
-30.777108 32.796977 -23.488715 50.740436 -0.817159 2.052082 0.034909 -0.019677 666882.000000 0 0 1
-31.407598 32.010477 -24.524615 51.113253 -0.794904 2.071234 0.027532 -0.014457 1038780.000000 0 0 1
-32.412398 32.829577 -25.431825 52.679431 -0.791792 2.074606 0.043102 -0.027217 82667.900000 0 0 1
-31.726888 33.503077 -26.439235 53.179740 -0.812621 2.091127 0.035483 -0.019673 -516514.000000 0 0 1
-32.566758 -33.817394 -27.018835 54.168509 0.804235 2.093001 0.039033 -0.018208 -123397.000000 0 0 1
-31.892238 -33.088294 -28.183805 53.909897 0.803802 2.120922 0.036550 -0.018015 -62942.700000 0 0 1
-31.731968 -33.759194 -29.434835 54.890897 0.816342 2.136776 0.044482 -0.022672 -395229.000000 0 0 1
-32.921058 -33.889194 -30.158885 56.052047 0.799888 2.138920 0.052232 -0.020499 -349766.000000 0 0 1
-32.779958 33.583477 -31.478605 56.509098 -0.797505 2.161630 0.066485 -0.027117 115680.000000 0 0 1
-31.942008 -33.979094 -32.410065 56.791576 0.816290 2.178135 0.071019 -0.038058 -13057.500000 0 0 1
-32.121588 33.757377 -33.715425 57.515970 -0.810223 2.197147 0.071576 -0.048466 -389914.000000 0 0 1
-31.162548 -33.927294 33.306424 56.846140 0.827848 0.944800 0.084604 -0.050744 6584.550000 0 0 1
-29.898258 33.712777 33.371980 56.072687 -0.845293 0.933337 0.085685 -0.053894 -409773.000000 0 0 1
-29.753668 32.415477 32.774292 54.865273 -0.828188 0.930592 0.095418 -0.056727 732276.000000 0 0 1
-28.258538 31.874477 32.794537 53.758803 -0.845458 0.914697 0.086937 -0.048724 1004990.000000 0 0 1
-27.889138 31.588477 -33.978275 54.130944 -0.847515 2.249398 0.080011 -0.053301 256068.000000 0 0 1
-26.496338 31.517477 -33.704525 53.210923 -0.871734 2.256753 0.079752 -0.053632 -70696.600000 0 0 1
-25.913148 30.112977 34.043617 52.318739 -0.860220 0.862295 0.078987 -0.037397 -624568.000000 0 0 1
-26.275048 29.138877 -33.148915 51.364413 -0.837033 2.272300 0.073703 -0.033609 227697.000000 0 0 1
-25.966648 27.804977 -33.510595 50.698556 -0.819573 2.292917 0.078252 -0.032295 -600690.000000 0 0 1
-26.012578 26.769777 -32.376225 49.411488 -0.799743 2.285292 0.097886 -0.042152 -915632.000000 0 0 1
-24.915598 26.703377 -31.533735 48.251776 -0.820018 2.283028 0.081417 -0.034773 -618595.000000 0 0 1
-24.887498 27.782277 -30.610725 48.252036 -0.840304 2.258019 0.059372 -0.033852 -1218470.000000 0 0 1
-23.658298 27.892177 -29.787195 47.169541 -0.867345 2.254272 0.071713 -0.026492 -427928.000000 0 0 1
-22.462898 28.236877 -30.513765 47.254554 -0.898795 2.272778 0.060314 -0.028483 1677690.000000 0 0 1
-21.207898 28.040277 -29.813535 46.096410 -0.923252 2.274131 0.031146 -0.020476 1224950.000000 0 0 1
-20.795398 29.121677 -28.782595 45.923398 -0.950679 2.248175 0.029761 -0.011049 -516186.000000 0 0 1
-20.353398 30.378577 -29.411675 46.927235 -0.980495 2.248173 0.027870 -0.010197 390183.000000 0 0 1
-19.865098 31.332477 -28.458065 46.756900 -1.005744 2.225140 0.035292 -0.009275 -154352.000000 0 0 1
-19.459498 32.653877 -29.189545 47.926791 -1.033373 2.225652 0.028919 -0.004351 451695.000000 0 0 1
-18.267998 32.590677 -29.978725 47.901941 -1.059906 2.246998 0.032721 -0.006464 234953.000000 0 0 1
-18.127998 33.570977 -31.011035 49.166240 -1.075671 2.253301 0.026504 0.000901 964399.000000 0 0 1
-16.611598 33.652477 -31.439465 48.957884 -1.112264 2.268127 0.030719 0.002780 814857.000000 0 0 1
-15.729498 -33.965694 -30.511845 48.291388 1.137102 2.254705 0.041020 -0.004204 420640.000000 0 0 1
-14.346498 -34.009094 -30.826655 48.090781 1.171603 2.266609 0.068760 -0.000400 594468.000000 0 0 1
-13.634898 32.848977 -30.624675 46.934385 -1.177359 2.281675 0.076609 -0.008073 -549848.000000 0 0 1
-13.338998 32.547177 -29.283195 45.768473 -1.181840 2.265049 0.084282 -0.024580 -73173.300000 0 0 1
-13.049898 31.182177 -29.168085 44.647567 -1.174440 2.282726 0.081712 -0.022201 -53033.000000 0 0 1
-12.961598 30.652877 -27.713385 43.308586 -1.170747 2.265171 0.068511 -0.034351 96964.600000 0 0 1
-11.878198 31.212677 -26.987065 42.937449 -1.207163 2.250446 0.073040 -0.029822 25056.700000 0 0 1
-11.885998 30.862977 -25.643965 41.849890 -1.203182 2.230346 0.053411 -0.025988 -128603.000000 0 0 1
-10.582698 31.234777 -24.924615 41.338133 -1.244124 2.217984 0.065872 -0.032607 245961.000000 0 0 1
-9.450298 30.588477 -25.493135 40.925090 -1.271149 2.243269 0.092626 -0.028225 471812.000000 0 0 1
-8.252998 30.974977 -24.805515 40.532392 -1.310405 2.229374 0.100642 -0.031532 873123.000000 0 0 1
-6.948998 30.215277 -25.200905 39.954188 -1.344744 2.253309 0.084054 -0.032738 214167.000000 0 0 1
-6.869698 28.850977 -24.855715 38.695972 -1.337039 2.268335 0.082027 -0.048398 66293.500000 0 0 1
-5.688598 28.325377 -25.451185 38.502597 -1.372602 2.292980 0.070624 -0.053900 46922.000000 0 0 1
-5.047498 27.088377 -24.784615 37.061227 -1.386575 2.303320 0.089105 -0.040166 -210777.000000 0 0 1
-5.883198 25.958377 -24.680215 36.298242 -1.347922 2.318462 0.100925 -0.040618 -426920.000000 0 0 1
-5.289198 24.938577 -24.025415 35.030399 -1.361804 2.326560 0.102865 -0.050863 -594905.000000 0 0 1
-6.204598 23.704477 -23.991215 34.292531 -1.314792 2.345640 0.086041 -0.041992 -82524.500000 0 0 1
-6.164998 22.945877 -25.223225 34.651574 -1.308319 2.386065 0.088530 -0.037887 125853.000000 0 0 1
-6.990198 21.779277 -25.208985 34.039576 -1.260226 2.404727 0.071742 -0.041283 -36910.400000 0 0 1
-7.042198 21.037377 -26.538985 34.590194 -1.247774 2.445323 0.071064 -0.030575 151312.000000 0 0 1
-6.014398 20.097877 -26.887255 34.103111 -1.280023 2.479017 0.092058 -0.041981 -139365.000000 0 0 1
-5.845598 18.944177 -26.043485 32.730964 -1.271496 2.490931 0.093372 -0.041454 39920.800000 0 0 1
-4.487798 18.186077 -25.994365 32.040299 -1.328859 2.517172 0.107480 -0.050085 118456.000000 0 0 1
-4.336798 17.430377 -27.164555 32.565917 -1.326941 2.557369 0.085936 -0.038053 100708.000000 0 0 1
-3.106498 16.723777 -27.207665 32.087258 -1.387136 2.582860 0.095802 -0.045166 -208079.000000 0 0 1
-2.803298 16.310877 -28.689115 33.120515 -1.400592 2.618351 0.083939 -0.035164 -110784.000000 0 0 1
-2.527498 17.483577 -29.466035 34.355654 -1.427227 2.601530 0.089231 -0.038671 110178.000000 0 0 1
-2.114998 17.171377 -30.777425 35.306930 -1.448244 2.629479 0.086970 -0.039471 -291367.000000 0 0 1
-1.467698 18.311977 -31.564175 36.520950 -1.490818 2.614505 0.096442 -0.024307 1131400.000000 0 0 1
-0.113698 18.445377 -31.019885 36.089862 -1.564632 2.605122 0.112310 -0.034748 1497180.000000 0 0 1
0.692702 19.408877 -31.758575 37.226220 1.535122 2.592740 0.112689 -0.024647 720350.000000 0 0 1
0.616502 20.842377 -31.168105 37.499807 1.541226 2.551976 0.093360 -0.030133 -15273.400000 0 0 1
1.359202 20.897177 -29.957965 36.551595 1.505845 2.531522 0.113067 -0.049119 -78657.700000 0 0 1
1.025602 21.987377 -29.113155 36.497567 1.524185 2.494225 0.103100 -0.053496 230235.000000 0 0 1
2.176102 22.262777 -28.100885 35.916938 1.473360 2.469283 0.114429 -0.056547 318442.000000 0 0 1
3.365802 22.582977 -28.821335 36.769401 1.422844 2.471623 0.096008 -0.057539 -202414.000000 0 0 1
4.494902 22.431577 -27.988175 36.148551 1.373033 2.456332 0.094343 -0.060362 -261915.000000 0 0 1
5.001702 23.786277 -27.454115 36.667867 1.363539 2.416932 0.101170 -0.059227 -798506.000000 0 0 1
5.664302 24.518077 -28.468345 37.995620 1.343754 2.417730 0.087584 -0.061043 -49771.100000 0 0 1
5.962502 25.824977 -28.115345 38.638757 1.343891 2.385681 0.088866 -0.057542 -11165.000000 0 0 1
6.890202 26.587477 -29.106125 40.019187 1.317223 2.385182 0.094712 -0.046875 580451.000000 0 0 1
8.272902 26.237477 -28.975715 39.955453 1.265355 2.382122 0.081767 -0.045576 518222.000000 0 0 1
9.003102 27.068777 -29.881605 41.312043 1.249705 2.379387 0.088746 -0.042006 -444795.000000 0 0 1
10.496902 26.953577 -29.585095 41.375816 1.199423 2.367468 0.090983 -0.038869 -388472.000000 0 0 1
11.265302 28.006077 -30.161775 42.672943 1.188356 2.355779 0.093713 -0.022361 -280600.000000 0 0 1
12.449802 28.221477 -29.442675 42.641769 1.155329 2.332929 0.092473 -0.028210 -279014.000000 0 0 1
13.442702 29.085677 -30.242635 44.060184 1.137863 2.327315 0.099371 -0.027385 -390228.000000 0 0 1
12.998102 30.427777 -30.284575 44.854830 1.167082 2.311990 0.111051 -0.026371 108377.000000 0 0 1
13.708802 31.184577 -31.209325 46.199904 1.156623 2.312477 0.145989 -0.044616 -204205.000000 0 0 1
13.219502 32.642977 -31.234095 47.073218 1.186011 2.296312 0.148832 -0.054208 -191636.000000 0 0 1
12.008002 32.836777 -31.904955 47.332570 1.220215 2.310487 0.127872 -0.053305 -169526.000000 0 0 1
11.614402 -34.053194 -31.779935 48.004986 -1.242102 2.294298 0.111605 -0.044706 956764.000000 0 0 1
10.314702 -33.686894 -32.623915 48.015828 -1.273667 2.317797 0.071660 -0.038959 1174660.000000 0 0 1
10.654802 -33.155994 -33.912505 48.609698 -1.259866 2.342907 0.056831 -0.022652 -22620.000000 0 0 1
9.454502 -33.214994 33.517925 48.125614 -1.293485 0.800333 0.057747 -0.026286 -77987.500000 0 0 1
9.494002 -32.480294 32.116859 46.654027 -1.286418 0.811509 0.059563 -0.023295 16098.400000 0 0 1
9.493902 -31.053494 32.137179 45.686453 -1.274093 0.790586 0.047751 -0.027339 -166820.000000 0 0 1
9.741602 -30.508494 30.860659 44.475244 -1.261721 0.803927 0.072103 -0.033558 -727313.000000 0 0 1
9.295602 -29.026094 30.780859 43.317244 -1.260867 0.780458 0.064382 -0.046361 1166250.000000 0 0 1
7.850802 -28.884494 30.727879 42.896989 -1.305408 0.772285 0.052294 -0.035224 1771730.000000 0 0 1
7.123402 -29.087894 31.969489 43.805213 -1.330631 0.752752 0.052165 -0.024485 266621.000000 0 0 1
5.569302 -28.927794 31.957629 43.464059 -1.380599 0.744738 0.058052 -0.025808 931070.000000 0 0 1
4.761702 -29.956394 31.372349 43.638098 -1.413161 0.768547 0.065522 -0.032430 247817.000000 0 0 1
4.909302 -30.132894 29.951499 42.768971 -1.409294 0.794966 0.064114 -0.032628 -454756.000000 0 0 1
4.221302 -29.088694 29.015589 41.302251 -1.426684 0.791866 0.048787 -0.034386 -391436.000000 0 0 1
2.822002 -29.177894 28.982599 41.222618 -1.474379 0.791084 0.057001 -0.038506 -55982.700000 0 0 1
2.429302 -28.330594 27.878539 39.821314 -1.485257 0.795272 0.064295 -0.043982 -285621.000000 0 0 1
1.026302 -28.514094 27.265949 39.465667 -1.534819 0.808094 0.057400 -0.041365 -51527.100000 0 0 1
0.868302 -29.740194 26.582729 39.898303 -1.541608 0.841611 0.066608 -0.040810 155944.000000 0 0 1
0.430502 -30.831294 27.388959 41.242079 -1.556834 0.844504 0.091984 -0.044360 -629455.000000 0 0 1
0.803902 -32.221694 26.842999 41.945565 -1.545852 0.876365 0.082154 -0.041724 1055490.000000 0 0 1
2.221102 -32.519994 26.903319 42.264310 -1.502603 0.880781 0.064567 -0.038131 1278750.000000 0 0 1
2.840902 -32.253494 25.649859 41.307068 -1.482943 0.900835 0.061564 -0.042138 -229237.000000 0 0 1
4.371702 -32.132294 25.811559 41.446745 -1.435573 0.898525 0.074323 -0.027767 -106440.000000 0 0 1
5.038902 -31.810394 24.627879 40.544101 -1.413697 0.917970 0.093591 -0.047581 95021.700000 0 0 1
6.405602 -31.539994 24.931999 40.711270 -1.370427 0.911690 0.080424 -0.046122 -7461.560000 0 0 1
7.258002 -31.590194 23.652229 40.125390 -1.344961 0.940409 0.078374 -0.044373 -334246.000000 0 0 1
8.487802 -30.919094 23.784699 39.921737 -1.302880 0.932556 0.079312 -0.034606 276906.000000 0 0 1
9.303602 -31.083594 22.624079 39.554972 -1.279974 0.961896 0.069931 -0.040670 1003330.000000 0 0 1
10.567102 -30.128794 22.520779 39.071644 -1.233470 0.956484 0.064264 -0.034628 1325640.000000 0 0 1
11.641302 -30.484694 23.402299 40.155997 -1.206013 0.948645 0.069806 -0.027638 1375570.000000 0 0 1
12.807702 -29.625794 23.314319 39.815605 -1.162745 0.945229 0.078764 -0.023030 1191480.000000 0 0 1
14.047702 -30.052794 24.123769 41.017857 -1.133539 0.942054 0.101051 -0.022782 -164156.000000 0 0 1
13.874202 -29.884094 25.539619 41.687225 -1.136141 0.911389 0.079238 -0.022224 443674.000000 0 0 1
15.095902 -29.576194 26.204639 42.300362 -1.098858 0.902704 0.088714 -0.020428 278418.000000 0 0 1
-10.384098 -14.151923 26.040029 31.403655 0.937771 0.593115 0.093765 -0.032594 292822.000000 0 0 1
-8.972498 -14.137023 25.902359 30.843044 1.005266 0.573859 0.090769 -0.027075 -21639.700000 0 0 1
-8.409698 -14.894223 27.005659 31.966647 1.056792 0.564591 0.103748 -0.037158 -248100.000000 0 0 1
-6.909698 -15.098123 26.755359 31.488831 1.141597 0.555422 0.095535 -0.024675 -209104.000000 0 0 1
-6.426598 -15.955123 25.709199 30.932669 1.187885 0.589652 0.098076 -0.013264 133346.000000 0 0 1
-6.610298 -15.483623 24.411819 29.654267 1.167299 0.603747 0.115523 -0.018512 -290588.000000 0 0 1
-6.278398 -16.612523 23.388759 29.367129 1.209458 0.649434 0.117403 -0.016503 130143.000000 0 0 1
-7.286798 -17.595123 23.278369 30.076041 1.178162 0.685688 0.120010 -0.027334 -101969.000000 0 0 1
-7.258898 -18.597923 24.233629 31.398139 1.198674 0.689102 0.113543 -0.025553 72010.600000 0 0 1
-8.175798 -19.856223 23.864909 32.103694 1.180202 0.732702 0.087429 -0.030074 363487.000000 0 0 1
-9.534798 -19.514723 23.919889 32.309408 1.116314 0.737223 0.059606 -0.028826 -637596.000000 0 0 1
-10.336498 -20.544723 23.445359 32.842255 1.104654 0.775776 0.045194 -0.023850 -615725.000000 0 0 1
-11.842798 -20.495323 23.653089 33.463095 1.046838 0.785774 0.040957 -0.024869 -533403.000000 0 0 1
-12.148998 -20.823023 24.992199 34.724724 1.042642 0.767392 0.048543 -0.029719 -576317.000000 0 0 1
-13.507698 -20.607123 25.216889 35.256246 0.990574 0.773820 0.043986 -0.022703 -599640.000000 0 0 1
-13.793498 -20.650123 26.770139 36.514771 0.981897 0.747881 0.047977 -0.020600 -182621.000000 0 0 1
-13.434498 -21.889823 27.379849 37.540727 1.020340 0.753444 0.050458 -0.018389 48876.000000 0 0 1
-12.366798 -21.756023 28.296279 37.774881 1.053913 0.724129 0.067244 -0.027734 -99009.500000 0 0 1
-12.035898 -23.071323 28.931199 38.912248 1.089954 0.732510 0.076345 -0.027967 -8439.420000 0 0 1
-13.073298 -23.695423 29.671629 40.159554 1.066632 0.739444 0.067222 -0.018640 210352.000000 0 0 1
-12.607498 -24.932623 30.212809 41.150924 1.102629 0.746316 0.070393 -0.017253 502907.000000 0 0 1
-13.708498 -25.588703 31.117639 42.555988 1.078979 0.750693 0.073115 -0.031154 600208.000000 0 0 1
-13.833898 -24.910723 32.354940 43.113374 1.063863 0.722036 0.100548 -0.037408 -161111.000000 0 0 1
-14.953098 -25.341593 33.094400 44.283527 1.037717 0.726762 0.084354 -0.039776 -178276.000000 0 0 1
-14.923998 -24.812523 -33.621415 44.371011 1.029296 2.430630 0.084204 -0.040396 40447.900000 0 0 1
-15.095998 -23.422523 -33.358685 43.466143 0.998292 2.445672 0.092647 -0.040422 488930.000000 0 0 1
-16.352098 -22.835123 -33.734705 43.896062 0.949350 2.447311 0.073429 -0.038484 220609.000000 0 0 1
-16.473298 -21.328723 -33.383245 42.903672 0.913142 2.462428 0.077355 -0.032773 -125702.000000 0 0 1
-16.522098 -21.017923 -32.021975 41.714982 0.904591 2.445943 0.078307 -0.030453 99129.800000 0 0 1
-16.731598 -19.649223 -31.780325 40.939314 0.865424 2.459538 0.066672 -0.027853 -403207.000000 0 0 1
-16.643298 -19.266823 -30.289085 39.568150 0.858327 2.442601 0.074196 -0.022291 -75077.500000 0 0 1
-17.793298 -19.667923 -29.584785 39.732709 0.835398 2.410725 0.072719 -0.020034 -131009.000000 0 0 1
-17.751098 -19.388323 -28.171885 38.531334 0.829453 2.390791 0.070102 -0.020264 425086.000000 0 0 1
-16.803898 -20.324923 -27.332535 37.980797 0.879948 2.374081 0.073855 -0.020097 -230696.000000 0 0 1
-15.440398 -20.143723 -27.485335 37.411484 0.916811 2.395986 0.078212 -0.029704 -947405.000000 0 0 1
-14.717498 -21.108423 -26.734415 37.106593 0.961930 2.375285 0.065254 -0.029893 618310.000000 0 0 1
-13.249598 -21.261523 -27.233265 37.003445 1.013512 2.397888 0.070526 -0.032801 -267426.000000 0 0 1
-12.392398 -20.196923 -26.839575 35.802933 1.020452 2.418325 0.067950 -0.036924 -226523.000000 0 0 1
-11.038098 -20.448523 -27.070815 35.676473 1.075818 2.432244 0.062911 -0.045236 -289353.000000 0 0 1
-10.359798 -21.397223 -26.068855 35.281040 1.119896 2.402220 0.072932 -0.036140 -1101660.000000 0 0 1
-10.511298 -22.748323 -26.414135 36.409891 1.137951 2.382507 0.073884 -0.044388 119642.000000 0 0 1
-10.111298 -23.578323 -25.358655 36.072664 1.165679 2.350387 0.100193 -0.041563 -95783.100000 0 0 1
-10.125598 -25.096093 -25.582285 37.239696 1.187299 2.328098 0.099808 -0.042376 118084.000000 0 0 1
-9.088098 -25.554123 -26.476955 37.902980 1.229105 2.344159 0.095103 -0.044603 513421.000000 0 0 1
-9.334498 -26.776333 -27.124295 39.240696 1.235360 2.333984 0.091691 -0.040142 -200216.000000 0 0 1
-9.239998 -28.012273 -26.229395 39.472094 1.252179 2.297627 0.107353 -0.042964 -354729.000000 0 0 1
-10.240498 -28.162543 -25.256475 39.190384 1.222039 2.271108 0.094559 -0.040440 -243254.000000 0 0 1
-10.109498 -29.379343 -24.595315 39.626724 1.239385 2.240400 0.108965 -0.038405 -309171.000000 0 0 1
-11.177698 -29.461253 -23.504115 39.310937 1.208171 2.211678 0.100744 -0.037104 -287569.000000 0 0 1
-11.234998 -28.391243 -22.550815 37.958229 1.193985 2.206937 0.106141 -0.037041 118705.000000 0 0 1
-11.944798 -27.228773 -22.984615 37.581602 1.157393 2.228868 0.087016 -0.036323 -431165.000000 0 0 1
-11.894598 -26.144673 -21.920315 36.132058 1.143831 2.222664 0.096432 -0.028941 42532.000000 0 0 1
-12.574198 -26.479293 -20.723715 35.898966 1.127455 2.186189 0.075453 -0.023210 194096.000000 0 0 1
-12.579098 -25.294803 -19.955015 34.587041 1.109311 2.185787 0.067790 -0.019764 -37243.100000 0 0 1
-13.113798 -25.605803 -18.518415 34.213456 1.097483 2.142733 0.081450 -0.021652 -916856.000000 0 0 1
-14.442198 -25.968063 -18.533915 35.020328 1.063242 2.128493 0.095296 -0.020003 -1144190.000000 0 0 1
-14.812998 -26.183983 -17.193815 34.650442 1.055959 2.090022 0.085210 -0.021935 -763903.000000 0 0 1
-16.306998 -26.325623 -16.965515 35.309847 1.016209 2.071993 0.084740 -0.026177 -1820470.000000 0 0 1
-16.966498 -25.104933 -17.005015 34.746083 0.976481 2.082207 0.074234 -0.017145 275350.000000 0 0 1
-18.351598 -25.228453 -16.668315 35.370733 0.941906 2.061499 0.082062 -0.019024 959875.000000 0 0 1
-19.336998 -25.787953 -17.757215 36.800227 0.927394 2.074337 0.081249 -0.015547 -718064.000000 0 0 1
-19.144298 -27.154343 -18.117315 37.843092 0.956711 2.070025 0.077366 -0.011085 -183239.000000 0 0 1
-19.385198 -28.132613 -17.107815 38.208731 0.967447 2.035040 0.073713 -0.022760 -774879.000000 0 0 1
-20.842198 -28.448473 -16.759915 39.046224 0.938505 2.014439 0.076836 -0.017397 -119377.000000 0 0 1
-21.529798 -29.307503 -17.666415 40.429744 0.937213 2.023019 0.071066 -0.012294 -147890.000000 0 0 1
-22.635698 -29.993483 -17.154615 41.306957 0.924302 1.999065 0.071044 -0.011860 7549.570000 0 0 1
-23.333498 -30.838533 -18.243415 42.758502 0.923063 2.011595 0.054469 -0.019161 -420888.000000 0 0 1
-22.626798 -32.011203 -18.445715 43.323591 0.955495 2.010605 0.043123 -0.017968 -6041.210000 0 0 1
-23.081598 -32.800593 -19.561515 44.623894 0.957595 2.024574 0.032037 0.001985 12134.100000 0 0 1
-22.440898 34.008140 -19.577215 45.204147 -0.987515 2.018708 0.025885 -0.002671 353757.000000 0 0 1
-23.105098 32.983451 -18.809015 44.446965 -0.959731 2.007747 0.028265 -0.002291 59564.100000 0 0 1
-22.293498 31.832398 -18.731915 43.141469 -0.959842 2.019943 0.021116 -0.008573 -143899.000000 0 0 1
-23.078298 30.574698 -18.267615 42.439673 -0.924220 2.015773 0.039764 -0.019259 -14074.500000 0 0 1
-23.689298 30.692748 -16.981515 42.327291 -0.913476 1.983618 0.031343 -0.025857 117522.000000 0 0 1
-24.356498 29.456428 -16.617015 41.677876 -0.879887 1.980896 0.047337 -0.022678 445097.000000 0 0 1
-23.479898 28.168808 -16.317315 40.137790 -0.875935 1.989452 0.061220 -0.034176 778738.000000 0 0 1
-22.651998 27.575668 -17.375915 39.691976 -0.883113 2.023912 0.060070 -0.035231 658985.000000 0 0 1
-22.275998 26.255748 -17.074615 38.433409 -0.867218 2.031150 0.068751 -0.035518 -150488.000000 0 0 1
-21.368698 25.679328 -18.184115 38.035657 -0.876765 2.069265 0.074401 -0.035729 -598710.000000 0 0 1
-21.213898 24.251428 -18.159915 36.985724 -0.852109 2.084031 0.085084 -0.038350 439992.000000 0 0 1
-20.513298 23.749868 -19.326915 36.856225 -0.858389 2.122791 0.071758 -0.027134 1321670.000000 0 0 1
-18.978498 24.060668 -19.513515 36.330104 -0.902936 2.137812 0.063860 -0.028618 255335.000000 0 0 1
-18.178098 23.617728 -18.459415 35.056959 -0.914818 2.125339 0.078552 -0.035252 413047.000000 0 0 1
-17.007098 24.397638 -18.177015 34.855273 -0.962033 2.119404 0.083292 -0.042935 373831.000000 0 0 1
-17.207498 25.596188 -17.218615 35.323414 -0.978926 2.079970 0.072585 -0.042414 -342763.000000 0 0 1
-18.027798 26.576918 -17.760715 36.698462 -0.974766 2.075975 0.057349 -0.037200 -244035.000000 0 0 1
-17.582698 27.844808 -17.301115 37.199640 -1.007570 2.054531 0.055789 -0.044248 -275796.000000 0 0 1
-18.526798 29.041718 -17.552715 38.662145 -1.002948 2.042049 0.057160 -0.031376 -26833.300000 0 0 1
-18.587498 29.376638 -18.971815 39.603179 -1.006657 2.070366 0.022462 -0.029396 409570.000000 0 0 1
-19.649098 28.705558 -19.657115 39.956205 -0.970546 2.085143 0.038057 -0.026242 5020.770000 0 0 1
-19.846198 29.180348 -21.118615 41.126150 -0.973536 2.110065 0.040061 -0.028213 85133.000000 0 0 1
-20.645398 30.350138 -21.140915 42.359198 -0.973455 2.093341 0.035618 -0.026674 259809.000000 0 0 1
-21.136098 30.573838 -22.470515 43.432917 -0.965924 2.114561 0.038013 -0.023063 26942.200000 0 0 1
-21.513798 32.059878 -22.825215 44.851642 -0.979765 2.104708 0.035686 -0.021229 647783.000000 0 0 1
-20.445798 33.037970 -22.956715 45.128139 -1.016626 2.104471 0.027335 -0.014971 590985.000000 0 0 1
-20.896598 34.057011 -23.767515 46.491318 -1.020454 2.107406 0.031582 -0.009210 -340251.000000 0 0 1
-19.874698 -33.035893 -23.853115 45.335912 1.029194 2.124853 0.053275 -0.011020 76585.200000 0 0 1
-19.808998 -32.305423 -22.653315 44.149852 1.020743 2.109590 0.054937 -0.010822 256153.000000 0 0 1
-18.951598 -32.887683 -21.681115 43.713082 1.048022 2.089767 0.053330 -0.016467 -445144.000000 0 0 1
-18.759198 -31.958443 -20.434515 42.318069 1.040000 2.074736 0.071645 -0.018410 486722.000000 0 0 1
-17.652298 -31.057363 -20.649015 41.261910 1.053953 2.094901 0.066811 -0.020420 717627.000000 0 0 1
-17.632498 -30.062363 -19.645415 40.007412 1.040340 2.084085 0.069743 -0.018170 -327546.000000 0 0 1
-16.380198 -29.203123 -19.800315 38.899689 1.059619 2.104830 0.092335 -0.017449 -277601.000000 0 0 1
-15.197098 -29.868763 -19.461115 38.753449 1.100137 2.096911 0.098754 -0.025476 -474661.000000 0 0 1
-14.071498 -29.233213 -20.001115 38.113415 1.122177 2.123252 0.091618 -0.026017 -381048.000000 0 0 1
-12.813698 -30.128623 -20.230515 38.486342 1.168672 2.124281 0.113110 -0.031080 508433.000000 0 0 1
-12.156498 -30.575603 -19.031815 38.011287 1.192371 2.095190 0.110285 -0.028991 532938.000000 0 0 1
-11.420698 -29.546623 -18.325415 36.595848 1.201954 2.095263 0.096977 -0.019045 -568226.000000 0 0 1
-10.643798 -30.109463 -17.147515 36.247862 1.231004 2.063560 0.094845 -0.007213 -41818.600000 0 0 1
-11.421198 -30.662193 -16.073015 36.454844 1.214233 2.027400 0.113324 -0.017262 576138.000000 0 0 1
-12.167098 -31.873973 -16.322115 37.820628 1.206143 2.017025 0.112589 -0.020423 -164206.000000 0 0 1
-13.041698 -32.452513 -15.261615 38.159774 1.188679 1.982248 0.111371 -0.026407 -1174260.000000 0 0 1
-12.389398 -32.991933 -14.188215 37.990397 1.211563 1.953542 0.106490 -0.023478 -199073.000000 0 0 1
-13.285098 -33.630623 -13.274115 38.519018 1.194582 1.922622 0.111538 -0.026672 191758.000000 0 0 1
-12.578498 -34.094242 -11.973315 38.262204 1.217355 1.889071 0.096719 -0.022493 59315.600000 0 0 1
-12.210898 -32.983103 -11.195915 36.909885 1.216226 1.878983 0.087057 -0.018678 -49787.200000 0 0 1
-11.872498 -33.327443 -9.882415 36.733320 1.228575 1.843184 0.093118 -0.020481 117513.000000 0 0 1
-10.653898 -32.539213 -9.273915 35.472686 1.254380 1.835308 0.075923 -0.020489 480412.000000 0 0 1
-9.447898 -33.126013 -9.692815 35.784720 1.292962 1.845087 0.049089 -0.017922 -1117470.000000 0 0 1
-8.340198 -32.711293 -8.982815 34.932486 1.321151 1.830866 0.039724 -0.020966 -1011620.000000 0 0 1
-7.047298 -33.153733 -9.632315 35.236571 1.361349 1.847682 0.043747 -0.022476 -660648.000000 0 0 1
-6.808198 33.730726 -9.384615 35.667695 -1.371632 1.837043 0.030736 -0.016067 1456780.000000 0 0 1
-5.560698 33.287281 -10.052815 35.213968 -1.405273 1.860302 0.039105 -0.014391 1581120.000000 0 0 1
-4.748098 32.284614 -9.209215 33.906495 -1.424773 1.845858 0.044137 -0.024818 186964.000000 0 0 1
-4.069198 32.964990 -8.099915 34.188559 -1.447978 1.809990 0.058606 -0.024216 269800.000000 0 0 1
-3.292898 32.005818 -7.413815 33.017878 -1.468273 1.797267 0.059053 -0.025638 -77613.300000 0 0 1
-2.889898 32.482313 -5.987815 33.155786 -1.482062 1.752389 0.066039 -0.023762 -114862.000000 0 0 1
-1.818998 33.426394 -6.000715 34.009428 -1.516432 1.748168 0.065366 -0.025400 112834.000000 0 0 1
-1.476698 33.855017 -4.704415 34.212196 -1.527206 1.708740 0.064741 -0.032039 181253.000000 0 0 1
-0.349898 33.034470 -4.025115 33.280628 -1.560205 1.692038 0.067606 -0.030160 240322.000000 0 0 1
0.946502 33.259663 -4.572815 33.585886 1.542346 1.707373 0.076288 -0.027108 609276.000000 0 0 1
1.934402 32.538871 -3.803015 32.817419 1.511417 1.686941 0.072134 -0.022192 1082360.000000 0 0 1
3.386502 32.578603 -4.392615 33.047373 1.467220 1.704110 0.057963 -0.009236 540638.000000 0 0 1
4.023402 33.729391 -3.925615 34.194591 1.452073 1.685852 0.047393 -0.012291 -651466.000000 0 0 1
5.423102 33.684572 -4.028415 34.355328 1.411169 1.688324 0.050624 -0.009466 305021.000000 0 0 1
6.094002 -33.254323 -3.449515 33.983614 -1.389553 1.672477 0.053502 -0.008978 148626.000000 0 0 1
5.556402 -32.138073 -4.104115 32.872072 -1.399597 1.695974 0.054528 -0.008773 -369385.000000 0 0 1
6.140202 -30.921413 -3.787615 31.751880 -1.374772 1.690369 0.045084 -0.013031 -150973.000000 0 0 1
5.860002 -29.735263 -4.697415 30.669059 -1.376217 1.724566 0.043413 -0.008079 -427723.000000 0 0 1
6.797702 -29.696823 -5.751015 31.002971 -1.345770 1.757376 0.052626 -0.007693 1493.230000 0 0 1
6.940602 -28.472603 -6.516015 30.021984 -1.331695 1.789579 0.049019 0.000005 471825.000000 0 0 1
7.612802 -27.257173 -5.743215 28.877201 -1.298441 1.771015 0.051372 -0.004453 -54000.700000 0 0 1
6.675802 -26.712973 -4.863715 27.960776 -1.325904 1.745634 0.041484 -0.011082 -599525.000000 0 0 1
7.153402 -25.601813 -4.120615 26.899878 -1.298335 1.724585 0.037740 -0.016558 -132788.000000 0 0 1
6.234902 -24.992323 -3.015815 25.934250 -1.326314 1.687347 0.031310 -0.019972 -415163.000000 0 0 1
5.020902 -24.579223 -3.547515 25.336387 -1.369294 1.711275 0.035900 -0.021995 -749746.000000 0 0 1
4.212902 -23.977423 -2.550915 24.478001 -1.396869 1.675198 0.043786 -0.023157 -230619.000000 0 1 0
3.082802 -23.109823 -3.083015 23.517495 -1.438181 1.702269 0.047898 -0.027218 -348006.000000 0 1 0
2.125902 -23.872423 -3.761815 24.260323 -1.481978 1.726485 0.054791 -0.020747 -563824.000000 0 1 0
1.080902 -23.008623 -4.189115 23.411830 -1.523853 1.750697 0.052807 -0.016556 348673.000000 0 1 0
-15.041198 22.953477 18.167779 32.911517 -0.990711 0.986013 0.013277 -0.006652 -54711.700000 0 0 1
-15.617098 22.454177 19.403179 33.534567 -0.963090 0.953782 0.013442 -0.006399 548069.000000 0 0 1
-15.549498 23.411677 20.491279 34.781979 -0.984519 0.940808 0.026144 -0.006530 -924032.000000 0 0 1
-15.575498 22.736077 21.919479 35.213476 -0.970170 0.898896 0.035914 -0.016922 365348.000000 0 0 1
-14.444598 21.922477 22.279979 34.433107 -0.988194 0.867086 0.033057 -0.017653 1142900.000000 0 0 1
-13.108898 22.406577 22.279579 34.209320 -1.041444 0.861537 0.031655 -0.016968 282824.000000 0 0 1
-12.651498 23.521877 23.252799 35.412311 -1.077321 0.854454 0.038712 -0.010886 -452715.000000 0 0 1
-12.500698 22.939877 24.517079 35.827260 -1.071852 0.817134 0.033846 -0.007825 49394.900000 0 0 1
-12.247498 24.005677 25.431739 37.054650 -1.099029 0.814365 0.050980 -0.005042 -180308.000000 0 0 1
-11.674798 23.587177 26.764389 37.536494 -1.111186 0.776996 0.057783 -0.005604 -1275560.000000 0 0 1
-10.330498 23.332977 26.705039 36.936515 -1.153994 0.762664 0.033337 -0.001864 -1487790.000000 0 0 1
-9.995598 22.634177 27.897029 37.288902 -1.154937 0.725554 0.030226 -0.004327 -335201.000000 0 0 1
-8.513198 22.196677 27.947539 36.691034 -1.204564 0.704864 0.031012 -0.011475 1012500.000000 0 0 1
-7.484198 23.141577 28.341039 37.346490 -1.258004 0.709224 0.033895 -0.010134 818192.000000 0 0 1
-7.326198 24.228477 27.419129 37.316229 -1.277158 0.745458 0.032019 -0.007686 -999651.000000 0 0 1
-6.292198 25.300777 27.815549 38.123823 -1.327045 0.753044 0.033560 -0.016513 -572417.000000 0 0 1
-4.998698 24.850577 27.602329 37.475682 -1.372295 0.742856 0.031539 -0.018327 -255269.000000 0 0 1
-3.989998 25.557577 28.360449 38.385217 -1.415928 0.739452 0.041503 -0.015780 1486380.000000 0 0 1
-2.526198 25.002077 28.266999 37.822067 -1.470099 0.726705 0.047423 -0.021429 657028.000000 0 0 1
-1.872898 25.309077 27.037769 37.082315 -1.496930 0.753749 0.040586 -0.025804 -622216.000000 0 0 1
-0.598098 24.747077 27.050699 36.667641 -1.546633 0.741099 0.049579 -0.018137 40216.400000 0 0 1
0.000802 24.561077 25.573579 35.457784 1.570764 0.765205 0.032342 -0.025186 309509.000000 0 0 1
-0.634498 23.494277 24.914849 34.251034 -1.543796 0.756243 0.035056 -0.014006 119131.000000 0 0 1
-0.092998 23.309577 23.606749 33.175648 -1.566807 0.779068 0.025228 -0.006223 -54659.200000 0 0 1
-0.430798 21.946177 22.943979 31.752897 -1.551169 0.763270 0.014681 -0.000303 237670.000000 0 0 1
0.363902 20.824277 23.349559 31.288734 1.553323 0.728369 0.031050 0.001738 90234.700000 0 0 1
-0.017398 19.614177 22.656679 29.967338 -1.569909 0.713546 0.025409 0.004635 -238542.000000 0 0 1
0.955902 18.453677 22.736979 29.298842 1.519043 0.682439 0.029151 0.015452 183412.000000 0 0 1
2.155602 18.604077 21.969479 28.868951 1.455444 0.705932 0.028975 0.008455 15726.000000 0 0 1
3.002902 17.512877 22.283079 28.500068 1.400980 0.673152 0.021613 0.011153 -636754.000000 0 0 1
4.364102 17.736377 21.607579 28.293319 1.329535 0.701773 0.020374 0.006932 -756832.000000 0 0 1
5.156802 18.338977 22.600679 29.558440 1.296681 0.700360 0.016561 0.010645 -945208.000000 0 0 1
6.282302 18.880677 21.950479 29.627197 1.249582 0.736403 0.036781 -0.006244 87814.800000 0 0 1
7.247702 19.692877 22.889179 31.052425 1.218144 0.742007 0.045509 -0.010518 122160.000000 0 0 1
6.641302 20.758877 23.615519 32.136126 1.261161 0.745338 0.029254 -0.010278 -51372.000000 0 0 1
6.526102 21.948477 22.838179 32.340502 1.281784 0.786710 0.042506 -0.015468 -383629.000000 0 0 1
5.601202 22.932577 23.518079 33.322314 1.331240 0.787279 0.022856 -0.012948 -535270.000000 0 0 1
5.363002 24.101277 22.766979 33.585245 1.351844 0.825913 0.025151 -0.019773 -324163.000000 0 0 1
4.184602 24.647877 23.242979 34.135975 1.402625 0.821814 0.008129 -0.007655 -965774.000000 0 0 1
3.879202 26.014477 22.555979 34.649292 1.422770 0.861922 0.021215 -0.007010 -88452.800000 0 0 1
3.669502 26.045377 21.121479 33.733422 1.430829 0.894217 0.024876 -0.015970 -206322.000000 0 0 1
2.394002 25.523477 20.858579 33.049349 1.477274 0.887782 0.011277 -0.015064 -872528.000000 0 0 1
1.952102 25.972277 19.473979 32.520851 1.495776 0.928775 0.013001 -0.018784 -1581510.000000 0 0 1
1.162202 27.114777 19.528379 33.435302 1.527960 0.947069 0.015252 -0.031301 -141172.000000 0 0 1
0.770502 27.304177 18.192379 32.818812 1.542585 0.983241 0.025256 -0.025880 -125803.000000 0 0 1
-0.229798 28.467777 18.009879 33.687132 -1.562724 1.006736 0.008422 -0.010608 -21416.100000 0 0 1
0.348002 29.656877 18.406779 34.906460 1.559063 1.015356 0.026004 -0.010881 312668.000000 0 0 1
-0.691898 30.609477 18.466179 35.754980 -1.548196 1.028079 0.009489 -0.006190 10766.800000 0 0 1
-0.201298 31.961777 18.996579 37.181524 -1.564498 1.034548 0.013430 0.002476 46012.600000 0 0 1
0.189902 31.729677 20.369179 37.705595 1.564811 1.000102 0.021419 -0.006507 -83081.800000 0 0 1
0.532302 32.967777 20.920679 39.049103 1.554652 1.005397 0.032530 -0.009896 -91779.300000 0 0 1
1.095202 32.967677 22.393379 39.868918 1.537588 0.974387 0.042599 -0.029108 -222583.000000 0 0 1
0.145902 32.488277 23.292879 39.975838 1.566305 0.948781 0.039926 -0.014291 74839.800000 0 0 1
0.706902 32.333977 24.570839 40.616646 1.548937 0.921099 0.050242 -0.013473 -570989.000000 0 0 1
-0.397198 32.061777 25.559919 41.005180 -1.558408 0.897797 0.043548 -0.015936 -457314.000000 0 0 1
-1.304498 33.149477 25.721849 41.978602 -1.531465 0.911277 0.049137 -0.012040 720666.000000 0 0 1
-2.188198 32.982177 26.848149 42.584449 -1.504549 0.888640 0.062659 -0.012639 913321.000000 0 0 1
-1.415798 33.355977 28.204949 43.705204 -1.528377 0.869321 0.082136 -0.026053 438166.000000 0 0 1
-0.369398 32.507377 28.666099 43.342949 -1.559433 0.848141 0.074797 -0.023310 267961.000000 0 0 1
0.168402 33.198577 29.762779 44.586959 1.565724 0.839920 0.061591 -0.026056 -832453.000000 0 0 1
1.371902 32.487577 30.414379 44.523693 1.528593 0.818790 0.045326 -0.014503 1294170.000000 0 0 1
2.696902 32.600877 29.815049 44.260904 1.488259 0.831700 0.028052 -0.021039 1435020.000000 0 0 1
2.833502 32.088577 28.523309 43.026558 1.482722 0.846080 0.033519 -0.020395 -2002310.000000 0 0 1
4.251802 31.836677 28.131809 42.697196 1.438031 0.851484 0.020336 -0.015885 -1269320.000000 0 0 1
4.851202 30.767977 28.798879 42.421433 1.414413 0.824566 0.026614 -0.018897 -154591.000000 0 0 1
6.248902 30.766677 28.617519 42.480579 1.370416 0.831645 0.029867 -0.027979 -145677.000000 0 0 1
6.861702 29.556077 29.344609 42.210789 1.342679 0.802109 0.024105 -0.011010 -109984.000000 0 0 1
6.910002 29.732277 30.713519 43.302156 1.342443 0.782315 0.031059 -0.020229 -16537.000000 0 0 1
7.441402 28.610477 31.369969 43.104626 1.316341 0.755741 0.031542 -0.011081 -82143.300000 0 0 1
7.206402 28.447677 32.911174 44.094761 1.322694 0.728200 0.058738 -0.024998 98815.400000 0 0 1
5.870402 28.083377 33.234716 43.905399 1.364729 0.712145 0.051796 -0.027798 190242.000000 0 0 1
5.597702 28.015777 -33.528525 44.049745 1.373588 2.435883 0.076161 -0.026735 -152004.000000 0 0 1
5.830402 26.526777 -32.979295 42.723500 1.354443 2.452658 0.069273 -0.026499 540705.000000 0 0 1
7.190602 26.075577 -33.071275 42.724112 1.301724 2.456035 0.055994 -0.024327 695116.000000 0 0 1
7.254402 24.704077 -32.823535 41.716930 1.285174 2.476429 0.059828 -0.031952 23248.600000 0 0 1
8.630902 24.089077 -33.146965 41.874783 1.226754 2.484176 0.064045 -0.027876 -561507.000000 0 0 1
8.844302 23.928377 33.622040 42.204626 1.216755 0.649075 0.044323 -0.018574 452225.000000 0 0 1
10.197402 23.505677 33.417426 42.109716 1.161473 0.654126 0.052757 -0.034679 493565.000000 0 0 1
10.424702 21.997877 33.655431 41.536358 1.128249 0.626193 0.048685 -0.038945 -845900.000000 0 0 1
9.679902 21.208277 32.732779 40.186146 1.142616 0.618880 0.029514 -0.036111 168002.000000 0 0 1
9.359302 19.923477 33.271228 39.893810 1.131630 0.584488 0.021040 -0.026136 -104711.000000 0 0 1
8.119202 19.777177 -33.958925 40.128130 1.181242 2.579726 0.046822 -0.039619 -537233.000000 0 0 1
8.275402 20.395977 -32.710875 39.426888 1.185354 2.549293 0.055871 -0.044253 -296370.000000 0 0 1
7.054902 20.865477 -32.217765 39.027224 1.244750 2.541920 0.068246 -0.048521 -458359.000000 0 0 1
7.183902 21.351677 -30.772795 38.137481 1.246238 2.509666 0.077830 -0.061639 -15534.300000 0 0 1
8.111002 22.402477 -30.661565 38.830284 1.223420 2.481002 0.082541 -0.056610 45905.100000 0 0 1
8.051902 22.814577 -29.299035 37.996994 1.231515 2.451345 0.060362 -0.050910 3757.660000 0 0 1
9.451202 23.088677 -28.651995 37.991434 1.182261 2.425185 0.071201 -0.058020 647566.000000 0 0 1
10.190402 21.882677 -28.465605 37.322735 1.134977 2.438256 0.067078 -0.053387 -230324.000000 0 0 1
11.581002 22.101977 -28.454455 37.845383 1.088149 2.421676 0.073904 -0.054944 -430778.000000 0 0 1
12.339702 20.807177 -28.558645 37.427304 1.035503 2.438805 0.076015 -0.063864 -426388.000000 0 0 1
12.167302 20.009377 -29.759755 37.869004 1.024457 2.474883 0.065031 -0.056510 -877371.000000 0 0 1
10.906702 19.508877 -30.003375 37.413299 1.061021 2.501339 0.064221 -0.049593 -1086070.000000 0 0 1
10.948802 18.614377 -31.270445 38.002790 1.039105 2.537198 0.060503 -0.042924 -236500.000000 0 0 1
11.551902 17.304377 -31.102275 37.419773 0.982168 2.552009 0.073111 -0.037286 489187.000000 0 0 1
11.574002 16.449177 -32.238875 37.998395 0.957644 2.583803 0.048708 -0.022309 -292456.000000 0 0 1
12.732402 16.760877 -33.210835 39.319215 0.921148 2.576701 0.041900 -0.001150 -369895.000000 0 0 1
12.667602 18.034677 -33.841005 40.384791 0.958460 2.564338 0.043181 -0.005583 184953.000000 0 0 1
13.381102 18.165477 33.057090 40.022614 0.935912 0.598893 0.056398 -0.006272 9523.940000 0 0 1
12.520602 17.734377 31.847079 38.542315 0.956050 0.598310 0.066640 -0.018643 -701873.000000 0 0 1
12.991102 18.105877 30.556219 37.818964 0.948417 0.630114 0.054806 -0.014198 58783.200000 0 0 1
12.117302 17.753877 29.486709 36.489658 0.971901 0.629904 0.052468 -0.019046 761994.000000 0 0 1
10.615502 18.175777 29.421889 36.175894 1.042190 0.620993 0.037023 -0.015344 479358.000000 0 0 1
9.837702 17.443077 30.367719 36.376361 1.057277 0.582990 0.040419 -0.011753 327590.000000 0 0 1
8.471602 17.849077 30.447299 36.295945 1.127655 0.575607 0.039984 -0.015505 788226.000000 0 0 1
7.655702 16.921277 31.406909 36.487441 1.145923 0.534037 0.048044 -0.012795 18631.900000 0 0 1
8.011102 17.070077 32.770936 37.808723 1.132003 0.522136 0.062855 -0.017969 190124.000000 0 0 1
7.479702 16.022177 33.594158 37.963450 1.134032 0.484500 0.087741 -0.024607 -69513.800000 0 0 1
7.696102 16.212877 -33.046655 37.605436 1.127600 2.644082 0.095608 -0.034546 -409651.000000 0 0 1
6.824902 17.141177 -32.478155 37.352775 1.191879 2.624981 0.094900 -0.038981 -145025.000000 0 0 1
6.946102 17.212777 -31.069675 36.191888 1.187239 2.603077 0.094140 -0.054024 -881335.000000 0 0 1
5.841602 18.018177 -30.459675 35.868800 1.257283 2.585259 0.093496 -0.059258 -1518840.000000 0 0 1
5.754502 17.813677 -29.039835 34.550737 1.258340 2.568999 0.085270 -0.064836 28913.300000 0 0 1
4.984802 18.803577 -28.351605 34.383663 1.311658 2.540231 0.097642 -0.061418 -324020.000000 0 0 1
3.485002 18.698877 -28.597425 34.345392 1.386535 2.554658 0.119583 -0.066640 -1673610.000000 0 0 1
2.869402 17.527777 -28.072985 33.219707 1.408530 2.577493 0.135015 -0.060714 1027120.000000 0 0 1
1.454202 17.379577 -28.279865 33.225219 1.487318 2.588981 0.129305 -0.057223 1255690.000000 0 0 1
0.455202 18.420977 -27.703255 33.271759 1.546090 2.554646 0.120525 -0.064804 -506679.000000 0 0 1
0.416502 18.601477 -26.312435 32.226273 1.548409 2.526102 0.143669 -0.068863 154589.000000 0 0 1
-0.583498 19.584577 -26.135905 32.664686 -1.541011 2.498304 0.138430 -0.065992 -64924.800000 0 0 1
-1.017998 19.921477 -24.683715 31.736215 -1.519740 2.461918 0.128590 -0.067217 1000.800000 0 0 1
-2.222598 19.342677 -24.234715 31.086983 -1.456392 2.464787 0.134741 -0.055080 -289000.000000 0 0 1
-2.710998 20.023477 -23.163515 30.738211 -1.436224 2.424278 0.134474 -0.052277 -261139.000000 0 0 1
-3.801598 19.310177 -22.374915 29.798858 -1.376412 2.420167 0.111264 -0.047633 -324412.000000 0 0 1
-5.163198 19.492277 -22.654215 30.328550 -1.311859 2.414274 0.092834 -0.038568 -256820.000000 0 0 1
-5.910098 18.605577 -21.814615 29.274122 -1.263225 2.411607 0.096214 -0.038934 609006.000000 0 0 1
-7.456098 18.780977 -22.008615 29.878046 -1.192877 2.398848 0.092867 -0.029538 585204.000000 0 0 1
-8.149998 19.706577 -21.244715 30.101654 -1.178649 2.354300 0.070540 -0.027435 -192887.000000 0 0 1
-7.850998 21.050277 -21.522515 31.112232 -1.213812 2.334734 0.074633 -0.035637 -287344.000000 0 0 1
-8.246698 22.143977 -20.499915 31.282747 -1.214296 2.285390 0.064651 -0.042604 131988.000000 0 0 1
-7.375498 22.075177 -19.386515 30.291061 -1.248349 2.265305 0.083615 -0.045914 196233.000000 0 0 1
-7.700298 23.117077 -18.475115 30.578158 -1.249256 2.219549 0.097053 -0.042791 123021.000000 0 0 1
-6.785598 23.392077 -17.230715 29.835066 -1.288464 2.186499 0.103317 -0.043767 1220170.000000 0 0 1
-5.444298 23.842577 -17.542415 30.097262 -1.346302 2.193037 0.097804 -0.048334 586007.000000 0 0 1
-4.785198 23.961477 -16.301415 29.373230 -1.373686 2.159130 0.092225 -0.038333 484255.000000 0 0 1
-3.257798 24.289077 -16.353115 29.461787 -1.437466 2.159234 0.081823 -0.036420 770894.000000 0 0 1
-3.045998 25.639777 -16.663315 30.730154 -1.452551 2.143905 0.059063 -0.037568 -718366.000000 0 0 1
-1.678598 25.890977 -16.714415 30.863118 -1.506054 2.143095 0.056250 -0.046816 -579723.000000 0 0 1
-1.298798 27.339277 -17.016215 32.228474 -1.523325 2.127025 0.044411 -0.057351 -344796.000000 0 0 1
-1.700898 27.806477 -18.299415 33.331094 -1.509703 2.151987 0.054375 -0.058951 27619.900000 0 0 1
-1.229798 29.098777 -18.468715 34.486877 -1.528559 2.135930 0.069398 -0.064599 -314989.000000 0 0 1
-2.303198 29.983477 -19.183615 35.669661 -1.494131 2.138637 0.108797 -0.067582 1154060.000000 0 0 1
-3.420398 30.325777 -18.342415 35.606124 -1.458483 2.111976 0.097632 -0.056119 -33271.900000 0 0 1
-4.557598 29.553777 -18.456115 35.140086 -1.417788 2.123765 0.065646 -0.053448 -502372.000000 0 0 1
-5.843898 30.165877 -17.840615 35.530534 -1.379441 2.096846 0.095814 -0.040635 298124.000000 0 0 1
-6.424998 31.363377 -18.301815 36.876801 -1.368735 2.090124 0.119807 -0.038146 172648.000000 0 0 1
-5.935598 32.508377 -17.682915 37.479480 -1.390199 2.062130 0.110472 -0.061717 -72685.000000 0 0 1
-6.724198 33.754177 -18.190115 38.928648 -1.374160 2.056995 0.099357 -0.033385 840342.000000 0 0 1
-8.135898 33.659577 -17.985815 39.021142 -1.333634 2.049833 0.107133 -0.048344 788391.000000 0 0 1
-8.833798 -33.370894 -18.304115 39.072922 1.312016 2.058344 0.139637 -0.039798 336841.000000 0 0 1
29.498502 -20.248823 -26.141765 44.312169 -0.601564 2.201788 0.042716 -0.017969 184264.000000 0 0 1
29.063402 -21.525223 -25.666015 44.348178 -0.637477 2.187978 0.056533 -0.025337 -249068.000000 0 0 1
27.690902 -21.745623 -25.913195 43.716723 -0.665712 2.205268 0.047688 -0.028582 -291998.000000 0 0 1
27.247602 -23.109723 -25.452815 43.867265 -0.703412 2.189799 0.058737 -0.025412 -217087.000000 0 0 1
27.625702 -24.320123 -26.129925 45.137798 -0.721849 2.188166 0.063825 -0.010695 -1168800.000000 0 0 1
28.993402 -24.555423 -26.171965 46.136297 -0.702710 2.173989 0.061541 -0.014750 -767338.000000 0 0 1
29.386702 -25.983153 -26.709165 47.456106 -0.724006 2.168588 0.059693 -0.014293 -180910.000000 0 0 1
29.025202 -26.999593 -25.810915 47.303739 -0.749258 2.147952 0.071777 -0.016214 -120465.000000 0 0 1
29.096202 -28.306593 -26.338295 48.389647 -0.771643 2.146346 0.059695 -0.010296 -169188.000000 0 0 1
28.028602 -28.735813 -27.351075 48.573972 -0.797856 2.168905 0.066779 -0.012368 -719138.000000 0 0 1
28.075902 -28.182553 -28.680645 49.041737 -0.787294 2.195456 0.041996 -0.009256 260426.000000 0 0 1
29.167402 -28.457983 -29.564365 50.345266 -0.773088 2.198432 0.023720 -0.008795 -537836.000000 0 0 1
29.506902 -29.870023 -30.122605 51.674432 -0.791514 2.193127 0.030789 0.001477 -360258.000000 0 0 1
30.149402 -30.730963 -29.169955 52.002546 -0.794950 2.166309 0.039727 -0.001846 -387384.000000 0 0 1
31.352202 -30.358053 -28.609515 52.183104 -0.769290 2.151070 0.049290 -0.002766 -1398770.000000 0 0 1
32.623502 -30.312283 -29.458465 53.394087 -0.748691 2.155219 0.051501 -0.014537 -902670.000000 0 0 1
32.650202 -29.237463 -30.372895 53.323332 -0.730310 2.176814 0.060329 -0.019850 -182901.000000 0 0 1
33.927002 -28.856123 -30.817665 54.161294 -0.704805 2.176083 0.056781 -0.021354 -393219.000000 0 0 1
33.874202 -27.541263 -31.652835 53.924806 -0.682645 2.198121 0.047156 -0.021165 -94358.800000 0 0 1
33.677802 -26.324443 -31.021555 52.815789 -0.663455 2.198582 0.042178 -0.012951 1228590.000000 0 0 1
32.331302 -26.150643 -30.495565 51.566934 -0.680104 2.203563 0.054049 -0.014865 943014.000000 0 0 1
32.202702 -24.809223 -29.797655 50.402498 -0.656435 2.203335 0.053577 -0.020809 -440780.000000 0 0 1
32.971902 -24.778323 -28.603325 50.192249 -0.644459 2.177150 0.046600 -0.011415 247397.000000 0 0 1
32.818902 -23.638323 -27.768115 49.060359 -0.624198 2.172441 0.035583 -0.016634 -479731.000000 0 0 1
33.716702 -23.587923 -26.551385 48.971238 -0.610452 2.143830 0.031480 -0.019458 -580838.000000 0 0 1
33.385602 -24.473323 -25.470825 48.603548 -0.632565 2.122399 0.039028 -0.022965 134192.000000 0 0 1
32.583402 -23.865023 -24.446615 47.210744 -0.632160 2.115096 0.050042 -0.010244 68274.200000 0 0 1
33.085102 -22.631623 -23.566815 46.499560 -0.599936 2.102286 0.044488 -0.009106 -324044.000000 0 0 1
33.225002 -21.409523 -24.289615 46.392390 -0.572414 2.121831 0.039577 -0.013376 75880.100000 0 0 1
33.190502 -20.272423 -23.411615 45.394760 -0.548315 2.112660 0.013265 -0.017004 14302.000000 0 0 1
33.604302 -18.974423 -24.211715 45.557491 -0.514016 2.131113 0.008590 -0.010221 47371.100000 0 0 1
32.590102 -18.624823 -25.124435 45.168972 -0.519190 2.160641 0.008685 -0.017628 191336.000000 0 0 1
32.653402 -17.356923 -25.701045 45.033889 -0.488568 2.178160 0.008892 -0.016866 -485744.000000 0 0 1
31.861402 -17.241023 -26.993985 45.178281 -0.496004 2.211175 0.015476 -0.011389 -517519.000000 0 0 1
30.489402 -17.211423 -26.714155 44.039559 -0.513911 2.222566 0.024107 -0.007383 -804544.000000 0 0 1
29.731702 -17.036723 -27.823665 44.140462 -0.520342 2.252792 0.029112 -0.014162 657277.000000 0 0 1
28.210602 -16.649723 -27.636535 42.858248 -0.533178 2.271605 0.030987 -0.009561 1504840.000000 0 0 1
27.346102 -17.583623 -27.003625 42.263328 -0.571441 2.263913 0.027385 -0.010732 286936.000000 0 0 1
26.997902 -17.176423 -25.656605 41.014358 -0.566622 2.246635 0.032278 -0.010828 -27815.700000 0 0 1
26.170802 -18.222123 -24.911215 40.466347 -0.608223 2.233948 0.043201 -0.018296 -365597.000000 0 0 1
26.036902 -17.896123 -23.539515 39.399242 -0.602177 2.211128 0.041277 -0.003546 76381.400000 0 0 1
25.452602 -18.977023 -22.823415 39.100775 -0.640668 2.194084 0.054217 -0.009123 -68436.600000 0 0 1
25.524802 -18.731623 -21.302915 38.160233 -0.633091 2.163070 0.043672 -0.020442 453208.000000 0 0 1
24.637602 -17.681823 -20.814115 36.781594 -0.622491 2.172301 0.038051 -0.020376 419035.000000 0 0 1
24.869502 -16.327123 -21.192615 36.526620 -0.580939 2.189766 0.042538 -0.015360 321996.000000 0 0 1
26.191802 -15.611023 -20.761315 36.888301 -0.537493 2.168585 0.033375 -0.005167 517685.000000 0 0 1
26.068002 -14.898823 -19.566715 35.838136 -0.519228 2.148348 0.031792 -0.005319 -677331.000000 0 0 1
27.216102 -14.180323 -19.355515 36.282692 -0.480327 2.133487 0.016470 0.003139 -1120650.000000 0 0 1
27.208202 -13.203923 -18.167715 35.280245 -0.451812 2.111751 0.038153 -0.005334 -137807.000000 0 0 1
27.262602 -13.709223 -16.832315 34.849951 -0.465932 2.074867 0.040379 -0.005418 270471.000000 0 0 1
27.147402 -12.611923 -15.926815 33.907307 -0.434906 2.059766 0.037380 -0.008796 -141216.000000 0 0 1
27.883702 -12.926923 -14.630415 34.039025 -0.434107 2.015082 0.048706 -0.013464 -384547.000000 0 0 1
27.289902 -13.970423 -13.910015 33.666006 -0.473143 1.996736 0.069020 -0.014436 -40946.400000 0 0 1
27.831602 -14.034523 -12.680715 33.650653 -0.467054 1.957172 0.082900 -0.016765 -323313.000000 0 0 1
27.235302 -15.236823 -11.922115 33.407473 -0.510070 1.935711 0.078013 -0.030552 1366510.000000 0 0 1
25.834802 -15.048423 -11.547815 32.050648 -0.527442 1.939385 0.071473 -0.034905 1511990.000000 0 0 1
25.250002 -16.257123 -11.121415 32.024093 -0.572037 1.925468 0.051406 -0.040411 -336637.000000 0 0 1
23.820102 -16.236523 -10.588715 30.710630 -0.598291 1.922811 0.048765 -0.035777 -546040.000000 0 0 1
23.653902 -15.671623 -9.317415 29.865047 -0.585139 1.888077 0.038448 -0.025647 416584.000000 0 0 1
22.266302 -15.771423 -9.017015 28.737302 -0.616281 1.889961 0.032564 -0.017464 84037.900000 0 0 1
21.884702 -15.497123 -7.586515 27.868552 -0.616159 1.846501 0.032008 -0.013249 -419614.000000 0 0 1
22.013002 -14.142123 -7.212715 27.140286 -0.571045 1.839785 0.050365 -0.010863 238709.000000 0 0 1
21.907302 -13.855523 -5.822115 26.566942 -0.563947 1.791738 0.055114 -0.010387 -252342.000000 0 0 1
22.776902 -14.638723 -4.794115 27.496600 -0.571227 1.746045 0.052656 -0.007847 -214046.000000 0 0 1
24.136202 -14.285023 -4.911315 28.473481 -0.534406 1.744151 0.053828 -0.008138 -41215.900000 0 0 1
24.944602 -15.098723 -4.099015 29.444974 -0.544300 1.710459 0.049982 -0.013885 -472993.000000 0 0 1
26.442702 -14.892723 -4.307515 30.652314 -0.512927 1.711791 0.057969 -0.018840 -210468.000000 0 0 1
27.040702 -13.792923 -3.579415 30.565610 -0.471679 1.688172 0.068879 -0.022029 721746.000000 0 0 1
28.208002 -13.248323 -4.200915 31.446099 -0.439087 1.704788 0.063123 -0.027803 150228.000000 0 0 1
28.922702 -12.151823 -3.468515 31.562954 -0.397754 1.680911 0.087123 -0.036390 -1155610.000000 0 0 1
29.616802 -12.464523 -2.296915 32.214827 -0.398359 1.642157 0.088999 -0.041430 164487.000000 0 0 1
29.959902 -11.316523 -1.511115 32.061548 -0.361155 1.617945 0.093043 -0.041682 -315229.000000 0 0 1
31.320502 -10.666823 -1.806315 33.136350 -0.328249 1.625335 0.095306 -0.031194 -581147.000000 0 0 1
31.416902 -10.254223 -3.154215 33.198191 -0.315490 1.665952 0.093792 -0.026518 422272.000000 0 0 1
32.494202 -10.910123 -3.829415 34.490120 -0.323929 1.682055 0.120681 -0.026217 38534.500000 0 0 1
32.383302 -10.835523 -5.336015 34.562405 -0.322892 1.725804 0.119006 -0.017437 -219337.000000 0 0 1
31.178202 -11.419923 -5.768715 33.701231 -0.351103 1.742816 0.107324 -0.025028 189829.000000 0 0 1
31.085802 -11.360623 -7.142115 33.858539 -0.350381 1.783333 0.107647 -0.014711 -6949.690000 0 0 1
29.819402 -12.004923 -7.746315 33.065394 -0.382735 1.807267 0.082372 -0.015775 -66728.900000 0 0 1
29.767002 -13.359823 -7.587515 33.498204 -0.421867 1.799284 0.086305 -0.015715 -21384.600000 0 0 1
28.568402 -14.001023 -7.942915 32.791342 -0.455686 1.815456 0.085147 -0.015569 -125026.000000 0 0 1
28.780702 -15.564723 -8.090415 33.705255 -0.495756 1.813197 0.083758 -0.027069 -91757.800000 0 0 1
29.221202 -16.006523 -9.324915 34.598287 -0.501130 1.843690 0.092686 -0.035503 121504.000000 0 0 1
29.478002 -17.388823 -9.345415 35.477606 -0.532954 1.837359 0.097987 -0.038420 -80016.100000 0 0 1
29.989902 -17.801323 -10.760215 36.497446 -0.535683 1.870065 0.088839 -0.045028 -177144.000000 0 0 1
31.339802 -17.442223 -10.972715 37.507530 -0.507859 1.867686 0.090198 -0.032459 27739.800000 0 0 1
31.760602 -17.794223 -12.301515 38.427822 -0.510687 1.896653 0.087324 -0.023968 -85349.000000 0 0 1
31.132002 -17.235123 -13.631515 38.106026 -0.505614 1.936628 0.073153 -0.021285 -362171.000000 0 0 1
31.499302 -15.901423 -13.925015 37.933723 -0.467495 1.946673 0.072218 -0.018461 -99590.000000 0 0 1
30.816302 -15.318523 -15.005515 37.542870 -0.461318 1.981975 0.062086 -0.018615 -1652680.000000 0 0 1
31.365902 -14.021123 -15.705015 37.776437 -0.420371 1.999548 0.054814 -0.005207 275480.000000 0 0 1
32.533302 -14.249423 -16.484615 39.156153 -0.412826 2.005340 0.027111 -0.006583 970162.000000 0 0 1
33.714102 -14.646423 -15.773715 39.999606 -0.409831 1.976153 0.045746 -0.013735 -339498.000000 0 0 1
34.825402 -15.003323 -16.802415 41.475649 -0.406786 1.987901 0.044961 -0.010115 371466.000000 0 0 1
36.169002 -15.167023 -16.383015 42.504570 -0.397065 1.966482 0.054602 -0.010583 657687.000000 0 0 1
-36.547801 -15.690223 -17.444915 43.430979 0.405513 1.984136 0.060878 -0.016823 996725.000000 0 0 1
-35.038401 -15.730823 -17.015215 42.007927 0.421988 1.987827 0.075572 -0.015343 488306.000000 0 0 1
-34.601801 -16.496223 -15.958715 41.522170 0.444871 1.965291 0.059585 -0.016050 -45733.400000 0 0 1
-34.980001 -15.941023 -14.692015 41.153032 0.427599 1.935861 0.047348 -0.016998 -594513.000000 0 0 1
-34.415201 -16.678723 -13.502515 40.557414 0.451278 1.910199 0.038052 -0.015238 351924.000000 0 0 1
-33.033501 -16.447423 -13.200815 39.191727 0.461967 1.914341 0.061787 -0.018957 878659.000000 0 0 1
-32.595201 -17.164023 -12.019415 38.749415 0.484686 1.886182 0.066065 -0.010469 -23756.000000 0 0 1
-31.170401 -16.898723 -11.510815 37.278139 0.496789 1.884708 0.086330 -0.013306 -179521.000000 0 0 1
-30.947201 -15.518523 -11.116015 36.360963 0.464808 1.881483 0.076969 -0.027183 509268.000000 0 0 1
-29.724701 -15.237423 -10.435215 34.994723 0.473691 1.873596 0.103913 -0.037284 302473.000000 0 0 1
-29.838501 -15.514123 -8.924715 34.794751 0.479469 1.830192 0.092719 -0.030330 -90707.700000 0 0 1
-29.740501 -16.843423 -8.595215 35.243099 0.515306 1.817165 0.074664 -0.027421 -126553.000000 0 0 1
-29.965901 -16.910623 -7.178415 35.149026 0.513778 1.776471 0.094381 -0.030210 -33148.700000 0 0 1
-30.165901 -18.343123 -6.673915 35.930390 0.546336 1.757627 0.079482 -0.036122 444828.000000 0 0 1
-31.293101 -19.093123 -7.147015 37.348164 0.547841 1.763346 0.072216 -0.031480 229565.000000 0 0 1
-31.139201 -19.510123 -8.516815 37.720431 0.559710 1.798548 0.062779 -0.021882 36439.700000 0 0 1
-32.431801 -20.211123 -8.979915 39.254937 0.557296 1.801599 0.055763 -0.020282 -445341.000000 0 0 1
-33.513401 -19.414223 -9.268415 39.824159 0.525058 1.805684 0.051420 -0.021930 -623616.000000 0 0 1
-34.675301 -20.198623 -9.423715 41.220957 0.527458 1.801451 0.048490 -0.018911 465987.000000 0 0 1
-35.992401 -19.436123 -9.747115 42.050233 0.495138 1.804721 0.056827 -0.031764 240826.000000 0 0 1
-36.182601 -19.171923 -11.135415 42.435136 0.487254 1.836315 0.045570 -0.027660 351972.000000 0 0 1
36.144202 -18.515423 -11.429515 42.188364 -0.473412 1.845141 0.077992 -0.039700 329086.000000 0 0 1
35.847002 -18.298723 -12.952815 42.280329 -0.471986 1.882158 0.067716 -0.028186 -650621.000000 0 0 1
35.202302 -19.371523 -13.466115 42.376812 -0.503067 1.894174 0.048242 -0.019919 -548803.000000 0 0 1
34.790202 -19.146923 -14.764915 42.367033 -0.503115 1.926767 0.042475 -0.013509 55600.900000 0 0 1
33.618402 -20.131323 -15.030915 41.968983 -0.539550 1.937075 0.062562 -0.028226 -649445.000000 0 0 1
32.540502 -19.989723 -14.150415 40.727233 -0.550870 1.925640 0.079212 -0.032648 -248584.000000 0 0 1
31.386902 -20.765723 -14.363715 40.282368 -0.584490 1.935396 0.083696 -0.030970 421355.000000 0 0 1
30.572002 -20.537323 -15.650915 40.017247 -0.591527 1.972627 0.067066 -0.029601 -742475.000000 0 0 1
30.003102 -19.238623 -15.850215 39.006923 -0.570179 1.989245 0.060414 -0.030323 883636.000000 0 0 1
29.137202 -19.203523 -17.019215 38.825320 -0.582727 2.024562 0.044049 -0.029397 298180.000000 0 0 1
28.265802 -17.955223 -17.128015 37.612691 -0.565920 2.043594 0.037058 -0.024065 -18411.100000 0 0 1
27.229602 -17.943623 -16.157715 36.393634 -0.582659 2.030822 0.049202 -0.030299 327567.000000 0 0 1
26.658602 -16.646523 -15.916515 35.229579 -0.558192 2.039572 0.041601 -0.013079 -263536.000000 0 0 1
25.302002 -16.632823 -15.142915 33.854837 -0.581540 2.034529 0.043583 -0.024351 903303.000000 0 0 1
24.082002 -17.016623 -15.751315 33.430707 -0.615150 2.061405 0.041885 -0.030498 440601.000000 0 0 1
23.728402 -16.187523 -16.820015 33.286422 -0.598680 2.100539 0.036632 -0.024298 -1313640.000000 0 0 1
22.781802 -16.870523 -17.777915 33.461609 -0.637410 2.130922 0.032147 -0.021516 -509222.000000 0 0 1
21.471102 -17.038323 -17.314515 32.420751 -0.670794 2.134188 0.033929 -0.015194 -429984.000000 0 0 1
20.735102 -17.810923 -18.313515 32.902253 -0.709681 2.161088 0.041443 -0.012250 345110.000000 0 0 1
19.293002 -17.957023 -17.789215 31.798283 -0.749548 2.164506 0.053088 -0.008535 -197245.000000 0 0 1
18.576802 -16.764423 -17.580915 30.581563 -0.734161 2.183261 0.067201 -0.013780 77770.000000 0 0 1
17.197902 -17.062723 -17.762815 30.040339 -0.781453 2.203465 0.072326 -0.014692 40137.900000 0 0 1
16.310702 -15.894123 -17.276415 28.585602 -0.772464 2.219777 0.072545 -0.009272 -212228.000000 0 0 1
15.576202 -15.156623 -18.225415 28.363833 -0.771747 2.268629 0.075482 -0.004952 -157670.000000 0 0 1
14.218502 -15.138223 -17.876415 27.402515 -0.816717 2.281496 0.071485 0.002395 191459.000000 0 0 1
13.231702 -14.578023 -18.969215 27.339126 -0.833772 2.337616 0.058593 0.000367 435758.000000 0 0 1
13.395802 -13.218723 -19.426915 27.047868 -0.778745 2.372069 0.074299 -0.018993 -138515.000000 0 0 1
12.657102 -13.004223 -20.616415 27.465408 -0.798924 2.419814 0.058724 -0.006600 88925.400000 0 0 1
12.780802 -11.526423 -21.176215 27.288082 -0.733839 2.459134 0.061761 -0.001193 174324.000000 0 0 1
13.990102 -11.300223 -21.905915 28.342320 -0.679437 2.454203 0.073867 0.001995 115710.000000 0 0 1
14.099702 -9.936623 -22.244115 28.148512 -0.613900 2.481999 0.057133 0.001273 785336.000000 0 0 1
15.383102 -9.408023 -23.002015 29.227443 -0.548892 2.476729 0.063134 0.006360 876955.000000 0 0 1
15.718302 -10.019823 -24.272315 30.604038 -0.567511 2.486692 0.081790 0.004015 533440.000000 0 0 1
17.095702 -9.795123 -24.576715 31.499562 -0.520298 2.465820 0.083528 -0.007471 535666.000000 0 0 1
22.262702 5.333577 -7.258615 24.015879 0.235143 1.877840 0.132053 0.010285 -228039.000000 0 1 0
22.109702 6.703877 -7.202815 24.200443 0.294399 1.873007 0.123229 -0.000180 587353.000000 0 1 0
21.920102 7.119277 -5.888215 23.787519 0.314036 1.820930 0.123851 -0.003953 -267599.000000 0 1 0
21.546002 8.612877 -5.822115 23.922978 0.380285 1.816634 0.104278 -0.001813 -238644.000000 0 1 0
20.194602 8.841677 -6.168915 22.892198 0.412682 1.843646 0.065455 -0.022791 324664.000000 0 1 0
19.973302 10.212877 -6.528215 23.363502 0.472668 1.853986 0.077602 -0.009897 78853.500000 0 1 0
19.595102 11.269477 -5.452415 23.252913 0.521922 1.807483 0.100047 -0.008550 -80335.900000 0 1 0
20.680102 11.496377 -4.580315 24.100054 0.507373 1.762014 0.113430 -0.007978 178159.000000 0 1 0
20.388302 12.428277 -3.527315 24.136836 0.547433 1.717460 0.138502 -0.031967 -287668.000000 0 1 0
21.441502 12.353177 -2.422815 24.863809 0.522686 1.668395 0.126831 -0.050535 -546949.000000 0 1 0
22.728202 12.753177 -2.869215 26.219212 0.511338 1.680448 0.115788 -0.061860 481058.000000 0 0 1
23.642702 12.904277 -1.797815 26.994997 0.499616 1.637444 0.119254 -0.066525 -170996.000000 0 0 1
24.381902 11.643477 -1.363615 27.053782 0.445524 1.621222 0.101120 -0.063669 -646774.000000 0 0 1
25.490502 11.298777 -2.196215 27.968758 0.417230 1.649401 0.087059 -0.046079 530498.000000 0 0 1
26.227702 10.227277 -1.675715 28.201021 0.371806 1.630252 0.111793 -0.052134 483093.000000 0 0 1
27.693802 9.979677 -2.143715 29.515015 0.345872 1.643492 0.108515 -0.041874 1642090.000000 0 0 1
28.625602 11.102677 -1.885515 30.761172 0.369996 1.632130 0.095661 -0.047206 2180150.000000 0 0 1
30.022402 10.784277 -2.086615 31.968722 0.344854 1.636113 0.099218 -0.040655 1658030.000000 0 0 1
30.987302 11.945377 -1.621915 33.249594 0.367938 1.619596 0.081260 -0.037644 -346937.000000 0 0 1
30.808902 12.323777 -0.269615 33.183378 0.380512 1.578921 0.095394 -0.041367 111877.000000 0 0 1
31.723102 13.288577 0.180885 34.394392 0.396686 1.565537 0.088536 -0.037844 867529.000000 0 0 1
33.261902 12.925777 0.207485 35.685752 0.370646 1.564982 0.093751 -0.031985 918282.000000 0 0 1
34.143302 14.037177 0.421985 36.918633 0.390060 1.559366 0.083849 -0.033037 137448.000000 0 0 1
34.987102 14.348977 -0.634415 37.820536 0.389202 1.587571 0.096146 -0.026227 -404070.000000 0 0 1
34.489002 15.520577 -1.559615 37.852503 0.422867 1.612010 0.043237 -0.001731 356399.000000 0 0 1
33.296602 15.096277 -2.208015 36.625628 0.425668 1.631119 0.073928 -0.010824 227749.000000 0 0 1
32.780002 15.989977 -3.215915 36.613522 0.453837 1.658744 0.050850 -0.001754 154179.000000 0 0 1
31.367302 15.683977 -3.739115 35.268623 0.463656 1.677014 0.069859 -0.021521 -518974.000000 0 0 1
31.295202 14.552877 -4.606015 34.819409 0.435274 1.703468 0.058855 -0.022803 393303.000000 0 0 1
30.072902 14.533077 -5.331415 33.823272 0.450167 1.729082 0.046633 -0.030011 339839.000000 0 0 1
28.910802 13.815877 -4.612115 32.372589 0.445795 1.713753 0.066049 -0.040622 -471516.000000 0 0 1
27.696702 13.766977 -5.324415 31.384492 0.461294 1.741272 0.076060 -0.041848 268524.000000 0 0 1
26.829302 12.792077 -4.763015 30.102076 0.444912 1.729693 0.080353 -0.027413 -64191.100000 0 0 1
25.660902 12.437277 -5.673015 29.074918 0.451315 1.767173 0.075981 -0.018699 -426879.000000 0 0 1
26.168002 11.654277 -6.751115 29.430665 0.418992 1.802248 0.070119 -0.010874 370886.000000 0 0 1
25.313502 11.473377 -7.866415 28.884118 0.425554 1.846625 0.078836 -0.010220 -216753.000000 0 0 1
25.007702 12.731877 -8.746315 29.393603 0.470916 1.872931 0.089404 -0.003518 -122066.000000 0 0 1
24.267202 13.729477 -8.070615 29.026375 0.514864 1.852554 0.097382 -0.017362 114557.000000 0 0 1
24.047702 14.825277 -8.912415 29.622828 0.552460 1.876394 0.092300 -0.018287 -1115660.000000 0 0 1
23.014802 15.869377 -8.387315 29.186731 0.603664 1.862274 0.088723 -0.015836 750032.000000 0 0 1
21.628902 15.555977 -8.467415 27.955231 0.623510 1.878522 0.123723 -0.026220 743870.000000 0 0 1
21.194102 14.350377 -7.837315 26.768392 0.595186 1.867932 0.135407 -0.033456 -1404720.000000 0 0 1
19.710202 13.985277 -7.980015 25.451143 0.617103 1.889718 0.146864 -0.035798 -255140.000000 0 0 1
18.882102 14.714977 -7.119815 24.975109 0.661996 1.859883 0.197917 -0.062315 528273.000000 0 1 0
17.517902 14.744977 -7.565815 24.114991 0.699661 1.889925 0.191327 -0.057257 395636.000000 0 1 0
16.547702 15.175177 -6.473415 23.367018 0.742159 1.851500 0.166849 -0.037307 -400387.000000 0 1 0
16.359502 14.158177 -5.527815 22.330339 0.713390 1.820944 0.120525 -0.042079 325233.000000 0 1 0
15.956302 14.727177 -4.269915 22.129742 0.745361 1.764963 0.107017 -0.030164 -183230.000000 0 1 0
15.860602 13.722277 -3.119715 21.203589 0.713241 1.718464 0.084961 -0.024763 -1146060.000000 0 1 0
17.096002 13.308377 -2.682915 21.830809 0.661462 1.694004 0.085362 -0.022400 -511212.000000 0 1 0
17.039102 12.421077 -1.518615 21.140491 0.629909 1.642693 0.081592 -0.025567 -204442.000000 0 1 0
16.896302 13.180677 -0.153315 21.429857 0.662484 1.577951 0.084981 -0.026511 -271606.000000 0 1 0
15.694502 13.922777 -0.056615 20.980093 0.725649 1.573495 0.071584 -0.034141 434512.000000 0 1 0
15.842202 14.772577 1.039485 21.686054 0.750474 1.522845 0.068952 -0.022462 -424025.000000 0 1 0
14.650502 15.664477 1.397185 21.493375 0.818834 1.505745 0.066036 -0.010281 -549983.000000 0 1 0
14.497002 16.775477 0.518685 22.177663 0.858128 1.547406 0.068792 -0.015411 -684514.000000 0 1 0
13.416402 17.538177 0.859885 22.098120 0.917775 1.531874 0.044179 -0.020762 -990365.000000 0 1 0
13.362102 18.937077 0.329185 23.179021 0.956318 1.556594 0.042896 -0.024281 -396649.000000 0 1 0
13.148502 19.095577 -1.040315 23.207896 0.967788 1.615637 0.059286 -0.030287 25263.800000 0 1 0
12.700102 20.381577 -1.330915 24.051457 1.013552 1.626161 0.061077 -0.029408 459469.000000 0 1 0
11.156002 20.561477 -1.269215 23.427369 1.073677 1.624999 0.050123 -0.034422 147182.000000 0 1 0
10.528102 20.641277 -0.027615 23.171189 1.099140 1.571988 0.045631 -0.030954 -624952.000000 0 1 0
9.134002 20.544377 -0.124615 22.483704 1.152443 1.576339 0.036496 -0.030927 -74359.800000 0 1 0
8.517802 20.340177 1.278685 22.088703 1.174217 1.512875 0.030340 -0.032047 -72348.800000 0 1 0
8.576302 21.453277 2.187485 23.207351 1.190491 1.476398 0.038173 -0.024195 -362907.000000 0 1 0
7.564702 21.287477 3.120885 22.806168 1.229355 1.433522 0.037421 -0.031222 -212387.000000 0 1 0
6.994902 22.698677 3.565785 24.018189 1.271867 1.421784 0.037690 -0.023533 129661.000000 0 1 0
7.667902 23.252777 4.679585 24.927633 1.252263 1.381949 0.034703 -0.019772 103401.000000 0 1 0
7.225102 24.543077 4.955185 26.059904 1.284499 1.379486 0.030826 -0.016699 -136060.000000 0 0 1
7.697202 25.024277 6.317985 26.932848 1.272391 1.334007 0.036261 -0.014247 -210408.000000 0 0 1
7.309502 24.263977 7.430185 26.407897 1.278194 1.285583 0.052460 -0.018273 196581.000000 0 0 1
7.911402 24.657077 8.660285 27.304986 1.260316 1.248054 0.055231 -0.011102 49410.900000 0 0 1
7.399202 23.764577 9.829585 26.760494 1.268956 1.194674 0.062476 -0.014584 -579082.000000 0 0 1
6.139202 24.026477 10.334685 26.865724 1.320631 1.175936 0.063182 -0.015606 -583669.000000 0 0 1
5.614402 22.972477 11.125785 26.135021 1.331098 1.131056 0.059734 -0.020400 1398750.000000 0 0 1
4.191602 23.331077 11.753585 26.458561 1.393035 1.110486 0.053080 -0.025578 1414120.000000 0 0 1
3.135902 23.567777 10.851985 26.135026 1.438514 1.142603 0.040512 -0.017687 -280416.000000 0 0 1
1.887102 23.487177 11.481385 26.211273 1.490623 1.117388 0.039066 -0.021680 -307921.000000 0 0 1
0.716502 23.718977 10.521985 25.957955 1.540598 1.153438 0.058218 -0.022722 -375902.000000 0 0 1
0.555202 25.004477 9.935885 26.911966 1.548596 1.192649 0.056281 -0.020299 240043.000000 0 0 1
-0.450598 25.071877 8.935785 26.620487 -1.552826 1.228476 0.065634 -0.024270 77101.700000 0 0 1
-1.840398 25.588477 9.300185 27.288288 -1.498997 1.223016 0.070996 -0.027645 -115888.000000 0 0 1
-2.626798 24.661177 10.051885 26.760309 -1.464681 1.185723 0.063023 -0.027690 106888.000000 0 0 1
-3.933498 25.186877 10.133385 27.432402 -1.415875 1.192439 0.069196 -0.032681 -316822.000000 0 0 1
-5.052298 24.204177 10.613285 26.907429 -1.365014 1.165341 0.056044 -0.038019 119075.000000 0 0 1
-5.442298 24.126277 11.957185 27.471260 -1.348934 1.120467 0.055357 -0.026581 56238.900000 0 0 1
-5.994998 25.273577 12.520685 28.835070 -1.337897 1.121627 0.047740 -0.023633 -465978.000000 0 0 1
-6.405498 25.097777 13.996785 29.442126 -1.320909 1.075378 0.041836 -0.022897 914227.000000 0 0 1
-7.611698 24.297777 14.116085 29.113292 -1.267213 1.064585 0.037104 -0.028774 924282.000000 0 0 1
-7.971998 24.119777 15.468385 29.742013 -1.251583 1.023845 0.030830 -0.009792 -660940.000000 0 0 1
-9.343498 23.522177 15.730285 29.799927 -1.192688 1.014714 0.024381 -0.011035 -1009860.000000 0 0 1
-10.405198 24.394977 15.564285 30.751098 -1.167630 1.040096 0.020179 -0.003362 -462932.000000 0 0 1
-11.598598 23.632777 15.415385 30.506880 -1.114548 1.041057 0.012685 -0.005752 677146.000000 0 0 1
-12.849898 24.548177 15.152385 31.580495 -1.088560 1.070367 0.009233 -0.005615 238341.000000 0 0 1
-13.305598 25.336677 16.245085 32.907278 -1.087230 1.054500 0.013582 -0.003300 179755.000000 0 0 1
-14.084598 26.389777 15.651085 33.760224 -1.080543 1.088748 0.015074 0.003210 -231306.000000 0 0 1
-14.717598 27.266677 16.754185 35.224737 -1.075845 1.075108 0.027809 0.004003 154596.000000 0 0 1
-15.784898 26.572477 17.404285 35.470673 -1.034777 1.057941 0.023219 -0.001811 160139.000000 0 0 1
-16.085598 27.286577 18.563785 36.714001 -1.038129 1.040682 0.042037 -0.003143 -104184.000000 0 0 1
-17.349998 26.739877 19.272885 37.248994 -0.995234 1.026978 0.037975 -0.011753 -18226.100000 0 0 1
-18.560798 27.154177 18.711785 37.841557 -0.971207 1.053563 0.040784 -0.005579 69050.700000 0 0 1
-19.678998 26.340077 19.069285 38.009213 -0.929146 1.045232 0.049138 -0.010631 454349.000000 0 0 1
-20.864098 26.429777 18.108985 38.233219 -0.902542 1.077371 0.055389 -0.010204 40455.300000 0 0 1
-21.590098 27.664177 18.038385 39.456588 -0.908099 1.095985 0.050884 -0.018797 212802.000000 0 0 1
-22.368998 27.768677 16.886385 39.454043 -0.892682 1.128516 0.057585 -0.020232 -366150.000000 0 0 1
-23.331198 28.963977 16.758185 40.793303 -0.892696 1.147457 0.062902 -0.019867 377220.000000 0 0 1
-24.513098 28.823677 17.549585 41.709523 -0.866041 1.136516 0.065045 -0.023526 180388.000000 0 0 1
-25.311838 29.970677 17.448685 42.934686 -0.869473 1.152285 0.059248 -0.028872 -451261.000000 0 0 1
-26.671308 29.913977 18.136985 43.990396 -0.842641 1.145826 0.061010 -0.019394 -435098.000000 0 0 1
-27.583448 29.059277 17.479685 43.713014 -0.811447 1.159417 0.077437 -0.018241 332404.000000 0 0 1
-28.859688 29.069377 18.127985 44.794354 -0.789018 1.154153 0.109529 -0.027582 686714.000000 0 0 1
-29.257358 27.771877 18.926585 44.558790 -0.759356 1.132105 0.102333 -0.031225 -372141.000000 0 0 1
-29.373418 26.582477 18.160985 43.580353 -0.735562 1.140958 0.103419 -0.026299 20549.600000 0 0 1
-29.652558 25.540277 19.077685 43.537777 -0.711028 1.117216 0.101561 -0.023724 -43650.900000 0 0 1
-29.925158 24.252677 18.231585 42.615703 -0.681077 1.128724 0.097634 -0.021656 89866.800000 0 0 1
-31.163598 24.206977 17.540385 43.183477 -0.660416 1.152524 0.101044 -0.022455 219796.000000 0 0 1
-31.075618 23.310477 16.384585 42.160728 -0.643579 1.171661 0.091598 -0.018960 -197347.000000 0 0 1
-31.451458 21.871677 16.682085 41.783447 -0.607639 1.160097 0.093502 -0.013649 -1008530.000000 0 0 1
-32.804838 21.590977 16.692885 42.672943 -0.582093 1.168881 0.108220 -0.010756 -788208.000000 0 0 1
-32.998388 20.247877 17.010385 42.287390 -0.550361 1.156816 0.089508 -0.006660 228913.000000 0 0 1
-34.291603 19.663377 16.400285 42.796399 -0.520644 1.177520 0.098057 -0.017684 -99099.700000 0 0 1
-34.105263 19.635977 15.051385 42.134128 -0.522395 1.205501 0.075831 -0.013133 851007.000000 0 0 1
-35.334757 19.297877 14.387185 42.754464 -0.499878 1.227591 0.102512 -0.019695 704748.000000 0 0 1
-35.344978 19.815777 12.899785 42.524545 -0.510975 1.262591 0.099273 -0.015390 -166479.000000 0 0 1
-35.360939 21.191777 12.827385 43.174405 -0.539904 1.269136 0.093116 -0.023756 -22784.200000 0 0 1
-35.560793 21.699177 11.533785 43.225600 -0.547885 1.300697 0.054958 -0.017725 -429549.000000 0 0 1
-34.481993 21.442177 10.485985 41.937223 -0.556322 1.318075 0.079648 -0.021444 -729353.000000 0 0 1
-34.593461 20.236477 9.819085 41.263022 -0.529302 1.330528 0.103644 -0.020001 1228980.000000 0 0 1
-33.319798 19.794977 9.265885 39.848547 -0.536063 1.336121 0.131253 -0.017002 663953.000000 0 0 1
-32.680948 18.689777 10.133985 38.987816 -0.519491 1.307850 0.103521 -0.023691 -161928.000000 0 0 1
-32.330248 19.194077 11.449385 39.303256 -0.535765 1.275202 0.100601 -0.023803 237658.000000 0 0 1
-31.718528 18.153977 12.194885 38.527226 -0.519838 1.248731 0.087957 -0.031561 -193861.000000 0 0 1
-31.195278 18.546177 13.604085 38.757931 -0.536379 1.212156 0.069359 -0.015005 -87630.200000 0 0 1
-29.926188 19.141277 13.615785 38.044117 -0.569041 1.204784 0.072112 -0.009697 -435495.000000 0 0 1
-29.963348 20.542577 13.276985 38.679168 -0.600989 1.220411 0.067619 -0.003098 -542193.000000 0 0 1
-28.718888 21.274077 13.740985 38.290672 -0.637567 1.203750 0.090071 -0.010252 -521894.000000 0 0 1
-28.528298 21.318177 15.141785 38.698865 -0.641748 1.168783 0.080528 -0.012443 -363579.000000 0 0 1
-27.506038 22.184677 15.540585 38.603780 -0.678715 1.156478 0.106951 -0.014415 -446248.000000 0 0 1
-26.927548 21.795777 16.939285 38.562782 -0.680460 1.116016 0.097415 -0.015186 -301250.000000 0 0 1
-26.070768 20.681177 16.858985 37.304442 -0.670624 1.101869 0.106172 -0.022986 -172394.000000 0 0 1
-25.762478 20.354177 18.219585 37.549315 -0.668657 1.064184 0.092377 -0.015796 -411267.000000 0 0 1
-24.631898 19.317877 18.307785 36.264111 -0.665071 1.041593 0.100244 -0.023280 -282021.000000 0 0 1
-24.060398 19.290277 19.557985 36.517562 -0.675803 1.005605 0.103125 -0.035751 -61542.000000 0 0 1
-22.968498 18.384977 19.594785 35.348478 -0.675011 0.983236 0.090723 -0.028890 359310.000000 0 0 1
-22.169098 18.405677 20.943885 35.621400 -0.692910 0.942264 0.092592 -0.032780 275705.000000 0 0 1
-22.805898 17.578877 21.963585 36.214983 -0.656683 0.919173 0.110231 -0.019793 290987.000000 0 0 1
-23.718398 18.334377 22.740785 37.627850 -0.658061 0.921833 0.098842 -0.033731 50696.700000 0 0 1
-24.505498 17.338877 23.608585 38.190593 -0.615775 0.904374 0.101096 -0.033549 -2357.780000 0 0 1
-23.657098 16.837077 24.609185 38.062546 -0.618544 0.867748 0.093280 -0.030156 84646.100000 0 0 1
-24.197098 15.650177 25.155685 38.252269 -0.574108 0.853133 0.093536 -0.025535 131884.000000 0 0 1
20.847702 25.102777 33.645258 46.869814 0.877736 0.770094 0.090967 -0.018131 -14273.400000 0 0 1
21.821202 24.222477 33.115535 46.470764 0.837503 0.777585 0.099440 -0.028297 -69433.500000 0 0 1
21.752702 22.902677 33.632109 46.139261 0.811145 0.754044 0.101956 -0.025766 525065.000000 0 0 1
20.631502 21.991477 33.010109 44.709632 0.817294 0.740217 0.087390 -0.028081 591477.000000 0 0 1
20.985802 21.645877 31.702229 43.749048 0.800880 0.760287 0.096290 -0.023215 70146.400000 0 0 1
20.059102 20.673677 31.298209 42.536412 0.800485 0.743952 0.103674 -0.021959 -185497.000000 0 0 1
20.293402 19.963177 29.907169 41.289095 0.777195 0.760726 0.098777 -0.012245 893510.000000 0 0 1
21.480502 19.116877 29.876839 41.466763 0.727243 0.766272 0.083606 -0.007792 757876.000000 0 0 1
21.595202 18.381177 28.654969 40.315353 0.705173 0.780203 0.074419 -0.002910 -322324.000000 0 0 1
22.671702 17.299177 28.680549 40.445537 0.651788 0.782554 0.086704 -0.003485 450169.000000 0 0 1
23.991102 17.823177 28.530179 41.318394 0.638947 0.808622 0.094676 -0.010113 1296750.000000 0 0 1
25.028402 16.972877 29.093679 41.963575 0.595907 0.804727 0.083937 -0.002260 725315.000000 0 0 1
26.480002 17.425177 29.233039 43.120736 0.582014 0.825847 0.070639 -0.020789 10477.200000 0 0 1
27.142102 17.584977 27.966069 42.755422 0.574887 0.857812 0.062370 -0.011342 1454390.000000 0 0 1
28.575902 17.638477 28.182609 43.840136 0.553007 0.872584 0.064005 -0.017468 1925860.000000 0 0 1
29.570302 17.413177 26.976919 43.650609 0.532198 0.904576 0.057538 0.001140 493443.000000 0 0 1
29.694202 18.552677 26.177629 43.717453 0.558449 0.928805 0.067214 -0.001667 587340.000000 0 0 1
30.784402 18.336677 25.264639 43.843074 0.537214 0.956662 0.068016 -0.002773 497011.000000 0 0 1
31.062102 19.619777 24.406469 44.107432 0.563353 0.984426 0.074064 -0.008123 -48274.000000 0 0 1
30.078202 19.880277 23.422279 42.994497 0.584037 0.994677 0.068433 -0.010908 131575.000000 0 0 1
30.293602 21.016177 22.616479 43.253753 0.606519 1.020571 0.059906 -0.018192 -241093.000000 0 0 1
30.820302 20.680477 21.208079 42.747582 0.590998 1.051668 0.081368 -0.019974 385985.000000 0 0 1
29.820102 19.887777 20.542579 41.312948 0.588182 1.050378 0.086313 -0.028256 822295.000000 0 0 1
30.239502 19.589477 19.188579 40.821277 0.574835 1.081434 0.090299 -0.034179 139457.000000 0 0 1
31.420402 18.600977 19.058179 41.188010 0.534519 1.089745 0.125593 -0.055083 132771.000000 0 0 1
31.008202 17.271077 19.326879 40.414440 0.508190 1.072173 0.119106 -0.046393 1001560.000000 0 0 1
32.136302 16.396877 19.208779 40.872688 0.471797 1.081544 0.133620 -0.032764 -352.819000 0 0 1
31.651902 14.988277 19.530879 40.099209 0.442252 1.062072 0.132140 -0.031754 174307.000000 0 0 1
31.076302 14.812077 20.836679 40.240544 0.444782 1.026515 0.107077 -0.034178 23316.800000 0 0 1
29.688802 14.984677 20.897479 39.276840 0.467420 1.009769 0.098124 -0.018872 -378130.000000 0 0 1
29.035002 14.708777 22.331579 39.472508 0.468904 0.969454 0.061815 -0.013186 281397.000000 0 0 1
28.870502 13.323377 22.572379 38.993981 0.432366 0.953456 0.065234 -0.010539 177756.000000 0 0 1
28.177502 13.024977 23.805119 39.119117 0.432992 0.916591 0.058208 0.003928 422489.000000 0 0 1
27.628202 11.553177 23.828669 38.270078 0.396068 0.898678 0.062417 0.004443 250942.000000 0 0 1
26.530502 11.296977 22.970679 36.866534 0.402557 0.898126 0.063420 0.004318 57977.600000 0 0 1
26.370402 9.925277 22.747879 36.212915 0.359979 0.891597 0.053450 0.008491 -259186.000000 0 0 1
25.146502 9.566477 21.916679 34.701655 0.363522 0.887214 0.042830 -0.005979 224258.000000 0 0 1
23.879302 9.424177 22.563479 34.178162 0.375893 0.849748 0.051553 -0.007185 1347560.000000 0 0 1
22.908902 8.789877 21.692979 32.751566 0.366366 0.846846 0.044548 0.003997 866445.000000 0 0 1
21.411502 8.946377 22.079579 32.031202 0.395782 0.810254 0.037313 -0.001360 247654.000000 0 0 1
21.091102 8.262977 23.267449 32.472843 0.373396 0.771995 0.043872 0.003269 -28676.500000 0 0 1
19.707902 8.497377 23.439419 31.780704 0.407082 0.741382 0.085101 -0.004384 36570.500000 0 0 1
19.113402 7.559777 24.558539 32.024900 0.376640 0.696866 0.080972 -0.004720 -185139.000000 0 0 1
19.083302 6.164777 24.275969 31.488086 0.312463 0.690453 0.074670 -0.011405 250929.000000 0 0 1
18.797002 5.569277 25.551159 32.205680 0.288045 0.654464 0.080287 -0.017622 49686.700000 0 0 1
19.049502 4.017477 25.559719 32.129782 0.207851 0.650940 0.077435 -0.018874 -910642.000000 0 0 1
20.403702 3.771477 25.535219 32.902621 0.182780 0.682363 0.079092 -0.014894 -1007830.000000 0 0 1
20.647102 2.341877 25.510129 32.902187 0.112941 0.683555 0.070286 -0.014640 285355.000000 0 0 1
22.111002 1.873777 25.277569 33.635739 0.084542 0.720450 0.068509 -0.013502 725680.000000 0 0 1
22.942802 2.153777 26.448029 35.078614 0.093602 0.716720 0.066375 -0.021451 343750.000000 0 0 1
24.299202 2.136777 26.033989 35.676121 0.087710 0.752867 0.066063 -0.016655 -141297.000000 0 0 1
25.168402 2.669977 27.183719 37.142049 0.105689 0.749712 0.043051 -0.009518 -937151.000000 0 0 1
25.361502 1.769777 28.284139 38.030651 0.069669 0.732179 0.041715 -0.009740 -249400.000000 0 0 1
26.223302 2.253177 29.251039 39.349227 0.085712 0.732702 0.047351 0.000242 531586.000000 0 0 1
27.744102 2.341977 28.900039 40.130192 0.084214 0.766768 0.057931 -0.005039 -328960.000000 0 0 1
28.170702 3.379377 28.014029 39.872227 0.119390 0.791759 0.063168 0.006140 794507.000000 0 0 1
29.592102 3.518777 27.860099 40.795335 0.118354 0.819039 0.064541 0.012362 823518.000000 0 0 1
30.136202 2.551077 26.797039 40.407672 0.084450 0.845754 0.081421 0.005957 -513326.000000 0 0 1
29.614302 2.804977 25.513659 39.189559 0.094435 0.861853 0.061937 0.013920 107588.000000 0 0 1
30.061002 1.816777 24.583949 38.875893 0.060363 0.886188 0.068197 0.010956 -106183.000000 0 0 1
29.577302 2.108477 23.112579 37.595927 0.071167 0.908711 0.066070 0.001569 102137.000000 0 0 1
30.193702 3.149077 22.393979 37.723555 0.103920 0.935229 0.065869 0.009927 -1409500.000000 0 0 1
31.529402 2.924377 22.147579 38.641563 0.092486 0.960446 0.057347 0.007649 -990866.000000 0 0 1
32.186002 4.233877 21.649479 39.020051 0.130793 0.982638 0.082842 0.003785 -197672.000000 0 0 1
31.700002 4.489777 20.301479 37.910398 0.140698 1.005682 0.065967 0.001203 378455.000000 0 0 1
32.271802 5.664577 19.661179 38.211498 0.173757 1.030330 0.093181 0.004537 479405.000000 0 0 1
33.797902 5.611177 19.312179 39.328663 0.164521 1.057506 0.083780 -0.003240 303777.000000 0 0 1
34.705902 5.703477 20.400079 40.659470 0.162881 1.045199 0.095459 -0.002951 213739.000000 0 0 1
34.811202 6.946577 21.093279 41.291659 0.196963 1.034639 0.102448 -0.002252 -521863.000000 0 0 1
35.610102 6.801177 22.420279 42.626333 0.188717 1.016938 0.105303 -0.008582 299757.000000 0 0 1
34.887602 6.012677 23.375149 42.422808 0.170668 0.987229 0.103953 -0.001038 247594.000000 0 0 1
35.641202 5.686477 24.516109 43.631077 0.158214 0.974121 0.102912 -0.011169 60069.000000 0 0 1
34.919702 4.684177 25.509659 43.497929 0.133345 0.944119 0.102061 -0.003235 258751.000000 0 0 1
34.985202 3.322777 25.163349 43.222671 0.094693 0.949390 0.092376 -0.004662 -206017.000000 0 0 1
34.622702 2.543377 26.272999 43.537004 0.073328 0.922959 0.096125 0.001742 -337807.000000 0 0 1
34.514002 0.991577 25.979689 43.210459 0.028722 0.925749 0.083358 -0.002412 -534387.000000 0 0 1
33.480002 0.708477 25.103019 41.851810 0.021158 0.927536 0.080771 -0.007419 -345800.000000 0 0 1
33.587202 -0.661623 24.798549 41.755310 -0.019696 0.934897 0.086466 -0.022037 251360.000000 0 0 1
32.556402 -1.149023 23.741849 40.310234 -0.035279 0.941002 0.087849 -0.004539 910426.000000 0 0 1
31.207602 -1.361023 24.174829 39.499230 -0.043584 0.912168 0.075489 -0.010615 352308.000000 0 0 1
30.502902 -2.029323 23.158319 38.351700 -0.066431 0.922486 0.082000 -0.012352 97157.800000 0 0 1
28.980902 -2.213923 23.308489 37.256943 -0.076244 0.894877 0.080029 0.000639 223229.000000 0 0 1
28.281602 -0.978023 23.287329 36.648400 -0.034568 0.882237 0.062156 -0.001570 -602580.000000 0 0 1
26.910002 -1.229823 23.392279 35.677155 -0.045670 0.855733 0.060274 -0.004796 107274.000000 0 0 1
25.991702 0.054777 23.364039 34.949247 0.002107 0.838588 0.062496 -0.003647 383956.000000 0 0 1
26.055202 0.751877 22.154079 34.208801 0.028849 0.866348 0.051561 -0.005775 112477.000000 0 0 1
25.197302 1.882977 22.186779 33.625924 0.074591 0.850228 0.051581 -0.000122 154219.000000 0 0 1
25.265402 2.769677 21.018879 32.981888 0.109187 0.879826 0.043360 -0.002170 -186235.000000 0 0 1
24.770902 2.345877 19.763179 31.775525 0.094421 0.899550 0.045071 -0.006374 274979.000000 0 0 1
24.196502 3.403777 19.001279 30.953271 0.139755 0.909843 0.051343 -0.004265 288608.000000 0 0 1
23.687302 3.015277 17.617579 29.674219 0.126614 0.935147 0.054849 -0.010729 -552097.000000 0 0 1
24.819602 2.997977 16.812679 30.127507 0.120208 0.978761 0.040350 -0.014838 -137417.000000 0 0 1
24.645202 3.380677 15.491679 29.305410 0.136323 1.013812 0.038234 -0.009330 -433590.000000 0 0 1
24.144102 2.307477 14.517879 28.267135 0.095282 1.031426 0.045117 0.002076 1544780.000000 0 0 1
22.700802 2.099277 14.530179 27.034413 0.092214 1.003363 0.068593 0.003729 1644900.000000 0 0 1
22.401002 0.935777 13.755279 26.303769 0.041750 1.020500 0.080595 -0.004406 -155166.000000 0 0 1
20.924202 0.467177 13.815379 25.077982 0.022323 0.987358 0.099145 -0.013092 106280.000000 0 0 1
19.943202 1.283877 13.158079 23.927279 0.064288 0.988528 0.111299 -0.011983 834409.000000 0 1 0
19.889602 1.197777 11.728679 23.121264 0.060149 1.038785 0.110805 -0.010290 -823889.000000 0 1 0
19.317902 -0.136923 11.177879 22.319163 -0.007088 1.046251 0.090717 -0.013481 -282543.000000 0 1 0
20.160802 -1.278823 11.261379 23.128164 -0.063346 1.062246 0.100725 -0.028347 639456.000000 0 1 0
21.366402 -1.219223 10.497879 23.837263 -0.057001 1.114755 0.104948 -0.028608 434971.000000 0 1 0
22.417302 -2.185123 11.124679 25.121080 -0.097168 1.112030 0.117778 -0.033670 287120.000000 0 0 1
23.248302 -1.723323 12.201679 26.312247 -0.073992 1.088600 0.123140 -0.037032 1101920.000000 0 0 1
24.413002 -2.546823 12.362679 27.483027 -0.103946 1.104222 0.101283 -0.028021 554973.000000 0 0 1
24.949702 -2.562023 13.793679 28.623717 -0.102329 1.067978 0.095461 -0.019211 -80569.400000 0 0 1
25.652002 -1.426323 14.213679 29.361340 -0.055546 1.065468 0.071351 -0.014782 -66370.200000 0 0 1
25.730802 -1.482523 15.603079 30.128526 -0.057553 1.026421 0.052182 -0.010291 66831.000000 0 0 1
26.803802 -0.536523 16.237179 31.342904 -0.020014 1.026227 0.073582 -0.005968 -352531.000000 0 0 1
28.061902 -0.932423 15.807379 32.221312 -0.033215 1.058032 0.077095 -0.014901 -1068220.000000 0 0 1
28.972602 0.098477 15.702679 32.954446 0.003399 1.074131 0.056158 -0.011882 -629197.000000 0 0 1
30.458402 -0.259223 15.746979 34.289193 -0.008511 1.093657 0.055758 -0.010493 -309428.000000 0 0 1
30.880102 -1.005823 14.605379 34.174690 -0.032560 1.129210 0.084893 -0.009600 -700607.000000 0 0 1
32.213002 -1.330123 14.792479 35.472019 -0.041268 1.140634 0.100903 -0.016977 -674047.000000 0 0 1
32.864302 -2.204923 13.655379 35.656604 -0.066991 1.177788 0.102372 -0.022729 -74571.600000 0 0 1
32.909602 -1.532623 12.434079 35.213593 -0.046537 1.209909 0.112090 -0.021514 109728.000000 0 0 1
33.834402 -2.178023 11.598779 35.833535 -0.064284 1.241175 0.103256 -0.023404 -138341.000000 0 0 1
33.942202 -1.685723 10.091579 35.450736 -0.049624 1.282140 0.141043 -0.026935 -152554.000000 0 0 1
34.527502 -0.396623 9.894179 35.919361 -0.011487 1.291733 0.109283 -0.020882 776380.000000 0 0 1
33.527902 0.623477 9.810479 34.939296 0.018594 1.286183 0.117362 -0.026461 136717.000000 0 0 1
34.079702 1.997077 9.440279 35.419391 0.058533 1.301007 0.113091 -0.028392 19039.900000 0 0 1
34.561402 2.026677 8.091179 35.553693 0.058573 1.341208 0.113472 -0.022315 238710.000000 0 0 1
34.886502 3.374277 7.711579 35.887633 0.096422 1.354226 0.102123 -0.021404 25472.600000 0 0 1
35.475402 3.371977 6.279279 36.184302 0.094766 1.396377 0.092350 -0.017088 13258.500000 0 0 1
35.892202 4.690477 5.948779 36.682948 0.129946 1.407910 0.077342 -0.007152 128955.000000 0 0 1
36.379202 4.781877 4.595479 36.978793 0.130696 1.446201 0.084428 -0.001486 -45536.700000 0 0 1
-36.748601 6.178277 4.052079 37.483999 -0.166565 1.462483 0.089016 -0.007579 -416348.000000 0 0 1
35.763002 7.078677 4.195479 36.697439 0.195407 1.456220 0.098729 -0.018760 -361788.000000 0 0 1
36.077702 8.381877 3.684679 37.221409 0.228279 1.471640 0.089191 -0.019458 -205989.000000 0 0 1
34.818102 9.310077 3.712779 36.232064 0.261279 1.468144 0.117678 -0.038675 865439.000000 0 0 1
33.888602 9.072877 2.645479 35.181714 0.261592 1.495531 0.127917 -0.042161 685535.000000 0 0 1
33.037302 7.904377 2.765479 34.082112 0.234842 1.489565 0.140003 -0.033953 178110.000000 0 0 1
31.774202 7.914677 1.848879 32.797262 0.244123 1.514393 0.163631 -0.048033 359737.000000 0 0 1
32.025602 7.889577 0.426179 32.985849 0.241542 1.557876 0.170368 -0.046305 -238071.000000 0 0 1
30.899902 7.450477 -0.268821 31.786566 0.236600 1.579253 0.190837 -0.050144 -335336.000000 0 0 1
31.231302 7.440777 -1.775021 32.154472 0.233887 1.626027 0.160851 -0.039066 -24519.600000 0 0 1
30.214702 6.797277 -2.530521 31.073055 0.221282 1.652324 0.174984 -0.043970 637475.000000 0 0 1
30.532702 6.640177 -3.909121 31.489983 0.214143 1.695256 0.150114 -0.037393 -670316.000000 0 0 1
29.416902 5.981877 -4.726921 30.388826 0.200613 1.726979 0.156159 -0.033932 -655245.000000 0 0 1
29.213602 4.631177 -4.477821 29.915434 0.157220 1.721044 0.159432 -0.036600 1606820.000000 0 0 1
28.024702 4.202077 -5.209021 28.812762 0.148833 1.752585 0.143830 -0.037605 810034.000000 0 0 1
27.859302 2.667377 -5.272421 28.479010 0.095454 1.757004 0.158934 -0.031728 -579651.000000 0 0 1
27.607102 2.145177 -3.930221 27.967847 0.077548 1.711789 0.151222 -0.043460 529269.000000 0 0 1
27.440202 0.718377 -3.989221 27.737964 0.026174 1.715115 0.133593 -0.040036 -29092.800000 0 0 1
27.262802 0.168177 -2.527421 27.380221 0.006169 1.663236 0.137838 -0.042926 701912.000000 0 0 1
28.538202 0.198977 -1.867021 28.599901 0.006972 1.636123 0.150291 -0.043287 976980.000000 0 0 1
28.450302 0.034877 -0.504321 28.454793 0.001226 1.588521 0.153899 -0.034574 358346.000000 0 0 1
29.763302 0.404877 0.266179 29.767246 0.013602 1.561854 0.164951 -0.029128 792723.000000 0 0 1
30.905502 -0.365523 -0.059621 30.907721 -0.011827 1.572725 0.154960 -0.025419 502186.000000 0 0 1
32.107102 0.262677 0.367179 32.110276 0.008181 1.559361 0.118708 -0.023592 89737.800000 0 0 1
-2.442098 -21.309623 -8.212915 22.967713 1.456693 1.936477 0.026884 0.000290 91430.500000 0 1 0
-3.207998 -21.768323 -7.138315 23.132373 1.424479 1.884502 0.037723 -0.004790 -126148.000000 0 1 0
-2.700398 -23.048123 -6.789915 24.178732 1.454165 1.855447 0.041493 0.003580 157737.000000 0 1 0
-3.265898 -23.581623 -5.460215 24.424843 1.433178 1.796253 0.045230 0.005624 -286805.000000 0 1 0
-2.904398 -22.710823 -4.431615 23.320725 1.443601 1.761988 0.045318 -0.002848 11736.100000 0 1 0
-3.444098 -23.219223 -3.221015 23.693228 1.423540 1.707165 0.057810 -0.014928 -203484.000000 0 1 0
-2.934798 -22.607823 -1.892815 22.875958 1.441705 1.653634 0.058751 -0.026715 -198760.000000 0 1 0
-1.564198 -22.827523 -1.697215 22.943911 1.502381 1.644836 0.062319 -0.020183 -717298.000000 0 1 0
-1.138698 -22.479023 -0.435915 22.512066 1.520184 1.590161 0.063266 -0.026180 -157450.000000 0 1 0
0.352702 -22.323223 -0.130515 22.326390 -1.554998 1.576642 0.059690 -0.031482 -67669.400000 0 1 0
0.945602 -21.163723 -0.719715 21.197059 -1.526146 1.604756 0.034879 -0.029961 124118.000000 0 1 0
2.214302 -20.897523 -0.122015 21.014863 -1.465230 1.576603 0.029612 -0.031621 228724.000000 0 1 0
3.012702 -19.836523 -0.834815 20.081358 -1.420072 1.612380 0.030166 -0.030615 314340.000000 0 1 0
3.783902 -20.329723 -1.960515 20.771595 -1.386775 1.665321 0.029538 -0.024965 -247887.000000 0 1 0
4.720502 -19.348023 -2.330915 20.051491 -1.331493 1.687306 0.036427 -0.021501 -834732.000000 0 1 0
5.502302 -19.883523 -3.511415 20.927490 -1.300826 1.739383 0.039365 -0.013604 -1016740.000000 0 1 0
6.404902 -20.868523 -2.974015 22.030951 -1.273006 1.706202 0.041399 -0.021157 -285222.000000 0 1 0
7.102802 -21.523223 -3.979315 23.011603 -1.252043 1.744596 0.043225 -0.019106 484582.000000 0 1 0
8.328802 -20.906823 -4.747715 23.000108 -1.191690 1.778713 0.064249 -0.011896 215157.000000 0 1 0
8.048102 -19.644423 -5.410215 21.907664 -1.181965 1.820333 0.050747 -0.018281 -824614.000000 0 1 0
9.173202 -19.207923 -6.078915 22.136963 -1.125250 1.848975 0.066042 -0.015377 -492121.000000 0 1 0
8.916302 -17.882723 -6.828215 21.116741 -1.108270 1.900070 0.052609 -0.015965 32147.300000 0 1 0
10.072602 -17.669023 -7.631615 21.723104 -1.052674 1.929770 0.060692 -0.007491 454932.000000 0 1 0
10.087202 -16.517223 -8.373115 21.087422 -1.022540 1.979115 0.059530 -0.001728 -286709.000000 0 1 0
10.719602 -16.725023 -9.765915 22.136155 -1.000822 2.027704 0.062888 0.001559 8787.490000 0 1 0
9.979302 -17.435823 -10.778615 22.798529 -1.050960 2.063236 0.061899 -0.004160 204291.000000 0 1 0
8.820202 -16.740023 -11.216515 21.996239 -1.085866 2.105898 0.039947 -0.018060 50324.700000 0 1 0
8.208102 -17.142423 -12.539115 22.769827 -1.124237 2.153987 0.053898 -0.029296 -601971.000000 0 1 0
7.357702 -18.241823 -12.375715 23.239152 -1.187412 2.132392 0.049403 -0.020176 76674.900000 0 1 0
6.900102 -18.809223 -13.648215 24.241948 -1.219193 2.168808 0.057489 -0.018000 -631936.000000 0 1 0
5.801702 -19.808723 -13.570315 24.702200 -1.285879 2.152390 0.053964 -0.005183 -343795.000000 0 1 0
6.326602 -20.997423 -12.983315 25.484979 -1.278144 2.105342 0.065273 -0.020202 396857.000000 0 0 1
5.225502 -21.806123 -12.571415 25.707068 -1.335597 2.081769 0.076723 -0.014291 605914.000000 0 0 1
5.424702 -23.320623 -12.614315 27.062886 -1.342247 2.055687 0.055586 -0.025501 -173457.000000 0 0 1
5.573402 -23.873223 -13.917115 28.190063 -1.341446 2.087123 0.074462 -0.025464 -213769.000000 0 0 1
5.132102 -25.232723 -13.879515 29.251833 -1.370143 2.065174 0.061294 -0.007061 1439360.000000 0 0 1
3.584302 -25.473753 -14.116515 29.343403 -1.431008 2.072682 0.072758 -0.009044 743954.000000 0 0 1
2.703702 -24.903323 -13.163815 28.297907 -1.462652 2.054642 0.075878 -0.009592 -136516.000000 0 0 1
1.341502 -25.000923 -13.513815 28.451168 -1.517190 2.065741 0.062314 -0.011834 125765.000000 0 0 1
0.677402 -26.242353 -12.940115 29.267158 -1.544989 2.028777 0.056723 -0.001308 -878492.000000 0 0 1
1.030302 -27.381153 -13.657115 30.615451 -1.533186 2.033183 0.065490 0.001513 -60964.200000 0 0 1
0.597602 -28.540873 -13.004915 31.369832 -1.549861 1.998264 0.051777 0.003394 545058.000000 0 0 1
-0.831998 -29.099853 -13.280415 31.997861 1.542213 1.998784 0.041624 -0.003298 1166650.000000 0 0 1
-1.925598 -28.233133 -12.932015 31.113578 1.502698 1.999442 0.044473 -0.001427 844867.000000 0 0 1
-3.203798 -28.726543 -13.338015 31.833650 1.459728 2.003130 0.047637 0.001465 701093.000000 0 0 1
-4.402098 -27.873783 -12.733915 30.959309 1.414160 1.994689 0.041783 -0.004422 763934.000000 0 0 1
-4.739098 -28.124683 -11.344015 30.694357 1.403861 1.949353 0.046336 -0.012871 16089.700000 0 0 1
-5.191598 -29.457343 -11.172915 31.929951 1.396347 1.928282 0.048340 -0.013882 -802275.000000 0 0 1
-5.794298 -29.765613 -9.768715 31.858961 1.378537 1.882440 0.048719 -0.017395 -226838.000000 0 0 1
-7.046298 -29.257903 -9.408515 31.530864 1.334463 1.873802 0.053526 -0.013630 -610233.000000 0 0 1
-7.060198 -27.843493 -9.065715 30.121316 1.322463 1.876510 0.062228 -0.009692 236508.000000 0 0 1
-8.536498 -27.329573 -8.815215 29.958060 1.268045 1.869469 0.060009 -0.010962 1159690.000000 0 0 1
-9.421598 -27.385293 -9.912015 30.609947 1.239442 1.900557 0.071910 -0.019667 -73742.500000 0 0 1
-9.829398 -28.702333 -10.330915 32.049474 1.240854 1.899000 0.067372 -0.020320 -967335.000000 0 0 1
-11.243298 -28.606753 -10.942615 32.626659 1.196313 1.912814 0.078457 -0.027916 -184745.000000 0 0 1
-11.341898 -28.026113 -12.238415 32.617181 1.186253 1.955424 0.087088 -0.029119 135394.000000 0 0 1
-12.059898 -28.861783 -13.155415 33.933886 1.174997 1.968907 0.093125 -0.029446 -96353.200000 0 0 1
-12.263398 -28.065953 -14.440715 33.861821 1.158848 2.011372 0.097321 -0.025452 201924.000000 0 0 1
-13.280598 -27.061603 -14.567615 33.480144 1.114573 2.020959 0.082730 -0.032905 218660.000000 0 0 1
-13.334998 -26.049353 -13.551415 32.249524 1.097664 2.004468 0.090124 -0.025796 -453685.000000 0 0 1
-14.323198 -24.898923 -13.756615 31.848938 1.048771 2.017432 0.103115 -0.023028 -381696.000000 0 0 1
-14.004698 -24.018423 -14.836715 31.514193 1.042910 2.060988 0.102499 -0.023772 568096.000000 0 0 1
-14.765698 -22.767623 -14.779015 30.899997 0.995449 2.069498 0.105512 -0.024892 -264449.000000 0 0 1
-14.646598 -22.082023 -16.146915 31.030009 0.985141 2.118074 0.102463 -0.019754 959010.000000 0 0 1
-13.486198 -21.224723 -16.367415 30.004311 1.004753 2.147784 0.099901 -0.017896 1120180.000000 0 0 1
-13.384598 -20.890623 -17.700215 30.477257 1.000988 2.190468 0.081413 -0.017409 -180453.000000 0 0 1
-13.455198 -19.406223 -18.048015 29.721620 0.964551 2.223373 0.083307 -0.010249 73225.600000 0 0 1
-12.349398 -18.631223 -17.603215 28.451771 0.985452 2.237888 0.082735 -0.002094 127198.000000 0 0 1
-12.418798 -17.293023 -17.971215 27.861080 0.948000 2.271858 0.080004 -0.004887 -77765.400000 0 0 1
-11.070598 -16.557423 -17.923815 26.794954 0.981444 2.303558 0.089959 -0.004547 -107870.000000 0 0 1
-10.589198 -16.209823 -16.647915 25.535124 0.992134 2.280965 0.102158 -0.005354 -77861.700000 0 0 1
-9.304598 -15.642523 -16.762715 24.743741 1.034189 2.315090 0.091848 -0.005153 -315460.000000 0 1 0
-8.670298 -15.065523 -15.435615 23.246554 1.048582 2.296946 0.075463 -0.010254 -144278.000000 0 1 0
-8.273098 -15.938723 -14.414115 23.027240 1.092020 2.247157 0.074037 -0.002139 267707.000000 0 1 0
-7.069398 -16.645223 -14.784815 23.358737 1.169171 2.256149 0.075133 -0.001558 298070.000000 0 1 0
-6.620598 -17.564123 -13.609515 23.185117 1.210327 2.198137 0.062722 0.000257 -648514.000000 0 1 0
-6.101598 -16.834323 -12.515615 21.846385 1.223074 2.180826 0.058611 -0.007486 24909.200000 0 1 0
-5.751998 -17.611423 -11.428515 21.768295 1.255112 2.123520 0.049491 -0.009647 44976.000000 0 1 0
-4.547598 -18.574123 -11.564715 22.347737 1.330685 2.114711 0.053739 -0.016348 1259860.000000 0 1 0
-3.227298 -17.960923 -11.759215 21.709200 1.393009 2.143218 0.047998 -0.011740 1872950.000000 0 1 0
-2.219998 -19.011823 -11.741015 22.455049 1.454553 2.121008 0.042750 -0.002314 432242.000000 0 1 0
-0.770598 -18.692023 -12.032915 22.243574 1.529594 2.142376 0.037105 0.004782 -1140120.000000 0 1 0
-0.582998 -18.446823 -13.393115 22.803524 1.539203 2.198548 0.048258 0.002425 76764.600000 0 1 0
0.684702 -17.915723 -13.786815 22.616769 -1.532597 2.226332 0.044049 0.000800 237367.000000 0 1 0
1.810102 -18.935823 -13.823315 23.514377 -1.475495 2.199215 0.037151 -0.006459 -998131.000000 0 1 0
1.632502 -19.914523 -14.855915 24.898825 -1.489004 2.210118 0.040786 -0.001611 143661.000000 0 1 0
0.925302 -21.067423 -14.446815 25.561748 -1.526904 2.171440 0.039438 -0.002316 -435936.000000 0 0 1
0.969002 -22.118223 -15.573215 27.068058 -1.527014 2.183811 0.049750 -0.007298 295357.000000 0 0 1
2.220502 -22.690023 -15.892815 27.791174 -1.473244 2.179574 0.074051 -0.016726 -1751.760000 0 0 1
3.131402 -21.964323 -16.706615 27.773155 -1.429183 2.216222 0.077682 -0.019034 -163180.000000 0 0 1
4.471102 -22.702423 -16.751015 28.565491 -1.376341 2.197413 0.083404 -0.020971 -576153.000000 0 0 1
4.379602 -23.895323 -17.470815 29.923181 -1.389525 2.194266 0.086735 -0.016780 547786.000000 0 0 1
5.683902 -24.415323 -17.728315 30.703549 -1.342070 2.186340 0.099359 -0.022166 445192.000000 0 0 1
6.208402 -24.012723 -19.089115 31.297754 -1.317790 2.226756 0.104809 -0.017942 -299727.000000 0 0 1
6.432802 -22.632723 -19.369215 30.476017 -1.293873 2.259525 0.116680 -0.030756 236519.000000 0 0 1
6.815902 -22.410823 -20.745015 31.289889 -1.275551 2.295608 0.128651 -0.019055 4334.920000 0 0 1
6.987902 -20.943423 -21.118015 30.552059 -1.248755 2.333964 0.114782 -0.012132 -578556.000000 0 0 1
5.823502 -20.226023 -21.313015 29.954128 -1.290457 2.362458 0.101405 -0.018696 -931048.000000 0 0 1
6.036302 -18.855723 -21.609315 29.307640 -1.260975 2.399901 0.102885 -0.014218 143104.000000 0 0 1
4.834902 -17.982723 -22.075015 28.880113 -1.308144 2.440856 0.097195 -0.011979 -403480.000000 0 0 1
4.244802 -18.428623 -23.294315 30.004293 -1.344407 2.459676 0.099446 -0.018869 141682.000000 0 0 1
3.330502 -17.542323 -23.929215 29.856870 -1.383174 2.500536 0.084408 -0.012492 500494.000000 0 0 1
1.960002 -17.293523 -23.260515 29.050974 -1.457941 2.499225 0.078642 -0.001891 -353864.000000 0 0 1
2.043602 -16.589423 -22.059415 27.676760 -1.448227 2.493170 0.074920 -0.001010 -1201830.000000 0 0 1
0.933002 -15.833823 -21.781115 26.944339 -1.511940 2.512182 0.065971 -0.010656 -830965.000000 0 0 1
1.170002 -15.087423 -20.478815 25.463329 -1.493403 2.505204 0.061226 -0.013101 -316909.000000 0 0 1
2.214102 -14.184123 -20.613015 25.119474 -1.415949 2.533255 0.058834 -0.009347 -626597.000000 0 0 1
2.193302 -13.314523 -19.476515 23.694340 -1.407533 2.535693 0.053444 -0.015610 215540.000000 0 1 0
3.396502 -12.358123 -19.606915 23.424145 -1.302579 2.562645 0.051887 -0.014220 -959351.000000 0 1 0
4.623802 -12.980023 -19.462115 23.846058 -1.228587 2.525524 0.048293 -0.008613 -482990.000000 0 1 0
5.748902 -12.092423 -19.563315 23.706536 -1.127011 2.541403 0.049946 -0.004766 860590.000000 0 1 0
6.017302 -11.071923 -18.361715 22.269890 -1.072977 2.540130 0.044331 -0.008888 -159440.000000 0 1 0
5.126602 -9.930223 -18.270015 21.416929 -1.094224 2.592626 0.025240 -0.004250 417879.000000 0 1 0
5.463602 -8.804923 -19.049815 21.685780 -1.015427 2.643399 0.039130 -0.012770 -5193.690000 0 1 0
4.781602 -8.886923 -20.440815 22.796229 -1.077175 2.682998 0.054973 -0.019688 878603.000000 0 1 0
3.345802 -8.918923 -20.454615 22.563973 -1.211907 2.705755 0.049827 -0.024403 427495.000000 0 1 0
2.871302 -9.096523 -21.737115 23.738014 -1.265046 2.728065 0.052762 -0.028595 -120751.000000 0 1 0
1.339502 -8.989623 -21.835815 23.651859 -1.422879 2.747168 0.051032 -0.028577 -155895.000000 0 1 0
0.890502 -7.710623 -21.537115 22.893100 -1.455815 2.795687 0.045688 -0.026639 -1259780.000000 0 1 0
-0.477298 -7.625423 -21.731315 23.035298 1.508285 2.803509 0.043339 -0.023510 -588742.000000 0 1 0
-0.824998 -6.546423 -22.807415 23.742672 1.445434 2.859980 0.060685 -0.021998 11025.900000 0 1 0
-0.385198 -7.042523 -24.069215 25.081320 1.516155 2.856541 0.064908 -0.025129 -514554.000000 0 0 1
-0.860798 -6.333323 -25.179885 25.978425 1.435708 2.893007 0.064858 -0.026593 -61051.100000 0 0 1
-0.279798 -4.947723 -25.509455 25.986353 1.514306 2.949716 0.077736 -0.032602 -391057.000000 0 0 1
-0.825398 -4.516723 -26.729545 27.121037 1.390048 2.971476 0.071809 -0.028679 -131319.000000 0 0 1
-0.559098 -3.199223 -27.145405 27.338995 1.397783 3.022517 0.060277 -0.025429 -510360.000000 0 0 1
-1.077898 -1.983123 -26.345475 26.441988 1.072930 3.056127 0.060344 -0.026796 -161516.000000 0 0 1
-2.474498 -1.829623 -26.257165 26.436895 0.636677 3.024921 0.055622 -0.024316 74615.300000 0 0 1
-3.035498 -1.109023 -27.371505 27.561631 0.350285 3.024067 0.070011 -0.023027 287088.000000 0 0 1
-4.587798 -1.036223 -27.397255 27.798044 0.222138 2.971577 0.074908 -0.021068 218397.000000 0 0 1
-5.119198 -0.006723 -26.597775 27.085935 0.001313 2.951450 0.069351 -0.023401 -336306.000000 0 0 1
-6.502098 -0.278623 -26.535555 27.321980 0.042825 2.901082 0.084367 -0.034830 -244414.000000 0 0 1
-7.286998 0.777577 -25.669055 26.694669 -0.106305 2.863496 0.069536 -0.027625 -652438.000000 0 0 1
-7.619198 2.066477 -26.272165 27.432630 -0.264848 2.849689 0.083726 -0.036319 133031.000000 0 0 1
-8.625998 2.104777 -27.245625 28.655925 -0.239327 2.826556 0.111144 -0.044728 -120768.000000 0 0 1
-10.047998 1.660477 -26.871285 28.736483 -0.163774 2.779318 0.115164 -0.035958 -653861.000000 0 0 1
-11.161798 2.200577 -27.554885 29.811072 -0.194656 2.750039 0.111771 -0.049719 728343.000000 0 0 1
-12.359298 1.565677 -27.076885 29.805391 -0.126009 2.710371 0.072533 -0.026405 -206199.000000 0 0 1
-13.525198 2.013477 -27.929715 31.097493 -0.147783 2.686304 0.048242 -0.023944 -799820.000000 0 0 1
-14.764398 1.572777 -27.380415 31.147203 -0.106125 2.644694 0.039019 -0.018041 379383.000000 0 0 1
-15.943398 2.047177 -27.976825 32.265859 -0.127704 2.620091 0.032461 -0.009471 63161.900000 0 0 1
-16.344498 3.497477 -27.569785 32.240782 -0.210806 2.596581 0.019343 -0.003757 -971781.000000 0 0 1
-15.547398 4.595377 -27.965425 32.324976 -0.287390 2.616213 0.038671 -0.009359 -71488.300000 0 0 1
-15.730598 4.965977 -29.337865 33.657436 -0.305788 2.629377 0.026547 -0.015085 21346.300000 0 0 1
-17.140898 5.379377 -29.841555 34.831975 -0.304099 2.599690 0.007393 0.003285 233353.000000 0 0 1
-17.655498 6.587477 -29.217385 34.767328 -0.357114 2.568760 0.014716 0.010631 364065.000000 0 0 1
-18.611198 7.231677 -30.053755 36.081880 -0.370611 2.555182 0.007170 0.013630 293695.000000 0 0 1
-19.364298 8.304377 -29.159335 35.975069 -0.405127 2.515875 0.014803 -0.000777 -513850.000000 0 0 1
-18.517698 9.339977 -28.829455 35.514473 -0.467146 2.517967 0.018403 -0.001770 243189.000000 0 0 1
-19.254298 10.399677 -28.224715 35.714365 -0.495228 2.482079 0.048505 0.002409 65811.700000 0 0 1
-9.071098 25.229577 31.033749 41.011096 -1.225646 0.712521 0.057008 -0.008426 -556496.000000 0 0 1
-9.662798 26.510977 31.059679 41.963141 -1.221278 0.737480 0.060992 -0.004098 179479.000000 0 0 1
-9.109298 27.322577 32.070149 43.104489 -1.248987 0.731745 0.066887 -0.014008 1122630.000000 0 0 1
-7.674798 27.946977 31.740299 42.981189 -1.302783 0.739999 0.065714 -0.014111 1059830.000000 0 0 1
-7.771098 28.777977 30.628999 42.739882 -1.307051 0.771827 0.069898 -0.012459 529628.000000 0 0 1
-6.473898 28.926677 30.051389 42.210780 -1.350621 0.778545 0.070846 -0.008427 566605.000000 0 0 1
-6.499198 30.024777 28.985969 42.236397 -1.357624 0.814435 0.083414 -0.011894 -132008.000000 0 0 1
-6.591798 31.328177 29.615639 43.611840 -1.363410 0.824297 0.091285 -0.014770 59613.600000 0 0 1
-5.910498 32.297877 28.891999 43.735963 -1.389799 0.849178 0.108377 -0.011917 -284523.000000 0 0 1
-6.036198 33.745777 29.424019 45.177274 -1.393796 0.861498 0.095628 -0.014343 -383927.000000 0 0 1
-5.408698 34.060977 30.627639 46.124359 -1.413317 0.844610 0.098796 -0.018125 393666.000000 0 0 1
-6.307998 -33.720694 31.684609 46.698935 1.385868 0.825096 0.097122 -0.022020 1540140.000000 0 0 1
-7.352098 33.525777 32.357687 47.170446 -1.354917 0.814855 0.082311 -0.022515 794709.000000 0 0 1
-6.823698 32.798877 33.419648 47.320208 -1.365676 0.786617 0.095251 -0.019767 -7470.780000 0 0 1
-7.076398 31.446177 33.240190 46.301703 -1.349451 0.770009 0.090428 -0.009375 -66275.200000 0 0 1
-6.934898 30.810777 -33.529525 46.061110 -1.349405 2.386103 0.089812 -0.012081 62838.200000 0 0 1
-5.625798 30.652177 -33.010575 45.397177 -1.389280 2.384958 0.082921 -0.006536 -14313.700000 0 0 1
-5.634398 30.119577 -31.695805 44.085819 -1.385866 2.373097 0.083461 -0.010641 -666619.000000 0 0 1
-4.283998 29.673977 -31.137215 43.225267 -1.427418 2.375100 0.072831 -0.017699 22457.300000 0 0 1
-3.721098 28.438777 -31.645975 42.709231 -1.440690 2.405300 0.073115 -0.005102 258847.000000 0 0 1
-3.220798 28.481377 -32.952725 43.674300 -1.458190 2.425705 0.064632 -0.006684 -744337.000000 0 0 1
-2.476998 27.173277 -33.277345 43.033757 -1.479892 2.454802 0.058929 -0.014871 -216402.000000 0 0 1
-1.226998 26.952877 -32.638615 42.346692 -1.525304 2.450810 0.070066 -0.012525 374424.000000 0 0 1
-0.620298 25.677277 -32.854175 41.702568 -1.546644 2.478060 0.078962 -0.013461 206188.000000 0 0 1
-0.150098 25.194677 33.896431 42.234610 -1.564839 0.639198 0.059263 -0.014582 -240506.000000 0 0 1
-1.233798 25.008077 32.991617 41.417061 -1.521500 0.649195 0.064960 -0.008793 230581.000000 0 0 1
-0.879598 24.944577 31.593769 40.263779 -1.535549 0.668633 0.086676 -0.013628 4376.540000 0 0 1
-0.354498 26.263777 30.953459 40.595915 -1.557300 0.703663 0.065793 -0.012054 34407.700000 0 0 1
-1.353698 27.286077 30.883219 41.232702 -1.521226 0.724248 0.069797 -0.015131 390655.000000 0 0 1
-0.874598 28.511777 30.299829 41.614493 -1.540131 0.755239 0.071344 -0.013700 185869.000000 0 0 1
-1.958398 29.629977 30.340619 42.453787 -1.504797 0.774638 0.078336 -0.015815 345976.000000 0 0 1
-2.087698 30.133577 31.634399 43.739298 -1.501625 0.762301 0.087197 -0.021147 -180881.000000 0 0 1
-2.987598 31.198077 31.790929 44.642009 -1.475325 0.778268 0.086846 -0.019760 40885.900000 0 0 1
-2.638498 32.006377 33.066960 46.095485 -1.488546 0.770794 0.098931 -0.011825 407343.000000 0 0 1
-1.452398 32.770277 32.888131 46.450293 -1.526505 0.784094 0.094069 -0.017248 62774.800000 0 0 1
-0.785198 32.891377 -33.986375 47.302568 -1.546928 2.372424 0.065397 -0.017194 -526679.000000 0 0 1
0.641402 33.404577 33.989761 47.661106 1.551598 0.776808 0.068660 -0.025242 -578529.000000 0 0 1
0.751302 -33.576494 33.252724 47.261920 -1.548424 0.790368 0.087584 -0.029381 67431.500000 0 0 1
2.088702 -33.250294 32.940708 46.851200 -1.508061 0.791060 0.070467 -0.034663 18511.800000 0 0 1
2.153702 -31.843494 32.531000 45.573156 -1.503265 0.775860 0.073745 -0.038684 -252685.000000 0 0 1
1.867402 -30.990794 33.632072 45.771528 -1.510612 0.745452 0.065606 -0.034100 199204.000000 0 0 1
1.763202 -29.622594 33.210600 44.537074 -1.511344 0.729235 0.056547 -0.033777 -147161.000000 0 0 1
1.408102 -28.605094 -33.849885 44.340150 -1.521610 2.439378 0.054183 -0.026783 94478.500000 0 0 1
0.007502 -28.575294 -33.662745 44.155724 -1.570534 2.437755 0.041810 -0.024486 96848.400000 0 0 1
-0.438998 -27.841694 -32.543785 42.830487 1.555030 2.433844 0.050651 -0.020451 75984.100000 0 0 1
-1.965898 -27.909494 -32.315095 42.744239 1.500474 2.427993 0.059551 -0.018672 60705.100000 0 0 1
-2.277198 -27.369994 -31.069025 41.467898 1.487787 2.417696 0.062329 -0.023020 -231112.000000 0 0 1
-3.445698 -26.606094 -31.025155 41.016062 1.442005 2.428611 0.072306 -0.024366 -466716.000000 0 0 1
-3.795298 -26.062494 -29.648355 39.657066 1.426190 2.415265 0.080536 -0.031168 -210777.000000 0 0 1
-4.344098 -27.005194 -28.792125 39.713199 1.411301 2.381833 0.085607 -0.032936 -63677.600000 0 0 1
-4.829598 -26.462494 -27.570895 38.519383 1.390276 2.368518 0.087234 -0.031568 779468.000000 0 0 1
-3.656198 -25.987894 -26.617905 37.379825 1.431025 2.363271 0.080637 -0.029683 594006.000000 0 0 1
-2.963898 -24.852094 -27.107485 36.894810 1.452095 2.396055 0.080024 -0.023317 -632192.000000 0 0 1
-1.940598 -24.569394 -26.223735 35.987572 1.491976 2.387202 0.075085 -0.018180 -1087030.000000 0 0 1
-1.046698 -23.475594 -26.871955 35.697354 1.526239 2.423059 0.069607 -0.014949 343297.000000 0 0 1
-0.198798 -23.689994 -27.991395 36.671154 1.562405 2.439215 0.051855 -0.019149 -167005.000000 0 0 1
0.943602 -24.448194 -27.782735 37.020062 -1.532220 2.419581 0.053983 -0.024701 -536889.000000 0 0 1
1.717202 -24.745594 -29.093755 38.232706 -1.501513 2.435596 0.043031 -0.026940 -115006.000000 0 0 1
2.530302 -23.699494 -29.527855 37.946840 -1.464433 2.462491 0.064249 -0.025515 192747.000000 0 0 1
3.459202 -24.154294 -30.505775 39.064029 -1.428551 2.466929 0.071226 -0.020341 -636755.000000 0 0 1
4.498502 -23.163694 -30.997615 38.956969 -1.378979 2.490940 0.089482 -0.031201 -1467190.000000 0 0 1
5.576702 -22.850394 -30.148035 38.237994 -1.331423 2.479051 0.090326 -0.036409 861753.000000 0 0 1
6.654702 -23.813794 -30.143045 38.986985 -1.298300 2.454600 0.080298 -0.028324 588489.000000 0 0 1
7.403302 -24.055794 -31.504945 40.324331 -1.272240 2.467524 0.075174 -0.023194 -388325.000000 0 0 1
6.575702 -24.968494 -32.276255 41.333064 -1.313284 2.466873 0.054877 -0.024952 446522.000000 0 0 1
6.798602 -24.982994 -33.677665 42.480067 -1.305101 2.486165 0.071429 -0.024963 -307653.000000 0 0 1
6.402902 -23.817594 33.621037 41.697111 -1.308175 0.632900 0.068935 -0.022512 -69224.800000 0 0 1
4.992702 -23.702694 33.697679 41.500342 -1.363193 0.623250 0.079130 -0.027351 -89174.800000 0 0 1
4.528502 -22.581694 32.987218 40.231788 -1.372883 0.609509 0.085476 -0.034517 86752.100000 0 0 1
3.066402 -22.188194 33.349161 40.173192 -1.433467 0.591447 0.059474 -0.028236 1151330.000000 0 0 1
2.021202 -23.107794 32.956901 40.301523 -1.483550 0.613291 0.053520 -0.029498 565074.000000 0 0 1
1.796202 -24.193894 33.817970 41.620019 -1.496690 0.622298 0.055064 -0.019876 41867.300000 0 0 1
0.406902 -24.853294 33.543414 41.749400 -1.554426 0.637735 0.037644 -0.014844 592612.000000 0 0 1
0.357902 -25.490994 32.291995 41.142336 -1.556757 0.668286 0.045197 -0.018080 -263767.000000 0 0 1
-0.967198 -25.910694 32.115909 41.276278 1.533486 0.679206 0.039717 -0.020865 -256165.000000 0 0 1
-1.231198 -26.673294 30.827449 40.783723 1.524671 0.713805 0.035500 -0.039600 53595.300000 0 0 1
-2.583798 -26.951394 30.538439 40.812375 1.475220 0.725355 0.044776 -0.035113 83692.500000 0 0 1
-2.588398 -27.837594 29.475969 40.625906 1.478081 0.758969 0.051446 -0.045735 -310134.000000 0 0 1
-3.946198 -28.019294 28.796949 40.372238 1.430878 0.776621 0.058824 -0.031684 604382.000000 0 0 1
-4.927998 -28.702194 29.655309 41.563668 1.400760 0.776328 0.062571 -0.029166 387075.000000 0 0 1
-6.151498 -28.846894 29.003199 41.366288 1.360697 0.793813 0.054582 -0.022778 -626974.000000 0 0 1
-7.242298 -29.556394 29.823239 42.608179 1.330498 0.795481 0.063748 -0.016945 -1252540.000000 0 0 1
-8.319998 -29.832194 29.013899 42.438055 1.298814 0.818008 0.087385 -0.012549 64528.800000 0 0 1
-9.584798 -30.164794 29.603929 43.337925 1.263138 0.818804 0.082467 -0.012632 921406.000000 0 0 1
-9.607598 -31.398394 30.564709 44.859409 1.273853 0.821198 0.071683 -0.006049 -920318.000000 0 0 1
-9.408698 -32.666694 30.011379 45.346658 1.290365 0.847551 0.085894 -0.005926 353132.000000 0 0 1
-10.419698 -33.167394 29.134699 45.359418 1.266405 0.873291 0.068996 -0.001880 56384.700000 0 0 1
-10.215798 33.524177 28.894159 45.421420 -1.275006 0.881318 0.078074 -0.004257 -227058.000000 0 0 1
-10.340998 32.657877 30.012069 45.543358 -1.264138 0.851337 0.080572 -0.004264 178287.000000 0 0 1
-10.104798 31.302377 29.628799 44.269758 -1.258544 0.837559 0.083511 -0.011897 -129577.000000 0 0 1
-10.611198 30.213477 30.586719 44.283170 -1.233046 0.808329 0.065872 -0.008254 319336.000000 0 0 1
-12.038398 30.170277 30.687139 44.686342 -1.191139 0.813825 0.060006 0.001123 442881.000000 0 0 1
-12.521398 28.960077 31.234479 44.396668 -1.162702 0.790441 0.047848 0.001936 39326.300000 0 0 1
-12.681498 28.993177 32.778672 45.561673 -1.158473 0.767808 0.059321 -0.007504 470731.000000 0 0 1
-13.919898 29.595677 33.214964 46.614391 -1.131161 0.777674 0.054287 -0.001066 919633.000000 0 0 1
-14.121198 29.503377 -33.564695 46.866259 -1.124390 2.369110 0.060310 -0.010068 168240.000000 0 0 1
-15.546098 29.935377 -33.123905 47.275798 -1.091811 2.347108 0.041039 -0.011497 181950.000000 0 0 1
-15.665098 29.740777 -31.774825 46.255255 -1.086001 2.328073 0.031522 -0.011676 -240960.000000 0 0 1
-16.964498 29.819577 -31.252275 46.408039 -1.053555 2.309627 0.047509 -0.011419 -207016.000000 0 0 1
-16.955498 29.558977 -29.723955 45.218752 -1.050003 2.288076 0.055588 -0.021117 -294537.000000 0 0 1
-16.886898 28.145977 -29.463105 44.107119 -1.030395 2.302301 0.052128 -0.024286 194888.000000 0 0 1
-17.053498 27.853977 -28.094815 43.081138 -1.021421 2.281197 0.051865 -0.024556 -210733.000000 0 0 1
-17.541098 26.420277 -27.858745 42.211738 -0.984694 2.291583 0.035360 -0.023082 1140060.000000 0 0 1
-18.944598 26.168977 -28.099575 42.817044 -0.944188 2.286662 0.037832 -0.024926 948966.000000 0 0 1
-19.337798 24.916277 -27.624825 41.927345 -0.910792 2.290117 0.027854 -0.022322 -850689.000000 0 0 1
-20.748398 24.515377 -27.966755 42.586842 -0.868430 2.287230 0.036664 -0.020023 -998841.000000 0 0 1
-21.751598 25.172277 -27.207805 42.977206 -0.858168 2.256316 0.033667 -0.023416 -237412.000000 0 0 1
-22.969998 24.682177 -27.679225 43.623047 -0.821313 2.258170 0.057522 -0.025255 -1084570.000000 0 0 1
-24.175198 24.600377 -26.801455 43.679936 -0.794115 2.231392 0.082114 -0.029659 -453877.000000 0 0 1
-24.646198 25.864277 -26.312465 44.370505 -0.809509 2.205597 0.047387 -0.014770 760622.000000 0 0 1
-25.934618 25.896177 -25.675955 44.748979 -0.784656 2.181907 0.060999 -0.018790 875391.000000 0 0 1
-25.848448 25.741977 -24.142015 43.745040 -0.783334 2.155413 0.056680 -0.008627 -293022.000000 0 0 1
-25.606588 24.442677 -23.647815 42.571833 -0.762147 2.159737 0.059875 -0.015190 562381.000000 0 0 1
-26.782598 23.616977 -23.507515 42.751286 -0.722670 2.153001 0.063550 -0.008557 475111.000000 0 0 1
-27.564808 23.721177 -22.175615 42.594258 -0.710593 2.118379 0.049640 -0.011032 12446.100000 0 0 1
-26.946858 23.158477 -20.997415 41.271536 -0.709933 2.104543 0.052757 -0.011500 1045840.000000 0 0 1
-25.893848 24.026477 -20.487915 40.835250 -0.748009 2.096384 0.057464 -0.006819 993322.000000 0 0 1
-24.980198 23.601877 -19.250815 39.391024 -0.757035 2.081408 0.061978 -0.012652 255419.000000 0 0 1
-25.505718 23.571677 -17.923815 39.082333 -0.746011 2.047234 0.057088 -0.012189 29862.100000 0 0 1
-24.496398 23.568477 -16.934015 37.977724 -0.766095 2.032968 0.064736 -0.022628 -166995.000000 0 0 1
-25.082038 23.714377 -15.526115 37.848918 -0.757378 1.993484 0.058802 -0.020788 169653.000000 0 0 1
-25.698838 24.986377 -15.307515 38.975240 -0.771343 1.974416 0.076148 -0.024652 32598.600000 0 0 1
-26.213978 25.136977 -13.982815 38.917341 -0.764428 1.938309 0.044406 -0.020642 163090.000000 0 0 1
-26.092118 26.493977 -13.335315 39.503925 -0.793040 1.915130 0.040029 -0.017898 -1212960.000000 0 0 1
-24.811998 26.930577 -13.174015 38.915883 -0.826320 1.916146 0.068631 -0.020385 -1403150.000000 0 0 1
-24.705398 27.945777 -12.242515 39.258150 -0.846865 1.887932 0.061704 -0.008171 648356.000000 0 0 1
-23.221598 28.377777 -11.952215 38.566777 -0.884995 1.885894 0.066971 -0.013852 935706.000000 0 0 1
-22.421398 27.269977 -11.471715 37.121032 -0.882664 1.884975 0.063908 -0.016069 -500222.000000 0 0 1
-21.309498 27.803677 -10.847615 36.671650 -0.916864 1.871093 0.055189 -0.013866 -408931.000000 0 0 1
-20.403098 26.735877 -10.117515 35.120616 -0.918941 1.863017 0.067948 -0.016301 451439.000000 0 0 1
-19.672898 25.884977 -11.005715 34.324637 -0.920918 1.897197 0.066875 -0.023203 338775.000000 0 0 1
-19.119998 24.741077 -10.345615 32.935194 -0.912860 1.890326 0.072364 -0.013117 -224308.000000 0 0 1
-18.511098 23.716177 -11.268315 32.126200 -0.908043 1.929170 0.078051 -0.017688 -203448.000000 0 0 1
-18.221498 22.424977 -10.786015 30.842191 -0.888447 1.928065 0.060602 -0.016924 276870.000000 0 0 1
-17.648498 21.605977 -11.822115 30.299342 -0.885875 1.971620 0.087867 -0.015468 197449.000000 0 0 1
-17.377498 20.174777 -11.337015 28.940059 -0.859751 1.973320 0.073609 -0.008148 -882385.000000 0 0 1
-18.521998 19.400177 -11.186315 29.061400 -0.808551 1.965918 0.067108 -0.002762 -658169.000000 0 0 1
-18.263598 18.050177 -10.831315 27.869074 -0.779521 1.969962 0.086001 -0.012230 -658354.000000 0 0 1
-19.470898 17.105777 -10.557915 27.985587 -0.720826 1.957635 0.084865 -0.002637 276381.000000 0 0 1
-20.214098 16.752977 -11.712715 28.748212 -0.692043 1.990428 0.070774 0.001559 232582.000000 0 0 1
-21.037398 17.723577 -12.341115 30.149634 -0.700112 1.992515 0.071557 0.003306 -625154.000000 0 0 1
-21.599998 17.224577 -13.678015 30.827489 -0.673174 2.030514 0.069692 -0.002168 250222.000000 0 0 1
-20.625398 16.979277 -14.700415 30.492706 -0.688741 2.073842 0.085652 -0.009325 -39453.100000 0 0 1
-21.238998 16.575077 -15.852115 31.258883 -0.662680 2.102640 0.065239 -0.007213 -422567.000000 0 0 1
-20.346198 16.351077 -17.070215 31.188423 -0.676958 2.149961 0.097410 -0.016898 -444739.000000 0 0 1
-19.540398 17.434577 -17.436815 31.461630 -0.728507 2.158228 0.075529 -0.020540 -70049.000000 0 0 1
-18.621198 17.079777 -18.435915 31.278599 -0.742249 2.201124 0.068896 -0.012080 -313138.000000 0 0 1
-17.766698 18.346077 -18.828115 31.729041 -0.801440 2.206077 0.058784 -0.004705 523978.000000 0 0 1
-16.575498 18.427477 -18.034415 30.652230 -0.838258 2.199820 0.075167 -0.014661 695108.000000 0 0 1
-15.730798 19.519477 -18.403315 31.099036 -0.892467 2.204043 0.072329 -0.015225 403128.000000 0 0 1
33.665375 30.355077 2.381585 45.392291 0.733737 1.518306 0.080824 -0.015727 -30422.800000 0 0 1
34.699085 30.056277 1.460385 45.929718 0.713823 1.538995 0.097052 -0.021327 282196.000000 0 0 1
34.736135 31.079677 0.489085 46.613138 0.729899 1.560304 0.088564 -0.009072 175619.000000 0 0 1
36.101345 31.152277 -0.246115 47.684715 0.711942 1.575958 0.068840 -0.007358 135839.000000 0 0 1
-36.481478 31.933477 0.380485 48.484946 -0.719019 1.562949 0.054281 -0.004741 297633.000000 0 0 1
-35.209079 31.812777 -0.247015 47.453062 -0.734767 1.576002 0.043946 0.000667 531101.000000 0 0 1
-34.203398 32.943477 0.066285 47.488415 -0.766637 1.569401 0.015349 -0.004666 161574.000000 0 0 1
-33.561128 32.863677 1.340285 46.991137 -0.774899 1.542270 0.014797 -0.002504 -49609.500000 0 0 1
-32.795128 33.979377 1.636985 47.252494 -0.803131 1.536146 0.009999 0.000706 -514133.000000 0 0 1
-32.005518 33.740177 2.963585 46.599738 -0.811776 1.507157 0.046771 -0.003961 -111481.000000 0 0 1
-31.852468 -33.247794 3.593285 46.183409 0.806828 1.492913 0.028741 0.003615 141640.000000 0 0 1
-31.238658 -33.355394 4.877085 45.958917 0.818156 1.464478 0.052765 -0.005123 -237340.000000 0 0 1
-31.339868 -32.127794 5.873585 45.264572 0.797812 1.440668 0.056607 -0.002322 1074650.000000 0 0 1
-32.649228 -31.808294 6.417885 46.031825 0.772353 1.430918 0.052162 0.000787 1030980.000000 0 0 1
-33.004648 -32.610994 7.456285 46.993403 0.779399 1.411456 0.053005 -0.013462 -1106700.000000 0 0 1
-34.163639 -32.024594 8.318285 47.559676 0.753092 1.394990 0.061207 -0.007693 1004440.000000 0 0 1
-35.454282 -31.793194 7.732185 48.245207 0.731010 1.409834 0.033449 -0.002046 637095.000000 0 0 1
-36.089268 -32.983594 7.378485 49.444866 0.740466 1.421010 0.031734 -0.007935 -1621690.000000 0 0 1
35.985885 -32.830094 7.019385 49.214538 -0.739572 1.427680 0.025506 -0.001917 -168393.000000 0 0 1
35.185685 -32.682394 8.182985 48.714808 -0.748530 1.402019 0.016229 0.006153 -1053200.000000 0 0 1
33.846835 -32.553094 7.902985 47.621102 -0.765917 1.404069 -0.006730 0.020762 -1169190.000000 0 0 1
33.062635 -32.339694 9.184085 47.152318 -0.774345 1.374768 -0.010804 0.010487 -870608.000000 0 0 1
31.677535 -32.223294 9.039285 46.081619 -0.793939 1.373358 0.003609 0.004718 -234450.000000 0 0 1
30.927375 -32.267794 10.251785 45.856430 -0.806606 1.345328 0.015804 0.003423 -33195.400000 0 0 1
30.902755 -31.058494 11.180785 45.217477 -0.787912 1.320938 0.009703 0.006910 -927252.000000 0 0 1
30.399165 -29.848994 10.732885 43.934798 -0.776267 1.324008 0.015212 -0.002822 17167.000000 0 0 1
30.997865 -29.229494 9.582985 43.669950 -0.756045 1.349555 0.018102 -0.001191 -191611.000000 0 0 1
30.733755 -27.738394 9.304185 42.432889 -0.734216 1.349732 0.024786 -0.002937 30055.700000 0 0 1
31.142065 -27.264194 8.023885 42.160968 -0.719101 1.379313 0.028577 -0.012741 -42451.700000 0 0 1
30.501705 -26.046094 7.715885 40.844680 -0.706767 1.380746 0.033351 -0.007794 -20716.900000 0 0 1
30.703475 -25.547794 6.274885 40.432256 -0.693999 1.414971 0.024368 0.000936 151954.000000 0 0 1
32.001325 -25.068894 5.982485 41.089225 -0.664518 1.424680 0.034255 -0.003780 -181754.000000 0 0 1
32.030655 -24.399994 4.734685 40.543061 -0.650991 1.453748 0.048400 -0.003035 443697.000000 0 0 1
33.479035 -24.181494 4.207985 41.512619 -0.625528 1.469256 0.048467 -0.015403 538242.000000 0 0 1
34.170335 -25.340894 3.808685 42.711577 -0.638107 1.481506 0.032165 0.001611 -358281.000000 0 0 1
35.533275 -25.132494 3.546585 43.667312 -0.615605 1.489488 0.047113 -0.011720 208345.000000 0 0 1
36.376115 -26.448694 3.460585 45.107990 -0.628676 1.494003 0.044781 -0.006407 99553.300000 0 0 1
36.186445 -27.165094 4.639785 45.485478 -0.643948 1.468613 0.023182 -0.003009 109495.000000 0 0 1
36.627155 -28.510394 4.482685 46.631379 -0.661428 1.474517 0.024793 -0.004788 66911.200000 0 0 1
35.631685 -29.428894 5.293885 46.515610 -0.690347 1.456740 0.029949 -0.001510 1427360.000000 0 0 1
34.293945 -29.577894 4.782385 45.538969 -0.711696 1.465585 0.029975 0.003395 756661.000000 0 0 1
33.396695 -28.586594 5.280585 44.276598 -0.707950 1.451248 0.018671 0.001611 -345236.000000 0 0 1
32.228275 -29.370494 5.988185 44.013021 -0.739038 1.434318 0.013474 0.005814 500339.000000 0 0 1
31.333015 -30.204794 5.258885 43.837692 -0.767066 1.450544 0.002863 0.003504 355035.000000 0 0 1
30.509195 -29.553394 4.304485 42.693590 -0.769486 1.469802 0.032125 0.000724 -540265.000000 0 0 1
29.330265 -30.405994 3.804185 42.417694 -0.803404 1.480992 0.040250 0.005284 -41751.100000 0 0 1
29.565295 -31.594094 3.110985 43.381697 -0.818558 1.499023 0.040903 0.016842 -76183.300000 0 0 1
28.309605 -32.260294 3.039885 43.027912 -0.850531 1.500088 0.054266 0.010436 305773.000000 0 0 1
28.350705 -33.686894 2.520085 44.101249 -0.871202 1.513622 0.050017 -0.001679 -213242.000000 0 0 1
28.392505 -33.687994 1.133085 44.071523 -0.870493 1.545083 0.060737 -0.004860 217765.000000 0 0 1
28.490195 33.293577 0.550985 43.823020 0.862987 1.558223 0.056933 -0.005818 -298914.000000 0 0 1
28.169505 33.290777 -0.936215 43.619644 0.868533 1.592261 0.053691 -0.006945 69793.300000 0 0 1
29.192555 33.895477 -1.731915 44.767267 0.859806 1.609493 0.048248 -0.004953 671348.000000 0 0 1
28.798755 33.960477 -3.079515 44.633684 0.867460 1.639847 0.062270 -0.006733 -137699.000000 0 0 1
29.916465 -33.546594 -3.797315 45.108630 -0.842537 1.655078 0.039624 -0.002854 -17007.000000 0 0 1
29.755965 -32.143294 -3.800115 43.966461 -0.823947 1.657336 0.037271 0.005018 62005.900000 0 0 1
30.738305 -31.594094 -4.651815 44.324593 -0.799127 1.675939 0.032008 0.004972 -111444.000000 0 0 1
30.823605 -30.051894 -4.564415 43.290240 -0.772722 1.676430 0.039607 0.006796 489671.000000 0 0 1
29.763835 -29.270594 -5.200215 42.067752 -0.777043 1.694729 0.025215 0.004439 709852.000000 0 0 1
29.954495 -27.853194 -5.218015 41.234693 -0.749064 1.697681 0.031976 -0.002487 -37977.300000 0 0 1
31.080035 -27.332394 -6.135915 41.841102 -0.721328 1.717975 0.060080 -0.008372 -103910.000000 0 0 1
32.385625 -27.610794 -5.664315 42.933310 -0.705980 1.703115 0.066766 -0.005851 901603.000000 0 0 1
33.517035 -27.342594 -6.534315 43.745930 -0.684290 1.720727 0.075356 -0.013808 1136960.000000 0 0 1
33.704855 -28.283694 -7.694115 44.667483 -0.698166 1.743913 0.082387 -0.008914 -334161.000000 0 0 1
32.526015 -28.324294 -8.510015 43.961661 -0.716457 1.765604 0.078504 -0.006915 276894.000000 0 0 1
32.361175 -29.377894 -9.513615 44.730473 -0.737115 1.785121 0.064733 -0.000478 62566.900000 0 0 1
32.265395 -30.785594 -8.912515 45.477923 -0.761933 1.768047 0.061007 0.005276 -664369.000000 0 0 1
33.429635 -31.166394 -8.260615 46.444832 -0.750376 1.749606 0.079793 0.000987 -1122760.000000 0 0 1
33.345935 -32.386194 -7.610315 47.103438 -0.770798 1.733074 0.081011 -0.010479 643524.000000 0 0 1
34.695045 -33.021394 -7.125915 48.424552 -0.760688 1.718488 0.070293 -0.017971 653673.000000 0 0 1
34.521465 33.931877 -6.526215 48.843580 0.776785 1.704812 0.057594 -0.014097 93142.700000 0 0 1
34.043455 33.895677 -5.150115 48.315602 0.783223 1.677592 0.064560 -0.014332 146254.000000 0 0 1
33.919635 32.420877 -4.630115 47.149686 0.762810 1.669155 0.036104 -0.007289 -396308.000000 0 0 1
32.869765 31.670977 -5.139915 45.933549 0.766826 1.682930 0.054226 -0.018435 -455046.000000 0 0 1
32.952275 30.263177 -4.855215 45.003171 0.742885 1.678893 0.062576 -0.005305 385724.000000 0 0 1
31.780485 29.426477 -5.452915 43.653763 0.746957 1.696036 0.074275 -0.022634 259434.000000 0 0 1
31.827815 29.323777 -6.843215 43.814647 0.744473 1.727624 0.068674 -0.019519 -246627.000000 0 0 1
30.618915 28.844377 -7.374115 42.707068 0.755564 1.744333 0.060140 -0.023940 -111928.000000 0 0 1
30.719135 28.632777 -8.922415 42.931465 0.750260 1.780152 0.063143 -0.018387 -153009.000000 0 0 1
31.607205 27.562277 -9.193515 42.932683 0.717143 1.786606 0.064710 -0.019200 -45560.600000 0 0 1
31.872055 27.370477 -10.564015 43.319387 0.709558 1.817144 0.066123 -0.014493 245621.000000 0 0 1
33.106535 28.199677 -11.002415 44.858863 0.705530 1.818592 0.071704 -0.019460 -1538630.000000 0 0 1
34.322275 27.772977 -10.505315 45.384121 0.680315 1.804391 0.072923 -0.017949 17814.500000 0 0 1
35.425975 28.602077 -10.916415 46.821433 0.679222 1.806112 0.070388 -0.013104 548756.000000 0 0 1
35.521935 29.983877 -10.217615 47.594542 0.701056 1.787161 0.052294 -0.016781 -869218.000000 0 0 1
36.120585 29.894977 -8.911615 47.726546 0.691371 1.758621 0.058332 -0.008941 228345.000000 0 0 1
36.100795 31.207377 -8.360415 48.446510 0.712824 1.744235 0.049776 -0.007334 -677252.000000 0 0 1
-36.473178 31.373177 -7.216715 48.648227 -0.710369 1.719691 0.030701 0.002930 849652.000000 0 0 1
-35.062019 31.415077 -7.444915 47.662134 -0.730593 1.727640 0.043206 0.000453 770845.000000 0 0 1
-34.349455 30.299377 -7.980315 46.493255 -0.722833 1.743295 0.049831 -0.001657 461555.000000 0 0 1
-32.913368 30.798777 -8.402615 45.852573 -0.752221 1.755091 0.070337 -0.014363 467520.000000 0 0 1
-32.157848 31.354577 -7.334515 45.508591 -0.772751 1.732670 0.071114 -0.012593 590763.000000 0 0 1
-30.777668 31.614577 -7.585515 44.769257 -0.798811 1.741053 0.074678 -0.015647 791791.000000 0 0 1
-30.459718 32.757177 -8.641115 45.557611 -0.821725 1.761627 0.049805 -0.012035 -418754.000000 0 0 1
-30.834268 34.036177 -8.084915 46.632385 -0.834717 1.745052 0.041843 -0.014057 703778.000000 0 0 1
-29.869228 -33.673194 -7.131915 45.573227 0.845192 1.727936 0.065296 -0.027035 654960.000000 0 0 1
-30.292628 -32.232294 -6.668515 44.732910 0.816411 1.720428 0.030486 -0.026836 296938.000000 0 0 1
-31.360528 -32.239194 -5.729115 45.339510 0.799213 1.697495 0.027944 -0.027895 189463.000000 0 0 1
-30.986298 -32.711394 -4.432715 45.275103 0.812474 1.668860 0.043964 -0.032602 -126376.000000 0 0 1
-32.235788 -32.861394 -3.531515 46.168050 0.795008 1.647364 0.030497 -0.027870 -277556.000000 0 0 1
-32.874178 -31.605594 -3.325815 45.724022 0.765727 1.643597 0.007610 -0.020930 92224.000000 0 0 1
-33.660758 -31.602694 -2.153715 46.221374 0.753874 1.617409 0.028062 -0.019009 -698822.000000 0 0 1
-34.317599 -30.273194 -1.846315 45.799266 0.722864 1.611120 0.044198 -0.010469 -32832.800000 0 0 1
-35.164086 -30.321694 -0.700015 46.437142 0.711587 1.585871 0.042350 -0.007814 -177976.000000 0 0 1
-35.910929 -29.139194 -0.577515 46.249551 0.681672 1.583284 0.067181 -0.011346 -608692.000000 0 0 1
36.637785 -29.247894 0.536385 46.883412 -0.673703 1.559355 0.067253 -0.005882 -488391.000000 0 0 1
35.448675 -29.999394 0.282685 46.439769 -0.702329 1.564709 0.039779 0.004027 808026.000000 0 0 1
34.460155 -29.920894 1.306685 45.655992 -0.715008 1.542172 0.037373 0.004982 756600.000000 0 0 1
33.635805 -28.569694 1.393785 44.153566 -0.704136 1.539224 0.033348 0.020249 364931.000000 0 0 1
32.572265 -28.457294 0.406685 43.254311 -0.718074 1.561394 0.031405 0.014271 1045100.000000 0 0 1
31.773195 -27.280194 0.631685 41.882502 -0.709461 1.555713 0.040139 0.010659 654136.000000 0 0 1
30.369365 -27.330994 -0.040815 40.856863 -0.732789 1.571795 0.040365 -0.002938 285002.000000 0 0 1
29.475925 -28.318494 0.466785 40.877685 -0.765374 1.559377 0.037350 0.018633 184007.000000 0 0 1
29.473325 -29.648894 -0.078115 41.805979 -0.788368 1.572665 0.037944 0.025219 -114260.000000 0 0 1
28.836555 -29.744594 -1.497815 41.455171 -0.800897 1.606935 0.032576 0.009893 -851253.000000 0 0 1
27.449405 -29.763194 -1.510915 40.516668 -0.825818 1.608096 0.035500 0.021984 -777714.000000 0 0 1
27.078805 -30.108294 -2.839815 40.593541 -0.838324 1.640811 0.034600 0.017543 1964260.000000 0 0 1
25.495205 -30.341794 -2.994815 39.744168 -0.871980 1.646220 0.029070 0.010458 1928880.000000 0 0 1
24.642405 -29.214794 -2.962515 38.334434 -0.870093 1.648154 0.042457 0.014954 -585720.000000 0 0 1
23.393005 -29.680494 -3.385515 37.942405 -0.903316 1.660143 0.042353 0.014755 -350761.000000 0 0 1
22.434005 -28.487094 -3.668815 36.445292 -0.903715 1.671633 0.035559 0.017513 -44465.800000 0 0 1
22.657605 -27.853494 -4.903815 36.238538 -0.887904 1.706533 0.036946 0.016259 -155673.000000 0 0 1
22.024005 -26.634594 -4.857715 34.900656 -0.879870 1.710437 0.035792 0.008104 -239189.000000 0 0 1
21.427905 -26.064794 -6.135715 34.295417 -0.882723 1.750672 0.036852 -0.017116 -187267.000000 0 0 1
20.311405 -26.798494 -6.584515 34.264680 -0.922239 1.764165 0.045168 -0.010907 -631518.000000 0 0 1
19.717805 -25.969794 -7.540115 33.467527 -0.921396 1.798044 0.054324 -0.015032 -133065.000000 0 0 1
18.183105 -26.056994 -7.601915 32.670803 -0.961535 1.805631 0.059028 -0.015021 -153928.000000 0 0 1
17.511605 -25.689994 -6.448515 31.752409 -0.972492 1.775306 0.050815 -0.011060 376387.000000 0 0 1
16.083305 -25.688494 -6.562015 31.010183 -1.011414 1.784017 0.060003 -0.017833 914435.000000 0 0 1
15.430105 -24.672894 -5.598515 29.634156 -1.011919 1.760860 0.050255 -0.007454 -132661.000000 0 0 1
15.561905 -25.106494 -4.259515 29.843800 -1.015919 1.714012 0.036061 -0.001724 80854.900000 0 0 1
14.876605 -24.236994 -3.376515 28.638193 -1.020293 1.688974 0.040197 0.001975 -28022.200000 0 0 1
14.881005 -24.705994 -1.884615 28.902980 -1.028670 1.636048 0.028319 0.004944 -238732.000000 0 0 1
14.128605 -25.885994 -1.676815 29.538346 -1.071183 1.627594 0.031202 0.006305 65926.500000 0 0 1
14.797705 -26.927394 -1.018915 30.742394 -1.068306 1.603946 0.035822 0.006058 -392012.000000 0 0 1
14.168505 -28.299994 -1.413115 31.680169 -1.106626 1.615417 0.042520 -0.002987 780594.000000 0 0 1
12.847405 -28.570394 -0.918415 31.339539 -1.148212 1.600106 0.045052 -0.013362 628061.000000 0 0 1
12.348805 -29.920794 -1.151615 32.389398 -1.179376 1.606359 0.052549 -0.017712 32002.900000 0 0 1
13.183305 -31.111394 -0.658215 33.795734 -1.169989 1.590274 0.050468 -0.016094 -594731.000000 0 0 1
14.284105 -31.443494 -1.440215 34.565925 -1.144390 1.612474 0.050072 -0.013421 -685303.000000 0 0 1
14.911005 -32.664594 -1.079815 35.923248 -1.142560 1.600860 0.058207 -0.014309 -472687.000000 0 0 1
16.288905 -32.707894 -1.741215 36.580959 -1.108741 1.618413 0.052576 -0.006181 -324990.000000 0 0 1
17.174905 -31.773594 -1.141315 36.136425 -1.075245 1.602385 0.045184 0.001232 -1293900.000000 0 0 1
18.409905 -31.815894 -1.735415 36.799285 -1.046232 1.617973 0.034215 0.004274 -1151690.000000 0 0 1
19.286805 -30.773094 -1.045715 36.332598 -1.010945 1.599582 0.032445 0.005571 -436324.000000 0 0 1
18.897105 -29.523094 -1.506715 35.085379 -1.001427 1.613754 0.026218 0.007640 151930.000000 0 0 1
19.374705 -28.474094 -0.670015 34.447092 -0.973324 1.590248 0.025697 0.011756 -105882.000000 0 0 1
18.664405 -27.121494 -0.912815 32.935827 -0.968049 1.598515 0.013152 0.020609 -155978.000000 0 0 1
19.153005 -26.410694 -2.040715 32.688329 -0.943358 1.633266 0.019988 0.016549 458520.000000 0 0 1
18.181405 -26.493994 -3.074115 32.279179 -0.969361 1.666176 0.039474 0.011557 89418.200000 0 0 1
32.745555 -29.480794 13.847585 46.185974 -0.732980 1.266290 -0.012047 -0.000076 350495.000000 0 0 1
33.589335 -29.857694 14.947485 47.361932 -0.726651 1.249706 0.015488 0.007399 -77013.500000 0 0 1
32.893355 -30.494094 15.968585 47.611535 -0.747566 1.228774 0.007661 0.011316 -170202.000000 0 0 1
33.704545 -30.651294 17.291385 48.728741 -0.737990 1.208043 0.021900 0.001042 196162.000000 0 0 1
32.835795 -31.063994 18.372985 48.792702 -0.757677 1.184725 0.012579 -0.008735 818606.000000 0 0 1
33.566575 -31.295694 19.568485 49.890490 -0.750402 1.167743 0.008290 -0.011210 -120767.000000 0 0 1
34.329065 -32.636094 19.629085 51.272803 -0.760122 1.177932 0.003417 -0.012308 -18189.300000 0 0 1
35.423595 -32.686394 18.720685 51.707789 -0.745232 1.200333 0.010544 -0.002580 -176893.000000 0 0 1
36.116605 -33.868494 18.899285 52.996858 -0.753287 1.206158 0.027612 -0.021559 -362534.000000 0 0 1
-36.423398 -34.007994 17.712485 52.886101 0.751117 1.229279 0.039386 -0.014697 140519.000000 0 0 1
-35.196934 -33.377194 18.072185 51.763550 0.758868 1.214154 0.056728 -0.014136 54498.800000 0 0 1
-34.429415 -33.237994 16.901885 50.752562 0.767793 1.231286 0.062840 -0.006665 103213.000000 0 0 1
-33.205528 -32.308794 17.206085 49.421803 0.771711 1.215202 0.043106 -0.006723 518552.000000 0 0 1
-32.121398 -32.270394 16.287185 48.357367 0.787712 1.227271 0.065730 -0.009574 328857.000000 0 0 1
-32.278418 -31.354294 15.223385 47.505152 0.770876 1.244584 0.076286 -0.008466 -514842.000000 0 0 1
-31.115708 -31.271994 14.233285 46.354194 0.787903 1.258699 0.070060 -0.017990 674038.000000 0 0 1
-29.944738 -30.650194 14.818185 45.339832 0.797040 1.237854 0.069673 -0.026246 255406.000000 0 0 1
-28.784898 -30.956694 14.101385 44.561602 0.821735 1.248815 0.069892 -0.020285 -1652010.000000 0 0 1
-27.538528 -30.521994 14.733985 43.669818 0.836738 1.226648 0.072272 -0.027283 -1157870.000000 0 0 1
-26.450398 -30.585894 13.802385 42.727349 0.857778 1.241863 0.073165 -0.032836 -679040.000000 0 0 1
-25.329478 -30.205594 14.531285 42.013315 0.872976 1.217627 0.067423 -0.029688 -48545.800000 0 0 1
-24.021798 -29.939194 13.690485 40.753301 0.894622 1.228198 0.091328 -0.028457 648262.000000 0 0 1
-23.476398 -31.190694 13.284685 41.236919 0.925587 1.242791 0.089555 -0.047786 403920.000000 0 0 1
-22.203098 -30.955494 12.663285 40.144476 0.948581 1.249873 0.092078 -0.044091 772728.000000 0 0 1
-21.557198 -32.281594 12.211385 40.693145 0.982019 1.266015 0.082218 -0.040228 -360551.000000 0 0 1
-22.346598 -32.881094 11.258185 41.319288 0.973881 1.294839 0.061125 -0.038318 -285083.000000 0 0 1
-21.983698 34.002177 11.070685 41.976078 -0.996859 1.303901 0.071378 -0.032263 -197488.000000 0 0 1
-22.840798 33.111177 10.158285 41.487864 -0.966934 1.323432 0.050731 -0.019901 -84843.700000 0 0 1
-22.640198 33.422577 8.802985 41.317548 -0.975405 1.356094 0.042313 -0.019633 -26574.000000 0 0 1
-23.733998 32.990577 8.042185 41.428946 -0.947157 1.375436 0.040065 -0.017365 -576685.000000 0 0 1
-23.541298 33.290577 6.541985 41.294707 -0.955290 1.411704 0.038304 -0.006592 -711491.000000 0 0 1
-22.739298 32.480977 5.687285 40.055396 -0.960016 1.428329 0.030457 -0.006416 768974.000000 0 0 1
-21.323798 32.522077 5.882185 39.331793 -0.990444 1.420680 0.047264 -0.012882 297334.000000 0 0 1
-20.631398 33.883477 5.565985 40.059016 -1.023864 1.431401 0.060970 -0.016268 -1014700.000000 0 0 1
-20.748098 -33.272594 6.480485 39.743500 1.013219 1.407007 0.060083 -0.018685 146892.000000 0 0 1
-19.897198 -33.447494 7.607985 39.654947 1.034151 1.377745 0.067258 -0.023095 -216285.000000 0 0 1
-19.998198 -32.323894 8.663985 38.984955 1.016753 1.346686 0.062468 -0.027559 -518695.000000 0 0 1
-19.314798 -31.146494 8.292985 37.575778 1.015708 1.348264 0.077033 -0.038386 -260590.000000 0 0 1
-19.341398 -30.009194 9.129285 36.850852 0.998286 1.320454 0.079127 -0.036393 322537.000000 0 0 1
-18.481198 -30.094794 10.443485 36.828219 1.020074 1.283278 0.070505 -0.031236 763038.000000 0 0 1
-17.139498 -30.503894 10.198285 36.445232 1.058879 1.287185 0.075982 -0.041790 112907.000000 0 0 1
-16.386198 -30.555294 11.386585 36.493668 1.078548 1.253483 0.095872 -0.040385 7004.360000 0 0 1
-14.969198 -31.148094 11.310585 36.362206 1.122804 1.254495 0.099916 -0.045121 -47718.000000 0 0 1
-14.055498 -30.289194 10.664285 35.053092 1.136326 1.261664 0.089289 -0.036703 -242719.000000 0 0 1
-12.901398 -31.035294 10.328185 35.161157 1.176828 1.272661 0.092825 -0.027151 311645.000000 0 0 1
-11.767798 -30.252394 9.588185 33.847034 1.199820 1.283584 0.096842 -0.016994 1034700.000000 0 0 1
-10.890098 -29.597694 10.557985 33.257913 1.218232 1.247749 0.082132 -0.020129 80191.600000 0 0 1
-9.921298 -28.754394 10.000585 32.019666 1.238551 1.253155 0.081030 -0.013696 268386.000000 0 0 1
-8.943998 -28.258394 11.114285 31.655320 1.264265 1.212047 0.079512 -0.005367 117427.000000 0 0 1
-9.580898 -27.500394 12.116685 31.541708 1.235555 1.176511 0.056472 -0.013431 -585174.000000 0 0 1
-8.763898 -27.218394 13.209685 31.498296 1.259294 1.138037 0.063289 -0.005599 -385636.000000 0 0 1
-9.122498 -25.930894 13.929385 30.816538 1.232519 1.101779 0.062895 -0.010436 46265.600000 0 0 1
-8.749798 -24.717594 13.240785 29.374084 1.230571 1.103175 0.054223 -0.010171 102990.000000 0 0 1
-9.548398 -24.349094 12.097385 28.816610 1.197079 1.137565 0.041951 -0.009631 244970.000000 0 0 1
-9.113498 -22.982194 11.486685 27.261347 1.193271 1.135858 0.041545 -0.007778 -428913.000000 0 0 1
-8.014998 -23.136294 10.658385 26.704484 1.237310 1.160236 0.039624 -0.012182 -751531.000000 0 0 1
-7.577998 -21.880594 10.137285 25.277480 1.237391 1.158144 0.034826 -0.009325 293991.000000 0 0 1
-6.286698 -21.928794 9.277085 24.626386 1.291598 1.184551 0.036239 -0.014117 589490.000000 0 1 0
-5.074598 -22.177994 9.992985 24.849039 1.345856 1.156935 0.050143 -0.017594 81449.300000 0 1 0
-4.066298 -22.483994 9.054485 24.577398 1.391877 1.193501 0.050170 -0.019791 324499.000000 0 1 0
-2.936798 -23.427594 9.575985 25.478941 1.446090 1.185494 0.074154 -0.021143 -315708.000000 0 0 1
-2.048998 -22.809494 10.421185 25.160932 1.481206 1.143753 0.066161 -0.019090 -1248760.000000 0 0 1
-1.121098 -23.788794 10.811285 26.154301 1.523704 1.144649 0.073529 -0.025981 797365.000000 0 0 1
-0.027498 -23.208194 11.802085 26.036709 1.569611 1.100348 0.068623 -0.022294 459342.000000 0 0 1
-0.643298 -22.914594 13.028485 26.367288 1.542730 1.053979 0.080821 -0.018320 332952.000000 0 0 1
0.258402 -22.691694 14.149685 26.743099 -1.559409 1.013261 0.096498 -0.020103 509837.000000 0 0 1
1.058702 -21.342994 14.091785 25.597317 -1.521233 0.987812 0.067614 -0.019799 222775.000000 0 0 1
2.059102 -21.208294 13.108585 25.017327 -1.474010 1.019279 0.054468 -0.027262 -65996.700000 0 0 1
2.524302 -19.866994 13.009085 23.881077 -1.444413 0.994712 0.044315 -0.019798 -134300.000000 0 1 0
3.982602 -19.633194 12.588285 23.659847 -1.370661 1.009773 0.046938 -0.015356 -26816.600000 0 1 0
4.147002 -19.904594 11.241685 23.232864 -1.365391 1.065725 0.045380 -0.023547 313666.000000 0 1 0
5.536502 -20.129894 10.973285 23.585556 -1.302394 1.086874 0.060802 -0.024075 841591.000000 0 1 0
5.882102 -21.143794 9.847285 24.054691 -1.299462 1.149032 0.067208 -0.029923 -464423.000000 0 1 0
5.688702 -20.639494 8.525585 23.044211 -1.301852 1.191823 0.061991 -0.028944 -262915.000000 0 1 0
5.938202 -21.599794 7.462585 23.611512 -1.302505 1.249226 0.062667 -0.032251 -934643.000000 0 1 0
7.385302 -22.046694 7.215585 24.344693 -1.247560 1.269883 0.062384 -0.024285 -469174.000000 0 1 0
8.288102 -21.127794 6.622785 23.641861 -1.196959 1.286867 0.077825 -0.034980 193027.000000 0 1 0
8.724602 -20.030194 7.466385 23.088401 -1.160005 1.241494 0.083485 -0.022182 -116938.000000 0 1 0
9.649202 -20.344494 8.698785 24.138649 -1.127927 1.202134 0.077040 -0.012900 205031.000000 0 1 0
9.034402 -20.607094 9.968585 24.609864 -1.157620 1.153747 0.073466 -0.013492 -480688.000000 0 1 0
9.796802 -19.983594 10.985185 24.819260 -1.114985 1.112292 0.066698 -0.007876 216717.000000 0 1 0
9.219002 -20.018694 12.424385 25.300266 -1.139229 1.057470 0.076042 -0.008354 19119.200000 0 0 1
9.435602 -21.288194 12.993285 26.665394 -1.153585 1.061834 0.057043 -0.011729 5185.160000 0 0 1
8.725702 -21.379694 14.220385 27.119154 -1.183301 1.018825 0.064748 -0.015602 287353.000000 0 0 1
8.845002 -22.771494 14.818485 28.572058 -1.200309 1.025542 0.052081 -0.018973 -22299.200000 0 0 1
8.213602 -23.724194 13.987785 28.739498 -1.237500 1.062477 0.064929 -0.017571 -248110.000000 0 0 1
8.215402 -24.947594 14.673285 30.086219 -1.252674 1.061334 0.069810 -0.024196 180811.000000 0 0 1
8.067802 -26.101094 13.625785 30.528979 -1.271014 1.108144 0.076784 -0.032043 58341.400000 0 0 1
9.290302 -26.654594 13.218985 31.169194 -1.235419 1.132824 0.067376 -0.021168 -139667.000000 0 0 1
9.028102 -27.832294 12.465585 31.804623 -1.257130 1.168054 0.069888 -0.022302 80051.500000 0 0 1
10.234402 -28.219794 11.560885 32.167590 -1.222881 1.203176 0.056568 -0.019422 -616048.000000 0 0 1
11.291102 -28.638894 12.333185 33.162972 -1.195250 1.189745 0.055372 -0.021686 -1244680.000000 0 0 1
12.352002 -28.943494 11.488685 33.500562 -1.167434 1.220751 0.058901 -0.022517 -185807.000000 0 0 1
13.427002 -29.795994 12.242285 34.899272 -1.147418 1.212383 0.056913 -0.021579 -286191.000000 0 0 1
13.928302 -29.256394 13.477485 35.093828 -1.126469 1.176627 0.050580 -0.018170 908317.000000 0 0 1
14.983602 -30.001494 14.105085 36.380646 -1.107606 1.172652 0.055002 -0.017443 1016560.000000 0 0 1
16.378502 -30.182594 13.450485 36.880345 -1.073616 1.197479 0.056183 -0.015408 -218583.000000 0 0 1
17.055302 -28.938194 13.400685 36.164634 -1.038230 1.191199 0.048290 -0.021186 183094.000000 0 0 1
18.440402 -29.167894 13.194085 36.944531 -1.007025 1.205600 0.045234 -0.022253 -100333.000000 0 0 1
19.213702 -27.838094 13.171385 36.298915 -0.966682 1.199462 0.044964 -0.028400 -1111180.000000 0 0 1
20.493602 -27.999094 12.703485 36.950176 -0.938955 1.219835 0.034215 -0.024965 -1348500.000000 0 0 1
21.216702 -26.840194 12.622785 36.467508 -0.901886 1.217345 0.036603 -0.023726 156677.000000 0 0 1
22.537702 -27.014694 11.790485 37.104679 -0.875502 1.247427 0.045426 -0.017641 1185700.000000 0 0 1
23.558802 -27.775194 12.464785 38.494797 -0.867351 1.241049 0.067182 -0.026867 814148.000000 0 0 1
24.646802 -28.182194 11.631085 39.204375 -0.852220 1.269584 0.051296 -0.027884 856547.000000 0 0 1
25.727302 -29.017194 12.437185 40.725608 -0.845421 1.260449 0.060179 -0.023277 1107730.000000 0 0 1
26.713502 -28.268194 13.201785 41.072973 -0.813667 1.243565 0.042993 -0.018314 1377230.000000 0 0 1
27.998602 -28.268294 12.538885 41.716205 -0.790191 1.265500 0.020821 -0.014679 641659.000000 0 0 1
29.082102 -27.578594 13.395485 42.258567 -0.758869 1.248244 0.027530 -0.012638 -266390.000000 0 0 1
29.163102 -26.160294 13.566385 41.459550 -0.731174 1.237436 0.041739 -0.007622 165890.000000 0 0 1
28.360702 -25.706694 14.656485 40.987511 -0.736351 1.205117 0.049453 -0.010093 113195.000000 0 0 1
29.113402 -25.539494 16.028885 41.913972 -0.720098 1.178379 0.024821 -0.005678 121842.000000 0 0 1
29.765502 -26.752794 16.510385 43.293070 -0.732144 1.179526 0.034754 -0.003727 912847.000000 0 0 1
30.530902 -26.435794 17.701285 44.094474 -0.713636 1.157708 0.046819 0.006546 -61413.800000 0 0 1
30.806302 -27.673594 18.567285 45.382817 -0.731880 1.149300 0.032778 0.007416 -326342.000000 0 0 1
29.670702 -28.390694 18.989485 45.243592 -0.763356 1.137663 0.020448 0.001126 -7294.410000 0 0 1
30.104202 -29.334494 20.023185 46.558602 -0.772449 1.126233 0.034866 -0.012380 51878.800000 0 0 1
29.075902 -30.315194 20.622885 46.794470 -0.806262 1.114405 0.028298 -0.006442 -1160530.000000 0 0 1
28.139402 -29.635594 21.455385 46.156559 -0.811289 1.087343 0.018723 0.006787 509653.000000 0 0 1
27.013902 -30.439794 21.800085 46.168990 -0.844956 1.079034 0.014914 0.003673 522158.000000 0 0 1
26.008702 -30.722694 20.658785 45.245131 -0.868301 1.096630 0.053726 0.001401 -1156360.000000 0 0 1
26.277702 -31.935694 20.072185 45.970629 -0.882288 1.118946 0.053866 -0.004756 100607.000000 0 0 1
25.543802 -32.272994 18.890485 45.286669 -0.901265 1.140510 0.065433 -0.000010 -251650.000000 0 0 1
25.908702 -31.412094 17.678485 44.390419 -0.881115 1.161188 0.061700 -0.004481 1300500.000000 0 0 1
27.310102 -31.422194 17.299185 45.082788 -0.855298 1.176975 0.055233 -0.009330 1220560.000000 0 0 1
27.663902 -30.308194 16.388585 44.186693 -0.830980 1.190825 0.054222 -0.021266 -810772.000000 0 0 1
29.139602 -30.227994 16.023285 44.939890 -0.803729 1.206225 0.055193 -0.008480 -595288.000000 0 0 1
29.662102 -31.160294 15.046985 45.576485 -0.810025 1.234336 0.101401 -0.011188 383415.000000 0 0 1
29.585902 -32.559894 15.342085 46.592401 -0.833217 1.235252 0.103349 -0.018314 -781418.000000 0 0 1
28.487202 -33.279894 14.565885 46.165323 -0.862836 1.249796 0.096396 -0.017605 -195355.000000 0 0 1
28.862302 -33.569194 13.268985 46.216763 -0.860649 1.279595 0.098879 -0.012527 241679.000000 0 0 1
28.242502 33.452077 12.917685 45.645886 0.869640 1.283878 0.084837 -0.027424 -57773.800000 0 0 1
28.480502 33.059177 11.430985 45.107822 0.859663 1.314588 0.088536 -0.030916 -174948.000000 0 0 1
29.816302 32.705577 11.139085 45.637110 0.831578 1.324226 0.060513 -0.016931 276712.000000 0 0 1
29.889002 31.958077 9.968385 44.878055 0.818840 1.346806 0.060347 -0.024490 1011640.000000 0 0 1
31.330302 31.355077 9.660085 45.365691 0.785793 1.356215 0.049056 -0.016023 1119750.000000 0 0 1
31.707802 30.324677 10.569785 45.129714 0.763105 1.334391 0.048185 -0.010766 -92097.700000 0 0 1
32.946002 29.769977 10.232985 45.567582 0.734800 1.344297 0.060332 -0.006800 -345355.000000 0 0 1
33.533002 28.732777 11.283785 45.578048 0.708458 1.320624 0.049628 -0.019540 -78636.300000 0 0 1
33.009002 27.429277 11.264285 44.371653 0.693338 1.314125 0.054071 -0.019090 226264.000000 0 0 1
33.055902 26.852777 12.572385 44.405283 0.682223 1.283742 0.065446 -0.027286 -42885.300000 0 0 1
33.008102 25.308377 12.524885 43.438709 0.654124 1.278309 0.062762 -0.027359 324449.000000 0 0 1
34.277902 24.867777 12.046785 44.028467 0.627620 1.293648 0.062014 -0.013282 334735.000000 0 0 1
34.559802 23.442377 12.126385 43.485333 0.596022 1.288188 0.086555 -0.018245 230800.000000 0 0 1
33.651802 22.395277 11.325285 41.979212 0.587195 1.297628 0.066840 -0.024829 682791.000000 0 0 1
32.349102 22.245877 11.858085 41.011676 0.602411 1.277469 0.097695 -0.035291 421312.000000 0 0 1
31.318602 22.436577 10.882585 40.033554 0.621647 1.295495 0.098970 -0.029820 -107238.000000 0 0 1
29.914102 22.288677 11.455585 39.023955 0.640351 1.272855 0.080028 -0.021385 -452033.000000 0 0 1
29.690902 23.163577 12.486985 39.673993 0.662524 1.250614 0.080490 -0.016791 -1280820.000000 0 0 1
28.409202 23.108277 12.960885 38.846618 0.682863 1.230631 0.120282 -0.005345 -1016250.000000 0 0 1
24.529602 9.523377 25.883389 36.909970 0.370328 0.793637 0.041927 0.002686 -346410.000000 0 0 1
24.296002 8.189777 26.108629 36.592741 0.325122 0.776327 0.036691 0.002861 -498591.000000 0 0 1
22.926002 8.033777 26.299749 35.802513 0.337051 0.745751 0.045349 -0.004035 -554822.000000 0 0 1
22.476602 6.692877 27.009629 35.770271 0.289410 0.715011 0.055022 -0.006705 -32148.700000 0 0 1
22.734302 6.644077 28.406909 36.985737 0.284331 0.695005 0.055847 -0.007302 465179.000000 0 0 1
24.048202 6.198677 28.735819 37.980086 0.252269 0.712695 0.050599 -0.003419 378334.000000 0 0 1
24.274502 5.976577 30.298189 39.280417 0.241407 0.689867 0.053883 -0.007697 -150676.000000 0 0 1
24.188802 7.283777 30.913799 39.922606 0.292486 0.685120 0.058284 -0.008545 202880.000000 0 0 1
24.061602 7.096777 32.260998 40.866819 0.286810 0.660936 0.050621 -0.008489 -81252.100000 0 0 1
24.008502 8.405277 33.039908 41.697630 0.336760 0.656114 0.070861 -0.009775 794902.000000 0 0 1
25.252802 9.134477 33.018756 42.560321 0.347079 0.682797 0.050490 -0.006953 591240.000000 0 0 1
25.644302 9.500177 -33.809835 43.485498 0.354784 2.461472 0.061111 -0.008829 -77146.300000 0 0 1
26.682502 10.632777 -33.735255 44.306651 0.379206 2.436272 0.044100 -0.006313 -201738.000000 0 0 1
26.296702 11.876077 33.850881 44.479657 0.424199 0.705879 0.042142 -0.014056 221791.000000 0 0 1
26.270502 12.913677 -33.361125 44.383184 0.456877 2.421374 0.048685 -0.016798 -296834.000000 0 0 1
25.782102 14.245877 -33.999565 44.984800 0.504798 2.427673 0.053964 -0.018666 -30515.700000 0 0 1
26.727302 14.845877 33.209474 45.139981 0.507023 0.744097 0.041265 -0.023222 722373.000000 0 0 1
26.652702 16.225677 33.156778 45.530331 0.546852 0.755053 0.058963 -0.024204 104047.000000 0 0 1
27.348802 17.015977 -33.791935 46.683994 0.556572 2.380154 0.043677 -0.033475 -333357.000000 0 0 1
26.736902 16.840977 -32.556385 45.369579 0.562099 2.371120 0.047314 -0.031849 252404.000000 0 0 1
27.669902 16.309977 -31.624575 45.074966 0.532625 2.348436 0.040977 -0.032481 -299290.000000 0 0 1
26.981202 15.795277 -30.373615 43.589363 0.529628 2.341740 0.040989 -0.023985 26712.900000 0 0 1
26.065102 14.760277 -30.692685 42.887017 0.515260 2.368370 0.047822 -0.014007 100433.000000 0 0 1
25.219002 14.387977 -29.635775 41.488446 0.518462 2.366440 0.063875 -0.025906 -457617.000000 0 0 1
24.536302 13.100977 -29.946735 40.871416 0.490432 2.393086 0.063630 -0.026403 -745481.000000 0 0 1
23.595202 13.255177 -31.014235 41.162071 0.511838 2.424115 0.073435 -0.026932 523458.000000 0 0 1
22.967302 12.076477 -31.488465 40.802717 0.484083 2.452345 0.065046 -0.015052 -264593.000000 0 0 1
22.067302 11.273177 -30.554585 39.339967 0.472293 2.460175 0.063312 -0.023789 -1430200.000000 0 0 1
20.898202 11.954077 -30.266585 38.674294 0.519588 2.469631 0.063551 -0.020884 -685089.000000 0 0 1
20.225102 11.395977 -29.196265 37.300737 0.513116 2.469831 0.054031 -0.019066 -525762.000000 0 0 1
18.911702 12.109077 -28.830965 36.544586 0.569523 2.479855 0.057229 -0.018277 -233639.000000 0 0 1
18.002102 12.208077 -29.947845 37.013325 0.595909 2.513432 0.045492 -0.010805 -730889.000000 0 0 1
16.848602 12.492077 -29.253285 35.995584 0.637994 2.519552 0.043339 -0.024743 -2024510.000000 0 0 1
15.698702 13.047077 -30.067655 36.341978 0.693415 2.545175 0.035333 -0.020837 43194.700000 0 0 1
14.820302 12.175777 -30.813875 36.295810 0.687750 2.584820 0.028801 -0.010398 -60592.200000 0 0 1
13.740802 11.756977 -30.023645 35.049328 0.707751 2.599462 0.041304 -0.017177 -221449.000000 0 0 1
12.569302 11.293177 -30.965395 35.275755 0.731971 2.642066 0.047230 -0.010820 73139.300000 0 0 1
12.036902 12.274477 -31.785855 36.137105 0.795170 2.645797 0.055472 -0.006679 -1072670.000000 0 0 1
11.050802 11.693877 -32.524085 36.286128 0.813664 2.682202 0.071075 0.005129 -1188480.000000 0 0 1
10.528402 12.616277 -33.621205 37.421961 0.875364 2.686989 0.083601 -0.003130 -51670.600000 0 0 1
11.407202 12.832377 33.402544 37.556945 0.844126 0.474800 0.064287 0.000782 -12910.800000 0 0 1
10.799302 13.333677 32.226738 36.509923 0.890032 0.489253 0.074715 0.000552 -255365.000000 0 0 1
11.665302 13.406777 30.929819 35.671763 0.854746 0.521511 0.067145 0.005103 108897.000000 0 0 1
12.139902 12.147277 30.450839 34.959793 0.785702 0.513512 0.064330 0.003750 204469.000000 0 0 1
11.818502 12.140177 29.076539 33.652727 0.798824 0.527601 0.087917 0.000136 -224848.000000 0 0 1
12.320602 10.893377 28.352199 32.776670 0.723994 0.525623 0.096292 0.003141 -115792.000000 0 0 1
11.755002 9.685477 28.769859 32.552931 0.689172 0.486901 0.087260 -0.010080 -12181.500000 0 0 1
12.440302 8.607977 28.212679 32.012711 0.605298 0.492198 0.071429 -0.018630 -599633.000000 0 0 1
11.688602 7.280277 28.277939 31.452626 0.557054 0.453168 0.074002 -0.012492 463423.000000 0 0 1
10.581602 7.207777 27.357439 30.205162 0.597970 0.437720 0.075795 -0.015724 321153.000000 0 0 1
9.650602 6.178977 27.427649 29.725238 0.569504 0.395755 0.061894 -0.024726 -133167.000000 0 0 1
10.128702 4.740277 27.097609 29.314523 0.437725 0.391403 0.048887 -0.017663 -197076.000000 0 0 1
10.772802 4.019277 28.139429 30.397949 0.357099 0.387910 0.054266 -0.015192 179482.000000 0 0 1
11.042702 2.686377 27.738809 29.976648 0.238636 0.388846 0.035204 -0.006732 -57321.300000 0 0 1
11.708502 1.762877 28.802209 31.141034 0.149441 0.390035 0.027644 -0.004276 -54874.000000 0 0 1
10.849502 1.637877 29.882959 31.833717 0.149832 0.351898 0.026999 -0.010197 -339993.000000 0 0 1
10.904102 0.369377 30.485669 32.379189 0.033862 0.343682 0.033755 -0.005891 -440593.000000 0 0 1
9.876502 0.234177 31.564169 33.074112 0.023706 0.303331 0.050767 0.003016 -425371.000000 0 0 1
10.143502 1.110777 32.670047 34.226546 0.109072 0.302738 0.034947 -0.004766 -461171.000000 0 0 1
9.000202 1.300577 33.428226 34.643057 0.143512 0.265609 0.051149 -0.011961 -568457.000000 0 0 1
9.237802 2.639277 -33.925775 35.259906 0.278290 2.865629 0.058860 -0.015689 42233.100000 0 0 1
9.209102 3.849677 33.448294 34.905815 0.395952 0.289999 0.052459 -0.017362 -19590.000000 0 0 1
10.251602 4.035777 32.520351 34.335930 0.375040 0.326648 0.039140 -0.014304 -356923.000000 0 0 1
10.126402 5.307277 31.738909 33.735286 0.482744 0.345748 0.045398 -0.017269 94653.900000 0 0 1
10.426202 6.470177 32.497788 34.737229 0.555407 0.361034 0.039704 -0.018062 -56996.100000 0 0 1
10.581102 7.585377 31.665099 34.237058 0.621965 0.390082 0.053030 -0.014977 -136963.000000 0 0 1
10.520102 8.902377 32.514065 35.314151 0.702299 0.400902 0.081244 -0.020249 -156238.000000 0 0 1
9.241502 9.185477 33.017990 35.496000 0.782358 0.375869 0.083333 -0.020759 -396162.000000 0 0 1
8.858802 8.507677 -33.921995 36.077149 0.765182 2.794197 0.078935 -0.027233 -1092950.000000 0 0 1
7.513202 9.043477 -33.526455 35.528241 0.877563 2.804307 0.082903 -0.025517 -881062.000000 0 0 1
6.955602 8.369777 -32.430865 34.208107 0.877414 2.817833 0.085771 -0.026424 -814473.000000 0 0 1
5.643702 8.704377 -32.131885 33.765006 0.995564 2.829304 0.085351 -0.028987 -591794.000000 0 0 1
5.187102 8.005677 -30.873525 32.313642 0.995879 2.841920 0.086235 -0.025283 -337375.000000 0 0 1
5.755302 8.515077 -29.683325 31.412256 0.976432 2.808269 0.087025 -0.030840 -112901.000000 0 0 1
5.467102 7.804577 -28.519635 30.069423 0.959735 2.819136 0.081107 -0.028646 334123.000000 0 0 1
4.018402 7.866077 -27.941885 29.304806 1.098505 2.835411 0.070853 -0.029725 795927.000000 0 0 1
3.057802 7.044677 -28.592945 29.606319 1.161278 2.879198 0.063300 -0.026306 1363520.000000 0 0 1
1.703802 7.087777 -28.081425 29.012169 1.334886 2.887608 0.069142 -0.021602 1453730.000000 0 0 1
0.573702 6.580777 -29.001895 29.744675 1.483838 2.917644 0.064624 -0.026846 -92506.700000 0 0 1
0.373502 7.396077 -30.139175 31.035646 1.520339 2.900656 0.062911 -0.025727 110463.000000 0 0 1
-0.355298 6.696477 -31.137695 31.851611 -1.517789 2.929470 0.084400 -0.024710 -692943.000000 0 0 1
-0.196098 7.451477 -32.462955 33.307753 -1.544486 2.915888 0.092997 -0.028965 356079.000000 0 0 1
1.127202 7.689477 -32.948615 33.852768 1.425243 2.909954 0.063291 -0.015095 929000.000000 0 0 1
1.926802 6.523377 -33.320675 34.007858 1.283594 2.940222 0.067970 -0.021923 185199.000000 0 0 1
1.772702 6.241777 33.262970 33.889931 1.294077 0.192651 0.077432 -0.033291 575154.000000 0 0 1
0.547702 5.602577 32.849195 33.328043 1.473347 0.169719 0.074818 -0.032153 387996.000000 0 0 1
0.338402 5.504177 31.423589 31.903800 1.509393 0.173722 0.097703 -0.027140 288529.000000 0 0 1
1.140302 4.371277 30.684939 31.015703 1.315621 0.146174 0.103051 -0.025073 280577.000000 0 0 1
0.625102 4.313177 29.392499 29.713856 1.426870 0.147205 0.084759 -0.026886 214788.000000 0 0 1
1.265402 3.308277 28.611759 28.830170 1.205470 0.123169 0.081678 -0.022291 -15067.100000 0 0 1
1.192702 3.652977 27.125489 27.396331 1.255207 0.140729 0.062497 -0.019777 -49729.500000 0 0 1
1.918802 4.792377 26.758789 27.252183 1.189957 0.190576 0.075595 -0.017736 -70034.300000 0 0 1
1.881502 5.044077 25.396569 25.960903 1.213770 0.208888 0.055144 -0.013671 2225.280000 0 0 1
2.429402 6.473377 24.908929 25.850751 1.211770 0.270764 0.055220 -0.001330 263750.000000 0 0 1
3.806802 6.751977 25.027939 26.200738 1.057416 0.300333 0.053268 0.007843 -110934.000000 0 0 1
4.498302 6.559877 23.815799 25.108942 0.969712 0.322334 0.055794 -0.010389 678935.000000 0 0 1
6.068602 6.702177 23.853619 25.509650 0.834969 0.362305 0.053063 -0.008867 1337170.000000 0 0 1
6.876402 5.819277 24.653359 26.247609 0.702323 0.350325 0.059271 -0.008240 408795.000000 0 0 1
6.763702 4.403077 24.396429 25.696702 0.577068 0.319479 0.068094 -0.008729 -918923.000000 0 0 1
7.133102 3.838477 22.966579 24.353209 0.493678 0.339078 0.062528 -0.016104 603525.000000 0 1 0
6.126202 3.991677 21.945779 23.131819 0.577481 0.321613 0.057344 -0.019098 289294.000000 0 1 0
4.899802 3.314677 22.176279 22.951743 0.594774 0.260686 0.049868 -0.016095 -124185.000000 0 1 0
3.854902 3.699577 21.118979 21.784362 0.764840 0.247794 0.028385 -0.012260 -258972.000000 0 1 0
3.339602 5.021077 21.296779 22.134068 0.983868 0.275931 0.019410 -0.016105 265933.000000 0 1 0
2.212302 5.274477 20.471179 21.255201 1.173648 0.272452 0.014437 -0.021131 199467.000000 0 1 0
1.568202 6.678077 20.553279 21.667793 1.340147 0.322129 0.015098 -0.019632 187341.000000 0 1 0
2.393902 7.751177 20.034779 21.614900 1.271246 0.384738 0.009996 -0.014599 279360.000000 0 1 0
1.666502 8.919477 19.976279 21.940511 1.386087 0.426366 0.012822 -0.023285 -120782.000000 0 1 0
2.631202 10.046677 19.583879 22.167256 1.314652 0.487600 0.012195 -0.023407 -704927.000000 0 1 0
2.822102 10.151277 18.183279 21.015335 1.299639 0.525170 0.002584 -0.023783 25124.000000 0 1 0
3.689302 11.231677 17.862479 21.420310 1.253427 0.584653 0.008260 -0.022880 480023.000000 0 1 0
5.200002 10.887377 18.027479 21.692510 1.125215 0.589810 0.021284 -0.025684 -338937.000000 0 1 0
5.756402 10.111877 16.983579 20.587088 1.053278 0.600660 0.025330 -0.024382 -182475.000000 0 1 0
7.081002 9.739677 17.278779 21.060819 0.942161 0.608646 0.027395 -0.018611 -449868.000000 0 1 0
7.281102 8.341377 17.759179 20.928006 0.853163 0.557493 0.034878 -0.017817 -340789.000000 0 1 0
6.861002 8.119077 19.101479 21.859992 0.869185 0.507813 0.035715 -0.022431 45626.200000 0 1 0
6.678202 6.770177 19.471379 21.669524 0.792237 0.454318 0.031006 -0.031888 130857.000000 0 1 0
7.964102 5.970477 19.850079 22.205836 0.643292 0.464797 0.045407 -0.024895 845076.000000 0 1 0
8.995302 5.948577 18.844579 21.712190 0.584277 0.519785 0.049323 -0.022290 798146.000000 0 1 0
10.239102 5.403277 19.282079 22.490735 0.485569 0.540728 0.050373 -0.013886 502116.000000 0 1 0
10.430602 3.844577 19.168379 22.158632 0.353136 0.525541 0.053725 -0.013906 -481944.000000 0 1 0
9.743702 3.169677 20.181579 22.633663 0.314508 0.469793 0.053324 -0.015661 247920.000000 0 1 0
9.988902 1.823377 20.039779 22.465431 0.180552 0.468985 0.056615 -0.029865 153712.000000 0 1 0
8.978502 1.096877 20.965879 22.833850 0.121565 0.407302 0.063557 -0.030204 -109900.000000 0 1 0
9.293102 1.098177 22.334979 24.216090 0.117626 0.396755 0.065479 -0.021540 -263174.000000 0 1 0
8.611002 0.184477 23.103479 24.656726 0.021420 0.356841 0.072155 -0.024190 -1041540.000000 0 1 0
9.062702 0.139777 24.591019 26.208211 0.015422 0.353131 0.069301 -0.009131 306264.000000 0 0 1
10.421402 -0.220323 24.817689 26.917872 -0.021138 0.397638 0.060228 -0.014904 413972.000000 0 0 1
10.697802 -1.616023 24.574489 26.850698 -0.149928 0.414725 0.055769 -0.018305 -416804.000000 0 0 1
12.172602 -2.053223 24.510559 27.443678 -0.167103 0.466557 0.052961 -0.017485 -145162.000000 0 0 1
12.304302 -3.462223 24.574709 27.700165 -0.274291 0.479624 0.058111 -0.007616 636163.000000 0 0 1
13.616502 -3.959523 24.875889 28.633840 -0.282985 0.518107 0.057482 -0.005401 644817.000000 0 0 1
13.572002 -5.473423 25.085439 29.041984 -0.383337 0.528103 0.057842 -0.014610 -50648.000000 0 0 1
13.344202 -6.298023 23.957099 28.136727 -0.440971 0.552047 0.072072 -0.020897 188341.000000 0 0 1
13.171902 -7.610423 24.380619 28.737295 -0.523919 0.557848 0.076745 -0.020000 49957.100000 0 0 1
13.292602 -8.633323 23.209889 28.105631 -0.576012 0.599161 0.108251 -0.027657 -151357.000000 0 0 1
12.507402 -9.765423 23.388729 28.263603 -0.662906 0.596118 0.100521 -0.018737 -473779.000000 0 0 1
12.704802 -10.648623 22.379479 27.850426 -0.697578 0.637545 0.096126 -0.022225 416645.000000 0 0 1
11.867502 -11.994223 22.472079 28.101482 -0.790709 0.644041 0.105330 -0.017083 443708.000000 0 0 1
10.474702 -11.764723 22.389579 27.375561 -0.843339 0.613101 0.101074 -0.017021 -393968.000000 0 0 1
9.817502 -12.973923 22.344779 27.640462 -0.923014 0.629353 0.091464 -0.013903 791774.000000 0 0 1
8.266602 -12.980323 22.642879 27.377463 -1.003716 0.596934 0.067538 -0.008971 1170970.000000 0 0 1
7.570102 -12.210323 21.704679 26.028667 -1.015818 0.584703 0.061992 -0.012859 -57885.100000 0 0 1
6.166202 -12.127823 21.881879 25.766699 -1.100424 0.556269 0.029745 -0.017670 325065.000000 0 0 1
5.548202 -10.885023 21.171779 24.444028 -1.099411 0.523384 0.028337 -0.018613 95695.600000 0 1 0
5.768202 -9.662523 21.828079 24.558126 -1.032610 0.476004 0.046447 -0.014784 -193173.000000 0 1 0
4.913802 -8.681523 21.282979 23.504882 -1.055747 0.438309 0.037101 -0.007469 1215.550000 0 1 0
5.142602 -7.201223 21.874179 23.596264 -0.950651 0.384413 0.043243 -0.009786 130683.000000 0 1 0
4.469002 -6.159123 21.167279 22.493565 -0.943101 0.345113 0.027788 -0.019959 -222428.000000 0 1 0
4.840902 -4.884023 21.554779 22.625130 -0.789832 0.308823 0.051988 -0.034429 38358.100000 0 1 0
-8.208998 -15.538523 -20.709315 27.160801 1.084766 2.437920 0.083584 0.003163 216970.000000 0 0 1
-7.518898 -15.117223 -19.530415 25.816688 1.109253 2.428746 0.078946 0.003568 136266.000000 0 0 1
-6.918298 -13.837023 -19.706115 25.053084 1.107161 2.476038 0.080118 -0.006976 343711.000000 0 0 1
-6.163698 -13.344123 -18.436815 23.579079 1.138088 2.468527 0.077464 -0.014843 1740580.000000 0 1 0
-4.902298 -14.031223 -18.128815 23.442732 1.234670 2.454863 0.062168 -0.006409 1264810.000000 0 1 0
-4.292198 -13.629923 -16.923715 22.149716 1.265717 2.440380 0.055338 -0.012870 413264.000000 0 1 0
-3.372098 -14.747823 -16.317115 22.251238 1.346010 2.393978 0.050637 -0.001817 958831.000000 0 1 0
-2.147898 -14.835723 -17.058115 22.708841 1.427017 2.420623 0.038306 -0.005566 415567.000000 0 1 0
-1.186898 -15.656123 -16.422215 22.720301 1.495131 2.378641 0.041279 0.000052 -869529.000000 0 1 0
0.163602 -15.755123 -17.055215 23.219195 -1.560413 2.395771 0.035805 0.000693 -879415.000000 0 1 0
0.299202 -16.768423 -18.062115 24.647709 -1.552955 2.393241 0.056255 -0.001357 -196738.000000 0 1 0
0.105402 -18.173623 -17.757815 25.409283 -1.564997 2.344614 0.047638 0.002932 -294567.000000 0 0 1
-0.186898 -18.795023 -19.097915 26.795861 1.560853 2.364163 0.055211 0.002548 -1200590.000000 0 0 1
-1.460598 -18.413723 -19.410915 26.795189 1.491641 2.380986 0.074446 0.000135 -1264580.000000 0 0 1
-1.777498 -18.452623 -20.831515 27.885674 1.474765 2.414384 0.086765 -0.003957 268716.000000 0 0 1
-2.802298 -17.405523 -21.303315 27.652059 1.411166 2.450274 0.088713 -0.003142 328035.000000 0 0 1
-2.189998 -16.112923 -21.213615 26.729008 1.435708 2.487590 0.088899 0.010085 11844.400000 0 0 1
-2.893598 -15.243023 -20.351515 25.591148 1.383198 2.490226 0.088075 0.002689 20249.700000 0 0 1
-2.319798 -13.814323 -20.339015 24.696002 1.404422 2.538482 0.072318 -0.018755 -49028.500000 0 1 0
-2.470498 -13.190123 -21.610815 25.438358 1.385642 2.585903 0.073557 -0.024288 377928.000000 0 0 1
-1.558198 -12.089323 -21.705715 24.894132 1.442613 2.629908 0.047283 -0.009253 366206.000000 0 1 0
-1.644698 -11.278923 -23.006715 25.675437 1.425996 2.681608 0.056463 -0.002899 249633.000000 0 0 1
-2.894098 -10.606023 -23.125915 25.606083 1.304409 2.697827 0.059587 -0.008247 414844.000000 0 0 1
-2.938598 -9.695723 -24.197615 26.232937 1.276514 2.745080 0.069596 -0.022850 -131389.000000 0 0 1
-4.121598 -8.733423 -24.125415 25.986456 1.129853 2.760837 0.081234 -0.023087 -378791.000000 0 0 1
-5.422698 -9.234123 -24.238515 26.498685 1.039808 2.725577 0.081316 -0.021799 256719.000000 0 0 1
-6.370798 -8.176623 -24.254415 26.376522 0.908900 2.737719 0.096391 -0.023281 -186227.000000 0 0 1
-7.867198 -8.500423 -24.031915 26.677387 0.824067 2.692485 0.074024 -0.027225 543667.000000 0 0 1
-8.616198 -8.803323 -25.209855 28.058406 0.796140 2.687086 0.068724 -0.032102 145706.000000 0 0 1
-8.807998 -7.740523 -26.166155 28.673406 0.720982 2.720293 0.063803 -0.028317 -230320.000000 0 0 1
-9.797498 -8.072823 -27.326185 30.131078 0.689186 2.706688 0.052786 -0.029929 398751.000000 0 0 1
-10.421898 -6.923523 -27.905245 30.581920 0.586379 2.720090 0.065497 -0.035670 -245389.000000 0 0 1
-11.404698 -7.301223 -28.810075 31.833872 0.569451 2.702207 0.073289 -0.032720 -379652.000000 0 0 1
-12.094598 -6.126723 -29.470635 32.439704 0.468887 2.710415 0.067853 -0.037591 -87859.400000 0 0 1
-11.166898 -5.362123 -30.239245 32.678187 0.447666 2.752793 0.060738 -0.023542 463350.000000 0 0 1
-11.866198 -4.491223 -31.156415 33.640748 0.361826 2.754873 0.052142 -0.035370 163921.000000 0 0 1
-10.972198 -3.523223 -31.941935 33.957171 0.310705 2.795347 0.042093 -0.033686 468765.000000 0 0 1
-9.902698 -4.139123 -32.704765 34.420887 0.395909 2.824491 0.050020 -0.019962 781509.000000 0 0 1
-9.355498 -3.193123 -33.594005 35.018261 0.328912 2.855409 0.048388 -0.015904 -917666.000000 0 0 1
-8.232198 -3.781123 33.691191 34.887854 0.430568 0.262672 0.049505 -0.013682 -313983.000000 0 0 1
-7.032198 -3.858623 -33.681605 34.623566 0.501851 2.907798 0.054190 -0.020577 -420156.000000 0 0 1
-6.030098 -4.245223 33.556861 34.357633 0.613409 0.216324 0.040071 -0.012665 -825392.000000 0 0 1
-4.575298 -4.026423 33.941737 34.484590 0.721675 0.177670 0.051261 -0.022507 -363090.000000 0 0 1
-4.350298 -2.625923 33.852364 34.231610 0.543076 0.148992 0.078326 -0.031857 867346.000000 0 0 1
-2.953898 -2.320023 -34.060021 34.266501 0.665781 3.031759 0.076332 -0.035527 1123690.000000 0 0 1
-2.753798 -0.834123 -33.674455 33.797161 0.294114 3.056354 0.088521 -0.037637 -27732.900000 0 0 1
-3.196898 -0.608623 -32.362895 32.526106 0.188128 3.041373 0.080742 -0.041659 240354.000000 0 0 1
-3.561198 0.765877 -32.174195 32.379740 -0.211835 3.028857 0.104646 -0.045279 -757121.000000 0 0 1
-3.841198 0.928777 -30.659565 30.913207 -0.237240 3.013404 0.130717 -0.051143 524123.000000 0 0 1
-5.004698 0.382077 -30.054765 30.471001 -0.076196 2.976116 0.116847 -0.050372 1221990.000000 0 0 1
-6.289498 0.871477 -30.524195 31.177616 -0.137684 2.936499 0.120666 -0.048364 943237.000000 0 0 1
-7.332398 -0.279123 -30.544365 31.413377 0.038049 2.905829 0.104931 -0.047771 53071.500000 0 0 1
-7.840398 -0.708423 -29.297655 30.336880 0.090111 2.879091 0.091494 -0.037075 532793.000000 0 0 1
-8.942598 -1.616323 -29.464655 30.834210 0.178814 2.842429 0.066436 -0.026223 492480.000000 0 0 1
-9.204198 -2.455123 -28.194675 29.760454 0.260670 2.815769 0.071554 -0.025564 93367.200000 0 0 1
-9.893198 -1.711423 -27.160915 28.957204 0.171295 2.787517 0.072710 -0.025965 538113.000000 0 0 1
-10.075798 -2.420623 -25.944635 27.937524 0.235773 2.761597 0.058393 -0.023612 693942.000000 0 0 1
-11.196698 -1.751223 -25.041715 27.486730 0.155148 2.716614 0.071705 -0.019375 787414.000000 0 0 1
-10.719298 -0.521223 -24.521815 26.767414 0.048586 2.729057 0.074854 -0.023115 119144.000000 0 0 1
-11.629698 0.046877 -23.605215 26.314602 -0.004031 2.683819 0.085727 -0.031850 59520.100000 0 0 1
-11.123898 1.339077 -22.891615 25.486473 -0.119802 2.686424 0.094144 -0.036414 135320.000000 0 0 1
-10.914498 2.429077 -23.762315 26.261651 -0.218986 2.701775 0.076755 -0.037846 83657.600000 0 0 1
-9.919698 3.360177 -23.382015 25.620497 -0.326607 2.720467 0.076234 -0.033334 -387251.000000 0 0 1
-9.787098 4.614677 -24.303415 26.603356 -0.440594 2.722717 0.086913 -0.038693 -879077.000000 0 0 1
-10.879698 5.440877 -24.439515 27.299467 -0.463723 2.679761 0.106379 -0.039213 30432.300000 0 0 1
-11.838398 4.936177 -25.423085 28.475372 -0.395044 2.674341 0.085245 -0.038884 846264.000000 0 0 1
-13.275298 5.519877 -25.481345 29.257504 -0.394053 2.627895 0.071494 -0.028495 302790.000000 0 0 1
-13.354598 6.843777 -25.922845 29.952905 -0.473571 2.616851 0.065166 -0.026862 -178039.000000 0 0 1
-14.663398 7.254977 -26.253665 30.933879 -0.459453 2.584324 0.060919 -0.025682 -96116.500000 0 0 1
-14.699998 8.724677 -26.634725 31.648357 -0.535638 2.571004 0.066714 -0.017698 -115490.000000 0 0 1
-14.437998 9.571077 -25.515395 30.839856 -0.585397 2.545172 0.093571 -0.028400 -26243.300000 0 0 1
-15.019898 10.855877 -25.598235 31.602485 -0.625843 2.514960 0.080347 -0.021853 -111258.000000 0 0 1
-15.036798 11.523977 -24.225215 30.753348 -0.653905 2.477905 0.081971 -0.023936 353614.000000 0 0 1
-15.943798 10.987677 -23.250315 30.257411 -0.603407 2.447160 0.110445 -0.025203 313797.000000 0 0 1
-15.520398 11.461977 -21.988315 29.253131 -0.636107 2.421367 0.102289 -0.023539 -183785.000000 0 0 1
-16.372998 10.935477 -20.826915 28.660428 -0.588854 2.384271 0.119018 -0.023576 424649.000000 0 0 1
-17.604298 11.669877 -20.655715 29.542443 -0.585390 2.345057 0.095582 -0.022664 676585.000000 0 0 1
-17.529698 12.718177 -19.724415 29.293257 -0.627650 2.309518 0.087443 -0.023317 -148978.000000 0 0 1
-18.868298 13.467577 -19.558615 30.330311 -0.619906 2.271628 0.071518 -0.025814 166171.000000 0 0 1
-19.366398 14.149777 -20.732115 31.703220 -0.630992 2.283582 0.069572 -0.019938 -233744.000000 0 0 1
-20.729898 14.386077 -20.577015 32.559199 -0.606672 2.254912 0.039889 -0.018045 -480486.000000 0 0 1
-21.311698 15.709877 -21.137115 33.878701 -0.635225 2.244527 0.052481 -0.010818 -110956.000000 0 0 1
-21.347398 15.780077 -22.552815 34.833199 -0.636556 2.275032 0.065924 -0.016050 97925.500000 0 0 1
-21.964298 16.935177 -23.072515 36.077300 -0.656826 2.264683 0.056107 -0.006473 -80900.400000 0 0 1
-21.940798 16.973577 -24.615615 37.086783 -0.658440 2.296591 0.050652 -0.003254 465780.000000 0 0 1
-20.722798 17.441377 -25.202005 36.996987 -0.699627 2.320184 0.046088 -0.006601 489051.000000 0 0 1
-20.412298 16.814877 -26.402895 37.369973 -0.689063 2.355375 0.045358 -0.017713 66770.700000 0 0 1
-19.210498 17.446577 -27.152445 37.559041 -0.737316 2.378826 0.030718 -0.012463 161096.000000 0 0 1
-19.510798 18.693277 -27.769925 38.746337 -0.764003 2.369871 0.018647 -0.020786 229263.000000 0 0 1
-19.074398 19.814377 -27.010435 38.548746 -0.804424 2.347150 0.018651 -0.030770 -1436830.000000 0 0 1
-19.833898 21.083177 -27.327975 39.808317 -0.815921 2.327446 0.045264 -0.020458 153892.000000 0 0 1
-20.901698 21.388877 -26.450875 39.925103 -0.796917 2.294964 0.058767 -0.017563 325925.000000 0 0 1
-22.064098 20.596077 -26.543215 40.194093 -0.751000 2.292116 0.088410 -0.027044 -299931.000000 0 0 1
-23.193898 20.936877 -25.494695 40.327276 -0.734299 2.255179 0.082721 -0.021494 478456.000000 0 0 1
-22.954698 20.551877 -24.161415 39.154461 -0.730225 2.235822 0.048506 -0.017574 -224447.000000 0 0 1
-23.855598 21.163477 -23.280815 39.483904 -0.725670 2.201395 0.052348 -0.028361 -520868.000000 0 0 1
-23.766998 20.839777 -21.771315 38.381723 -0.719869 2.173936 0.059423 -0.019029 -260249.000000 0 0 1
-22.613498 21.337377 -21.128815 37.590967 -0.756371 2.167685 0.062520 -0.018213 -47127.600000 0 0 1
-21.530898 20.444977 -21.015515 36.376209 -0.759534 2.186737 0.058103 -0.013240 -315804.000000 0 0 1
-21.568098 19.506377 -19.764015 35.161028 -0.735246 2.167719 0.060259 -0.019814 -346854.000000 0 0 1
-22.733598 18.677077 -19.841015 35.486837 -0.687751 2.164107 0.075891 -0.018738 561985.000000 0 0 1
-23.302598 18.479477 -18.546215 35.049455 -0.670472 2.128388 0.059419 -0.011902 -256200.000000 0 0 1
-24.439998 19.440277 -18.211815 36.151184 -0.671947 2.098752 0.053405 -0.006585 -82623.400000 0 0 1
-25.633028 19.342577 -19.004415 37.314276 -0.646436 2.105175 0.048653 -0.004156 354466.000000 0 0 1
-26.562528 20.341477 -18.666515 38.311648 -0.653534 2.079709 0.049017 -0.008655 -852290.000000 0 0 1
-27.907748 19.929377 -19.305115 39.353652 -0.620137 2.083522 0.038400 -0.004267 -52705.200000 0 0 1
-28.665788 18.875177 -18.718615 39.094581 -0.582297 2.070087 0.030222 -0.001544 422740.000000 0 0 1
-29.090398 19.048177 -17.359715 38.864432 -0.579737 2.033840 0.015480 0.001906 -696948.000000 0 0 1
-30.000098 17.955377 -16.760215 38.772494 -0.539324 2.017806 0.010972 0.000662 -263399.000000 0 0 1
-29.343708 16.735677 -16.531315 37.608782 -0.518320 2.025905 0.019519 -0.007418 -228550.000000 0 0 1
-30.152748 15.828677 -15.843415 37.559939 -0.483408 2.006245 0.012016 -0.006318 538.067000 0 0 1
-29.401758 14.543377 -15.325515 36.205588 -0.459353 2.007872 0.039988 -0.004441 168746.000000 0 0 1
-28.694798 14.653877 -14.073015 35.159313 -0.472156 1.982601 0.047301 -0.001736 849874.000000 0 0 1
-29.549628 14.976277 -12.913315 35.555915 -0.469087 1.942479 0.017526 0.006973 380343.000000 0 0 1
-28.862598 15.732177 -11.786715 34.921020 -0.499051 1.915083 0.031071 -0.007128 -422295.000000 0 0 1
-28.699208 17.153477 -11.913915 35.494052 -0.538726 1.913102 0.029138 0.005222 102388.000000 0 0 1
-29.847178 17.967377 -11.718115 36.755883 -0.541873 1.895269 0.009133 0.010687 26537.500000 0 0 1
-29.529808 19.472777 -11.811115 37.292105 -0.582974 1.893065 0.056997 -0.001248 21835.400000 0 0 1
-28.624598 19.976077 -10.858115 36.555573 -0.609291 1.872377 0.012905 -0.006507 -199208.000000 0 0 1
-27.569488 20.634077 -11.504815 36.307060 -0.642501 1.893230 0.020956 -0.007333 40420.900000 0 0 1
-26.765078 21.658577 -10.627715 36.033480 -0.680332 1.870189 0.041167 -0.005546 253229.000000 0 0 1
-27.506528 22.759777 -10.087115 37.099413 -0.691245 1.846157 0.037157 -0.011616 -142437.000000 0 0 1
-26.869678 24.013377 -10.085215 37.421030 -0.729322 1.843677 0.045680 -0.011338 -46947.000000 0 0 1
-27.456508 24.980377 -9.005015 38.196458 -0.738212 1.808792 0.067794 0.004151 90427.400000 0 0 1
-27.267418 24.461677 -7.706015 37.433520 -0.731212 1.778137 0.072246 -0.000746 291116.000000 0 0 1
-28.202108 24.980277 -6.766515 38.277394 -0.724891 1.748506 0.076291 -0.005400 252219.000000 0 0 1
-27.872728 24.428277 -5.388315 37.452151 -0.719635 1.715169 0.080200 -0.006869 204004.000000 0 0 1
-28.181228 23.031077 -5.276515 36.775722 -0.685170 1.714771 0.081773 -0.018408 364253.000000 0 0 1
-27.435188 22.440577 -4.176615 35.689118 -0.685590 1.688093 0.068700 -0.020051 433584.000000 0 0 1
-27.549458 20.903577 -4.300415 34.848612 -0.649087 1.694514 0.077907 -0.020019 191570.000000 0 0 1
-26.767128 20.267677 -5.319215 33.993410 -0.648084 1.727920 0.070232 -0.030735 -36965.500000 0 0 1
-27.188888 20.309577 -6.674015 34.586949 -0.641566 1.764978 0.057434 -0.016583 -142663.000000 0 0 1
-28.451268 19.497377 -7.079115 35.209889 -0.600785 1.773231 0.039620 -0.012866 -59817.900000 0 0 1
-28.287098 18.097277 -7.134915 34.330429 -0.569151 1.780153 0.040236 -0.007955 215326.000000 0 0 1
-27.715088 17.576177 -8.311115 33.854435 -0.565169 1.818827 0.027881 -0.003803 -124369.000000 0 0 1
-27.315218 16.068277 -8.195315 32.733375 -0.531738 1.823854 0.060216 0.004305 -554272.000000 0 0 1
-28.379368 15.218277 -8.018915 33.185652 -0.492221 1.814850 0.031725 -0.006194 -617098.000000 0 0 1
-27.949688 13.870177 -8.113915 32.239766 -0.460647 1.825206 0.049701 -0.013121 -17873.700000 0 0 1
-28.849668 12.914877 -7.324715 32.446092 -0.420907 1.798509 0.038577 -0.022528 -644952.000000 0 0 1
-30.145028 12.807077 -7.848015 33.679895 -0.401743 1.805976 0.050310 -0.018991 -792540.000000 0 0 1
-30.876558 12.118477 -6.889215 33.877435 -0.374008 1.775582 0.077045 -0.026404 -620013.000000 0 0 1
-31.437308 10.770577 -7.366915 34.037936 -0.330072 1.788955 0.072067 -0.022158 -95056.300000 0 0 1
-30.404328 9.842077 -7.709915 32.874495 -0.313061 1.807527 0.081513 -0.016965 289376.000000 0 0 1
-30.894388 8.580377 -8.119115 33.075763 -0.270905 1.818801 0.077486 -0.017942 -301859.000000 0 0 1
-29.822868 7.587077 -8.640415 31.962853 -0.249120 1.844529 0.111619 -0.019512 -163654.000000 0 0 1
-29.217968 7.960377 -9.878015 31.853296 -0.265992 1.886105 0.101528 -0.025921 -113111.000000 0 0 1
-28.331008 6.904077 -10.117115 30.865326 -0.239034 1.904752 0.122178 -0.033529 -528136.000000 0 0 1
-27.602998 7.132177 -11.472415 30.731251 -0.252854 1.953375 0.096054 -0.025105 -25736.800000 0 0 1
-26.637008 8.164377 -11.488315 30.135837 -0.297414 1.961909 0.113131 -0.037807 53638.800000 0 0 1
-25.802188 8.019277 -12.584815 29.806699 -0.301334 2.006683 0.089625 -0.021906 -364414.000000 0 0 1
-31.989938 25.634477 34.040961 53.284797 -0.675551 0.877795 0.021104 0.004148 -55142.300000 0 0 1
-31.681748 26.910477 33.581390 53.437971 -0.704146 0.891278 0.012265 -0.006012 111440.000000 0 0 1
-32.645418 27.398877 32.694041 53.715194 -0.698242 0.916432 0.036585 -0.019212 -336474.000000 0 0 1
-32.337998 28.819477 32.278548 54.020487 -0.727929 0.930386 0.062869 -0.025959 338607.000000 0 0 1
-33.411648 29.445577 31.568919 54.589165 -0.722385 0.954153 0.099699 -0.023948 509769.000000 0 0 1
-33.230588 30.816177 31.467399 55.173417 -0.747718 0.963881 0.112773 -0.024599 -167288.000000 0 0 1
-32.840958 31.505577 30.165169 54.599152 -0.764648 0.985455 0.123418 -0.020652 939570.000000 0 0 1
-31.501878 31.121977 29.773769 53.361251 -0.779332 0.978863 0.105109 -0.023640 872886.000000 0 0 1
-31.116568 31.950277 28.709449 53.040489 -0.798617 0.998845 0.105155 -0.009806 -142859.000000 0 0 1
-29.690588 31.742877 28.171269 51.795383 -0.818792 0.995724 0.126585 -0.013619 -314472.000000 0 0 1
-29.462628 30.524977 27.463809 50.537921 -0.803106 0.996279 0.148506 -0.018536 -492630.000000 0 0 1
-28.365038 30.542777 26.613029 49.453917 -0.822350 1.002570 0.114434 -0.007818 -549300.000000 0 0 1
-28.514008 31.285277 25.300169 49.314458 -0.831708 1.032077 0.114361 -0.009633 -172565.000000 0 0 1
-28.645708 32.682777 25.505149 50.391003 -0.851130 1.040087 0.110600 -0.011945 211165.000000 0 0 1
-29.544758 33.298577 24.591429 50.856920 -0.845060 1.066100 0.114663 -0.008326 81352.100000 0 0 1
-29.894768 -33.525494 25.030619 51.421667 0.842584 1.062406 0.120995 -0.005375 30916.200000 0 0 1
-30.630008 -33.457294 26.247909 52.407449 0.829486 1.046224 0.126508 -0.021394 265581.000000 0 0 1
-30.447358 -32.210894 26.931069 51.863916 0.813536 1.024807 0.115591 -0.024824 -76411.200000 0 0 1
-30.865788 -32.253394 28.405669 52.913707 0.807379 1.004121 0.134802 -0.036209 -15689.700000 0 0 1
-32.257328 -32.451194 28.545379 53.930083 0.788394 1.013017 0.109850 -0.033474 24173.200000 0 0 1
-32.608418 -32.926594 29.832029 55.112789 0.790253 0.998825 0.103805 -0.032444 -438613.000000 0 0 1
-34.081749 -33.278694 29.995569 56.291840 0.773477 1.008822 0.103983 -0.037587 -476599.000000 0 0 1
-34.318723 -33.668594 31.295829 57.365302 0.775836 0.993747 0.094761 -0.039086 -393424.000000 0 0 1
-35.667770 -33.663894 31.656619 58.374559 0.756503 0.997622 0.086516 -0.043081 -533527.000000 0 0 1
-35.847942 33.956677 33.091004 59.440268 -0.758311 0.980376 0.082090 -0.036174 -176384.000000 0 0 1
-35.492808 32.607877 33.096966 58.467275 -0.743061 0.969057 0.051607 -0.029292 410033.000000 0 0 1
-36.308048 31.826177 34.005632 59.055592 -0.719713 0.957185 0.062408 -0.033689 467731.000000 0 0 1
-35.606245 30.598877 -33.503305 57.676403 -0.709908 2.190611 0.043566 -0.025421 689757.000000 0 0 1
-34.519731 30.912977 -32.613155 56.664291 -0.730332 2.184073 0.039819 -0.027039 399333.000000 0 0 1
-33.839448 29.764977 -32.143735 55.355956 -0.721426 2.190352 0.020249 -0.019291 -27681.100000 0 0 1
-33.404208 29.963177 -30.634145 54.333084 -0.731149 2.169802 0.011634 -0.020185 -323601.000000 0 0 1
-34.326471 29.999277 -29.576435 54.341777 -0.718229 2.146311 0.019683 -0.023655 -751803.000000 0 0 1
-34.910940 31.273877 -29.435725 55.347006 -0.730500 2.131568 0.022863 -0.019030 256016.000000 0 0 1
-35.900582 31.446177 -28.261305 55.465442 -0.719353 2.105435 0.031482 -0.011871 488774.000000 0 0 1
-35.195950 31.307877 -27.060925 54.325241 -0.727001 2.092235 0.022047 -0.020733 -61646.000000 0 0 1
-36.057405 30.697177 -26.154285 54.097133 -0.705273 2.075410 0.060317 -0.025245 -386194.000000 0 0 1
-35.410346 30.481277 -24.789415 52.891549 -0.710732 2.058597 0.070665 -0.026550 -353344.000000 0 0 1
-35.230010 31.659477 -24.039215 53.116476 -0.732069 2.040448 0.074311 -0.036510 -33989.200000 0 0 1
-35.041955 31.421977 -22.648915 52.232678 -0.730987 2.019298 0.061323 -0.035733 -513397.000000 0 0 1
-36.243818 31.106377 -21.728915 52.472534 -0.709266 1.997751 0.059745 -0.034840 311994.000000 0 0 1
36.218745 32.052777 -21.683315 53.003247 0.724453 1.992257 0.068774 -0.038628 708974.000000 0 0 1
36.506695 33.264177 -21.065315 53.693498 0.738958 1.973954 0.075126 -0.044045 -408157.000000 0 0 1
36.684625 33.184877 -19.494715 53.169932 0.735350 1.946201 0.080499 -0.038798 -227320.000000 0 0 1
-35.653624 32.581977 -19.165215 51.962214 -0.740413 1.948546 0.073488 -0.041748 -328781.000000 0 0 1
-35.471952 32.455977 -17.739815 51.247936 -0.741028 1.924268 0.077151 -0.029803 -327381.000000 0 0 1
-34.199580 31.671477 -17.417815 49.760165 -0.747037 1.928405 0.070375 -0.025224 -241909.000000 0 0 1
-33.952778 31.271077 -16.078015 48.879177 -0.744306 1.905971 0.062688 -0.017786 -707810.000000 0 0 1
-32.814808 30.481077 -16.053715 47.577615 -0.748545 1.914973 0.048586 -0.014794 -574270.000000 0 0 1
-32.317408 30.123877 -14.620415 46.536216 -0.750283 1.890382 0.044434 -0.011154 -138697.000000 0 0 1
-33.296888 29.374577 -13.931715 46.536451 -0.722894 1.874831 0.038910 -0.003343 367898.000000 0 0 1
-32.917998 29.153177 -12.586715 45.737597 -0.724819 1.849588 0.048454 0.002262 542094.000000 0 0 1
-34.049878 28.344177 -11.848815 45.860451 -0.694206 1.832127 0.047682 -0.003555 500535.000000 0 0 1
-33.570738 28.047277 -10.561315 45.002062 -0.695997 1.807691 0.048752 0.003260 196501.000000 0 0 1
-34.228149 26.955677 -9.992815 44.699341 -0.667091 1.796258 0.044747 -0.005078 -329014.000000 0 0 1
-33.369848 26.319977 -8.923415 43.427126 -0.667834 1.777751 0.051456 0.002483 -335340.000000 0 0 1
-33.297758 27.149177 -7.820215 43.668917 -0.684028 1.750847 0.056558 -0.005240 -83554.300000 0 0 1
-32.295868 26.682077 -6.971815 42.468371 -0.690499 1.735708 0.057407 -0.012257 -505786.000000 0 0 1
-32.050488 27.564277 -5.861115 42.677580 -0.710286 1.708567 0.078632 -0.017913 427516.000000 0 0 1
-31.020158 26.924977 -5.066315 41.386860 -0.714842 1.693518 0.087048 -0.013540 865012.000000 0 0 1
-30.888908 27.480577 -3.771715 41.515450 -0.727072 1.661773 0.074846 -0.008749 126325.000000 0 0 1
-29.995738 26.512477 -2.932215 40.140424 -0.723834 1.643910 0.083047 -0.006908 123682.000000 0 0 1
-30.667208 25.287377 -2.715515 39.840973 -0.689546 1.639008 0.079861 -0.007138 294325.000000 0 0 1
-29.814278 24.381077 -2.042115 38.568100 -0.685480 1.623769 0.084587 -0.018984 80831.000000 0 0 1
-30.541048 23.122677 -1.520915 38.337019 -0.648031 1.610479 0.083740 -0.031594 -130468.000000 0 0 1
-31.075148 22.281177 -2.527815 38.321085 -0.622051 1.636808 0.071971 -0.032489 28747.500000 0 0 1
-32.129368 21.484177 -2.043315 38.704539 -0.589393 1.623614 0.085975 -0.034654 -198315.000000 0 0 1
-32.612108 20.543677 -3.068015 38.665294 -0.562144 1.650228 0.053307 -0.018910 -636063.000000 0 0 1
-31.641588 19.648277 -3.471715 37.407188 -0.555692 1.663739 0.046039 -0.020203 -112674.000000 0 0 1
-32.247858 18.717877 -4.391115 37.544176 -0.525911 1.688023 0.034246 -0.009610 25611.800000 0 0 1
-31.280148 17.686177 -4.968415 36.275800 -0.514599 1.708190 0.019382 -0.010136 -52748.700000 0 0 1
-30.585418 16.759877 -4.154215 35.122910 -0.501283 1.689350 0.065866 -0.023821 322760.000000 0 0 1
-29.838578 15.860177 -4.926815 34.149077 -0.488554 1.715575 0.059741 -0.027087 -395535.000000 0 0 1
-29.296718 14.627177 -4.153715 33.007656 -0.463069 1.696972 0.081731 -0.027813 -613132.000000 0 0 1
-30.255388 13.699877 -3.684315 33.416303 -0.425186 1.681276 0.104251 -0.028392 536743.000000 0 0 1
-29.703408 12.514877 -3.063515 32.377457 -0.398756 1.665557 0.120840 -0.034009 281419.000000 0 0 1
-30.874738 11.619077 -2.568915 33.088544 -0.359936 1.648512 0.114879 -0.038121 155797.000000 0 0 1
-31.666788 11.095677 -3.612615 33.748341 -0.337021 1.678048 0.088339 -0.034828 827455.000000 0 0 1
-32.812318 10.464277 -3.017815 34.572482 -0.308717 1.658197 0.108337 -0.037546 553975.000000 0 0 1
-33.964228 9.964977 -3.920315 35.612335 -0.285387 1.681103 0.092307 -0.030933 120063.000000 0 0 1
-33.527808 9.006177 -4.873215 35.056717 -0.262423 1.710257 0.093657 -0.032610 23559.600000 0 0 1
-34.609175 8.411477 -5.506315 36.039804 -0.238419 1.724181 0.096444 -0.026503 -482557.000000 0 0 1
-34.104351 7.612277 -6.686415 35.577545 -0.219606 1.759860 0.093473 -0.026747 -282524.000000 0 0 1
-33.563908 6.404777 -6.151315 34.718810 -0.188556 1.748912 0.103211 -0.033284 473988.000000 0 0 1
-32.979768 5.543677 -7.137815 34.195700 -0.166536 1.781077 0.100690 -0.029883 -41569.700000 0 0 1
-31.884008 4.612277 -6.574115 32.879813 -0.143661 1.772097 0.107860 -0.032670 -268383.000000 0 0 1
-30.644118 5.216377 -6.298815 31.716678 -0.168608 1.770722 0.114171 -0.035870 -307157.000000 0 0 1
-29.869418 4.276977 -5.611115 30.691355 -0.142222 1.754654 0.099816 -0.032048 -1549650.000000 0 0 1
-28.410248 4.628777 -5.575615 29.319878 -0.161507 1.762127 0.128676 -0.036741 -1440290.000000 0 0 1
-27.915728 4.660577 -6.867115 29.123292 -0.165426 1.808832 0.133490 -0.028291 -161310.000000 0 0 1
-26.505308 4.626977 -6.815015 27.755805 -0.172826 1.818868 0.163435 -0.043037 77981.300000 0 0 1
-25.782388 5.185577 -8.073515 27.510060 -0.198481 1.868656 0.143383 -0.035257 -176043.000000 0 0 1
-25.873808 4.283077 -9.148015 27.775617 -0.164050 1.906416 0.141168 -0.043620 457196.000000 0 0 1
-24.734298 4.219177 -9.987115 27.006100 -0.168954 1.949600 0.144232 -0.049402 -42533.000000 0 0 1
-25.105228 3.585277 -11.343615 27.781366 -0.141851 1.991406 0.134530 -0.054928 -567637.000000 0 0 1
-26.003038 4.350477 -12.024315 28.977039 -0.165771 1.998695 0.108137 -0.027329 -424618.000000 0 0 1
-26.490678 3.742777 -13.176915 29.822735 -0.140358 2.028446 0.105969 -0.028153 -260609.000000 0 0 1
-27.290938 4.610977 -14.118115 31.070526 -0.167376 2.042483 0.086685 -0.023220 30034.100000 0 0 1
-26.470168 5.528977 -14.911015 30.880055 -0.205915 2.074724 0.059562 -0.016482 683671.000000 0 0 1
-27.126498 6.372977 -15.874215 32.069494 -0.230751 2.088625 0.074758 -0.017429 171940.000000 0 0 1
-27.928158 5.670477 -17.035215 33.201429 -0.200315 2.109574 0.041681 -0.000282 52399.800000 0 0 1
-29.130368 5.026377 -16.712015 33.957831 -0.170865 2.085343 0.057314 -0.009476 -395385.000000 0 0 1
-29.660448 4.482677 -17.912015 34.938186 -0.149998 2.109097 0.059726 0.003646 497330.000000 0 0 1
-31.104368 3.929177 -17.651215 35.978960 -0.125657 2.083573 0.065614 -0.006625 379512.000000 0 0 1
-31.233708 2.779877 -16.853515 35.599343 -0.088769 2.063968 0.069126 -0.016786 15087.300000 0 0 1
-30.873138 1.547177 -17.413015 35.478973 -0.050072 2.083802 0.096013 -0.016692 -83530.900000 0 0 1
-31.033068 0.383377 -16.434115 35.118064 -0.012353 2.057786 0.086852 -0.007475 -289712.000000 0 0 1
-30.664778 -0.867023 -16.996715 35.070909 0.028267 2.076746 0.089675 -0.001257 315874.000000 0 0 1
-30.919078 -1.974523 -16.097515 34.914440 0.063774 2.049981 0.094079 -0.009788 -137646.000000 0 0 1
-30.923758 -3.286723 -16.841815 35.365635 0.105887 2.067147 0.089945 -0.006739 -208895.000000 0 0 1
-32.032298 -3.458623 -17.688415 36.754731 0.107556 2.072883 0.090781 -0.004081 13929.900000 0 0 1
-32.047838 -4.750923 -18.272415 37.195650 0.147173 2.084322 0.082093 -0.009669 -118189.000000 0 0 1
-33.134748 -4.881423 -19.342615 38.676564 0.146268 2.094524 0.093387 -0.014712 -281857.000000 0 0 1
-33.134148 -6.164523 -19.967615 39.173700 0.183944 2.105656 0.112983 -0.017456 68582.600000 0 0 1
-34.025938 -6.312023 -21.052715 40.507073 0.183421 2.117330 0.130454 -0.019770 -320450.000000 0 0 1
-33.766798 -7.598323 -21.798015 40.903357 0.221337 2.132838 0.135711 -0.020313 -565507.000000 0 0 1
-32.504338 -7.505023 -22.367315 40.164090 0.226916 2.161443 0.120200 -0.012261 -638116.000000 0 0 1
-32.310248 -8.537323 -23.326715 40.755045 0.258326 2.180182 0.113413 -0.003176 530828.000000 0 0 1
-30.843758 -8.463023 -23.872415 39.910555 0.267793 2.211984 0.099271 0.001604 476444.000000 0 0 1
-30.647428 -7.154223 -24.469315 39.864711 0.229330 2.231673 0.107185 0.002190 -89526.400000 0 0 1
-30.470878 -7.173723 -25.893745 40.625396 0.231218 2.261887 0.088625 0.007906 -281666.000000 0 0 1
-31.753008 -7.237123 -26.732025 42.133486 0.224091 2.258106 0.095835 0.004481 -384128.000000 0 0 1
-32.457748 -8.430023 -26.564315 42.781229 0.254109 2.240730 0.092933 -0.002763 25988.400000 0 0 1
-33.697118 -8.497323 -27.266875 44.172194 0.247018 2.236085 0.086930 -0.004153 856790.000000 0 0 1
-34.537385 -9.758223 -26.813545 44.799778 0.275363 2.212448 0.075058 -0.012868 -287424.000000 0 0 1
-34.047528 -10.993423 -27.283815 44.994401 0.312317 2.222300 0.077359 -0.000363 48111.000000 0 0 1
-34.855276 -12.089323 -26.837705 45.621316 0.333860 2.199716 0.051390 0.001537 431364.000000 0 0 1
-36.192358 -12.289623 -27.605065 47.148290 0.327348 2.196286 0.029643 0.009471 -3904.940000 0 0 1
36.458225 -11.239923 -27.366185 46.951530 -0.299050 2.193041 0.029100 -0.005106 187908.000000 0 0 1
35.420175 -11.117023 -28.359565 46.716613 -0.304125 2.223146 0.034467 -0.010014 419859.000000 0 0 1
34.488005 -9.916923 -28.289155 45.695122 -0.279993 2.238373 0.032335 -0.010468 89105.800000 0 0 1
33.372275 -10.148023 -27.437395 44.379069 -0.295201 2.237312 0.006360 -0.006402 -189213.000000 0 0 1
32.556065 -9.002223 -27.348725 43.461364 -0.269774 2.251404 -0.013940 -0.000181 -269272.000000 0 0 1
31.347795 -9.365523 -26.484625 42.093142 -0.290320 2.251308 -0.014366 0.010509 -197566.000000 0 0 1
31.664675 -9.500423 -25.131895 41.527362 -0.291486 2.220799 -0.032445 0.018244 352841.000000 0 0 1
30.438895 -9.931123 -24.563215 40.354740 -0.315375 2.225195 -0.035069 0.019568 291519.000000 0 0 1
30.482005 -10.121823 -23.058615 39.538635 -0.320603 2.193449 -0.039041 0.010917 191974.000000 0 0 1
31.344485 -11.149523 -22.564415 40.198774 -0.341752 2.166777 -0.049988 0.010818 363098.000000 0 0 1
31.343785 -11.053723 -21.168315 39.404508 -0.339043 2.137917 -0.033727 0.002643 -274392.000000 0 0 1
32.249945 -12.101923 -20.523315 40.096408 -0.358993 2.108132 0.008394 0.004749 -216835.000000 0 0 1
33.601065 -11.963823 -20.878015 41.328636 -0.342059 2.100376 0.014549 0.003548 -361433.000000 0 0 1
34.477005 -12.533323 -19.948815 41.757673 -0.348674 2.068863 0.046626 0.001519 650624.000000 0 0 1
36.005845 -12.511323 -20.332215 43.201308 -0.334428 2.060811 0.072689 -0.013047 785220.000000 0 0 1
36.555465 -11.197223 -20.415415 43.341308 -0.297234 2.061264 0.101673 -0.013150 78234.400000 0 0 1
36.212525 -10.405923 -21.523915 43.392501 -0.279818 2.089815 0.102668 -0.012392 -490281.000000 0 0 1
-36.632658 -10.815823 -22.896215 44.532801 0.287094 2.110804 0.069535 -0.013424 401860.000000 0 0 1
36.526835 -12.078623 -23.488415 45.075586 -0.319359 2.118923 0.057473 -0.007714 1309670.000000 0 0 1
35.177205 -12.152423 -24.025015 44.298064 -0.332627 2.144027 0.063704 0.002005 1073970.000000 0 0 1
34.827735 -13.408923 -24.876015 44.850713 -0.367515 2.158727 0.025891 -0.010632 -342101.000000 0 0 1
34.744965 -14.694423 -24.276515 44.860761 -0.400110 2.142603 0.026768 -0.022559 835473.000000 0 0 1
33.779505 -14.859223 -23.212915 43.596914 -0.414414 2.132282 -0.004635 -0.009027 195084.000000 0 0 1
-30.284928 8.730177 -18.884715 36.742691 -0.280659 2.110605 0.026981 0.002611 -343830.000000 0 0 1
-29.187488 7.913077 -19.119015 35.777968 -0.264748 2.134570 0.025157 -0.001790 -643360.000000 0 0 1
-28.652348 8.094077 -20.362015 36.070526 -0.275319 2.170631 0.041049 -0.022156 -327081.000000 0 0 1
-27.537658 7.078477 -20.643515 35.136622 -0.251600 2.198789 0.050320 -0.023486 432992.000000 0 0 1
-26.379358 7.241777 -19.802415 33.770542 -0.267924 2.197381 0.049195 -0.021712 585705.000000 0 0 1
-25.378718 6.291677 -20.081515 32.968649 -0.243012 2.225734 0.084057 -0.029004 626057.000000 0 0 1
-23.951998 6.567777 -19.504315 31.579301 -0.267628 2.236522 0.056996 -0.036836 831125.000000 0 0 1
-23.258198 7.558677 -20.283815 31.772796 -0.314223 2.263217 0.062547 -0.040468 338414.000000 0 0 1
-22.233398 8.163077 -19.468215 30.658950 -0.351874 2.258796 0.037300 -0.035032 323933.000000 0 0 1
-21.513598 9.346777 -20.103115 30.892271 -0.409855 2.279367 0.059773 -0.022572 -369156.000000 0 0 1
-20.644898 8.941277 -21.130615 30.865210 -0.408710 2.324864 0.094363 -0.038202 -150243.000000 0 0 1
-20.160998 10.080577 -21.835815 31.382905 -0.463651 2.340311 0.075599 -0.027727 410760.000000 0 0 1
-18.947398 9.715277 -22.762515 31.169257 -0.473795 2.389539 0.099850 -0.021928 22570.700000 0 0 1
-19.359398 8.767777 -23.754915 31.874068 -0.425259 2.411742 0.091253 -0.029091 -381637.000000 0 0 1
-18.278098 8.369577 -24.515415 31.704011 -0.429406 2.454761 0.067689 -0.022236 -585221.000000 0 0 1
-18.674698 7.471877 -25.704835 32.639115 -0.380599 2.477615 0.055084 -0.013413 -172249.000000 0 0 1
-19.004798 6.204277 -25.207775 32.173084 -0.315550 2.471083 0.076110 -0.012305 38739.500000 0 0 1
-19.426698 5.327877 -26.196905 33.046342 -0.267674 2.486075 0.079748 -0.015861 -316994.000000 0 0 1
-19.938798 3.914077 -25.659505 32.730504 -0.193840 2.471820 0.068088 -0.004757 408928.000000 0 0 1
-18.999998 2.900777 -25.239185 31.724295 -0.151503 2.490759 0.058158 -0.006241 752079.000000 0 0 1
-18.131398 3.289577 -24.155115 30.381549 -0.179478 2.489901 0.060306 -0.015939 -17196.700000 0 0 1
-17.401998 2.054877 -23.569215 29.369371 -0.117539 2.502287 0.065615 -0.016466 -92041.800000 0 0 1
-18.138998 1.244677 -22.664115 29.055715 -0.068511 2.465498 0.074575 -0.016915 -206633.000000 0 0 1
-19.114998 0.436277 -23.243815 30.097316 -0.022820 2.453232 0.059884 -0.009307 -320942.000000 0 0 1
-19.871098 -0.432423 -22.201315 29.798422 0.021758 2.411406 0.068658 -0.009102 279407.000000 0 0 1
-19.086598 -1.510923 -21.693615 28.934306 0.078997 2.418487 0.080422 -0.013378 347590.000000 0 0 1
-19.838598 -2.180723 -20.742315 28.784878 0.109484 2.375460 0.068720 -0.012072 -320412.000000 0 0 1
-19.201198 -3.534823 -20.321815 28.180794 0.182055 2.376218 0.065186 -0.030908 19469.900000 0 0 1
-19.037198 -4.477923 -21.365115 28.964372 0.231020 2.400356 0.065207 -0.034951 344471.000000 0 0 1
-19.270398 -5.822523 -20.945315 29.050925 0.293427 2.376021 0.071357 -0.028467 -346504.000000 0 0 1
-19.225698 -6.820423 -22.161115 30.120768 0.340905 2.397558 0.054353 -0.038579 -948781.000000 0 0 1
-17.911398 -7.048123 -22.546315 29.645076 0.374890 2.434943 0.057370 -0.030219 -729632.000000 0 0 1
-17.884698 -7.870023 -23.698815 30.715363 0.414542 2.452090 0.069453 -0.036085 -355607.000000 0 0 1
-16.626098 -7.933823 -24.539815 30.685098 0.445234 2.497643 0.056161 -0.036394 -1037670.000000 0 0 1
-16.713898 -8.914123 -25.586915 31.835612 0.489959 2.504317 0.067018 -0.057872 634409.000000 0 0 1
-15.529498 -8.982723 -26.402015 31.920543 0.524408 2.544754 0.071102 -0.053664 945668.000000 0 0 1
-14.254498 -9.716223 -25.871035 31.095115 0.598287 2.553494 0.065260 -0.052548 188822.000000 0 0 1
-13.614198 -9.006223 -24.817615 29.704755 0.584439 2.559795 0.060457 -0.039271 -155592.000000 0 0 1
-12.730798 -9.835223 -24.123515 28.995669 0.657780 2.553445 0.044650 -0.027749 -160158.000000 0 0 1
-11.991498 -9.108923 -22.969215 27.465494 0.649626 2.561284 0.066798 -0.025497 -57669.700000 0 0 1
-12.714798 -8.913423 -21.780015 26.748538 0.611415 2.522234 0.062661 -0.022880 -106610.000000 0 0 1
-11.906398 -8.338223 -20.813515 25.386821 0.610937 2.531954 0.074085 -0.020664 -811043.000000 0 0 1
-12.689098 -8.062423 -19.541115 24.655041 0.566030 2.485826 0.062617 -0.020353 122580.000000 0 1 0
-13.627298 -7.004723 -19.612915 24.888468 0.474802 2.478402 0.053476 -0.010667 1121440.000000 0 1 0
-15.004498 -7.419223 -19.768215 25.902938 0.459211 2.438993 0.052512 -0.026470 1097610.000000 0 0 1
-16.003298 -6.296023 -19.341415 25.881186 0.374821 2.414809 0.060903 -0.026344 -144497.000000 0 0 1
-16.069498 -5.881223 -18.002115 24.837345 0.350845 2.381541 0.047724 -0.020210 258710.000000 0 1 0
-15.303398 -4.710223 -17.774515 23.923077 0.298588 2.408317 0.054583 -0.019390 -519310.000000 0 1 0
-15.061598 -4.270923 -16.276015 22.583206 0.276310 2.375627 0.072262 -0.017484 -41237.200000 0 1 0
-16.145198 -3.890723 -15.444115 22.678753 0.236475 2.319917 0.090232 -0.030755 177159.000000 0 1 0
-16.727598 -2.609423 -15.793615 23.152968 0.154748 2.321485 0.050894 -0.025255 -34800.700000 0 1 0
-17.830398 -2.224923 -14.788215 23.271543 0.124141 2.259405 0.052072 -0.033296 -249781.000000 0 1 0
-17.426998 -2.207923 -13.424115 22.108416 0.126024 2.223322 0.071355 -0.044215 138986.000000 0 1 0
-18.344498 -1.563023 -12.603915 22.311933 0.084999 2.171103 0.071454 -0.045335 -459415.000000 0 1 0
-17.726198 -0.288923 -11.997115 21.406363 0.016298 2.165721 0.055325 -0.039254 14347.100000 0 1 0
-17.663098 0.671477 -13.012815 21.949243 -0.037998 2.205401 0.086168 -0.036175 242860.000000 0 1 0
-16.798598 1.721477 -12.636815 21.091360 -0.102121 2.213231 0.074878 -0.024361 -932964.000000 0 1 0
-16.412198 2.419477 -13.907015 21.647614 -0.146365 2.268458 0.081306 -0.010638 182977.000000 0 1 0
-15.560698 1.726977 -14.801315 21.545225 -0.110531 2.328133 0.069498 -0.028567 706114.000000 0 1 0
-14.298798 1.178877 -14.414215 20.337527 -0.082260 2.358521 0.064046 -0.025444 -2722.800000 0 1 0
-13.808498 0.205377 -15.496415 20.757064 -0.014872 2.413674 0.068520 -0.019976 111077.000000 0 1 0
-13.139098 0.857377 -16.577815 21.170615 -0.065161 2.470364 0.064408 -0.031249 210257.000000 0 1 0
-12.865298 -0.098623 -17.573415 21.779590 0.007666 2.509640 0.042229 -0.017604 -112364.000000 0 1 0
-12.185198 0.553877 -18.791115 22.402943 -0.045424 2.565833 0.060013 -0.023291 398568.000000 0 1 0
-10.865898 1.022977 -18.534215 21.508867 -0.093869 2.609409 0.028185 -0.013699 42838.600000 0 1 0
-10.424498 1.884677 -19.554415 22.239544 -0.178861 2.645110 0.038458 -0.015011 58498.700000 0 1 0
-9.066798 2.535177 -19.234415 21.414871 -0.272648 2.686409 0.029168 -0.017980 -108681.000000 0 1 0
-7.977798 1.605277 -19.388715 21.027231 -0.198567 2.744208 0.026490 -0.009528 126203.000000 0 1 0
-6.703998 2.203377 -19.342315 20.589406 -0.317544 2.791761 0.026958 -0.001483 170484.000000 0 1 0
-6.320898 3.323177 -20.422315 21.634884 -0.484030 2.805205 0.025586 0.004411 -952440.000000 0 1 0
-6.198398 2.891377 -21.713815 22.765544 -0.436467 2.836442 0.022291 0.005111 50505.400000 0 1 0
-5.834398 3.867477 -22.660915 23.717392 -0.585373 2.841996 0.023214 0.000133 -711054.000000 0 1 0
-5.368898 3.173277 -23.906315 24.706409 -0.533811 2.886405 0.045474 -0.021415 -951321.000000 0 1 0
-4.081998 2.673977 -23.731915 24.228427 -0.579928 2.938796 0.051978 -0.026627 -803730.000000 0 1 0
-3.660898 2.130277 -24.977215 25.333802 -0.527004 2.973612 0.076481 -0.033391 -820994.000000 0 0 1
-2.276098 1.528677 -24.958015 25.108166 -0.591425 3.032175 0.062694 -0.031563 -1058470.000000 0 0 1
-1.191598 2.470777 -24.999415 25.149461 -1.121428 3.032303 0.060610 -0.029920 1161320.000000 0 0 1
0.094302 1.823977 -24.975415 25.042108 1.519141 3.068594 0.061276 -0.030765 840037.000000 0 0 1
0.542602 1.031477 -23.723815 23.752427 1.086532 3.092505 0.058849 -0.030830 -1027530.000000 0 1 0
0.063102 -0.302923 -23.743215 23.745231 -1.365424 3.128561 0.054573 -0.031308 21535.200000 0 1 0
0.823602 -1.141023 -22.923515 22.966667 -0.945582 3.080282 0.058838 -0.018715 -466037.000000 0 1 0
0.129202 -2.508923 -22.713615 22.852127 -1.519345 3.031435 0.065501 -0.027453 942784.000000 0 1 0
-1.109198 -2.458823 -21.961715 22.126750 1.147020 3.019381 0.056498 -0.022983 668673.000000 0 1 0
-2.226098 -2.610923 -22.815215 23.071768 0.864789 2.992325 0.073782 -0.023943 -247580.000000 0 1 0
-3.116798 -1.363223 -22.950015 23.200776 0.412309 2.994434 0.076716 -0.017417 -1291280.000000 0 1 0
-3.704698 -1.033423 -21.723815 22.061661 0.272034 2.966362 0.052210 -0.005763 246129.000000 0 1 0
-4.646298 0.044577 -21.756315 22.246962 -0.009594 2.931183 0.033892 -0.005139 353738.000000 0 1 0
-5.980398 -0.311823 -22.427815 23.213558 0.052094 2.880667 0.050445 -0.003731 -1164440.000000 0 1 0
-6.683898 -1.371123 -21.876815 22.916141 0.202331 2.839267 0.060573 0.003152 -159982.000000 0 1 0
-8.073898 -1.092423 -21.827915 23.298908 0.134486 2.784349 0.049387 0.002110 279932.000000 0 1 0
-8.835698 -2.350823 -21.324915 23.202326 0.260036 2.736549 0.054422 -0.000685 -117311.000000 0 1 0
-9.137598 -3.201923 -22.425215 24.426180 0.337042 2.734009 0.097957 -0.005847 -177759.000000 0 1 0
-9.497498 -4.443723 -22.039715 24.406929 0.437626 2.697523 0.073597 -0.003304 -147380.000000 0 1 0
-10.410698 -5.256423 -22.989815 25.778755 0.467565 2.672132 0.073343 -0.013874 169195.000000 0 0 1
-11.793898 -4.964523 -22.884415 26.219058 0.398427 2.631739 0.063962 -0.015073 -21694.600000 0 0 1
-12.467098 -5.579623 -23.979715 27.596874 0.420813 2.623830 0.051036 -0.026796 347481.000000 0 0 1
-14.011498 -5.496823 -23.778115 28.141356 0.373858 2.577273 0.059947 -0.029773 184878.000000 0 0 1
-14.468698 -4.170223 -23.736915 28.110054 0.280618 2.576293 0.063549 -0.028652 526708.000000 0 0 1
-15.868198 -4.062023 -23.434015 28.591132 0.250604 2.531553 0.073897 -0.029493 1055820.000000 0 0 1
-16.396598 -2.637023 -23.867115 29.076477 0.159462 2.533675 0.066599 -0.027920 -97303.100000 0 0 1
-16.275498 -2.641223 -25.294545 30.194071 0.160880 2.563913 0.058289 -0.028147 197134.000000 0 0 1
-16.465598 -1.344423 -25.912505 30.730788 0.081470 2.574023 0.055873 -0.018229 -125203.000000 0 0 1
-17.889498 -1.114723 -26.471075 31.968650 0.062231 2.546385 0.072818 -0.009154 -1938.090000 0 0 1
-18.219598 -1.836723 -27.637095 33.153225 0.100471 2.556421 0.071988 -0.024725 160317.000000 0 0 1
-17.820298 -1.120623 -28.790025 33.877491 0.062802 2.586454 0.057115 -0.018046 -256737.000000 0 0 1
-18.006298 -1.956923 -30.101365 35.130450 0.108255 2.599916 0.043689 -0.009986 -260343.000000 0 0 1
-19.312598 -2.437923 -30.235955 35.960157 0.125571 2.569589 0.048261 -0.010875 -240027.000000 0 0 1
-19.447998 -3.148623 -31.477555 37.134552 0.160507 2.582359 0.052161 -0.017421 -199747.000000 0 0 1
-20.880298 -3.702023 -31.743295 38.174974 0.175474 2.552637 0.032607 -0.021389 518603.000000 0 0 1
-21.882398 -2.782923 -32.202395 39.033041 0.126497 2.541005 0.023386 -0.012509 622859.000000 0 0 1
-22.445398 -2.049623 -31.141705 38.442199 0.091063 2.515105 0.016016 0.002925 -188191.000000 0 0 1
-23.549198 -1.015223 -31.539625 39.374400 0.043084 2.499791 0.012750 -0.002554 364225.000000 0 0 1
-22.985798 0.099377 -32.198325 39.561205 -0.004323 2.521606 0.005275 -0.004935 -106364.000000 0 0 1
-23.973498 0.913877 -32.698675 40.555729 -0.038102 2.508608 0.003464 -0.012854 -587723.000000 0 0 1
-23.419898 2.219777 -33.271075 40.747804 -0.094499 2.526140 0.011819 -0.014187 -730675.000000 0 0 1
-22.775898 3.128377 -32.394405 39.723114 -0.136501 2.524398 0.005106 0.000270 186932.000000 0 0 1
-23.545298 3.993677 -31.574015 39.588495 -0.168018 2.494028 0.016995 -0.006988 -4625.840000 0 0 1
-24.687498 4.842077 -32.268015 40.916294 -0.193676 2.479382 0.015817 -0.011892 401942.000000 0 0 1
-25.776308 4.101977 -32.779665 41.901679 -0.157814 2.469145 0.040916 -0.023060 489507.000000 0 0 1
-26.694978 4.873177 -33.569445 43.165697 -0.180562 2.461776 0.058256 -0.030517 669031.000000 0 0 1
-28.047528 4.172677 -33.891285 44.189301 -0.147688 2.444882 0.081873 -0.029677 99325.200000 0 0 1
-27.877218 3.012877 33.533444 43.711653 -0.107659 0.696408 0.089543 -0.033448 534633.000000 0 0 1
-29.162058 2.638777 33.067489 44.168401 -0.090241 0.724745 0.092418 -0.034836 181564.000000 0 0 1
-29.294038 1.176177 32.557179 43.812030 -0.040129 0.733090 0.101329 -0.020978 -261649.000000 0 0 1
-29.414378 0.347177 33.730367 44.755601 -0.011802 0.717188 0.104261 -0.015309 112420.000000 0 0 1
-29.572498 -0.998123 33.349233 44.583632 0.033739 0.725730 0.089602 -0.013140 -714463.000000 0 0 1
-29.333888 -1.996123 -33.584655 44.636203 0.067944 2.422507 0.051730 -0.008513 1651300.000000 0 0 1
-28.011128 -2.224923 -32.959515 43.311699 0.079264 2.435625 0.065260 -0.015097 2000940.000000 0 0 1
-27.389278 -1.041323 -32.449215 42.475975 0.038001 2.440198 0.065847 -0.013504 -518108.000000 0 0 1
-27.794908 -0.657223 -30.986045 41.630804 0.023641 2.410291 0.096165 -0.013425 -256336.000000 0 0 1
-27.013058 -1.356123 -30.042025 40.423603 0.050160 2.408607 0.069953 -0.014983 423569.000000 0 0 1
-27.128568 -0.761823 -28.766425 39.548032 0.028075 2.385292 0.078959 -0.017183 -125306.000000 0 0 1
-26.095838 -1.286223 -27.735885 38.104153 0.049249 2.386046 0.080072 -0.017154 17612.500000 0 0 1
-26.252988 -2.668323 -27.389165 38.032956 0.101291 2.374805 0.063762 -0.001085 678655.000000 0 0 1
-25.307998 -3.043623 -26.367705 36.674437 0.119688 2.373111 0.078306 -0.009583 317277.000000 0 0 1
-25.631208 -4.488023 -25.832115 36.666052 0.173343 2.352549 0.069173 -0.010709 386771.000000 0 0 1
-26.537508 -4.421623 -24.732415 36.544253 0.165101 2.314176 0.088544 -0.007325 134850.000000 0 0 1
-26.689028 -5.661623 -24.079215 36.389103 0.209034 2.293900 0.070220 -0.002178 218033.000000 0 0 1
-27.703818 -5.464123 -22.923015 36.370631 0.194734 2.252687 0.083527 -0.006617 226661.000000 0 0 1
-28.092618 -6.685023 -22.342315 36.511146 0.233619 2.229297 0.075575 -0.012331 -210136.000000 0 0 1
-29.098768 -6.420523 -21.385215 36.678180 0.217166 2.193274 0.102890 -0.012212 398423.000000 0 0 1
-29.576928 -7.625423 -20.441115 36.752972 0.252322 2.160573 0.105228 -0.023308 628608.000000 0 0 1
-28.474838 -8.072823 -19.645115 35.523477 0.276258 2.156778 0.088297 -0.027605 305783.000000 0 0 1
-28.848278 -8.940923 -18.618415 35.479693 0.300541 2.123233 0.100742 -0.025764 156607.000000 0 0 1
-29.545348 -8.341623 -17.348315 35.262931 0.275171 2.085148 0.093193 -0.030923 24373.000000 0 0 1
-28.679848 -7.522323 -16.617415 33.989080 0.256508 2.081630 0.072377 -0.029501 -53308.300000 0 0 1
-29.260138 -6.995423 -15.439215 33.815100 0.234672 2.044941 0.074333 -0.030500 -264902.000000 0 0 1
-28.305838 -6.140623 -14.596815 32.434468 0.213628 2.037607 0.083361 -0.028583 -61203.900000 0 0 1
-27.968408 -4.866823 -15.150015 32.178266 0.172286 2.061011 0.076923 -0.020941 168630.000000 0 0 1
-26.978178 -4.279323 -14.335915 30.848876 0.157311 2.054108 0.086704 -0.030746 15817.700000 0 0 1
-14.573998 21.077277 -5.062215 26.120472 -0.965828 1.765833 0.062477 -0.015499 143916.000000 0 0 1
-14.587298 20.535677 -6.353115 25.978171 -0.953165 1.817858 0.094856 -0.017668 34357.400000 0 0 1
-15.360198 19.359077 -6.275415 25.496870 -0.900070 1.819476 0.095376 -0.030568 -175937.000000 0 0 1
-15.535998 18.814777 -7.729015 25.594936 -0.880560 1.877559 0.114315 -0.037115 442268.000000 0 0 1
-14.330298 18.182977 -8.191615 24.557701 -0.903344 1.910880 0.107683 -0.030778 518950.000000 0 1 0
-14.547698 17.128977 -9.083315 24.239307 -0.866707 1.954907 0.096106 -0.033912 -151414.000000 0 1 0
-15.059098 15.783377 -8.451915 23.395006 -0.808877 1.940426 0.093620 -0.035634 -446753.000000 0 1 0
-16.430498 15.847677 -8.184315 24.250632 -0.767344 1.915044 0.101611 -0.022409 -449469.000000 0 1 0
-16.902698 14.920577 -7.209315 23.670637 -0.723193 1.880281 0.107271 -0.015483 -829913.000000 0 1 0
-18.345098 15.210477 -6.879015 24.803671 -0.692253 1.851819 0.127257 -0.017103 -749836.000000 0 1 0
-19.280098 14.764277 -7.837715 25.517364 -0.653523 1.882995 0.124612 -0.021517 140405.000000 0 0 1
-20.583398 15.254677 -7.582915 26.718571 -0.637791 1.858558 0.103697 -0.019870 285410.000000 0 0 1
-21.703798 14.565477 -8.391615 27.452271 -0.591067 1.881449 0.102370 -0.007327 -31960.500000 0 0 1
-21.943098 13.224777 -8.040515 26.852266 -0.542391 1.874897 0.135503 -0.018584 -182253.000000 0 0 1
-22.962298 12.700777 -8.831115 27.686919 -0.505231 1.895432 0.143266 -0.021564 -305745.000000 0 0 1
-23.263498 11.241577 -8.431915 27.178311 -0.450140 1.886246 0.135792 -0.023555 -889236.000000 0 0 1
-22.260598 10.311977 -8.629015 26.006365 -0.433809 1.909012 0.137758 -0.027894 -793663.000000 0 0 1
-22.418598 9.197377 -7.780615 25.450408 -0.389317 1.881487 0.134243 -0.039992 -591448.000000 0 0 1
-21.213498 8.411077 -7.268315 23.949679 -0.377482 1.879142 0.108961 -0.019647 -613544.000000 0 1 0
-20.833498 7.366677 -8.187115 23.565471 -0.339876 1.925615 0.100584 -0.025792 778063.000000 0 1 0
-19.800098 6.519877 -7.666415 22.210957 -0.318103 1.923209 0.076084 -0.012250 -16879.400000 0 1 0
-19.615298 5.281077 -8.530915 22.032390 -0.262996 1.968388 0.066096 -0.027359 -64112.800000 0 1 0
-20.692198 4.303277 -8.511915 22.784599 -0.205043 1.953664 0.100902 -0.030769 1044470.000000 0 1 0
-20.456298 3.304577 -9.416615 22.760778 -0.160160 1.997334 0.096706 -0.033209 30699.300000 0 1 0
-21.533898 2.170977 -9.414415 23.601973 -0.100477 1.981094 0.107017 -0.034813 227615.000000 0 1 0
-21.275398 1.289677 -8.364815 22.897073 -0.060544 1.944776 0.099543 -0.032373 523968.000000 0 1 0
-22.187998 0.191277 -8.294015 23.688279 -0.008621 1.928508 0.103820 -0.027781 -72961.500000 0 1 0
-21.882798 -0.965323 -9.302915 23.797751 0.044085 1.972423 0.088763 -0.046514 -636401.000000 0 1 0
-20.705598 -1.676023 -9.099515 22.678890 0.080769 1.983659 0.068439 -0.026908 -71986.200000 0 1 0
-20.728198 -3.120823 -9.366515 22.959298 0.149437 1.991017 0.063762 -0.025594 -100843.000000 0 1 0
-21.713498 -3.987823 -8.563815 23.679478 0.181632 1.940839 0.070290 -0.026564 -123314.000000 0 1 0
-21.208598 -4.151223 -7.262115 22.798588 0.193289 1.894978 0.059558 -0.022524 1116270.000000 0 1 0
-22.212498 -4.617723 -6.326715 23.553042 0.204969 1.842752 0.071921 -0.029672 -65463.300000 0 1 0
-22.396298 -6.192523 -6.378615 24.096229 0.269758 1.838704 0.081635 -0.034812 -209630.000000 0 1 0
-21.309298 -7.029423 -6.052315 23.240686 0.318636 1.834252 0.079827 -0.038636 127829.000000 0 1 0
-21.668898 -8.379823 -6.219815 24.050960 0.369007 1.832379 0.103647 -0.037936 888288.000000 0 1 0
-20.557998 -9.429923 -5.691115 23.322597 0.430064 1.817302 0.101537 -0.037036 1287140.000000 0 1 0
-19.478498 -9.689623 -6.580715 22.728979 0.461607 1.864532 0.108366 -0.024539 211441.000000 0 1 0
-18.677198 -10.689623 -6.025215 22.347460 0.519830 1.843790 0.119408 -0.011279 99697.500000 0 1 0
-17.806398 -11.556923 -6.993915 22.350506 0.575694 1.889062 0.099787 -0.004725 431384.000000 0 1 0
-16.543598 -11.125823 -7.470315 21.290378 0.592041 1.929304 0.085214 -0.024390 547661.000000 0 1 0
-16.640098 -10.499623 -8.698415 21.512726 0.562890 1.987051 0.066736 -0.031207 414671.000000 0 1 0
-15.536898 -10.956123 -9.708315 21.346738 0.614186 2.042934 0.057697 -0.018609 580714.000000 0 1 0
-15.898098 -12.240923 -10.173315 22.496357 0.656155 2.040050 0.089101 -0.019336 283500.000000 0 1 0
-14.943998 -12.794323 -11.066415 22.571737 0.708054 2.083204 0.082557 -0.003929 111955.000000 0 1 0
-15.371598 -14.164023 -11.594515 23.902685 0.744536 2.077241 0.097707 -0.004971 128090.000000 0 1 0
-16.245998 -14.025623 -12.677515 24.927293 0.712181 2.104331 0.104066 -0.010654 -257226.000000 0 1 0
-16.831598 -15.180623 -13.178415 26.218784 0.733871 2.097438 0.102702 -0.006552 -173785.000000 0 0 1
-17.157498 -15.087623 -14.674215 27.154166 0.721294 2.141713 0.112067 -0.011079 -235301.000000 0 0 1
-17.570398 -16.258823 -15.215215 28.364961 0.746647 2.136973 0.101209 -0.005597 5765.220000 0 0 1
-17.617898 -16.176823 -16.621715 29.126643 0.742782 2.178118 0.085872 -0.006606 -262170.000000 0 0 1
-17.889298 -17.559523 -17.212715 30.407917 0.776096 2.172515 0.089833 -0.016783 -487907.000000 0 0 1
-19.209098 -17.895023 -16.926815 31.236811 0.749997 2.143477 0.058667 -0.010792 -1176580.000000 0 0 1
-19.993498 -18.068823 -18.085215 32.454543 0.734875 2.161864 0.057314 -0.009791 1406920.000000 0 0 1
-21.547498 -18.018723 -17.710315 33.205787 0.696447 2.133353 0.051187 -0.008538 1252440.000000 0 0 1
-21.913998 -16.791223 -17.072715 32.459915 0.653809 2.124643 0.032492 0.007583 165360.000000 0 0 1
-21.696198 -16.784523 -15.653615 31.582921 0.658445 2.089363 0.043076 -0.002302 -373786.000000 0 0 1
-21.539898 -15.371723 -15.031915 30.433790 0.619821 2.087391 0.052325 -0.009922 -67187.400000 0 0 1
-22.786498 -14.720523 -14.964515 30.981527 0.573572 2.074890 0.052035 -0.003121 136502.000000 0 0 1
-22.719298 -13.341223 -14.499315 30.072993 0.530969 2.073889 0.051292 -0.006118 -71929.800000 0 0 1
-24.066498 -12.670623 -14.141115 30.654725 0.484610 2.050260 0.066548 -0.016935 -448179.000000 0 0 1
-24.553298 -12.985623 -12.919915 30.633561 0.486480 2.006178 0.081290 -0.011090 443491.000000 0 0 1
-25.746888 -12.266023 -12.593115 31.176018 0.444596 1.986612 0.109383 -0.024560 230929.000000 0 0 1
-26.522328 -12.940023 -11.410215 31.639708 0.453914 1.939739 0.122008 -0.029144 -7208.080000 0 0 1
-27.437998 -11.943423 -10.955715 31.867174 0.410552 1.921750 0.107905 -0.037236 399304.000000 0 0 1
-28.129438 -12.294923 -9.754415 32.211474 0.412061 1.878451 0.102561 -0.034777 52771.000000 0 0 1
-29.097978 -11.292623 -9.115815 32.516361 0.370197 1.854950 0.128428 -0.043946 -23269.700000 0 0 1
-28.399998 -10.174723 -8.591015 31.367028 0.344019 1.848228 0.125929 -0.041824 417393.000000 0 0 1
-29.236668 -9.289423 -7.856915 31.667132 0.307644 1.821525 0.137109 -0.045706 210016.000000 0 0 1
-28.390328 -8.136023 -7.297215 30.421291 0.279097 1.813030 0.126362 -0.039827 69501.000000 0 0 1
-27.496228 -8.466523 -6.266515 29.444758 0.298703 1.785259 0.116688 -0.044064 357884.000000 0 0 1
-26.589808 -7.451523 -5.798415 28.216391 0.273231 1.777769 0.103952 -0.037625 359561.000000 0 0 1
-27.204648 -6.155323 -5.182815 28.369745 0.222513 1.754516 0.111280 -0.037562 18386.300000 0 0 1
-28.168518 -6.355523 -4.110915 29.167751 0.221909 1.712208 0.117278 -0.038455 972927.000000 0 0 1
-27.612518 -6.905823 -2.931615 28.613562 0.245070 1.673432 0.129899 -0.035186 151766.000000 0 0 1
-26.725108 -5.973023 -2.044015 27.460634 0.219885 1.645300 0.130552 -0.034012 536665.000000 0 0 1
-27.584488 -4.993923 -1.494015 28.072680 0.179101 1.624041 0.138949 -0.041435 512094.000000 0 0 1
-26.848008 -3.952723 -0.910215 27.152680 0.146176 1.604325 0.121689 -0.041864 -929807.000000 0 0 1
-27.696888 -2.899523 -0.243415 27.849311 0.104308 1.579537 0.136625 -0.051187 -172861.000000 0 0 1
-28.671538 -3.255823 0.735385 28.865174 0.113072 1.545317 0.140095 -0.041233 108614.000000 0 0 1
-28.207108 -3.974023 1.821885 28.543880 0.139966 1.506925 0.126021 -0.036655 -561396.000000 0 0 1
-29.248868 -4.221423 2.929085 29.696738 0.143338 1.472002 0.132819 -0.033890 -128514.000000 0 0 1
-30.119438 -5.287023 2.731085 30.701661 0.173765 1.481723 0.125155 -0.026523 -70859.800000 0 0 1
-31.136838 -5.424823 3.713485 31.823283 0.172494 1.453839 0.148650 -0.029516 -87635.300000 0 0 1
-31.883818 -6.711123 3.590785 32.779731 0.207458 1.461033 0.133913 -0.024844 -648849.000000 0 0 1
-31.147588 -7.819923 3.990785 32.361239 0.245976 1.447162 0.117433 -0.018471 99259.400000 0 0 1
-31.936028 -8.983823 3.838585 33.396912 0.274220 1.455603 0.129860 -0.024189 -104063.000000 0 0 1
-31.303588 -10.297823 4.415385 33.248390 0.317815 1.437603 0.111572 -0.012274 113555.000000 0 0 1
-31.146648 -10.376323 5.822485 33.341912 0.321580 1.395267 0.099021 -0.009559 -158120.000000 0 0 1
-30.191888 -11.309923 6.184785 32.828586 0.358421 1.381267 0.100801 -0.011840 -521452.000000 0 0 1
-30.094328 -11.766323 7.656185 33.207410 0.372708 1.338147 0.089423 -0.017482 -20009.700000 0 0 1
-29.738388 -10.645323 8.431285 32.692219 0.343754 1.309950 0.085587 -0.006318 328861.000000 0 0 1
-29.719118 -11.030123 9.797385 33.179487 0.355387 1.271043 0.085019 -0.009783 -281517.000000 0 0 1
-29.818958 -9.793323 10.704185 33.161107 0.317328 1.242117 0.088520 -0.013767 -165527.000000 0 0 1
-28.711158 -8.926023 10.551985 31.864539 0.301418 1.233273 0.078743 -0.008390 431237.000000 0 0 1
-28.854518 -7.897223 11.562385 32.072388 0.267149 1.201983 0.081773 -0.011100 -34684.500000 0 0 1
-27.799168 -6.804623 11.394085 30.804575 0.240058 1.191913 0.100365 -0.016845 -101714.000000 0 0 1
-28.234558 -5.880423 10.390085 30.654910 0.205335 1.225009 0.111226 -0.016041 286833.000000 0 0 1
-27.406698 -4.752223 10.373885 29.687173 0.171689 1.213823 0.117496 -0.025376 -399060.000000 0 0 1
-27.630768 -3.794923 9.188685 29.364821 0.136490 1.252536 0.112333 -0.021307 -88015.300000 0 0 1
-27.245788 -4.454823 7.994685 28.741841 0.162071 1.288924 0.108153 -0.021377 366015.000000 0 0 1
-27.450628 -3.569723 6.857285 28.518455 0.129316 1.327966 0.097893 -0.031100 -298858.000000 0 0 1
-26.625618 -4.031123 5.640585 27.513446 0.150259 1.364320 0.099782 -0.018369 1223110.000000 0 0 1
-25.206098 -3.742323 5.793485 26.132677 0.147392 1.347244 0.125187 -0.034429 1880780.000000 0 0 1
-24.438298 -4.215123 4.681085 25.237081 0.170800 1.384232 0.134194 -0.027445 686514.000000 0 0 1
-22.887098 -4.050123 4.745585 23.722212 0.175148 1.369389 0.140723 -0.028927 676611.000000 0 1 0
-22.581398 -2.696323 4.494985 23.181773 0.118842 1.375659 0.106957 -0.020734 -343836.000000 0 1 0
-21.221798 -2.520723 4.230885 21.785756 0.118226 1.375350 0.092960 -0.012982 -696746.000000 0 1 0
-20.612498 -1.148823 4.458985 21.120545 0.055677 1.358075 0.059684 -0.019176 -570430.000000 0 1 0
-20.935898 -0.100123 3.569485 21.238246 0.004782 1.401926 0.071729 -0.011660 918420.000000 0 1 0
-22.035398 0.669677 4.093485 22.422396 -0.030382 1.387204 0.055643 -0.034924 409639.000000 0 1 0
-22.478398 1.792577 3.092285 22.760798 -0.079578 1.434515 0.099138 -0.022610 274323.000000 0 1 0
-21.528498 2.862577 2.946385 21.916929 -0.132191 1.435954 0.050694 -0.016245 990651.000000 0 1 0
-22.005598 3.691777 1.883885 22.392512 -0.166217 1.486567 0.090058 -0.013361 634510.000000 0 1 0
-20.785298 4.318677 1.145585 21.260102 -0.204861 1.516886 0.065927 -0.003294 171781.000000 0 1 0
-21.097998 5.114577 0.033185 21.709112 -0.237832 1.569268 0.082112 0.000471 393388.000000 0 1 0
-21.843798 4.546477 -1.069515 22.337543 -0.205206 1.618694 0.090716 -0.011889 -279764.000000 0 1 0
-21.290598 3.420677 -1.895815 21.646818 -0.159305 1.658488 0.078292 -0.007897 -612599.000000 0 1 0
-21.174998 2.269577 -1.128715 21.326170 -0.106774 1.623747 0.050885 -0.003709 470880.000000 0 1 0
-20.667598 1.201377 -1.874715 20.787195 -0.058063 1.661105 0.042987 -0.003827 -334742.000000 0 1 0
-19.836398 0.226877 -1.005215 19.863147 -0.011437 1.621425 0.041968 -0.006647 44135.300000 0 1 0
-20.616498 -0.629723 -0.158015 20.626719 0.030535 1.578457 0.052616 -0.011663 707466.000000 0 1 0
-19.816298 -1.343923 0.764085 19.876509 0.067715 1.532345 0.044833 -0.014151 -103499.000000 0 1 0
-19.089698 -2.599623 0.239485 19.267381 0.135347 1.558366 0.040564 -0.012797 -434698.000000 0 1 0
-18.167998 -3.073023 1.160685 18.462579 0.167559 1.507888 0.031013 -0.010195 341274.000000 0 1 0
-17.505098 -4.331823 0.823285 18.051896 0.242587 1.525174 0.029629 -0.007684 548101.000000 0 1 0
-18.419398 -5.606023 0.568985 19.262021 0.295447 1.541253 0.027426 -0.009044 -134334.000000 0 1 0
-19.175698 -6.050923 1.635085 20.174106 0.305663 1.489659 0.055788 -0.017411 540591.000000 0 1 0
-20.257698 -6.899623 1.208385 21.434536 0.328270 1.514391 0.065046 -0.026626 402540.000000 0 1 0
-21.090298 -7.247123 2.477585 22.437912 0.330983 1.460151 0.091489 -0.024400 -514571.000000 0 1 0
-20.400098 -8.078023 3.352085 22.195831 0.377036 1.419193 0.096227 -0.019689 1300620.000000 0 1 0
-21.296698 -8.704323 4.318985 23.408721 0.387998 1.385230 0.110033 -0.026467 600798.000000 0 1 0
-20.416398 -9.285423 5.418485 23.073976 0.426840 1.333752 0.094525 -0.019770 -217636.000000 0 1 0
-19.604898 -10.309223 4.929885 22.692198 0.484113 1.351800 0.077621 -0.010059 143599.000000 0 1 0
-18.773998 -10.836323 5.958785 22.481015 0.523485 1.302532 0.098737 -0.015821 -7095.630000 0 1 0
-18.249498 -12.230623 5.622685 22.677013 0.590438 1.320236 0.084631 -0.014200 -121488.000000 0 1 0
-19.183098 -13.249623 5.705785 24.002078 0.604452 1.330778 0.098386 -0.017674 270663.000000 0 1 0
-18.488498 -14.418623 5.179685 24.011464 0.662345 1.353370 0.089410 -0.020707 723311.000000 0 1 0
-19.257098 -15.715423 5.565185 25.471192 0.684472 1.350530 0.097396 -0.026625 114322.000000 0 0 1
-18.609198 -16.846823 5.033485 25.601829 0.735733 1.372901 0.094876 -0.030426 -178027.000000 0 0 1
-19.317798 -18.004823 5.295685 26.933163 0.750234 1.372884 0.094422 -0.022080 -70351.200000 0 0 1
-18.467098 -19.263223 5.011585 27.151822 0.806495 1.385156 0.098171 -0.026394 -571847.000000 0 0 1
-18.299598 -19.590923 3.644685 27.054820 0.819465 1.435671 0.092799 -0.033704 234183.000000 0 0 1
-17.467898 -20.729723 3.437885 27.325225 0.870585 1.444648 0.081337 -0.034227 -795169.000000 0 0 1
-15.987398 -20.578323 3.692885 26.319226 0.910297 1.430021 0.074589 -0.031907 -1414370.000000 0 0 1
-15.389098 -21.852723 3.776085 26.993048 0.957245 1.430445 0.062648 -0.029670 -120697.000000 0 0 1
-13.978798 -21.769223 3.761085 26.142908 0.999969 1.426429 0.060680 -0.024990 278245.000000 0 0 1
-13.131298 -23.075223 3.866085 26.829900 1.053434 1.426197 0.069725 -0.018362 127285.000000 0 0 1
-13.341198 -23.929923 2.750485 27.535322 1.062205 1.470740 0.077778 -0.021983 -149986.000000 0 0 1
-12.689598 -25.151773 2.839785 28.314342 1.103538 1.470332 0.073100 -0.028986 -106511.000000 0 0 1
19.006702 19.119877 -24.339115 36.321026 0.788367 2.305155 0.101439 -0.010588 427077.000000 0 0 1
18.066902 19.453377 -25.363325 36.717095 0.822334 2.333359 0.080504 -0.018894 650530.000000 0 0 1
18.701902 19.209077 -26.637135 37.792681 0.798775 2.352969 0.088573 -0.021148 309433.000000 0 0 1
17.768902 19.510577 -27.812325 38.339561 0.832084 2.382442 0.076823 -0.023197 -79482.800000 0 0 1
17.395302 20.836377 -27.934705 38.949954 0.875162 2.370565 0.072402 -0.021282 592812.000000 0 0 1
16.465802 20.942577 -29.035615 39.405344 0.904505 2.399187 0.049635 -0.020316 312989.000000 0 0 1
16.126102 22.435677 -29.372355 40.325501 0.947584 2.386753 0.062973 -0.021529 -451939.000000 0 0 1
15.473802 23.122177 -28.345145 39.718017 0.981029 2.365505 0.057999 -0.025669 137519.000000 0 0 1
15.099902 24.345577 -28.777655 40.606251 1.015633 2.358450 0.059466 -0.020263 -220377.000000 0 0 1
14.271802 25.186977 -27.743935 40.097308 1.055272 2.334935 0.055316 -0.027231 -284616.000000 0 0 1
12.988802 24.660177 -27.546755 39.187460 1.086008 2.350331 0.064610 -0.038652 -523058.000000 0 0 1
12.390202 25.379777 -26.476175 38.712247 1.116640 2.323922 0.059624 -0.038958 -1399910.000000 0 0 1
10.986002 24.879277 -26.107095 37.699484 1.154973 2.335752 0.073849 -0.037140 -90001.900000 0 0 1
10.197602 25.724177 -25.300805 37.494735 1.193379 2.311467 0.070727 -0.039322 86591.800000 0 0 1
9.924802 26.963177 -25.859205 38.655053 1.218100 2.303623 0.083856 -0.048381 -1210000.000000 0 0 1
9.329802 27.961077 -24.839915 38.547223 1.248742 2.271038 0.103026 -0.048712 -280564.000000 0 0 1
10.260602 28.387677 -23.862715 38.478167 1.223962 2.239746 0.095030 -0.039028 116115.000000 0 0 1
9.749102 29.385477 -22.960015 38.544955 1.250457 2.208894 0.132812 -0.041079 -207779.000000 0 0 1
10.755502 29.912677 -21.923315 38.614516 1.225627 2.174564 0.102063 -0.036307 108315.000000 0 0 1
11.832002 30.654277 -22.488015 39.816979 1.202432 2.170969 0.072326 -0.040069 534570.000000 0 0 1
12.767102 31.019477 -21.494515 39.839943 1.180344 2.140665 0.054097 -0.029998 -504277.000000 0 0 1
13.900202 31.904977 -21.943715 41.142069 1.159919 2.133369 0.056842 -0.012954 269434.000000 0 0 1
14.962802 31.185877 -22.624315 41.331635 1.123444 2.150033 0.046910 -0.008680 816549.000000 0 0 1
16.090002 32.027977 -22.826315 42.493766 1.105252 2.137873 0.043885 -0.008257 106690.000000 0 0 1
17.392402 31.309777 -23.254815 42.703445 1.063745 2.146667 0.010469 0.006410 -9238.880000 0 0 1
18.131602 30.860277 -22.151715 42.092876 1.039590 2.124990 0.020590 0.007299 -663203.000000 0 0 1
19.198202 30.108377 -22.624815 42.272539 1.003162 2.135556 0.018828 0.003928 -551223.000000 0 0 1
19.938502 29.250277 -21.613315 41.475993 0.972491 2.118941 0.022183 0.006787 -134878.000000 0 0 1
20.775302 29.916877 -20.690315 41.889400 0.963816 2.087397 0.030810 0.017641 -368373.000000 0 0 1
21.735702 29.062177 -20.195115 41.531838 0.928638 2.078597 0.035925 0.005632 -512395.000000 0 0 1
22.498602 29.708277 -19.035215 41.846245 0.922628 2.043039 0.047272 0.002250 -250677.000000 0 0 1
23.507102 30.624177 -19.427015 43.218433 0.916126 2.037010 0.035970 0.003035 95949.700000 0 0 1
24.012602 31.245677 -18.279615 43.440093 0.915554 2.005124 0.053513 -0.004643 -441981.000000 0 0 1
25.213402 32.171177 -18.520415 44.874336 0.906057 1.996232 0.047237 -0.004825 454275.000000 0 0 1
26.414202 31.461077 -18.874215 45.207803 0.872381 2.001488 0.048696 -0.001943 586326.000000 0 0 1
27.519502 32.319277 -18.580815 46.336868 0.865439 1.983398 0.048002 -0.009309 -87661.300000 0 0 1
28.885002 31.755377 -18.957015 46.926706 0.832697 1.986650 0.048371 -0.016281 -468947.000000 0 0 1
29.257202 30.705877 -18.162715 46.138043 0.809553 1.975406 0.043109 -0.012493 -509681.000000 0 0 1
30.436302 30.158377 -18.690015 46.746260 0.780812 1.982115 0.040698 -0.015958 -159434.000000 0 0 1
31.080802 28.962277 -17.947715 46.118871 0.750129 1.970518 0.049858 -0.023720 -332501.000000 0 0 1
31.541502 29.350677 -16.707115 46.210997 0.749435 1.940715 0.058979 -0.020527 -88868.700000 0 0 1
31.439902 28.340877 -15.751715 45.164026 0.733605 1.927051 0.058206 -0.021665 -435112.000000 0 0 1
31.901002 28.882577 -14.347015 45.362033 0.735780 1.892600 0.069088 -0.028084 -211939.000000 0 0 1
33.255502 29.227177 -14.278015 46.519007 0.721016 1.882761 0.063362 -0.020680 -454746.000000 0 0 1
33.510202 30.557077 -14.707115 47.675652 0.739337 1.884394 0.063733 -0.026134 632139.000000 0 0 1
35.055302 30.863577 -14.807015 48.996758 0.721895 1.877800 0.066723 -0.030447 1035760.000000 0 0 1
35.718302 31.085377 -13.589915 49.262395 0.716158 1.850289 0.062776 -0.023194 -339513.000000 0 0 1
-36.510601 31.485577 -13.822715 50.154093 -0.711631 1.850015 0.063931 -0.026460 -132474.000000 0 0 1
-35.706401 31.796377 -12.537715 49.428241 -0.727539 1.827253 0.057957 -0.021552 -315183.000000 0 0 1
-36.089401 32.932177 -11.749615 50.249643 -0.739687 1.806806 0.073538 -0.023007 -137992.000000 0 0 1
-35.135401 33.295077 -10.809215 49.597356 -0.758511 1.790499 0.062968 -0.015491 -452005.000000 0 0 1
-35.724101 -33.845294 -9.928115 50.202419 0.758398 1.769870 0.071135 -0.012006 88719.700000 0 0 1
-34.843901 -33.119994 -9.084515 48.924022 0.760039 1.757566 0.065883 -0.013964 -224204.000000 0 0 1
-34.683901 -33.726394 -7.780115 48.999723 0.771403 1.730250 0.056062 -0.011645 142910.000000 0 0 1
-34.418601 -32.739394 -6.629415 47.963082 0.760400 1.709459 0.046875 -0.014534 -85336.200000 0 0 1
-35.516001 -31.862294 -6.505415 48.155089 0.731224 1.706304 0.057530 -0.009923 -234262.000000 0 0 1
-35.366901 -30.930094 -5.437515 47.297516 0.718575 1.686015 0.073450 -0.019862 -429334.000000 0 0 1
-36.697801 -30.261994 -5.114615 47.840111 0.689578 1.677912 0.080133 -0.014855 -541154.000000 0 0 1
35.973302 -31.141694 -4.469215 47.789721 -0.713532 1.664452 0.058214 -0.012384 393320.000000 0 0 1
34.738002 -30.587694 -3.995415 46.457498 -0.721951 1.656904 0.052645 -0.006053 462827.000000 0 0 1
34.723102 -29.654294 -2.731215 45.744185 -0.706824 1.630538 0.046963 -0.003173 -386267.000000 0 0 1
35.350202 -28.392594 -2.921915 45.434720 -0.676677 1.635151 0.071746 -0.013467 259861.000000 0 0 1
34.468402 -27.436394 -2.394615 44.119844 -0.672289 1.625098 0.070368 -0.007407 -137867.000000 0 0 1
34.860502 -25.950694 -2.488315 43.530275 -0.639917 1.627990 0.094010 -0.026796 -277088.000000 0 0 1
34.889202 -25.511494 -3.818115 43.389754 -0.631370 1.658906 0.085699 -0.028568 184503.000000 0 0 1
34.504702 -24.190094 -3.943515 42.323592 -0.611441 1.664107 0.093046 -0.032643 -298685.000000 0 0 1
34.159302 -23.803994 -5.396015 41.983390 -0.608610 1.699680 0.097387 -0.034780 374909.000000 0 0 1
35.279802 -23.801694 -6.298715 43.021609 -0.593513 1.717733 0.109857 -0.037486 477147.000000 0 0 1
34.823002 -23.423894 -7.593415 42.649504 -0.592137 1.749793 0.094891 -0.036843 367989.000000 0 0 1
35.972902 -23.086494 -8.607315 43.601855 -0.570571 1.769509 0.097611 -0.038788 155421.000000 0 0 1
36.612902 -24.252594 -8.958215 44.821229 -0.585047 1.772017 0.096781 -0.018299 349854.000000 0 0 1
-35.715001 -24.129794 -9.698115 44.179879 0.594176 1.792113 0.098649 -0.015606 1107180.000000 0 0 1
-35.025201 -25.448794 -10.158415 44.470206 0.628346 1.801263 0.103148 -0.012474 429722.000000 0 0 1
-34.231701 -26.183094 -9.236715 44.075852 0.652956 1.781925 0.084011 -0.008605 130904.000000 0 0 1
-35.021401 -27.256094 -8.734015 45.229153 0.661350 1.765123 0.087973 -0.006022 55147.500000 0 0 1
-34.196001 -28.420894 -8.197415 45.214061 0.693429 1.753107 0.074592 -0.007973 -383526.000000 0 0 1
-33.503001 -29.071994 -9.243815 45.310927 0.714705 1.776247 0.061828 -0.004818 -50289.200000 0 0 1
-32.859501 -30.186394 -8.673415 45.455400 0.743024 1.762785 0.051806 -0.021363 -118197.000000 0 0 1
-32.325101 -31.253894 -9.698915 45.997685 0.768551 1.783248 0.042489 -0.013838 385137.000000 0 0 1
-31.073201 -30.950694 -10.319415 45.055295 0.783423 1.801887 0.017785 0.014791 244307.000000 0 0 1
-30.870401 -31.744094 -11.471615 45.741307 0.799351 1.824296 0.012563 0.008766 -433894.000000 0 0 1
-31.184101 -31.072294 -12.838715 45.855951 0.783602 1.854569 0.013788 0.013947 70044.800000 0 0 1
-30.298301 -30.012394 -13.223715 44.649720 0.780658 1.871472 0.008128 0.015932 277305.000000 0 0 1
-30.590201 -29.659594 -14.565115 45.028819 0.769954 1.900182 0.003320 0.031272 -135930.000000 0 0 1
-29.838401 -28.397394 -15.003315 43.838815 0.760659 1.920094 0.009844 0.008132 225370.000000 0 0 1
-28.535301 -28.793694 -15.388615 43.360693 0.789905 1.933601 0.028955 -0.001601 140363.000000 0 0 1
-27.664401 -27.804194 -15.929015 42.333507 0.787918 1.956568 0.050268 0.005272 1044820.000000 0 0 1
-26.323301 -28.408394 -16.488415 42.093003 0.823476 1.973290 0.061030 -0.006599 418527.000000 0 0 1
-26.489601 -29.174794 -17.678515 43.190248 0.833600 1.992502 0.048399 -0.003599 -137740.000000 0 0 1
-26.544201 -28.461494 -18.933515 43.279664 0.820240 2.023579 0.048282 -0.003609 711627.000000 0 0 1
-25.215901 -27.764894 -19.436715 42.243543 0.833473 2.048916 0.067941 -0.004292 793515.000000 0 0 1
-24.888501 -26.607394 -18.677315 40.941825 0.818765 2.044507 0.069003 -0.007212 -790346.000000 0 0 1
-23.625301 -26.136494 -18.988115 40.022740 0.835820 2.065116 0.074797 -0.010857 -509721.000000 0 0 1
-23.157301 -25.038294 -18.025615 38.575894 0.824407 2.057004 0.072925 -0.016413 -161072.000000 0 0 1
-23.257601 -25.439494 -16.705815 38.303631 0.830174 2.022103 0.081467 -0.016445 507608.000000 0 0 1
-22.649701 -24.430494 -15.856415 36.895581 0.823205 2.015028 0.075536 -0.018444 101947.000000 0 0 1
-23.107001 -24.577594 -14.380915 36.671547 0.816228 1.973769 0.080190 -0.016550 -233768.000000 0 0 1
-24.482501 -24.338094 -14.251515 37.347575 0.782440 1.962314 0.048330 0.002146 -189905.000000 0 0 1
-24.942701 -24.239394 -12.933515 37.107444 0.771099 1.926812 0.038899 0.005290 -20726.700000 0 0 1
-26.468301 -24.227094 -12.719815 38.069893 0.741218 1.911465 0.024760 0.019359 -521690.000000 0 0 1
-27.151501 -25.460894 -12.854815 39.379023 0.753276 1.903329 0.026598 0.014338 451832.000000 0 0 1
-28.482901 -25.447694 -12.371815 40.148756 0.729178 1.884043 0.002425 0.022774 838734.000000 0 0 1
-29.626401 -24.561494 -13.013015 40.624244 0.692200 1.896870 0.006002 0.027472 -327550.000000 0 0 1
-29.775501 -23.245494 -12.517515 39.794744 0.662856 1.890781 0.018602 0.030587 -1571.130000 0 0 1
-30.132101 -23.014094 -11.165415 39.525417 0.652258 1.857182 0.028850 0.023567 303972.000000 0 0 1
-31.634501 -23.325794 -10.813715 40.764823 0.635358 1.839281 0.011910 0.018680 1132730.000000 0 0 1
-32.646101 -22.462394 -11.369915 41.226230 0.602666 1.850211 0.050552 0.004839 572365.000000 0 0 1
-32.921601 -22.592194 -12.762815 41.918117 0.601433 1.880178 0.044712 0.014894 -321558.000000 0 0 1
-34.339301 -22.039294 -13.108115 42.857214 0.570596 1.881633 0.031391 0.001530 1190520.000000 0 0 1
-35.388101 -23.024594 -12.895915 44.144697 0.576819 1.867248 0.057817 0.005531 614881.000000 0 0 1
-36.641601 -22.573894 -13.370815 45.066244 0.552154 1.872024 0.081357 -0.012678 -301546.000000 0 0 1
35.776002 -23.530894 -13.075015 44.772551 -0.581789 1.867147 0.085638 -0.001254 -569005.000000 0 0 1
35.844402 -24.770794 -13.877415 45.727410 -0.604704 1.879141 0.070720 0.009105 186419.000000 0 0 1
34.959502 -25.718494 -13.299515 45.392563 -0.634264 1.868148 0.070127 -0.005645 188751.000000 0 0 1
34.849302 -27.087794 -14.053015 46.321806 -0.660735 1.879032 0.059697 -0.007003 342962.000000 0 0 1
33.916102 -27.054394 -15.119915 45.944032 -0.673328 1.906141 0.057656 -0.014474 15818.200000 0 0 1
33.818502 -28.326094 -15.673915 46.815919 -0.697246 1.912188 0.040285 0.006245 -343554.000000 0 0 1
33.034502 -28.324894 -16.942115 46.697036 -0.708794 1.942077 0.034444 -0.006513 -386795.000000 0 0 1
31.639802 -28.341394 -16.742415 45.657641 -0.730463 1.946250 0.063084 -0.010180 -27450.200000 0 0 1
30.971102 -28.086594 -17.971815 45.508813 -0.736595 1.976765 0.058394 -0.018691 1005370.000000 0 0 1
29.406002 -28.205594 -18.046715 44.564026 -0.764565 1.987733 0.071239 -0.026630 703800.000000 0 0 1
28.796302 -27.375194 -17.099015 43.255110 -0.760104 1.977198 0.073726 -0.025823 -231486.000000 0 0 1
27.408502 -27.368894 -17.396715 42.460900 -0.784675 1.992934 0.084637 -0.024695 14898.300000 0 0 1
26.603402 -26.540394 -16.402115 41.001987 -0.784213 1.982348 0.076212 -0.035112 -412321.000000 0 0 1
26.575502 -25.136094 -16.654615 40.192745 -0.757570 1.998045 0.078265 -0.040599 175299.000000 0 0 1
26.010702 -24.442594 -15.512115 38.918154 -0.754328 1.980768 0.059555 -0.033765 -65091.900000 0 0 1
26.004502 -22.916194 -15.557515 37.992399 -0.722353 1.992692 0.042735 -0.034920 228952.000000 0 0 1
25.027602 -22.358794 -16.446715 37.373667 -0.729137 2.026464 0.049576 -0.038033 309896.000000 0 0 1
24.932502 -20.954494 -16.276515 36.409414 -0.698923 2.034251 0.045582 -0.034949 -151279.000000 0 0 1
23.542802 -20.296194 -16.218515 35.060508 -0.711476 2.051707 0.046688 -0.030620 -31359.100000 0 0 1
22.737702 -20.806294 -15.142215 34.339360 -0.741072 2.027462 0.052891 -0.036751 -66082.300000 0 0 1
21.468302 -20.230094 -15.031215 33.107131 -0.755713 2.042065 0.040764 -0.034141 -244010.000000 0 0 1
21.286302 -18.859894 -14.354415 31.856734 -0.725032 2.038226 0.025425 -0.023815 -653185.000000 0 0 1
21.278902 -18.942994 -12.911915 31.278527 -0.727388 1.996327 0.029769 -0.027622 132548.000000 0 0 1
20.927602 -17.775094 -12.177315 30.036736 -0.704123 1.988228 0.027653 -0.034267 210730.000000 0 0 1
19.784002 -17.973994 -11.126515 28.952902 -0.737498 1.965243 0.032085 -0.024250 88436.100000 0 0 1
20.300102 -18.385794 -9.905015 29.124575 -0.735955 1.917810 0.032450 -0.030000 484612.000000 0 0 1
19.278402 -18.553694 -8.906615 28.199719 -0.766245 1.892139 0.028833 -0.024748 377923.000000 0 0 1
19.798302 -19.280594 -7.627615 28.668704 -0.772151 1.840100 0.027012 -0.019231 -62140.400000 0 0 1
20.936702 -18.660594 -7.073315 28.923953 -0.727980 1.817851 0.026533 -0.018454 -19237.000000 0 0 1
21.424902 -19.320794 -5.945315 29.456176 -0.733804 1.774028 0.028145 -0.010164 -497704.000000 0 0 1
22.787102 -18.847694 -5.421115 30.064532 -0.691061 1.752104 0.034863 -0.008842 -317270.000000 0 0 1
23.735702 -18.960294 -6.452115 31.056498 -0.674014 1.780075 0.028894 -0.025570 -163462.000000 0 0 1
24.674902 -17.896994 -6.387615 31.144098 -0.627512 1.777361 0.041340 -0.025762 407450.000000 0 0 1
25.774802 -17.941994 -7.512515 32.290764 -0.608108 1.805600 0.058213 -0.042850 1160170.000000 0 0 1
26.812302 -18.948094 -7.426815 33.661363 -0.615205 1.793260 0.072742 -0.051187 969977.000000 0 0 1
26.382502 -20.153094 -8.037215 34.158168 -0.652326 1.808317 0.071334 -0.055074 -316587.000000 0 0 1
27.493002 -21.202094 -7.921315 35.610970 -0.656920 1.795113 0.083934 -0.059132 80029.500000 0 0 1
28.737502 -20.760994 -8.416915 36.437719 -0.625625 1.803896 0.085982 -0.049905 -178639.000000 0 0 1
29.670802 -21.821794 -8.411015 37.779523 -0.634133 1.795312 0.082861 -0.047676 -99830.600000 0 0 1
-29.917718 29.472077 4.484485 42.234865 -0.777895 1.464416 0.039193 -0.008209 -185298.000000 0 0 1
-29.577708 30.568777 3.660885 42.693009 -0.801874 1.484942 0.032652 -0.005940 -60077.100000 0 0 1
-28.428808 31.263077 4.093985 42.453950 -0.832844 1.474213 0.026244 0.005004 72573.100000 0 0 1
-28.179688 32.529277 3.260185 43.161065 -0.856923 1.495189 0.028019 0.004222 -645423.000000 0 0 1
-27.680268 32.253577 1.988085 42.549300 -0.861557 1.524055 0.039669 0.007742 212343.000000 0 0 1
-27.137468 33.386677 1.285685 43.043761 -0.888285 1.540923 0.041616 -0.013237 620674.000000 0 0 1
-25.938818 -34.029894 1.915785 42.831370 0.919510 1.526053 0.060243 -0.008388 -567874.000000 0 0 1
-24.761398 33.510277 1.772785 41.703816 -0.934425 1.528275 0.041517 -0.012085 -1151750.000000 0 0 1
-23.786198 33.971477 2.685085 41.557841 -0.959949 1.506141 0.053396 -0.013333 571255.000000 0 0 1
-22.329698 33.663677 2.223385 40.457410 -0.985116 1.515812 0.053813 -0.022881 500173.000000 0 0 1
-21.860698 -33.899494 1.074485 40.351213 0.998037 1.544165 0.089106 -0.032961 386255.000000 0 0 1
-20.487898 34.041677 0.832485 39.740191 -1.029019 1.549847 0.084543 -0.033486 88111.200000 0 0 1
-19.881098 -33.581994 -0.419115 39.027991 1.036268 1.581535 0.086938 -0.035949 -205633.000000 0 0 1
-19.631298 -32.148994 -0.357915 37.670596 1.022594 1.580298 0.085205 -0.036237 44333.100000 0 0 1
-18.524998 -31.789294 0.427885 36.795623 1.043162 1.559167 0.102514 -0.030292 -527628.000000 0 0 1
-18.100198 -30.328794 0.449885 35.322165 1.032734 1.558059 0.108182 -0.030100 90556.000000 0 0 1
-17.256498 -29.830294 -0.606915 34.467398 1.046344 1.588406 0.106791 -0.023612 394883.000000 0 0 1
-17.135098 -28.435794 -0.521015 33.203576 1.028475 1.586489 0.087813 -0.018029 10881.000000 0 0 1
-16.169098 -27.896794 -1.599415 32.283572 1.045509 1.620359 0.081964 -0.016332 140032.000000 0 0 1
-16.736998 -28.000794 -2.890415 32.749444 1.032045 1.659170 0.065472 -0.014957 730162.000000 0 0 1
-15.718598 -27.728694 -3.875515 32.108791 1.055093 1.691791 0.061564 -0.007408 595115.000000 0 0 1
-16.320198 -27.819294 -5.267515 32.680403 1.040251 1.732685 0.076000 -0.013187 289165.000000 0 0 1
-17.253498 -26.776994 -5.504015 32.326225 0.998410 1.741895 0.073103 -0.012382 -253623.000000 0 0 1
-17.779498 -26.654094 -6.773715 32.748046 0.982531 1.779144 0.082662 -0.018957 368622.000000 0 0 1
-18.526498 -25.301694 -7.047815 32.141540 0.938770 1.791867 0.071587 -0.012332 636636.000000 0 0 1
-17.594198 -24.228294 -6.934215 30.735149 0.942713 1.798367 0.066535 -0.004625 463002.000000 0 0 1
-18.243798 -22.983194 -7.083415 30.186722 0.899854 1.807658 0.052298 -0.003005 770172.000000 0 0 1
-17.201298 -21.828594 -6.776415 28.605803 0.903405 1.809959 0.068052 0.000778 1624280.000000 0 0 1
-16.140998 -21.791294 -7.776615 28.211134 0.933268 1.850070 0.080040 -0.001515 275162.000000 0 0 1
-15.041498 -21.044094 -7.296215 26.876297 0.950232 1.845721 0.117371 -0.023777 626695.000000 0 0 1
-13.942198 -20.836794 -8.386315 26.436474 0.981101 1.893598 0.109611 -0.018907 393787.000000 0 0 1
-14.391598 -19.979994 -9.351315 26.339426 0.946575 1.933744 0.117390 -0.018881 -503333.000000 0 0 1
-13.426498 -19.880194 -10.361515 26.131475 0.976792 1.978514 0.104164 -0.013114 487.054000 0 0 1
-13.782798 -18.948494 -11.496015 26.099221 0.941928 2.026922 0.110538 -0.018416 -392233.000000 0 0 1
-14.979998 -19.375894 -12.083315 27.309927 0.912658 2.029127 0.100058 -0.006380 -684008.000000 0 0 1
-15.230598 -18.681794 -13.261615 27.510925 0.886817 2.073788 0.099654 -0.016341 1187050.000000 0 0 1
-16.511498 -19.189194 -14.039515 28.947586 0.860262 2.077157 0.108662 -0.016584 1741070.000000 0 0 1
-17.782298 -19.339994 -13.401515 29.493154 0.827335 2.042488 0.107014 -0.017111 644091.000000 0 0 1
-18.791098 -19.806994 -14.272915 30.808092 0.811712 2.052494 0.078246 -0.013557 -965841.000000 0 0 1
-20.156398 -19.675794 -13.659715 31.305033 0.773333 2.022326 0.057050 -0.006238 -1285340.000000 0 0 1
-21.119198 -20.254794 -14.484015 32.650634 0.764509 2.030415 0.065313 -0.019832 -42290.600000 0 0 1
-22.445098 -20.050294 -14.012315 33.198520 0.729103 2.006531 0.052191 -0.012970 495605.000000 0 0 1
-23.549198 -20.616694 -14.937515 34.680574 0.719098 2.016084 0.061500 -0.017245 -100816.000000 0 0 1
-23.764998 -19.969094 -16.183815 35.006510 0.698820 2.051393 0.053054 -0.025738 482709.000000 0 0 1
-24.473498 -20.834094 -17.112315 36.412126 0.705244 2.060044 0.069626 -0.028125 408864.000000 0 0 1
-24.955298 -20.064294 -18.407815 36.934949 0.677181 2.092531 0.066624 -0.020626 241323.000000 0 0 1
-23.856198 -19.791894 -19.254115 36.490522 0.692551 2.126625 0.049904 -0.020988 508047.000000 0 0 1
-24.285898 -19.693494 -20.573315 37.428597 0.681354 2.152764 0.050031 -0.024084 292806.000000 0 0 1
-23.186998 -18.854494 -21.311215 36.705541 0.682708 2.190261 0.033993 -0.017502 703997.000000 0 0 1
-22.011798 -19.614794 -21.538115 36.512324 0.727878 2.201714 0.032207 -0.015869 -105015.000000 0 0 1
-20.984998 -18.798294 -22.026515 35.761899 0.730488 2.234351 0.039190 -0.017070 -483645.000000 0 0 1
-19.665598 -19.440194 -22.435515 35.609118 0.779634 2.252414 0.058218 -0.018917 -643515.000000 0 0 1
-19.659498 -20.549794 -23.273215 36.748231 0.807536 2.256626 0.048128 -0.010698 202527.000000 0 0 1
-18.350998 -21.112594 -23.228015 36.359888 0.855263 2.263781 0.062658 -0.010650 279001.000000 0 0 1
-18.227298 -22.551594 -23.775015 37.497469 0.891046 2.257567 0.062130 -0.011066 -249007.000000 0 0 1
-18.203798 -22.633594 -25.218205 38.465774 0.893450 2.285775 0.063297 -0.015924 168252.000000 0 0 1
-18.109798 -24.007694 -25.667655 39.536852 0.924528 2.277340 0.057258 -0.018610 -68807.900000 0 0 1
-18.085798 -24.209194 -27.201925 40.658651 0.929177 2.303701 0.062641 -0.011667 5192.180000 0 0 1
-16.842398 -23.738494 -27.652125 40.147510 0.953725 2.330578 0.064381 -0.018578 -85261.100000 0 0 1
-16.927298 -23.654194 -29.068695 41.122298 0.949667 2.355880 0.074889 -0.025798 287966.000000 0 0 1
-15.529498 -23.433294 -29.708885 40.901130 0.985537 2.383805 0.052872 -0.028744 181874.000000 0 0 1
-14.695298 -24.555694 -29.529325 41.120736 1.031519 2.371883 0.061842 -0.031136 -674182.000000 0 0 1
-13.507298 -24.367394 -30.230795 41.111045 1.064644 2.396972 0.077075 -0.034301 -504349.000000 0 0 1
-12.462198 -25.442294 -29.965955 41.238031 1.115324 2.384241 0.089091 -0.030184 -690148.000000 0 0 1
-12.911398 -26.715494 -30.522255 42.567945 1.120604 2.370320 0.081433 -0.027090 341362.000000 0 0 1
-12.160498 -27.818094 -30.091795 42.746231 1.158685 2.351759 0.085556 -0.022133 -1010380.000000 0 0 1
-10.765198 -27.941894 -30.623545 42.830369 1.203052 2.367415 0.080412 -0.022888 -783351.000000 0 0 1
-9.774998 -27.022994 -30.159965 41.658328 1.223711 2.380357 0.098240 -0.035242 416147.000000 0 0 1
-8.688598 -26.915494 -31.061885 42.009241 1.258546 2.402984 0.075271 -0.027146 249972.000000 0 0 1
-7.687298 -25.729294 -30.900165 40.937896 1.280463 2.426154 0.094969 -0.027601 126383.000000 0 0 1
-8.187498 -24.400894 -31.020465 40.307667 1.247060 2.448999 0.106651 -0.032582 153681.000000 0 0 1
-8.765598 -23.951094 -29.767395 39.199342 1.219958 2.433164 0.105849 -0.027097 124700.000000 0 0 1
-9.135198 -22.388594 -29.802425 38.378191 1.183388 2.459961 0.107153 -0.041507 -758950.000000 0 0 1
-10.197998 -22.012594 -30.611685 39.059298 1.136954 2.471434 0.094958 -0.037313 -359610.000000 0 0 1
-10.178998 -20.627694 -30.782055 38.427187 1.112392 2.499842 0.103802 -0.042871 -306482.000000 0 0 1
-11.238098 -20.194894 -31.772125 39.288631 1.062990 2.512709 0.086942 -0.040047 -457429.000000 0 0 1
-11.736398 -18.885294 -31.681275 38.705304 1.014749 2.529636 0.091261 -0.038151 -260208.000000 0 0 1
-12.545898 -18.616794 -32.778475 39.729247 0.977801 2.541081 0.090892 -0.032248 167147.000000 0 0 1
-13.525798 -17.375594 -32.483365 39.243184 0.909343 2.545874 0.096536 -0.031948 742441.000000 0 0 1
-12.943798 -16.054294 -32.487445 38.480078 0.892255 2.575992 0.099135 -0.033048 324796.000000 0 0 1
-11.943998 -15.711494 -31.528465 37.196159 0.920794 2.582293 0.082853 -0.026430 405035.000000 0 0 1
-11.575298 -14.193794 -31.520015 36.454941 0.886664 2.615209 0.066340 -0.022027 457679.000000 0 0 1
-10.822198 -13.589694 -32.632745 36.968849 0.898283 2.652393 0.078340 -0.027478 505140.000000 0 0 1
-11.413998 -13.716394 -33.928955 38.335269 0.876761 2.657416 0.086965 -0.028376 -159286.000000 0 0 1
-12.011098 -12.457894 33.511374 37.715750 0.803656 0.476677 0.073193 -0.016716 409134.000000 0 0 1
-13.100498 -11.869894 -33.925575 38.255223 0.736155 2.661218 0.054174 -0.008715 -200759.000000 0 0 1
-13.875998 -11.085994 33.348483 37.783117 0.674090 0.489370 0.034583 -0.021573 226364.000000 0 0 1
-15.018698 -10.393294 -34.021694 38.614214 0.605353 2.648909 0.044093 -0.014658 309032.000000 0 0 1
-14.418798 -9.409794 -33.174325 37.376220 0.578205 2.662858 0.047565 -0.012113 23657.200000 0 0 1
-15.201198 -9.184494 -32.059355 36.650152 0.543499 2.635695 0.049141 -0.028559 -172487.000000 0 0 1
-14.600898 -8.062094 -31.191475 35.370775 0.504503 2.650553 0.052129 -0.035686 -459135.000000 0 0 1
-14.545398 -6.771794 -31.823165 35.639019 0.435720 2.674609 0.044318 -0.037974 450544.000000 0 0 1
-15.738998 -5.982594 -31.773515 35.959196 0.363246 2.654290 0.047990 -0.032352 398986.000000 0 0 1
-16.086298 -5.375594 -30.330305 34.750445 0.322505 2.631713 0.060228 -0.040322 -335529.000000 0 0 1
-16.463398 -6.244594 -29.243775 34.135566 0.362537 2.599625 0.055992 -0.048451 42034.700000 0 0 1
-16.662798 -5.540794 -28.009935 33.059125 0.321023 2.581617 0.070683 -0.046728 125788.000000 0 0 1
-15.442798 -4.837194 -27.323445 31.756088 0.303553 2.606882 0.068012 -0.045577 226455.000000 0 0 1
-14.959298 -3.882294 -28.271915 32.220397 0.253922 2.641324 0.076103 -0.038430 -642326.000000 0 0 1
-13.685398 -3.425194 -27.924835 31.286075 0.245243 2.673797 0.070585 -0.031703 -390013.000000 0 0 1
-13.614198 -1.986694 -28.483785 31.632568 0.144905 2.691617 0.055222 -0.014633 -18930.300000 0 0 1
-13.715598 -2.001694 -29.923005 32.977427 0.144920 2.707801 0.058526 -0.023581 283674.000000 0 0 1
-13.702998 -0.780694 -30.524745 33.468518 0.056911 2.719036 0.059060 -0.025911 -91246.300000 0 0 1
-13.802698 -1.049694 -32.012595 34.877250 0.075904 2.733463 0.048383 -0.022323 -377525.000000 0 0 1
-15.105098 -1.380694 -32.419245 35.792147 0.091153 2.703976 0.029992 -0.021619 234687.000000 0 0 1
-15.039698 -1.716694 -33.772715 37.009943 0.113652 2.720226 0.019401 -0.011326 -496702.000000 0 0 1
-16.451498 -1.977694 33.856857 37.694162 0.119640 0.455141 0.020910 -0.013536 -478444.000000 0 0 1
-16.481498 -1.952694 32.451637 36.449438 0.117928 0.472750 0.026643 -0.023147 549062.000000 0 0 1
-17.798098 -1.929694 31.914599 36.592863 0.108000 0.511209 0.025950 -0.015189 80087.500000 0 0 1
-17.706498 -1.946694 30.360349 35.200291 0.109503 0.530602 0.041327 -0.015905 -72739.700000 0 0 1
-17.204198 -0.770694 29.802929 34.420822 0.044767 0.523969 0.037979 -0.007097 -40984.800000 0 0 1
-17.351098 -0.713694 28.445769 33.327642 0.041109 0.548095 0.046066 -0.012357 -129061.000000 0 0 1
-16.550998 0.429306 27.782819 32.341999 -0.025933 0.537420 0.037578 -0.010844 -229297.000000 0 0 1
-16.830998 1.753306 28.180279 32.870727 -0.103797 0.540782 0.032886 -0.010029 497691.000000 0 0 1
-18.157598 2.233306 27.951299 33.406005 -0.122381 0.579540 0.040228 -0.017471 324428.000000 0 0 1
-18.460598 2.871306 26.566009 32.477545 -0.154301 0.612904 0.048570 -0.021793 -547701.000000 0 0 1
-18.044298 4.215306 26.503479 32.338830 -0.229493 0.610161 0.039333 -0.013602 227495.000000 0 0 1
-18.596198 4.918306 25.367949 31.836161 -0.258559 0.648769 0.039741 -0.011585 -136511.000000 0 0 1
-18.580098 6.499306 25.526319 32.234360 -0.336496 0.656886 0.043336 -0.011974 529058.000000 0 0 1
-17.292898 7.111306 25.500009 31.620649 -0.390147 0.632698 0.043707 -0.012525 220118.000000 0 0 1
-16.690798 7.185306 24.218049 30.277471 -0.406516 0.643717 0.048419 -0.007789 -481330.000000 0 0 1
-15.457998 8.072306 24.192339 29.822493 -0.481257 0.624576 0.056074 -0.013589 -662385.000000 0 0 1
-14.342398 7.642306 24.921999 29.752567 -0.489579 0.577845 0.042003 -0.009219 -1354090.000000 0 0 1
-13.278898 8.148306 24.232899 28.808982 -0.550380 0.571376 0.059925 -0.004808 -916724.000000 0 0 1
-11.897698 8.029306 24.937689 28.773483 -0.593655 0.522268 0.046170 0.005275 125315.000000 0 0 1
-10.860198 8.468306 24.088249 27.747069 -0.662275 0.519361 0.041651 -0.007610 184268.000000 0 0 1
-9.590798 8.627306 24.705809 27.870967 -0.732561 0.481210 0.032355 -0.010117 335245.000000 0 0 1
-9.301098 10.025306 25.317589 28.774946 -0.822853 0.495253 0.032493 -0.012417 -841482.000000 0 0 1
-10.103998 10.119306 26.453189 30.070955 -0.786155 0.495581 0.038740 -0.015415 109704.000000 0 0 1
-10.234798 11.428306 26.971749 31.029543 -0.840437 0.517157 0.042387 -0.018870 237687.000000 0 0 1
-11.039198 12.565306 26.186599 31.072315 -0.849962 0.568400 0.038738 -0.029167 384203.000000 0 0 1
-12.423298 12.402306 25.955919 31.334729 -0.784553 0.594652 0.043795 -0.028056 216910.000000 0 0 1
-12.774298 11.728306 24.731049 30.205308 -0.742735 0.611540 0.043173 -0.024732 -1284960.000000 0 0 1
-14.248698 11.662306 24.456199 30.612750 -0.685909 0.645350 0.037821 -0.022028 -1593510.000000 0 0 1
-14.742098 12.900306 23.992859 30.974258 -0.718867 0.684704 0.035597 -0.036385 -483418.000000 0 0 1
-16.081298 12.769306 23.599499 31.282578 -0.671100 0.716061 0.045497 -0.023829 -250042.000000 0 0 1
-16.334298 12.171306 22.207279 30.134917 -0.640382 0.742281 0.043578 -0.011547 -584987.000000 0 0 1
-16.108498 10.776306 22.099479 29.393868 -0.589604 0.719948 0.037883 -0.007246 -20946.800000 0 0 1
-16.258898 10.289306 20.801179 28.335678 -0.564218 0.746458 0.038250 -0.003177 -291260.000000 0 0 1
-16.651898 8.779306 20.569479 27.883066 -0.485190 0.741132 0.035300 -0.004049 -56067.100000 0 0 1
-17.954398 8.472306 20.971979 28.878440 -0.440899 0.757995 0.026566 0.010359 -790152.000000 0 0 1
-18.412298 7.228306 20.579379 28.544211 -0.374094 0.765602 0.021619 0.008886 -207072.000000 0 0 1
-19.900798 7.018306 20.887279 29.691359 -0.339047 0.790514 0.025563 0.001117 -207606.000000 0 0 1
-20.267298 7.523306 22.174979 30.969230 -0.355439 0.772694 0.030465 -0.006332 292237.000000 0 0 1
-21.667198 7.468306 22.434979 32.071348 -0.331930 0.796052 0.031016 -0.005511 429601.000000 0 0 1
-22.053998 8.340306 23.697259 33.429024 -0.361553 0.782883 0.041799 -0.014496 -940014.000000 0 0 1
-21.956598 9.743306 23.571659 33.654826 -0.417647 0.794846 0.045310 -0.009849 664936.000000 0 0 1
-20.656198 10.338306 23.422859 32.896647 -0.464043 0.778435 0.042887 -0.003518 513208.000000 0 0 1
-19.662098 10.106306 24.565169 33.048193 -0.474784 0.732786 0.036340 -0.014016 -800936.000000 0 0 1
-20.083998 10.717306 25.749389 34.369444 -0.490184 0.723952 0.035372 -0.019290 234621.000000 0 0 1
-19.579098 9.968306 26.854759 34.697065 -0.470925 0.685697 0.027974 -0.018371 46601.500000 0 0 1
-31.190398 -13.946523 20.790479 39.994880 0.420474 1.024146 0.075864 -0.003993 -73469.900000 0 0 1
-30.459588 -15.161923 20.793179 39.875139 0.461863 1.022238 0.078301 -0.004636 -41541.400000 0 0 1
-30.859818 -16.151623 19.861479 40.095906 0.482182 1.052559 0.067940 0.003421 -111435.000000 0 0 1
-30.712968 -15.867623 18.332679 39.129976 0.476873 1.083196 0.061204 0.009022 -399889.000000 0 0 1
-31.697838 -15.016123 17.876379 39.367522 0.442409 1.099446 0.068262 -0.008618 -382842.000000 0 0 1
-31.293578 -14.563223 16.563779 38.284909 0.435565 1.123372 0.056701 -0.007260 -1021450.000000 0 0 1
-32.214568 -13.561323 15.914979 38.405396 0.398451 1.143519 0.058373 -0.006649 212279.000000 0 0 1
-33.461248 -14.182223 15.483479 39.503528 0.400888 1.168044 0.072710 -0.010200 819600.000000 0 0 1
-34.505045 -14.262123 16.387479 40.774450 0.391948 1.157199 0.074523 -0.014593 -999828.000000 0 0 1
-35.174340 -12.954223 16.788879 41.072041 0.352872 1.149694 0.071907 -0.011720 -1114260.000000 0 0 1
-36.263738 -13.096123 17.653579 42.405377 0.346560 1.141418 0.046879 -0.008808 114690.000000 0 0 1
36.731865 -11.773323 18.025379 42.576464 -0.310175 1.133640 0.044456 -0.000956 204292.000000 0 0 1
35.781705 -11.845523 19.211179 42.305038 -0.319694 1.099422 0.049035 0.013384 -305924.000000 0 0 1
36.484975 -12.341523 20.351379 43.561970 -0.326181 1.084695 0.048849 0.007335 112046.000000 0 0 1
35.792655 -12.144223 21.576079 43.521529 -0.327105 1.052091 0.047435 0.003504 -938189.000000 0 0 1
36.576695 -12.613723 22.843879 44.931096 -0.332086 1.037447 0.041162 -0.004460 208333.000000 0 0 1
-35.770457 -11.927223 23.052579 44.195086 0.321845 1.022060 0.050470 -0.002232 162701.000000 0 0 1
-34.664891 -12.393523 22.276979 43.029268 0.343362 1.026616 0.050608 -0.006066 -409342.000000 0 0 1
-33.422168 -11.505223 22.515779 41.909090 0.331534 1.003620 0.073655 -0.006241 -258404.000000 0 0 1
-33.540398 -10.186223 22.033379 41.402744 0.294848 1.009632 0.084657 -0.006822 -552154.000000 0 0 1
-32.315198 -9.531823 21.922479 40.196054 0.286830 0.993943 0.102824 -0.012250 -540561.000000 0 0 1
-32.419848 -8.137723 21.185379 39.573847 0.245930 1.005889 0.111540 -0.012525 49481.300000 0 0 1
-32.687018 -8.271023 19.773179 39.087461 0.247835 1.040406 0.108896 -0.008987 450205.000000 0 0 1
-34.030658 -8.504423 19.361679 40.066015 0.244889 1.066440 0.104403 -0.012313 89199.500000 0 0 1
-34.201657 -8.401923 17.846679 39.482270 0.240888 1.101770 0.100662 -0.010688 -307287.000000 0 0 1
-35.541703 -8.623723 17.492179 40.540814 0.238037 1.124674 0.033754 -0.002196 -168219.000000 0 0 1
-35.797950 -8.312323 16.112179 40.127176 0.228158 1.157612 0.052430 -0.004245 -286667.000000 0 0 1
36.262595 -8.398323 15.806979 40.439686 -0.227585 1.169211 0.049702 -0.003139 -409641.000000 0 0 1
35.659215 -9.641623 16.048579 40.275270 -0.264068 1.160946 0.043866 0.014664 1523660.000000 0 0 1
34.214475 -9.419923 16.094479 38.966620 -0.268664 1.145015 0.036520 0.007293 1435850.000000 0 0 1
33.246525 -10.583123 16.115179 38.432186 -0.308181 1.138106 0.028290 0.003901 -216381.000000 0 0 1
33.267615 -11.311723 17.334779 39.181422 -0.327758 1.112497 0.021241 0.000009 -246741.000000 0 0 1
32.300725 -12.328423 17.313279 38.666219 -0.364611 1.106535 0.034495 -0.000558 26315.800000 0 0 1
31.891705 -12.955523 18.730579 39.188787 -0.385870 1.072468 0.036020 -0.001465 157934.000000 0 0 1
32.929025 -13.694023 19.327679 40.563606 -0.394108 1.074152 0.034325 -0.002272 -124675.000000 0 0 1
32.561535 -13.801123 20.698579 40.977503 -0.400894 1.041275 0.045708 -0.005694 -87724.400000 0 0 1
33.105195 -15.135123 21.272079 42.160731 -0.428811 1.041939 0.052146 0.002905 263933.000000 0 0 1
33.277025 -15.105223 22.675779 43.008361 -0.426112 1.015446 0.058568 -0.004200 -140814.000000 0 0 1
33.851845 -16.307323 23.134169 44.125570 -0.448922 1.018927 0.057572 0.002310 128375.000000 0 0 1
34.335525 -16.184823 24.609789 45.238462 -0.440484 0.995598 0.064382 0.001924 479434.000000 0 0 1
35.568645 -15.471623 24.693129 45.980977 -0.410293 1.003885 0.066197 0.004903 373065.000000 0 0 1
35.897075 -15.252523 26.065829 46.911266 -0.401783 0.981662 0.059262 0.006223 193080.000000 0 0 1
-36.511398 -14.212923 26.257479 47.165078 0.371225 0.980371 0.055428 -0.000384 268412.000000 0 0 1
-35.194016 -14.691623 26.094419 46.210186 0.395456 0.970739 0.034384 0.001486 -70969.600000 0 0 1
-34.243235 -13.682523 26.235909 45.256309 0.380134 0.952413 0.039403 -0.003737 -203302.000000 0 0 1
-32.794778 -14.183723 26.120389 44.260029 0.408206 0.939542 0.043875 0.001050 -474240.000000 0 0 1
-32.291948 -14.242723 24.780319 43.124115 0.415396 0.958647 0.046616 0.003017 192203.000000 0 0 1
-30.989028 -14.750523 24.559199 42.202512 0.444257 0.949688 0.054330 -0.008109 239983.000000 0 0 1
-30.744228 -16.245223 24.990569 42.821062 0.486108 0.947636 0.053693 -0.005327 -715910.000000 0 0 1
-30.573808 -16.371323 26.384689 43.576711 0.491618 0.920431 0.049505 -0.001407 68365.300000 0 0 1
-30.508678 -17.725023 26.714859 44.256520 0.526319 0.922742 0.057756 -0.013632 -205181.000000 0 0 1
-30.201898 -17.949823 28.180499 45.038776 0.536238 0.894775 0.056989 -0.020978 -368112.000000 0 0 1
-28.946128 -17.388123 28.429799 44.141575 0.540939 0.871003 0.059078 -0.018617 -652908.000000 0 0 1
-28.255758 -17.926823 29.515759 44.619938 0.565365 0.847989 0.076181 -0.026563 132004.000000 0 0 1
-26.948048 -17.128923 29.709859 43.615055 0.566205 0.821418 0.066531 -0.025326 -108258.000000 0 0 1
-27.170348 -15.822223 30.232459 43.618484 0.527329 0.805000 0.087257 -0.033309 134016.000000 0 0 1
-25.940298 -15.122323 30.298729 42.656731 0.527801 0.780884 0.074617 -0.033289 -17955.700000 0 0 1
-26.002338 -13.808023 31.123099 42.841923 0.488162 0.757634 0.079958 -0.033502 -140717.000000 0 0 1
-25.707488 -13.985323 32.472575 43.714212 0.498239 0.733497 0.081129 -0.033559 74839.800000 0 0 1
-25.542018 -12.692423 32.990577 43.610440 0.461183 0.712877 0.075603 -0.022586 -234395.000000 0 0 1
-24.802298 -12.643223 -33.776615 43.770593 0.471425 2.452265 0.069129 -0.023283 1053770.000000 0 0 1
-23.380198 -12.913423 -33.769015 43.055041 0.504625 2.472399 0.049669 -0.019507 1336460.000000 0 0 1
-22.963098 -14.301023 -33.846515 43.329086 0.557003 2.467302 0.053409 -0.022468 -114868.000000 0 0 1
-22.952798 -14.988023 -32.455785 42.483524 0.578477 2.440227 0.054311 -0.018753 -140638.000000 0 0 1
-21.770798 -14.779923 -31.696935 41.195989 0.596416 2.448726 0.039568 -0.008562 147255.000000 0 0 1
-21.816398 -15.413823 -30.414285 40.479253 0.615092 2.420909 0.048858 -0.009689 -57835.200000 0 0 1
-20.579598 -15.343123 -29.488965 39.096424 0.640647 2.425326 0.041845 -0.004184 -85133.400000 0 0 1
-20.317398 -14.108023 -28.767335 37.939327 0.606945 2.431415 0.047579 -0.011756 358789.000000 0 0 1
-21.052298 -13.984823 -27.541425 37.380538 0.586355 2.399099 0.051080 -0.002234 49981.600000 0 0 1
-20.574998 -12.801523 -26.688205 36.048160 0.556575 2.404385 0.046766 -0.007217 -704294.000000 0 0 1
-19.237198 -12.924023 -26.289935 35.046553 0.591565 2.419075 0.053206 -0.015850 -313866.000000 0 0 1
-18.802798 -11.778523 -25.562555 33.848531 0.559623 2.426762 0.043075 -0.023584 -170293.000000 0 0 1
-17.403498 -12.072223 -25.018365 32.780160 0.606463 2.439073 0.066718 -0.033772 -978852.000000 0 0 1
-17.421198 -12.740023 -23.781515 32.114900 0.631422 2.404630 0.076594 -0.027300 463888.000000 0 0 1
-16.169498 -12.999523 -23.150315 31.086611 0.677147 2.410887 0.088268 -0.033029 96767.300000 0 0 1
-15.112998 -13.870323 -23.808315 31.426493 0.742549 2.430405 0.052309 -0.027279 -1216580.000000 0 0 1
-14.377698 -13.200923 -24.756215 31.525430 0.742754 2.473941 0.053721 -0.027409 -602466.000000 0 0 1
-13.692398 -14.121023 -25.529885 32.228250 0.800808 2.485134 0.059522 -0.033832 -292575.000000 0 0 1
-12.682498 -13.475923 -26.523465 32.341003 0.815720 2.532415 0.066576 -0.032970 409774.000000 0 0 1
-13.370898 -12.638323 -27.494545 33.082596 0.757240 2.551857 0.079403 -0.038253 354839.000000 0 0 1
-12.450298 -11.988023 -28.343985 33.197954 0.766484 2.594013 0.070737 -0.036388 -329558.000000 0 0 1
-13.086698 -11.042723 -29.386555 34.011366 0.700891 2.614000 0.046740 -0.031707 -415896.000000 0 0 1
-12.258898 -10.116523 -30.020115 33.968102 0.689942 2.654663 0.040026 -0.029260 -404072.000000 0 0 1
-11.605698 -10.613123 -31.160315 34.904095 0.740755 2.674189 0.054775 -0.021353 -227220.000000 0 0 1
-11.041398 -9.446623 -31.951135 35.100231 0.707715 2.714763 0.045755 -0.020971 536303.000000 0 0 1
-9.715198 -9.071023 -31.544125 34.230109 0.751122 2.742803 0.057869 -0.024015 514887.000000 0 0 1
-9.470098 -7.794523 -32.074235 34.339393 0.688649 2.776347 0.050674 -0.017234 797276.000000 0 0 1
-7.955898 -7.332523 -32.057765 33.834339 0.744646 2.816096 0.071563 -0.019315 1066510.000000 0 0 1
-7.412098 -7.114523 -30.769025 32.438997 0.764916 2.819325 0.064643 -0.020212 -109229.000000 0 0 1
-7.692498 -5.846423 -30.284695 31.788645 0.649881 2.832760 0.071294 -0.026856 -159505.000000 0 0 1
-6.787998 -4.670823 -30.760635 31.845097 0.602695 2.879870 0.073284 -0.026063 -200292.000000 0 0 1
-5.482998 -4.711723 -30.241845 31.093935 0.709888 2.906945 0.097027 -0.031187 107875.000000 0 0 1
-4.846998 -3.438523 -30.578175 31.150307 0.617015 2.949638 0.096288 -0.036546 777207.000000 0 0 1
-3.332998 -3.245023 -30.240355 30.596048 0.772025 2.988962 0.068575 -0.021284 -802583.000000 0 0 1
-2.484898 -3.854523 -31.159795 31.495474 0.998177 2.995463 0.068321 -0.026481 644978.000000 0 0 1
-1.099898 -3.798723 -30.755865 31.009085 1.288959 3.013709 0.071064 -0.020959 1095010.000000 0 0 1
-0.464298 -2.362223 -30.752435 30.846522 1.376719 3.063468 0.062587 -0.021482 104329.000000 0 0 1
0.955202 -2.429623 -30.402625 30.514506 -1.196211 3.055934 0.075839 -0.026077 1735020.000000 0 0 1
1.597502 -1.185323 -30.728415 30.792735 -0.638352 3.076947 0.043444 -0.011457 -54579.200000 0 0 1
1.685202 -0.111823 -29.632575 29.680666 -0.066259 3.084659 0.059004 -0.023748 -172479.000000 0 0 1
0.467702 0.421877 -29.138985 29.145792 0.733931 3.119980 0.067595 -0.032674 -242414.000000 0 0 1
0.639702 1.721577 -28.818925 28.877387 1.215028 3.077950 0.090328 -0.043081 -563080.000000 0 0 1
-0.539798 2.432377 -28.170755 28.280723 -1.352413 3.053378 0.071983 -0.042542 -636550.000000 0 0 1
-1.369198 2.964577 -29.164675 29.346920 -1.138129 3.030090 0.054912 -0.055085 -677414.000000 0 0 1
-2.365898 3.758177 -28.605535 28.948195 -1.008944 2.987577 0.100829 -0.054114 -1095670.000000 0 0 1
-3.478498 4.204477 -29.485325 29.986030 -0.879610 2.958592 0.122352 -0.052450 -944465.000000 0 0 1
-3.108098 4.965877 -30.586535 31.142517 -1.011556 2.952351 0.117325 -0.052339 -1094290.000000 0 0 1
-4.185298 5.460477 -31.285795 32.033335 -0.916837 2.925132 0.136578 -0.049438 -1097040.000000 0 0 1
-3.882798 5.967777 -32.656485 33.423592 -0.993980 2.926933 0.132843 -0.039504 -174113.000000 0 0 1
-3.620798 5.114277 -33.754035 34.330758 -0.954736 2.958038 0.155111 -0.037269 -343946.000000 0 0 1
-2.437798 4.376977 -33.673555 34.044223 -1.062626 2.993893 0.134026 -0.036471 -595901.000000 0 0 1
-2.077798 3.523677 33.216621 33.467559 -1.038009 0.122534 0.094652 -0.031629 74751.700000 0 0 1
-3.062798 2.519977 32.903648 33.141833 -0.688471 0.119962 0.097553 -0.037293 317052.000000 0 0 1
-2.979398 1.793577 31.653949 31.844406 -0.541884 0.109424 0.088600 -0.030089 -49117.800000 0 0 1
-2.874698 2.648977 30.338319 30.589125 -0.744557 0.128144 0.077236 -0.024374 -778071.000000 0 0 1
-4.079398 3.253777 30.078409 30.527680 -0.673283 0.171774 0.063329 -0.026849 -769242.000000 0 0 1
-3.934898 4.080577 28.924149 29.474411 -0.803571 0.193533 0.058011 -0.033182 11046.600000 0 0 1
-5.076998 5.097677 28.795089 29.680286 -0.787431 0.244842 0.067013 -0.024483 6518.670000 0 0 1
-5.028798 5.845277 27.616929 28.673173 -0.860342 0.272271 0.060721 -0.009043 -111700.000000 0 0 1
-6.127898 6.742577 27.574829 29.041086 -0.833121 0.319123 0.048757 -0.006926 -332412.000000 0 0 1
-6.336998 7.419077 26.215339 27.972205 -0.863898 0.356304 0.047993 -0.008626 -135934.000000 0 0 1
-5.329198 8.403977 26.076949 27.911189 -1.005660 0.364554 0.042023 -0.000435 109485.000000 0 0 1
-5.361498 9.099077 24.921549 27.067000 -1.038330 0.400835 0.036182 -0.003225 53165.300000 0 0 1
-4.735498 10.540077 25.005429 27.546137 -1.148537 0.432871 0.039966 -0.008481 -165113.000000 0 0 1
-4.818798 11.422977 23.921419 26.943265 -1.171596 0.478158 0.044551 -0.007718 89416.200000 0 0 1
-4.277898 12.700477 24.160659 27.628608 -1.245902 0.506434 0.034791 -0.001387 980180.000000 0 0 1
-2.690698 12.900577 24.126959 27.491360 -1.365172 0.499923 0.028641 0.001165 1426880.000000 0 0 1
-2.034498 12.404477 25.291639 28.243180 -1.408230 0.461253 0.037970 0.005125 57650.100000 0 0 1
-2.181698 13.266377 26.423359 29.647099 -1.407802 0.470674 0.052886 -0.003931 -516450.000000 0 0 1
-1.465098 12.740177 27.726469 30.548579 -1.456301 0.433219 0.066566 -0.002791 1157100.000000 0 0 1
-0.058198 13.044177 27.664959 30.586008 -1.566335 0.440597 0.064851 -0.008978 502550.000000 0 0 1
0.593102 12.559677 28.825359 31.448348 1.523609 0.411320 0.067684 -0.009462 963045.000000 0 0 1
2.156202 12.724577 28.776229 31.537841 1.402939 0.421601 0.063462 0.001941 995017.000000 0 0 1
2.581702 14.072077 28.848969 32.201732 1.389351 0.460383 0.059862 -0.005908 207683.000000 0 0 1
3.996402 14.165277 28.895179 32.427730 1.295817 0.471113 0.062267 -0.002587 385041.000000 0 0 1
4.669602 15.557877 29.010519 33.248503 1.279208 0.510427 0.058095 -0.005249 -79109.500000 0 0 1
4.401402 16.058177 30.314009 34.585785 1.303275 0.502279 0.065600 -0.005812 324349.000000 0 0 1
3.419002 17.089177 30.341039 34.990116 1.373335 0.521382 0.063784 -0.010751 63949.500000 0 0 1
3.670102 18.402677 29.480679 34.946224 1.373946 0.566841 0.066143 -0.013113 -124724.000000 0 0 1
4.689702 19.187677 30.078559 35.984441 1.331084 0.581068 0.088001 -0.014458 120945.000000 0 0 1
5.032402 20.290577 29.261049 35.961668 1.327685 0.620353 0.057375 -0.010630 -537242.000000 0 0 1
6.228902 20.996277 29.859999 37.030560 1.282400 0.632823 0.061378 -0.010975 -692954.000000 0 0 1
5.883402 21.742377 30.964449 38.290240 1.306529 0.628896 0.059778 -0.030246 358513.000000 0 0 1
7.008302 22.455377 31.488709 39.305204 1.268277 0.641610 0.031887 -0.028260 59594.700000 0 0 1
7.152702 23.891277 30.953859 39.750417 1.279903 0.678197 0.027174 -0.015013 -109484.000000 0 0 1
7.531402 23.970177 29.579479 38.810269 1.266365 0.704159 0.010014 -0.013881 250424.000000 0 0 1
7.799602 25.261477 29.063289 39.289321 1.271327 0.738135 0.009818 -0.010830 -47599.300000 0 0 1
8.275402 25.240477 27.604149 38.308654 1.253978 0.766169 0.028115 -0.016042 -558639.000000 0 0 1
7.261902 24.879677 26.729269 37.231537 1.286805 0.769986 0.022824 -0.017108 -352996.000000 0 0 1
7.607902 25.215877 25.404409 36.593779 1.277771 0.803450 0.037113 -0.019835 -380241.000000 0 0 1
29.765395 2.119277 6.584185 30.558494 0.071079 1.353632 0.132346 -0.024654 -107877.000000 0 0 1
29.761015 2.956377 7.695685 30.881738 0.099012 1.318944 0.129875 -0.026059 471728.000000 0 0 1
28.583875 2.778477 8.486285 29.946199 0.096900 1.283475 0.121239 -0.018701 386604.000000 0 0 1
28.511405 3.721077 9.730085 30.354920 0.129778 1.244493 0.103222 -0.017507 -65707.000000 0 0 1
28.398805 5.125677 9.539185 30.393432 0.178567 1.251544 0.114956 -0.023295 1122050.000000 0 0 1
29.599395 5.763677 9.001485 31.470158 0.192316 1.280713 0.129914 -0.036540 1043320.000000 0 0 1
29.402765 7.299077 8.875785 31.568634 0.243326 1.285795 0.129264 -0.037713 20046.900000 0 0 1
28.709725 7.690377 7.726985 30.709876 0.261722 1.316450 0.131449 -0.046133 -248883.000000 0 0 1
28.615595 9.099877 7.656485 30.988414 0.307891 1.321135 0.135545 -0.051777 -105603.000000 0 0 1
27.767205 9.684177 6.494785 30.116161 0.335573 1.353431 0.133270 -0.047986 26265.900000 0 0 1
26.388105 9.798177 6.786585 28.955036 0.355532 1.334212 0.127498 -0.036254 -256431.000000 0 0 1
25.742105 9.986177 5.561685 28.165795 0.370060 1.372028 0.136434 -0.044759 -302484.000000 0 0 1
24.319105 10.527577 5.745785 27.115729 0.408537 1.357279 0.090958 -0.033934 -226159.000000 0 0 1
24.211305 11.914477 6.092285 27.663297 0.457311 1.348746 0.079848 -0.038110 613722.000000 0 0 1
22.867405 12.423677 6.054685 26.719378 0.497678 1.342208 0.085997 -0.023008 779032.000000 0 0 1
22.773005 14.000077 6.120985 27.424047 0.551206 1.345703 0.085650 -0.020361 -58514.600000 0 0 1
22.906105 14.734477 4.883985 27.670341 0.571619 1.393361 0.080489 -0.031345 258335.000000 0 0 1
22.487405 16.017677 5.212085 28.096533 0.618930 1.384209 0.103265 -0.010049 -168656.000000 0 0 1
21.943505 16.817377 4.009485 27.935954 0.653911 1.426775 0.096469 -0.023172 308553.000000 0 0 1
20.657305 16.379977 3.560285 26.602698 0.670420 1.436562 0.109522 -0.006108 512747.000000 0 0 1
19.975005 17.375777 2.880885 26.631146 0.715921 1.462407 0.102903 -0.012193 -178630.000000 0 0 1
18.447405 17.229477 2.718385 25.388014 0.751274 1.463517 0.082080 -0.009642 136002.000000 0 0 1
17.770305 17.402977 3.964085 25.186530 0.774955 1.412750 0.085329 -0.013672 -362048.000000 0 0 1
16.389605 17.491977 3.873185 24.281474 0.817923 1.410600 0.060253 -0.025412 -867092.000000 0 1 0
15.680405 18.855477 4.063885 24.857982 0.877076 1.406575 0.076487 -0.021612 -701109.000000 0 1 0
14.312305 18.606477 4.196185 23.846405 0.915113 1.393908 0.072187 -0.027663 -637622.000000 0 1 0
13.635705 19.822877 4.194985 24.422875 0.968253 1.398176 0.059641 -0.023335 689667.000000 0 1 0
12.066105 19.647277 4.156285 23.428211 1.020047 1.392447 0.046650 -0.024372 1130960.000000 0 1 0
11.488505 19.065777 5.314785 22.885291 1.028488 1.336421 0.036610 -0.026345 -154638.000000 0 1 0
10.102205 19.294277 5.293985 22.413165 1.088459 1.332343 0.037218 -0.013238 -145729.000000 0 1 0
9.268105 18.875377 6.517585 22.014916 1.114362 1.270238 0.029730 -0.008881 -643528.000000 0 1 0
9.355605 19.679677 7.663385 23.098582 1.127026 1.232619 0.046389 -0.009464 -192718.000000 0 1 0
8.759205 19.025077 8.777585 22.709540 1.139325 1.173946 0.047314 -0.005205 727412.000000 0 1 0
7.451405 19.787077 9.258585 23.081881 1.210642 1.158058 0.045710 -0.009315 1474260.000000 0 1 0
6.347705 19.859177 8.353085 22.460060 1.261424 1.189732 0.042110 -0.020785 375520.000000 0 1 0
6.380605 21.049977 7.614685 23.276535 1.276482 1.237521 0.046018 -0.015240 -495451.000000 0 1 0
5.203005 21.177577 6.588485 22.780895 1.329883 1.277394 0.040248 -0.017005 1723570.000000 0 1 0
3.864505 21.318477 7.147585 22.814465 1.391469 1.252139 0.032890 -0.022633 1216720.000000 0 1 0
3.610505 22.529577 7.853485 24.130786 1.411891 1.239303 0.048310 -0.024118 -690713.000000 0 1 0
3.649505 23.864177 7.099585 25.163901 1.419044 1.284779 0.066062 -0.026056 -255693.000000 0 0 1
2.626205 23.957577 6.145385 24.872238 1.461613 1.321133 0.050271 -0.029589 -106228.000000 0 1 0
2.649705 25.273477 5.540885 26.009056 1.466337 1.356114 0.063175 -0.027014 -986707.000000 0 0 1
1.412605 25.509777 4.722185 25.981594 1.515478 1.388029 0.064470 -0.028482 -1216360.000000 0 0 1
0.333405 25.845277 5.572585 26.441316 1.557897 1.358451 0.071303 -0.036386 -713451.000000 0 0 1
-0.721095 26.107577 4.698485 26.536792 -1.543183 1.392802 0.077771 -0.029177 -683401.000000 0 0 1
-1.973195 26.755877 5.297285 27.346511 -1.497181 1.375854 0.077224 -0.030219 494207.000000 0 0 1
-2.919195 27.130977 4.269885 27.619622 -1.463612 1.415578 0.089218 -0.029283 931704.000000 0 0 1
-4.053195 27.856577 4.774485 28.551935 -1.426308 1.402786 0.074047 -0.035279 45106.800000 0 0 1
-4.965295 28.400577 3.710885 29.069186 -1.397715 1.442790 0.066232 -0.033947 -903375.000000 0 0 1
-4.500095 29.430677 2.932985 29.916852 -1.419067 1.472601 0.078036 -0.029915 -539111.000000 0 0 1
-5.286395 29.748577 1.832985 30.270178 -1.394930 1.510205 0.084938 -0.031889 -826667.000000 0 0 1
-4.576395 30.605377 0.823885 30.956603 -1.422367 1.544179 0.085999 -0.029588 -618475.000000 0 0 1
-4.348795 31.949177 1.066185 32.261412 -1.435512 1.537742 0.091013 -0.026122 -152439.000000 0 0 1
-3.231095 32.200277 1.873785 32.416183 -1.470787 1.512960 0.091855 -0.028720 -474361.000000 0 0 1
-2.587495 33.584377 1.704885 33.727024 -1.493904 1.520225 0.093119 -0.027088 -147115.000000 0 0 1
-1.839695 33.837677 0.509385 33.891479 -1.516482 1.555766 0.084533 -0.029775 703418.000000 0 0 1
-0.753795 -33.475894 0.541885 33.488764 1.548283 1.554615 0.084558 -0.025392 1160180.000000 0 0 1
0.554505 -33.962694 1.235485 33.989682 -1.554471 1.534440 0.078479 -0.021597 -47791.800000 0 0 1
0.377905 -33.940794 2.664485 34.047317 -1.559663 1.492458 0.070682 -0.020940 416181.000000 0 0 1
1.608405 33.979577 3.299885 34.177300 1.523497 1.474094 0.063358 -0.018681 393377.000000 0 0 1
1.532205 -34.094994 4.859285 34.473598 -1.525887 1.429369 0.053549 -0.018784 55332.200000 0 0 1
0.582505 33.297877 5.460285 33.747632 1.553304 1.408284 0.073486 -0.032477 -139086.000000 0 0 1
0.320905 33.586477 6.868285 34.283054 1.561242 1.369091 0.080842 -0.025505 13431.300000 0 0 1
1.443105 33.399977 7.918185 34.356057 1.527616 1.338231 0.057770 -0.017381 -99134.300000 0 0 1
1.737605 32.010977 8.108985 33.067772 1.516568 1.323046 0.065930 -0.022698 -560146.000000 0 0 1
2.722805 31.809077 9.039785 33.180548 1.485406 1.294866 0.068583 -0.013753 -772384.000000 0 0 1
3.044505 30.337577 9.233085 31.857298 1.470777 1.276751 0.063655 -0.019954 -115704.000000 0 0 1
2.128205 29.637677 10.044885 31.365919 1.499112 1.244805 0.080999 -0.038214 173307.000000 0 0 1
2.417805 28.244577 10.002485 30.060799 1.485402 1.231587 0.080739 -0.036039 51623.600000 0 0 1
2.126705 27.386977 11.287385 29.698055 1.493298 1.180923 0.066564 -0.039604 -295282.000000 0 0 1
2.807305 27.856377 12.437385 30.635718 1.470358 1.152749 0.057676 -0.026003 30024.000000 0 0 1
2.604205 26.989977 13.630185 30.348356 1.474606 1.105011 0.054348 -0.020510 -182647.000000 0 0 1
1.160705 26.729077 14.140085 30.261077 1.527399 1.084596 0.049832 -0.024683 183306.000000 0 0 1
0.511305 27.877977 14.743485 31.540662 1.552458 1.084399 0.045545 -0.022955 657531.000000 0 0 1
-0.116595 28.841177 13.875685 32.005651 -1.566754 1.122380 0.051901 -0.029110 -158972.000000 0 0 1
-0.799895 30.085577 14.552485 33.429876 -1.544215 1.120410 0.033799 -0.019269 524655.000000 0 0 1
-1.981795 29.671477 15.241785 33.416105 -1.504104 1.097165 0.025136 -0.010189 287271.000000 0 0 1
-2.715395 30.827977 15.646185 34.677668 -1.482941 1.102699 0.022609 -0.008897 738565.000000 0 0 1
-4.102795 30.486177 16.318085 34.821255 -1.437021 1.083064 0.018465 0.000033 919202.000000 0 0 1
-5.093095 30.004677 15.430285 34.122045 -1.402656 1.101556 0.022942 -0.004953 413876.000000 0 0 1
-6.216295 29.477577 16.125485 34.170179 -1.362959 1.079333 0.027273 0.000200 -290029.000000 0 0 1
-7.275395 28.846277 15.230485 33.421651 -1.323736 1.097630 0.032075 -0.011200 -249403.000000 0 0 1
-8.489195 28.639777 15.917385 33.847694 -1.282634 1.081205 0.036219 -0.005450 -543187.000000 0 0 1
-9.379295 27.886577 15.176385 33.105211 -1.246345 1.094570 0.024232 -0.005114 -68669.700000 0 0 1
-10.660095 27.576477 16.021085 33.626996 -1.201925 1.074201 0.032307 0.000821 221012.000000 0 0 1
-11.473695 28.717577 16.293885 34.954765 -1.190690 1.085871 0.028371 -0.003615 331102.000000 0 0 1
-11.317695 29.152977 17.576685 35.873753 -1.200488 1.058753 0.035894 -0.006725 -87949.800000 0 0 1
-12.263295 30.344077 17.876785 37.292504 -1.186725 1.070863 0.044103 -0.010377 -434814.000000 0 0 1
-13.539095 30.059577 18.364585 37.737822 -1.147603 1.062561 0.047675 -0.002992 -309200.000000 0 0 1
-14.202395 31.286677 18.611585 39.076275 -1.144668 1.074367 0.050818 -0.010692 404697.000000 0 0 1
-15.190295 31.166077 19.825485 39.938944 -1.117281 1.051355 0.047920 -0.011332 472383.000000 0 0 1
-14.476795 31.067277 21.019385 40.206565 -1.134731 1.020682 0.036788 -0.012296 142708.000000 0 0 1
-15.340095 30.462477 21.977685 40.574618 -1.104294 0.998385 0.022927 -0.006164 221338.000000 0 0 1
-14.829395 30.471477 23.459485 41.216129 -1.117874 0.965286 0.011503 0.000418 -746412.000000 0 0 1
-13.700595 29.647777 23.645585 40.321343 -1.137916 0.944154 0.013966 -0.000963 226942.000000 0 0 1
-13.315095 29.457177 25.028585 40.883335 -1.146268 0.911962 0.026665 0.001691 -22751.900000 0 0 1
-12.801895 30.750877 25.775885 42.117706 -1.176309 0.912214 0.029804 0.006048 -498894.000000 0 0 1
-13.762195 31.780177 25.925485 43.260934 -1.162133 0.928193 0.022762 0.003911 110001.000000 0 0 1
-13.285395 32.858277 26.693885 44.370391 -1.186568 0.925275 0.026672 0.000410 -591062.000000 0 0 1
-14.414395 33.566877 27.431085 45.683415 -1.165185 0.926720 0.031160 0.000621 -427625.000000 0 0 1
-14.952895 32.789577 28.467485 45.925408 -1.142943 0.902228 0.003902 0.000724 486365.000000 0 0 1
-14.182195 32.815377 29.699285 46.476135 -1.162859 0.877570 0.028303 0.004717 139490.000000 0 0 1
-14.933595 32.025177 30.808785 46.880758 -1.134464 0.853734 0.017778 0.004730 -163889.000000 0 0 1
-16.046895 32.808277 31.192385 48.029686 -1.115898 0.863949 0.011528 0.002739 -204498.000000 0 0 1
-16.594995 32.300777 32.394585 48.663571 -1.096198 0.842386 0.015739 0.002565 447644.000000 0 0 1
-18.094095 32.665877 32.619785 49.583325 -1.064953 0.852798 0.009676 0.001448 540549.000000 0 0 1
-18.316795 33.968377 33.024385 50.793362 -1.076259 0.862986 0.004291 -0.007252 -638714.000000 0 0 1
-19.695395 -34.040194 33.011185 51.345708 1.046267 0.872492 0.022179 -0.008282 -445441.000000 0 0 1
-20.080395 -32.583194 33.355285 50.768709 1.018492 0.853958 0.026799 -0.007823 -734077.000000 0 0 1
-19.864895 -32.148594 -33.496610 50.499198 1.017313 2.296029 0.025368 -0.011441 165003.000000 0 0 1
-20.905295 -32.359494 -32.504210 50.405276 0.997215 2.271633 0.028616 -0.012014 341507.000000 0 0 1
-20.699295 -31.717094 -31.137010 49.030075 0.992580 2.258882 0.036683 -0.016777 -155308.000000 0 0 1
-20.754695 -30.310294 -31.273310 48.244079 0.970385 2.276055 0.043772 -0.023613 -95632.000000 0 0 1
-20.311195 -29.683194 -30.100710 46.900846 0.970708 2.267632 0.036183 -0.014915 -23543.000000 0 0 1
-20.601195 -28.181294 -30.076310 46.077966 0.939551 2.281974 0.046717 -0.026881 1171600.000000 0 0 1
-22.010995 -27.878794 -29.957110 46.466542 0.902476 2.271431 0.035165 -0.017259 873229.000000 0 0 1
-22.274495 -26.489494 -29.914310 45.746173 0.871621 2.283550 0.036668 -0.020595 -284957.000000 0 0 1
-23.481995 -26.022694 -29.113410 45.565067 0.836676 2.263918 0.051405 -0.020741 -545216.000000 0 0 1
-23.454995 -26.183794 -27.685810 44.746306 0.840316 2.237919 0.054056 -0.020124 547206.000000 0 0 1
-22.515995 -25.411294 -26.883910 43.306449 0.845735 2.240537 0.061194 -0.028885 452200.000000 0 0 1
-22.554395 -25.731394 -25.402410 42.615582 0.851099 2.209410 0.068447 -0.019422 -163832.000000 0 0 1
-23.749095 -25.432394 -24.727910 42.688356 0.819611 2.188624 0.059896 -0.016806 -76840.800000 0 0 1
-23.740295 -25.938794 -23.421610 42.249195 0.829623 2.158400 0.061869 -0.011168 6651.820000 0 0 1
-25.109395 -25.691594 -22.672710 42.480484 0.796858 2.133790 0.059634 -0.009166 2006640.000000 0 0 1
-26.306795 -26.380494 -23.130510 43.852006 0.786797 2.126413 0.039617 -0.004869 1042020.000000 0 0 1
-26.186495 -27.787294 -23.118810 44.635699 0.815048 2.115242 0.050834 -0.001564 -145133.000000 0 0 1
-27.617395 -28.441894 -23.075410 45.870866 0.800105 2.097922 0.022447 -0.000629 956344.000000 0 0 1
-28.302795 -28.263094 -21.874110 45.588676 0.784696 2.071240 0.029913 0.004845 31217.900000 0 0 1
-29.436195 -27.414294 -22.026910 45.860853 0.749848 2.071792 0.035539 0.003450 269181.000000 0 0 1
-30.046995 -26.909994 -20.688110 45.331750 0.730377 2.044709 0.040791 0.006766 100306.000000 0 0 1
-30.629295 -27.998494 -19.915110 46.029132 0.740555 2.018241 0.031517 0.014565 199804.000000 0 0 1
-31.032995 -27.588794 -18.646810 45.518039 0.726713 1.992875 0.030081 0.022872 -934095.000000 0 0 1
-32.134695 -28.502594 -18.055210 46.594282 0.725571 1.968713 0.019788 0.016056 399449.000000 0 0 1
-33.386395 -28.488994 -18.785110 47.740491 0.706413 1.975214 0.024950 0.017314 1221390.000000 0 0 1
-34.174195 -27.307294 -18.723610 47.582954 0.674169 1.975226 0.010278 0.027025 -522504.000000 0 0 1
-34.828895 -26.995294 -17.348210 47.357768 0.659362 1.945850 0.021447 0.030812 -357447.000000 0 0 1
-33.910395 -26.270494 -16.528610 45.970085 0.659125 1.938583 0.012561 0.033835 266978.000000 0 0 1
-34.503895 -25.829494 -15.388010 45.765406 0.642602 1.913714 0.015916 0.030696 -234986.000000 0 0 1
-34.081495 -26.491294 -14.037010 45.391350 0.660741 1.885194 0.034270 0.028986 89215.900000 0 0 1
-34.813495 -27.669894 -13.822110 46.568801 0.671564 1.872147 0.054155 0.023787 264968.000000 0 0 1
-34.257395 -28.325194 -12.706710 46.231442 0.690891 1.849230 0.051965 0.016024 146371.000000 0 0 1
-34.861195 -29.721594 -12.390910 47.457462 0.705984 1.834953 0.067548 0.015228 -125269.000000 0 0 1
-34.492495 -30.631894 -13.340310 48.020923 0.726187 1.852302 0.063634 0.008656 142589.000000 0 0 1
-35.058795 -31.922494 -13.136210 49.200861 0.738609 1.841066 0.058743 -0.004365 -202729.000000 0 0 1
-34.593495 -32.975394 -14.202410 49.857747 0.761455 1.859655 0.052705 0.011417 -1608520.000000 0 0 1
-33.324495 -33.325694 -13.844310 49.120146 0.785416 1.856514 0.041786 0.002697 -1318010.000000 0 0 1
-32.750295 -33.918494 -15.005310 49.479343 0.802919 1.878913 0.062330 -0.021728 592632.000000 0 0 1
-31.228895 33.954377 -14.937610 48.489956 -0.827186 1.883945 0.044142 -0.020963 783936.000000 0 0 1
-30.824995 33.334777 -16.142210 48.186706 -0.824496 1.912394 0.056507 -0.026583 -833985.000000 0 0 1
-29.453895 33.077477 -16.159010 47.146209 -0.843282 1.920631 0.048971 -0.023588 -603537.000000 0 0 1
9.644702 19.789077 -9.074915 23.811382 1.117300 1.961800 0.073442 -0.039582 -453724.000000 0 1 0
8.237502 19.934177 -9.058415 23.394075 1.178933 1.968400 0.059026 -0.035275 20304.900000 0 1 0
7.549102 19.977177 -10.267215 23.695828 1.209498 2.018939 0.066724 -0.039545 -91365.200000 0 1 0
7.528002 18.685777 -11.143615 23.021930 1.187815 2.076066 0.053834 -0.031474 -739802.000000 0 1 0
8.794502 18.354077 -11.660915 23.456179 1.123961 2.091091 0.067283 -0.033696 -198467.000000 0 1 0
8.690302 17.275677 -12.491315 23.021801 1.104722 2.144309 0.048932 -0.033680 -520099.000000 0 1 0
9.827302 17.067177 -13.477415 23.864306 1.048360 2.170929 0.059535 -0.025369 -375629.000000 0 1 0
9.731502 15.781377 -14.060915 23.269365 1.018228 2.219642 0.062373 -0.036815 4836.980000 0 1 0
10.817002 15.407577 -14.883215 23.998147 0.958691 2.239771 0.076346 -0.036931 -206829.000000 0 1 0
10.625502 13.952277 -15.450115 23.372492 0.919938 2.292998 0.077611 -0.045170 -439241.000000 0 1 0
10.724502 12.817077 -14.582415 22.179703 0.874054 2.288248 0.074247 -0.046404 1118340.000000 0 1 0
12.069202 12.529977 -14.120015 22.406267 0.804127 2.252583 0.089810 -0.041396 1167230.000000 0 1 0
13.024702 11.824077 -15.128815 23.201998 0.737118 2.281079 0.099919 -0.040388 -324254.000000 0 1 0
13.573502 12.710377 -16.053415 24.566355 0.752571 2.282958 0.086888 -0.033458 -115226.000000 0 1 0
14.289702 11.986677 -16.995415 25.233314 0.697975 2.309772 0.078708 -0.032640 -184583.000000 0 0 1
15.134402 12.711077 -18.119115 26.812757 0.698589 2.312798 0.063420 -0.030294 155234.000000 0 0 1
16.194502 13.483777 -17.632315 27.476766 0.694314 2.267532 0.068400 -0.027363 -320864.000000 0 0 1
16.781102 14.163677 -18.707115 28.847379 0.701015 2.276390 0.062902 -0.023248 19275.200000 0 0 1
18.054002 14.987177 -18.459015 29.854609 0.692845 2.237370 0.063802 -0.009981 -46017.700000 0 0 1
17.658002 16.227877 -17.882515 29.915437 0.743219 2.211511 0.079057 -0.012912 409547.000000 0 0 1
17.578102 17.351177 -18.759615 31.015741 0.778902 2.220363 0.078531 -0.010308 -27119.100000 0 0 1
17.387502 18.659177 -17.965115 31.196722 0.820662 2.184459 0.087014 -0.008816 320975.000000 0 0 1
18.602902 19.364777 -17.761515 32.195248 0.805462 2.155175 0.071834 -0.004798 273798.000000 0 0 1
18.335202 20.647977 -17.263015 32.565784 0.844656 2.129511 0.065914 0.004201 -636325.000000 0 0 1
19.523902 21.580477 -17.184115 33.796354 0.835389 2.104192 0.064625 0.002404 -101627.000000 0 0 1
20.501702 21.263177 -16.194315 33.685284 0.803629 2.072310 0.059277 0.003309 -36578.800000 0 0 1
20.396402 22.182877 -15.169815 33.737465 0.827330 2.037162 0.063167 0.000331 -30697.000000 0 0 1
21.694302 22.680377 -14.459615 34.556081 0.807616 2.002522 0.041317 -0.004539 -433391.000000 0 0 1
22.254102 21.723077 -13.561815 33.927275 0.773324 1.982021 0.050614 -0.005462 -182982.000000 0 0 1
23.210102 22.309577 -12.720715 34.615642 0.765618 1.947099 0.036884 -0.000355 179235.000000 0 0 1
24.636702 22.521377 -13.299215 35.931165 0.740572 1.949946 0.036410 -0.006121 -438810.000000 0 0 1
24.802202 23.414977 -14.405515 37.026062 0.756636 1.970412 0.032169 0.001853 -679860.000000 0 0 1
26.003002 23.265377 -15.089615 38.014870 0.729890 1.978977 0.030452 0.004530 -725547.000000 0 0 1
26.178202 23.960977 -16.495415 39.134708 0.741206 2.005899 0.020030 -0.003230 148860.000000 0 0 1
27.281302 23.390777 -17.201715 39.840895 0.708770 2.017240 0.031528 -0.001940 466055.000000 0 0 1
27.311202 23.959777 -18.499615 40.770190 0.720124 2.041769 0.030083 0.001659 -494490.000000 0 0 1
27.974102 22.943877 -19.505215 41.102619 0.686927 2.065248 0.028890 -0.000234 155019.000000 0 0 1
29.358902 22.763977 -19.287115 41.858531 0.659540 2.049658 0.024494 0.000503 -315958.000000 0 0 1
29.800802 21.784077 -20.197215 42.078038 0.631223 2.071444 0.027610 0.001798 745079.000000 0 0 1
31.242302 22.063777 -20.754215 43.515849 0.614885 2.067960 0.051554 0.002202 450831.000000 0 0 1
31.351502 23.232277 -21.499815 44.552188 0.637733 2.074390 0.033153 0.007242 279402.000000 0 0 1
32.730202 23.525277 -21.661815 45.759578 0.623208 2.063924 0.055941 0.010533 292118.000000 0 0 1
33.193402 24.799477 -22.449015 47.125092 0.641656 2.067319 0.047628 0.009037 -206481.000000 0 0 1
33.072702 24.849477 -23.873715 47.762479 0.644370 2.094213 0.047805 0.007456 574561.000000 0 0 1
31.775902 24.775077 -24.471315 47.141889 0.662228 2.116593 0.024116 0.005918 162076.000000 0 0 1
31.864902 25.045477 -26.021975 48.164210 0.666139 2.141562 0.039236 -0.005123 -366956.000000 0 0 1
32.062502 26.405277 -26.285055 49.154316 0.688940 2.135003 0.055103 -0.008404 222192.000000 0 0 1
30.936502 27.181477 -26.718105 49.089276 0.720877 2.146322 0.053559 0.000379 355608.000000 0 0 1
30.476902 26.859477 -28.166495 49.433031 0.722390 2.177048 0.056170 -0.005257 -169131.000000 0 0 1
30.014302 25.536277 -28.323725 48.530333 0.704960 2.193987 0.046306 -0.012867 -211781.000000 0 0 1
29.987202 25.119777 -29.674625 49.100090 0.697300 2.219771 0.055083 -0.023443 -38188.000000 0 0 1
29.327802 23.703377 -29.734535 48.022002 0.679734 2.238502 0.045370 -0.027821 1079440.000000 0 0 1
27.929902 23.614477 -29.400005 46.926360 0.701870 2.247868 0.060989 -0.025953 895625.000000 0 0 1
27.425302 22.293377 -29.594785 46.097648 0.682543 2.267903 0.060131 -0.033744 -361211.000000 0 0 1
26.038302 22.212277 -28.947855 44.825849 0.706269 2.272847 0.040047 -0.020805 -459976.000000 0 0 1
25.984902 22.340577 -27.532835 43.958771 0.710129 2.247637 0.043614 -0.003609 -620489.000000 0 0 1
24.659002 22.321677 -27.134975 42.925872 0.735688 2.255103 0.058243 -0.007976 -802522.000000 0 0 1
24.648402 22.633177 -25.613015 42.140610 0.742802 2.224082 0.043673 -0.001735 -189874.000000 0 0 1
24.980202 21.538677 -24.784615 41.257754 0.711551 2.215206 0.042389 -0.005181 265311.000000 0 0 1
25.265202 21.905777 -23.450715 40.842742 0.714300 2.182388 0.039325 -0.003185 -151717.000000 0 0 1
25.739902 20.622477 -22.697915 40.037788 0.675464 2.173549 0.057907 0.003294 -15722.500000 0 0 1
27.007402 20.181577 -23.126515 40.884368 0.641746 2.172026 0.030708 -0.001701 -185962.000000 0 0 1
27.220002 18.800977 -23.084015 40.339522 0.604460 2.180035 0.075814 -0.008426 -230295.000000 0 0 1
28.704102 18.523777 -23.345815 41.377323 0.573089 2.170282 0.089270 -0.020713 -338952.000000 0 0 1
29.638302 18.523377 -22.303015 41.460450 0.558586 2.138782 0.091522 -0.025269 448791.000000 0 0 1
30.759202 17.728077 -22.763615 42.173397 0.522849 2.140951 0.071160 -0.018656 744997.000000 0 0 1
32.004802 17.722677 -21.850415 42.612689 0.505718 2.109202 0.074019 -0.013093 387273.000000 0 0 1
32.760202 18.949377 -21.897915 43.724460 0.524406 2.095338 0.051622 -0.008662 446013.000000 0 0 1
33.993502 18.811877 -21.187815 44.253456 0.505447 2.070065 0.045694 -0.006993 622785.000000 0 0 1
34.288602 19.937377 -20.140415 44.484194 0.526674 2.040648 0.047106 -0.006749 -246474.000000 0 0 1
33.576002 19.790677 -18.943215 43.334331 0.532611 2.023214 0.061155 -0.005367 65366.600000 0 0 1
33.793202 20.875077 -18.076615 43.640730 0.553354 1.997876 0.043480 0.007416 -416433.000000 0 0 1
33.208802 20.612877 -16.722115 42.512873 0.555505 1.975061 0.060235 -0.008236 -228609.000000 0 0 1
33.710202 19.444077 -16.095515 42.113127 0.523187 1.962969 0.060271 -0.016635 162544.000000 0 0 1
33.344902 19.367377 -14.729615 41.278800 0.526197 1.935671 0.060697 -0.014453 -330888.000000 0 0 1
33.912102 18.263377 -13.798715 40.914376 0.494010 1.914799 0.066042 -0.003770 1202200.000000 0 0 1
35.366002 18.375477 -13.679715 42.137238 0.479189 1.901434 0.050585 -0.012180 1607320.000000 0 0 1
35.965002 17.470377 -12.794815 41.980981 0.452191 1.880500 0.034729 -0.007045 -156783.000000 0 0 1
35.750502 17.786377 -11.338415 41.509195 0.461657 1.847467 0.045628 -0.010509 -543041.000000 0 0 1
36.357902 19.063377 -11.017015 42.505106 0.482918 1.832983 0.026356 -0.009292 258045.000000 0 0 1
36.122602 19.550077 -9.703615 42.204360 0.496073 1.802792 0.019625 -0.001896 350475.000000 0 0 1
34.727402 20.246177 -9.552015 41.317564 0.527828 1.804092 0.034115 -0.003935 631171.000000 0 0 1
33.613202 19.383977 -9.756215 40.009619 0.523094 1.817127 0.045784 -0.019149 -1913710.000000 0 0 1
32.516802 20.137977 -9.670715 39.451277 0.554497 1.818451 0.041135 -0.010843 -1919130.000000 0 0 1
31.262302 19.340377 -10.049615 38.110057 0.554019 1.837652 0.056568 -0.007403 -341978.000000 0 0 1
31.004402 19.193777 -11.432715 38.214932 0.554321 1.874618 0.070879 -0.014746 373370.000000 0 0 1
29.847402 18.384677 -11.661715 36.944003 0.552069 1.891948 0.064134 -0.015405 94551.100000 0 0 1
29.799102 17.782777 -13.066015 37.080108 0.538030 1.930901 0.086861 -0.013609 -433388.000000 0 0 1
30.843002 16.922677 -13.369115 37.635103 0.501823 1.933956 0.088669 -0.008862 -331101.000000 0 0 1
30.452802 16.084477 -14.452815 37.349263 0.485934 1.968133 0.076255 -0.011462 -509385.000000 0 0 1
31.619902 15.518077 -15.240415 38.378368 0.456236 1.979162 0.105476 -0.021531 -374477.000000 0 0 1
32.382702 14.722577 -14.334615 38.351986 0.426709 1.953861 0.101598 -0.018516 -130857.000000 0 0 1
33.580002 14.228577 -14.875815 39.387292 0.400787 1.958086 0.102749 -0.020403 -82367.100000 0 0 1
34.419902 13.447777 -13.845215 39.462163 0.372462 1.929273 0.075017 -0.035033 94322.500000 0 0 1
35.156802 14.166177 -12.831715 40.016674 0.383041 1.897222 0.072082 -0.019164 282485.000000 0 0 1
35.824302 13.196077 -12.074815 40.041456 0.352933 1.877122 0.054541 -0.013444 -554922.000000 0 0 1
-36.765901 13.636177 -10.985515 40.722946 -0.355164 1.843942 0.073355 -0.012141 -72366.100000 0 0 1
-35.488501 13.854477 -11.562715 39.813021 -0.372198 1.865468 0.045752 -0.009493 -172201.000000 0 0 1
-34.582201 14.133477 -10.510915 38.809318 -0.387977 1.845057 0.018025 -0.014601 111815.000000 0 0 1
-33.144301 14.514677 -10.992515 37.816081 -0.412766 1.865738 0.038262 -0.012444 267803.000000 0 0 1
-32.295601 13.613877 -11.587615 36.913634 -0.398936 1.890106 0.033672 -0.016052 -55986.300000 0 0 1
-31.807101 12.532177 -10.769115 35.843005 -0.375328 1.875963 0.064749 -0.013942 -184907.000000 0 0 1
-30.747601 11.612077 -11.460315 34.807961 -0.361099 1.906299 0.088419 -0.018819 159154.000000 0 0 1
-31.173401 10.842177 -12.528615 35.302974 -0.334716 1.933591 0.074474 -0.007887 285192.000000 0 0 1
-30.220901 9.801577 -12.685215 34.209479 -0.313627 1.950677 0.094653 -0.016966 145946.000000 0 0 1
-30.351001 9.145577 -14.119915 34.701540 -0.292674 1.989850 0.088364 -0.024553 -570920.000000 0 0 1
-31.440001 8.321177 -14.371415 35.556339 -0.258736 1.986886 0.073646 -0.019198 -310605.000000 0 0 1
-31.272901 7.523377 -15.531815 35.718802 -0.236086 2.020652 0.074844 -0.029331 -787184.000000 0 0 1
-32.549701 7.051077 -16.200415 37.035850 -0.213329 2.023530 0.072870 -0.033811 -438461.000000 0 0 1
-33.280901 6.197077 -15.303615 37.151350 -0.184097 1.995363 0.096011 -0.031853 6617.040000 0 0 1
-34.442301 5.733077 -15.949015 38.386344 -0.164942 1.999274 0.098256 -0.035084 -295835.000000 0 0 1
-35.438501 5.096077 -14.996915 38.817069 -0.142822 1.967466 0.102072 -0.027192 -102189.000000 0 0 1
-36.662001 4.634377 -15.524315 40.082217 -0.125741 1.968510 0.104727 -0.028431 441320.000000 0 0 1
35.919902 4.364077 -14.501315 38.981696 0.120902 1.951962 0.101625 -0.026150 948429.000000 0 0 1
34.783902 3.425577 -15.035015 38.048733 0.098165 1.977029 0.103249 -0.031465 143146.000000 0 0 1
35.273702 2.146777 -15.347915 38.527927 0.060786 1.980523 0.115343 -0.033291 104960.000000 0 0 1
34.333002 1.111477 -15.140415 37.539613 0.032362 1.985937 0.112101 -0.025949 99092.900000 0 0 1
33.856902 0.785577 -13.711315 36.536380 0.023199 1.955493 0.108182 -0.032726 -843198.000000 0 0 1
34.863702 0.361677 -12.873815 37.166432 0.010374 1.924509 0.117372 -0.035366 -463737.000000 0 0 1
34.437802 0.209177 -11.544015 36.321760 0.006074 1.894232 0.114612 -0.027968 -270570.000000 0 0 1
34.440202 1.444977 -10.617415 36.068615 0.041932 1.869590 0.113149 -0.042654 -165778.000000 0 0 1
33.428602 2.364377 -10.937515 35.251822 0.070612 1.886271 0.109341 -0.027412 349239.000000 0 0 1
33.769702 3.654277 -10.456815 35.539998 0.107792 1.869443 0.106140 -0.032012 144015.000000 0 0 1
32.666602 4.633977 -10.920715 34.754031 0.140917 1.890440 0.099965 -0.033277 253350.000000 0 0 1
32.833502 4.960877 -12.306315 35.413197 0.149958 1.925707 0.093292 -0.025354 551378.000000 0 0 1
31.702402 5.721577 -12.702415 34.628458 0.178556 1.946385 0.109331 -0.031813 85765.800000 0 0 1
31.825802 6.501277 -13.990215 35.367703 0.201505 1.977479 0.089451 -0.030497 -382623.000000 0 0 1
31.799302 5.671177 -15.108515 35.659852 0.176487 2.008305 0.086594 -0.021746 183828.000000 0 0 1
32.232402 6.357477 -16.265315 36.659320 0.194739 2.030507 0.091355 -0.025810 -277634.000000 0 0 1
31.129802 7.343277 -16.817015 36.135859 0.231657 2.054864 0.097688 -0.023813 344620.000000 0 0 1
30.077602 6.835877 -17.583915 35.504724 0.223478 2.088925 0.067271 -0.018236 -372491.000000 0 0 1
29.134602 6.147077 -16.818515 34.197574 0.207939 2.084957 0.059271 -0.012804 -663140.000000 0 0 1
27.730602 6.134577 -17.532015 33.376502 0.217714 2.123841 0.041085 -0.004839 487141.000000 0 0 1
27.596802 5.212277 -18.607915 33.689847 0.186674 2.155953 0.043511 -0.005087 173443.000000 0 0 1
26.408502 5.495777 -19.325215 33.182472 0.205178 2.192465 0.031730 -0.006952 154977.000000 0 0 1
25.895802 4.290177 -20.145915 33.088609 0.164180 2.225403 0.034649 0.012253 -116175.000000 0 0 1
25.469702 3.206677 -19.365615 32.156112 0.125243 2.217097 0.045071 -0.002674 116636.000000 0 0 1
25.058102 2.123677 -20.196315 32.253831 0.084548 2.247425 0.039959 -0.003452 -279326.000000 0 0 1
24.129602 1.112877 -19.445415 31.009682 0.046088 2.248590 0.043460 -0.007456 -246930.000000 0 0 1
22.885302 1.741777 -19.310315 29.994318 0.075963 2.270249 0.062110 -0.019739 -766340.000000 0 0 1
21.969402 0.861577 -18.719715 28.876022 0.039197 2.276118 0.067550 -0.020790 455626.000000 0 0 1
20.584702 1.543577 -18.405315 27.656251 0.074847 2.298964 0.067058 -0.026322 244456.000000 0 0 1
19.880602 1.851477 -19.603115 27.981216 0.092862 2.347008 0.058913 -0.028524 848788.000000 0 0 1
18.782702 2.759577 -19.397615 27.141714 0.145878 2.366962 0.040165 -0.026045 2261710.000000 0 0 1
17.379102 2.255777 -18.815215 25.712527 0.129077 2.391687 0.073214 -0.030818 793208.000000 0 0 1
17.493702 2.100377 -17.373315 24.744156 0.119493 2.349164 0.070297 -0.036846 595232.000000 0 1 0
16.268502 1.849077 -16.669915 23.365986 0.113174 2.365172 0.046595 -0.029724 723598.000000 0 1 0
15.385802 3.113477 -16.450615 22.738500 0.199664 2.379611 0.049211 -0.023642 5082.330000 0 1 0
14.769602 3.627677 -17.618515 23.274734 0.240850 2.429476 0.053044 -0.018649 450049.000000 0 1 0
13.700602 4.506077 -17.261115 22.493495 0.317752 2.445545 0.062342 -0.029026 262086.000000 0 1 0
-20.314998 -21.537823 -17.534815 34.409980 0.814607 2.105499 0.074523 -0.023842 21060.400000 0 0 1
-20.070198 -22.142723 -18.791515 35.302041 0.834456 2.132119 0.070731 -0.021350 -34889.300000 0 0 1
-21.219498 -22.108623 -19.598415 36.375214 0.805916 2.139790 0.076328 -0.026720 -171977.000000 0 0 1
-21.019998 -23.003723 -20.836415 37.485568 0.830428 2.160183 0.063932 -0.016406 -89892.600000 0 0 1
-20.972298 -24.411923 -20.512815 38.164838 0.861043 2.138242 0.056925 -0.014395 223932.000000 0 0 1
-20.472998 -25.089163 -21.645515 38.950457 0.886369 2.160024 0.058357 -0.020204 -26896.400000 0 0 1
-20.197898 -26.611583 -21.459815 39.707117 0.921567 2.141771 0.057550 -0.004513 174978.000000 0 0 1
-21.400998 -27.367673 -21.489815 40.851002 0.907140 2.124750 0.069712 0.005732 265857.000000 0 0 1
-21.210298 -28.769273 -21.300115 41.608205 0.935502 2.108216 0.085463 -0.011222 605945.000000 0 0 1
-22.549298 -29.565713 -21.544715 42.974143 0.919227 2.095945 0.071462 -0.005963 744094.000000 0 0 1
-23.153998 -29.487943 -22.831715 43.896852 0.905144 2.117790 0.049904 -0.002344 360598.000000 0 0 1
-22.375898 -29.955663 -23.947415 44.401591 0.929239 2.140446 0.049117 -0.008636 -102003.000000 0 0 1
-22.923198 -29.360943 -25.291185 45.024238 0.907911 2.167264 0.043398 -0.001593 -605293.000000 0 0 1
-24.249098 -29.683443 -25.546995 46.062724 0.885821 2.158694 0.040860 0.003139 -445004.000000 0 0 1
-24.697098 -29.078483 -26.773765 46.608361 0.866694 2.182718 0.036145 0.006608 -241064.000000 0 0 1
-24.128998 -29.561173 -28.122785 47.402137 0.886231 2.205925 0.039890 -0.011385 -392765.000000 0 0 1
-24.746598 -30.711073 -28.700585 48.777943 0.892536 2.199866 0.026102 -0.001734 113256.000000 0 0 1
-24.228198 -30.929493 -29.990165 49.427210 0.906299 2.222767 0.053757 -0.008779 -100574.000000 0 0 1
-24.721698 -32.163083 -30.780295 50.922027 0.915475 2.219883 0.040668 -0.015710 68898.100000 0 0 1
-24.075298 -33.398333 -30.440395 51.202405 0.946212 2.207454 0.037222 -0.023039 172005.000000 0 0 1
-24.846998 33.785972 -30.924975 52.107767 -0.936690 2.206173 0.046329 -0.021091 200584.000000 0 0 1
-24.009898 32.486903 -30.838715 50.822244 -0.934331 2.222819 0.062831 -0.016764 297538.000000 0 0 1
-23.088098 32.316902 -31.895015 50.938536 -0.950453 2.247398 0.056814 -0.033945 -401275.000000 0 0 1
-22.427798 31.098538 -31.743185 49.777053 -0.945993 2.262314 0.055065 -0.025349 -909130.000000 0 0 1
-21.215798 31.094138 -32.662385 49.837606 -0.972043 2.285477 0.050941 -0.023718 -717113.000000 0 0 1
-21.393698 30.949908 -34.048408 50.743288 -0.965976 2.306344 0.045875 -0.021033 80840.400000 0 0 1
-21.057098 29.636008 33.767555 49.617962 -0.953042 0.822282 0.027321 -0.008867 -30588.800000 0 0 1
-21.279298 29.363028 32.264121 48.538330 -0.943687 0.843685 0.028521 -0.007238 30323.700000 0 0 1
-20.275398 30.068068 31.573039 48.083649 -0.977516 0.854458 0.029466 -0.000823 439680.000000 0 0 1
-20.522898 29.993848 30.229289 47.271875 -0.970728 0.876978 0.042010 -0.001022 -313932.000000 0 0 1
-20.031898 31.226748 29.421929 47.350150 -1.000421 0.900307 0.029650 -0.007615 -245316.000000 0 0 1
-20.959198 32.292543 29.393709 48.436417 -0.995095 0.918703 0.040972 -0.009916 -49083.100000 0 0 1
-20.413598 33.522912 29.053289 48.832307 -1.023826 0.933580 0.022993 -0.013249 -55872.900000 0 0 1
-21.376298 -33.512573 29.259699 49.357559 1.003003 0.936252 0.035791 -0.020288 231829.000000 0 0 1
-21.538798 -33.264733 30.617589 50.078928 0.996183 0.912985 0.024044 -0.015788 -261075.000000 0 0 1
-22.413698 -32.185203 30.880449 49.918566 0.962492 0.903816 0.052853 -0.022454 -399735.000000 0 0 1
-21.916298 -30.703993 30.664169 48.614304 0.950873 0.888259 0.028797 -0.011139 -269932.000000 0 0 1
-21.561398 -30.439343 29.313389 47.441778 0.954495 0.904751 0.042228 -0.010532 -62299.800000 0 0 1
-21.775098 -29.133003 28.883069 46.444789 0.928937 0.899656 0.033618 -0.013141 233073.000000 0 0 1
-23.182598 -28.854613 28.254369 46.565340 0.893969 0.918808 0.042915 -0.003693 -324705.000000 0 0 1
-24.141998 -28.583413 29.253709 47.493442 0.869436 0.907202 0.041323 -0.005790 784374.000000 0 0 1
-25.282048 -29.479793 29.322099 48.662364 0.861903 0.924089 0.060454 -0.005430 969912.000000 0 0 1
-26.337308 -29.251263 28.203849 48.422591 0.837770 0.949054 0.053767 -0.007752 -814623.000000 0 0 1
-25.922128 -29.680413 26.953489 47.742792 0.852887 0.970901 0.072871 -0.000238 286646.000000 0 0 1
-26.987148 -29.597623 25.989439 47.747004 0.831499 0.995223 0.076410 -0.003855 486983.000000 0 0 1
-26.568678 -29.891793 24.537249 46.920044 0.844188 1.020478 0.072374 -0.011761 -279010.000000 0 0 1
-25.940398 -28.774473 23.910829 45.525842 0.837149 1.017829 0.058307 -0.005207 198779.000000 0 0 1
-25.539388 -29.026653 22.571879 44.769372 0.849220 1.042363 0.088380 -0.012126 -54157.400000 0 0 1
-24.285998 -29.874373 22.273679 44.479261 0.888216 1.046313 0.089879 -0.018874 -707413.000000 0 0 1
-24.492798 -31.299773 22.255679 45.550941 0.906803 1.060325 0.093288 -0.020038 2969.540000 0 0 1
-23.421098 -32.016063 21.691679 45.211780 0.939213 1.070393 0.088241 -0.014349 -78932.300000 0 0 1
-22.448498 -32.551183 22.793079 45.640322 0.967059 1.047883 0.082778 -0.008642 58346.500000 0 0 1
-21.884298 -31.513783 23.608569 45.048924 0.963815 1.019179 0.082908 -0.017774 16219.800000 0 0 1
-21.117998 -32.172853 24.578709 45.663719 0.989941 1.002432 0.056846 -0.017575 -402180.000000 0 0 1
-20.127698 -31.343563 25.381729 45.075219 0.999950 0.972667 0.038072 -0.005091 -1304880.000000 0 0 1
-18.947398 -30.989533 24.687089 43.918190 1.022027 0.973855 0.037459 -0.006002 13835.900000 0 0 1
-18.052698 -30.311673 25.532179 43.549852 1.033641 0.944344 0.052456 -0.012652 -81920.300000 0 0 1
-17.308898 -31.175113 26.602739 44.488103 1.063958 0.929825 0.027007 -0.014499 -1198350.000000 0 0 1
-18.117598 -31.745383 27.632619 45.821156 1.052188 0.923473 0.019315 -0.009267 413825.000000 0 0 1
-17.335398 -32.270233 28.733659 46.556494 1.077838 0.905645 0.020696 -0.010131 123035.000000 0 0 1
-17.790298 -31.695793 30.051149 47.161314 1.059332 0.879938 0.030839 -0.014751 66541.400000 0 0 1
-17.285798 -30.352823 30.267279 46.219053 1.053109 0.856791 0.033593 -0.014618 190845.000000 0 0 1
-17.759998 -29.773003 31.437749 46.799373 1.032944 0.834220 0.034820 -0.016156 -295862.000000 0 0 1
-17.506598 -28.251833 31.547879 45.824837 1.016045 0.811453 0.045028 -0.021510 508586.000000 0 0 1
-18.450398 -27.349533 30.884349 45.191339 0.977311 0.818369 0.035270 -0.020529 682677.000000 0 0 1
-18.573598 -27.372493 29.455589 44.292930 0.974612 0.843279 0.042302 -0.017592 -299068.000000 0 0 1
-17.348798 -27.051953 28.556969 42.991737 1.000551 0.844315 0.040721 -0.015923 104507.000000 0 0 1
-16.863998 -25.707263 28.716969 42.070442 0.990214 0.819492 0.044325 -0.010070 321545.000000 0 0 1
-15.721098 -25.478173 27.904709 40.926312 1.017940 0.820538 0.048395 -0.006409 79882.500000 0 0 1
-15.811998 -24.184723 27.136479 39.639735 0.991754 0.816772 0.046445 -0.002194 -60333.300000 0 0 1
-16.778498 -24.173223 26.092339 39.327762 0.964045 0.845365 0.050152 -0.006721 105790.000000 0 0 1
-16.696798 -23.041323 25.315719 38.086366 0.943720 0.843714 0.047504 -0.008710 26609.500000 0 0 1
-17.299898 -21.697723 25.811859 37.898941 0.897695 0.821572 0.056185 -0.006753 -474153.000000 0 0 1
-17.028298 -20.740523 24.837649 36.565572 0.883372 0.824038 0.057652 -0.011215 154506.000000 0 0 1
-17.421798 -19.472423 25.339799 36.397798 0.840922 0.800719 0.060612 -0.005403 -152244.000000 0 0 1
-16.994298 -18.283623 24.470509 34.955727 0.821930 0.795339 0.054775 -0.013512 506699.000000 0 0 1
-15.575998 -18.093523 24.480059 34.194452 0.860031 0.772874 0.055951 -0.021960 336471.000000 0 0 1
-15.331398 -16.983523 23.612229 32.879008 0.836479 0.769649 0.054855 -0.013318 -36053.800000 0 0 1
-13.906498 -16.432323 23.713679 32.027340 0.868460 0.737102 0.069719 -0.019916 -5454.680000 0 0 1
-12.852898 -17.232323 23.180989 31.615000 0.929950 0.747740 0.062990 -0.025036 357268.000000 0 0 1
-11.549898 -16.784623 23.475719 31.084290 0.968086 0.714795 0.067687 -0.023927 -545852.000000 0 0 1
-10.907698 -15.825023 22.503179 29.593957 0.967309 0.706871 0.088871 -0.023860 -402578.000000 0 0 1
-10.625898 -16.432223 21.214679 28.861571 0.996780 0.745057 0.104929 -0.022724 203235.000000 0 0 1
-9.564298 -17.387823 21.268579 29.088909 1.067909 0.750779 0.088191 -0.024895 -571363.000000 0 0 1
-9.529898 -18.528523 20.227479 29.039215 1.095745 0.800208 0.092843 -0.022972 -254963.000000 0 0 1
-9.465098 -17.979923 18.892379 27.745048 1.086232 0.821767 0.090557 -0.028138 -52081.600000 0 0 1
-9.061298 -18.939023 17.949879 27.622307 1.124540 0.863432 0.086584 -0.028427 -81857.500000 0 0 1
-8.894998 -18.390823 16.545379 26.288646 1.120302 0.890049 0.087326 -0.030699 716836.000000 0 0 1
-7.771098 -17.468723 16.540979 25.281421 1.152227 0.857574 0.117310 -0.033156 611661.000000 0 0 1
-7.360098 -17.136823 15.185579 24.050853 1.165129 0.887446 0.131188 -0.042697 64093.400000 0 1 0
-6.019098 -16.387723 15.194979 23.144641 1.218799 0.854597 0.094414 -0.033522 121469.000000 0 1 0
-6.260898 -15.104523 15.687079 22.658992 1.177849 0.806109 0.099983 -0.040621 121530.000000 0 1 0
-5.036998 -14.407323 15.803879 21.970546 1.234466 0.767972 0.074449 -0.026751 -556521.000000 0 1 0
-4.855898 -13.750923 17.215179 22.561694 1.231334 0.702813 0.034130 0.008924 -516330.000000 0 1 0
-4.813498 -14.597523 18.412079 23.984622 1.252276 0.695612 0.060389 0.017312 114132.000000 0 1 0
-6.054498 -15.230823 18.732579 24.890649 1.192433 0.718802 0.105681 -0.018238 879484.000000 0 1 0
-7.192198 -14.304923 19.254679 25.041989 1.104929 0.693684 0.128744 -0.027853 -167134.000000 0 0 1
-6.964598 -13.673923 20.513279 25.617892 1.099709 0.642266 0.112156 -0.022497 -177006.000000 0 0 1
-8.086198 -12.951223 21.010079 25.971989 1.012659 0.628430 0.117330 -0.019513 315011.000000 0 0 1
-7.809098 -11.923923 22.121779 26.316061 0.990977 0.572371 0.102418 -0.005093 -406923.000000 0 0 1
-7.088398 -10.788223 21.711179 25.258789 0.989481 0.536409 0.057417 0.001177 -85470.400000 0 0 1
-6.735898 -9.892723 22.698279 25.660284 0.973008 0.485228 0.045910 -0.000322 -250319.000000 0 0 1
-5.312198 -10.204823 23.171679 25.870535 1.090838 0.460842 0.039247 0.002176 -474449.000000 0 0 1
-5.243498 -11.220123 24.092269 27.089165 1.133625 0.474833 0.060200 0.010172 349588.000000 0 0 1
-3.865398 -11.526923 24.297099 27.169105 1.247244 0.463951 0.042613 0.007256 397171.000000 0 0 1
-3.818398 -12.713323 25.294739 28.566284 1.279022 0.483280 0.050856 -0.001391 17317.600000 0 0 1
-2.506198 -13.141723 25.602919 28.887634 1.382354 0.481517 0.027893 -0.001237 42281.200000 0 0 1
-2.504398 -14.143023 26.669449 30.291197 1.395536 0.494016 0.035584 -0.010050 -60827.800000 0 0 1
-2.540898 -15.631823 26.179969 30.597399 1.409659 0.544035 0.049592 -0.018939 -169833.000000 0 0 1
-1.333898 -15.945323 25.538269 30.136951 1.487336 0.559714 0.039167 -0.021031 -231030.000000 0 0 1
-1.460498 -17.175623 24.807709 30.208567 1.485967 0.607260 0.054178 -0.018758 937619.000000 0 0 1
-0.105098 -18.040923 24.789539 30.659537 1.564971 0.629125 0.053685 -0.023781 1398190.000000 0 0 1
0.301802 -18.544223 26.055139 31.982019 -1.554523 0.618618 0.057968 -0.030760 -31804.200000 0 0 1
0.787702 -17.606923 26.963809 32.212904 -1.526088 0.578928 0.059887 -0.033333 -889128.000000 0 0 1
1.578302 -18.131823 28.175079 33.542348 -1.483969 0.573540 0.053860 -0.030985 -941335.000000 0 0 1
2.748702 -18.833823 27.747509 33.648068 -1.425875 0.601233 0.062105 -0.032197 647722.000000 0 0 1
3.577202 -19.043423 28.920869 34.811851 -1.385116 0.590295 0.066056 -0.039268 543335.000000 0 0 1
4.387302 -17.808523 29.469699 34.711022 -1.329247 0.556704 0.073646 -0.029195 -818750.000000 0 0 1
3.557002 -16.746023 29.864419 34.423322 -1.361498 0.520514 0.062472 -0.038335 138432.000000 0 0 1
4.375602 -15.731723 30.453109 34.554665 -1.299514 0.492185 0.070821 -0.039760 30640.800000 0 0 1
3.533202 -14.676923 31.172209 34.635274 -1.334560 0.450996 0.075027 -0.038805 87943.500000 0 0 1
2.698902 -15.303823 32.148146 35.707063 -1.396236 0.450269 0.078692 -0.041303 356903.000000 0 0 1
1.859202 -14.305323 32.750568 35.786849 -1.441555 0.414900 0.066552 -0.028406 38262.200000 0 0 1
0.980602 -14.891523 33.843518 36.987873 -1.505042 0.415314 0.054208 -0.025118 126756.000000 0 0 1
1.744502 -14.998423 -33.122905 36.402237 -1.455004 2.713873 0.085930 -0.025205 29481.400000 0 0 1
0.939702 -15.573723 -32.107955 35.697965 -1.510530 2.689269 0.060976 -0.029762 362532.000000 0 0 1
1.623502 -15.593423 -30.692895 34.465119 -1.467056 2.669348 0.086430 -0.024102 -254480.000000 0 0 1
0.944702 -16.308123 -29.743085 33.933736 -1.512933 2.639349 0.074269 -0.023226 -662254.000000 0 0 1
1.376102 -16.151923 -28.399785 32.700552 -1.485804 2.622925 0.077993 -0.014431 -36782.900000 0 0 1
1.056302 -17.375523 -27.573735 32.608825 -1.510079 2.578468 0.087236 -0.020569 243336.000000 0 0 1
1.958202 -18.464223 -27.844475 33.467550 -1.465137 2.553471 0.107358 -0.029179 220885.000000 0 0 1
1.624102 -19.605523 -27.141435 33.521213 -1.488146 2.514402 0.104676 -0.023480 -612710.000000 0 0 1
2.508102 -20.880923 -27.446775 34.577869 -1.451255 2.487774 0.105579 -0.029771 430086.000000 0 0 1
3.820502 -20.884523 -26.908905 34.276066 -1.389862 2.473596 0.104387 -0.030531 144216.000000 0 0 1
3.862502 -20.917823 -25.493595 33.202374 -1.388202 2.446235 0.099860 -0.028717 -1640370.000000 0 0 1
5.334102 -20.911023 -25.048065 33.062503 -1.321037 2.430421 0.102728 -0.022025 -139734.000000 0 0 1
6.018902 -22.136623 -25.115655 34.015488 -1.305316 2.401431 0.101656 -0.022202 242802.000000 0 0 1
6.271002 -22.623923 -26.421395 35.344837 -1.300400 2.415135 0.096590 -0.023846 -1270970.000000 0 0 1
5.483002 -23.924223 -26.660755 36.238483 -1.345505 2.397500 0.070366 -0.031813 -312458.000000 0 0 1
5.843002 -25.130313 -26.036795 36.654986 -1.342347 2.360750 0.090353 -0.025215 -226103.000000 0 0 1
5.151502 -26.252853 -26.536485 37.682029 -1.377032 2.352122 0.080787 -0.021420 -150538.000000 0 0 1
5.324702 -27.618763 -25.853675 38.204202 -1.380340 2.314099 0.090437 -0.023633 515716.000000 0 0 1
6.647302 -28.143663 -26.010585 38.894767 -1.338855 2.303313 0.113569 -0.026514 290657.000000 0 0 1
6.857102 -29.273733 -25.164565 39.207482 -1.340704 2.267680 0.114354 -0.030951 168279.000000 0 0 1
8.319202 -29.795023 -25.110305 39.843192 -1.298516 2.252643 0.103437 -0.033447 293942.000000 0 0 1
8.843302 -30.105293 -26.412925 41.014330 -1.285087 2.270502 0.108865 -0.034888 -422201.000000 0 0 1
10.054702 -30.788283 -26.460285 41.822985 -1.255140 2.255797 0.143077 -0.024090 -343449.000000 0 0 1
10.715102 -30.557243 -27.841445 42.704854 -1.233537 2.280950 0.133394 -0.040980 451854.000000 0 0 1
9.840902 -30.967503 -28.898675 43.485205 -1.263107 2.297706 0.126835 -0.040131 782088.000000 0 0 1
10.584802 -30.871033 -30.120385 44.410543 -1.240486 2.316142 0.120620 -0.036743 418385.000000 0 0 1
-34.725992 -4.774223 -5.644115 35.504137 0.136626 1.730444 0.171735 -0.037417 52026.000000 0 0 1
-34.576263 -4.139423 -4.375415 35.096967 0.119152 1.695788 0.163724 -0.048696 559336.000000 0 0 1
-33.691278 -2.994123 -4.434715 34.113541 0.088637 1.701164 0.170159 -0.053484 228987.000000 0 0 1
-34.229225 -1.651423 -5.055415 34.639923 0.048209 1.717261 0.203639 -0.043786 -311885.000000 0 0 1
-35.280093 -1.073923 -4.298415 35.557203 0.030431 1.691980 0.160097 -0.043147 415609.000000 0 0 1
-35.900968 0.019277 -4.980715 36.244826 -0.000537 1.708651 0.140722 -0.046100 612277.000000 0 0 1
36.516535 0.722377 -4.176415 36.761686 0.019780 1.684650 0.155626 -0.046323 564514.000000 0 0 1
-36.511668 1.498777 -3.121515 36.675497 -0.041026 1.656011 0.152656 -0.038682 274092.000000 0 0 1
36.041915 2.355277 -2.641215 36.215231 0.065255 1.643792 0.129254 -0.034922 -605716.000000 0 0 1
36.692185 3.463377 -1.799715 36.899192 0.094111 1.619590 0.120544 -0.035719 369904.000000 0 0 1
-36.222738 4.551077 -2.535015 36.595428 -0.124987 1.640123 0.146084 -0.043593 497894.000000 0 0 1
-35.001909 4.167477 -3.140615 35.388769 -0.118506 1.659659 0.124374 -0.037075 -1035990.000000 0 0 1
-33.981418 5.299077 -3.053815 34.527421 -0.154695 1.659358 0.111794 -0.042636 -500395.000000 0 0 1
-33.470708 5.479677 -1.758915 33.961875 -0.162276 1.622610 0.124563 -0.040151 202085.000000 0 0 1
-33.054938 6.797277 -1.502415 33.780011 -0.202809 1.615287 0.132883 -0.048300 -445939.000000 0 0 1
-32.448688 7.043477 -0.149115 33.204671 -0.213749 1.575287 0.138276 -0.040106 373214.000000 0 0 1
-31.006428 7.004677 -0.171115 31.788258 -0.222181 1.576179 0.155266 -0.036102 1279530.000000 0 0 1
-30.404608 7.444077 1.064585 31.320725 -0.240111 1.536800 0.160550 -0.034178 75639.700000 0 0 1
-30.427428 8.976177 1.359785 31.752939 -0.286866 1.527959 0.166823 -0.028897 -460649.000000 0 0 1
-31.705348 9.529677 1.581585 33.144310 -0.291980 1.523060 0.149378 -0.027486 -47333.300000 0 0 1
-31.702668 10.909077 1.688285 33.569591 -0.331414 1.520483 0.138943 -0.016383 -180936.000000 0 0 1
-33.125928 11.478177 1.808585 35.104795 -0.333555 1.519254 0.139741 -0.025376 -550632.000000 0 0 1
-33.793498 11.726577 0.607585 35.775443 -0.334006 1.553812 0.119034 -0.022368 624402.000000 0 0 1
-35.038223 12.421577 0.727985 37.182020 -0.340691 1.551216 0.112411 -0.013891 876645.000000 0 0 1
-36.281778 11.489877 0.845785 38.067047 -0.306693 1.548576 0.109573 -0.032247 -100443.000000 0 0 1
-36.537918 10.704077 -0.324015 38.074949 -0.284984 1.579306 0.118217 -0.032894 387767.000000 0 0 1
35.881385 9.864777 -0.096615 37.212860 0.268299 1.573393 0.135796 -0.030622 573136.000000 0 0 1
35.665945 8.958477 -1.328115 36.797796 0.246086 1.606896 0.135139 -0.044376 162666.000000 0 0 1
35.067745 9.542877 -2.470715 36.426881 0.265693 1.638675 0.131350 -0.052227 165335.000000 0 0 1
34.846485 8.618677 -3.524715 36.069138 0.242467 1.668674 0.119979 -0.056857 1727.720000 0 0 1
34.109955 9.225377 -4.732315 35.650966 0.264140 1.703929 0.102822 -0.052091 1156980.000000 0 0 1
32.711485 9.549777 -4.525715 34.376178 0.284046 1.702832 0.125709 -0.048658 1313070.000000 0 0 1
32.130565 9.827077 -5.792515 34.095423 0.296813 1.741516 0.107414 -0.035939 -524423.000000 0 0 1
30.679265 10.323577 -5.734615 32.873688 0.324598 1.746137 0.126227 -0.034474 -334393.000000 0 0 1
29.761395 9.277677 -5.725115 31.695313 0.302188 1.752423 0.124447 -0.022821 -185063.000000 0 0 1
28.419605 9.640377 -5.831715 30.571551 0.327035 1.762729 0.127970 -0.013164 -93382.900000 0 0 1
27.320605 8.540577 -5.995715 29.245607 0.302981 1.777273 0.144918 -0.010013 153590.000000 0 0 1
27.403405 7.781177 -7.193815 29.381019 0.276667 1.818157 0.143524 -0.015174 780620.000000 0 0 1
26.301405 6.860177 -7.285415 28.140775 0.255145 1.832671 0.153718 -0.020814 480795.000000 0 0 1
26.453205 5.843777 -8.442715 28.376068 0.217418 1.872900 0.150287 -0.032512 -654109.000000 0 0 1
27.491705 4.982177 -8.174115 29.110687 0.179279 1.855418 0.137235 -0.033662 -291432.000000 0 0 1
27.509305 3.915577 -9.079415 29.232335 0.141387 1.886615 0.128527 -0.032746 -212476.000000 0 0 1
28.495115 2.777277 -8.710015 29.925728 0.097158 1.866125 0.119053 -0.030876 -326692.000000 0 0 1
29.843415 3.191277 -8.834615 31.286804 0.106529 1.857065 0.138142 -0.025770 759219.000000 0 0 1
30.828715 2.610577 -7.979115 31.951386 0.084479 1.823194 0.114753 -0.031960 418428.000000 0 0 1
31.061055 1.109377 -8.015815 32.097868 0.035701 1.823198 0.118003 -0.035389 -284660.000000 0 0 1
30.072405 0.450577 -7.176415 30.920115 0.014982 1.805028 0.128207 -0.035546 1026580.000000 0 0 1
30.277355 -0.957023 -7.044615 31.100815 -0.031598 1.799288 0.130425 -0.038160 -153164.000000 0 0 1
30.006635 -1.893823 -8.255015 31.178999 -0.063030 1.838753 0.121281 -0.029548 -984749.000000 0 0 1
31.085905 -1.951223 -9.103115 32.450076 -0.062686 1.855139 0.127847 -0.027635 -478384.000000 0 0 1
30.990025 -2.913123 -10.115715 32.729125 -0.093727 1.885015 0.114409 -0.037587 -134299.000000 0 0 1
32.183635 -2.949423 -11.110715 34.175041 -0.091388 1.901926 0.126933 -0.033449 -237688.000000 0 0 1
33.364405 -3.440523 -10.531115 35.155726 -0.102756 1.875024 0.140887 -0.027686 59754.400000 0 0 1
34.299695 -3.752723 -11.587715 36.398175 -0.108976 1.894795 0.137258 -0.039969 725462.000000 0 0 1
35.757995 -3.902423 -11.054315 37.630586 -0.108704 1.868953 0.132092 -0.033460 84250.500000 0 0 1
35.958585 -5.071323 -10.336915 37.756986 -0.140108 1.848112 0.129576 -0.034855 -111928.000000 0 0 1
-36.255178 -5.208323 -9.955115 37.956144 0.142681 1.836180 0.136649 -0.034362 -250675.000000 0 0 1
-35.991003 -6.613423 -9.335215 37.765539 0.181725 1.820574 0.123847 -0.032971 -102634.000000 0 0 1
-36.545948 -6.705123 -8.043215 38.016553 0.181453 1.783979 0.141163 -0.026590 450661.000000 0 0 1
36.290545 -7.896423 -7.760715 37.941875 -0.214249 1.776792 0.126911 -0.014622 -99053.400000 0 0 1
35.791765 -8.047923 -6.277615 37.218651 -0.221176 1.740275 0.128664 -0.008083 -882829.000000 0 0 1
-36.730098 -8.091423 -5.363615 37.991310 0.216831 1.712450 0.133093 -0.009489 -240319.000000 0 0 1
36.717275 -8.901323 -4.172315 38.010525 -0.237840 1.680785 0.126999 -0.015362 -376374.000000 0 0 1
-36.562808 -10.407823 -4.442615 38.273993 0.277321 1.687133 0.125112 -0.018931 448178.000000 0 0 1
35.882385 -11.094123 -5.050215 37.896303 -0.299858 1.704458 0.103192 -0.022330 837104.000000 0 0 1
36.326775 -12.218923 -5.753315 38.756126 -0.324473 1.719796 0.099868 -0.020792 -100585.000000 0 0 1
35.619745 -12.257923 -7.090715 38.331464 -0.331438 1.756852 0.089889 -0.020264 -117663.000000 0 0 1
36.119225 -11.272623 -7.988215 38.671463 -0.302516 1.778860 0.129324 -0.019651 210008.000000 0 0 1
35.977875 -11.742223 -9.312815 38.974553 -0.315474 1.812077 0.115401 -0.008089 -187278.000000 0 0 1
36.484645 -10.825623 -10.429415 39.460057 -0.288442 1.838278 0.105162 -0.017834 -464640.000000 0 0 1
35.625235 -9.727523 -10.663615 38.438194 -0.266554 1.851906 0.110207 -0.016482 417096.000000 0 0 1
36.050105 -9.100223 -11.838315 39.020121 -0.247267 1.879045 0.110886 -0.027807 -38093.000000 0 0 1
34.999965 -8.056123 -12.369415 37.985538 -0.226235 1.902479 0.109366 -0.030261 329273.000000 0 0 1
35.433255 -7.367923 -13.511615 38.631148 -0.205017 1.928111 0.115750 -0.027123 884167.000000 0 0 1
34.332275 -6.553023 -13.951315 37.633581 -0.188602 1.950575 0.119796 -0.033996 567912.000000 0 0 1
34.658675 -5.429323 -14.979015 38.145408 -0.155388 1.974342 0.110302 -0.036910 -605628.000000 0 0 1
35.609245 -4.516123 -14.566315 38.737465 -0.126151 1.956301 0.098482 -0.021509 -128283.000000 0 0 1
35.316475 -3.219223 -15.072915 38.533227 -0.090902 1.972695 0.127207 -0.035448 -913380.000000 0 0 1
36.554625 -2.425523 -15.307115 39.704301 -0.066256 1.966576 0.109380 -0.036982 -1266510.000000 0 0 1
-36.402028 -2.557123 -16.633515 40.103870 0.070132 1.998476 0.118577 -0.028981 653051.000000 0 0 1
-35.056025 -2.160923 -16.851115 38.955803 0.061564 2.018138 0.102061 -0.020337 264833.000000 0 0 1
-34.640499 -0.726423 -16.385215 38.327107 0.020967 2.012533 0.095388 -0.010027 -1089940.000000 0 0 1
-35.309373 0.268377 -17.084515 39.226324 -0.007601 2.021431 0.093203 -0.013392 78300.300000 0 0 1
-34.912833 1.582677 -16.683515 38.726612 -0.045301 2.016178 0.093774 -0.024393 239968.000000 0 0 1
-35.308518 2.570077 -17.805415 39.627384 -0.072661 2.036801 0.101181 -0.025808 740789.000000 0 0 1
-34.410386 2.480277 -18.942815 39.358058 -0.071955 2.072927 0.077347 -0.014761 698656.000000 0 0 1
-34.487087 3.668977 -19.691415 39.881981 -0.105988 2.087184 0.076916 -0.008685 80715.700000 0 0 1
-33.642898 3.593477 -21.023415 39.833926 -0.106409 2.126777 0.066458 -0.009858 335916.000000 0 0 1
-32.242768 3.547477 -20.815815 38.541910 -0.109583 2.141332 0.067060 -0.014268 107731.000000 0 0 1
-31.586998 3.920077 -22.026615 38.707586 -0.123473 2.176148 0.067876 -0.013670 283608.000000 0 0 1
-30.083608 4.147677 -21.736415 37.345662 -0.137008 2.192023 0.063757 -0.018317 69363.900000 0 0 1
-29.328158 3.186977 -21.075015 36.255399 -0.108241 2.191113 0.082259 -0.005758 -1670070.000000 0 0 1
-27.996868 3.290977 -21.306715 35.335977 -0.117011 2.218022 0.066817 -0.006761 -1383430.000000 0 0 1
-27.166638 2.369277 -20.364015 34.034289 -0.086993 2.212222 0.074981 -0.009600 -130459.000000 0 0 1
-26.941118 2.917377 -19.062215 33.131601 -0.107867 2.183826 0.054159 0.002666 -104670.000000 0 0 1
-26.234848 2.005077 -18.268415 32.031587 -0.076280 2.177698 0.055130 0.006275 -847691.000000 0 0 1
-25.460848 2.562277 -17.141415 30.800133 -0.100298 2.161008 0.066607 0.000013 -619504.000000 0 0 1
-24.460898 3.446877 -17.585615 30.322770 -0.139992 2.189461 0.050270 -0.008946 -406728.000000 0 0 1
-23.889698 3.976577 -16.433015 29.267300 -0.164943 2.166970 0.070548 -0.021434 361131.000000 0 0 1
-22.577298 4.824577 -16.583615 28.425820 -0.210525 2.193705 0.079428 -0.034007 727484.000000 0 0 1
-21.531798 4.174977 -17.277515 27.920625 -0.191522 2.238021 0.103355 -0.041412 -108347.000000 0 0 1
-20.303498 4.826377 -17.099915 26.980235 -0.233380 2.257245 0.100616 -0.041684 -916115.000000 0 0 1
-19.159298 4.070377 -17.695415 26.396485 -0.209337 2.305504 0.137562 -0.052976 -863707.000000 0 0 1
-18.947298 2.783077 -17.075315 25.657592 -0.145842 2.298970 0.169234 -0.050245 -158893.000000 0 0 1
-17.942498 2.043477 -17.720515 25.300706 -0.113402 2.346749 0.128967 -0.045135 -1056400.000000 0 0 1
-17.763598 0.688577 -16.999115 24.596534 -0.038744 2.333832 0.130315 -0.045497 302043.000000 0 1 0
-18.625298 -0.409923 -17.359715 25.464279 0.022005 2.320918 0.096324 -0.043480 1736530.000000 0 0 1
-20.037998 -0.089023 -17.234415 26.430179 0.004443 2.281112 0.107203 -0.055540 261169.000000 0 0 1
-21.025098 -1.142423 -17.675015 27.491200 0.054283 2.269119 0.090837 -0.052424 -566500.000000 0 0 1
-21.095198 -2.293723 -16.838315 27.088695 0.108307 2.241579 0.091121 -0.039485 -481200.000000 0 0 1
-22.097098 -3.129423 -17.223515 28.190859 0.140686 2.228070 0.081854 -0.021941 -789135.000000 0 0 1
-22.327498 -4.307223 -16.262815 27.956189 0.190570 2.191644 0.090610 -0.024646 -5365.390000 0 0 1
-22.615898 -3.755423 -14.956415 27.372914 0.164551 2.148850 0.082104 -0.033806 290430.000000 0 0 1
-22.952898 -4.739423 -14.026415 27.313696 0.203623 2.110091 0.087095 -0.044118 -152434.000000 0 0 1
-23.186098 -4.114223 -12.637215 26.724917 0.175616 2.063333 0.098498 -0.051299 27072.600000 0 0 1
-24.252098 -3.181023 -12.706715 27.563450 0.130420 2.049917 0.077393 -0.041062 420967.000000 0 0 1
-24.523098 -2.658323 -11.408615 27.177298 0.107979 2.004004 0.105501 -0.050970 -421836.000000 0 0 1
-25.328268 -1.360423 -11.383115 27.801929 0.053660 1.992632 0.126776 -0.047080 -247128.000000 0 0 1
-25.743688 -1.157523 -10.016115 27.647783 0.044933 1.941504 0.138827 -0.051766 487820.000000 0 0 1
-26.273788 0.118477 -9.828415 28.052161 -0.004509 1.928754 0.147948 -0.049555 -286029.000000 0 0 1
-26.612708 0.411377 -8.357815 27.897286 -0.015457 1.875062 0.146199 -0.045014 -433369.000000 0 0 1
-25.414968 0.658977 -7.686615 26.560100 -0.025923 1.864401 0.135341 -0.045471 186420.000000 0 0 1
-25.637638 0.775877 -6.294115 26.410346 -0.030254 1.811432 0.132176 -0.052553 -478526.000000 0 0 1
-24.367498 1.241277 -5.609315 25.035578 -0.050896 1.796768 0.086436 -0.036457 -481679.000000 0 0 1
-24.151198 2.648777 -5.673815 24.949721 -0.109238 1.800213 0.118372 -0.035209 -364682.000000 0 1 0
-22.786098 2.876977 -5.508515 23.618362 -0.125596 1.806195 0.091632 -0.017200 -645987.000000 0 1 0
-22.336998 4.311977 -5.504515 23.405861 -0.190696 1.808197 0.096860 -0.020927 -340672.000000 0 1 0
-22.725098 5.163077 -4.453715 23.725999 -0.223405 1.759631 0.093925 -0.024278 611864.000000 0 1 0
-22.257098 6.481377 -4.707515 23.654754 -0.283369 1.771143 0.081364 -0.028729 -415191.000000 0 1 0
-22.863998 7.463977 -3.663715 24.328917 -0.315544 1.721962 0.090080 -0.027145 -480860.000000 0 1 0
-22.324298 7.542177 -2.399915 23.685825 -0.325807 1.672293 0.082655 -0.017819 1281900.000000 0 1 0
-20.919398 7.866777 -2.268115 22.464455 -0.359692 1.671933 0.090924 -0.017228 1036850.000000 0 1 0
-20.413498 9.323677 -2.547315 22.586073 -0.428445 1.683819 0.080327 -0.017726 -558571.000000 0 1 0
-20.508998 9.673477 -3.897015 23.008301 -0.440728 1.740991 0.080954 -0.015876 496279.000000 0 1 0
-20.105498 11.036377 -4.136715 23.305473 -0.502016 1.749242 0.101437 -0.007525 -199494.000000 0 1 0
-20.083298 11.425077 -5.587315 23.771608 -0.517226 1.808058 0.116167 -0.016268 -295158.000000 0 1 0
-18.920098 10.879177 -6.153515 22.675810 -0.521839 1.845612 0.080873 -0.018229 145123.000000 0 1 0
-18.768698 11.378777 -7.459715 23.181630 -0.545012 1.898420 0.085928 -0.014388 411852.000000 0 1 0
-17.373098 11.083177 -8.097415 22.141127 -0.567858 1.945201 0.060479 -0.009313 204661.000000 0 1 0
-17.005298 9.775777 -8.468315 21.364886 -0.521734 1.978352 0.039384 -0.012427 132013.000000 0 1 0
-17.876998 9.044977 -9.304915 22.090272 -0.468401 2.005589 0.055046 -0.017364 -497654.000000 0 1 0
-18.009498 9.573677 -10.795115 23.076651 -0.488599 2.057589 0.066792 -0.015775 489433.000000 0 1 0
-16.819398 9.395177 -11.560815 22.468065 -0.509416 2.111272 0.060511 -0.017553 340581.000000 0 1 0
-16.986798 10.029277 -12.817315 23.524908 -0.533343 2.146995 0.077693 -0.019988 102414.000000 0 1 0
-15.887098 9.776977 -13.869815 23.245665 -0.551669 2.210132 0.053446 -0.010784 -307234.000000 0 1 0
-16.013298 8.567477 -14.643015 23.329065 -0.491272 2.249356 0.062258 -0.025897 -105270.000000 0 1 0
-15.558198 7.388977 -13.984815 22.186247 -0.443387 2.252784 0.050544 -0.014982 -136229.000000 0 1 0
-15.717598 6.128177 -14.878215 22.493527 -0.371763 2.293539 0.066501 -0.013707 266059.000000 0 1 0
-14.796998 6.067777 -15.970115 22.601187 -0.389156 2.355485 0.094013 -0.015927 274183.000000 0 1 0
-14.521198 4.739677 -16.364015 22.385503 -0.315495 2.390597 0.066338 -0.022224 -207764.000000 0 1 0
32.860955 -15.982523 28.042119 46.061305 -0.452683 0.916249 0.053674 0.010287 -21576.100000 0 0 1
32.141895 -14.774523 28.260109 45.277165 -0.430863 0.896743 0.062164 0.007619 279945.000000 0 0 1
31.040965 -14.752123 29.151469 45.066337 -0.443650 0.867341 0.069979 -0.003767 284232.000000 0 0 1
31.406895 -14.723823 30.651049 46.288992 -0.438385 0.847089 0.055893 -0.010051 34608.900000 0 0 1
32.147015 -13.589423 31.053029 46.716096 -0.399944 0.843680 0.035362 -0.010067 122121.000000 0 0 1
32.211395 -13.525623 32.448606 47.680483 -0.397545 0.822293 0.023954 -0.008609 -238772.000000 0 0 1
32.577945 -12.157423 33.058796 47.979260 -0.357174 0.810657 0.032774 -0.015071 -27147.900000 0 0 1
32.269905 -12.140023 -33.728705 48.232276 -0.359825 2.345210 0.016651 -0.024155 196850.000000 0 0 1
32.691135 -10.914123 -33.102215 47.786871 -0.322221 2.336030 0.047230 -0.019824 -98594.800000 0 0 1
32.175335 -10.740323 -31.666675 46.404580 -0.322176 2.321843 0.047252 -0.022620 -878780.000000 0 0 1
30.825925 -10.459823 -31.616005 45.378600 -0.327128 2.341606 0.096049 -0.024216 -988506.000000 0 0 1
30.464545 -10.137023 -30.280675 44.133514 -0.321224 2.326932 0.072559 -0.014940 6293.500000 0 0 1
28.936265 -10.117423 -30.050855 42.926956 -0.336359 2.346259 0.076574 -0.005329 148632.000000 0 0 1
28.581415 -10.229923 -28.666355 41.752946 -0.343715 2.327558 0.061647 -0.008954 337675.000000 0 0 1
27.532805 -11.139123 -28.345065 41.055793 -0.384445 2.332843 0.078463 -0.012494 -258067.000000 0 0 1
27.217005 -11.018823 -26.821175 39.768772 -0.384681 2.310986 0.077456 -0.013113 -732144.000000 0 0 1
26.541405 -9.849323 -26.368755 38.688068 -0.355341 2.320707 0.061882 -0.016198 -95462.700000 0 0 1
25.283905 -9.525923 -26.888505 38.118378 -0.360311 2.353776 0.068695 -0.017369 -33164.500000 0 0 1
24.112005 -10.520723 -26.572505 37.392144 -0.411426 2.361210 0.079766 -0.004613 -414679.000000 0 0 1
24.224605 -11.663423 -27.466455 38.435310 -0.448714 2.366870 0.083918 -0.012802 -186095.000000 0 0 1
23.498105 -12.759123 -26.986335 37.989715 -0.497442 2.360804 0.082158 -0.030005 22146.000000 0 0 1
24.144105 -14.089523 -27.490025 39.206555 -0.528243 2.347818 0.074441 -0.008623 366994.000000 0 0 1
24.025005 -14.058323 -28.887005 40.116036 -0.529432 2.374723 0.082227 -0.021039 -4243.900000 0 0 1
25.081205 -14.839723 -29.367285 41.372958 -0.534270 2.360037 0.067708 -0.024920 -183928.000000 0 0 1
25.281505 -14.595823 -30.904425 42.512069 -0.523585 2.384676 0.093957 -0.028422 388498.000000 0 0 1
24.296805 -15.265423 -31.720705 42.773485 -0.560961 2.406245 0.104758 -0.023646 638236.000000 0 0 1
24.791305 -15.681223 -33.035355 44.179681 -0.563995 2.415463 0.124966 -0.022926 202129.000000 0 0 1
24.885805 -14.618823 33.987045 44.588479 -0.531130 0.704032 0.091943 -0.018535 344461.000000 0 0 1
23.609105 -14.007023 33.817032 43.556609 -0.535470 0.681875 0.105414 -0.023598 230695.000000 0 0 1
23.547505 -13.083723 32.727454 42.388147 -0.507156 0.688673 0.087520 -0.019400 -131296.000000 0 0 1
22.532505 -11.874523 32.799170 41.527143 -0.485010 0.660273 0.087068 -0.026438 672641.000000 0 0 1
21.152705 -12.158923 32.726885 40.820648 -0.521696 0.640623 0.072668 -0.023570 112840.000000 0 0 1
20.750105 -12.596723 31.388269 39.679563 -0.545600 0.658283 0.060189 -0.018556 -587807.000000 0 0 1
19.211705 -12.792323 31.460349 39.019055 -0.587445 0.632957 0.057356 -0.012659 -26021.700000 0 0 1
18.557305 -11.578123 31.592649 38.425538 -0.557816 0.605569 0.043357 -0.010278 -588004.000000 0 0 1
17.348205 -11.759123 32.302174 38.505423 -0.595691 0.575538 0.029950 -0.004694 25177.300000 0 0 1
16.653605 -10.374923 32.377741 37.858945 -0.557148 0.544820 0.033348 -0.000660 -569642.000000 0 0 1
15.799805 -10.043823 31.257309 36.435307 -0.566252 0.539657 0.042888 -0.004136 256845.000000 0 0 1
15.105205 -8.836923 31.460999 36.000734 -0.529336 0.507630 0.055747 0.004630 503463.000000 0 0 1
13.971305 -8.750023 32.537044 36.474916 -0.559523 0.468960 0.057575 0.004882 -965871.000000 0 0 1
13.011005 -9.712523 32.350340 36.196185 -0.641248 0.465160 0.057031 0.000722 -669677.000000 0 0 1
11.827705 -9.598523 33.086290 36.424289 -0.681731 0.431456 0.060755 0.005763 318384.000000 0 0 1
10.660305 -8.765023 32.496178 35.305372 -0.688138 0.401613 0.067634 0.006795 -200099.000000 0 0 1
10.925705 -7.365123 32.592113 35.154827 -0.593138 0.384191 0.067546 0.004540 132112.000000 0 0 1
9.876105 -6.575523 32.070019 34.194460 -0.587403 0.354351 0.079449 0.006106 -5207.610000 0 0 1
10.319205 -5.100723 31.938779 33.949801 -0.459073 0.345917 0.088677 0.004001 110265.000000 0 0 1
10.334405 -4.539023 33.248646 35.112321 -0.413849 0.327273 0.079721 -0.001455 209699.000000 0 0 1
10.762505 -3.179023 33.136687 34.985393 -0.287212 0.326540 0.060307 -0.003761 -147973.000000 0 0 1
10.660305 -2.420123 -33.668135 35.398339 -0.223238 2.827645 0.052630 -0.004610 -191001.000000 0 0 1
9.336405 -2.169923 -33.264325 34.617804 -0.228361 2.861039 0.055781 0.006553 -253059.000000 0 0 1
9.253205 -1.531623 -32.039915 33.384485 -0.164036 2.856817 0.064676 0.002250 276493.000000 0 0 1
7.788305 -1.155423 -31.694625 32.657954 -0.147279 2.898103 0.061086 0.001496 145301.000000 0 0 1
7.226405 -0.296723 -32.655595 33.446926 -0.041038 2.923633 0.063347 0.003497 -221040.000000 0 0 1
5.827805 -0.187623 -32.489085 33.008168 -0.032183 2.964013 0.070186 0.001760 7556.840000 0 0 1
5.291005 0.885477 -33.457845 33.885192 0.165819 2.982607 0.077310 -0.004267 -216608.000000 0 0 1
5.733705 2.165077 -33.223495 33.784073 0.361053 2.959170 0.065109 -0.007416 -89165.100000 0 0 1
5.144105 3.011677 33.915459 34.435307 0.529661 0.173980 0.075510 -0.009811 264671.000000 0 0 1
5.706205 4.449477 33.843031 34.607938 0.662278 0.210637 0.071331 -0.017602 -212273.000000 0 0 1
5.203305 5.256777 32.871638 33.693511 0.790510 0.221325 0.091435 -0.032454 -326918.000000 0 0 1
6.084805 6.332277 32.565814 33.729139 0.805326 0.263402 0.089939 -0.028689 -384028.000000 0 0 1
5.551705 7.444977 31.715679 33.047442 0.930054 0.284858 0.103571 -0.029951 -390352.000000 0 0 1
4.438305 7.970577 32.464681 33.722161 1.062720 0.273947 0.105465 -0.036036 281204.000000 0 0 1
4.043905 9.195977 31.884969 33.430082 1.156501 0.305220 0.108583 -0.035691 339099.000000 0 0 1
3.431805 9.237077 30.406809 31.963650 1.215076 0.313392 0.110468 -0.026640 245184.000000 0 0 1
2.128305 8.773577 30.085789 31.411145 1.332812 0.291527 0.096952 -0.024269 166411.000000 0 0 1
1.945105 8.867377 28.685559 30.087790 1.354861 0.306500 0.069568 -0.006899 843161.000000 0 0 1
0.624205 8.167877 28.171599 29.338419 1.494523 0.282975 0.070173 -0.006842 1178910.000000 0 0 1
-0.551695 8.852777 28.588169 29.932582 -1.508558 0.300849 0.069998 -0.005119 443182.000000 0 0 1
-1.705395 8.454177 27.827479 29.133315 -1.371745 0.300539 0.058929 -0.000215 840846.000000 0 0 1
-3.041695 8.759477 28.528109 29.997222 -1.236577 0.314261 0.044892 -0.003641 -84805.800000 0 0 1
-3.223095 10.134177 28.833619 30.732190 -1.262870 0.353340 0.060599 -0.001140 -384116.000000 0 0 1
-4.597395 10.313777 29.056449 31.173503 -1.151480 0.370661 0.055444 -0.009837 -371156.000000 0 0 1
-4.929795 11.659977 29.710619 32.295183 -1.170794 0.402791 0.044291 -0.021955 -92935.000000 0 0 1
-5.049495 12.780077 28.915909 32.014958 -1.194515 0.443629 0.037319 -0.016198 -19108.500000 0 0 1
-6.060895 12.807777 27.939009 31.326695 -1.128801 0.469357 0.032737 -0.016014 -252155.000000 0 0 1
-6.296695 14.209377 27.337479 31.446662 -1.153665 0.516954 0.025152 -0.015608 -664277.000000 0 0 1
-5.297395 14.593777 26.476179 30.692487 -1.222596 0.530355 0.024222 -0.006369 -592111.000000 0 0 1
-5.475995 15.921877 26.051169 31.018641 -1.239540 0.573780 0.028071 -0.009405 -79346.800000 0 0 1
-4.172995 16.419077 25.397449 30.529173 -1.321911 0.588260 0.040377 -0.007501 -18891.700000 0 0 1
-4.041595 15.845077 24.091429 29.116969 -1.321052 0.596331 0.027547 -0.005016 43344.400000 0 0 1
-3.029195 16.629277 23.465599 28.919599 -1.390612 0.624239 0.041914 0.001270 221127.000000 0 0 1
-2.789795 16.188077 22.022879 27.474424 -1.400136 0.640867 0.030473 0.003456 126140.000000 0 0 1
-1.950495 15.041277 21.750979 26.516967 -1.441840 0.608920 0.021170 0.001258 345768.000000 0 0 1
-1.684095 14.932777 20.396579 25.334649 -1.458492 0.634975 0.008725 -0.001239 88288.100000 0 0 1
-1.093595 13.560877 19.988079 24.178847 -1.490327 0.597622 0.013722 -0.008464 -228906.000000 0 1 0
-1.962295 12.471077 19.909679 23.574853 -1.414728 0.565109 0.012671 -0.009710 10691.700000 0 1 0
-1.208895 11.389577 19.350679 22.486277 -1.465052 0.534438 0.015938 -0.017568 -652518.000000 0 1 0
-1.959695 10.110077 19.153079 21.746138 -1.379335 0.493336 0.007851 -0.018202 -1315700.000000 0 1 0
-2.177295 9.491577 20.380879 22.587848 -1.345305 0.445735 0.020524 -0.022408 47668.800000 0 1 0
-3.218695 9.960077 21.206279 23.648877 -1.258230 0.458508 0.028155 -0.012215 3106.180000 0 1 0
-4.687795 9.892077 20.670479 23.390111 -1.128251 0.487029 0.031774 -0.007435 -211649.000000 0 1 0
-5.245895 8.592377 20.716079 23.032679 -1.022671 0.452353 0.031222 -0.021508 718901.000000 0 1 0
-6.676395 8.750377 20.749279 23.487783 -0.919037 0.487712 0.043631 -0.016382 1029790.000000 0 1 0
-7.444895 7.404577 20.875679 23.367674 -0.782683 0.466035 0.044873 -0.022477 47017.100000 0 1 0
-7.227195 6.836977 22.162179 24.292772 -0.757660 0.421942 0.038199 -0.022626 49271.800000 0 1 0
-7.868695 5.593377 22.183879 24.193526 -0.617964 0.410467 0.045759 -0.023430 73957.800000 0 1 0
-7.820895 4.869377 23.594729 25.329597 -0.556880 0.372258 0.035181 -0.020188 -205791.000000 0 0 1
-8.665995 5.418177 24.581559 26.621592 -0.558759 0.394030 0.034023 -0.012031 -57554.300000 0 0 1
-8.786195 4.557477 25.696659 27.536995 -0.478502 0.367667 0.041360 -0.004584 214674.000000 0 0 1
-9.734495 5.131077 26.788739 28.960747 -0.485094 0.389756 0.039494 -0.002267 285608.000000 0 0 1
-9.135195 6.285477 27.323589 29.487922 -0.602661 0.385521 0.027688 -0.005263 -112883.000000 0 0 1
-9.989095 6.740477 28.353499 30.808066 -0.593601 0.401880 0.027891 -0.007199 164901.000000 0 0 1
-9.400295 7.968077 29.085479 31.588303 -0.703123 0.400753 0.045207 -0.008425 -638100.000000 0 0 1
-8.410895 7.591877 29.962249 32.033047 -0.734263 0.361537 0.064025 -0.012026 -703381.000000 0 0 1
-8.147995 8.733777 30.777209 33.013714 -0.820083 0.370199 0.071212 -0.016746 147025.000000 0 0 1
-7.104895 8.499277 31.907349 33.775674 -0.874521 0.334166 0.093437 -0.018527 986311.000000 0 0 1
-5.765695 8.337977 31.438149 33.032141 -0.965799 0.311926 0.083484 -0.017813 65113.200000 0 0 1
-5.041095 7.325777 32.114319 33.322802 -0.968081 0.270138 0.092320 -0.019926 421740.000000 0 0 1
-3.526595 7.328177 31.788929 32.812727 -1.122271 0.250459 0.066064 -0.015164 564063.000000 0 0 1
-2.930995 8.600877 32.149326 33.408756 -1.242360 0.275452 0.065280 -0.017374 -1566750.000000 0 0 1
-1.576195 8.654477 31.994449 33.181759 -1.390646 0.268319 0.059691 -0.019287 -1110940.000000 0 0 1
-1.091395 10.069977 31.637959 33.219814 -1.462837 0.309841 0.061516 -0.016701 13481.400000 0 0 1
-1.167795 11.056177 32.643666 34.484949 -1.465563 0.328256 0.071776 -0.033845 43287.400000 0 0 1
-1.681795 12.283477 32.087179 34.399118 -1.434727 0.368716 0.070898 -0.032310 -28238.400000 0 0 1
-1.713695 13.427177 33.115464 35.775128 -1.443854 0.388030 0.069028 -0.035880 594619.000000 0 0 1
-0.427195 13.802177 33.608842 36.335064 -1.539855 0.389840 0.101356 -0.036265 244577.000000 0 0 1
-0.721095 14.891077 -33.719315 36.868094 -1.522409 2.725298 0.106081 -0.039642 429741.000000 0 0 1
0.543905 15.360677 -32.959775 36.367472 1.535402 2.705238 0.087794 -0.036210 288501.000000 0 0 1
1.431405 16.078277 -33.839535 37.492320 1.482003 2.696504 0.099357 -0.036870 180290.000000 0 0 1
2.622605 16.341777 -33.142685 37.045503 1.411669 2.678439 0.100766 -0.041171 89350.600000 0 0 1
3.683005 17.199277 -33.897195 38.188997 1.359845 2.662941 0.104389 -0.032694 483018.000000 0 0 1
3.280105 18.572177 34.012971 38.891735 1.395985 0.506278 0.085321 -0.030427 -169416.000000 0 0 1
4.407105 19.228377 33.538250 38.909732 1.345490 0.531693 0.062234 -0.009763 -248259.000000 0 0 1
4.135705 20.749177 33.410929 39.546461 1.374056 0.564507 0.061130 -0.024003 -67923.700000 0 0 1
4.004805 21.354777 -33.477865 39.910305 1.385413 2.565922 0.076606 -0.037987 131226.000000 0 0 1
3.561105 22.690677 -33.566685 40.672726 1.415125 2.541507 0.061134 -0.028134 43715.300000 0 0 1
3.444005 23.418777 -32.167375 39.937956 1.424781 2.507203 0.067237 -0.029613 -111093.000000 0 0 1
3.110405 24.802077 -32.092595 40.678647 1.446039 2.479862 0.072552 -0.021951 133039.000000 0 0 1
2.830805 25.115677 -30.762725 39.814017 1.458559 2.453818 0.077397 -0.033294 -68035.800000 0 0 1
2.413605 26.618377 -30.673285 40.684320 1.480369 2.424826 0.076082 -0.029838 -39931.700000 0 0 1
3.496205 27.536077 -30.641105 41.344121 1.444504 2.405539 0.085698 -0.031500 -54284.300000 0 0 1
3.228705 28.757877 -30.004335 41.685731 1.458993 2.374274 0.082796 -0.028109 25675.500000 0 0 1
4.405705 29.775777 -29.779225 42.341580 1.423899 2.350838 0.104549 -0.041712 578282.000000 0 0 1
5.412805 29.447677 -28.837385 41.569928 1.389015 2.337421 0.096132 -0.051796 104168.000000 0 0 1
6.154705 30.609477 -28.508885 42.279747 1.372370 2.310802 0.112390 -0.061045 -727499.000000 0 0 1
7.155105 30.281777 -27.370315 41.440508 1.338768 2.292244 0.122863 -0.056268 561136.000000 0 0 1
8.394605 29.681777 -27.791105 41.518945 1.295174 2.304143 0.118393 -0.048311 1140380.000000 0 0 1
9.521605 30.536977 -28.001195 42.511585 1.268544 2.289849 0.135074 -0.057074 170312.000000 0 0 1
9.440405 31.783777 -29.004185 44.051930 1.282076 2.289499 0.146832 -0.058328 -1614140.000000 0 0 1
8.808405 32.813277 -28.360015 44.255956 1.308539 2.266360 0.143873 -0.060920 -60878.000000 0 0 1
8.833005 34.021977 -29.050195 45.600776 1.316778 2.261468 0.131952 -0.056378 111072.000000 0 0 1
7.651505 -34.008194 -30.053335 46.025056 -1.349491 2.282306 0.092875 -0.037132 38429.700000 0 0 1
7.545705 33.322477 -31.154735 46.237892 1.348107 2.310125 0.073485 -0.033292 171878.000000 0 0 1
6.205505 33.315777 -31.617475 46.347751 1.386643 2.321535 0.059768 -0.020481 9369.120000 0 0 1
5.939605 32.445777 -32.846355 46.549870 1.389739 2.354089 0.060879 -0.042400 -63539.000000 0 0 1
6.064005 33.220377 -33.997475 47.918618 1.390245 2.359562 0.060073 -0.033232 294803.000000 0 0 1
5.940105 32.295277 33.052427 46.591123 1.388898 0.782129 0.066685 -0.030014 -119431.000000 0 0 1
5.674105 32.928877 31.613439 45.999086 1.400158 0.813083 0.052816 -0.024656 149718.000000 0 0 1
6.733805 33.681477 31.059919 46.308796 1.373472 0.835626 0.056271 -0.025092 459575.000000 0 0 1
6.179605 -33.720494 30.038589 45.580435 -1.389548 0.851276 0.030899 -0.031158 92879.700000 0 0 1
17.703402 -22.372023 29.026479 40.699562 -0.901371 0.776759 0.111674 -0.000563 -246733.000000 0 0 1
16.964402 -21.253623 29.506439 40.126517 -0.897161 0.744635 0.094025 -0.000084 -767493.000000 0 0 1
15.606602 -21.465323 29.627109 39.775516 -0.942138 0.730474 0.093262 0.002242 -880988.000000 0 0 1
15.172402 -21.929223 30.989189 40.883033 -0.965540 0.710561 0.089289 -0.010734 -702690.000000 0 0 1
15.630002 -23.202823 31.363969 42.028163 -0.977992 0.728369 0.129088 -0.008663 -3759.520000 0 0 1
15.503402 -23.367123 32.759607 43.122729 -0.985010 0.707971 0.096761 -0.017022 -613539.000000 0 0 1
16.489102 -24.278023 33.426893 44.482244 -0.974182 0.720515 0.117463 -0.023198 -563644.000000 0 0 1
16.321202 -25.661143 33.178974 45.008002 -1.004306 0.741910 0.123857 -0.028455 225347.000000 0 0 1
17.301702 -26.376093 33.934104 46.331097 -0.990242 0.748918 0.115840 -0.032478 452404.000000 0 0 1
16.955902 -27.902683 33.986101 47.128732 -1.024749 0.765359 0.096437 -0.021335 162986.000000 0 0 1
17.012902 -28.414873 32.680907 46.528330 -1.031309 0.792050 0.085644 -0.019954 196713.000000 0 0 1
16.628202 -29.782233 32.672708 47.233297 -1.061583 0.806914 0.101986 -0.030013 -423340.000000 0 0 1
17.179602 -30.545053 31.464679 47.097399 -1.058456 0.839175 0.113428 -0.033985 -29271.300000 0 0 1
18.475202 -31.059053 31.647619 48.037169 -1.034179 0.851554 0.106067 -0.036087 -91744.300000 0 0 1
19.103702 -31.304793 30.389339 47.628284 -1.022875 0.878830 0.071091 -0.024336 -302605.000000 0 0 1
20.410802 -32.094413 30.461729 48.729551 -1.004354 0.895513 0.041572 -0.016845 -498698.000000 0 0 1
21.515102 -31.307303 30.818349 48.916433 -0.968697 0.889217 0.034769 -0.017699 780719.000000 0 0 1
22.707802 -32.139803 30.966679 50.075407 -0.955700 0.904090 0.031783 -0.010208 1565980.000000 0 0 1
23.966102 -31.258593 31.316139 50.320714 -0.916690 0.899079 0.031798 -0.020159 415247.000000 0 0 1
24.432302 -30.360503 30.380879 49.413513 -0.893172 0.908627 0.023917 -0.015591 264735.000000 0 0 1
25.445802 -29.439153 30.804339 49.629224 -0.858029 0.901175 0.015106 -0.011535 -524441.000000 0 0 1
26.532302 -29.263033 29.826199 49.496366 -0.834301 0.924049 0.024373 -0.005321 -1400390.000000 0 0 1
27.471902 -30.290623 29.868669 50.639556 -0.834158 0.939949 0.039768 -0.002709 -460719.000000 0 0 1
28.402402 -30.261163 28.806549 50.519815 -0.817073 0.964043 0.031149 -0.017750 -482365.000000 0 0 1
29.585702 -31.163913 29.025839 51.855593 -0.811371 0.976720 0.040419 -0.009040 -368035.000000 0 0 1
29.182402 -32.512903 29.166099 52.529637 -0.839329 0.982155 0.040029 -0.011495 -106782.000000 0 0 1
30.359902 -33.223483 29.413659 53.765108 -0.830404 0.991928 0.049713 -0.015151 -418045.000000 0 0 1
30.048302 33.559057 29.914809 54.074084 0.840536 0.984573 0.033669 -0.009840 -435126.000000 0 0 1
29.491402 33.505260 31.182249 54.448856 0.849028 0.961014 0.041016 -0.005951 1071900.000000 0 0 1
28.187902 34.033661 31.521459 54.281215 0.879074 0.951200 0.016637 0.000616 1590750.000000 0 0 1
26.899102 33.558096 30.759299 52.875722 0.895100 0.949945 0.028725 -0.009118 314084.000000 0 0 1
26.438602 32.257903 31.085429 52.018034 0.884217 0.930305 0.020933 -0.000770 -138138.000000 0 0 1
25.092502 32.169368 30.673159 51.042576 0.908362 0.926129 0.005434 0.000268 182639.000000 0 0 1
24.480102 30.769688 30.521359 49.775521 0.898749 0.910716 0.019526 -0.006087 -51996.300000 0 0 1
24.795602 30.211688 29.248969 48.816700 0.883543 0.928346 0.026834 -0.017518 263520.000000 0 0 1
24.169202 28.950318 29.141929 47.660500 0.875163 0.912907 0.062852 -0.048713 -109628.000000 0 0 1
23.419502 28.694028 27.791589 46.305429 0.886267 0.927070 0.056303 -0.041406 -350909.000000 0 0 1
22.282302 29.499828 27.661939 46.172760 0.923888 0.928424 0.079112 -0.046401 -460694.000000 0 0 1
21.531502 28.932588 26.605259 44.816739 0.931020 0.935215 0.083708 -0.038684 -76440.300000 0 0 1
20.200902 29.644588 26.283559 44.471379 0.972638 0.938471 0.109855 -0.034960 59382.800000 0 0 1
20.304202 30.987878 25.807179 45.149969 0.990753 0.962357 0.101264 -0.035604 -283005.000000 0 0 1
19.028302 31.340988 25.335329 44.566947 1.025145 0.966142 0.111805 -0.032055 -308202.000000 0 0 1
18.917402 32.735865 24.717509 45.171454 1.046800 0.991789 0.118083 -0.030442 -268398.000000 0 0 1
19.626702 32.965427 23.527179 45.005055 1.033787 1.020702 0.109659 -0.027994 -311677.000000 0 0 1
20.912102 33.499021 23.662589 46.037143 1.012729 1.030968 0.098342 -0.021951 -672086.000000 0 0 1
21.631102 33.698465 22.362479 45.864710 1.000135 1.061486 0.089392 -0.027605 -530335.000000 0 0 1
21.312002 -33.388723 21.626179 45.129811 -1.002691 1.071054 0.102452 -0.023013 140807.000000 0 0 1
21.781102 -33.425133 20.309879 44.767701 -0.993270 1.099914 0.098659 -0.020579 -174124.000000 0 0 1
21.525302 -32.101993 19.521679 43.300953 -0.980125 1.103093 0.094597 -0.018284 238974.000000 0 0 1
22.232202 -30.941283 20.047479 43.052703 -0.947743 1.086428 0.085033 -0.013335 516042.000000 0 0 1
21.735102 -29.738643 19.515979 41.685429 -0.939651 1.083575 0.090643 -0.022334 -117986.000000 0 0 1
22.368202 -29.288263 18.199779 41.101956 -0.918568 1.112082 0.073836 -0.019912 -219532.000000 0 0 1
22.067902 -30.069733 17.054779 41.012762 -0.937685 1.141929 0.067074 -0.017039 324715.000000 0 0 1
22.620502 -29.444153 15.896279 40.389812 -0.915716 1.166283 0.063418 -0.014445 -203679.000000 0 0 1
22.165502 -30.071613 14.579279 40.101954 -0.935609 1.198715 0.067340 -0.030950 -672507.000000 0 0 1
22.877702 -31.161613 14.130979 41.159688 -0.937508 1.220346 0.077018 -0.028137 -309829.000000 0 0 1
22.914002 -31.332043 12.683479 40.836491 -0.939353 1.254981 0.074687 -0.035492 79179.500000 0 0 1
21.586902 -31.513463 11.851579 39.994407 -0.970205 1.269948 0.074865 -0.022922 454939.000000 0 0 1
20.887602 -32.691423 12.235879 40.678468 -1.002241 1.265270 0.075141 -0.025245 377334.000000 0 0 1
19.516502 -32.581783 11.854879 39.786990 -1.031112 1.268243 0.067231 -0.021208 372269.000000 0 0 1
18.570202 -33.410023 12.728679 40.287731 -1.063490 1.249345 0.061811 -0.018838 -353099.000000 0 0 1
18.287102 -32.748683 13.973279 40.026827 -1.061521 1.214188 0.054534 -0.015380 649677.000000 0 0 1
19.153002 -33.220243 15.042579 41.191033 -1.047801 1.196959 0.048654 -0.018349 -159329.000000 0 0 1
18.979002 -32.357873 16.326179 40.911839 -1.040337 1.160308 0.054745 -0.015851 1115940.000000 0 0 1
17.637602 -32.092733 16.818579 40.297557 -1.068274 1.140258 0.059704 -0.023397 911482.000000 0 0 1
16.799402 -33.126043 17.259979 40.956825 -1.101456 1.135787 0.054749 -0.018914 -395531.000000 0 0 1
17.128302 -33.911183 18.570479 42.287229 -1.103083 1.116143 0.054516 -0.027370 119757.000000 0 0 1
18.132102 33.349459 18.311979 42.146033 1.072803 1.121326 0.038621 -0.021749 299155.000000 0 0 1
18.405502 32.599760 19.475979 42.199771 1.056821 1.091090 0.048284 -0.021938 132401.000000 0 0 1
19.099502 31.231488 19.289279 41.379622 1.021930 1.085858 0.058442 -0.022657 -379648.000000 0 0 1
18.285202 30.180198 18.904179 40.031999 1.026074 1.078981 0.048995 -0.025695 -687927.000000 0 0 1
18.991502 28.942488 18.937979 39.458736 0.990088 1.070206 0.054950 -0.029638 14118.700000 0 0 1
18.178002 27.628828 18.735479 38.010658 0.988862 1.055376 0.068105 -0.031861 66152.400000 0 0 1
17.677702 27.049868 19.996279 38.000628 0.991949 1.016660 0.076032 -0.030510 311695.000000 0 0 1
17.280202 25.709178 19.847579 36.789858 0.979013 1.000971 0.080613 -0.036268 -1036590.000000 0 0 1
17.064102 24.828738 21.087379 36.774004 0.968664 0.960108 0.092058 -0.032721 695985.000000 0 0 1
15.829802 24.984478 21.808379 36.747955 1.006047 0.935448 0.097623 -0.030939 1349260.000000 0 0 1
14.694702 24.449528 21.099779 35.481183 1.029626 0.933935 0.100903 -0.029358 11305.500000 0 0 1
13.315902 24.630428 21.750879 35.455211 1.075177 0.910343 0.102296 -0.043083 -386875.000000 0 0 1
12.830102 25.938368 21.610579 36.116860 1.111448 0.929354 0.115683 -0.042731 -40461.400000 0 0 1
11.519002 26.086328 22.131979 36.097208 1.154973 0.910790 0.104407 -0.041346 -90424.000000 0 0 1
10.856602 27.221698 21.391079 36.283122 1.191306 0.940282 0.092433 -0.047220 -449508.000000 0 0 1
11.439102 28.474018 21.691979 37.578780 1.188792 0.955452 0.096272 -0.049242 42272.400000 0 0 1
11.348702 29.377228 20.595779 37.629785 1.202148 0.991630 0.093470 -0.050766 -34559.800000 0 0 1
11.855902 30.813898 20.838179 39.042137 1.203498 1.007784 0.099551 -0.045775 217665.000000 0 0 1
10.967402 31.579598 21.649979 39.828087 1.236534 0.996093 0.100369 -0.045755 196269.000000 0 0 1
11.430902 31.496308 22.962579 40.619737 1.222651 0.969992 0.082414 -0.043879 43853.100000 0 0 1
10.656902 32.446983 23.879579 41.672660 1.253456 0.960601 0.067965 -0.041699 309780.000000 0 0 1
9.295102 32.124768 24.112929 41.229031 1.289144 0.946097 0.055709 -0.044763 -142209.000000 0 0 1
9.057102 32.505446 25.409109 42.240478 1.299055 0.925376 0.049986 -0.026691 -1825500.000000 0 0 1
7.658502 32.479572 25.933349 42.262440 1.339232 0.910151 0.091647 -0.038391 -2266460.000000 0 0 1
6.814802 33.427872 25.334049 42.493273 1.369686 0.932050 0.088406 -0.039566 356111.000000 0 0 1
6.112902 32.888414 24.173239 41.271793 1.387025 0.945042 0.082854 -0.048507 165468.000000 0 0 1
4.939902 31.907298 24.434729 40.491163 1.417195 0.922965 0.072281 -0.053399 -458302.000000 0 0 1
5.495902 30.700678 24.907189 39.913715 1.393657 0.896912 0.052891 -0.042100 -103881.000000 0 0 1
4.819302 29.543178 24.482039 38.670341 1.409093 0.885250 0.041002 -0.035259 -1080850.000000 0 0 1
5.704202 28.323318 24.733019 38.032493 1.372059 0.862800 0.046103 -0.030234 673860.000000 0 0 1
6.837302 27.984858 23.914129 37.440440 1.331169 0.877957 0.058258 -0.031596 894312.000000 0 0 1
7.852302 28.989928 23.882419 38.372445 1.306280 0.899011 0.076637 -0.031557 -327114.000000 0 0 1
9.186702 28.555728 24.545709 38.759734 1.259542 0.885014 0.058659 -0.039756 -271358.000000 0 0 1
9.032602 28.282368 25.935119 39.422210 1.261663 0.852795 0.051343 -0.037102 731426.000000 0 0 1
10.299402 27.997368 26.538579 39.927766 1.218291 0.843751 0.067206 -0.017688 803271.000000 0 0 1
11.311202 29.129548 26.846869 41.197430 1.200411 0.861021 0.068083 -0.026185 -262887.000000 0 0 1
10.957102 29.993658 27.874809 42.387293 1.220544 0.853139 0.065348 -0.028540 -82268.900000 0 0 1
11.881102 31.052168 27.989979 43.460749 1.205364 0.871043 0.056727 -0.015929 -52853.100000 0 0 1
11.411502 32.308619 28.870139 44.805738 1.231271 0.870636 0.047872 -0.018857 -276679.000000 0 0 1
11.384402 31.987768 30.241279 45.468196 1.228876 0.843157 0.054319 -0.037018 -742945.000000 0 0 1
10.109502 31.925568 30.769209 45.477337 1.264127 0.827684 0.071241 -0.028236 -925596.000000 0 0 1
10.024502 31.766948 32.293539 46.395068 1.265123 0.800907 0.103223 -0.029384 -96900.000000 0 0 1
10.464602 30.494778 32.722609 45.937006 1.240228 0.777975 0.081433 -0.032740 226622.000000 0 0 1
10.558402 30.554768 -34.020176 46.930226 1.238085 2.381700 0.118003 -0.029402 -93917.100000 0 0 1
10.690102 29.157778 -33.412825 45.616567 1.219384 2.392741 0.100935 -0.023604 1358590.000000 0 0 1
11.941002 28.470658 -33.768365 45.754436 1.173666 2.400950 0.119271 -0.020389 1513550.000000 0 0 1
11.812502 27.070878 -33.513505 44.671274 1.159348 2.419199 0.118020 -0.025633 55900.300000 0 0 1
13.070202 26.315578 -34.002445 44.938916 1.109815 2.428950 0.115022 -0.025144 166856.000000 0 0 1
13.058402 24.896858 -33.678065 43.870121 1.087741 2.446004 0.087062 -0.025824 -82378.900000 0 0 1
13.312002 24.591118 -32.300645 42.723111 1.074631 2.428047 0.087508 -0.026690 -146584.000000 0 0 1
13.134202 23.082148 -32.006715 41.589935 1.053468 2.448977 0.077663 -0.045429 -77996.000000 0 0 1
14.140002 22.331848 -32.645455 42.004486 1.006339 2.460984 0.061048 -0.029321 42901.200000 0 0 1
14.092002 20.974348 -32.282205 40.995714 0.979201 2.477462 0.058142 -0.023988 376308.000000 0 0 1
15.300002 20.157548 -32.862435 41.477180 0.921547 2.485368 0.064879 -0.028184 907588.000000 0 0 1
16.567202 20.494448 -32.306425 41.691722 0.890969 2.457335 0.082314 -0.036777 298190.000000 0 0 1
17.608802 19.746848 -32.914065 42.229653 0.842571 2.464514 0.081409 -0.033495 24795.500000 0 0 1
18.934902 19.762948 -32.139375 42.214264 0.806793 2.436173 0.072823 -0.028245 -208929.000000 0 0 1
19.586302 21.011648 -32.253135 43.190014 0.820493 2.413993 0.088405 -0.018792 513704.000000 0 0 1
20.780002 21.189248 -31.475385 43.260751 0.795149 2.385575 0.074327 -0.008652 840181.000000 0 0 1
20.486002 21.686648 -30.012625 42.317191 0.813860 2.359202 0.073813 -0.015216 114224.000000 0 0 1
19.988002 23.047748 -30.041355 42.815908 0.856377 2.348493 0.070259 -0.008566 97707.500000 0 0 1
19.541302 23.559588 -28.820555 42.042135 0.878359 2.326109 0.070562 -0.007199 -251348.000000 0 0 1
20.681802 24.049678 -27.896885 42.241688 0.860547 2.292163 0.055595 -0.004136 266374.000000 0 0 1
21.341602 25.288368 -28.240635 43.502862 0.869837 2.277286 0.059297 -0.003258 -169441.000000 0 0 1
20.564102 26.477258 -28.323915 43.888172 0.910444 2.272298 0.052423 -0.000023 -512862.000000 0 0 1
21.287602 27.663688 -29.054905 45.416177 0.914923 2.264967 0.057348 0.000110 -315009.000000 0 0 1
21.440902 27.597718 -30.456945 46.357004 0.910295 2.287640 0.055969 -0.002497 34329.200000 0 0 1
22.094902 26.498728 -31.051705 46.417407 0.875777 2.303614 0.057778 -0.004835 988535.000000 0 0 1
23.544602 26.112328 -30.538595 46.570460 0.837061 2.285972 0.085708 -0.024733 1007930.000000 0 0 1
24.645502 26.926328 -30.924545 47.840939 0.829596 2.273658 0.079886 -0.018733 654375.000000 0 0 1
25.906302 26.366568 -30.591475 47.980942 0.794203 2.262143 0.080650 -0.029944 333786.000000 0 0 1
27.149702 27.142298 -31.061955 49.382747 0.785262 2.251068 0.058799 -0.020975 -249930.000000 0 0 1
27.340902 28.332978 -30.350385 49.713464 0.803216 2.227496 0.047929 -0.011708 416259.000000 0 0 1
28.587302 28.909848 -30.736685 50.968196 0.791008 2.218123 0.041842 -0.020967 425292.000000 0 0 1
28.973302 30.131378 -29.812385 51.343262 0.804989 2.190321 0.031890 -0.007097 74451.800000 0 0 1
29.323702 29.819798 -28.473955 50.595118 0.793786 2.168542 0.052667 -0.013596 285729.000000 0 0 1
28.669002 30.772278 -27.655075 50.335355 0.820768 2.152462 0.033379 -0.002653 -95819.900000 0 0 1
29.166602 30.828028 -26.137955 49.842258 0.813084 2.122823 0.046131 0.001543 694.886000 0 0 1
28.977202 29.707508 -25.235895 48.570204 0.797842 2.117151 0.036566 0.011802 -5076.660000 0 0 1
27.645602 29.255808 -25.096305 47.434230 0.813689 2.128307 0.046877 0.008630 277508.000000 0 0 1
26.929402 29.484758 -23.685515 46.427872 0.830664 2.106164 0.046005 0.014529 76328.200000 0 0 1
26.601902 30.785658 -23.414615 46.943180 0.858173 2.092994 0.051238 0.010771 283518.000000 0 0 1
25.878502 30.904668 -22.178215 46.007267 0.873683 2.073800 0.038631 0.017291 363595.000000 0 0 1
3.307702 -26.951553 -19.800015 33.606066 -1.448679 2.200840 0.075697 -0.016835 -216210.000000 0 0 1
3.381002 -27.868723 -18.783015 33.777190 -1.450067 2.160465 0.081174 -0.005067 177621.000000 0 0 1
2.907602 -27.380133 -17.548715 32.650930 -1.464999 2.138224 0.077196 -0.008304 -152504.000000 0 0 1
2.937702 -28.474713 -16.436015 33.008816 -1.467991 2.092004 0.069376 -0.000693 259910.000000 0 0 1
4.276602 -28.758193 -16.066615 33.218355 -1.423169 2.075636 0.067260 -0.006805 199296.000000 0 0 1
4.369102 -29.732663 -15.060715 33.614661 -1.424894 2.035368 0.066411 -0.005611 -645391.000000 0 0 1
5.784402 -30.225693 -14.918715 34.199706 -1.381709 2.022194 0.067193 -0.009357 -392072.000000 0 0 1
6.732902 -29.384963 -14.240915 33.340841 -1.345557 2.012114 0.059656 -0.000301 65886.100000 0 0 1
7.971602 -30.041883 -14.088815 34.125590 -1.311424 1.996379 0.052265 -0.001945 -58164.500000 0 0 1
8.212802 -30.746443 -12.704915 34.266729 -1.309776 1.950629 0.046855 -0.002209 -636683.000000 0 0 1
8.642802 -29.899563 -11.644315 33.230588 -1.289405 1.928805 0.049050 -0.000057 5625.110000 0 0 1
8.946402 -30.598503 -10.438415 33.545000 -1.286345 1.887227 0.051779 0.005039 -99108.200000 0 0 1
10.098702 -31.615413 -10.402015 34.781030 -1.261617 1.874516 0.043188 -0.002542 -294674.000000 0 0 1
11.306902 -30.995343 -10.008015 34.477785 -1.221004 1.865310 0.043392 -0.003748 110126.000000 0 0 1
12.288102 -31.933833 -9.538015 35.520992 -1.203463 1.842650 0.042647 -0.009338 717240.000000 0 0 1
13.364702 -31.161063 -8.717615 35.008912 -1.165635 1.822456 0.051862 -0.013211 524896.000000 0 0 1
14.424702 -30.450513 -9.378215 34.975087 -1.128401 1.842258 0.056999 -0.022839 698908.000000 0 0 1
15.461702 -30.211403 -8.437715 34.971247 -1.097766 1.814477 0.066406 -0.024971 -590287.000000 0 0 1
16.629902 -29.471573 -9.038915 35.026122 -1.057064 1.831812 0.084805 -0.033436 -701472.000000 0 0 1
16.527002 -28.089273 -9.349715 33.905254 -1.038969 1.850177 0.077885 -0.032707 -61091.900000 0 0 1
15.940002 -27.781433 -10.619815 33.744216 -1.049891 1.890953 0.070026 -0.033106 85082.100000 0 0 1
15.485602 -26.287533 -10.834215 32.376202 -1.038441 1.912014 0.064467 -0.031505 -302189.000000 0 0 1
14.352002 -25.967623 -10.040615 31.322697 -1.065891 1.897111 0.050354 -0.023790 538922.000000 0 0 1
13.719302 -24.714523 -10.301015 30.085508 -1.064038 1.920257 0.054945 -0.020252 260057.000000 0 0 1
12.987302 -24.539323 -11.665815 30.115438 -1.084028 1.968573 0.046629 -0.020077 -457714.000000 0 0 1
13.798902 -24.136723 -12.759615 30.590830 -1.051448 2.001055 0.040516 -0.017610 -157829.000000 0 0 1
13.274902 -24.541823 -13.983015 31.209755 -1.074959 2.035361 0.058485 -0.024809 -567876.000000 0 0 1
13.952002 -23.816023 -15.136315 31.479666 -1.040865 2.072396 0.055826 -0.026529 435069.000000 0 0 1
15.282702 -24.265423 -15.415615 32.557840 -1.008743 2.064038 0.048032 -0.027152 390181.000000 0 0 1
15.760602 -23.710523 -16.628215 32.970942 -0.984150 2.099402 0.047618 -0.030222 -921341.000000 0 0 1
16.813202 -24.686823 -17.148915 34.441374 -0.972895 2.091991 0.049441 -0.027744 -75273.800000 0 0 1
18.099302 -24.791123 -16.574815 34.884223 -0.940172 2.065917 0.067198 -0.032317 297607.000000 0 0 1
18.923002 -23.620923 -16.818815 34.625143 -0.895378 2.078006 0.066289 -0.035856 7414.380000 0 0 1
20.395002 -23.850223 -16.370815 35.394814 -0.863333 2.051632 0.056926 -0.029316 170329.000000 0 0 1
21.072902 -24.731023 -17.241315 36.782518 -0.865094 2.058656 0.076807 -0.030677 -158580.000000 0 0 1
22.441902 -24.829723 -16.882615 37.485688 -0.835868 2.037982 0.083008 -0.014405 233097.000000 0 0 1
23.103002 -25.913303 -17.783515 39.006427 -0.842669 2.044193 0.091207 -0.017416 -107841.000000 0 0 1
23.849602 -25.479073 -18.927415 39.701810 -0.818419 2.067738 0.093569 -0.026167 158077.000000 0 0 1
24.336502 -26.547293 -19.706715 41.053364 -0.828819 2.071482 0.089129 -0.030309 -335391.000000 0 0 1
25.570002 -26.185553 -20.568915 41.983192 -0.797291 2.082808 0.076346 -0.033262 -191471.000000 0 0 1
25.490902 -25.015423 -21.359415 41.614686 -0.775984 2.109783 0.078978 -0.035598 -112600.000000 0 0 1
25.950702 -23.856723 -20.677615 40.867419 -0.743381 2.101300 0.083849 -0.032932 -433191.000000 0 0 1
25.037202 -22.594723 -20.835215 39.642013 -0.734165 2.124198 0.085304 -0.033210 4778.220000 0 0 1
24.968702 -21.931423 -22.056815 39.886420 -0.720728 2.156746 0.076907 -0.029498 305816.000000 0 0 1
24.287002 -22.679423 -23.075515 40.456076 -0.751183 2.177770 0.064697 -0.023482 -137367.000000 0 0 1
23.587902 -21.891623 -24.212915 40.272789 -0.748118 2.215827 0.056295 -0.020714 -99482.000000 0 0 1
24.430402 -21.260723 -25.110915 40.980739 -0.716137 2.230331 0.057188 -0.019521 -508973.000000 0 0 1
23.610802 -20.754723 -26.104685 40.861756 -0.721111 2.263804 0.045348 -0.017145 -452294.000000 0 0 1
24.358202 -20.290623 -27.312675 41.845114 -0.694547 2.281951 0.049381 -0.014685 -392105.000000 0 0 1
23.588602 -19.292423 -27.972885 41.365469 -0.685543 2.313440 0.058859 -0.017667 300272.000000 0 0 1
24.080402 -18.917323 -29.255585 42.351153 -0.665892 2.333372 0.072313 -0.019641 180921.000000 0 0 1
23.178002 -17.875023 -29.995975 41.910556 -0.656936 2.368442 0.103805 -0.023690 -236812.000000 0 0 1
21.905402 -18.293723 -30.387565 41.688260 -0.695794 2.387545 0.103099 -0.023493 -83324.100000 0 0 1
21.111202 -17.223623 -30.865135 41.170288 -0.684333 2.418397 0.110081 -0.026280 -819767.000000 0 0 1
19.717202 -17.594123 -31.262095 40.934580 -0.728558 2.439835 0.087627 -0.022003 -992227.000000 0 0 1
19.799202 -18.157123 -32.543205 42.198930 -0.742163 2.451498 0.095888 -0.021894 887317.000000 0 0 1
18.548202 -18.764623 -32.914485 42.184241 -0.791198 2.465871 0.086189 -0.027995 563046.000000 0 0 1
18.588602 -19.700623 34.015987 43.482618 -0.814433 0.672464 0.128139 -0.019098 428029.000000 0 0 1
19.553102 -20.772423 -34.036467 44.410567 -0.815626 2.444022 0.122666 -0.015400 677667.000000 0 0 1
19.455002 -21.514523 32.906828 43.866059 -0.835625 0.722483 0.116070 -0.017290 -79843.900000 0 0 1
20.254002 -22.822823 32.946757 44.906510 -0.844961 0.747083 0.102647 -0.010383 -206509.000000 0 0 1
19.858602 -23.717723 33.972743 45.946074 -0.873728 0.738611 0.111531 -0.011320 143207.000000 0 0 1
20.306102 -23.494623 -32.791075 45.161817 -0.858066 2.383400 0.112653 -0.010568 -20336.600000 0 0 1
19.553002 -24.382323 -31.725125 44.534269 -0.894878 2.363674 0.109275 -0.017409 157295.000000 0 0 1
19.816302 -25.785623 -31.758095 45.455041 -0.915559 2.344334 0.112116 -0.026320 104159.000000 0 0 1
20.828702 -26.203413 -30.866925 45.532634 -0.899182 2.315709 0.097140 -0.029974 -184259.000000 0 0 1
21.050902 -27.715563 -30.798695 46.474214 -0.921222 2.295221 0.079965 -0.027493 -30115.100000 0 0 1
19.962702 -28.499243 -30.326265 46.156242 -0.959759 2.287675 0.080368 -0.031651 -22566.700000 0 0 1
20.185602 -29.883773 -30.375585 47.150552 -0.976724 2.270806 0.073050 -0.026645 1019390.000000 0 0 1
18.930602 -30.737813 -29.806845 46.814836 -1.018787 2.261003 0.107472 -0.031181 1969990.000000 0 0 1
17.735102 -30.788093 -30.606055 46.895321 -1.048183 2.281868 0.124662 -0.037068 571353.000000 0 0 1
17.795902 -31.314913 -31.885485 48.104075 -1.054021 2.295407 0.127155 -0.043676 -1091470.000000 0 0 1
16.413802 -31.784963 -32.326095 48.214865 -1.094114 2.305624 0.138861 -0.052845 -819424.000000 0 0 1
15.517802 -30.869373 -32.793285 47.635280 -1.104997 2.330111 0.133781 -0.044737 -1593660.000000 0 0 1
14.422602 -31.536233 -33.263915 48.052404 -1.141860 2.335388 0.095936 -0.037429 -1126120.000000 0 0 1
13.358402 -30.709563 -34.014970 47.734080 -1.160493 2.363984 0.086141 -0.027177 47016.100000 0 0 1
12.402302 -30.173483 -33.110195 46.481622 -1.180815 2.363607 0.102254 -0.031554 79299.700000 0 0 1
11.518802 -29.311683 -33.815305 46.209657 -1.196359 2.391726 0.075660 -0.024834 222482.000000 0 0 1
10.689602 -28.352993 -32.938835 44.756303 -1.210257 2.397879 0.080992 -0.033806 -150166.000000 0 0 1
9.553002 -28.887273 -32.318955 44.387490 -1.251418 2.386356 0.085917 -0.024868 -776082.000000 0 0 1
8.760502 -27.805103 -31.934815 43.240057 -1.265574 2.401709 0.062697 -0.024580 86565.200000 0 0 1
7.495502 -28.341033 -31.184835 42.800592 -1.312241 2.387083 0.053756 -0.022808 241037.000000 0 0 1
6.530602 -29.047033 -31.930535 43.657049 -1.349645 2.391161 0.055267 -0.024930 -282097.000000 0 0 1
6.756602 -30.405713 -32.159535 44.770467 -1.352134 2.372181 0.056518 -0.023304 -515634.000000 0 0 1
5.575102 -31.275073 -32.656305 45.559261 -1.394389 2.369980 0.072296 -0.032577 269991.000000 0 0 1
4.715302 -31.491173 -31.536015 44.815715 -1.422166 2.351363 0.075584 -0.041348 580975.000000 0 0 1
3.653702 -32.417703 -31.838055 45.584194 -1.458563 2.344019 0.086883 -0.059514 -388931.000000 0 0 1
2.826302 -32.891133 -30.627355 45.031650 -1.485078 2.318736 0.078164 -0.066012 135319.000000 0 0 1
1.730602 -32.070413 -30.291375 44.148316 -1.516886 2.326949 0.068755 -0.056344 438713.000000 0 0 1
0.522502 -32.297703 -31.025185 44.788132 -1.554620 2.336036 0.051597 -0.029940 423847.000000 0 0 1
-0.554698 -31.220143 -30.658475 43.760109 1.553031 2.347039 0.038001 -0.019209 188425.000000 0 0 1
-1.117398 -31.254053 -29.359495 42.895738 1.535059 2.324630 0.021092 -0.026606 -117226.000000 0 0 1
-1.845698 -30.108743 -29.055595 41.882820 1.509572 2.337459 0.056062 -0.023301 -57511.700000 0 0 1
-2.556498 -30.188583 -27.689865 41.044060 1.486314 2.311270 0.059220 -0.030456 -275013.000000 0 0 1
-1.594798 -30.038603 -26.712625 40.229658 1.517755 2.296956 0.039613 -0.029992 211899.000000 0 0 1
-2.258098 -30.390633 -25.473075 39.718599 1.496630 2.267038 0.055000 -0.039309 228776.000000 0 0 1
-1.260698 -30.734663 -24.406915 39.267116 1.529801 2.241530 0.031740 -0.028851 -242768.000000 0 0 1
-1.857198 -30.788863 -23.102615 38.537438 1.510549 2.213654 0.072485 -0.039656 -280786.000000 0 0 1
-0.924498 -31.180643 -22.152315 38.259800 1.541155 2.188295 0.067051 -0.026551 -3165.530000 0 0 1
-1.461098 -30.989813 -20.662215 37.275065 1.523684 2.158339 0.026086 -0.009974 173031.000000 0 0 1
-1.694598 -29.734763 -20.014815 35.883431 1.513867 2.162497 0.018884 -0.002039 91202.800000 0 0 1
-0.515398 -28.994903 -19.762415 35.093063 1.553023 2.168981 0.052962 -0.009522 -181968.000000 0 0 1
-0.640298 -27.568513 -19.128815 33.561056 1.547575 2.177266 0.050968 -0.012495 -32614.400000 0 0 1
-1.293298 -27.552773 -17.841415 32.850327 1.523892 2.144936 0.047704 -0.010669 368867.000000 0 0 1
-1.050898 -26.319493 -17.204415 31.461278 1.530889 2.149387 0.048269 -0.008675 -744.508000 0 0 1
-2.146898 -26.134183 -16.147915 30.795452 1.488831 2.122760 0.047389 -0.006116 -221046.000000 0 0 1
-2.035198 -24.934623 -15.424815 29.390515 1.489355 2.123303 0.050448 -0.005747 -187908.000000 0 0 1
-3.080298 -24.719523 -14.515515 28.831289 1.446825 2.098400 0.042524 -0.000802 -248651.000000 0 0 1
-2.813098 -23.573223 -13.497115 27.309018 1.452024 2.087753 0.048987 -0.004674 -313909.000000 0 0 1
-1.738498 -23.802923 -12.635315 27.004679 1.497889 2.057702 0.049623 0.001137 -374173.000000 0 0 1
-1.413098 -22.581123 -11.981015 25.601732 1.508299 2.057796 0.048061 -0.003438 711614.000000 0 0 1
-0.278498 -22.658423 -10.885815 25.139265 1.558506 2.018637 0.038125 -0.004021 751331.000000 0 0 1
0.093102 -21.394023 -10.319815 23.753136 -1.566445 2.020236 0.033252 -0.002854 -388834.000000 0 1 0
1.358602 -21.526223 -9.725615 23.660339 -1.507766 1.994403 0.021286 0.002651 89243.800000 0 1 0
2.129602 -20.202123 -9.538515 22.442020 -1.465769 2.009791 0.032676 -0.001267 -1602220.000000 0 1 0
2.479202 -19.548023 -10.779115 22.460209 -1.444644 2.071360 0.028538 0.003952 170761.000000 0 1 0
3.328502 -18.413523 -10.598415 21.504957 -1.391963 2.086142 0.021685 0.006626 -286673.000000 0 1 0
4.717202 -18.734423 -10.065315 21.783966 -1.324131 2.051103 0.036050 -0.008679 -1459800.000000 0 1 0
4.655402 -19.073723 -8.682215 21.467662 -1.331403 1.987154 0.031364 -0.011578 -41464.200000 0 1 0
5.807302 -19.800723 -8.215715 22.210163 -1.285509 1.949706 0.048700 -0.011941 460064.000000 0 1 0
5.396802 -20.814223 -7.087415 22.640424 -1.317099 1.889191 0.048772 -0.022210 281766.000000 0 1 0
4.511002 -21.807423 -7.647115 23.545513 -1.366817 1.901576 0.039729 -0.017245 385802.000000 0 1 0
4.209602 -22.820623 -6.711715 24.156753 -1.388382 1.852341 0.051366 -0.018460 42967.600000 0 1 0
3.093902 -23.727623 -7.242315 25.000469 -1.441135 1.864696 0.039467 -0.013195 259388.000000 0 0 1
3.675602 -24.536023 -8.290515 26.158347 -1.422098 1.893293 0.055890 -0.012864 678798.000000 0 0 1
2.678202 -25.338143 -8.917915 26.994878 -1.465489 1.907477 0.043486 -0.001722 566066.000000 0 0 1
3.278902 -26.153843 -10.098615 28.226879 -1.446077 1.936671 0.047038 -0.000824 337577.000000 0 0 1
3.922602 -27.401643 -9.757415 29.350366 -1.428610 1.909692 0.045007 -0.000609 -117227.000000 0 0 1
4.489402 -27.872843 -10.907715 30.265960 -1.411101 1.939488 0.065447 0.001918 -55833.500000 0 0 1
4.754702 -29.404563 -10.871615 31.708477 -1.410484 1.920758 0.058641 0.005349 529365.000000 0 0 1
3.568102 -30.136333 -11.197715 32.346851 -1.452946 1.924289 0.060874 0.002434 405741.000000 0 0 1
3.698002 -31.496303 -11.111815 33.603047 -1.453921 1.907819 0.073887 -0.001716 -530713.000000 0 0 1
2.461302 -32.337123 -11.427415 34.385074 -1.494829 1.909576 0.071656 -0.010083 -489712.000000 0 0 1
2.185102 -32.058023 -12.757615 34.572362 -1.502741 1.948742 0.072191 -0.011292 417144.000000 0 0 1
1.269002 -32.979493 -13.355315 35.603676 -1.532337 1.955312 0.064353 -0.008511 185686.000000 0 0 1
0.879102 -32.678743 -14.834115 35.898803 -1.543901 1.996784 0.057391 -0.005623 -30105.300000 0 0 1
0.026402 -31.596513 -15.089915 35.014938 -1.569961 2.016349 0.058888 -0.010494 -59934.800000 0 0 1
-0.459798 -31.539953 -16.397915 35.550973 1.556219 2.050201 0.040937 -0.008959 123757.000000 0 0 1
-1.775498 -30.778183 -16.624315 35.025945 1.513173 2.065338 0.043274 0.001152 1084880.000000 0 0 1
-3.015698 -31.337653 -16.100615 35.360610 1.474859 2.043535 0.045469 -0.008162 1199320.000000 0 0 1
-4.088498 -30.758773 -16.845615 35.307119 1.438650 2.068167 0.045473 -0.004455 564126.000000 0 0 1
-5.442398 -30.729513 -16.088615 35.110770 1.395507 2.046793 0.049403 -0.004594 137196.000000 0 0 1
-5.654898 -29.876073 -14.980215 33.896378 1.383731 2.028558 0.045007 -0.001899 -248956.000000 0 0 1
-7.032098 -29.845483 -14.669715 33.991231 1.339400 2.017033 0.052811 0.001064 252440.000000 0 0 1
-7.670998 -30.791073 -13.598815 34.523357 1.326636 1.975669 0.051490 -0.008451 -128914.000000 0 0 1
-7.904898 -32.063203 -14.092315 35.904453 1.329076 1.974139 0.065078 -0.012814 -147250.000000 0 0 1
-8.733598 -32.789683 -13.221015 36.417500 1.310488 1.942325 0.069445 -0.013152 137709.000000 0 0 1
-9.179098 -34.098379 -13.859015 37.934517 1.307835 1.944795 0.099347 -0.023155 -96563.300000 0 0 1
-8.091698 33.252396 -13.948215 36.956057 -1.332094 1.957813 0.095824 -0.021123 1575.680000 0 0 1
-8.337298 32.201719 -14.897115 36.447021 -1.317451 1.991862 0.113059 -0.032902 -376047.000000 0 0 1
-7.342298 -21.955923 -3.265815 23.380279 1.248076 1.710937 0.075738 -0.018209 167149.000000 0 1 0
-7.116698 -20.916423 -4.150915 22.480530 1.242839 1.756507 0.056886 -0.017081 -374163.000000 0 1 0
-5.992398 -21.251023 -4.912015 22.619520 1.295951 1.789699 0.054829 -0.006017 -369607.000000 0 1 0
-5.821398 -20.238723 -6.049815 21.911067 1.290720 1.850538 0.045166 -0.006913 103661.000000 0 1 0
-6.728498 -20.454823 -7.115915 22.678376 1.253001 1.889963 0.051305 -0.012262 -203213.000000 0 1 0
-6.803498 -19.278023 -7.898915 21.916264 1.231527 1.939507 0.039129 -0.018502 -198536.000000 0 1 0
-7.844298 -19.366523 -9.013115 22.755911 1.185949 1.978038 0.046167 -0.029449 120828.000000 0 1 0
-7.394198 -20.210923 -10.093015 23.770245 1.220070 2.009324 0.051096 -0.014372 8303.170000 0 1 0
-8.456998 -20.484523 -10.979615 24.732336 1.179263 2.030785 0.076386 -0.015380 217898.000000 0 1 0
-7.975598 -21.414523 -12.101915 25.858235 1.214273 2.057834 0.065540 -0.009895 -200249.000000 0 0 1
-7.032698 -20.793823 -12.920215 25.471040 1.244662 2.102788 0.063204 -0.005206 -278906.000000 0 0 1
-6.542998 -21.522223 -14.021615 26.507029 1.275664 2.128191 0.050245 -0.005460 462274.000000 0 0 1
-5.486698 -20.818723 -14.952715 26.212722 1.313109 2.177835 0.054577 -0.005059 221867.000000 0 0 1
-4.233798 -20.660923 -14.312315 25.488059 1.368676 2.167030 0.054146 -0.009654 77608.700000 0 0 1
-3.215398 -20.165523 -15.168415 25.437530 1.412677 2.209681 0.057476 -0.003399 201945.000000 0 0 1
-3.159998 -18.618223 -15.276015 24.289513 1.402672 2.250952 0.068923 0.000428 -423803.000000 0 1 0
-4.167098 -18.059723 -16.126215 24.567725 1.344025 2.286831 0.069110 0.003732 130722.000000 0 1 0
-4.128598 -18.396523 -17.494415 25.720263 1.350031 2.318805 0.088069 -0.001326 -10329.900000 0 0 1
-5.459498 -18.070823 -18.257615 26.262164 1.277399 2.339503 0.080155 0.008437 315701.000000 0 0 1
-6.430998 -18.971623 -17.781715 26.785623 1.243973 2.296755 0.066329 0.006403 -232055.000000 0 0 1
-7.706498 -18.672723 -18.355315 27.294291 1.179378 2.308373 0.074567 0.000511 -59724.500000 0 0 1
-8.715298 -19.597923 -17.712915 27.816944 1.152354 2.261095 0.097973 -0.013559 -680470.000000 0 0 1
-8.553198 -20.950623 -18.170115 29.021352 1.183194 2.247331 0.087823 -0.007816 826683.000000 0 0 1
-9.679198 -21.811923 -17.939015 29.853896 1.153146 2.215415 0.090647 -0.008766 418862.000000 0 0 1
-9.236298 -23.252423 -18.174415 30.924000 1.192690 2.199025 0.090544 -0.017121 -548689.000000 0 0 1
-9.025398 -23.550523 -19.554915 31.913628 1.204825 2.230326 0.083081 -0.017636 147352.000000 0 0 1
-8.218698 -24.641823 -19.853915 32.694715 1.248872 2.223393 0.093069 -0.030452 -1115140.000000 0 0 1
-6.727098 -24.478523 -19.674515 32.117573 1.302601 2.230114 0.108298 -0.023016 -1767890.000000 0 0 1
-6.163198 -23.593923 -20.606715 31.926399 1.315286 2.272401 0.099963 -0.020551 -65514.100000 0 0 1
-5.970698 -22.234423 -20.137715 30.586703 1.308451 2.289463 0.092330 -0.014864 -285062.000000 0 0 1
-4.912498 -22.082823 -19.020915 29.556369 1.351903 2.269920 0.094361 -0.002314 -108080.000000 0 0 1
-3.601198 -22.427123 -19.422115 29.885833 1.411582 2.278219 0.080626 -0.007233 -718734.000000 0 0 1
-2.660098 -21.897423 -18.583315 28.842900 1.449909 2.270896 0.056881 -0.003209 62902.500000 0 0 1
-1.270498 -22.611723 -18.774515 29.417454 1.514668 2.262967 0.052725 -0.003281 681805.000000 0 0 1
-0.516398 -22.136523 -19.877615 29.755872 1.547473 2.302346 0.063693 -0.006142 1309450.000000 0 0 1
0.768502 -22.842823 -19.953515 30.340203 -1.537166 2.288504 0.055686 -0.013377 2163750.000000 0 0 1
1.886302 -22.237623 -20.882215 30.563654 -1.486174 2.322983 0.078588 -0.019559 664789.000000 0 0 1
1.531102 -22.331623 -22.236115 31.551394 -1.502341 2.352879 0.070769 -0.022390 -85445.200000 0 0 1
0.798302 -21.241123 -22.726415 31.117721 -1.533231 2.389611 0.070691 -0.018722 -800469.000000 0 0 1
0.265302 -21.497023 -24.127815 32.316309 -1.558456 2.413754 0.080788 -0.023809 -60150.100000 0 0 1
-0.359898 -20.361923 -24.733915 32.039101 1.553123 2.452765 0.098936 -0.025841 281762.000000 0 0 1
-1.647098 -20.042623 -24.228115 31.486842 1.488801 2.448804 0.087681 -0.019675 -255497.000000 0 0 1
-2.281998 -18.808623 -24.929415 31.312099 1.450059 2.491717 0.082051 -0.017689 -89154.400000 0 0 1
-1.611598 -17.615123 -24.681415 30.365475 1.479561 2.519759 0.096998 -0.014568 43490.200000 0 0 1
-2.102198 -16.542123 -25.506065 30.473274 1.444392 2.562570 0.089199 -0.008519 -126980.000000 0 0 1
-1.432198 -15.209423 -25.177365 29.449575 1.476908 2.596215 0.095290 -0.013475 553159.000000 0 0 1
-0.084398 -15.148323 -25.664715 29.801953 1.565225 2.608374 0.083885 -0.014173 427183.000000 0 0 1
0.630202 -13.932823 -25.265225 28.859181 -1.525596 2.637195 0.067235 -0.017692 685750.000000 0 0 1
0.221602 -12.588223 -25.918615 28.814703 -1.553194 2.689403 0.061246 -0.012758 -474314.000000 0 0 1
1.001202 -11.564423 -25.434335 27.957891 -1.484436 2.713447 0.054357 -0.015320 -347726.000000 0 0 1
0.819402 -10.391823 -26.204515 28.201738 -1.492109 2.762987 0.045050 -0.015696 -1042640.000000 0 0 1
1.491002 -9.106023 -25.754275 27.357365 -1.408499 2.797559 0.051465 -0.018516 2109830.000000 0 0 1
2.928302 -8.921723 -26.044545 27.685564 -1.253653 2.795563 0.062232 -0.014943 2137530.000000 0 0 1
3.458002 -9.287323 -27.338305 29.079118 -1.214364 2.793823 0.053174 -0.012168 -247834.000000 0 0 1
4.938502 -8.930623 -27.626265 29.450897 -1.065664 2.787741 0.034865 -0.008936 -401590.000000 0 0 1
5.075202 -7.545823 -27.909735 29.353883 -0.978708 2.826611 0.043547 -0.005267 787155.000000 0 0 1
6.367402 -7.157723 -28.390435 29.963204 -0.843765 2.816152 0.063535 -0.006708 -557367.000000 0 0 1
7.609202 -7.210023 -27.556245 29.482724 -0.758468 2.778090 0.078514 -0.010117 -1143960.000000 0 0 1
8.051402 -8.516323 -27.165865 29.586096 -0.813453 2.734301 0.056381 -0.006654 385649.000000 0 0 1
8.762302 -9.216123 -28.210305 30.944082 -0.810635 2.718088 0.062955 -0.011832 -323735.000000 0 0 1
9.118502 -10.644323 -27.678875 31.025293 -0.862452 2.672854 0.060051 -0.007440 1056950.000000 0 0 1
7.930102 -11.466023 -27.484825 30.818368 -0.965718 2.672177 0.066617 -0.011305 1085360.000000 0 0 1
8.181802 -12.565323 -26.680455 30.605162 -0.993619 2.629586 0.067548 -0.009354 13906.700000 0 0 1
9.076902 -13.712923 -27.217385 31.799693 -0.986085 2.598087 0.072238 -0.018404 153973.000000 0 0 1
8.430902 -14.692623 -28.012025 32.735712 -1.049850 2.597703 0.092811 -0.023045 -431906.000000 0 0 1
9.378802 -15.392223 -28.775185 33.954289 -1.023551 2.581994 0.087444 -0.030245 161753.000000 0 0 1
8.736302 -16.243623 -29.953775 35.176795 -1.077345 2.589675 0.094175 -0.033828 -112581.000000 0 0 1
8.202602 -15.418223 -30.919165 35.510549 -1.081872 2.627428 0.086790 -0.029838 -11836.500000 0 0 1
7.448002 -16.186623 -31.841285 36.487627 -1.139548 2.631419 0.092840 -0.025083 299410.000000 0 0 1
6.375702 -15.342323 -32.614545 36.602527 -1.176946 2.670441 0.091616 -0.019258 554120.000000 0 0 1
6.963902 -14.252123 -33.354935 36.934681 -1.116292 2.697682 0.105316 -0.013126 30897.900000 0 0 1
5.973102 -13.578323 34.047473 37.138649 -1.156373 0.410888 0.068953 -0.017325 -230637.000000 0 0 1
6.378302 -12.402523 33.173384 35.985813 -1.095794 0.397979 0.108053 -0.009697 -469837.000000 0 0 1
7.014802 -12.598523 31.961379 35.063656 -1.062751 0.423821 0.095192 -0.012786 57454.600000 0 0 1
7.181102 -11.358823 31.254689 34.021268 -1.007033 0.406068 0.096372 -0.011785 -436296.000000 0 0 1
7.628002 -11.438723 29.797869 32.816822 -0.982661 0.432297 0.092476 -0.008407 61335.900000 0 0 1
6.731202 -12.121823 28.918099 32.070300 -1.063896 0.447089 0.088131 -0.008963 458499.000000 0 0 1
7.215002 -12.164123 27.554569 30.972188 -1.035438 0.474207 0.076735 -0.014880 169981.000000 0 0 1
6.161102 -12.841323 26.639089 30.207612 -1.123449 0.490989 0.069020 -0.022470 124329.000000 0 0 1
6.074102 -14.262723 26.953809 31.093855 -1.168187 0.521941 0.072859 -0.018484 50874.200000 0 0 1
5.537702 -15.167823 25.976909 30.586415 -1.220737 0.556147 0.036154 -0.019214 -110241.000000 0 0 1
3.998702 -15.233023 26.000519 30.398381 -1.314086 0.544617 0.028883 -0.026544 -349831.000000 0 0 1
3.279702 -14.070723 25.693199 29.476807 -1.341798 0.512256 0.022022 -0.030054 -591245.000000 0 0 1
2.020702 -14.477623 25.229789 29.158653 -1.432118 0.525129 0.023736 -0.023157 -94859.900000 0 0 1
1.108102 -13.300123 24.797149 28.160606 -1.487673 0.493750 0.026329 -0.021732 -367437.000000 0 0 1
1.581302 -12.614823 23.633459 26.836070 -1.446094 0.493542 0.005532 -0.013267 -200865.000000 0 0 1
0.788802 -11.542723 23.157879 25.887140 -1.502565 0.463326 0.005246 0.002364 -39685.800000 0 0 1
-0.576698 -11.957923 22.583379 25.560389 1.522606 0.487450 0.014516 0.001653 -544690.000000 0 0 1
-0.549098 -12.584623 21.332179 24.773698 1.527192 0.533403 0.012052 -0.007588 -824048.000000 0 1 0
-1.757798 -13.227223 21.076979 24.945707 1.438678 0.564392 0.027243 -0.013488 -358194.000000 0 1 0
-1.832298 -13.981123 19.705979 24.231276 1.440484 0.621088 0.065322 -0.017182 -223474.000000 0 1 0
-0.909898 -15.018223 19.469979 24.605995 1.510284 0.657914 0.088947 -0.025286 -669527.000000 0 1 0
-1.035898 -15.715423 18.250979 24.106967 1.504976 0.711959 0.100458 -0.021693 -504857.000000 0 1 0
-2.229198 -16.635223 18.104179 24.687269 1.437585 0.747574 0.096472 -0.035098 -626591.000000 0 1 0
-2.112398 -17.743623 17.234879 24.826184 1.452303 0.803458 0.074904 -0.037604 -486854.000000 0 1 0
-3.178698 -18.664723 17.295779 25.644102 1.402110 0.830571 0.087766 -0.029456 -106406.000000 0 0 1
-2.824198 -20.080323 16.758179 26.306502 1.431068 0.880150 0.082264 -0.027961 402091.000000 0 0 1
-1.851898 -20.694423 17.617579 27.240921 1.481546 0.867504 0.096269 -0.032454 5661.460000 0 0 1
-1.900498 -22.144823 17.572479 28.333674 1.485185 0.901802 0.094278 -0.036731 49845.700000 0 0 1
-0.754798 -22.978923 18.220579 29.335816 1.537961 0.900646 0.093258 -0.027579 59255.500000 0 0 1
0.427302 -22.951223 17.482479 28.854433 -1.552181 0.919918 0.102042 -0.036370 -223052.000000 0 0 1
1.489002 -23.689223 18.132579 29.869497 -1.508023 0.918441 0.093461 -0.038443 8373.540000 0 0 1
2.795402 -23.551323 17.389579 29.408783 -1.452655 0.938119 0.085371 -0.037139 -647242.000000 0 0 1
3.400002 -22.262323 17.442879 28.485524 -1.419243 0.911777 0.070251 -0.026827 552250.000000 0 0 1
4.579502 -22.235723 16.614679 28.132664 -1.367684 0.939015 0.051203 -0.018484 875592.000000 0 0 1
5.457702 -20.966323 16.708179 27.359394 -1.316140 0.913861 0.039151 -0.017714 -756488.000000 0 0 1
6.337202 -20.954723 17.770379 28.196576 -1.277118 0.888945 0.043271 -0.011166 -454503.000000 0 0 1
6.725502 -19.659523 18.259379 27.661058 -1.241178 0.849829 0.043709 -0.007359 -36931.500000 0 0 1
7.519402 -18.720623 17.374679 26.624849 -1.188856 0.859820 0.030523 -0.009997 -771231.000000 0 0 1
6.785602 -18.187623 16.323479 25.363162 -1.213702 0.871617 0.019232 -0.011555 -85773.300000 0 0 1
7.699502 -17.511923 15.468979 24.601607 -1.156564 0.890814 0.035344 -0.009718 274581.000000 0 1 0
7.083302 -16.437323 14.496879 23.032982 -1.163915 0.890020 0.024818 -0.012236 12342.400000 0 1 0
6.101002 -17.100123 13.717079 22.755102 -1.228093 0.923774 0.027438 -0.010412 -204462.000000 0 1 0
5.738802 -16.340323 12.616279 21.426864 -1.233048 0.941215 0.024187 -0.015865 -302797.000000 0 1 0
6.367002 -16.678523 11.294279 21.125164 -1.206122 1.006719 0.028152 -0.010878 190990.000000 0 1 0
7.733802 -16.305323 11.171279 21.224343 -1.127910 1.016503 0.042291 -0.007694 139264.000000 0 1 0
8.206202 -16.641723 9.858779 21.011526 -1.112676 1.082402 0.049696 -0.009858 1001750.000000 0 1 0
9.710602 -16.190223 9.755579 21.250657 -1.030537 1.093846 0.056801 -0.008038 783834.000000 0 1 0
10.330102 -16.462623 8.525679 21.223010 -1.010410 1.157404 0.066786 -0.012858 -150593.000000 0 1 0
11.697602 -16.118223 8.686079 21.727378 -0.943005 1.159524 0.070178 -0.008549 180291.000000 0 1 0
12.631002 -16.945323 7.795879 22.526915 -0.930247 1.217418 0.082558 -0.017201 -140630.000000 0 1 0
12.756902 -18.249023 8.306479 23.764742 -0.960711 1.213727 0.092310 -0.019256 119645.000000 0 1 0
13.717502 -18.987723 7.561679 24.614680 -0.945168 1.258545 0.097978 -0.023157 372918.000000 0 1 0
14.318402 -20.259923 8.266679 26.149935 -0.955564 1.249153 0.095528 -0.022591 199785.000000 0 0 1
13.293802 -21.113323 8.702279 26.423990 -1.008867 1.235200 0.093864 -0.025955 71028.600000 0 0 1
13.889702 -22.316323 9.185979 27.844646 -1.014068 1.234598 0.075837 -0.022523 201458.000000 0 0 1
12.902002 -23.203123 9.944779 28.350400 -1.063323 1.212391 0.084446 -0.024492 -30385.500000 0 0 1
12.724102 -22.701423 11.269279 28.359373 -1.059929 1.162143 0.093450 -0.022727 -399936.000000 0 0 1
11.804002 -23.370623 12.093079 28.840302 -1.103094 1.138109 0.085821 -0.017414 -271969.000000 0 0 1
12.102102 -24.844023 12.465679 30.316324 -1.117503 1.147040 0.055257 -0.019556 -135915.000000 0 0 1
13.200602 -24.930023 13.342779 31.205635 -1.083823 1.128987 0.030016 -0.016390 -89072.100000 0 0 1
13.202502 -26.175043 13.989079 32.482815 -1.103641 1.125571 0.032198 -0.021308 397336.000000 0 0 1
14.382302 -26.368463 15.000279 33.573126 -1.071464 1.107618 0.037248 -0.016155 271523.000000 0 0 1
14.271502 -25.635303 16.200079 33.515475 -1.062814 1.066306 0.043068 -0.020588 -41722.900000 0 0 1
15.317602 -25.946413 17.065779 34.627822 -1.037499 1.055452 0.060654 -0.020140 -521320.000000 0 0 1
15.002802 -25.472413 18.487279 34.866995 -1.038517 1.011933 0.066341 -0.021898 -22579.200000 0 0 1
15.207602 -24.068723 18.723879 34.075772 -1.007293 0.989057 0.042346 -0.019338 -1048670.000000 0 0 1
16.492802 -23.770523 19.108279 34.672418 -0.964220 0.987104 0.061318 -0.020393 -962023.000000 0 0 1
16.672902 -22.264523 19.500979 33.970323 -0.928028 0.959342 0.051532 -0.028547 -120525.000000 0 0 1
16.771702 -21.486223 18.301079 32.831041 -0.908010 0.979507 0.037574 -0.022814 -604638.000000 0 0 1
15.661402 -20.753023 17.912379 31.572469 -0.924322 0.967522 0.056982 -0.011587 -1337170.000000 0 0 1
15.963102 -19.841923 16.714779 30.461555 -0.893309 0.989967 0.054759 -0.011193 12945.700000 0 0 1
16.827502 -18.745723 16.979379 30.378714 -0.839269 0.977709 0.064431 -0.013219 573522.000000 0 0 1
18.200302 -19.172323 16.967179 31.412006 -0.811401 1.000182 0.066249 -0.022634 1552.540000 0 0 1
19.213202 -18.024323 17.125079 31.421198 -0.753482 0.994387 0.077901 -0.022297 -160892.000000 0 0 1
19.291802 -17.540123 18.451079 31.941694 -0.737875 0.954951 0.066407 -0.020864 61989.900000 0 0 1
19.861002 -16.248023 18.507579 31.638396 -0.685673 0.945951 0.061251 -0.017339 -229816.000000 0 0 1
20.253802 -15.902523 19.956479 32.578640 -0.665628 0.911497 0.052196 -0.009800 -429213.000000 0 0 1
21.264102 -16.764523 20.377479 33.888832 -0.667625 0.925665 0.045061 -0.015279 -357904.000000 0 0 1
21.516302 -16.624423 21.788279 34.843246 -0.657836 0.895251 0.028987 0.000516 -93629.900000 0 0 1
34.199555 -1.173323 -7.711015 35.077714 -0.034295 1.792433 0.146135 -0.036469 -769775.000000 0 0 1
35.436405 -0.688323 -8.105815 36.358174 -0.019422 1.795629 0.140998 -0.042243 -495322.000000 0 0 1
36.369295 -1.747723 -8.152415 37.312759 -0.048018 1.791062 0.161800 -0.051041 -543576.000000 0 0 1
-35.810591 -1.383923 -8.675215 36.872389 0.038626 1.808300 0.124395 -0.044801 -818657.000000 0 0 1
-34.932654 -2.468423 -8.676215 36.078528 0.070545 1.813658 0.140722 -0.036771 -1098140.000000 0 0 1
-33.642918 -2.086023 -8.941315 34.873264 0.061926 1.830087 0.181730 -0.043814 -1349690.000000 0 0 1
-32.553978 -3.120423 -8.709915 33.843185 0.095562 1.831087 0.167373 -0.038121 -451042.000000 0 0 1
-32.064358 -3.187523 -7.354315 33.051011 0.099085 1.795189 0.167557 -0.041129 98881.400000 0 0 1
-30.975208 -4.063823 -7.341215 32.091613 0.130451 1.801598 0.160752 -0.048100 -408167.000000 0 0 1
-30.278578 -4.269723 -5.984715 31.158300 0.140091 1.764072 0.160543 -0.063438 -303287.000000 0 0 1
-29.670548 -3.121623 -5.472515 30.332069 0.104824 1.752210 0.159469 -0.056673 333063.000000 0 0 1
-29.357208 -3.353223 -4.136715 29.836256 0.113729 1.709892 0.159000 -0.053859 -482832.000000 0 0 1
-29.223538 -2.097023 -3.292915 29.483147 0.071635 1.682718 0.187127 -0.060297 -481100.000000 0 0 1
-27.997698 -1.407723 -3.345915 28.232037 0.050238 1.689590 0.148699 -0.054130 158497.000000 0 0 1
-28.044128 -0.170923 -2.605615 28.165432 0.006095 1.663440 0.157210 -0.061250 146944.000000 0 0 1
-26.678078 0.512377 -2.290015 26.781086 -0.019204 1.656410 0.155426 -0.039729 79669.000000 0 0 1
-25.968068 -0.029023 -1.246815 25.997999 0.001118 1.618773 0.126124 -0.039805 -248854.000000 0 0 1
-24.592898 0.274177 -1.270415 24.627216 -0.011148 1.622405 0.099718 -0.026656 -214573.000000 0 1 0
-24.043298 -0.457723 -0.030815 24.047674 0.019035 1.572078 0.077801 -0.028157 -395022.000000 0 1 0
-24.287298 -1.835423 0.055685 24.356616 0.075428 1.568510 0.099679 -0.034029 285850.000000 0 1 0
-23.625898 -2.575623 1.090885 23.790900 0.108588 1.524927 0.094914 -0.029252 -45720.800000 0 1 0
-23.523898 -4.104523 0.927085 23.897288 0.172744 1.531992 0.090434 -0.020193 -127908.000000 0 1 0
-24.688798 -4.709523 1.438885 25.175122 0.188491 1.513610 0.092884 -0.032864 324335.000000 0 0 1
-24.509098 -6.114323 1.357085 25.296690 0.244481 1.517124 0.070254 -0.016510 -27846.400000 0 0 1
-25.727288 -6.962923 1.813385 26.714491 0.264311 1.502864 0.088641 -0.017810 -159238.000000 0 0 1
-26.074978 -6.893423 3.149485 27.154061 0.258456 1.454549 0.087185 -0.018209 735841.000000 0 0 1
-27.262228 -7.661623 3.408985 28.522811 0.273968 1.450992 0.111848 -0.010200 533108.000000 0 0 1
-27.644378 -7.886423 4.847885 29.153204 0.277899 1.403730 0.099298 -0.024925 -131312.000000 0 0 1
-26.677708 -8.621123 5.574285 28.584900 0.312565 1.374531 0.106316 0.002243 36197.100000 0 0 1
-26.864008 -8.673723 6.987385 29.081471 0.312309 1.328153 0.087479 -0.004045 -40540.800000 0 0 1
-26.193208 -7.521823 7.802485 28.346794 0.279642 1.291946 0.083853 -0.002811 1118690.000000 0 0 1
-24.749298 -7.611323 7.832385 27.051918 0.298357 1.277059 0.104048 -0.016353 937735.000000 0 0 1
-24.252798 -6.345923 8.196585 26.375234 0.255920 1.254795 0.107215 -0.024432 479387.000000 0 0 1
-22.753198 -6.097223 7.853385 24.830622 0.261821 1.248993 0.114263 -0.032760 96967.200000 0 1 0
-21.786398 -6.788923 8.572385 24.376677 0.302076 1.211449 0.117005 -0.035955 -68894.600000 0 1 0
-20.541598 -6.526523 7.938085 22.968804 0.307635 1.217915 0.109298 -0.029915 -245094.000000 0 1 0
-19.315098 -6.949123 8.730185 22.306489 0.345358 1.168672 0.109471 -0.026947 -422655.000000 0 1 0
-19.028598 -6.113023 9.821785 22.269352 0.310841 1.114034 0.084854 -0.018488 -65669.900000 0 1 0
-17.829098 -6.519723 10.426785 21.658748 0.350574 1.068531 0.065897 -0.028139 -355727.000000 0 1 0
-17.389998 -5.652923 11.605085 21.657460 0.314293 1.005286 0.030509 -0.006432 -412255.000000 0 1 0
-18.307698 -5.505723 12.639785 22.918310 0.292129 0.986617 0.053143 -0.016914 -156853.000000 0 1 0
-19.011698 -4.259423 12.609285 23.207357 0.220403 0.996396 0.079059 -0.015816 178290.000000 0 1 0
-20.119898 -4.134923 13.682885 24.680543 0.202692 0.983155 0.082720 -0.032286 -55393.600000 0 1 0
-19.761498 -4.190023 15.047885 25.189520 0.208935 0.930558 0.082773 -0.024285 2611.000000 0 0 1
-20.970798 -4.205623 15.760285 26.567804 0.197921 0.935756 0.088615 -0.018058 8360.760000 0 0 1
-20.779098 -4.885823 17.136885 27.373619 0.230937 0.894336 0.084408 -0.010879 -202118.000000 0 0 1
-21.874798 -4.712923 17.992185 28.713014 0.212206 0.893586 0.080592 -0.015726 170687.000000 0 0 1
-21.656598 -5.314323 19.245585 29.455777 0.240636 0.858766 0.079724 -0.006295 -232953.000000 0 0 1
-22.684798 -4.904023 20.314185 30.843405 0.212905 0.851809 0.067987 -0.006403 -385825.000000 0 0 1
-22.507298 -3.522523 20.627685 30.732524 0.155246 0.834969 0.069959 -0.005518 217597.000000 0 0 1
-22.835298 -3.256923 21.974785 31.858273 0.141671 0.809629 0.061562 -0.005595 -208507.000000 0 0 1
-23.009298 -1.742623 22.166885 31.997427 0.075591 0.805472 0.055842 -0.007679 -758196.000000 0 0 1
-24.210698 -1.276823 21.689185 32.530123 0.052689 0.840968 0.072265 -0.016456 -1025650.000000 0 0 1
-24.238998 0.139077 21.873685 32.649754 -0.005738 0.836656 0.064294 -0.015593 -529394.000000 0 0 1
-25.480978 0.919277 21.457685 33.325029 -0.036061 0.871223 0.082000 -0.019348 -528788.000000 0 0 1
-26.481648 0.713877 22.410385 34.698885 -0.026951 0.868656 0.085091 -0.017480 -30438.200000 0 0 1
-27.775068 1.163177 21.997485 35.449919 -0.041854 0.901387 0.103428 -0.018545 564530.000000 0 0 1
-28.729308 1.179177 23.218885 36.957817 -0.041021 0.891490 0.091975 -0.015035 -175578.000000 0 0 1
-28.513368 2.219977 24.134485 37.422103 -0.077701 0.869870 0.075250 -0.014237 65163.400000 0 0 1
-29.333338 1.869577 25.230785 38.736708 -0.063649 0.861447 0.072203 -0.014606 -181463.000000 0 0 1
-29.123598 2.756177 26.467385 39.450006 -0.094356 0.835362 0.092232 -0.023705 216357.000000 0 0 1
-27.855448 2.574377 27.073185 38.929561 -0.092157 0.801764 0.070510 -0.029468 252946.000000 0 0 1
-27.716248 3.352377 28.242585 39.712371 -0.120369 0.779623 0.058664 -0.027943 -158011.000000 0 0 1
-26.401698 3.021377 28.970485 39.312433 -0.113943 0.742280 0.072639 -0.028470 -261926.000000 0 0 1
-26.506928 2.135677 30.004685 40.093135 -0.080397 0.725188 0.070338 -0.030351 -491197.000000 0 0 1
-25.379728 1.925877 30.780485 39.940929 -0.075737 0.690936 0.050893 -0.030870 -1024480.000000 0 0 1
-25.604168 0.779277 31.813785 40.844799 -0.030426 0.677895 0.045384 -0.027224 -168849.000000 0 0 1
-25.759438 -0.403823 31.132785 40.409925 0.015675 0.691290 0.042102 -0.037341 -4028.830000 0 0 1
-25.943558 -1.470723 32.040085 41.252858 0.056629 0.681426 0.055521 -0.035291 -886273.000000 0 0 1
-26.539238 -2.709623 31.362285 41.173610 0.101746 0.704851 0.048287 -0.029538 246653.000000 0 0 1
-27.907618 -2.693023 30.968685 41.774956 0.096200 0.735759 0.067126 -0.028955 558328.000000 0 0 1
-28.147638 -1.813423 29.903285 41.106988 0.064336 0.756198 0.071039 -0.032221 -876162.000000 0 0 1
-29.620308 -1.702723 29.471585 41.819089 0.057422 0.788740 0.094219 -0.033671 199855.000000 0 0 1
-30.558098 -1.085223 30.338085 43.074058 0.035499 0.789326 0.110056 -0.020567 -629273.000000 0 0 1
-31.739618 -0.848823 29.630885 43.429405 0.026737 0.819924 0.091211 -0.025797 -641831.000000 0 0 1
-32.895438 -0.528923 30.571585 44.911150 0.016078 0.822061 0.093200 -0.021291 -482053.000000 0 0 1
-33.076588 -1.629523 31.467385 45.682736 0.049225 0.810930 0.105588 -0.020332 -160880.000000 0 0 1
-33.602218 -1.202023 32.658785 46.873768 0.035757 0.799955 0.126942 -0.023852 -156409.000000 0 0 1
-34.099105 -2.402523 33.549085 47.896369 0.070341 0.794766 0.124856 -0.019222 82584.500000 0 0 1
-35.337400 -2.982123 33.219685 48.591896 0.084191 0.818049 0.094419 -0.020955 -104104.000000 0 0 1
-35.350571 -4.330223 33.720985 49.046086 0.121887 0.812705 0.087248 -0.016378 172758.000000 0 0 1
-36.673948 -5.088623 33.469285 49.910576 0.137873 0.835799 0.080530 -0.020166 1157320.000000 0 0 1
35.799055 -4.759423 -33.734310 49.418904 -0.132173 2.322138 0.082903 -0.023051 1387840.000000 0 0 1
34.542675 -5.249023 33.922385 48.697811 -0.150804 0.800163 0.078980 -0.032186 80236.100000 0 0 1
33.291785 -4.850523 -33.424110 47.424062 -0.144679 2.352927 0.096227 -0.034372 -512650.000000 0 0 1
32.949065 -5.639023 -32.291210 46.477539 -0.169501 2.338897 0.087684 -0.031961 114882.000000 0 0 1
32.558555 -7.004523 -32.500610 46.533993 -0.211906 2.343994 0.083260 -0.029187 -1067460.000000 0 0 1
31.202495 -7.278823 -33.121210 46.082442 -0.229178 2.372782 0.082154 -0.029460 -448728.000000 0 0 1
30.123145 -6.826523 -32.297910 44.689599 -0.222856 2.378521 0.081271 -0.031223 646913.000000 0 0 1
28.871435 -7.092223 -32.944210 44.375447 -0.240879 2.407438 0.088696 -0.035457 748348.000000 0 0 1
27.647205 -6.974223 -31.962510 42.832345 -0.247103 2.413167 0.080314 -0.035954 794010.000000 0 0 1
26.469705 -7.474223 -32.630610 42.676293 -0.275204 2.441228 0.072618 -0.031154 95714.100000 0 0 1
25.377805 -7.098123 -31.843910 41.333412 -0.272729 2.450289 0.077106 -0.030638 -495440.000000 0 0 1
23.991805 -7.645923 -32.253010 40.918498 -0.308513 2.478717 0.079523 -0.037102 108337.000000 0 0 1
23.897605 -9.046023 -32.075310 41.009164 -0.361864 2.468905 0.091380 -0.041293 157947.000000 0 0 1
23.502405 -9.426123 -30.783210 39.860015 -0.381429 2.453223 0.092042 -0.038400 -481177.000000 0 0 1
23.287005 -10.982623 -30.621810 40.007472 -0.440687 2.442462 0.096886 -0.030716 -122590.000000 0 0 1
22.110005 -11.381823 -31.292210 39.969996 -0.475403 2.470098 0.104188 -0.039781 -50832.800000 0 0 1
21.946205 -12.765523 -31.223610 40.243115 -0.526835 2.458897 0.097277 -0.032601 28359.500000 0 0 1
20.767705 -13.166123 -32.195310 40.511508 -0.565024 2.489343 0.086966 -0.026577 708272.000000 0 0 1
19.465205 -12.857923 -31.773810 39.418211 -0.583763 2.508276 0.062850 -0.020704 -331968.000000 0 0 1
19.059605 -11.516823 -31.901810 38.905414 -0.543541 2.532179 0.053712 -0.024446 -413216.000000 0 0 1
17.582805 -11.135823 -31.636210 37.868342 -0.564571 2.559704 0.052838 -0.017888 259102.000000 0 0 1
16.620405 -11.761923 -32.445710 38.305414 -0.615862 2.581163 0.031578 -0.006258 -82210.800000 0 0 1
15.332305 -11.577823 -31.884210 37.225373 -0.646774 2.599282 0.061352 -0.008696 1000230.000000 0 0 1
14.097105 -11.692123 -32.858810 37.618286 -0.692412 2.633101 0.057236 -0.006142 115606.000000 0 0 1
13.809105 -13.019823 -33.263110 38.296757 -0.755988 2.623090 0.066375 -0.012813 -356864.000000 0 0 1
12.541605 -13.200623 -33.805310 38.397230 -0.810993 2.647523 0.055295 -0.006111 181089.000000 0 0 1
11.366305 -13.492523 -32.807210 37.249887 -0.870722 2.648204 0.049867 -0.003867 -11748.400000 0 0 1
11.250205 -12.396723 -31.901010 36.026660 -0.833845 2.658330 0.089665 0.003483 -878733.000000 0 0 1
10.170005 -12.555723 -31.047710 35.000506 -0.889994 2.661744 0.089459 -0.009879 58375.000000 0 0 1
8.901605 -11.828823 -31.599310 34.895214 -0.925675 2.703467 0.081270 -0.000578 -191141.000000 0 0 1
8.976305 -10.385223 -31.504510 34.365114 -0.858039 2.730685 0.074178 0.008257 371993.000000 0 0 1
7.903705 -9.687523 -32.140910 34.487023 -0.886457 2.770609 0.072995 0.006129 145833.000000 0 0 1
8.269505 -8.203823 -32.335610 34.369741 -0.781411 2.795827 0.085708 0.001998 25439.200000 0 0 1
8.545205 -7.323323 -31.252510 33.217028 -0.708549 2.795951 0.073207 -0.002739 288686.000000 0 0 1
9.004505 -6.080423 -31.718010 33.527374 -0.593931 2.811565 0.070885 0.004741 75861.300000 0 0 1
9.470705 -5.100723 -30.623510 32.457834 -0.494032 2.803792 0.067694 -0.002733 83040.700000 0 0 1
8.355205 -4.524923 -29.966610 31.436954 -0.496348 2.834541 0.082046 -0.005569 78029.100000 0 0 1
8.636005 -3.867623 -28.809310 30.323512 -0.421063 2.824241 0.081412 -0.006430 262337.000000 0 0 1
7.348505 -3.195523 -28.236010 29.351050 -0.410187 2.865069 0.065391 -0.008041 -237377.000000 0 0 1
6.685505 -2.315023 -29.169410 30.015159 -0.333352 2.903640 0.063361 0.001270 577525.000000 0 0 1
5.395705 -1.860723 -28.768210 29.328924 -0.332082 2.945739 0.084563 -0.012133 1132360.000000 0 0 1
4.283305 -2.987923 -28.779310 29.249326 -0.609096 2.962079 0.069058 -0.017891 -425161.000000 0 0 1
4.340805 -3.735723 -27.548010 28.137005 -0.710619 2.936622 0.070907 -0.021000 395557.000000 0 0 1
3.225205 -4.632923 -27.436510 28.011212 -0.962660 2.938677 0.078565 -0.024943 448972.000000 0 0 1
3.251905 -5.637323 -26.302110 27.095300 -1.047571 2.899031 0.048603 -0.029608 -370481.000000 0 0 1
3.002305 -4.999023 -25.047810 25.717637 -1.029952 2.912860 0.058719 -0.037353 137601.000000 0 0 1
3.167605 -5.911723 -23.973610 24.894099 -1.078907 2.868806 0.056673 -0.041071 -390275.000000 0 1 0
3.174905 -5.265023 -22.583510 23.405457 -1.028160 2.875791 0.073480 -0.051272 -557429.000000 0 1 0
4.178305 -4.325223 -22.429010 23.221246 -0.802674 2.879628 0.064385 -0.042873 -490719.000000 0 1 0
3.990505 -3.497123 -21.322810 21.973079 -0.719600 2.897703 0.055723 -0.037420 -476453.000000 0 1 0
4.973005 -2.339623 -21.179610 21.881053 -0.439741 2.887703 0.062083 -0.033106 -1260770.000000 0 1 0
6.215305 -2.788423 -20.800910 21.887968 -0.421721 2.825108 0.056140 -0.035498 -1178400.000000 0 1 0
7.050505 -1.682923 -20.502210 21.745860 -0.234311 2.801758 0.072950 -0.024815 150509.000000 0 1 0
8.522005 -2.040423 -20.176110 21.996893 -0.235006 2.731855 0.068557 -0.031022 -954278.000000 0 1 0
9.240805 -2.328523 -21.325910 23.358273 -0.246844 2.721354 0.081003 -0.038829 109166.000000 0 1 0
10.529105 -2.877723 -21.095510 23.752134 -0.266796 2.664105 0.063081 -0.037493 1618540.000000 0 1 0
11.663905 -2.105223 -20.264210 23.475878 -0.178568 2.612356 0.056378 -0.039906 -88979.500000 0 1 0
11.364105 -2.051323 -18.862310 22.116454 -0.178586 2.592241 0.054399 -0.034236 44822.700000 0 1 0
12.340605 -1.483923 -18.026710 21.896457 -0.119673 2.537945 0.052412 -0.039321 -557392.000000 0 1 0
12.594505 0.050677 -18.159010 22.099180 0.004024 2.535193 0.048475 -0.035719 133113.000000 0 1 0
13.274705 0.449877 -19.375010 23.490661 0.033877 2.540638 0.062697 -0.037744 586590.000000 0 1 0
13.125105 1.867677 -19.588310 23.652874 0.141349 2.546609 0.064798 -0.044538 -177903.000000 0 1 0
13.647105 2.359277 -20.926510 25.094391 0.171185 2.556954 0.062922 -0.037400 -223236.000000 0 0 1
15.035805 2.531977 -21.112810 26.042985 0.166831 2.516127 0.065891 -0.041869 191682.000000 0 0 1
15.193205 3.542577 -22.096810 27.049072 0.229076 2.526839 0.063871 -0.043838 -58976.500000 0 0 1
16.665705 3.672077 -22.552510 28.281541 0.216872 2.493818 0.044000 -0.037191 243410.000000 0 0 1
17.229205 2.743577 -23.442010 29.221576 0.157914 2.501794 0.031856 -0.030383 177033.000000 0 0 1
17.796705 1.580677 -22.886010 29.034302 0.088586 2.478741 0.032877 -0.029848 -542377.000000 0 0 1
9.653202 26.851077 3.128485 28.704565 1.225676 1.461590 0.007485 -0.002642 -77680.600000 0 0 1
9.642602 27.295477 4.501885 29.296584 1.231214 1.416519 0.013252 -0.001493 264370.000000 0 0 1
10.934302 27.385877 5.076185 29.921779 1.190921 1.400323 0.017937 -0.002397 -543709.000000 0 0 1
10.957502 28.109477 6.499685 30.861877 1.199101 1.358602 0.016962 -0.004739 -53773.100000 0 0 1
10.704902 27.274077 7.668985 30.286689 1.196778 1.314796 0.015350 -0.006017 154588.000000 0 0 1
10.774502 27.990177 8.832485 31.265839 1.203341 1.284401 0.026548 -0.003506 -503431.000000 0 0 1
10.805702 27.192477 10.147485 30.970396 1.192552 1.236980 0.052128 -0.009189 -504328.000000 0 0 1
11.943602 26.462477 10.454585 30.857911 1.146828 1.225158 0.031870 -0.002333 -536713.000000 0 0 1
12.371802 25.436177 9.521585 29.844952 1.118099 1.246085 0.038379 -0.006328 -229967.000000 0 0 1
13.701602 24.804677 9.988585 30.046260 1.066128 1.231907 0.051493 -0.010558 204806.000000 0 0 1
14.824902 25.678177 9.907585 31.261905 1.047209 1.248314 0.044666 -0.005120 181061.000000 0 0 1
15.980702 24.961177 10.283685 31.371920 1.001325 1.236823 0.045797 -0.007539 -449289.000000 0 0 1
17.100502 25.786477 10.868385 32.794685 0.985227 1.233002 0.048241 -0.010416 -907482.000000 0 0 1
17.748702 26.679777 9.931785 33.547985 0.983776 1.270245 0.045672 -0.011975 -205724.000000 0 0 1
19.132302 26.598277 10.095485 34.284576 0.947230 1.271904 0.044921 -0.021987 -243357.000000 0 0 1
19.833402 27.265777 11.337385 35.571375 0.941910 1.246415 0.056890 -0.025747 -635659.000000 0 0 1
19.864002 28.741077 11.355985 36.736718 0.966044 1.256531 0.065699 -0.030710 679168.000000 0 0 1
18.565802 29.328077 11.596885 36.596623 1.006437 1.248354 0.045169 -0.018649 901105.000000 0 0 1
18.669302 30.837077 11.718485 37.905027 1.026403 1.256493 0.035704 -0.019159 -770018.000000 0 0 1
19.065002 31.601677 10.575985 38.392600 1.027961 1.291718 0.056264 -0.027807 172691.000000 0 0 1
18.126302 31.691677 9.509685 37.727435 1.051251 1.315985 0.059582 -0.028263 402107.000000 0 0 1
16.790402 32.420277 9.785185 37.798701 1.092933 1.308938 0.053017 -0.022279 -152577.000000 0 0 1
16.858802 33.811677 9.864785 39.048210 1.108262 1.315398 0.053962 -0.024149 598220.000000 0 0 1
15.548202 -33.853094 9.980885 38.566781 -1.140248 1.309022 0.065053 -0.018260 889149.000000 0 0 1
15.661102 -32.297694 10.242585 37.327225 -1.119303 1.292831 0.066273 -0.013429 189623.000000 0 0 1
16.382302 -31.701094 9.150685 36.838488 -1.093820 1.319768 0.072659 -0.018585 207555.000000 0 0 1
16.536302 -30.296294 9.294585 35.744986 -1.071169 1.307748 0.061605 -0.022289 -305917.000000 0 0 1
17.307802 -29.675094 8.157785 35.308932 -1.042789 1.337650 0.062708 -0.022599 -726944.000000 0 0 1
16.741302 -29.839394 6.912085 34.906125 -1.059511 1.371460 0.062560 -0.021759 -292507.000000 0 0 1
17.404002 -29.209194 5.799185 34.492127 -1.033441 1.401863 0.063237 -0.015817 -10965.000000 0 0 1
16.845102 -29.581894 4.441685 34.330373 -1.053151 1.441052 0.066464 -0.017895 -57162.800000 0 0 1
17.069602 -30.932094 4.038285 35.559436 -1.066541 1.456986 0.058835 -0.021100 -107173.000000 0 0 1
16.840402 -31.146394 2.680285 35.508885 -1.075133 1.495242 0.054822 -0.018021 -65523.800000 0 0 1
17.017802 -32.630594 2.212185 36.868076 -1.090074 1.510758 0.052324 -0.018497 -106331.000000 0 0 1
18.381202 -32.995694 2.228385 37.835831 -1.062535 1.511866 0.048896 -0.007549 -135175.000000 0 0 1
18.585202 33.968877 1.761285 38.760759 1.070164 1.525341 0.072250 -0.013158 -463910.000000 0 0 1
20.066702 33.577377 1.812385 39.158620 1.032125 1.524497 0.083326 -0.017919 -305490.000000 0 0 1
20.429002 33.426377 3.165785 39.302532 1.022208 1.490160 0.071181 -0.038344 -634609.000000 0 0 1
21.747802 32.979577 3.243885 39.637636 0.987819 1.488866 0.054110 -0.022340 -570129.000000 0 0 1
22.255302 32.660977 4.699885 39.801090 0.972661 1.452436 0.060440 -0.021650 -139176.000000 0 0 1
21.688602 31.555377 5.471885 38.679178 0.968632 1.428852 0.085622 -0.031175 -937.270000 0 0 1
22.289702 30.302677 5.289685 37.987680 0.936595 1.431095 0.059387 -0.034369 -428869.000000 0 0 1
21.578602 29.249477 6.085185 36.853730 0.935186 1.404919 0.064247 -0.037370 386806.000000 0 0 1
20.268402 28.950277 5.601985 35.781404 0.959996 1.413588 0.068928 -0.032242 -626802.000000 0 0 1
19.452302 28.542577 6.612085 35.168031 0.972582 1.381657 0.067877 -0.032137 227696.000000 0 0 1
17.956002 28.782577 6.159885 34.478964 1.013025 1.391176 0.074217 -0.030994 374196.000000 0 0 1
17.585802 30.146477 6.057685 35.422677 1.042713 1.398940 0.068237 -0.037354 142238.000000 0 0 1
18.110402 30.902277 4.917485 36.154101 1.040694 1.434359 0.085006 -0.034273 -262788.000000 0 0 1
18.069602 32.423577 5.120485 37.470231 1.062367 1.433713 0.092863 -0.034334 1256640.000000 0 0 1
16.707502 32.904477 5.277285 37.278613 1.100962 1.428756 0.075956 -0.027683 1015910.000000 0 0 1
16.699902 -33.945194 5.567285 38.238169 -1.113596 1.424682 0.071236 -0.030720 -759635.000000 0 0 1
15.292002 -33.412294 5.773985 37.196312 -1.141577 1.414936 0.062632 -0.026927 -309692.000000 0 0 1
14.512502 -33.471894 4.597285 36.771122 -1.161687 1.445444 0.060298 -0.025760 857923.000000 0 0 1
13.306702 -32.651694 4.683885 35.568810 -1.183811 1.438728 0.052608 -0.024388 1274130.000000 0 0 1
12.590702 -32.365794 3.356985 34.890396 -1.199798 1.474432 0.047899 -0.021498 -160959.000000 0 0 1
11.381002 -31.656994 3.481085 33.820267 -1.225675 1.467685 0.046330 -0.023662 -159420.000000 0 0 1
10.863202 -31.482394 2.196885 33.376288 -1.238532 1.504927 0.046423 -0.016827 -335169.000000 0 0 1
9.871002 -30.238394 2.156185 31.881755 -1.255263 1.503114 0.048045 -0.016752 353195.000000 0 0 1
9.329702 -29.934494 0.893485 31.367429 -1.268667 1.542308 0.046641 -0.008718 -242766.000000 0 0 1
8.289702 -30.807694 0.536585 31.908010 -1.307943 1.553979 0.040307 -0.012854 -1010810.000000 0 0 1
8.558002 -31.547594 -0.766315 32.696748 -1.305899 1.594236 0.051312 -0.009436 553680.000000 0 0 1
9.664102 -32.480694 -0.730115 33.895773 -1.281604 1.592338 0.047161 -0.015439 497332.000000 0 0 1
9.810802 -33.231894 -1.957415 34.705073 -1.283728 1.627228 0.046341 -0.006127 -1441690.000000 0 0 1
11.160702 -33.841194 -1.905115 35.684971 -1.252232 1.624209 0.045914 -0.011595 -1425950.000000 0 0 1
11.292402 33.510477 -0.817915 35.371449 1.245766 1.593922 0.040985 -0.011455 192610.000000 0 0 1
12.489702 32.750977 -0.902215 35.063273 1.206467 1.596530 0.051009 -0.015398 -3066.750000 0 0 1
12.533402 31.915177 0.377885 34.290049 1.196590 1.559776 0.054078 -0.025223 -402565.000000 0 0 1
12.815202 32.518277 1.682185 34.992821 1.195393 1.522706 0.046392 -0.023071 78873.500000 0 0 1
14.098502 33.087877 1.834085 36.013043 1.168001 1.519846 0.064098 -0.023885 -198733.000000 0 0 1
15.281702 32.114877 1.980585 35.620478 1.126659 1.515165 0.077847 -0.034440 -1028320.000000 0 0 1
15.785002 31.753277 0.766585 35.468642 1.109460 1.549182 0.079726 -0.032896 -396892.000000 0 0 1
16.737902 30.740677 0.994685 35.016225 1.072196 1.542386 0.094032 -0.029482 -230499.000000 0 0 1
17.217802 30.044677 -0.251415 34.629446 1.050411 1.578057 0.092883 -0.022783 5303.520000 0 0 1
18.231802 30.764077 -0.941715 35.773089 1.035811 1.597124 0.074474 -0.012518 47550.300000 0 0 1
17.841602 31.822477 -1.754315 36.524929 1.059805 1.618845 0.087903 -0.018540 -1507130.000000 0 0 1
19.054202 32.379377 -2.366015 37.644185 1.038900 1.633690 0.065748 -0.007485 -844880.000000 0 0 1
20.030502 32.826377 -1.430215 38.481652 1.022914 1.607971 0.052661 -0.002376 -17766.300000 0 0 1
21.003602 33.593277 -2.088715 39.673950 1.012030 1.623468 0.054650 0.005126 -680049.000000 0 0 1
22.173602 -34.077294 -1.218415 40.674502 -0.993939 1.600756 0.050107 0.005287 194879.000000 0 0 1
23.161102 33.246877 -0.781815 40.526568 0.962329 1.590089 0.042611 0.006994 584504.000000 0 0 1
23.867702 32.420777 -1.710615 40.295163 0.936195 1.613261 0.050347 0.002956 -353591.000000 0 0 1
24.747202 33.070677 -2.807415 41.400184 0.928376 1.638660 0.048734 -0.000480 -480570.000000 0 0 1
24.013902 33.893377 -3.674915 41.700522 0.954380 1.659037 0.048932 -0.011429 29956.500000 0 0 1
24.905902 -33.818594 -4.612315 42.252511 -0.936020 1.680175 0.055572 -0.010773 450273.000000 0 0 1
24.107502 -33.311494 -5.886715 41.538906 -0.944341 1.712991 0.062681 -0.025870 -251414.000000 0 0 1
23.149002 -32.379394 -5.591315 40.194082 -0.950120 1.710357 0.063539 -0.015371 -521470.000000 0 0 1
22.507102 -32.046694 -6.845515 39.754513 -0.958514 1.743854 0.066677 -0.021414 364682.000000 0 0 1
21.424502 -30.954094 -6.614315 38.221910 -0.965366 1.744722 0.069631 -0.020261 389198.000000 0 0 1
20.326002 -31.242694 -5.753615 37.714140 -0.994011 1.723953 0.067685 -0.017841 64685.400000 0 0 1
19.496702 -30.096894 -5.850715 36.334217 -0.995971 1.732525 0.067304 -0.017581 391756.000000 0 0 1
18.184602 -30.044494 -5.028415 35.477265 -1.026521 1.713012 0.052826 -0.006263 -335126.000000 0 0 1
17.017702 -30.460894 -5.625815 35.342864 -1.061318 1.730655 0.056371 -0.008253 -511286.000000 0 0 1
15.952202 -30.252894 -4.676115 34.519218 -1.085552 1.706678 0.040919 -0.005271 584058.000000 0 0 1
14.600602 -30.913194 -4.959815 34.545664 -1.129545 1.714867 0.041618 -0.004686 -168865.000000 0 0 1
14.758902 -32.348694 -5.015015 35.908405 -1.142762 1.710916 0.046254 0.005483 -520906.000000 0 0 1
13.559602 -33.058294 -5.121615 36.096323 -1.181551 1.713164 0.049267 0.000685 -485391.000000 0 0 1
13.761502 33.688877 -5.116915 36.749180 1.182994 1.710489 0.053104 -0.009137 -293549.000000 0 0 1
13.913302 33.061977 -3.813615 36.072399 1.172467 1.676715 0.067334 -0.021320 -2895.540000 0 0 1
14.340502 31.690877 -3.955715 35.008704 1.145855 1.684030 0.065499 -0.016351 731762.000000 0 0 1
13.293602 30.609577 -4.506215 33.674501 1.161079 1.705016 0.061439 -0.016162 930318.000000 0 0 1
12.196602 30.200677 -3.694815 32.779409 1.186974 1.683754 0.050406 -0.017945 412201.000000 0 0 1
12.486102 29.145677 -2.744215 31.826152 1.166047 1.657129 0.055652 -0.020607 -382894.000000 0 0 1
11.205302 28.536477 -2.172415 30.734487 1.196628 1.641539 0.044688 -0.015430 -302053.000000 0 0 1
10.483602 29.349177 -1.307815 31.192795 1.227719 1.612735 0.019839 -0.017302 -266855.000000 0 0 1
9.569102 28.532577 -0.581715 30.100067 1.247210 1.590124 0.016164 -0.011360 -263561.000000 0 0 1
8.663102 29.367477 0.309585 30.620155 1.283942 1.560686 0.012843 -0.001425 -96332.000000 0 0 1
7.852802 28.542377 1.143885 29.625028 1.302311 1.532175 0.012027 -0.008635 151911.000000 0 0 1
6.730502 29.308577 1.568585 30.112336 1.345067 1.518682 0.035513 -0.003244 370601.000000 0 0 1
5.670002 28.483677 2.354485 29.137817 1.374303 1.489903 0.047538 -0.011759 308789.000000 0 0 1
5.018802 27.493377 1.586785 27.992714 1.390239 1.514080 0.054137 -0.020730 807467.000000 0 0 1
3.821102 26.989777 2.228285 27.349847 1.430155 1.489233 0.060472 -0.025774 918919.000000 0 0 1
3.089202 26.061777 1.243585 26.273673 1.452813 1.523447 0.072788 -0.024762 187504.000000 0 0 1
1.822502 25.559577 1.636485 25.676674 1.499613 1.507019 0.067163 -0.026712 169628.000000 0 0 1
1.323102 24.708377 0.645585 24.752197 1.517299 1.544711 0.066352 -0.020644 400448.000000 0 1 0
-0.082998 24.089277 0.849785 24.104404 -1.567351 1.535535 0.060163 -0.018901 191139.000000 0 1 0
-1.132498 24.964377 1.121685 25.015212 -1.525463 1.525941 0.067995 -0.020740 -647467.000000 0 0 1
-2.347198 24.252177 1.090385 24.389883 -1.474314 1.526075 0.047595 -0.015579 -1345.150000 0 1 0
-3.540098 25.069277 1.636485 25.370830 -1.430511 1.506249 0.065846 -0.027207 -149176.000000 0 0 1
-4.790698 24.406777 1.574785 24.922309 -1.376975 1.507566 0.053813 -0.026138 -171960.000000 0 1 0
-5.703198 25.175477 2.331385 25.918458 -1.348019 1.480724 0.047406 -0.022524 1059180.000000 0 0 1
-7.057398 25.346777 1.506885 26.354064 -1.299241 1.513587 0.050977 -0.019514 924836.000000 0 0 1
-6.780998 26.304777 0.498185 27.169310 -1.318503 1.552459 0.055370 -0.023600 556634.000000 0 0 1
-7.897598 26.493677 -0.373915 27.648269 -1.281089 1.584321 0.060093 -0.019909 33537.200000 0 0 1
-7.682798 27.638177 -1.325515 28.716741 -1.299664 1.616971 0.054098 -0.015051 -20459.200000 0 0 1
-7.849398 28.927077 -0.757915 29.982716 -1.305825 1.596077 0.068178 -0.031414 91491.700000 0 0 1
-7.722498 29.903277 -1.732215 30.932888 -1.318069 1.626825 0.071735 -0.028818 -241511.000000 0 0 1
-7.654798 31.417077 -1.287215 32.361792 -1.331802 1.610583 0.066666 -0.031443 -484043.000000 0 0 1
-7.693798 32.360077 -2.365715 33.346150 -1.337374 1.641800 0.072898 -0.024753 423198.000000 0 0 1
-6.530098 32.361177 -3.201015 33.168275 -1.371682 1.667455 0.064246 -0.022544 1179220.000000 0 0 1
-5.226498 33.018477 -2.579415 33.528935 -1.413809 1.647803 0.068644 -0.027895 322315.000000 0 0 1
-5.218598 -33.827394 -2.596215 34.325890 1.417732 1.646503 0.076950 -0.026171 -222975.000000 0 0 1
-4.274998 -33.390194 -1.667315 33.704015 1.443458 1.620286 0.086714 -0.025009 -158207.000000 0 0 1
-4.216098 -31.850594 -1.577615 32.167137 1.439190 1.619860 0.109211 -0.028765 395001.000000 0 0 1
-5.463198 -31.351194 -1.118815 31.843299 1.398271 1.605939 0.100205 -0.026592 78705.400000 0 0 1
-5.598698 -30.057194 -1.569315 30.614426 1.386639 1.622079 0.115452 -0.020501 -101912.000000 0 0 1
-6.942798 -29.355294 -1.319015 30.193965 1.338555 1.614495 0.126657 -0.022712 -191487.000000 0 0 1
-7.344798 -29.087594 -0.009115 30.000571 1.323460 1.571100 0.109491 -0.018104 -262004.000000 0 0 1
-8.464898 -28.231894 -0.068215 29.473700 1.279491 1.573111 0.074355 -0.013512 -217005.000000 0 0 1
-8.611098 -27.635894 1.356085 28.978140 1.268740 1.523982 0.073638 -0.006807 -170603.000000 0 0 1
-7.627098 -26.679694 1.627185 27.796159 1.292347 1.512223 0.094425 -0.017170 -425687.000000 0 0 1
-7.448298 -26.269394 2.995085 27.468687 1.294512 1.461543 0.085582 -0.012730 219351.000000 0 0 1
-8.473298 -25.190894 3.477685 26.804332 1.246321 1.440686 0.074239 -0.015787 303107.000000 0 0 1
-8.263498 -23.931394 3.019685 25.497363 1.238315 1.452086 0.074288 -0.018868 -1057180.000000 0 0 1
-9.146198 -23.078394 3.600985 25.084503 1.193475 1.426744 0.073223 -0.020236 -692263.000000 0 0 1
-8.480298 -21.691594 3.879885 23.611316 1.198117 1.405725 0.044922 -0.011932 158615.000000 0 1 0
-7.783898 -21.816194 5.102485 23.718574 1.228081 1.353975 0.037116 -0.008624 -509901.000000 0 1 0
-7.150698 -20.630594 5.556485 22.530611 1.237148 1.321606 0.016595 -0.005147 -121370.000000 0 1 0
-7.978498 -19.451494 6.118685 21.896469 1.181550 1.287589 0.030365 -0.013955 -160859.000000 0 1 0
-8.528698 -19.774694 7.372085 22.762356 1.163607 1.240977 0.039247 -0.014569 -120118.000000 0 1 0
-9.170698 -18.707494 8.002385 22.318383 1.115007 1.204076 0.033393 -0.017829 -542588.000000 0 1 0
-27.690168 28.821177 -5.243415 40.310037 -0.805409 1.701243 0.084994 0.007633 18805.200000 0 0 1
-27.186008 29.942577 -4.558215 40.699070 -0.833613 1.683030 0.077588 -0.002354 883150.000000 0 0 1
-25.827688 29.651877 -4.136415 39.540021 -0.854219 1.675601 0.063706 0.012544 965634.000000 0 0 1
-25.073398 30.776477 -3.470915 39.848640 -0.887160 1.658009 0.043285 0.007106 -409946.000000 0 0 1
-25.567158 31.038177 -2.184915 40.271850 -0.881751 1.625077 0.024888 -0.000446 147151.000000 0 0 1
-24.847398 32.023877 -1.436515 40.558421 -0.910923 1.606222 0.024701 -0.003981 84613.300000 0 0 1
-23.670898 31.442177 -0.620015 39.361229 -0.925481 1.586549 0.019636 -0.005160 425410.000000 0 0 1
-22.567298 31.063877 -1.457715 38.423591 -0.942518 1.608743 0.033463 -0.007276 690913.000000 0 0 1
-21.446298 30.705677 -0.612015 37.458736 -0.961113 1.587135 0.036005 -0.006532 912735.000000 0 0 1
-20.297398 30.179277 -1.551015 36.403005 -0.978724 1.613416 0.041973 -0.009029 1174130.000000 0 0 1
-19.043098 30.001077 -0.856815 35.544878 -1.005219 1.594904 0.064163 -0.014886 863668.000000 0 0 1
-18.093098 29.198877 -1.527515 34.384123 -1.016053 1.615236 0.066605 -0.011587 -151067.000000 0 0 1
-16.662698 29.546577 -1.105115 33.939166 -1.057308 1.603364 0.077570 -0.022204 -434992.000000 0 0 1
-16.319998 29.014577 0.152085 33.289806 -1.058425 1.566228 0.067865 -0.022048 324551.000000 0 0 1
-15.115898 29.662377 0.581485 33.296924 -1.099500 1.553332 0.075942 -0.026721 466425.000000 0 0 1
-14.478098 28.975977 1.803085 32.441851 -1.107422 1.515189 0.082587 -0.030049 148910.000000 0 0 1
-15.235898 29.226577 3.012085 33.096798 -1.090252 1.479662 0.084828 -0.027566 160819.000000 0 0 1
-14.754398 28.572277 4.164285 32.425431 -1.094124 1.442014 0.087827 -0.040543 36326.800000 0 0 1
-13.547098 29.134077 4.938085 32.506968 -1.135546 1.418297 0.086446 -0.032083 107830.000000 0 0 1
-13.777298 30.358677 5.605285 33.806544 -1.144772 1.404222 0.079518 -0.035201 -342699.000000 0 0 1
-13.784598 31.496577 4.773285 34.710715 -1.158257 1.432843 0.098434 -0.041909 -130482.000000 0 0 1
-13.729998 32.809577 5.578585 36.001414 -1.174465 1.415215 0.091955 -0.028182 -441945.000000 0 0 1
-14.833998 33.215177 6.333885 36.924431 -1.150771 1.398407 0.097566 -0.029469 -555078.000000 0 0 1
-14.583998 -33.866794 7.120185 37.554624 1.164168 1.380046 0.117707 -0.038452 -310334.000000 0 0 1
-15.684498 -33.465594 8.092385 37.834325 1.132521 1.355241 0.100265 -0.031181 -180896.000000 0 0 1
-15.785298 33.878177 9.167085 38.483009 -1.134764 1.330273 0.081733 -0.038540 275825.000000 0 0 1
-16.978998 -34.038694 9.872685 39.298715 1.108097 1.316854 0.092832 -0.040637 -527968.000000 0 0 1
-17.188198 33.522477 11.237385 39.312459 -1.097011 1.280905 0.096767 -0.034228 -121203.000000 0 0 1
-16.445698 33.826677 12.384885 39.599122 -1.118269 1.252703 0.103166 -0.039151 862525.000000 0 0 1
-15.013798 33.630177 12.263285 38.817407 -1.150908 1.249368 0.095812 -0.026960 785676.000000 0 0 1
-14.313998 33.837977 13.612185 39.181511 -1.170608 1.215985 0.080771 -0.027553 -358782.000000 0 0 1
-14.519098 32.769477 14.507085 38.666502 -1.153722 1.186200 0.076346 -0.020966 -118957.000000 0 0 1
-13.567098 31.728077 14.475285 37.420194 -1.166721 1.173604 0.047998 -0.013244 -477669.000000 0 0 1
-13.988598 30.471877 13.774985 36.248674 -1.140429 1.180985 0.042597 -0.016564 -167044.000000 0 0 1
-14.102398 30.606877 12.400485 35.908642 -1.139031 1.218201 0.046209 -0.012939 837582.000000 0 0 1
-15.331998 30.046077 11.897385 35.768487 -1.098956 1.231714 0.042431 -0.006337 724119.000000 0 0 1
-15.225898 29.854777 10.386785 35.085909 -1.099182 1.270254 0.047132 -0.006190 233428.000000 0 0 1
-14.357098 28.772177 10.054785 33.690698 -1.107955 1.267734 0.033379 -0.002093 324290.000000 0 0 1
-14.424698 28.463277 8.633585 33.057054 -1.101737 1.306560 0.046166 -0.005040 -413506.000000 0 0 1
-13.673298 27.167277 8.354885 31.540833 -1.104512 1.302705 0.051802 -0.007168 1494190.000000 0 0 1
-12.239498 27.282377 8.614685 31.118262 -1.149088 1.290295 0.043269 -0.016091 1560400.000000 0 0 1
-11.526998 26.103877 8.379885 29.740655 -1.154965 1.285163 0.055346 -0.018390 -316868.000000 0 0 1
-10.404298 26.168277 7.344885 29.102843 -1.192368 1.315660 0.067895 -0.023606 -932129.000000 0 0 1
-10.851398 26.425577 6.060685 29.202669 -1.181151 1.361738 0.077237 -0.028582 372771.000000 0 0 1
-10.017098 25.918977 5.008485 28.235094 -1.202001 1.392468 0.081100 -0.023641 -187926.000000 0 0 1
-10.461998 26.389077 3.643785 28.620167 -1.193352 1.443135 0.078856 -0.030024 -82184.700000 0 0 1
-10.196998 27.733777 3.325085 29.735456 -1.218464 1.458740 0.085194 -0.034833 62680.600000 0 0 1
-10.657398 28.052277 2.060485 30.079162 -1.207726 1.502241 0.074766 -0.034557 -236408.000000 0 0 1
-10.314698 29.467577 1.718885 31.267965 -1.234090 1.515796 0.099198 -0.039982 41475.000000 0 0 1
-10.881198 30.511477 2.465985 32.487410 -1.228230 1.494817 0.089626 -0.049351 -39320.200000 0 0 1
-10.456998 31.708177 1.849185 33.439151 -1.252239 1.515468 0.091728 -0.042163 -37283.400000 0 0 1
-10.838498 33.057577 2.614785 34.887154 -1.253973 1.495776 0.079006 -0.034332 262624.000000 0 0 1
-12.212098 33.411177 2.536585 35.663376 -1.220372 1.499610 0.118919 -0.039441 -10637.000000 0 0 1
-12.522098 -34.067794 1.370185 36.322100 1.218561 1.533064 0.102561 -0.031783 243213.000000 0 0 1
-14.013798 -33.731894 1.076485 36.542934 1.177045 1.541334 0.114896 -0.032168 814078.000000 0 0 1
-14.822898 33.507377 0.434585 36.642209 -1.154300 1.558936 0.100571 -0.029842 70309.000000 0 0 1
-14.805398 33.435677 -0.984015 36.580222 -1.153944 1.597700 0.087237 -0.022938 -386557.000000 0 0 1
-13.556798 32.882577 -1.674115 35.606928 -1.179750 1.617830 0.089968 -0.020452 -424795.000000 0 0 1
-13.283098 31.517577 -1.532215 34.236619 -1.171936 1.615565 0.086763 -0.020191 650194.000000 0 0 1
-11.913398 31.416177 -1.958915 33.656242 -1.208338 1.629033 0.084454 -0.021363 716640.000000 0 0 1
-11.592598 29.957877 -2.350615 32.208510 -1.201579 1.643842 0.067682 -0.026649 -61642.700000 0 0 1
-11.841698 29.560377 -3.672715 32.055117 -1.189778 1.685624 0.065135 -0.018630 320194.000000 0 0 1
-10.706198 29.719977 -4.524915 31.911982 -1.225032 1.713069 0.059741 -0.015180 405290.000000 0 0 1
-11.018698 29.080077 -5.881815 31.648987 -1.208603 1.757728 0.066939 -0.017869 298146.000000 0 0 1
-11.405498 27.666177 -5.905315 30.502057 -1.179771 1.765630 0.064454 -0.009963 60159.300000 0 0 1
-11.255798 27.146177 -7.218115 30.260686 -1.177736 1.811649 0.056727 -0.009591 -45597.300000 0 0 1
-11.715798 25.718977 -7.362415 29.204980 -1.143352 1.825640 0.077284 -0.016516 137208.000000 0 0 1
-10.991998 24.771377 -6.570415 27.885758 -1.153162 1.808652 0.050365 -0.006554 44236.500000 0 0 1
-11.319798 23.444477 -6.869915 26.925398 -1.120975 1.828795 0.084636 -0.013806 -73498.100000 0 0 1
-10.677498 22.425077 -5.864615 25.520321 -1.126417 1.802670 0.060446 -0.011645 -1005900.000000 0 0 1
-9.398598 22.116077 -6.285215 24.838648 -1.168954 1.826619 0.057732 -0.008215 -813161.000000 0 1 0
-8.940998 20.846377 -5.726515 23.394569 -1.165628 1.818089 0.057955 -0.001798 -240645.000000 0 1 0
-8.640998 20.709977 -4.141015 22.819247 -1.175518 1.753278 0.042580 -0.013639 -313678.000000 0 1 0
-9.659698 20.794277 -3.162215 23.145439 -1.135920 1.707849 0.055093 -0.017861 18338.300000 0 1 0
-10.576098 19.711277 -3.110515 22.584588 -1.078338 1.708963 0.064851 -0.010787 1402010.000000 0 1 0
-11.835998 19.884177 -2.123215 23.237457 -1.033879 1.662294 0.073910 -0.005487 1071680.000000 0 1 0
-11.698298 19.600977 -0.775115 22.839643 -1.032717 1.604740 0.069328 -0.013624 -200331.000000 0 1 0
-11.275898 18.329877 -0.395615 21.524098 -1.019301 1.589177 0.063740 -0.014394 -290915.000000 0 1 0
-11.138498 18.175977 1.121885 21.346918 -1.021008 1.518217 0.061877 -0.019138 193729.000000 0 1 0
-12.399698 18.193277 1.774785 22.088407 -0.972558 1.490360 0.088100 -0.023029 129037.000000 0 1 0
-12.262398 18.409577 3.193785 22.349031 -0.983194 1.427401 0.082776 -0.019558 81464.300000 0 1 0
-13.534998 18.224477 4.060585 23.061138 -0.931995 1.393794 0.080858 -0.022880 104697.000000 0 1 0
-13.973198 16.915777 4.282185 22.354661 -0.880375 1.378048 0.061225 -0.019324 -77316.700000 0 1 0
-15.187798 16.923277 4.985685 23.279252 -0.839392 1.354956 0.072103 -0.024492 -167388.000000 0 1 0
-15.466498 15.585077 5.736085 22.693829 -0.789217 1.315265 0.046043 -0.022459 -266020.000000 0 1 0
-14.629398 15.336377 6.853685 22.275474 -0.808987 1.258044 0.044717 -0.009616 56224.200000 0 1 0
-15.084998 15.975677 8.013685 23.388001 -0.814066 1.221070 0.034927 -0.006513 -828770.000000 0 1 0
-14.085098 15.827677 9.204885 23.100547 -0.843588 1.160948 0.023737 0.001265 1557650.000000 0 1 0
-12.976898 16.784677 9.197985 23.124191 -0.912650 1.161717 0.031043 -0.004217 984549.000000 0 1 0
-12.058198 16.671177 8.121585 22.119865 -0.944606 1.194840 0.031477 -0.003124 -1425790.000000 0 1 0
-11.022298 17.768577 8.216485 22.466064 -1.015566 1.196381 0.050346 0.005052 93544.400000 0 1 0
-9.862298 17.339477 8.972485 21.872994 -1.053651 1.148114 0.047522 -0.006063 524196.000000 0 1 0
-9.134098 18.550377 9.183485 22.624868 -1.113252 1.152830 0.045113 -0.004506 103946.000000 0 1 0
-7.762498 18.346677 9.880685 22.237016 -1.170535 1.110364 0.039059 -0.015541 -330730.000000 0 1 0
-6.806298 17.685777 9.082785 21.014504 -1.203422 1.123849 0.028219 -0.010615 -197819.000000 0 1 0
-5.557098 17.818677 9.758085 21.061975 -1.268486 1.089077 0.024519 -0.015485 499491.000000 0 1 0
-4.546798 18.841777 9.191985 21.451772 -1.334009 1.127969 0.015560 -0.017176 -1635100.000000 0 1 0
-4.990898 20.133277 9.319785 22.740191 -1.327802 1.148520 0.023026 -0.027218 -458965.000000 0 1 0
-4.470598 21.059077 8.437885 23.122908 -1.361613 1.197255 0.029967 -0.030249 -407712.000000 0 1 0
-3.044098 21.578077 8.656385 23.448090 -1.430648 1.192678 0.036384 -0.024125 108525.000000 0 1 0
-1.993798 20.705877 8.269185 22.384995 -1.474801 1.192425 0.025330 -0.013439 559179.000000 0 1 0
-0.722898 21.362477 8.117485 22.864198 -1.536970 1.207850 0.027597 -0.017946 930828.000000 0 1 0
0.432602 20.359677 7.950885 21.861385 1.549552 1.198564 0.021545 -0.016553 60811.100000 0 1 0
0.697502 19.649377 9.131385 21.678716 1.535314 1.136013 0.021612 -0.019276 -440432.000000 0 1 0
2.016402 19.153177 9.100985 21.301127 1.465905 1.129343 0.010560 -0.017753 -105576.000000 0 1 0
2.607902 18.820677 10.475085 21.696692 1.433107 1.066951 0.004723 -0.025052 -114419.000000 0 1 0
3.976302 18.487877 10.502785 21.631483 1.358947 1.063824 0.022049 -0.006522 -262329.000000 0 1 0
4.376002 18.082177 11.775185 22.017482 1.333355 1.006513 0.018471 -0.012135 -831804.000000 0 1 0
5.864102 18.171177 12.028185 22.566714 1.258633 1.008647 0.041792 -0.012167 -783885.000000 0 1 0
6.731102 17.289977 11.338285 21.744143 1.199542 1.022258 0.033683 -0.009875 -450865.000000 0 1 0
7.586402 16.762077 12.293785 22.128214 1.145788 0.981747 0.036941 0.000221 -578659.000000 0 1 0
8.845702 16.062077 11.713485 21.758734 1.067401 1.002336 0.031126 -0.008994 -422657.000000 0 1 0
9.719002 17.042677 11.224585 22.603167 1.052521 1.051127 0.043463 -0.020336 -254096.000000 0 1 0
10.749102 16.256277 10.575085 22.173005 0.986569 1.073632 0.041205 -0.026022 485255.000000 0 1 0
11.691202 17.316877 9.904485 23.122657 0.976955 1.128135 0.042134 -0.023360 -1201700.000000 0 1 0
12.827602 16.820377 9.341585 23.124395 0.919266 1.154943 0.045182 -0.020137 -1069830.000000 0 1 0
13.539302 17.948277 8.814785 24.148577 0.924516 1.197139 0.054421 -0.010194 470939.000000 0 1 0
14.666502 17.569677 7.815185 24.184229 0.875215 1.241738 0.062819 -0.008908 126200.000000 0 1 0
15.695602 16.765477 8.315985 24.425166 0.818345 1.223382 0.075585 -0.016902 440460.000000 0 1 0
16.809202 16.613177 7.427085 24.773141 0.779533 1.266309 0.088188 -0.011409 1262050.000000 0 1 0
18.218802 16.527177 8.103885 25.898750 0.736751 1.252545 0.078774 -0.011162 372348.000000 0 0 1
18.457402 15.280777 8.725585 25.501248 0.691520 1.221578 0.081554 -0.008503 -125800.000000 0 0 1
19.524302 15.303077 9.630585 26.610725 0.664782 1.200485 0.080530 -0.013202 -453292.000000 0 0 1
19.783602 14.128977 10.587985 26.516491 0.620177 1.160045 0.071639 -0.007185 36266.100000 0 0 1
20.359002 13.055277 9.839585 26.110278 0.570202 1.184406 0.084217 -0.012622 376918.000000 0 0 1
20.557602 11.917577 10.652285 26.040638 0.525371 1.149368 0.084807 -0.020962 -199166.000000 0 0 1
21.495002 10.853677 9.984685 26.067822 0.467591 1.177725 0.088121 -0.016850 -735060.000000 0 0 1
22.838602 11.190077 10.287685 27.434577 0.455586 1.186411 0.083767 -0.023303 421110.000000 0 0 1
23.745002 10.467177 9.466485 27.622477 0.415190 1.220997 0.102619 -0.027166 -306680.000000 0 0 1
23.917502 8.940677 9.601385 27.279465 0.357730 1.211128 0.111959 -0.038105 -1034420.000000 0 0 1
22.768902 8.146377 9.383085 25.938940 0.343594 1.200666 0.112202 -0.030756 92196.400000 0 0 1
22.780002 6.751277 9.734685 25.676299 0.288122 1.181939 0.114321 -0.037247 -241384.000000 0 0 1
23.870002 5.815577 9.122985 26.207380 0.238980 1.215245 0.135163 -0.038642 310108.000000 0 0 1
23.634902 5.705077 7.741285 25.516347 0.236853 1.262553 0.126115 -0.025077 133401.000000 0 0 1
24.668702 4.978477 7.138385 26.158873 0.199139 1.294405 0.128944 -0.032217 -207688.000000 0 0 1
24.449702 4.755877 5.598485 25.529381 0.192118 1.349704 0.139512 -0.034144 115721.000000 0 0 1
23.350702 3.883577 5.364385 24.271672 0.164807 1.347942 0.120349 -0.029277 633610.000000 0 1 0
23.295002 3.484677 4.062885 23.902032 0.148488 1.399986 0.133592 -0.029102 361303.000000 0 1 0
22.329802 2.231277 3.905685 22.778345 0.099593 1.398480 0.114221 -0.022355 657931.000000 0 1 0
22.924202 1.046377 4.438185 23.373306 0.045613 1.379754 0.126007 -0.022847 656580.000000 0 1 0
22.142902 -0.045823 4.000585 22.501442 -0.002069 1.392054 0.101960 -0.023608 -66296.100000 0 1 0
22.795102 -1.421323 4.182185 23.219119 -0.062272 1.389690 0.113166 -0.024237 -537690.000000 0 1 0
22.876402 -1.887723 5.503785 23.604764 -0.082332 1.335466 0.119189 -0.029234 443218.000000 0 1 0
22.952502 -3.253723 5.674885 23.866470 -0.140821 1.330720 0.109419 -0.027707 -443233.000000 0 1 0
22.748802 -3.662823 7.177185 24.133716 -0.159642 1.268836 0.124993 -0.035929 -71899.800000 0 1 0
22.677102 -5.045023 7.297985 24.350848 -0.218907 1.266417 0.112653 -0.032919 350085.000000 0 1 0
22.684602 -5.341123 8.625685 24.849974 -0.231240 1.216308 0.149119 -0.040892 -90658.700000 0 1 0
22.233402 -6.764323 8.968285 24.910045 -0.295343 1.202500 0.138099 -0.046417 -16031.100000 0 1 0
20.848802 -7.016223 8.947585 23.747825 -0.324624 1.184484 0.116078 -0.039611 206077.000000 0 1 0
20.611002 -8.257223 9.450085 24.130877 -0.381043 1.168407 0.121294 -0.040055 -309680.000000 0 1 0
-26.654918 -32.883994 5.508285 42.687035 0.889641 1.441397 0.057875 -0.011600 -223964.000000 0 0 1
-27.653488 -33.751694 5.937285 44.035708 0.884385 1.435556 0.051900 -0.008630 -148819.000000 0 0 1
-27.670428 -33.859094 7.327985 44.337233 0.885641 1.404756 0.054956 -0.008793 373052.000000 0 0 1
-28.572528 33.189977 7.797085 44.483238 -0.860021 1.394605 0.066214 -0.014317 1046230.000000 0 0 1
-29.986418 33.220277 7.591685 45.391693 -0.836517 1.402758 0.056808 -0.012093 550351.000000 0 0 1
-30.579368 31.939677 7.741985 44.890746 -0.807153 1.397467 0.072001 -0.024340 1232110.000000 0 0 1
-32.157498 32.058177 7.764585 46.066476 -0.783851 1.401436 0.057231 -0.018895 742257.000000 0 0 1
-32.700638 32.182377 6.491785 46.337678 -0.777411 1.430237 0.043386 -0.017313 -591624.000000 0 0 1
-34.088695 32.301277 6.533585 47.414126 -0.758482 1.432558 0.051789 -0.017689 -624327.000000 0 0 1
-34.740667 32.186577 5.158585 47.639277 -0.747254 1.462299 0.042945 -0.011099 -353916.000000 0 0 1
-34.625667 30.925477 4.616185 46.654380 -0.729011 1.471690 0.050143 -0.016192 166517.000000 0 0 1
-35.392074 30.700977 3.470185 46.980752 -0.714540 1.496865 0.059636 -0.002840 -154871.000000 0 0 1
-35.029258 29.326877 2.796485 45.770459 -0.697022 1.509660 0.077322 -0.015998 -8561.230000 0 0 1
-35.233534 28.186677 3.636985 45.267189 -0.674738 1.490365 0.109869 -0.030830 203595.000000 0 0 1
-34.607743 27.024177 3.157185 44.022379 -0.662967 1.499017 0.099157 -0.029517 -562087.000000 0 0 1
-35.048302 25.737577 3.874685 43.655693 -0.633407 1.481924 0.106650 -0.033805 -1071900.000000 0 0 1
-36.350178 25.402677 3.559585 44.489348 -0.609942 1.490701 0.125746 -0.032037 -1108320.000000 0 0 1
36.682745 24.491777 4.465285 44.332941 0.588693 1.469904 0.125595 -0.033540 326760.000000 0 0 1
35.183365 24.148977 4.179685 42.877873 0.601523 1.473162 0.133438 -0.034040 317015.000000 0 0 1
34.948165 23.285177 3.081385 42.107822 0.587733 1.497552 0.114263 -0.037246 265689.000000 0 0 1
35.163745 21.968877 3.454285 41.605920 0.558426 1.487677 0.104157 -0.033537 -749770.000000 0 0 1
34.573125 20.968077 2.372485 40.504196 0.545174 1.512189 0.110103 -0.024833 648286.000000 0 0 1
33.141115 20.950077 2.473085 39.285562 0.563723 1.507803 0.092859 -0.026082 1083050.000000 0 0 1
32.566515 20.055777 3.443685 38.401446 0.551986 1.481000 0.072424 -0.012896 -191833.000000 0 0 1
32.962335 18.532477 3.251985 37.954494 0.512186 1.485010 0.076801 -0.016605 -600847.000000 0 0 1
32.304095 18.021077 2.108185 37.050752 0.508856 1.513866 0.060132 -0.024464 373696.000000 0 0 1
32.446205 16.591877 1.996585 36.497027 0.472699 1.516064 0.060158 -0.022573 -300806.000000 0 0 1
31.802185 15.666477 3.034785 35.581279 0.457728 1.485401 0.072492 -0.025786 1115960.000000 0 0 1
30.354155 15.658277 3.095585 34.294883 0.476249 1.480410 0.068208 -0.025945 1321260.000000 0 0 1
29.892025 14.744477 4.067485 33.577927 0.458239 1.449362 0.077654 -0.038812 413234.000000 0 0 1
28.339205 14.736677 4.204085 32.217301 0.479527 1.439932 0.072053 -0.032904 184758.000000 0 0 1
27.614005 14.385577 3.075285 31.287944 0.480269 1.472348 0.075764 -0.045320 -446212.000000 0 0 1
26.393105 15.095277 3.077185 30.560308 0.519532 1.469933 0.057611 -0.029404 -99651.900000 0 0 1
25.550805 14.560577 1.863985 29.467414 0.517969 1.507498 0.069435 -0.042514 -239734.000000 0 0 1
25.926605 14.864977 0.535785 29.890524 0.520592 1.552870 0.067454 -0.043666 318261.000000 0 0 1
27.024805 14.139277 -0.015115 30.500155 0.482032 1.571292 0.072672 -0.047165 -476792.000000 0 0 1
27.516905 14.675577 -1.379915 31.216290 0.489954 1.615016 0.082758 -0.042502 132904.000000 0 0 1
28.175705 15.931177 -1.335215 32.395301 0.514607 1.612024 0.059699 -0.030689 397034.000000 0 0 1
29.381885 16.071477 -0.621515 33.495878 0.500526 1.589352 0.069167 -0.038280 -608141.000000 0 0 1
29.847135 17.539877 -0.536715 34.623501 0.531294 1.586298 0.075965 -0.022374 -157502.000000 0 0 1
30.157225 18.145877 -1.716515 35.237444 0.541675 1.619528 0.080654 -0.020167 29413.000000 0 0 1
30.681115 19.386377 -1.369515 36.318563 0.563522 1.608514 0.067236 -0.005455 -34494.900000 0 0 1
30.763345 20.330777 -2.586715 36.965051 0.583983 1.640831 0.067743 -0.010712 366375.000000 0 0 1
31.659365 21.452577 -2.332015 38.314054 0.595538 1.631700 0.060175 -0.000169 711231.000000 0 0 1
31.552185 22.518477 -3.253015 38.899927 0.619855 1.654519 0.049755 -0.006297 -63817.900000 0 0 1
32.697945 23.568977 -3.148515 40.429759 0.624556 1.648751 0.054149 -0.010181 -88851.500000 0 0 1
32.693155 24.427877 -2.022715 40.861411 0.641698 1.620318 0.063788 -0.005655 255568.000000 0 0 1
33.395605 23.862577 -0.925015 41.055385 0.620419 1.593329 0.079155 0.005645 -341319.000000 0 0 1
33.530335 24.867477 0.278485 41.746285 0.638130 1.564125 0.092933 -0.015981 247699.000000 0 0 1
34.373205 25.978177 -0.061415 43.085806 0.647183 1.572222 0.118086 -0.013579 609036.000000 0 0 1
35.570525 26.002377 0.728085 44.067176 0.631236 1.554273 0.120493 -0.019071 490628.000000 0 0 1
36.456395 27.180177 0.276585 45.474248 0.640649 1.564714 0.100786 -0.018016 -144956.000000 0 0 1
-36.641688 27.206177 -1.081815 45.650408 -0.638679 1.594496 0.087467 -0.016249 228760.000000 0 0 1
35.968125 27.741677 -1.969715 45.466322 0.656985 1.614132 0.067123 -0.009355 -76346.100000 0 0 1
36.250755 27.096877 -3.355215 45.382986 0.641889 1.644795 0.072544 -0.008393 241026.000000 0 0 1
-36.352528 27.827677 -4.122115 45.966050 -0.653344 1.660594 0.067700 -0.003005 68965.100000 0 0 1
-36.157148 27.438477 -5.486615 45.719934 -0.649152 1.691091 0.052136 -0.003606 -210393.000000 0 0 1
36.257225 27.673577 -6.520615 46.075282 0.651932 1.712794 0.036423 0.004495 287371.000000 0 0 1
35.159395 26.857577 -6.167515 44.671588 0.652326 1.709302 0.046666 0.001966 -298496.000000 0 0 1
34.152485 26.773977 -7.153815 43.981987 0.664880 1.734175 0.043820 -0.007438 353322.000000 0 0 1
33.115195 25.644477 -6.755415 42.425122 0.658936 1.730708 0.053728 -0.016920 -46903.600000 0 0 1
33.382215 24.246077 -7.014015 41.850220 0.628171 1.739189 0.042479 -0.007815 544717.000000 0 0 1
34.547465 23.703777 -6.349015 42.375776 0.601351 1.721189 0.041495 -0.004985 760141.000000 0 0 1
34.806265 22.219677 -6.548115 41.809902 0.568164 1.728060 0.036697 -0.002849 -567210.000000 0 0 1
33.742755 21.507377 -6.007615 40.462726 0.567461 1.719820 0.043161 -0.007024 6750.930000 0 0 1
34.034435 20.123077 -6.208915 40.022889 0.533966 1.726560 0.040185 -0.011558 125263.000000 0 0 1
32.911065 19.248077 -5.615415 38.537768 0.529206 1.717029 0.066316 -0.018703 1093180.000000 0 0 1
31.682735 19.303677 -6.375615 37.644071 0.547216 1.740982 0.033897 -0.022416 588577.000000 0 0 1
30.582205 18.804977 -5.673715 36.346794 0.551303 1.727537 0.080076 -0.032676 1706910.000000 0 0 1
29.202415 18.620077 -6.504515 35.239141 0.567624 1.756443 0.051099 -0.036052 1801600.000000 0 0 1
29.252595 17.447577 -7.312415 34.836815 0.537802 1.782274 0.039422 -0.028239 -211519.000000 0 0 1
28.150405 17.451477 -8.179515 34.116035 0.554950 1.812911 0.049086 -0.030873 -206966.000000 0 0 1
28.013305 16.232877 -9.082615 33.626559 0.525187 1.844296 0.063440 -0.024220 -207270.000000 0 0 1
27.125605 16.333877 -10.168615 33.256499 0.542004 1.881536 0.064948 -0.024321 100152.000000 0 0 1
27.114005 15.150277 -10.904515 32.918211 0.509545 1.908436 0.071567 -0.002909 -90735.100000 0 0 1
26.274205 15.341877 -12.188815 32.776123 0.528508 1.951831 0.075314 -0.000643 -185146.000000 0 0 1
24.870405 15.443977 -12.019715 31.646912 0.555702 1.960384 0.066659 -0.002251 490487.000000 0 0 1
24.177405 15.541977 -13.269815 31.657352 0.571319 2.003327 0.068501 -0.002049 -11249.600000 0 0 1
24.113205 14.168177 -14.097015 31.319478 0.531229 2.037678 0.078615 -0.009445 -1018090.000000 0 0 1
25.278805 13.660777 -14.681115 32.267165 0.495446 2.043153 0.091572 -0.016115 -316982.000000 0 0 1
25.495405 14.156077 -16.003715 33.264532 0.506858 2.072710 0.106597 -0.019685 -48090.200000 0 0 1
26.907905 13.769577 -16.525615 34.448985 0.472987 2.071124 0.121459 -0.017752 310113.000000 0 0 1
27.014905 12.411277 -16.595815 34.047995 0.430663 2.079934 0.131500 -0.023831 373273.000000 0 0 1
28.322205 12.119177 -17.084515 35.226445 0.404328 2.077149 0.118198 -0.009233 539379.000000 0 0 1
28.515265 10.720877 -17.704315 35.234930 0.359621 2.097244 0.096595 -0.004844 -177920.000000 0 0 1
28.081005 10.633277 -19.030615 35.549595 0.361979 2.135690 0.083936 -0.009628 -69183.100000 0 0 1
28.216905 9.377477 -19.706015 35.671527 0.320852 2.156073 0.061825 0.002406 74126.800000 0 0 1
29.669845 9.003077 -20.118015 36.960650 0.294612 2.146362 0.058286 -0.003346 -77453.300000 0 0 1
30.093345 9.800477 -21.221815 38.105435 0.314837 2.161473 0.063636 -0.012484 185874.000000 0 0 1
30.612475 9.053877 -22.331815 38.959033 0.287560 2.181218 0.047121 -0.006407 455175.000000 0 0 1
32.102365 8.600677 -22.281215 40.012324 0.261767 2.161396 0.038532 -0.000272 -55894.400000 0 0 1
33.081105 9.580777 -22.293015 41.025959 0.281902 2.145264 0.045036 -0.001853 -502693.000000 0 0 1
34.375085 9.038977 -22.185015 41.898979 0.257131 2.128793 0.025411 -0.001472 113937.000000 0 0 1
35.451345 10.159577 -22.203915 43.046820 0.279098 2.112747 0.048175 -0.004857 27937.600000 0 0 1
35.480905 10.753377 -20.964715 42.591654 0.294276 2.085441 0.043342 -0.009877 9755.610000 0 0 1
36.586445 11.603177 -20.841015 43.675503 0.307110 2.068238 0.005247 0.000092 -250314.000000 0 0 1
36.520915 12.401777 -19.507215 43.221670 0.327362 2.039051 0.005287 0.002771 -164265.000000 0 0 1
-36.480468 11.717077 -18.431415 42.518602 -0.310780 2.019159 0.020276 -0.005383 169122.000000 0 0 1
36.716965 12.386677 -17.220315 42.404063 0.325366 1.988979 0.037950 -0.003486 -197652.000000 0 0 1
-36.429058 11.658877 -15.970615 41.449563 -0.309742 1.966332 0.035178 -0.008437 -504055.000000 0 0 1
36.491645 10.449677 -15.632515 41.051327 0.278895 1.961462 0.049527 -0.014284 305849.000000 0 0 1
-36.461558 9.763577 -14.549815 40.453304 -0.261639 1.938710 0.057401 -0.024471 175260.000000 0 0 1
36.328975 8.400277 -14.549815 40.025694 0.227234 1.942831 0.079466 -0.020172 463682.000000 0 0 1
35.038245 8.413477 -13.979715 38.650972 0.235661 1.940878 0.107341 -0.020049 550604.000000 0 0 1
35.110215 8.152577 -12.586215 38.178587 0.228156 1.906747 0.099900 -0.021806 -935996.000000 0 0 1
33.996495 8.882277 -11.876015 37.090379 0.255558 1.896728 0.113294 -0.025487 -815341.000000 0 0 1
34.225595 10.216777 -11.556215 37.540911 0.290092 1.883708 0.110359 -0.032858 -56739.300000 0 0 1
33.258905 10.722877 -10.673615 36.538485 0.311884 1.867239 0.097706 -0.023392 -424710.000000 0 0 1
33.282655 10.363177 -9.156515 36.041259 0.301854 1.827668 0.104739 -0.027640 49052.700000 0 0 1
34.319145 10.799377 -8.278815 36.918410 0.304865 1.796966 0.101146 -0.031929 302709.000000 0 0 1
34.225375 12.179477 -8.037015 37.206311 0.341887 1.788525 0.098562 -0.023715 -420909.000000 0 0 1
34.153825 12.558677 -6.513415 36.967942 0.352364 1.747912 0.086472 -0.026253 -696960.000000 0 0 1
35.351085 12.571277 -5.800215 37.965494 0.341666 1.724173 0.096179 -0.024738 -463858.000000 0 0 1
35.052875 12.765777 -4.424815 37.566582 0.349257 1.688856 0.092635 -0.026205 612420.000000 0 0 1
36.285815 12.708577 -3.440515 38.600589 0.336885 1.660046 0.092550 -0.019930 737675.000000 0 0 1
-36.363248 13.789577 -3.670515 39.062910 -0.362463 1.664899 0.078752 -0.014309 -136715.000000 0 0 1
-35.167930 13.544877 -3.001815 37.805527 -0.367638 1.650281 0.076777 -0.021842 -234596.000000 0 0 1
-34.215045 14.720977 -2.670115 37.343085 -0.406308 1.642360 0.060382 -0.016571 79882.300000 0 0 1
-34.738277 15.665777 -1.764315 38.148097 -0.423657 1.617062 0.087177 -0.018117 616384.000000 0 0 1
-33.828898 16.750977 -1.410815 37.775389 -0.459774 1.608152 0.082553 -0.016545 138182.000000 0 0 1
-34.451010 17.743377 -0.431915 38.754175 -0.475601 1.581942 0.092098 -0.013602 295190.000000 0 0 1
-35.434068 18.493677 -1.154315 39.986519 -0.481028 1.599668 0.068518 -0.007093 328660.000000 0 0 1
-36.371428 19.178477 -0.375415 41.119773 -0.485245 1.579926 0.052560 -0.005284 -252043.000000 0 0 1
36.347835 20.174177 -1.152315 41.587142 0.506698 1.598508 0.056805 -0.006901 -113561.000000 0 0 1
-36.505008 21.321277 -1.611215 42.306128 -0.528620 1.608890 0.060032 -0.007094 335808.000000 0 0 1
36.287245 22.035177 -2.577215 42.531814 0.545728 1.631428 0.052299 -0.003450 70793.100000 0 0 1
-36.544118 23.336977 -3.009615 43.464294 -0.568317 1.640095 0.072759 -0.013725 337555.000000 0 0 1
-35.318061 23.064177 -3.667115 42.341108 -0.578511 1.657514 0.062093 -0.008367 341837.000000 0 0 1
-34.645548 24.234977 -4.154115 42.484171 -0.610398 1.668733 0.065970 -0.011767 396734.000000 0 0 1
-33.164898 24.130977 -4.571315 41.268771 -0.629014 1.681793 0.064832 -0.023881 49962.100000 0 0 1
-32.932168 23.291577 -5.674615 40.733604 -0.615581 1.710561 0.040278 -0.007206 405862.000000 0 0 1
-31.538288 22.975177 -5.846515 39.455090 -0.629589 1.719526 0.055135 -0.002806 831988.000000 0 0 1
-31.279088 22.074877 -7.058015 38.929387 -0.614567 1.753108 0.049412 -0.017068 80070.900000 0 0 1
-31.810528 22.675277 -8.255215 39.927766 -0.619280 1.779052 0.046402 -0.021488 163714.000000 0 0 1
-31.225798 22.113577 -9.431415 39.408278 -0.616197 1.812468 0.020142 -0.011845 -199745.000000 0 0 1
-32.122258 22.097377 -10.636915 40.413828 -0.602569 1.837134 0.004422 0.003616 -439101.000000 0 0 1
-32.592818 23.367677 -11.079315 41.606386 -0.622017 1.840337 0.008228 0.003791 37682.400000 0 0 1
-32.988208 23.293077 -12.456015 42.260403 -0.614810 1.869984 -0.011288 0.006113 -298386.000000 0 0 1
-33.484068 24.623477 -13.061915 43.567328 -0.634078 1.875290 0.018222 0.007731 -86719.000000 0 0 1
-32.519768 25.642477 -13.078915 43.429598 -0.667701 1.876697 0.018041 0.000997 -655746.000000 0 0 1
-31.640178 25.623777 -14.212315 43.123877 -0.680718 1.906644 0.021314 -0.005068 -376413.000000 0 0 1
-30.413628 26.477677 -13.859815 42.639778 -0.716325 1.901855 0.026526 -0.005151 -234452.000000 0 0 1
-29.530488 25.863977 -12.898315 41.320232 -0.719305 1.888257 0.035339 -0.004055 618214.000000 0 0 1
-30.072758 25.667377 -11.557115 41.191649 -0.706528 1.855184 0.039460 -0.003049 -973773.000000 0 0 1
-30.313208 26.952277 -10.745615 41.961698 -0.726775 1.829763 0.051774 0.006426 535037.000000 0 0 1
-29.036878 27.574277 -10.495415 41.396072 -0.759568 1.827131 0.065491 0.005363 756346.000000 0 0 1
-29.265988 28.809277 -9.914115 42.246446 -0.777534 1.807679 0.045246 0.007353 208831.000000 0 0 1
-27.921938 29.421377 -9.474015 41.653440 -0.811541 1.800253 0.051529 0.002191 133562.000000 0 0 1
-27.849898 30.798977 -9.408615 42.576001 -0.835639 1.793620 0.058138 -0.013536 -760747.000000 0 0 1
-26.635158 31.178577 -8.857215 41.952182 -0.863824 1.783524 0.076758 -0.008469 -579017.000000 0 0 1
35.103645 -24.897623 33.739325 54.685460 -0.616914 0.905909 0.049547 -0.019492 -147345.000000 0 0 1
34.670815 -23.615923 34.033635 54.019122 -0.597961 0.889205 0.041891 -0.026887 306474.000000 0 0 1
33.755315 -23.653523 -32.996225 52.798308 -0.611219 2.245862 0.035367 -0.024044 38431.100000 0 0 1
33.139785 -22.297023 -32.725025 51.636517 -0.592249 2.257197 0.020788 -0.020844 -186694.000000 0 0 1
32.370095 -21.757923 -33.765345 51.588068 -0.591797 2.284342 0.015032 -0.018285 -3675.080000 0 0 1
32.096995 -20.389823 -33.381915 50.599548 -0.565941 2.291252 0.006703 -0.007452 145342.000000 0 0 1
31.852755 -19.372223 33.551305 50.155469 -0.546413 0.838006 0.005578 0.001472 684566.000000 0 0 1
33.071525 -19.276423 32.797576 50.408206 -0.527729 0.862370 0.028248 -0.011985 486281.000000 0 0 1
32.938875 -18.670723 31.547289 49.282825 -0.515672 0.876132 0.041930 -0.005576 31093.200000 0 0 1
34.199995 -18.627523 30.633809 49.548507 -0.498738 0.904271 0.041383 -0.004570 61040.800000 0 0 1
35.105005 -17.627923 30.990989 50.035452 -0.465365 0.902843 0.025595 -0.004619 798606.000000 0 0 1
36.235025 -17.517323 30.082069 50.247035 -0.450309 0.928940 0.033107 -0.004656 1052180.000000 0 0 1
-36.290668 -16.415323 30.466419 50.146566 0.424789 0.917827 0.022376 -0.009781 -933422.000000 0 0 1
-35.205289 -16.395523 29.621299 48.843085 0.435843 0.919198 0.038100 -0.006322 -454420.000000 0 0 1
-34.296634 -15.430723 30.180829 48.220833 0.422787 0.894527 0.042118 -0.007417 -310811.000000 0 0 1
-32.895448 -16.012223 30.385229 47.558006 0.453000 0.877717 0.056415 -0.015331 -696531.000000 0 0 1
-32.104448 -15.032423 31.018799 47.104514 0.437914 0.851959 0.057051 -0.017584 -76894.100000 0 0 1
-30.812568 -15.523523 31.329549 46.604021 0.466687 0.833553 0.067406 -0.027096 147336.000000 0 0 1
-29.912518 -14.500423 32.022549 46.156957 0.451382 0.804079 0.071085 -0.029075 -292757.000000 0 0 1
-30.396468 -14.164123 33.281358 47.246338 0.436063 0.789188 0.077258 -0.034935 44999.300000 0 0 1
-29.782448 -13.015523 33.824192 46.909210 0.412007 0.765470 0.082146 -0.028123 -262716.000000 0 0 1
-30.118608 -12.606323 -32.882715 46.339216 0.396400 2.359739 0.063049 -0.017893 -277901.000000 0 0 1
-29.849458 -13.635723 -31.968615 45.813922 0.428508 2.343107 0.086952 -0.016617 283689.000000 0 0 1
-30.016378 -13.078323 -30.647135 44.847212 0.410904 2.323162 0.087894 -0.011058 -545933.000000 0 0 1
-30.061188 -14.011523 -29.436385 44.345221 0.436162 2.296685 0.087922 -0.011690 -117386.000000 0 0 1
-31.248058 -14.768723 -29.477615 45.425611 0.441512 2.276961 0.081313 -0.015610 -185307.000000 0 0 1
-31.435908 -15.656023 -28.396215 45.162733 0.462070 2.250745 0.081224 -0.015264 410343.000000 0 0 1
-32.702588 -16.523823 -28.608615 46.486007 0.467859 2.233720 0.063260 -0.020615 262489.000000 0 0 1
-32.525448 -17.500223 -29.604925 47.335126 0.493620 2.246482 0.066498 -0.024800 279056.000000 0 0 1
-33.610928 -18.439623 -29.617905 48.445170 0.501783 2.228587 0.048343 -0.023979 405411.000000 0 0 1
-33.389138 -19.737823 -30.415055 49.289875 0.533883 2.235804 0.056089 -0.020409 -66379.000000 0 0 1
-34.592191 -20.454923 -30.374605 50.374996 0.534010 2.218015 0.040555 -0.018962 -41790.500000 0 0 1
-34.315065 -21.725723 -30.881235 51.021382 0.564421 2.220890 0.038166 -0.020638 -392272.000000 0 0 1
-35.546161 -22.559923 -31.209925 52.407434 0.565520 2.208715 0.038367 -0.021554 -311764.000000 0 0 1
-36.219918 -23.100723 -30.052675 52.427943 0.567744 2.181225 0.024247 -0.011622 740392.000000 0 0 1
36.414495 -24.183423 -30.360845 53.222498 -0.586234 2.177852 0.040610 -0.020948 460490.000000 0 0 1
-36.472608 -25.566193 -30.627085 54.054599 0.611376 2.173164 0.036789 -0.017290 -38285.100000 0 0 1
-35.875441 -25.522853 -31.899425 54.369446 0.618356 2.197794 0.051746 -0.020735 -259795.000000 0 0 1
-34.995218 -26.610893 -32.088355 54.428554 0.650134 2.201298 0.046148 -0.016831 -205468.000000 0 0 1
-35.259173 -27.456833 -33.381755 55.780181 0.661627 2.212364 0.062722 -0.026001 435966.000000 0 0 1
-36.546698 -28.057503 -33.228585 56.806897 0.654744 2.195602 0.072897 -0.017809 258847.000000 0 0 1
-36.766738 -29.196613 -33.976605 57.953817 0.671135 2.197244 0.050358 -0.014517 164226.000000 0 0 1
-36.209618 -30.429173 -33.201775 57.787792 0.698872 2.182846 0.050036 -0.015911 -120980.000000 0 0 1
36.537675 -30.849653 -32.151865 57.623304 -0.701190 2.162730 0.067088 -0.013984 -16531.000000 0 0 1
-36.357348 -31.940383 -31.540035 57.765203 0.720816 2.148383 0.062292 -0.020421 247870.000000 0 0 1
36.542585 -32.252213 -30.183505 57.328961 -0.723114 2.125271 0.044246 -0.023545 -145231.000000 0 0 1
35.566925 -33.237123 -30.215635 57.294826 -0.751550 2.126300 0.066804 -0.014286 -23191.600000 0 0 1
34.799695 -33.290173 -29.012475 56.222576 -0.763232 2.113005 0.065271 -0.017816 336003.000000 0 0 1
33.640115 33.910983 -28.910475 55.833930 0.789408 2.115067 0.063566 -0.021834 464231.000000 0 0 1
32.502445 -33.895593 -29.642795 55.533913 -0.806377 2.133859 0.074056 -0.016035 485002.000000 0 0 1
31.413185 33.435456 -29.378235 54.477506 0.816573 2.140370 0.047644 -0.018551 965565.000000 0 0 1
30.120655 33.824011 -30.157555 54.413195 0.843249 2.158237 0.013540 -0.005429 433425.000000 0 0 1
30.160645 33.149028 -31.405695 54.725134 0.832566 2.182033 0.032469 -0.007684 113162.000000 0 0 1
28.920815 33.352833 -32.055625 54.556284 0.856448 2.198849 0.033089 0.007140 123581.000000 0 0 1
28.720765 32.676381 -33.428425 54.864268 0.849736 2.225965 0.036474 -0.000876 -4515.320000 0 0 1
28.485455 31.275298 -33.245835 53.803820 0.832048 2.236876 0.030408 -0.007193 -610.907000 0 0 1
28.216305 30.602088 33.678143 53.543113 0.825938 0.890542 0.038639 -0.001653 8986.960000 0 0 1
28.360005 29.089938 33.703959 52.787037 0.798103 0.878263 0.039970 -0.029309 -12185.200000 0 0 1
29.687015 28.677888 33.916833 53.423700 0.768110 0.882963 0.050816 -0.028266 -338938.000000 0 0 1
29.675005 27.338798 -33.741495 52.597570 0.744445 2.267252 0.046830 -0.038295 1359490.000000 0 0 1
31.156185 26.750248 -33.636835 53.082204 0.709457 2.257090 0.079031 -0.046507 1228880.000000 0 0 1
31.810435 27.210128 -32.470295 52.977495 0.707611 2.230531 0.085979 -0.042282 -261096.000000 0 0 1
33.049745 26.516468 -32.464595 53.379384 0.676154 2.224570 0.089421 -0.041235 182739.000000 0 0 1
33.855275 26.825548 -31.162465 53.262453 0.670065 2.195767 0.080982 -0.034671 -26204.000000 0 0 1
34.690475 27.956238 -31.023015 54.290034 0.678314 2.179045 0.075171 -0.032643 -17167.600000 0 0 1
34.069115 29.174528 -31.235965 54.658423 0.708160 2.179099 0.070302 -0.030790 -475477.000000 0 0 1
33.116245 29.765778 -30.176085 53.789250 0.732167 2.166397 0.068605 -0.021303 -32542.300000 0 0 1
33.672355 29.940388 -28.888345 53.523741 0.726798 2.140912 0.068797 -0.017941 -493031.000000 0 0 1
32.696595 30.107388 -27.909765 52.483113 0.744195 2.131504 0.060998 -0.016551 -851330.000000 0 0 1
33.186225 30.413708 -26.541865 52.256959 0.741833 2.103554 0.060994 -0.019427 -241973.000000 0 0 1
33.723785 31.746278 -26.492165 53.356862 0.755203 2.090369 0.055210 -0.025467 37126.700000 0 0 1
34.185825 32.020128 -25.199325 53.188018 0.752698 2.064372 0.044731 -0.026195 -105704.000000 0 0 1
34.323685 33.569427 -25.033065 54.144955 0.774289 2.051422 0.053230 -0.023947 19331.200000 0 0 1
33.119035 -34.001493 -24.729015 53.520988 -0.798545 2.051094 0.051927 -0.010982 147925.000000 0 0 1
33.270945 -32.659163 -24.376015 52.609570 -0.776119 2.052555 0.047484 -0.012131 -429995.000000 0 0 1
33.679565 -31.593483 -25.525645 52.763812 -0.753450 2.075756 0.052663 -0.013780 1108280.000000 0 0 1
34.997755 -31.679163 -26.121375 53.951260 -0.735668 2.076206 0.065816 -0.020224 514260.000000 0 0 1
35.943265 -30.954313 -25.409065 53.811787 -0.710960 2.062563 0.070742 -0.022563 69956.900000 0 0 1
-36.133348 -31.278373 -25.865905 54.341517 0.713503 2.066883 0.057072 -0.019685 789350.000000 0 0 1
-35.701701 -32.634313 -25.719895 54.782505 0.740541 2.059511 0.055842 -0.024700 6167.120000 0 0 1
-35.629389 -33.120443 -24.397415 54.421053 0.748920 2.035668 0.061390 -0.020950 235555.000000 0 0 1
-34.363551 -32.675503 -23.548115 52.943894 0.760223 2.031719 0.037723 -0.017279 511350.000000 0 0 1
-34.221838 -31.267183 -23.326015 51.892908 0.740312 2.037005 0.003021 -0.014592 -400637.000000 0 0 1
-33.587938 -30.786943 -22.204815 50.685691 0.741915 2.024267 0.033744 -0.021385 -557152.000000 0 0 1
-33.318908 -29.272713 -22.294415 49.639524 0.720844 2.036584 0.028027 -0.010946 364480.000000 0 0 1
-34.478415 -28.435413 -22.256615 49.926854 0.689640 2.032847 0.009765 0.000850 406324.000000 0 0 1
-35.038899 -28.291593 -23.597115 50.842527 0.679257 2.053439 0.018849 -0.005719 -111732.000000 0 0 1
-36.241418 -27.360123 -23.728015 51.235100 0.646656 2.052309 0.015955 -0.002104 -68746.600000 0 0 1
-35.916059 -26.045043 -23.259515 50.093040 0.627416 2.053670 0.000177 -0.000173 -45983.500000 0 0 1
36.708765 -25.145873 -23.834315 50.476954 -0.600595 2.062561 0.016966 -0.000920 55721.000000 0 0 1
-36.566898 -24.630723 -25.285225 50.824730 0.592773 2.091509 0.020341 -0.000334 -167693.000000 0 0 1
-35.523270 -23.676723 -25.355805 49.652863 0.587896 2.106750 0.008021 -0.000114 -66019.300000 0 0 1
-35.381916 -23.266723 -26.677865 50.049265 0.581691 2.132977 0.020813 -0.013374 49885.600000 0 0 1
-34.210475 -22.268523 -26.873505 48.871556 0.577027 2.153017 0.024349 -0.025087 15860.700000 0 0 1
-34.267079 -21.144023 -25.977365 47.917908 0.552852 2.143757 0.024704 -0.005815 58638.200000 0 0 1
-35.222374 -20.145023 -26.260995 48.332985 0.519530 2.145201 0.031773 -0.004730 -145886.000000 0 0 1
-36.383848 -19.954723 -25.271375 48.586189 0.501652 2.117805 0.034567 -0.010263 -167351.000000 0 0 1
-36.136448 -19.348323 -23.955015 47.476765 0.491584 2.099672 0.033443 -0.012076 279745.000000 0 0 1
-35.317797 -20.153923 -23.062915 46.748534 0.518555 2.086722 0.011930 -0.003484 498472.000000 0 0 1
-36.099098 -21.396323 -22.544415 47.636102 0.535043 2.063788 0.017249 -0.001489 663626.000000 0 0 1
36.361105 -21.049023 -21.693215 47.284108 -0.524752 2.047423 0.019169 0.002395 187519.000000 0 0 1
35.794675 -22.165623 -21.078115 47.083548 -0.554449 2.034960 0.018197 0.010388 -469945.000000 0 0 1
34.706605 -21.837623 -20.083515 45.659367 -0.561619 2.026234 0.024288 0.004292 -1332200.000000 0 0 1
33.482835 -21.421923 -20.530015 44.737909 -0.569163 2.047548 0.033068 0.006253 -1249990.000000 0 0 1
32.486235 -21.812123 -19.602615 43.765131 -0.591291 2.035217 0.040696 -0.008253 41606.800000 0 0 1
31.092295 -21.426023 -20.147115 42.798499 -0.603380 2.060930 0.042485 -0.012288 -689626.000000 0 0 1
30.695935 -22.123723 -21.333415 43.437474 -0.624509 2.084182 0.041132 -0.007500 179542.000000 0 0 1
29.444395 -21.738623 -21.864015 42.633030 -0.635967 2.109289 0.056767 -0.020422 87297.800000 0 0 1
29.483825 -20.382423 -22.603215 42.375045 -0.604869 2.133422 0.041946 -0.020287 -393397.000000 0 0 1
29.712705 -19.205923 -21.864615 41.590548 -0.573832 2.124347 0.034081 -0.010219 9826.280000 0 0 1
29.676795 -18.134723 -22.741515 41.554264 -0.548523 2.149899 0.024184 -0.013682 -132546.000000 0 0 1
30.390065 -16.944123 -22.111015 41.225676 -0.508625 2.136892 0.016493 -0.002481 -239635.000000 0 0 1
29.740125 -16.353723 -20.969115 39.895151 -0.502757 2.124223 0.006754 -0.009039 260216.000000 0 0 1
30.584865 -15.591923 -20.122315 39.792582 -0.471451 2.100966 0.002613 -0.005522 293488.000000 0 0 1
31.647795 -16.354023 -19.247415 40.490739 -0.476958 2.066162 0.016781 -0.009316 31540.300000 0 0 1
32.732545 -16.822323 -19.978915 41.875615 -0.474731 2.068150 0.012457 -0.007702 -777044.000000 0 0 1
33.571155 -17.616923 -19.193615 42.494391 -0.483262 2.039437 0.019299 -0.004049 -524180.000000 0 0 1
34.780045 -18.092623 -20.004615 44.013397 -0.479678 2.042621 0.020792 -0.004432 -303012.000000 0 0 1
35.636145 -17.004423 -20.287315 44.392121 -0.445216 2.045419 0.029379 -0.005313 -79553.800000 0 0 1
36.599305 -17.376723 -21.262315 45.755280 -0.443271 2.054088 0.040997 -0.000078 237835.000000 0 0 1
-36.077852 -16.115123 -21.552115 45.008913 0.420087 2.070130 0.065232 -0.010158 694105.000000 0 0 1
-35.082623 -15.749323 -20.558015 43.605775 0.421956 2.061732 0.082844 -0.016738 1058280.000000 0 0 1
-34.172961 -14.736423 -21.035515 42.748641 0.407136 2.085267 0.087788 -0.019941 519652.000000 0 0 1
-32.889418 -14.526323 -20.179515 41.230337 0.415907 2.082237 0.093216 -0.025124 85951.700000 0 0 1
-31.834348 -15.439923 -20.181815 40.732329 0.451582 2.089177 0.090199 -0.025231 -149907.000000 0 0 1
-32.181758 -16.775223 -19.915615 41.396925 0.480514 2.072693 0.076212 -0.023800 -453960.000000 0 0 1
-30.961768 -17.737823 -19.971215 40.891453 0.520250 2.081047 0.050596 -0.031441 234244.000000 0 0 1
-31.315508 -18.927023 -19.313115 41.374988 0.543647 2.056445 0.057816 -0.027802 766327.000000 0 0 1
-30.265688 -19.937323 -19.268715 41.046219 0.582497 2.059452 0.053673 -0.025110 511680.000000 0 0 1
-30.772798 -21.287823 -18.773715 41.863933 0.605184 2.035822 0.052811 -0.003838 -390019.000000 0 0 1
-31.480708 -21.941223 -19.776615 43.169049 0.608692 2.046676 0.035320 -0.002525 -103067.000000 0 0 1
-31.676738 -23.250123 -19.397715 43.820718 0.633170 2.029360 0.028334 0.013602 -261630.000000 0 0 1
-32.625908 -24.029223 -20.297615 45.319385 0.634810 2.035188 0.010146 0.014925 -171114.000000 0 0 1
-32.026768 -24.318623 -21.567315 45.631770 0.649440 2.063078 0.010213 0.004825 -36160.600000 0 0 1
-32.823478 -25.158123 -22.331215 46.999947 0.653957 2.065911 0.006939 0.003271 -532961.000000 0 0 1
-32.683818 -25.103933 -23.878215 47.629913 0.654975 2.095929 0.007999 0.003174 -33613.600000 0 0 1
-31.422078 -25.647643 -24.202915 47.232718 0.684559 2.108795 0.022069 -0.006652 -166542.000000 0 0 1
-31.272428 -25.751323 -25.612955 47.928268 0.688878 2.134596 0.018128 0.000915 147959.000000 0 0 1
-29.845168 -26.079783 -26.119165 47.466830 0.718170 2.153474 0.026539 -0.003207 -212630.000000 0 0 1
-28.961338 -24.988823 -26.046705 46.277762 0.711898 2.168607 0.032544 -0.013431 -1539560.000000 0 0 1
-27.708638 -25.553203 -26.084545 45.838175 0.744952 2.176155 0.029142 -0.008831 -912975.000000 0 0 1
-26.620018 -24.460723 -26.301225 44.706899 0.743151 2.199756 0.039408 -0.010577 -23909.400000 0 0 1
-26.719208 -23.794923 -27.550315 45.156775 0.727572 2.226988 0.034387 -0.014420 -354505.000000 0 0 1
-25.774318 -22.798023 -27.767715 44.216641 0.724199 2.249767 0.059272 -0.022642 -342403.000000 0 0 1
-25.725648 -22.258623 -29.217615 44.843331 0.713270 2.280421 0.029830 -0.015766 -385698.000000 0 0 1
-24.903498 -23.048523 -30.036395 45.316704 0.746733 2.295363 0.039211 -0.015301 89792.700000 0 0 1
-24.766298 -22.653523 -31.394505 45.958314 0.740873 2.322807 0.033296 -0.012505 -285551.000000 0 0 1
-24.060298 -23.635323 -32.318455 46.711979 0.776488 2.334867 0.030786 -0.014922 -94103.600000 0 0 1
-24.854798 -24.800023 -32.481125 47.831220 0.784295 2.317302 0.029960 -0.016224 -155199.000000 0 0 1
-24.380798 -25.734553 -33.397065 48.703742 0.812404 2.326387 0.015642 -0.015135 -135157.000000 0 0 1
-20.076998 -15.048523 -11.456715 27.582607 0.643207 1.999135 0.058969 0.004935 -11135.200000 0 0 1
-20.577398 -14.464023 -10.267715 27.167320 0.612675 1.958370 0.065352 -0.008183 -112030.000000 0 0 1
-19.806498 -14.854523 -9.171815 26.402205 0.643490 1.925581 0.065000 -0.009625 -198637.000000 0 0 1
-20.179798 -14.034723 -7.900915 25.819027 0.607689 1.881797 0.094109 -0.026356 291246.000000 0 0 1
-21.462298 -14.435823 -7.428515 26.911077 0.592108 1.850467 0.118538 -0.030980 438104.000000 0 0 1
-21.767798 -13.838823 -6.147315 26.516779 0.566291 1.804752 0.125018 -0.036224 -505055.000000 0 0 1
-22.968098 -14.411623 -5.426415 27.652747 0.560368 1.768312 0.103324 -0.040045 -1058690.000000 0 0 1
-22.912998 -15.772223 -5.073915 28.275663 0.602866 1.751218 0.090281 -0.036408 612336.000000 0 0 1
-22.086698 -16.029523 -3.913215 27.569568 0.627803 1.713217 0.090501 -0.037097 215328.000000 0 0 1
-21.946098 -17.536023 -3.634715 28.325862 0.674161 1.699469 0.067029 -0.029198 -316399.000000 0 0 1
-23.043298 -18.093823 -2.976515 29.448933 0.665657 1.672043 0.059739 -0.025360 -154992.000000 0 0 1
-22.660098 -19.256823 -2.294515 29.825661 0.704385 1.647803 0.041354 -0.014594 -299752.000000 0 0 1
-23.816398 -20.175323 -1.886115 31.270144 0.702819 1.631150 0.042621 -0.023286 -411027.000000 0 0 1
-24.405398 -20.776923 -2.990715 32.190812 0.705263 1.663836 0.025474 -0.024904 127907.000000 0 0 1
-25.219038 -21.908923 -2.634415 33.510311 0.715277 1.649493 0.040266 -0.023951 189454.000000 0 0 1
-25.129238 -23.101423 -3.579915 34.321570 0.743379 1.675292 0.037690 -0.026110 -891207.000000 0 0 1
-23.914698 -23.747923 -3.606515 33.895185 0.781899 1.677400 0.044346 -0.021675 -1277600.000000 0 0 1
-23.771498 -24.476823 -4.802915 34.456741 0.800016 1.710641 0.053498 -0.029314 310391.000000 0 0 1
-22.306898 -24.573723 -5.347415 33.616371 0.833714 1.730547 0.059885 -0.018193 808675.000000 0 0 1
-21.727398 -23.343123 -5.896615 32.430715 0.821232 1.753635 0.049345 -0.008259 382707.000000 0 0 1
-21.630398 -22.216223 -5.014715 31.409904 0.798758 1.731136 0.043715 -0.009131 -881068.000000 0 0 1
-21.803098 -20.895023 -5.796715 30.750268 0.764134 1.760440 0.051470 -0.002969 178849.000000 0 0 1
-20.689798 -20.616023 -6.653015 29.955813 0.783612 1.794758 0.040809 -0.000141 411477.000000 0 0 1
-20.842298 -19.425323 -7.363715 29.427349 0.750224 1.823718 0.036286 0.000024 -61338.600000 0 0 1
-19.535198 -19.112023 -8.107015 28.506439 0.774449 1.859169 0.050342 -0.002309 -258617.000000 0 0 1
-19.320998 -19.859923 -9.317215 29.232311 0.799152 1.895186 0.041774 0.001936 190524.000000 0 0 1
-18.076698 -19.606423 -9.968615 28.470197 0.825970 1.928519 0.070486 0.001038 394593.000000 0 0 1
-17.666898 -18.196023 -10.468915 27.437433 0.800151 1.962275 0.073658 0.005549 -337722.000000 0 0 1
-17.494298 -17.096923 -9.568415 26.266134 0.773911 1.943664 0.091306 -0.008673 -86836.500000 0 0 1
-16.236298 -17.114823 -8.932815 25.225577 0.811734 1.932766 0.117875 -0.011416 -314434.000000 0 0 1
-15.959598 -15.888223 -8.014115 23.903356 0.783157 1.912690 0.109830 -0.018393 -85041.200000 0 1 0
-16.622098 -15.885323 -6.750315 23.962562 0.762737 1.856364 0.089037 -0.021770 165867.000000 0 1 0
-16.314598 -14.817423 -5.932615 22.823629 0.737344 1.833749 0.080212 -0.031644 39252.800000 0 1 0
-17.279298 -14.848723 -4.706715 23.263961 0.709889 1.774520 0.101053 -0.030169 193576.000000 0 1 0
-17.590798 -13.530723 -4.309115 22.607192 0.655672 1.762578 0.099423 -0.036213 225897.000000 0 1 0
-18.100998 -13.660923 -2.964515 22.870402 0.646506 1.700784 0.090752 -0.041100 -155222.000000 0 1 0
-19.140698 -12.612923 -2.571315 23.066508 0.582647 1.682502 0.108248 -0.037657 95581.000000 0 1 0
-20.481298 -12.829823 -3.000415 24.353448 0.559617 1.694313 0.133011 -0.044877 679859.000000 0 1 0
-21.294898 -11.824523 -2.418315 24.477342 0.506884 1.669756 0.134744 -0.035191 107144.000000 0 1 0
-22.816998 -12.132723 -2.450215 25.958080 0.488716 1.665328 0.110246 -0.031387 394596.000000 0 0 1
-23.402098 -11.582823 -3.647815 26.365253 0.459598 1.709599 0.126800 -0.040116 2006.880000 0 0 1
-24.750698 -11.923423 -3.823915 27.737833 0.448934 1.709096 0.104697 -0.034029 -516871.000000 0 0 1
-25.378468 -11.191723 -5.009415 28.185378 0.415338 1.749477 0.119680 -0.042567 -12430.100000 0 0 1
-24.782298 -11.715223 -6.195515 28.103259 0.441591 1.793078 0.104952 -0.049227 396438.000000 0 0 1
-25.163298 -10.908923 -7.328315 28.388385 0.409069 1.831898 0.118804 -0.047641 -90324.300000 0 0 1
-24.292798 -11.203223 -8.559315 28.087615 0.432108 1.880458 0.135441 -0.050419 -595433.000000 0 0 1
-23.109498 -10.460623 -8.562915 26.773066 0.425059 1.896350 0.134792 -0.048861 -621813.000000 0 0 1
-22.285398 -11.104323 -9.482515 26.643255 0.462269 1.934681 0.096926 -0.035933 -751154.000000 0 0 1
-20.867798 -10.567323 -9.663215 25.308320 0.468750 1.962561 0.105088 -0.037786 -495225.000000 0 0 1
-20.929398 -9.168323 -10.139915 24.998315 0.412880 1.988458 0.097436 -0.038771 290126.000000 0 1 0
-19.707098 -8.498223 -9.934215 23.649062 0.407133 2.004317 0.102900 -0.034117 -167435.000000 0 1 0
-19.698298 -7.086423 -10.545415 23.440267 0.345332 2.037432 0.087441 -0.037871 -130160.000000 0 1 0
-19.253398 -7.117623 -11.893115 23.723408 0.354100 2.095925 0.089781 -0.034014 437522.000000 0 1 0
-19.364698 -5.860023 -12.471415 23.766944 0.293853 2.123203 0.100585 -0.045055 -576914.000000 0 1 0
-18.783498 -5.807923 -13.842415 24.045046 0.299879 2.184240 0.122492 -0.040863 -171515.000000 0 1 0
-19.526998 -6.499223 -14.827815 25.365482 0.321300 2.195142 0.115193 -0.046856 370723.000000 0 0 1
-18.919598 -6.315823 -16.098415 25.632007 0.322192 2.249853 0.114851 -0.051084 -2285.740000 0 0 1
-19.455298 -7.281823 -17.197915 26.968535 0.358144 2.262309 0.100328 -0.038460 412276.000000 0 0 1
-20.854098 -7.171223 -17.453715 28.123869 0.331209 2.240306 0.093422 -0.044061 600613.000000 0 0 1
-21.226698 -7.945623 -18.601915 29.321270 0.358176 2.258051 0.091002 -0.038763 256734.000000 0 0 1
-22.730998 -7.658723 -18.883015 30.527407 0.324983 2.237704 0.073308 -0.036434 83321.300000 0 0 1
-22.879298 -6.335823 -19.474015 30.705736 0.270154 2.257788 0.078082 -0.039314 327874.000000 0 0 1
-24.079798 -6.177723 -20.195915 32.029298 0.251136 2.253052 0.062359 -0.033747 -25399.400000 0 0 1
-25.362158 -5.729823 -19.488715 32.494307 0.222190 2.213995 0.090738 -0.030116 -186253.000000 0 0 1
-25.396938 -4.373823 -19.087115 32.069499 0.170546 2.208286 0.085352 -0.029422 199957.000000 0 0 1
-26.595228 -4.226123 -18.346415 32.584617 0.157588 2.168855 0.104180 -0.020733 -49555.200000 0 0 1
-26.883478 -2.815023 -17.893215 32.416245 0.104332 2.155537 0.085227 -0.010785 1850.670000 0 0 1
-27.198448 -1.796423 -18.837315 33.133475 0.065953 2.175512 0.088142 -0.012452 1299890.000000 0 0 1
-28.546358 -1.838023 -19.385315 34.555222 0.064299 2.166384 0.086647 -0.012528 1084150.000000 0 0 1
-28.907368 -0.665723 -20.353715 35.360329 0.023025 2.184145 0.084760 -0.007490 -313803.000000 0 0 1
-28.304518 -0.700023 -21.643815 35.638329 0.024727 2.223477 0.095618 -0.013183 91981.300000 0 0 1
-28.860628 -1.542223 -22.645815 36.717125 0.053386 2.235422 0.106219 -0.009121 297799.000000 0 0 1
-27.972618 -1.493223 -23.974415 36.870987 0.053331 2.278676 0.111798 -0.010949 57705.700000 0 0 1
-28.060258 -0.310923 -24.722515 37.398897 0.011080 2.293013 0.114664 -0.012311 421584.000000 0 0 1
-27.504848 0.962577 -24.264815 36.690932 -0.034982 2.293387 0.108391 -0.010061 501342.000000 0 0 1
-26.028788 1.001977 -23.758715 35.255898 -0.038476 2.310262 0.104184 -0.017496 399874.000000 0 0 1
-25.057298 1.066777 -24.785815 35.261067 -0.042548 2.350295 0.099029 -0.017507 319987.000000 0 0 1
-23.740398 0.820177 -24.321215 33.997069 -0.034534 2.367981 0.081808 -0.014644 -142107.000000 0 0 1
-22.793298 0.215677 -25.294395 34.049778 -0.009462 2.408137 0.074380 -0.013133 -647100.000000 0 0 1
-22.576698 0.948177 -26.446015 34.785027 -0.041973 2.434525 0.046843 -0.007480 -190633.000000 0 0 1
-21.642198 0.250577 -27.206665 34.765646 -0.011578 2.469585 0.033123 -0.007943 -262098.000000 0 0 1
-21.334198 0.986777 -28.570295 35.670485 -0.046220 2.499677 0.020764 0.015680 -148313.000000 0 0 1
-20.480098 2.115377 -28.442525 35.112483 -0.102924 2.515017 0.019596 0.015042 397786.000000 0 0 1
-20.523598 2.951177 -29.641155 36.173549 -0.142815 2.531186 0.001690 0.019466 -166412.000000 0 0 1
-19.905398 2.374677 -30.963425 36.886280 -0.118737 2.567029 -0.010295 0.021050 -360420.000000 0 0 1
-18.502998 2.497777 -30.988375 36.178436 -0.134182 2.599329 -0.013478 0.022745 -198693.000000 0 0 1
-18.094798 1.998277 -32.260895 37.042951 -0.109988 2.627837 -0.011522 0.015867 -978198.000000 0 0 1
-16.598898 1.827077 -32.323945 36.382675 -0.109631 2.664739 0.000166 0.003389 -990611.000000 0 0 1
-15.836098 2.993777 -32.187945 35.997341 -0.186843 2.677383 0.010769 0.006860 -596609.000000 0 0 1
-14.509698 2.810677 -32.574575 35.770577 -0.191340 2.715658 0.030931 -0.007447 -363780.000000 0 0 1
-13.824598 4.180277 -32.891245 35.922531 -0.293639 2.727834 0.051356 -0.005333 -204282.000000 0 0 1
-13.553498 4.936577 -31.757575 34.879947 -0.349294 2.715245 0.067429 -0.024649 -11544.700000 0 0 1
-12.915198 6.057377 -32.298375 35.308345 -0.438551 2.725690 0.082846 -0.014021 -375503.000000 0 0 1
-12.680098 7.217477 -31.319375 34.551124 -0.517462 2.705632 0.077420 -0.020561 311394.000000 0 0 1
-11.537798 7.041777 -30.452295 33.317408 -0.547975 2.723846 0.106205 -0.039883 749536.000000 0 0 1
-11.803298 6.138377 -29.357425 32.231288 -0.479563 2.716102 0.104826 -0.041902 364307.000000 0 0 1
-10.499898 5.341577 -29.002785 31.304023 -0.470604 2.755766 0.131868 -0.051013 509414.000000 0 0 1
-9.907598 4.523877 -30.049255 31.962223 -0.428335 2.793864 0.114796 -0.058000 8382.120000 0 0 1
-10.616198 3.386577 -30.399185 32.377199 -0.308796 2.790238 0.117538 -0.053344 -435818.000000 0 0 1
-9.975998 2.606777 -31.564405 33.205835 -0.255590 2.825856 0.110411 -0.044735 503343.000000 0 0 1
-10.863298 1.529477 -31.984745 33.813821 -0.139874 2.811177 0.110412 -0.039524 602727.000000 0 0 1
-10.476198 0.815077 -33.134205 34.760475 -0.077646 2.834495 0.094839 -0.026757 -384163.000000 0 0 1
-10.843398 1.452577 33.605487 35.341449 -0.133167 0.314729 0.096759 -0.025213 12405.400000 0 0 1
-12.245398 1.346577 33.451741 35.648030 -0.109526 0.352856 0.055681 -0.021346 -91501.100000 0 0 1
-12.583498 1.462577 32.080609 34.491289 -0.115711 0.376091 0.038878 -0.006001 359814.000000 0 0 1
-14.058298 1.124677 31.694259 34.690441 -0.079831 0.418669 0.031374 -0.001916 151469.000000 0 0 1
-14.999298 2.070277 32.096319 35.488571 -0.137158 0.440795 0.030555 0.009758 -966658.000000 0 0 1
-16.192098 1.740877 31.472549 35.436366 -0.107103 0.477509 0.013123 0.009138 -893474.000000 0 0 1
-17.038098 2.982677 31.172819 35.650215 -0.173303 0.506583 0.013231 0.008764 -496680.000000 0 0 1
-17.769598 3.571277 32.216111 36.964719 -0.198335 0.512469 0.000537 0.011122 379162.000000 0 0 1
-17.061698 4.582277 32.947119 37.384642 -0.262379 0.492188 0.012086 0.012872 -211396.000000 0 0 1
-17.799698 5.162177 -33.947005 38.676563 -0.282271 2.641869 0.004263 0.019199 -134372.000000 0 0 1
-18.990098 5.850877 33.877924 39.275569 -0.298873 0.530469 -0.012112 0.021671 93416.600000 0 0 1
-20.007498 5.341277 -33.374655 39.277180 -0.260880 2.586253 -0.017347 0.025564 147871.000000 0 0 1
-21.283598 6.206577 -33.376485 40.068728 -0.283745 2.555270 -0.008095 0.021002 -441977.000000 0 0 1
-21.136698 7.579877 -32.957535 39.879991 -0.344326 2.543512 -0.003637 0.018153 92295.900000 0 0 1
-20.592298 8.464077 -33.925945 40.578974 -0.389980 2.560835 -0.025070 0.014088 -250038.000000 0 0 1
-20.503498 9.901577 -33.386285 40.411369 -0.449892 2.543056 -0.005326 0.008697 -416157.000000 0 0 1
-19.476898 10.063977 -32.419055 39.136024 -0.476929 2.546986 0.005352 0.006189 314684.000000 0 0 1
-19.234698 11.466677 -32.140515 39.172325 -0.537580 2.533065 0.032587 -0.003114 593292.000000 0 0 1
-18.450198 12.265577 -33.277225 39.977843 -0.586705 2.554206 0.018947 -0.015378 284963.000000 0 0 1
-19.334398 12.487377 33.746794 40.848496 -0.573462 0.598564 0.023075 -0.012576 972017.000000 0 0 1
-18.599298 12.783477 32.533789 39.595437 -0.602158 0.606488 0.025734 -0.009237 113355.000000 0 0 1
-19.284298 12.190777 31.305689 38.736873 -0.563732 0.629771 0.019753 -0.012748 -324903.000000 0 0 1
-19.283498 10.752177 31.368809 38.359677 -0.508647 0.613297 0.005404 0.000054 -650818.000000 0 0 1
-18.131798 10.092577 30.989179 37.295461 -0.507914 0.590055 0.018519 -0.003301 -691805.000000 0 0 1
-18.277798 8.576677 30.939859 36.944718 -0.438738 0.578171 0.012022 0.003757 305299.000000 0 0 1
-19.075398 8.022377 29.860269 36.329947 -0.398105 0.606025 0.012301 -0.005460 429659.000000 0 0 1
-19.307398 6.693577 30.156179 36.427664 -0.333718 0.595555 0.009379 -0.008604 225229.000000 0 0 1
-20.037798 5.864277 29.022589 35.752116 -0.284710 0.623615 0.025068 -0.011238 -331830.000000 0 0 1
-21.342498 6.218177 28.698149 36.300850 -0.283504 0.659067 0.045796 -0.019324 -886459.000000 0 0 1
-21.859498 5.366377 27.738619 35.722075 -0.240733 0.681685 0.046165 -0.024088 1117990.000000 0 0 1
-23.416298 5.438377 27.434369 36.476617 -0.228202 0.719541 0.047508 -0.027035 1231160.000000 0 0 1
-23.782798 6.219277 26.286749 35.990194 -0.255776 0.751909 0.058534 -0.031038 -308016.000000 0 0 1
-25.137198 6.544477 26.315939 36.976176 -0.254696 0.778881 0.068089 -0.029818 -880950.000000 0 0 1
-25.542828 7.182977 24.943919 36.417445 -0.274133 0.816269 0.065190 -0.025617 -290563.000000 0 0 1
-25.444098 6.265977 23.878369 35.451955 -0.241460 0.831806 0.052127 -0.019400 492096.000000 0 0 1
-26.416748 5.226277 23.844709 35.968440 -0.195317 0.846065 0.050659 -0.015082 -85361.000000 0 0 1
-26.355928 4.586877 22.457679 34.928810 -0.172310 0.872445 0.061564 -0.010755 -73019.300000 0 0 1
-26.932628 5.313877 21.396179 34.805175 -0.194801 0.908738 0.063604 -0.005997 43698.600000 0 0 1
-26.818008 4.517077 20.212579 33.884479 -0.166868 0.931645 0.072521 -0.010479 -431853.000000 0 0 1
-27.482408 5.221377 19.037779 33.837591 -0.187752 0.973242 0.135897 -0.028524 -246557.000000 0 0 1
-28.870768 5.024877 19.181879 35.024493 -0.172321 0.991219 0.153337 -0.027564 -300940.000000 0 0 1
-29.576238 5.483977 18.046279 35.078427 -0.183336 1.030424 0.164240 -0.027824 358384.000000 0 0 1
-31.119418 5.342677 18.244379 36.466694 -0.170025 1.046848 0.167653 -0.027971 455393.000000 0 0 1
-31.654648 6.294277 19.108679 37.507017 -0.196282 1.036228 0.171414 -0.022239 -454648.000000 0 0 1
-33.055628 6.274077 19.171779 38.724614 -0.187572 1.052870 0.174899 -0.023284 35277.100000 0 0 1
-33.607818 7.392177 20.138079 39.870690 -0.216507 1.041316 0.173419 -0.016320 126241.000000 0 0 1
-33.323768 7.207377 21.521379 40.318601 -0.213003 1.007729 0.133508 -0.026011 -33317.700000 0 0 1
-33.672278 8.291677 22.333779 41.247690 -0.241443 0.998629 0.149547 -0.026656 52040.600000 0 0 1
-0.460898 32.427577 11.399285 34.375920 -1.556584 1.232790 0.066179 -0.010336 -38343.900000 0 0 1
-0.685498 32.704477 12.781685 35.120139 -1.549839 1.198300 0.045953 -0.010753 5302.720000 0 0 1
-0.554598 34.103277 13.055785 36.521153 -1.554535 1.205222 0.046596 -0.017464 -502539.000000 0 0 1
-0.490398 -33.869694 14.600685 36.885996 1.556318 1.163822 0.040166 -0.009346 -862403.000000 0 0 1
-1.587498 33.965877 15.303585 37.288077 -1.524092 1.147887 0.027038 0.002269 -1089790.000000 0 0 1
-1.587698 -33.667994 16.589485 37.566815 1.523674 1.113416 0.022809 -0.016306 -131835.000000 0 0 1
-2.929998 -33.525494 17.335985 37.856043 1.483622 1.095114 0.016745 -0.006993 -730597.000000 0 0 1
-3.433998 33.508477 17.828285 38.111129 -1.468671 1.083999 0.011305 -0.003109 -105233.000000 0 0 1
-4.092698 33.784677 19.067885 39.009471 -1.450243 1.060081 0.010843 -0.001933 -291709.000000 0 0 1
-5.070798 32.661377 19.418385 38.334739 -1.416772 1.039620 0.010761 -0.002880 799141.000000 0 0 1
-6.238498 32.697977 18.556685 38.110722 -1.382271 1.062242 0.021648 -0.009633 353698.000000 0 0 1
-7.338698 32.017177 19.065785 37.979735 -1.345477 1.044888 0.027967 -0.017597 -138898.000000 0 0 1
-8.468298 31.905577 18.000785 37.599284 -1.311361 1.071562 0.018116 -0.027066 6718.950000 0 0 1
-9.212098 33.092177 17.767885 38.673669 -1.299293 1.093442 0.032770 -0.025397 -159271.000000 0 0 1
-9.920098 32.952377 16.573585 38.196220 -1.278382 1.121972 0.040796 -0.020877 -708855.000000 0 0 1
-10.894298 34.071577 16.297685 39.308684 -1.261323 1.143285 0.075566 -0.027444 -168456.000000 0 0 1
-12.087698 34.016477 17.067085 39.931423 -1.229365 1.129170 0.058661 -0.028206 238875.000000 0 0 1
-12.847498 -33.055194 17.002185 39.329103 1.200097 1.123748 0.036840 -0.032607 -866246.000000 0 0 1
-14.257298 -33.124194 17.534685 40.099226 1.164344 1.118222 0.066252 -0.035508 -750425.000000 0 0 1
-14.337098 -33.133994 18.937885 40.768339 1.162421 1.087699 0.048925 -0.027148 -74450.000000 0 0 1
-15.650798 -33.148394 19.443785 41.494871 1.129681 1.083110 0.043226 -0.030530 -80227.200000 0 0 1
-15.590898 -32.744694 20.929085 41.872637 1.126422 1.047397 0.034698 -0.037587 -203951.000000 0 0 1
-15.275798 -31.396894 21.115485 40.804150 1.117976 1.026889 0.060376 -0.032406 134966.000000 0 0 1
-15.023998 -31.103694 22.476185 41.210911 1.120817 0.993937 0.031685 -0.016228 14507.500000 0 0 1
-14.785598 -29.651694 22.767985 40.202214 1.108235 0.968742 0.049261 -0.018833 -379055.000000 0 0 1
-14.837798 -29.432494 24.172485 40.874699 1.103850 0.938027 0.050464 -0.022187 24334.400000 0 0 1
-14.783898 -28.016194 24.511885 40.053755 1.085242 0.912241 0.038285 -0.006324 417565.000000 0 0 1
-16.043698 -27.171994 24.090285 39.699614 1.037429 0.918750 0.053682 -0.007066 273553.000000 0 0 1
-17.137698 -27.292394 24.970785 40.769052 1.010093 0.911585 0.068904 -0.004076 -691686.000000 0 0 1
-18.169298 -26.545494 24.444785 40.402155 0.970577 0.920984 0.068518 -0.002667 -890659.000000 0 0 1
-19.277298 -26.132894 25.454985 41.261345 0.935237 0.905972 0.066833 0.000252 165332.000000 0 0 1
-20.101498 -27.138294 26.031885 42.640547 0.933270 0.914110 0.081632 -0.000817 633374.000000 0 0 1
-21.023298 -27.842494 25.215385 43.046477 0.924052 0.944965 0.084266 -0.006340 -160231.000000 0 0 1
-22.385598 -27.203994 24.870685 43.124509 0.882260 0.956091 0.065175 0.002203 -221605.000000 0 0 1
-22.446498 -26.056994 24.005585 41.941392 0.859699 0.961415 0.079864 -0.004551 735642.000000 0 0 1
-23.802298 -26.001694 23.537985 42.387194 0.829531 0.982062 0.078029 -0.003937 584964.000000 0 0 1
-24.172798 -24.553494 23.123785 41.495875 0.793211 0.979720 0.072016 0.011157 -95183.800000 0 0 1
-24.687498 -23.812494 24.216985 41.987734 0.767359 0.956035 0.066392 0.008791 199539.000000 0 0 1
-25.383718 -22.670694 23.740885 41.496062 0.729001 0.961703 0.066083 0.008688 83483.400000 0 0 1
-25.891628 -21.830094 24.917585 42.045397 0.700494 0.936470 0.061693 0.007555 87179.200000 0 0 1
-27.066318 -22.317594 25.528685 43.386338 0.689534 0.941713 0.051909 0.013268 38366.200000 0 0 1
-27.446678 -21.573394 26.671385 43.932838 0.666153 0.918397 0.039227 0.008117 -956285.000000 0 0 1
-28.518908 -22.206594 27.564485 45.456152 0.661594 0.919274 0.040578 0.003467 -356249.000000 0 0 1
-29.885368 -22.038094 27.357485 46.122064 0.635402 0.935826 0.046228 0.002994 2081.610000 0 0 1
-30.377048 -22.354094 26.049185 45.837000 0.634408 0.966358 0.050366 0.001137 -1220950.000000 0 0 1
-31.893708 -22.626594 26.019985 46.970320 0.617032 0.983675 0.061297 -0.006575 204480.000000 0 0 1
-32.462978 -23.179694 24.798585 46.969277 0.620083 1.014582 0.046316 -0.011619 674434.000000 0 0 1
-32.045718 -24.567094 24.633085 47.299673 0.654057 1.023023 0.050015 -0.010324 -409339.000000 0 0 1
-32.685828 -25.174494 23.352085 47.407155 0.656302 1.055738 0.047965 -0.009423 -820535.000000 0 0 1
-34.008388 -25.571294 23.419885 48.569049 0.644723 1.067635 0.068514 -0.017422 -836466.000000 0 0 1
-34.427934 -25.839294 22.097685 48.386563 0.643842 1.096525 0.064849 -0.010434 -1488110.000000 0 0 1
-35.416982 -26.883194 22.021285 49.618603 0.649267 1.110949 0.064179 -0.016831 -1541500.000000 0 0 1
-35.130762 -28.101494 22.749385 50.412289 0.674687 1.102612 0.055506 -0.016390 19925.400000 0 0 1
-34.153397 -28.966594 22.231785 49.997704 0.703409 1.110006 0.046169 -0.015451 -483102.000000 0 0 1
-34.631677 -30.064594 21.210085 50.528216 0.714922 1.137608 0.040636 -0.013295 -52615.000000 0 0 1
-35.129196 -29.463494 20.001685 50.022248 0.697908 1.159437 0.028395 -0.005478 583794.000000 0 0 1
-35.796692 -30.441794 19.236585 50.775508 0.704731 1.182237 0.038903 -0.005273 -472883.000000 0 0 1
-36.414308 -29.941294 17.925485 50.436157 0.688155 1.207444 0.033477 0.006235 -742928.000000 0 0 1
-35.487017 -29.549794 16.914685 49.179521 0.694360 1.219689 0.065532 0.003228 355031.000000 0 0 1
-36.075316 -29.010194 15.725885 48.890932 0.677270 1.243322 0.064792 0.016047 454532.000000 0 0 1
-36.698588 -30.014694 14.672185 49.628029 0.685543 1.270668 0.052722 0.017910 404148.000000 0 0 1
-35.643041 -30.712694 14.018085 49.093815 0.711233 1.281230 0.044068 0.003421 346409.000000 0 0 1
-36.064316 -31.621894 13.009485 49.697342 0.719860 1.305936 0.037662 0.002720 -66620.900000 0 0 1
-36.042735 -30.992294 11.591585 48.928171 0.710200 1.331612 0.037098 0.008962 -1274850.000000 0 0 1
36.422175 -30.294194 11.234985 48.688170 -0.693804 1.337944 0.021449 0.010564 -1197190.000000 0 0 1
36.676775 -29.498594 10.101285 48.139265 -0.677349 1.359391 0.013780 0.005725 -192450.000000 0 0 1
35.486395 -28.581994 9.811285 46.609826 -0.678046 1.358712 0.028704 0.007761 -320861.000000 0 0 1
35.739675 -27.562694 8.833385 45.989729 -0.656936 1.377522 0.035956 -0.027525 652239.000000 0 0 1
34.578975 -26.845694 8.358785 44.567545 -0.660158 1.382126 0.029163 -0.028572 705535.000000 0 0 1
35.018285 -25.711694 7.385185 44.067136 -0.633336 1.402412 0.026709 -0.021952 230166.000000 0 0 1
35.737575 -24.650594 7.982285 44.142303 -0.603825 1.388965 0.036942 -0.024593 2740.190000 0 0 1
35.931285 -23.633194 7.016685 43.575440 -0.581792 1.409068 0.043704 -0.037349 -104202.000000 0 0 1
36.457845 -22.259094 7.600585 43.386756 -0.548136 1.394706 0.048317 -0.045397 -220561.000000 0 0 1
35.563845 -21.449594 8.374285 42.367450 -0.542717 1.371828 0.042879 -0.036059 -240337.000000 0 0 1
35.659545 -20.054494 8.094085 41.704917 -0.512304 1.375477 0.058617 -0.046687 -519769.000000 0 0 1
34.761325 -19.212194 8.961185 40.715611 -0.504905 1.348887 0.060889 -0.038983 -654055.000000 0 0 1
35.132535 -19.186694 10.255685 41.323157 -0.499862 1.319993 0.044459 -0.040486 -237111.000000 0 0 1
34.308485 -18.388094 11.086085 40.473391 -0.492003 1.293340 0.049951 -0.030252 -183905.000000 0 0 1
34.775795 -18.422394 12.565385 41.311371 -0.487162 1.261737 0.047659 -0.039252 -583320.000000 0 0 1
35.973555 -17.774694 12.828285 42.126017 -0.458920 1.261360 0.014259 -0.025504 -427430.000000 0 0 1
36.315145 -17.970094 14.168585 42.923919 -0.459509 1.234402 0.008760 -0.009646 543934.000000 0 0 1
-35.834969 -17.453194 14.636485 42.461579 0.453229 1.218878 0.027343 -0.010568 1588650.000000 0 0 1
-34.652485 -18.014694 14.012285 41.492988 0.479415 1.226321 0.029494 -0.014631 914586.000000 0 0 1
-33.494658 -17.480894 14.612785 40.509348 0.481014 1.201750 0.045805 -0.016672 385103.000000 0 0 1
-32.174398 -17.634294 13.797485 39.198607 0.501372 1.211101 0.058220 -0.018039 346139.000000 0 0 1
-31.740368 -18.989694 13.637185 39.421216 0.539155 1.217561 0.044187 -0.012695 19160.900000 0 0 1
-30.541308 -19.038294 12.906285 38.233498 0.557421 1.226468 0.023641 -0.004905 -221318.000000 0 0 1
-30.100898 -20.439394 12.529385 38.481403 0.596513 1.239154 0.022234 -0.012993 -313526.000000 0 0 1
-30.621748 -20.955194 11.335085 38.798141 0.600127 1.274317 0.025439 -0.007231 -669820.000000 0 0 1
-29.682438 -21.764594 10.688185 38.327301 0.632693 1.288183 0.025236 -0.005483 -938180.000000 0 0 1
-30.229048 -22.593094 9.484185 38.912633 0.641833 1.324586 0.034681 -0.014470 408489.000000 0 0 1
-31.091218 -23.665994 9.833185 40.291868 0.650618 1.324258 0.039382 -0.017167 384630.000000 0 0 1
-32.353578 -23.359894 10.420385 41.243461 0.625351 1.315373 0.056060 -0.020660 -406878.000000 0 0 1
-33.275808 -24.600794 10.405985 42.670400 0.636618 1.324443 0.073719 -0.021267 55426.700000 0 0 1
-33.729718 -25.011894 9.117285 42.969915 0.638064 1.356993 0.068764 -0.014470 -240019.000000 0 0 1
-34.505816 -26.174094 9.235985 44.283608 0.648945 1.360689 0.072940 -0.009854 92700.200000 0 0 1
-34.664108 -26.930294 7.912985 44.603324 0.660491 1.392444 0.061004 -0.018547 672418.000000 0 0 1
-33.397138 -27.402894 7.432785 43.835302 0.687126 1.400412 0.064050 -0.014791 528810.000000 0 0 1
-33.551918 -28.159194 6.244685 44.245537 0.698233 1.429186 0.055740 -0.016629 -490471.000000 0 0 1
-32.202728 -28.493494 5.630185 43.365815 0.724363 1.440599 0.067208 -0.014038 -364792.000000 0 0 1
-31.521538 -27.375194 5.134485 42.063899 0.715114 1.448427 0.076972 -0.013286 -714613.000000 0 0 1
-30.182208 -27.682794 4.855285 41.241685 0.742231 1.452795 0.069548 -0.016030 -241133.000000 0 0 1
-29.460218 -26.554894 4.141185 39.877516 0.733578 1.466761 0.064524 -0.010082 -102927.000000 0 0 1
-29.753958 -26.430194 2.774385 39.894240 0.726309 1.501197 0.070066 -0.009392 -133608.000000 0 0 1
-29.035378 -25.331394 2.250485 38.597894 0.717374 1.512457 0.054473 -0.019348 -69423.900000 0 0 1
-29.447718 -24.934394 0.795185 38.594358 0.702595 1.550191 0.068377 -0.025414 -222248.000000 0 0 1
-29.116668 -25.810794 -0.289615 38.910941 0.725285 1.578239 0.067377 -0.027357 -176615.000000 0 0 1
-29.258128 -25.320494 -1.630515 38.727562 0.713377 1.612911 0.069400 -0.033019 79758.100000 0 0 1
-30.708338 -25.039094 -2.096415 39.678120 0.684051 1.623656 0.085715 -0.029049 163316.000000 0 0 1
-31.237468 -23.749294 -1.790415 39.281217 0.650049 1.616392 0.090874 -0.021323 429073.000000 0 0 1
-32.488198 -23.555194 -2.471415 40.204951 0.627333 1.632306 0.115151 -0.026929 486716.000000 0 0 1
-33.164428 -22.234094 -2.147415 39.985568 0.590597 1.624527 0.109532 -0.033781 -223035.000000 0 0 1
-33.667318 -22.177994 -0.822015 40.324031 0.582495 1.591183 0.115551 -0.040993 208340.000000 0 0 1
-34.159900 -20.877494 -0.609515 40.039231 0.548592 1.586020 0.120953 -0.032782 -372788.000000 0 0 1
-34.332280 -20.519294 0.886885 40.006668 0.538703 1.548626 0.092734 -0.038740 -634929.000000 0 0 1
-35.305123 -21.208294 1.595285 41.216361 0.540945 1.532082 0.098279 -0.036270 -105529.000000 0 0 1
-35.457386 -20.755094 2.920185 41.188926 0.529580 1.499839 0.090072 -0.037202 -1113080.000000 0 0 1
-36.515388 -21.597694 3.690885 42.584699 0.534123 1.484016 0.090671 -0.029554 569223.000000 0 0 1
35.738095 -21.516694 3.127585 41.832539 -0.541937 1.495962 0.082272 -0.029359 316146.000000 0 0 1
35.112955 -20.292494 3.535685 40.708795 -0.524026 1.483834 0.083750 -0.042733 -736021.000000 0 0 1
33.800915 -19.928494 2.790885 39.337460 -0.532726 1.499789 0.077774 -0.027534 429278.000000 0 0 1
32.712265 -20.809194 3.040985 38.889104 -0.566562 1.492520 0.071716 -0.016232 -140672.000000 0 0 1
31.600335 -20.370594 2.266185 37.665340 -0.572592 1.510594 0.087892 -0.021695 365966.000000 0 0 1
30.370095 -21.237494 2.668285 37.154994 -0.610249 1.498919 0.072438 0.000113 -30571.600000 0 0 1
30.149515 -22.517894 2.095485 37.688723 -0.641498 1.515168 0.054726 -0.003476 562704.000000 0 0 1
28.958045 -23.195094 2.551785 37.189950 -0.675344 1.502127 0.051633 0.010997 782699.000000 0 0 1
28.594565 -24.383494 1.656785 37.615806 -0.706078 1.526737 0.048814 0.008867 -140772.000000 0 0 1
28.037305 -24.002994 0.443585 36.911122 -0.708030 1.558778 0.045730 0.005664 104181.000000 0 0 1
27.545205 -25.010694 -0.453015 37.208579 -0.737210 1.582972 0.032737 0.011311 -324620.000000 0 0 1
26.640105 -24.458394 -1.542815 36.197908 -0.742728 1.613431 0.041786 0.000976 -198629.000000 0 0 1
27.260305 -23.985494 -2.762215 36.415079 -0.721581 1.646723 0.033076 -0.018441 136967.000000 0 0 1
27.684805 -24.917894 -3.698915 37.430360 -0.732846 1.669779 0.038047 -0.018316 -485408.000000 0 0 1
26.547005 -25.571794 -4.531015 37.137450 -0.766689 1.693108 0.039216 -0.018023 105041.000000 0 0 1
25.930605 -24.765194 -5.509215 36.277577 -0.762414 1.723249 0.037336 -0.032326 695349.000000 0 0 1
24.899005 -23.888294 -5.034515 34.870581 -0.764684 1.715680 0.042489 -0.028550 -171506.000000 0 0 1
24.431405 -22.835694 -6.018215 33.979132 -0.751652 1.748851 0.047436 -0.034189 -220478.000000 0 0 1
23.795005 -23.362094 -7.149715 34.104371 -0.776218 1.782005 0.046807 -0.031100 -107360.000000 0 0 1
22.616005 -22.768094 -7.600715 32.979398 -0.788749 1.803356 0.032542 -0.032326 -289055.000000 0 0 1
22.795605 -21.480394 -8.421715 32.434121 -0.755702 1.833462 0.025820 -0.028250 -552516.000000 0 0 1
23.147105 -21.674094 -9.817415 33.195428 -0.752546 1.871033 0.025985 -0.033134 138802.000000 0 0 1
23.300605 -20.465494 -10.496615 32.740397 -0.720710 1.897161 0.022459 -0.034934 -225804.000000 0 0 1
24.038205 -20.572794 -11.838115 33.781891 -0.707873 1.928824 0.027978 -0.032867 1044240.000000 0 0 1
25.480805 -20.550894 -11.754515 34.781882 -0.678707 1.915534 0.046077 -0.039508 819161.000000 0 0 1
25.977405 -19.845294 -12.876315 35.134894 -0.652366 1.946022 0.044380 -0.040517 -167799.000000 0 0 1
27.515105 -19.723994 -12.899915 36.228784 -0.621940 1.934853 0.054410 -0.040829 -54980.200000 0 0 1
28.198805 -20.930994 -13.150415 37.499500 -0.638532 1.929096 0.051455 -0.038424 316911.000000 0 0 1
28.582675 -21.616194 -11.916615 37.765525 -0.647501 1.891824 0.067636 -0.044427 -306744.000000 0 0 1
28.619595 -23.082794 -12.093315 38.705876 -0.678715 1.888558 0.058910 -0.023696 118863.000000 0 0 1
29.775665 -23.544294 -12.800415 40.059639 -0.669058 1.896034 0.061318 -0.033430 531632.000000 0 0 1
29.669655 -24.808294 -13.376715 40.922810 -0.696399 1.903793 0.042699 -0.023094 -374698.000000 0 0 1
-3.464198 -9.263823 -27.621315 29.338646 1.212947 2.797747 0.074986 -0.028581 92373.500000 0 0 1
-3.397198 -7.972923 -27.069125 28.422632 1.168001 2.831742 0.074533 -0.018059 81862.300000 0 0 1
-4.190598 -7.055123 -27.824795 29.009569 1.034815 2.854811 0.070303 -0.016301 248775.000000 0 0 1
-4.308698 -5.659223 -27.098415 28.016349 0.920065 2.884903 0.068245 -0.017970 -61112.800000 0 0 1
-4.895498 -5.695023 -25.825425 26.895200 0.860750 2.858601 0.054106 -0.016922 153329.000000 0 0 1
-4.859498 -4.472923 -25.114985 25.968909 0.743999 2.884438 0.057017 -0.009961 76037.600000 0 0 1
-5.646098 -4.572223 -23.773415 24.858780 0.680689 2.845003 0.059600 -0.004923 34529.600000 0 1 0
-5.063298 -5.504223 -22.864015 24.056115 0.827098 2.825461 0.054460 -0.011648 321736.000000 0 1 0
-5.457598 -5.377223 -21.510415 22.834138 0.777980 2.799423 0.052403 -0.008951 -167729.000000 0 1 0
-4.812198 -6.408123 -20.584515 22.089445 0.926686 2.770333 0.056249 -0.019660 -231205.000000 0 1 0
-5.284298 -7.712123 -20.819315 22.822019 0.970077 2.719532 0.053648 -0.012726 269711.000000 0 1 0
-4.527298 -8.708223 -20.135315 22.400011 1.091365 2.688043 0.050204 -0.017551 -1005770.000000 0 1 0
-5.231698 -10.051723 -20.202915 23.163885 1.090901 2.630423 0.064021 -0.011578 682736.000000 0 1 0
-6.495798 -10.168223 -19.540315 22.965454 1.002311 2.588410 0.070402 -0.005310 -120384.000000 0 1 0
-7.560398 -9.500623 -20.104015 23.486015 0.898634 2.598277 0.063900 -0.005793 -1189920.000000 0 1 0
-8.748798 -9.334923 -19.095915 22.985566 0.817799 2.551301 0.057153 0.001087 -84010.600000 0 1 0
-9.438398 -10.521623 -18.905615 23.605300 0.839615 2.499602 0.079437 -0.001125 -528916.000000 0 1 0
-9.878298 -10.618123 -17.584415 22.793354 0.821478 2.451946 0.064295 -0.011387 -115677.000000 0 1 0
-10.921898 -11.763023 -17.474415 23.727869 0.822460 2.398606 0.075004 -0.005753 481510.000000 0 1 0
-12.197898 -11.637823 -18.081215 24.721610 0.761905 2.391159 0.092159 -0.016419 408715.000000 0 1 0
-12.122098 -11.837323 -19.500915 25.833180 0.773513 2.426265 0.087478 -0.027949 -1356120.000000 0 0 1
-13.472498 -11.817023 -20.248315 27.039684 0.720031 2.417102 0.080658 -0.026376 130143.000000 0 0 1
-14.192998 -13.040523 -20.088815 27.839844 0.743105 2.376885 0.079721 -0.031124 -210109.000000 0 0 1
-14.872098 -13.211323 -18.874115 27.421717 0.726330 2.329927 0.079037 -0.017246 -539167.000000 0 0 1
-16.158698 -14.038523 -19.168215 28.733328 0.715302 2.301115 0.074599 -0.014401 227697.000000 0 0 1
-15.806198 -15.361223 -19.484615 29.418588 0.771122 2.294712 0.086895 -0.018100 -107989.000000 0 0 1
-16.720898 -15.932723 -20.393415 30.811223 0.761265 2.294124 0.080695 -0.015616 47586.400000 0 0 1
-16.355798 -17.348523 -20.907515 31.711316 0.814844 2.290694 0.061498 -0.012572 142133.000000 0 0 1
-16.770698 -18.348823 -19.957215 31.878301 0.830304 2.247266 0.070406 -0.007010 231742.000000 0 0 1
-16.434598 -19.618623 -20.484315 32.780994 0.873484 2.245779 0.067433 -0.008430 -329025.000000 0 0 1
-17.040298 -20.816923 -19.784115 33.393521 0.884829 2.204898 0.061564 -0.011251 -350824.000000 0 0 1
-16.573598 -22.000923 -20.352315 34.248234 0.925178 2.207140 0.063664 -0.012376 179085.000000 0 0 1
-17.200998 -23.156223 -19.815915 34.996507 0.931904 2.172716 0.060155 -0.006580 -203381.000000 0 0 1
-16.575698 -24.444423 -20.355815 35.869803 0.974922 2.174253 0.060078 -0.001832 -266440.000000 0 0 1
-16.830398 -24.781523 -21.678415 36.977559 0.974200 2.197229 0.047771 -0.006234 302553.000000 0 0 1
-16.212098 -26.044173 -22.026415 37.766308 1.014008 2.193495 0.050061 -0.004798 82955.600000 0 0 1
-16.422298 -26.511053 -23.533415 39.068522 1.016197 2.217254 0.052281 -0.012362 2806.840000 0 0 1
-17.639098 -27.146653 -23.875915 40.226085 0.994582 2.206251 0.065999 -0.008363 42387.100000 0 0 1
-17.569298 -28.571763 -23.769515 41.109801 1.019480 2.187312 0.068303 -0.008571 -617222.000000 0 0 1
-18.589398 -29.270703 -24.628715 42.531322 1.004977 2.188387 0.078993 -0.015531 -647742.000000 0 0 1
-18.315798 -29.319753 -26.015945 43.265989 1.012419 2.215927 0.070084 -0.013088 200059.000000 0 0 1
-18.558998 -28.081033 -26.732305 42.983683 0.986791 2.241985 0.086093 -0.020270 -126481.000000 0 0 1
-17.360298 -27.700353 -27.616125 42.794157 1.010963 2.272245 0.087525 -0.026045 -146774.000000 0 0 1
-17.440298 -28.191983 -28.887165 43.970675 1.016794 2.287581 0.077302 -0.028614 796229.000000 0 0 1
-16.272498 -27.730573 -29.579035 43.688651 1.040134 2.314532 0.061360 -0.023120 619428.000000 0 0 1
-16.552098 -27.962693 -31.128925 44.998824 1.036328 2.334736 0.063095 -0.026847 184904.000000 0 0 1
-16.593198 -29.345713 -31.485905 46.128812 1.056177 2.322063 0.049213 -0.023252 110260.000000 0 0 1
-17.228898 -29.495293 -32.702285 47.288970 1.042132 2.334417 0.044486 -0.020930 -221453.000000 0 0 1
-17.036198 -30.968473 -33.190225 48.485765 1.067865 2.324763 0.028091 -0.015835 -252468.000000 0 0 1
-15.776598 -31.248183 -33.758475 48.631108 1.103252 2.338069 0.046839 -0.006192 -207828.000000 0 0 1
-15.766598 -32.475543 33.760000 49.426553 1.118823 0.818888 0.026957 0.000341 381684.000000 0 0 1
-14.529298 -32.963793 32.903626 48.788941 1.155648 0.830634 0.034484 0.003592 848844.000000 0 0 1
-13.617998 -33.706283 33.712825 49.579411 1.186830 0.823066 0.044816 0.000476 90164.100000 0 0 1
-12.615498 33.841867 32.988101 48.914595 -1.213975 0.830642 0.053767 -0.004290 496338.000000 0 0 1
-11.746298 32.968524 33.983812 48.783180 -1.228531 0.800107 0.071400 -0.007712 915257.000000 0 0 1
-10.795498 33.715361 -33.350375 48.636570 -1.260916 2.326369 0.072605 -0.004483 649306.000000 0 0 1
-10.204298 32.933438 -32.307955 47.249794 -1.270331 2.323712 0.074105 -0.012840 139035.000000 0 0 1
-9.341498 33.735127 -31.325395 46.974491 -1.300658 2.300783 0.067300 -0.007972 -78538.700000 0 0 1
-10.116298 -33.632993 -30.540065 46.542596 1.278620 2.286534 0.077612 -0.015025 -42135.200000 0 0 1
-9.357298 -32.768723 -29.698635 45.203508 1.292643 2.287627 0.074632 -0.022856 -318185.000000 0 0 1
-10.248998 -31.764883 -28.924175 44.166250 1.258690 2.284838 0.079166 -0.020461 235066.000000 0 0 1
-10.448898 -32.044273 -27.542065 43.526776 1.255591 2.255911 0.090287 -0.029032 79504.800000 0 0 1
-11.186398 -33.246793 -27.316635 44.459907 1.246229 2.232435 0.083655 -0.025221 -486990.000000 0 0 1
-11.446598 -33.406733 -25.802535 43.735629 1.240690 2.201813 0.090081 -0.037014 -370874.000000 0 0 1
-10.332198 -33.569653 -24.976415 43.098692 1.272214 2.188932 0.093424 -0.045121 -616851.000000 0 0 1
-10.657898 -33.576163 -23.581715 42.391589 1.263431 2.160702 0.097077 -0.053836 -127865.000000 0 0 1
-9.467298 -33.799513 -22.646615 41.772072 1.297693 2.143787 0.101689 -0.059430 -435288.000000 0 0 1
-8.912798 33.209515 -22.609015 41.151882 -1.308594 2.152447 0.086475 -0.058145 -264185.000000 0 0 1
-8.220498 32.945137 -21.405115 40.138979 -1.326269 2.133264 0.114451 -0.059116 -41355.700000 0 0 1
-7.406298 31.614278 -21.413715 38.895540 -1.340676 2.153812 0.116672 -0.067510 504825.000000 0 0 1
-6.182498 31.539058 -22.156415 39.036422 -1.377224 2.174364 0.101072 -0.074014 640074.000000 0 0 1
-5.539698 30.323998 -21.924715 37.827586 -1.390105 2.189029 0.078692 -0.059468 -1340800.000000 0 0 1
-4.128398 30.291268 -22.419115 37.910702 -1.435341 2.203549 0.083045 -0.061686 -1239730.000000 0 0 1
-3.895098 30.335038 -23.845215 38.781189 -1.443092 2.233012 0.093906 -0.056521 645405.000000 0 0 1
-2.623598 30.930518 -24.173315 39.343734 -1.486177 2.232439 0.080030 -0.061338 585285.000000 0 0 1
-2.563898 31.050878 -25.723675 40.403442 -1.488412 2.260969 0.080554 -0.030245 -312138.000000 0 0 1
-1.678198 32.051158 -26.204665 41.434015 -1.518484 2.255500 0.088491 -0.051484 244769.000000 0 0 1
-2.170298 33.400640 -26.061995 42.420992 -1.505910 2.232378 0.085490 -0.045310 -4793.200000 0 0 1
-1.270498 -33.816623 -26.787445 43.159534 1.533244 2.240382 0.034131 -0.029366 86603.300000 0 0 1
0.045102 -33.658653 -26.292055 42.710410 -1.569456 2.233929 0.059361 -0.032426 230403.000000 0 0 1
0.696202 -32.581123 -26.970105 42.301310 -1.549431 2.262138 0.033692 -0.016657 -104835.000000 0 0 1
2.057802 -32.184523 -26.392165 41.672826 -1.506946 2.256630 0.047310 -0.005555 -468523.000000 0 0 1
1.896202 -31.526073 -25.126465 40.358743 -1.510722 2.242829 0.039360 -0.008101 930674.000000 0 0 1
3.080802 -30.776313 -24.774115 39.628646 -1.471026 2.246129 0.026610 -0.006072 458355.000000 0 0 1
3.129802 -30.114083 -23.364015 38.243050 -1.467237 2.228037 0.039327 -0.009735 -214619.000000 0 0 1
3.182802 -30.958643 -22.213615 38.236272 -1.468348 2.190700 0.042722 -0.013534 561482.000000 0 0 1
2.976702 -30.244943 -20.975615 36.926870 -1.472692 2.174908 0.050062 -0.004640 -221726.000000 0 0 1
2.850702 -31.043973 -19.591915 36.819803 -1.479225 2.131878 0.056542 -0.001831 -703329.000000 0 0 1
1.722002 -31.834473 -19.410715 37.325257 -1.516757 2.117697 0.068499 -0.003625 -438629.000000 0 0 1
1.746802 -33.171673 -19.836215 38.689619 -1.518185 2.109124 0.062069 -0.003687 -491264.000000 0 0 1
2.344302 34.008462 -18.859615 38.958393 1.501972 2.076126 0.041296 -0.013195 1145750.000000 0 0 1
3.769002 -34.090241 -18.671815 39.051077 -1.460684 2.069330 0.045363 -0.003108 1313240.000000 0 0 1
4.427802 33.103874 -17.906015 37.895874 1.437831 2.062928 0.054542 -0.020844 587442.000000 0 0 1
5.464702 32.321090 -18.746615 37.761772 1.403305 2.090294 0.076156 -0.022686 272397.000000 0 0 1
6.696702 32.994591 -18.962515 38.640211 1.370553 2.083742 0.106026 -0.020466 -340494.000000 0 0 1
7.592702 32.158798 -19.624515 38.431225 1.338942 2.106725 0.106462 -0.035330 -380577.000000 0 0 1
8.995602 32.772241 -19.671015 39.266901 1.302906 2.095500 0.097280 -0.042732 -186092.000000 0 0 1
9.775902 32.818616 -18.472115 38.908211 1.281289 2.065489 0.079691 -0.035617 -83449.900000 0 0 1
10.993502 33.442713 -18.766915 39.893223 1.253198 2.060573 0.073103 -0.020961 -574148.000000 0 0 1
11.893402 33.588993 -17.562315 39.725413 1.230486 2.028727 0.047250 -0.021083 -625106.000000 0 0 1
12.542002 32.453474 -17.054315 38.747638 1.202016 2.026549 0.046385 -0.025897 -180706.000000 0 0 1
13.258502 32.689562 -15.877415 38.684463 1.185482 1.993726 0.035951 -0.029940 -331406.000000 0 0 1
14.443702 31.735278 -15.628615 38.209973 1.143684 1.992175 0.042540 -0.022588 112891.000000 0 0 1
14.185502 30.452728 -15.053415 36.813074 1.134864 1.992061 0.044840 -0.019112 -437167.000000 0 0 1
15.424802 29.799188 -14.980815 36.746986 1.093148 1.990702 0.047854 -0.012437 -321090.000000 0 0 1
15.465602 28.517598 -14.078715 35.364509 1.073870 1.980244 0.060736 -0.016901 -548951.000000 0 0 1
15.400302 28.841788 -12.665115 35.063132 1.080353 1.940360 0.055789 -0.016988 618032.000000 0 0 1
14.073802 28.939648 -12.128915 34.390198 1.118156 1.931236 0.056242 -0.023887 521520.000000 0 0 1
13.392102 27.658528 -11.703015 32.883174 1.119873 1.934670 0.053517 -0.017727 -905997.000000 0 0 1
12.811002 26.957448 -12.792515 32.472669 1.127160 1.975718 0.058618 -0.022545 15648.100000 0 0 1
12.391402 25.633058 -12.507315 31.097162 1.120505 1.984716 0.078108 -0.023237 202867.000000 0 0 1
11.434802 25.447398 -11.290815 30.096633 1.148483 1.955357 0.077670 -0.027408 -958078.000000 0 0 1
10.203502 26.077408 -11.513415 30.277077 1.197832 1.960883 0.072457 -0.025709 -239427.000000 0 0 1
9.497602 26.145098 -10.262915 29.649588 1.222353 1.924250 0.054796 -0.019701 -182839.000000 0 0 1
8.382202 27.178998 -10.320415 30.256739 1.271644 1.918878 0.065452 -0.021151 -12004.200000 0 0 1
8.916102 28.489998 -10.501515 31.645832 1.267497 1.909055 0.062713 -0.024857 442330.000000 0 0 1
7.799802 29.353328 -10.626315 32.177218 1.311077 1.907358 0.054391 -0.023385 503429.000000 0 0 1
8.236202 30.804168 -11.002715 33.731166 1.309535 1.903065 0.069216 -0.024080 102695.000000 0 0 1
8.984402 31.444298 -9.943315 34.180885 1.292487 1.865967 0.053151 -0.019703 26764.100000 0 0 1
9.378102 32.776277 -10.343715 35.626193 1.292117 1.865379 0.057115 -0.019382 104104.000000 0 0 1
10.526602 32.909672 -11.371415 36.375335 1.261217 1.888739 0.042712 -0.016840 -990115.000000 0 0 1
11.774902 32.653108 -10.820915 36.358851 1.224705 1.872989 0.031817 -0.016305 -92483.400000 0 0 1
12.809502 32.891403 -11.831415 37.227814 1.199419 1.894216 0.032536 -0.018275 417204.000000 0 0 1
14.200902 32.556784 -11.306915 37.275410 1.159487 1.878986 0.040116 -0.021545 -246231.000000 0 0 1
14.665802 33.433914 -10.274915 37.927381 1.157421 1.845135 0.040969 -0.015671 -1266820.000000 0 0 1
15.942402 33.887671 -10.458815 38.883432 1.131068 1.843129 0.057673 -0.028232 -1095640.000000 0 0 1
16.474702 -33.509463 -9.304715 38.482173 -1.113856 1.815009 0.058450 -0.027774 -46810.700000 0 0 1
16.675502 34.043523 -8.117315 38.767572 1.115319 1.781741 0.059356 -0.021416 -7010.110000 0 0 1
17.018402 -33.458193 -6.947315 38.175147 -1.100255 1.753801 0.054507 -0.021775 -949719.000000 0 0 1
17.366002 33.852786 -5.704615 38.472481 1.096814 1.719623 0.060888 -0.017317 539881.000000 0 0 1
18.475002 32.963669 -5.857515 38.239243 1.059954 1.724583 0.058226 -0.021436 -184446.000000 0 0 1
19.727602 33.534432 -6.104515 39.382757 1.039040 1.726429 0.061511 -0.018599 -977508.000000 0 0 1
20.586502 32.596539 -7.002315 39.183809 1.007497 1.750466 0.057293 -0.022836 195659.000000 0 0 1
21.011302 31.403298 -6.409115 38.323866 0.981125 1.738821 0.061927 -0.014960 -206508.000000 0 0 1
22.126302 31.451798 -5.539815 38.852007 0.957726 1.713872 0.060829 -0.016666 -244699.000000 0 0 1
22.516402 30.049948 -5.043615 37.887014 0.927744 1.704315 0.051903 -0.023892 -126294.000000 0 0 1
23.056802 29.268048 -6.121415 37.758529 0.903551 1.733635 0.054805 -0.024799 207274.000000 0 0 1
23.428502 27.939908 -5.662515 36.899827 0.872998 1.724862 0.056672 -0.017598 -499220.000000 0 0 1
24.415702 27.226738 -6.566315 37.155596 0.839777 1.748454 0.051408 -0.016143 -61843.700000 0 0 1
25.701602 27.877908 -6.592415 38.486492 0.825994 1.742937 0.062405 -0.020030 111284.000000 0 0 1
26.702602 27.169708 -7.232415 38.775377 0.794069 1.758416 0.044705 -0.016858 -236538.000000 0 0 1
27.357802 26.154158 -6.237415 38.358763 0.762909 1.734129 0.040882 -0.016287 -550790.000000 0 0 1
28.376002 26.681068 -5.393215 39.321288 0.754623 1.708388 0.056899 -0.017077 424303.000000 0 0 1
29.079802 25.755738 -4.578615 39.114660 0.724853 1.688122 0.052517 -0.010170 -584224.000000 0 0 1
30.371402 26.346268 -4.078515 40.412649 0.714549 1.671890 0.058196 -0.010530 -939068.000000 0 0 1
30.163902 27.243878 -2.972415 40.754449 0.734577 1.643796 0.060887 -0.020791 -103820.000000 0 0 1
31.313902 27.454668 -2.194615 41.702945 0.719824 1.623446 0.061928 -0.031435 -72360.700000 0 0 1
31.055002 28.553478 -1.130115 42.201794 0.743457 1.597578 0.080199 -0.017442 203215.000000 0 0 1
30.933902 29.830358 -1.631615 43.004869 0.767239 1.608746 0.076655 -0.012427 -31594.600000 0 0 1
30.841102 30.812758 -0.630615 43.600428 0.784938 1.585260 0.089072 -0.018212 -196026.000000 0 0 1
33.287645 22.263477 19.128579 44.380539 0.589493 1.125181 0.112479 -0.026131 -94697.900000 0 0 1
33.693335 22.558577 20.485879 45.429082 0.589980 1.102976 0.086740 -0.026412 113571.000000 0 0 1
34.628465 23.580277 20.669579 46.716074 0.597826 1.112466 0.089199 -0.025146 -241725.000000 0 0 1
34.880165 23.749077 22.178779 47.671195 0.597776 1.086885 0.064217 -0.006183 205860.000000 0 0 1
33.696435 24.129477 22.883879 47.342933 0.621439 1.066303 0.047409 -0.001360 512147.000000 0 0 1
33.820865 24.233477 24.307419 48.186751 0.621730 1.042061 0.039001 -0.004900 -561141.000000 0 0 1
32.487195 24.637977 24.952459 47.802437 0.648849 1.021612 0.044300 -0.001979 -78033.400000 0 0 1
32.132245 25.973977 24.666299 48.120214 0.679809 1.032589 0.026199 -0.003353 246024.000000 0 0 1
30.829115 26.288777 25.111729 47.666897 0.706074 1.015945 0.024737 -0.013676 75439.000000 0 0 1
30.660495 27.741777 25.454129 48.554967 0.735464 1.018982 0.024340 -0.008674 -203597.000000 0 0 1
30.705665 28.671977 24.405599 48.585527 0.751161 1.044514 0.018978 -0.016729 198719.000000 0 0 1
30.285005 29.940977 24.851529 49.307627 0.779686 1.042561 0.016275 -0.013158 -132062.000000 0 0 1
30.514835 31.092777 23.806039 49.645175 0.794779 1.070684 0.015877 -0.013930 -199990.000000 0 0 1
31.841315 31.354977 23.421529 50.453661 0.777703 1.088044 0.002250 -0.020326 -361782.000000 0 0 1
31.971995 32.112177 22.210979 50.465116 0.787586 1.115058 0.002877 -0.014758 -150040.000000 0 0 1
33.462875 32.403977 22.003879 51.516526 0.769323 1.129488 -0.003247 -0.029715 -52599.500000 0 0 1
33.872085 33.630677 22.679679 52.846082 0.781822 1.127228 0.016805 -0.014190 -1248680.000000 0 0 1
35.240765 33.739177 22.649579 53.788912 0.763633 1.136158 0.016864 -0.016956 -1283260.000000 0 0 1
35.726285 -33.222794 23.311789 54.069964 -0.749105 1.125039 0.031364 -0.006612 -398390.000000 0 0 1
35.523775 -32.050094 22.598679 52.913584 -0.734038 1.129528 0.027536 -0.005380 209631.000000 0 0 1
35.564805 -30.922194 23.426129 52.629089 -0.715684 1.109491 0.038799 -0.006029 -793851.000000 0 0 1
34.281975 -30.066094 23.374739 51.240631 -0.719975 1.097103 0.036633 -0.012522 -2745.090000 0 0 1
33.248645 -30.906894 23.845839 51.277018 -0.748913 1.087117 0.036537 -0.012004 -255454.000000 0 0 1
32.263915 -31.190994 22.868079 50.366530 -0.768491 1.099509 0.036628 -0.002424 -521874.000000 0 0 1
31.583035 -32.501394 23.220399 50.921662 -0.799728 1.097298 0.025538 -0.007072 -331215.000000 0 0 1
30.859465 -32.417494 24.437079 50.993836 -0.810016 1.071035 0.021225 -0.009801 167733.000000 0 0 1
30.120925 -33.624094 24.598889 51.409680 -0.840299 1.071865 0.016196 -0.010619 -272818.000000 0 0 1
29.190795 -33.782594 25.810659 51.570886 -0.858186 1.046633 0.018809 -0.014412 29080.600000 0 0 1
28.675775 33.137077 25.911679 50.909538 0.857448 1.036803 0.021713 -0.016984 66677.300000 0 0 1
27.823705 33.003477 27.030339 50.931594 0.870349 1.011348 0.026973 -0.012669 -389161.000000 0 0 1
27.309905 31.530277 27.180929 49.787470 0.857002 0.993287 0.021729 -0.015705 527761.000000 0 0 1
26.611305 31.002077 26.040869 48.450152 0.861462 1.003353 0.021636 -0.006313 531420.000000 0 0 1
25.234705 31.390477 25.997889 47.937904 0.893684 0.997595 0.018861 -0.008302 213169.000000 0 0 1
24.591305 31.005077 24.613989 46.603600 0.900254 1.014368 0.056660 -0.026983 162060.000000 0 0 1
24.970205 31.799377 23.444199 46.736945 0.905119 1.045326 0.062927 -0.032017 145705.000000 0 0 1
26.331405 31.723477 23.074879 47.245867 0.878011 1.060541 0.040213 -0.026022 -189534.000000 0 0 1
26.655005 32.930477 22.159979 47.811822 0.890330 1.088874 0.067585 -0.017745 348836.000000 0 0 1
27.954805 32.853577 21.583479 48.235622 0.865785 1.106874 0.055764 -0.014303 508347.000000 0 0 1
27.876605 33.784977 20.556779 48.385028 0.880926 1.131991 0.054011 -0.022568 250696.000000 0 0 1
29.297815 -34.050094 20.076779 49.202113 -0.860277 1.150482 0.054553 -0.033140 660698.000000 0 0 1
30.072775 33.212077 19.400479 48.824097 0.834963 1.162164 0.050277 -0.036960 527874.000000 0 0 1
31.180015 33.723977 18.655579 49.573487 0.824574 1.184973 0.033912 -0.033428 962278.000000 0 0 1
32.083465 32.645277 17.905579 49.149492 0.794077 1.197906 0.019871 -0.021601 450463.000000 0 0 1
32.968545 31.872177 18.709679 49.525879 0.768491 1.183403 0.008606 -0.028109 70987.200000 0 0 1
33.751085 31.102677 17.818679 49.234313 0.744584 1.200474 0.031473 -0.025730 -869720.000000 0 0 1
34.854655 30.368977 18.508279 49.796367 0.716732 1.189979 0.046584 -0.032397 -671252.000000 0 0 1
35.736885 31.270477 19.172879 51.211004 0.718841 1.187058 0.043721 -0.039935 -16541.300000 0 0 1
36.732555 30.547077 19.862579 51.739023 0.693719 1.176781 0.071422 -0.038468 140608.000000 0 0 1
-35.785826 31.514677 20.511679 51.908855 -0.722019 1.164567 0.102117 -0.036203 -272586.000000 0 0 1
-34.887867 32.041377 19.583179 51.257331 -0.742894 1.178776 0.103561 -0.033617 126212.000000 0 0 1
-33.668438 32.538877 20.149879 50.974110 -0.768339 1.164406 0.086014 -0.021034 581716.000000 0 0 1
-33.674258 33.885677 20.987779 52.179322 -0.788528 1.156852 0.074617 -0.014954 -475190.000000 0 0 1
-34.011908 33.852677 22.352979 52.938354 -0.783052 1.134875 0.076905 -0.011983 191044.000000 0 0 1
-33.756678 -33.218394 23.165439 52.722031 0.777361 1.115879 0.066875 -0.008416 -41874.300000 0 0 1
-33.874848 -33.608294 24.670369 53.718245 0.781448 1.093640 0.084757 -0.013494 264120.000000 0 0 1
-35.180401 -33.974794 25.103339 54.973857 0.767967 1.096580 0.070566 -0.011975 217492.000000 0 0 1
-35.129834 33.790077 26.416839 55.441175 -0.765961 1.074145 0.091395 -0.010896 1278690.000000 0 0 1
-36.566758 33.694177 27.082949 56.620769 -0.744536 1.072054 0.063405 -0.014051 852917.000000 0 0 1
-36.545268 33.182377 28.416779 56.957353 -0.737207 1.048452 0.092697 -0.012513 630163.000000 0 0 1
35.724845 32.886677 29.023919 56.570186 0.744056 1.032050 0.086886 -0.021603 627096.000000 0 0 1
35.687865 31.768877 30.135859 56.489426 0.727367 1.008089 0.093635 -0.014168 -308037.000000 0 0 1
35.642005 30.402077 29.672239 55.453409 0.706224 1.006189 0.074966 -0.017637 441035.000000 0 0 1
36.723475 29.888377 28.879709 55.461395 0.683145 1.023105 0.074627 -0.016234 199192.000000 0 0 1
36.457645 28.415277 28.415639 54.258975 0.662056 1.019603 0.070849 -0.014371 -409252.000000 0 0 1
35.423675 28.368877 27.456589 53.042381 0.675256 1.026712 0.058428 -0.002499 299918.000000 0 0 1
35.093595 27.037177 26.971739 51.865635 0.656449 1.023909 0.063808 -0.004518 -24934.000000 0 0 1
34.762675 25.856077 27.871999 51.515324 0.639514 0.999120 0.046637 -0.006248 -479745.000000 0 0 1
35.865495 25.374777 28.620029 52.433950 0.615741 0.993417 0.044690 -0.005334 204668.000000 0 0 1
35.557925 24.129777 29.167459 51.936046 0.596222 0.974474 0.040666 -0.007687 -159404.000000 0 0 1
35.988355 23.021977 28.213529 51.197425 0.569105 0.987147 0.022868 0.003493 -339603.000000 0 0 1
35.349425 22.996377 26.950549 50.047450 0.576758 1.002140 0.031947 -0.001862 94571.600000 0 0 1
35.885515 22.053677 25.946679 49.470850 0.551054 1.018687 0.031466 -0.016696 -498219.000000 0 0 1
35.784145 20.498277 26.110549 48.810298 0.520203 1.006360 0.032686 -0.018481 244089.000000 0 0 1
34.444575 19.993477 26.162049 47.651030 0.525923 0.989588 0.051446 -0.008501 652365.000000 0 0 1
34.253945 18.790977 26.929949 47.451614 0.501751 0.967300 0.055329 -0.006221 -498814.000000 0 0 1
34.286735 18.833977 28.480589 48.388458 0.502312 0.941492 0.045172 -0.019440 200514.000000 0 0 1
33.240285 19.501177 29.211189 48.358102 0.530563 0.922211 0.041682 -0.020931 565954.000000 0 0 1
32.957375 20.856177 28.794699 48.479928 0.564205 0.934835 0.039512 -0.017780 84679.800000 0 0 1
31.728065 21.472277 29.572879 48.397148 0.594958 0.913415 0.050095 -0.030085 1037500.000000 0 0 1
30.402845 21.055077 29.241229 47.145506 0.605699 0.901756 0.062640 -0.038866 992503.000000 0 0 1
29.742995 21.690277 28.124939 46.326300 0.630093 0.918384 0.058975 -0.030590 263435.000000 0 0 1
29.458915 23.294077 28.232899 46.984447 0.669064 0.926171 0.050813 -0.023106 -261841.000000 0 0 1
30.678355 24.010777 28.131219 48.052517 0.664079 0.945390 0.049170 -0.021942 91271.800000 0 0 1
30.744085 25.301877 28.696789 49.080438 0.688599 0.946300 0.043445 -0.016558 -124314.000000 0 0 1
31.187195 25.392477 30.177959 50.280495 0.683337 0.927055 0.044688 -0.026023 378458.000000 0 0 1
32.562315 25.049477 30.359159 51.082866 0.655725 0.934386 0.037958 -0.021295 301803.000000 0 0 1
32.937035 24.856777 31.702179 52.035909 0.646487 0.915699 0.047078 -0.030872 -175315.000000 0 0 1
32.517655 23.612277 32.500719 51.683984 0.628053 0.890742 0.051477 -0.028630 -471212.000000 0 0 1
32.708525 23.657577 33.894059 52.709921 0.626183 0.872348 0.044079 -0.034565 325765.000000 0 0 1
32.288515 22.461777 -33.591735 51.725084 0.607806 2.277629 0.032549 -0.030412 -558796.000000 0 0 1
33.009035 22.405777 -32.267145 51.310661 0.596340 2.250881 0.019941 -0.026956 -519783.000000 0 0 1
32.507125 23.286277 -31.234715 50.740234 0.621611 2.233919 0.013045 -0.027659 349815.000000 0 0 1
33.109375 22.995277 -29.986925 50.241707 0.607042 2.210370 0.020556 -0.021424 -722376.000000 0 0 1
34.552075 23.434177 -29.782825 51.283752 0.595964 2.190441 0.032118 0.003618 -599208.000000 0 0 1
35.109765 22.937677 -28.604505 50.764656 0.578701 2.169380 0.021314 0.005585 -88535.000000 0 0 1
36.171745 23.676777 -28.028865 51.522832 0.579578 2.146003 0.037690 0.014104 103729.000000 0 0 1
36.774045 23.175277 -26.750875 51.039526 0.562335 2.122479 0.031467 0.016907 -413421.000000 0 0 1
-36.034456 22.000177 -26.911015 50.066881 -0.548127 2.138268 0.022520 0.012456 248809.000000 0 0 1
-36.636128 20.860077 -26.323935 49.702095 -0.517605 2.128966 0.018831 0.014545 365359.000000 0 0 1
-35.582455 19.680877 -26.428125 48.496328 -0.505225 2.147127 0.034171 0.016691 1196140.000000 0 0 1
-34.369418 19.867477 -25.670815 47.275409 -0.524129 2.144809 0.024540 0.011709 423733.000000 0 0 1
-33.691758 18.611277 -25.757865 46.313949 -0.504683 2.160552 0.011580 -0.004149 878602.000000 0 0 1
-32.162108 18.752377 -25.416915 45.078514 -0.527869 2.169820 0.022941 -0.008669 841590.000000 0 0 1
-32.016028 19.044177 -23.986015 44.306158 -0.536611 2.142862 0.028861 -0.012995 106466.000000 0 0 1
-30.660808 19.190377 -23.604415 43.191714 -0.559241 2.148980 0.043896 -0.008922 185699.000000 0 0 1
-30.588388 19.654677 -22.147615 42.573145 -0.571123 2.117911 0.024200 -0.009645 -36372.900000 0 0 1
-31.324268 18.865577 -21.278715 42.307251 -0.542085 2.097813 0.011061 -0.004643 55312.600000 0 0 1
-31.898668 19.527477 -20.151215 42.484337 -0.549322 2.064989 0.017230 -0.003255 -212948.000000 0 0 1
-32.710188 18.633477 -19.194915 42.256451 -0.517807 2.042324 0.006822 -0.000447 532506.000000 0 0 1
-33.555168 19.181977 -18.170715 42.709161 -0.519317 2.010258 -0.003948 0.000572 1130690.000000 0 0 1
-34.723724 19.898377 -18.603415 44.133542 -0.520366 2.005923 -0.010757 0.001621 238181.000000 0 0 1
-35.892593 19.924977 -17.614315 44.671546 -0.506772 1.976110 0.008156 0.001406 -133869.000000 0 0 1
-35.502698 20.600977 -16.445415 44.218701 -0.525782 1.951863 0.013701 -0.002685 277665.000000 0 0 1
-36.555428 20.541077 -15.494715 44.702588 -0.511946 1.924759 0.028001 0.008595 -214457.000000 0 0 1
-36.362948 21.319677 -14.172115 44.470681 -0.530287 1.895138 0.031273 0.009392 -96582.800000 0 0 1
-36.355038 22.725577 -14.380615 45.221043 -0.558672 1.894423 0.041409 -0.000319 845817.000000 0 0 1
35.857405 23.226977 -14.370815 45.075118 0.574799 1.895280 0.045879 0.001234 560794.000000 0 0 1
35.613165 24.720977 -14.680215 45.770437 0.606791 1.897302 0.049451 -0.006588 -133426.000000 0 0 1
35.762045 25.653577 -13.635115 46.075441 0.622270 1.871226 0.056229 -0.002007 -37588.500000 0 0 1
35.683605 27.008077 -14.068315 46.911335 0.647887 1.875375 0.058373 -0.001380 75045.300000 0 0 1
-36.580908 27.631577 -14.680115 48.137020 -0.646920 1.880698 0.059086 -0.001835 329700.000000 0 0 1
-36.487188 27.443877 -16.106515 48.413853 -0.644876 1.909945 0.056249 -0.000799 165868.000000 0 0 1
-35.238433 27.954477 -16.547415 47.927204 -0.670639 1.923314 0.050284 -0.007611 -340140.000000 0 0 1
-34.960751 27.704577 -18.051815 48.121365 -0.670119 1.955334 0.054176 -0.012379 -99807.500000 0 0 1
-34.730657 26.349677 -18.480415 47.350288 -0.649037 1.971745 0.049367 -0.013723 93581.200000 0 0 1
-33.641598 25.698977 -17.874115 45.953004 -0.652341 1.970304 0.051410 -0.007561 -292376.000000 0 0 1
-33.315838 24.266977 -18.473515 45.167489 -0.629528 1.992155 0.041693 -0.004357 -153531.000000 0 0 1
-32.766358 24.362477 -19.781415 45.370353 -0.639342 2.021944 0.030319 -0.001363 283945.000000 0 0 1
-32.720998 23.067477 -20.378715 44.922870 -0.614057 2.041640 0.036662 -0.003369 -108808.000000 0 0 1
-32.222888 23.180277 -21.828215 45.300229 -0.623610 2.073569 0.030347 0.002601 -373090.000000 0 0 1
-33.152608 23.821977 -22.616715 46.670096 -0.623071 2.076712 0.033619 0.005228 -144877.000000 0 0 1
-32.926798 23.511977 -24.003315 47.044088 -0.620105 2.106249 0.035917 0.009421 129753.000000 0 0 1
-33.832768 24.433977 -24.931815 48.613484 -0.625470 2.109307 0.025717 0.009763 313574.000000 0 0 1
-33.481668 25.788577 -24.883515 49.043472 -0.656323 2.102934 0.024778 0.014171 31158.400000 0 0 1
-34.142812 26.432277 -25.975065 50.389492 -0.658790 2.112371 0.015207 0.011957 37565.000000 0 0 1
-33.529508 27.801777 -26.311955 50.886990 -0.692278 2.114216 0.010606 0.003525 -1275900.000000 0 0 1
-32.296488 27.749777 -26.888945 50.359991 -0.709822 2.134044 -0.007873 0.004563 -1652320.000000 0 0 1
-31.840138 29.076777 -27.042035 50.897201 -0.740066 2.130939 0.007662 -0.000016 577579.000000 0 0 1
-30.450628 29.010277 -27.760475 50.393263 -0.761179 2.154211 0.028880 -0.006500 58981.000000 0 0 1
-29.427478 28.508077 -26.942485 49.036562 -0.769530 2.152486 0.015142 -0.005728 -677682.000000 0 0 1
-28.179388 28.493877 -27.570775 48.642847 -0.790947 2.173413 0.036390 0.001466 352752.000000 0 0 1
-27.235338 29.720077 -27.200085 48.630148 -0.828997 2.164368 0.030398 -0.009682 120288.000000 0 0 1
-26.722528 29.837877 -25.838675 47.665811 -0.840423 2.143707 0.010398 -0.006236 157034.000000 0 0 1
-27.656398 30.244577 -24.850415 47.928634 -0.830069 2.115878 0.008643 -0.001215 -329500.000000 0 0 1
-26.984358 30.739377 -23.597415 47.221848 -0.850358 2.094065 -0.014202 -0.002006 50305.200000 0 0 1
-26.400638 32.055977 -23.759015 47.844228 -0.881842 2.090463 -0.005814 -0.001176 -46004.700000 0 0 1
-25.544808 32.344977 -22.715315 47.060815 -0.902330 2.074509 0.005488 0.010136 -569881.000000 0 0 1
-24.956798 33.747677 -22.901115 47.814313 -0.934042 2.070265 0.006885 0.022150 -346629.000000 0 0 1
-25.857208 -33.450894 -22.578215 47.930505 0.912743 2.061290 -0.003991 0.007171 -47060.100000 0 0 1
-25.393558 -32.175094 -22.823015 46.914385 0.902657 2.078855 0.013423 0.004509 -314988.000000 0 0 1
17.226402 8.557677 -25.423805 31.880286 0.461066 2.493899 0.046597 -0.036667 -474743.000000 0 0 1
15.922702 8.125177 -25.136005 30.844281 0.471845 2.523409 0.040021 -0.036599 -127423.000000 0 0 1
15.948602 6.738677 -24.962815 30.379431 0.399772 2.535186 0.034531 -0.036808 426276.000000 0 0 1
14.508502 6.161277 -25.013735 29.565942 0.401588 2.579294 0.041671 -0.030979 417866.000000 0 0 1
13.674402 6.328577 -23.903215 28.256041 0.433451 2.579142 0.072052 -0.046717 1308350.000000 0 0 1
12.370902 5.688377 -24.033215 27.622315 0.430989 2.626131 0.071372 -0.041064 996256.000000 0 0 1
11.578302 5.802777 -22.732115 26.162537 0.464589 2.623732 0.084622 -0.050625 -567757.000000 0 0 1
12.144702 5.162577 -21.617715 25.327290 0.401946 2.593528 0.086733 -0.038188 129678.000000 0 0 1
11.445602 5.213577 -20.364515 23.935260 0.427426 2.588334 0.094729 -0.039050 -1771.940000 0 1 0
11.674302 6.576277 -19.727115 23.847344 0.513006 2.544947 0.085298 -0.046066 -85888.200000 0 1 0
11.193802 6.654977 -18.412015 22.551989 0.536383 2.525990 0.059090 -0.035023 -438996.000000 0 1 0
11.287802 7.931177 -17.772815 22.498689 0.612491 2.481522 0.055961 -0.039694 -208537.000000 0 1 0
12.690602 8.483477 -17.443015 23.179291 0.589260 2.422685 0.051828 -0.032792 -219427.000000 0 1 0
13.272902 7.631877 -16.456115 22.477082 0.521832 2.392238 0.061817 -0.029687 34243.600000 0 1 0
14.581702 8.069377 -16.178015 23.226473 0.505443 2.341351 0.047293 -0.026825 -480413.000000 0 1 0
15.039002 7.911477 -14.733515 22.490876 0.484281 2.285096 0.043462 -0.030089 -249756.000000 0 1 0
16.461702 7.806077 -14.735015 23.431670 0.442792 2.250870 0.045328 -0.033842 704798.000000 0 1 0
16.909002 7.922777 -13.398815 22.982885 0.438176 2.193202 0.036120 -0.028193 -306138.000000 0 1 0
17.282902 9.366677 -13.036715 23.587905 0.496651 2.156381 0.062063 -0.027645 -427019.000000 0 1 0
16.214902 10.283477 -12.906715 23.135606 0.565187 2.162616 0.056672 -0.027967 425706.000000 0 1 0
16.770402 11.484777 -12.466715 23.844611 0.600468 2.120966 0.110393 -0.044719 586285.000000 0 1 0
15.633702 12.562977 -12.426815 23.593787 0.676922 2.125508 0.110544 -0.041972 571803.000000 0 1 0
14.718802 12.532277 -11.358015 22.421097 0.705333 2.102007 0.089811 -0.028712 168550.000000 0 1 0
15.021302 13.460677 -10.262415 22.630654 0.730659 2.041456 0.088275 -0.033860 -252414.000000 0 1 0
14.894602 14.990977 -10.576315 23.631272 0.788623 2.034827 0.108959 -0.033481 -617103.000000 0 1 0
13.565802 15.354577 -10.792215 23.157416 0.847171 2.055603 0.104766 -0.031618 -468101.000000 0 1 0
13.304702 16.768877 -10.875715 24.010238 0.900083 2.040881 0.115438 -0.030452 574344.000000 0 1 0
12.293202 17.317177 -9.781915 23.381473 0.953467 2.002437 0.106678 -0.029174 280231.000000 0 1 0
12.747102 17.085077 -8.465015 22.935670 0.929799 1.948811 0.107215 -0.027889 -106985.000000 0 1 0
11.812602 17.315177 -7.458115 22.248065 0.972109 1.912641 0.094025 -0.024878 -429477.000000 0 1 0
12.345402 17.008377 -6.038415 21.866785 0.942936 1.850578 0.087054 -0.028646 120869.000000 0 1 0
13.315102 17.947077 -5.633215 23.046098 0.932493 1.817731 0.108526 -0.029693 31336.400000 0 1 0
13.838002 17.645777 -4.367915 22.846059 0.905758 1.763170 0.112842 -0.029153 249294.000000 0 1 0
15.078802 18.536977 -3.986615 24.225666 0.887911 1.736110 0.117549 -0.031330 172122.000000 0 1 0
16.267002 18.191677 -4.656015 24.844133 0.841195 1.759320 0.138143 -0.052323 -114138.000000 0 1 0
17.019502 19.393677 -4.691615 26.225739 0.850507 1.750658 0.105428 -0.038199 734464.000000 0 0 1
18.470502 19.219177 -5.280615 27.173905 0.805260 1.766367 0.107764 -0.028190 1398480.000000 0 0 1
19.452102 18.428277 -4.565415 27.181403 0.758377 1.739557 0.106843 -0.045917 773354.000000 0 0 1
19.827102 17.321877 -5.385015 26.873031 0.718063 1.772550 0.139556 -0.055046 -99582.000000 0 0 1
20.954202 16.511777 -4.721915 27.092690 0.667377 1.745978 0.129196 -0.056050 179780.000000 0 0 1
22.287202 16.901077 -5.010515 28.416035 0.648812 1.748050 0.091807 -0.054259 512731.000000 0 0 1
23.181202 15.898877 -4.512815 28.469421 0.601168 1.729982 0.091579 -0.059099 4031.070000 0 0 1
24.673602 16.169977 -4.711715 29.873986 0.580131 1.729177 0.080324 -0.051982 -14947.500000 0 0 1
25.155002 17.416777 -4.149415 30.876138 0.605592 1.705593 0.069873 -0.048018 962791.000000 0 0 1
26.579402 17.487777 -3.967915 32.062927 0.581940 1.694868 0.069013 -0.036430 725900.000000 0 0 1
26.994302 18.794877 -3.306515 33.058626 0.608207 1.670984 0.072609 -0.032756 -304325.000000 0 0 1
27.090002 19.917277 -4.194415 33.884499 0.633979 1.694900 0.069232 -0.036252 210591.000000 0 0 1
27.128402 21.104877 -3.406015 34.539354 0.661158 1.669569 0.084574 -0.017228 -615879.000000 0 0 1
27.012302 22.433277 -4.264915 35.370975 0.693054 1.691667 0.069710 -0.021290 -295134.000000 0 0 1
28.034402 22.961877 -5.079215 36.591992 0.686256 1.710053 0.060040 -0.016873 -55869.100000 0 0 1
28.594602 22.035277 -6.006915 36.596280 0.656561 1.735683 0.055845 -0.018613 -29036.900000 0 0 1
29.630802 22.631177 -7.016915 37.939316 0.652257 1.756818 0.050561 -0.014792 50473.000000 0 0 1
29.168902 23.742977 -7.778715 38.406539 0.683209 1.774743 0.042541 -0.015914 414969.000000 0 0 1
30.183602 24.511377 -8.455115 39.791285 0.682061 1.784915 0.049033 -0.013771 547327.000000 0 0 1
31.055302 23.903377 -9.591515 40.346008 0.655993 1.810826 0.045871 -0.015094 -208646.000000 0 0 1
30.291802 23.640777 -10.713415 39.890561 0.662697 1.842705 0.049739 -0.007088 -363873.000000 0 0 1
30.983102 23.019277 -11.785515 40.357627 0.638982 1.867142 0.034506 -0.007390 -196727.000000 0 0 1
30.201102 22.887677 -13.103815 40.095664 0.648501 1.903727 0.054753 -0.001226 -72798.000000 0 0 1
30.265802 23.989377 -13.981615 41.073039 0.670227 1.918148 0.046500 -0.011149 88266.900000 0 0 1
29.952402 23.560477 -15.307315 41.067705 0.666515 1.952750 0.045501 -0.009143 -258191.000000 0 0 1
30.284502 24.586677 -16.425215 42.325447 0.681929 1.969332 0.046143 -0.006308 -1346600.000000 0 0 1
31.633402 24.630277 -16.664915 43.417071 0.661565 1.964740 0.055324 -0.004742 -1264090.000000 0 0 1
31.876402 25.268477 -17.908315 44.444445 0.670275 1.985520 0.063252 -0.010602 -207727.000000 0 0 1
33.310102 25.754177 -18.188615 45.865742 0.658162 1.978565 0.053031 -0.014063 -201804.000000 0 0 1
34.111902 24.631477 -18.489515 45.958608 0.625391 1.984833 0.048027 -0.005501 -461205.000000 0 0 1
35.480002 24.974877 -18.582415 47.200436 0.613348 1.975440 0.056156 -0.009536 -240024.000000 0 0 1
36.249302 23.654177 -18.552115 47.092600 0.578160 1.975721 0.036478 -0.007436 -518306.000000 0 0 1
36.159602 22.730477 -19.665215 47.020337 0.561195 2.002290 0.029161 0.001600 187206.000000 0 0 1
-36.612501 23.168777 -20.772615 48.049652 -0.564196 2.017856 0.016799 0.001767 -981.329000 0 0 1
-36.644201 22.074477 -21.897115 48.057920 -0.542183 2.043887 0.018282 0.002891 -71343.500000 0 0 1
-36.012401 20.882377 -21.560915 46.881124 -0.525484 2.048686 0.002319 0.000533 251381.000000 0 0 1
-35.580501 20.076577 -22.671915 46.723193 -0.513724 2.077433 0.019537 -0.002813 231373.000000 0 0 1
-35.030201 18.666477 -22.322515 45.539511 -0.489595 2.083092 0.007664 -0.005052 -202664.000000 0 0 1
-36.044801 17.788677 -21.929515 45.788300 -0.458447 2.070235 0.002145 -0.005037 -119460.000000 0 0 1
-35.733601 16.444277 -22.154715 45.145719 -0.431296 2.083733 -0.005330 -0.009036 -585667.000000 0 0 1
36.636202 15.545077 -21.842715 45.397851 0.401285 2.072751 -0.011762 -0.006855 -347497.000000 0 0 1
35.633202 15.635177 -22.844215 45.122522 0.413485 2.101651 0.040858 -0.003359 853910.000000 0 0 1
34.527002 14.734477 -22.620815 43.828301 0.403354 2.113115 0.064423 0.000394 483859.000000 0 0 1
34.724102 13.363577 -23.379615 43.942631 0.367378 2.131815 0.029400 -0.007419 -542534.000000 0 0 1
34.641802 13.496077 -24.791915 44.685989 0.371500 2.158922 0.037376 0.001665 367154.000000 0 0 1
35.101002 12.306477 -25.437305 45.062026 0.337211 2.170618 0.032041 0.002870 -174058.000000 0 0 1
35.051602 12.202777 -26.971675 45.880212 0.335015 2.199222 0.058541 -0.000991 102419.000000 0 0 1
33.760202 12.220177 -27.566805 45.266022 0.347298 2.225590 0.058018 0.002607 472357.000000 0 0 1
33.397302 13.482477 -28.125945 45.697109 0.383692 2.233799 0.055298 -0.004500 -113300.000000 0 0 1
33.711602 13.564477 -29.670485 46.912736 0.382546 2.255523 0.049936 -0.013882 144963.000000 0 0 1
35.105102 13.787677 -29.856005 48.102487 0.374244 2.240399 0.055475 -0.008363 197050.000000 0 0 1
35.440202 13.565977 -31.194215 49.123545 0.365578 2.258825 0.058979 -0.012699 181581.000000 0 0 1
-36.590501 13.693577 -31.532225 50.206176 -0.358103 2.249847 0.070885 -0.010586 1186890.000000 0 0 1
-35.623201 12.743777 -31.062555 48.952004 -0.343552 2.258224 0.073332 -0.010631 558814.000000 0 0 1
-35.591901 12.583477 -29.646145 48.000222 -0.339833 2.236516 0.053536 -0.008274 -1271950.000000 0 0 1
-34.462601 11.631777 -29.312005 46.713625 -0.325513 2.249113 0.052763 -0.014158 -467584.000000 0 0 1
-34.690601 10.421877 -29.911945 46.976354 -0.291845 2.261065 0.059386 -0.014408 -259198.000000 0 0 1
-33.687501 9.489577 -29.708865 45.907695 -0.274579 2.274628 0.066604 -0.018229 -546737.000000 0 0 1
-34.054501 8.096177 -30.261935 46.271394 -0.233409 2.283669 0.078644 -0.015142 -613660.000000 0 0 1
-34.043201 7.946277 -31.665235 47.167468 -0.229312 2.306807 0.086776 -0.019604 64631.600000 0 0 1
-34.414801 6.706977 -32.165315 47.581190 -0.192474 2.313130 0.092238 -0.019703 413799.000000 0 0 1
-35.911101 6.296477 -31.935715 48.467956 -0.173571 2.290157 0.093366 -0.007208 171618.000000 0 0 1
-36.090001 5.672877 -30.684565 47.709666 -0.155911 2.269404 0.090776 -0.006401 -280148.000000 0 0 1
36.124702 5.580877 -30.323485 47.493726 0.153277 2.263310 0.075375 0.006892 -720708.000000 0 0 1
36.008602 4.850777 -28.944275 46.453423 0.133906 2.243473 0.075881 -0.012311 -22202.800000 0 0 1
36.588302 3.558077 -28.919855 46.773088 0.096941 2.237376 0.095061 -0.001908 464606.000000 0 0 1
36.196702 2.881177 -27.726795 45.686733 0.079430 2.222937 0.098276 -0.003604 -294544.000000 0 0 1
-36.763901 1.505877 -27.502195 45.937162 -0.040938 2.212663 0.145601 -0.006284 -387644.000000 0 0 1
-35.478301 1.576477 -26.923235 44.565185 -0.044406 2.219472 0.132193 -0.011712 -17660.900000 0 0 1
-34.999501 0.235277 -26.850255 44.112999 -0.006722 2.225179 0.148138 -0.011131 -197004.000000 0 0 1
-33.606101 0.143477 -26.209605 42.618471 -0.004269 2.233160 0.136882 -0.019438 -246828.000000 0 0 1
-33.680301 0.206677 -24.802215 41.827686 -0.006136 2.205528 0.127642 -0.012949 -331837.000000 0 0 1
-32.435201 0.319277 -24.181815 40.458675 -0.009843 2.211415 0.138810 -0.005643 -442019.000000 0 0 1
-32.443601 0.239577 -22.661715 39.575220 -0.007384 2.180499 0.118594 -0.001224 -316957.000000 0 0 1
-32.737301 -1.043123 -22.177515 39.555798 0.031853 2.165984 0.119670 -0.013868 290994.000000 0 0 1
-32.905001 -1.161623 -20.756615 38.922045 0.035288 2.133278 0.110279 -0.003025 677707.000000 0 0 1
-34.359301 -0.841623 -20.212815 39.872645 0.024490 2.102421 0.091768 -0.002390 1076860.000000 0 0 1
-35.171101 -2.031023 -20.416015 40.717872 0.057683 2.096015 0.095145 -0.013584 135083.000000 0 0 1
-36.513001 -1.749023 -20.121915 41.727087 0.047865 2.073991 0.088354 -0.014525 103157.000000 0 0 1
36.131002 -2.918123 -19.602715 41.209601 -0.080590 2.066537 0.086399 -0.021625 82947.700000 0 0 1
35.491002 -3.731723 -20.598915 41.205003 -0.104761 2.094295 0.069539 -0.016151 222658.000000 0 0 1
36.357002 -4.497223 -21.433015 42.443265 -0.123071 2.100156 0.057703 -0.013851 -247309.000000 0 0 1
35.726402 -5.452423 -22.509715 42.576895 -0.151447 2.127846 0.060595 -0.013496 -785803.000000 0 0 1
35.152202 -6.592723 -21.977015 41.977738 -0.185394 2.121797 0.068228 -0.012266 94815.500000 0 0 1
34.594902 -7.414323 -22.988715 42.193133 -0.211125 2.147001 0.065078 -0.004067 400286.000000 0 0 1
33.132302 -7.097823 -23.428315 41.194835 -0.211037 2.175745 0.034402 -0.001912 -238470.000000 0 0 1
33.035702 -5.982623 -24.239315 41.408861 -0.179154 2.196127 0.042667 -0.000623 543845.000000 0 0 1
31.733202 -5.988723 -24.839315 40.741287 -0.186527 2.226458 -0.004627 -0.002673 377646.000000 0 0 1
31.552802 -4.803523 -25.781175 41.028309 -0.151078 2.250259 0.020096 -0.020991 -27675.700000 0 0 1
32.177302 -4.950023 -27.026335 42.311987 -0.152639 2.263655 0.042685 -0.022060 496180.000000 0 0 1
31.665502 -3.876823 -27.865715 42.358374 -0.121824 2.288765 0.048715 -0.029606 129775.000000 0 0 1
31.906902 -4.084823 -29.357315 43.549835 -0.127331 2.310553 0.064965 -0.025698 -41318.100000 0 0 1
31.260302 -3.149023 -30.189355 43.572009 -0.100397 2.336246 0.059502 -0.030547 220718.000000 0 0 1
30.482502 -3.815023 -31.206875 43.790483 -0.124507 2.364051 0.065482 -0.038777 -384119.000000 0 0 1
30.087202 -2.743023 -32.292115 44.221540 -0.090918 2.389462 0.064569 -0.030383 684181.000000 0 0 1
29.054002 -1.798523 -31.834165 43.136803 -0.061824 2.400871 0.047943 -0.029755 1444070.000000 0 0 1
27.723802 -2.280323 -31.676255 42.156781 -0.082067 2.420965 0.051946 -0.028985 462988.000000 0 0 1
26.912802 -2.622823 -32.986985 42.653479 -0.097150 2.454939 0.066852 -0.035180 -499559.000000 0 0 1
27.198902 -3.877423 -33.572365 43.381083 -0.141604 2.455763 0.083737 -0.037710 40743.400000 0 0 1
26.642002 -3.917623 33.274518 42.805812 -0.146001 0.680376 0.056200 -0.034136 -304752.000000 0 0 1
26.815802 -5.252823 32.513138 42.470973 -0.193436 0.698919 0.079287 -0.046392 157285.000000 0 0 1
28.113002 -5.561023 32.013539 42.966644 -0.195289 0.730143 0.076468 -0.040707 235362.000000 0 0 1
28.545902 -5.060923 30.774219 42.279238 -0.175467 0.755571 0.072664 -0.036501 -362684.000000 0 0 1
29.165302 -3.662723 30.739979 42.532066 -0.124931 0.763026 0.065429 -0.027178 114243.000000 0 0 1
30.360202 -3.508223 31.531869 43.912507 -0.115043 0.769784 0.079149 -0.033875 659672.000000 0 0 1
30.650402 -2.170823 31.615779 44.087607 -0.070707 0.771146 0.069424 -0.029271 405291.000000 0 0 1
31.943402 -1.757523 32.425374 45.550792 -0.054964 0.778666 0.078193 -0.035317 712121.000000 0 0 1
33.074502 -1.938823 31.591799 45.779072 -0.058553 0.809179 0.089037 -0.036496 -531249.000000 0 0 1
34.267502 -1.549623 32.205126 47.051388 -0.045191 0.816924 0.090766 -0.023587 -517599.000000 0 0 1
35.512302 -2.113423 31.526859 47.534545 -0.059442 0.845655 0.106740 -0.021129 -428240.000000 0 0 1
35.691002 -1.661823 30.197619 46.781465 -0.046528 0.869113 0.100677 -0.018354 700233.000000 0 0 1
-36.715901 -2.354423 29.663159 47.259959 0.064038 0.892253 0.105007 -0.025680 798991.000000 0 0 1
-36.144001 -1.878923 28.296849 45.941603 0.051938 0.907229 0.103615 -0.030455 339128.000000 0 0 1
36.546002 -2.104323 27.191859 45.600829 -0.057517 0.931910 0.106079 -0.044221 325802.000000 0 0 1
-36.405301 -1.528123 25.988719 44.755945 0.041951 0.951237 0.103811 -0.037994 392666.000000 0 0 1
-26.602918 14.572377 12.900685 32.962055 -0.501132 1.168666 0.100591 -0.022144 929045.000000 0 0 1
-27.971778 14.139277 12.771485 33.844503 -0.468025 1.183855 0.077934 -0.026691 1201380.000000 0 0 1
-28.906528 15.178177 13.080385 35.171877 -0.483508 1.189742 0.085314 -0.019076 -237726.000000 0 0 1
-30.220348 14.545977 13.509785 36.157560 -0.448601 1.187870 0.095298 -0.015866 -655746.000000 0 0 1
-31.106988 15.395177 14.208385 37.503792 -0.459568 1.182241 0.090409 -0.017084 -265897.000000 0 0 1
-32.178548 14.600377 14.687085 38.266701 -0.425952 1.176879 0.114371 -0.028521 322053.000000 0 0 1
-33.197168 15.373577 15.562985 39.756828 -0.433694 1.168585 0.103610 -0.022196 -21819.100000 0 0 1
-32.546268 15.650177 16.763485 39.814596 -0.448218 1.136206 0.088517 -0.019250 -347444.000000 0 0 1
-33.281168 16.243377 17.802185 41.090160 -0.454054 1.122704 0.098975 -0.033163 239623.000000 0 0 1
-32.367498 16.509477 19.075185 41.037549 -0.471666 1.087362 0.100287 -0.022899 458296.000000 0 0 1
-32.163968 15.319277 19.804285 40.760407 -0.444498 1.063437 0.111906 -0.029907 288033.000000 0 0 1
-31.214138 15.488777 20.878385 40.621812 -0.460611 1.030990 0.090813 -0.016303 805116.000000 0 0 1
-31.889498 15.943477 22.204285 42.001962 -0.463616 1.013788 0.095954 -0.028480 -579314.000000 0 0 1
-32.504548 17.219377 22.086385 42.905256 -0.487166 1.030056 0.102988 -0.036733 406940.000000 0 0 1
-33.160118 17.727377 23.255885 44.211871 -0.490942 1.016894 0.105640 -0.035756 -301161.000000 0 0 1
-34.209311 16.790977 23.985085 45.027749 -0.456285 1.009040 0.100812 -0.039248 -84720.300000 0 0 1
-35.369859 16.466677 23.261285 45.423185 -0.435715 1.033167 0.099571 -0.031027 291754.000000 0 0 1
-36.240518 17.515077 22.849985 46.284715 -0.450199 1.054476 0.080619 -0.030270 -515483.000000 0 0 1
35.833435 17.095677 22.694085 45.730938 0.445150 1.051520 0.076539 -0.028830 553476.000000 0 0 1
35.190715 16.566277 23.875485 45.638435 0.439981 1.020260 0.084671 -0.030909 -413370.000000 0 0 1
34.014705 15.889377 23.590685 44.339518 0.437010 1.009781 0.103550 -0.027673 -416254.000000 0 0 1
33.605725 14.991677 24.799985 44.374929 0.419610 0.977769 0.070733 -0.005253 -24040.000000 0 0 1
32.980415 15.816477 25.809785 44.766212 0.447172 0.956301 0.086621 -0.008951 274822.000000 0 0 1
32.939615 15.321077 27.097485 45.321378 0.435361 0.929922 0.078023 -0.002617 -33474.500000 0 0 1
32.011885 14.127077 27.429885 44.460473 0.415602 0.905935 0.078136 0.002663 165088.000000 0 0 1
32.718155 12.928177 27.151485 44.438930 0.376308 0.913493 0.075414 -0.003620 529453.000000 0 0 1
31.788995 11.849977 27.166385 43.462336 0.356814 0.895593 0.066362 0.005892 249062.000000 0 0 1
32.357945 10.492277 26.672485 43.226681 0.313559 0.905824 0.076096 0.007301 789741.000000 0 0 1
33.343925 9.939977 27.590285 44.405453 0.289717 0.900362 0.076785 0.006851 704971.000000 0 0 1
33.805415 8.618577 27.236985 44.259906 0.249629 0.907919 0.086372 0.007818 -149004.000000 0 0 1
34.862315 8.073877 28.174585 45.545315 0.227581 0.903830 0.093502 -0.004723 -479914.000000 0 0 1
36.174085 8.556577 28.091485 46.593035 0.232270 0.923651 0.104665 -0.006585 224544.000000 0 0 1
-36.479918 7.575177 28.657085 47.004215 -0.204744 0.915151 0.103263 -0.013798 165517.000000 0 0 1
-35.029780 8.045077 28.811785 46.064386 -0.225749 0.895066 0.105859 -0.013032 -356662.000000 0 0 1
-34.360128 8.315977 27.598885 44.849441 -0.237458 0.907944 0.085722 -0.011769 -203649.000000 0 0 1
-33.060728 8.720077 27.976285 44.178320 -0.257886 0.885040 0.097537 -0.009619 -326310.000000 0 0 1
-32.357798 9.438077 26.802785 43.063833 -0.283805 0.898995 0.090611 -0.021860 -109797.000000 0 0 1
-31.755158 8.603377 25.791385 41.804350 -0.264577 0.905929 0.079077 -0.028837 349338.000000 0 0 1
-30.838838 9.346977 25.026185 40.800856 -0.294290 0.910471 0.074432 -0.022857 -106345.000000 0 0 1
-30.167558 8.493577 23.939985 39.437866 -0.274442 0.918478 0.065301 -0.018273 -45769.600000 0 0 1
-29.204348 9.156677 23.153185 38.377189 -0.303830 0.923156 0.063190 -0.020769 -3712.070000 0 0 1
-28.426228 8.259477 22.427285 37.138289 -0.282772 0.922429 0.046103 -0.012540 1070750.000000 0 0 1
-27.182268 8.877277 21.627985 35.853193 -0.315663 0.923242 0.035745 -0.011575 407772.000000 0 0 1
-26.118388 9.419477 22.372285 35.656919 -0.346127 0.892546 0.035120 -0.012339 341256.000000 0 0 1
-25.071098 10.075177 21.692385 34.650090 -0.382112 0.894330 0.036612 -0.001757 441176.000000 0 0 1
-24.279798 9.371177 20.532285 33.149695 -0.368350 0.902843 0.017087 0.002231 -745183.000000 0 0 1
-25.006898 9.158777 19.335585 32.910378 -0.351077 0.942803 0.014493 -0.000534 -113669.000000 0 0 1
-24.322998 8.441577 18.337385 31.608988 -0.334055 0.951906 0.023686 -0.003092 -199448.000000 0 0 1
-24.090998 6.884477 18.532785 31.164665 -0.278351 0.933937 0.024193 0.002943 -691836.000000 0 0 1
-23.091598 6.484977 19.422085 30.862505 -0.273785 0.890131 0.006098 0.006604 -36493.400000 0 0 1
-23.065098 5.139577 19.898585 30.892842 -0.219247 0.870929 0.023192 0.001417 -421180.000000 0 0 1
-22.973498 3.994877 18.829285 29.971363 -0.172169 0.891504 0.043358 -0.001512 -447067.000000 0 0 1
-24.203198 3.813077 18.154685 30.494703 -0.156260 0.933109 0.082338 -0.010814 266530.000000 0 0 1
-24.137298 2.953677 17.038985 29.692766 -0.121764 0.959606 0.069077 -0.013351 -105783.000000 0 0 1
-24.151798 1.423277 17.307785 29.747176 -0.058862 0.949820 0.093877 -0.019084 -7825.520000 0 0 1
-22.876498 0.946377 17.672585 28.923175 -0.041345 0.913450 0.059215 -0.003796 373295.000000 0 0 1
-23.035998 -0.317923 18.394085 29.480513 0.013800 0.897021 0.089901 -0.015407 -480417.000000 0 0 1
-21.743198 -1.096823 18.527785 28.587558 0.050402 0.865701 0.080725 -0.009002 -650200.000000 0 0 1
-20.751598 -0.644323 19.400585 28.415254 0.031039 0.819273 0.050554 -0.002421 -196114.000000 0 0 1
-19.871198 -1.683823 19.772985 28.083282 0.084535 0.789664 0.042516 -0.009611 -90700.100000 0 0 1
-18.951698 -1.210923 20.938285 28.267383 0.063808 0.736651 0.047610 -0.006372 178511.000000 0 0 1
-19.573998 -0.997923 22.186985 29.604046 0.050938 0.723554 0.051214 -0.007650 132441.000000 0 0 1
-18.559598 -0.841823 23.179285 29.706003 0.045327 0.675668 0.057510 -0.009489 348239.000000 0 0 1
-19.135398 -0.801923 24.624785 31.195938 0.041883 0.661033 0.064646 -0.005454 350817.000000 0 0 1
-19.831898 0.379777 24.984985 31.901377 -0.019147 0.671009 0.071419 -0.024704 -654939.000000 0 0 1
-21.182998 0.223477 25.278485 32.981376 -0.010549 0.697505 0.067167 -0.024386 -606048.000000 0 0 1
-21.677898 1.484477 26.068585 33.936795 -0.068372 0.694848 0.052285 -0.032127 -372712.000000 0 0 1
-21.678498 2.674277 25.334285 33.450486 -0.122741 0.711525 0.053546 -0.029436 547395.000000 0 0 1
-22.878698 2.821877 24.567985 33.689519 -0.122721 0.753575 0.049577 -0.024397 -237963.000000 0 0 1
-22.737898 3.831877 23.398585 32.851013 -0.166955 0.778078 0.051473 -0.012792 69325.600000 0 0 1
-22.090598 3.364877 22.203585 31.501049 -0.151160 0.788582 0.047298 -0.005914 709039.000000 0 0 1
-20.723498 2.989277 22.262585 30.561771 -0.143258 0.754746 0.034953 -0.004818 -245350.000000 0 0 1
-20.144198 2.334377 21.048085 29.227725 -0.115369 0.766791 0.034080 -0.003826 -315863.000000 0 0 1
-20.015898 3.093777 19.860185 28.366081 -0.153352 0.795205 0.024300 0.005153 199516.000000 0 0 1
-19.305898 2.304477 18.936785 27.140931 -0.118804 0.798586 0.033962 -0.005882 16409.300000 0 0 1
-18.746998 2.996677 17.674585 25.938793 -0.158507 0.821128 0.017475 0.003829 651276.000000 0 0 1
-17.580398 3.834877 17.865285 25.356362 -0.214769 0.788982 0.028672 -0.014067 651961.000000 0 0 1
-17.212598 4.316477 16.541685 24.259696 -0.245707 0.820496 0.038247 -0.006720 -415017.000000 0 1 0
-15.803798 4.914577 16.693285 23.506996 -0.301494 0.781098 0.053247 -0.003141 -345643.000000 0 1 0
-15.584098 6.042977 17.619185 24.286156 -0.369915 0.759061 0.060178 -0.003236 -50447.200000 0 1 0
-16.186098 7.291977 17.375085 24.840617 -0.423277 0.796151 0.053936 -0.012210 -533376.000000 0 1 0
-15.575598 8.155877 16.293785 23.970920 -0.482374 0.823400 0.047491 -0.007236 -128425.000000 0 1 0
-15.925898 7.793777 14.955785 23.195963 -0.455114 0.870090 0.048068 -0.007440 -264954.000000 0 1 0
-17.206398 8.171177 14.561085 23.976102 -0.443360 0.918118 0.027613 0.003356 -628560.000000 0 1 0
-17.562798 7.417277 13.251985 23.218161 -0.399606 0.963366 0.036640 -0.002125 -119569.000000 0 1 0
-17.391398 6.037777 13.385685 22.761635 -0.334152 0.942112 0.036138 -0.001945 407427.000000 0 1 0
-18.027598 5.328477 12.325185 22.478815 -0.287391 0.990464 0.042074 -0.003696 30417.700000 0 1 0
-17.651898 3.826777 12.414485 21.916961 -0.213488 0.968626 0.039917 -0.001166 -90976.700000 0 1 0
-18.164198 3.173877 13.528185 22.869704 -0.172986 0.937837 0.028829 0.000697 36154.000000 0 1 0
-17.754998 1.806577 13.483785 22.367748 -0.101401 0.923762 0.025320 -0.003037 -415526.000000 0 1 0
-18.416698 0.891977 14.545885 23.485169 -0.048395 0.902863 0.019217 -0.008867 -761359.000000 0 1 0
-19.693798 0.601477 14.122485 24.241535 -0.030532 0.948904 0.043359 -0.004085 -966912.000000 0 1 0
-20.547098 -0.030423 15.025585 25.454908 0.001481 0.939388 0.062320 -0.016645 374728.000000 0 0 1
-21.991098 -0.213423 14.468585 26.324777 0.009705 0.988889 0.084771 -0.020162 295977.000000 0 0 1
-22.001298 -1.204823 13.471385 25.826090 0.054707 1.022049 0.100537 -0.035844 537511.000000 0 0 1
-23.339698 -1.563423 13.128085 26.824101 0.066886 1.059379 0.158881 -0.037549 303175.000000 0 0 1
-23.482998 -2.630423 12.001085 26.502761 0.111549 1.100866 0.156745 -0.044943 -286061.000000 0 0 1
-23.234298 -3.876623 12.519385 26.675753 0.165326 1.082279 0.131681 -0.040522 248327.000000 0 0 1
-23.569498 -4.831223 11.582885 26.702531 0.202177 1.122118 0.147868 -0.041096 -184041.000000 0 0 1
-23.560998 -6.222523 12.308685 27.300992 0.258207 1.103078 0.137495 -0.034272 319237.000000 0 0 1
-24.588198 -6.446423 13.279185 28.678783 0.256405 1.089384 0.120329 -0.030932 568582.000000 0 0 1
-24.661998 -7.810923 13.574185 29.214434 0.306724 1.087569 0.124614 -0.031925 234915.000000 0 0 1
-25.597858 -8.160923 14.792885 30.670514 0.308626 1.067500 0.119678 -0.018879 940482.000000 0 0 1
-26.963608 -7.798523 14.581285 31.630159 0.281541 1.091682 0.120516 -0.024447 716906.000000 0 0 1
-27.736698 -7.889423 15.776785 32.870570 0.277121 1.070179 0.122135 -0.016013 -415308.000000 0 0 1
-29.178928 -7.358823 15.644585 33.916296 0.247045 1.091370 0.121065 -0.027034 5041.450000 0 0 1
-30.092258 -8.014123 14.782985 34.471826 0.260277 1.127585 0.101383 -0.016396 460444.000000 0 0 1
-30.255948 -9.440223 14.733285 34.951536 0.302440 1.135659 0.098516 -0.024649 -572232.000000 0 0 1
-30.728778 -10.131523 16.069785 36.126770 0.318484 1.109827 0.100085 -0.020723 -758554.000000 0 0 1
-29.677408 -10.327523 16.948885 35.702535 0.334886 1.076145 0.105751 -0.010890 -338251.000000 0 0 1
-30.054028 -10.991223 18.169785 36.799357 0.350606 1.054396 0.103024 -0.005577 -1044390.000000 0 0 1
-28.894628 -11.168623 19.062785 36.373444 0.368840 1.019156 0.110835 -0.001192 -1302430.000000 0 0 1
-27.924428 -12.050023 18.622685 35.662040 0.407382 1.021369 0.097916 -0.000057 -123546.000000 0 0 1
-26.809338 -12.068723 19.536285 35.299591 0.422994 0.984305 0.089571 0.002220 1049170.000000 0 0 1
-25.648528 -12.911123 18.884485 34.368123 0.466353 0.989058 0.066892 0.003610 515562.000000 0 0 1
-25.065898 -12.322823 17.692885 33.063415 0.456919 1.006147 0.058457 0.003894 185560.000000 0 0 1
-23.825798 -12.893923 17.360685 32.176316 0.496042 1.000895 0.056656 -0.002869 -125825.000000 0 0 1
-23.586198 -12.917523 15.865285 31.223043 0.501055 1.037787 0.063404 -0.004528 -92679.300000 0 0 1
-23.093698 -11.713923 15.312385 30.083285 0.469419 1.036774 0.052030 -0.001541 50820.700000 0 0 1
-23.071498 -11.668323 13.886685 29.347637 0.468234 1.077901 0.043066 -0.005112 782748.000000 0 0 1
-21.653798 -11.168023 13.428785 27.819848 0.476171 1.067055 0.060938 -0.018285 259683.000000 0 0 1
-21.539298 -9.736623 13.476385 27.209486 0.424549 1.052636 0.077881 -0.025631 -237001.000000 0 0 1
-20.241298 -9.303723 13.187485 25.887819 0.430842 1.036299 0.086901 -0.026867 -294569.000000 0 0 1
-19.762798 -9.401823 11.754685 24.842204 0.444047 1.077906 0.108825 -0.023388 -674890.000000 0 1 0
-19.643998 -10.665723 11.255285 25.026501 0.497415 1.104328 0.123978 -0.027475 122992.000000 0 0 1
-19.058898 -10.693923 9.969485 24.020662 0.511324 1.142812 0.126349 -0.021997 -508509.000000 0 1 0
-18.300798 -12.055023 9.551985 23.905715 0.582478 1.159750 0.100094 -0.011474 -162201.000000 0 1 0
-16.910098 -12.017323 9.521785 22.826122 0.617844 1.140496 0.120028 -0.031954 -164027.000000 0 1 0
-16.373098 -11.925823 10.866185 22.986465 0.629520 1.078420 0.108708 -0.024924 -458288.000000 0 1 0
-14.828698 -12.001423 11.009685 22.025839 0.680409 1.047367 0.101171 -0.020926 318139.000000 0 1 0
-14.352298 -13.281523 10.686885 22.284452 0.746669 1.070635 0.093940 -0.026269 -847797.000000 0 1 0
-12.975398 -13.389923 10.696285 21.495616 0.801119 1.049963 0.097071 -0.032470 -796821.000000 0 1 0
-12.503398 -14.900523 10.512185 22.110327 0.872650 1.075330 0.096441 -0.030717 10574.400000 0 1 0
-12.903498 -15.590623 9.369485 22.301458 0.879425 1.137209 0.087325 -0.032838 -48540.100000 0 1 0
-12.690898 -16.961023 9.551485 23.237170 0.928423 1.147198 0.075456 -0.024857 183870.000000 0 1 0
-13.048498 -17.889923 8.288485 23.643427 0.940625 1.212625 0.065540 -0.015493 9127.960000 0 1 0
-12.177798 -17.591723 7.213385 22.578760 0.965293 1.245619 0.070134 -0.027691 -126358.000000 0 1 0
-12.278298 -18.586523 6.232785 23.131430 0.987004 1.297974 0.040005 -0.016153 -27123.000000 0 1 0
-11.640298 -18.246223 4.853685 22.180610 1.002934 1.350186 0.050767 -0.023339 90693.500000 0 1 0
-11.811298 -19.310023 3.933685 22.975152 1.021842 1.398734 0.059878 -0.023239 -139591.000000 0 1 0
-11.013198 -19.156223 2.794785 22.272455 1.049026 1.444983 0.073011 -0.028033 -84910.200000 0 1 0
-11.308898 -20.071723 1.541885 23.089882 1.057705 1.503969 0.077552 -0.027885 -564040.000000 0 1 0
-10.506898 -21.179923 1.520685 23.691697 1.110291 1.506566 0.050518 -0.034555 -815545.000000 0 1 0
-10.969598 -22.240923 0.661485 24.807827 1.112590 1.544129 0.051133 -0.031502 94817.400000 0 1 0
-10.474498 -22.182823 -0.813815 24.544960 1.129644 1.603959 0.077878 -0.026386 87182.600000 0 1 0
-10.819198 -21.013123 -1.524515 23.683972 1.095317 1.635210 0.087003 -0.044172 -584925.000000 0 1 0
-11.951298 -21.201923 -2.312015 24.447914 1.057504 1.665507 0.105674 -0.036283 -185056.000000 0 1 0
-13.149098 -20.269823 -2.000215 24.243873 0.995333 1.653394 0.120749 -0.034627 106317.000000 0 1 0
-13.767698 -20.581923 -0.776015 24.774327 0.981234 1.602125 0.110480 -0.032696 589261.000000 0 1 0
-14.968098 -19.867323 -0.461115 24.879050 0.925121 1.589332 0.127808 -0.019346 628134.000000 0 1 0
26.729102 -20.263623 -3.719215 33.747472 -0.648672 1.681228 0.074674 -0.026623 36298.300000 0 0 1
25.375102 -20.172223 -3.321515 32.585991 -0.671661 1.672904 0.078628 -0.018148 87552.000000 0 0 1
25.081302 -21.242123 -2.458015 32.959692 -0.702709 1.645442 0.053387 -0.018659 -126410.000000 0 0 1
23.609302 -21.446023 -2.040615 31.960838 -0.737421 1.634687 0.038717 -0.007229 141720.000000 0 0 1
22.829502 -22.190123 -2.966415 31.974792 -0.771197 1.663703 0.050501 -0.006794 -318390.000000 0 0 1
21.655602 -22.642223 -2.366615 31.420315 -0.807667 1.646189 0.025283 0.004193 -433306.000000 0 0 1
20.564802 -23.169923 -3.296215 31.154798 -0.844894 1.676796 0.031368 -0.003064 -191355.000000 0 0 1
20.012002 -22.216223 -4.135915 30.185204 -0.837549 1.708247 0.034008 -0.004708 -453504.000000 0 0 1
18.922402 -22.763523 -4.844615 29.995092 -0.877283 1.733021 0.038268 -0.006135 221378.000000 0 0 1
18.010502 -21.683923 -5.531615 28.725763 -0.877678 1.764573 0.027697 -0.001709 729210.000000 0 0 1
17.104902 -20.975323 -4.606415 27.454706 -0.886689 1.739376 0.032241 0.004759 1204850.000000 0 0 1
17.776702 -20.174023 -3.636415 27.133482 -0.848484 1.705220 0.019677 0.001107 278684.000000 0 0 1
16.707502 -19.790723 -2.563615 26.026630 -0.869674 1.669456 0.043329 0.003243 408808.000000 0 0 1
16.292002 -20.792623 -1.689415 26.469163 -0.906168 1.634666 0.044244 0.000364 111954.000000 0 0 1
15.415002 -20.183523 -0.761415 25.408200 -0.918558 1.600768 0.062707 0.004812 -186447.000000 0 0 1
15.090702 -20.961623 0.522185 25.833923 -0.946826 1.550582 0.062646 -0.003696 214979.000000 0 0 1
14.251702 -22.125523 0.397785 26.321246 -0.998559 1.555683 0.067271 -0.007074 338946.000000 0 0 1
13.798602 -22.493723 1.721985 26.444928 -1.020551 1.505634 0.069689 -0.010061 250048.000000 0 0 1
12.700302 -23.599323 1.761385 26.857554 -1.077086 1.505167 0.068662 -0.020950 30416.700000 0 0 1
13.133602 -24.926523 1.625885 28.221739 -1.085867 1.513153 0.056764 -0.013745 -144000.000000 0 0 1
12.107202 -25.887173 1.547685 28.620367 -1.133328 1.516694 0.050276 -0.010609 -263958.000000 0 0 1
12.528202 -27.271083 2.145185 30.087699 -1.140157 1.499438 0.056216 -0.010805 -17265.900000 0 0 1
12.511402 -27.202153 3.542985 30.150374 -1.139706 1.453014 0.068098 -0.019686 106692.000000 0 0 1
12.672302 -28.519863 4.079185 31.473950 -1.152665 1.440826 0.063214 -0.021289 -8108.760000 0 0 1
12.468902 -28.576433 5.621485 31.681021 -1.159364 1.392412 0.077152 -0.022716 -28129.200000 0 0 1
12.603102 -29.904503 6.123385 33.024435 -1.171941 1.384297 0.063159 -0.024690 -193973.000000 0 0 1
12.529802 -29.927023 7.521385 33.304562 -1.174292 1.342995 0.064664 -0.024027 275772.000000 0 0 1
12.440602 -31.376093 8.100685 34.710933 -1.193311 1.335249 0.053743 -0.021937 11341.400000 0 0 1
12.240902 -31.440793 9.465285 35.042185 -1.199520 1.297288 0.046386 -0.015535 -269628.000000 0 0 1
11.608202 -32.628023 9.780885 35.986163 -1.228987 1.295538 0.043342 -0.012561 -207670.000000 0 0 1
11.528602 -32.890753 11.318585 36.644517 -1.233666 1.256786 0.041717 -0.013172 120248.000000 0 0 1
12.670802 -33.583163 11.817785 37.789391 -1.210014 1.252733 0.049707 -0.017554 318679.000000 0 0 1
12.713502 -33.750053 13.275685 38.431016 -1.210540 1.218087 0.055358 -0.015983 412066.000000 0 0 1
11.550502 33.653194 13.903185 38.200133 1.240173 1.198284 0.055928 -0.018509 514796.000000 0 0 1
11.704302 32.333271 13.523385 36.950143 1.223481 1.196100 0.059292 -0.019918 141311.000000 0 0 1
10.470002 31.665318 13.683285 36.049211 1.251467 1.181462 0.072220 -0.019387 87182.900000 0 0 1
10.260902 30.413318 12.707085 34.521385 1.245407 1.193839 0.071174 -0.017074 18839.800000 0 0 1
9.995202 30.744858 11.285585 34.242003 1.256473 1.234934 0.041858 -0.010342 14180.400000 0 0 1
11.054702 31.419518 10.647385 34.967976 1.232482 1.261394 0.031613 -0.011116 -67904.700000 0 0 1
10.784202 31.800748 9.152385 34.804493 1.243849 1.304702 0.023718 -0.006758 -316550.000000 0 0 1
9.786702 32.766581 9.064885 35.377967 1.280552 1.311677 0.041359 -0.013830 -236681.000000 0 0 1
9.080102 32.652195 7.835785 34.785250 1.299564 1.343585 0.032437 -0.014329 -45014.300000 0 0 1
9.421602 33.750713 6.838385 35.702111 1.298574 1.378065 0.032943 -0.008873 -45367.300000 0 0 1
8.948302 -33.176033 7.242085 35.116507 -1.307344 1.363076 0.042072 -0.008623 287315.000000 0 0 1
9.223402 -32.201593 6.257685 34.075979 -1.291838 1.386109 0.061399 -0.018016 68991.600000 0 0 1
8.480202 -30.864493 6.589185 32.679475 -1.302657 1.367774 0.055934 -0.015865 141681.000000 0 0 1
8.867002 -30.302093 7.819785 32.526752 -1.286124 1.328007 0.057008 -0.014804 94551.800000 0 0 1
8.121402 -29.117023 8.127485 31.301984 -1.298787 1.308139 0.064671 -0.012520 80272.800000 0 0 1
8.749102 -27.788373 7.651785 30.121259 -1.265774 1.313949 0.075697 -0.022934 -137740.000000 0 0 1
9.841102 -27.461023 8.511685 30.387561 -1.226688 1.286894 0.072193 -0.022049 541363.000000 0 0 1
10.714502 -26.401343 8.102385 29.622290 -1.185273 1.293742 0.080616 -0.031066 -5370.310000 0 0 1
10.192602 -25.142923 7.412185 28.124654 -1.185655 1.304098 0.079407 -0.031406 -795874.000000 0 0 1
9.782002 -25.497423 6.131685 27.989350 -1.204467 1.349933 0.079435 -0.032689 -267396.000000 0 0 1
9.108902 -24.496523 5.399585 26.687211 -1.214795 1.367061 0.076401 -0.029915 57248.400000 0 0 1
8.631002 -24.863623 3.956985 26.614877 -1.236677 1.421567 0.064189 -0.028581 -123420.000000 0 0 1
7.676102 -25.891673 3.952685 27.293314 -1.282581 1.425463 0.053737 -0.028421 -446369.000000 0 0 1
8.179002 -27.227833 4.131185 28.728342 -1.278981 1.426494 0.051991 -0.021926 -53349.300000 0 0 1
7.181702 -28.338403 3.707485 29.468413 -1.322595 1.444650 0.051126 -0.020282 44697.900000 0 0 1
6.059402 -28.430303 4.553685 29.423367 -1.360807 1.415408 0.049562 -0.012603 185696.000000 0 0 1
5.003402 -29.358713 4.303385 30.091314 -1.401995 1.427293 0.049653 -0.010744 586216.000000 0 0 1
5.333902 -30.848413 4.388485 31.612243 -1.399582 1.431524 0.042254 -0.009428 -128693.000000 0 0 1
6.342402 -31.381113 3.542685 32.211037 -1.371374 1.460590 0.045100 -0.011115 141238.000000 0 0 1
6.228002 -32.760963 3.691685 33.551412 -1.382934 1.460542 0.045453 -0.013077 149606.000000 0 0 1
7.406902 -33.606913 3.145985 34.556968 -1.353866 1.479632 0.045476 -0.015031 102002.000000 0 0 1
7.239002 -33.943363 1.744485 34.750514 -1.360677 1.520575 0.051737 -0.015742 -203164.000000 0 0 1
8.180202 33.339251 1.376785 34.355741 1.330187 1.530711 0.035309 -0.011811 -411163.000000 0 0 1
7.860302 32.812308 -0.050515 33.740695 1.335674 1.572293 0.040282 -0.009885 1582940.000000 0 0 1
6.613502 32.036768 -0.088115 32.712394 1.367221 1.573490 0.041686 -0.008586 841431.000000 0 0 1
5.454102 32.769214 -0.362215 33.221978 1.405868 1.581699 0.047426 -0.013471 174155.000000 0 0 1
4.149302 31.948788 -0.066515 32.217173 1.441646 1.572861 0.060776 -0.018398 501091.000000 0 0 1
3.741502 31.048688 -1.072415 31.291692 1.450870 1.605075 0.069842 -0.018587 -6952.820000 0 0 1
2.652702 30.307008 -0.548515 30.427824 1.483491 1.588824 0.062888 -0.021117 325226.000000 0 0 1
2.395202 29.033968 -1.464315 29.169377 1.488486 1.621018 0.066832 -0.016724 156861.000000 0 0 1
2.012102 29.422768 -2.784815 29.622678 1.502517 1.664945 0.072217 -0.018458 146006.000000 0 0 1
1.758402 28.364558 -3.719915 28.661436 1.508883 1.700952 0.088310 -0.021798 -70215.900000 0 0 1
1.505802 28.817538 -5.159015 29.314389 1.518591 1.747707 0.087349 -0.024431 -64168.600000 0 0 1
0.354102 29.618058 -5.255515 30.082806 1.558841 1.746399 0.083485 -0.025815 -135561.000000 0 0 1
0.169902 30.415448 -6.381115 31.078079 1.565210 1.777592 0.078515 -0.023797 -274232.000000 0 0 1
-0.037798 29.841258 -7.816015 30.847889 -1.569530 1.826962 0.084424 -0.026551 -77102.200000 0 0 1
-1.258098 29.164928 -8.102915 30.295760 -1.527686 1.841553 0.077554 -0.022762 340528.000000 0 0 1
-1.474598 28.730528 -9.463315 30.284848 -1.519516 1.888596 0.082072 -0.024587 -6705.670000 0 0 1
-1.575598 29.789858 -10.570715 31.648984 -1.517955 1.911339 0.064549 -0.027587 -77461.500000 0 0 1
-0.348898 30.385888 -10.972115 32.308068 -1.559315 1.917298 0.071495 -0.028150 65420.500000 0 0 1
-0.460098 31.781318 -11.412215 33.771327 -1.556320 1.915509 0.061301 -0.025768 -15565.900000 0 0 1
-0.516098 32.830135 -10.219815 34.387916 -1.555077 1.872547 0.065594 -0.024168 556774.000000 0 0 1
0.678502 32.945520 -9.443815 34.279051 1.550205 1.849904 0.070176 -0.029947 324002.000000 0 0 1
0.410802 33.947667 -8.496915 34.997292 1.558696 1.816035 0.070170 -0.021337 228459.000000 0 0 1
1.495102 -33.996123 -7.406215 34.825619 -1.526846 1.785099 0.066541 -0.024169 392604.000000 0 0 1
2.634702 -33.365213 -7.947015 34.399624 -1.491994 1.803923 0.058631 -0.018899 51026.200000 0 0 1
3.498602 -32.719093 -6.996215 33.641140 -1.464273 1.780291 0.053358 -0.021969 199117.000000 0 0 1
4.747702 -32.094273 -7.743815 33.354905 -1.423932 1.805098 0.038272 -0.006768 854043.000000 0 0 1
5.611302 -32.963493 -8.473615 34.494648 -1.402185 1.818987 0.055123 -0.010480 492561.000000 0 0 1
6.292902 -33.885743 -7.600415 35.293207 -1.387179 1.787847 0.062394 -0.006809 -1431940.000000 0 0 1
6.462302 32.849070 -8.067015 34.436892 1.376550 1.807249 0.057649 -0.010649 500828.000000 0 0 1
5.338502 31.992448 -8.354515 33.493496 1.405452 1.822895 0.051355 -0.011788 423015.000000 0 0 1
4.431302 32.460668 -9.367715 34.074705 1.435122 1.849300 0.059065 -0.017731 582190.000000 0 0 1
3.540702 31.263848 -9.856615 32.971467 1.458025 1.874382 0.057278 -0.020644 462427.000000 0 0 1
4.270302 30.346478 -10.644215 32.441386 1.430996 1.905094 0.049502 -0.022077 162572.000000 0 0 1
3.628802 29.100968 -10.460215 31.136003 1.446740 1.913413 0.052737 -0.025096 214649.000000 0 0 1
4.103402 27.977918 -11.416515 30.494895 1.425169 1.954519 0.068177 -0.028472 -1024.900000 0 0 1
3.753802 28.176208 -12.788915 31.169634 1.438350 1.993580 0.065521 -0.025222 496012.000000 0 0 1
4.936602 28.291948 -13.588715 31.771962 1.398048 2.012738 0.076457 -0.038591 414016.000000 0 0 1
4.748702 28.941808 -14.967915 32.927450 1.408168 2.042689 0.082767 -0.030088 -175507.000000 0 0 1
3.847402 28.225088 -15.781815 32.565685 1.435320 2.076719 0.065393 -0.027357 -9450.850000 0 0 1
3.702802 28.805848 -17.081315 33.693604 1.442954 2.102451 0.105600 -0.027920 620881.000000 0 0 1
2.460702 28.147158 -17.784415 33.385671 1.483595 2.132579 0.090592 -0.029457 255337.000000 0 0 1
2.748902 26.888828 -18.237715 32.606438 1.468918 2.164372 0.114528 -0.022172 -25485.800000 0 0 1
1.733302 26.259638 -18.990115 32.453003 1.504886 2.195870 0.089397 -0.040487 268.786000 0 0 1
2.389602 25.150148 -19.813515 32.106316 1.476067 2.235876 0.106780 -0.041029 -53170.800000 0 0 1
2.833702 24.074598 -19.049315 30.830060 1.453630 2.236841 0.098214 -0.035893 -533722.000000 0 0 1
3.793302 23.400348 -19.808815 30.892630 1.410090 2.266877 0.105946 -0.026748 -167343.000000 0 0 1
4.468702 22.254748 -18.982315 29.590056 1.372634 2.267261 0.107270 -0.025234 392980.000000 0 0 1
3.594302 21.186648 -18.626215 28.438161 1.402747 2.284943 0.103124 -0.019038 -32883.000000 0 0 1
4.300802 20.297648 -17.773615 27.320191 1.361998 2.279127 0.077618 -0.013713 -142939.000000 0 0 1
3.608002 18.992148 -17.456515 26.047059 1.383060 2.305263 0.070152 -0.017277 -581999.000000 0 0 1
2.556602 19.314948 -16.573115 25.578733 1.439197 2.275654 0.074009 -0.027453 -443088.000000 0 0 1
1.663202 18.259348 -16.269215 24.512393 1.479959 2.296569 0.056668 -0.017521 61754.400000 0 1 0
2.116602 17.071748 -15.380915 23.075900 1.447443 2.300349 0.037104 -0.007175 -131144.000000 0 1 0
3.156602 16.164148 -15.687315 22.745015 1.377939 2.331876 0.030465 -0.020684 -121527.000000 0 1 0
2.813802 15.190148 -16.693515 22.744924 1.387634 2.394908 0.031523 -0.022065 -256682.000000 0 1 0
2.869002 15.592648 -18.214815 24.148320 1.388834 2.425367 0.034955 -0.016581 -517948.000000 0 1 0
4.136802 15.797348 -18.775215 24.883289 1.314680 2.425736 0.038002 -0.013092 -492599.000000 0 1 0
4.049502 16.333048 -20.110115 26.221817 1.327764 2.444829 0.044397 -0.009727 75634.100000 0 0 1
4.654602 15.307348 -21.143715 26.514844 1.275604 2.493819 0.038138 -0.012783 654157.000000 0 0 1
3.763102 14.213348 -21.419515 25.980297 1.311976 2.540030 0.030558 -0.015232 426741.000000 0 0 1
2.643002 14.576248 -22.214415 26.700800 1.391423 2.553455 0.052452 -0.019979 137476.000000 0 0 1
1.809302 13.386048 -22.708415 26.422188 1.436447 2.604979 0.065811 -0.015428 58659.500000 0 0 1
1.022702 12.701348 -21.759715 25.216173 1.490451 2.611830 0.051683 -0.006166 -98241.200000 0 0 1
0.215702 11.733448 -22.411415 25.298061 1.552415 2.659215 0.042411 -0.002564 226422.000000 0 0 1
-0.436198 10.720248 -21.404715 23.943179 -1.530130 2.676945 0.015712 -0.000592 -779155.000000 0 1 0
-1.363598 11.281648 -20.505215 23.443525 -1.450511 2.635539 0.017521 0.000841 12709.900000 0 1 0
-1.888498 10.342748 -19.578115 22.222544 -1.390194 2.648773 0.005278 0.003392 66970.900000 0 1 0
-2.978798 9.389448 -20.049615 22.338802 -1.263590 2.684919 0.009263 -0.000436 -710336.000000 0 1 0
-2.492198 8.430648 -20.909415 22.682384 -1.283370 2.743585 0.010064 0.002579 -380392.000000 0 1 0
-3.527398 7.526148 -21.246815 22.814745 -1.132512 2.768695 0.018160 0.005979 -208559.000000 0 1 0
-3.166198 6.240748 -21.995415 23.081812 -1.101292 2.833563 0.016460 -0.006249 27592.600000 0 1 0
-2.311198 5.335948 -21.250715 22.031951 -1.162054 2.874494 0.019108 -0.002390 620753.000000 0 1 0
-2.176098 4.141648 -22.000015 22.491984 -1.087021 2.932054 0.028736 -0.011050 -579903.000000 0 1 0
-1.151798 3.170848 -21.405415 21.669627 -1.222370 2.985275 0.029095 -0.001534 147844.000000 0 1 0
0.232102 3.501048 -21.377815 21.663845 1.504598 2.978913 0.032001 -0.001114 115541.000000 0 1 0
0.813302 2.521548 -20.529615 20.699874 1.258790 3.013246 0.032727 0.003819 -1271740.000000 0 1 0
2.305102 2.601448 -20.434415 20.727913 0.845723 2.973111 0.032991 -0.005622 -1120810.000000 0 1 0
2.994302 2.188748 -21.620115 21.935949 0.631211 2.971695 0.048086 -0.001726 -669430.000000 0 1 0
4.343002 2.097648 -21.303515 21.842655 0.449951 2.918949 0.064156 -0.013620 -803746.000000 0 1 0
5.141902 1.249548 -22.311815 22.930714 0.238392 2.908731 0.070376 -0.016166 -1297610.000000 0 1 0
6.496902 1.239348 -22.138015 23.104922 0.188495 2.851270 0.079486 -0.025156 -992907.000000 0 1 0
7.193602 0.528948 -23.167715 24.264598 0.073398 2.839765 0.078684 -0.025450 -486549.000000 0 1 0
8.708502 0.626348 -23.100315 24.695240 0.071800 2.780229 0.075662 -0.027363 -739284.000000 0 1 0
9.195902 1.879748 -23.394615 25.207263 0.201634 2.760047 0.073035 -0.030128 -645064.000000 0 0 1
10.589002 1.837248 -23.324515 25.681422 0.171795 2.709820 0.059651 -0.026424 -545310.000000 0 0 1
13.816102 -21.260123 21.959679 33.542585 -0.994520 0.857036 0.063714 0.011170 -736515.000000 0 0 1
12.834802 -22.200423 22.306679 33.987922 -1.046611 0.854876 0.050396 0.020486 -717832.000000 0 0 1
11.548902 -21.678223 22.232679 33.130266 -1.081299 0.835147 0.039445 0.010138 -208920.000000 0 0 1
10.845002 -21.531923 20.850379 31.874380 -1.104216 0.857748 0.048068 -0.003145 -742459.000000 0 0 1
11.296302 -20.323823 20.228479 30.819727 -1.063499 0.854828 0.062266 -0.007109 50335.300000 0 0 1
11.002802 -20.258323 18.872579 29.793213 -1.073247 0.884790 0.066956 -0.016595 73049.600000 0 0 1
11.350902 -18.866223 18.171379 28.547791 -1.029163 0.880812 0.081753 -0.019763 -29964.600000 0 0 1
10.550402 -17.838423 18.700979 27.914995 -1.036693 0.836687 0.087841 -0.023231 -180226.000000 0 0 1
10.794102 -16.554523 18.117279 26.810458 -0.992993 0.828809 0.096551 -0.024198 -506066.000000 0 0 1
9.917702 -15.424323 18.655679 26.159222 -0.999364 0.776802 0.094170 -0.011044 10072.900000 0 0 1
8.586902 -15.557123 18.217279 25.448540 -1.066450 0.772959 0.059631 -0.009831 -307800.000000 0 0 1
7.659702 -14.788323 18.963679 25.238594 -1.092887 0.720651 0.039920 -0.003632 774307.000000 0 0 1
6.164002 -14.963223 18.568579 24.630978 -1.180036 0.716862 0.006507 0.004041 158691.000000 0 1 0
5.838202 -14.629723 17.220979 23.338284 -1.191097 0.740864 -0.000437 -0.002767 51416.400000 0 1 0
4.464502 -14.871023 16.951879 22.987938 -1.279142 0.741546 -0.015039 0.003039 276277.000000 0 1 0
3.982802 -16.353123 16.757579 23.750869 -1.331897 0.787588 -0.021012 0.002995 -1078220.000000 0 1 0
2.657602 -16.494823 16.372979 23.392658 -1.411052 0.795511 -0.009802 0.007111 -888492.000000 0 1 0
2.307302 -17.861123 16.381679 24.345487 -1.442328 0.832696 0.003681 -0.002261 311959.000000 0 1 0
0.849202 -18.020323 15.894879 24.043718 -1.523706 0.848536 0.012896 0.003663 81887.600000 0 1 0
0.664902 -17.759023 14.497379 22.934668 -1.533374 0.886515 0.019889 0.000288 -575709.000000 0 1 0
-0.708798 -17.952323 14.293079 22.958232 1.531335 0.898775 0.032675 0.002096 -473421.000000 0 1 0
-1.193598 -17.934423 12.821279 22.078347 1.504341 0.951187 0.034489 -0.022403 710059.000000 0 1 0
-2.575598 -18.248623 12.608079 22.329568 1.430583 0.970804 0.040113 -0.026839 578689.000000 0 1 0
-2.777498 -19.668923 12.406779 23.420273 1.430511 1.012496 0.055769 -0.024635 380641.000000 0 1 0
-4.285698 -20.055023 12.358679 23.943853 1.360266 1.028444 0.051135 -0.022043 358637.000000 0 1 0
-4.882498 -20.047423 13.592879 24.708385 1.331900 0.988274 0.061600 -0.036048 -163456.000000 0 1 0
-6.245598 -20.424623 13.515579 25.275355 1.274038 1.006604 0.059444 -0.027832 232374.000000 0 0 1
-6.775298 -21.185623 14.783879 26.707646 1.261269 0.984182 0.060229 -0.023488 821607.000000 0 0 1
-8.141898 -21.604223 14.661479 27.349441 1.210391 1.005010 0.065901 -0.012316 569991.000000 0 0 1
-8.563898 -22.423123 15.766279 28.717805 1.205970 0.989620 0.052735 -0.013924 -101845.000000 0 0 1
-10.089298 -22.356823 15.889379 29.224884 1.146874 0.995965 0.063663 -0.013971 -177440.000000 0 0 1
-10.562698 -21.044423 16.127779 28.540210 1.105611 0.970254 0.060398 -0.015074 54892.700000 0 0 1
-11.962498 -20.942923 15.881679 28.877935 1.051826 0.988481 0.076880 -0.009511 266841.000000 0 0 1
-12.556798 -19.603223 16.415079 28.485336 1.001095 0.956646 0.085947 -0.013253 -354914.000000 0 0 1
-12.534598 -19.584023 17.828779 29.300435 1.001453 0.916650 0.068807 -0.022252 9740.310000 0 0 1
-12.907998 -18.316323 18.394679 28.990832 0.956905 0.883435 0.067101 -0.029192 -315256.000000 0 0 1
-13.191098 -18.523523 19.898979 30.217467 0.951978 0.851938 0.062499 -0.021630 -134718.000000 0 0 1
-14.339898 -19.357723 19.938779 31.271537 0.933219 0.879416 0.071089 -0.020305 89824.700000 0 0 1
-14.542098 -19.942023 21.200479 32.536398 0.940728 0.861114 0.058123 -0.022265 -493303.000000 0 0 1
-15.937298 -20.558723 21.269379 33.601265 0.911356 0.885383 0.062317 -0.021764 -687797.000000 0 0 1
-16.042598 -21.673323 20.388579 33.805207 0.933597 0.923390 0.060101 -0.026727 1041350.000000 0 0 1
-17.312298 -21.920123 19.731879 34.198750 0.902312 0.955774 0.084232 -0.024185 1402200.000000 0 0 1
-18.427898 -22.599423 20.606579 35.706476 0.886727 0.955610 0.075757 -0.020151 140856.000000 0 0 1
-19.070398 -21.688623 21.482179 35.993895 0.849547 0.931254 0.073298 -0.020342 389123.000000 0 0 1
-20.028498 -22.330723 22.327479 37.394094 0.839695 0.930933 0.083113 -0.015727 160767.000000 0 0 1
-20.625598 -21.496023 23.439769 37.906689 0.806060 0.904149 0.067975 -0.009894 146395.000000 0 0 1
-21.611898 -20.593823 22.945179 37.651838 0.761281 0.915488 0.075713 -0.009888 262547.000000 0 0 1
-22.023598 -19.620023 23.892369 37.958260 0.727744 0.889967 0.066818 -0.002847 65740.500000 0 0 1
-23.044098 -18.669223 23.237359 37.676852 0.680901 0.906184 0.070945 0.004098 -95430.900000 0 0 1
-22.537598 -17.889523 22.179479 36.330533 0.670927 0.914115 0.080122 0.002553 -59623.900000 0 0 1
-23.438298 -16.858523 21.814579 36.186178 0.623544 0.923737 0.066352 -0.000972 54611.700000 0 0 1
-22.924698 -16.158823 20.473579 34.724873 0.613984 0.940240 0.070112 0.002783 -109711.000000 0 0 1
-21.826498 -15.316823 20.457279 33.608055 0.611902 0.916373 0.068369 0.007779 -902614.000000 0 0 1
-21.436998 -15.019323 19.138279 32.425278 0.611146 0.939456 0.060311 0.005163 -217913.000000 0 0 1
-20.299298 -14.013423 18.960579 31.111752 0.604213 0.915449 0.054460 -0.001738 -200870.000000 0 0 1
-20.076698 -13.886923 17.569379 30.076627 0.605129 0.946959 0.049673 -0.000928 202962.000000 0 0 1
-19.293598 -12.742023 17.206479 28.821259 0.583671 0.931032 0.052251 -0.005687 -226361.000000 0 0 1
-18.609298 -12.872223 15.815679 27.606807 0.605140 0.960768 0.047720 -0.011113 355308.000000 0 0 1
-17.904798 -11.764123 15.278179 26.313478 0.581307 0.951304 0.047416 -0.010720 401001.000000 0 0 1
-16.655498 -11.434523 15.856079 25.682079 0.601629 0.905365 0.042936 -0.024683 -262939.000000 0 0 1
-16.081698 -10.076423 15.388979 24.433092 0.559733 0.889447 0.049074 -0.024325 -213448.000000 0 1 0
-16.751598 -8.929723 15.824679 24.713892 0.489750 0.875888 0.054338 -0.021223 -167717.000000 0 1 0
-16.536998 -7.779623 14.947279 23.609659 0.439719 0.885245 0.053056 -0.020429 -616894.000000 0 1 0
-16.635798 -6.380223 15.635679 23.705094 0.366222 0.850521 0.060214 -0.022014 366524.000000 0 1 0
-15.739098 -6.103223 16.699679 23.745480 0.369923 0.790798 0.038020 -0.014861 -240004.000000 0 1 0
-14.376798 -6.074423 16.358579 22.609601 0.399765 0.761903 0.034629 -0.017854 -513001.000000 0 1 0
-13.462798 -6.145223 17.634479 23.021415 0.428213 0.698196 0.025529 -0.014730 70162.400000 0 1 0
-13.619098 -7.277823 18.469579 24.074299 0.490775 0.696347 0.032013 -0.019671 -108435.000000 0 1 0
-13.312298 -8.543323 17.879379 23.872114 0.570562 0.724298 0.045306 -0.014245 -476788.000000 0 1 0
-13.493098 -9.827023 18.825379 25.160067 0.629468 0.725414 0.056403 -0.015852 736742.000000 0 0 1
-14.818898 -10.093823 19.273079 26.323689 0.597959 0.749313 0.068702 -0.017733 431596.000000 0 0 1
-15.534198 -9.155023 20.064379 26.976009 0.532549 0.732079 0.052481 -0.014150 94747.500000 0 0 1
-16.989598 -9.648423 20.441279 28.276923 0.516483 0.762812 0.054114 -0.006321 2110330.000000 0 0 1
-17.992998 -9.861923 19.388079 28.229472 0.501382 0.813715 0.052801 -0.005536 1003100.000000 0 0 1
-18.171398 -8.710823 18.520379 27.369373 0.447008 0.827549 0.058725 -0.009544 -690539.000000 0 0 1
-19.415198 -8.873523 17.618079 27.678259 0.428693 0.880804 0.080631 -0.013706 1307960.000000 0 0 1
-20.719798 -8.780223 18.257179 28.978042 0.400820 0.889198 0.079139 -0.013402 1213820.000000 0 0 1
-21.722698 -8.944223 17.258979 29.150422 0.390591 0.937176 0.091080 -0.014926 701801.000000 0 0 1
-23.165998 -9.167023 17.807179 30.623413 0.376803 0.950239 0.089377 -0.003001 310393.000000 0 0 1
-23.716398 -8.120523 18.526879 31.171392 0.329889 0.934333 0.098992 -0.004204 -64307.700000 0 0 1
-25.078798 -8.381623 18.769479 32.426703 0.322541 0.953506 0.093357 0.004287 -127642.000000 0 0 1
-25.831698 -7.185523 19.408279 33.099693 0.271308 0.944241 0.109900 -0.004967 -70688.600000 0 0 1
-25.683488 -7.141223 20.794979 33.809315 0.271197 0.908326 0.103066 -0.011754 402641.000000 0 0 1
-26.322988 -5.942423 21.273679 34.362502 0.222028 0.903206 0.109924 -0.009485 -621984.000000 0 0 1
-26.396768 -6.013023 22.794579 35.391223 0.223972 0.870984 0.098722 -0.011036 -26247.300000 0 0 1
-25.290908 -5.658423 23.605289 35.055063 0.220109 0.832029 0.074845 -0.012294 162319.000000 0 0 1
-24.175298 -6.548523 23.458569 34.316653 0.264529 0.818124 0.067333 -0.003538 -700212.000000 0 0 1
-23.272498 -6.323223 24.645719 34.481934 0.265299 0.774540 0.054112 -0.005313 -676306.000000 0 0 1
-22.457798 -5.177523 24.512739 33.645710 0.226586 0.754587 0.048501 -0.004714 -125430.000000 0 0 1
-21.753198 -4.980423 25.688859 34.028278 0.225072 0.715254 0.044117 -0.006042 -75598.900000 0 0 1
-21.045898 -3.601023 25.734029 33.438562 0.169462 0.692595 0.049134 -0.012066 -130542.000000 0 0 1
-20.157598 -3.352923 26.799319 33.701252 0.164826 0.651455 0.044332 -0.011861 -207846.000000 0 0 1
-20.680898 -3.271823 28.099459 35.042602 0.156905 0.640385 0.041181 -0.022274 -252644.000000 0 0 1
-21.518698 -2.080723 28.592499 35.845708 0.096394 0.647400 0.049377 -0.027193 614238.000000 0 0 1
-22.782598 -1.968523 27.933179 36.099645 0.086191 0.686010 0.058211 -0.030249 -114445.000000 0 0 1
-23.586898 -1.134823 28.727629 37.187448 0.048075 0.688014 0.057442 -0.034322 -128441.000000 0 0 1
-24.930298 -0.778023 28.071289 37.551596 0.031198 0.726447 0.057770 -0.032752 -543902.000000 0 0 1
-24.724898 -0.220823 26.804889 36.467402 0.008931 0.745075 0.054507 -0.037852 544300.000000 0 0 1
-25.882218 0.115977 26.023539 36.703232 -0.004481 0.782681 0.068550 -0.018810 190802.000000 0 0 1
-26.632418 -1.043823 25.342209 36.777749 0.039174 0.810600 0.065824 -0.019592 -119448.000000 0 0 1
-27.531198 -1.694923 26.231359 38.064732 0.061486 0.810515 0.070343 -0.025718 105198.000000 0 0 1
-27.963218 -2.977723 25.855109 38.200721 0.106087 0.827359 0.069632 -0.025349 96537.400000 0 0 1
-26.876398 -4.093323 25.864739 37.524403 0.151140 0.810305 0.068377 -0.018524 171103.000000 0 0 1
-26.490338 -4.411323 27.177679 38.207644 0.165012 0.779429 0.059474 -0.022060 -138478.000000 0 0 1
-25.659018 -5.536723 27.301289 37.873485 0.212522 0.765761 0.057991 -0.021740 -110134.000000 0 0 1
-25.119108 -5.850923 28.722219 38.602704 0.228847 0.731689 0.047601 -0.018297 -430930.000000 0 0 1
-26.183218 -6.060023 29.578559 39.964684 0.227442 0.737551 0.059457 -0.024362 -318843.000000 0 0 1
-25.845008 -6.985623 30.635199 40.685118 0.263981 0.718213 0.057948 -0.021366 207478.000000 0 0 1
-27.050838 -7.506423 31.500189 42.194267 0.270683 0.727933 0.052224 -0.022972 -365146.000000 0 0 1
-27.827898 -8.367123 30.800239 42.344485 0.292075 0.756310 0.045812 -0.023811 -1001610.000000 0 0 1
-28.901898 -8.743923 31.602029 43.708857 0.293784 0.762644 0.053552 -0.018739 -809829.000000 0 0 1
-30.020808 -9.395423 30.801049 44.025305 0.303307 0.795929 0.044358 -0.019189 -578332.000000 0 0 1
-29.765468 -10.693523 30.384799 43.858529 0.344900 0.805444 0.048218 -0.019640 434396.000000 0 0 1
-30.845338 -11.185623 29.602559 44.191227 0.347887 0.836757 0.035154 -0.018287 1636.170000 0 0 1
-30.435108 -12.458223 28.851359 43.748189 0.388530 0.850660 0.052902 -0.015036 114162.000000 0 0 1
-29.292418 -12.132523 28.087669 42.357538 0.392676 0.845832 0.061241 -0.014523 -327588.000000 0 0 1
-28.482928 -13.244623 27.819889 41.960022 0.435259 0.845965 0.057543 -0.011769 -377213.000000 0 0 1
-27.102058 -12.781223 27.299989 40.536041 0.440667 0.831897 0.064491 -0.014206 -160709.000000 0 0 1
-26.251778 -12.157023 28.264009 40.445065 0.433689 0.797043 0.052671 -0.017601 72624.900000 0 0 1
-26.565118 -10.870123 28.761749 40.633770 0.388402 0.784377 0.056211 -0.012009 -909666.000000 0 0 1
-26.404418 -9.683623 27.754119 39.512744 0.351512 0.792020 0.055284 -0.009406 972707.000000 0 0 1
-25.079788 -9.367123 27.263339 38.210318 0.357449 0.776305 0.043786 -0.007236 770607.000000 0 0 1
-24.589298 -10.177023 26.181409 37.331911 0.392414 0.793557 0.048381 -0.005494 -176964.000000 0 0 1
-25.203898 -10.037923 24.780399 36.743225 0.379013 0.830616 0.063805 0.002425 -423157.000000 0 0 1
-26.536668 -10.467623 24.727609 37.752093 0.375720 0.856614 0.064690 -0.003958 -338710.000000 0 0 1
-27.104018 -10.261623 23.439969 37.274131 0.361924 0.890719 0.070045 0.000848 -458308.000000 0 0 1
-28.224418 -11.266923 23.220379 38.245880 0.379808 0.918347 0.078283 -0.006601 -1187360.000000 0 0 1
-29.518078 -10.957223 23.547079 39.317205 0.355438 0.928669 0.077462 -0.007492 -848895.000000 0 0 1
-29.808908 -11.119323 24.969429 40.443575 0.357034 0.905377 0.077323 -0.011184 452479.000000 0 0 1
-31.319108 -10.833923 25.312149 41.700903 0.333036 0.918525 0.046911 -0.004873 524363.000000 0 0 1
-31.518288 -9.442123 25.280569 41.492931 0.291068 0.915651 0.054716 -0.015987 -438653.000000 0 0 1
-32.815618 -9.002023 25.579709 42.570209 0.267735 0.926191 0.062269 -0.015907 -219665.000000 0 0 1
-33.266538 -8.970823 27.065749 43.814301 0.263400 0.904934 0.046558 -0.017382 -249537.000000 0 0 1
-33.707278 -10.211023 27.508029 44.689342 0.294145 0.907727 0.032713 -0.025081 94439.600000 0 0 1
-34.369600 -9.981023 28.759459 45.912925 0.282629 0.893881 0.045902 -0.023878 -842611.000000 0 0 1
-34.856175 -11.271323 29.456749 47.007401 0.312754 0.893561 0.048147 -0.001751 -532302.000000 0 0 1
-35.968935 -11.917723 28.924359 47.669854 0.319950 0.918813 0.036473 -0.002633 112566.000000 0 0 1
36.384425 -11.293923 29.393769 48.118320 -0.300976 0.913644 0.053041 -0.009165 308107.000000 0 0 1
35.080565 -11.985923 28.870209 46.987204 -0.329233 0.909137 0.055058 -0.006794 516257.000000 0 0 1
34.828355 -11.641323 27.531209 45.896647 -0.322574 0.927480 0.063970 -0.004079 -1664350.000000 0 0 1
33.695325 -12.237023 27.111339 44.946016 -0.348356 0.923292 0.083675 0.000808 -1441730.000000 0 0 1
33.239905 -12.117623 25.640679 43.694078 -0.349578 0.943667 0.082873 -0.008235 61393.300000 0 0 1
32.789055 -10.814323 25.398109 42.861820 -0.318581 0.936566 0.085017 -0.027011 22224.500000 0 0 1
33.315595 -10.343023 24.192259 42.452001 -0.301022 0.964445 0.065743 -0.019041 -263141.000000 0 0 1
32.800295 -8.907423 23.903919 41.552363 -0.265170 0.957859 0.082269 -0.006055 954274.000000 0 0 1
31.374995 -8.743623 23.810009 40.345480 -0.271785 0.939548 0.091439 -0.014250 608260.000000 0 0 1
31.063145 -7.430823 23.535109 39.674141 -0.234804 0.935756 0.091442 -0.007133 42855.500000 0 0 1
29.531685 -7.252323 23.427579 38.387082 -0.240812 0.914359 0.100087 -0.003158 29926.800000 0 0 1
29.010205 -7.690623 22.231379 37.349322 -0.259140 0.933246 0.083123 0.000320 -355412.000000 0 0 1
27.621205 -7.504523 22.110479 36.167971 -0.265290 0.913059 0.077183 -0.011614 -229705.000000 0 0 1
14.897302 -17.823423 25.844089 34.749402 -0.874588 0.732167 0.063131 0.008790 139222.000000 0 0 1
13.907302 -18.821723 25.916339 34.918862 -0.934440 0.734468 0.045259 0.010351 83215.800000 0 0 1
14.500802 -20.063323 25.803139 35.757687 -0.944963 0.764670 0.058667 0.014428 -367066.000000 0 0 1
13.466102 -21.237823 25.747349 35.990374 -1.005707 0.773606 0.019247 0.006419 189839.000000 0 0 1
12.988802 -21.603623 27.024589 36.956108 -1.029471 0.750626 0.035673 0.002824 300220.000000 0 0 1
11.839302 -20.855423 27.393039 36.407366 -1.054477 0.719093 0.035363 0.000224 -356621.000000 0 0 1
11.245202 -21.331323 28.749109 37.523208 -1.085651 0.697938 0.030187 -0.003210 237931.000000 0 0 1
11.977802 -20.884223 29.924419 38.406892 -1.050065 0.677501 0.026381 -0.002429 344778.000000 0 0 1
11.460702 -19.725223 30.582429 38.153860 -1.044451 0.640904 0.027803 -0.000477 -43208.400000 0 0 1
11.520902 -18.278223 29.882199 36.875065 -1.008389 0.626024 0.039532 -0.000602 -344797.000000 0 0 1
12.761502 -17.645723 29.921109 37.006759 -0.944665 0.629145 0.033770 0.012174 -632578.000000 0 0 1
12.668302 -16.362523 29.336909 35.900867 -0.911970 0.614322 0.046046 0.006885 169741.000000 0 0 1
13.829102 -15.434323 29.710779 36.224201 -0.840197 0.609051 0.035480 0.004260 -315348.000000 0 0 1
13.436402 -14.091023 29.443339 35.298782 -0.809174 0.584265 0.061654 -0.001284 -255666.000000 0 0 1
14.208402 -13.137123 30.025439 35.720998 -0.746243 0.572491 0.052703 0.003281 -400835.000000 0 0 1
13.506102 -11.724823 29.741689 34.705249 -0.714916 0.541416 0.051263 -0.003666 288349.000000 0 0 1
13.438802 -11.077823 28.508169 33.407114 -0.689393 0.548407 0.078673 -0.007409 -131477.000000 0 0 1
14.609502 -11.065823 27.709859 33.222376 -0.648246 0.584348 0.063957 -0.010229 -366625.000000 0 0 1
14.690902 -9.982323 26.593879 31.979740 -0.596828 0.588841 0.065311 -0.008929 4390.310000 0 0 1
15.000702 -8.677723 27.078819 32.149438 -0.524451 0.569298 0.059779 -0.012646 2029900.000000 0 0 1
16.348902 -8.446023 27.655749 33.218404 -0.476848 0.587114 0.052852 -0.018858 1458480.000000 0 0 1
16.642202 -6.919023 27.698939 33.046437 -0.394011 0.576854 0.050847 -0.024420 836776.000000 0 0 1
18.033302 -6.629423 27.936139 33.905414 -0.352286 0.602461 0.047416 -0.027181 864773.000000 0 0 1
18.346202 -5.276523 27.732709 33.667907 -0.280050 0.602867 0.054123 -0.025580 550122.000000 0 0 1
19.890002 -5.191823 27.493089 34.328372 -0.255330 0.642024 0.053249 -0.024939 -601528.000000 0 0 1
20.197802 -5.713923 26.232829 33.597045 -0.275694 0.674839 0.045886 -0.018930 478520.000000 0 0 1
21.553102 -5.494423 25.858309 34.108313 -0.249608 0.710366 0.054115 -0.018101 945599.000000 0 0 1
22.733002 -6.031623 26.736059 35.608801 -0.259349 0.721483 0.064403 -0.028388 -786909.000000 0 0 1
23.137402 -5.069223 27.700849 36.446857 -0.215684 0.707431 0.057164 -0.031592 -544935.000000 0 0 1
24.178902 -5.530923 28.488099 37.772770 -0.224881 0.716366 0.068054 -0.045596 -793544.000000 0 0 1
24.725202 -4.388623 29.354749 38.630259 -0.175666 0.707652 0.063305 -0.038898 -313390.000000 0 0 1
25.565202 -3.545123 28.591649 38.517916 -0.137791 0.734308 0.066359 -0.031894 175190.000000 0 0 1
25.907502 -2.356923 29.274209 39.162904 -0.090725 0.726508 0.055062 -0.035400 -388200.000000 0 0 1
26.771402 -1.465623 28.348109 39.018858 -0.054691 0.757548 0.071476 -0.029947 -13962.600000 0 0 1
28.152702 -1.736723 28.308029 39.961673 -0.061611 0.783597 0.077262 -0.026442 -426678.000000 0 0 1
28.744202 -0.998223 27.265309 39.631082 -0.034714 0.812097 0.067532 -0.007687 245843.000000 0 0 1
30.288102 -1.025423 27.432589 40.877470 -0.033843 0.835114 0.071642 -0.016531 95767.200000 0 0 1
30.700502 -0.212823 28.485849 41.880899 -0.006932 0.822811 0.064284 -0.004931 59863.400000 0 0 1
32.107702 -0.188923 28.655369 43.035687 -0.005884 0.842162 0.086745 -0.019112 148989.000000 0 0 1
32.581902 0.845377 29.667439 44.073256 0.025940 0.832351 0.093594 -0.017009 -163178.000000 0 0 1
32.703402 2.161477 29.126129 43.846503 0.065997 0.844273 0.079158 -0.005455 251771.000000 0 0 1
33.052802 3.103677 30.141789 44.840249 0.093626 0.833615 0.071247 -0.003848 69337.100000 0 0 1
33.604002 4.453477 29.578529 44.988352 0.131760 0.853339 0.067906 -0.005866 107846.000000 0 0 1
33.608902 5.590677 30.517439 45.739786 0.164836 0.840357 0.078118 -0.003268 348255.000000 0 0 1
32.314302 6.158477 30.695729 44.992985 0.188322 0.819983 0.052526 0.000792 429476.000000 0 0 1
32.174002 7.102077 31.920069 45.874794 0.217256 0.801251 0.051016 -0.003288 -115940.000000 0 0 1
32.612102 6.410377 33.023655 46.853003 0.194090 0.788605 0.059139 -0.001781 94551.400000 0 0 1
32.847202 7.187577 -33.950765 47.783411 0.215423 2.361024 0.063963 -0.014687 -348569.000000 0 0 1
33.230202 6.316177 -32.773895 47.098499 0.187833 2.340411 0.073916 -0.011448 -331869.000000 0 0 1
32.231602 5.426277 -32.340265 45.980576 0.166789 2.350890 0.045876 -0.007535 188414.000000 0 0 1
32.329702 4.195777 -33.031285 46.409912 0.129060 2.362753 0.057408 -0.010630 61554.300000 0 0 1
32.133402 3.029977 -31.978605 45.435311 0.094016 2.351567 0.055401 -0.014924 -251297.000000 0 0 1
32.744802 1.841277 -32.321425 46.046573 0.056172 2.348899 0.052595 -0.018244 -153817.000000 0 0 1
32.748402 0.888277 -31.257025 45.279670 0.027118 2.332714 0.043065 -0.015660 130130.000000 0 0 1
33.445802 -0.465923 -31.644235 46.045590 -0.013930 2.328475 0.047624 -0.030238 -680332.000000 0 0 1
34.767802 -0.292423 -32.074495 47.303898 -0.008411 2.315905 0.074674 -0.015131 -387883.000000 0 0 1
35.608002 -1.387323 -31.749095 47.726926 -0.038941 2.298590 0.083240 -0.012473 198185.000000 0 0 1
36.048402 -1.634323 -30.306845 47.123913 -0.045306 2.269376 0.083316 -0.011861 -1038050.000000 0 0 1
34.984902 -1.754823 -29.403605 45.733956 -0.050117 2.269110 0.060451 -0.011086 -196656.000000 0 0 1
35.496802 -1.891823 -28.109485 45.318264 -0.053245 2.239881 0.068789 -0.015337 -442844.000000 0 0 1
34.472502 -1.570123 -27.039875 43.840318 -0.045516 2.235443 0.065349 -0.015872 -554486.000000 0 0 1
33.987002 -0.251623 -27.068235 43.449614 -0.007403 2.243343 0.043293 -0.011557 24148.100000 0 0 1
33.100402 -0.016723 -26.018965 42.102535 -0.000505 2.236980 0.034459 -0.006717 -402496.000000 0 0 1
32.622902 1.455377 -26.051445 41.773791 0.044583 2.244176 0.015965 -0.004553 6982.200000 0 0 1
31.759702 1.744877 -27.136155 41.810216 0.054885 2.277107 0.026708 -0.014856 232554.000000 0 0 1
31.123902 2.984477 -26.964115 41.287624 0.095598 2.282441 0.019987 -0.003493 -78358.400000 0 0 1
30.266202 3.302977 -28.193915 41.495174 0.108701 2.317810 0.039159 -0.008270 -76974.700000 0 0 1
29.430902 4.437977 -28.056495 40.902818 0.149666 2.326678 0.026666 -0.005194 104870.000000 0 0 1
28.593302 4.675477 -29.168595 41.112577 0.162082 2.359558 0.018597 -0.009039 -356909.000000 0 0 1
27.489702 5.663177 -28.820405 40.228983 0.203168 2.369438 0.019884 -0.009938 -599514.000000 0 0 1
26.359902 5.069877 -28.222695 38.949565 0.190013 2.381244 0.032460 -0.012044 -130419.000000 0 0 1
25.513402 6.022277 -27.608855 38.071648 0.231801 2.382094 0.039419 -0.013377 296383.000000 0 0 1
24.134002 5.295377 -27.406965 36.900309 0.215993 2.407935 0.050887 -0.016379 198110.000000 0 0 1
23.416202 5.113677 -28.600385 37.315550 0.215006 2.444087 0.061972 -0.022365 154007.000000 0 0 1
22.114102 4.655277 -28.312515 36.225732 0.207482 2.467956 0.055231 -0.020505 406391.000000 0 0 1
21.133602 4.296177 -29.476445 36.523240 0.200554 2.509952 0.039035 -0.013788 215175.000000 0 0 1
21.426902 3.019177 -29.951485 36.950224 0.139984 2.515955 0.047653 -0.018221 -24389.900000 0 0 1
20.817702 2.622277 -31.152205 37.559459 0.125304 2.548848 0.029150 -0.020545 -406606.000000 0 0 1
21.082902 3.389077 -32.483835 38.873823 0.159386 2.560061 0.035666 -0.018434 1438740.000000 0 0 1
22.464402 3.133377 -32.880015 39.944497 0.138588 2.537720 0.032262 -0.020398 1420650.000000 0 0 1
22.498902 3.578977 33.941721 40.878479 0.157752 0.591137 0.041574 -0.027304 -367151.000000 0 0 1
23.804802 3.160277 33.282068 41.040858 0.131986 0.625023 0.040496 -0.019322 -448685.000000 0 0 1
23.965102 1.805477 33.031864 40.849601 0.075196 0.628991 0.039886 -0.018421 782017.000000 0 0 1
25.357902 1.513877 32.814251 41.498073 0.059630 0.658777 0.048468 -0.022125 434575.000000 0 0 1
25.633002 -0.001223 32.893779 41.701936 -0.000048 0.661970 0.038215 -0.019753 -246883.000000 0 0 1
25.122502 -0.724523 31.752719 40.495681 -0.028832 0.669549 0.035269 -0.025673 2002360.000000 0 0 1
23.679402 -0.837423 31.531369 39.441635 -0.035350 0.644428 0.043369 -0.031773 914972.000000 0 0 1
22.968702 -1.938923 32.381663 39.747865 -0.084216 0.618625 0.044887 -0.035690 -397384.000000 0 0 1
23.302202 -3.282923 32.094199 39.797083 -0.139963 0.632679 0.051565 -0.044904 435361.000000 0 0 1
22.382402 -4.137923 32.768668 39.898370 -0.182810 0.607104 0.055145 -0.037812 235959.000000 0 0 1
22.335102 -5.584223 32.195087 39.579843 -0.244998 0.620786 0.057439 -0.039626 -139630.000000 0 0 1
23.551802 -6.226823 32.474996 40.596626 -0.258474 0.643596 0.069080 -0.035030 10706.200000 0 0 1
23.422302 -7.592823 32.069499 40.431522 -0.313482 0.654782 0.079257 -0.038749 -1092110.000000 0 0 1
24.773502 -8.198423 31.808489 41.142685 -0.319591 0.687041 0.081191 -0.036288 -695975.000000 0 0 1
25.307402 -7.762023 30.551839 40.424355 -0.297601 0.713955 0.082589 -0.037775 -228396.000000 0 0 1
26.603202 -8.248023 30.308139 41.162404 -0.300641 0.743201 0.095291 -0.031558 109488.000000 0 0 1
27.069702 -7.959923 28.816679 40.330263 -0.285992 0.774862 0.100463 -0.040738 554239.000000 0 0 1
26.232602 -8.662423 27.892759 39.258031 -0.318942 0.780590 0.083633 -0.030543 391165.000000 0 0 1
26.729002 -8.303423 26.606809 38.617466 -0.301201 0.810710 0.100523 -0.026727 362116.000000 0 0 1
26.060002 -9.079223 25.428159 37.525288 -0.335246 0.826265 0.073879 -0.020259 691331.000000 0 0 1
24.678502 -8.746023 25.261669 36.382321 -0.340588 0.803295 0.070448 -0.018448 466240.000000 0 0 1
24.132702 -9.428723 24.125629 35.402459 -0.372466 0.821030 0.061397 -0.010768 619904.000000 0 0 1
22.602602 -9.172423 24.016589 34.231674 -0.385507 0.793170 0.036192 -0.006521 381699.000000 0 0 1
21.749602 -9.623523 25.069749 34.556471 -0.416573 0.759077 0.030029 -0.002504 1353590.000000 0 0 1
20.399302 -9.240223 24.667659 33.316762 -0.425319 0.737134 0.036066 -0.001247 1140390.000000 0 0 1
19.414502 -9.087523 25.839049 33.573239 -0.437786 0.692531 0.035472 -0.010667 -436370.000000 0 0 1
18.721302 -10.222823 26.314929 33.874308 -0.499808 0.681164 0.040035 -0.005948 -1034.090000 0 0 1
19.501802 -11.169223 27.037729 35.158365 -0.520125 0.693479 0.028491 -0.008038 -60399.700000 0 0 1
18.688402 -12.186623 27.918719 35.738285 -0.577847 0.674212 0.029066 -0.010700 324208.000000 0 0 1
17.822302 -13.045023 27.188859 35.029147 -0.631848 0.682215 0.040757 -0.012217 -51731.600000 0 0 1
17.145202 -13.965323 28.004339 35.682365 -0.683540 0.668386 0.038649 -0.010230 -545907.000000 0 0 1
17.845202 -15.192123 28.683949 37.040798 -0.705265 0.685049 0.049717 0.001010 -412170.000000 0 0 1
16.918402 -16.112523 29.226879 37.417324 -0.761005 0.674362 0.046299 0.001529 -47879.300000 0 0 1
17.483102 -17.325823 29.685289 38.562409 -0.780880 0.692271 0.060840 -0.001630 -100970.000000 0 0 1
17.907302 -18.386423 28.606389 38.432506 -0.798599 0.731268 0.064109 -0.005219 307647.000000 0 0 1
18.955002 -17.919723 27.763339 38.094771 -0.757330 0.754234 0.070246 -0.004669 283153.000000 0 0 1
19.319202 -18.890823 26.831569 38.079231 -0.774187 0.788902 0.061806 0.006887 100402.000000 0 0 1
20.415802 -18.296523 25.890769 37.708084 -0.730708 0.813980 0.069449 -0.003472 537631.000000 0 0 1
21.656202 -18.098023 26.571389 38.762975 -0.696132 0.815528 0.081546 -0.008844 129845.000000 0 0 1
22.581302 -17.535423 25.689799 38.436597 -0.660275 0.838784 0.055365 -0.007630 -47179.500000 0 0 1
23.988002 -17.246723 26.251849 39.522566 -0.623346 0.844341 0.055879 -0.008806 195676.000000 0 0 1
24.795602 -18.397823 26.547359 40.719332 -0.638348 0.860630 0.052950 -0.010840 221161.000000 0 0 1
26.137602 -17.967123 26.718819 41.471521 -0.602223 0.870729 0.052274 -0.010308 -340133.000000 0 0 1
26.971302 -19.255723 26.727209 42.574378 -0.620016 0.892102 0.041490 -0.012103 -504352.000000 0 0 1
26.690302 -20.018523 27.880429 43.479096 -0.643520 0.874686 0.044986 -0.009117 334768.000000 0 0 1
27.501702 -21.175023 27.837409 44.493219 -0.656149 0.894825 0.044609 -0.007062 283087.000000 0 0 1
26.811702 -22.276523 28.657449 45.126048 -0.693271 0.882719 0.052256 0.002390 238539.000000 0 0 1
26.902302 -22.123523 30.100989 46.035352 -0.688230 0.858112 0.053855 -0.005162 -229053.000000 0 0 1
26.042402 -23.040023 30.701909 46.385952 -0.724304 0.847473 0.061080 -0.001452 -531871.000000 0 0 1
26.340302 -23.213723 32.210616 47.646744 -0.722387 0.828435 0.056688 -0.004246 -157710.000000 0 0 1
25.676902 -24.319223 32.745247 48.197293 -0.758249 0.823852 0.057538 -0.005567 -19733.800000 0 0 1
25.694402 -24.360923 -34.001335 49.089181 -0.758764 2.335945 0.080118 -0.006144 -536631.000000 0 0 1
25.277402 -25.685753 -33.336615 49.092106 -0.793411 2.317281 0.068470 -0.011431 180830.000000 0 0 1
23.965702 -26.205103 -33.420805 48.764870 -0.830004 2.325875 0.094375 -0.011785 66457.000000 0 0 1
23.489402 -26.558633 33.401272 48.710963 -0.846647 0.815227 0.079049 -0.011943 -126575.000000 0 0 1
22.195302 -27.392343 33.449079 48.598485 -0.889822 0.811689 0.104555 -0.015600 179772.000000 0 0 1
22.402502 -28.783963 33.697260 49.657768 -0.909429 0.824955 0.093431 -0.019311 677363.000000 0 0 1
21.102702 -29.356483 33.875891 49.544960 -0.947536 0.817920 0.117971 -0.027211 303427.000000 0 0 1
20.925202 -30.852633 -34.040304 50.482585 -0.974831 2.310810 0.080470 -0.024637 8755.000000 0 0 1
21.551702 -31.530733 -32.919655 50.421887 -0.971221 2.282182 0.050510 -0.025676 -366033.000000 0 0 1
22.928602 -31.668053 -33.008575 51.167884 -0.944125 2.271955 0.023265 -0.008447 -1180670.000000 0 0 1
23.423602 -32.664453 -31.865765 51.293846 -0.948687 2.241120 0.015067 -0.009107 -1738090.000000 0 0 1
24.692002 -33.139843 -32.029485 52.286060 -0.930448 2.230119 0.011642 0.002649 -578002.000000 0 0 1
25.310402 -33.821823 -30.895835 52.336266 -0.928355 2.202268 0.008045 0.011885 405865.000000 0 0 1
25.838402 -32.865953 -29.804975 51.343261 -0.904542 2.190144 -0.001760 0.009054 -501797.000000 0 0 1
26.568402 -33.581413 -28.844285 51.629295 -0.901467 2.163590 0.011617 0.016990 -69828.700000 0 0 1
27.016602 -32.702863 -27.861095 50.750514 -0.880328 2.151942 0.018574 0.011499 -1229440.000000 0 0 1
27.374602 -33.442483 -26.554295 50.723753 -0.884842 2.121759 0.013219 0.007826 69059.500000 0 0 1
28.631502 -34.091051 -26.533185 51.826369 -0.872222 2.108265 0.013788 0.022590 -30556.800000 0 0 1
29.703902 -33.183763 -26.413915 51.780101 -0.840676 2.106117 0.021470 0.007436 -859003.000000 0 0 1
-27.499608 -30.889194 9.863185 42.516505 0.843385 1.336679 0.074708 -0.020371 9568.750000 0 0 1
-27.409718 -32.135894 10.466985 43.515125 0.864603 1.327878 0.067663 -0.019737 357656.000000 0 0 1
-26.041358 -32.279794 10.843485 42.868620 0.891960 1.315071 0.061257 -0.024025 319735.000000 0 0 1
-25.809598 -33.232694 12.021585 43.761465 0.910467 1.292511 0.063786 -0.029154 -192339.000000 0 0 1
-26.049908 33.632777 11.839285 44.158013 -0.911774 1.299364 0.064949 -0.014680 668189.000000 0 0 1
-27.423668 33.292477 11.577885 44.659758 -0.881759 1.308554 0.045303 -0.027489 505955.000000 0 0 1
-27.702268 31.859377 11.280085 43.699839 -0.855080 1.309714 0.046124 -0.019386 -30265.300000 0 0 1
-27.113178 31.545177 10.053685 42.793682 -0.860811 1.333646 0.063525 -0.024440 -7947.090000 0 0 1
-27.207338 30.200477 9.776085 41.807654 -0.837489 1.334776 0.074708 -0.018441 59458.600000 0 0 1
-26.718508 29.890377 8.305485 40.942574 -0.841371 1.366522 0.064333 -0.008132 506359.000000 0 0 1
-25.373338 29.407077 8.358285 39.729629 -0.858900 1.358834 0.060287 -0.005961 682474.000000 0 0 1
-24.759798 29.488777 7.052785 39.145592 -0.872351 1.389639 0.052032 0.005052 -379461.000000 0 0 1
-23.290198 29.068677 7.058385 37.910976 -0.895316 1.383520 0.048991 0.002323 -434523.000000 0 0 1
-23.010998 27.686277 7.164985 36.706580 -0.877358 1.374339 0.053379 0.003714 237339.000000 0 0 1
-23.439398 26.873877 6.048185 36.168926 -0.853554 1.402787 0.031531 -0.000017 -689190.000000 0 0 1
-23.458998 25.393977 6.388985 35.156760 -0.824986 1.388052 0.031930 0.001145 -264546.000000 0 0 1
-24.526998 24.990177 7.245085 35.757151 -0.794752 1.366764 0.060641 -0.001246 512115.000000 0 0 1
-24.625898 23.638477 7.581985 34.967112 -0.764942 1.352228 0.067333 -0.006059 -389055.000000 0 0 1
-25.202908 22.697777 6.520885 34.538350 -0.733147 1.380855 0.069130 -0.016936 -986590.000000 0 0 1
-26.553288 22.931577 6.216885 35.631222 -0.712340 1.395420 0.068332 -0.020910 -87870.300000 0 0 1
-26.970668 22.282877 4.996385 35.339884 -0.690507 1.428940 0.062227 -0.020056 67674.300000 0 0 1
-26.620248 23.133577 3.715785 35.462756 -0.715434 1.465824 0.050063 -0.028871 384985.000000 0 0 1
-25.251048 23.344477 3.354185 34.551854 -0.746185 1.473566 0.039107 -0.027376 725837.000000 0 0 1
-25.198908 24.150477 2.223885 34.973936 -0.764156 1.507166 0.032261 -0.010197 294437.000000 0 0 1
-23.925598 25.040677 2.175785 34.701640 -0.808167 1.508055 0.018665 0.000675 248967.000000 0 0 1
-23.553398 25.624877 0.941385 34.817856 -0.827495 1.543756 0.004684 -0.003351 -261541.000000 0 0 1
-22.408498 26.420077 1.135985 34.661964 -0.867370 1.538017 0.011140 -0.002399 -215039.000000 0 0 1
-21.719298 26.863877 -0.175315 34.546006 -0.890897 1.575871 0.020692 -0.000798 242036.000000 0 0 1
-21.331798 25.938177 -1.208715 33.604994 -0.882540 1.606772 0.008056 -0.004757 530364.000000 0 0 1
-20.225298 25.079077 -0.941615 32.232118 -0.892128 1.600014 0.026827 -0.012714 19254.500000 0 0 1
-19.936998 24.234377 -2.201615 31.458481 -0.882382 1.640838 0.039442 -0.021428 -191161.000000 0 0 1
-20.971598 23.351477 -2.580615 31.492205 -0.839041 1.652833 0.031805 -0.023915 -115993.000000 0 0 1
-20.541698 22.296977 -3.385815 30.505414 -0.826349 1.682016 0.041887 -0.021667 208917.000000 0 0 1
-21.719898 21.612977 -4.180715 30.924960 -0.782931 1.706401 0.049135 -0.016848 195285.000000 0 0 1
-22.195998 22.493877 -5.106515 32.011144 -0.792064 1.731004 0.034846 -0.004764 -324420.000000 0 0 1
-23.472198 22.089677 -5.554415 32.707025 -0.755064 1.741447 0.044421 -0.004160 129686.000000 0 0 1
-23.867998 22.625077 -6.938215 33.611223 -0.758671 1.778717 0.044803 0.008718 -13933.300000 0 0 1
-23.074498 22.182977 -8.011415 32.995450 -0.765702 1.816051 0.033321 0.004281 -120256.000000 0 0 1
-23.213898 23.009477 -9.145015 33.940424 -0.780976 1.843611 0.041462 0.000221 57521.200000 0 0 1
-22.309798 22.563377 -10.312715 33.364430 -0.791049 1.885036 0.043188 -0.003119 -37031.700000 0 0 1
-22.905998 21.466577 -10.962415 33.251665 -0.752970 1.906761 0.040927 -0.004717 -153504.000000 0 0 1
-22.295598 21.167977 -12.189215 33.071951 -0.759460 1.948263 0.035197 -0.005940 -191158.000000 0 0 1
-23.159398 20.899477 -13.439215 33.967019 -0.734150 1.977577 0.028436 -0.007972 21890.600000 0 0 1
-24.001498 19.753777 -13.451615 33.870778 -0.688622 1.979200 0.030420 0.003485 460193.000000 0 0 1
-24.990698 19.875577 -14.467215 35.055298 -0.671880 1.996209 0.036138 -0.006889 540594.000000 0 0 1
-25.919748 18.659077 -14.683515 35.151104 -0.623943 2.001737 0.067294 -0.010900 576019.000000 0 0 1
-25.221598 17.628677 -15.409815 34.414556 -0.610022 2.035066 0.053399 -0.009100 114072.000000 0 0 1
-26.098248 16.568577 -15.691715 34.667943 -0.565654 2.040508 0.076634 -0.017277 -195253.000000 0 0 1
-25.751178 15.717877 -16.913915 34.586925 -0.548013 2.081769 0.079749 -0.012770 -35515.400000 0 0 1
-24.674898 14.844977 -16.668915 33.272762 -0.541612 2.095525 0.085021 -0.014349 29094.700000 0 0 1
-24.339998 14.148177 -17.868015 33.344751 -0.526536 2.136319 0.086343 -0.020431 -306132.000000 0 0 1
-23.406898 12.953077 -17.742315 32.100699 -0.505440 2.156407 0.088953 -0.017160 -364794.000000 0 0 1
-22.148298 13.324877 -17.226015 31.061794 -0.541610 2.158645 0.092893 -0.032986 -270586.000000 0 0 1
-21.486298 12.080077 -17.044915 29.968624 -0.512179 2.175792 0.101764 -0.024108 -107740.000000 0 0 1
-20.409498 12.165277 -15.905815 28.592596 -0.537517 2.160713 0.105843 -0.028729 321754.000000 0 0 1
-19.357698 13.013577 -16.367515 28.495074 -0.591871 2.182665 0.082396 -0.019509 61785.000000 0 0 1
-18.477798 13.319477 -15.312815 27.446672 -0.624574 2.162663 0.079491 -0.011756 -52396.500000 0 0 1
-17.474098 14.432977 -15.668615 27.552866 -0.690373 2.175690 0.055814 -0.007279 -667684.000000 0 0 1
-16.545598 14.180977 -16.636015 27.415578 -0.708593 2.222836 0.076990 -0.017032 -387325.000000 0 0 1
-15.647498 15.285077 -16.719315 27.532041 -0.773682 2.223413 0.069861 -0.011161 -25802.800000 0 0 1
-15.081998 15.373477 -18.159615 28.170589 -0.794969 2.271336 0.081841 -0.011418 -436850.000000 0 0 1
-14.205998 14.329677 -18.406015 27.311745 -0.789732 2.310302 0.080994 -0.008044 -1004440.000000 0 0 1
-13.532998 14.369177 -19.586815 27.807528 -0.815357 2.352333 0.103018 -0.014069 -631267.000000 0 0 1
-12.421198 13.333877 -19.638415 26.790778 -0.820820 2.393561 0.090814 -0.014430 -391494.000000 0 0 1
-12.821898 12.050377 -19.981115 26.624380 -0.754389 2.419587 0.114303 -0.021359 -610506.000000 0 0 1
-11.730198 11.188477 -20.075715 25.803370 -0.761766 2.462315 0.098892 -0.004353 -478494.000000 0 0 1
-11.915298 9.862977 -20.838415 25.951728 -0.691439 2.503055 0.112783 -0.021399 -158397.000000 0 0 1
-11.796998 9.986177 -22.248715 27.090556 -0.702460 2.534433 0.109638 -0.030425 -66883.600000 0 0 1
-11.985498 8.741777 -22.879615 27.268070 -0.630162 2.566354 0.109844 -0.020620 -32594.500000 0 0 1
-11.650998 8.742277 -24.367315 28.389069 -0.643722 2.602811 0.090784 -0.029476 -931105.000000 0 0 1
-10.338798 9.069777 -24.715315 28.284243 -0.720107 2.633798 0.088337 -0.025790 -742941.000000 0 0 1
-9.995898 8.265077 -25.810455 28.886140 -0.690898 2.675929 0.063342 -0.030746 -41071.500000 0 0 1
-9.747698 9.210777 -27.120815 30.255490 -0.757085 2.682361 0.093556 -0.033250 333009.000000 0 0 1
-8.480998 9.862877 -27.193865 30.144817 -0.860588 2.695425 0.087146 -0.037373 355862.000000 0 0 1
-8.355398 11.022877 -26.413535 29.815958 -0.922192 2.659196 0.067884 -0.027975 -333945.000000 0 0 1
-6.926398 11.576777 -26.312005 29.568875 -1.031627 2.667823 0.064745 -0.029971 -261657.000000 0 0 1
-6.427498 12.030877 -27.535645 30.728920 -1.080125 2.681660 0.060412 -0.034268 316595.000000 0 0 1
-5.093298 12.517877 -27.461375 30.606634 -1.184371 2.684266 0.084203 -0.038453 331706.000000 0 0 1
-4.387498 12.545077 -28.830015 31.745848 -1.234354 2.709642 0.082488 -0.036009 788391.000000 0 0 1
-2.966398 12.748677 -28.842075 31.673232 -1.342181 2.715563 0.101791 -0.041396 790579.000000 0 0 1
-2.472998 12.643777 -30.181325 32.816051 -1.377645 2.738143 0.100498 -0.039408 -594750.000000 0 0 1
-0.958398 12.626977 -30.248635 32.792362 -1.495041 2.745121 0.116898 -0.051051 -789186.000000 0 0 1
-0.492798 11.439077 -29.622855 31.758603 -1.527743 2.772765 0.083634 -0.032833 -45991.000000 0 0 1
0.864002 11.057877 -29.741055 31.741984 1.492820 2.784631 0.091342 -0.041829 253825.000000 0 0 1
1.370602 10.457277 -31.036125 32.779174 1.440472 2.814015 0.094641 -0.040817 -406555.000000 0 0 1
1.660102 11.418477 -32.016445 34.032195 1.426421 2.795689 0.106250 -0.042320 165099.000000 0 0 1
1.616402 10.863277 -33.298305 35.062811 1.423085 2.822996 0.106349 -0.036483 39825.700000 0 0 1
1.944602 11.913477 33.739764 35.834119 1.408996 0.343582 0.113016 -0.038730 788278.000000 0 0 1
3.311002 12.384677 33.698443 36.054515 1.309559 0.363516 0.108523 -0.042612 637306.000000 0 0 1
3.421202 13.245777 32.556823 35.314331 1.318034 0.397800 0.109508 -0.035782 -273281.000000 0 0 1
4.871602 13.571977 32.196659 35.278264 1.226174 0.421079 0.105676 -0.029097 -298700.000000 0 0 1
5.536602 12.374677 31.797779 34.567114 1.150095 0.403008 0.096681 -0.027291 523065.000000 0 0 1
6.929402 12.589477 31.543609 34.662816 1.067637 0.427481 0.088279 -0.013746 778894.000000 0 0 1
7.651002 11.286177 31.118019 33.974207 0.975051 0.412976 0.066559 -0.007123 45582.700000 0 0 1
7.241402 10.879477 29.787659 32.528534 0.983531 0.413452 0.070157 -0.008610 125395.000000 0 0 1
8.095402 9.913977 29.224669 31.904604 0.886036 0.412799 0.071910 -0.009819 -5819.000000 0 0 1
7.410202 9.122677 28.083309 30.443498 0.888610 0.396358 0.064220 -0.006637 64257.400000 0 0 1
6.522902 8.182077 28.637959 30.489791 0.897754 0.350317 0.069257 -0.014135 119053.000000 0 0 1
5.852402 7.400477 27.633669 29.199954 0.901682 0.329018 0.085606 -0.019086 -154760.000000 0 0 1
5.063002 6.217277 28.145959 29.265740 0.887370 0.277521 0.096864 -0.023328 -206035.000000 0 0 1
5.790002 5.167977 28.743549 29.772869 0.728694 0.263718 0.080174 -0.022231 87693.800000 0 0 1
4.886002 4.261577 29.363089 30.070335 0.717243 0.217313 0.094631 -0.025500 -43703.600000 0 0 1
5.669002 3.189577 30.191109 30.883880 0.512492 0.212207 0.092135 -0.017897 525520.000000 0 0 1
6.105202 2.016677 29.444229 30.138067 0.319037 0.214992 0.096797 -0.012759 58849.800000 0 0 1
7.188502 2.221877 28.559479 29.533966 0.299773 0.257599 0.088000 -0.010418 -294285.000000 0 0 1
7.342502 0.919677 27.784079 28.752620 0.124605 0.260293 0.084872 -0.016260 -41835.100000 0 0 1
7.746602 -0.144823 28.591719 29.622917 -0.018693 0.264631 0.055092 0.001041 -36323.600000 0 0 1
7.633902 -1.362323 27.841709 28.901438 -0.176598 0.271637 0.068274 0.002896 -3444.420000 0 0 1
8.366302 -2.442223 28.677769 29.972886 -0.284020 0.295040 0.065643 0.005037 -17478.500000 0 0 1
9.762302 -2.238623 28.686529 30.384715 -0.225416 0.335911 0.055117 0.003955 -618855.000000 0 0 1
10.391002 -3.465923 28.584609 30.611524 -0.321946 0.365945 0.054809 0.004013 -631518.000000 0 0 1
11.930102 -3.270923 28.559999 31.123943 -0.267598 0.408742 0.049758 0.001424 311228.000000 0 0 1
12.581602 -4.448323 28.069849 31.080552 -0.339841 0.443787 0.050281 -0.008317 133618.000000 0 0 1
12.814402 -5.444323 29.015049 32.182645 -0.401752 0.447401 0.058394 -0.008538 -731707.000000 0 0 1
12.194502 -6.801923 28.618259 31.843002 -0.508801 0.453932 0.062897 -0.005762 1259280.000000 0 0 1
10.744602 -6.683923 28.584719 31.260318 -0.556491 0.416751 0.069148 0.002968 1025030.000000 0 0 1
10.251002 -8.001223 28.455139 31.285740 -0.662756 0.428658 0.074176 -0.003100 -106227.000000 0 0 1
8.716002 -8.005523 28.542869 30.899069 -0.742935 0.393050 0.088659 0.003112 -218214.000000 0 0 1
8.111002 -7.542623 29.749749 31.744717 -0.749104 0.356409 0.097422 0.002617 -979589.000000 0 0 1
6.774402 -7.406823 29.392229 31.058923 -0.829964 0.329087 0.094768 -0.008073 -549231.000000 0 0 1
5.959702 -6.751323 30.591649 31.889613 -0.847596 0.286290 0.075406 -0.002064 191169.000000 0 0 1
5.858102 -7.482023 31.787189 33.177152 -0.906534 0.290486 0.079178 0.000368 -117319.000000 0 0 1
5.336702 -6.845623 32.923989 34.048965 -0.908632 0.257773 0.076555 0.001987 -137331.000000 0 0 1
6.117602 -5.669323 33.524792 34.546750 -0.747385 0.243840 0.082667 0.004164 -104705.000000 0 0 1
6.001902 -4.474123 32.750872 33.595539 -0.640583 0.224714 0.087207 0.006373 -221630.000000 0 0 1
6.586802 -3.340623 33.294445 34.103750 -0.469366 0.218289 0.076795 0.011060 -192126.000000 0 0 1
6.540202 -2.166723 32.263476 32.990920 -0.319913 0.210387 0.080048 0.007468 377281.000000 0 0 1
5.216602 -1.709523 32.018879 32.486059 -0.316679 0.169797 0.092428 0.002871 175076.000000 0 0 1
5.211502 -0.621623 31.145239 31.584364 -0.118718 0.166947 0.092279 -0.008997 366987.000000 0 0 1
3.769902 -0.077023 30.950629 31.179473 -0.020428 0.121232 0.091082 -0.016116 373738.000000 0 0 1
3.142502 0.277377 32.135316 32.289794 0.088038 0.097856 0.084781 -0.014990 -732610.000000 0 0 1
1.774802 0.534677 31.944869 31.998601 0.292613 0.057960 0.082361 -0.024341 9901.490000 0 0 1
1.124002 0.687777 33.386056 33.412051 0.549124 0.039449 0.071956 -0.019517 76198.600000 0 0 1
1.365702 1.918577 33.957158 34.038723 0.952174 0.069242 0.066956 -0.013405 -127228.000000 0 0 1
0.781002 2.040677 -32.918435 32.990873 1.205277 3.075313 0.051092 -0.016687 -171592.000000 0 0 1
1.260902 3.276977 -32.097325 32.288802 1.203483 3.032634 0.047388 -0.011312 1432540.000000 0 0 1
2.579902 3.023477 -31.513285 31.762942 0.864396 3.016131 0.035920 0.001976 1047380.000000 0 0 1
3.000802 4.127877 -30.791595 31.211641 0.942205 2.977347 0.039564 -0.006801 -359474.000000 0 0 1
4.178502 3.644677 -29.938795 30.447907 0.717267 2.958467 0.059375 -0.004783 -203211.000000 0 0 1
3.750902 2.706977 -28.932255 29.299699 0.625133 2.983054 0.062319 -0.010835 105672.000000 0 0 1
4.808902 2.233277 -28.125135 28.620557 0.434768 2.955259 0.074300 -0.018085 -138933.000000 0 0 1
4.347602 1.546577 -26.768605 27.163427 0.341771 2.970886 0.067040 -0.026250 18083.500000 0 0 1
3.804102 0.265577 -26.898665 27.167626 0.069700 3.000763 0.079066 -0.019073 -97739.400000 0 0 1
3.546702 -0.241623 -25.637985 25.883272 -0.068021 3.003813 0.081005 -0.024166 -14566.500000 0 0 1
4.226702 -1.636623 -25.243985 25.647658 -0.369432 2.963938 0.089306 -0.031871 -155417.000000 0 0 1
5.585702 -1.591223 -24.928715 25.596345 -0.277523 2.912694 0.077068 -0.032041 -523391.000000 0 0 1
5.998702 -2.929423 -24.590915 25.480955 -0.454278 2.876508 0.077019 -0.038605 -543569.000000 0 0 1
7.482202 -3.009523 -24.265315 25.570415 -0.382422 2.820720 0.086541 -0.040233 17432.100000 0 0 1
8.387202 -2.734023 -25.348755 26.839885 -0.315114 2.806694 0.070834 -0.031041 -1366070.000000 0 0 1
9.676202 -2.808823 -24.917015 26.877054 -0.282517 2.757327 0.048869 -0.021607 -1234830.000000 0 0 1
-30.373578 -4.290523 18.041679 35.587428 0.140330 1.039133 0.177878 -0.028052 325723.000000 0 0 1
-31.754668 -3.980523 18.108579 36.771241 0.124702 1.055876 0.148640 -0.021586 -36217.000000 0 0 1
-32.387048 -4.882123 18.959079 37.844454 0.149617 1.046073 0.120260 -0.021426 46017.600000 0 0 1
-33.889378 -4.678323 19.251779 39.255670 0.137180 1.058224 0.119289 -0.017238 -58083.900000 0 0 1
-34.747205 -5.072123 18.212579 39.557461 0.144948 1.092341 0.110336 -0.016742 -141672.000000 0 0 1
-36.072945 -4.943623 18.693379 40.928464 0.136197 1.096477 0.075973 -0.007650 -534658.000000 0 0 1
36.488395 -5.072123 17.559379 40.810062 -0.138121 1.126004 0.055495 -0.007561 683816.000000 0 0 1
35.118495 -5.011323 18.027579 39.792156 -0.141741 1.100620 0.031892 0.002654 1508030.000000 0 0 1
34.162315 -4.869823 16.939279 38.441099 -0.141596 1.114468 0.028185 0.000569 990273.000000 0 0 1
32.691145 -5.116723 17.354579 37.364063 -0.155257 1.087757 0.037323 0.003539 179518.000000 0 0 1
32.094475 -4.178523 18.286679 37.174158 -0.129466 1.056504 0.049905 -0.003762 483150.000000 0 0 1
30.769425 -4.564223 18.596379 36.241067 -0.147262 1.031969 0.066219 -0.008143 6611.750000 0 0 1
30.347495 -4.001023 19.949779 36.537273 -0.131084 0.993200 0.081984 -0.016490 380062.000000 0 0 1
29.341195 -2.967523 19.965179 35.613485 -0.100796 0.975677 0.079059 -0.010422 627388.000000 0 0 1
29.791985 -1.735523 19.394379 35.590959 -0.058189 0.994497 0.067021 -0.002686 254780.000000 0 0 1
28.885205 -0.514923 19.736179 34.987669 -0.017825 0.971466 0.048863 0.000803 147560.000000 0 0 1
29.467485 0.644377 19.265079 35.212088 0.021864 0.991882 0.054028 0.003325 -483258.000000 0 0 1
28.577105 1.681177 19.436579 34.601414 0.058762 0.974323 0.048348 0.001919 -294477.000000 0 0 1
28.902325 2.968977 18.672779 34.537398 0.102365 0.999582 0.047605 0.006054 28904.100000 0 0 1
28.820035 2.770877 17.300979 33.728268 0.095850 1.032176 0.031574 0.003922 28546.000000 0 0 1
28.643565 4.007277 16.615379 33.355403 0.138999 1.049354 0.036149 0.000566 123695.000000 0 0 1
28.370205 3.876077 15.063979 32.354535 0.135784 1.086494 0.039430 -0.000672 -228079.000000 0 0 1
28.206605 5.188877 14.520379 32.146204 0.181926 1.102129 0.052382 -0.010506 312911.000000 0 0 1
27.595305 5.131977 13.245679 31.036850 0.183872 1.129875 0.056183 -0.004093 -276745.000000 0 0 1
27.080305 6.462377 12.817079 30.649351 0.234256 1.139351 0.080474 -0.007772 752962.000000 0 0 1
25.848905 6.800577 13.507679 29.947807 0.257260 1.102865 0.050744 -0.008991 810770.000000 0 0 1
25.292505 8.060977 13.186379 29.640694 0.308532 1.109763 0.084270 -0.029312 -136678.000000 0 0 1
24.208405 8.529677 14.227779 29.346754 0.338761 1.064643 0.085342 -0.024897 -431378.000000 0 0 1
22.990805 7.887077 14.177979 28.138909 0.330473 1.042738 0.087373 -0.012950 -487731.000000 0 0 1
22.953805 6.442577 14.325979 27.813983 0.273635 1.029714 0.089981 -0.008769 -1477700.000000 0 0 1
21.608705 5.766077 14.020579 26.396220 0.260765 1.010829 0.100293 -0.012585 -316703.000000 0 0 1
21.172805 5.895677 12.682379 25.374976 0.271576 1.047430 0.107731 -0.015539 851435.000000 0 0 1
20.154605 4.920877 12.419779 24.180034 0.239471 1.031377 0.101378 -0.016317 28346.200000 0 1 0
19.845005 4.682077 10.972379 23.154679 0.231695 1.077112 0.103310 -0.016492 -347626.000000 0 1 0
20.827005 3.962277 10.273779 23.558742 0.188000 1.119545 0.114665 -0.022161 252698.000000 0 1 0
20.434205 3.783277 8.940479 22.623043 0.183071 1.164518 0.122438 -0.021093 -19639.800000 0 1 0
21.460205 3.015377 8.059279 23.121091 0.139596 1.214753 0.127692 -0.022604 -918120.000000 0 1 0
21.538805 1.638477 8.362579 23.163278 0.075925 1.201427 0.118787 -0.027224 660223.000000 0 1 0
22.364305 0.879177 7.477579 23.597654 0.039291 1.248360 0.107356 -0.021331 1454180.000000 0 1 0
23.950805 1.121077 7.407079 25.095073 0.046773 1.271173 0.115167 -0.024695 1321370.000000 0 0 1
24.597405 0.768877 8.617479 26.074594 0.031248 1.233970 0.112003 -0.008538 310855.000000 0 0 1
24.570105 1.791877 9.641879 26.454994 0.072800 1.197740 0.113088 -0.006903 -562341.000000 0 0 1
25.203705 1.205077 10.923279 27.495399 0.047777 1.162249 0.088204 -0.003802 238538.000000 0 0 1
26.604005 1.058377 10.787679 28.727465 0.039762 1.185841 0.079286 -0.012444 87204.600000 0 0 1
27.207705 0.341577 11.853479 29.679637 0.012554 1.159955 0.074889 -0.011903 435236.000000 0 0 1
28.762485 0.356977 11.793779 31.088602 0.012411 1.181692 0.090790 -0.011197 356902.000000 0 0 1
29.276685 1.605677 12.109479 31.722893 0.054790 1.179132 0.072720 -0.005830 -333565.000000 0 0 1
30.643755 1.552677 12.424779 33.103257 0.050625 1.186039 0.081985 -0.012355 -242948.000000 0 0 1
31.215605 2.929177 12.787379 33.860170 0.093563 1.183537 0.072709 -0.008992 -407981.000000 0 0 1
31.315265 3.866977 11.700279 33.652576 0.122863 1.215702 0.093592 -0.021155 317811.000000 0 0 1
32.066055 4.993877 12.104179 34.636423 0.154496 1.213797 0.089564 -0.023577 1294630.000000 0 0 1
33.613965 5.013777 11.798679 35.975623 0.148066 1.236650 0.075142 -0.017959 1092830.000000 0 0 1
34.466115 4.078877 12.464279 36.876938 0.117797 1.226009 0.065559 -0.022538 321192.000000 0 0 1
35.798195 4.343077 12.080579 38.030428 0.120731 1.247540 0.092999 -0.020633 176084.000000 0 0 1
-36.705068 3.397677 12.759879 39.007958 -0.092304 1.237553 0.154963 -0.016057 -129283.000000 0 0 1
-36.759298 2.036177 12.443479 38.861706 -0.055336 1.244857 0.146867 -0.019647 6062.350000 0 0 1
35.758435 1.221477 12.911479 38.037665 0.034146 1.224476 0.095706 -0.002443 -469889.000000 0 0 1
35.611095 0.895377 14.398479 38.422233 0.025138 1.186676 0.095199 -0.007046 -1037190.000000 0 0 1
36.463975 -0.042523 14.857679 39.374788 -0.001166 1.183874 0.098879 -0.009291 -328822.000000 0 0 1
36.016105 -0.597223 16.094879 39.453284 -0.016581 1.150591 0.105287 -0.019540 -20961.200000 0 0 1
-36.403108 -1.409423 16.781579 40.109776 0.038698 1.139123 0.119084 -0.025130 10605.300000 0 0 1
-35.356484 -0.524223 17.108179 39.281619 0.014826 1.120173 0.162224 -0.029191 -252252.000000 0 0 1
-34.486972 -0.930123 18.152979 38.983933 0.026964 1.086424 0.144678 -0.021819 95154.700000 0 0 1
-34.896199 -0.671523 19.627579 40.042946 0.019241 1.058519 0.164618 -0.030779 -521079.000000 0 0 1
-35.618966 -1.660923 20.282879 41.022733 0.046597 1.053617 0.118537 -0.024030 -104589.000000 0 0 1
-35.294476 -1.575623 21.636379 41.428439 0.044613 1.021298 0.098587 -0.021884 33552.800000 0 0 1
-35.754413 -2.744923 22.498879 42.333346 0.076621 1.010462 0.075059 -0.016403 -62499.300000 0 0 1
-35.024516 -3.949123 22.343879 41.732017 0.112279 1.005799 0.092678 -0.025006 -61607.400000 0 0 1
-35.513955 -5.071423 23.062779 42.648003 0.141842 0.999444 0.082278 -0.025716 -74351.400000 0 0 1
-35.427234 -5.054623 24.596139 43.423590 0.141720 0.968637 0.081558 -0.032005 645657.000000 0 0 1
-34.092968 -4.856923 25.075059 42.599047 0.141509 0.941434 0.093872 -0.038893 281292.000000 0 0 1
-34.134974 -4.661623 26.494029 43.461026 0.135725 0.915235 0.107531 -0.046889 -149727.000000 0 0 1
-32.799608 -4.197823 27.144549 42.781568 0.127292 0.883446 0.093833 -0.042583 180521.000000 0 0 1
-32.504008 -2.844223 26.950929 42.319649 0.087281 0.880401 0.082730 -0.031755 -172047.000000 0 0 1
-32.004008 -2.586723 25.687599 41.119344 0.080650 0.896038 0.088362 -0.029794 -715452.000000 0 0 1
-31.877098 -1.041623 25.570699 40.879029 0.032665 0.894997 0.088959 -0.027397 445059.000000 0 0 1
-33.135198 -0.384123 25.501979 41.814350 0.011592 0.914880 0.107890 -0.039933 480590.000000 0 0 1
-32.942598 0.810777 24.755489 41.215366 -0.024607 0.926498 0.089029 -0.023479 -72661.900000 0 0 1
-34.269828 1.587077 24.701239 42.274001 -0.046278 0.946763 0.117435 -0.021386 307600.000000 0 0 1
-35.225886 0.993977 23.812299 42.530890 -0.028210 0.976552 0.116059 -0.007991 108716.000000 0 0 1
-36.392598 1.751477 23.564919 43.391177 -0.048090 0.996694 0.106793 -0.002782 18930.100000 0 0 1
-36.281168 2.953577 22.577979 42.834705 -0.081229 1.015617 0.111077 0.003461 -219713.000000 0 0 1
-35.995315 2.552277 21.250679 41.878016 -0.070787 1.038582 0.135710 -0.029977 -220845.000000 0 0 1
-36.741598 3.256277 20.320479 42.112590 -0.088395 1.067258 0.120536 -0.017594 -171190.000000 0 0 1
-36.489088 2.690477 18.895979 41.179488 -0.073601 1.094075 0.139874 -0.017828 152968.000000 0 0 1
-35.262223 3.049977 18.297179 39.843613 -0.086279 1.093674 0.184177 -0.027238 35250.100000 0 0 1
-35.144529 2.506177 17.016079 39.127558 -0.071190 1.120883 0.216595 -0.032861 499867.000000 0 0 1
-33.980928 3.235177 16.254679 37.807201 -0.094920 1.126374 0.197792 -0.034958 511919.000000 0 0 1
-34.394375 4.476877 15.685979 38.066592 -0.129435 1.146075 0.197008 -0.041997 340230.000000 0 0 1
-33.425388 5.034077 14.814279 36.906116 -0.149483 1.157747 0.210758 -0.039374 -167631.000000 0 0 1
-33.842488 6.465077 14.418379 37.349711 -0.188760 1.174464 0.224890 -0.048494 410006.000000 0 0 1
-33.072068 7.078577 13.345679 36.358975 -0.210854 1.194957 0.228139 -0.043637 624447.000000 0 0 1
-33.507758 8.427277 13.115779 36.956901 -0.246392 1.207996 0.172642 -0.042633 -584567.000000 0 0 1
-32.548518 9.133777 12.137379 35.918629 -0.273584 1.226098 0.178877 -0.044389 341095.000000 0 0 1
-32.923738 10.512477 12.023879 36.593147 -0.309066 1.235994 0.153621 -0.038935 906012.000000 0 0 1
-31.893238 11.110377 11.215679 35.586663 -0.335214 1.250166 0.131534 -0.040645 496261.000000 0 0 1
-32.212808 12.616877 10.927279 36.280243 -0.373307 1.264855 0.110589 -0.033293 -329225.000000 0 0 1
-31.321968 13.223477 10.019679 35.444605 -0.399479 1.284204 0.097682 -0.027956 -67256.500000 0 0 1
-31.454118 14.618077 9.832079 36.051623 -0.435046 1.294575 0.093211 -0.024157 -191117.000000 0 0 1
-30.397478 15.242477 8.876979 35.144566 -0.464798 1.315446 0.093106 -0.026975 276857.000000 0 0 1
-29.107438 15.186477 9.471879 34.169995 -0.480887 1.289919 0.110326 -0.019830 28149.100000 0 0 1
-28.187008 16.002077 8.803479 33.586830 -0.516339 1.305587 0.099304 -0.024850 104783.000000 0 0 1
-26.756388 15.924577 9.428079 32.532832 -0.536860 1.276776 0.107764 -0.024136 281770.000000 0 0 1
-26.524488 16.807877 10.530479 33.120148 -0.564812 1.247232 0.105093 -0.027345 237544.000000 0 0 1
-26.449908 18.237877 10.238179 33.719996 -0.603661 1.262303 0.091796 -0.025149 -476049.000000 0 0 1
-26.344138 19.077677 11.517779 34.505516 -0.626765 1.230469 0.100783 -0.013982 -195817.000000 0 0 1
-25.079618 18.937977 12.138879 33.689562 -0.646766 1.202190 0.088257 -0.011389 205401.000000 0 0 1
-25.036198 19.457377 13.490979 34.458776 -0.660664 1.168524 0.103837 -0.021970 -228721.000000 0 0 1
-25.570198 18.506777 14.545079 34.754786 -0.626497 1.138997 0.091656 -0.017820 -362508.000000 0 0 1
-24.773998 17.393077 14.856379 33.719165 -0.612114 1.114539 0.089241 -0.025385 -394577.000000 0 0 1
-25.358088 16.500477 15.771679 34.118093 -0.576866 1.090246 0.086214 -0.019487 -286493.000000 0 0 1
-24.437498 15.380077 16.306279 33.160712 -0.561731 1.056715 0.093284 -0.013703 -784220.000000 0 0 1
-23.383198 15.875077 17.049579 33.007275 -0.596431 1.027991 0.084572 -0.017257 -388780.000000 0 0 1
-22.363298 14.894977 17.275079 31.943791 -0.587573 0.999413 0.069627 -0.019943 243587.000000 0 0 1
-22.691798 13.805877 18.263079 32.234454 -0.546579 0.968459 0.073444 -0.012425 -659206.000000 0 0 1
-22.618598 14.271677 19.604179 33.160301 -0.562881 0.938258 0.072362 -0.018507 220809.000000 0 0 1
-22.893498 13.297877 20.614879 33.554717 -0.526226 0.909214 0.077801 -0.018349 -277837.000000 0 0 1
-22.443598 13.786777 22.041479 34.345555 -0.550857 0.874010 0.068818 -0.013142 1364150.000000 0 0 1
-21.024998 13.897077 22.323879 33.668010 -0.584054 0.845898 0.077765 -0.019616 1229200.000000 0 0 1
-20.524798 15.169377 22.036079 33.718928 -0.636473 0.858567 0.076864 -0.013681 -1424350.000000 0 0 1
-19.147798 15.518677 22.523179 33.388038 -0.681091 0.830390 0.073360 -0.026555 -399189.000000 0 0 1
-18.060198 14.944277 21.815979 32.022478 -0.691268 0.821299 0.061520 -0.023108 24900.000000 0 0 1
-17.581998 15.812577 20.824579 31.509163 -0.732462 0.848772 0.056533 -0.029915 -889445.000000 0 0 1
-16.522598 15.099577 19.876979 29.934725 -0.740428 0.844626 0.052040 -0.014853 1748360.000000 0 0 1
-15.311198 14.615577 20.502779 29.468828 -0.762158 0.801340 0.057153 -0.015209 802257.000000 0 0 1
-14.487798 15.621977 21.015079 29.926176 -0.823048 0.792270 0.046277 -0.021926 -1469060.000000 0 0 1
-13.371898 15.225577 21.965179 29.884694 -0.850127 0.745133 0.036311 -0.022189 -319638.000000 0 0 1
-12.243898 14.644677 21.349279 28.638633 -0.874448 0.729555 0.021663 -0.010357 396786.000000 0 0 1
-11.209198 14.350277 22.313979 28.800872 -0.907678 0.684449 0.016912 -0.004874 1431080.000000 0 0 1
-9.858498 13.838977 21.697779 27.559044 -0.951815 0.664347 0.021465 -0.003941 -890812.000000 0 0 1
-9.581998 12.586677 22.098079 27.176538 -0.920114 0.621286 0.033359 -0.008263 1097320.000000 0 0 1
-8.328898 12.061977 21.601379 26.105199 -0.966469 0.596202 0.037545 -0.009159 1790130.000000 0 0 1
-6.963498 12.813277 21.724879 26.165641 -1.072988 0.591182 0.039784 -0.003838 -581927.000000 0 0 1
-6.906998 13.921477 20.772079 25.942117 -1.110242 0.642319 0.030365 0.002792 -182658.000000 0 0 1
-6.066898 15.004777 21.172379 26.649957 -1.186562 0.652675 0.025790 0.010663 -218516.000000 0 0 1
-6.758698 15.944777 22.162379 28.126268 -1.169873 0.663307 0.027718 0.002690 4800.560000 0 0 1
-7.893998 16.706077 21.798479 28.575897 -1.129371 0.703122 0.014828 -0.001335 -176214.000000 0 0 1
-7.575698 17.839777 21.009479 28.584035 -1.169220 0.745119 0.017267 0.005078 -1121180.000000 0 0 1
-8.592598 18.072477 19.873479 28.202878 -1.126979 0.788851 0.018965 0.009958 -231342.000000 0 0 1
-9.840798 18.566077 20.183879 29.136395 -1.083405 0.805518 0.022797 -0.000335 -891760.000000 0 0 1
-10.695198 17.729477 20.958679 29.461634 -1.027995 0.779324 0.020487 -0.012356 -1183960.000000 0 0 1
-12.016898 18.472877 21.225279 30.596822 -0.994059 0.804171 0.019278 -0.016148 -722514.000000 0 0 1
-12.794398 18.498277 20.085679 30.154890 -0.965694 0.841851 0.013143 -0.011032 -907074.000000 0 0 1
-13.953198 19.234477 20.355879 31.289274 -0.943209 0.862461 0.011680 -0.013350 -345853.000000 0 0 1
-14.816298 19.382477 19.087979 30.976670 -0.918132 0.906881 0.007437 -0.008820 -251609.000000 0 0 1
-15.416898 18.177477 18.644079 30.260587 -0.867388 0.906992 0.032630 -0.010437 150081.000000 0 0 1
-16.367298 18.533877 17.668379 30.390207 -0.847396 0.950368 0.046476 -0.013147 -727538.000000 0 0 1
-17.048498 17.361777 16.904979 29.628718 -0.794502 0.963608 0.052524 -0.018631 1416130.000000 0 0 1
-18.178398 16.611677 17.453679 30.183321 -0.740395 0.954207 0.061737 -0.021606 1400570.000000 0 0 1
-19.339198 17.419877 17.674879 31.462010 -0.733232 0.974255 0.071392 -0.026792 -107721.000000 0 0 1
34.543905 -9.433023 12.046485 37.780697 -0.266574 1.246277 0.049597 -0.018375 -314337.000000 0 0 1
33.181375 -9.757923 11.941685 36.589951 -0.286015 1.238341 0.040900 -0.006878 -105502.000000 0 0 1
32.912995 -11.061823 12.365185 36.858201 -0.324232 1.228682 0.048448 -0.005964 782542.000000 0 0 1
31.378055 -11.437323 12.366485 35.613546 -0.349534 1.216169 0.051694 -0.004904 511546.000000 0 0 1
30.691395 -10.556323 13.247885 35.055729 -0.331275 1.183259 0.061885 -0.005280 382508.000000 0 0 1
29.367255 -11.036623 13.487485 34.149011 -0.359484 1.164772 0.062806 -0.012690 364089.000000 0 0 1
29.170675 -12.151123 14.558785 34.792762 -0.394694 1.139066 0.045903 -0.000850 -1508080.000000 0 0 1
29.224535 -11.647823 15.926385 35.261806 -0.379267 1.102170 0.054022 -0.001457 -30446.000000 0 0 1
28.179105 -12.063323 16.760585 34.935697 -0.404489 1.070421 0.053889 -0.004008 -1152640.000000 0 0 1
26.770305 -11.695723 16.412385 33.508290 -0.411900 1.058935 0.064344 -0.027744 -1749290.000000 0 0 1
26.550705 -10.324423 16.530085 32.935958 -0.370863 1.045019 0.061462 -0.030782 -399615.000000 0 0 1
25.755605 -9.755823 15.524585 31.615502 -0.362084 1.057509 0.084995 -0.034644 -116630.000000 0 0 1
25.416205 -8.247123 15.652085 30.967503 -0.313764 1.040909 0.112964 -0.033465 709842.000000 0 0 1
26.590805 -7.448723 15.827285 31.828561 -0.273124 1.050351 0.091193 -0.023972 560116.000000 0 0 1
26.168505 -6.107723 15.886185 31.216435 -0.229295 1.036885 0.085458 -0.015122 -97214.100000 0 0 1
27.368405 -5.161623 15.936585 32.088108 -0.186408 1.051061 0.098244 -0.016469 -363396.000000 0 0 1
27.935705 -5.105923 14.648885 31.954090 -0.180779 1.094562 0.112235 -0.013152 -251924.000000 0 0 1
29.068235 -4.288323 14.728985 32.867841 -0.146470 1.106127 0.092728 -0.009088 -418872.000000 0 0 1
29.481555 -3.658123 13.391485 32.586436 -0.123451 1.147297 0.089785 -0.016601 -396728.000000 0 0 1
30.078025 -4.560923 12.497585 32.888892 -0.150490 1.181006 0.082141 -0.017713 285163.000000 0 0 1
30.302055 -4.001923 11.227385 32.562004 -0.131308 1.218770 0.094041 -0.027451 -244145.000000 0 0 1
30.903495 -4.877323 10.131585 32.885609 -0.156533 1.257616 0.125207 -0.026141 -596823.000000 0 0 1
32.271895 -5.100523 10.268585 34.248129 -0.156752 1.266283 0.115599 -0.026604 -442419.000000 0 0 1
32.634705 -5.951523 9.201185 34.425374 -0.180386 1.300228 0.126754 -0.028577 262230.000000 0 0 1
34.074525 -6.559623 9.182285 35.894516 -0.190182 1.312108 0.108660 -0.023599 182665.000000 0 0 1
35.095505 -5.683023 8.864085 36.641004 -0.160537 1.326455 0.135046 -0.024902 -1302670.000000 0 0 1
36.329665 -6.294323 8.883085 37.925878 -0.171553 1.334378 0.132421 -0.031357 -331513.000000 0 0 1
-36.068404 -5.284723 8.579385 37.449485 0.145484 1.339651 0.121858 -0.025028 281394.000000 0 0 1
-36.037448 -4.895423 7.176485 37.069728 0.135016 1.375972 0.151216 -0.025574 15257.800000 0 0 1
-35.013835 -3.962523 6.930085 35.912342 0.112691 1.376606 0.107142 -0.009456 -106896.000000 0 0 1
-35.090535 -3.320223 5.553685 35.682109 0.094338 1.414518 0.139465 -0.020866 -181596.000000 0 0 1
-34.577293 -4.014323 4.456585 35.093662 0.115580 1.443461 0.139117 -0.028429 90201.000000 0 0 1
-34.728429 -3.195823 3.343185 35.035039 0.091765 1.475227 0.143325 -0.024682 -48897.400000 0 0 1
-34.212289 -3.921723 2.091085 34.499758 0.114131 1.510148 0.167741 -0.035503 -102226.000000 0 0 1
-34.908282 -5.117723 1.752685 35.324937 0.145568 1.521160 0.163802 -0.024924 332608.000000 0 0 1
-35.991879 -4.889023 0.838585 36.332095 0.135010 1.547713 0.151823 -0.027935 262232.000000 0 0 1
-35.617485 -4.888723 -0.654815 35.957387 0.136404 1.589008 0.169185 -0.029903 -913888.000000 0 0 1
-35.465837 -6.205823 -1.091815 36.021242 0.173227 1.601111 0.169577 -0.035165 412096.000000 0 0 1
-34.554393 -6.460923 -2.155015 35.219224 0.184844 1.632023 0.148538 -0.033626 137453.000000 0 0 1
-33.070098 -6.096323 -1.993915 33.686381 0.182299 1.630021 0.146126 -0.041309 -828960.000000 0 0 1
-32.373308 -6.831223 -1.031115 33.102264 0.207963 1.601951 0.138207 -0.035530 -42683.500000 0 0 1
-31.093028 -6.259723 -0.811215 31.727253 0.198667 1.596368 0.144646 -0.047295 -147204.000000 0 0 1
-30.282338 -7.074223 0.161985 31.098085 0.229493 1.565587 0.119157 -0.040447 -616301.000000 0 0 1
-29.878508 -8.332223 -0.396715 31.021099 0.271961 1.583585 0.124454 -0.032437 454314.000000 0 0 1
-29.332238 -9.142323 0.620785 30.730240 0.302139 1.550594 0.122265 -0.023763 -173831.000000 0 0 1
-28.917838 -10.579423 0.142985 30.792629 0.350720 1.566153 0.105454 -0.024890 -747846.000000 0 0 1
-27.832768 -10.602423 -0.704015 29.792113 0.363962 1.594429 0.105849 -0.031825 -257469.000000 0 0 1
-27.269198 -11.907523 -0.988415 29.772055 0.411710 1.604002 0.093199 -0.016726 -34792.400000 0 0 1
-27.932108 -12.847623 -2.030915 30.812152 0.431105 1.636757 0.084390 -0.021191 -1033780.000000 0 0 1
-28.950638 -13.573223 -1.454615 32.007620 0.438411 1.616258 0.091191 -0.024204 -366929.000000 0 0 1
-29.083648 -14.817523 -2.184115 32.713727 0.471202 1.637611 0.084012 -0.030339 220191.000000 0 0 1
-30.214108 -15.680523 -1.529115 34.075054 0.478716 1.615686 0.098914 -0.029706 563686.000000 0 0 1
-29.763158 -16.185823 -0.264015 33.880616 0.498087 1.578589 0.068973 -0.019270 813431.000000 0 0 1
-30.726608 -17.104523 0.291185 35.167797 0.507948 1.562516 0.074067 -0.011861 344501.000000 0 0 1
-30.715928 -18.579423 -0.187715 35.898446 0.543999 1.576025 0.088137 -0.015963 217305.000000 0 0 1
-29.557668 -19.387223 0.053785 35.348593 0.580520 1.569275 0.083338 -0.026374 458773.000000 0 0 1
-29.772458 -20.803723 -0.085315 36.320813 0.609891 1.573145 0.090054 -0.028320 544377.000000 0 0 1
-30.778668 -21.590923 0.849385 37.606061 0.611725 1.548208 0.088575 -0.027960 266460.000000 0 0 1
-30.196938 -21.793023 2.119785 37.299925 0.625139 1.513935 0.074776 -0.020862 -525740.000000 0 0 1
-31.165768 -21.877923 3.081385 38.202664 0.612057 1.490050 0.074878 -0.021596 -722820.000000 0 0 1
-30.582428 -22.149423 4.472385 38.024782 0.626819 1.452906 0.054095 -0.017631 -211199.000000 0 0 1
-29.797408 -21.043223 4.956385 36.813972 0.614881 1.435753 0.050428 -0.020911 175542.000000 0 0 1
-29.229138 -21.289123 6.224985 36.692230 0.629502 1.400318 0.044898 -0.023124 -46365.100000 0 0 1
-28.606688 -20.016923 6.829585 35.576158 0.610544 1.377626 0.044144 -0.017238 -64147.800000 0 0 1
-28.291608 -20.073923 8.211585 35.648388 0.617098 1.338360 0.026581 -0.021014 -237694.000000 0 0 1
-27.841378 -18.800723 8.627485 34.684910 0.593942 1.319418 0.035269 -0.020592 -316306.000000 0 0 1
-26.812668 -18.900723 9.740485 34.220367 0.614019 1.282165 0.048294 -0.015449 -521157.000000 0 0 1
-27.278358 -19.530723 10.896185 35.274421 0.621370 1.256763 0.042185 -0.017510 -506012.000000 0 0 1
-26.297728 -19.752923 11.873385 34.967495 0.644222 1.224353 0.059420 -0.013442 -174268.000000 0 0 1
-25.911118 -18.551023 12.847485 34.359633 0.621350 1.187573 0.051075 -0.014133 -573651.000000 0 0 1
-25.267408 -17.523723 12.091785 33.041399 0.606371 1.196134 0.049347 -0.011227 315258.000000 0 0 1
-24.744398 -16.401423 12.846285 32.346854 0.585344 1.162396 0.049415 -0.003125 681642.000000 0 0 1
-23.723398 -16.731523 13.998285 32.228799 0.614258 1.121490 0.055939 -0.009045 -181637.000000 0 0 1
-24.378498 -17.258823 15.134585 33.484829 0.616043 1.101809 0.042772 -0.015842 248057.000000 0 0 1
-23.502898 -17.767923 16.139585 33.594218 0.647323 1.069654 0.058615 -0.017158 -48090.000000 0 0 1
-24.347798 -18.317423 17.269985 35.022787 0.644987 1.055139 0.053918 -0.002640 443595.000000 0 0 1
-25.109958 -17.411123 18.098085 35.513348 0.606279 1.036061 0.048250 0.001961 334210.000000 0 0 1
-26.132498 -18.104023 18.784385 36.925820 0.605863 1.037115 0.049440 0.005238 147125.000000 0 0 1
-27.089878 -17.117423 19.503885 37.513587 0.563528 1.024045 0.052245 0.007861 -73892.400000 0 0 1
-26.495978 -16.591323 20.680585 37.483269 0.559449 0.986361 0.048290 0.012522 -121990.000000 0 0 1
-27.235418 -15.541223 21.218585 37.861933 0.518540 0.975903 0.065123 0.003592 -437195.000000 0 0 1
-26.529638 -14.909423 22.436885 37.809078 0.512003 0.935488 0.067001 0.001471 382202.000000 0 0 1
-25.410288 -14.147623 21.962785 36.444504 0.508024 0.923996 0.064116 0.004480 430423.000000 0 0 1
-24.708898 -13.450923 22.991485 36.332704 0.498515 0.885627 0.055286 0.008434 142004.000000 0 0 1
-23.447598 -12.694123 22.537685 34.912431 0.496203 0.869054 0.044296 0.019014 -257639.000000 0 0 1
-23.742198 -11.652923 21.636785 34.170646 0.456269 0.885118 0.069256 0.013159 -418492.000000 0 0 1
-22.678498 -10.928323 21.131485 32.867646 0.449047 0.872483 0.068954 0.014259 -883530.000000 0 0 1
-22.387298 -9.578823 21.835485 32.706778 0.404298 0.839798 0.078784 0.006258 48101.200000 0 0 1
-21.910398 -9.672623 23.170585 33.324183 0.415732 0.801947 0.064452 0.005974 1443860.000000 0 0 1
-20.465298 -9.782623 23.270285 32.496681 0.445902 0.772624 0.040122 0.011177 1156780.000000 0 0 1
-19.953798 -9.928523 24.687485 33.259608 0.461706 0.734350 0.038717 0.007960 162768.000000 0 0 1
-20.303098 -11.129323 25.329785 34.317279 0.501429 0.740538 0.054249 0.009926 181052.000000 0 0 1
-19.357498 -11.294523 26.377985 34.613250 0.528177 0.704280 0.052618 0.002786 -447606.000000 0 0 1
-19.490198 -12.533223 27.254785 35.773912 0.571476 0.704613 0.057299 -0.016085 584555.000000 0 0 1
-20.657398 -12.578823 28.068385 37.051169 0.546957 0.711233 0.061362 -0.009166 1228060.000000 0 0 1
-21.957798 -12.749123 27.420385 37.370611 0.526047 0.746983 0.055360 -0.006364 1593170.000000 0 0 1
-23.052898 -13.143023 28.486985 38.931780 0.518163 0.749961 0.052267 -0.011858 410901.000000 0 0 1
-22.942498 -14.515923 28.916185 39.663787 0.564124 0.753889 0.053844 -0.014382 -975533.000000 0 0 1
-21.975998 -14.655023 29.877885 39.879847 0.588140 0.723947 0.036451 -0.014018 -674239.000000 0 0 1
-22.215898 -15.666523 31.047685 41.266752 0.614204 0.719150 0.033065 -0.019933 -850029.000000 0 0 1
-22.069298 -17.021823 30.702685 41.466266 0.656988 0.737093 0.038912 -0.015312 -100578.000000 0 0 1
-22.452898 -17.957423 31.712885 42.805475 0.674608 0.736446 0.034674 -0.013310 467767.000000 0 0 1
-23.962198 -18.106923 32.083085 43.947377 0.647104 0.752424 0.054659 -0.018999 269604.000000 0 0 1
-24.491798 -17.085523 32.901585 44.432843 0.609115 0.737014 0.074223 -0.026524 -388628.000000 0 0 1
-25.801178 -17.484623 33.243385 45.569019 0.595580 0.753180 0.070107 -0.024795 -375845.000000 0 0 1
-26.591538 -16.459523 -34.059610 46.239408 0.554256 2.398815 0.072536 -0.028373 -176660.000000 0 0 1
-26.196658 -16.279523 -32.701510 44.951935 0.556032 2.385434 0.084929 -0.031762 -153473.000000 0 0 1
-26.949928 -15.224723 -32.141710 44.622644 0.514231 2.375032 0.075287 -0.024710 -158516.000000 0 0 1
-26.505318 -14.828223 -30.742510 43.214696 0.510064 2.362271 0.060294 -0.015092 -48226.100000 0 0 1
-26.878598 -15.653523 -29.656210 42.976535 0.527362 2.332363 0.063215 -0.009194 -38625.100000 0 0 1
-26.214308 -15.116723 -28.557610 41.608200 0.523080 2.327249 0.068725 -0.004092 -346567.000000 0 0 1
-26.366808 -15.931523 -27.291410 41.156324 0.543521 2.295770 0.056618 0.001007 406465.000000 0 0 1
-27.688048 -15.902623 -26.734310 41.644264 0.521345 2.267859 0.063544 -0.003999 558647.000000 0 0 1
-27.959508 -14.738023 -25.973310 40.909122 0.485108 2.258679 0.061029 -0.001940 -564223.000000 0 0 1
-27.254478 -14.448723 -24.635110 39.477345 0.487469 2.244688 0.059807 -0.010195 115971.000000 0 0 1
-25.926778 -13.955823 -24.834010 38.518708 0.493799 2.271461 0.052180 -0.005679 1202360.000000 0 0 1
-24.932998 -14.211923 -23.829310 37.302401 0.518072 2.263753 0.036432 -0.006387 497313.000000 0 0 1
-24.273798 -15.601023 -23.850210 37.435834 0.571234 2.261521 0.034223 -0.003218 -926148.000000 0 0 1
-23.511898 -15.838123 -24.981210 37.785134 0.592802 2.293132 0.055452 0.001869 -242727.000000 0 0 1
-23.414498 -17.265423 -25.174810 38.472127 0.635376 2.284139 0.065115 -0.003836 282922.000000 0 0 1
-22.456198 -17.777923 -26.315710 38.895398 0.669642 2.313900 0.062869 -0.001787 519237.000000 0 0 1
-23.023898 -17.676223 -27.622510 40.069337 0.654754 2.331412 0.067724 -0.006058 611031.000000 0 0 1
-24.021198 -18.643023 -27.982710 41.323266 0.660001 2.314701 0.074500 -0.005063 133775.000000 0 0 1
-24.335198 -18.438723 -29.477810 42.439718 0.648409 2.338633 0.053408 -0.007715 -190973.000000 0 0 1
-23.395798 -18.987023 -30.350710 42.767230 0.681748 2.359829 0.059616 -0.016694 -36357.800000 0 0 1
-23.821198 -18.655823 -31.667510 43.798634 0.664388 2.378968 0.045722 -0.013317 -466882.000000 0 0 1
-22.829498 -18.963523 -32.769710 44.211481 0.693158 2.405658 0.042577 -0.017452 -1404060.000000 0 0 1
-21.608298 -18.273423 -32.695110 43.241262 0.701973 2.428143 0.048435 -0.012955 86326.100000 0 0 1
-20.472598 -19.018023 -32.298210 42.708159 0.748581 2.428365 0.046175 -0.016646 67145.500000 0 0 1
-20.102498 -20.195223 -33.266110 43.801730 0.787699 2.433295 0.038941 -0.013488 -1689530.000000 0 0 1
-19.812198 -19.785623 33.553685 43.701760 0.784727 0.695415 0.037086 -0.013989 208061.000000 0 0 1
-19.552598 -20.760223 32.557585 43.281489 0.815346 0.719358 0.032215 -0.018398 -471086.000000 0 0 1
-20.809098 -21.345923 31.866785 43.636670 0.798132 0.752071 0.025082 -0.014009 -228333.000000 0 0 1
-21.646298 -21.884023 32.868285 45.031065 0.790859 0.752617 0.018368 -0.011171 827113.000000 0 0 1
-22.945998 -22.397123 32.460785 45.627322 0.773294 0.779261 0.011393 -0.001606 1332030.000000 0 0 1
-22.924698 -23.626423 31.516685 45.574676 0.800471 0.807178 0.024001 0.000709 -681687.000000 0 0 1
-22.383398 -24.668023 32.261285 46.371525 0.833916 0.801384 0.014250 0.001756 -171538.000000 0 0 1
-22.530598 -25.867763 31.539685 46.599579 0.854241 0.827357 0.024062 0.010546 -397021.000000 0 0 1
-21.712598 -27.025043 32.104885 47.249481 0.893970 0.823748 0.028822 -0.001534 -725008.000000 0 0 1
-22.154098 -27.510843 33.370685 48.592727 0.892840 0.813798 0.022904 -0.006585 -283564.000000 0 0 1
-21.580798 -28.709313 33.780085 49.305675 0.926208 0.816034 0.028719 -0.022454 -837948.000000 0 0 1
-22.653798 -29.635123 -33.742910 50.299295 0.918128 2.306141 0.025756 -0.022454 -315907.000000 0 0 1
-23.627298 -30.190363 33.495485 50.908297 0.906749 0.852693 0.028126 -0.024092 1044560.000000 0 0 1
-24.686198 -29.249063 33.212285 50.675161 0.869796 0.856090 0.032105 -0.017531 412647.000000 0 0 1
-25.807108 -29.062723 -33.823710 51.523704 0.844662 2.286925 0.041057 -0.022188 459127.000000 0 0 1
-26.985628 -28.359883 33.931985 51.806242 0.810224 0.856642 0.041222 -0.015455 688764.000000 0 0 1
-27.944768 -28.226133 -33.146510 51.733120 0.790407 2.266234 0.024472 -0.002868 -155132.000000 0 0 1
-29.028738 -27.274753 -33.605810 52.114587 0.754256 2.271616 0.023889 -0.013925 -838520.000000 0 0 1
-29.913068 -27.871713 33.626085 52.937110 0.750086 0.882518 0.052368 -0.018555 828598.000000 0 0 1
-31.159248 -27.106903 33.628685 53.259472 0.715961 0.887423 0.054677 -0.026873 1193590.000000 0 0 1
