# x y z rho theta phi s1 s2 stress_xx np intf bulk
-0.684649 -10.697298 -14.373344 17.930252 1.506881 2.500805 0.003563 0.004411 534195.000000 1 0 0
2.122151 -13.454398 -13.121744 18.913078 -1.414356 2.337538 0.004476 0.007746 468812.000000 1 0 0
2.163851 -11.165898 -14.717744 18.600310 -1.379378 2.483669 0.000626 0.008083 312639.000000 1 0 0
-5.634849 -6.183698 -16.596944 18.586237 0.831805 2.674696 0.016573 -0.004416 1785.900000 1 0 0
4.474151 -14.089698 -11.453344 18.700714 -1.263319 2.229959 0.000083 0.003377 1475420.000000 1 0 0
13.932151 -10.810598 -7.932844 19.336594 -0.659901 1.993525 0.016554 -0.004723 -960871.000000 1 0 0
7.096551 10.855702 -10.824444 16.893072 0.991813 2.266287 0.017628 -0.012400 -1023820.000000 1 0 0
5.696951 -4.219598 -12.648244 14.499598 -0.637507 2.630717 -0.006893 0.003569 1616390.000000 1 0 0
13.640151 0.448402 -9.927444 16.876283 0.032862 2.199687 0.005565 0.004392 1148140.000000 1 0 0
14.112551 5.005702 -10.351644 18.203782 0.340854 2.175664 -0.009245 -0.003203 356463.000000 1 0 0
4.139851 4.342102 -13.503844 14.776536 0.809238 2.723514 0.009758 0.002845 1389850.000000 1 0 0
10.245251 -5.030198 -13.680544 17.816435 -0.456404 2.446292 0.016670 0.000634 -502421.000000 1 0 0
2.582851 -7.518998 -12.090044 14.469817 -1.239915 2.559903 -0.007664 0.005815 1574690.000000 1 0 0
-5.624349 -1.948898 -15.152944 16.280148 0.333563 2.767288 0.007120 -0.004506 746478.000000 1 0 0
10.674751 -0.082698 -9.696044 14.421179 -0.007747 2.308172 0.007691 0.001056 439127.000000 1 0 0
-1.602749 -9.436998 -16.934044 19.452187 1.402565 2.627109 0.018002 -0.005915 1725810.000000 1 0 0
8.467951 1.705002 -18.142244 20.093637 0.198691 2.697230 0.015112 0.002199 421233.000000 1 0 0
16.261051 -6.026298 -8.827644 19.459326 -0.354905 2.041649 0.018652 0.003259 789722.000000 1 0 0
10.041951 7.512402 -9.904044 15.980208 0.642285 2.239245 0.008299 -0.007639 1060300.000000 1 0 0
13.770951 -2.344798 -10.613644 17.543848 -0.168654 2.220535 0.016082 0.003734 -1314970.000000 1 0 0
7.192351 -1.887798 -13.736644 15.620150 -0.256683 2.645435 0.009767 0.000971 920825.000000 1 0 0
-2.832349 6.696702 -13.821144 15.617043 -1.170666 2.657299 0.000813 -0.002742 1339020.000000 1 0 0
11.183251 1.742002 -13.983544 17.989974 0.154527 2.461153 0.008564 -0.000262 252639.000000 1 0 0
-2.258949 10.806602 -12.975244 17.036503 -1.364729 2.436597 0.000676 -0.000383 -1852530.000000 1 0 0
2.847551 -1.085798 -15.343244 15.642974 -0.364291 2.945520 0.005689 -0.004538 -234656.000000 1 0 0
-9.051649 0.474002 -15.240944 17.732552 -0.052319 2.605067 -0.002337 -0.002611 -800873.000000 1 0 0
2.273051 -1.848698 -18.039244 18.275633 -0.682805 2.980579 0.018177 -0.012044 545820.000000 1 0 0
1.052751 7.829602 -13.227044 15.406675 1.437140 2.603186 0.005627 -0.002912 321295.000000 1 0 0
9.320151 -9.134098 -9.888344 16.373036 -0.775317 2.219233 0.007839 0.003172 -760156.000000 1 0 0
3.955351 7.330602 -13.556444 15.910993 1.075998 2.590623 0.005254 0.002474 464360.000000 1 0 0
-2.719049 9.177202 -15.527144 18.240243 -1.282753 2.589173 -0.001884 -0.002081 -134716.000000 1 0 0
5.589451 -7.654498 -15.361644 18.050302 -0.940076 2.588771 -0.002419 0.005245 1422130.000000 1 0 0
4.231751 7.321902 -16.428144 18.477063 1.046742 2.666194 0.012987 -0.000529 -530555.000000 1 0 0
-0.310449 5.108402 -13.480044 14.418867 -1.510099 2.778743 0.009984 -0.005088 2328390.000000 1 0 0
8.832651 4.222602 -16.699244 19.357449 0.445948 2.611337 0.018493 -0.003353 797055.000000 1 0 0
5.268251 0.265102 -14.461744 15.393725 0.050278 2.791839 0.008757 0.000440 -106264.000000 1 0 0
6.318951 7.993702 -11.611244 15.448281 0.901880 2.421312 0.005562 -0.003172 -12888.100000 1 0 0
2.781451 -8.307798 -15.095844 17.453953 -1.247726 2.615738 -0.006826 0.003788 -496153.000000 1 0 0
4.055351 11.564002 -13.746844 18.415964 1.233509 2.413528 0.007028 -0.009734 -2437260.000000 1 0 0
0.602251 -4.542298 -13.843444 14.582048 -1.438978 2.821952 0.005506 0.000677 1310340.000000 1 0 0
8.452051 -0.155898 -11.676644 14.415460 -0.018443 2.514963 0.001548 0.002570 1520370.000000 1 0 0
-1.040549 -5.057298 -16.341844 17.138112 1.367876 2.835566 0.013199 -0.010065 -645595.000000 1 0 0
4.470351 0.853002 -11.723044 12.575429 0.188547 2.771291 -0.000834 0.001536 1406670.000000 1 0 0
-2.973049 -7.135498 -15.655244 17.459697 1.176014 2.682941 0.014917 -0.003858 1396890.000000 1 0 0
11.329651 -3.855398 -11.353744 16.496442 -0.328001 2.329876 0.016730 0.001347 548442.000000 1 0 0
6.479451 -7.045298 -12.586644 15.812752 -0.827212 2.491422 -0.004543 0.008095 -304738.000000 1 0 0
3.399351 -4.000598 -14.718244 15.626486 -0.866470 2.798974 0.003670 -0.001304 2535820.000000 1 0 0
-0.639749 -1.550498 -18.406844 18.483106 1.179468 3.050720 0.027788 -0.014569 780832.000000 1 0 0
14.859451 2.927802 -8.467544 17.351502 0.194541 2.080594 -0.006998 0.001579 -381433.000000 1 0 0
6.929251 4.292802 -14.364644 16.516224 0.554648 2.625450 0.008206 0.001405 1750700.000000 1 0 0
10.102751 -9.663398 -14.139044 19.883647 -0.763174 2.361842 0.019960 0.001093 1141550.000000 1 0 0
8.973351 -3.260898 -15.588544 18.279967 -0.348561 2.592056 0.019186 -0.002141 13611.600000 1 0 0
-5.493749 -2.079698 -18.063844 18.994970 0.361886 2.827187 0.004770 -0.002488 -195363.000000 1 0 0
5.028451 -9.099598 -11.211944 15.290379 -1.065958 2.393912 -0.009812 0.006411 879837.000000 1 0 0
-2.554349 4.120402 -17.175744 17.846809 -1.015853 2.866495 0.001528 0.001158 1360600.000000 1 0 0
9.513851 9.296902 -14.436444 19.630503 0.773865 2.397066 0.032335 -0.014343 -1635720.000000 1 0 0
9.795451 9.966902 -11.666544 18.204347 0.794074 2.266422 0.021721 -0.014907 379752.000000 1 0 0
11.943151 -6.027098 -9.663944 16.503230 -0.467360 2.196390 0.019332 0.002154 -161381.000000 1 0 0
8.149251 6.845602 -13.704044 17.351466 0.698676 2.481266 0.009582 -0.000805 211854.000000 1 0 0
3.892651 -4.169298 -17.646444 18.545424 -0.819700 2.828955 0.015230 -0.010583 -421117.000000 1 0 0
9.327551 -7.510898 -12.397144 17.236762 -0.677927 2.373485 0.009863 0.003097 -346586.000000 1 0 0
12.025951 -8.760698 -8.870044 17.321981 -0.629587 2.108388 0.018240 -0.000493 877623.000000 1 0 0
-2.911549 -2.467098 -13.990344 14.501497 0.702953 2.875295 0.007836 -0.002028 -1762280.000000 1 0 0
-0.542349 6.281402 -17.675744 18.766514 -1.484668 2.798970 0.009142 0.002206 2220610.000000 1 0 0
1.140951 -8.458298 -17.569844 19.533151 -1.436714 2.689394 0.013557 -0.001905 1847440.000000 1 0 0
-0.005649 8.594902 -16.011344 18.172383 -1.570139 2.648940 0.001079 -0.001591 -611695.000000 1 0 0
1.766251 3.473302 -15.023044 15.520158 1.100354 2.887810 0.017742 -0.000733 2141680.000000 1 0 0
-1.977849 -0.427198 -15.917744 16.045839 0.212724 3.015151 0.010633 -0.005976 1986640.000000 1 0 0
14.037551 -4.354898 -8.422044 16.939563 -0.300817 2.091144 0.018184 0.000881 -820477.000000 1 0 0
0.500651 0.637502 -14.649644 14.672052 0.905063 3.086317 0.009901 -0.002475 1839900.000000 1 0 0
8.784151 2.679402 -12.570744 15.568048 0.296062 2.510648 0.001045 0.003326 1889410.000000 1 0 0
5.832651 0.946302 -17.167644 18.156082 0.160841 2.810104 0.023013 -0.001433 -922167.000000 1 0 0
15.238451 1.432002 -12.310644 19.642122 0.093698 2.248168 0.012602 -0.005467 -222653.000000 1 0 0
8.753351 -11.258598 -11.973744 18.621164 -0.909938 2.269229 0.010060 0.005602 2254100.000000 1 0 0
-4.648249 0.852102 -15.106844 15.828740 -0.181304 2.838417 0.007542 -0.002200 1782290.000000 1 0 0
2.256751 5.304102 -17.280544 18.216575 1.168525 2.819631 0.016007 -0.002442 3055590.000000 1 0 0
5.897951 -11.717698 -12.350044 18.017044 -1.104483 2.326038 -0.004079 0.006563 363548.000000 1 0 0
12.805651 7.181602 -8.651344 17.041298 0.511109 2.103274 -0.000017 -0.003973 281678.000000 1 0 0
-5.148049 3.684402 -15.740844 16.966184 -0.621178 2.759208 -0.003457 0.001490 2293730.000000 1 0 0
-0.705049 -4.417998 -19.118544 19.635033 1.412545 2.911720 0.030080 -0.017122 -915114.000000 1 0 0
9.731451 4.339502 -10.226244 14.768496 0.419460 2.335657 -0.002103 0.004196 -314027.000000 1 0 0
13.226951 3.551302 -12.796844 18.743617 0.262304 2.322290 0.003835 -0.009472 -93204.100000 1 0 0
-6.268149 5.949202 -17.141944 19.197107 -0.759298 2.674640 -0.010242 0.004287 -1685530.000000 1 0 0
-10.258149 3.176302 -15.406244 18.779533 -0.300274 2.532861 0.003429 -0.002797 -1074480.000000 1 0 0
10.647651 13.428502 -8.332444 19.055885 0.900391 2.023350 0.029466 -0.009489 130439.000000 1 0 0
7.394451 13.419602 -12.238244 19.609646 1.067171 2.244767 0.035008 -0.016326 -192394.000000 1 0 0
5.319251 15.177002 -11.135344 19.560974 1.233693 2.176406 0.020927 -0.016696 -1136530.000000 1 0 0
14.208151 9.256602 -10.096044 19.735408 0.577429 2.107807 0.023285 -0.008946 -561980.000000 1 0 0
8.295551 -17.278098 -2.098844 19.280923 -1.123179 1.679868 0.027793 0.000357 -78257.000000 1 0 0
0.695151 -15.967798 -0.063344 15.983048 -1.527289 1.574760 0.005685 -0.007097 2198940.000000 1 0 0
-9.129449 -11.746998 7.599256 16.705912 0.910130 1.098554 0.008678 -0.001165 491437.000000 1 0 0
2.012751 -15.941398 -2.686944 16.291072 -1.445202 1.736487 0.005224 -0.002177 2262460.000000 1 0 0
-1.213849 -11.042798 -9.423144 14.567514 1.461314 2.274256 0.005952 0.003324 813494.000000 1 0 0
-4.762449 -12.656498 -13.023844 18.774674 1.210900 2.337399 0.016812 0.003463 673058.000000 1 0 0
-8.219149 -17.676798 -1.879044 19.584545 1.135565 1.666889 -0.003968 -0.002492 72983.400000 1 0 0
-11.354649 -7.052998 -8.896144 16.056594 0.555830 2.158017 0.016691 0.000448 1953770.000000 1 0 0
-13.557849 -11.433898 -4.711144 18.350591 0.700616 1.830433 0.007555 0.002344 -249.886000 1 0 0
-5.867949 -13.480498 9.851756 17.697846 1.160241 0.980432 0.005551 -0.001530 73037.200000 1 0 0
0.141151 -14.011398 -3.735344 14.501448 -1.560723 1.831318 0.005346 0.000036 1109870.000000 1 0 0
-14.665649 -11.528698 1.912256 18.752303 0.666209 1.468644 0.001756 -0.007413 8753.030000 1 0 0
-4.076549 -16.552998 -7.556044 18.647086 1.329329 1.988008 0.000351 0.000500 423228.000000 1 0 0
0.455651 -15.282998 -9.262944 17.876795 -1.540991 2.115488 0.010501 0.002634 1754170.000000 1 0 0
4.504251 -14.216798 -2.677044 15.151640 -1.263975 1.748412 0.001600 0.002091 1109690.000000 1 0 0
-3.619549 -18.070698 -2.453944 18.592287 1.373113 1.703170 -0.016448 -0.000917 1246060.000000 1 0 0
-0.927949 -13.485698 0.619356 13.531768 1.502095 1.525010 0.005001 -0.004644 2894080.000000 1 0 0
-8.497649 -11.319698 -10.748544 17.772923 0.926850 2.220274 0.021327 0.001532 3441140.000000 1 0 0
-3.768049 -14.131398 -0.423544 14.631268 1.310215 1.599748 -0.004726 -0.001138 4060910.000000 1 0 0
-1.657949 -14.994198 -7.325844 16.770294 1.460671 2.022873 -0.002130 0.003172 534271.000000 1 0 0
-14.174749 -7.787198 -1.834544 16.276656 0.502360 1.683746 0.006067 0.000195 825853.000000 1 0 0
-10.774349 -7.288898 -11.711544 17.503568 0.594783 2.303786 0.017350 -0.002394 399676.000000 1 0 0
-9.517249 -14.758098 6.738056 18.809064 0.998027 1.204420 0.002370 0.001402 1161330.000000 1 0 0
-2.430649 -14.277998 -12.406544 19.070701 1.402175 2.279112 0.018769 0.003988 -444816.000000 1 0 0
2.275651 -17.838298 -4.781544 18.607704 -1.443911 1.830678 0.009892 -0.004182 340300.000000 1 0 0
-6.643549 -9.621498 -9.314444 14.948874 0.966481 2.243479 0.013491 0.000064 965848.000000 1 0 0
-10.913549 -15.212598 0.525756 18.729792 0.948486 1.542722 0.003367 -0.001191 815270.000000 1 0 0
-12.660249 -11.014498 4.056856 17.264390 0.715995 1.333594 0.015978 -0.004801 2190650.000000 1 0 0
-16.943149 -8.828798 -1.592944 19.171736 0.480372 1.653980 0.004840 -0.004004 -1045860.000000 1 0 0
-1.490049 -19.318398 -4.048044 19.794126 1.493818 1.776757 -0.015370 0.004212 -1056140.000000 1 0 0
3.233151 -14.333598 -8.760244 17.106934 -1.348945 2.108409 0.000436 0.003254 970399.000000 1 0 0
-4.274149 -8.047698 -13.048944 15.915676 1.082578 2.531998 0.008992 0.000798 1345550.000000 1 0 0
5.562951 -16.628598 1.194856 17.575107 -1.247959 1.502758 0.021431 -0.003819 4682010.000000 1 0 0
-2.825249 -13.847998 -3.277144 14.508231 1.369540 1.798644 -0.002682 -0.002421 565864.000000 1 0 0
-0.482549 -13.962198 3.596556 14.426055 1.536249 1.318829 -0.001516 -0.001568 -4612740.000000 1 0 0
1.146551 -16.228998 6.932256 17.684772 -1.500265 1.168002 0.008917 -0.003820 1140540.000000 1 0 0
-5.384549 -10.309998 -14.676044 18.726337 1.089496 2.471415 0.018600 -0.002583 -13188.000000 1 0 0
-0.397749 -17.324998 -5.917744 18.312113 1.547842 1.899863 0.002393 0.001807 713652.000000 1 0 0
-6.534549 -13.344198 -1.226744 14.908818 1.115429 1.653173 -0.003666 -0.003248 3377930.000000 1 0 0
-1.707849 -17.766298 -0.241844 17.849835 1.474962 1.584346 -0.008462 -0.000219 1868100.000000 1 0 0
-9.507149 -9.832898 -4.912244 14.532787 0.802240 1.915599 0.014769 -0.001680 2308220.000000 1 0 0
-0.894849 -16.679498 4.796356 17.378477 1.517198 1.291173 0.009170 -0.006400 2456170.000000 1 0 0
-6.833149 -9.854398 -6.416344 13.600388 0.964506 2.062101 0.014397 -0.001535 3352680.000000 1 0 0
-6.077349 -14.514598 -8.720444 17.990383 1.174269 2.076849 0.007216 -0.001066 1031020.000000 1 0 0
-5.742249 -12.163498 -10.404944 17.005498 1.129726 2.229203 0.013765 -0.000230 1612300.000000 1 0 0
-10.827149 -12.111598 -9.050644 18.596562 0.841335 2.079086 0.024998 -0.007309 244075.000000 1 0 0
3.879751 -17.301798 6.660956 18.941305 -1.350206 1.211449 0.013078 -0.000974 1503370.000000 1 0 0
-6.733749 -14.259298 -4.162544 16.309437 1.129606 1.828875 -0.000508 -0.007238 -1342260.000000 1 0 0
-2.850149 -12.257698 -7.179044 14.488381 1.342337 2.089211 0.006579 -0.000267 2408580.000000 1 0 0
-7.028449 -12.868598 4.419856 15.314537 1.070898 1.278027 0.000800 -0.000049 3225600.000000 1 0 0
2.575451 -16.417898 2.309556 16.778391 -1.415196 1.432707 0.009703 -0.005845 3777790.000000 1 0 0
-6.195549 -12.056298 7.282456 15.387441 1.096103 1.077794 0.003603 -0.002347 857321.000000 1 0 0
-11.154149 -12.801298 -0.993844 17.008116 0.854049 1.629263 0.005251 0.004224 -523814.000000 1 0 0
-14.340449 -8.716198 4.613756 17.404233 0.546139 1.302495 0.011613 -0.001439 1507150.000000 1 0 0
-7.938549 -15.562298 4.319656 17.996253 1.099090 1.328399 -0.003722 0.001927 1005100.000000 1 0 0
-16.325949 -9.128898 1.129856 18.738996 0.509852 1.510465 -0.005973 -0.002354 -932588.000000 1 0 0
-6.580349 -17.126998 2.246656 18.484657 1.203976 1.448953 -0.011296 0.010016 2385160.000000 1 0 0
-11.547949 -14.914098 -4.754044 19.452156 0.911925 1.817694 0.023112 0.004923 -1077110.000000 1 0 0
-10.023349 -9.921898 -12.823944 19.062139 0.780312 2.308708 0.022010 0.002774 -896602.000000 1 0 0
-4.413949 -16.004698 -4.547844 17.213837 1.301695 1.838168 -0.007405 -0.002314 -1388020.000000 1 0 0
-11.788849 -8.231298 0.036756 14.378198 0.609535 1.568240 0.001476 -0.000382 2725880.000000 1 0 0
-9.643149 -11.175498 3.506256 15.171550 0.858870 1.337581 0.004976 -0.000197 3577530.000000 1 0 0
-14.060249 -12.781498 -0.669144 19.013286 0.737794 1.605997 -0.001311 0.003393 -445279.000000 1 0 0
5.652451 -15.035998 -7.260844 17.628140 -1.211212 1.995323 0.001061 -0.000279 885747.000000 1 0 0
-7.408649 -10.442898 -1.227344 12.862682 0.953760 1.666361 0.002114 0.000133 240499.000000 1 0 0
-11.622349 -8.194498 -6.114444 15.479510 0.614116 1.976867 0.014043 -0.001876 -23949.500000 1 0 0
-14.337149 -6.523098 -9.210544 18.246610 0.426987 2.099925 0.015843 -0.007896 2135900.000000 1 0 0
-3.841949 -16.449498 1.359056 16.946787 1.341349 1.490515 -0.011091 -0.000939 852873.000000 1 0 0
-7.950149 -15.487798 0.134956 17.409623 1.096552 1.563044 0.000181 0.002847 2042450.000000 1 0 0
0.914451 -18.551598 3.615556 18.922745 -1.521544 1.378545 0.007995 -0.011698 1230800.000000 1 0 0
-14.095949 -8.584798 -4.605744 17.134976 0.547030 1.842935 0.007528 -0.002388 7512.360000 1 0 0
-3.357349 -14.514198 11.165156 18.617048 1.343480 0.927636 -0.003152 -0.003010 730499.000000 1 0 0
-10.833349 -12.193698 -3.839644 16.756807 0.844406 1.801990 0.008913 -0.003203 864967.000000 1 0 0
-9.950249 -10.664498 0.535556 14.595403 0.820032 1.534095 0.003629 0.000942 1342680.000000 1 0 0
-0.011749 -13.129998 -11.158144 17.230820 1.569902 2.275186 0.011607 0.000791 1643700.000000 1 0 0
-5.898349 -12.587098 -6.424544 15.313404 1.132581 2.003732 0.002855 -0.004552 2441260.000000 1 0 0
1.646451 -15.885198 9.778456 18.726146 -1.467518 1.021389 0.003464 0.001483 -69245.000000 1 0 0
-8.973249 -15.579598 -5.540044 18.813165 1.048240 1.869705 0.008447 -0.004680 -763675.000000 1 0 0
-3.363249 -15.399998 5.850456 16.813662 1.355780 1.215404 0.002070 -0.002607 108265.000000 1 0 0
-17.505249 -5.405498 -6.548744 19.456084 0.299504 1.914091 0.020874 -0.005396 -587461.000000 1 0 0
18.878751 5.466002 -2.828344 19.856584 0.281826 1.713721 -0.001635 0.004518 -1002810.000000 1 0 0
12.763151 -12.541798 -5.791544 18.807890 -0.776651 1.883815 0.020098 -0.006970 -2653460.000000 1 0 0
10.981051 -13.563198 -1.680844 17.531944 -0.890216 1.666817 0.022901 -0.001462 1526220.000000 1 0 0
18.543651 -2.909298 4.614656 19.329409 -0.155621 1.329731 0.022742 -0.011116 -516280.000000 1 0 0
8.596151 -16.860398 4.877456 19.543706 -1.099306 1.318564 0.024455 -0.014462 -1210340.000000 1 0 0
18.003551 -1.069198 6.628356 19.214738 -0.059319 1.218598 0.041365 -0.012070 -1042630.000000 1 0 0
17.878651 -4.286298 -5.008244 19.055210 -0.235303 1.836748 0.015204 -0.003640 153237.000000 1 0 0
5.279651 -11.634898 14.718056 19.490171 -1.144806 0.714909 -0.004160 -0.004459 233877.000000 1 0 0
15.983251 -8.919198 -0.831944 18.322351 -0.508990 1.616218 0.009771 -0.003713 37252.400000 1 0 0
13.815351 -12.725798 -1.498644 18.842925 -0.744370 1.650414 0.015109 0.005577 248544.000000 1 0 0
11.077751 -2.069698 13.784856 17.805125 -0.184704 0.685335 0.017255 -0.008351 -15651.600000 1 0 0
16.846651 -6.058598 -1.352844 17.954010 -0.345230 1.646218 0.004973 -0.003930 -1061550.000000 1 0 0
17.730851 3.612402 -0.878044 18.116387 0.200985 1.619282 0.000953 0.002983 1006940.000000 1 0 0
9.778951 -11.046198 9.487056 17.539972 -0.846175 0.999311 0.025234 -0.007279 889236.000000 1 0 0
9.138551 -11.078498 4.276556 14.984498 -0.881061 1.281374 0.005583 -0.003678 329848.000000 1 0 0
14.053151 -10.210298 6.876356 18.682225 -0.628323 1.193864 0.017353 -0.001005 -308391.000000 1 0 0
16.183151 -0.578398 -4.567844 16.825401 -0.035726 1.845732 0.000901 -0.002580 -1420280.000000 1 0 0
15.779551 -0.556698 -1.665744 15.876991 -0.035265 1.675905 0.004162 -0.001530 2403570.000000 1 0 0
12.859951 -5.276498 -0.227644 13.902216 -0.389358 1.587172 0.005088 -0.002697 1272860.000000 1 0 0
14.314851 -7.627598 1.028956 16.252814 -0.489577 1.507445 0.006028 -0.000717 1429980.000000 1 0 0
15.511251 2.487502 3.651156 16.128159 0.159014 1.342433 0.009487 -0.002002 166345.000000 1 0 0
15.845351 -7.131498 5.090256 18.106467 -0.422911 1.285826 0.016290 -0.007917 -654946.000000 1 0 0
13.677051 -12.215198 3.351556 18.641506 -0.728999 1.390023 0.012860 0.003213 18886.700000 1 0 0
13.983351 -1.010198 9.301156 16.824569 -0.072118 0.985038 0.030039 -0.009976 1538700.000000 1 0 0
14.126751 -2.853898 -1.567344 14.497117 -0.199338 1.679122 -0.000624 -0.000386 -304638.000000 1 0 0
15.076551 1.735902 9.116356 17.703776 0.114634 1.029860 0.045222 -0.009901 -1214760.000000 1 0 0
14.376851 -10.199398 -2.991044 17.879260 -0.617028 1.738878 0.010231 -0.002593 1136060.000000 1 0 0
7.433951 -12.632698 6.112256 15.881070 -1.038899 1.175722 0.002862 -0.001359 562116.000000 1 0 0
12.359851 -4.695498 7.065656 14.991235 -0.363059 1.080010 0.008817 -0.005390 2319410.000000 1 0 0
14.939251 -9.091298 -5.758844 18.411877 -0.546683 1.888913 0.022333 -0.004132 112322.000000 1 0 0
14.216651 -4.587898 4.654556 15.646945 -0.312162 1.268751 0.007322 -0.005618 1266880.000000 1 0 0
17.045251 -4.281298 1.016756 17.604088 -0.246082 1.513007 0.004125 -0.005734 -1429930.000000 1 0 0
10.305651 -14.520798 1.066656 17.838099 -0.953579 1.510964 0.022784 -0.001081 589380.000000 1 0 0
16.376151 -2.617598 8.545456 18.656231 -0.158501 1.094998 0.041306 -0.011162 140845.000000 1 0 0
15.940951 -2.569398 3.192456 16.459268 -0.159808 1.375598 0.007664 -0.005526 1387410.000000 1 0 0
7.794851 -15.213698 2.585456 17.288751 -1.097312 1.420688 0.014978 -0.005762 3847720.000000 1 0 0
16.707451 -6.986498 7.898356 19.756875 -0.396069 1.159522 0.034515 -0.008053 -338315.000000 1 0 0
10.324651 -8.603298 5.209456 14.413660 -0.694705 1.201001 0.009303 -0.004842 1515560.000000 1 0 0
10.989451 -11.935798 2.155756 16.366998 -0.826654 1.438699 0.015382 0.001217 -586149.000000 1 0 0
12.393751 -7.252298 12.107556 18.782806 -0.529435 0.870285 0.023580 -0.011364 1256850.000000 1 0 0
15.100151 -9.884698 4.368356 18.568909 -0.579609 1.333319 0.006097 0.000773 -474683.000000 1 0 0
7.317351 -10.250898 7.809356 14.819264 -0.950852 1.015761 0.006872 -0.000626 2167450.000000 1 0 0
15.159651 -3.377998 -4.310044 16.118386 -0.219246 1.841489 0.004597 0.000697 943559.000000 1 0 0
11.905751 -9.041598 9.935456 17.950229 -0.649510 0.984235 0.015443 -0.006191 -1841530.000000 1 0 0
16.906451 -6.706498 2.451556 18.352530 -0.377643 1.436814 0.014857 -0.006018 264851.000000 1 0 0
17.458951 4.044202 2.026756 18.035473 0.227626 1.458182 0.008645 0.003996 -751667.000000 1 0 0
14.744451 -4.969598 8.839156 17.894872 -0.325091 1.054171 0.030621 -0.005816 923859.000000 1 0 0
12.753751 -12.655198 6.151756 18.990954 -0.781520 1.240915 0.013564 0.001798 -258067.000000 1 0 0
18.185551 0.699502 -0.623544 18.209678 0.038446 1.605045 0.011077 -0.006485 -127893.000000 1 0 0
11.647851 -2.175698 10.990256 16.161430 -0.184662 0.822993 0.014525 -0.005248 951985.000000 1 0 0
5.750651 -12.495098 10.551756 17.336004 -1.139466 0.916424 -0.000488 0.000361 -1644990.000000 1 0 0
10.724851 -5.025698 11.031456 16.185583 -0.438216 0.820903 0.014182 -0.006581 1368870.000000 1 0 0
17.778051 1.318202 5.060056 18.531080 0.074012 1.294226 0.026432 -0.003665 -1346160.000000 1 0 0
12.261751 -7.811598 7.256056 16.248753 -0.567232 1.107878 0.013580 -0.006172 -869912.000000 1 0 0
10.659251 -7.882298 14.364556 19.547141 -0.636734 0.745325 0.027466 -0.010083 -741927.000000 1 0 0
14.114351 -0.305698 3.787356 14.616854 -0.021655 1.308697 0.002303 -0.000556 2708330.000000 1 0 0
11.719351 -7.824098 2.589156 14.327018 -0.588664 1.389079 0.007111 -0.001710 1448700.000000 1 0 0
9.312051 6.065102 3.472856 11.643044 0.577301 1.267909 -0.001770 0.002159 2389080.000000 1 0 0
-3.846849 14.828102 -9.911844 18.245972 -1.316963 2.145081 -0.005001 0.006402 1652250.000000 1 0 0
8.764351 -6.419598 9.298356 14.299809 -0.632185 0.862892 0.014141 -0.004705 -203801.000000 1 0 0
5.831051 -10.618998 -8.560644 14.834046 -1.068633 2.185963 -0.006557 0.000537 1083870.000000 1 0 0
5.383251 0.943802 0.605756 5.498827 0.173558 1.460411 0.002397 -0.000602 3925540.000000 1 0 0
-0.543149 9.936802 11.033356 14.858330 -1.516190 0.733896 0.000033 0.003439 369982.000000 1 0 0
-6.256749 -5.152698 1.145056 8.185864 0.688932 1.430454 0.002967 -0.000869 3555840.000000 1 0 0
-1.099149 4.026802 -10.893244 11.665591 -1.304329 2.775666 0.009123 -0.004660 1615660.000000 1 0 0
10.987951 5.788702 1.231056 12.480370 0.484875 1.471996 -0.001498 0.005338 1577850.000000 1 0 0
-10.128249 -1.798998 -13.656844 17.097579 0.175788 2.496026 0.002439 -0.002397 1511130.000000 1 0 0
7.522651 10.789002 -6.070844 14.486131 0.961917 2.003228 0.004259 -0.005540 -111095.000000 1 0 0
-12.539149 -2.868298 -9.663044 16.088251 0.224878 2.215082 0.012839 -0.003373 -493830.000000 1 0 0
-3.884749 -8.650798 2.595256 9.831731 1.148722 1.303663 0.001598 0.000186 -1012820.000000 1 0 0
7.953951 -6.665398 -5.847544 11.911618 -0.697485 2.083931 0.000551 -0.003343 2301260.000000 1 0 0
14.353051 3.131102 -4.212544 15.282650 0.214784 1.850054 0.002207 0.002596 711105.000000 1 0 0
-2.550649 -4.920398 9.760156 11.223938 1.092551 0.516437 -0.004070 0.001545 1502090.000000 1 0 0
3.434951 -1.965298 -4.506544 5.997518 -0.519688 2.420980 -0.003258 0.002001 -2454460.000000 1 0 0
-3.989149 8.447002 -3.469044 9.964909 -1.129589 1.926368 0.001916 -0.001959 1020880.000000 1 0 0
5.846151 0.067802 11.757856 13.131232 0.011597 0.461442 0.002597 -0.004703 1742940.000000 1 0 0
7.144751 4.690102 12.397856 15.058266 0.580889 0.603551 0.007079 0.002390 208722.000000 1 0 0
1.186451 -14.470598 12.370656 19.074565 -1.488989 0.865129 -0.013481 0.004209 -1332080.000000 1 0 0
2.970451 8.710502 -9.119244 12.955965 1.242144 2.351620 0.003474 -0.001864 195943.000000 1 0 0
-4.453949 -8.938198 -4.563944 10.979920 1.108506 1.999468 0.006122 -0.000920 2537230.000000 1 0 0
5.648151 -6.562598 -4.045844 9.557100 -0.860147 2.007918 0.000839 -0.003976 2997850.000000 1 0 0
-3.206649 3.461402 8.622456 9.829072 -0.823585 0.500714 0.003055 0.001971 2356460.000000 1 0 0
-3.865849 3.231202 -11.124144 12.211962 -0.696211 2.716309 0.003240 -0.005357 104104.000000 1 0 0
3.005251 -6.086998 8.553156 10.919687 -1.112188 0.670874 -0.003054 -0.000141 669363.000000 1 0 0
-5.111949 -8.743698 10.454856 14.556384 1.041745 0.769539 0.001286 -0.002360 1528140.000000 1 0 0
-13.172849 -2.517998 6.591256 14.943524 0.188872 1.113997 0.000763 -0.001966 -13819.200000 1 0 0
3.938651 -5.955298 -8.376344 11.006438 -0.986470 2.435712 -0.007548 0.002427 4095840.000000 1 0 0
2.901751 -0.545698 12.345256 12.693435 -0.185887 0.234760 0.002098 -0.004127 2038480.000000 1 0 0
1.479851 -1.478798 -7.552144 7.836560 -0.785042 2.871351 -0.003328 0.000908 -1137140.000000 1 0 0
3.554651 -3.538898 3.514056 6.124373 -0.783177 0.959680 0.000871 -0.001736 2353380.000000 1 0 0
1.517951 0.462802 -11.913544 12.018772 0.295933 3.009168 0.005072 -0.002021 -232967.000000 1 0 0
4.073651 3.536602 -10.689344 11.973481 0.714946 2.674212 -0.000493 0.001322 -239024.000000 1 0 0
2.834651 3.306702 3.405756 5.528897 0.862112 0.907152 -0.001284 0.001323 -408231.000000 1 0 0
-5.389849 0.893002 2.474456 5.997571 -0.164191 1.145516 0.001289 -0.001010 805296.000000 1 0 0
-9.397449 -9.305398 5.711456 14.405666 0.780476 1.163125 0.009862 0.000210 -2092660.000000 1 0 0
-3.019949 3.913302 -0.564244 4.975177 -0.913543 1.684453 0.002956 -0.003955 1149340.000000 1 0 0
-15.926749 -6.458798 4.957156 17.887169 0.385266 1.289986 0.019711 -0.004487 1488260.000000 1 0 0
0.967551 6.713102 -8.123844 10.582945 1.427653 2.445940 0.006978 -0.002535 250450.000000 1 0 0
-1.662349 6.573602 -9.498344 11.670226 -1.323107 2.521622 0.004024 -0.003294 1177230.000000 1 0 0
2.081651 -0.315098 5.286956 5.690735 -0.150229 0.378970 0.004206 -0.000870 3236880.000000 1 0 0
-3.417449 -0.491398 -6.240244 7.131695 0.142812 2.636235 0.005466 -0.002994 83350.000000 1 0 0
1.843551 -1.230298 -2.365844 3.241841 -0.588477 2.388802 0.002705 0.000081 1496380.000000 1 0 0
2.431851 -8.633598 -7.628544 11.774872 -1.296237 2.275577 -0.006732 0.003093 2196410.000000 1 0 0
-2.380149 13.978902 -5.488144 15.205082 -1.402146 1.940073 -0.002856 0.003356 2064140.000000 1 0 0
6.836351 -5.146098 -8.172644 11.832588 -0.645262 2.333238 -0.001239 -0.000028 1837620.000000 1 0 0
-14.212449 -4.907998 -2.172844 15.192215 0.332509 1.714312 0.005605 -0.000545 790348.000000 1 0 0
-2.707649 6.962602 -6.796944 10.099883 -1.199909 2.309017 0.004177 -0.003166 -2334040.000000 1 0 0
-5.628749 -1.066898 -8.073544 9.899656 0.187322 2.524454 0.013218 -0.006277 -1585540.000000 1 0 0
-5.673149 -10.630798 3.481556 12.542716 1.080591 1.289526 0.001950 -0.001288 -2684180.000000 1 0 0
8.094051 -7.487498 6.659556 12.881226 -0.746490 1.027457 0.006027 -0.003447 1528960.000000 1 0 0
8.728251 -5.999898 13.163256 16.895339 -0.602227 0.677558 0.016618 -0.005767 1130580.000000 1 0 0
-4.720449 9.535202 -0.773144 10.667730 -1.111113 1.643335 -0.000850 0.000767 1317750.000000 1 0 0
2.886051 6.631202 12.174056 14.160147 1.160299 0.536034 0.004128 0.000766 1175560.000000 1 0 0
5.953251 -2.872198 10.960856 12.799652 -0.449516 0.542656 0.002623 -0.006324 352670.000000 1 0 0
-9.709249 -6.478698 -1.177844 11.731597 0.588421 1.671365 0.003846 -0.000908 -508237.000000 1 0 0
0.833951 -13.458598 6.195556 14.839618 -1.508911 1.140103 0.000188 -0.000730 118238.000000 1 0 0
-0.546349 -3.092098 8.629156 9.182696 1.395909 0.348988 -0.002092 0.000072 720395.000000 1 0 0
4.216651 0.736202 3.448956 5.497039 0.172852 0.892560 -0.000554 0.000444 815707.000000 1 0 0
-10.230949 5.570102 8.316556 14.313052 -0.498562 0.950782 -0.004265 -0.007436 1019520.000000 1 0 0
9.399151 7.932402 -0.123244 12.299684 0.700970 1.580817 -0.003131 0.004031 -1286290.000000 1 0 0
4.328251 2.907902 8.250456 9.760106 0.591577 0.563624 0.002346 -0.001641 3865680.000000 1 0 0
1.358051 2.654602 -9.842944 10.284685 1.097925 2.847442 0.006194 -0.001991 3509060.000000 1 0 0
-1.354149 -10.165598 3.023556 10.691819 1.438367 1.284093 -0.000353 -0.002761 -1403720.000000 1 0 0
-9.949149 9.539102 9.106756 16.520080 -0.764361 0.986930 0.004357 -0.009873 2021670.000000 1 0 0
9.751251 -2.016598 -7.632544 12.546286 -0.203929 2.224777 0.005517 0.002453 1702490.000000 1 0 0
-5.286749 -1.871298 6.684456 8.725447 0.340198 0.698065 -0.002340 0.000061 2066000.000000 1 0 0
3.092051 -7.781698 -4.906644 9.705193 -1.192577 2.100838 -0.006557 0.000476 1618670.000000 1 0 0
-5.127549 4.963402 -13.088544 14.907619 -0.769133 2.642416 -0.004150 -0.007179 1568480.000000 1 0 0
-5.624649 9.637302 5.472256 12.428187 -1.042498 1.114852 0.001980 -0.002584 1340550.000000 1 0 0
-0.418549 -1.736098 -9.429544 9.597162 1.334225 2.954422 0.001760 -0.000978 618047.000000 1 0 0
-16.646649 0.256302 6.419456 17.843375 -0.015395 1.202778 0.007286 -0.003210 -27096.000000 1 0 0
-5.976849 -2.888498 4.114956 7.810186 0.450183 1.015882 -0.006570 0.000985 1946750.000000 1 0 0
0.964051 -5.731598 -5.156644 7.769916 -1.404157 2.296508 -0.004032 0.002301 946407.000000 1 0 0
-7.011549 1.425802 -8.493344 11.105477 -0.200615 2.441510 0.003966 -0.002374 1317800.000000 1 0 0
8.051851 1.954602 4.753556 9.552438 0.238145 1.049935 -0.002196 -0.000004 -138298.000000 1 0 0
0.450451 -8.071398 -0.512744 8.100203 -1.515046 1.634139 -0.003699 0.000898 987372.000000 1 0 0
5.424651 5.476102 -3.442344 8.441816 0.790118 1.990810 0.000126 0.001820 769808.000000 1 0 0
-0.768249 -0.275398 -1.132744 1.396123 0.344205 2.517254 0.001368 -0.000890 580781.000000 1 0 0
9.059151 6.336502 -6.334444 12.741454 0.610363 2.091110 0.000526 0.000568 1101490.000000 1 0 0
-14.946049 -6.970898 2.498756 16.679976 0.436412 1.420425 0.001174 -0.005073 1441730.000000 1 0 0
-6.482449 6.841102 8.880056 12.949062 -0.812310 0.815138 0.001785 -0.000963 448533.000000 1 0 0
-9.549949 -3.166398 -9.631744 13.928320 0.320155 2.334391 0.009067 -0.001989 3632360.000000 1 0 0
14.847251 3.352202 -1.284044 15.275041 0.222056 1.654957 -0.000095 0.003446 669327.000000 1 0 0
12.060051 1.632602 -5.716144 13.445613 0.134555 2.009903 0.001840 0.003447 -754229.000000 1 0 0
1.518351 -9.408698 12.706956 15.883820 -1.410798 0.643512 -0.010487 -0.000871 -89956.200000 1 0 0
-3.654949 6.340102 7.897856 10.767157 -1.047850 0.747319 0.003602 0.001828 3198560.000000 1 0 0
-3.925449 13.140002 -12.271444 18.402639 -1.280496 2.300744 0.001157 -0.003041 405198.000000 1 0 0
-10.314749 7.809302 6.500256 14.478693 -0.648030 1.105203 -0.001859 -0.007631 398412.000000 1 0 0
8.000951 -9.302798 -7.143444 14.198101 -0.860492 2.098009 -0.000175 -0.000308 -647328.000000 1 0 0
5.823451 -3.910598 -0.329744 7.022400 -0.591359 1.617770 0.003216 -0.002176 38367.100000 1 0 0
-1.585249 -4.417698 4.280656 6.352408 1.226268 0.831371 -0.002584 0.000950 1595390.000000 1 0 0
9.922251 -2.185498 -2.648844 10.499707 -0.216801 1.825830 0.003520 -0.002150 -2086800.000000 1 0 0
13.536151 7.086002 1.456456 15.347966 0.482260 1.475758 -0.002937 0.007493 -1501410.000000 1 0 0
5.359751 -3.733298 -3.268544 7.303960 -0.608402 2.034768 0.002837 -0.003733 -1411450.000000 1 0 0
-12.129749 -5.997698 1.979256 13.675549 0.459207 1.425557 0.001446 -0.000740 1197810.000000 1 0 0
3.704451 -5.837298 -0.229744 6.917355 -1.005311 1.604015 0.001266 -0.001747 -478167.000000 1 0 0
-5.231649 3.796202 -8.669244 10.813745 -0.627716 2.500909 0.002262 -0.004589 642438.000000 1 0 0
-1.669949 -9.348798 7.260256 11.954082 1.394034 0.918082 -0.001266 -0.003531 1986170.000000 1 0 0
-7.340349 -7.423898 2.664056 10.774608 0.791057 1.320952 0.008672 -0.002630 -3614590.000000 1 0 0
-5.692449 13.057102 -8.486544 16.580510 -1.159674 2.108120 0.000747 -0.002049 519485.000000 1 0 0
9.209051 -13.873298 -4.306444 17.199433 -0.984783 1.823872 0.017802 -0.000774 1541670.000000 1 0 0
-6.488749 -5.093298 -6.802444 10.691997 0.665492 2.260383 0.012379 -0.002022 988474.000000 1 0 0
3.368551 0.418102 -6.215844 7.082278 0.123488 2.641758 -0.000711 -0.001544 1647440.000000 1 0 0
-3.580249 5.819702 4.974956 8.452059 -1.019279 0.941459 0.004285 0.001950 414891.000000 1 0 0
-2.683049 -10.866598 -2.881744 11.557948 1.328730 1.822785 0.003947 0.000009 1186270.000000 1 0 0
-12.586249 -0.475298 1.705456 12.710159 0.037745 1.436210 -0.006605 0.001410 350168.000000 1 0 0
8.342851 -12.013098 -6.160644 15.870452 -0.963785 1.969456 0.004134 -0.003494 171523.000000 1 0 0
6.068951 3.811702 1.013456 7.237978 0.560801 1.430315 -0.001043 0.000960 -874533.000000 1 0 0
3.446251 -4.781898 -10.926444 12.414925 -0.946321 2.646881 -0.006655 0.003365 -187699.000000 1 0 0
-7.651149 4.271002 8.650656 12.313220 -0.509130 0.791821 -0.003715 0.000260 2245110.000000 1 0 0
8.319051 8.698502 4.131756 12.725641 0.807692 1.240123 -0.000012 0.004441 1601460.000000 1 0 0
0.266751 10.468702 -6.391244 12.268368 1.545321 2.118763 -0.000590 0.001449 1573010.000000 1 0 0
5.527251 8.074802 3.256056 10.312848 0.970545 1.249572 0.000029 0.003780 4123140.000000 1 0 0
8.093651 6.612302 -3.792044 11.117973 0.685006 1.918855 -0.002704 0.001783 -597089.000000 1 0 0
10.513351 2.437602 -8.255644 13.587793 0.227832 2.223804 0.001057 0.004153 406663.000000 1 0 0
3.312051 -12.546898 -0.300944 12.980174 -1.312710 1.593983 0.002107 -0.001967 -1818120.000000 1 0 0
0.636951 2.229902 5.204556 5.697857 1.292564 0.419179 0.004763 -0.001199 1593940.000000 1 0 0
-4.848049 13.527002 1.576056 14.455701 -1.226660 1.461553 -0.004125 0.000980 1652380.000000 1 0 0
8.183751 4.017702 -8.060244 12.168946 0.456370 2.294763 -0.003173 0.004952 1206560.000000 1 0 0
-13.860749 -0.470598 -3.594744 14.327038 0.033939 1.824413 -0.003359 -0.001947 1298730.000000 1 0 0
-8.590749 0.028602 -0.514644 8.606198 -0.003329 1.630631 -0.003287 -0.001508 -748400.000000 1 0 0
1.758151 -3.892398 -1.037144 4.395171 -1.146539 1.809017 0.001097 0.000175 -1174850.000000 1 0 0
8.076651 -5.747998 -0.285544 9.917324 -0.618523 1.599593 0.005472 -0.003953 2494730.000000 1 0 0
-2.381849 -1.121498 7.405156 7.859218 0.440059 0.341583 0.002400 0.000217 2599640.000000 1 0 0
-5.777749 8.890702 -11.670444 15.767885 -0.994517 2.404075 -0.002491 -0.002552 -289266.000000 1 0 0
-6.209049 9.194602 -8.818144 14.172249 -0.976845 2.242361 -0.003469 -0.004045 -528819.000000 1 0 0
-1.492149 13.970402 -8.294744 16.315680 -1.464392 2.104112 0.008833 -0.000665 -495104.000000 1 0 0
-1.470449 7.201602 9.849156 12.289474 -1.369381 0.641114 0.001896 0.000076 21752.800000 1 0 0
10.030651 2.234502 -3.927544 11.001480 0.219188 1.935852 0.002496 0.001749 -2635160.000000 1 0 0
-2.976449 -7.517898 -6.890744 10.623577 1.193816 2.276576 0.005108 -0.000289 2347910.000000 1 0 0
-5.443349 -5.119898 -1.584344 7.638950 0.754787 1.779716 0.005987 0.000832 -1379270.000000 1 0 0
5.666251 7.343302 -8.804044 12.788341 0.913600 2.330136 0.000104 0.000134 -471755.000000 1 0 0
-9.595849 5.279402 -7.538644 13.295997 -0.502978 2.173639 -0.008255 0.001060 503582.000000 1 0 0
-0.446449 6.091202 -5.400844 8.152985 -1.497633 2.294864 0.004740 -0.001820 265537.000000 1 0 0
-8.273249 2.849002 -6.355844 10.814814 -0.331644 2.199007 -0.000469 -0.001186 639598.000000 1 0 0
3.678051 1.299702 -1.989244 4.378855 0.339671 2.042365 -0.002739 0.000524 1820210.000000 1 0 0
-6.649149 12.420402 -3.416044 14.496445 -1.079277 1.808681 -0.003811 0.002778 60329.100000 1 0 0
-6.588249 3.201902 -2.332744 7.687580 -0.452387 1.879100 0.002532 -0.003835 -1577580.000000 1 0 0
12.086851 3.897702 -0.744744 12.721584 0.311946 1.629372 -0.001490 0.003226 -1530100.000000 1 0 0
2.246051 12.342102 -5.455544 13.679736 1.390783 1.981009 0.005249 -0.004816 1347470.000000 1 0 0
-9.172249 -1.443398 -4.277644 10.223101 0.156086 2.002511 0.004248 -0.000527 1301980.000000 1 0 0
-1.122649 5.839602 3.385656 6.842803 -1.380866 1.053219 0.002152 0.000072 1293970.000000 1 0 0
11.688151 2.579802 12.075856 17.002781 0.217236 0.780974 0.034186 -0.000277 592248.000000 1 0 0
-6.955749 -2.308698 -5.822044 9.359953 0.320471 2.242112 0.012773 -0.003180 123865.000000 1 0 0
7.437751 -7.423598 10.837656 15.095852 -0.784446 0.769983 0.013651 -0.004182 532713.000000 1 0 0
-5.437149 -1.900598 -10.972044 12.391957 0.336281 2.658186 0.011023 -0.001808 172786.000000 1 0 0
0.815351 -6.182498 4.509356 7.695608 -1.439672 0.944726 -0.003014 -0.000252 1374310.000000 1 0 0
-4.708649 -9.477998 7.436956 12.934920 1.109714 0.958251 -0.003033 -0.003119 2276650.000000 1 0 0
-8.708549 9.414502 1.688656 12.935348 -0.824332 1.439877 0.006306 -0.004132 532801.000000 1 0 0
-8.105049 7.211302 -9.127444 14.177620 -0.727112 2.270240 -0.004228 -0.001457 -662934.000000 1 0 0
-1.315949 -10.627898 -0.099644 10.709523 1.447603 1.580101 0.000571 -0.000517 76737.100000 1 0 0
-3.914249 10.312702 7.783756 13.500371 -1.208037 0.956286 0.006471 -0.001321 2099550.000000 1 0 0
-7.442349 12.104202 2.019956 14.352020 -1.019524 1.429584 0.004115 -0.007292 2008190.000000 1 0 0
-8.160749 -8.218298 -2.897044 11.938640 0.788912 1.815904 0.010646 -0.000917 560899.000000 1 0 0
5.375451 4.513702 -8.080844 10.703692 0.698477 2.426387 0.000250 0.003925 348882.000000 1 0 0
-8.935949 -0.173398 -10.209144 13.568635 0.019402 2.422506 0.004672 -0.004255 -956093.000000 1 0 0
-15.196449 -2.131198 -1.570444 15.425315 0.139334 1.672783 -0.000350 -0.003388 504669.000000 1 0 0
-7.206149 -5.794898 8.763356 12.739931 0.677273 0.812252 0.001564 -0.002112 -511837.000000 1 0 0
8.104251 3.410502 -0.889944 8.837557 0.398332 1.671668 -0.001878 0.003454 -31641.800000 1 0 0
11.897651 7.154402 -5.792844 15.043158 0.541396 1.966093 -0.003409 -0.000550 176884.000000 1 0 0
3.739451 13.358702 -9.511644 16.819922 1.297856 2.171834 -0.000074 -0.007690 2095460.000000 1 0 0
-9.683449 5.444002 -0.439644 11.117537 -0.512159 1.610352 -0.002968 -0.000691 1294340.000000 1 0 0
11.319251 -1.302698 -5.166044 12.510415 -0.114583 1.996476 0.008128 -0.001429 -1015680.000000 1 0 0
10.571751 1.595602 -1.127844 10.750809 0.149800 1.675898 0.000122 0.002895 -523755.000000 1 0 0
14.648951 5.063202 4.931056 16.264781 0.332782 1.262775 0.007561 -0.000478 3866340.000000 1 0 0
0.866751 -0.770698 10.217956 10.283572 -0.726805 0.113026 0.005017 -0.003727 1973370.000000 1 0 0
-7.930549 1.341502 -12.541844 14.899365 -0.167570 2.571351 -0.003082 -0.005626 112343.000000 1 0 0
3.119651 -11.560698 -7.815644 14.299170 -1.307225 2.149071 -0.005203 0.003764 2014820.000000 1 0 0
2.902351 5.041202 -6.720044 8.887989 1.048417 2.428101 0.001411 0.001666 -1699940.000000 1 0 0
6.531851 7.961402 0.492956 10.309801 0.883716 1.522964 0.002163 0.001928 107628.000000 1 0 0
-9.028149 -5.423098 6.794956 12.533511 0.540925 0.997811 0.004562 -0.000219 -2488740.000000 1 0 0
-0.310049 -6.864498 -11.918644 13.757599 1.525660 2.618607 0.002376 0.004284 2084180.000000 1 0 0
6.367351 -13.475498 -4.752244 15.643402 -1.129379 1.879460 0.003310 -0.000534 3355440.000000 1 0 0
-3.349749 -0.273498 10.068756 10.614870 0.081467 0.322166 -0.002071 0.002055 -2753050.000000 1 0 0
8.690051 8.327802 7.043556 13.945643 0.764115 1.041331 -0.001645 0.002262 -1552010.000000 1 0 0
-7.934949 5.728102 -2.700444 10.152190 -0.625262 1.840034 0.002635 -0.003501 -534040.000000 1 0 0
-5.362049 5.839202 -6.416944 10.199265 -0.827971 2.251265 0.000381 -0.002829 -228579.000000 1 0 0
3.305151 -13.633198 2.568956 14.261405 -1.332951 1.389674 0.009838 -0.005364 -703084.000000 1 0 0
-11.217049 -7.068598 6.478656 14.756702 0.562305 1.116276 0.009560 -0.001098 -1277600.000000 1 0 0
-12.845449 -3.694898 -6.819644 15.005511 0.280082 2.042580 0.010916 -0.002979 -8569.510000 1 0 0
6.013251 0.359302 -7.246544 9.423411 0.059681 2.448062 -0.002510 0.003076 926127.000000 1 0 0
-1.404049 2.256002 -2.504444 3.651457 -1.014096 2.326602 0.002821 -0.003491 4039490.000000 1 0 0
7.585451 0.827402 -4.874044 9.054279 0.108648 2.139231 -0.000395 0.001745 111121.000000 1 0 0
3.599251 -4.454098 10.877956 12.293231 -0.891150 0.484574 -0.001177 -0.002354 -736005.000000 1 0 0
5.937051 -2.611798 2.089556 6.814419 -0.414436 1.259138 0.002562 -0.003422 -1521370.000000 1 0 0
-6.304149 7.807402 1.125256 10.097723 -0.891524 1.459128 0.000847 -0.001882 1092410.000000 1 0 0
6.066951 -3.435798 7.962256 10.583484 -0.515282 0.719207 0.005438 -0.006743 234261.000000 1 0 0
6.709751 -2.276198 -7.844844 10.570876 -0.327055 2.407022 -0.000885 0.002105 1855100.000000 1 0 0
12.118451 -8.220298 -5.882944 15.780976 -0.596033 1.952807 0.014895 -0.005411 586377.000000 1 0 0
5.512851 -9.643398 9.983056 14.934794 -1.051467 0.838683 -0.001972 0.002563 700270.000000 1 0 0
-6.625549 7.574302 -4.462744 11.008361 -0.852113 1.988208 -0.000354 -0.002130 155657.000000 1 0 0
-1.347949 -7.545698 9.696756 12.360486 1.394023 0.668913 -0.004810 -0.000289 100159.000000 1 0 0
10.096551 -9.368698 0.775356 13.795435 -0.748023 1.514563 0.005089 -0.002218 1395760.000000 1 0 0
11.141651 6.012102 9.819356 16.021907 0.494828 0.911108 0.005839 -0.000779 1151470.000000 1 0 0
-15.277349 -4.158998 -4.999944 16.604038 0.265792 1.876672 0.010496 -0.003605 1693600.000000 1 0 0
-4.753649 -4.603098 7.824956 10.247714 0.769310 0.701956 -0.003199 -0.000303 -1350580.000000 1 0 0
2.913751 10.953102 -11.065844 15.840242 1.310797 2.344222 0.001407 -0.000983 -1318500.000000 1 0 0
9.859251 -1.445598 1.625956 10.096451 -0.145586 1.409050 -0.001197 -0.001274 -702910.000000 1 0 0
-1.649549 -2.616698 0.706856 3.172975 1.008328 1.346137 0.000146 -0.001456 598981.000000 1 0 0
1.639351 3.053902 0.910956 3.583801 1.078140 1.313789 -0.003454 0.000667 -2326210.000000 1 0 0
-8.966649 -2.374998 4.353456 10.246658 0.258924 1.131982 -0.004894 0.000684 3260200.000000 1 0 0
9.853751 4.805002 -2.635544 11.275218 0.453704 1.806726 -0.002165 0.003749 1605970.000000 1 0 0
2.702851 8.469602 2.527856 9.242814 1.261888 1.293772 0.000309 0.001694 -308705.000000 1 0 0
-8.218549 -0.097498 2.439256 8.573449 0.011863 1.282298 -0.004867 -0.001330 1587960.000000 1 0 0
6.920151 2.029202 13.742556 15.519794 0.285235 0.483258 0.003404 -0.001240 -1145190.000000 1 0 0
6.816151 4.325102 3.740056 8.896878 0.565428 1.136934 -0.003193 0.001742 930645.000000 1 0 0
-0.307249 3.441602 7.710256 8.449087 -1.481757 0.421308 0.003855 -0.000023 657712.000000 1 0 0
2.615751 -10.280998 9.188356 14.034492 -1.321657 0.857013 -0.003490 -0.002605 2532090.000000 1 0 0
1.319751 -4.512198 6.944056 8.385797 -1.286248 0.595134 -0.004168 -0.001135 137807.000000 1 0 0
-0.199049 10.794502 -2.052244 10.989658 -1.552359 1.758642 -0.000566 -0.000945 2262640.000000 1 0 0
8.868751 5.409602 7.994056 13.108145 0.547712 0.914920 -0.002958 0.002571 -791047.000000 1 0 0
2.659351 11.375702 -2.850044 12.025036 1.341146 1.810082 0.003190 -0.004795 2530580.000000 1 0 0
1.487651 2.472302 -6.813744 7.399492 1.029108 2.741024 0.002294 -0.000593 891254.000000 1 0 0
-13.527649 -2.210698 3.625656 14.178500 0.161989 1.312209 -0.005601 0.003248 1415980.000000 1 0 0
-1.004449 -10.715698 -5.322844 12.006989 1.477333 2.030087 0.000618 0.000778 74670.700000 1 0 0
-5.645049 2.908102 0.416956 6.363763 -0.475702 1.505229 0.004491 -0.003008 850610.000000 1 0 0
3.739551 7.224202 -5.020144 9.559036 1.093135 2.123714 0.001993 -0.001519 -2404050.000000 1 0 0
3.006551 9.755602 -6.498044 12.101061 1.271845 2.137651 0.005034 -0.002910 1200170.000000 1 0 0
-12.162349 1.700602 -2.551944 12.543014 -0.138924 1.775682 -0.002249 -0.000457 148126.000000 1 0 0
-2.462349 9.622402 -5.792944 11.498346 -1.320275 2.098796 -0.001957 -0.000815 265746.000000 1 0 0
-1.245649 3.452002 1.699256 4.044184 -1.224490 1.137161 0.000811 -0.000289 -1475310.000000 1 0 0
12.987851 3.673002 9.695656 16.618693 0.275606 0.947865 0.027233 -0.003981 2265470.000000 1 0 0
-2.568249 -9.561698 11.575456 15.231978 1.308392 0.707569 -0.003310 -0.008920 -719243.000000 1 0 0
-0.436249 -8.960098 -7.473244 11.675746 1.522147 2.265380 0.002984 0.001967 755864.000000 1 0 0
2.444051 7.658102 -0.497444 8.054027 1.261868 1.632599 -0.000227 0.000037 1718970.000000 1 0 0
-11.837149 -1.264298 -5.657444 13.180410 0.106404 2.014438 0.004475 0.000009 346647.000000 1 0 0
-6.184249 -7.073898 -10.972644 14.445895 0.852400 2.433445 0.011144 -0.000396 1457260.000000 1 0 0
-4.733649 -2.357798 -1.395144 5.469284 0.462121 1.828734 0.002051 -0.000495 -1423550.000000 1 0 0
-10.491049 3.732902 4.419856 11.980475 -0.341848 1.192948 -0.006208 -0.001749 2900370.000000 1 0 0
6.868151 9.309002 -3.669244 12.136406 0.935151 1.877936 0.004422 -0.000398 837542.000000 1 0 0
1.323051 -2.673598 -11.586144 11.964001 -1.111271 2.889599 0.002839 0.001131 -612266.000000 1 0 0
1.303951 8.752502 7.694856 11.726781 1.422904 0.855054 0.001073 0.002721 844588.000000 1 0 0
10.373451 0.416102 10.514056 14.775893 0.040091 0.779069 0.009603 -0.004848 362090.000000 1 0 0
-5.182149 -0.823198 -3.933044 6.557527 0.157536 2.214017 0.007630 -0.003615 -1110330.000000 1 0 0
11.692751 5.647602 5.428756 14.074346 0.449956 1.174808 -0.002398 0.002413 1982670.000000 1 0 0
9.870051 -3.587498 3.714856 11.139489 -0.348627 1.230798 0.005692 -0.005582 -2294070.000000 1 0 0
7.345651 -1.761098 -3.395744 8.281976 -0.235306 1.993268 0.001633 0.000493 -3799030.000000 1 0 0
2.419451 9.260202 10.595556 14.278336 1.315235 0.734640 0.002341 0.005415 2000870.000000 1 0 0
2.394851 -10.974098 6.330056 12.893245 -1.355937 1.057606 -0.002916 0.000507 1251270.000000 1 0 0
5.876751 -7.583698 -1.195644 9.668415 -0.911537 1.694779 0.002650 -0.004714 824559.000000 1 0 0
-0.275249 -5.598598 -2.338144 6.073466 1.521672 1.965979 -0.002378 0.003334 585482.000000 1 0 0
7.705051 -5.053398 2.619656 9.579522 -0.580480 1.293804 0.003361 -0.003743 1518040.000000 1 0 0
-2.629149 -12.441198 4.685156 13.551625 1.362534 1.217783 0.000102 -0.003520 -774764.000000 1 0 0
4.831851 -10.364898 -1.107544 11.489324 -1.134573 1.667344 0.001738 -0.004452 1472330.000000 1 0 0
0.899851 0.252202 1.143056 1.476454 0.273259 0.685361 -0.000915 0.000399 -1440070.000000 1 0 0
-1.515049 8.614502 2.434356 9.079157 -1.396705 1.299349 0.000583 0.001320 -698346.000000 1 0 0
-7.445549 0.656902 -3.056844 8.075395 -0.088000 1.959013 0.001766 -0.000898 -594134.000000 1 0 0
4.293951 -6.346398 12.951756 15.048680 -0.975951 0.534237 0.002699 -0.002557 209919.000000 1 0 0
-4.979249 13.072802 8.440656 16.338168 -1.206875 1.027895 0.014820 -0.009955 1676500.000000 1 0 0
0.617251 6.123302 8.286156 10.321638 1.470332 0.638829 0.003087 0.003020 1213160.000000 1 0 0
7.985351 -0.621398 -0.698144 8.039862 -0.077661 1.657741 0.003052 -0.001513 2818370.000000 1 0 0
2.399051 -9.268298 -2.381444 9.865499 -1.317511 1.814595 -0.004031 -0.000958 793222.000000 1 0 0
-7.154249 12.190102 4.881656 14.953676 -1.040072 1.238249 0.007657 -0.010944 1156670.000000 1 0 0
-14.881349 0.304802 0.131756 14.885053 -0.020479 1.561945 -0.008670 -0.001647 296345.000000 1 0 0
6.833551 -0.528598 3.973156 7.922298 -0.077200 1.045447 0.001637 -0.000862 1087510.000000 1 0 0
-4.187049 -4.983798 5.141756 8.295016 0.872059 0.902231 -0.001039 0.000317 -353731.000000 1 0 0
2.928751 5.178502 6.927356 9.131414 1.056086 0.709590 0.000129 0.001197 142376.000000 1 0 0
2.074751 -7.247198 1.819756 7.754869 -1.291971 1.333928 -0.003374 0.000151 2525670.000000 1 0 0
-2.420349 6.457902 -1.751344 7.115461 -1.212211 1.819484 0.001179 -0.001819 3778090.000000 1 0 0
2.671251 -3.837798 -6.587444 8.078285 -0.962735 2.524304 -0.006017 0.001515 -286705.000000 1 0 0
-5.093049 0.973602 -12.186144 13.243457 -0.188884 2.739294 0.006841 -0.002200 -83748.200000 1 0 0
-7.474149 6.450102 -11.946144 15.497647 -0.711986 2.450949 -0.004375 -0.006157 2167610.000000 1 0 0
-1.039249 11.207402 -9.071644 14.456162 -1.478332 2.249170 -0.001043 0.001707 339133.000000 1 0 0
4.650251 5.849802 -0.643844 7.500637 0.899147 1.656741 0.000388 0.000951 -123908.000000 1 0 0
-2.593049 13.384902 3.676756 14.120837 -1.379437 1.307383 -0.001117 0.000545 1014130.000000 1 0 0
1.484051 -7.917898 10.191356 12.990738 -1.385516 0.668892 -0.008436 -0.002292 -1219620.000000 1 0 0
12.967051 -0.355198 -1.076944 13.016543 -0.027386 1.653628 0.003224 -0.001989 147133.000000 1 0 0
-1.008149 3.098902 -5.441744 6.342880 -1.256271 2.602022 0.003354 -0.003750 1562830.000000 1 0 0
6.576651 1.082602 7.333356 9.909716 0.163150 0.737701 0.002277 -0.001476 2108280.000000 1 0 0
5.448151 -6.113398 6.819656 10.656627 -0.842874 0.876370 0.001284 -0.002739 2097450.000000 1 0 0
12.129551 -5.010598 2.626556 13.383979 -0.391740 1.373268 0.004666 -0.005378 162650.000000 1 0 0
4.217851 -9.152398 13.881156 17.153518 -1.138959 0.627955 -0.006227 -0.000356 -835069.000000 1 0 0
-2.703249 -4.317898 -1.420944 5.288751 1.011438 1.842811 0.002064 0.000204 2189890.000000 1 0 0
-9.267049 -5.163998 -7.587644 13.042907 0.508387 2.191669 0.016298 -0.002745 1415170.000000 1 0 0
-10.529649 -3.110798 7.887956 13.519261 0.287261 0.947813 -0.001403 0.001257 -210154.000000 1 0 0
12.043051 -0.717598 1.641656 12.175593 -0.059516 1.435553 0.001919 -0.002139 61061.500000 1 0 0
-7.639249 4.769102 4.384756 10.016413 -0.558088 1.117694 0.000335 -0.001377 1782320.000000 1 0 0
-1.005249 10.554002 6.994156 12.701012 -1.475835 0.987621 0.003925 0.002910 2242290.000000 1 0 0
7.381351 -10.047098 1.878256 12.607790 -0.937176 1.421264 0.003306 -0.004152 2634360.000000 1 0 0
-4.369949 -1.731398 1.665056 4.986643 0.377231 1.230355 -0.001819 0.001808 1254220.000000 1 0 0
6.646951 -14.979598 -0.981444 16.417477 -1.153166 1.630612 0.013495 -0.000499 -917954.000000 1 0 0
-10.484149 1.672002 2.406256 10.885910 -0.158147 1.347912 -0.009591 0.001584 -383300.000000 1 0 0
-2.998949 8.399802 -11.444844 14.509818 -1.227876 2.479594 -0.003060 -0.004167 -2315290.000000 1 0 0
-1.291949 -5.141198 -6.886144 8.690226 1.324601 2.485531 -0.003060 0.001883 -168002.000000 1 0 0
12.848151 -0.531198 6.518056 14.416734 -0.041321 1.101659 0.009202 -0.005495 2499690.000000 1 0 0
5.949051 -13.332798 3.816056 15.090295 -1.151110 1.315139 0.008569 -0.001247 1951770.000000 1 0 0
-5.569949 3.487402 -4.910044 8.203343 -0.559397 2.212476 0.003249 -0.003514 2816970.000000 1 0 0
-4.329849 8.104302 3.327156 9.772270 -1.080114 1.223381 0.003459 -0.000495 531343.000000 1 0 0
13.969151 6.123602 -3.937044 15.752333 0.413137 1.823408 -0.000373 0.003607 -73885.100000 1 0 0
-6.646849 -8.546798 5.398456 12.098417 0.909801 1.108268 0.010981 -0.003017 1491720.000000 1 0 0
1.714051 11.390602 2.735156 11.839124 1.421438 1.337663 0.001300 0.001386 1365260.000000 1 0 0
-7.427549 7.287002 5.988656 12.005535 -0.775847 1.048554 -0.000444 -0.005495 67679.400000 1 0 0
-17.513549 -3.990698 5.224256 18.706761 0.224038 1.287761 0.030065 -0.004717 -823062.000000 1 0 0
7.500151 -13.140698 -8.680844 17.443832 -1.052156 2.091678 0.003092 0.001667 -1914110.000000 1 0 0
-2.287849 12.892702 -2.697844 13.369157 -1.395172 1.773988 -0.006870 0.003609 -266979.000000 1 0 0
-5.433449 13.903302 -5.731144 15.989689 -1.198244 1.937379 0.001052 0.004034 2435350.000000 1 0 0
-5.620649 2.443502 7.432356 9.633396 -0.410089 0.689570 -0.001110 0.001616 837220.000000 1 0 0
-7.369449 5.197702 1.428056 9.130401 -0.614277 1.413745 0.001920 -0.001902 981962.000000 1 0 0
10.681451 -5.775798 -5.034844 13.145452 -0.495700 1.963849 0.005440 -0.003659 2825000.000000 1 0 0
-9.501949 -0.718898 6.870456 11.747639 0.075514 0.946117 -0.005902 0.001430 -586660.000000 1 0 0
-11.271949 -4.512698 -2.596844 12.416315 0.380806 1.781500 0.002517 -0.000960 419024.000000 1 0 0
6.461051 -4.382598 13.488156 15.584695 -0.596020 0.524699 0.009114 -0.010338 -330810.000000 1 0 0
0.230551 10.224102 -11.678444 15.523255 1.548250 2.422372 0.000466 -0.000925 -2568000.000000 1 0 0
-11.772349 -3.216698 1.377656 12.281420 0.266731 1.458386 -0.002064 -0.001043 3733570.000000 1 0 0
5.228251 6.002202 5.469156 9.657779 0.854205 0.968792 -0.001917 0.003160 -5088930.000000 1 0 0
-7.138549 0.065102 8.263356 10.919990 -0.009119 0.712518 -0.009230 0.002541 230346.000000 1 0 0
1.758051 2.132002 9.632756 10.021286 0.881234 0.279369 0.004970 -0.002992 2015200.000000 1 0 0
10.484451 -5.069298 -2.025744 11.820539 -0.450366 1.743021 0.005417 -0.003546 1579600.000000 1 0 0
-9.649849 -2.391098 -1.722844 10.089853 0.242894 1.742387 0.000718 -0.000162 -61410.500000 1 0 0
-1.937549 -5.213398 -9.927244 11.379094 1.214968 2.630909 0.010539 0.000340 2041150.000000 1 0 0
7.680751 -1.591798 6.552356 10.220623 -0.204352 0.874876 0.003627 -0.004202 2324240.000000 1 0 0
1.479751 -11.839898 -2.605844 12.213242 -1.446461 1.785811 -0.001667 0.000766 -3323700.000000 1 0 0
-0.802849 -1.422098 4.808556 5.078301 1.056849 0.327396 0.003893 -0.002045 3266570.000000 1 0 0
7.687651 1.508802 9.893956 12.620096 0.193800 0.669738 0.003233 -0.004129 405910.000000 1 0 0
-3.819149 10.704502 -8.017344 13.908632 -1.228094 2.185149 -0.005230 0.001800 2536600.000000 1 0 0
-9.508749 12.612702 6.479156 17.072668 -0.924802 1.181536 0.013040 -0.013984 -153169.000000 1 0 0
-2.518149 -2.435098 -11.142944 11.680581 0.768633 2.837008 0.010976 -0.002572 -951180.000000 1 0 0
1.035151 -11.885598 11.018756 16.240443 -1.483923 0.825110 -0.013418 0.003667 1892030.000000 1 0 0
1.416651 3.398502 -1.921244 4.153058 1.175853 2.051733 0.000537 -0.000951 1631700.000000 1 0 0
-1.837549 -9.424798 -12.063144 15.418264 1.378242 2.469296 0.004523 0.004796 1901280.000000 1 0 0
1.251351 -2.652998 1.632156 3.356816 -1.130065 1.063036 0.004411 -0.001229 3362370.000000 1 0 0
-1.085149 -2.191898 -6.632944 7.069506 1.111098 2.788325 -0.000073 -0.001390 587472.000000 1 0 0
1.844851 5.913902 4.121156 7.440540 1.268411 0.983781 -0.001809 0.002832 -1478430.000000 1 0 0
-10.939349 8.627302 3.622856 14.395304 -0.667781 1.316392 -0.001530 -0.007234 1352500.000000 1 0 0
-16.329249 -1.434498 3.994956 16.871924 0.087623 1.331745 0.003974 0.002000 1723640.000000 1 0 0
-12.210349 0.248202 6.818856 13.987531 -0.020324 1.061577 -0.010326 0.002294 -167177.000000 1 0 0
-5.150249 3.036902 4.594356 7.540288 -0.532783 0.915609 0.000981 0.001817 2490140.000000 1 0 0
5.156151 -6.027898 3.839656 8.812742 -0.863186 1.119987 -0.000966 -0.002941 1302010.000000 1 0 0
9.945651 3.396402 6.262056 12.233759 0.329079 1.033440 -0.002535 0.003696 -549428.000000 1 0 0
-12.127249 5.857802 3.202756 13.843470 -0.449978 1.337326 -0.006685 -0.002756 -490439.000000 1 0 0
-4.789849 12.333702 -1.158544 13.281757 -1.200369 1.658136 -0.009459 0.004993 1683890.000000 1 0 0
-1.850349 -12.231298 10.278356 16.083316 1.420655 0.877508 -0.000587 -0.004823 542839.000000 1 0 0
5.224851 6.419102 13.994656 16.258977 0.887605 0.534086 0.006755 0.004048 1262380.000000 1 0 0
12.861551 -3.779198 -5.859844 14.630093 -0.285793 1.982895 0.003011 -0.004243 1309530.000000 1 0 0
3.547551 -2.476998 6.463856 7.778308 -0.609536 0.589874 0.001111 -0.000880 2096580.000000 1 0 0
7.251751 -11.881198 -0.687344 13.936399 -1.022797 1.620136 0.007246 -0.000273 -18362.600000 1 0 0
-6.077549 -6.566698 -4.111944 9.847142 0.824064 2.001574 0.008964 -0.000617 -86917.200000 1 0 0
0.368451 -8.951498 5.050956 10.284806 -1.529659 1.057434 -0.004125 -0.002660 1073780.000000 1 0 0
-10.304349 2.494802 -0.367944 10.608441 -0.237541 1.605487 -0.006095 0.000359 -1466230.000000 1 0 0
-1.845049 8.996402 -0.392244 9.192024 -1.368514 1.613481 0.001259 -0.001991 -902234.000000 1 0 0
-3.520449 2.338302 -6.641644 7.872271 -0.586297 2.574890 0.007273 -0.005776 -363023.000000 1 0 0
-12.598949 3.036002 6.395056 14.451559 -0.236464 1.112393 -0.010637 -0.002908 -514287.000000 1 0 0
11.418651 1.631902 8.019356 14.048444 0.141954 0.963273 0.004506 -0.007004 -1776930.000000 1 0 0
6.042351 2.615802 -3.155644 7.301405 0.408552 2.017724 -0.001628 0.001548 1684740.000000 1 0 0
10.543851 -2.483598 6.419556 12.591734 -0.231333 1.035817 0.008148 -0.007568 2462520.000000 1 0 0
-0.853149 11.057602 4.130356 11.834621 -1.493794 1.214286 0.003595 0.001874 527922.000000 1 0 0
-1.578049 -12.312998 7.406556 14.455354 1.443330 1.032849 -0.006489 0.000110 -931930.000000 1 0 0
8.036851 8.595502 -7.771544 14.102146 0.818974 2.154466 0.001810 -0.003784 1309710.000000 1 0 0
-4.656849 -6.012498 -8.720244 11.570611 0.911781 2.424401 0.010765 -0.000310 -741438.000000 1 0 0
-8.609949 -5.276598 -11.707544 15.460928 0.549814 2.429864 0.015437 0.000572 1106640.000000 1 0 0
5.987951 -0.664398 -9.954044 11.635290 -0.110504 2.597321 -0.002611 0.004117 -73352.800000 1 0 0
-11.223749 -5.437098 -5.395144 13.588309 0.451113 1.979089 0.007704 -0.003755 27113.900000 1 0 0
3.975351 8.846302 -2.758444 10.083128 1.148458 1.847899 0.006582 -0.002903 2791290.000000 1 0 0
11.680551 -10.444998 -3.998644 16.171655 -0.729613 1.820650 0.010172 -0.006863 -256483.000000 1 0 0
3.997451 -11.274898 4.009956 12.616763 -1.230079 1.247359 0.002484 -0.000325 1745130.000000 1 0 0
-1.054349 0.946702 3.188656 3.489330 -0.731655 0.418178 0.002975 -0.000861 -997686.000000 1 0 0
-10.542749 -5.089598 4.563556 12.565015 0.449759 1.199101 0.006135 -0.002168 3138890.000000 1 0 0
4.559951 -8.691398 2.763156 10.196499 -1.087623 1.296374 -0.000153 -0.001266 4871940.000000 1 0 0
-3.615449 -5.642898 2.649256 7.206409 1.000981 1.194342 -0.001859 0.000532 1066130.000000 1 0 0
10.042551 5.080602 12.350556 16.709326 0.468362 0.739001 0.013632 0.002960 920817.000000 1 0 0
1.584551 -12.342398 -5.329844 13.537091 -1.443112 1.975473 -0.000197 0.001262 1067290.000000 1 0 0
9.863451 -10.736798 -1.744944 14.683710 -0.827768 1.689913 0.010850 -0.004044 427028.000000 1 0 0
9.569851 -4.545298 -9.173344 14.013994 -0.443416 2.284429 0.005357 0.000625 2381810.000000 1 0 0
-7.423049 -3.034098 -13.084044 15.345997 0.388018 2.591743 0.007017 -0.001439 1641140.000000 1 0 0
0.489351 6.166802 -2.527544 6.682618 1.491610 1.958676 0.001645 -0.001860 1931810.000000 1 0 0
-5.864749 -9.501898 0.995456 11.210365 1.017812 1.481881 0.004550 -0.000483 669157.000000 1 0 0
-8.929649 -4.064498 0.606856 9.829906 0.427144 1.509021 -0.002202 -0.000264 3085700.000000 1 0 0
1.918951 3.838702 12.122656 12.859891 1.107232 0.340248 0.004876 -0.005059 1288880.000000 1 0 0
6.763551 4.277602 9.634856 12.524933 0.563938 0.693123 0.003608 0.002063 1966580.000000 1 0 0
-8.238449 9.851102 -3.576544 13.330713 -0.874311 1.842417 -0.003484 0.000128 2621990.000000 1 0 0
16.383051 2.041902 -6.058644 17.586384 0.123996 1.922511 0.001190 0.003217 -253593.000000 1 0 0
-10.947049 2.675902 -5.061944 12.354012 -0.239739 1.992966 -0.003672 0.001926 832089.000000 1 0 0
-13.730349 4.077702 1.453656 14.396640 -0.288688 1.469652 -0.008799 0.001046 -1432190.000000 1 0 0
-17.347349 10.411702 3.308956 20.500811 -0.540559 1.408681 0.006380 -0.007356 46184.900000 1 0 0
-14.273649 2.936202 -1.230744 14.624399 -0.202878 1.655053 -0.007741 -0.000237 -708903.000000 1 0 0
-14.299549 5.112902 5.154856 16.037188 -0.343391 1.243556 -0.008942 -0.003250 727264.000000 1 0 0
-17.398949 7.527502 3.161756 19.219350 -0.408325 1.405536 -0.001432 0.001997 -1495600.000000 1 0 0
-14.741349 12.637302 -3.197244 19.678189 -0.708699 1.733996 0.022724 -0.003438 -59020.800000 1 0 0
-8.525649 12.498202 -9.545544 17.888799 -0.972151 2.133653 0.009107 -0.010575 1333400.000000 1 0 0
-12.490549 8.847202 -9.956444 18.259725 -0.616283 2.147505 0.002031 -0.001971 -937146.000000 1 0 0
-13.890349 -3.352298 -12.292744 18.849171 0.236812 2.281231 0.013471 -0.000325 -880337.000000 1 0 0
-14.755849 5.908402 -7.756644 17.686430 -0.380860 2.024797 0.009648 0.004751 -962351.000000 1 0 0
-10.891549 13.503202 -8.196544 19.187121 -0.892050 2.012179 0.013644 -0.012328 278.522000 1 0 0
-10.836649 13.575302 4.065556 17.839577 -0.897116 1.340881 0.014722 -0.008729 -1344030.000000 1 0 0
-15.148349 3.301902 3.032056 15.797734 -0.214614 1.377668 -0.014832 0.005329 146845.000000 1 0 0
-11.081349 9.512902 -12.512144 19.231363 -0.709385 2.279186 0.000058 -0.006854 -419242.000000 1 0 0
-13.121449 11.583802 -8.939344 19.653721 -0.723239 2.042991 0.011503 -0.018993 -353686.000000 1 0 0
-8.718649 14.498702 -3.400444 17.256599 -1.029392 1.769146 -0.000613 -0.004540 1983860.000000 1 0 0
-16.596749 8.297402 -4.242844 19.034197 -0.463601 1.795591 0.013214 0.004039 -946903.000000 1 0 0
-16.995349 6.620802 0.331756 18.242449 -0.371479 1.552609 0.009083 0.004072 -780782.000000 1 0 0
-10.436149 2.841902 -12.508044 16.536044 -0.265867 2.428605 -0.002820 -0.009076 378087.000000 1 0 0
-16.814849 0.923602 2.319656 16.999205 -0.054873 1.433913 -0.004042 0.000128 546546.000000 1 0 0
-12.599649 1.284502 -7.012644 14.476818 -0.101596 2.076479 0.003522 -0.003186 1133120.000000 1 0 0
-12.216949 8.987802 -5.448844 16.115965 -0.634275 1.915696 0.006275 -0.002045 -1989830.000000 1 0 0
-9.571649 13.985502 1.354456 17.001331 -0.970618 1.491044 0.017545 -0.009016 26131.100000 1 0 0
-12.177249 11.181202 2.870956 16.779364 -0.742782 1.398850 0.009815 -0.006506 -840221.000000 1 0 0
-12.475449 6.839802 -3.703644 14.701588 -0.501507 1.825461 -0.001831 0.001662 -441491.000000 1 0 0
-15.808649 3.921402 -9.633444 18.923372 -0.243146 2.104908 0.014265 -0.001982 -542131.000000 1 0 0
-14.999749 5.916102 -4.826644 16.831198 -0.375681 1.861647 0.006121 0.005769 2087340.000000 1 0 0
-17.766249 5.293602 7.582156 20.028752 -0.289583 1.182552 0.000359 0.002396 232855.000000 1 0 0
-15.798749 10.092002 -2.138144 18.868509 -0.568451 1.684358 0.021036 -0.001498 -1599420.000000 1 0 0
-8.821849 9.917602 -8.450644 15.735222 -0.843805 2.137736 0.001158 -0.006355 271998.000000 1 0 0
-16.896149 4.266602 -1.406144 17.483163 -0.247348 1.651312 -0.006335 0.001854 795775.000000 1 0 0
-10.187449 5.408002 -4.614544 12.422746 -0.488022 1.951377 -0.004085 0.001328 -1219570.000000 1 0 0
-18.049449 2.884702 6.092756 19.267220 -0.158482 1.249050 0.013033 -0.004832 -106297.000000 1 0 0
-10.251349 10.061202 -5.802144 15.491378 -0.776037 1.954697 -0.002001 -0.005678 111705.000000 1 0 0
-15.358649 0.605402 -5.947144 16.480993 -0.039397 1.939974 0.005497 -0.001901 -128661.000000 1 0 0
-16.414749 -4.070998 -8.881244 19.102186 0.243104 2.054356 0.018859 -0.012376 -204296.000000 1 0 0
-10.021049 9.606002 -1.073344 13.922958 -0.764255 1.647965 -0.001784 -0.000040 2330640.000000 1 0 0
-17.384249 -2.881698 -3.299244 17.927669 0.164271 1.755882 0.011259 -0.004087 664334.000000 1 0 0
-11.905249 5.091402 -11.577544 17.369423 -0.404122 2.300364 -0.001318 -0.003762 -709849.000000 1 0 0
-16.182449 7.145002 5.865356 18.636660 -0.415786 1.250633 -0.002924 0.000896 -865315.000000 1 0 0
-12.123949 6.073302 -8.907144 16.223820 -0.464395 2.151983 0.000409 0.000705 264492.000000 1 0 0
-14.675349 8.339602 -0.143444 16.880029 -0.516764 1.579294 0.006838 -0.001395 2354610.000000 1 0 0
-14.887949 11.855702 3.942556 19.435854 -0.672498 1.366529 0.003657 -0.010472 1562910.000000 1 0 0
-17.202149 4.116302 -4.221944 18.184682 -0.234874 1.805105 0.005283 0.000764 -1017820.000000 1 0 0
-13.888249 13.354602 -0.530944 19.274614 -0.765812 1.598346 0.022354 -0.010407 -165924.000000 1 0 0
-10.023549 6.913902 -13.134444 17.910533 -0.603824 2.394013 -0.008092 -0.009556 981165.000000 1 0 0
-15.823249 -1.088598 -8.334244 17.917027 0.068689 2.054609 0.010617 -0.008775 -993851.000000 1 0 0
-11.360349 11.969702 0.020856 16.502476 -0.811511 1.569533 0.012307 -0.007242 763404.000000 1 0 0
-12.013249 7.321902 -0.945844 14.100461 -0.547365 1.637926 -0.004249 0.002503 2484570.000000 1 0 0
-11.476649 0.165502 -11.709844 16.396991 -0.014420 2.366200 0.000629 -0.008366 271317.000000 1 0 0
-19.114649 -1.171598 -4.827444 19.749599 0.061217 1.817731 0.014117 -0.004014 -1594190.000000 1 0 0
-17.924749 1.490902 -5.262344 18.740642 -0.082985 1.855422 0.006590 0.002328 -1475880.000000 1 0 0
-13.325849 -0.029498 -9.549044 16.394004 0.002214 2.192563 0.010595 -0.006780 -190128.000000 1 0 0
-6.050949 11.334202 -13.124144 18.366308 -1.080424 2.366816 -0.001860 -0.007376 -327198.000000 1 0 0
16.339751 5.880802 7.226056 18.809231 0.345474 1.176481 0.010881 -0.006650 473608.000000 1 0 0
14.918051 10.142902 -5.704244 18.919966 0.597114 1.877055 0.017942 -0.000310 1121500.000000 1 0 0
2.569551 16.889802 4.370556 17.634334 1.419818 1.320343 0.021863 -0.006316 1657360.000000 1 0 0
-3.817249 18.376502 -5.738744 19.626522 -1.365985 1.867529 -0.004774 0.001687 34560.900000 1 0 0
5.592851 14.499102 5.685556 16.547794 1.202645 1.220066 0.007113 -0.003203 -569400.000000 1 0 0
9.919351 6.086102 15.110956 19.072891 0.550329 0.656269 0.031291 0.003805 -1044750.000000 1 0 0
4.655551 12.691002 -1.096744 13.562394 1.219200 1.651751 0.006432 -0.004881 1319830.000000 1 0 0
3.462251 13.632502 13.139656 19.247931 1.322084 0.819409 0.000102 -0.000125 208233.000000 1 0 0
-0.739649 12.374902 9.244056 15.464082 -1.511097 0.930072 -0.001262 -0.000499 1482370.000000 1 0 0
-7.701149 13.854002 8.446556 17.960662 -1.063451 1.081187 0.018956 -0.020171 1669740.000000 1 0 0
11.432951 12.858002 -4.248844 17.722676 0.843997 1.812895 0.022521 -0.000648 -76628.500000 1 0 0
-5.768549 16.221302 0.990256 17.244923 -1.229127 1.513342 -0.002359 0.004082 -375918.000000 1 0 0
3.323351 10.577902 6.894856 13.056635 1.266383 1.014467 -0.001227 0.008613 2428630.000000 1 0 0
-1.100549 15.548302 2.556756 15.795502 -1.500132 1.408215 0.003576 -0.001362 1502690.000000 1 0 0
9.964451 8.787102 9.590756 16.385544 0.722694 0.945524 0.007671 -0.000305 925181.000000 1 0 0
7.405751 12.264502 6.193656 15.608476 1.027561 1.162753 -0.000189 0.003200 515164.000000 1 0 0
11.918051 14.026802 -1.602544 18.475910 0.866498 1.657642 0.015945 0.004806 31933.200000 1 0 0
9.681251 15.990802 -1.179944 18.730313 1.026396 1.633835 0.014449 -0.000461 1358570.000000 1 0 0
10.098651 13.718302 2.980756 17.293336 0.936222 1.397567 0.005232 0.001601 3080620.000000 1 0 0
-5.980149 14.467102 6.230456 16.848673 -1.178824 1.192014 0.005870 -0.015786 668714.000000 1 0 0
-0.915049 18.237402 -6.041844 19.233928 -1.520664 1.890330 0.017193 -0.004244 828743.000000 1 0 0
-3.464949 15.647102 5.577156 16.968863 -1.352870 1.235901 -0.001154 -0.007486 1505090.000000 1 0 0
7.128551 12.244702 10.604156 17.697375 1.043587 0.928303 -0.000008 0.002128 3583870.000000 1 0 0
1.548351 14.681702 6.206256 16.014599 1.465723 1.172838 0.007801 -0.001292 1058690.000000 1 0 0
17.540851 7.587102 -1.413944 19.163632 0.408239 1.644646 0.001333 0.010292 290656.000000 1 0 0
2.078351 16.144502 -3.280844 16.605072 1.442766 1.769686 0.002327 -0.001927 1001540.000000 1 0 0
6.782351 11.120902 0.538056 13.037033 1.023148 1.529513 0.007378 0.000339 3380050.000000 1 0 0
12.661451 9.341802 3.237556 16.064351 0.635657 1.367870 0.002461 0.004956 -1050350.000000 1 0 0
5.978751 14.193502 -3.430444 15.778748 1.172122 1.789956 0.001620 -0.005191 -217198.000000 1 0 0
3.110951 16.491002 1.521756 16.850724 1.384342 1.480365 0.007051 -0.008481 -1133530.000000 1 0 0
2.850651 18.835902 -2.529944 19.217648 1.420595 1.702826 0.016498 -0.014793 -194664.000000 1 0 0
4.007051 11.975902 10.672356 16.534142 1.247913 0.869153 0.001598 0.002286 2038020.000000 1 0 0
8.137351 11.540802 3.361256 14.515668 0.956660 1.337115 -0.001934 0.006519 -509103.000000 1 0 0
0.756051 12.501402 0.184056 12.525595 1.510393 1.556101 0.004058 -0.001384 -967374.000000 1 0 0
12.088751 9.877302 -4.670444 16.294540 0.685060 1.861500 0.012186 0.002084 524916.000000 1 0 0
-1.163649 16.540902 10.038356 19.383604 -1.500562 1.026427 0.006499 -0.004490 -1222970.000000 1 0 0
8.078551 14.691402 -8.027244 18.588623 1.068043 2.017324 0.020863 -0.009735 834497.000000 1 0 0
14.590951 7.489702 -1.348044 16.456266 0.474240 1.652805 0.002516 0.009253 748235.000000 1 0 0
12.478451 8.322002 6.094856 16.189958 0.588171 1.184825 0.002213 -0.002907 -2380920.000000 1 0 0
-2.953649 14.320802 10.236556 17.849271 -1.367400 0.960024 0.007246 -0.010264 931196.000000 1 0 0
-4.564249 17.150502 -3.128144 18.021025 -1.310696 1.745263 0.002589 -0.003166 -66126.200000 1 0 0
-7.051049 16.415502 -1.692244 17.945742 -1.165090 1.665234 0.000465 0.001059 589020.000000 1 0 0
8.388851 11.234202 -1.959744 14.157002 0.929395 1.709672 0.007165 -0.002423 -142361.000000 1 0 0
8.542051 12.890002 -4.220344 16.029039 0.985553 1.837231 0.013100 -0.003259 2814420.000000 1 0 0
2.503651 14.794102 -7.247944 16.663325 1.403152 2.020794 -0.003466 -0.003413 -1091090.000000 1 0 0
11.329151 11.291802 9.805656 18.761805 0.783747 1.020853 0.012654 -0.001609 1449060.000000 1 0 0
8.610451 15.662202 1.443256 17.931186 1.068137 1.490221 0.008183 -0.000511 1062750.000000 1 0 0
6.171351 9.877302 7.794556 14.014341 1.012340 0.981009 -0.001520 0.009839 3140640.000000 1 0 0
14.461051 11.425402 2.583856 18.610162 0.668663 1.431505 0.013858 0.003844 1511810.000000 1 0 0
12.154351 12.649502 1.076156 17.575445 0.805358 1.509527 0.010211 0.006738 2939290.000000 1 0 0
5.368451 16.061002 8.194456 18.812899 1.248218 1.120118 0.012770 0.001492 -85013.800000 1 0 0
11.516951 15.060002 5.111056 19.635853 0.917930 1.307472 0.006731 -0.000083 -161810.000000 1 0 0
6.001351 16.773402 1.693356 17.894990 1.227199 1.476027 0.005308 -0.012957 364044.000000 1 0 0
-0.659349 16.216902 -4.138144 16.749533 -1.530161 1.820442 0.002574 0.000251 1573590.000000 1 0 0
16.084551 6.501302 2.609556 17.543930 0.384118 1.421498 0.000699 0.000826 -390472.000000 1 0 0
7.679651 16.610702 -3.238844 18.584471 1.137735 1.745968 0.002498 -0.006994 -484976.000000 1 0 0
14.867751 8.223502 7.568556 18.599974 0.505228 1.151725 0.015941 -0.004077 -265384.000000 1 0 0
2.170951 12.933002 8.610456 15.688069 1.404485 0.989804 0.004003 0.002239 1118080.000000 1 0 0
15.925151 7.337402 -5.892244 18.497741 0.431752 1.894984 -0.005982 0.005022 -1416840.000000 1 0 0
-2.980649 17.076902 0.834656 17.355157 -1.397994 1.522685 -0.000328 0.000107 -152815.000000 1 0 0
-2.791949 18.495302 4.728356 19.293224 -1.420973 1.323196 0.006918 -0.008065 2007990.000000 1 0 0
-0.945749 19.179102 0.984256 19.227614 -1.521525 1.519584 0.010800 -0.004881 343934.000000 1 0 0
6.983151 16.716302 -6.117744 19.121347 1.175087 1.896466 0.013321 -0.005452 -407527.000000 1 0 0
11.003951 10.034502 0.764456 14.911826 0.739351 1.519509 0.002485 0.006455 -1986110.000000 1 0 0
9.099551 8.848302 14.388656 19.186654 0.771400 0.722839 0.023402 0.001498 824138.000000 1 0 0
6.352851 12.356802 -8.316544 16.193028 1.095918 2.110157 0.018288 -0.011282 1040720.000000 1 0 0
6.276551 8.996002 13.380056 17.301706 0.961613 0.686708 0.008274 -0.001580 701376.000000 1 0 0
16.664251 9.456002 3.061856 19.403304 0.516136 1.412333 0.009891 0.001138 495624.000000 1 0 0
2.578351 14.686102 -0.788444 14.931548 1.397003 1.623625 0.001706 -0.003594 1200090.000000 1 0 0
9.172651 12.844902 8.340256 17.851860 0.950664 1.084683 0.003964 -0.001689 -44581.200000 1 0 0
7.254151 9.304402 10.600956 15.861112 0.908589 0.838793 0.000845 0.002802 1736090.000000 1 0 0
4.375851 15.783302 -5.314344 17.219260 1.300344 1.884546 0.003990 -0.005268 1908350.000000 1 0 0
0.248051 16.341402 -7.964944 18.180849 1.555618 2.024275 0.006545 -0.005508 -940462.000000 1 0 0
-2.384449 15.735402 -1.927744 16.031365 -1.420406 1.691336 -0.003811 0.003541 -1836740.000000 1 0 0
13.268451 10.571002 7.702556 18.631351 0.672727 1.144590 0.008011 -0.006735 2484910.000000 1 0 0
-0.932349 15.982702 7.193956 17.551895 -1.512527 1.148487 0.010119 -0.002090 4100400.000000 1 0 0
13.277051 13.315802 6.670156 19.951983 0.786855 1.229923 0.010197 -0.004387 2846.220000 1 0 0
5.546951 17.343502 4.500556 18.756885 1.261249 1.328491 0.013542 -0.010893 144253.000000 1 0 0
10.894251 9.521702 -1.920444 14.595740 0.718270 1.702755 0.002398 0.005272 1358440.000000 1 0 0
3.295351 12.682602 4.811056 13.959011 1.316585 1.218924 0.003102 0.005371 1516730.000000 1 0 0
-0.046249 18.039002 3.638856 18.402418 -1.568233 1.371747 0.015580 -0.007614 2297180.000000 1 0 0
-7.672749 15.934102 -5.701444 18.581526 -1.122034 1.882661 0.010238 -0.005515 -636619.000000 1 0 0
-12.492949 -9.201998 8.149456 17.526100 0.634854 1.087173 0.012507 -0.001205 117589.000000 1 0 0
-13.361749 -11.749498 6.769356 19.037101 0.721282 1.207254 0.016452 0.002045 -1297940.000000 1 0 0
-6.560449 -12.221898 12.339356 18.565398 1.078161 0.843781 0.008587 -0.003652 -361025.000000 1 0 0
-1.909449 -10.748998 14.398156 18.069141 1.394991 0.648755 -0.000923 -0.004014 -37076.400000 1 0 0
-8.832449 2.911602 11.006856 14.409735 -0.318430 0.701541 0.001204 -0.002898 1272420.000000 1 0 0
0.455051 10.050702 15.183156 18.214058 1.525552 0.585211 0.006035 -0.006588 -89062.100000 1 0 0
0.982251 -6.742198 16.547456 17.895261 -1.426127 0.390592 -0.006019 -0.012641 2096140.000000 1 0 0
6.016451 2.423302 17.830556 18.973635 0.382900 0.348885 0.012403 -0.004702 1251530.000000 1 0 0
-5.077349 -2.902498 17.668256 18.611052 0.519318 0.319660 0.017379 -0.013028 -1021460.000000 1 0 0
-4.337749 8.171602 13.157456 16.084458 -1.082788 0.612831 0.004787 0.001043 260115.000000 1 0 0
0.020851 -4.799498 18.458856 19.072624 -1.566452 0.254380 0.003025 -0.025322 -218780.000000 1 0 0
-11.581849 2.047102 11.132556 16.194556 -0.174944 0.812858 0.001092 -0.005114 539298.000000 1 0 0
-3.445449 -6.186098 14.370056 16.019908 1.062620 0.457833 0.004069 -0.005569 333548.000000 1 0 0
-7.471549 -2.248998 14.718856 16.659135 0.292382 0.487449 0.006148 -0.000848 1197800.000000 1 0 0
-6.121649 -1.090098 10.670956 12.350393 0.176225 0.527601 -0.003690 0.000779 550009.000000 1 0 0
-4.004449 2.477402 11.149456 12.103037 -0.554029 0.399613 -0.000668 0.004158 -479471.000000 1 0 0
-6.366549 6.251702 13.600156 16.265945 -0.776297 0.580639 -0.004279 -0.003185 1155660.000000 1 0 0
-8.932949 5.481602 12.527256 16.333330 -0.550388 0.696683 -0.008108 -0.003127 -445803.000000 1 0 0
-12.237649 -2.182898 15.761856 20.073894 0.176519 0.667791 0.006569 0.002750 1763420.000000 1 0 0
-3.545949 -7.635698 16.966456 18.940388 1.136040 0.460609 0.009288 -0.011498 -1530680.000000 1 0 0
-0.599749 -5.277398 14.367656 15.317969 1.457637 0.354094 0.002000 -0.005059 1396430.000000 1 0 0
-14.273949 -2.268898 13.623456 19.861825 0.157635 0.814941 0.008974 -0.001998 940740.000000 1 0 0
-6.478849 1.521802 12.243456 13.935336 -0.230705 0.497893 -0.001297 -0.000077 1139260.000000 1 0 0
2.166251 -2.213698 14.483656 14.811124 -0.796231 0.210673 -0.001073 -0.004369 451723.000000 1 0 0
-12.698449 3.959802 9.164456 16.152953 -0.302278 0.967506 -0.009443 -0.001761 1560870.000000 1 0 0
-9.007649 -3.037098 12.553256 15.746299 0.325199 0.648121 -0.004959 0.001231 217131.000000 1 0 0
-7.226749 -7.268998 15.346356 18.454671 0.788313 0.588867 0.018511 -0.007177 -420570.000000 1 0 0
-3.265149 5.959502 19.486156 20.637033 -1.069575 0.335541 0.028263 -0.006518 -1357170.000000 1 0 0
0.648951 5.371902 16.154056 17.036197 1.450574 0.323214 0.009655 -0.003266 1396990.000000 1 0 0
3.486951 1.452502 16.714456 17.135975 0.394695 0.222261 -0.003501 -0.006369 841892.000000 1 0 0
-11.735049 11.304202 7.709956 18.026086 -0.766700 1.128837 0.007071 -0.019425 -527210.000000 1 0 0
0.504351 -9.399598 15.444756 18.087214 -1.517191 0.547354 -0.016291 -0.000481 1173240.000000 1 0 0
-2.544249 -3.610098 18.903256 19.412344 0.956884 0.229523 0.012188 -0.020643 1243980.000000 1 0 0
-12.814249 2.353202 13.696856 18.903608 -0.181616 0.760396 -0.006276 -0.006075 -824695.000000 1 0 0
-5.389449 -0.514998 15.820056 16.720812 0.095268 0.329730 0.009270 -0.001776 1707580.000000 1 0 0
-4.496149 -6.024398 11.653556 13.867736 0.929652 0.572894 -0.001499 -0.000229 -15640.800000 1 0 0
2.424451 1.791202 14.010056 14.330668 0.636299 0.211926 0.001033 -0.005366 370685.000000 1 0 0
0.113651 3.305202 14.274356 14.652458 1.536424 0.227668 0.010523 -0.005937 -641397.000000 1 0 0
-13.006549 7.022102 12.138956 19.126800 -0.495048 0.883232 -0.004367 -0.010132 1209750.000000 1 0 0
0.933651 1.418202 18.242456 18.321305 0.988584 0.092809 0.007967 -0.009420 1168730.000000 1 0 0
-2.016749 6.448702 12.534256 14.239403 -1.267695 0.494404 0.002372 0.000595 1662870.000000 1 0 0
-13.468549 -2.664298 10.885756 17.521415 0.195295 0.900417 0.011280 -0.001909 -65058.800000 1 0 0
-2.511249 3.604302 13.518656 14.214479 -0.962264 0.314186 0.003452 -0.001016 17078.500000 1 0 0
3.493951 6.022102 16.358456 17.778428 1.045072 0.402385 0.003398 -0.003717 -115200.000000 1 0 0
-3.810149 12.421702 12.313356 17.900688 -1.273174 0.812245 0.016833 -0.007304 -517137.000000 1 0 0
3.770051 -1.469498 17.009356 17.484019 -0.371667 0.233547 0.005362 -0.010728 498765.000000 1 0 0
-15.693849 0.620802 9.147856 18.175961 -0.039536 1.043390 0.012870 -0.003814 756308.000000 1 0 0
-4.581549 4.605602 15.287456 16.610493 -0.788016 0.401824 0.007342 -0.002506 1288060.000000 1 0 0
-8.046249 -8.173098 10.507656 15.554822 0.793219 0.829121 0.006479 -0.002485 3268830.000000 1 0 0
-2.673649 -0.300598 14.690256 14.934604 0.111960 0.181141 0.007933 -0.003248 2247880.000000 1 0 0
-1.862149 0.996302 17.279856 17.408436 -0.491276 0.121616 0.007897 -0.008780 2337840.000000 1 0 0
-0.756949 -2.372898 14.396956 14.610817 1.262003 0.171307 0.004073 -0.002205 568266.000000 1 0 0
5.050351 -8.192098 16.473556 19.078642 -1.018340 0.528716 -0.002594 -0.006148 -564260.000000 1 0 0
-4.491649 9.954502 10.684956 15.278590 -1.146930 0.796320 0.005057 -0.005108 -783708.000000 1 0 0
-6.234149 2.178102 15.288756 16.653973 -0.336124 0.407727 0.005796 -0.000525 190582.000000 1 0 0
-5.027649 6.796102 17.285256 19.241734 -0.933865 0.454863 0.014627 0.002523 -887934.000000 1 0 0
-4.104549 9.226402 15.894456 18.831026 -1.152217 0.565992 0.012347 0.003642 -208652.000000 1 0 0
-4.624449 -9.896298 18.374956 21.376652 1.133657 0.536348 0.027085 -0.015109 -1897220.000000 1 0 0
-6.830549 -4.121798 11.142056 13.703687 0.542942 0.621390 -0.000274 0.002101 752755.000000 1 0 0
-2.351849 -0.818998 19.538156 19.696231 0.335102 0.126778 0.009535 -0.013371 -616493.000000 1 0 0
-5.771649 -4.617198 15.351956 17.038574 0.674728 0.448700 0.010854 -0.005021 1121980.000000 1 0 0
-12.832549 0.023502 9.764456 16.125119 -0.001831 0.920348 -0.001216 0.000534 1278740.000000 1 0 0
-14.417049 8.838002 10.299256 19.799905 -0.549941 1.023750 -0.004174 -0.008426 -919072.000000 1 0 0
-8.425849 10.386902 12.892356 18.576746 -0.889264 0.803759 0.000867 -0.008736 -618385.000000 1 0 0
-10.436049 7.158302 10.794656 16.633611 -0.601214 0.864571 -0.001517 -0.004324 -708258.000000 1 0 0
-9.884349 -6.572898 14.825556 18.992116 0.586834 0.675145 0.018011 -0.007286 -720284.000000 1 0 0
-0.736849 -13.513798 14.401956 19.763149 1.516325 0.754334 -0.009599 0.000396 2049710.000000 1 0 0
3.785251 -5.599598 16.928856 18.228269 -0.976369 0.379866 0.005475 -0.013715 880194.000000 1 0 0
-7.313649 9.385202 10.381656 15.790828 -0.908821 0.853369 0.005215 -0.005708 1298620.000000 1 0 0
-10.297249 -6.698798 11.807556 17.038944 0.576757 0.805189 0.009465 -0.005515 2784630.000000 1 0 0
-10.962749 -3.927398 10.707456 15.819480 0.344005 0.827318 0.001523 0.000394 -857568.000000 1 0 0
-10.156949 -10.241098 9.775056 17.423990 0.789524 0.975189 0.013858 -0.003887 1384360.000000 1 0 0
-9.859349 -3.667598 15.213856 18.496472 0.356131 0.604955 0.008555 -0.008443 780842.000000 1 0 0
5.561851 -3.339398 15.983556 17.249923 -0.540722 0.385562 0.007433 -0.012035 -532851.000000 1 0 0
-11.259249 0.518702 15.339156 19.034953 -0.046036 0.633701 0.004613 -0.002562 103965.000000 1 0 0
-3.191649 3.151102 18.900556 19.425424 -0.779006 0.232990 0.014022 -0.006290 -928501.000000 1 0 0
0.541051 7.316202 13.971656 15.780580 1.496978 0.483507 0.005779 -0.003952 2293170.000000 1 0 0
-13.123049 -7.357698 12.312556 19.440915 0.510998 0.884945 0.005969 -0.000472 444217.000000 1 0 0
-1.544949 -1.022298 12.094056 12.235120 0.584559 0.151998 0.002113 0.000330 664186.000000 1 0 0
1.863351 -4.850598 13.087056 14.080889 -1.204029 0.377959 0.000174 -0.003637 1731110.000000 1 0 0
-14.599549 -4.066898 8.636156 17.443328 0.271676 1.052849 0.013832 -0.008521 -2302940.000000 1 0 0
8.007551 0.889902 16.147756 18.046131 0.110679 0.462804 0.014795 -0.004287 126035.000000 1 0 0
-1.345549 11.343302 13.386956 17.598056 -1.452727 0.706395 -0.003705 -0.000846 549650.000000 1 0 0
2.897151 -12.339898 -13.894744 18.807724 -1.340194 2.402053 0.001809 0.011674 -739926.000000 1 0 0
0.842451 -10.706898 -13.953344 17.608044 -1.492275 2.485598 0.000297 0.007892 -1949110.000000 1 0 0
3.189351 -14.337398 -12.364644 19.199411 -1.351911 2.270527 0.007508 0.001699 -870435.000000 1 0 0
-5.103749 -10.136498 -16.257144 19.826537 1.104351 2.532153 0.017020 -0.008525 -538311.000000 1 0 0
-1.071749 -12.094198 -15.109744 19.383566 1.482410 2.464684 0.012156 0.003506 -117003.000000 1 0 0
5.751051 -14.906898 -12.048244 20.011257 -1.202593 2.216892 -0.000593 0.000338 887448.000000 1 0 0
1.886551 -11.878498 -16.142344 20.130401 -1.413291 2.501246 0.004783 0.005520 -749961.000000 1 0 0
1.323851 -14.475298 -14.117844 20.263276 -1.479594 2.341612 0.019841 0.010790 -191017.000000 1 0 0
-0.962149 -10.460998 -15.914944 19.069443 1.479080 2.558163 0.008266 -0.003712 -686116.000000 1 0 0
-6.102749 -5.474798 -15.231544 17.297887 0.731213 2.647804 0.016808 -0.000908 267886.000000 1 0 0
-6.461849 -7.565098 -16.644544 19.391417 0.863889 2.602833 0.010872 -0.001480 518467.000000 1 0 0
4.952651 -12.557998 -11.398944 17.668277 -1.195142 2.272035 -0.006073 0.008144 -69447.100000 1 0 0
-1.773649 -15.455498 -13.276244 20.451819 1.456538 2.277259 0.023887 0.005619 153144.000000 1 0 0
15.505051 -7.430398 -8.592244 19.220928 -0.446889 2.034234 -0.001141 0.004891 442345.000000 1 0 0
19.178651 -3.654098 -4.265444 19.984171 -0.188273 1.785892 0.018926 -0.010117 627030.000000 1 0 0
14.692151 -11.789798 -8.934744 20.849180 -0.676236 2.013675 0.018616 -0.003732 162813.000000 1 0 0
17.741251 -3.662898 -6.463944 19.234120 -0.203601 1.913534 0.024450 0.002318 478942.000000 1 0 0
9.302751 -9.090798 -15.467444 20.209543 -0.773875 2.442387 0.015818 -0.004203 434570.000000 1 0 0
1.198651 1.969302 -15.306444 15.479087 1.024028 2.992099 0.012166 -0.004910 775027.000000 1 0 0
4.778451 -4.398498 -13.963144 15.399668 -0.744019 2.706230 -0.005121 0.002267 499501.000000 1 0 0
12.978951 -5.528198 -8.593344 16.518466 -0.402663 2.117912 0.017297 0.000772 -1342200.000000 1 0 0
2.953451 1.018802 -12.274544 12.665909 0.332171 2.892356 0.004895 -0.001122 -1348270.000000 1 0 0
0.617751 6.309302 -12.924044 14.395131 1.473196 2.685560 0.013416 -0.004540 656961.000000 1 0 0
3.099351 -1.185198 -16.875744 17.198878 -0.365244 2.947442 0.015825 -0.006707 -625606.000000 1 0 0
13.155351 4.287702 -11.397544 17.926284 0.315071 2.259842 -0.006526 -0.003475 458412.000000 1 0 0
-3.883949 9.555502 -16.585544 19.531332 -1.184732 2.585220 -0.004015 -0.000761 162766.000000 1 0 0
-0.381749 -5.173498 -17.752044 18.494482 1.497141 2.857285 0.018377 -0.011551 258075.000000 1 0 0
-0.456549 -8.523498 -17.605244 19.565354 1.517284 2.690147 0.017967 -0.005423 -489793.000000 1 0 0
5.571251 -10.170998 -12.270944 16.883842 -1.069676 2.384428 -0.005513 0.006835 177507.000000 1 0 0
1.820351 -9.861998 -18.054444 20.652739 -1.388268 2.634564 0.014108 -0.000766 34822.600000 1 0 0
11.027651 8.792502 -14.451644 20.193246 0.673101 2.368375 0.039396 -0.020395 -795570.000000 1 0 0
10.970851 -3.863298 -12.932444 17.393469 -0.338582 2.409120 0.019589 0.001962 90187.000000 1 0 0
4.937151 7.474102 -12.282944 15.202249 0.987028 2.511493 0.002254 0.000379 1010660.000000 1 0 0
9.589551 -5.977098 -12.628744 16.946102 -0.557371 2.411676 0.011987 0.000399 -1609200.000000 1 0 0
-3.294449 0.515002 -15.928044 16.273328 -0.155069 2.935228 0.010232 -0.004126 4355.600000 1 0 0
-0.700649 10.746602 -12.801044 16.728630 -1.505691 2.442176 -0.002735 -0.002971 -2714160.000000 1 0 0
6.648951 -5.484198 -12.454644 15.146060 -0.689694 2.536242 -0.003170 0.005083 -3718.730000 1 0 0
17.792451 -6.242698 -8.279544 20.593529 -0.337443 1.984547 0.013426 0.002269 1692090.000000 1 0 0
13.073351 4.640402 -14.009144 19.715526 0.341079 2.361096 0.010086 -0.014278 310391.000000 1 0 0
14.188651 0.738602 -11.389244 18.209290 0.052009 2.246522 0.009591 -0.000133 -540334.000000 1 0 0
15.048651 6.081302 -11.075944 19.649953 0.384044 2.169610 -0.000219 -0.010953 99719.700000 1 0 0
8.250951 1.448502 -11.732744 14.416436 0.173785 2.521535 -0.004235 0.005470 464215.000000 1 0 0
9.946051 1.163002 -9.025944 13.481252 0.116402 2.304356 -0.000080 0.003971 469839.000000 1 0 0
-0.054649 -5.804298 -13.099844 14.328251 1.561381 2.724491 -0.000057 0.001169 124345.000000 1 0 0
10.493151 -5.827898 -9.027244 15.018713 -0.506980 2.215631 0.009702 -0.001483 -974234.000000 1 0 0
10.134251 8.448202 -11.234144 17.328622 0.694913 2.276146 0.014593 -0.015456 375823.000000 1 0 0
8.540951 8.086902 -14.656044 18.792164 0.758098 2.465305 0.025826 -0.005275 157830.000000 1 0 0
8.648851 10.586002 -10.708944 17.365124 0.885770 2.235331 0.025914 -0.014121 -1035230.000000 1 0 0
6.893251 1.845802 -17.882244 19.253533 0.261632 2.761896 0.020756 -0.003239 -1386350.000000 1 0 0
12.066051 2.464902 -12.872044 17.814456 0.201511 2.378297 0.004882 -0.004049 -1321810.000000 1 0 0
2.547951 -1.012498 -19.366244 19.559361 -0.378244 3.000953 0.023779 -0.013268 -455665.000000 1 0 0
10.210151 -2.243098 -15.533244 18.723257 -0.216257 2.549228 0.022739 0.000336 -180439.000000 1 0 0
8.249351 -0.871898 -13.114144 15.517499 -0.105302 2.577585 0.006950 0.000349 153234.000000 1 0 0
0.516051 4.359902 -14.620544 15.265495 1.452981 2.849874 0.011343 -0.003499 -82618.600000 1 0 0
4.035351 -7.622698 -15.781844 17.984888 -1.083917 2.641433 -0.001420 -0.000030 -940065.000000 1 0 0
11.321051 -5.868198 -14.511344 19.317895 -0.478215 2.420654 0.024905 0.000869 -781092.000000 1 0 0
-6.067549 4.390702 -16.802644 18.396256 -0.626414 2.722290 -0.001179 -0.000595 -95285.000000 1 0 0
11.360851 7.805602 -9.036044 16.481700 0.601989 2.151063 0.010144 -0.008733 367542.000000 1 0 0
9.530551 6.033002 -13.519944 17.607311 0.564344 2.446290 0.012477 -0.002790 -105411.000000 1 0 0
12.055751 0.496602 -10.137544 15.759364 0.041169 2.269559 0.004723 0.003966 -2440820.000000 1 0 0
5.532751 -7.238598 -13.855044 16.582246 -0.918181 2.559902 -0.005531 0.007588 -763454.000000 1 0 0
8.557251 -10.217398 -10.762444 17.130440 -0.873594 2.250117 0.006075 0.005145 -179164.000000 1 0 0
10.250851 4.602902 -15.988144 19.541939 0.422044 2.528974 0.025664 -0.004433 930048.000000 1 0 0
9.870951 -0.537298 -11.014344 14.800005 -0.054379 2.410151 0.002744 0.002602 154571.000000 1 0 0
-1.698149 5.623602 -14.144744 15.316082 -1.277535 2.747961 0.003045 -0.003546 744032.000000 1 0 0
1.363451 -0.697898 -14.966944 15.045114 -0.473092 3.039610 0.012749 -0.004249 -925991.000000 1 0 0
11.474951 -10.493598 -14.553644 21.297856 -0.740757 2.323122 0.028188 0.002321 1411920.000000 1 0 0
9.315251 -7.811498 -10.807844 16.266619 -0.697821 2.297512 0.009859 0.002440 18662.200000 1 0 0
14.071651 -1.028698 -9.637144 17.086373 -0.072975 2.170049 0.009592 0.006812 744629.000000 1 0 0
4.013851 11.226802 -12.154144 17.025724 1.227434 2.365805 0.008214 -0.006746 -1268130.000000 1 0 0
-1.390749 2.987902 -17.175544 17.488883 -1.135160 2.952013 0.010487 -0.003049 411321.000000 1 0 0
5.987051 -0.602398 -17.634544 18.632896 -0.100279 2.812760 0.017172 -0.001954 -183390.000000 1 0 0
6.401351 -6.589898 -16.248844 18.666253 -0.799911 2.627000 0.006151 0.005473 236876.000000 1 0 0
-1.895849 -5.191298 -19.895844 20.649175 1.220647 2.870645 0.031515 -0.017380 -271862.000000 1 0 0
-0.044249 -4.327398 -15.315444 15.915123 1.560571 2.866206 0.007036 -0.007542 96539.900000 1 0 0
0.480251 0.670002 -13.056444 13.082441 0.948890 3.078539 0.006311 -0.003061 -134781.000000 1 0 0
15.428751 0.406102 -13.472744 20.487218 0.026315 2.288448 0.012342 -0.006996 682668.000000 1 0 0
-0.392949 7.146802 -16.367444 17.864053 -1.515869 2.729344 0.009611 -0.001000 -450147.000000 1 0 0
-4.986449 -0.591598 -18.297144 18.973669 0.118089 2.873750 0.002804 -0.003946 -106028.000000 1 0 0
10.370051 -8.484598 -13.128344 18.758459 -0.685730 2.346001 0.013609 -0.002799 186750.000000 1 0 0
4.057051 8.641702 -17.289844 19.750376 1.131867 2.637097 0.016560 -0.009926 -377848.000000 1 0 0
9.045051 0.486002 -17.275644 19.506333 0.053680 2.658673 0.014977 0.006330 -426418.000000 1 0 0
3.128951 5.094702 -18.625044 19.561150 1.020032 2.830974 0.020297 -0.000917 -304689.000000 1 0 0
1.519251 -8.179498 -16.022744 18.053826 -1.387150 2.662684 0.003317 0.000212 -494727.000000 1 0 0
4.666651 7.710902 -14.933044 17.442231 1.026561 2.598555 0.009336 0.001409 887099.000000 1 0 0
-5.700349 -0.362298 -15.220344 16.256817 0.063472 2.782579 0.004402 -0.002620 -203680.000000 1 0 0
2.904651 3.383802 -13.861144 14.560852 0.861446 2.830324 0.011559 -0.000303 677379.000000 1 0 0
-2.254249 -10.320198 -18.103144 20.959770 1.355743 2.613380 0.019692 -0.002908 18020.800000 1 0 0
6.157951 -9.130998 -15.582944 19.082024 -0.977459 2.526343 -0.007834 0.009509 -240741.000000 1 0 0
-1.978049 5.593902 -17.355744 18.341926 -1.230911 2.812183 -0.000555 -0.001064 1001680.000000 1 0 0
10.069851 -12.184798 -11.651144 19.637219 -0.880148 2.205973 0.021280 0.002546 1104980.000000 1 0 0
10.852351 3.553802 -9.373344 14.773713 0.316463 2.258107 -0.001463 0.002001 -1219080.000000 1 0 0
4.833551 -0.533798 -11.054544 12.076883 -0.109990 2.727166 -0.001251 -0.000030 282005.000000 1 0 0
6.303051 9.565602 -11.319544 16.104697 0.988170 2.350224 0.008427 -0.008429 162915.000000 1 0 0
10.809551 -9.572098 -9.566744 17.320336 -0.724759 2.155967 0.018411 -0.001384 -660305.000000 1 0 0
3.251551 -2.413098 -14.625344 15.175517 -0.638450 2.871499 0.005775 -0.003895 -473504.000000 1 0 0
9.062451 -4.508298 -14.645044 17.802530 -0.461622 2.536832 0.013596 -0.001801 697717.000000 1 0 0
-4.064549 -6.447298 -16.563444 18.232824 1.008304 2.710335 0.013756 -0.009568 -1388880.000000 1 0 0
5.924851 -7.802298 -11.291544 14.949203 -0.921324 2.426950 -0.006032 0.006278 -343453.000000 1 0 0
5.374851 6.356302 -16.912244 18.849817 0.868866 2.684207 0.019713 -0.012516 -1484220.000000 1 0 0
8.803951 1.482702 -19.660844 21.592979 0.166848 2.715337 0.025987 -0.001885 380887.000000 1 0 0
13.130751 5.764602 -9.332744 17.109862 0.413682 2.147734 -0.007568 -0.002496 830774.000000 1 0 0
-1.630149 -0.783798 -17.433844 17.527425 0.448181 3.038211 0.017680 -0.007332 67466.400000 1 0 0
-0.589849 -0.578598 -19.710644 19.727954 0.775770 3.099698 0.025550 -0.012145 -92674.900000 1 0 0
2.810551 6.592502 -16.518944 18.006548 1.167804 2.732257 0.014795 0.000189 -201732.000000 1 0 0
7.697451 3.737202 -15.663644 17.848450 0.451990 2.641611 0.013646 -0.000799 417551.000000 1 0 0
3.078251 -9.880198 -14.858944 18.107517 -1.268770 2.533248 -0.002975 0.006699 32586.300000 1 0 0
9.096251 -10.616198 -13.372544 19.346069 -0.862352 2.333983 0.017911 0.004678 43408.900000 1 0 0
3.740251 0.147202 -14.858344 15.322582 0.039336 2.894806 0.008717 -0.002331 -2207260.000000 1 0 0
-1.224249 -2.907398 -18.936544 19.197511 1.172250 2.976519 0.031919 -0.013633 138282.000000 1 0 0
9.195051 10.146702 -13.123044 18.966254 0.834560 2.334935 0.027255 -0.013139 90631.900000 1 0 0
4.684651 2.100102 -10.752944 11.915628 0.421434 2.696158 -0.004831 0.003608 106022.000000 1 0 0
-0.551349 7.138602 -19.004444 20.308434 -1.493715 2.781292 0.009034 0.000798 -13529.300000 1 0 0
0.752251 -1.698098 -17.624344 17.721933 -1.153782 3.036600 0.026247 -0.014132 -2067570.000000 1 0 0
-4.449049 -2.146998 -14.118144 14.957460 0.449610 2.805003 0.011119 -0.005599 -2850710.000000 1 0 0
10.025451 5.952602 -10.373044 15.605870 0.535810 2.297873 0.004355 0.000656 337309.000000 1 0 0
8.343951 5.485502 -17.530744 20.175213 0.581575 2.623822 0.039570 -0.013468 -317962.000000 1 0 0
11.316151 0.150602 -13.765744 17.820596 0.013308 2.453506 0.009389 0.010620 506967.000000 1 0 0
6.779851 11.998402 -11.846844 18.173490 1.056462 2.280851 0.024810 -0.015137 -483441.000000 1 0 0
-0.958949 0.602602 -15.257044 15.299023 -0.561039 3.067496 0.010625 -0.005171 -1203780.000000 1 0 0
-4.525049 -2.945598 -19.055744 19.805908 0.577046 2.865486 0.010371 -0.006505 600567.000000 1 0 0
5.739351 -12.098798 -13.883244 19.289000 -1.127859 2.374237 -0.003054 0.004191 -359917.000000 1 0 0
2.169151 -4.779098 -14.077744 15.024243 -1.144718 2.784743 0.002373 0.000209 -1039520.000000 1 0 0
11.690251 2.010002 -15.469344 19.493657 0.170273 2.487430 0.019752 -0.001034 401313.000000 1 0 0
9.631351 2.121702 -13.850544 17.003003 0.216828 2.522825 0.006860 0.003647 266263.000000 1 0 0
-2.304749 -4.132098 -16.436144 17.103594 1.062009 2.861305 0.011529 -0.010576 -2069180.000000 1 0 0
-2.764849 10.229302 -14.374344 17.857905 -1.306817 2.506352 -0.001593 -0.001112 239141.000000 1 0 0
3.623651 5.807502 -13.659844 15.279046 1.012945 2.677046 0.005157 0.001336 -58162.300000 1 0 0
-5.152649 -2.515698 -16.559444 17.524089 0.454191 2.808248 0.009333 -0.006569 482662.000000 1 0 0
-4.349649 6.223802 -13.544344 15.527537 -0.960827 2.630640 -0.005392 -0.003670 108188.000000 1 0 0
5.828251 -1.196498 -14.161544 15.360646 -0.202480 2.743848 0.005480 0.003315 -1625040.000000 1 0 0
6.746351 -3.036098 -12.706244 14.703053 -0.422884 2.614336 0.001619 0.001484 751288.000000 1 0 0
2.706151 -3.348098 -18.259644 18.760267 -0.891036 2.910055 0.021304 -0.013662 -831758.000000 1 0 0
7.415651 -12.138198 -12.077644 18.660044 -1.022375 2.274763 0.004594 0.006964 -606317.000000 1 0 0
-6.132349 -5.330998 -17.875344 19.635508 0.715606 2.714945 0.027095 -0.005182 397641.000000 1 0 0
0.500251 8.684702 -12.000544 14.821854 1.513258 2.514355 0.002977 0.000294 245294.000000 1 0 0
0.330451 8.453802 -14.509844 16.796176 1.531727 2.613715 0.000943 -0.005537 59045.000000 1 0 0
7.678151 -2.414098 -15.160044 17.164172 -0.304625 2.653519 0.011358 -0.003682 188194.000000 1 0 0
14.202551 1.517002 -8.860844 16.808578 0.106408 2.126054 -0.006569 0.006808 389044.000000 1 0 0
2.726951 11.002202 -14.464644 18.376905 1.327837 2.476906 0.004722 -0.001507 -57419.400000 1 0 0
6.095451 1.040602 -15.544444 16.729229 0.169088 2.762981 0.017458 -0.000425 459595.000000 1 0 0
16.380251 -5.682098 -10.411144 20.223521 -0.333899 2.111575 0.030852 0.000789 411290.000000 1 0 0
4.910651 -4.259498 -11.220744 12.967764 -0.714509 2.616504 -0.006713 0.003989 -1457400.000000 1 0 0
8.785251 -3.676998 -17.141344 19.609350 -0.396388 2.634461 0.014072 -0.005591 552683.000000 1 0 0
13.298151 -9.704898 -8.876444 18.703399 -0.630443 2.065294 0.024453 -0.001127 -565257.000000 1 0 0
2.342851 -7.721698 -13.651844 15.858323 -1.276213 2.607760 -0.007327 0.005823 360641.000000 1 0 0
-7.028049 -2.352498 -18.413544 19.849088 0.323007 2.758939 0.007270 -0.008049 -553562.000000 1 0 0
-1.543049 -6.466798 -15.788244 17.130941 1.336565 2.743035 0.007516 -0.004746 -419290.000000 1 0 0
1.774651 -7.231498 -18.439844 19.886473 -1.330146 2.757812 0.019492 -0.008786 -78158.300000 1 0 0
5.254451 10.887802 -14.502244 18.880375 1.121165 2.446684 0.018719 -0.016789 -1140240.000000 1 0 0
5.276651 -3.337298 -17.652744 18.724315 -0.563950 2.801642 0.008280 -0.004502 -146178.000000 1 0 0
4.197451 13.134802 -13.953744 19.617558 1.261486 2.362126 0.003924 -0.011114 -133140.000000 1 0 0
9.213451 10.324802 -15.627844 20.873876 0.842218 2.416864 0.039287 -0.025938 231739.000000 1 0 0
2.441351 4.044402 -16.357744 17.026249 1.027707 2.860442 0.015703 -0.003439 376489.000000 1 0 0
16.682151 1.617802 -11.583244 20.373585 0.096676 2.175529 0.017255 0.000966 1006930.000000 1 0 0
9.974251 -3.723698 -10.488544 14.945272 -0.357307 2.348713 0.008012 0.000546 228826.000000 1 0 0
14.645451 -2.214798 -11.952744 19.033199 -0.150090 2.249770 0.026405 0.001825 38632.700000 1 0 0
-2.786049 -8.606898 -16.246044 18.595018 1.257741 2.633507 0.018798 0.004331 -161870.000000 1 0 0
13.930351 8.208802 -8.948144 18.479945 0.532496 2.076254 0.008968 -0.005659 -581175.000000 1 0 0
-8.368449 0.223902 -16.687744 18.669811 -0.026749 2.676624 -0.002087 -0.000041 -353320.000000 1 0 0
-3.547149 3.926502 -15.954544 16.809139 -0.836113 2.821350 0.003171 -0.001382 662790.000000 1 0 0
15.098551 3.862602 -9.705944 18.360046 0.250454 2.127800 -0.005125 -0.000393 1114940.000000 1 0 0
5.347151 0.978402 -13.047244 14.134351 0.180974 2.746829 0.002859 0.002763 137611.000000 1 0 0
7.870051 -7.775998 -12.921444 17.010807 -0.779387 2.433497 0.005250 0.005849 -2525290.000000 1 0 0
3.306451 -6.082498 -11.863544 13.735832 -1.072879 2.613348 -0.006768 0.003991 -910724.000000 1 0 0
-3.346949 3.824702 -18.553344 19.236865 -0.851917 2.874219 0.000872 0.003906 -105288.000000 1 0 0
0.694051 5.268302 -17.769644 18.547155 1.439810 2.851017 0.016789 -0.004343 1019180.000000 1 0 0
6.408851 7.154202 -10.209744 14.017662 0.840297 2.386705 0.000728 -0.000788 126252.000000 1 0 0
9.698651 3.622502 -11.641644 15.579288 0.357460 2.414713 0.004858 0.000461 42625.600000 1 0 0
4.376551 1.531802 -17.517044 18.120360 0.336677 2.882821 0.023188 -0.005225 -163098.000000 1 0 0
2.630751 8.104102 -13.292344 15.788721 1.256908 2.571570 0.003403 -0.001796 -1355620.000000 1 0 0
14.360051 -3.617998 -9.796344 17.755825 -0.246812 2.155228 0.021613 0.004866 432018.000000 1 0 0
-1.319649 9.456102 -16.209344 18.812287 -1.432137 2.609281 0.000428 -0.001317 -1850270.000000 1 0 0
-5.390549 2.126002 -15.748344 16.780591 -0.375665 2.789015 0.000729 -0.002677 614905.000000 1 0 0
4.581051 4.282502 -11.966244 13.509879 0.751728 2.658883 0.003469 0.001539 497366.000000 1 0 0
9.188751 3.104002 -17.774844 20.248779 0.325769 2.642094 0.021758 0.000331 978749.000000 1 0 0
-4.244749 14.456302 -13.187444 20.022768 -1.285197 2.289783 0.005930 -0.002447 -52292.500000 1 0 0
15.380251 -4.992098 -7.943344 18.015823 -0.313851 2.027408 0.015977 0.001503 -582268.000000 1 0 0
1.212851 9.198902 -16.869544 19.252852 1.439705 2.638737 0.007762 -0.001223 -510815.000000 1 0 0
0.540051 -3.268998 -12.881644 13.300931 -1.407071 2.889838 0.004528 -0.001222 519504.000000 1 0 0
7.549751 3.632102 -13.045644 15.504184 0.448405 2.570715 0.003380 0.005342 632513.000000 1 0 0
-3.032949 7.691502 -15.069144 17.188283 -1.195192 2.639776 0.000055 -0.003267 274348.000000 1 0 0
12.086351 -5.198698 -11.024844 17.165475 -0.406208 2.268251 0.025794 -0.000414 -1042990.000000 1 0 0
0.590451 -4.425598 -20.060044 20.550910 -1.438162 2.922590 0.032527 -0.015672 -713341.000000 1 0 0
3.459051 -4.570398 -16.182944 17.168030 -0.922933 2.801192 0.008310 -0.007955 714835.000000 1 0 0
-5.722649 4.207402 -14.323444 15.987870 -0.633974 2.681237 -0.007312 -0.003264 654884.000000 1 0 0
12.333951 -7.574798 -9.867044 17.517491 -0.550753 2.169132 0.024234 0.004770 437151.000000 1 0 0
-2.128949 -1.783598 -15.150944 15.403400 0.697359 2.960294 0.012113 -0.002507 -140567.000000 1 0 0
7.074351 5.908202 -14.384544 17.084156 0.695814 2.571742 0.008696 0.003088 -415484.000000 1 0 0
4.084751 -5.467798 -18.606544 19.818816 -0.929182 2.790020 0.018348 -0.007049 12948.700000 1 0 0
7.613651 7.486302 -12.348344 16.324644 0.776965 2.428624 0.006933 -0.006041 -1219660.000000 1 0 0
12.256951 -2.647798 -10.974444 16.663796 -0.212755 2.289727 0.017072 0.000264 -1617580.000000 1 0 0
7.395551 -0.792898 -10.658544 12.997208 -0.106805 2.532319 -0.000308 0.002683 -1377430.000000 1 0 0
5.370951 4.001302 -14.446644 15.923663 0.640287 2.707480 0.007482 0.001313 -1042710.000000 1 0 0
14.596651 2.753602 -12.892844 19.669010 0.186455 2.285628 0.005037 -0.013984 -302935.000000 1 0 0
-6.662949 6.700102 -15.782944 18.395314 -0.788178 2.602135 -0.007145 0.001019 667259.000000 1 0 0
-11.565749 3.742402 -16.097344 20.171678 -0.312944 2.494794 0.027126 -0.013525 -755410.000000 1 0 0
-5.016849 6.682502 -17.825144 19.686552 -0.926819 2.703230 -0.006897 0.006385 -389828.000000 1 0 0
-10.165349 1.569802 -15.565244 18.656779 -0.153216 2.557648 0.007649 -0.008242 -2021.850000 1 0 0
-7.588649 6.097802 -18.001344 20.465072 -0.676897 2.645844 -0.010816 0.006976 -719763.000000 1 0 0
-8.902349 3.824402 -15.934344 18.648892 -0.405756 2.595267 -0.003584 0.011748 -762887.000000 1 0 0
8.964751 13.470902 -11.956644 20.119475 0.983609 2.207169 0.042757 -0.020626 -1071890.000000 1 0 0
13.604051 8.860502 -11.538344 19.917632 0.577298 2.188670 0.000860 -0.014177 408865.000000 1 0 0
8.438751 15.902702 -9.082244 20.164216 1.082931 2.038025 0.043103 -0.013115 18806.400000 1 0 0
7.141651 13.653102 -13.774744 20.667703 1.088856 2.300282 0.030616 -0.013698 -309133.000000 1 0 0
4.901651 16.049402 -12.426744 20.881414 1.274383 2.208199 0.028000 -0.017929 271712.000000 1 0 0
11.066051 10.956702 -11.578044 19.405100 0.780433 2.210116 0.026735 -0.015135 191781.000000 1 0 0
15.802951 9.544102 -10.170844 21.077694 0.543315 2.074349 0.020668 0.001154 831464.000000 1 0 0
13.457251 10.613802 -9.680744 19.684186 0.667816 2.084956 0.048462 -0.011951 384534.000000 1 0 0
10.184651 11.903402 -8.387044 17.769654 0.863055 2.062339 0.015580 -0.002093 192364.000000 1 0 0
5.417951 16.226902 -9.910244 19.770672 1.248548 2.095850 0.019493 -0.017572 -65428.300000 1 0 0
6.770651 14.593102 -11.354644 19.690817 1.136392 2.185415 0.030464 -0.013102 -1177700.000000 1 0 0
10.805651 14.026402 -9.839144 20.256130 0.914379 2.078002 0.040421 -0.005046 -260102.000000 1 0 0
8.289551 -18.690898 -1.287144 20.487144 -1.153355 1.633665 0.043909 0.005152 -374048.000000 1 0 0
7.339251 -17.388698 -3.415944 19.180722 -1.171410 1.749844 0.028398 -0.000651 154289.000000 1 0 0
4.504551 -18.461698 5.787256 19.864985 -1.331478 1.275180 0.015928 0.007168 61733.500000 1 0 0
9.767551 -17.105098 -2.699244 19.881533 -1.051950 1.706983 0.029720 0.000295 -844878.000000 1 0 0
-9.766249 -12.215098 -10.233844 18.690099 0.896346 2.150235 0.025142 -0.001670 781788.000000 1 0 0
-5.190649 -7.012698 -12.225244 15.019233 0.933611 2.521755 0.009599 0.000995 358040.000000 1 0 0
-10.847549 -9.532798 -5.707444 15.527990 0.720977 1.947179 0.013016 -0.000934 -804640.000000 1 0 0
-4.473749 -11.543198 -14.147044 18.798902 1.201055 2.422716 0.016933 0.000986 631781.000000 1 0 0
-2.910349 -15.372698 7.380656 17.299251 1.383691 1.130015 -0.001740 -0.000947 -33747.700000 1 0 0
-4.878449 -11.869298 -11.667344 17.343772 1.180831 2.308663 0.014085 0.002340 -271692.000000 1 0 0
-14.441149 -12.695098 -4.198344 19.680915 0.721143 1.785769 0.019431 -0.001032 88353.000000 1 0 0
-3.252049 -12.305998 -3.234244 13.132926 1.312437 1.819626 0.002639 -0.003106 574058.000000 1 0 0
-2.465449 -17.353698 -1.565544 17.597733 1.429670 1.659877 -0.015674 0.000246 104336.000000 1 0 0
-5.740849 -12.204498 3.733256 13.994439 1.131118 1.300759 0.000288 -0.000761 478673.000000 1 0 0
-8.840449 -10.797298 -12.175044 18.519365 0.884718 2.288189 0.023465 0.003953 281717.000000 1 0 0
-10.014649 -11.746698 -7.752144 17.273501 0.864824 2.036205 0.019802 -0.004723 -159776.000000 1 0 0
-10.943749 -15.060798 6.035456 19.570897 0.942415 1.257297 0.010958 -0.009485 -163871.000000 1 0 0
-9.447549 -15.805898 0.686556 18.426990 1.032053 1.533530 0.004814 0.009110 -482276.000000 1 0 0
-14.637949 -7.539398 -8.014044 18.312208 0.475622 2.023762 0.001891 -0.005963 -519671.000000 1 0 0
-2.473249 -16.516098 5.063756 17.451077 1.422153 1.276393 0.004467 -0.001198 531740.000000 1 0 0
4.342051 -15.944598 5.882856 17.541141 -1.304922 1.228793 0.015048 -0.000596 -305051.000000 1 0 0
4.094351 -14.687898 -10.044744 18.259106 -1.298941 2.153307 -0.002688 0.002931 19378.800000 1 0 0
-7.555949 -13.974098 -0.131044 15.886628 1.075113 1.579045 0.000380 -0.000723 1092640.000000 1 0 0
2.903251 -14.918398 9.441356 17.892085 -1.378590 1.014925 0.005629 -0.002764 -115641.000000 1 0 0
2.234651 -17.301298 10.240656 20.228683 -1.442347 1.039972 0.014830 0.002979 -489449.000000 1 0 0
-8.227949 -16.935898 -5.958944 19.749248 1.118550 1.877303 0.005582 -0.007193 -417945.000000 1 0 0
-6.497549 -9.112198 -7.802144 13.642718 0.951359 2.179605 0.016557 -0.001347 143905.000000 1 0 0
-6.117649 -12.986698 -4.884944 15.163860 1.130559 1.898789 0.000158 -0.004927 311398.000000 1 0 0
2.156551 -19.419198 -4.964544 20.159431 -1.460197 1.819620 0.008431 -0.005257 -66547.000000 1 0 0
-5.539449 -13.002898 8.362056 16.422084 1.168065 1.036546 0.004756 0.000318 923077.000000 1 0 0
2.072351 -17.399698 3.476356 17.864188 -1.452252 1.374948 0.007998 -0.009751 1003690.000000 1 0 0
-17.568449 -9.935798 -2.594544 20.349500 0.514702 1.698643 0.021050 -0.005471 761646.000000 1 0 0
-3.434049 -15.436698 2.483356 16.007855 1.351901 1.415034 -0.002395 0.001658 -299426.000000 1 0 0
-10.035949 -10.217498 -14.434644 20.334121 0.794362 2.360114 0.021977 -0.002596 -109213.000000 1 0 0
6.137051 -14.692698 -5.773844 16.937416 -1.175130 1.918663 0.002029 -0.001466 211687.000000 1 0 0
-7.284849 -12.349398 -10.849844 17.980428 1.037840 2.218586 0.017092 -0.000305 -903398.000000 1 0 0
-7.105749 -14.317398 3.828256 16.435788 1.110112 1.335715 -0.004185 0.002289 726383.000000 1 0 0
3.217551 -15.013698 -3.207544 15.686048 -1.359682 1.776733 0.002338 -0.000019 -173976.000000 1 0 0
-7.570649 -11.503898 7.856256 15.854815 0.988752 1.052372 0.003982 -0.003493 -1437250.000000 1 0 0
-12.629649 -12.237198 -0.983244 17.613172 0.769617 1.626650 0.002091 0.003212 -2444100.000000 1 0 0
-1.951549 -13.636298 3.877756 14.310631 1.428647 1.296395 -0.003394 0.000941 -3804660.000000 1 0 0
-3.173749 -13.934298 5.162556 15.195043 1.346851 1.224142 -0.003893 -0.000852 -163234.000000 1 0 0
-14.387749 -10.140998 -4.398544 18.143714 0.613964 1.815664 0.005714 -0.003026 503841.000000 1 0 0
-6.167449 -8.569398 -10.406544 14.824580 0.946967 2.348969 0.011518 -0.000141 132849.000000 1 0 0
0.751751 -19.307898 2.198756 19.447226 -1.531881 1.457491 0.014761 -0.016322 5518.560000 1 0 0
6.462151 -14.238398 -8.377844 17.739212 -1.144742 2.062670 -0.000076 0.002265 -2489840.000000 1 0 0
-4.135449 -16.692298 -5.955444 18.198958 1.327940 1.904179 -0.002839 -0.004203 -74380.400000 1 0 0
-3.561149 -13.647798 -13.203644 19.320466 1.315555 2.323209 0.021744 0.004402 -2873710.000000 1 0 0
-8.216549 -14.558198 -4.555044 17.326316 1.056970 1.836820 0.004095 -0.005177 -2240430.000000 1 0 0
-4.668749 -14.413198 10.250056 18.292106 1.257540 0.975983 0.003307 0.004624 -930401.000000 1 0 0
-0.156449 -12.100198 -9.947444 15.664958 1.557868 2.258821 0.014354 0.002542 396623.000000 1 0 0
2.272851 -17.326998 6.727856 18.725778 -1.440367 1.203297 0.004563 -0.002326 -900771.000000 1 0 0
-2.935149 -19.197198 -3.410944 19.717557 1.419077 1.744661 -0.014175 0.002073 -624423.000000 1 0 0
0.569251 -15.418898 -3.101944 15.738124 -1.533894 1.769193 0.001920 -0.001966 -149261.000000 1 0 0
6.078351 -17.917398 0.405556 18.924693 -1.243737 1.549365 0.027368 -0.007768 -714419.000000 1 0 0
-7.052649 -16.799398 3.744356 18.600534 1.173325 1.368108 -0.007521 0.006588 815680.000000 1 0 0
-5.241649 -13.545298 -9.693844 17.461976 1.201571 2.159328 0.008120 0.000477 38064.000000 1 0 0
5.705351 -15.166298 -2.262444 16.361121 -1.210986 1.709523 0.008887 0.000776 -851507.000000 1 0 0
-8.792149 -10.189198 -0.463844 13.466135 0.858867 1.605248 0.002900 0.000941 -394076.000000 1 0 0
-7.442649 -17.836498 -3.283044 19.603879 1.175491 1.739058 -0.005769 -0.011118 245783.000000 1 0 0
7.829551 -16.044198 -1.186844 17.892087 -1.116796 1.637179 0.018611 -0.001015 -289871.000000 1 0 0
-8.113749 -10.145998 -9.666444 16.193034 0.896239 2.210491 0.021828 -0.000216 -652618.000000 1 0 0
-9.267349 -14.813798 -6.928544 18.797263 1.011774 1.948292 0.013506 -0.008219 -431841.000000 1 0 0
-11.371349 -10.539398 -12.291044 19.785253 0.747446 2.241098 0.023224 0.011098 -1509210.000000 1 0 0
6.569451 -16.284598 2.397256 17.722660 -1.187349 1.435115 0.019541 -0.004263 535102.000000 1 0 0
-2.310049 -11.274298 -6.057544 13.005382 1.368698 2.055303 0.004101 -0.000424 -244757.000000 1 0 0
-12.246849 -15.265898 -3.406044 19.865399 0.894694 1.743104 0.009018 -0.001990 -360742.000000 1 0 0
-0.442349 -19.762998 -2.949644 19.986800 1.548417 1.718917 -0.005262 -0.004053 -448765.000000 1 0 0
-5.874949 -15.509298 -4.622844 17.216970 1.208697 1.842637 -0.010386 -0.008305 -3614130.000000 1 0 0
1.920251 -15.981898 -1.096244 16.134131 -1.451218 1.638794 0.007322 -0.007122 595879.000000 1 0 0
-13.362949 -11.899498 5.201556 18.633911 0.727533 1.287893 0.023305 -0.001368 443063.000000 1 0 0
1.945051 -15.224498 -8.664144 17.624868 -1.443727 2.084707 0.006224 0.001317 -1368200.000000 1 0 0
-11.851749 -16.515198 0.340356 20.330558 0.948338 1.554054 0.023590 -0.009125 323670.000000 1 0 0
-7.591349 -16.434398 -1.122044 18.137723 1.138075 1.632698 -0.001378 0.002251 524760.000000 1 0 0
-2.991549 -14.438998 -1.796944 14.854732 1.366501 1.692061 -0.005615 -0.004250 361556.000000 1 0 0
-1.806349 -10.487398 -13.230644 16.979351 1.400230 2.464216 0.007604 0.004079 290641.000000 1 0 0
1.506751 -19.613098 4.658056 20.214881 -1.494123 1.338280 0.012691 -0.010129 -266841.000000 1 0 0
-17.361349 -9.277798 2.379756 19.828193 0.490783 1.450487 0.010057 -0.005530 253170.000000 1 0 0
-2.769449 -15.866298 -8.105844 18.030917 1.397988 2.037061 -0.001223 0.005188 -1109310.000000 1 0 0
-10.294149 -12.119098 0.090856 15.901267 0.866642 1.565083 0.003306 0.002454 -434838.000000 1 0 0
-6.963649 -11.442598 -6.615244 14.939442 1.024097 2.029520 0.007439 -0.003206 65536.500000 1 0 0
-2.337449 -13.679898 -6.793044 15.451496 1.401563 2.025990 -0.001402 0.000218 110505.000000 1 0 0
-14.196049 -14.293998 -1.195544 20.181068 0.788836 1.630072 0.018178 -0.000737 168971.000000 1 0 0
-9.606649 -11.373998 -4.447044 15.538074 0.869437 1.861058 0.011488 -0.003121 620783.000000 1 0 0
9.531951 -15.071098 -5.328044 18.611398 -1.006847 1.861137 0.013929 -0.002772 -115.890000 1 0 0
-5.627449 -10.876998 -9.462144 15.476093 1.093348 2.228630 0.012409 -0.001277 -68516.200000 1 0 0
-10.339749 -15.913598 -4.850344 19.587722 0.994602 1.821021 0.015523 0.000652 -2640600.000000 1 0 0
2.157651 -17.401498 -3.263144 17.835799 -1.447434 1.754787 0.009051 -0.003401 402093.000000 1 0 0
-0.456449 -14.567198 -8.198544 16.722073 1.539473 2.083210 0.006939 0.004078 -1954170.000000 1 0 0
-0.586249 -18.314498 -7.164244 19.674627 1.538797 1.943501 0.002578 0.002477 63098.500000 1 0 0
-1.695749 -9.973598 -10.534744 14.605788 1.402383 2.376433 0.006368 0.003474 390397.000000 1 0 0
-4.987549 -17.353898 2.049356 18.172322 1.290937 1.457782 -0.014017 0.005032 348065.000000 1 0 0
0.219651 -12.808498 -2.685144 13.088769 -1.553649 1.777412 0.003091 -0.001369 -1587470.000000 1 0 0
2.682351 -15.032998 3.075156 15.576991 -1.394224 1.372074 0.013623 -0.002054 -338574.000000 1 0 0
-9.424349 -13.127498 6.838756 17.547597 0.948152 1.170462 0.003626 0.000430 -397493.000000 1 0 0
-1.045449 -17.915098 -4.590544 18.523412 1.512507 1.821230 -0.007741 0.000057 -239430.000000 1 0 0
-9.814749 -17.423598 -2.079144 20.105569 1.057798 1.674393 0.021649 -0.009775 492586.000000 1 0 0
1.328051 -16.300798 1.336356 16.409314 -1.489504 1.489267 0.009562 -0.008112 -113973.000000 1 0 0
-0.524049 -18.104898 4.136856 18.578901 1.541859 1.346250 0.011471 -0.007415 39152.600000 1 0 0
-17.276949 -9.199798 -0.124544 19.574084 0.489300 1.577159 0.002064 -0.003734 744493.000000 1 0 0
-14.790849 -7.198598 -10.556044 19.545309 0.452945 2.141329 0.027479 -0.012247 585129.000000 1 0 0
2.880951 -12.784298 -8.777044 15.772592 -1.349148 2.160933 -0.002164 0.003348 584658.000000 1 0 0
-11.451349 -14.384898 1.845756 18.478785 0.898458 1.470744 0.005484 -0.004350 72546.500000 1 0 0
-2.304149 -15.522098 10.499156 18.880597 1.423429 0.981132 -0.001854 0.005280 -136379.000000 1 0 0
-7.020549 -15.878998 1.345056 17.413784 1.154508 1.493478 -0.006722 0.008461 -1433500.000000 1 0 0
-12.658049 -15.162298 -5.923744 20.620675 0.875171 1.862174 0.025402 0.001419 843733.000000 1 0 0
1.030951 -13.806098 -5.055244 14.738613 -1.496261 1.920898 0.004166 0.001578 258332.000000 1 0 0
5.819251 -16.625298 -7.401644 19.106244 -1.234100 1.968599 0.001018 -0.003632 -345818.000000 1 0 0
-6.492849 -12.911298 5.960156 15.632728 1.104846 1.179636 0.003016 -0.002405 436244.000000 1 0 0
-2.558349 -13.538698 0.486656 13.786890 1.384033 1.535491 0.002406 -0.003293 2255200.000000 1 0 0
-4.338649 -15.542998 0.167356 16.138051 1.298587 1.560426 -0.011263 -0.000075 -17948.100000 1 0 0
-17.551949 -7.388298 -1.960444 19.144221 0.398426 1.673380 -0.003879 -0.001387 102636.000000 1 0 0
1.248451 -12.716698 -12.010844 17.536631 -1.472936 2.325263 0.006769 0.005781 -1007270.000000 1 0 0
1.179151 -17.177998 -5.723144 18.144652 -1.502261 1.891693 0.008339 0.000443 -1240950.000000 1 0 0
-12.736249 -6.300798 -9.173944 16.913703 0.459410 2.144084 0.014604 0.000051 388584.000000 1 0 0
-11.471549 -13.591198 -8.850344 19.865691 0.869771 2.032539 0.019271 -0.004173 184661.000000 1 0 0
-4.261749 -9.899298 3.565856 11.352266 1.164268 1.251278 0.003550 -0.001544 -4124820.000000 1 0 0
-7.244249 -14.313898 9.761556 18.779106 1.102281 1.024168 0.008226 -0.000956 -366080.000000 1 0 0
-5.352449 -15.890398 -8.298644 18.708847 1.245897 2.030372 0.001395 -0.001621 55832.800000 1 0 0
-0.223149 -13.463998 2.085656 13.626409 1.554224 1.417132 0.002779 -0.003814 845257.000000 1 0 0
-11.104549 -13.396598 -4.801044 18.050758 0.878675 1.840011 0.018545 0.002818 -1158800.000000 1 0 0
-9.662049 -10.530098 6.688156 15.778770 0.828361 1.133082 0.008200 -0.000791 -121451.000000 1 0 0
-15.527749 -7.998998 -4.974444 18.161499 0.475688 1.848243 0.019616 -0.000735 -462305.000000 1 0 0
-14.615649 -7.313298 5.451456 17.228462 0.463947 1.248842 0.016350 0.002037 680008.000000 1 0 0
-1.686849 -19.349198 -0.035744 19.422621 1.483837 1.572637 -0.005467 -0.002049 -244294.000000 1 0 0
-15.288449 -11.992198 -1.339144 19.476725 0.665154 1.639607 0.009352 0.003704 890427.000000 1 0 0
-4.419449 -12.112698 -6.898244 14.623090 1.220944 2.062055 0.004608 -0.003132 -69905.900000 1 0 0
-7.314449 -18.456998 1.780656 19.933206 1.193486 1.481346 -0.007794 0.010029 -45986.600000 1 0 0
-2.451249 -11.747998 -8.666444 14.803085 1.365095 2.196229 0.004880 0.002235 369648.000000 1 0 0
-1.540549 -20.390298 -5.251644 21.112019 1.495387 1.822187 -0.006672 0.001544 -102464.000000 1 0 0
-5.321949 -8.964198 -13.808144 17.301585 1.035030 2.494907 0.014411 -0.004970 343246.000000 1 0 0
-8.005549 -19.031998 -1.060344 20.674383 1.172628 1.622107 -0.008796 0.006599 183194.000000 1 0 0
-17.227649 -7.365298 5.339856 19.482135 0.404010 1.293153 0.027096 -0.007356 117886.000000 1 0 0
-3.606249 -14.644398 -4.358844 15.699139 1.329346 1.852142 -0.005291 -0.002785 -2760830.000000 1 0 0
-2.978849 -14.851498 -11.017044 18.730077 1.372847 2.199628 0.011215 0.003429 -445953.000000 1 0 0
-0.120549 -16.741098 6.176156 17.844434 1.563596 1.217374 0.013660 -0.005665 -1891670.000000 1 0 0
-11.150049 -11.534898 3.949856 16.522071 0.802362 1.329393 0.008497 -0.002884 -156283.000000 1 0 0
-0.173449 -14.623798 -0.194744 14.626124 1.558936 1.584112 0.000030 -0.000305 563191.000000 1 0 0
-7.214749 -9.415398 -2.469444 12.116125 0.916963 1.776049 0.007130 -0.000807 -120348.000000 1 0 0
-11.019649 -14.371098 -0.770944 18.126100 0.916634 1.613341 0.004050 -0.001741 100819.000000 1 0 0
0.317451 -14.612998 -10.674144 18.099112 -1.549076 2.201559 0.009797 0.001285 -208971.000000 1 0 0
-1.416349 -14.042098 -4.051044 14.683240 1.470272 1.850318 0.000147 -0.001800 -1050950.000000 1 0 0
-11.318649 -8.051998 -7.682944 15.873693 0.618331 2.076022 0.016169 -0.000482 404133.000000 1 0 0
-0.193749 -17.271298 -0.276844 17.274604 1.559579 1.586823 0.001956 -0.005558 -590331.000000 1 0 0
-12.877049 -9.466398 4.541956 16.615067 0.633921 1.293908 0.012841 -0.001600 1392720.000000 1 0 0
4.007351 -16.913398 1.648356 17.459639 -1.338153 1.476246 0.016119 -0.007838 3202060.000000 1 0 0
-3.940449 -18.082398 -7.994044 20.159489 1.356234 1.978541 0.004852 0.000107 -275973.000000 1 0 0
-13.280649 -11.178198 2.580656 17.549574 0.699650 1.423212 0.000639 -0.004820 -583053.000000 1 0 0
-8.515649 -12.213898 4.138456 15.453880 0.961945 1.299694 0.004894 -0.002318 2578670.000000 1 0 0
-8.291749 -9.382698 -5.904744 13.843920 0.847045 2.011441 0.013176 -0.002049 823516.000000 1 0 0
3.717851 -17.456198 -5.402544 18.647487 -1.360950 1.864730 -0.002328 0.002715 -444872.000000 1 0 0
-2.774149 -13.045598 11.280156 17.467841 1.361267 0.868769 0.004644 -0.005967 -13255.100000 1 0 0
0.045951 -16.807198 -9.555644 19.333762 -1.568062 2.087764 0.009880 0.003699 -219934.000000 1 0 0
-6.946249 -10.631998 -14.516644 19.287890 0.992081 2.422844 0.018430 -0.000872 -1081020.000000 1 0 0
-4.628549 -18.857098 -1.550144 19.478618 1.330101 1.650462 -0.012127 0.001990 -1327660.000000 1 0 0
-2.484249 -17.198198 1.020256 17.406621 1.427340 1.512150 -0.006075 -0.004382 -166268.000000 1 0 0
4.096251 -14.731398 -7.434644 17.001979 -1.299585 2.023369 -0.000085 0.002585 -294710.000000 1 0 0
-1.084149 -15.909998 -6.164644 17.096966 1.502759 1.939675 -0.000189 0.002411 -202096.000000 1 0 0
-9.646549 -15.337298 8.230956 19.900685 1.009354 1.144390 0.009484 -0.001372 -654971.000000 1 0 0
-7.269449 -11.953898 -1.652344 14.087967 1.024425 1.688355 -0.002014 -0.002656 1038620.000000 1 0 0
-7.440949 -14.936098 -9.522244 19.212701 1.108601 2.089348 0.016710 -0.003223 562243.000000 1 0 0
-5.021349 -13.162098 -0.629044 14.101435 1.206339 1.615420 -0.004094 -0.002389 1411150.000000 1 0 0
-6.392649 -13.710098 -7.417044 16.847709 1.134492 2.026663 0.005526 -0.003960 114617.000000 1 0 0
5.656751 -15.417598 0.180456 16.423573 -1.219144 1.559808 0.013312 -0.001216 -22536.100000 1 0 0
-14.417049 -12.735698 0.900856 19.257748 0.723555 1.524000 0.002702 -0.004373 1126180.000000 1 0 0
0.874151 -15.288098 11.019056 18.865569 -1.513680 0.947047 -0.003393 0.002554 -262942.000000 1 0 0
-9.351849 -10.849398 2.000256 14.462626 0.859394 1.432046 0.005712 -0.000681 382038.000000 1 0 0
-9.455249 -8.900898 -3.586444 13.471834 0.755208 1.840264 0.009726 -0.002028 331211.000000 1 0 0
-12.216449 -7.210398 -12.424144 18.857116 0.533198 2.290095 0.020161 -0.000703 -102913.000000 1 0 0
-13.293849 -8.191398 -0.559844 15.624943 0.552231 1.606634 0.002004 -0.001921 162266.000000 1 0 0
-11.220649 -9.692398 0.482756 14.835046 0.712451 1.538249 0.001717 -0.000198 610053.000000 1 0 0
-15.838049 -12.060698 2.868156 20.112945 0.650822 1.427706 0.018340 -0.006067 190704.000000 1 0 0
-10.395449 -12.546398 -2.334844 16.459920 0.878881 1.713127 0.010188 -0.002824 678550.000000 1 0 0
-3.378349 -8.947898 -12.069544 15.399741 1.209785 2.471477 0.008052 0.003400 -90154.500000 1 0 0
-0.402249 -15.553198 3.741256 16.001899 1.544939 1.334811 0.005892 -0.005305 -758391.000000 1 0 0
-15.624549 -7.657398 1.232656 17.443673 0.455686 1.500072 -0.002696 -0.003916 270589.000000 1 0 0
-6.150449 -13.396598 -13.407844 19.926544 1.140396 2.308869 0.016374 0.005158 61052.500000 1 0 0
-15.191649 -10.216898 1.161456 18.344487 0.592054 1.507440 0.004044 -0.005628 -244537.000000 1 0 0
-9.897549 -8.361198 -12.529744 18.024028 0.701453 2.339451 0.018651 -0.002640 400897.000000 1 0 0
-13.333249 -11.732798 -6.280444 18.838207 0.721635 1.910692 0.021217 0.002431 -122788.000000 1 0 0
-12.188249 -11.367298 -3.866144 17.108944 0.750561 1.798737 0.005550 0.000977 -1100230.000000 1 0 0
-11.974649 -11.016498 -9.354244 18.768520 0.743748 2.092549 0.028592 -0.002891 639042.000000 1 0 0
-13.158149 -8.399598 -5.881944 16.681948 0.568147 1.931137 0.006789 -0.001146 -2375790.000000 1 0 0
-13.443549 -7.958798 -3.246144 15.956470 0.534528 1.775664 0.007001 -0.004028 279419.000000 1 0 0
-4.393149 -17.042498 -3.353344 17.916234 1.318512 1.759075 -0.011538 -0.000034 -354175.000000 1 0 0
-15.387649 -8.772298 -1.810344 17.804783 0.518134 1.672650 0.008383 -0.001534 -3163970.000000 1 0 0
-9.358549 -15.585498 3.553256 18.523386 1.030035 1.377775 0.001859 0.002989 -638921.000000 1 0 0
4.557551 -17.298598 8.129956 19.649656 -1.313187 1.144232 0.020331 -0.011688 132176.000000 1 0 0
-8.302549 -15.471098 5.911156 18.526440 1.078261 1.246053 0.000437 0.002550 731056.000000 1 0 0
0.750851 -16.077898 8.477456 18.191478 -1.524129 1.086018 0.002657 0.002240 -24642.500000 1 0 0
-10.864249 -7.832898 -10.216144 16.845053 0.624668 2.222419 0.018004 0.001142 894961.000000 1 0 0
-4.897249 -15.901898 5.866656 17.642876 1.272047 1.231819 -0.000288 -0.001626 -336797.000000 1 0 0
-1.336749 -13.162698 -12.084244 17.918495 1.469587 2.310949 0.011616 0.001964 -91312.300000 1 0 0
-6.465249 -14.229298 -2.590144 15.842387 1.144321 1.735028 -0.002232 -0.004200 469943.000000 1 0 0
-17.680249 -6.843398 -7.273344 20.305783 0.369306 1.937126 0.022541 -0.010720 253629.000000 1 0 0
-17.277949 -3.828898 -10.226844 20.439577 0.218082 2.094794 0.024590 -0.016618 965670.000000 1 0 0
-15.257549 -5.198898 -9.114744 18.517556 0.328404 2.085437 0.013196 -0.012172 908666.000000 1 0 0
-16.104649 -5.261698 -5.815944 17.912855 0.315786 1.901470 0.015350 -0.004109 -299813.000000 1 0 0
-15.173649 -4.313998 -12.426344 20.081440 0.277000 2.238007 0.023621 -0.007196 -416254.000000 1 0 0
-18.679849 -5.150998 -5.521544 20.148374 0.269065 1.848392 0.014966 -0.007184 -800011.000000 1 0 0
-17.516849 -4.383298 -7.769444 19.657506 0.245198 1.977126 0.020144 -0.009740 955644.000000 1 0 0
12.243451 -7.928298 8.851856 17.062103 -0.574654 1.025347 0.013456 -0.005644 284619.000000 1 0 0
15.999351 -3.270698 1.713056 16.419844 -0.201649 1.466278 0.006248 -0.006717 494772.000000 1 0 0
12.029751 -2.308898 12.543756 17.532591 -0.189626 0.773523 0.020695 -0.005499 456510.000000 1 0 0
9.686751 -10.023498 5.300956 14.913209 -0.802481 1.207397 0.007367 -0.003403 -58956.800000 1 0 0
16.790951 -1.920898 7.164756 18.356460 -0.113906 1.169825 0.029640 -0.014589 -488265.000000 1 0 0
5.068651 -12.806298 9.073956 16.493307 -1.193921 0.988241 0.003671 0.000020 233813.000000 1 0 0
15.191851 -9.079998 -2.177044 17.831944 -0.538718 1.693188 0.006664 -0.002896 171683.000000 1 0 0
11.077951 -8.612498 6.550656 15.485710 -0.660836 1.134028 0.013432 -0.006007 -2160900.000000 1 0 0
19.786951 -3.295898 3.681556 20.394613 -0.165054 1.389285 0.028351 -0.012669 215038.000000 1 0 0
13.578651 -8.640098 6.957556 17.533929 -0.566684 1.162763 0.013023 -0.002513 -1244500.000000 1 0 0
8.349951 -10.985698 8.805156 16.368813 -0.920879 1.002825 0.013334 -0.002948 -474180.000000 1 0 0
16.791351 -0.039798 -0.518744 16.799409 -0.002370 1.601680 0.006619 -0.004781 -663487.000000 1 0 0
12.466351 -12.389298 2.352656 17.732445 -0.782298 1.437729 0.013769 0.001563 -2929510.000000 1 0 0
10.424351 -11.586598 3.539256 15.982575 -0.838152 1.347501 0.011087 -0.000615 -1296300.000000 1 0 0
16.184851 3.145302 2.365456 16.656462 0.191944 1.428300 0.003623 -0.001479 -403419.000000 1 0 0
18.333251 -3.408198 0.609756 18.657323 -0.183804 1.538109 0.013246 -0.008817 220742.000000 1 0 0
13.561351 -11.882798 -0.152144 18.031481 -0.719524 1.579234 0.017341 0.005514 -358644.000000 1 0 0
16.898051 -7.584698 -0.817044 18.540209 -0.421898 1.614879 0.011017 -0.004683 176447.000000 1 0 0
10.124951 -5.729798 9.762856 15.187448 -0.514975 0.872617 0.015359 -0.008620 -157315.000000 1 0 0
11.303051 -13.311898 6.242256 18.545387 -0.866829 1.227499 0.015997 0.002891 -1020020.000000 1 0 0
13.070051 -1.797298 10.397856 16.797974 -0.136656 0.903334 0.023664 -0.006252 107958.000000 1 0 0
15.509851 -2.115498 -1.381944 15.714343 -0.135561 1.658852 -0.001784 -0.003145 -1169090.000000 1 0 0
10.706451 -12.324598 9.097656 18.689333 -0.855542 1.062393 0.028838 -0.012666 483584.000000 1 0 0
14.490851 1.262502 3.405256 14.939024 0.086905 1.340831 0.003948 -0.001016 1321920.000000 1 0 0
14.941751 -5.859498 5.324556 16.909777 -0.373726 1.250466 0.015568 -0.008061 -638560.000000 1 0 0
14.234451 -3.460998 -3.007444 14.954693 -0.238514 1.773281 -0.002381 -0.002162 970875.000000 1 0 0
14.082151 0.543802 9.560656 17.029646 0.038597 0.974705 0.037593 -0.009728 -188682.000000 1 0 0
15.263551 -3.415398 4.393256 16.246281 -0.220136 1.296971 0.008361 -0.006446 -758347.000000 1 0 0
18.541451 4.784302 -4.221044 19.608472 0.252524 1.787761 -0.006819 -0.002629 515130.000000 1 0 0
18.037851 -5.884498 -5.084044 19.642782 -0.315345 1.832602 0.023444 -0.002541 549801.000000 1 0 0
17.312751 0.072002 5.853556 18.275685 0.004159 1.244759 0.036800 -0.006707 43306.700000 1 0 0
16.966851 -6.687898 4.038256 18.679120 -0.375474 1.352885 0.014763 -0.010667 614989.000000 1 0 0
9.648651 -6.684698 14.290456 18.493210 -0.605885 0.687648 0.021529 -0.007596 -789786.000000 1 0 0
8.665151 -12.361298 5.147756 15.949481 -0.959406 1.242159 0.008976 -0.000799 -1295670.000000 1 0 0
16.952551 -10.198298 -0.652344 19.794440 -0.541580 1.603758 0.021909 -0.000345 -105149.000000 1 0 0
14.976551 -8.939298 0.377356 17.445645 -0.538127 1.549164 0.016616 -0.003106 -371703.000000 1 0 0
10.074551 -13.037898 1.469756 16.542175 -0.912917 1.481830 0.015552 -0.000784 111099.000000 1 0 0
17.037951 -8.221698 8.886456 20.901129 -0.449592 1.131651 0.034217 -0.003456 660635.000000 1 0 0
19.217551 -0.142998 -1.493044 19.275993 -0.007441 1.648330 0.033417 -0.014398 -571325.000000 1 0 0
13.357351 -1.259298 7.840156 15.539392 -0.094000 1.041954 0.016001 -0.007865 -234957.000000 1 0 0
12.803251 -9.882498 -3.064444 16.461404 -0.657354 1.758048 0.008313 -0.002098 -1679060.000000 1 0 0
8.910951 -15.259498 1.351456 17.722409 -1.042254 1.494465 0.020082 0.002433 1199530.000000 1 0 0
11.538351 -8.296498 11.265956 18.135248 -0.623388 0.900499 0.026427 -0.008856 213557.000000 1 0 0
13.832851 -3.981598 -0.434144 14.401020 -0.280261 1.600948 0.002593 -0.002446 49325.800000 1 0 0
7.125951 -13.281198 10.695756 18.481575 -1.078342 0.953631 0.016229 0.001921 -542399.000000 1 0 0
15.400151 -6.865698 1.944556 16.973031 -0.419373 1.455977 0.006446 -0.004405 -557288.000000 1 0 0
15.683451 -6.064798 -2.500344 17.000122 -0.368989 1.718410 0.004718 -0.003055 476736.000000 1 0 0
11.321351 -8.658098 3.907756 14.778573 -0.652880 1.303193 0.012143 -0.003658 895845.000000 1 0 0
10.736951 -14.539198 -0.464444 18.079992 -0.934707 1.596487 0.033805 -0.001141 670590.000000 1 0 0
13.440051 -12.984798 4.741156 19.280003 -0.768172 1.322337 0.012772 0.005246 354737.000000 1 0 0
12.775851 -11.106798 6.514556 18.138985 -0.715626 1.203443 0.011907 -0.004362 -107087.000000 1 0 0
10.904951 -10.661498 1.247056 15.301655 -0.774110 1.489208 0.008367 0.001991 323501.000000 1 0 0
13.998851 -7.577698 12.027856 19.951408 -0.496146 0.923719 0.027417 -0.012170 1072870.000000 1 0 0
15.286651 -1.864398 -4.881644 16.155127 -0.121363 1.877768 0.003089 -0.000974 -20057.700000 1 0 0
12.841551 -11.515298 -7.018244 18.621581 -0.731001 1.957230 0.021697 -0.004417 -186980.000000 1 0 0
17.565251 -5.302198 2.074356 18.464948 -0.293160 1.458218 0.013702 -0.009082 689387.000000 1 0 0
10.668851 -9.760698 9.288156 17.186200 -0.740975 0.999833 0.018990 -0.007599 -1355770.000000 1 0 0
16.510251 1.466302 9.822856 19.267250 0.088579 1.035819 0.046586 -0.014559 828874.000000 1 0 0
18.074851 3.676602 0.696456 18.458134 0.200672 1.533056 -0.001138 0.003922 93448.800000 1 0 0
13.152651 -4.141298 5.757156 14.942805 -0.305037 1.175286 0.010343 -0.010966 -1610620.000000 1 0 0
12.012751 -6.264898 6.772456 15.146660 -0.480716 1.107247 0.013260 -0.008177 -120447.000000 1 0 0
16.452051 -10.289298 3.583656 19.732771 -0.558895 1.388174 -0.000993 -0.001931 -52906.200000 1 0 0
16.319351 -8.303098 -5.646244 19.160969 -0.470654 1.869911 0.022834 0.000711 -81936.800000 1 0 0
13.996251 -0.554698 5.370456 15.001484 -0.039611 1.204677 0.008914 -0.003160 598461.000000 1 0 0
17.977351 -4.244798 5.297056 19.216198 -0.231872 1.291524 0.018933 -0.010119 -45311.500000 1 0 0
13.571351 -13.502098 7.311556 20.492611 -0.782840 1.205967 0.023834 0.003285 366358.000000 1 0 0
14.855351 -13.835898 -1.004544 20.325419 -0.749881 1.620239 0.007877 0.011070 98463.700000 1 0 0
17.913351 -5.965198 8.031956 20.517896 -0.321453 1.168578 0.050773 -0.008102 -700787.000000 1 0 0
14.534451 3.230602 9.358956 17.586276 0.218716 1.009630 0.038357 -0.008314 1638400.000000 1 0 0
18.602551 3.874302 3.149556 19.260966 0.205332 1.406539 0.015122 0.001005 -104312.000000 1 0 0
14.752551 -10.625998 8.244856 19.963148 -0.624209 1.145046 0.015871 -0.003642 -524452.000000 1 0 0
14.917551 -4.773198 10.402756 18.802502 -0.309678 0.984518 0.037630 -0.013524 -34901.200000 1 0 0
17.842351 -7.880598 1.922456 19.599724 -0.415913 1.472552 0.026896 -0.007167 -155600.000000 1 0 0
18.277551 -5.828298 -2.037044 19.292161 -0.308684 1.676583 0.007174 -0.005592 -82207.700000 1 0 0
14.163151 -12.997798 -5.305144 19.941970 -0.742519 1.840068 0.026265 -0.010486 -2717780.000000 1 0 0
15.430951 -1.664998 9.450356 18.171288 -0.107484 1.023862 0.048008 -0.013716 -382566.000000 1 0 0
13.076251 -10.047798 10.310456 19.448704 -0.655174 1.012036 0.014820 -0.009614 -1467850.000000 1 0 0
16.579651 2.259702 4.743056 17.392173 0.135459 1.294585 0.017873 -0.004209 -2762510.000000 1 0 0
14.855251 2.288802 -0.054844 15.030639 0.152871 1.574445 0.002400 -0.000329 -1151140.000000 1 0 0
15.005451 -10.059798 -7.065844 19.398177 -0.590589 1.943627 0.024209 -0.002458 114019.000000 1 0 0
16.263251 -0.088298 -3.097344 16.555805 -0.005429 1.758990 0.005205 0.000641 237284.000000 1 0 0
12.182451 2.500302 13.607656 18.434531 0.202427 0.740456 0.057153 -0.003790 -16242.500000 1 0 0
17.554451 -3.077198 9.489356 20.190983 -0.173531 1.081528 0.042297 -0.016259 -1049620.000000 1 0 0
7.769751 -18.164998 4.401456 20.241270 -1.166614 1.351596 0.033732 -0.013209 -232460.000000 1 0 0
6.879951 -11.235498 6.616656 14.742805 -1.021352 1.105368 0.006243 -0.001793 38859.000000 1 0 0
17.946651 2.121302 -1.323144 18.119959 0.117655 1.643883 0.002028 -0.001924 370490.000000 1 0 0
17.446651 -2.315798 3.640056 17.972161 -0.131965 1.366847 0.013100 -0.005946 -1360420.000000 1 0 0
12.532951 -13.536598 -2.013544 18.557174 -0.823878 1.679515 0.022404 0.002510 -1035980.000000 1 0 0
14.934751 -8.295598 4.446956 17.653305 -0.507022 1.316148 0.008733 -0.002459 -7831.280000 1 0 0
11.372251 -3.065698 14.998956 19.070797 -0.263318 0.665694 0.012845 -0.006111 181605.000000 1 0 0
12.065051 -13.897098 -6.313344 19.456441 -0.855847 1.901265 0.019579 -0.010436 -521448.000000 1 0 0
10.587651 -12.059198 -1.253244 16.096374 -0.850285 1.648734 0.019376 -0.004273 -780634.000000 1 0 0
13.169451 -8.164998 1.968856 15.619796 -0.554992 1.444411 0.008240 0.002147 -746763.000000 1 0 0
8.737351 -7.860298 10.056956 15.468289 -0.732605 0.862993 0.018013 -0.005769 -1291650.000000 1 0 0
15.609851 -3.912498 8.040556 17.989598 -0.245584 1.107437 0.036706 -0.012662 -580574.000000 1 0 0
10.080151 -17.284198 5.237056 20.682836 -1.042821 1.314802 0.032674 -0.011751 -1101000.000000 1 0 0
15.282851 -6.391498 8.376556 18.562960 -0.396109 1.102630 0.032016 -0.000858 527308.000000 1 0 0
16.461651 -4.992498 -0.266244 17.204124 -0.294464 1.586273 -0.000260 -0.004088 -765202.000000 1 0 0
13.926451 -10.670698 3.657556 17.921707 -0.653800 1.365267 0.012768 0.001452 -699113.000000 1 0 0
14.936251 -10.096998 -4.486944 18.578849 -0.594441 1.814716 0.019416 -0.008946 319961.000000 1 0 0
13.689151 -6.620098 -0.058544 15.205985 -0.450443 1.574646 0.003954 -0.002150 -243694.000000 1 0 0
17.703351 -0.986498 -4.763844 18.359630 -0.055666 1.833274 0.006484 -0.003186 -1034140.000000 1 0 0
14.376751 0.196902 -1.513244 14.457512 0.013695 1.675657 -0.001243 -0.000244 -1603150.000000 1 0 0
4.799651 -12.879098 11.736256 18.073393 -1.214070 0.864045 -0.004279 0.003954 -972273.000000 1 0 0
11.933151 -7.310198 13.606656 19.518714 -0.549630 0.799440 0.028471 -0.012707 -523678.000000 1 0 0
12.077051 -5.753898 11.484056 17.630827 -0.444616 0.861418 0.019810 -0.010880 629870.000000 1 0 0
13.223551 -4.757998 8.430856 16.388416 -0.345390 1.030442 0.017747 -0.009073 -1269760.000000 1 0 0
15.287251 -1.141498 3.045856 15.629469 -0.074532 1.374662 0.006984 -0.003258 293719.000000 1 0 0
15.158451 -10.455298 5.830956 19.315588 -0.603803 1.264134 0.014471 -0.001920 -1132800.000000 1 0 0
13.695351 -8.068798 -5.752144 16.904299 -0.532413 1.918008 0.018384 -0.004637 -845916.000000 1 0 0
9.507051 -2.146098 13.401156 16.570478 -0.222016 0.628795 0.010737 -0.012112 -79142.900000 1 0 0
10.010851 -9.188698 13.701056 19.296846 -0.742603 0.781276 0.032744 -0.005032 -213831.000000 1 0 0
20.302951 6.207702 -2.911844 21.429517 0.296727 1.707098 0.021641 0.000042 -132119.000000 1 0 0
11.053551 -3.564698 10.440356 15.616949 -0.311963 0.838570 0.014272 -0.008238 915160.000000 1 0 0
10.111551 -14.045298 -2.980044 17.561166 -0.946823 1.741317 0.017370 -0.002580 912255.000000 1 0 0
14.892851 -12.948898 2.609856 19.906841 -0.715690 1.439314 0.009191 0.010299 -351170.000000 1 0 0
11.272351 -0.593698 14.275756 18.199330 -0.052620 0.669050 0.033239 -0.003668 423129.000000 1 0 0
19.027651 -1.932298 5.774256 19.978171 -0.101205 1.277585 0.043322 -0.010394 603204.000000 1 0 0
18.810451 -0.468298 7.859456 20.391749 -0.024891 1.175130 0.040176 -0.013439 49384.600000 1 0 0
18.912751 0.835602 0.801156 18.948146 0.044153 1.528502 0.020318 -0.007841 415488.000000 1 0 0
18.562051 0.951602 3.705956 18.952293 0.051221 1.373987 0.030357 -0.005108 267729.000000 1 0 0
16.635751 -3.924698 -4.093244 17.575725 -0.231683 1.805847 0.004079 -0.001389 -1145450.000000 1 0 0
10.999851 -8.242998 15.878356 21.001570 -0.643100 0.713531 0.033030 -0.009288 278141.000000 1 0 0
16.621751 -7.560398 6.422156 19.356816 -0.426880 1.232609 0.021973 -0.007360 816515.000000 1 0 0
18.846951 2.084702 5.959956 19.876484 0.110164 1.266261 0.029280 -0.002719 40052.100000 1 0 0
15.244351 1.695502 7.548056 17.094974 0.110766 1.113486 0.025005 -0.005759 -43145.700000 1 0 0
8.717551 -15.707698 3.785556 18.359137 -1.064133 1.363112 0.017691 -0.011257 691972.000000 1 0 0
11.462551 -15.250898 1.919656 19.174594 -0.926273 1.470514 0.021900 0.004601 377455.000000 1 0 0
7.911351 -16.107498 6.099356 18.953710 -1.114246 1.243163 0.017827 -0.009753 -323101.000000 1 0 0
14.589851 -11.709398 -2.493144 18.872984 -0.676307 1.703285 0.011614 0.000904 752828.000000 1 0 0
13.622451 -4.882698 3.206756 14.822119 -0.344165 1.352723 0.006808 -0.002209 -879142.000000 1 0 0
-1.055249 10.263402 -5.531744 11.706885 -1.468340 2.062945 -0.001801 0.000777 -1616620.000000 1 0 0
8.216351 -1.684698 -7.943244 11.551699 -0.202239 2.329010 -0.001590 0.002938 -1415040.000000 1 0 0
2.855551 -10.144798 7.617656 13.003838 -1.296416 0.944929 0.000772 0.000378 725212.000000 1 0 0
-6.215049 1.345802 8.429256 10.558900 -0.213247 0.646316 -0.005421 0.002200 -124293.000000 1 0 0
7.162451 -6.238398 -7.121544 11.871592 -0.716552 2.214149 -0.001337 -0.002756 -342089.000000 1 0 0
-11.407849 -4.477898 -4.136244 12.934415 0.374048 1.896300 0.006101 -0.002038 141006.000000 1 0 0
2.032951 -3.158598 3.004556 4.810093 -0.998916 0.896131 0.001923 -0.001980 2346590.000000 1 0 0
-3.639149 -4.220898 8.842156 10.451943 0.859277 0.562392 -0.003370 0.000496 -2565710.000000 1 0 0
-4.859749 -1.134198 -2.399544 5.537271 0.229282 2.018996 0.001869 0.000024 -327657.000000 1 0 0
4.875451 -5.171998 -3.744744 8.033847 -0.814904 2.055697 0.004577 -0.002732 382539.000000 1 0 0
2.644251 14.250302 -8.734144 16.921833 1.387326 2.113142 0.001406 -0.008072 477264.000000 1 0 0
5.323951 -5.517098 13.779656 15.769013 -0.803213 0.507743 0.004067 -0.005291 -335347.000000 1 0 0
-4.756749 -0.833598 9.893456 11.009179 0.173484 0.454102 -0.000596 0.002359 -5363810.000000 1 0 0
-0.980749 12.007602 -2.711444 12.348939 -1.489300 1.792169 -0.005886 0.000196 -384239.000000 1 0 0
3.031351 9.464202 -10.518944 14.470949 1.260824 2.384594 0.004173 0.001631 -436100.000000 1 0 0
-10.670849 2.655802 1.144456 11.055771 -0.243928 1.467094 -0.008776 0.001455 47663.300000 1 0 0
5.627451 -9.063498 -0.673744 10.689675 -1.015157 1.633866 0.001292 -0.003566 442030.000000 1 0 0
-7.018849 5.481702 9.421356 12.964384 -0.663046 0.757275 0.000145 -0.001030 -355757.000000 1 0 0
-5.632049 -1.806598 5.153056 7.844601 0.310402 0.854107 -0.003591 -0.000411 397887.000000 1 0 0
6.627551 -3.791198 -7.341644 10.592325 -0.519604 2.336591 -0.001272 -0.001073 350806.000000 1 0 0
6.259851 4.798502 11.083756 13.603713 0.654011 0.618482 0.004010 0.002317 577246.000000 1 0 0
3.785351 -9.810598 3.521356 11.089485 -1.202553 1.247662 -0.001837 -0.000730 509305.000000 1 0 0
-6.611449 6.590902 -5.730844 10.954169 -0.783842 2.121358 -0.001016 -0.002745 61000.800000 1 0 0
-11.110449 8.445702 5.229956 14.903838 -0.649971 1.212250 -0.001183 -0.007967 446309.000000 1 0 0
-9.112849 -5.532398 5.157156 11.842622 0.545623 1.120231 0.004975 -0.000933 -1404230.000000 1 0 0
3.355051 9.748902 -8.053544 13.082699 1.239346 2.233927 0.003643 -0.002255 898273.000000 1 0 0
-8.083449 -8.536998 6.137756 13.262524 0.812680 1.089657 0.007517 -0.001808 -1115660.000000 1 0 0
-7.751649 -5.717398 -7.562844 12.246359 0.635500 2.236431 0.016166 -0.003519 -466911.000000 1 0 0
9.268651 -1.593098 6.903756 11.666521 -0.170217 0.937558 0.003856 -0.007382 1760620.000000 1 0 0
-3.987549 -0.354298 -4.785044 6.238807 0.088618 2.444919 0.005265 -0.003806 -1984750.000000 1 0 0
9.083651 1.074502 -4.463844 10.178073 0.117742 2.024808 -0.000217 0.001979 -2958900.000000 1 0 0
-2.057349 -10.707898 10.626756 15.225627 1.380976 0.798263 -0.004203 -0.006555 -43787.400000 1 0 0
-12.842849 0.264602 -2.598444 13.105750 -0.020600 1.770386 -0.003049 0.000395 -367133.000000 1 0 0
-9.810249 -5.102798 -6.082844 12.620639 0.479637 2.073705 0.012508 -0.003091 -268259.000000 1 0 0
-5.662649 8.393602 -0.175844 10.126651 -0.977295 1.588162 0.000195 0.000390 289594.000000 1 0 0
6.345751 9.544602 0.281356 11.465040 0.984051 1.546254 0.007190 0.000049 850358.000000 1 0 0
-0.560549 -12.039698 0.008456 12.052744 1.524272 1.570095 0.004056 -0.002164 -372981.000000 1 0 0
6.082051 4.600302 2.359856 7.982671 0.647568 1.270689 -0.001657 0.001444 524674.000000 1 0 0
3.456451 -7.509298 -8.291944 11.708670 -1.139419 2.357725 -0.007422 0.001183 1164930.000000 1 0 0
-6.544549 -9.927298 4.626956 12.758962 0.987948 1.199693 0.005419 -0.000869 -2606030.000000 1 0 0
-0.090249 6.554402 -9.242644 11.331142 -1.557028 2.524709 0.005313 -0.002474 -1797480.000000 1 0 0
-17.238549 -2.751098 4.248356 17.966208 0.158255 1.332072 0.018316 -0.001184 804841.000000 1 0 0
-8.402949 0.907602 -9.153444 12.458685 -0.107593 2.396026 0.001733 -0.002328 1714930.000000 1 0 0
-10.076049 -5.820998 -11.854044 16.611115 0.523866 2.365450 0.013257 0.003093 -1149710.000000 1 0 0
2.291151 9.346302 6.567056 11.650277 1.330397 0.971959 0.001054 0.004661 592371.000000 1 0 0
-11.344049 1.638902 -1.199744 11.524445 -0.143480 1.675090 -0.003356 -0.001502 -2147470.000000 1 0 0
-6.019149 -5.398098 -3.007944 8.626549 0.731056 1.926963 0.008789 -0.000523 483184.000000 1 0 0
-6.843049 -8.308698 1.403756 10.855060 0.881830 1.441115 0.004559 0.000280 -226618.000000 1 0 0
-0.035549 11.009902 -7.836944 13.514321 -1.567568 2.189401 0.001531 0.001966 634239.000000 1 0 0
-2.829649 9.164002 -4.311244 10.515353 -1.271305 1.993245 0.000352 -0.001952 130598.000000 1 0 0
3.432451 -4.754998 9.324956 11.015741 -0.945548 0.561397 -0.000015 -0.003164 -931752.000000 1 0 0
-8.996349 1.581202 -0.415444 9.143691 -0.173983 1.616247 -0.006250 -0.000076 -1432840.000000 1 0 0
2.500951 3.590202 -10.536944 11.409272 0.962353 2.748013 0.002097 -0.000063 -623704.000000 1 0 0
-13.608849 0.572802 1.076556 13.663376 -0.042066 1.491923 -0.007703 0.000422 -715203.000000 1 0 0
9.384151 -12.545798 -5.116344 16.481393 -0.928582 1.886443 0.013400 -0.002463 -2306840.000000 1 0 0
-4.740049 9.442902 -8.327744 13.453169 -1.105574 2.238287 -0.003051 -0.001666 -1425270.000000 1 0 0
-2.330049 7.140602 8.494556 11.339083 -1.255380 0.724034 0.003815 0.001341 235905.000000 1 0 0
-10.737449 -1.249898 -4.510144 11.713089 0.115884 1.966060 0.002388 -0.001271 -1632560.000000 1 0 0
2.778751 -7.206998 9.648156 12.359175 -1.202797 0.675095 -0.005085 0.000299 -896911.000000 1 0 0
-16.097749 -6.312298 3.379356 17.618248 0.373698 1.377790 0.011504 -0.006891 -296413.000000 1 0 0
-10.740149 0.025002 6.229356 12.415970 -0.002328 1.045209 -0.009430 0.001300 -1443680.000000 1 0 0
-8.430849 9.989102 9.392656 16.096066 -0.869793 0.947719 0.007841 -0.009624 446579.000000 1 0 0
0.254251 -6.088798 -3.748544 7.154697 -1.529063 2.122252 -0.005047 0.003848 162084.000000 1 0 0
4.944151 1.432202 -2.912944 5.914480 0.281958 2.085768 -0.002272 0.001900 201327.000000 1 0 0
0.361451 5.452202 3.802456 6.657013 1.504599 0.962835 0.001662 0.002581 -1593170.000000 1 0 0
5.984651 -11.368498 -1.535944 12.939008 -1.086234 1.689783 0.000562 -0.001591 -1704820.000000 1 0 0
6.279851 -13.472298 5.350056 15.797546 -1.134609 1.225300 0.008705 -0.003215 231813.000000 1 0 0
8.110751 -8.258698 -5.944244 13.012472 -0.794436 2.045204 0.000121 -0.002626 686236.000000 1 0 0
-13.106849 -1.273998 -4.731244 13.992756 0.096897 1.915716 0.000672 -0.001600 -2523310.000000 1 0 0
-6.786649 -1.395598 -7.096844 9.918240 0.202812 2.368185 0.010381 -0.004337 -1007770.000000 1 0 0
-5.647749 12.845102 -4.566844 14.756346 -1.156557 1.885446 -0.001179 0.002808 147526.000000 1 0 0
-4.267049 6.976102 -6.687544 10.563945 -1.021843 2.256288 0.002219 -0.002838 -2581960.000000 1 0 0
-9.416549 -3.679398 -8.152044 12.987116 0.372496 2.249395 0.011356 -0.001746 633094.000000 1 0 0
-2.181049 -6.333198 9.086156 11.288251 1.239134 0.635253 -0.005137 0.002581 -60020.800000 1 0 0
7.426951 -6.000998 10.084056 13.887396 -0.679602 0.758120 0.012080 -0.004546 13719.300000 1 0 0
9.599451 -5.086998 12.184256 16.324311 -0.487301 0.728180 0.014891 -0.004030 -93392.600000 1 0 0
-6.474549 2.840202 -8.992544 11.439072 -0.413394 2.475311 0.001019 -0.003214 -467851.000000 1 0 0
7.527651 5.432902 8.855956 12.830039 0.625159 0.808960 0.000785 0.001982 -473697.000000 1 0 0
12.769451 3.361202 11.238556 17.339599 0.257384 0.865652 0.034241 -0.001463 -768286.000000 1 0 0
-7.464049 -7.254498 -3.933044 11.126932 0.771162 1.932075 0.012833 -0.003033 -1681460.000000 1 0 0
2.191951 1.393702 -5.892344 6.439470 0.566347 2.726392 0.002280 0.001615 -627910.000000 1 0 0
12.831151 6.856902 -7.087944 16.183154 0.490783 2.024150 -0.001152 -0.000230 173097.000000 1 0 0
0.783651 -7.859498 1.039656 7.966600 -1.471417 1.439921 -0.003329 0.000832 1388040.000000 1 0 0
-10.113749 -6.122098 -8.583244 14.609589 0.544325 2.198772 0.013541 0.001869 -158474.000000 1 0 0
-6.751749 0.223102 3.015156 7.397774 -0.033031 1.150998 -0.002610 -0.001028 13381.400000 1 0 0
10.745251 -8.028898 1.365556 13.482892 -0.641709 1.469342 0.003127 -0.002711 -463781.000000 1 0 0
6.333751 1.070502 10.582356 12.379363 0.167433 0.545557 0.001429 -0.003266 -711384.000000 1 0 0
-12.838949 5.320402 1.875456 14.023645 -0.392854 1.436659 -0.005875 -0.000912 -356799.000000 1 0 0
2.090851 7.425802 3.631056 8.526357 1.296336 1.130881 -0.001007 0.002841 366486.000000 1 0 0
10.148051 -9.473698 -0.793144 13.905502 -0.751044 1.627865 0.005571 -0.002758 916352.000000 1 0 0
6.912351 -11.697898 -9.085544 16.345291 -1.037091 2.160182 -0.003243 0.000276 -450732.000000 1 0 0
10.399451 3.564402 11.969156 16.251592 0.330201 0.742928 0.011771 0.000078 80901.400000 1 0 0
-11.079749 -3.114898 -1.879644 11.661753 0.274060 1.732683 -0.000819 0.000861 279425.000000 1 0 0
12.354151 0.974102 6.876956 14.172736 0.078685 1.064177 0.006986 -0.002938 -77028.300000 1 0 0
-9.493749 9.159402 3.118156 13.555397 -0.767476 1.338687 0.000670 -0.005749 1164620.000000 1 0 0
-6.624349 7.672602 -8.748844 13.390037 -0.858587 2.282843 -0.002570 -0.004100 -889078.000000 1 0 0
8.499051 5.417202 12.127756 15.769033 0.567459 0.693385 0.010023 0.005281 -2690230.000000 1 0 0
1.410551 4.792902 -2.716544 5.686930 1.284577 2.068811 -0.000980 -0.001138 1442020.000000 1 0 0
1.316251 0.590702 9.472756 9.581991 0.421835 0.151141 0.005623 -0.003345 647606.000000 1 0 0
2.602751 12.550402 -3.921444 13.403903 1.366311 1.867699 0.005329 -0.005120 371064.000000 1 0 0
2.054551 0.636002 12.985356 13.162263 0.300202 0.164138 0.003461 -0.005841 145078.000000 1 0 0
-12.224349 -1.802398 0.773556 12.380700 0.146389 1.508275 -0.007059 0.001035 -193454.000000 1 0 0
3.379351 8.657402 -1.274144 9.380515 1.198643 1.707046 0.004195 -0.001609 -561489.000000 1 0 0
3.606851 -2.923698 -5.758044 7.396787 -0.681168 2.462992 -0.004505 0.002035 -1360680.000000 1 0 0
-7.793849 -7.129698 9.331956 14.094754 0.740924 0.847196 0.003256 -0.001370 -24796.700000 1 0 0
-6.965549 10.852502 -3.431044 13.344202 -1.000180 1.830836 -0.001873 0.003389 824651.000000 1 0 0
0.352051 0.610902 2.564356 2.659523 1.048000 0.268324 0.000994 -0.000579 -2510670.000000 1 0 0
-7.094449 4.661602 -1.916744 8.702623 -0.581334 1.792866 0.004141 -0.003654 -1396120.000000 1 0 0
-6.894349 -3.856898 -5.999644 9.919851 0.510054 2.220326 0.008657 -0.002425 -212764.000000 1 0 0
2.785551 -6.094298 13.445656 15.022831 -1.142074 0.462332 -0.003498 -0.005164 -628476.000000 1 0 0
-5.334849 -0.558898 -11.826844 12.986424 0.104383 2.715792 0.008943 -0.002492 -628891.000000 1 0 0
11.817151 2.318702 -0.500444 12.052879 0.193753 1.612329 -0.002078 0.003167 -1645350.000000 1 0 0
6.066251 -10.903998 10.787356 16.494352 -1.063104 0.857932 0.002384 -0.001390 531933.000000 1 0 0
-8.141449 6.369302 -10.486744 14.724910 -0.663873 2.363391 -0.004006 -0.004242 206986.000000 1 0 0
3.117551 7.934702 11.191756 14.068903 1.196425 0.650971 0.006101 0.002269 1093920.000000 1 0 0
-6.155749 -9.988298 -0.459444 11.741824 1.018481 1.609935 0.005806 0.001647 -1173410.000000 1 0 0
11.307551 4.210802 6.065856 13.505043 0.356479 1.104977 -0.001374 0.000967 130208.000000 1 0 0
-7.892449 10.735302 1.412456 13.398973 -0.936843 1.465185 0.002260 -0.002446 379842.000000 1 0 0
4.390951 -2.543398 -3.448844 6.135459 -0.525012 2.167739 0.001284 -0.000552 -5898250.000000 1 0 0
6.487651 6.368302 6.283956 11.051379 0.776115 0.965978 -0.000330 0.002222 -5114230.000000 1 0 0
-0.381649 10.337402 -10.216444 14.539025 -1.533894 2.349969 -0.001715 0.000598 -330683.000000 1 0 0
14.114451 6.396302 -2.425244 15.684776 0.425490 1.726043 -0.000113 0.006259 757151.000000 1 0 0
1.462651 9.399302 -6.206544 11.358143 1.416422 2.148904 0.001628 -0.001858 129707.000000 1 0 0
0.602651 7.382402 7.325756 10.417761 1.489343 0.790910 0.000602 0.003984 -36400.300000 1 0 0
12.238951 6.432002 1.996256 13.969524 0.483867 1.427405 -0.003940 0.004461 -1914250.000000 1 0 0
-6.764349 6.659302 -3.175544 10.009335 -0.777573 1.893633 -0.000801 -0.001765 46775.100000 1 0 0
1.026251 9.671402 11.238356 14.862364 1.465080 0.713368 -0.000720 0.001014 -362886.000000 1 0 0
-3.344949 13.626702 -10.913744 17.775980 -1.330086 2.231864 -0.002506 0.005376 -261411.000000 1 0 0
-10.057249 -5.484298 -2.325344 11.689012 0.499234 1.771067 0.003332 0.000055 -649389.000000 1 0 0
-4.037849 3.953802 -12.539444 13.754069 -0.774882 2.718174 0.001186 -0.005325 -531468.000000 1 0 0
-3.080149 8.541202 2.488056 9.414344 -1.224690 1.303335 0.001631 0.001260 -3145360.000000 1 0 0
7.161951 8.694802 7.266656 13.405126 0.881767 0.997885 -0.002147 0.005733 -600511.000000 1 0 0
-1.326649 -2.233098 -8.200044 8.601595 1.034738 2.834831 0.002749 -0.000931 -1387210.000000 1 0 0
0.831451 -1.267498 4.897056 5.126307 -0.990230 0.300193 0.004213 -0.001420 1621280.000000 1 0 0
2.702651 -8.785198 -6.066844 11.013202 -1.272348 2.154203 -0.006205 0.001142 185966.000000 1 0 0
5.486751 3.896502 8.768656 11.053348 0.617516 0.654581 0.000127 -0.000425 223105.000000 1 0 0
6.166551 -7.439298 -2.763644 10.050236 -0.878671 1.849368 0.002263 -0.004485 1194520.000000 1 0 0
1.840851 2.284902 -8.366744 8.866336 0.892614 2.804297 0.001428 -0.001001 174467.000000 1 0 0
-5.360549 10.967902 -0.550944 12.220224 -1.116190 1.615896 -0.003762 0.003007 623066.000000 1 0 0
-5.416049 3.273002 -3.373644 7.171304 -0.543587 2.060582 0.003360 -0.002651 -322686.000000 1 0 0
1.954751 13.705802 -6.224644 15.179468 1.429130 1.993327 -0.004931 -0.002317 766608.000000 1 0 0
-5.331849 -2.519098 2.675356 6.475492 0.441376 1.144885 -0.006527 0.000495 54990.400000 1 0 0
10.502551 -3.470898 -1.925144 11.227506 -0.319182 1.743115 0.000883 -0.002965 -255816.000000 1 0 0
2.277951 -3.262698 7.049456 8.095004 -0.961293 0.513887 -0.000139 -0.001374 -1277980.000000 1 0 0
-2.872449 9.993702 -11.742144 15.684482 -1.290915 2.416816 -0.002975 -0.001488 -3059510.000000 1 0 0
0.478251 -1.938598 9.164556 9.379551 -1.328926 0.214522 0.003294 -0.003246 667970.000000 1 0 0
9.428751 2.667102 4.969856 10.987004 0.275667 1.101409 -0.003802 -0.000704 -1388250.000000 1 0 0
13.456751 2.124802 -5.131144 14.557732 0.156606 1.931004 0.000881 -0.000200 -1981830.000000 1 0 0
-6.484649 3.731902 7.664156 10.710605 -0.522208 0.773361 -0.003246 0.002359 98667.500000 1 0 0
10.595751 -0.053398 1.837456 10.754024 -0.005040 1.399092 -0.001818 0.001070 944086.000000 1 0 0
15.238251 6.754802 -4.624844 17.298001 0.417251 1.841452 -0.007744 0.005742 -911910.000000 1 0 0
8.006551 -4.955198 -9.248444 13.198203 -0.554196 2.347224 0.004135 0.002684 447020.000000 1 0 0
4.457551 5.637402 -2.187244 7.512263 0.901746 1.866232 0.000922 -0.000931 124877.000000 1 0 0
-1.612449 -10.567898 1.484156 10.792738 1.419384 1.432845 -0.000240 -0.001636 -763005.000000 1 0 0
-2.811649 12.278202 -13.006344 18.105927 -1.345682 2.372220 -0.000387 0.001020 -423639.000000 1 0 0
8.287451 4.168402 -9.617544 13.362431 0.466027 2.374231 -0.000491 0.003830 -1387960.000000 1 0 0
4.140151 7.625502 -9.077244 12.557288 1.073394 2.378738 0.002369 -0.002582 -1376380.000000 1 0 0
-1.722149 -4.970798 -2.508144 5.827986 1.237285 2.015690 -0.001174 0.001968 -928492.000000 1 0 0
-3.219949 -9.160798 6.964256 11.949442 1.232793 0.948614 -0.000369 -0.002103 -1423900.000000 1 0 0
1.129951 7.206802 -1.424244 7.432580 1.415273 1.763611 0.000241 -0.001796 2134620.000000 1 0 0
0.330251 -0.866198 -2.102844 2.298112 -1.206544 2.726381 0.002420 -0.000466 -1785050.000000 1 0 0
4.045751 -6.583698 7.457756 10.739242 -1.019776 0.803155 0.002707 -0.002244 -161265.000000 1 0 0
-13.829049 3.933002 6.042556 15.595627 -0.277085 1.172930 -0.013332 0.002329 -1218470.000000 1 0 0
4.340851 6.378402 12.699956 14.859875 0.973240 0.545925 0.005412 0.003368 -2638450.000000 1 0 0
8.358451 10.040502 -7.212144 14.922815 0.876566 2.075213 0.011363 -0.007060 145998.000000 1 0 0
12.487651 5.179802 9.452056 16.495852 0.393194 0.960640 0.017749 -0.000190 698557.000000 1 0 0
7.530851 3.945402 0.436956 8.512981 0.482583 1.519446 -0.001189 0.004774 -1586670.000000 1 0 0
-10.787549 -7.593698 -0.998944 13.230017 0.613360 1.646374 0.007755 -0.000331 -1873830.000000 1 0 0
10.489051 6.822402 0.153956 12.513555 0.576678 1.558493 -0.002086 0.005069 -699328.000000 1 0 0
14.661051 3.576002 4.360656 15.708263 0.239240 1.289499 0.007478 -0.001101 -123135.000000 1 0 0
2.174751 5.599302 8.293956 10.240675 1.200332 0.626809 -0.000406 0.002329 1264090.000000 1 0 0
4.252251 0.038002 11.685256 12.434963 0.008937 0.349016 0.003107 -0.005310 -305561.000000 1 0 0
-1.566249 -1.450998 -0.411844 2.174430 0.747220 1.761350 0.002840 -0.002213 -710013.000000 1 0 0
3.073551 -5.210298 -9.449644 11.220058 -1.037837 2.572165 -0.009081 0.004104 14952.400000 1 0 0
-3.917549 -5.381398 -1.330044 6.787905 0.941538 1.768016 0.001881 -0.000084 -1713570.000000 1 0 0
-1.274249 -8.743698 8.670456 12.379531 1.426082 0.794857 -0.006138 -0.002009 -475762.000000 1 0 0
3.938951 8.486302 -6.031744 11.131693 1.136234 2.143437 0.004464 -0.002025 670119.000000 1 0 0
-14.317149 -1.709898 -2.828644 14.693731 0.118867 1.764512 -0.001302 -0.003456 -999753.000000 1 0 0
8.720051 -10.571298 -6.605444 15.212611 -0.881068 2.019956 -0.002356 -0.003007 -19900.700000 1 0 0
14.802451 6.227702 1.725456 16.151595 0.398241 1.463763 -0.001996 0.005818 -2160280.000000 1 0 0
-5.789349 0.423102 -8.555144 10.338571 -0.072953 2.545433 0.007394 -0.005687 -337394.000000 1 0 0
-8.105549 -4.482798 -13.009844 15.970330 0.505184 2.522880 0.009297 -0.001017 696616.000000 1 0 0
0.709051 -10.591598 11.938856 15.975638 -1.503951 0.726782 -0.010322 -0.000216 -284981.000000 1 0 0
0.322251 11.822602 3.393856 12.304309 1.543546 1.291347 0.003444 0.000884 -1587550.000000 1 0 0
5.075951 -13.195098 -3.800944 14.639777 -1.203562 1.833437 0.000535 0.001222 1193150.000000 1 0 0
-7.511049 1.597702 -6.974344 10.373523 -0.209590 2.308137 0.000495 -0.001601 1182040.000000 1 0 0
1.434851 2.784002 3.984956 5.068465 1.094911 0.666120 0.000035 -0.000537 -1877400.000000 1 0 0
17.218951 5.600802 2.006756 18.217802 0.314476 1.460419 0.002370 -0.002134 -424902.000000 1 0 0
2.498351 -8.133398 -3.468544 9.188293 -1.272773 1.957887 -0.005489 0.000516 388235.000000 1 0 0
-0.452749 -9.393498 -0.661144 9.427614 1.522635 1.640982 0.000231 0.001474 -765965.000000 1 0 0
0.744551 11.754802 -5.578144 13.032475 1.507541 2.013096 -0.000759 0.000378 99438.200000 1 0 0
6.031051 -5.005498 7.732456 11.009972 -0.692741 0.792154 0.003297 -0.003748 -1123630.000000 1 0 0
-5.914749 -1.860598 -9.429444 11.285411 0.304769 2.559916 0.013406 -0.003369 78540.900000 1 0 0
2.047351 -1.256298 11.208456 11.462959 -0.550375 0.211115 0.002071 -0.004184 -180324.000000 1 0 0
17.951651 2.139102 -5.636144 18.936833 0.118600 1.873004 -0.001586 0.001993 220277.000000 1 0 0
-8.941649 4.725202 7.802856 12.773613 -0.486147 0.913653 -0.000107 -0.003964 310289.000000 1 0 0
11.345051 -7.210498 -4.933744 14.319333 -0.566159 1.922557 0.007325 -0.005745 136608.000000 1 0 0
10.870951 0.535902 9.021156 14.136691 0.049257 0.878719 0.005299 -0.006446 115852.000000 1 0 0
-8.420749 -7.279398 -1.616344 11.247721 0.712829 1.715000 0.008366 -0.001880 -1154120.000000 1 0 0
10.257851 -10.416398 -3.259644 14.978323 -0.793067 1.790176 0.012957 -0.004417 489781.000000 1 0 0
7.637651 -13.970698 -3.901244 16.393103 -1.070497 1.811083 0.011468 -0.001150 -512921.000000 1 0 0
1.724351 -1.144698 -11.833444 12.013081 -0.586045 2.968440 0.002602 -0.001354 203350.000000 1 0 0
-11.757549 -2.587198 -6.461344 13.663181 0.216594 2.063378 0.010647 -0.002611 -94570.400000 1 0 0
2.656851 -12.189898 -6.437744 14.039125 -1.356197 2.047167 -0.003129 0.001889 -419357.000000 1 0 0
-5.642149 1.425802 1.000256 5.904851 -0.247523 1.400580 0.002876 -0.000737 464709.000000 1 0 0
0.155751 6.760702 -4.027844 7.871142 1.547763 2.107985 0.004255 -0.002522 1260930.000000 1 0 0
5.506151 -11.838198 3.677356 13.564055 -1.135442 1.296250 0.000517 -0.001560 -804897.000000 1 0 0
-4.312149 -9.172298 1.164856 10.202087 1.131331 1.456369 0.004874 0.000355 -653040.000000 1 0 0
7.088651 -6.176798 -4.620244 10.476090 -0.716767 2.027540 0.002131 -0.003826 138967.000000 1 0 0
-6.884049 -5.993898 2.281656 9.408661 0.716386 1.325848 0.002270 -0.000843 -140913.000000 1 0 0
-6.243549 -0.663498 7.169456 9.530123 0.105872 0.719259 -0.005480 0.001134 53707.900000 1 0 0
4.063651 -5.003298 3.227556 7.208563 -0.888664 1.106561 -0.001359 -0.001701 -647347.000000 1 0 0
-2.432049 10.522302 -8.782744 13.920139 -1.343652 2.253558 -0.006554 0.000040 -1085270.000000 1 0 0
-2.241249 -4.830998 2.880256 6.054554 1.136418 1.075017 -0.001856 -0.000141 -571229.000000 1 0 0
15.093751 5.143802 6.482956 17.213621 0.328447 1.184654 0.014139 -0.006969 852587.000000 1 0 0
6.813751 0.233302 0.118456 6.818773 0.034226 1.553423 0.003785 -0.001148 4540560.000000 1 0 0
-9.655949 9.215602 0.434956 13.354918 -0.762068 1.538222 0.001191 -0.004111 -1385120.000000 1 0 0
7.232851 10.425102 -2.644044 12.961013 0.964249 1.776238 0.004569 -0.000410 -647823.000000 1 0 0
1.510051 -4.269798 -5.547944 7.161781 -1.230866 2.456973 -0.004507 0.002252 -542914.000000 1 0 0
0.900651 -8.181198 -7.737944 11.296856 -1.461150 2.325351 -0.004234 0.003546 -1276630.000000 1 0 0
-10.428349 0.209902 -10.528344 14.820275 -0.020125 2.360865 -0.000048 -0.005566 -3803590.000000 1 0 0
5.836651 -2.565998 0.547156 6.399236 -0.414201 1.485188 0.003949 -0.002530 -126446.000000 1 0 0
-3.387949 5.369902 -1.098844 6.443718 -1.007955 1.742163 0.003803 -0.004259 1200730.000000 1 0 0
-0.338549 4.529702 -5.187044 6.894798 -1.496195 2.422362 0.004196 -0.002984 -727934.000000 1 0 0
3.948651 -9.761898 10.002456 14.523623 -1.186420 0.811098 -0.001499 0.000551 -1574440.000000 1 0 0
7.346451 -13.500198 -0.791244 15.389989 -1.072437 1.622232 0.009219 -0.001982 861734.000000 1 0 0
13.037851 -0.279198 0.490656 13.050067 -0.021411 1.533189 -0.001547 -0.001285 442315.000000 1 0 0
9.255551 2.356902 -0.558444 9.567239 0.249348 1.629200 -0.000303 0.002180 356650.000000 1 0 0
-0.745049 -5.752698 4.518056 7.352651 1.442000 0.909070 -0.005010 0.001537 -155257.000000 1 0 0
11.356751 -3.849498 3.318556 12.442156 -0.326807 1.300810 0.006418 -0.004975 -2654730.000000 1 0 0
1.635951 -8.168998 11.714356 14.374805 -1.373148 0.618200 -0.008256 -0.000789 102787.000000 1 0 0
9.419651 -5.996298 -5.983544 12.668395 -0.566878 2.062718 0.001872 -0.005225 -313484.000000 1 0 0
3.222551 6.287502 -0.149744 7.066819 1.097173 1.591988 -0.000133 0.000126 -1057020.000000 1 0 0
6.370851 -1.409998 11.512656 13.233182 -0.217809 0.515626 0.005282 -0.005735 528579.000000 1 0 0
-4.845349 -7.573898 -3.848944 9.780374 1.001665 1.975273 0.008707 -0.000594 466641.000000 1 0 0
-3.356149 -8.541498 -5.674744 10.789979 1.196406 2.124601 0.007185 -0.000850 -353684.000000 1 0 0
9.821051 5.311202 2.194856 11.378897 0.495751 1.376691 -0.002547 0.002404 -223794.000000 1 0 0
8.803651 -1.585498 0.376156 8.953188 -0.178185 1.528770 0.001324 -0.001360 1410620.000000 1 0 0
-3.825749 9.660002 9.247956 13.909589 -1.193708 0.843487 0.005438 -0.000200 193564.000000 1 0 0
-14.257749 -3.518098 -6.063844 15.888065 0.241917 1.962388 0.008342 -0.002294 -199350.000000 1 0 0
10.617351 6.247202 -5.947644 13.679552 0.531843 2.020594 -0.003584 -0.000775 -979427.000000 1 0 0
-1.758749 4.664702 2.576256 5.611571 -1.210244 1.093818 0.003003 0.000729 226413.000000 1 0 0
6.954051 -3.715998 2.626156 8.310485 -0.490760 1.249280 0.002602 -0.004411 -2287210.000000 1 0 0
8.335451 -11.110398 -1.581544 13.979341 -0.927142 1.684173 0.009112 -0.003321 -1867930.000000 1 0 0
4.460751 0.506702 1.861456 4.860048 0.113106 1.177742 0.001350 0.000903 156577.000000 1 0 0
-10.925149 2.373102 3.704356 11.777637 -0.213892 1.250841 -0.006470 0.000145 -482134.000000 1 0 0
-0.831849 -2.968298 4.369656 5.347585 1.297561 0.614387 -0.000196 -0.000852 371503.000000 1 0 0
8.634651 -8.753898 -8.494444 14.944682 -0.792256 2.175347 -0.000342 0.001790 -640447.000000 1 0 0
11.900951 -5.017498 1.023656 12.955918 -0.398991 1.491703 0.002473 -0.004935 556605.000000 1 0 0
2.866051 4.869202 3.533356 6.663931 1.038795 1.011935 -0.002474 0.001512 -940403.000000 1 0 0
6.209651 7.409702 1.953856 9.863113 0.873285 1.371380 -0.001723 0.002157 264689.000000 1 0 0
-1.591049 -1.326798 -10.419144 10.623106 0.695081 2.945319 0.010126 -0.003023 962927.000000 1 0 0
-0.848549 -8.743798 6.031156 10.655932 1.474053 0.969162 -0.004411 -0.002353 -970526.000000 1 0 0
-4.324849 -0.209498 2.167556 4.842159 0.048403 1.106669 0.000585 0.000796 -84059.600000 1 0 0
-8.453049 6.269502 -7.931444 13.178334 -0.638158 2.216618 -0.006412 -0.000908 -1271060.000000 1 0 0
6.506051 11.192702 -9.393144 15.994887 1.044258 2.198465 0.009422 -0.008400 367571.000000 1 0 0
-11.023749 -5.751798 3.165756 12.830754 0.480907 1.321490 0.002413 -0.000922 483262.000000 1 0 0
1.565751 -6.397198 3.115556 7.285768 -1.330759 1.128936 -0.004999 -0.001138 172717.000000 1 0 0
10.132651 2.139802 7.241456 12.636774 0.208121 0.960578 0.002220 -0.000687 -901241.000000 1 0 0
-4.024349 -2.553598 -10.691944 11.706148 0.565428 2.722261 0.009894 -0.003223 -2304880.000000 1 0 0
-8.256049 11.820302 5.970156 15.605276 -0.961102 1.178217 0.009544 -0.010760 -1134350.000000 1 0 0
6.907051 5.934902 -3.008044 9.590555 0.709841 1.889827 0.001777 0.001466 -2246940.000000 1 0 0
3.862251 -9.922898 -2.295844 10.892741 -1.199612 1.783157 -0.002808 -0.002492 -1240940.000000 1 0 0
8.500051 -12.835798 -7.508044 17.128319 -0.985882 2.024548 0.005898 -0.002283 153019.000000 1 0 0
-1.032249 9.567202 3.625856 10.283176 -1.463318 1.210447 0.003915 0.001587 -83258.000000 1 0 0
0.452451 -13.235198 4.654256 14.036997 -1.536624 1.232828 0.001588 -0.002291 -1620490.000000 1 0 0
-11.180249 -7.014998 -5.165644 14.173639 0.560356 1.943843 0.009862 -0.002550 -140928.000000 1 0 0
3.741051 10.298802 -3.304244 11.444597 1.222366 1.863682 0.009920 -0.002783 152566.000000 1 0 0
11.629751 -8.242198 -7.414844 16.067509 -0.616552 2.050460 0.018046 -0.002120 241847.000000 1 0 0
11.679751 -4.844398 -5.911444 13.958150 -0.393173 2.008115 0.006026 -0.004688 -34366.800000 1 0 0
1.278751 -10.282798 -2.741044 10.718417 -1.447073 1.829401 -0.004463 0.002469 -1826910.000000 1 0 0
2.333951 -11.993498 -3.951444 12.841544 -1.378597 1.883579 -0.001137 0.001930 -1477400.000000 1 0 0
-7.614549 -5.667498 7.289656 11.968332 0.639842 0.915898 0.001493 0.000622 -4343610.000000 1 0 0
-7.268549 -0.824798 9.604356 12.072935 0.112992 0.650918 -0.006974 0.000796 -21992.900000 1 0 0
16.161751 2.570802 -7.561044 18.027218 0.157745 2.003607 -0.003131 0.003425 141873.000000 1 0 0
-2.049649 6.356702 -5.459544 8.626432 -1.258882 2.256071 0.004536 -0.002545 708450.000000 1 0 0
7.716851 1.121802 8.410056 11.468970 0.144359 0.747651 0.002272 -0.005255 -621620.000000 1 0 0
8.052451 8.235802 -3.815144 12.133661 0.796654 1.890649 0.000380 0.001487 135178.000000 1 0 0
8.114251 0.527202 4.012456 9.067459 0.064881 1.112399 0.002015 -0.000076 2175190.000000 1 0 0
-7.052449 5.849702 5.423656 10.647633 -0.692446 1.036336 0.000873 -0.004769 302220.000000 1 0 0
-5.955749 -2.029898 -4.610244 7.800370 0.328482 2.203130 0.009417 -0.002868 -662505.000000 1 0 0
-15.044549 -2.012598 3.184156 15.508960 0.132986 1.364015 -0.002200 0.001789 -946093.000000 1 0 0
1.064551 1.270202 -10.602144 10.730896 0.873254 2.986529 0.003606 -0.004036 580010.000000 1 0 0
1.426251 -9.275298 9.346456 13.244682 -1.418223 0.787419 -0.005899 -0.003872 -1554010.000000 1 0 0
-0.193249 -6.729798 -1.161044 6.831951 1.542089 1.741568 -0.002884 0.002131 423450.000000 1 0 0
-0.352049 -10.283898 -8.337344 13.243633 1.536577 2.251752 0.002942 0.003001 -669279.000000 1 0 0
-4.343849 6.562002 3.806056 8.741565 -0.986052 1.120316 0.004303 -0.000652 -172577.000000 1 0 0
10.717651 -1.226998 -8.654044 13.829897 -0.113988 2.246888 0.008650 0.002188 634755.000000 1 0 0
3.096051 -0.949998 6.299256 7.082984 -0.297722 0.474873 0.002065 -0.000664 406613.000000 1 0 0
1.826351 -12.393598 6.739956 14.225465 -1.424487 1.077201 -0.000308 -0.001000 -949898.000000 1 0 0
2.810251 -5.069398 -1.297144 5.939604 -1.064615 1.790960 0.004722 0.000437 -760348.000000 1 0 0
-1.217649 9.608302 -1.770044 9.845567 -1.444739 1.751560 -0.000678 -0.003321 37736.100000 1 0 0
4.510751 -2.651798 2.675356 5.876771 -0.531463 1.098152 0.002710 -0.000807 -3012060.000000 1 0 0
17.784851 6.593002 -2.601844 19.145187 0.355003 1.707119 -0.000566 0.006338 25946.200000 1 0 0
-7.117349 3.495902 -5.477644 9.637560 -0.456567 2.175313 0.000663 -0.003141 884758.000000 1 0 0
-13.669249 -6.013098 2.388956 15.123255 0.414423 1.412166 -0.004018 -0.003015 -69132.200000 1 0 0
6.608251 -6.095098 3.134756 9.520814 -0.745025 1.235284 0.001931 -0.005131 290900.000000 1 0 0
-4.717449 2.032202 3.419356 6.170589 -0.406760 0.983470 0.003291 -0.001355 662942.000000 1 0 0
6.848351 -12.160698 -5.496444 14.999780 -1.057910 1.945971 0.003869 -0.001474 529324.000000 1 0 0
2.963151 -12.224598 3.234056 12.987694 -1.332990 1.319139 0.002716 -0.003882 -356678.000000 1 0 0
3.269851 11.250602 -6.081144 13.200313 1.287951 2.049560 0.002319 -0.002710 -565824.000000 1 0 0
-5.455749 -8.431198 6.451556 11.936200 0.996469 0.999761 0.004692 -0.000290 -418003.000000 1 0 0
-3.892749 6.626502 6.309056 9.943249 -1.039655 0.883426 0.005186 0.000376 463365.000000 1 0 0
4.342251 4.365902 -6.908644 9.254491 0.788114 2.413610 -0.001245 0.003103 -1121110.000000 1 0 0
-0.364649 -2.710198 1.652456 3.195114 1.437053 1.027241 0.000628 -0.000618 -393097.000000 1 0 0
-13.196449 -0.936098 6.594256 14.781974 0.070817 1.108392 -0.004444 0.000796 -667675.000000 1 0 0
-0.506349 -9.345798 -5.912044 11.070348 1.516670 2.134172 -0.001644 0.002804 122472.000000 1 0 0
2.019151 -1.824898 -3.828844 4.697581 -0.734908 2.523641 0.000159 0.001325 -1228220.000000 1 0 0
11.276151 -2.056498 1.172056 11.521913 -0.180393 1.468896 0.001967 -0.002318 618441.000000 1 0 0
0.455651 -4.272898 -1.844444 4.676243 -1.464560 1.976242 -0.000961 0.000617 -2315530.000000 1 0 0
1.118451 -7.416198 -11.443144 13.681976 -1.421112 2.561417 -0.006342 0.004638 -311201.000000 1 0 0
-4.527649 4.204302 -10.013744 11.766513 -0.748385 2.588754 0.002214 -0.005492 24555.100000 1 0 0
-0.989649 5.758602 -2.182444 6.237304 -1.400603 1.928263 0.003657 -0.003527 33349.800000 1 0 0
-11.322549 1.682802 -3.894844 12.091391 -0.147544 1.898761 -0.002474 -0.000864 -309646.000000 1 0 0
-1.669349 -11.238398 4.182156 12.106971 1.423335 1.218095 0.004665 -0.001800 -611670.000000 1 0 0
-3.476749 -5.536198 -9.597744 11.612664 1.010041 2.543639 0.007427 0.003042 -1768080.000000 1 0 0
-12.952549 -3.698598 -8.390544 15.869763 0.278148 2.127879 0.015084 -0.002392 -593381.000000 1 0 0
11.497251 4.439902 0.596756 12.339191 0.368528 1.522415 0.002085 0.004281 292149.000000 1 0 0
-8.838949 -2.352598 -3.044944 9.640198 0.260132 1.892158 0.005108 -0.001498 -196446.000000 1 0 0
-2.472649 -6.092998 -6.380744 9.162560 1.185284 2.341156 0.001385 0.000216 -490171.000000 1 0 0
-0.025449 2.767002 -1.819544 3.311749 -1.561599 2.152467 0.001281 -0.002580 -1152300.000000 1 0 0
8.037851 5.938702 -5.233444 11.281142 0.636322 2.053201 0.001584 0.001317 -828578.000000 1 0 0
-9.752649 -0.932798 -1.014344 9.849526 0.095356 1.673963 -0.003592 0.000168 -534376.000000 1 0 0
6.034551 0.561202 -8.849044 10.725499 0.092731 2.541082 -0.001481 0.005924 354527.000000 1 0 0
-4.098949 2.419502 7.864356 9.192577 -0.533237 0.544258 -0.000195 0.003382 -1480730.000000 1 0 0
-10.136149 -3.380898 1.408456 10.777557 0.321944 1.439737 -0.001292 -0.000696 1345250.000000 1 0 0
-1.782449 -8.190498 -7.820044 11.463615 1.356513 2.321512 0.002328 0.000156 594145.000000 1 0 0
-9.325749 -9.768598 4.203156 14.144314 0.808587 1.269077 0.007644 -0.001488 -582031.000000 1 0 0
-1.089149 -10.815398 7.364756 13.130069 1.470431 0.975315 -0.002346 -0.003694 69476.800000 1 0 0
9.406851 3.684802 -3.679044 10.751836 0.373344 1.920030 -0.000013 0.002607 -851281.000000 1 0 0
12.762551 -0.844498 3.062156 13.151908 -0.066074 1.335810 0.000720 -0.001471 91100.900000 1 0 0
6.568851 11.795002 -6.802044 15.117528 1.062657 2.037499 0.009214 -0.006305 -155248.000000 1 0 0
-11.761949 -0.016598 -6.592144 13.483326 0.001411 2.081637 0.005549 -0.000398 788944.000000 1 0 0
-7.598249 -6.517098 -11.472244 15.225582 0.708953 2.424143 0.017799 -0.001912 -662166.000000 1 0 0
4.131351 6.159502 6.571056 9.908900 0.979987 0.845781 -0.002484 0.003149 -2336010.000000 1 0 0
-4.276149 -1.297898 -7.326344 8.581684 0.294683 2.593882 0.006656 -0.004082 -2260870.000000 1 0 0
9.650151 9.199202 0.825456 13.357848 0.761479 1.508961 0.001494 0.003714 -1090840.000000 1 0 0
-8.922949 3.905702 4.820556 10.867901 -0.412590 1.111230 -0.005904 -0.001240 720078.000000 1 0 0
-6.908349 7.921602 -12.251044 16.142030 -0.853617 2.432500 -0.005315 -0.004237 -258963.000000 1 0 0
11.184551 -3.617298 7.385456 13.882507 -0.312801 1.009839 0.010197 -0.006871 210524.000000 1 0 0
11.840151 6.912902 6.459456 15.155922 0.528462 1.130508 0.000305 -0.001794 -285426.000000 1 0 0
-9.916049 -0.788898 -14.854744 17.877746 0.079391 2.551532 -0.005603 0.000054 344911.000000 1 0 0
1.654351 -12.990698 11.931956 17.716284 -1.444129 0.831860 -0.011088 0.003344 -47372.100000 1 0 0
2.978551 3.057002 13.119656 13.796463 0.798395 0.314525 0.002498 -0.002970 -47685.700000 1 0 0
-2.659049 -1.286398 11.029156 11.417865 0.450589 0.261683 0.001207 0.000980 -1258730.000000 1 0 0
2.536651 -10.123598 -8.267144 13.314185 -1.325283 2.240722 -0.009247 0.004370 -1323560.000000 1 0 0
13.870151 3.633802 -7.446244 16.156490 0.256228 2.049786 -0.002170 0.001526 -1888680.000000 1 0 0
7.301451 -1.635698 5.009856 9.004741 -0.220385 0.980800 0.000223 -0.002011 556519.000000 1 0 0
-1.222149 8.742502 10.233756 13.514982 -1.431902 0.711757 0.003665 0.001263 -105868.000000 1 0 0
-12.220449 -4.731298 0.955456 13.139157 0.369391 1.498014 -0.001041 -0.001444 228206.000000 1 0 0
-4.900049 4.870002 -5.240144 8.671015 -0.782323 2.219719 0.003863 -0.004277 -176440.000000 1 0 0
-11.256849 0.391102 1.836956 11.412450 -0.034729 1.409132 -0.009297 0.000225 -2280800.000000 1 0 0
-1.290449 2.295302 -4.091044 4.865214 -1.058625 2.569697 0.002933 -0.003891 675383.000000 1 0 0
2.986251 -9.775498 13.170456 16.671502 -1.274317 0.659990 -0.007358 0.000180 -3279140.000000 1 0 0
8.924351 4.626102 -1.399944 10.149123 0.478234 1.709175 -0.001291 0.001312 -1505190.000000 1 0 0
4.017251 2.301902 3.807056 5.994225 0.520333 0.882632 -0.001531 0.001179 -135950.000000 1 0 0
-5.585849 -3.264698 7.452256 9.868946 0.528914 0.714956 -0.004153 0.000136 155720.000000 1 0 0
1.625551 -5.764098 7.847156 9.871429 -1.295922 0.651894 -0.004951 -0.001641 -834121.000000 1 0 0
-5.822149 -6.180898 -9.720944 12.907272 0.815277 2.423614 0.014746 0.000367 -1264260.000000 1 0 0
-11.696649 -5.776698 5.539256 14.172692 0.458737 1.169252 0.006288 -0.000642 -333119.000000 1 0 0
10.546051 6.163302 4.509956 13.020952 0.528883 1.217107 -0.002044 0.003633 -862831.000000 1 0 0
1.466151 -3.738598 0.482156 4.044650 -1.197062 1.451304 0.004042 -0.000708 -719065.000000 1 0 0
8.811651 4.278002 6.864756 11.961245 0.451975 0.959516 -0.003061 0.004194 -843484.000000 1 0 0
-7.955349 11.960802 3.483756 14.781235 -0.983866 1.332870 0.009152 -0.011496 469708.000000 1 0 0
-6.121449 13.314602 -7.028044 16.252512 -1.139860 2.017980 0.005373 -0.002063 517483.000000 1 0 0
4.412751 -7.047698 -0.902544 8.364031 -1.011387 1.678915 0.002613 -0.003144 -1239120.000000 1 0 0
-1.923849 -8.189198 11.074656 13.907271 1.340055 0.649607 -0.005003 -0.002638 -599767.000000 1 0 0
11.612851 8.767102 -5.768544 15.652363 0.646660 1.948236 0.004814 -0.001171 580548.000000 1 0 0
-3.335449 -2.929798 -1.921444 4.837446 0.720742 1.979262 0.003803 -0.000266 -1918770.000000 1 0 0
-2.030349 6.099502 4.684456 7.954267 -1.249462 0.941070 0.003414 0.002309 -273552.000000 1 0 0
0.261351 -11.555798 -5.727144 12.899805 -1.548184 2.030822 -0.001769 -0.000769 -851864.000000 1 0 0
-8.802349 6.276602 -1.534944 10.919392 -0.619437 1.711834 0.000513 -0.000832 -565768.000000 1 0 0
2.961351 -0.076698 3.944556 4.933053 -0.025894 0.644138 -0.001258 -0.000154 -534268.000000 1 0 0
-9.966349 3.950502 -1.005044 10.767761 -0.377385 1.664271 0.000651 -0.000908 103697.000000 1 0 0
6.516151 5.511502 13.621956 16.074656 0.702063 0.559693 0.012385 0.003764 398679.000000 1 0 0
-8.805549 -1.583098 5.707356 10.612154 0.177884 1.002955 -0.008074 0.000692 -221384.000000 1 0 0
12.875751 -1.853998 -1.521244 13.097193 -0.143009 1.687209 0.003987 -0.002231 -1562970.000000 1 0 0
5.243251 -5.588798 5.368656 9.356753 -0.817288 0.959691 -0.000273 -0.004574 169554.000000 1 0 0
-9.105849 -1.262998 3.191456 9.731240 0.137823 1.236653 -0.009087 0.000956 941161.000000 1 0 0
2.016951 5.465702 5.642456 8.110444 1.217279 0.801399 0.001848 0.001615 -1455210.000000 1 0 0
9.185151 2.916602 -7.518944 12.223260 0.307465 2.233352 -0.000791 0.003725 -807080.000000 1 0 0
2.341351 -2.465298 -1.483444 3.709478 -0.811179 1.982211 0.000211 0.000769 203915.000000 1 0 0
-6.140149 0.397402 -3.888644 7.278798 -0.064632 2.134408 0.004615 -0.001498 -2565690.000000 1 0 0
-4.049649 4.234602 4.952356 7.671854 -0.807720 0.869089 0.004006 0.000663 1532550.000000 1 0 0
-6.426149 1.848102 -12.281844 13.984082 -0.280034 2.643035 -0.002083 -0.003603 -1722430.000000 1 0 0
-0.011149 3.330002 6.150456 6.994079 -1.567448 0.496237 0.004334 0.000131 821001.000000 1 0 0
-8.765449 9.443202 -2.099744 13.054351 -0.822602 1.732344 -0.002471 0.000899 989245.000000 1 0 0
-1.328549 -3.692698 -6.203344 7.340473 1.225438 2.577526 -0.002980 0.002801 66895.600000 1 0 0
-3.360249 7.059702 -2.901644 8.339676 -1.126552 1.926161 0.002656 -0.000712 1268950.000000 1 0 0
6.932451 -0.493698 -4.221944 8.131877 -0.071096 2.116693 0.000692 0.001348 123528.000000 1 0 0
-5.083549 -10.982098 7.015956 13.988302 1.137272 1.045397 0.002790 -0.002626 -121397.000000 1 0 0
9.751851 8.432302 -1.601844 12.991082 0.712959 1.694414 0.001348 0.004168 402269.000000 1 0 0
13.702351 4.602502 -4.304444 15.081966 0.324051 1.860224 -0.003619 0.000651 986877.000000 1 0 0
4.725051 1.145702 -6.738644 8.309516 0.237883 2.516579 -0.004028 0.001878 75442.300000 1 0 0
8.911851 -4.839498 3.626656 10.770073 -0.497485 1.227350 0.002170 -0.004370 -513765.000000 1 0 0
-8.769149 -3.306298 -0.783144 9.404408 0.360556 1.654167 -0.001682 -0.000087 56618.200000 1 0 0
-8.627349 -4.230598 -10.451644 14.197393 0.455914 2.398185 0.010539 -0.000988 482854.000000 1 0 0
10.454351 -1.141398 10.728256 15.023040 -0.108749 0.775430 0.009791 -0.004717 959655.000000 1 0 0
2.107651 -11.658898 9.794656 15.372293 -1.391952 0.879985 -0.007734 -0.002900 1122300.000000 1 0 0
-6.318049 -10.620898 2.034756 12.524434 1.034158 1.407610 0.004639 0.000099 -455835.000000 1 0 0
-3.735349 -1.484898 6.632656 7.755636 0.378372 0.544851 0.001492 -0.000604 -875286.000000 1 0 0
4.741551 -7.546398 3.832856 9.701609 -1.009813 1.164648 -0.001936 -0.001111 -24854.400000 1 0 0
11.505551 -9.567898 -5.332644 15.885826 -0.693708 1.913129 0.010698 -0.004925 588015.000000 1 0 0
11.438251 1.192302 11.418456 16.206058 0.103863 0.788966 0.020610 -0.002827 304330.000000 1 0 0
-10.210249 -3.472898 4.370656 11.636702 0.327863 1.185761 0.000425 0.000798 1014330.000000 1 0 0
2.051551 8.760802 9.141456 12.826797 1.340767 0.777479 0.000443 0.003607 26882.100000 1 0 0
6.704151 8.759102 4.154056 11.786589 0.917517 1.210620 -0.001901 0.004579 753512.000000 1 0 0
-4.182449 3.463502 0.450856 5.449036 -0.691644 1.487961 0.005245 -0.002573 -1765950.000000 1 0 0
4.993451 6.985502 4.277756 9.593278 0.950186 1.108604 -0.001626 0.003510 -758354.000000 1 0 0
-8.205749 13.196302 1.196856 15.585543 -1.014486 1.493928 0.006248 -0.005197 -758978.000000 1 0 0
8.776351 8.076702 -9.094544 14.998939 0.743907 2.222254 0.003205 -0.007674 -1659390.000000 1 0 0
7.083351 1.923702 6.057856 9.516938 0.265185 0.880800 0.000260 -0.000222 -33071.900000 1 0 0
11.575051 -6.352798 3.142356 13.572555 -0.501949 1.337154 0.006262 -0.004118 -12663.800000 1 0 0
11.361751 4.637902 -2.008144 12.435118 0.387558 1.732996 -0.000467 0.003515 1366390.000000 1 0 0
-3.874549 14.239102 -5.936344 15.906109 -1.305122 1.953265 -0.006519 0.003691 -1055640.000000 1 0 0
7.271751 -3.048798 7.005556 10.547576 -0.397004 0.844391 0.003520 -0.005468 -590139.000000 1 0 0
-8.068749 -0.534098 0.898756 8.136199 0.066097 1.460107 -0.004276 0.000196 305690.000000 1 0 0
-3.281749 1.144902 10.726156 11.275243 -0.335667 0.313365 -0.000282 0.003547 -383164.000000 1 0 0
7.118351 -1.295298 -1.848244 7.467578 -0.179997 1.820898 0.003039 -0.001265 -1347840.000000 1 0 0
-7.728049 5.494102 2.956156 9.932107 -0.618024 1.268580 0.000946 -0.001375 895284.000000 1 0 0
9.422651 -2.231898 2.948556 10.122337 -0.232579 1.275219 0.000267 -0.002426 -1350750.000000 1 0 0
0.286551 3.480602 1.532856 3.813967 1.488654 1.157199 0.001179 0.001406 -5614620.000000 1 0 0
-7.562249 -3.083198 4.010156 9.098081 0.387135 1.114341 -0.004155 0.001475 -123729.000000 1 0 0
-2.133349 8.430802 -6.830144 11.058049 -1.322956 2.236563 0.000678 -0.001571 -828543.000000 1 0 0
4.601251 9.793402 7.499556 13.165317 1.131573 0.964723 -0.001533 0.009717 224873.000000 1 0 0
-11.702149 -3.059298 6.809956 13.880746 0.255708 1.058013 0.000286 -0.001465 -1653540.000000 1 0 0
-4.778549 2.332102 -5.676944 7.778234 -0.454030 2.388899 0.005842 -0.005105 -597904.000000 1 0 0
-2.722149 2.994302 -1.851544 4.450185 -0.832971 1.999904 0.003426 -0.002764 1722680.000000 1 0 0
2.481151 5.218702 11.513756 12.882451 1.126993 0.465148 0.005604 -0.003476 234095.000000 1 0 0
-0.739849 1.738202 4.501456 4.881785 -1.168383 0.397344 0.006152 -0.001890 994015.000000 1 0 0
5.089151 1.589202 7.746756 9.404108 0.302678 0.602780 0.004349 -0.000400 1274250.000000 1 0 0
3.350551 -8.252398 1.812856 9.089264 -1.185120 1.369999 -0.002008 -0.000912 1471730.000000 1 0 0
5.041551 6.376602 -4.675344 9.377480 0.901793 2.092746 0.002922 -0.000575 -2084060.000000 1 0 0
-4.075649 2.914202 -7.974744 9.418069 -0.620741 2.580641 0.007418 -0.008041 339938.000000 1 0 0
-8.713949 -2.135598 -12.969844 15.770559 0.240341 2.536428 0.005492 -0.002931 -442433.000000 1 0 0
-7.819749 8.239502 1.223856 11.425221 -0.811530 1.463472 0.003732 -0.000741 -2277350.000000 1 0 0
7.367051 0.837302 -6.459944 9.833890 0.113169 2.287504 -0.002444 0.002689 1275640.000000 1 0 0
9.003651 8.778902 5.601256 13.766224 0.772760 1.151756 -0.001904 0.005316 417303.000000 1 0 0
9.369951 -1.278298 -1.341144 9.551372 -0.135588 1.711676 0.002695 -0.001435 490849.000000 1 0 0
5.442151 0.097802 4.290256 6.930575 0.017969 0.903285 0.000161 -0.000118 -2044710.000000 1 0 0
-4.212449 -7.267698 -7.844044 11.493180 1.045503 2.321968 0.012009 -0.001169 -996078.000000 1 0 0
-1.994149 7.431502 -0.548244 7.713911 -1.308635 1.641928 0.003833 -0.002338 627185.000000 1 0 0
13.367851 -3.347298 -7.361344 15.623483 -0.245354 2.061415 0.009665 -0.000536 1439300.000000 1 0 0
-4.734249 -4.998498 1.688056 7.088556 0.812542 1.330348 0.000893 0.000646 754013.000000 1 0 0
-8.951349 1.323102 2.522156 9.393536 -0.146748 1.298962 -0.007363 0.000948 -1621410.000000 1 0 0
-1.055149 11.162502 10.240356 15.184850 -1.476550 0.830672 0.001213 -0.000870 83851.200000 1 0 0
-8.538849 0.319302 7.536456 11.393510 -0.037377 0.848020 -0.011146 0.002290 -799057.000000 1 0 0
-5.926149 12.968702 -2.092244 14.411244 -1.142171 1.716493 -0.008954 0.003022 521668.000000 1 0 0
-12.892049 -0.798198 3.261556 13.322154 0.061835 1.323460 -0.004375 0.000474 284520.000000 1 0 0
-6.529449 12.833502 8.826356 16.888962 -1.100148 1.020886 0.009084 -0.011458 556097.000000 1 0 0
-8.025049 0.806402 -14.066944 16.215135 -0.100149 2.620990 -0.005986 -0.002776 -475859.000000 1 0 0
7.237951 2.820602 3.722556 8.614009 0.371592 1.123919 -0.002294 0.002087 -520198.000000 1 0 0
-1.623749 0.733002 -2.030544 2.701288 -0.424039 2.421424 0.002013 -0.002467 556224.000000 1 0 0
-6.360749 9.595002 -10.361844 15.488415 -0.985390 2.303667 -0.001206 -0.001699 -634914.000000 1 0 0
-10.041449 13.685702 5.447656 17.827116 -0.937797 1.260246 0.011099 -0.011971 113713.000000 1 0 0
-5.634749 8.338802 2.436856 10.354915 -0.976548 1.333235 0.001800 -0.001691 -878646.000000 1 0 0
-2.465349 -10.819798 -1.265944 11.169091 1.346766 1.684384 0.003444 -0.000315 429142.000000 1 0 0
-2.343549 -12.437098 8.787056 15.407336 1.384548 0.963905 -0.002914 -0.001442 517146.000000 1 0 0
-14.801149 -6.298398 -1.686844 16.173722 0.402323 1.675282 0.014824 -0.001698 396016.000000 1 0 0
-2.657649 -9.340398 3.335156 10.267882 1.293589 1.239981 -0.000653 -0.001875 -1206480.000000 1 0 0
4.736751 -2.673998 7.522256 9.282856 -0.513924 0.626067 0.002102 -0.001076 -1121120.000000 1 0 0
-14.901049 -1.223698 -0.310644 14.954437 0.081938 1.591571 -0.006467 -0.002401 -494640.000000 1 0 0
5.602051 8.675202 -2.927744 10.733768 0.997411 1.847057 0.003563 -0.000522 783579.000000 1 0 0
-5.620449 -5.699298 8.580356 11.734307 0.792364 0.750688 -0.000477 0.000118 -1804060.000000 1 0 0
3.473051 3.661502 7.104956 8.714877 0.811806 0.617605 0.001582 0.000748 449213.000000 1 0 0
3.320051 2.321302 9.384256 10.221323 0.610173 0.407522 0.007732 -0.004947 70734.100000 1 0 0
10.028151 -3.360698 5.239656 11.803055 -0.323363 1.110824 0.007322 -0.005459 -209915.000000 1 0 0
6.612951 9.911702 -5.126144 12.971133 0.982434 1.977078 0.006063 -0.004305 170090.000000 1 0 0
-4.475549 12.069702 -8.490644 15.420741 -1.215705 2.153878 -0.003905 0.002590 -1002570.000000 1 0 0
-3.362749 -7.161898 2.298356 8.239133 1.131818 1.288089 -0.000351 -0.002896 778304.000000 1 0 0
-7.431549 -4.007398 1.280956 8.539790 0.494546 1.420230 0.000380 -0.001637 3262490.000000 1 0 0
-1.963849 -3.980698 -10.963544 11.828016 1.112489 2.756898 0.009377 0.000616 -478036.000000 1 0 0
-5.225349 8.295102 -4.460344 10.770685 -1.008658 1.997771 -0.000133 -0.002506 -1545200.000000 1 0 0
-11.096949 -3.201998 -10.214744 15.418692 0.280917 2.294936 0.012185 -0.000162 767712.000000 1 0 0
4.731351 -11.380798 -7.676644 14.520300 -1.176803 2.127845 -0.003020 -0.000343 377165.000000 1 0 0
-9.316949 -3.919298 7.292756 12.463977 0.398192 0.945785 -0.001511 0.000502 -796405.000000 1 0 0
-5.765249 -9.687698 -5.213844 12.420699 1.033980 2.003989 0.010337 -0.004009 1293170.000000 1 0 0
4.670151 4.287102 -9.466144 11.392867 0.742660 2.551490 0.000293 0.004953 -53729.800000 1 0 0
-3.402249 -7.199398 -14.102344 16.195145 1.129329 2.627575 0.007311 0.001025 141346.000000 1 0 0
0.732151 -0.825798 -8.783244 8.852308 -0.845435 3.016597 0.000441 -0.002063 244334.000000 1 0 0
-7.717449 2.253002 -2.908244 8.549439 -0.284042 1.917892 0.002068 -0.002652 -695162.000000 1 0 0
-2.292549 7.563102 -12.629944 14.898717 -1.276477 2.582469 -0.001157 -0.004280 -144669.000000 1 0 0
-9.836449 8.854402 7.636556 15.279828 -0.732905 1.047451 0.000406 -0.009000 -275646.000000 1 0 0
-10.635149 -3.170898 -14.339644 18.132467 0.289761 2.482955 0.003858 0.004029 -247791.000000 1 0 0
-3.466449 4.779702 7.906456 9.867820 -0.943328 0.641438 0.004309 0.000551 -41105.100000 1 0 0
8.754351 -2.413598 -3.618444 9.775339 -0.269019 1.949978 0.002975 0.000158 -5130500.000000 1 0 0
1.889051 -8.411998 -1.119644 8.693896 -1.349895 1.699940 -0.002343 0.000523 -653162.000000 1 0 0
-13.465949 -2.839298 5.068856 14.665834 0.207806 1.217893 0.003903 -0.001591 200229.000000 1 0 0
7.053051 2.769102 -1.891644 7.809723 0.374120 1.815446 -0.000365 0.000710 186107.000000 1 0 0
-11.208449 4.577902 9.018456 15.096988 -0.387755 0.930581 -0.006468 -0.003308 -894317.000000 1 0 0
-1.835649 -2.444998 8.041456 8.603060 0.926798 0.363325 -0.001584 -0.000922 -1908610.000000 1 0 0
2.933651 11.982102 -9.866744 15.796509 1.330684 2.245435 0.001204 -0.006335 1480920.000000 1 0 0
3.669451 -5.015898 -7.093544 9.430932 -0.939199 2.422126 -0.007899 0.001077 391327.000000 1 0 0
8.350151 -13.834598 -9.818644 18.908382 -1.027756 2.116798 0.003445 0.007388 -175033.000000 1 0 0
-6.215749 -5.768698 -0.376444 8.488529 0.748113 1.615158 0.006657 -0.000582 -492610.000000 1 0 0
-1.221549 -4.048298 9.717956 10.598093 1.277741 0.410420 -0.003575 -0.000190 594137.000000 1 0 0
2.866751 3.296602 1.808656 4.728328 0.855028 1.178280 -0.004600 0.002064 -1394620.000000 1 0 0
-9.069149 13.195502 7.895756 17.852554 -0.968651 1.112662 0.014235 -0.023436 701619.000000 1 0 0
3.951151 -11.106598 0.020756 11.788493 -1.229010 1.569036 0.001618 -0.004568 44266.800000 1 0 0
-12.552349 -1.364298 -9.135844 15.584814 0.108264 2.197159 0.011707 -0.004369 -74068.600000 1 0 0
-4.288749 1.073702 -13.579944 14.281494 -0.245311 2.826853 0.007141 -0.001422 448928.000000 1 0 0
3.927651 -3.067498 5.043856 7.090591 -0.663048 0.779386 -0.000306 -0.000005 38486.600000 1 0 0
1.647651 -1.163598 1.225556 2.360234 -0.614886 1.024821 0.002944 -0.000252 246630.000000 1 0 0
8.073851 -8.906098 7.413156 14.123050 -0.834373 1.018201 0.011871 -0.004137 -696761.000000 1 0 0
-0.058449 2.325002 -6.481244 6.885896 -1.545662 2.797063 0.001145 -0.003607 -833591.000000 1 0 0
-3.778549 -9.797898 -3.384844 11.033287 1.202722 1.882609 0.007095 -0.000006 429802.000000 1 0 0
-9.430049 2.382202 -5.422844 11.135885 -0.247441 2.079414 -0.001505 -0.000377 -1521830.000000 1 0 0
9.017451 -7.644798 5.324156 12.965493 -0.703203 1.147640 0.007602 -0.003860 1730670.000000 1 0 0
-5.511649 -4.285398 4.671156 8.400156 0.660880 0.981135 -0.003014 0.000899 -1342280.000000 1 0 0
-0.299249 -12.498498 10.409856 16.268593 1.546858 0.876462 -0.006617 0.001564 -2078140.000000 1 0 0
-14.234149 -8.222298 3.151256 16.737610 0.523821 1.381392 0.003068 -0.005161 -1293610.000000 1 0 0
10.922451 -1.332898 -3.588244 11.573766 -0.121432 1.886024 0.006582 -0.001302 -244932.000000 1 0 0
-13.615049 2.993502 2.671556 14.193936 -0.216424 1.381449 -0.011481 0.001518 -1569470.000000 1 0 0
-6.256049 6.207302 0.940456 8.863024 -0.781487 1.464486 0.003193 -0.002909 473479.000000 1 0 0
7.010751 -6.956998 -0.296744 9.881220 -0.781550 1.600832 0.002464 -0.004383 -306172.000000 1 0 0
-7.013149 7.860702 10.021656 14.539893 -0.842319 0.810340 0.004400 -0.003557 277821.000000 1 0 0
-12.624249 -5.021198 -2.003244 13.733065 0.378559 1.717189 0.000959 -0.001593 -2175450.000000 1 0 0
-9.323949 -5.571598 0.136756 10.862662 0.538622 1.558206 0.002746 -0.000567 -440111.000000 1 0 0
-1.773249 1.982802 2.150356 3.420518 -0.841131 0.890962 0.004011 -0.000832 -82459.900000 1 0 0
-7.092849 7.358202 7.527756 12.693256 -0.803758 0.935953 0.002347 -0.005518 -147066.000000 1 0 0
5.662251 7.069802 -0.481944 9.070582 0.895503 1.623954 0.001293 0.000619 -1756490.000000 1 0 0
-0.110849 -3.949598 7.349756 8.344491 1.542738 0.493265 -0.002673 -0.000210 -798241.000000 1 0 0
6.480151 0.608402 13.119456 14.645226 0.093613 0.460528 0.003797 -0.003942 730695.000000 1 0 0
5.798051 6.039602 -7.973844 11.561850 0.805801 2.331828 -0.002788 0.002255 -384435.000000 1 0 0
10.060651 5.194502 9.047356 14.493247 0.476617 0.896630 0.002061 0.001788 -2304100.000000 1 0 0
-1.176149 -4.981998 -8.507044 9.928415 1.338961 2.599902 0.007043 0.001672 860989.000000 1 0 0
9.929151 -3.604898 -7.910644 13.197031 -0.348264 2.213580 0.007736 -0.001430 533417.000000 1 0 0
8.470451 -5.516998 1.269756 10.188135 -0.577305 1.445841 0.005044 -0.004227 1614070.000000 1 0 0
15.734951 3.127302 -5.003344 16.804825 0.196192 1.873113 -0.001764 0.003488 -702885.000000 1 0 0
-6.859349 3.690502 1.181456 7.878217 -0.493603 1.420264 0.001987 -0.002180 1402210.000000 1 0 0
-1.675049 3.975002 0.295656 4.323637 -1.171982 1.502362 0.004151 -0.001810 -555914.000000 1 0 0
-2.540449 10.014502 6.946556 12.449850 -1.322360 0.978867 0.005432 0.000938 2017230.000000 1 0 0
5.518351 -5.744098 -8.810644 11.877471 -0.805440 2.406539 -0.006246 0.000475 272058.000000 1 0 0
-1.311249 -0.846398 6.224656 6.417329 0.573198 0.245663 0.005028 -0.002417 544073.000000 1 0 0
-5.661349 5.053202 -7.778244 10.866775 -0.728700 2.368540 0.000743 -0.003725 -59228.500000 1 0 0
6.633851 -1.254398 2.582956 7.228635 -0.186884 1.205396 -0.000303 -0.000145 -810505.000000 1 0 0
8.909751 7.560002 3.192656 12.113230 0.703628 1.304078 -0.002165 0.003814 -116830.000000 1 0 0
-5.236449 -4.828898 -7.781944 10.549754 0.744930 2.400368 0.012384 -0.003396 1216900.000000 1 0 0
-2.281549 7.919202 -10.096644 13.033090 -1.290289 2.457026 -0.000376 -0.003240 439183.000000 1 0 0
-2.891849 -2.314098 1.696156 4.073670 0.674872 1.141347 -0.002439 0.002229 -470513.000000 1 0 0
5.906851 -2.101798 -9.248344 11.173196 -0.341854 2.545839 -0.004153 0.004068 1428000.000000 1 0 0
1.156151 -7.577798 5.194856 9.259927 -1.419393 0.975198 -0.006131 -0.000741 472835.000000 1 0 0
1.790451 11.900102 1.216156 12.095337 1.421460 1.470079 0.004162 -0.001482 148650.000000 1 0 0
-0.928349 7.164402 2.470156 7.634930 -1.441936 1.241335 0.001111 0.001160 553635.000000 1 0 0
8.671951 7.789502 -6.614944 13.402856 0.731842 2.086960 0.003873 -0.003181 -34523.500000 1 0 0
3.748651 -11.341798 5.566456 13.178551 -1.251583 1.134719 0.005046 -0.001999 139920.000000 1 0 0
7.890951 -7.155598 12.345856 16.306130 -0.736565 0.711888 0.014640 -0.005261 770413.000000 1 0 0
-8.610149 -0.000898 -3.926344 9.463131 0.000104 1.998640 0.004014 -0.002521 -418198.000000 1 0 0
-3.283149 -5.076098 11.190256 12.718792 0.996684 0.495312 -0.003196 0.000018 848616.000000 1 0 0
-8.154949 0.115302 -11.562544 14.149520 -0.014138 2.527278 0.000530 -0.005417 -1189400.000000 1 0 0
1.474151 -5.017998 5.442156 7.547880 -1.285062 0.765526 -0.002400 0.000151 -328915.000000 1 0 0
6.645551 3.635102 -7.772344 10.852955 0.500535 2.369067 -0.003804 0.004039 -235227.000000 1 0 0
16.244951 4.088202 -1.303044 16.802076 0.246540 1.648427 -0.002636 0.007591 -494661.000000 1 0 0
7.955951 7.443002 0.047856 10.894848 0.752100 1.566404 0.000406 0.000308 -3647570.000000 1 0 0
5.312551 -10.313298 13.875156 18.086108 -1.095129 0.696376 -0.003456 -0.004677 -41153.800000 1 0 0
-5.065349 -9.356198 8.991056 13.929655 1.074588 0.869169 -0.004466 -0.004785 555219.000000 1 0 0
-12.616949 -3.209098 2.746856 13.305297 0.249067 1.362853 -0.001601 0.000094 440478.000000 1 0 0
-2.069449 -1.222798 -5.881344 6.353586 0.533688 2.753607 0.003265 -0.002430 -1275010.000000 1 0 0
-2.599949 13.061402 -4.232444 13.974030 -1.374309 1.878509 -0.003483 0.004198 162197.000000 1 0 0
3.778651 -0.495998 -4.971644 6.264301 -0.130517 2.487577 0.001727 0.001540 -124352.000000 1 0 0
-8.968749 3.845802 -7.412844 12.254750 -0.405085 2.220431 -0.005676 -0.001021 493393.000000 1 0 0
-4.488549 7.983602 -11.397744 14.621680 -1.058619 2.464679 -0.000752 -0.005149 -3330310.000000 1 0 0
-10.054549 -6.513798 7.373356 14.067335 0.574859 1.019083 0.005184 0.000471 -1943160.000000 1 0 0
8.046751 5.282502 4.019556 10.431292 0.580915 1.175224 -0.004172 0.003125 -1560050.000000 1 0 0
-6.616949 -7.588098 4.083656 10.864598 0.853658 1.185463 0.009076 -0.001906 -892071.000000 1 0 0
-4.020149 11.867802 8.063856 14.900741 -1.244184 0.998967 0.005269 -0.004622 -249207.000000 1 0 0
-7.280449 9.967802 -7.900844 14.655556 -0.939960 2.140167 0.001553 -0.006246 727627.000000 1 0 0
13.119451 5.555602 4.685456 14.997940 0.400568 1.253071 0.000824 0.002323 1211260.000000 1 0 0
5.444951 3.951302 -3.825344 7.739091 0.627755 2.087812 -0.001529 0.002077 622981.000000 1 0 0
-2.842249 -4.145798 5.259756 7.275373 0.969818 0.762729 -0.000933 0.001658 -726303.000000 1 0 0
12.321751 -2.485698 -5.135344 13.578513 -0.199061 1.958643 0.005644 -0.002361 -2255290.000000 1 0 0
-5.233649 9.854402 7.037956 13.192162 -1.082581 1.008069 0.002750 -0.001192 -456835.000000 1 0 0
1.806851 3.763802 -0.470744 4.201489 1.123227 1.683074 -0.002296 -0.001278 390249.000000 1 0 0
0.064351 9.720202 7.770756 12.444722 1.564176 0.896405 0.003447 0.002591 -1518620.000000 1 0 0
-5.493549 2.160302 5.847456 8.308955 -0.374668 0.790129 -0.000434 0.001019 752261.000000 1 0 0
8.872451 0.855802 10.738856 13.956211 0.096159 0.692789 0.008056 -0.002514 -1334040.000000 1 0 0
0.436851 -2.805898 -10.239344 10.625821 -1.416346 2.871059 0.000591 0.000858 -1945730.000000 1 0 0
1.235251 10.549102 -2.726044 10.965432 1.454232 1.822034 0.002302 -0.001916 1596970.000000 1 0 0
2.169551 -4.325798 11.553756 12.526323 -1.105919 0.396656 -0.000944 -0.002845 -494087.000000 1 0 0
6.548851 -3.119698 9.453056 11.915546 -0.444568 0.654524 0.004770 -0.006484 665169.000000 1 0 0
-10.551949 -8.239298 5.601756 14.512386 0.662943 1.174507 0.007417 0.001118 -1235810.000000 1 0 0
-3.000949 0.902802 -6.878944 7.559141 -0.292226 2.714120 0.006628 -0.003756 390425.000000 1 0 0
11.052551 2.541702 -4.989344 12.390024 0.226035 1.985251 0.000154 0.000791 -3510990.000000 1 0 0
-1.941649 -4.076098 -0.002944 4.514929 1.126247 1.571448 -0.001715 0.001339 893064.000000 1 0 0
-1.175549 -6.447298 -10.603444 12.465255 1.390445 2.587998 0.006449 0.003000 1145900.000000 1 0 0
0.316351 6.806702 -6.693244 9.551480 1.524353 2.347251 0.005626 -0.000063 -3100000.000000 1 0 0
2.130251 3.802602 -6.241344 7.612629 1.060149 2.531975 0.000605 0.000422 -1597190.000000 1 0 0
1.604251 -14.819898 6.324756 16.192762 -1.462966 1.169522 0.003695 -0.001628 -467811.000000 1 0 0
-1.764149 5.449802 -10.582744 12.033579 -1.257733 2.645469 0.006493 -0.005157 -111123.000000 1 0 0
13.611151 4.222002 -0.821544 14.274581 0.300776 1.628381 0.000303 0.005396 -2257690.000000 1 0 0
-2.390349 3.337702 -6.212944 7.446791 -0.949303 2.557679 0.004170 -0.004652 -1054380.000000 1 0 0
5.794351 7.848802 14.339156 17.343287 0.934860 0.597430 0.010836 0.003171 291705.000000 1 0 0
15.904251 0.548402 -5.692044 16.901045 0.034468 1.914298 0.002015 -0.000285 186503.000000 1 0 0
6.065451 -8.293798 10.587856 14.753965 -0.939356 0.770406 0.004443 0.000397 1605810.000000 1 0 0
0.024151 -5.965998 -6.433844 8.774284 -1.566748 2.393902 -0.003532 0.001635 -559211.000000 1 0 0
8.747951 5.424602 -7.523644 12.749830 0.555068 2.201976 -0.001240 0.002480 96971.700000 1 0 0
-15.931149 -0.755698 5.399356 16.838219 0.047400 1.244369 0.003835 -0.002609 -60854.200000 1 0 0
-0.545049 4.039802 -12.366244 13.020793 -1.436686 2.823170 0.008450 -0.003161 455632.000000 1 0 0
-11.261049 3.666902 5.809156 13.191046 -0.314799 1.114767 -0.006509 -0.003069 -899771.000000 1 0 0
5.091651 -9.786798 -9.758444 14.728665 -1.091075 2.295011 -0.011152 0.004249 275340.000000 1 0 0
1.529651 11.130402 -11.795644 16.289963 1.434222 2.380532 0.002214 0.001945 -2408610.000000 1 0 0
5.993551 2.258702 1.233856 6.522790 0.360396 1.380489 0.000581 0.000882 -370024.000000 1 0 0
5.664151 4.613502 4.870456 8.779997 0.683525 0.982768 -0.002412 0.001256 1047070.000000 1 0 0
0.390551 -1.573298 -6.388644 6.591098 -1.327477 2.893098 -0.001554 0.000625 -372528.000000 1 0 0
12.608151 6.760802 -4.441844 14.980116 0.492206 1.871839 -0.003428 0.001008 -385454.000000 1 0 0
7.391451 3.160702 12.719356 15.046781 0.404084 0.563631 0.006369 -0.000688 -143666.000000 1 0 0
-2.632049 -0.148498 8.662156 9.054429 0.056360 0.295433 0.002585 0.000110 308094.000000 1 0 0
2.323751 -15.191698 13.189956 20.252468 -1.419011 0.861531 -0.009107 0.008935 -857944.000000 1 0 0
18.873451 4.388702 -1.649444 19.447070 0.228473 1.655715 0.003975 0.004871 649033.000000 1 0 0
-0.439649 -13.411098 7.157356 15.207847 1.538026 1.080785 -0.003583 0.001121 -1327390.000000 1 0 0
4.389851 1.512102 -0.559844 4.676609 0.331725 1.690796 -0.000502 0.000345 1030060.000000 1 0 0
2.771151 -0.565198 -7.344444 7.870170 -0.201198 2.774014 -0.004468 0.001037 142106.000000 1 0 0
7.234151 -11.383298 0.907356 13.517978 -1.004678 1.503624 0.002006 -0.002103 461298.000000 1 0 0
-11.717549 -7.414998 1.396956 13.936809 0.564197 1.470393 0.003842 0.000250 334053.000000 1 0 0
0.173751 -7.118798 9.957856 12.241993 -1.546394 0.620792 -0.005310 0.000479 -2047190.000000 1 0 0
-4.628649 -7.229098 10.586456 13.629281 1.001284 0.681318 -0.000562 0.000019 -1123810.000000 1 0 0
11.782851 0.631602 -1.580944 11.905204 0.053552 1.703984 0.000580 0.000652 427373.000000 1 0 0
6.501551 -9.568898 -7.576744 13.828992 -0.973998 2.150634 -0.006045 -0.001371 -1138000.000000 1 0 0
-10.922549 4.914602 3.529056 12.486377 -0.422812 1.284259 -0.008239 -0.002817 -1029250.000000 1 0 0
5.986351 -9.186698 2.058156 11.156515 -0.993274 1.385253 0.000595 -0.003979 3722880.000000 1 0 0
11.630851 -1.432798 5.935656 13.136271 -0.122572 1.101956 0.004748 -0.007016 -354084.000000 1 0 0
-6.534849 3.668202 4.106756 8.545490 -0.511500 1.069485 -0.002263 -0.000179 -1031550.000000 1 0 0
9.473451 6.226102 -3.146144 11.764729 0.581431 1.841513 -0.000806 0.002801 -839658.000000 1 0 0
-2.338749 6.612602 11.010356 13.054662 -1.230846 0.567208 -0.000490 -0.000843 -112574.000000 1 0 0
1.950151 9.804402 2.951256 10.423017 1.374453 1.283722 0.000037 0.002203 -7619.290000 1 0 0
2.833951 6.076402 -5.545444 8.700913 1.134399 2.261838 0.000450 0.000161 -2147210.000000 1 0 0
12.089251 0.081802 -5.441844 13.257841 0.006766 1.993757 0.005015 0.000083 536090.000000 1 0 0
-2.665149 -12.515898 6.290056 14.258876 1.360989 1.113936 -0.000997 -0.001079 -611295.000000 1 0 0
10.813851 1.786802 -2.659244 11.278458 0.163753 1.808818 0.000006 0.002113 168024.000000 1 0 0
-8.872449 5.352702 0.953756 10.405836 -0.542839 1.479012 -0.001214 -0.002368 -183170.000000 1 0 0
1.337151 -10.159498 5.448256 11.605468 -1.439933 1.082122 -0.004062 -0.001289 -657867.000000 1 0 0
9.376051 -5.883698 -1.196344 11.133709 -0.560412 1.678457 0.006004 -0.006037 184302.000000 1 0 0
-7.823049 8.595702 -4.461844 12.449668 -0.832423 1.937340 -0.003639 -0.001996 -1031840.000000 1 0 0
-7.414849 0.046102 -1.568844 7.579141 -0.006217 1.779299 0.000477 -0.001716 -1368340.000000 1 0 0
4.212551 8.875902 2.732256 10.197668 1.127670 1.299553 0.002261 0.001910 -436356.000000 1 0 0
-1.357349 -10.557898 -3.750944 11.286328 1.442935 1.909584 0.002375 0.000764 -683410.000000 1 0 0
3.157151 7.930302 -3.748144 9.322332 1.191918 1.984563 0.005518 -0.002564 -212975.000000 1 0 0
-4.404849 1.709502 -10.994344 11.966649 -0.370202 2.735696 0.005226 -0.003681 -610967.000000 1 0 0
1.285351 2.827602 11.036156 11.464912 1.144146 0.274345 0.005508 -0.003951 841881.000000 1 0 0
2.141751 5.608402 -8.014144 10.013379 1.206005 2.498664 0.003000 -0.000306 616118.000000 1 0 0
15.684451 6.040102 4.107556 17.301932 0.367597 1.331103 0.009724 -0.001867 955033.000000 1 0 0
-4.401149 9.075902 4.616256 11.092877 -1.119280 1.141594 0.004384 -0.000709 -105314.000000 1 0 0
-0.969649 -8.164298 -12.435444 14.907590 1.452583 2.557420 0.003790 0.003652 -1076380.000000 1 0 0
14.223251 -4.338798 -5.229844 15.763163 -0.296083 1.908982 0.006414 0.000302 1138090.000000 1 0 0
-6.042449 -6.154498 -5.685544 10.330269 0.794585 2.153612 0.011800 -0.002256 513280.000000 1 0 0
-8.930749 2.479102 -12.131044 15.266514 -0.270774 2.489174 -0.001938 -0.009335 -1105560.000000 1 0 0
10.599551 5.499002 13.795856 18.245963 0.478571 0.713456 0.029736 0.004474 925340.000000 1 0 0
-0.387549 10.896602 5.594856 12.255143 -1.535245 1.096704 0.004667 0.003982 430056.000000 1 0 0
0.340751 11.232702 -0.684844 11.258717 1.540470 1.631662 0.002465 -0.000480 -92493.000000 1 0 0
-1.490049 -0.518798 3.705756 4.027658 0.335048 0.402519 0.002449 -0.000750 45015.400000 1 0 0
-4.876449 6.734602 8.868656 12.156795 -0.944086 0.753173 0.005597 -0.000943 -172361.000000 1 0 0
3.508451 -8.708098 -11.551644 14.885586 -1.187797 2.459141 -0.011111 0.007461 91542.200000 1 0 0
6.655751 -3.888498 11.946856 14.217834 -0.528744 0.573011 0.009189 -0.007918 -578946.000000 1 0 0
-2.420849 -1.868698 -12.635644 13.000463 0.657382 2.904130 0.010342 -0.003235 744092.000000 1 0 0
-16.220749 -4.922398 5.471556 17.812373 0.294631 1.258571 0.026103 -0.002956 735309.000000 1 0 0
-8.977749 7.470902 5.768456 13.026490 -0.694044 1.112049 -0.006003 -0.006336 -3752840.000000 1 0 0
-12.741549 1.512802 6.016056 14.171400 -0.118177 1.132364 -0.011623 -0.001717 167011.000000 1 0 0
-3.649949 3.655902 10.130556 11.371715 -0.786213 0.471571 0.002887 0.001705 469582.000000 1 0 0
2.041551 -12.322098 -1.218144 12.549339 -1.406606 1.668018 -0.000574 -0.000551 -2703360.000000 1 0 0
10.203251 -5.255498 -3.603144 12.029516 -0.475639 1.874991 0.009717 -0.002303 550498.000000 1 0 0
3.106251 -13.483798 0.982456 13.871800 -1.344377 1.499913 0.004140 -0.001876 309530.000000 1 0 0
10.037651 -1.502798 -6.110944 11.847214 -0.148612 2.112752 0.007024 -0.000950 369795.000000 1 0 0
11.914551 -5.541598 -1.484844 13.223865 -0.435350 1.683319 0.007756 -0.003608 -302981.000000 1 0 0
1.400651 1.019102 5.864056 6.114536 0.629005 0.287219 0.004573 -0.001406 345960.000000 1 0 0
-10.651849 11.559702 6.581356 17.041210 -0.826248 1.174285 0.007774 -0.017060 -1362170.000000 1 0 0
4.772151 -14.063198 3.072156 15.165260 -1.243653 1.366806 0.006352 -0.004051 -2909290.000000 1 0 0
5.278251 -3.476598 -1.706644 6.546702 -0.582442 1.834531 0.002362 -0.001743 -1280050.000000 1 0 0
2.029151 -2.957598 -7.797144 8.582558 -0.969473 2.710446 -0.005216 0.002184 -5647.800000 1 0 0
-2.840749 14.769602 -8.681944 17.366264 -1.380779 2.094316 0.000659 -0.000823 -777897.000000 1 0 0
-2.367349 6.085102 -8.135244 10.431442 -1.199774 2.465266 0.007146 -0.004498 -40380.500000 1 0 0
2.664251 -3.472598 -11.371844 12.185073 -0.916364 2.774181 -0.004785 0.003656 -1724720.000000 1 0 0
14.549851 2.656802 -2.707244 15.036154 0.180610 1.751833 0.000805 0.004049 697041.000000 1 0 0
-3.494649 13.182402 2.358256 13.840146 -1.311658 1.399568 -0.004818 -0.000351 -419157.000000 1 0 0
7.827551 -4.985598 13.970656 16.772179 -0.567132 0.586350 0.012198 -0.008632 -1745350.000000 1 0 0
-11.491149 7.294902 2.914556 13.919653 -0.565635 1.359851 -0.004957 -0.004372 1036630.000000 1 0 0
-2.216149 11.874402 4.118856 12.762355 -1.386287 1.242179 0.000164 0.001309 -203473.000000 1 0 0
1.801051 1.495602 0.713256 2.447314 0.693007 1.275060 -0.003488 0.001770 -1209080.000000 1 0 0
-6.824049 8.620102 5.310556 12.209660 -0.901172 1.120817 0.000037 -0.005399 -1267970.000000 1 0 0
-1.071749 9.227302 1.014156 9.344531 -1.455165 1.462053 0.000743 0.001199 551555.000000 1 0 0
4.871651 12.967602 -8.425144 16.213412 1.211431 2.117226 0.006570 -0.014433 -404306.000000 1 0 0
9.057451 6.760202 7.171856 13.385562 0.641173 1.005353 -0.004522 0.003146 -1769920.000000 1 0 0
7.249651 -13.767198 2.900256 15.827340 -1.086105 1.386512 0.012672 -0.003516 992419.000000 1 0 0
4.107351 -13.443798 -1.304444 14.117635 -1.274283 1.663326 -0.001200 0.005082 -3425320.000000 1 0 0
12.037951 -11.903598 -4.493344 17.515652 -0.779787 1.830230 0.011027 -0.005377 -1180240.000000 1 0 0
2.921051 -0.071798 -1.917144 3.494730 -0.024575 2.151463 -0.000297 -0.000209 1541860.000000 1 0 0
-13.692449 -2.969098 -10.771844 17.672898 0.213536 2.226241 0.017374 -0.006661 492860.000000 1 0 0
-6.662749 13.737202 4.928556 16.043491 -1.119208 1.258547 0.013679 -0.012253 732479.000000 1 0 0
7.290051 -4.452098 -0.699844 8.570636 -0.548256 1.652543 0.003194 -0.003541 -437952.000000 1 0 0
11.689151 1.926602 -7.291144 13.910745 0.163351 2.122498 0.003355 -0.000676 -563111.000000 1 0 0
-7.503749 -4.557898 9.746956 13.118073 0.545855 0.733229 0.001276 -0.000166 540688.000000 1 0 0
0.957551 2.904602 8.497156 9.030796 1.252349 0.345492 0.005042 -0.001213 -1201060.000000 1 0 0
1.592251 8.038802 -8.757044 11.993474 1.375257 2.389339 0.005355 -0.002567 -839693.000000 1 0 0
-8.511649 -2.040498 -5.590244 10.385693 0.235290 2.139172 0.011522 -0.002548 -160545.000000 1 0 0
6.717351 -0.442598 7.118556 9.797578 -0.065794 0.757490 0.003622 -0.002808 309906.000000 1 0 0
-10.914649 6.468502 7.160756 14.568717 -0.534993 1.056967 -0.001030 -0.006745 640842.000000 1 0 0
-5.905649 11.153102 5.005456 13.576559 -1.083822 1.193204 -0.000292 -0.002989 513126.000000 1 0 0
5.924751 -1.235898 -6.912444 9.187600 -0.205650 2.422444 -0.001107 0.001258 -555683.000000 1 0 0
4.371851 -5.708898 11.530456 13.588820 -0.917262 0.557604 0.003541 -0.004612 -1749480.000000 1 0 0
-8.911449 -7.345298 2.809156 11.885230 0.689356 1.332182 0.009407 -0.002197 -2654490.000000 1 0 0
-1.206749 12.761102 -9.278844 15.823997 -1.476512 2.197376 0.006667 0.001414 276574.000000 1 0 0
-4.514949 9.359602 -2.308244 10.644947 -1.121338 1.789372 -0.001018 -0.000820 166361.000000 1 0 0
-3.262549 9.566002 -0.108544 10.107640 -1.242111 1.581535 0.001504 -0.001754 -2525180.000000 1 0 0
-3.418949 10.701502 -6.470144 12.964340 -1.261562 2.093324 -0.003310 0.001484 377263.000000 1 0 0
4.810051 -4.909798 0.408756 6.885477 -0.795660 1.511396 0.000414 -0.003367 -1143720.000000 1 0 0
-2.313849 3.021802 -10.840144 11.488860 -0.917311 2.803941 0.008909 -0.003348 -1269360.000000 1 0 0
-3.437449 12.096002 -2.003144 12.733495 -1.293915 1.728765 -0.007022 0.003819 -1087720.000000 1 0 0
-0.186449 0.521702 0.043956 0.555759 -1.227557 1.491621 -0.004364 0.001479 -2186190.000000 1 0 0
-4.959349 -1.876598 0.133656 5.304208 0.361745 1.545596 -0.003781 0.001268 573188.000000 1 0 0
2.561351 2.369102 -2.413444 4.242390 0.746426 2.175949 -0.006822 -0.000157 1382180.000000 1 0 0
5.981551 -9.684198 8.497856 14.204795 -1.017492 0.929495 0.000187 0.001408 -9984.300000 1 0 0
-4.255049 -5.470398 6.618356 9.582971 0.909720 0.808427 -0.001548 -0.001347 104307.000000 1 0 0
-6.264749 5.414302 -12.029644 14.603906 -0.712708 2.538751 -0.006296 -0.006082 115551.000000 1 0 0
-12.800049 3.001902 7.955456 15.366911 -0.230360 1.026635 -0.011101 -0.002775 424900.000000 1 0 0
4.657951 -7.458498 -4.934744 10.083521 -1.012545 2.082183 -0.002637 -0.001468 38347.200000 1 0 0
-5.938649 2.570402 -1.059844 6.557269 -0.408481 1.733137 0.004077 -0.003362 -658658.000000 1 0 0
-6.908549 -2.708498 -14.556344 16.338640 0.373634 2.670153 0.005270 -0.003346 -100162.000000 1 0 0
2.695851 -6.139198 0.922456 6.768183 -1.157026 1.434078 -0.001381 -0.000390 -563967.000000 1 0 0
4.635851 -7.872298 12.986356 15.877961 -1.038592 0.613070 -0.002142 -0.003174 -87561.400000 1 0 0
-9.935749 -1.649398 8.099856 12.924678 0.164506 0.893489 -0.002157 0.000652 -253776.000000 1 0 0
-4.400749 13.334602 0.038156 14.042067 -1.252026 1.568079 -0.007815 0.002940 892776.000000 1 0 0
6.908451 2.138102 -4.373444 8.451342 0.300141 2.114706 -0.001650 0.003925 -2180750.000000 1 0 0
5.043751 4.432002 -0.008744 6.714323 0.720928 1.572099 -0.002894 -0.000562 -996901.000000 1 0 0
-5.836149 12.342902 2.035456 13.804019 -1.129116 1.422803 -0.003268 -0.001135 493788.000000 1 0 0
6.521151 -7.267498 6.503056 11.731653 -0.839473 0.983254 0.002697 -0.002229 -462662.000000 1 0 0
-0.335549 4.998502 7.794356 9.265506 -1.503767 0.571255 0.002484 0.000680 -825938.000000 1 0 0
-5.778949 -3.533898 -1.647444 6.971281 0.548841 1.809372 0.002693 0.000290 -433548.000000 1 0 0
2.313851 -6.496598 -5.268944 8.678794 -1.228641 2.223209 -0.006424 0.001714 -2034720.000000 1 0 0
-14.511049 -4.895098 -3.770044 15.771676 0.325349 1.812172 0.007134 -0.004213 350601.000000 1 0 0
-12.382249 -5.135198 -6.392944 14.851265 0.393133 2.015804 0.012648 -0.005167 -1806640.000000 1 0 0
-14.763649 -3.684798 -1.280744 15.270343 0.244589 1.654766 -0.000286 -0.002319 431321.000000 1 0 0
12.026351 2.868402 8.731056 15.135792 0.234135 0.955931 0.011125 -0.004744 -1311180.000000 1 0 0
8.672651 -6.390198 7.689556 13.235512 -0.635014 0.950865 0.011187 -0.005272 -43604.500000 1 0 0
-8.853049 -1.695798 -9.742444 13.272807 0.189257 2.395012 0.007117 -0.002656 568620.000000 1 0 0
-8.801549 5.162602 -3.890644 10.920477 -0.530476 1.935070 0.001997 -0.001921 -1672230.000000 1 0 0
-4.125349 -6.161498 4.104356 8.475158 0.980809 1.065255 -0.000520 0.000221 -1229840.000000 1 0 0
-0.130649 -9.221598 3.528556 9.874495 1.556630 1.205378 -0.004687 -0.002612 570860.000000 1 0 0
7.954551 -10.498098 3.314256 13.581946 -0.922377 1.324288 0.004024 -0.002172 631465.000000 1 0 0
-0.066249 6.447302 9.681556 11.632051 -1.560521 0.587521 0.001554 -0.000189 64880.600000 1 0 0
-0.011649 3.547402 -9.791144 10.413966 -1.567513 2.793994 0.007619 -0.003342 1185710.000000 1 0 0
4.383351 -3.147098 11.016656 12.267221 -0.622682 0.455465 0.004225 -0.005825 -2044840.000000 1 0 0
8.541151 -9.268298 1.169656 12.657832 -0.826205 1.478259 0.003283 -0.003544 -594329.000000 1 0 0
-0.315349 -0.423098 11.220456 11.232858 0.930289 0.046995 0.005448 -0.001483 -1239270.000000 1 0 0
10.888751 5.974202 11.395256 16.855499 0.501812 0.828400 0.016364 0.001507 -105111.000000 1 0 0
-6.350649 -2.904798 -11.850944 13.755488 0.428992 2.609097 0.010238 -0.001866 771772.000000 1 0 0
-1.668049 2.994002 8.433456 9.103275 -1.062495 0.386006 0.005364 -0.001585 606197.000000 1 0 0
-1.576549 13.404802 -6.767544 15.098803 -1.453723 2.035566 0.003980 -0.000445 612535.000000 1 0 0
7.819951 3.067502 9.879356 12.967763 0.373821 0.704648 0.003684 -0.000944 988978.000000 1 0 0
6.451951 8.446302 -7.981544 13.291829 0.918472 2.214904 0.005954 -0.003323 23408.200000 1 0 0
6.664751 -3.087998 -3.910544 8.321478 -0.433886 2.060012 0.003485 -0.002005 -1735380.000000 1 0 0
2.213651 8.258102 0.977456 8.605342 1.308895 1.456964 -0.000634 0.002491 773146.000000 1 0 0
-17.468949 6.409602 6.424056 19.685418 -0.351663 1.238372 -0.002472 0.002951 -205171.000000 1 0 0
-14.589749 3.171102 -10.396544 18.193537 -0.214023 2.179058 0.012392 -0.004051 -367485.000000 1 0 0
-18.238649 0.112702 -4.547044 18.797250 -0.006179 1.815119 0.013207 -0.001502 -284359.000000 1 0 0
-13.144949 7.800602 0.047856 15.285331 -0.535574 1.567665 -0.001855 0.000342 449153.000000 1 0 0
-12.709249 -4.356398 -12.760344 18.529155 0.330223 2.330440 0.012581 0.003519 -340972.000000 1 0 0
-17.317149 -0.644198 -8.711644 19.395653 0.037183 2.036615 0.007652 -0.012389 -244749.000000 1 0 0
-16.697849 -2.010898 -2.116044 16.951092 0.119851 1.695955 0.008267 -0.003236 27400.300000 1 0 0
-15.283049 4.203902 1.712856 15.942969 -0.268431 1.463152 -0.010857 0.003711 -2093370.000000 1 0 0
-13.070949 5.883002 4.432156 15.003447 -0.422922 1.270913 -0.003773 -0.003741 -622028.000000 1 0 0
-9.951749 14.199902 2.915056 17.583289 -0.959512 1.404242 0.021368 -0.009784 -143341.000000 1 0 0
-11.856849 2.543902 -6.353144 13.690096 -0.211347 2.053379 -0.001670 0.001292 69171.900000 1 0 0
-15.815749 10.548102 3.845856 19.395643 -0.588189 1.371189 0.002049 -0.008959 834641.000000 1 0 0
-12.747549 1.181702 -8.620744 15.434171 -0.092436 2.163432 0.006857 -0.003821 918061.000000 1 0 0
-12.135549 14.497102 4.224156 19.372171 -0.873838 1.350978 0.019197 -0.008553 -136134.000000 1 0 0
-10.467549 11.155002 -0.997544 15.329668 -0.817181 1.635915 0.003492 -0.003548 190782.000000 1 0 0
-16.897649 5.755702 8.900156 19.946714 -0.328295 1.108285 0.001792 -0.000245 564013.000000 1 0 0
-11.776049 12.454702 -9.033944 19.375424 -0.813399 2.055852 0.010128 -0.014640 -450656.000000 1 0 0
-17.183149 -0.387098 3.119956 17.468388 0.022524 1.391227 0.005891 -0.001129 852738.000000 1 0 0
-13.187049 14.794102 -0.303644 19.820593 -0.842769 1.586117 0.029122 -0.011068 182252.000000 1 0 0
-16.532549 4.904302 -10.716644 20.303295 -0.288376 2.126837 0.024291 0.001949 1109060.000000 1 0 0
-11.864549 7.624902 -9.136844 16.804421 -0.571200 2.145656 -0.002105 -0.000083 1481.660000 1 0 0
-14.830649 13.389202 -1.813844 20.062624 -0.734363 1.661329 0.028809 -0.012614 870448.000000 1 0 0
-11.733849 10.556502 -5.422944 16.689256 -0.732628 1.901741 0.008314 -0.006028 672510.000000 1 0 0
-17.488649 2.826102 -0.995344 17.743461 -0.160211 1.626922 -0.006366 0.001891 -1273980.000000 1 0 0
-9.429149 15.488802 0.868656 18.153963 -1.023952 1.522929 0.019793 -0.007676 192125.000000 1 0 0
-8.016449 13.091802 -3.687144 15.787772 -1.021363 1.806517 -0.003488 -0.000519 -1842950.000000 1 0 0
-17.796749 11.562402 2.240956 21.340930 -0.576159 1.465595 0.034295 0.002926 -417770.000000 1 0 0
-8.032449 15.704402 -7.254744 19.073012 -1.098009 1.960989 0.020458 -0.013323 -38864.700000 1 0 0
-6.243849 15.266902 -5.465744 17.376371 -1.182573 1.890779 -0.001294 0.001845 -387324.000000 1 0 0
-17.263649 5.173302 -0.168844 18.022906 -0.291149 1.580165 0.002967 0.003918 527405.000000 1 0 0
-5.288549 12.315802 -12.145244 18.087417 -1.165195 2.306993 -0.006423 -0.006523 -511573.000000 1 0 0
-11.082349 3.756502 -11.373844 16.318520 -0.326808 2.341988 -0.003240 -0.008186 459527.000000 1 0 0
-11.591349 11.171602 1.362956 16.156166 -0.766960 1.486335 0.007573 -0.004963 450904.000000 1 0 0
-12.962549 0.265102 -11.077344 17.053020 -0.020448 2.277832 0.008311 -0.008130 1005890.000000 1 0 0
-14.085349 -2.074098 -13.257144 19.453812 0.146202 2.320563 0.008489 -0.000926 39193.700000 1 0 0
-18.814549 -2.306598 -3.759244 19.324584 0.121988 1.766576 0.016952 -0.003544 1463210.000000 1 0 0
-18.151749 4.876302 -5.300044 19.528307 -0.262445 1.845647 0.011284 0.001663 188703.000000 1 0 0
-8.038849 15.274702 -2.177144 17.397688 -1.086342 1.696265 0.004982 -0.008695 -380557.000000 1 0 0
-15.867849 9.227402 -5.352844 19.120316 -0.526717 1.854544 0.009864 0.005019 40729.200000 1 0 0
-18.141349 1.825602 2.056556 18.348591 -0.100294 1.458478 0.004212 -0.003484 240976.000000 1 0 0
-15.718849 -2.682798 -8.457744 18.050292 0.169045 2.058463 0.012141 -0.013049 -254939.000000 1 0 0
-9.793749 10.443802 -7.312444 16.076764 -0.817508 2.042995 0.001822 -0.007970 -214035.000000 1 0 0
-13.861149 11.943902 -7.561244 19.797996 -0.711237 1.962669 0.012893 -0.016747 -93810.700000 1 0 0
-10.935049 6.564502 -3.909944 13.340001 -0.540653 1.868263 -0.002282 0.000133 -1986090.000000 1 0 0
-13.013549 5.084402 -12.750344 18.914937 -0.372464 2.310526 0.004404 -0.007590 479565.000000 1 0 0
-17.672249 9.001102 2.700956 20.015578 -0.471088 1.435441 0.012694 -0.003839 854429.000000 1 0 0
-13.253749 8.715102 -6.620244 17.188440 -0.581670 1.966174 -0.001953 -0.000329 -882805.000000 1 0 0
-15.727749 7.017702 -3.939244 17.667141 -0.419688 1.795657 0.006236 0.007177 -843367.000000 1 0 0
-14.877749 -0.354098 -9.367244 17.584597 0.023796 2.132579 0.014475 -0.010110 -955960.000000 1 0 0
-10.121749 5.788802 -6.149044 13.182214 -0.519514 2.056087 -0.006930 -0.000110 103946.000000 1 0 0
-12.836549 12.160302 -0.581744 17.691477 -0.758351 1.603685 0.019574 -0.011867 -298659.000000 1 0 0
-10.367249 3.601402 -13.885744 17.699260 -0.334341 2.472747 -0.014318 -0.009371 353620.000000 1 0 0
-10.866149 6.246602 -11.936444 17.308146 -0.521735 2.331792 -0.008298 -0.005689 -474846.000000 1 0 0
-5.542549 11.614002 -14.630544 19.484807 -1.125530 2.420174 -0.002676 -0.013009 -276402.000000 1 0 0
-15.703649 13.162402 3.489256 20.785291 -0.697589 1.402126 0.008611 -0.011640 -51035.200000 1 0 0
-14.955449 11.052102 -3.099944 18.852693 -0.636425 1.735976 0.023389 -0.002231 1049820.000000 1 0 0
-17.998349 7.879602 -4.908744 20.251529 -0.412659 1.815624 0.009515 0.004972 -158086.000000 1 0 0
-3.731649 16.333402 -10.478044 19.760936 -1.346184 2.129680 0.007225 0.002980 -134762.000000 1 0 0
-15.704849 4.500702 -4.567644 16.963548 -0.279100 1.843423 0.007301 0.003744 -636225.000000 1 0 0
-18.878749 -1.836698 -6.254044 19.972323 0.096984 1.889289 0.026323 -0.005240 485472.000000 1 0 0
-10.736149 8.542102 -5.817844 14.902339 -0.672076 1.971860 -0.002110 0.000148 -412178.000000 1 0 0
-11.144749 13.540602 -6.640944 18.752479 -0.882151 1.932787 0.005862 -0.008055 350087.000000 1 0 0
-9.336849 10.520602 -4.535844 14.779502 -0.844940 1.882731 -0.005292 -0.001046 -391883.000000 1 0 0
-11.033049 6.234802 -0.219644 12.674745 -0.514364 1.588126 -0.003205 0.000973 -650257.000000 1 0 0
-14.689849 9.205102 -1.478944 17.398644 -0.559771 1.655902 0.015175 -0.001123 -145621.000000 1 0 0
-18.444349 3.628502 4.719156 19.381188 -0.194246 1.324832 0.003711 0.001431 360122.000000 1 0 0
-14.932149 12.982802 0.621156 19.796667 -0.715680 1.539414 0.022277 -0.012885 154762.000000 1 0 0
-16.815249 2.707502 -9.328944 19.419381 -0.159644 2.071900 0.014233 -0.002972 232808.000000 1 0 0
-9.118549 8.459202 -9.095444 15.408865 -0.747905 2.202194 0.000082 -0.001728 -2306250.000000 1 0 0
-17.584449 4.720402 -2.794344 18.420190 -0.262259 1.723084 0.003051 0.002605 1063030.000000 1 0 0
-13.403049 5.862402 -4.560644 15.323477 -0.412321 1.873000 -0.000211 0.007302 -169343.000000 1 0 0
-12.100249 9.694202 3.367756 15.866170 -0.675446 1.356909 0.000610 -0.002903 905435.000000 1 0 0
-17.457949 2.541902 -4.151844 18.123991 -0.144585 1.801929 0.008565 0.000806 920599.000000 1 0 0
-11.286349 1.504602 -12.600544 16.982909 -0.132530 2.406777 0.000108 -0.006202 30968.900000 1 0 0
-11.268849 12.087802 3.770156 16.950398 -0.820447 1.346497 0.013019 -0.007138 -206337.000000 1 0 0
-15.883349 13.246302 -4.172244 21.098647 -0.695116 1.769858 0.008808 -0.000618 845238.000000 1 0 0
-11.063649 4.134102 -4.491944 12.636166 -0.357600 1.934227 -0.007323 0.000455 -710231.000000 1 0 0
-11.278349 14.992802 -8.706644 20.683107 -0.925856 2.005294 0.027325 -0.019423 418106.000000 1 0 0
-15.569949 7.051802 -0.206044 17.093673 -0.425272 1.582850 0.005376 0.002745 -1243960.000000 1 0 0
-12.773349 8.376202 -4.046644 15.801725 -0.580411 1.829770 0.001291 -0.001033 929413.000000 1 0 0
-19.226649 1.984202 -5.976244 20.231574 -0.102837 1.870662 0.017648 -0.005251 -618486.000000 1 0 0
-12.816349 10.023202 -8.953644 18.571244 -0.663708 2.073874 0.009970 -0.010375 690505.000000 1 0 0
-16.620149 10.825002 -0.999244 19.859720 -0.577301 1.621133 0.018522 -0.004927 535.794000 1 0 0
-10.703849 6.523902 -14.511844 19.176217 -0.547369 2.429143 0.000176 -0.011332 -340656.000000 1 0 0
-13.290449 12.802102 -3.910244 18.863187 -0.766684 1.779605 0.007222 -0.011179 868071.000000 1 0 0
-18.185549 7.495602 -0.323044 19.672381 -0.390957 1.587218 0.031983 0.002294 346506.000000 1 0 0
-12.725049 6.624702 -2.167244 14.508979 -0.479994 1.720730 -0.005254 0.004139 567556.000000 1 0 0
-13.819449 8.594702 -10.823944 19.544918 -0.556387 2.157715 0.006806 -0.002325 -703851.000000 1 0 0
-14.940449 1.496202 -0.940844 15.044628 -0.099812 1.633374 -0.008130 -0.001651 -1126560.000000 1 0 0
-13.322649 2.777402 -2.487344 13.834515 -0.205528 1.751572 -0.006620 0.001884 -660353.000000 1 0 0
-11.416349 9.404202 -10.998444 18.431977 -0.689055 2.210184 0.005286 -0.006652 -540192.000000 1 0 0
-15.352849 4.497202 -8.226844 17.989323 -0.284951 2.045773 0.014016 -0.002103 543278.000000 1 0 0
-18.230749 10.496802 4.635856 21.541453 -0.522416 1.353893 0.010439 -0.005528 286367.000000 1 0 0
-15.291149 6.282302 -6.334244 17.703367 -0.389821 1.936706 0.011607 0.007707 394514.000000 1 0 0
-7.663749 11.440302 -13.002544 18.938841 -0.980565 2.327536 -0.002793 -0.000428 367938.000000 1 0 0
-16.815849 9.175602 -2.928544 19.378875 -0.499499 1.722498 0.015347 0.002619 439737.000000 1 0 0
-20.649149 -0.763998 -4.695744 21.190117 0.036982 1.794252 0.015211 -0.005697 -179911.000000 1 0 0
-15.330649 4.234402 4.297456 16.475044 -0.269486 1.306897 -0.008013 0.000677 -40088.200000 1 0 0
-6.948849 12.530302 -9.278844 17.070205 -1.064456 2.145480 0.004289 -0.007117 -723719.000000 1 0 0
-17.134649 1.624702 5.779756 18.156030 -0.094537 1.246820 0.011967 -0.005837 -3974.560000 1 0 0
-10.264549 14.205502 -2.929644 17.769076 -0.945079 1.736426 0.013207 -0.008176 1307280.000000 1 0 0
-9.904649 8.523902 -12.930844 18.383843 -0.710614 2.350939 -0.012292 -0.006301 -186545.000000 1 0 0
-13.687949 11.613002 2.890256 18.181731 -0.703571 1.411154 0.007080 -0.008872 -955251.000000 1 0 0
-16.835249 6.724402 1.913256 18.229200 -0.380010 1.465647 -0.001649 0.003484 834614.000000 1 0 0
-9.342549 13.237502 -8.362144 18.232940 -0.956213 2.047247 0.018908 -0.011534 -921103.000000 1 0 0
-5.574549 9.837702 -12.956444 17.196668 -1.055259 2.424056 -0.003347 -0.000423 -313720.000000 1 0 0
-15.834249 1.850302 3.156256 16.251431 -0.116327 1.375340 -0.012848 0.003005 -621320.000000 1 0 0
-18.714549 -4.871598 4.603556 19.878620 0.254659 1.337091 0.032608 -0.002517 202358.000000 1 0 0
-5.234449 14.413902 -9.190144 17.877884 -1.222452 2.110697 -0.002270 0.002185 283429.000000 1 0 0
-15.547349 -0.752898 -6.795144 16.984136 0.048388 1.982409 0.015514 -0.003404 1052110.000000 1 0 0
-9.001449 10.985302 -9.630444 17.159498 -0.884332 2.166669 0.004674 -0.009503 354638.000000 1 0 0
-16.682249 1.381702 -6.255644 17.870076 -0.082636 1.928434 0.007754 -0.001623 -970571.000000 1 0 0
-11.266949 8.677002 -1.456244 14.295284 -0.656260 1.672842 -0.003388 -0.001798 -221662.000000 1 0 0
-10.703549 11.091302 -12.718644 19.983664 -0.803187 2.260686 0.001342 -0.002839 -256243.000000 1 0 0
-14.041049 11.911002 -10.211544 21.054658 -0.703505 2.077161 0.018395 -0.009148 -204027.000000 1 0 0
-13.186449 5.779502 -7.752044 16.351735 -0.413074 2.064716 0.004551 0.005733 -1490410.000000 1 0 0
-8.802949 15.339902 -4.755144 18.314363 -1.049820 1.833446 0.008784 -0.006977 334139.000000 1 0 0
-8.561249 6.288502 -13.147144 16.902296 -0.633527 2.462005 -0.007835 -0.005382 -322771.000000 1 0 0
-16.300649 7.406302 4.319356 18.417961 -0.426471 1.334073 -0.001919 0.000472 168546.000000 1 0 0
-12.686149 5.541702 -10.311044 17.261705 -0.411849 2.210972 0.003277 0.001777 139536.000000 1 0 0
-12.331549 9.228702 -13.463144 20.457084 -0.642464 2.289111 0.004549 -0.005950 -1107700.000000 1 0 0
-10.750049 5.359002 -8.655544 14.805434 -0.462455 2.195207 -0.008573 0.004740 -1504800.000000 1 0 0
-17.699249 -4.335698 -2.677344 18.418194 0.240234 1.716677 0.007565 -0.004097 508370.000000 1 0 0
-8.840849 13.273102 -10.899244 19.316556 -0.983205 2.170313 0.021611 -0.010559 385347.000000 1 0 0
-14.938349 6.224302 6.101356 17.295165 -0.394791 1.210258 -0.004626 -0.004161 -1448820.000000 1 0 0
-16.322749 -3.107198 -4.485244 17.210585 0.188109 1.834450 0.004802 -0.004414 -562273.000000 1 0 0
-11.208349 -1.210098 -12.580744 16.892795 0.107547 2.410942 0.001815 -0.001100 563790.000000 1 0 0
-15.229449 7.047402 -8.790344 18.943920 -0.433405 2.053323 0.004786 0.005880 -382517.000000 1 0 0
-14.986049 9.316702 1.102256 17.680429 -0.556217 1.508413 0.007545 -0.002880 31377.700000 1 0 0
-19.323449 5.265202 7.997756 21.565763 -0.266019 1.190868 0.024339 -0.007557 99903.800000 1 0 0
-16.194049 0.568002 0.925556 16.230419 -0.035060 1.513739 -0.006003 -0.000092 -1291540.000000 1 0 0
-17.346149 3.838302 7.144056 19.148341 -0.217768 1.188459 0.005578 0.000905 353916.000000 1 0 0
-15.293549 4.090002 -1.577944 15.909452 -0.261318 1.670142 -0.005782 0.000226 -462106.000000 1 0 0
-10.731149 13.354902 0.440056 17.137812 -0.893903 1.545116 0.016203 -0.012474 -614674.000000 1 0 0
-13.437449 3.467902 0.016156 13.877739 -0.252566 1.569632 -0.006437 0.001268 -590398.000000 1 0 0
-15.090049 0.272102 -4.373144 15.713306 -0.018030 1.852829 -0.000485 -0.000236 747653.000000 1 0 0
-18.800549 6.835602 3.529756 20.313672 -0.348726 1.396147 0.001649 0.005518 307658.000000 1 0 0
-14.084049 1.427202 -6.479244 15.568492 -0.100990 2.000033 0.006633 -0.001005 -589657.000000 1 0 0
-14.301849 12.078102 5.416956 19.487607 -0.701300 1.289117 0.003372 -0.010392 236114.000000 1 0 0
17.699651 5.529102 6.431756 19.626923 0.302780 1.236927 0.010630 -0.008313 -71770.000000 1 0 0
18.643451 7.448602 -0.258444 20.078016 0.380100 1.583669 0.007987 0.008337 121786.000000 1 0 0
16.436451 5.325102 8.730956 19.358286 0.313310 1.102890 0.015161 -0.002102 251018.000000 1 0 0
11.509551 12.419902 10.943556 20.161477 0.823423 0.997034 0.014176 0.000724 406103.000000 1 0 0
-2.331749 16.355302 -0.437044 16.526462 -1.429182 1.597244 -0.000979 0.002024 218276.000000 1 0 0
14.931951 12.744002 3.404756 19.923983 0.706506 1.399066 0.014923 -0.001890 152436.000000 1 0 0
13.508751 11.753602 6.740356 19.132849 0.716033 1.210777 0.009549 -0.002777 741784.000000 1 0 0
-0.522249 15.953802 8.707256 18.182762 -1.538073 1.071424 0.003882 0.001352 -27136.800000 1 0 0
0.791351 12.811702 9.385956 15.901638 1.509107 0.939427 -0.000694 -0.000505 -1107280.000000 1 0 0
0.715351 15.460202 -3.783844 15.932578 1.524559 1.810578 -0.003136 0.000596 241583.000000 1 0 0
5.203151 10.180302 13.598756 17.766190 1.098308 0.699089 0.009973 -0.005621 512817.000000 1 0 0
-1.363549 16.568002 -2.742144 16.848658 -1.488681 1.734275 -0.003435 0.002966 -1399050.000000 1 0 0
8.773851 10.085002 3.457156 13.807232 0.854811 1.317716 -0.002909 0.005428 649269.000000 1 0 0
12.598751 13.719002 -4.976544 19.279666 0.827939 1.831876 0.029898 -0.006218 562505.000000 1 0 0
2.521351 11.596102 7.853056 14.230154 1.356698 0.986203 0.006242 0.003818 253781.000000 1 0 0
-0.308049 14.968702 -8.506844 17.219852 -1.550220 2.087496 0.005971 -0.001550 -2310810.000000 1 0 0
2.291251 15.908602 0.246856 16.074650 1.427754 1.555439 0.002769 -0.004795 -945681.000000 1 0 0
1.950451 13.420202 5.262656 14.546533 1.426470 1.200619 0.005925 0.004428 412162.000000 1 0 0
17.578351 9.062202 -2.035644 19.881292 0.475996 1.673366 -0.009159 0.008724 301167.000000 1 0 0
-7.131349 14.825002 7.301456 17.998557 -1.122435 1.153086 0.019477 -0.020399 -951248.000000 1 0 0
8.478651 15.795502 -0.131744 17.927709 1.078162 1.578145 0.006865 -0.005278 28633.000000 1 0 0
15.699351 10.483902 2.252656 19.012004 0.588781 1.452031 0.009067 0.004068 -96.928800 1 0 0
14.154151 7.588902 8.849156 18.336821 0.492156 1.067187 0.021670 -0.003895 -864661.000000 1 0 0
4.232551 18.441802 -1.793344 19.006068 1.345195 1.665293 0.017264 -0.012588 -643388.000000 1 0 0
-0.323149 17.652402 -4.787544 18.292957 -1.552492 1.835595 0.006733 -0.000125 -96721.200000 1 0 0
1.306751 13.682202 -0.787444 13.767001 1.475578 1.628025 -0.000031 -0.003358 514748.000000 1 0 0
10.307051 14.777502 4.151656 18.489081 0.961762 1.344319 0.004046 -0.001668 -587903.000000 1 0 0
-1.675849 15.380002 -5.098944 16.289633 -1.462262 1.889165 0.001209 0.001226 837179.000000 1 0 0
15.283351 8.738002 -6.399244 18.731893 0.519376 1.919439 0.012436 0.002212 727685.000000 1 0 0
-2.403649 18.542502 1.087256 18.729229 -1.441886 1.512712 0.005868 -0.002910 -339162.000000 1 0 0
-3.758549 19.266402 3.672256 19.970137 -1.378133 1.385857 0.013304 -0.013088 439864.000000 1 0 0
1.888451 17.548202 -2.584044 17.837682 1.463594 1.716172 0.006512 -0.007816 62712.700000 1 0 0
2.932051 12.169002 3.405356 12.972200 1.334359 1.305172 0.005358 0.002848 300010.000000 1 0 0
-2.562449 16.086202 1.997656 16.411053 -1.412829 1.448767 0.001538 -0.004989 1267360.000000 1 0 0
11.850751 12.850902 -2.686944 17.686312 0.825865 1.723309 0.010020 0.008180 547650.000000 1 0 0
7.300251 11.737202 4.684356 14.594477 1.014375 1.244045 -0.004601 0.005196 -583387.000000 1 0 0
7.097451 15.638202 1.992356 17.288628 1.144743 1.455299 0.004261 -0.005766 -80016.000000 1 0 0
5.535551 12.191802 10.244456 16.859159 1.144589 0.917699 0.000176 0.004969 888352.000000 1 0 0
-1.286049 14.172302 3.277856 14.603164 -1.480300 1.344405 -0.000381 0.000033 -881624.000000 1 0 0
4.614451 16.031102 1.517256 16.750864 1.290529 1.480094 0.007516 -0.012813 -2586100.000000 1 0 0
7.233851 13.306802 11.763956 19.177858 1.072864 0.910421 0.003830 -0.000906 401462.000000 1 0 0
0.472251 17.338802 -9.194344 19.631429 1.543566 2.058217 0.008076 -0.002772 400133.000000 1 0 0
9.684351 9.766902 15.562356 20.769351 0.789642 0.723801 0.028389 0.001724 -391683.000000 1 0 0
13.536151 7.528002 -0.128844 15.489183 0.507545 1.579115 -0.006626 0.010040 397937.000000 1 0 0
12.479351 13.592002 -0.157444 18.452683 0.828049 1.579329 0.016457 0.006152 875262.000000 1 0 0
9.409851 12.431202 3.560156 15.992335 0.922859 1.346299 -0.001896 0.005889 -830878.000000 1 0 0
-0.673049 12.889602 0.801456 12.932020 -1.518627 1.508782 0.001775 -0.001659 -46755.100000 1 0 0
16.082051 7.207702 -0.865144 17.644597 0.421342 1.619848 -0.001183 0.010240 -630858.000000 1 0 0
-4.075549 18.449802 -2.261344 19.029423 -1.353388 1.689912 0.000687 -0.004224 210894.000000 1 0 0
11.740651 9.310202 -3.217444 15.325622 0.670451 1.782309 0.010528 0.004457 27535.400000 1 0 0
14.729651 9.826802 7.849556 19.368639 0.588333 1.153521 0.013392 -0.009258 1358580.000000 1 0 0
4.566251 13.650402 4.785056 15.168417 1.247983 1.249853 0.007743 0.002865 21898.400000 1 0 0
2.329251 15.979902 5.676956 17.117549 1.426054 1.232749 0.017546 0.000449 484631.000000 1 0 0
6.295451 18.480102 5.308856 20.231926 1.242465 1.305288 0.015632 -0.014226 -199095.000000 1 0 0
10.611751 17.240702 -0.809844 20.260970 1.019053 1.610778 0.019157 -0.004044 -777037.000000 1 0 0
10.003551 13.529602 -4.402744 17.392680 0.934125 1.826719 0.022444 -0.005493 -98283.500000 1 0 0
16.604351 8.007402 2.414256 18.591708 0.449345 1.440572 0.001831 0.002511 432794.000000 1 0 0
3.980851 13.977302 -0.484644 14.541218 1.293334 1.604131 0.002902 -0.003642 274839.000000 1 0 0
5.499251 13.033502 -2.429444 14.353262 1.171527 1.740876 0.005708 -0.007295 -433879.000000 1 0 0
-6.100949 16.820702 -2.932344 18.131636 -1.222848 1.733235 0.002561 -0.003442 -1069040.000000 1 0 0
18.228351 9.917602 2.952656 20.960672 0.498283 1.429460 0.017335 -0.003435 1412270.000000 1 0 0
8.005751 12.839902 9.402856 17.814849 1.013272 1.014776 0.003500 0.002995 -264660.000000 1 0 0
-2.556349 15.816302 6.925956 17.454489 -1.410555 1.162767 0.004462 -0.002676 2649610.000000 1 0 0
11.047251 15.948602 6.399356 20.429180 0.965001 1.252187 0.002375 -0.004527 64551.400000 1 0 0
13.583151 11.894402 1.331156 18.103888 0.719211 1.497201 0.014401 0.004195 1043500.000000 1 0 0
17.488951 7.633502 -5.692844 19.913368 0.411550 1.860721 -0.006063 0.008479 -219569.000000 1 0 0
9.537751 9.230202 8.104056 15.551239 0.769013 1.022634 0.001379 0.002718 -80593.900000 1 0 0
-1.968549 14.219702 -1.875444 14.477306 -1.433233 1.700705 -0.003948 0.001576 393567.000000 1 0 0
10.972551 11.632602 0.677956 16.005434 0.814589 1.528426 0.003096 0.008476 441503.000000 1 0 0
11.778151 9.713102 -0.592544 15.278099 0.689604 1.609590 0.000903 0.008587 -1468900.000000 1 0 0
-0.185849 16.225402 11.240556 19.739511 -1.559343 0.964966 0.006954 -0.005941 -872433.000000 1 0 0
2.178351 19.927302 -1.584444 20.108531 1.461914 1.649673 0.025624 -0.020398 -467469.000000 1 0 0
9.202151 14.273202 1.784556 17.075963 0.998145 1.466098 0.006100 0.001850 -402991.000000 1 0 0
8.582951 11.636102 -5.178744 15.358558 0.935270 1.914726 0.012080 -0.004944 -84408.600000 1 0 0
10.687751 9.956702 10.348556 17.901300 0.750002 0.954411 0.011952 -0.001942 34466.800000 1 0 0
-5.024849 15.673102 5.851956 17.468274 -1.260546 1.229186 -0.001520 -0.011567 -1000000.000000 1 0 0
14.569651 8.956602 -2.055644 17.225595 0.551190 1.690418 0.012207 0.006806 -412534.000000 1 0 0
12.189451 9.545502 7.004756 16.993114 0.664348 1.145916 0.005215 -0.004253 -1066760.000000 1 0 0
3.242851 13.043302 9.761056 16.610901 1.327115 0.942670 0.000454 0.002416 -672154.000000 1 0 0
8.504651 12.589902 -2.710344 15.433103 0.976694 1.747331 0.005833 -0.003351 -606782.000000 1 0 0
9.474351 16.849802 2.090356 19.443475 1.058572 1.463079 0.007162 -0.004672 46753.500000 1 0 0
9.520251 14.211002 -7.509644 18.681073 0.980544 1.984488 0.031507 -0.015966 152426.000000 1 0 0
6.534151 11.371702 7.257156 14.989231 1.049265 1.065396 -0.001611 0.005876 -610705.000000 1 0 0
5.483351 16.892202 -5.627744 18.630220 1.256919 1.877666 0.011286 -0.002557 -1587100.000000 1 0 0
-4.180949 17.288902 -4.671844 18.390557 -1.333523 1.827646 -0.001619 0.002025 145212.000000 1 0 0
-0.275049 18.807102 -0.474244 18.815090 -1.556173 1.596004 0.002921 0.003287 156538.000000 1 0 0
6.562951 15.529402 -2.786544 17.087992 1.170948 1.734598 0.004574 -0.002609 797057.000000 1 0 0
-1.120849 20.768002 1.063056 20.825376 -1.516879 1.519728 0.013704 -0.002701 154854.000000 1 0 0
-1.215849 18.804002 4.376256 19.344777 -1.506227 1.342597 0.016399 -0.011465 832768.000000 1 0 0
7.157551 13.690202 -4.364144 16.052972 1.089058 1.846121 0.010636 -0.004392 -32338.300000 1 0 0
-0.983249 11.940702 7.734056 14.260531 -1.488637 0.997577 0.004686 0.001739 398701.000000 1 0 0
7.700751 10.794402 10.945956 17.194029 0.951132 0.880697 0.004674 -0.000105 164667.000000 1 0 0
1.543651 16.083002 -7.139744 17.664137 1.475109 1.986894 0.003251 -0.004611 -1383060.000000 1 0 0
8.950951 7.308902 14.790056 18.769266 0.684751 0.663253 0.022791 0.003353 148180.000000 1 0 0
11.509251 11.362202 -4.869544 16.890084 0.778969 1.863256 0.017903 -0.000405 75433.800000 1 0 0
-3.126649 16.939702 4.640256 17.839882 -1.388275 1.307665 -0.000589 -0.008559 -448505.000000 1 0 0
3.918251 15.351102 -6.789244 17.236671 1.320890 1.975649 0.006778 -0.009317 -489611.000000 1 0 0
-4.208249 14.257002 9.272056 17.519774 -1.283776 1.013099 0.013568 -0.013558 -387898.000000 1 0 0
6.312651 17.679902 0.388356 18.777095 1.227853 1.550112 0.005185 -0.015822 -410711.000000 1 0 0
9.907751 10.784502 -2.222244 14.812406 0.827744 1.721391 0.004124 0.002680 599916.000000 1 0 0
7.203951 18.056302 -2.674644 19.623472 1.191177 1.707520 0.005177 -0.003708 212831.000000 1 0 0
3.469551 10.466402 10.472256 15.206956 1.250702 0.811172 0.001601 0.005295 644649.000000 1 0 0
0.037251 18.595602 2.094256 18.713196 1.568793 1.458648 0.017766 -0.010266 290416.000000 1 0 0
-0.897549 17.096802 -7.158444 18.556657 -1.518346 1.966829 0.013427 -0.004696 -379146.000000 1 0 0
10.041151 8.971702 13.126756 18.804996 0.729209 0.798131 0.018888 0.005671 -356570.000000 1 0 0
3.714151 11.334302 5.561156 13.160082 1.254132 1.134509 0.000223 0.006068 728458.000000 1 0 0
12.960851 13.952602 8.153856 20.715794 0.822231 1.166246 0.007705 -0.004771 -45855.000000 1 0 0
-0.477949 17.454002 6.798556 18.737422 -1.543420 1.199490 0.015650 -0.006030 -681778.000000 1 0 0
12.094351 13.654502 5.671456 19.101941 0.845915 1.269347 0.004287 -0.002394 -413379.000000 1 0 0
4.808151 14.496402 -4.430344 15.902576 1.250535 1.853125 0.002539 -0.005009 -1280230.000000 1 0 0
3.984751 17.570202 4.658056 18.608807 1.347779 1.317791 0.021262 -0.011317 -1339430.000000 1 0 0
7.216451 11.628502 2.048356 13.838171 1.015380 1.422228 0.003233 0.003440 846531.000000 1 0 0
6.443651 8.626102 11.809456 15.981036 0.929221 0.739261 0.004930 0.001848 607691.000000 1 0 0
-5.391649 14.977902 1.916056 16.033673 -1.225264 1.451008 -0.002014 0.003606 -65709.700000 1 0 0
6.927551 13.753002 5.999956 16.526811 1.104184 1.199264 0.000335 0.003061 -1113490.000000 1 0 0
6.069151 15.910102 4.998956 17.746985 1.206370 1.285253 0.008128 -0.004866 916032.000000 1 0 0
1.397051 17.988402 4.374056 18.565202 1.493288 1.332955 0.026874 -0.010124 689261.000000 1 0 0
7.393051 17.945502 -7.041344 20.646519 1.180012 1.918822 0.019020 -0.006508 411599.000000 1 0 0
-2.342149 18.876502 -5.605444 19.830002 -1.447350 1.857378 0.009080 -0.002797 -1693470.000000 1 0 0
13.675751 9.990902 -4.699844 17.576485 0.630940 1.841484 0.014511 0.003060 -923741.000000 1 0 0
-1.416249 18.101902 9.891056 20.676499 -1.492718 1.071997 0.019165 -0.008864 -315302.000000 1 0 0
3.437751 11.754602 -1.537344 12.343104 1.286271 1.695671 0.006289 -0.004072 -440418.000000 1 0 0
4.278051 14.050002 -10.812944 18.237983 1.275228 2.205427 0.004237 -0.015829 -629565.000000 1 0 0
11.564451 13.348802 2.350156 17.817134 0.856899 1.438507 0.010292 0.000781 1215720.000000 1 0 0
15.774951 6.325802 -7.172344 18.447422 0.381371 1.970124 -0.017040 0.000678 -360817.000000 1 0 0
2.539251 16.107602 2.953756 16.571883 1.414440 1.391600 0.009017 -0.004749 -219384.000000 1 0 0
13.476051 10.658302 3.627556 17.560254 0.669172 1.362720 0.006998 0.004479 -38523.700000 1 0 0
-4.814549 19.666402 -5.681744 21.029252 -1.330707 1.844379 -0.008494 -0.000063 446106.000000 1 0 0
5.422051 11.866702 0.049456 13.046827 1.142208 1.567006 0.007396 -0.000769 1045920.000000 1 0 0
4.964351 15.533502 9.656456 18.952087 1.261465 1.036170 0.009046 0.003258 -70035.400000 1 0 0
7.672551 9.459302 13.966956 18.531657 0.889317 0.717151 0.012110 -0.003901 -1010410.000000 1 0 0
-5.073749 13.359202 6.941656 15.887032 -1.207829 1.118604 0.006796 -0.011680 -1787550.000000 1 0 0
-4.531249 17.143502 0.713356 17.746570 -1.312393 1.530589 0.003919 0.001289 -3249060.000000 1 0 0
-0.494649 16.502802 3.641356 16.906999 -1.540832 1.353720 0.008493 -0.006489 -1545210.000000 1 0 0
7.848351 16.848602 -4.814044 19.200182 1.134868 1.824230 0.009665 -0.003204 229211.000000 1 0 0
3.097251 16.343902 -4.512244 17.235905 1.383512 1.835676 0.003240 -0.005562 759064.000000 1 0 0
9.665251 14.348402 8.373456 19.220002 0.978001 1.120021 0.012921 -0.001375 346081.000000 1 0 0
12.807751 11.014102 9.162156 19.217024 0.710246 1.073817 0.013223 -0.007622 1264620.000000 1 0 0
3.739351 12.414302 12.206556 17.807236 1.278227 0.815530 0.003751 0.000715 662435.000000 1 0 0
-3.207849 18.962502 6.210256 20.209751 -1.403215 1.258452 0.015137 -0.014617 -3493.360000 1 0 0
-2.530049 15.846802 10.389756 19.117251 -1.412476 0.996225 0.012740 -0.006761 -1025760.000000 1 0 0
2.150551 14.214702 7.636456 16.278761 1.420644 1.082519 0.009576 -0.002285 288274.000000 1 0 0
4.640751 17.428302 7.828756 19.661426 1.310558 1.161266 0.023757 -0.008461 -179557.000000 1 0 0
-1.758349 13.573802 9.514756 16.669447 -1.441974 0.963328 0.006892 -0.002175 -1015540.000000 1 0 0
5.986851 17.733402 2.956056 18.948725 1.245208 1.414154 0.007594 -0.014732 804516.000000 1 0 0
7.304451 15.280902 -6.789844 18.247272 1.124894 1.952069 0.016834 -0.010859 -434076.000000 1 0 0
10.962551 7.573002 9.469356 16.346149 0.604529 0.952924 0.005603 -0.001126 -371666.000000 1 0 0
9.102651 16.338802 -2.610044 18.884571 1.062504 1.709451 0.013510 -0.005432 -613067.000000 1 0 0
14.440551 11.251202 -6.761944 19.515198 0.661891 1.924630 0.015786 -0.002439 421696.000000 1 0 0
11.093551 6.500802 16.088156 20.595050 0.530060 0.674265 0.050852 -0.009122 -539049.000000 1 0 0
8.541151 8.390602 10.226656 15.746046 0.776507 0.863903 0.003583 0.001648 424802.000000 1 0 0
16.265151 9.432102 4.618456 19.361039 0.525506 1.329930 0.006048 -0.004549 -133910.000000 1 0 0
-3.174849 14.223602 4.889256 15.371901 -1.351186 1.247109 -0.006180 -0.003850 -1336960.000000 1 0 0
4.511451 14.802502 12.767856 20.062039 1.274963 0.880950 -0.000646 0.006166 -55312.200000 1 0 0
16.161551 10.658702 -4.794044 19.944586 0.583031 1.813541 0.012491 0.002412 918129.000000 1 0 0
14.640251 14.056802 6.173956 21.214343 0.765070 1.275496 0.011596 -0.001400 351265.000000 1 0 0
6.245051 9.457202 9.349156 14.691700 0.987180 0.881031 -0.001456 0.006181 874783.000000 1 0 0
10.491751 12.019602 8.659956 18.153306 0.853164 1.073506 0.009978 -0.004756 -558429.000000 1 0 0
8.042351 11.547002 -0.417044 14.077876 0.962431 1.600425 0.005410 0.000825 1184490.000000 1 0 0
7.410451 13.418202 -8.729544 17.639950 1.066213 2.088486 0.022709 -0.011810 -1731040.000000 1 0 0
2.758251 15.150902 -2.298544 15.570519 1.390717 1.718959 0.002354 -0.002275 293425.000000 1 0 0
12.126751 13.457902 -7.708344 19.687351 0.837381 1.973099 0.027461 -0.020184 235642.000000 1 0 0
-8.035449 14.733402 9.736256 19.401965 -1.071499 1.045097 0.019188 -0.019437 342382.000000 1 0 0
11.495951 9.763702 2.241056 15.248249 0.704097 1.423291 0.005249 0.006029 -1563490.000000 1 0 0
12.073751 8.704802 4.545756 15.563192 0.624661 1.274391 0.002295 0.002284 347264.000000 1 0 0
14.009751 8.031402 6.228556 17.308133 0.520535 1.202675 0.004837 -0.002506 -3071310.000000 1 0 0
16.253451 7.453702 7.331956 19.325887 0.429976 1.181665 0.015148 -0.009793 227405.000000 1 0 0
13.586551 8.314002 2.464456 16.118019 0.549145 1.417294 -0.001996 0.005125 -1682900.000000 1 0 0
-3.985549 17.732802 -7.220144 19.556772 -1.349714 1.948932 -0.003783 0.005576 -486684.000000 1 0 0
3.219351 19.362502 -4.024044 20.036557 1.406036 1.773007 0.020073 -0.015066 559776.000000 1 0 0
-0.016549 14.950702 6.388656 16.258496 -1.569689 1.166967 0.010357 0.000104 -117016.000000 1 0 0
6.965451 16.359102 8.233356 19.594026 1.168261 1.137134 0.012506 0.004981 367759.000000 1 0 0
12.904451 15.232402 -1.966444 20.060354 0.867947 1.668980 0.026767 -0.001479 -183838.000000 1 0 0
12.660651 15.938102 4.366156 20.817745 0.899502 1.359495 0.010751 0.003162 263944.000000 1 0 0
3.125551 18.088402 1.362556 18.406952 1.399693 1.496705 0.021194 -0.013107 -667266.000000 1 0 0
10.449951 14.622302 -1.392044 18.026396 0.950300 1.648096 0.011742 0.007971 -816480.000000 1 0 0
-6.180749 15.798302 -0.497044 16.971595 -1.197874 1.600087 -0.004614 -0.000410 -2284.590000 1 0 0
-3.801049 15.872002 -2.580944 16.523610 -1.335742 1.727636 -0.002248 0.000995 -1928100.000000 1 0 0
-6.899449 17.080602 1.677056 18.497618 -1.186903 1.480008 0.010380 -0.003552 -624481.000000 1 0 0
0.031851 19.444702 -6.480244 20.496121 1.569158 1.892485 0.018940 -0.008842 121494.000000 1 0 0
4.957551 14.964602 7.084256 17.283035 1.250890 1.148456 0.011937 0.002555 -62295.600000 1 0 0
8.835451 12.345402 6.877356 16.666498 0.949619 1.145440 0.005600 0.002373 -835343.000000 1 0 0
-7.568249 17.541202 -5.504344 19.881397 -1.163470 1.851320 0.009328 -0.004880 408535.000000 1 0 0
-7.813449 17.737602 -1.200444 19.419412 -1.155869 1.632652 0.019752 -0.009396 136649.000000 1 0 0
-13.889549 -9.107298 8.989756 18.885925 0.580368 1.074692 0.023002 -0.008779 893103.000000 1 0 0
-12.815149 -13.116498 7.412856 19.779308 0.797019 1.186639 0.020682 0.005600 97320.700000 1 0 0
-3.789649 -15.160198 12.544956 20.039186 1.325843 0.894356 -0.004848 0.004822 73108.600000 1 0 0
-2.012949 -14.177398 15.206756 20.887700 1.429756 0.755361 0.004413 0.006775 616296.000000 1 0 0
-7.299149 -13.551898 12.825056 20.035309 1.076742 0.876138 0.015188 -0.008402 -247915.000000 1 0 0
-9.970649 -11.556298 8.926356 17.681677 0.858924 1.041604 0.011863 -0.001830 362845.000000 1 0 0
-10.637049 -10.734498 11.247856 18.838539 0.789958 0.930957 0.021779 -0.007087 359226.000000 1 0 0
-6.110749 -12.264898 10.821056 17.460362 1.108565 0.902372 0.007482 -0.002762 431101.000000 1 0 0
-12.499249 -10.483398 7.214456 17.837636 0.697910 1.154417 0.009711 0.002516 -266006.000000 1 0 0
-7.629549 -11.050898 12.632056 18.436410 0.966542 0.815961 0.005388 -0.007166 304431.000000 1 0 0
-14.905249 -11.503998 7.079156 20.115240 0.657313 1.211164 0.023787 -0.001681 -574264.000000 1 0 0
-11.277349 -9.302498 9.140156 17.241158 0.689731 1.012036 0.012382 0.001950 -805694.000000 1 0 0
-5.253949 -12.098798 13.261656 18.704449 1.161114 0.782702 0.006779 -0.006364 -626314.000000 1 0 0
3.872851 -12.448498 14.563756 19.546536 -1.269178 0.730140 -0.012692 0.000325 427475.000000 1 0 0
6.435951 -12.637998 14.275756 20.123064 -1.099773 0.782118 0.007709 -0.001448 -673240.000000 1 0 0
6.568851 -8.397598 16.003156 19.229417 -0.906985 0.587692 -0.004178 -0.007924 -381182.000000 1 0 0
0.673051 -1.672998 14.429356 14.541604 -1.188307 0.124330 0.002245 -0.003984 -1780820.000000 1 0 0
-0.184849 -6.272998 15.546056 16.764980 1.541337 0.383680 -0.000075 -0.006396 375432.000000 1 0 0
-1.538049 -4.604598 18.231656 18.866934 1.248424 0.260239 0.008787 -0.027062 -1958900.000000 1 0 0
-5.281449 12.660602 12.784756 18.751921 -1.175588 0.820598 0.013991 -0.012921 -1535910.000000 1 0 0
-4.137049 8.854002 11.736756 15.272851 -1.133689 0.694347 0.003598 0.001590 -204560.000000 1 0 0
-0.676749 -3.839098 15.007756 15.505786 1.396311 0.254135 0.002959 -0.005499 -283838.000000 1 0 0
-4.501049 9.283702 14.319756 17.649418 -1.119355 0.624348 0.010765 -0.000021 494869.000000 1 0 0
-13.463449 -2.575298 16.752256 21.645663 0.188998 0.685771 0.006837 0.005520 -3604.970000 1 0 0
-0.257849 0.804002 17.409856 17.430318 -1.260452 0.048460 0.005481 -0.005263 -146263.000000 1 0 0
-3.427249 -7.376998 15.400656 17.416841 1.135879 0.485934 0.005810 -0.009780 263174.000000 1 0 0
-7.348749 5.475402 12.595456 15.576574 -0.640344 0.629002 -0.002956 -0.002762 -842989.000000 1 0 0
-9.874049 9.876302 13.425556 19.372241 -0.785512 0.805112 -0.000624 -0.005796 345417.000000 1 0 0
-5.556849 2.269802 11.200256 12.707333 -0.387786 0.491976 -0.001023 0.002622 -2624480.000000 1 0 0
-7.222549 -7.582298 16.921656 19.899721 0.809693 0.554153 0.014137 -0.011914 -165523.000000 1 0 0
-4.722349 2.823202 18.659356 19.453602 -0.538829 0.286735 0.011603 -0.003841 -1246360.000000 1 0 0
0.936551 -8.319698 16.576256 18.570589 -1.458698 0.467699 -0.005734 -0.005802 663394.000000 1 0 0
-15.016849 -3.640398 13.994556 20.847203 0.237833 0.834846 0.021330 -0.004593 209675.000000 1 0 0
-14.192849 2.006302 12.994256 19.347168 -0.140430 0.834381 -0.007564 0.000013 -1091500.000000 1 0 0
-5.502149 1.044702 16.153556 17.096854 -0.187638 0.333733 0.008474 -0.004381 591794.000000 1 0 0
4.511251 5.646602 15.210156 16.839963 0.896707 0.443587 0.003477 0.002026 -309711.000000 1 0 0
-1.154249 -12.069898 13.886856 18.435279 1.475456 0.717767 -0.006541 -0.002277 78498.900000 1 0 0
-5.859349 -4.086998 16.881356 18.330731 0.609058 0.400331 0.016189 -0.008556 475080.000000 1 0 0
-12.889249 -1.560998 9.896856 16.325355 0.120522 0.919490 0.001267 0.001225 -960814.000000 1 0 0
-14.279249 10.441502 10.103456 20.371591 -0.631384 1.051858 -0.010677 -0.002598 462144.000000 1 0 0
-3.575249 -3.297998 17.726456 18.381688 0.745082 0.267805 0.012574 -0.015838 -2956700.000000 1 0 0
-7.869249 9.306002 11.885156 17.023034 -0.868856 0.797943 -0.000379 -0.006942 -171360.000000 1 0 0
-4.315449 10.682802 16.507656 20.130774 -1.186879 0.609349 0.014311 0.002425 41610.100000 1 0 0
-12.512649 12.623902 8.223156 19.584422 -0.789824 1.137480 0.002351 -0.015040 144032.000000 1 0 0
-12.615549 3.115902 10.555656 16.741648 -0.242143 0.888596 -0.006679 -0.001424 178518.000000 1 0 0
-10.065249 -3.418898 13.680556 17.325003 0.327446 0.660570 0.004391 -0.000142 -1433090.000000 1 0 0
-4.387849 -6.538598 17.775056 19.441171 0.979752 0.417021 0.018418 -0.012244 -557558.000000 1 0 0
0.831751 -3.618498 17.760156 18.144103 -1.344860 0.206088 0.002940 -0.022573 -865062.000000 1 0 0
-5.948049 1.913202 13.709456 15.066148 -0.311201 0.427630 0.001487 -0.000335 -742806.000000 1 0 0
-10.578449 8.636202 10.306056 17.108546 -0.684659 0.924301 -0.000180 -0.012699 228502.000000 1 0 0
4.562051 2.478102 17.191256 17.958079 0.497607 0.293285 0.002192 -0.006232 -1896940.000000 1 0 0
0.338251 -5.387898 13.110056 14.178062 -1.508099 0.390623 0.000351 -0.003628 -380774.000000 1 0 0
-4.134149 5.626202 20.777156 21.918840 -0.937093 0.324177 0.034819 -0.005081 -412283.000000 1 0 0
-10.924949 10.807002 9.031656 17.824607 -0.779971 1.039448 0.012726 -0.014262 655419.000000 1 0 0
0.701651 4.198602 13.051756 13.728398 1.405211 0.315271 0.009398 -0.003789 -2719030.000000 1 0 0
-3.126549 7.179202 13.399356 15.519632 -1.160065 0.528864 0.006528 0.002328 -936663.000000 1 0 0
0.623951 8.869502 14.134456 16.698510 1.500564 0.561514 0.000249 -0.000870 165572.000000 1 0 0
-4.180249 -6.676598 13.077056 15.266331 1.011403 0.542163 0.003164 -0.004425 -26107.600000 1 0 0
-5.178549 8.230302 16.552356 19.197284 -1.009179 0.531153 0.014635 0.005115 318884.000000 1 0 0
1.495951 -10.586898 15.796056 19.074477 -1.430424 0.595041 -0.016658 0.000792 -496184.000000 1 0 0
-15.147849 -1.053098 14.297856 20.856535 0.069410 0.815460 0.008835 0.004088 874914.000000 1 0 0
-13.690849 -5.357498 8.376856 16.920811 0.373001 1.052890 0.015861 -0.003279 -116857.000000 1 0 0
-14.224249 -1.873498 12.062456 18.744122 0.130958 0.871692 0.012225 -0.003686 648098.000000 1 0 0
9.367651 1.202302 16.967156 19.418620 0.127648 0.507922 0.029911 -0.005134 -112142.000000 1 0 0
4.889151 -6.692498 16.923456 18.844010 -0.939865 0.455408 0.000683 -0.009034 -745969.000000 1 0 0
-6.099349 -2.651798 11.141956 12.976027 0.410115 0.538153 -0.003264 0.002428 244760.000000 1 0 0
0.457051 -6.204498 17.908356 18.958215 -1.497265 0.334354 0.000075 -0.022349 -5158.100000 1 0 0
-8.540349 11.828702 12.195256 19.015257 -0.945456 0.874552 0.010240 -0.008852 70753.700000 1 0 0
-6.754049 -5.799898 14.929756 17.382567 0.709540 0.537693 0.016138 -0.003661 -1182560.000000 1 0 0
-4.415449 -8.952498 17.090456 19.792097 1.112597 0.528630 0.021866 -0.014844 93471.100000 1 0 0
2.442151 -6.146598 16.253656 17.547824 -1.192605 0.386460 -0.004173 -0.011259 -602883.000000 1 0 0
2.222151 5.168802 15.982756 16.944113 1.164769 0.338472 0.006801 -0.004407 -2245250.000000 1 0 0
0.759151 -8.897398 13.952356 16.565273 -1.485680 0.569324 -0.007541 -0.003089 -1019750.000000 1 0 0
-9.914949 -2.795598 11.246456 15.251372 0.274823 0.741574 -0.010712 0.000594 820901.000000 1 0 0
-1.287849 10.077202 12.430656 16.053964 -1.443687 0.685181 0.002037 -0.001046 -476858.000000 1 0 0
-12.358549 -3.731698 11.407456 17.227576 0.293247 0.847095 0.006062 -0.001164 -1338870.000000 1 0 0
-1.955349 6.664702 19.968556 21.142017 -1.285416 0.334738 0.024035 -0.007211 -1352740.000000 1 0 0
0.464651 -13.311598 15.445856 20.395809 -1.535905 0.711619 -0.019876 -0.004987 -604875.000000 1 0 0
4.021951 -8.600198 15.346056 18.045524 -1.133355 0.554036 -0.004927 -0.004771 -605801.000000 1 0 0
4.349451 -4.350698 16.150156 17.282183 -0.785542 0.363952 0.002338 -0.008792 -1065600.000000 1 0 0
8.037951 1.772702 14.828856 16.960133 0.217067 0.506730 0.010627 0.001629 -29941.800000 1 0 0
-6.352949 -0.055098 11.915256 13.503197 0.008673 0.489852 -0.001055 0.002294 338038.000000 1 0 0
-3.411549 -10.928398 18.441056 21.705785 1.268210 0.555586 0.026061 -0.013268 -363102.000000 1 0 0
3.256651 -1.566598 13.527756 14.002150 -0.448370 0.261048 0.003659 -0.006492 590666.000000 1 0 0
-2.636249 8.624902 16.104256 18.457676 -1.274159 0.510508 0.018969 0.001126 -1383780.000000 1 0 0
-3.153949 4.004002 14.906056 15.753410 -0.903601 0.329478 0.007901 -0.002433 -684805.000000 1 0 0
-4.583349 -9.087998 19.757856 22.225474 1.103691 0.475698 0.026820 -0.015300 -11989.400000 1 0 0
-5.768049 -2.913498 19.119656 20.182173 0.467727 0.325929 0.017441 -0.016074 -692964.000000 1 0 0
-6.606149 -8.692098 11.036256 15.523941 0.920915 0.779993 0.005996 -0.004980 24821.500000 1 0 0
-11.572049 2.360202 12.711556 17.351269 -0.201198 0.748661 -0.002657 -0.005689 -408188.000000 1 0 0
-11.633149 -7.581998 11.769856 18.202922 0.577610 0.867688 0.010495 0.000583 -113850.000000 1 0 0
-11.164349 -7.333698 15.438456 20.414988 0.581200 0.713262 0.036316 -0.025020 145154.000000 1 0 0
0.258551 5.617002 17.706756 18.578126 1.524799 0.307488 0.011402 -0.005730 -12638.500000 1 0 0
-2.198149 -0.017898 13.194556 13.376416 0.008142 0.165084 0.006132 -0.000939 229917.000000 1 0 0
-6.000549 -10.646498 18.186556 21.911306 1.057559 0.591675 0.017880 -0.014454 -1093640.000000 1 0 0
0.412151 2.623802 19.168256 19.351389 1.414988 0.137684 0.014187 -0.012351 -299216.000000 1 0 0
-0.851649 10.890202 14.826456 18.415906 -1.492752 0.634970 0.002829 -0.003337 -229603.000000 1 0 0
-12.782349 -2.121598 14.246456 19.257496 0.164479 0.738042 0.008110 -0.002560 402095.000000 1 0 0
-13.697149 8.372802 11.641556 19.830318 -0.548673 0.943376 0.000580 -0.009533 602499.000000 1 0 0
-17.896949 -0.471998 7.128556 19.270181 0.026367 1.191866 0.023702 -0.011139 -392302.000000 1 0 0
-2.149349 -7.856798 17.696856 19.481471 1.303764 0.431369 0.002464 -0.013731 -1883770.000000 1 0 0
5.656051 2.651002 14.468056 15.758914 0.438297 0.407569 0.003964 -0.001547 -2705480.000000 1 0 0
-14.174449 -7.097598 11.108356 19.356820 0.464233 0.959569 0.027491 -0.003459 1015380.000000 1 0 0
3.330351 7.588202 16.314956 18.298903 1.157224 0.469972 0.008349 -0.012456 -410509.000000 1 0 0
1.023351 2.090202 14.676956 14.860324 1.115508 0.157257 0.007614 -0.006972 -2223170.000000 1 0 0
-14.267249 0.736302 9.857856 17.357242 -0.051562 0.966797 0.001989 0.001185 -1456630.000000 1 0 0
-9.539049 -5.208698 15.580256 18.996536 0.499798 0.609100 0.012525 -0.003820 -714455.000000 1 0 0
-2.602449 -0.156998 18.095356 18.282213 0.060254 0.143095 0.010127 -0.012266 46986.300000 1 0 0
6.705651 3.849902 17.549456 19.177354 0.521179 0.415007 0.018617 -0.005087 -619915.000000 1 0 0
-4.219649 -0.748698 14.747256 15.357329 0.175604 0.282811 0.008872 0.001826 -6757.050000 1 0 0
4.581751 -9.095298 17.722156 20.439954 -1.104154 0.521576 -0.004390 -0.004900 -101753.000000 1 0 0
2.053351 6.968402 13.532756 15.359374 1.284240 0.492667 0.010924 0.001445 -426122.000000 1 0 0
-3.750349 -0.798598 20.324356 20.682900 0.209806 0.186470 0.017745 -0.013011 -867494.000000 1 0 0
-10.641649 1.514202 16.436256 19.638941 -0.141341 0.579162 0.000966 -0.000483 -43522.200000 1 0 0
-4.063049 6.968402 18.556156 20.233584 -1.042920 0.410060 0.026282 0.003180 -317746.000000 1 0 0
-12.613449 1.148502 14.706856 19.409013 -0.090803 0.710964 0.003248 -0.002969 976801.000000 1 0 0
-16.065149 -4.596998 8.485256 18.740890 0.278700 1.100930 0.027000 -0.005617 -2332180.000000 1 0 0
-2.336749 0.903802 15.726256 15.924584 -0.369056 0.157988 0.010145 -0.003796 301117.000000 1 0 0
-13.572549 -8.680798 13.089256 20.758106 0.569019 0.888520 0.004964 -0.006019 593488.000000 1 0 0
6.082851 -3.218998 14.491856 16.042971 -0.486728 0.443361 0.008020 -0.008519 662514.000000 1 0 0
-15.553149 0.535602 7.562056 17.302370 -0.034423 1.118477 0.008319 -0.004364 197456.000000 1 0 0
-14.178549 5.893102 12.223856 19.626068 -0.393912 0.898432 0.009517 -0.015172 673234.000000 1 0 0
0.310051 9.668102 16.728856 19.324155 1.538738 0.524256 0.009678 -0.005844 -356487.000000 1 0 0
-10.424149 -5.434798 10.817956 15.975860 0.480594 0.826922 0.007640 -0.003199 248751.000000 1 0 0
-3.308049 -11.093298 15.006156 18.952287 1.280989 0.657069 0.010540 -0.006797 -2183720.000000 1 0 0
-3.523649 2.737602 12.636856 13.401519 -0.660510 0.339437 0.003268 0.000306 -1536880.000000 1 0 0
-12.323949 -7.812798 7.345356 16.336272 0.565011 1.104440 0.013976 -0.003124 -14465.000000 1 0 0
-8.101249 -1.925198 13.267456 15.664036 0.233314 0.560478 -0.001518 0.002731 -492001.000000 1 0 0
-9.778849 6.457302 9.543556 15.112978 -0.583605 0.887335 -0.001116 -0.005683 -1177780.000000 1 0 0
-18.138649 -3.419998 6.561456 19.589785 0.186360 1.229252 0.033264 -0.010892 722643.000000 1 0 0
-1.289849 -0.020198 20.414356 20.455074 0.015658 0.063107 0.010429 -0.017660 -1044770.000000 1 0 0
-2.744949 2.503802 20.288756 20.626134 -0.739487 0.181116 0.017341 -0.008158 -421578.000000 1 0 0
-3.815549 11.311102 11.158256 16.340322 -1.245455 0.819117 0.004614 -0.007783 -643672.000000 1 0 0
-4.253149 -4.974298 14.951456 16.321120 0.863392 0.412603 0.005660 -0.005787 24633.600000 1 0 0
-0.157449 -14.375498 13.197356 19.515377 1.559844 0.828130 -0.013693 0.001307 -610758.000000 1 0 0
-12.136649 0.384202 8.395556 14.762494 -0.031646 0.965861 -0.003382 -0.000263 -842165.000000 1 0 0
-7.817149 2.218902 15.531556 17.528850 -0.276576 0.482028 0.003943 0.003078 -501406.000000 1 0 0
3.516751 -2.290598 18.347656 18.821553 -0.577316 0.224877 0.007910 -0.014434 -421883.000000 1 0 0
-2.087349 4.862602 12.664656 13.725722 -1.165318 0.395783 0.001278 0.000590 -447195.000000 1 0 0
-10.135049 -6.198698 13.308256 17.839640 0.548913 0.728771 -0.003071 -0.006607 73751.000000 1 0 0
2.196851 -3.738298 14.180456 14.828566 -1.039499 0.296746 -0.000740 -0.005918 -936724.000000 1 0 0
6.808851 1.224102 17.086356 18.433731 0.177881 0.384711 0.012906 -0.002913 -1699500.000000 1 0 0
-2.028849 -5.727398 13.856856 15.130492 1.230353 0.413243 -0.002549 -0.003027 -2393000.000000 1 0 0
-12.938849 3.785502 14.421856 19.741676 -0.284625 0.751701 -0.005892 -0.001601 179977.000000 1 0 0
-13.175249 -6.185998 13.355356 19.753969 0.438965 0.828360 -0.000217 -0.011550 -431739.000000 1 0 0
-9.462749 6.912102 12.037756 16.799653 -0.630874 0.771956 -0.006979 -0.002200 -264093.000000 1 0 0
-1.133149 -2.382598 12.808256 13.077164 1.126864 0.203146 0.002438 0.000419 574895.000000 1 0 0
0.151151 6.697002 15.401656 16.795347 1.548230 0.410255 0.008769 -0.001733 531266.000000 1 0 0
-16.373149 -0.744198 9.692156 19.041316 0.045421 1.036766 0.022989 -0.005055 144717.000000 1 0 0
-1.204649 2.719302 13.692256 14.011555 -1.153779 0.213894 0.006996 -0.003207 -2488770.000000 1 0 0
-11.194749 -3.411998 16.011056 19.832248 0.295841 0.631193 0.008167 -0.007300 -311370.000000 1 0 0
-5.160849 -1.417498 17.107556 17.925182 0.268054 0.303197 0.017849 -0.005726 91913.600000 1 0 0
-11.840249 6.532202 11.170356 17.539613 -0.504143 0.880372 -0.002942 -0.004697 -1761500.000000 1 0 0
-2.771549 4.690402 18.735656 19.511693 -1.037096 0.282982 0.020714 -0.004090 290328.000000 1 0 0
5.186051 -1.852798 16.373856 17.275160 -0.343133 0.324449 0.003963 -0.009182 -365083.000000 1 0 0
-8.034449 -4.205598 12.164656 15.172946 0.482228 0.640607 0.004249 -0.000928 -1999120.000000 1 0 0
-11.571449 -0.808098 16.151456 19.885195 0.069722 0.622823 0.012649 0.001631 338935.000000 1 0 0
2.101651 1.995602 17.305456 17.546458 0.759521 0.165931 0.004909 -0.008984 -730705.000000 1 0 0
-8.860349 -7.456498 11.609956 16.398056 0.699573 0.784123 0.004720 -0.005246 1062160.000000 1 0 0
-7.229849 6.731502 14.885256 17.864901 -0.749719 0.585904 -0.008463 -0.001179 -515852.000000 1 0 0
-5.576649 3.520102 15.877556 17.192641 -0.563061 0.393667 0.003457 -0.001092 131737.000000 1 0 0
-9.333149 4.308202 11.622256 15.515963 -0.432460 0.724167 -0.003527 -0.005902 -142615.000000 1 0 0
-10.152149 0.163002 14.229656 17.480727 -0.016054 0.619757 0.004010 -0.001424 -197207.000000 1 0 0
8.088951 -0.713198 15.806856 17.770664 -0.087942 0.474565 0.011315 -0.004363 23995.300000 1 0 0
-8.699149 -7.624298 14.829856 18.807705 0.719646 0.662432 0.023712 -0.004118 -1619130.000000 1 0 0
-0.169849 4.139402 15.595456 16.136349 -1.529787 0.259650 0.008649 -0.008370 -470491.000000 1 0 0
-8.071249 3.097302 9.648356 12.954888 -0.366415 0.730613 -0.006956 0.001190 -779831.000000 1 0 0
-2.174849 -9.753698 13.134356 16.503815 1.351408 0.650407 -0.004398 -0.005160 441950.000000 1 0 0
-6.029949 10.300802 10.509956 15.903647 -1.041191 0.848843 0.009292 -0.009274 -2149470.000000 1 0 0
-8.622249 -2.765598 15.717556 18.139275 0.310384 0.522663 0.007161 -0.005741 354886.000000 1 0 0
4.089751 5.588602 17.786656 19.087265 0.939044 0.371291 0.006714 -0.009297 90172.700000 1 0 0
-6.818849 -0.951098 15.251856 16.733810 0.138587 0.424027 0.005368 0.000169 -251001.000000 1 0 0
-1.031749 -9.919998 15.494956 18.427277 1.467162 0.571907 -0.014204 -0.002964 676578.000000 1 0 0
-4.331349 5.768802 16.325456 17.848254 -0.926769 0.416079 0.011780 -0.000492 -86006.600000 1 0 0
3.783951 0.051702 17.382856 17.790015 0.013663 0.214359 0.002572 -0.009295 -477661.000000 1 0 0
1.538151 0.370102 19.315756 19.380437 0.236126 0.081722 0.003220 -0.008318 -238852.000000 1 0 0
-6.428649 6.317702 17.906456 20.046996 -0.776694 0.466331 0.007501 0.005673 -578257.000000 1 0 0
-12.020449 0.549202 11.027056 16.321421 -0.045657 0.828993 -0.000744 -0.000771 -504563.000000 1 0 0
-5.263349 5.205502 13.999856 15.836542 -0.779873 0.486398 0.001847 -0.000573 -1628730.000000 1 0 0
-8.770149 -9.469998 9.933156 16.286926 0.823748 0.914881 0.012907 -0.002589 -434187.000000 1 0 0
6.765851 -3.672598 16.999056 18.660992 -0.497309 0.425238 0.005066 -0.008758 -445013.000000 1 0 0
-16.590849 1.892302 9.651656 19.287082 -0.113566 1.046712 0.020807 -0.002839 448608.000000 1 0 0
-4.139349 -9.596598 11.402356 15.467470 1.163572 0.741905 0.003816 -0.010114 -982624.000000 1 0 0
-11.117449 -3.826298 9.163756 14.906799 0.331472 0.908744 -0.001590 0.000990 -490376.000000 1 0 0
3.484851 -5.210998 18.481056 19.515331 -0.981353 0.327026 -0.003464 -0.018195 -181109.000000 1 0 0
2.569051 -1.846798 16.015856 16.325389 -0.623275 0.195041 0.002241 -0.008046 -123416.000000 1 0 0
-3.141449 -4.388898 20.184356 20.893525 0.949564 0.261288 0.016272 -0.023694 -994462.000000 1 0 0
-6.276149 -3.350498 14.509056 16.159474 0.490357 0.455896 0.007418 0.000638 1137790.000000 1 0 0
-9.635949 5.164602 13.953056 17.726037 -0.492010 0.664621 -0.006018 -0.001313 581593.000000 1 0 0
-5.899849 -5.283798 11.767656 14.184656 0.730369 0.592397 0.001739 0.002039 -401562.000000 1 0 0
5.971951 2.158802 19.433056 20.444273 0.346874 0.315833 0.021225 -0.009722 -109244.000000 1 0 0
-2.824249 11.903002 13.474656 18.199566 -1.337832 0.737156 0.016617 -0.011636 -997074.000000 1 0 0
3.424751 1.226302 15.106756 15.538559 0.343846 0.236300 0.002144 -0.006668 -1073430.000000 1 0 0
-5.739249 7.483702 12.918656 15.994888 -0.916567 0.630600 -0.003269 -0.001672 -1237440.000000 1 0 0
-1.853749 -1.556598 15.237556 15.428626 0.698486 0.157542 0.008898 -0.003959 228159.000000 1 0 0
-7.515649 10.455902 14.196556 19.166457 -0.947567 0.736688 0.021537 -0.006820 -136300.000000 1 0 0
-10.109049 2.101502 10.494356 14.722116 -0.204964 0.777272 -0.003869 -0.003926 -630507.000000 1 0 0
-13.763649 5.144102 9.167656 17.318941 -0.357670 1.012971 -0.009794 -0.002741 -395535.000000 1 0 0
0.434751 -4.734198 20.016656 20.573482 -1.479221 0.233187 0.007572 -0.029367 -271029.000000 1 0 0
-14.345149 -2.933198 7.593556 16.493909 0.201693 1.092367 0.006471 -0.005635 600368.000000 1 0 0
-2.261249 2.439902 17.827256 18.134978 -0.823382 0.184481 0.006281 -0.005327 -227300.000000 1 0 0
-6.325649 -8.371198 14.584856 17.966881 0.923693 0.623631 0.011072 -0.007753 -125706.000000 1 0 0
-7.997749 2.006802 12.076756 14.623245 -0.245845 0.599070 -0.003801 -0.001702 402013.000000 1 0 0
-14.536949 -3.531898 10.139256 18.072125 0.238342 0.975150 0.011936 -0.004666 -213100.000000 1 0 0
-0.498449 6.888802 12.840156 14.579906 -1.498566 0.493511 0.005857 -0.001879 -42197.000000 1 0 0
-1.805949 -2.280498 19.404556 19.621390 0.901008 0.148804 0.007572 -0.014087 4116.740000 1 0 0
-12.760849 10.230802 7.173256 17.859568 -0.675797 1.157481 0.000502 -0.021261 -464738.000000 1 0 0
-19.414549 2.321602 6.819656 20.708024 -0.119015 1.235208 0.030109 -0.010195 1466990.000000 1 0 0
-16.111349 8.550602 6.683156 19.425574 -0.487920 1.219581 0.005394 0.000546 310348.000000 1 0 0
-12.427249 7.373702 13.609356 19.850002 -0.535515 0.815355 0.002931 -0.000183 280427.000000 1 0 0
-15.980449 8.464502 10.345656 20.833990 -0.487108 1.051147 0.004909 0.003719 -256615.000000 1 0 0
1.735451 10.979202 14.928756 18.612426 1.414026 0.640017 0.006497 -0.011693 -767107.000000 1 0 0
1.987551 14.254702 12.909256 19.333799 1.432258 0.839676 -0.006836 0.001059 -414499.000000 1 0 0
-3.271749 13.796402 11.701256 18.383809 -1.337953 0.880847 0.008211 -0.008932 134312.000000 1 0 0
9.050351 4.919702 15.806056 18.866471 0.497910 0.577582 0.029582 0.003812 -11508.100000 1 0 0
-0.380449 12.536002 12.865556 17.967154 -1.540457 0.772655 -0.003680 -0.006023 -277346.000000 1 0 0
3.699051 13.190302 14.667256 20.069764 1.297382 0.751283 0.002423 -0.000272 -199232.000000 1 0 0
-2.953849 -4.105598 -13.868544 14.762035 0.947123 2.791887 0.006861 -0.004236 -84330.600000 1 0 0
5.495751 -11.404298 16.280656 20.623314 -1.121732 0.660917 -0.018396 -0.002367 100327.000000 1 0 0
7.991651 -13.513798 7.363556 17.341026 -1.036747 1.132241 0.004927 -0.001775 20992.100000 1 0 0
-0.015349 15.502502 1.346556 15.560881 -1.569806 1.484153 0.002218 -0.002395 -2393120.000000 1 0 0
-13.710849 8.162102 9.026556 18.332648 -0.536958 1.055979 -0.002837 -0.006503 560989.000000 1 0 0
-15.578449 -9.724298 4.849156 18.993798 0.558034 1.312636 0.019371 -0.000411 -707287.000000 1 0 0
9.402451 -11.195098 11.014156 18.304315 -0.872211 0.925138 0.022609 -0.010378 185198.000000 1 0 0
-5.875949 -10.198698 -16.807044 20.518697 1.048101 2.530652 0.019499 -0.005882 45155.000000 1 0 0
-1.961349 -12.406598 -14.993344 19.559421 1.414005 2.444253 0.015576 0.003947 82761.600000 1 0 0
5.849551 -15.793298 -11.721144 20.519034 -1.216081 2.178803 0.017603 -0.005798 296761.000000 1 0 0
2.675251 -12.271898 -16.497044 20.734245 -1.356156 2.490864 0.012313 0.006918 261518.000000 1 0 0
0.578451 -14.152198 -14.610244 20.348920 -1.529945 2.371701 0.030544 0.012461 452417.000000 1 0 0
-6.870149 -5.907498 -14.876344 17.418470 0.710202 2.594529 0.022055 0.004012 50237.800000 1 0 0
-6.161049 -8.093098 -17.374844 20.133106 0.920120 2.611972 0.006787 -0.005701 -3720.010000 1 0 0
-2.392449 -16.175898 -13.299744 21.077635 1.423959 2.253623 0.028780 0.001360 375491.000000 1 0 0
15.702851 -8.053098 -9.281944 19.939569 -0.473869 2.055000 -0.006702 0.007150 140712.000000 1 0 0
18.978951 -2.807298 -3.883844 19.574620 -0.146852 1.770534 0.011501 -0.011951 100421.000000 1 0 0
15.607351 -11.620798 -9.125244 21.491916 -0.640018 2.009305 0.022818 -0.001675 234699.000000 1 0 0
18.052051 -2.767698 -6.397244 19.351006 -0.152133 1.907725 0.086844 0.002488 -196791.000000 1 0 0
8.685851 -9.724898 -15.813644 20.496073 -0.841775 2.452063 0.015389 0.006255 211305.000000 1 0 0
-4.766849 9.387302 -16.277844 19.385883 -1.100930 2.567481 -0.002547 -0.009314 500792.000000 1 0 0
2.465951 -9.831098 -18.750744 21.314826 -1.325035 2.646036 0.015122 0.015665 394939.000000 1 0 0
11.198151 7.972202 -14.899444 20.271853 0.618682 2.396436 0.041747 -0.042011 403546.000000 1 0 0
18.206851 -5.451798 -7.955044 20.603258 -0.290940 1.967203 0.005738 -0.005641 326705.000000 1 0 0
12.449751 5.303202 -13.736444 19.282379 0.402691 2.363685 0.015672 -0.016258 60163.600000 1 0 0
15.969351 6.182502 -10.864844 20.280245 0.369378 2.136175 -0.001825 -0.011295 165630.000000 1 0 0
3.022551 -0.223798 -19.131044 19.369634 -0.073908 2.984474 0.028020 -0.011374 200500.000000 1 0 0
10.186251 -1.496798 -16.120644 19.127866 -0.145899 2.573230 0.018641 0.034481 110444.000000 1 0 0
12.188851 -5.749798 -14.143444 19.536255 -0.440774 2.380320 0.029000 0.005718 -39737.600000 1 0 0
10.011951 6.120702 -12.705644 17.295535 0.548716 2.395903 0.013622 -0.011031 392649.000000 1 0 0
10.740651 5.363302 -16.278744 20.226816 0.463124 2.506152 0.034765 -0.016988 435637.000000 1 0 0
11.737551 -10.173698 -15.408744 21.879297 -0.714147 2.352179 0.033874 -0.003720 356336.000000 1 0 0
-1.733349 2.142202 -17.439744 17.656109 -0.890505 2.984879 0.001516 -0.007972 265547.000000 1 0 0
6.777051 -1.097198 -17.451144 18.752991 -0.160506 2.766788 0.025839 0.012071 147646.000000 1 0 0
6.304051 -5.670798 -16.029244 18.133827 -0.732565 2.655022 -0.023595 0.005255 96438.500000 1 0 0
-2.440649 -4.568798 -20.362944 21.011429 1.080165 2.892500 0.038750 -0.024032 190278.000000 1 0 0
15.923451 -0.366498 -13.225644 20.702857 -0.023012 2.263775 0.016013 -0.001309 70395.700000 1 0 0
-4.077149 -0.470098 -18.544144 18.992878 0.114794 2.923785 0.002970 -0.006933 209430.000000 1 0 0
4.138851 8.490302 -18.224144 20.526440 1.117215 2.663421 0.025504 -0.008660 176998.000000 1 0 0
9.221451 0.812202 -16.400944 18.833104 0.087851 2.627740 0.021604 -0.034947 8163.690000 1 0 0
3.990951 4.717702 -18.493444 19.498509 0.868657 2.819119 0.024585 -0.002706 409407.000000 1 0 0
-1.998849 -11.235198 -18.088844 21.387645 1.394729 2.578787 0.029492 -0.008006 285924.000000 1 0 0
5.636051 -9.709898 -16.126244 19.649502 -1.044880 2.533422 -0.007590 0.008303 123199.000000 1 0 0
10.307751 -12.273698 -10.735744 19.291179 -0.872239 2.160976 0.008312 0.002245 303494.000000 1 0 0
6.216751 6.796302 -16.900444 19.247408 0.829905 2.642596 0.030303 -0.019515 327588.000000 1 0 0
8.118351 1.768502 -20.252944 21.891025 0.214489 2.752283 0.022105 -0.004755 180419.000000 1 0 0
-1.293349 -0.874798 -20.276244 20.336275 0.594699 3.064737 0.028056 -0.014509 197871.000000 1 0 0
-1.141749 6.836202 -19.684544 20.869080 -1.405309 2.803050 0.000923 -0.001681 -84679.000000 1 0 0
9.017251 5.953302 -18.010744 21.003321 0.583521 2.601224 0.050245 -0.020456 -522213.000000 1 0 0
12.167551 -0.260498 -13.858344 18.443721 -0.021406 2.420956 0.010473 0.016458 65447.300000 1 0 0
-4.562049 -2.701698 -19.973144 20.664896 0.534673 2.882119 0.007278 -0.010373 342528.000000 1 0 0
5.532351 -11.343198 -14.420644 19.163247 -1.117018 2.422670 -0.017189 0.001941 91233.500000 1 0 0
12.094051 2.855602 -15.625944 19.964735 0.231869 2.469752 0.051349 -0.002386 -166116.000000 1 0 0
-2.898949 -4.328998 -17.150744 17.924624 0.980726 2.846674 0.010569 -0.011444 165035.000000 1 0 0
-7.011649 -4.980098 -17.797544 19.766567 0.617579 2.691453 0.021021 -0.004574 29690.700000 1 0 0
2.833151 10.370602 -15.166344 18.590162 1.304113 2.524953 0.001654 -0.013724 109647.000000 1 0 0
16.916551 -6.249798 -10.952144 21.099269 -0.353895 2.116567 0.033834 0.001542 56583.400000 1 0 0
9.620751 -3.944298 -17.505844 20.361014 -0.389079 2.605621 0.016020 -0.014408 36342.000000 1 0 0
-7.611849 -1.646298 -18.664344 20.223953 0.213000 2.746298 0.008533 -0.002830 742405.000000 1 0 0
1.890751 -7.520398 -19.337444 20.834300 -1.324485 2.760219 0.021614 -0.009682 166457.000000 1 0 0
5.991751 10.640602 -13.956544 18.544773 1.057949 2.422777 0.022534 -0.009567 376119.000000 1 0 0
5.963751 -3.745498 -18.166244 19.483519 -0.560785 2.771767 0.012450 -0.008763 491138.000000 1 0 0
4.374851 13.389802 -14.851544 20.469354 1.255000 2.382630 0.014676 -0.008535 207043.000000 1 0 0
9.192351 11.227602 -15.333044 21.110675 0.884740 2.383745 0.041641 -0.028700 160236.000000 1 0 0
17.184751 0.838102 -11.378444 20.627338 0.048731 2.155101 0.027323 0.001618 250986.000000 1 0 0
15.449751 -2.701998 -11.817744 19.638092 -0.173138 2.216520 0.033442 -0.007453 -228483.000000 1 0 0
-8.951349 0.384802 -17.420444 19.589451 -0.042962 2.666558 0.009394 -0.006207 365171.000000 1 0 0
-3.474849 4.561202 -19.139744 19.980213 -0.919768 2.850514 0.006348 0.004436 89616.000000 1 0 0
3.843051 1.934902 -16.842244 17.383155 0.466428 2.891474 0.020121 -0.010016 549212.000000 1 0 0
-5.065349 14.381402 -13.660344 20.471626 -1.232149 2.301350 0.012396 -0.010072 379454.000000 1 0 0
1.124751 9.464402 -17.777444 20.171204 1.452511 2.649461 0.012831 -0.005249 270130.000000 1 0 0
1.324151 -4.921698 -19.716444 20.364544 -1.307976 2.888630 0.029632 -0.009756 473508.000000 1 0 0
4.213151 -6.241898 -18.071044 19.577399 -0.977061 2.746748 0.020087 -0.013909 240302.000000 1 0 0
-6.899849 7.620002 -15.801044 18.850605 -0.834955 2.564816 -0.011943 -0.000190 36415.500000 1 0 0
-11.900449 3.211302 -16.810444 20.845243 -0.263569 2.508903 0.022866 -0.012294 387760.000000 1 0 0
-4.435049 7.073102 -17.183744 19.104436 -1.010738 2.689337 -0.010998 0.006793 335859.000000 1 0 0
-8.263949 5.554502 -17.612344 20.232152 -0.591780 2.627039 -0.004059 -0.001403 111814.000000 1 0 0
-8.674549 4.592902 -15.424444 18.282670 -0.486944 2.574870 -0.011467 -0.003254 429938.000000 1 0 0
9.589651 13.156102 -12.599244 20.586048 0.940928 2.229419 0.041200 -0.034577 542299.000000 1 0 0
14.023351 9.165302 -12.334444 20.803741 0.578884 2.205446 0.027703 -0.016048 117125.000000 1 0 0
8.746051 15.531102 -9.900844 20.389586 1.057927 2.077827 0.028260 -0.015192 -25883.700000 1 0 0
7.742351 14.331202 -14.060744 21.518175 1.075474 2.282911 0.043720 -0.021329 165190.000000 1 0 0
4.484251 15.562402 -13.127544 20.847764 1.290249 2.251945 0.015345 -0.013893 113292.000000 1 0 0
10.864051 11.742302 -11.083344 19.461494 0.824228 2.176695 0.023411 -0.023421 220549.000000 1 0 0
15.953151 10.403302 -9.794244 21.416324 0.577861 2.045782 0.023790 -0.024794 211085.000000 1 0 0
13.439551 11.260502 -10.376444 20.373783 0.697406 2.105172 0.049386 -0.017232 16110.300000 1 0 0
10.638751 11.447602 -7.688044 17.416562 0.822004 2.027979 0.013639 -0.009268 97859.600000 1 0 0
5.756551 17.088502 -10.123444 20.679431 1.245869 2.082360 0.044013 -0.008983 56478.700000 1 0 0
11.687051 14.055402 -10.192344 20.929055 0.877142 2.079442 0.052878 -0.019975 206992.000000 1 0 0
7.541351 -19.232798 -1.508544 20.713479 -1.197111 1.643690 0.028889 -0.005528 159330.000000 1 0 0
7.258951 -16.587898 -3.920644 18.526257 -1.158298 1.784035 0.019751 -0.015634 357610.000000 1 0 0
3.835351 -18.907798 5.281556 20.002740 -1.370667 1.303586 0.022710 -0.011781 204614.000000 1 0 0
10.234751 -17.925898 -2.801344 20.831118 -1.052013 1.705684 0.033051 0.004711 653912.000000 1 0 0
-3.392549 -14.698098 7.844256 17.002231 1.343954 1.091262 0.016253 -0.026478 87369.600000 1 0 0
-15.381449 -12.594198 -4.288344 20.336979 0.686095 1.783255 0.019817 0.000668 174556.000000 1 0 0
-9.401349 -12.355898 -7.358244 17.181308 0.920369 2.013374 0.013785 -0.005599 275533.000000 1 0 0
-11.478449 -15.639098 6.566556 20.480621 0.937641 1.244409 0.007090 0.002332 180552.000000 1 0 0
-15.481549 -7.954498 -8.150644 19.219402 0.474631 2.008747 0.070277 -0.006302 34458.100000 1 0 0
4.890051 -16.030198 5.111556 17.521640 -1.274711 1.274763 0.016922 -0.005459 265702.000000 1 0 0
2.630651 -14.082898 9.080456 16.961811 -1.386127 1.005878 -0.000210 -0.002401 388497.000000 1 0 0
3.138651 -17.382598 10.521056 20.559632 -1.392158 1.033595 0.013078 0.004186 168414.000000 1 0 0
-7.298749 -17.044498 -5.793744 19.425605 1.166204 1.873658 -0.044729 -0.001659 10079.700000 1 0 0
1.880351 -19.911798 -4.200644 20.436752 -1.476642 1.777815 0.015962 -0.003786 75493.600000 1 0 0
-17.455249 -10.822998 -2.274244 20.663862 0.555027 1.681079 -0.042443 -0.000661 -19331.300000 1 0 0
-4.109449 -14.839198 2.782056 15.647019 1.300635 1.392045 -0.002883 0.002546 123951.000000 1 0 0
-10.786949 -9.754798 -14.787544 20.740921 0.735194 2.364513 0.026215 -0.001170 171996.000000 1 0 0
0.880651 -20.226498 2.404056 20.387895 -1.527284 1.452605 0.018044 -0.014843 253583.000000 1 0 0
5.467451 -18.640798 0.482856 19.432075 -1.285492 1.545945 0.013661 0.003001 225624.000000 1 0 0
-7.478949 -18.718598 -3.633944 20.482338 1.190681 1.749159 -0.016187 -0.008870 154404.000000 1 0 0
-9.343649 -15.420498 -7.655544 19.588336 1.026032 1.972320 0.019305 -0.007743 16641.700000 1 0 0
-11.815849 -11.208798 -12.797844 20.713190 0.759039 2.236814 0.023737 0.014824 462752.000000 1 0 0
-13.157849 -14.996798 -3.398044 20.238074 0.850622 1.739499 0.012462 -0.004180 64119.400000 1 0 0
-0.626049 -20.563598 -2.472344 20.721149 1.540361 1.690396 -0.006410 -0.003951 333230.000000 1 0 0
-11.666449 -16.912798 -0.502344 20.552400 0.966949 1.595241 0.009001 0.000557 122230.000000 1 0 0
0.905251 -20.317498 4.869056 20.912387 -1.526271 1.335808 0.015711 -0.011480 163787.000000 1 0 0
-18.179549 -9.708098 2.160956 20.722280 0.490486 1.466325 0.023031 0.005561 253774.000000 1 0 0
-14.997049 -14.700298 -0.885844 21.018919 0.775406 1.612954 0.026202 -0.003343 -17605.400000 1 0 0
9.765251 -15.902798 -4.932644 19.302593 -1.020104 1.829206 0.017425 0.005573 88686.000000 1 0 0
-0.037249 -19.079298 -7.037144 20.335742 1.568844 1.924152 0.002684 -0.000826 265462.000000 1 0 0
-10.001449 -16.670698 -2.627644 19.617484 1.030420 1.705144 0.011844 -0.005218 608998.000000 1 0 0
-15.195049 -6.699398 -11.256044 20.061654 0.415255 2.166477 0.054655 -0.015893 166670.000000 1 0 0
-12.085649 -14.961098 2.255856 19.364562 0.891314 1.454037 0.013718 -0.010070 236247.000000 1 0 0
-2.660349 -15.986698 9.750956 18.913834 1.405897 1.029151 0.001381 -0.009966 356228.000000 1 0 0
-12.396149 -14.641698 -6.673944 20.312197 0.868260 1.905584 0.014363 0.005751 329492.000000 1 0 0
5.011051 -17.124498 -7.409144 19.319795 -1.286120 1.964380 0.000109 -0.003338 -1787.620000 1 0 0
-17.430649 -7.120598 -2.863844 19.045526 0.387821 1.721737 -0.010507 -0.000460 -50679.100000 1 0 0
-12.298849 -13.678698 -9.309144 20.616223 0.838465 2.039292 0.038267 -0.013535 163782.000000 1 0 0
-7.910949 -14.122198 10.410656 19.245814 1.060172 0.999253 0.017973 0.009283 562947.000000 1 0 0
-15.698149 -8.105698 -5.902944 18.627372 0.476640 1.893252 0.022404 0.003470 338903.000000 1 0 0
-0.789449 -19.658398 -0.074944 19.674386 1.530660 1.574606 -0.000736 -0.004573 221243.000000 1 0 0
-14.932549 -11.231398 -1.783044 18.769778 0.644871 1.665935 0.005612 -0.001327 175512.000000 1 0 0
-6.761049 -18.897498 1.146456 20.103273 1.227212 1.513737 -0.016916 0.000975 210396.000000 1 0 0
-2.342249 -20.885298 -5.373044 21.692197 1.459115 1.821096 -0.005970 0.009423 139385.000000 1 0 0
-8.779749 -19.582498 -1.059844 21.486775 1.149318 1.620142 -0.004529 0.006080 234663.000000 1 0 0
-17.669349 -7.624698 4.539856 19.772511 0.407381 1.339125 0.016627 -0.009758 -61167.500000 1 0 0
-3.387749 -15.703298 -11.115444 19.535187 1.358318 2.176081 0.016276 0.009001 204104.000000 1 0 0
-3.130849 -18.228898 -8.468944 20.342516 1.400704 2.000188 0.007336 0.002951 303465.000000 1 0 0
4.080651 -18.243098 -5.792044 19.570645 -1.350737 1.871252 0.005871 0.033088 444480.000000 1 0 0
0.753251 -17.438698 -9.497844 19.871704 -1.527629 2.069125 0.018646 0.003201 56659.200000 1 0 0
-7.579949 -10.035798 -14.898044 19.496784 0.923918 2.440485 0.014484 -0.003660 481097.000000 1 0 0
-5.446249 -19.079998 -1.979444 19.940566 1.292748 1.670227 -0.006682 -0.006828 209208.000000 1 0 0
-10.091149 -16.172698 8.313856 20.796819 1.012944 1.159535 0.004493 0.000552 168112.000000 1 0 0
-7.454149 -14.956098 -10.471944 19.720822 1.108428 2.130588 0.021964 -0.003383 291412.000000 1 0 0
-12.729349 -8.006598 -12.498944 19.554169 0.561461 2.264248 0.024611 -0.004507 411678.000000 1 0 0
-15.557349 -12.760098 3.446556 20.413965 0.686936 1.401151 0.016805 -0.010928 169884.000000 1 0 0
-6.130249 -14.340798 -13.305044 20.500308 1.166836 2.277088 -0.002136 0.013858 478483.000000 1 0 0
-14.116549 -11.657098 -6.812544 19.533961 0.690261 1.927037 0.026881 -0.001942 139525.000000 1 0 0
-11.777249 -10.244298 -8.837244 17.937283 0.715899 2.085957 0.024648 0.001166 359888.000000 1 0 0
-9.984649 -14.910598 3.787756 18.340291 0.980742 1.362773 0.004023 0.006099 478590.000000 1 0 0
5.225151 -17.957198 8.281856 20.453663 -1.287637 1.153918 0.034044 -0.016730 278376.000000 1 0 0
-5.079849 -16.525198 5.173356 18.045794 1.272564 1.280037 0.001676 0.004511 344407.000000 1 0 0
-18.537149 -7.212298 -7.094144 21.118002 0.371051 1.913387 0.022895 -0.005600 163022.000000 1 0 0
-16.823149 -3.354298 -10.912644 20.331145 0.196805 2.137371 0.027412 -0.013120 -336813.000000 1 0 0
-15.487549 -4.387298 -13.319944 20.893383 0.276047 2.262071 0.011600 -0.003035 253934.000000 1 0 0
-19.477849 -4.936098 -5.990044 20.967410 0.248196 1.860516 0.034832 -0.005207 -28069.800000 1 0 0
4.956251 -13.705598 8.789056 17.019265 -1.223805 1.028133 0.005905 0.002110 125579.000000 1 0 0
19.457351 -3.772998 2.929056 20.035054 -0.191534 1.424074 0.004540 -0.007411 -122947.000000 1 0 0
18.134051 -2.491398 0.460956 18.310198 -0.136533 1.545619 0.015816 -0.017162 357373.000000 1 0 0
14.360951 -11.641398 0.300356 18.489167 -0.681188 1.554551 0.018617 0.008956 123133.000000 1 0 0
10.903751 -13.724398 5.485356 18.366819 -0.899431 1.267513 0.009534 0.004745 530782.000000 1 0 0
10.330851 -13.181298 8.932256 18.980472 -0.906042 1.080823 0.035645 -0.005372 126688.000000 1 0 0
17.694151 4.361002 -4.294144 18.722740 0.241650 1.802211 -0.019144 0.001256 -330004.000000 1 0 0
18.707651 -6.248698 -4.517244 20.234326 -0.322367 1.795940 0.018160 -0.006075 -17436.200000 1 0 0
17.750951 -9.980398 -0.185944 20.365147 -0.512196 1.579927 0.030058 -0.003083 170326.000000 1 0 0
17.543651 -8.898698 8.452356 21.410485 -0.469416 1.164972 0.050327 -0.011684 -356382.000000 1 0 0
19.802751 0.473402 -1.917344 19.900987 0.023901 1.667290 0.032617 -0.013257 140076.000000 1 0 0
7.260351 -13.554998 11.595456 19.258902 -1.079059 0.924689 0.011024 0.003461 297939.000000 1 0 0
15.925151 -6.629098 -3.225444 17.548757 -0.394450 1.755646 0.005577 -0.001541 447700.000000 1 0 0
14.463151 -7.273498 11.256956 19.718154 -0.465964 0.963203 0.036542 -0.045152 510606.000000 1 0 0
16.446551 1.092202 10.693756 19.647859 0.066312 0.995277 0.061839 -0.019285 231866.000000 1 0 0
16.368751 -10.064698 2.664356 19.399303 -0.551284 1.433018 -0.013292 -0.005884 341041.000000 1 0 0
16.623551 -7.696998 -6.311544 19.375805 -0.433627 1.902594 0.033089 0.009590 305569.000000 1 0 0
18.578151 -4.660498 5.904356 20.043188 -0.245787 1.271779 0.112950 -0.014096 -50489.000000 1 0 0
13.325451 -13.285898 8.203356 20.527489 -0.783912 1.159685 0.027455 -0.006857 222201.000000 1 0 0
15.051351 -14.544398 -1.606244 20.991968 -0.768271 1.647388 0.009575 0.010249 214632.000000 1 0 0
18.727251 -6.327298 8.362056 21.463192 -0.325824 1.170599 0.049207 -0.015390 -26932.100000 1 0 0
19.139551 3.160902 2.825256 19.603464 0.163673 1.426172 0.011427 -0.000657 -955.430000 1 0 0
15.651651 -10.344398 8.366156 20.541990 -0.584010 1.151332 0.036781 -0.024057 328868.000000 1 0 0
14.468551 -4.050198 10.824856 18.518115 -0.272945 0.946465 0.039925 -0.012157 2163.650000 1 0 0
18.749651 -7.623298 1.807856 20.320739 -0.386169 1.481712 0.029816 -0.009872 -29495.200000 1 0 0
18.797751 -5.129998 -1.657144 19.555522 -0.266417 1.655639 0.009485 -0.006601 246590.000000 1 0 0
14.647951 -13.448098 -5.986844 20.766707 -0.742719 1.863237 0.037618 -0.014727 385940.000000 1 0 0
13.969351 -9.725298 10.338856 19.915224 -0.608163 1.024948 0.022438 -0.007763 517187.000000 1 0 0
14.272951 2.582402 0.635956 14.518622 0.178993 1.526980 -0.002002 -0.000781 -281091.000000 1 0 0
13.097551 2.261902 13.697856 19.086469 0.171010 0.770340 0.054262 -0.005381 -112941.000000 1 0 0
18.333151 -3.349798 9.018256 20.703974 -0.180724 1.120113 0.046557 -0.018956 227227.000000 1 0 0
7.596351 -18.791298 5.094456 20.899065 -1.186633 1.324550 0.039656 -0.015662 374345.000000 1 0 0
12.285351 -3.004698 15.253856 19.815100 -0.239867 0.692253 0.023179 0.006714 227864.000000 1 0 0
11.354551 -13.803698 -6.937044 19.172650 -0.882442 1.941016 0.009153 -0.006046 205292.000000 1 0 0
10.553851 -17.517698 4.447356 20.929226 -1.028564 1.356669 0.025113 -0.009396 478588.000000 1 0 0
18.207851 -0.384498 -5.298344 18.966975 -0.021114 1.853909 0.015213 -0.005785 9222.530000 1 0 0
4.048751 -13.387398 11.452956 18.077196 -1.277112 0.884653 -0.007126 -0.003923 -63895.200000 1 0 0
8.906151 -2.577498 13.997256 16.789467 -0.281710 0.585035 0.006611 -0.012975 410313.000000 1 0 0
9.068851 -9.144898 13.816156 18.888076 -0.789573 0.750314 0.023984 -0.017827 258222.000000 1 0 0
21.085351 5.711702 -2.701244 22.011640 0.264536 1.693825 0.038494 -0.000065 508710.000000 1 0 0
14.701651 -13.387498 1.789056 19.964077 -0.738647 1.481062 0.013233 0.003350 166703.000000 1 0 0
10.646051 -0.012298 13.860856 17.477468 -0.001155 0.654964 0.015287 -0.029953 77190.700000 1 0 0
19.056251 0.449202 7.876956 20.624959 0.023568 1.178930 0.030264 -0.013237 221656.000000 1 0 0
19.856351 0.945302 0.806956 19.895212 0.047571 1.530225 0.035759 -0.010810 306313.000000 1 0 0
18.165651 0.261802 3.186856 18.444931 0.014411 1.397148 0.026935 -0.005995 68633.200000 1 0 0
10.267851 -8.499698 16.426856 21.154556 -0.691462 0.681678 0.035788 -0.002179 107237.000000 1 0 0
19.208951 2.854702 5.537356 20.193946 0.147533 1.293030 0.036417 -0.001037 241670.000000 1 0 0
15.141451 2.495302 7.045856 16.885916 0.163331 1.140366 0.021246 -0.006922 60470.600000 1 0 0
11.316751 -16.188998 1.886356 19.842149 -0.960715 1.475584 0.003552 0.010678 296528.000000 1 0 0
8.279151 -16.263398 6.961356 19.532101 -1.099922 1.206378 0.012854 -0.000978 246235.000000 1 0 0
6.278251 6.485402 7.203256 11.548323 0.801626 0.897266 -0.000620 0.004674 -964037.000000 1 0 0
18.294751 2.875702 -6.128344 19.507029 0.155912 1.890369 -0.008193 0.002739 213338.000000 1 0 0
14.100251 4.544402 -7.303244 16.516841 0.311781 2.028812 -0.002864 0.000401 214832.000000 1 0 0
-10.475749 -3.909798 -13.764144 17.733570 0.357213 2.459354 0.003905 -0.003152 -245726.000000 1 0 0
7.889451 -14.257698 -10.533644 19.403171 -1.065387 2.144662 -0.001003 0.010972 -41870.000000 1 0 0
2.096451 -15.594898 14.019556 21.074722 -1.437166 0.842993 -0.007145 0.005057 284781.000000 1 0 0
-9.428449 -7.981298 2.328756 12.570596 0.702466 1.384466 0.010917 -0.000313 443174.000000 1 0 0
-13.699449 3.347002 -10.115744 17.355276 -0.239622 2.193044 0.008147 -0.004931 131068.000000 1 0 0
-12.869849 -5.025498 -13.415344 19.257728 0.372278 2.341474 0.010632 0.003978 90099.500000 1 0 0
-18.020149 -1.132798 -8.300044 19.872084 0.062780 2.001680 0.045796 -0.030663 298144.000000 1 0 0
-12.150149 15.228202 3.617656 19.814431 -0.897355 1.387190 0.016325 -0.019749 372531.000000 1 0 0
-17.278549 6.457502 9.414756 20.709544 -0.357656 1.098863 0.008435 0.000476 142238.000000 1 0 0
-13.825049 15.401902 0.051356 20.696695 -0.839298 1.568315 0.034934 -0.022531 224189.000000 1 0 0
-15.814849 5.075202 -11.315144 20.097253 -0.310532 2.168831 0.011501 0.010900 214711.000000 1 0 0
-18.356349 2.907202 -0.617144 18.595382 -0.157071 1.603990 0.032118 0.003548 -255896.000000 1 0 0
-9.566849 15.600402 -0.064644 18.300309 -1.020696 1.574329 0.010453 -0.009695 -106722.000000 1 0 0
-18.056649 12.291102 2.792256 22.020682 -0.597653 1.443653 0.034174 -0.008138 -21351.900000 1 0 0
-8.812849 16.155102 -7.555144 19.893059 -1.071403 1.960363 0.036782 -0.026223 233317.000000 1 0 0
-14.850049 -1.512198 -13.213344 19.934973 0.101481 2.295378 0.006746 -0.013608 127901.000000 1 0 0
-18.876249 5.330702 -4.886344 20.213993 -0.275235 1.814945 0.020973 0.001388 -3561.850000 1 0 0
-16.547049 9.681802 -5.837244 20.040347 -0.529397 1.866355 0.015415 0.015880 65740.100000 1 0 0
-18.932449 1.480202 2.453356 19.148044 -0.078025 1.442317 0.012443 -0.010548 260769.000000 1 0 0
-13.362149 12.137802 -6.776444 19.281946 -0.737421 1.929905 0.007663 -0.002348 -241877.000000 1 0 0
-12.603149 4.767502 -13.546444 19.106925 -0.361642 2.358848 0.000950 -0.015941 -71567.900000 1 0 0
-13.866849 9.440702 -6.635644 18.040180 -0.597731 1.947466 0.002157 -0.003472 -67629.900000 1 0 0
-6.100249 11.176302 -15.262944 19.876625 -1.071168 2.446328 -0.003528 -0.032995 210904.000000 1 0 0
-15.206149 13.800802 2.991756 20.751860 -0.736987 1.426124 0.023395 -0.015880 -25401.700000 1 0 0
-18.607049 8.608802 -4.925944 21.085508 -0.433335 1.806593 0.026536 0.001317 92888.600000 1 0 0
-3.339549 16.895302 -9.819944 19.825113 -1.375650 2.089009 0.001130 -0.000460 125157.000000 1 0 0
-19.618549 -1.736598 -6.841544 20.849699 0.088288 1.905126 0.036081 -0.004907 -406250.000000 1 0 0
-10.425249 13.272302 -6.081544 17.939481 -0.904966 1.916654 0.003661 -0.024829 -40361.600000 1 0 0
-19.124849 3.163202 4.246956 19.844453 -0.163914 1.355116 0.018611 -0.001526 74625.800000 1 0 0
-15.057149 12.044602 0.702256 19.294645 -0.674696 1.534392 0.007625 -0.012637 151412.000000 1 0 0
-16.701949 2.248202 -8.505144 18.877155 -0.133803 2.038180 -0.030863 -0.009341 144959.000000 1 0 0
-16.313349 14.012102 -3.810244 21.839924 -0.709658 1.746156 0.005064 0.039923 73779.900000 1 0 0
-10.707049 15.289702 -9.405244 20.901542 -0.959883 2.037538 0.030790 -0.015703 151298.000000 1 0 0
-19.215649 1.645402 -6.863744 20.470942 -0.085420 1.912712 0.028332 -0.016093 52377.700000 1 0 0
-17.453349 10.463802 -0.720444 20.362455 -0.540074 1.606185 0.038537 0.002809 46894.000000 1 0 0
-11.623249 6.695802 -14.677844 19.883983 -0.522638 2.401156 0.006839 -0.014660 430462.000000 1 0 0
-13.380549 12.805802 -4.856044 19.147031 -0.763453 1.827216 0.026026 -0.004877 369026.000000 1 0 0
-18.962949 7.163802 0.110656 20.271303 -0.361205 1.565338 0.029446 -0.000471 -29867.300000 1 0 0
-14.589449 8.971102 -10.414144 20.044627 -0.551306 2.117118 0.012847 -0.002938 402857.000000 1 0 0
-18.507049 11.344102 4.964656 22.267629 -0.549895 1.345953 0.007197 -0.009703 112980.000000 1 0 0
-7.895449 12.361402 -13.023544 19.615174 -1.002393 2.296888 -0.009077 0.002045 360312.000000 1 0 0
-21.292149 -1.460398 -4.631844 21.839010 0.068481 1.784510 0.020424 -0.017858 348499.000000 1 0 0
-10.638149 13.741102 -3.669344 17.760973 -0.911996 1.778891 0.013857 0.003684 168843.000000 1 0 0
-18.775549 -4.846298 3.655856 19.732540 0.252604 1.384449 0.029798 -0.005736 23950.100000 1 0 0
-11.317949 11.504402 -13.313944 20.921480 -0.793568 2.260588 0.009833 -0.002303 235021.000000 1 0 0
-14.931249 12.029402 -9.901544 21.579835 -0.678178 2.047478 0.018655 0.007502 17012.400000 1 0 0
-12.646949 9.891502 -14.066244 21.345874 -0.663746 2.290242 0.018733 -0.005328 211533.000000 1 0 0
-18.125149 -4.917398 -3.296144 19.067417 0.264925 1.744537 -0.011933 -0.005810 -326032.000000 1 0 0
-9.309849 12.655602 -11.448144 19.439587 -0.936555 2.200504 0.019471 -0.011132 -96629.000000 1 0 0
-15.663649 7.804802 -8.415644 19.418751 -0.462266 2.019033 0.007934 0.007194 -47896.300000 1 0 0
-14.338849 9.177302 1.783656 17.117444 -0.569335 1.466406 0.004692 -0.003292 -77586.600000 1 0 0
-19.923249 5.968802 7.779656 22.205528 -0.291080 1.212854 0.035725 -0.007980 457210.000000 1 0 0
-18.744049 5.889602 3.463256 19.950462 -0.304444 1.396320 -0.001619 0.004198 178296.000000 1 0 0
-14.751949 12.766802 5.891956 20.379557 -0.713385 1.277498 0.013796 -0.013604 170706.000000 1 0 0
18.185351 6.312802 6.202656 20.224525 0.334122 1.259083 0.014595 -0.004984 -147273.000000 1 0 0
18.369151 7.787902 0.585456 19.960458 0.400995 1.541461 0.011830 0.009546 -45780.300000 1 0 0
17.161651 4.721302 8.840556 19.873812 0.268466 1.109807 0.037269 0.002944 -18954.500000 1 0 0
12.025551 13.140802 10.602256 20.729264 0.829684 1.033910 0.024041 -0.003843 126361.000000 1 0 0
15.463451 12.511902 4.157156 20.321121 0.680282 1.364769 0.023528 -0.003935 113475.000000 1 0 0
5.037651 10.342102 14.520156 18.524900 1.117521 0.670005 0.012866 -0.005027 322125.000000 1 0 0
13.380351 13.292302 -5.307344 19.593034 0.782097 1.845103 0.032820 -0.001302 384760.000000 1 0 0
17.585151 9.068402 -2.985644 20.009686 0.476117 1.720566 -0.017284 0.004954 -115198.000000 1 0 0
14.550051 7.644402 9.710956 19.090404 0.483750 1.037142 0.025219 -0.003265 -33138.500000 1 0 0
4.818051 19.183002 -1.894844 19.869363 1.324724 1.666307 0.014249 -0.005224 469642.000000 1 0 0
-4.560149 18.834202 3.401656 19.674689 -1.333247 1.397028 0.005731 -0.026388 295970.000000 1 0 0
6.553851 13.959102 11.643156 19.322851 1.131842 0.924093 0.006685 0.015377 -155018.000000 1 0 0
-0.085649 17.169002 -9.944344 19.841167 -1.565808 2.095778 0.006134 0.003134 -72743.600000 1 0 0
10.481651 9.457802 15.976256 21.320314 0.734095 0.723725 0.040124 0.004775 77459.400000 1 0 0
-1.320549 12.199002 0.881256 12.301874 -1.462966 1.499099 -0.001368 0.001527 562040.000000 1 0 0
-4.675249 19.130402 -2.543544 19.856984 -1.331106 1.699242 0.003851 0.002412 219171.000000 1 0 0
6.684351 18.203302 6.130256 20.337669 1.218877 1.264611 0.020268 -0.021724 152137.000000 1 0 0
11.447551 17.379002 -1.239744 20.847376 0.988329 1.630299 0.027600 -0.008010 446480.000000 1 0 0
18.487151 10.545302 3.617156 21.588468 0.518380 1.402452 0.017030 -0.005586 267883.000000 1 0 0
11.585851 15.938602 7.181856 20.972602 0.942241 1.221284 0.015210 0.002840 -150764.000000 1 0 0
17.750251 8.338502 -6.273444 20.590243 0.439171 1.880399 -0.019470 0.017190 51328.500000 1 0 0
0.425951 15.518402 11.072156 19.068164 1.543355 0.951255 -0.003196 -0.000483 398144.000000 1 0 0
2.089651 20.807002 -1.931944 21.000723 1.470702 1.662921 0.031897 0.011462 338970.000000 1 0 0
14.119351 9.574602 -1.491844 17.124680 0.595889 1.658023 -0.004507 0.002068 -218486.000000 1 0 0
9.532351 17.634402 1.557856 20.106336 1.075234 1.493238 0.010207 -0.004278 226848.000000 1 0 0
0.005751 17.903902 -0.562844 17.912747 1.570475 1.602223 -0.002066 0.003518 51894.400000 1 0 0
-0.363049 21.123402 1.512456 21.180591 -1.553611 1.499328 0.027404 -0.000519 247375.000000 1 0 0
5.790851 17.412402 -0.359044 18.353599 1.249732 1.590360 0.006139 -0.017837 -158653.000000 1 0 0
6.537251 18.435202 -3.235444 19.825751 1.230023 1.734724 -0.013028 -0.009071 27800.900000 1 0 0
10.331451 9.852402 12.920356 19.254722 0.761668 0.835209 0.022640 0.005170 182553.000000 1 0 0
13.212151 14.863102 8.255556 21.531998 0.844135 1.177312 0.013489 -0.000291 92312.000000 1 0 0
0.451751 17.593902 6.934456 18.916557 1.545125 1.195464 0.017564 -0.011368 243014.000000 1 0 0
7.298551 17.698002 -7.953744 20.730416 1.179651 1.964569 0.023280 -0.018484 58207.300000 1 0 0
-0.730949 18.469102 9.345056 20.711641 -1.531240 1.102689 0.029006 -0.017961 89791.900000 1 0 0
16.071451 6.704602 -7.991544 19.160063 0.395224 2.001042 0.013508 0.001313 -272965.000000 1 0 0
-4.923749 19.987002 -6.569344 21.607402 -1.329258 1.879719 -0.015949 -0.000381 275065.000000 1 0 0
4.025951 15.573802 9.798956 18.835369 1.317826 1.023662 0.009289 -0.005091 135211.000000 1 0 0
9.134251 14.882102 7.793956 19.122166 1.020310 1.150986 0.010571 0.003091 94111.300000 1 0 0
-2.531549 19.363602 6.743456 20.659913 -1.440796 1.238301 0.015278 -0.010142 -15934.300000 1 0 0
5.125351 18.243302 7.887256 20.525498 1.296912 1.176383 0.023374 -0.011437 10322.900000 1 0 0
13.776851 10.925402 -7.358544 19.060803 0.670474 1.967149 -0.057175 -0.032662 -6352.970000 1 0 0
11.919651 6.681902 15.655456 20.780260 0.510929 0.717607 0.063056 -0.011647 312547.000000 1 0 0
16.939051 9.308002 5.276556 20.035279 0.502459 1.304289 0.003228 -0.008826 41564.200000 1 0 0
4.184951 15.341202 12.056756 19.955742 1.304484 0.922066 -0.020087 0.004954 360503.000000 1 0 0
15.868951 10.944602 -3.936544 19.674966 0.603771 1.772235 0.012042 0.007215 61848.200000 1 0 0
15.475551 13.643902 6.359056 21.589033 0.722580 1.271811 0.020891 -0.004670 438724.000000 1 0 0
12.632551 14.233302 -7.921244 20.613450 0.844911 1.965219 0.047417 -0.020292 344250.000000 1 0 0
-8.248549 15.647702 9.590756 20.121425 -1.085672 1.073963 0.021054 -0.013005 201006.000000 1 0 0
-4.666349 17.072002 -7.267444 19.132271 -1.303980 1.960433 -0.005708 0.016019 157365.000000 1 0 0
2.561951 19.241502 -4.699044 19.971980 1.438428 1.808305 0.014931 -0.023765 38261.500000 1 0 0
7.123351 17.040802 8.875956 20.491795 1.174855 1.122815 0.004265 0.010392 473395.000000 1 0 0
13.422351 15.477802 -1.208744 20.522741 0.856401 1.629728 0.038597 -0.008292 101415.000000 1 0 0
12.632851 16.846702 4.642256 21.562718 0.927378 1.353807 0.014736 -0.002967 312537.000000 1 0 0
2.609751 18.442602 0.647756 18.637595 1.430223 1.536034 0.012555 -0.012395 138142.000000 1 0 0
-6.861449 18.005702 1.464256 19.324306 -1.206714 1.494951 -0.014327 0.018296 228394.000000 1 0 0
0.296551 20.050002 -5.797644 20.873504 1.556007 1.852249 0.021891 0.000151 115836.000000 1 0 0
-7.952549 18.031602 -6.221544 20.666139 -1.155424 1.876590 0.033353 -0.011601 93269.700000 1 0 0
-7.239549 18.458702 -0.970044 19.851340 -1.197030 1.619681 0.005927 -0.004163 24358.600000 1 0 0
-14.710149 -9.276898 8.542156 19.375700 0.562649 1.114229 0.029389 -0.007047 439846.000000 1 0 0
-13.503549 -13.643598 7.801156 20.720802 0.790557 1.184793 0.023467 0.004596 -39603.400000 1 0 0
-3.460149 -16.034898 12.714956 20.754776 1.358266 0.911415 -0.001021 0.013087 158704.000000 1 0 0
-2.051449 -14.076498 16.150656 21.522080 1.426079 0.722095 0.001160 0.012357 571815.000000 1 0 0
-8.136349 -13.431698 13.257656 20.551792 1.026154 0.869662 0.009062 -0.004994 248585.000000 1 0 0
-10.229049 -10.227898 11.940356 18.756744 0.785342 0.880728 0.033368 -0.015507 172621.000000 1 0 0
-7.353149 -10.277498 13.109556 18.208686 0.949769 0.767049 0.006660 -0.009187 241567.000000 1 0 0
-15.394649 -12.317898 7.104056 20.956943 0.674827 1.224960 0.019698 0.001159 327460.000000 1 0 0
-4.597549 -12.779498 13.170456 18.918614 1.225453 0.800756 0.008643 -0.006096 411237.000000 1 0 0
3.836951 -13.224198 14.016456 19.648477 -1.288404 0.776514 -0.009204 0.021047 340320.000000 1 0 0
6.614151 -13.424598 14.777856 21.032163 -1.113015 0.791708 0.015739 0.002605 259972.000000 1 0 0
7.081151 -8.990798 16.539956 20.113362 -0.903662 0.605291 0.005049 -0.008150 632630.000000 1 0 0
-5.359549 12.953202 13.685156 19.590653 -1.178482 0.797420 0.011903 -0.012455 544797.000000 1 0 0
-13.695849 -1.901698 17.380556 22.209828 0.137970 0.672027 0.018723 0.000446 192189.000000 1 0 0
-10.546349 9.785602 12.760456 19.230515 -0.747999 0.845239 0.004741 0.002084 477318.000000 1 0 0
-7.350949 -8.523498 16.933656 20.333106 0.859128 0.586628 0.011182 -0.018325 66603.900000 1 0 0
-4.961349 1.904502 18.696656 19.437260 -0.366522 0.276936 0.012661 0.001988 543505.000000 1 0 0
-15.291349 -3.651998 14.903956 21.663110 0.234436 0.812084 0.016414 0.000158 112590.000000 1 0 0
-14.441349 2.693102 12.386856 19.215607 -0.184368 0.870264 -0.001906 0.000764 206581.000000 1 0 0
-14.431849 10.592302 9.178056 20.117451 -0.633152 1.097050 -0.029130 -0.004724 -109704.000000 1 0 0
-4.186449 11.413802 15.914856 20.027078 -1.219244 0.652338 0.007003 0.004247 264208.000000 1 0 0
-13.346949 12.466902 8.649556 20.208402 -0.751319 1.128498 0.009214 -0.024753 135082.000000 1 0 0
-3.904449 -6.059198 18.437656 19.796610 0.998379 0.372682 0.014720 -0.020991 32766.400000 1 0 0
0.392951 -2.776498 17.728956 17.949352 -1.430202 0.156869 -0.000614 -0.023928 109393.000000 1 0 0
-4.700149 6.344002 21.035956 22.468850 -0.933157 0.359060 0.027888 -0.001776 225555.000000 1 0 0
2.278451 -10.359598 16.284656 19.434574 -1.354307 0.577332 -0.011049 -0.011010 364022.000000 1 0 0
-14.840349 -0.254298 13.885656 20.325159 0.017134 0.818694 -0.013995 0.007153 108657.000000 1 0 0
-14.259949 -6.087198 8.162156 17.522012 0.403457 1.086232 0.021894 0.001968 75432.700000 1 0 0
10.150951 0.883602 16.534156 19.421660 0.086827 0.552290 0.037787 0.005772 642968.000000 1 0 0
-7.773149 12.154602 11.739456 18.600296 -1.001822 0.887770 0.014763 -0.016328 133660.000000 1 0 0
-2.090649 7.585702 20.158556 21.639803 -1.301869 0.372144 0.033801 -0.008627 515190.000000 1 0 0
1.263751 -12.997698 15.039156 19.917667 -1.473872 0.715041 -0.021237 -0.021361 538518.000000 1 0 0
-3.656149 -11.626098 17.844356 21.609133 1.266111 0.599215 0.020438 -0.014541 505085.000000 1 0 0
-2.500449 8.235302 16.959956 19.018742 -1.276017 0.469599 0.028903 -0.017188 227205.000000 1 0 0
-4.107549 -9.532998 20.449256 22.932991 1.163958 0.469718 0.015504 -0.017650 179262.000000 1 0 0
-6.683849 -3.163398 19.082456 20.465118 0.442052 0.369694 0.012450 -0.016019 11635.800000 1 0 0
-10.859449 -8.044798 15.989656 20.935986 0.637594 0.701709 0.055476 -0.023740 256283.000000 1 0 0
-0.476149 6.206202 17.831656 18.886811 -1.494225 0.335843 0.021846 -0.010688 88225.200000 1 0 0
-6.320749 -10.931998 19.034256 22.842140 1.046570 0.585754 0.033513 -0.017367 413274.000000 1 0 0
0.166551 3.447602 18.763856 19.078679 1.522525 0.181917 0.012229 -0.011314 145461.000000 1 0 0
-17.707749 -1.271098 7.606156 19.314080 0.071659 1.166019 -0.007673 -0.000122 217347.000000 1 0 0
-1.897349 -8.754598 17.515356 19.673094 1.357371 0.472748 -0.002528 -0.010040 196700.000000 1 0 0
5.778051 3.452702 14.962856 16.407135 0.538620 0.422730 0.004539 -0.003256 353348.000000 1 0 0
-13.610449 -7.047998 10.345456 18.491811 0.477815 0.977060 0.010474 0.001035 224611.000000 1 0 0
3.734051 8.072702 17.025456 19.208795 1.137553 0.481424 0.016147 -0.005345 139864.000000 1 0 0
6.392151 4.620602 18.008056 19.659594 0.625901 0.412820 0.020041 -0.012448 247526.000000 1 0 0
5.172551 -9.149598 18.464156 21.246070 -1.056259 0.517493 -0.000010 0.010705 389715.000000 1 0 0
-4.505449 -0.572998 19.793756 20.308131 0.126500 0.225549 0.015413 -0.014290 781874.000000 1 0 0
-11.277849 1.997602 16.950156 20.456981 -0.175308 0.594238 0.021435 -0.003622 101538.000000 1 0 0
-16.680749 -3.902098 8.686656 19.207596 0.229796 1.101509 0.023673 -0.012551 303718.000000 1 0 0
-13.164349 -8.671298 13.947056 21.047847 0.582464 0.846464 0.020125 -0.017421 93557.100000 1 0 0
-14.569149 5.841002 13.088256 20.437217 -0.381296 0.875761 0.002838 -0.009226 252410.000000 1 0 0
1.119551 9.629002 17.224456 19.764943 1.455047 0.512615 0.012076 -0.008763 -32577.800000 1 0 0
-3.940349 -10.384498 15.021956 18.682166 1.208134 0.636670 0.013336 -0.010022 650544.000000 1 0 0
-18.398349 -4.006698 7.261956 20.181399 0.214427 1.202706 0.079009 0.000764 -310500.000000 1 0 0
-0.743249 -0.503698 21.022656 21.041820 0.595601 0.042683 0.012591 -0.018062 457060.000000 1 0 0
-1.802649 2.462002 20.401956 20.628883 -0.938792 0.148463 0.014787 -0.012565 251160.000000 1 0 0
-8.124349 1.959202 16.392156 18.399628 -0.236634 0.471482 0.000914 0.010007 508178.000000 1 0 0
2.597751 -2.233898 18.581756 18.894980 -0.710234 0.182335 0.000231 -0.018853 -134007.000000 1 0 0
-12.316149 4.469202 14.204456 19.324282 -0.348097 0.745045 -0.016856 -0.003387 44096.100000 1 0 0
-13.792149 -5.544898 13.022356 19.762364 0.382258 0.851378 0.039226 -0.005992 -19947.200000 1 0 0
-16.626749 -0.608898 10.597656 19.726375 0.036605 1.003643 -0.000945 0.003711 1686.090000 1 0 0
-7.283749 7.679402 14.917156 18.290647 -0.811834 0.617097 -0.005790 -0.001476 35180.700000 1 0 0
-9.495649 0.849702 14.236056 17.133436 -0.089246 0.590085 0.005525 -0.002572 73082.300000 1 0 0
7.815051 -1.016598 14.949256 16.899372 -0.129356 0.485152 0.016415 -0.009866 20560.900000 1 0 0
3.824351 6.145102 18.509356 19.874209 1.014111 0.372761 0.005551 -0.008662 83646.400000 1 0 0
2.032351 0.791602 20.008956 20.127479 0.371422 0.108576 0.009007 -0.011648 215975.000000 1 0 0
-7.188349 6.777902 17.569456 20.156838 -0.756018 0.512263 0.003889 0.002147 595809.000000 1 0 0
7.364051 -2.937498 17.065356 18.817134 -0.379555 0.434917 0.001394 0.005041 376662.000000 1 0 0
-17.497049 1.843102 9.370856 19.933808 -0.104951 1.081394 0.056366 -0.001346 380350.000000 1 0 0
3.223051 -5.909298 19.069656 20.222751 -1.071476 0.339323 -0.013119 -0.022955 117939.000000 1 0 0
-3.701749 -3.789098 20.662756 21.330957 0.797058 0.250959 0.010313 -0.015759 485631.000000 1 0 0
-9.889649 5.892902 14.507756 18.520433 -0.537374 0.670779 -0.005185 0.004050 -31590.100000 1 0 0
6.468151 2.876202 19.809456 21.036256 0.418414 0.343203 0.034082 -0.019970 261824.000000 1 0 0
-7.700849 11.235602 14.706656 20.045637 -0.969938 0.747106 0.023936 -0.006566 161625.000000 1 0 0
-14.651149 5.000302 9.474756 18.150212 -0.328895 1.021580 -0.000079 -0.002621 228353.000000 1 0 0
1.269651 -5.135498 20.227456 20.907782 -1.328426 0.255802 0.014556 -0.028921 298174.000000 1 0 0
-6.457449 -8.358098 13.644056 17.254470 0.912989 0.658755 0.017920 -0.004094 294371.000000 1 0 0
-12.739849 10.358602 6.232056 17.562542 -0.682670 1.208043 -0.011447 -0.016842 8579.630000 1 0 0
-19.264749 1.847002 7.628756 20.802401 -0.095583 1.195310 0.003768 -0.006765 -6897.550000 1 0 0
-15.667949 9.185302 6.132756 19.169379 -0.530246 1.245146 -0.007607 -0.004140 131787.000000 1 0 0
-13.111449 7.562102 14.240756 20.782074 -0.523153 0.815860 0.006766 -0.000859 258701.000000 1 0 0
-16.482349 9.135402 10.793356 21.716812 -0.506103 1.050653 0.005738 -0.000474 427343.000000 1 0 0
2.446251 10.638102 14.398756 18.068689 1.344774 0.648667 0.007721 -0.046715 571997.000000 1 0 0
1.419051 14.207502 13.668856 19.766245 1.471246 0.807198 -0.003167 -0.012663 418516.000000 1 0 0
8.561151 5.131202 16.592556 19.363250 0.539948 0.541552 0.024811 -0.005350 170009.000000 1 0 0
-0.467949 13.361402 13.327656 18.877830 -1.535788 0.786969 -0.003362 0.005706 88635.300000 1 0 0
4.465151 13.610302 15.040456 20.770007 1.253789 0.761005 0.028502 0.018498 65817.900000 1 0 0
-3.802649 -4.490398 -13.684344 14.895808 0.868140 2.735499 0.008741 -0.007082 172811.000000 1 0 0
4.828051 -11.792098 16.834156 21.112851 -1.182186 0.647919 -0.059395 0.015194 249643.000000 1 0 0
8.758251 -14.060498 7.237656 18.077285 -1.013710 1.158873 0.009466 0.005029 363587.000000 1 0 0
-0.390749 15.323702 0.492456 15.336591 -1.545302 1.538681 0.001178 -0.001481 -309547.000000 1 0 0
-14.262749 7.615702 8.479456 18.257220 -0.490443 1.087790 0.006116 -0.008143 76802.500000 1 0 0
-16.053749 -9.574298 5.657856 19.529500 0.537761 1.276874 0.017228 -0.004041 242109.000000 1 0 0
8.716551 -10.579598 11.244756 17.729938 -0.881650 0.883792 0.004704 -0.003260 136975.000000 1 0 0
-25.357039 5.974402 31.506427 40.881876 -0.231391 0.690905 0.012570 -0.005939 -588402.000000 0 0 1
-24.216749 5.205202 31.367797 39.968534 -0.211721 0.668403 0.014962 -0.004639 -657620.000000 0 0 1
-23.089649 5.839602 31.945767 39.846767 -0.247716 0.640637 0.017556 -0.002804 262135.000000 0 0 1
-21.814849 5.002902 31.605427 38.727505 -0.225436 0.616170 0.024466 -0.003699 -133470.000000 0 0 1
-21.691849 3.767302 32.231047 39.032925 -0.171958 0.599283 0.008254 -0.003966 -145530.000000 0 0 1
-20.607449 3.034102 31.718957 37.946870 -0.146183 0.581066 0.035630 -0.004498 -44977.800000 0 0 1
-20.307149 1.690202 32.532277 38.387317 -0.083040 0.559587 0.022443 -0.007791 -191205.000000 0 0 1
-21.222649 0.650302 32.412867 38.748131 -0.030632 0.579929 0.019922 -0.001488 -149205.000000 0 0 1
-21.024549 -0.261098 33.446511 39.506568 0.012418 0.561220 0.025526 -0.000953 -282989.000000 0 0 1
-21.525849 -1.697498 33.157217 39.568228 0.078696 0.577233 0.028392 -0.017749 -580758.000000 0 0 1
-20.819649 -2.516798 32.242977 38.462990 0.120302 0.576665 0.037116 -0.007261 -39613.500000 0 0 1
-21.094449 -3.881898 32.361837 38.824392 0.181989 0.585304 0.039332 -0.016583 -674071.000000 0 0 1
-22.510149 -4.390498 32.021477 39.387285 0.192627 0.621527 0.020384 -0.008514 404665.000000 0 0 1
-23.619049 -4.081298 32.868383 40.679811 0.171107 0.630084 0.019340 -0.004440 543346.000000 0 0 1
-23.478549 -4.627498 34.187285 41.730402 0.194600 0.610709 0.020962 -0.005399 -1016380.000000 0 0 1
-24.547049 -4.043698 -33.727014 41.909671 0.163266 2.506059 0.033406 -0.004182 -250584.000000 0 0 1
-24.434649 -4.595698 -32.419544 40.855836 0.185909 2.487353 0.036525 -0.004499 281729.000000 0 0 1
-25.572159 -4.201498 -31.688494 40.935908 0.162845 2.456089 0.035572 -0.000695 -169174.000000 0 0 1
-25.664199 -5.004098 -30.376914 40.080531 0.192568 2.430880 0.022683 -0.005650 -326493.000000 0 0 1
-25.976139 -6.389998 -30.424174 40.512001 0.241206 2.420359 0.025262 0.000385 523825.000000 0 0 1
-25.731979 -7.019798 -29.157844 39.516986 0.266324 2.400685 0.006684 -0.001869 -9994.280000 0 0 1
-25.812699 -8.580898 -29.267064 39.956079 0.320937 2.392755 0.016781 -0.004329 -17062.000000 0 0 1
-27.174289 -8.958898 -29.260154 40.925059 0.318462 2.367376 0.026127 -0.006171 27368.000000 0 0 1
-27.381249 -10.370598 -29.235054 41.375965 0.362053 2.355437 0.021656 -0.005275 1253.820000 0 0 1
-28.753549 -10.775298 -28.684194 42.019717 0.358549 2.322161 0.039366 -0.011022 -6255.230000 0 0 1
-28.889379 -11.128198 -27.317084 41.287481 0.367683 2.293788 0.043323 -0.015685 -87896.000000 0 0 1
-30.245589 -11.282698 -26.921384 42.033984 0.357048 2.265903 0.042859 -0.016858 -96154.100000 0 0 1
-30.361389 -12.023098 -25.568634 41.474376 0.377053 2.235076 0.038603 -0.008819 -171161.000000 0 0 1
-29.904989 -11.300898 -24.435644 40.238282 0.361305 2.223421 0.055600 -0.006443 151915.000000 0 0 1
-29.984119 -11.973198 -23.193844 39.753733 0.379918 2.193752 0.058110 -0.012493 106718.000000 0 0 1
-28.992269 -11.300998 -22.176744 38.210891 0.371677 2.189989 0.069251 -0.017249 194064.000000 0 0 1
-28.973779 -11.871898 -20.884044 37.637284 0.388880 2.159011 0.073602 -0.013383 316733.000000 0 0 1
-28.007469 -12.912198 -20.738844 37.165075 0.431986 2.162794 0.068534 -0.018608 44669.100000 0 0 1
-27.684649 -13.306998 -19.285344 36.269002 0.448059 2.131439 0.062031 -0.021907 98114.200000 0 0 1
-27.179939 -12.238198 -18.509844 35.087560 0.423075 2.126490 0.050733 -0.026511 43391.900000 0 0 1
-26.728929 -12.630398 -17.275344 34.240329 0.441437 2.099636 0.056044 -0.022930 -273624.000000 0 0 1
-26.467529 -11.395998 -16.368544 33.141033 0.406575 2.087372 0.047492 -0.025976 -995466.000000 0 0 1
-25.278139 -10.723398 -16.490144 32.029680 0.401207 2.111617 0.026073 -0.021483 -659459.000000 0 0 1
-25.414209 -9.588098 -15.710544 31.378891 0.360762 2.095172 0.024208 -0.023405 -484837.000000 0 0 1
-24.178449 -8.690998 -15.652844 30.085584 0.345071 2.117972 0.025696 -0.017054 -654356.000000 0 0 1
-23.175749 -9.263198 -14.891244 29.063230 0.380242 2.108743 0.020947 -0.021008 -511577.000000 0 0 1
-21.972949 -8.526698 -14.875544 27.871076 0.370166 2.133798 0.035782 -0.042799 -11.511000 0 0 1
-20.992149 -9.130998 -13.842044 26.751591 0.410287 2.114640 0.028562 -0.028097 -229786.000000 0 0 1
-20.331549 -10.278798 -14.357644 26.928934 0.468085 2.133137 0.025808 -0.019064 265135.000000 0 0 1
-19.239949 -10.568498 -13.493744 25.767226 0.502305 2.121960 0.040478 -0.017976 665946.000000 0 0 1
-18.293349 -11.726398 -14.041644 25.871274 0.570036 2.144505 0.039448 -0.009429 520222.000000 0 0 1
-17.527449 -11.456498 -15.222544 25.888002 0.578924 2.199399 0.050444 -0.012472 232403.000000 0 0 1
-18.311349 -11.434498 -16.361344 27.087761 0.558203 2.219322 0.043114 -0.017452 -516585.000000 0 0 1
-17.503049 -10.933798 -17.559144 27.096646 0.558369 2.275777 0.044961 -0.014784 -400374.000000 0 0 1
-18.262949 -10.895398 -18.724044 28.334340 0.537905 2.292714 0.026506 -0.000810 119665.000000 0 0 1
-17.567049 -10.435798 -19.881844 28.509556 0.536037 2.342524 0.036365 -0.006271 -264695.000000 0 0 1
-18.198749 -10.911098 -21.197444 29.992968 0.540090 2.355686 0.057540 -0.008107 -92317.200000 0 0 1
-19.316349 -10.084498 -21.475144 30.594121 0.481148 2.348910 0.039536 -0.018048 180646.000000 0 0 1
-20.217449 -10.832198 -22.307644 31.995511 0.491864 2.342297 0.044790 -0.007558 -135889.000000 0 0 1
-21.348249 -9.973698 -22.817144 32.800068 0.437057 2.340111 0.025825 -0.011718 -819540.000000 0 0 1
-20.919649 -9.099098 -23.810344 32.975108 0.410272 2.377586 0.027903 -0.013901 -285841.000000 0 0 1
-21.890549 -8.475498 -24.594544 33.998850 0.369403 2.379501 0.021318 -0.011349 -162507.000000 0 0 1
-21.224349 -7.822698 -25.878124 34.370698 0.353123 2.423273 0.019760 -0.015832 57765.500000 0 0 1
-20.596449 -8.691198 -26.767804 34.875005 0.399306 2.445784 0.032598 -0.019752 -192732.000000 0 0 1
-20.000849 -7.885898 -27.740374 35.096292 0.375564 2.482270 0.020801 -0.024434 264633.000000 0 0 1
-18.702349 -8.543098 -28.319054 34.996160 0.428488 2.513593 0.035551 -0.028708 375652.000000 0 0 1
-19.006449 -9.554498 -29.233794 36.154505 0.465803 2.512530 0.035081 -0.022995 938025.000000 0 0 1
-17.809449 -10.241098 -29.665184 36.084341 0.521862 2.535898 0.010397 -0.018411 661579.000000 0 0 1
-18.046749 -11.363498 -30.623734 37.317922 0.561951 2.533287 0.015345 -0.011682 -462810.000000 0 0 1
-18.434849 -10.945098 -31.897634 38.433031 0.535787 2.549821 0.011230 -0.005574 188390.000000 0 0 1
-18.622849 -12.077998 -32.729284 39.546107 0.575361 2.545656 0.010703 -0.006226 -118668.000000 0 0 1
-19.375349 -11.775498 -34.048994 40.907218 0.546103 2.554125 0.008356 -0.006996 -20718.400000 0 0 1
-18.655149 -10.949498 33.808629 40.136386 0.530763 0.569179 0.009676 -0.007585 261191.000000 0 0 1
-19.092149 -11.051398 32.459357 39.246062 0.524719 0.596916 0.018011 -0.012379 -347497.000000 0 0 1
-18.622349 -12.311998 31.694857 38.767785 0.584167 0.613641 0.022765 -0.014198 -1246720.000000 0 0 1
-17.251249 -12.355498 31.581947 38.048433 0.621522 0.591606 0.027973 -0.012457 -1098740.000000 0 0 1
-16.712949 -13.350398 30.728547 37.440611 0.674012 0.608113 0.029505 -0.017766 -77572.400000 0 0 1
-16.859249 -14.855598 31.102947 38.370775 0.722305 0.625638 0.029647 -0.001586 -246826.000000 0 0 1
-18.169749 -15.382098 30.872867 38.985672 0.702504 0.656877 0.015822 -0.003266 406273.000000 0 0 1
-18.359049 -16.677998 31.468327 40.068265 0.737456 0.667506 0.035105 -0.005890 -346044.000000 0 0 1
-18.549549 -16.730698 33.064081 41.439540 0.733889 0.647014 0.003277 -0.017303 -493837.000000 0 0 1
-17.320549 -16.519198 33.676988 41.316157 0.761722 0.617887 0.018620 -0.010032 -479924.000000 0 0 1
-17.565149 -15.962798 -33.866394 41.355508 0.737643 2.530304 0.009234 -0.006935 -123465.000000 0 0 1
-16.356249 -15.407298 -33.109884 40.014699 0.755532 2.545335 0.007626 -0.010304 -527967.000000 0 0 1
-15.945549 -14.108398 -33.535164 39.722974 0.724346 2.575916 0.009844 -0.009864 -186391.000000 0 0 1
-14.822349 -13.669998 -32.794734 38.497603 0.744976 2.590331 0.017786 -0.010789 -279581.000000 0 0 1
-15.036949 -13.341898 -31.304124 37.203014 0.725740 2.570740 0.016503 -0.007523 -491980.000000 0 0 1
-15.322649 -14.469298 -30.521084 37.090170 0.756762 2.537273 0.005803 -0.007669 -224082.000000 0 0 1
-15.642749 -14.178298 -29.174254 36.011898 0.736330 2.515167 0.011575 -0.011239 -221890.000000 0 0 1
-15.716549 -15.471998 -28.321234 35.895472 0.777557 2.479963 0.023653 -0.019956 674959.000000 0 0 1
-14.450349 -16.078198 -28.027264 35.395601 0.838670 2.484594 0.029321 -0.028509 279754.000000 0 0 1
-13.825649 -16.721698 -29.105084 36.302475 0.879921 2.500994 0.024846 -0.025448 194216.000000 0 0 1
-12.404049 -17.236998 -28.658674 35.669232 0.947025 2.503875 0.027328 -0.017677 616065.000000 0 0 1
-11.484949 -16.203798 -28.460104 34.705110 0.954201 2.532304 0.024914 -0.018853 -580282.000000 0 0 1
-10.169549 -16.676498 -28.292074 34.379744 1.023192 2.537343 0.041313 -0.026093 -171425.000000 0 0 1
-9.162249 -15.558498 -28.254064 33.530670 1.038586 2.572951 0.025116 -0.024253 -503869.000000 0 0 1
-9.194149 -14.856498 -27.084584 32.230771 1.016622 2.568694 0.031863 -0.018594 -289512.000000 0 0 1
-7.972949 -14.186198 -26.914034 31.451254 1.058770 2.597772 0.026513 -0.020216 -264689.000000 0 0 1
-7.985049 -12.668798 -27.452214 31.271129 1.008400 2.642208 0.013919 -0.020865 -223504.000000 0 0 1
-7.660549 -12.457098 -28.781564 32.283769 1.019453 2.671482 0.027747 -0.016074 215956.000000 0 0 1
-7.601149 -11.072698 -29.106954 32.056152 0.969204 2.709279 0.020222 -0.015018 -250815.000000 0 0 1
-6.687549 -10.756698 -30.309074 32.849198 1.014566 2.745753 0.012641 -0.006421 -1044470.000000 0 0 1
-5.369949 -11.164298 -30.081024 32.532229 1.122470 2.750920 0.025152 -0.005874 -23529.100000 0 0 1
-4.507349 -10.808898 -31.164244 33.292020 1.175718 2.782134 0.021422 -0.008227 63509.100000 0 0 1
-4.094749 -9.317898 -31.370574 32.980344 1.156750 2.827866 0.013463 -0.008678 -675412.000000 0 0 1
-3.092749 -9.089198 -32.346564 33.741352 1.242819 2.853060 0.015041 -0.010558 174261.000000 0 0 1
-3.118849 -7.673498 -32.596164 33.632123 1.184747 2.892747 0.004292 -0.010219 -331961.000000 0 0 1
-1.812949 -7.140598 -33.186254 33.994152 1.322157 2.923141 0.024576 -0.012301 -259791.000000 0 0 1
-1.444649 -7.561298 34.339787 35.192061 1.382013 0.220528 0.024549 -0.017578 679468.000000 0 0 1
-0.189149 -6.976698 33.927496 34.637914 1.543691 0.202881 0.033617 -0.005230 941411.000000 0 0 1
0.266151 -7.502498 32.533187 33.388120 -1.535336 0.226786 0.022836 -0.010497 -513289.000000 0 0 1
-0.330849 -6.940798 31.429847 32.188809 1.523165 0.217585 0.027215 -0.008459 -158658.000000 0 0 1
0.054951 -7.540798 30.220317 31.146977 -1.563509 0.244540 0.018942 -0.010894 -171981.000000 0 0 1
-0.463649 -6.833498 28.963747 29.762565 1.503051 0.232210 0.012114 -0.004149 -438823.000000 0 0 1
0.304551 -5.762698 28.495567 29.074022 -1.517997 0.199811 0.030662 -0.006086 -194765.000000 0 0 1
-0.043949 -5.252298 27.217537 27.719720 1.562429 0.190638 0.031411 -0.001085 84855.800000 0 0 1
-1.305749 -4.371598 26.960907 27.344219 1.280543 0.167636 0.026445 0.009891 1046210.000000 0 0 1
-2.498549 -5.153698 27.163957 27.761194 1.119377 0.207803 0.024808 0.005299 114631.000000 0 0 1
-3.639849 -4.371398 26.906467 27.501192 0.876461 0.208345 0.014300 -0.004354 468737.000000 0 0 1
-5.028149 -4.910498 27.355867 28.244269 0.773561 0.251478 0.001159 -0.001613 631447.000000 0 0 1
-5.503549 -6.030698 26.611247 27.835532 0.831069 0.297688 -0.002201 0.004791 -19781.000000 0 0 1
-6.834349 -6.390898 26.923877 28.503457 0.751880 0.334475 -0.010619 0.003150 374572.000000 0 0 1
-7.096549 -7.921998 26.945757 28.968826 0.840305 0.375937 -0.006615 -0.000644 110047.000000 0 0 1
-6.346849 -8.475698 28.016647 29.950834 0.928045 0.361348 -0.003552 -0.004815 20755.700000 0 0 1
-6.219949 -9.876698 27.770987 30.124154 1.008781 0.397880 0.000421 -0.008761 -379191.000000 0 0 1
-5.116449 -10.414898 28.670567 30.929752 1.114163 0.384576 0.001127 -0.014436 -505901.000000 0 0 1
-5.104649 -11.813098 28.766977 31.514214 1.162912 0.420646 0.014175 -0.018215 -20318.100000 0 0 1
-4.618049 -12.263998 29.960117 32.700774 1.210665 0.412329 0.024188 -0.021733 -481343.000000 0 0 1
-4.634849 -13.763898 29.947777 33.283570 1.245983 0.451539 0.033978 -0.021405 -332826.000000 0 0 1
-5.890849 -14.383798 29.971597 33.762292 1.182087 0.478419 0.046513 -0.027316 -480084.000000 0 0 1
-5.803349 -15.818898 30.026757 34.431418 1.219180 0.511371 0.036734 -0.026482 53115.200000 0 0 1
-5.968849 -16.374398 31.509577 36.008353 1.221242 0.505230 0.054014 -0.022074 459632.000000 0 0 1
-7.275249 -16.236798 32.055947 36.662605 1.149547 0.506702 0.051810 -0.022327 116606.000000 0 0 1
-7.160849 -16.412898 33.446836 37.938790 1.159399 0.491555 0.048352 -0.019012 -585635.000000 0 0 1
-8.513149 -16.726798 34.105553 38.928758 1.100012 0.503080 0.045602 -0.012498 174118.000000 0 0 1
-9.074949 -18.023698 33.752816 39.325068 1.104352 0.538843 0.050095 -0.015727 535402.000000 0 0 1
-9.557449 -18.164098 32.379887 38.337141 1.086431 0.564962 0.057628 -0.019563 -593609.000000 0 0 1
-10.174249 -19.527798 32.022227 38.862234 1.090479 0.602373 0.077143 -0.020706 22543.700000 0 0 1
-11.468549 -19.852298 32.505277 39.777310 1.046940 0.614293 0.061128 -0.015884 402999.000000 0 0 1
-11.865449 -21.152898 32.163607 40.283143 1.059595 0.646099 0.049151 -0.009665 -124173.000000 0 0 1
-11.454149 -22.159398 33.260338 41.575071 1.093722 0.643490 0.042770 -0.008801 -31876.800000 0 0 1
-10.075449 -22.458498 33.104879 41.253264 1.149086 0.639358 0.040251 -0.007551 -46115.300000 0 0 1
-9.518949 -23.325098 34.059780 42.364362 1.183328 0.636851 0.029682 -0.015324 150374.000000 0 0 1
-10.071249 -24.751998 34.095238 43.319473 1.184368 0.664760 0.036893 -0.004694 -225099.000000 0 0 1
-9.378349 -25.571708 33.174331 42.923209 1.219281 0.687435 0.032238 0.002808 10473.600000 0 0 1
-9.415149 -26.938898 33.490888 43.999873 1.234567 0.705698 0.026789 0.002707 -589158.000000 0 0 1
-8.552749 -27.773688 32.478837 43.582131 1.272067 0.729912 0.024872 0.001204 892955.000000 0 0 1
-7.190149 -27.337398 32.490717 43.065976 1.313606 0.715995 0.026630 -0.008363 531606.000000 0 0 1
-6.378749 -28.076848 33.410605 44.105174 1.347399 0.711289 0.036265 -0.006929 248054.000000 0 0 1
-4.932649 -27.596198 33.714069 43.846547 1.393920 0.693661 0.050976 -0.013483 470531.000000 0 0 1
-4.991649 -26.346728 -34.362035 43.586880 1.383556 2.478931 0.042771 -0.003406 48125.600000 0 0 1
-4.853349 -25.265078 33.551610 42.279897 1.381011 0.654160 0.041930 -0.010639 -345289.000000 0 0 1
-4.578249 -23.948298 34.236725 42.031353 1.381903 0.618840 0.040529 -0.015914 455599.000000 0 0 1
-3.214149 -24.047498 -34.168939 41.906197 1.437925 2.524160 0.035219 -0.016862 203189.000000 0 0 1
-2.806349 -22.837898 -33.624144 40.743444 1.448528 2.541468 0.036101 -0.029329 -338715.000000 0 0 1
33.998175 -15.317298 1.895756 37.337507 -0.423297 1.520001 0.076539 -0.027803 230666.000000 0 0 1
34.688855 -15.538698 3.104356 38.136660 -0.421144 1.489305 0.068382 -0.030528 640586.000000 0 0 1
33.819935 -16.293898 3.938956 37.746450 -0.448969 1.466253 0.074004 -0.033556 575444.000000 0 0 1
34.559665 -16.508698 5.279956 38.662456 -0.445638 1.433803 0.055839 -0.018922 883304.000000 0 0 1
35.601256 -17.500698 5.305256 40.023363 -0.456885 1.437851 0.059392 -0.021236 540173.000000 0 0 1
-34.918140 -17.479898 6.520756 39.589691 0.464125 1.405334 0.043440 -0.009815 1109810.000000 0 0 1
-33.565799 -18.296198 6.500456 38.777180 0.499062 1.402365 0.027418 -0.018446 721155.000000 0 0 1
-33.706989 -19.648098 6.228056 39.509462 0.527758 1.412502 0.040375 -0.016129 -164609.000000 0 0 1
-32.663239 -20.415798 6.790756 39.112739 0.558627 1.396292 0.028862 -0.014022 18268.100000 0 0 1
-33.007319 -21.915498 6.831756 40.205038 0.586126 1.400045 0.038057 -0.020339 -266986.000000 0 0 1
-32.491009 -22.740998 5.803556 40.081167 0.610670 1.425490 0.056598 -0.020779 227189.000000 0 0 1
-32.873899 -24.065098 6.153256 41.202970 0.631909 1.420895 0.065223 -0.022981 -45579.100000 0 0 1
-32.382549 -25.062038 5.128956 41.267923 0.658645 1.446190 0.066146 -0.021969 252676.000000 0 0 1
-33.067639 -24.996598 3.865456 41.632204 0.647281 1.477815 0.078555 -0.023046 345365.000000 0 0 1
-32.566509 -26.041088 3.026356 41.807590 0.674514 1.498345 0.074381 -0.019071 -3188.810000 0 0 1
-32.803749 -25.934208 1.504156 41.844135 0.668975 1.534842 0.074139 -0.022921 -203294.000000 0 0 1
-34.115526 -26.258658 1.091556 43.064809 0.655989 1.545447 0.070733 -0.024453 -105234.000000 0 0 1
-34.374230 -25.655968 -0.183744 42.893475 0.641175 1.575080 0.067507 -0.016324 67978.500000 0 0 1
-35.173397 -24.331398 0.017156 42.768973 0.605171 1.570395 0.077287 -0.019346 -22403.300000 0 0 1
34.684505 -24.448098 -0.081744 42.435022 -0.613988 1.572723 0.064887 -0.010634 17675.600000 0 0 1
33.922885 -23.325198 0.342656 41.169702 -0.602352 1.562473 0.072642 -0.020826 449618.000000 0 0 1
32.421565 -23.645098 0.147956 40.128175 -0.630122 1.567109 0.039351 -0.009976 138024.000000 0 0 1
31.936475 -23.656898 -1.165944 39.761120 -0.637554 1.600124 0.039412 -0.022261 -1475250.000000 0 0 1
30.576395 -23.735798 -1.244144 38.727922 -0.660108 1.602927 0.033563 -0.017371 -1274650.000000 0 0 1
29.958085 -23.615598 -2.597244 38.235180 -0.667559 1.638777 0.037362 -0.012064 -218639.000000 0 0 1
30.078505 -22.372098 -3.236344 37.625804 -0.639515 1.656917 0.047519 -0.023748 9531.320000 0 0 1
29.433515 -22.248098 -4.504644 37.169900 -0.647251 1.692286 0.048944 -0.039419 209152.000000 0 0 1
29.600845 -20.770098 -5.043444 36.510866 -0.611848 1.709375 0.032575 -0.037176 233870.000000 0 0 1
28.861935 -19.815898 -4.267644 35.268880 -0.601659 1.692097 0.037240 -0.032590 49055.400000 0 0 1
28.955345 -18.415498 -4.614144 34.624166 -0.566468 1.704458 0.038911 -0.032188 -323749.000000 0 0 1
28.203765 -17.614698 -3.554344 33.441939 -0.558277 1.677281 0.050956 -0.024745 -163948.000000 0 0 1
28.771405 -17.467598 -2.246744 33.733642 -0.545636 1.637448 0.051732 -0.022182 -123259.000000 0 0 1
29.346955 -18.562398 -1.599644 34.761548 -0.563985 1.616830 0.047728 -0.006765 -579979.000000 0 0 1
28.471805 -19.722098 -1.174644 34.655225 -0.605802 1.604698 0.043272 -0.008560 -379672.000000 0 0 1
27.644705 -19.542698 -0.034344 33.854807 -0.615358 1.571811 0.034669 0.003494 282871.000000 0 0 1
26.924455 -20.764498 0.209356 34.001978 -0.656940 1.564639 0.025085 0.002515 -38262.200000 0 0 1
25.706435 -20.568598 1.154856 32.942704 -0.674823 1.535733 0.006824 0.004850 -644093.000000 0 0 1
24.997735 -21.761698 1.390056 33.172135 -0.716302 1.528880 -0.008462 0.013814 455703.000000 0 0 1
23.984535 -21.731598 2.417256 32.455560 -0.736157 1.496248 -0.013263 0.007822 421769.000000 0 0 1
22.632235 -21.126098 2.034756 31.026929 -0.750992 1.505169 -0.022019 0.009582 -1066490.000000 0 0 1
22.716235 -19.729998 1.776456 30.140603 -0.715161 1.511823 -0.000677 -0.004709 80437.300000 0 0 1
22.625235 -18.883498 2.899256 29.612387 -0.695498 1.472732 0.009617 -0.005107 -623338.000000 0 0 1
22.670735 -17.399398 2.512656 28.688233 -0.654597 1.483099 0.013281 -0.002631 348661.000000 0 0 1
21.401735 -17.021498 1.995856 27.418043 -0.671889 1.497938 0.013065 -0.004310 63123.200000 0 0 1
21.419035 -15.679198 1.563556 26.590544 -0.631895 1.511961 0.022917 -0.016302 147112.000000 0 0 1
20.040435 -15.185198 1.060156 25.166112 -0.648429 1.528658 0.012119 -0.004634 48870.700000 0 0 1
19.142935 -14.885098 2.112656 24.340941 -0.660918 1.483893 0.011472 -0.004574 -149201.000000 0 1 0
18.165035 -13.942498 1.807956 22.970208 -0.654636 1.492006 0.014754 -0.004232 -517378.000000 0 1 0
18.481835 -12.493198 2.276656 22.424125 -0.594417 1.469094 0.018313 -0.007400 -214871.000000 0 1 0
19.646535 -11.956998 1.676356 23.060059 -0.546723 1.498037 0.027035 -0.010036 390868.000000 0 1 0
20.000235 -10.677598 2.146256 22.773382 -0.490378 1.476412 0.031219 -0.013461 -93460.200000 0 1 0
20.808435 -9.918198 1.107156 23.077855 -0.444788 1.522803 0.038762 -0.018794 -15052.900000 0 1 0
19.983735 -9.598198 0.002556 22.169237 -0.447764 1.570681 0.029288 -0.014544 424868.000000 0 1 0
20.763635 -8.955498 -0.976144 22.633655 -0.407200 1.613938 0.035610 -0.008496 -444478.000000 0 1 0
20.076035 -8.698998 -2.336944 22.004114 -0.408882 1.677202 0.034718 -0.005357 -414856.000000 0 1 0
20.801735 -7.987098 -3.372044 22.536117 -0.366605 1.720989 0.043202 -0.008960 974056.000000 0 1 0
21.988835 -8.624198 -3.856144 23.932311 -0.373771 1.732629 0.050513 -0.012168 -7937.870000 0 1 0
21.687635 -9.830898 -4.767944 24.284426 -0.425591 1.768418 0.043212 -0.011759 -541018.000000 0 1 0
21.233435 -9.655898 -6.077744 24.104649 -0.426797 1.825687 0.041194 -0.011323 -61275.900000 0 1 0
19.928135 -9.151198 -6.194444 22.786972 -0.430487 1.846102 0.038900 -0.004917 -647794.000000 0 1 0
19.417735 -9.239898 -7.676144 22.833031 -0.444140 1.913660 0.039619 0.003843 -126288.000000 0 1 0
19.249235 -10.582198 -8.083744 23.406471 -0.502649 1.923423 0.036844 0.004352 437751.000000 0 1 0
20.291035 -10.953498 -8.959244 24.738093 -0.494994 1.941385 0.037100 0.005585 -182338.000000 0 1 0
20.117235 -12.383798 -9.442044 25.440397 -0.551798 1.951037 0.029011 -0.000561 190505.000000 0 0 1
19.085035 -12.451598 -10.432344 25.062216 -0.578080 2.000122 0.044655 -0.004907 496849.000000 0 0 1
18.917135 -13.709998 -10.919144 25.788558 -0.627138 2.008003 0.053061 0.003086 563920.000000 0 0 1
17.728235 -13.942198 -11.943844 25.521180 -0.666418 2.057820 0.047655 0.000303 789167.000000 0 0 1
17.620035 -15.350398 -12.183544 26.354110 -0.716668 2.051385 0.046701 -0.008987 -264474.000000 0 0 1
16.710435 -15.614698 -13.195744 26.404263 -0.751514 2.094116 0.053404 -0.006290 -474448.000000 0 0 1
16.586435 -17.120498 -13.588344 27.438374 -0.801241 2.088897 0.040885 -0.015782 -167179.000000 0 0 1
15.891235 -17.915698 -12.606544 27.063417 -0.845210 2.055352 0.039819 -0.013917 349787.000000 0 0 1
16.002135 -19.324498 -12.844244 28.186507 -0.879169 2.043941 0.034635 -0.012695 -120322.000000 0 0 1
14.949035 -20.201298 -12.094244 27.889726 -0.933724 2.019330 0.024170 -0.011558 -192621.000000 0 0 1
13.668435 -20.030498 -12.630344 27.341773 -0.971993 2.050981 0.011794 -0.014403 -284618.000000 0 0 1
12.682535 -20.621298 -11.791344 26.928060 -1.019405 2.024039 0.014465 -0.008303 1517130.000000 0 0 1
11.164535 -20.549498 -12.214544 26.384158 -1.073112 2.052117 0.007644 -0.010606 1065510.000000 0 0 1
10.245535 -20.900498 -11.239044 25.847977 -1.115015 2.020627 0.011610 -0.009632 204468.000000 0 0 1
8.903735 -21.051298 -11.702544 25.678458 -1.170660 2.043993 0.005673 -0.010091 1268480.000000 0 0 1
7.843335 -21.497298 -10.632044 25.232758 -1.220952 2.005739 0.009303 -0.013880 235490.000000 0 0 1
7.934035 -22.878898 -10.526444 26.404525 -1.236989 1.980852 0.009730 -0.011619 203488.000000 0 0 1
7.051735 -23.476398 -9.576444 26.316849 -1.278995 1.943237 0.011373 -0.019352 309810.000000 0 0 1
7.125735 -25.054158 -9.712344 27.799579 -1.293700 1.927695 0.011170 -0.015440 853080.000000 0 0 1
8.437235 -25.537958 -9.404444 28.492417 -1.251706 1.907172 0.015566 -0.009698 230969.000000 0 0 1
8.558835 -26.902828 -9.658244 29.837854 -1.262783 1.900424 0.009737 -0.010987 345431.000000 0 0 1
9.970535 -27.460078 -9.332744 30.668674 -1.222506 1.880009 0.013809 -0.004212 239455.000000 0 0 1
10.289635 -27.367198 -7.953944 30.300253 -1.211163 1.836413 0.019428 -0.014412 727924.000000 0 0 1
11.621935 -27.912598 -7.814544 31.228987 -1.176259 1.823718 0.039882 -0.006884 337936.000000 0 0 1
12.167735 -28.108448 -6.406544 31.291891 -1.162266 1.776989 0.032513 -0.017956 255095.000000 0 0 1
11.533535 -29.194628 -5.704144 31.904326 -1.194559 1.750552 0.028261 -0.020156 199769.000000 0 0 1
10.127635 -29.213248 -5.611244 31.424018 -1.237083 1.750325 0.024921 -0.021179 -435883.000000 0 0 1
9.564635 -30.418478 -4.844244 32.252640 -1.266150 1.721564 0.036511 -0.016837 37110.100000 0 0 1
9.987135 -31.726118 -5.271144 33.676021 -1.265825 1.727968 0.038785 -0.017520 -54070.700000 0 0 1
9.251035 -32.202088 -6.374744 34.105623 -1.291049 1.758814 0.032017 -0.017079 100906.000000 0 0 1
9.457135 -33.762718 -6.578144 35.673947 -1.297689 1.756254 0.029424 -0.017517 -396476.000000 0 0 1
8.741435 34.403496 -5.595144 35.934925 1.321976 1.727135 0.029555 -0.012819 -182953.000000 0 0 1
9.057535 33.013893 -5.630144 34.693725 1.303030 1.733799 0.036994 -0.011407 23197.400000 0 0 1
8.637235 32.229139 -4.350544 33.648870 1.308955 1.700452 0.018278 -0.007232 559242.000000 0 0 1
7.239535 31.957479 -4.369744 33.057313 1.348020 1.703371 0.014975 -0.003979 -208222.000000 0 0 1
6.887835 31.003859 -3.426044 31.944003 1.352186 1.678255 0.002735 0.000547 1331440.000000 0 0 1
5.539335 30.186699 -3.734344 30.917088 1.389313 1.691878 0.007259 -0.000291 1169990.000000 0 0 1
5.585535 29.470659 -4.955644 30.401913 1.383489 1.734531 0.007700 -0.006487 32081.400000 0 0 1
5.445535 30.258459 -6.107644 31.345358 1.392735 1.766901 -0.011207 -0.003847 -597991.000000 0 0 1
5.561135 29.468179 -7.439044 30.897235 1.384273 1.813953 0.017619 -0.013493 -736853.000000 0 0 1
4.606335 28.497439 -7.688744 29.873719 1.410542 1.831101 0.017252 -0.020723 -565144.000000 0 0 1
4.873235 27.251889 -7.089844 28.577609 1.393845 1.821505 0.018874 -0.012568 -253430.000000 0 0 1
4.014435 26.011709 -7.527844 27.375045 1.417673 1.849375 0.018267 -0.019765 -291760.000000 0 0 1
2.679635 25.948789 -7.096544 27.034811 1.467895 1.836405 0.022395 -0.019453 -356775.000000 0 0 1
1.757735 26.656569 -7.922944 27.864589 1.504952 1.859112 0.028676 -0.020421 20774.800000 0 0 1
1.311235 25.909869 -9.211944 27.529994 1.520232 1.911993 0.039588 -0.026500 -287467.000000 0 0 1
2.361035 25.692659 -10.158144 27.728597 1.479158 1.945871 0.027218 -0.028672 213557.000000 0 0 1
1.967635 24.841599 -11.209444 27.324499 1.491754 1.993507 0.039805 -0.026112 -630828.000000 0 0 1
1.762835 23.342859 -10.914044 25.828531 1.495420 2.007062 0.043675 -0.022409 -608323.000000 0 0 1
0.536635 22.978059 -10.379144 25.219155 1.547446 1.994959 0.041228 -0.021826 -599176.000000 0 0 1
0.576735 21.573159 -10.134644 23.842081 1.544069 2.009840 0.022750 -0.021378 -1308940.000000 0 1 0
-0.439965 21.119559 -9.135944 23.015099 -1.549967 1.978992 0.027115 -0.014938 -813247.000000 0 1 0
-1.711365 21.367759 -9.714144 23.534538 -1.490876 1.996280 0.037499 -0.008423 -142089.000000 0 1 0
-2.677165 20.720659 -8.845744 22.688325 -1.442305 1.971299 0.028267 -0.011081 137083.000000 0 1 0
-4.053565 20.719059 -9.540544 23.167494 -1.377592 1.995233 0.036492 -0.008880 -697995.000000 0 1 0
-4.978165 19.948359 -8.876944 22.394626 -1.326239 1.978375 0.021189 -0.016281 -598141.000000 0 1 0
-5.786165 19.321059 -9.852944 22.446905 -1.279822 2.025220 0.023451 -0.014925 -1086320.000000 0 1 0
-6.579565 18.095559 -9.296344 21.381346 -1.222056 2.020599 0.021436 -0.018965 -144546.000000 0 1 0
-7.686765 18.471459 -8.523344 21.746920 -1.176452 1.973528 0.037575 -0.015942 89021.200000 0 1 0
-8.823165 18.932159 -9.280444 22.856105 -1.134683 1.988911 0.042307 -0.016224 -401994.000000 0 1 0
-9.908265 19.307159 -8.251844 23.217085 -1.096651 1.934161 0.047393 -0.020178 -113551.000000 0 1 0
-10.265265 18.099659 -7.633644 22.164066 -1.054880 1.922412 0.042684 -0.019676 -38903.800000 0 1 0
-11.275965 18.251759 -6.620744 22.452357 -1.017390 1.870126 0.047743 -0.018718 67849.700000 0 1 0
-11.614865 16.937959 -5.906144 21.370121 -0.969712 1.850815 0.029139 -0.024586 -124356.000000 0 1 0
-12.526165 17.198959 -4.854044 21.823628 -0.941322 1.795094 0.041288 -0.018727 168413.000000 0 1 0
-12.916065 16.077259 -4.078444 21.022291 -0.894001 1.766040 0.031891 -0.018694 -543201.000000 0 1 0
-14.119865 16.489159 -3.232744 21.947975 -0.862649 1.718625 0.021789 -0.016942 -951595.000000 0 1 0
-15.275465 16.585559 -3.995644 22.899471 -0.826494 1.746180 0.052084 -0.028810 -188988.000000 0 1 0
-16.274265 17.286759 -3.258244 23.964555 -0.815558 1.707180 0.054596 -0.018161 -388333.000000 0 1 0
-17.647465 17.499859 -3.854644 25.150276 -0.781199 1.724667 0.059262 -0.025572 -701554.000000 0 0 1
-17.645565 18.334359 -5.028044 25.938310 -0.804540 1.765878 0.051426 -0.029810 -952007.000000 0 0 1
-18.918965 18.396059 -5.541444 26.963862 -0.771386 1.777785 0.040903 -0.028730 -966823.000000 0 0 1
-19.098065 19.352759 -6.706344 28.004293 -0.792022 1.812622 0.039878 -0.022464 -187879.000000 0 0 1
-18.956965 20.722159 -6.349244 28.793876 -0.829856 1.793130 0.050128 -0.024715 101633.000000 0 0 1
-18.944465 21.632459 -7.452444 29.705134 -0.851546 1.824386 0.040831 -0.014273 -20307.000000 0 0 1
-18.774965 23.142859 -7.031644 30.619197 -0.889225 1.802513 0.053355 -0.014216 -1065210.000000 0 0 1
-17.571065 23.357859 -6.401344 29.921716 -0.925854 1.786399 0.062882 -0.020286 -718388.000000 0 0 1
-17.516165 24.568589 -5.675244 30.702443 -0.951432 1.756712 0.065271 -0.022949 7416.170000 0 0 1
-16.090865 24.703289 -5.102944 29.920034 -0.993462 1.742187 0.055395 -0.019177 -105115.000000 0 0 1
-16.031065 25.775809 -4.182744 30.641193 -1.014399 1.707731 0.045609 -0.023676 947334.000000 0 0 1
-14.671165 26.090949 -3.822144 30.175975 -1.058552 1.697799 0.055984 -0.029977 1038200.000000 0 0 1
-14.003665 27.246089 -4.590944 30.976261 -1.096035 1.719553 0.054218 -0.021498 -116118.000000 0 0 1
-14.617165 28.484879 -4.251544 32.297453 -1.096680 1.702817 0.066561 -0.015187 -19108.400000 0 0 1
-14.162965 29.611249 -4.970744 33.198252 -1.124662 1.721091 0.046436 -0.013557 -323748.000000 0 0 1
-14.907065 30.932429 -4.582144 34.641475 -1.121714 1.703458 0.035667 -0.006150 236686.000000 0 0 1
-16.255965 30.951479 -5.018944 35.319120 -1.087186 1.713382 0.059052 -0.007992 136054.000000 0 0 1
-16.847165 32.218239 -4.719944 36.662239 -1.088991 1.699896 0.053865 -0.003804 -209141.000000 0 0 1
12.240151 -8.707998 19.057657 24.266125 -0.618355 0.667518 0.036919 -0.002607 -275638.000000 0 1 0
12.497751 -10.027298 19.395457 25.157986 -0.676159 0.690471 0.042636 -0.007537 -178446.000000 0 0 1
13.184951 -10.777798 18.430957 25.093904 -0.685280 0.745897 0.051125 -0.007668 -214059.000000 0 0 1
13.425351 -12.182898 18.953757 26.228000 -0.736919 0.763163 0.067487 -0.017322 -392884.000000 0 0 1
14.497051 -12.118098 19.884557 27.430064 -0.696252 0.759880 0.054799 -0.016884 285831.000000 0 0 1
14.712951 -13.333298 20.514557 28.549865 -0.736246 0.769079 0.053852 -0.016198 -99271.800000 0 0 1
15.514551 -14.405898 19.753157 28.955456 -0.748362 0.820041 0.050142 -0.006575 -519180.000000 0 0 1
14.802251 -14.798898 18.595057 27.998039 -0.785285 0.844432 0.060362 -0.018414 -16233.700000 0 0 1
15.484351 -15.720898 17.832757 28.371094 -0.792978 0.891104 0.060932 -0.020080 -810606.000000 0 0 1
14.957451 -15.863698 16.465057 27.321793 -0.814793 0.923998 0.053281 -0.022321 19569.100000 0 0 1
13.647951 -16.406098 16.367457 26.894614 -0.876915 0.916530 0.086639 -0.027231 14286.600000 0 0 1
13.086651 -16.042698 15.156257 25.658151 -0.886532 0.938871 0.093252 -0.032966 -415248.000000 0 0 1
12.395951 -17.181398 14.380157 25.605643 -0.945802 0.974477 0.063723 -0.024423 152978.000000 0 0 1
13.325651 -18.188198 13.945657 26.511599 -0.938490 1.016881 0.060070 -0.023060 151295.000000 0 0 1
12.724951 -19.382698 13.557957 26.859478 -0.989858 1.041677 0.057617 -0.026609 -508365.000000 0 0 1
13.661651 -20.494498 13.047857 27.873137 -0.982839 1.083639 0.059000 -0.024233 -408003.000000 0 0 1
14.324451 -21.212798 14.045457 29.196705 -0.976858 1.068929 0.035032 -0.021713 139396.000000 0 0 1
15.028151 -22.334998 13.486657 30.109590 -0.978524 1.106360 0.023727 -0.017018 -523040.000000 0 0 1
15.873751 -23.109798 14.445957 31.539252 -0.968927 1.095017 0.027841 -0.015335 -931000.000000 0 0 1
16.991151 -22.397098 14.878657 31.807289 -0.921794 1.084025 -0.013442 -0.016757 -421379.000000 0 0 1
17.644951 -23.176398 15.892957 33.182463 -0.920082 1.071331 -0.011749 -0.011648 -616706.000000 0 0 1
19.045451 -22.739198 16.276357 33.833713 -0.873569 1.068922 -0.010758 -0.008315 -307905.000000 0 0 1
20.024251 -23.219398 15.372057 34.298852 -0.859151 1.106068 -0.007323 -0.023726 -1197610.000000 0 0 1
21.209551 -22.530298 15.448757 34.585018 -0.815585 1.107735 -0.001002 -0.012761 -1107790.000000 0 0 1
22.339051 -23.306398 14.763557 35.499071 -0.806588 1.141880 -0.005264 -0.018071 -488882.000000 0 0 1
22.880651 -24.194498 15.725357 36.826414 -0.813300 1.129609 -0.002577 -0.011647 358379.000000 0 0 1
23.786551 -25.081848 15.048557 37.700904 -0.811898 1.160200 0.000462 -0.011225 209338.000000 0 0 1
24.267651 -26.273728 15.888557 39.136606 -0.825069 1.152749 0.001645 -0.009499 -196294.000000 0 0 1
24.902851 -25.950008 17.067857 39.810384 -0.805987 1.127711 -0.001763 -0.001746 -54731.800000 0 0 1
25.458151 -27.006028 17.795757 41.159835 -0.814893 1.123691 0.007554 0.003653 39427.600000 0 0 1
25.722551 -26.672078 19.260057 41.761216 -0.803519 1.091455 -0.001749 0.010070 314089.000000 0 0 1
24.483051 -26.517778 19.942757 41.235008 -0.825273 1.065992 0.000339 0.020866 413812.000000 0 0 1
24.654551 -25.795478 21.144257 41.476899 -0.808009 1.035863 -0.002966 0.024636 -107967.000000 0 0 1
23.384151 -25.775708 22.010657 41.178571 -0.834008 1.006860 -0.002038 0.018535 -66888.400000 0 0 1
23.127351 -27.068228 22.527657 42.131445 -0.863748 1.006644 -0.002954 0.026879 966635.000000 0 0 1
21.877951 -27.245578 23.257257 41.974591 -0.894234 0.983540 0.005572 0.020582 971210.000000 0 0 1
21.441851 -28.664948 23.123957 42.616307 -0.928566 0.997257 0.028142 0.019064 -240618.000000 0 0 1
22.318551 -29.496458 23.863397 44.018411 -0.923052 0.997835 0.031785 0.015308 474213.000000 0 0 1
22.173951 -30.798608 23.389857 44.579410 -0.946796 1.018459 0.042418 0.011588 -76749.700000 0 0 1
23.281351 -31.643368 24.057747 46.066249 -0.936483 1.021318 0.018956 0.019823 79603.700000 0 0 1
23.150451 -31.891968 25.431987 46.902313 -0.942897 0.997704 0.023487 0.015952 712037.000000 0 0 1
24.421551 -32.339268 25.907617 48.098285 -0.923996 1.001975 0.039902 0.012576 -34164.400000 0 0 1
24.270451 -32.716018 27.460137 49.126895 -0.932530 0.977661 0.040481 -0.000013 444339.000000 0 0 1
23.627251 -33.982558 27.760777 49.836954 -0.963248 0.979989 0.026899 0.004388 8842.900000 0 0 1
22.304251 -34.041961 27.314777 49.014608 -0.990775 0.979692 0.029868 0.006499 -1002000.000000 0 0 1
21.523751 33.543440 27.737797 48.557384 1.000301 0.962784 0.074259 -0.016891 -9752.680000 0 0 1
21.112251 33.611024 29.111227 49.222877 1.009946 0.937982 0.069504 -0.005926 261933.000000 0 0 1
20.461751 32.395189 29.488937 48.350066 1.007444 0.914856 0.066435 -0.011331 34956.200000 0 0 1
19.969751 32.474729 30.947247 49.103269 1.019470 0.888923 0.052883 -0.021319 -489396.000000 0 0 1
20.985351 32.478629 31.902807 50.130184 0.997148 0.880975 0.040493 -0.005282 -371107.000000 0 0 1
20.523751 32.772079 33.159832 50.939257 1.011293 0.861937 0.027744 -0.009953 -446203.000000 0 0 1
21.667051 32.837027 34.191473 52.122819 0.987538 0.855317 0.017390 0.002099 215643.000000 0 0 1
22.277251 31.544389 34.318167 51.662955 0.955909 0.844279 0.019755 -0.002728 923662.000000 0 0 1
23.560551 31.545679 -33.834494 51.913412 0.929301 2.280684 0.019020 0.002789 855115.000000 0 0 1
23.987851 30.133439 -33.392514 50.975495 0.898466 2.285071 0.031694 0.001789 -441678.000000 0 0 1
24.428851 29.353079 34.342259 51.359154 0.876703 0.838379 0.037370 -0.001466 336549.000000 0 0 1
23.559451 28.267899 33.987572 50.092683 0.875998 0.825086 0.040509 -0.010093 50481.000000 0 0 1
23.956551 27.587689 32.685927 49.024144 0.855729 0.840982 0.061416 -0.021429 864316.000000 0 0 1
25.236451 26.915689 32.749849 49.334424 0.817586 0.844863 0.051283 -0.021157 1221620.000000 0 0 1
25.351451 26.017989 31.638127 48.172636 0.798373 0.854275 0.065951 -0.025047 76432.500000 0 0 1
26.721551 25.276259 31.630017 48.511736 0.757610 0.860567 0.047362 -0.016750 190777.000000 0 0 1
26.889951 24.261049 32.635797 48.752058 0.734048 0.837363 0.066078 -0.020775 296790.000000 0 0 1
27.563751 24.732419 33.790072 50.132044 0.731311 0.831157 0.058627 -0.023318 -903447.000000 0 0 1
27.348451 23.841289 -33.775594 49.569502 0.716992 2.320441 0.048325 -0.023305 -180552.000000 0 0 1
26.241651 24.198119 -32.948384 48.577456 0.744906 2.316195 0.045197 -0.018390 119581.000000 0 0 1
24.971251 23.844269 -33.402064 48.039675 0.762316 2.339636 0.060743 -0.013917 -713019.000000 0 0 1
24.595251 22.320459 -33.210204 46.968573 0.736949 2.356147 0.055698 -0.017075 -666738.000000 0 0 1
24.430651 21.914759 -31.879204 45.753656 0.731166 2.341663 0.033576 -0.030692 338230.000000 0 0 1
24.247651 20.529259 -31.888374 45.014080 0.702546 2.358038 0.034053 -0.022558 -225025.000000 0 0 1
24.085351 19.765559 -30.598124 43.669516 0.687204 2.347139 0.031324 -0.028434 430473.000000 0 0 1
22.887651 20.105259 -29.868554 42.663761 0.720771 2.346323 0.026058 -0.029151 817654.000000 0 0 1
22.800551 19.354159 -28.702384 41.452086 0.703824 2.335639 0.027243 -0.032089 447777.000000 0 0 1
21.319451 19.339759 -28.161594 40.269351 0.736747 2.345257 0.036360 -0.040746 552699.000000 0 0 1
21.233451 18.787459 -26.850044 39.048085 0.724356 2.328995 0.032804 -0.033718 -66221.300000 0 0 1
21.718251 19.576059 -25.748894 38.960365 0.733568 2.292813 0.034188 -0.030242 -232773.000000 0 0 1
21.837451 18.763559 -24.416744 37.750799 0.709833 2.274161 0.035576 -0.023520 282887.000000 0 0 1
22.842451 17.750459 -24.574144 37.957146 0.660610 2.274988 0.040306 -0.032126 616752.000000 0 0 1
22.977251 16.955859 -23.440744 36.944874 0.635739 2.258131 0.049622 -0.028603 -273214.000000 0 0 1
23.900351 15.721859 -23.623344 37.100755 0.581845 2.261053 0.058069 -0.027209 705394.000000 0 0 1
25.285851 16.128459 -23.490144 38.095778 0.567783 2.235223 0.064074 -0.030505 1309070.000000 0 0 1
26.214451 15.040559 -23.632944 38.365765 0.520895 2.234439 0.063274 -0.028827 305030.000000 0 0 1
26.273851 13.911659 -22.561844 37.321392 0.486958 2.219970 0.059549 -0.023411 -127556.000000 0 0 1
25.139951 13.032559 -22.454644 36.139670 0.478259 2.241235 0.056988 -0.019603 477457.000000 0 0 1
25.014251 12.474159 -21.174144 35.066533 0.462593 2.219091 0.042696 -0.015073 -1249240.000000 0 0 1
23.667851 11.853259 -21.006944 33.792878 0.464301 2.241629 0.042908 -0.010752 -873237.000000 0 0 1
22.675651 12.845859 -20.767644 33.324109 0.515426 2.243626 0.058476 -0.012001 337157.000000 0 0 1
21.371351 12.399759 -21.149844 32.523908 0.525737 2.278757 0.046899 -0.016697 412725.000000 0 0 1
20.338651 13.522359 -20.968844 32.190174 0.586751 2.280231 0.047266 -0.015391 -567215.000000 0 0 1
20.690551 14.740059 -21.630244 33.365187 0.619003 2.276130 0.041843 -0.016145 -225367.000000 0 0 1
19.811551 15.804559 -21.546644 33.264688 0.673364 2.275402 0.039922 -0.017982 -579201.000000 0 0 1
18.574651 15.864459 -22.484844 33.200405 0.706865 2.314809 0.037741 -0.011588 283179.000000 0 0 1
17.490651 15.180459 -21.892044 31.868963 0.714805 2.328065 0.019723 -0.016886 268295.000000 0 0 1
16.339551 15.069159 -22.706044 31.774595 0.744973 2.366845 0.017124 -0.017585 287592.000000 0 0 1
15.176351 14.205359 -22.165944 30.388204 0.752363 2.388279 0.004583 -0.012911 520256.000000 0 0 1
14.019251 14.460359 -22.944244 30.529980 0.800885 2.421177 0.014074 -0.008157 152900.000000 0 0 1
12.823151 13.820059 -22.533244 29.379828 0.822798 2.444891 0.030274 -0.012076 524079.000000 0 0 1
11.601751 14.131859 -23.438444 29.726599 0.883402 2.479109 0.031487 -0.001956 34052.600000 0 0 1
11.183751 15.468559 -23.312244 30.129940 0.944801 2.455494 0.009371 -0.003763 2823.030000 0 0 1
10.545051 15.931559 -24.473244 31.047582 0.986103 2.478756 0.028877 -0.007186 -876648.000000 0 0 1
10.579751 17.495559 -24.443944 31.867414 1.026920 2.445029 0.018706 -0.000324 -261054.000000 0 0 1
11.765351 18.260459 -24.460644 32.713773 0.998433 2.415414 0.014167 -0.007455 48193.100000 0 0 1
12.849451 17.898059 -25.316534 33.561522 0.948142 2.425432 0.016829 -0.009434 59010.200000 0 0 1
12.721751 18.103159 -26.831864 34.778100 0.958236 2.452017 0.024115 -0.023596 -694228.000000 0 0 1
13.854251 17.762759 -27.574224 35.606091 0.908395 2.456601 0.008581 -0.022849 -499388.000000 0 0 1
13.487651 17.311859 -28.842674 36.242475 0.908930 2.491165 0.020574 -0.022500 -542974.000000 0 0 1
14.357751 17.688859 -30.002754 37.672350 0.888972 2.492137 0.016611 -0.007549 -687569.000000 0 0 1
15.556451 16.977559 -30.113164 37.908354 0.829051 2.488762 0.002010 -0.003253 -210136.000000 0 0 1
16.267251 17.292859 -31.324174 39.304838 0.815949 2.493033 0.005930 0.004505 550197.000000 0 0 1
17.569451 16.415459 -31.431484 39.573869 0.751455 2.488566 0.007761 0.000789 -134349.000000 0 0 1
18.463151 16.820059 -30.440124 39.375163 0.738863 2.454478 0.008309 -0.002844 -666137.000000 0 0 1
19.638051 16.062759 -30.479864 39.657123 0.685585 2.447422 0.018454 0.000306 -130921.000000 0 0 1
20.896851 16.735159 -31.050914 40.998819 0.675257 2.430059 0.021645 -0.005164 -404268.000000 0 0 1
20.721751 17.122659 -32.381144 42.084616 0.690581 2.448744 0.027744 -0.000688 -5941.690000 0 0 1
21.903951 17.672959 -32.897904 43.294210 0.678897 2.433907 0.036924 0.002150 -101867.000000 0 0 1
21.697951 18.080159 -34.402113 44.510657 0.694698 2.454189 0.028498 0.019174 84756.100000 0 0 1
22.778751 18.893459 34.002227 45.077552 0.692432 0.716201 0.033596 0.012977 305137.000000 0 0 1
22.778751 19.094859 32.597877 44.114699 0.697648 0.739309 0.039356 0.009140 -15625.000000 0 0 1
23.589351 20.377359 32.187457 44.807662 0.712473 0.769373 0.046938 0.011412 928955.000000 0 0 1
24.962851 20.167159 31.867627 45.226141 0.679532 0.788897 0.029665 0.009117 732340.000000 0 0 1
25.806451 21.330159 31.808827 46.181707 0.690718 0.810998 0.034631 -0.001769 -402059.000000 0 0 1
27.265851 20.977259 31.673307 46.761847 0.655777 0.826666 0.034293 0.000283 -1102100.000000 0 0 1
27.786151 20.429059 32.833246 47.617630 0.633978 0.809972 0.020076 -0.002511 563173.000000 0 0 1
29.221051 20.557859 32.778171 48.486120 0.613091 0.828432 0.007747 0.005396 838575.000000 0 0 1
29.920951 20.022359 34.040551 49.547122 0.589737 0.813397 -0.000005 0.010970 -195574.000000 0 0 1
29.852251 20.872559 -33.655534 49.593503 0.610186 2.316689 -0.003641 0.002168 -222115.000000 0 0 1
28.852051 20.531459 -32.728424 48.219616 0.618477 2.316837 0.002445 -0.007772 -423345.000000 0 0 1
29.139851 20.763059 -31.232014 47.493939 0.619087 2.288425 0.015287 -0.014890 -557978.000000 0 0 1
30.122251 19.879959 -30.842204 47.474249 0.583356 2.277936 0.013396 -0.014659 -406479.000000 0 0 1
30.699251 20.084759 -29.563294 47.115071 0.579352 2.249096 0.012310 -0.010336 770598.000000 0 0 1
32.198851 19.688459 -29.348944 47.809643 0.548807 2.231751 0.022779 -0.002844 854863.000000 0 0 1
33.079051 20.486759 -30.120434 49.205401 0.554510 2.229556 0.016001 -0.003515 867722.000000 0 0 1
34.436451 20.455359 -29.659674 49.839614 0.535998 2.208189 0.015591 0.006440 587098.000000 0 0 1
35.531051 21.247659 -30.335114 51.323851 0.538949 2.203160 0.002475 -0.001425 -34707.700000 0 0 1
-35.195732 20.789959 -31.546194 51.634526 -0.533550 2.228058 0.004141 0.003605 400403.000000 0 0 1
-34.087432 21.529059 -32.059024 51.509557 -0.563319 2.242589 0.009655 -0.002061 671362.000000 0 0 1
-33.233932 20.729659 -33.103084 51.283790 -0.557700 2.272459 0.001887 0.001982 372966.000000 0 0 1
-32.325732 19.758859 -32.601714 49.982369 -0.548645 2.281364 0.013861 0.001765 121279.000000 0 0 1
-31.546332 19.160659 -33.574104 49.895114 -0.545829 2.308910 0.014875 0.003345 -149768.000000 0 0 1
-31.069432 17.694559 -33.259484 48.832369 -0.517704 2.320053 0.008021 0.009778 26941.100000 0 0 1
-32.075332 16.709559 -33.225384 49.111734 -0.480265 2.313832 0.011480 0.010474 106178.000000 0 0 1
-31.484632 15.426959 -33.184044 48.274775 -0.455603 2.328698 0.003457 0.014701 334808.000000 0 0 1
-32.523032 14.279059 -33.400794 48.757073 -0.413706 2.325462 0.013109 0.008797 103517.000000 0 0 1
-31.943532 12.984959 -33.463004 48.049673 -0.386095 2.341200 0.020113 0.002564 -561184.000000 0 0 1
-32.909932 12.027959 -33.659774 48.587198 -0.350399 2.336120 0.017239 0.001771 -814728.000000 0 0 1
-32.451432 10.568059 -33.858424 48.074652 -0.314827 2.352217 0.021616 0.001810 -378522.000000 0 0 1
-31.911932 10.252059 33.714894 47.541248 -0.310846 0.782474 0.016031 -0.000950 58270.300000 0 0 1
-32.097832 8.863759 33.514064 47.244360 -0.269433 0.782182 0.023029 -0.008552 -17803.400000 0 0 1
-31.078832 8.251859 32.513247 45.728527 -0.259526 0.779869 0.027351 -0.005920 222155.000000 0 0 1
-29.801332 8.052259 33.100803 45.261699 -0.263896 0.750540 0.011562 0.004000 -292847.000000 0 0 1
-29.004632 7.540359 32.065777 43.890087 -0.254341 0.751607 0.020368 -0.004300 -250807.000000 0 0 1
20.556351 -4.469698 -31.765874 38.100033 -0.214104 2.556660 0.013829 -0.015482 85865.100000 0 0 1
21.648051 -4.152298 -32.621544 39.370609 -0.189508 2.547356 0.018445 -0.022366 181148.000000 0 0 1
22.524951 -3.234998 -32.013344 39.277128 -0.142643 2.523635 0.023128 -0.013789 -19728.500000 0 0 1
22.251651 -1.800098 -32.399414 39.345881 -0.080722 2.538263 0.027711 -0.013479 -590339.000000 0 0 1
23.215951 -0.954898 -31.873424 39.443724 -0.041108 2.511671 0.029295 -0.018919 -108608.000000 0 0 1
23.070951 0.323202 -32.386394 39.764956 0.014008 2.522569 0.028692 -0.024484 -371882.000000 0 0 1
24.089351 1.345402 -31.870654 39.973060 0.055793 2.493610 0.029844 -0.021644 -303021.000000 0 0 1
25.395351 1.165902 -32.355794 41.148276 0.045878 2.475629 0.037397 -0.025249 -110537.000000 0 0 1
26.274251 1.997702 -31.568164 41.120263 0.075887 2.446046 0.030842 -0.021538 904997.000000 0 0 1
27.805651 1.970902 -31.868754 42.339770 0.070763 2.422936 0.032518 -0.020961 681742.000000 0 0 1
28.226751 2.489902 -33.143594 43.605583 0.087983 2.434228 0.043742 -0.020060 79086.400000 0 0 1
28.235551 1.562102 -34.245303 44.412017 0.055268 2.451335 0.038568 -0.017263 -359647.000000 0 0 1
28.997351 2.132902 33.360058 44.252560 0.073423 0.716885 0.042245 -0.025611 -15975.200000 0 0 1
28.390651 3.121602 32.511387 43.275440 0.109512 0.720817 0.041722 -0.017823 194764.000000 0 0 1
28.089951 4.409302 33.121608 43.652356 0.155700 0.709391 0.033720 -0.015455 65207.700000 0 0 1
27.447051 5.420702 32.135247 42.607496 0.194987 0.716337 0.035918 -0.007453 12409.300000 0 0 1
27.459551 6.736202 32.578127 43.136269 0.240563 0.714780 0.035153 -0.013601 -82131.200000 0 0 1
26.850451 7.610602 31.683057 42.221843 0.276200 0.722137 0.031300 -0.010009 -510835.000000 0 0 1
27.433751 9.037702 31.876617 43.016386 0.318240 0.736187 0.027071 -0.005657 -372939.000000 0 0 1
28.735651 9.241802 31.447287 43.589911 0.311167 0.764924 0.028364 -0.004426 -735371.000000 0 0 1
29.030951 10.660302 31.491127 44.137617 0.351919 0.776350 0.025103 -0.003227 406022.000000 0 0 1
30.386251 11.100102 30.844787 44.698293 0.350240 0.809216 0.028989 0.002964 -156319.000000 0 0 1
31.465551 10.761302 31.709267 45.949582 0.329533 0.809185 0.035618 -0.011352 1288630.000000 0 0 1
32.762751 11.022902 31.088447 46.490792 0.324549 0.838336 0.040135 -0.009435 1259670.000000 0 0 1
33.102151 12.532102 31.209457 47.189365 0.361913 0.848157 0.036382 -0.003417 -1327590.000000 0 0 1
33.521651 12.858102 32.509497 48.434484 0.366268 0.834962 0.034602 -0.008461 21116.000000 0 0 1
33.745251 14.241102 32.580247 49.020643 0.399342 0.843807 0.039154 0.003431 237595.000000 0 0 1
32.477651 15.160402 32.599017 48.449267 0.436732 0.832744 0.022285 0.005534 -222393.000000 0 0 1
32.025051 15.499702 31.316337 47.397865 0.450755 0.849029 0.023870 -0.003066 407138.000000 0 0 1
30.896151 16.366202 31.300287 46.926886 0.487137 0.840620 0.017590 0.001383 1101450.000000 0 0 1
29.461851 15.819602 31.615037 46.019246 0.492770 0.813449 0.021996 0.008759 302500.000000 0 0 1
29.031351 14.930902 30.600577 44.745351 0.475024 0.817725 0.011948 0.018903 -421721.000000 0 0 1
27.689451 14.579302 30.763427 43.882231 0.484645 0.793934 0.000929 0.019072 -515944.000000 0 0 1
27.004551 13.957402 29.548347 42.392920 0.477039 0.799575 0.010126 0.023144 -241618.000000 0 0 1
27.414351 12.684102 29.124317 41.960206 0.433349 0.803636 0.022940 0.014070 -105094.000000 0 0 1
26.626951 12.207502 28.057377 40.561484 0.429870 0.806922 0.017279 0.000961 -261163.000000 0 0 1
26.559651 10.687002 27.924547 39.992592 0.382554 0.797856 0.021790 0.014081 -37760.000000 0 0 1
27.735951 10.040302 27.479547 40.313969 0.347321 0.820797 0.028538 0.001739 51363.600000 0 0 1
27.441851 8.676802 27.283637 39.657772 0.306242 0.812098 0.039406 -0.006617 146131.000000 0 0 1
28.651251 7.782802 26.918207 40.075629 0.265239 0.834315 0.032927 -0.010158 75949.900000 0 0 1
29.077551 8.023302 25.572687 39.545412 0.269228 0.867590 0.034920 -0.009298 -90645.500000 0 0 1
30.033151 7.131402 25.097007 39.783248 0.233133 0.888156 0.039384 -0.001425 30952.500000 0 0 1
30.698351 7.361302 23.653057 39.446731 0.235351 0.927770 0.042243 -0.001124 -39117.100000 0 0 1
31.410251 8.540402 23.463657 40.125871 0.265481 0.946223 0.037750 -0.006301 -162716.000000 0 0 1
30.691951 9.747902 23.200157 39.689605 0.307528 0.946483 0.045042 -0.011042 -270385.000000 0 0 1
30.140151 10.033002 21.773257 38.511875 0.321341 0.969921 0.030921 0.004818 126233.000000 0 0 1
31.143351 10.098202 20.784357 38.779782 0.313553 1.005154 0.028208 -0.004422 402708.000000 0 0 1
30.546451 9.877902 19.508657 37.566558 0.312760 1.024754 0.026766 -0.008720 -398489.000000 0 0 1
31.382151 10.598102 18.432457 37.906657 0.325685 1.062993 0.041820 -0.027106 249064.000000 0 0 1
32.549151 9.971302 17.963357 38.490990 0.297269 1.085252 0.046953 -0.025210 503591.000000 0 0 1
33.697051 10.029302 18.829557 39.882707 0.289282 1.079098 0.053716 -0.014551 68144.400000 0 0 1
34.988851 9.586202 18.111657 40.548083 0.267417 1.107755 0.045420 -0.021654 -355535.000000 0 0 1
35.199451 8.176702 18.003457 40.373064 0.228248 1.108586 0.042612 -0.020216 240648.000000 0 0 1
-35.120832 7.769002 17.038757 39.801375 -0.217702 1.128413 0.049290 -0.012043 -442903.000000 0 0 1
-35.146332 6.254802 16.784657 39.447584 -0.176121 1.131290 0.044265 -0.007644 -653100.000000 0 0 1
34.800051 5.845602 16.534157 38.969128 0.166423 1.132620 0.028610 -0.005960 -156811.000000 0 0 1
34.765551 4.619702 15.878457 38.498189 0.132108 1.145658 0.024203 -0.004356 -100958.000000 0 0 1
33.561951 3.695302 16.160057 37.432703 0.109662 1.124409 0.024477 -0.012436 -117971.000000 0 0 1
33.576451 2.933402 17.364757 37.914611 0.087144 1.095056 0.035247 -0.004792 540971.000000 0 0 1
32.294651 2.386302 17.717357 36.912649 0.073757 1.070164 0.022944 -0.006848 647424.000000 0 0 1
32.282851 1.429802 18.977357 37.474883 0.044261 1.039789 0.023397 -0.016400 178731.000000 0 0 1
32.951151 0.185702 18.759857 37.917609 0.005636 1.053246 0.028558 -0.012258 85808.600000 0 0 1
32.727251 -0.627298 19.894357 38.304724 -0.019165 1.024682 0.036126 -0.014598 29246.400000 0 0 1
33.358651 -2.053498 19.854557 38.874412 -0.061481 1.034756 0.037603 -0.007464 -1002.420000 0 0 1
32.911051 -2.815398 20.926457 39.102178 -0.085338 1.006083 0.037315 -0.008004 143516.000000 0 0 1
33.518951 -4.082198 20.917457 39.720579 -0.121191 1.016182 0.024764 -0.013119 -192172.000000 0 0 1
33.141051 -4.762398 22.197357 40.171288 -0.142724 0.985354 0.026244 -0.008649 -100832.000000 0 0 1
33.747051 -4.140998 23.312857 41.225000 -0.122097 0.969753 0.032717 -0.010893 399403.000000 0 0 1
33.206051 -4.664598 24.513477 41.536861 -0.139561 0.939537 0.033155 -0.015419 -24950.000000 0 0 1
33.440951 -3.878598 25.800447 42.414665 -0.115468 0.916891 0.017542 -0.013122 -329161.000000 0 0 1
32.611851 -4.246998 26.838747 42.448653 -0.129500 0.886325 0.030261 -0.013731 -250212.000000 0 0 1
32.978451 -3.516398 27.951227 43.372968 -0.106226 0.870507 0.026804 -0.017619 250498.000000 0 0 1
31.986951 -3.848598 29.113327 43.423065 -0.119742 0.835971 0.029191 -0.024539 327739.000000 0 0 1
32.107851 -5.186098 29.449777 43.875951 -0.160138 0.834963 0.025428 -0.024881 143202.000000 0 0 1
31.222051 -5.498098 30.526397 44.010299 -0.174310 0.804295 0.032144 -0.028664 15776.400000 0 0 1
31.248251 -6.982598 30.935277 44.521918 -0.219844 0.802609 0.027805 -0.026392 -450953.000000 0 0 1
32.488951 -7.272998 31.487057 45.824264 -0.220230 0.813270 0.021665 -0.023582 -672797.000000 0 0 1
32.793951 -8.656298 31.450667 46.254937 -0.258074 0.823113 0.010716 -0.018107 -182467.000000 0 0 1
34.157851 -8.948898 32.074347 47.703305 -0.256228 0.833388 0.008069 -0.012047 -265555.000000 0 0 1
34.077851 -9.080598 33.476636 48.625532 -0.260415 0.811436 0.015356 -0.017334 710620.000000 0 0 1
35.353351 -9.301598 34.099498 49.991548 -0.257273 0.820159 0.006309 -0.011722 419690.000000 0 0 1
35.301951 -9.728898 -33.262434 49.469877 -0.268916 2.308212 0.022720 -0.016847 -183151.000000 0 0 1
34.522151 -8.908698 -32.404074 48.178500 -0.252548 2.308491 0.018755 -0.014547 396532.000000 0 0 1
35.031651 -7.607398 -32.161004 48.160349 -0.213838 2.302032 0.005663 -0.010632 -51853.600000 0 0 1
34.146851 -6.730898 -31.225534 46.758383 -0.194621 2.302054 0.020594 -0.007069 76146.400000 0 0 1
34.465951 -6.910698 -29.854084 46.118606 -0.197884 2.274876 0.022566 -0.001989 182384.000000 0 0 1
33.950551 -5.855398 -29.125574 45.113464 -0.170788 2.272614 0.022202 -0.009096 -316245.000000 0 0 1
34.579951 -5.916098 -27.710844 44.706421 -0.169444 2.239336 0.024405 -0.010519 738568.000000 0 0 1
-35.294432 -5.580898 -27.694734 45.208867 0.156826 2.230136 0.031261 -0.012512 306827.000000 0 0 1
-34.827732 -5.160898 -26.442164 44.031737 0.147113 2.214954 0.032290 -0.004357 -731176.000000 0 0 1
-33.346832 -4.931398 -26.262884 42.732528 0.146818 2.232659 0.048283 -0.005350 -1475650.000000 0 0 1
-33.037732 -4.186398 -25.097984 41.700437 0.126044 2.216629 0.052749 -0.009552 196024.000000 0 0 1
-31.682132 -4.120298 -24.711844 40.390712 0.129325 2.229156 0.061977 -0.006571 114596.000000 0 0 1
-30.707132 -3.317098 -25.586964 40.107653 0.107606 2.262639 0.044798 -0.001623 -543199.000000 0 0 1
-30.505032 -3.776598 -26.919664 40.859368 0.123176 2.290068 0.048088 0.002846 -75815.800000 0 0 1
-29.372932 -3.172698 -27.494634 40.358271 0.107597 2.320284 0.035675 0.008537 -15087.300000 0 0 1
-29.083932 -3.785098 -28.872804 41.156298 0.129417 2.348353 0.030790 -0.001236 -329294.000000 0 0 1
-29.964232 -3.445898 -29.902524 42.472230 0.114497 2.351879 0.047006 -0.007421 -331118.000000 0 0 1
-29.760132 -4.304898 -31.035624 43.213511 0.143657 2.371998 0.038218 -0.002066 -114091.000000 0 0 1
-31.073232 -4.720598 -31.765764 44.686615 0.150766 2.361511 0.026587 -0.007547 237316.000000 0 0 1
-32.003932 -5.476398 -30.965424 44.867584 0.169475 2.332495 0.035174 -0.007666 1059470.000000 0 0 1
-32.852032 -4.823098 -29.992504 44.744481 0.145771 2.305418 0.037630 -0.009036 235617.000000 0 0 1
-33.964732 -3.883898 -30.542924 45.842752 0.113856 2.299971 0.035223 -0.013111 -427837.000000 0 0 1
-33.575332 -2.622898 -31.160724 45.882167 0.077961 2.317396 0.032782 -0.006759 41350.600000 0 0 1
-32.805232 -1.685898 -30.421364 44.771474 0.051346 2.317851 0.031511 -0.002448 -12984.500000 0 0 1
-32.395432 -0.421798 -31.242044 45.007858 0.013020 2.338030 0.026486 -0.000650 -379108.000000 0 0 1
-33.482532 0.310502 -31.684384 46.098553 -0.009273 2.328587 0.021540 0.001213 -445104.000000 0 0 1
-33.032132 1.528802 -32.244084 46.185928 -0.046249 2.343588 0.013732 0.001213 706393.000000 0 0 1
-34.204632 2.437602 -32.785644 47.442567 -0.071145 2.333750 0.012802 -0.002345 568787.000000 0 0 1
-34.767432 1.931902 -33.965674 48.643330 -0.055509 2.343760 0.019868 -0.004470 -214684.000000 0 0 1
35.247351 2.538002 -34.194341 49.173877 0.071881 2.339740 0.013216 -0.006147 -278253.000000 0 0 1
34.381151 1.897102 33.540722 48.069143 0.055123 0.798531 0.024949 -0.010529 -258294.000000 0 0 1
34.681151 2.148302 32.156087 47.343546 0.061865 0.824114 0.020542 -0.006731 -71493.200000 0 0 1
-35.561132 1.329102 31.646957 47.622374 -0.037358 0.843919 0.012225 -0.001229 -306070.000000 0 0 1
-35.276632 1.626402 30.113277 46.410079 -0.046072 0.864721 0.016546 -0.006480 -39666.100000 0 0 1
-34.602132 2.880102 29.930827 45.841651 -0.083043 0.859366 0.022594 -0.007241 267476.000000 0 0 1
-34.540232 3.228802 28.553237 44.930392 -0.093209 0.882141 0.027062 -0.008157 -55935.600000 0 0 1
-33.715432 4.487102 28.260477 44.221250 -0.132310 0.877508 0.030567 -0.005825 -418522.000000 0 0 1
-33.529032 4.719602 26.891607 43.239208 -0.139843 0.899596 0.036008 -0.004197 46679.400000 0 0 1
-32.789232 5.862702 26.630247 42.645927 -0.176930 0.896369 0.039645 -0.005736 -735541.000000 0 0 1
-32.068432 5.972202 25.294057 41.277607 -0.184124 0.911224 0.037761 -0.003165 -336624.000000 0 0 1
-30.862932 5.222902 25.377507 40.296614 -0.167641 0.889542 0.031957 -0.002331 673953.000000 0 0 1
-29.983532 5.486602 24.252827 38.952723 -0.180985 0.898707 0.031068 -0.005084 459208.000000 0 0 1
-30.446832 4.932002 22.871357 38.398349 -0.160592 0.932742 0.040481 -0.011252 -166389.000000 0 0 1
-30.404432 3.520902 22.663857 38.085124 -0.115289 0.933426 0.038255 -0.015237 -431162.000000 0 0 1
-31.211032 3.235902 21.575857 38.080404 -0.103309 0.968439 0.054520 -0.013150 -349214.000000 0 0 1
-31.115432 1.754402 21.077957 37.623507 -0.056324 0.976128 0.055293 -0.014373 -1224.310000 0 0 1
-29.926832 1.288302 20.471257 36.281502 -0.043022 0.971291 0.050192 -0.008478 -24418.400000 0 0 1
-29.822932 1.671402 19.127357 35.469094 -0.055986 1.001228 0.051679 -0.002810 413143.000000 0 0 1
-28.461432 1.168402 18.529357 33.981691 -0.041029 0.994080 0.049628 0.000087 314869.000000 0 0 1
-28.301032 -0.241398 18.430857 33.774298 0.008529 0.993564 0.051177 -0.002663 327298.000000 0 0 1
-27.222432 -0.727798 17.630957 32.441349 0.026729 0.996229 0.052336 -0.003349 10761.300000 0 0 1
-27.230832 -0.417298 16.146357 31.660657 0.015323 1.035633 0.058832 0.004552 -286966.000000 0 0 1
-26.992632 0.949102 15.833857 31.308370 -0.035147 1.040558 0.056585 0.008671 208170.000000 0 0 1
-27.189432 1.170402 14.421557 30.799616 -0.043020 1.083500 0.056588 0.009975 -67167.600000 0 0 1
-26.687232 2.536002 13.899857 30.196783 -0.094742 1.092453 0.057352 0.008740 -48308.100000 0 0 1
-25.283132 2.558502 14.016257 29.021340 -0.100851 1.066760 0.054748 0.001679 -64312.100000 0 0 1
-24.700932 3.652702 13.319457 28.299933 -0.146813 1.080765 0.058181 -0.003633 -285292.000000 0 0 1
-23.173332 3.666302 13.354657 26.996147 -0.156912 1.053321 0.056927 -0.005195 -549477.000000 0 0 1
-22.638732 4.135302 14.588057 27.247464 -0.180673 1.005825 0.054027 -0.001750 -567681.000000 0 0 1
-21.312832 4.478602 14.368257 26.091023 -0.207123 0.987597 0.053011 0.000876 -689686.000000 0 0 1
-20.668032 5.211502 15.614357 26.422253 -0.247004 0.938554 0.038980 0.004038 -33145.300000 0 0 1
-21.101432 6.518002 15.790657 27.149579 -0.299592 0.950081 0.051926 0.001283 619661.000000 0 0 1
-20.353832 6.959702 16.911157 27.362441 -0.329473 0.904546 0.036104 -0.000137 -237794.000000 0 0 1
-20.467832 8.439802 17.236357 28.058054 -0.391103 0.909285 0.042916 -0.009995 -557682.000000 0 0 1
-19.835632 9.197902 16.184857 27.203001 -0.434193 0.933573 0.034701 -0.006793 614855.000000 0 0 1
-20.047732 10.590402 16.300357 27.924359 -0.485999 0.947478 0.039656 -0.010065 -146049.000000 0 0 1
-19.189932 11.287202 17.374657 28.240629 -0.531686 0.908111 0.040049 -0.010343 -351194.000000 0 0 1
-19.642832 11.092002 18.708357 29.306586 -0.514047 0.878421 0.032295 -0.007839 393421.000000 0 0 1
-19.051332 11.982002 19.677757 29.895413 -0.561422 0.852345 0.037137 0.004666 -207776.000000 0 0 1
-12.187149 -33.804456 -20.554044 41.397301 1.224781 2.090366 0.073056 -0.024414 650195.000000 0 0 1
-13.255749 -34.149856 -19.626144 41.558550 1.200535 2.062641 0.103246 -0.017286 1024340.000000 0 0 1
-14.314349 -33.165856 -19.671044 41.131795 1.163350 2.069451 0.077297 -0.045164 1136660.000000 0 0 1
-15.677349 -33.731256 -19.127844 41.826442 1.135726 2.045770 0.060142 -0.027981 -304943.000000 0 0 1
-16.226549 34.246102 -20.116244 42.904075 -1.128310 2.058802 0.067067 -0.032621 150058.000000 0 0 1
-17.034549 33.212102 -19.549444 42.135499 -1.096881 2.053263 0.067882 -0.021507 1159750.000000 0 0 1
-18.437449 33.595802 -18.937644 42.746365 -1.068873 2.029765 0.065263 -0.018657 -385468.000000 0 0 1
-18.287349 34.356102 -17.733644 42.769744 -1.081653 1.998333 0.055877 -0.030030 591571.000000 0 0 1
-19.555149 -34.324956 -17.068244 43.034072 1.052949 1.978630 0.016447 -0.025674 774334.000000 0 0 1
-19.529549 34.047102 -15.613944 42.242202 -1.050012 1.949406 0.027106 -0.021554 -312552.000000 0 0 1
-19.518049 32.671102 -15.569444 41.118885 -1.032283 1.959128 0.035540 -0.021796 243045.000000 0 0 1
-19.928249 32.141602 -14.263444 40.418603 -1.015790 1.931458 0.029095 -0.016767 -65513.200000 0 0 1
-19.831049 30.579002 -14.290744 39.148068 -0.995463 1.944476 0.035979 -0.021890 -669207.000000 0 0 1
-18.560049 30.138002 -13.969844 38.051690 -1.018814 1.946716 0.049702 -0.028832 -822098.000000 0 0 1
-18.551349 28.714402 -13.877444 36.895160 -0.997193 1.956414 0.045940 -0.032136 -596174.000000 0 0 1
-17.332549 28.081002 -13.248344 35.559507 -1.017801 1.952571 0.062549 -0.024740 -1253200.000000 0 0 1
-16.151649 28.396102 -13.876344 35.493200 -1.053635 1.972468 0.054123 -0.028077 -534851.000000 0 0 1
-15.098749 27.467702 -13.519844 34.135510 -1.068190 1.978023 0.059532 -0.029635 1305510.000000 0 0 1
-13.782249 27.734702 -14.340944 34.129558 -1.109606 2.004452 0.057912 -0.030539 286703.000000 0 0 1
-13.971449 27.676302 -15.741944 34.770502 -1.103303 2.040631 0.037463 -0.030076 112873.000000 0 0 1
-12.896149 28.327702 -16.407944 35.185081 -1.143586 2.055937 0.053636 -0.023867 6192.950000 0 0 1
-13.012449 28.228502 -17.940844 35.889358 -1.138859 2.094272 0.067325 -0.039800 -227048.000000 0 0 1
-12.846949 26.985102 -18.617244 35.211384 -1.126471 2.127898 0.036715 -0.028497 162150.000000 0 0 1
-13.216649 27.106602 -19.995344 36.183718 -1.117134 2.156284 0.023989 -0.030574 -477721.000000 0 0 1
-12.522949 26.054802 -20.826244 35.628772 -1.122757 2.195102 0.001971 -0.018036 -231350.000000 0 0 1
-11.167149 26.373502 -21.107144 35.577778 -1.170262 2.205908 0.005033 -0.020278 461972.000000 0 0 1
-10.487349 25.325702 -21.818944 35.034868 -1.178195 2.243085 0.015694 -0.016518 902104.000000 0 0 1
-9.224949 25.628102 -22.679744 35.443900 -1.225281 2.265135 0.040848 -0.023373 513108.000000 0 0 1
-9.590149 26.153602 -23.940244 36.730329 -1.219335 2.280731 0.039111 -0.023264 106026.000000 0 0 1
-8.537549 26.059702 -24.879644 37.026942 -1.254201 2.307613 0.036558 -0.025622 -152939.000000 0 0 1
-8.855849 26.717002 -26.331974 38.543444 -1.250725 2.322900 0.028259 -0.020344 -185160.000000 0 0 1
-9.859949 25.987202 -26.993594 38.745417 -1.208160 2.341571 0.019067 -0.018483 -401173.000000 0 0 1
-10.160049 26.684802 -28.119184 40.074851 -1.207000 2.348530 0.026157 -0.011357 35439.600000 0 0 1
-11.612149 26.456402 -28.620104 40.668090 -1.157198 2.351456 0.017545 -0.011162 230122.000000 0 0 1
-11.963349 27.345202 -29.697124 42.104643 -1.158391 2.353667 0.016929 -0.008303 -518877.000000 0 0 1
-13.201649 26.925602 -30.187224 42.550441 -1.114938 2.359508 0.007955 -0.000620 -743146.000000 0 0 1
-13.360349 27.158002 -31.701644 43.829787 -1.113610 2.379351 0.008612 -0.001849 -327160.000000 0 0 1
-12.448649 26.598402 -32.619934 43.891957 -1.133056 2.408617 0.017352 -0.005921 -21249.700000 0 0 1
-12.276649 25.188802 -32.491114 42.905295 -1.117291 2.429927 0.015325 -0.004852 -100135.000000 0 0 1
-11.541949 24.770402 -33.793444 43.460168 -1.134752 2.461593 0.021660 -0.004935 124017.000000 0 0 1
-12.333649 24.724702 33.856138 43.699746 -1.108078 0.684485 0.028365 -0.002391 9368.410000 0 0 1
-11.678749 23.938602 32.909145 42.337473 -1.116906 0.680425 0.029533 -0.005811 -122374.000000 0 0 1
-12.250049 24.156702 31.455857 41.510009 -1.101479 0.710877 0.048112 -0.006919 963917.000000 0 0 1
-13.565749 23.586402 31.289567 41.465466 -1.048848 0.715762 0.049046 -0.007613 812381.000000 0 0 1
-13.990149 23.495302 29.913767 40.528840 -1.033733 0.740567 0.068466 -0.010275 810278.000000 0 0 1
-15.389249 22.787702 29.864787 40.595736 -0.976819 0.744151 0.048852 -0.009303 779099.000000 0 0 1
-15.205149 21.379502 30.053907 39.893821 -0.952592 0.717659 0.057947 -0.012965 451410.000000 0 0 1
-16.465849 20.726502 30.211647 40.167843 -0.899458 0.719500 0.045694 -0.017053 421724.000000 0 0 1
-16.341349 19.209302 30.514717 39.587686 -0.865896 0.690679 0.064321 -0.027540 -28803.600000 0 0 1
-15.959849 18.478802 29.370697 38.194511 -0.858411 0.693557 0.065291 -0.027690 129245.000000 0 0 1
-15.497149 17.176502 29.606957 37.573471 -0.836751 0.663283 0.054387 -0.037147 -125077.000000 0 0 1
-15.057649 16.400902 28.365187 36.059758 -0.828071 0.665487 0.051424 -0.028766 479691.000000 0 0 1
-13.825849 16.918502 27.868717 35.412641 -0.885653 0.664912 0.074860 -0.034457 435297.000000 0 0 1
-13.264549 16.060802 26.846717 33.980050 -0.880463 0.659868 0.046103 -0.023906 280990.000000 0 0 1
-12.159649 16.636602 25.944577 33.132380 -0.939633 0.671229 0.050448 -0.022819 56349.600000 0 0 1
-12.612249 17.394402 24.832527 32.837302 -0.943439 0.713266 0.046054 -0.024571 -112319.000000 0 0 1
-12.916149 18.778702 24.929107 33.777609 -0.968300 0.740641 0.049418 -0.024744 397923.000000 0 0 1
-11.850149 19.712802 25.617677 34.427982 -1.029539 0.731618 0.052845 -0.017675 343238.000000 0 0 1
-11.552749 19.439202 26.962707 35.190000 -1.034577 0.697884 0.065565 -0.021688 -345325.000000 0 0 1
-12.491349 19.985202 27.835197 36.472459 -1.012175 0.702570 0.082791 -0.021559 -286136.000000 0 0 1
-12.223149 19.752002 29.331667 37.415152 -1.016646 0.669791 0.080279 -0.022411 1164070.000000 0 0 1
-11.060649 20.459202 29.887527 37.870584 -1.075183 0.661288 0.067740 -0.026023 1141640.000000 0 0 1
-10.809349 20.025902 31.184227 38.604854 -1.075842 0.630420 0.051678 -0.018611 -350295.000000 0 0 1
-9.758149 20.796802 31.972597 39.369726 -1.132079 0.623035 0.045206 -0.018573 -622604.000000 0 0 1
-8.467649 20.309502 31.825577 38.691656 -1.175780 0.604927 0.048538 -0.021267 -735817.000000 0 0 1
-7.476449 21.133002 32.387227 39.388240 -1.230757 0.605432 0.045561 -0.015725 395908.000000 0 0 1
-6.214749 20.339502 32.832534 39.118968 -1.274255 0.574803 0.045997 -0.015863 -71731.300000 0 0 1
-6.488949 19.458202 33.955132 39.669623 -1.248912 0.543415 0.047621 -0.018186 369390.000000 0 0 1
-5.302449 19.000002 -34.238432 39.514380 -1.298644 2.618904 0.041387 -0.011632 101373.000000 0 0 1
-4.486149 17.933102 33.844993 38.564299 -1.325667 0.499912 0.033022 -0.013594 -223273.000000 0 0 1
-5.018649 16.600402 33.876432 38.057493 -1.277212 0.473148 0.039615 -0.014446 79961.300000 0 0 1
-4.568749 15.922502 32.742302 36.694112 -1.291367 0.468373 0.029174 -0.008540 -223550.000000 0 0 1
-5.130449 14.483002 32.518477 35.965680 -1.230350 0.441403 0.037392 -0.012580 -325696.000000 0 0 1
-4.645849 13.521302 33.418779 36.348649 -1.239839 0.404256 0.034437 -0.007137 -611495.000000 0 0 1
-5.495249 12.438202 33.550167 36.201109 -1.154779 0.385071 0.038199 -0.006385 -290382.000000 0 0 1
-4.824749 11.103002 33.987536 36.079183 -1.160869 0.342178 0.051661 -0.008804 194028.000000 0 0 1
-4.472049 10.957802 -33.455424 35.487153 -1.183313 2.801571 0.053340 -0.010707 -201747.000000 0 0 1
-3.565249 9.900902 -33.341454 34.962714 -1.225158 2.835867 0.061356 -0.010854 -61899.500000 0 0 1
-3.397249 9.382902 -31.863144 33.389221 -1.223411 2.838086 0.064550 -0.006348 16857.200000 0 0 1
-4.618349 8.878202 -31.372304 32.929820 -1.091128 2.832803 0.064587 -0.006447 57189.000000 0 0 1
-4.523249 8.422502 -30.033564 31.518459 -1.077955 2.833416 0.067444 0.003798 323636.000000 0 0 1
-5.880649 7.812002 -29.614464 31.186950 -0.925524 2.822686 0.065071 -0.004478 302012.000000 0 0 1
-5.670649 7.107002 -28.389784 29.810159 -0.897340 2.831655 0.056750 0.000901 160616.000000 0 0 1
-6.787849 6.313202 -28.056094 29.547856 -0.749184 2.822478 0.066017 -0.012998 -414370.000000 0 0 1
-6.803949 5.627902 -26.634134 28.059652 -0.691079 2.821470 0.051240 -0.013889 -377011.000000 0 0 1
-6.874149 6.503802 -25.549884 27.246099 -0.757722 2.786875 0.028522 -0.000496 -361615.000000 0 0 1
-5.802849 7.352702 -25.240804 26.922731 -0.902667 2.786251 0.029658 -0.000086 -555090.000000 0 0 1
-6.051649 8.319102 -24.076244 26.181967 -0.941891 2.737790 0.007530 0.008941 72783.600000 0 0 1
-6.155649 7.747802 -22.792244 24.847672 -0.899416 2.731989 -0.001403 0.013641 -288434.000000 0 1 0
-7.485049 7.790102 -22.302344 24.781166 -0.805366 2.690501 0.007824 0.008410 314624.000000 0 1 0
-7.368249 7.912702 -20.738544 23.387799 -0.821013 2.661008 0.000287 0.003398 -30819.300000 0 1 0
-6.929949 9.196902 -20.299944 23.338700 -0.925053 2.625588 -0.010648 0.006329 -32734.400000 0 1 0
-6.752649 9.325202 -18.874744 22.109129 -0.944059 2.593861 -0.005420 0.000457 746442.000000 0 1 0
-8.071349 9.616302 -18.046244 21.983786 -0.872523 2.533762 -0.008495 0.005811 738327.000000 0 1 0
-7.728449 9.822102 -16.655144 20.822978 -0.904130 2.497832 -0.016798 0.004894 459114.000000 0 1 0
-8.867449 10.187202 -15.894544 20.857786 -0.854549 2.437260 -0.004367 -0.002536 341332.000000 0 1 0
-9.438249 11.622602 -16.201244 22.060048 -0.888745 2.395602 -0.001623 0.003283 -713518.000000 0 1 0
-8.559049 12.606202 -15.721044 21.893489 -0.974334 2.371821 -0.009676 0.002704 85442.300000 0 1 0
-8.935149 13.977802 -15.996144 23.045443 -1.002024 2.337983 0.015331 -0.000189 -362457.000000 0 1 0
-7.810449 14.951802 -15.692744 23.039568 -1.089409 2.320090 0.025288 -0.002965 -416331.000000 0 1 0
-7.424249 15.097702 -14.329244 22.099486 -1.113773 2.276273 0.026325 -0.004839 388500.000000 0 1 0
-8.312749 15.853002 -13.482244 22.409604 -1.087848 2.216334 0.023768 -0.005703 -464045.000000 0 1 0
-7.619949 16.744202 -12.453944 22.215594 -1.143726 2.165900 0.029936 -0.006782 31117.900000 0 1 0
-7.139749 18.027902 -12.800944 23.234574 -1.193709 2.154291 0.039733 0.000338 353070.000000 0 1 0
-5.996049 17.993902 -13.664344 23.376214 -1.249142 2.195110 0.039774 -0.004788 74005.800000 0 1 0
-5.660649 19.337002 -14.326844 24.722885 -1.286016 2.188908 0.044451 0.004036 30171.300000 0 1 0
-5.093149 20.203002 -13.362244 24.751788 -1.323843 2.141055 0.041545 -0.004198 -191646.000000 0 1 0
-5.133149 21.534902 -13.745044 26.058155 -1.336799 2.126423 0.042675 -0.009170 -17907.100000 0 0 1
-4.704249 22.531002 -12.647144 26.262639 -1.364963 2.073235 0.051838 -0.007943 -719629.000000 0 0 1
-4.813349 23.932302 -12.935644 27.627057 -1.372321 2.058076 0.041149 -0.014861 638979.000000 0 0 1
-6.113249 24.500402 -13.193744 28.490636 -1.326273 2.052275 0.043113 -0.015181 871178.000000 0 0 1
-7.095449 24.548902 -11.994744 28.228848 -1.289431 2.009660 0.017332 -0.018720 -141042.000000 0 0 1
-7.469949 23.195802 -11.585444 26.982732 -1.259245 2.014586 0.032231 -0.019252 77736.600000 0 0 1
-8.111749 23.058602 -10.298344 26.524620 -1.232529 1.969535 0.033253 -0.021123 261767.000000 0 0 1
-7.194649 23.319702 -9.065744 26.033808 -1.271539 1.926478 0.024160 -0.018291 -28815.200000 0 0 1
-7.024049 24.725102 -8.994844 27.231877 -1.294003 1.907424 0.021184 -0.017799 -147379.000000 0 0 1
-6.662449 25.182502 -7.688044 27.159761 -1.312156 1.857787 0.013815 -0.015641 -226830.000000 0 0 1
-6.887549 26.716902 -7.569344 28.609896 -1.318492 1.838555 0.012487 -0.020744 -141228.000000 0 0 1
-6.050749 27.609502 -8.287044 29.454562 -1.355053 1.855997 0.006057 -0.021456 -25507.000000 0 0 1
-5.918849 27.504602 -9.707044 29.761764 -1.358834 1.903033 0.010353 -0.020267 -262951.000000 0 0 1
-5.311449 28.809802 -10.218344 31.026290 -1.388481 1.906406 0.012914 -0.020520 378526.000000 0 0 1
-6.181549 29.947402 -10.182244 32.229435 -1.367242 1.892233 0.012176 -0.017084 360848.000000 0 0 1
-7.179949 29.984002 -11.201444 32.803420 -1.335763 1.919279 0.021069 -0.022092 370295.000000 0 0 1
-8.182549 31.187802 -11.076444 34.092824 -1.314215 1.901693 0.019475 -0.012825 -16121.900000 0 0 1
-9.150049 30.893402 -10.114544 33.770248 -1.282847 1.874976 0.019205 -0.010082 -420484.000000 0 0 1
-10.184349 31.873802 -10.076644 34.945657 -1.261528 1.863301 0.018952 -0.006956 -37055.800000 0 0 1
-11.392949 31.403202 -9.295044 34.675037 -1.222768 1.842177 0.029540 -0.008990 -375573.000000 0 0 1
-12.100149 30.306202 -9.840044 34.083807 -1.190925 1.863667 0.032761 -0.018290 265042.000000 0 0 1
-13.192849 29.956402 -8.971944 33.940139 -1.155953 1.838322 0.049583 -0.012973 634622.000000 0 0 1
-14.020349 28.763902 -9.449344 33.364986 -1.117256 1.857937 0.066915 -0.015548 68778.600000 0 0 1
-13.609649 27.526702 -8.945244 31.983734 -1.111626 1.854258 0.048146 -0.015822 332317.000000 0 0 1
-14.620349 26.557202 -9.251644 31.695938 -1.067552 1.866996 0.072527 -0.014283 137444.000000 0 0 1
-14.537849 25.161702 -8.611344 30.308671 -1.046878 1.858886 0.063095 -0.018209 -215925.000000 0 0 1
-13.589649 24.263802 -9.154144 29.278131 -1.060248 1.888790 0.057741 -0.017993 284776.000000 0 0 1
-13.906149 22.955602 -8.677344 28.207037 -1.026134 1.883498 0.060396 -0.019994 122294.000000 0 0 1
-13.012449 21.854702 -9.306844 27.084482 -1.033761 1.921568 0.057421 -0.021600 -78958.300000 0 0 1
-13.358249 21.572602 -10.699144 27.537095 -1.016362 1.969838 0.062364 -0.021567 358725.000000 0 0 1
-12.687549 20.407002 -11.209544 26.515533 -1.014555 2.007278 0.063858 -0.020234 -140683.000000 0 0 1
-13.156649 19.913502 -12.602744 26.990259 -0.986943 2.056620 0.052446 -0.015976 -2939.130000 0 0 1
-14.353949 19.189702 -12.405644 26.984820 -0.928575 2.048484 0.057178 -0.020197 -234977.000000 0 0 1
-14.732349 18.477202 -13.572744 27.251944 -0.897688 2.092141 0.059913 -0.020121 309319.000000 0 0 1
-16.183249 18.650502 -14.092444 28.431246 -0.856109 2.089400 0.051951 -0.002187 287274.000000 0 0 1
-16.413149 19.964702 -14.528644 29.648984 -0.882719 2.082911 0.027243 0.001892 394472.000000 0 0 1
-17.710349 20.030102 -15.127144 30.719569 -0.846787 2.085672 0.018271 0.005709 361587.000000 0 0 1
-17.986349 21.354602 -15.811244 32.086184 -0.870807 2.086071 0.022515 0.005869 -62860.500000 0 0 1
-18.548349 22.368502 -14.981144 32.692901 -0.878492 2.046809 0.027302 -0.012756 459214.000000 0 0 1
-18.613749 23.617702 -15.649944 33.899679 -0.903337 2.050656 0.036082 -0.012590 -317524.000000 0 0 1
-19.192049 24.796502 -14.864844 34.701078 -0.912122 2.013483 0.036726 0.002226 -76595.700000 0 0 1
-20.590949 24.653002 -14.711444 35.329651 -0.874939 2.000284 0.045827 0.003756 305655.000000 0 0 1
-21.080549 25.559502 -13.725444 35.861755 -0.881137 1.963548 0.052954 -0.014033 29823.600000 0 0 1
-25.256969 -1.170098 4.063856 25.608564 0.046295 1.411431 0.059471 -0.021274 96925.700000 0 0 1
-25.985279 -0.220398 4.824356 26.430242 0.008481 1.387236 0.079023 -0.018435 -126663.000000 0 0 1
-27.175059 -0.652398 5.393056 27.712714 0.024003 1.374941 0.064504 -0.022247 -572744.000000 0 0 1
-27.673409 0.164702 6.565756 28.442114 -0.005952 1.337849 0.065889 -0.023161 -624448.000000 0 0 1
-28.148719 1.419602 6.190456 28.856323 -0.050389 1.354589 0.080801 -0.028393 162402.000000 0 0 1
-28.660099 2.187102 7.268256 29.648140 -0.076164 1.323121 0.092471 -0.019503 -445602.000000 0 0 1
-27.649489 2.906702 8.174256 28.978641 -0.104742 1.284836 0.099600 -0.023201 -586033.000000 0 0 1
-26.901179 2.007202 8.903156 28.407190 -0.074476 1.252012 0.082473 -0.024812 -635299.000000 0 0 1
-25.792989 2.604802 9.473156 27.600796 -0.100648 1.220453 0.084868 -0.023329 -811146.000000 0 0 1
-24.880449 1.630702 10.224456 26.948756 -0.065448 1.181645 0.069699 -0.019257 -753745.000000 0 0 1
-24.165249 0.720702 9.438156 25.952985 -0.029815 1.198599 0.079080 -0.022161 -77472.600000 0 0 1
-24.836449 -0.423298 8.988456 26.416296 0.017042 1.223601 0.081405 -0.020778 -1042210.000000 0 0 1
-24.001749 -1.413498 8.145556 25.385665 0.058824 1.244146 0.096992 -0.021775 -152844.000000 0 0 1
-23.020049 -2.008898 8.994556 24.796378 0.087047 1.199593 0.067447 -0.028858 -456331.000000 0 1 0
-22.008749 -2.485098 8.174556 23.608984 0.112438 1.217228 0.072218 -0.023136 -161730.000000 0 1 0
-20.771049 -2.945998 9.050356 22.847852 0.140892 1.163515 0.076497 -0.010083 598689.000000 0 1 0
-19.908849 -1.899698 9.475156 22.130289 0.095132 1.128348 0.053210 -0.011156 812010.000000 0 1 0
-20.496949 -1.094898 10.500956 23.056318 0.053367 1.097921 0.054024 -0.014412 -265966.000000 0 1 0
-19.617349 0.167202 10.760056 22.375146 -0.008523 1.069123 0.030903 -0.012328 48268.600000 0 1 0
-19.948549 1.317802 9.923756 22.319546 -0.065964 1.110044 0.027039 -0.008746 1062170.000000 0 1 0
-21.064149 2.105302 10.368056 23.571747 -0.099616 1.115364 0.055868 -0.001661 131810.000000 0 1 0
-21.488949 3.390702 9.627956 23.790110 -0.156498 1.154141 0.048389 -0.015797 -677871.000000 0 1 0
-22.079349 4.261002 10.512556 24.822724 -0.190642 1.133485 0.070090 -0.017677 300908.000000 0 1 0
-22.428249 5.482802 9.912156 25.126446 -0.239757 1.165282 0.054274 -0.012284 -195371.000000 0 0 1
-22.373249 6.709102 10.887556 25.770394 -0.291339 1.134613 0.053000 -0.022428 -238545.000000 0 0 1
-23.360249 6.597702 11.867556 27.019804 -0.275263 1.116069 0.056980 -0.016533 72473.600000 0 0 1
-23.461649 7.795302 12.626256 27.760368 -0.320782 1.098615 0.061896 -0.014154 78087.700000 0 0 1
-24.538749 7.656302 13.732056 29.143413 -0.302437 1.080158 0.066705 -0.010930 1074940.000000 0 0 1
-25.887079 7.498802 13.252556 30.033367 -0.281956 1.113793 0.065073 -0.004122 1101770.000000 0 0 1
-26.797539 7.181002 14.316256 31.219066 -0.261821 1.094406 0.067426 -0.000877 679899.000000 0 0 1
-28.218659 6.876802 13.755256 32.137053 -0.239038 1.128497 0.057303 0.015057 154357.000000 0 0 1
-28.243759 5.628202 13.081556 31.630898 -0.196696 1.144426 0.060100 0.022265 -103278.000000 0 0 1
-29.366559 5.531202 12.249656 32.296177 -0.186169 1.181766 0.046585 -0.008454 -521748.000000 0 0 1
-29.534319 4.187402 11.568756 31.994475 -0.140842 1.200828 0.068830 -0.008412 -301914.000000 0 0 1
-29.989069 3.134102 12.372756 32.592207 -0.104130 1.181407 0.050063 -0.009299 73095.100000 0 0 1
-30.338539 2.061502 11.533456 32.522259 -0.067846 1.208275 0.047685 -0.009321 -166945.000000 0 0 1
-31.406229 1.101702 12.081556 33.667922 -0.035065 1.203766 0.037480 0.001747 -496046.000000 0 0 1
-30.912929 0.186202 13.026656 33.546052 -0.006023 1.171987 0.037615 0.006669 -110490.000000 0 0 1
-31.995229 -0.426898 13.680256 34.799803 0.013342 1.166782 0.029253 0.003317 -221947.000000 0 0 1
-31.659619 -1.654198 14.577256 34.893613 0.052202 1.139815 0.032875 0.000292 -329595.000000 0 0 1
-31.474769 -2.910198 14.017456 34.577730 0.092199 1.153391 0.027444 -0.005343 213748.000000 0 0 1
-31.764239 -3.964298 14.978056 35.341544 0.124162 1.133150 0.031649 -0.002861 -25834.900000 0 0 1
-31.628649 -5.419598 14.410956 35.176969 0.169703 1.148704 0.028696 -0.002607 -634238.000000 0 0 1
-32.699949 -5.697898 13.591556 35.867577 0.172516 1.182149 0.016866 -0.016232 -798100.000000 0 0 1
-32.644079 -6.991098 13.006256 35.828397 0.210974 1.199294 0.017038 -0.015411 -506355.000000 0 0 1
-33.881629 -7.216698 12.071656 36.684743 0.209861 1.235483 0.016323 -0.004650 1114350.000000 0 0 1
-35.117508 -7.210498 12.806556 38.068866 0.202510 1.227700 -0.009088 -0.007494 316199.000000 0 0 1
-35.629242 -5.986498 13.201456 38.465042 0.166467 1.220468 0.000956 -0.011380 -649927.000000 0 0 1
34.112695 -5.812898 12.896156 36.929346 -0.168782 1.214067 0.007723 -0.009760 437925.000000 0 0 1
33.291825 -6.686998 13.619656 36.586289 -0.198222 1.189352 0.001982 -0.006806 -335031.000000 0 0 1
31.942325 -6.498098 13.245656 35.185008 -0.200694 1.184827 0.020017 -0.003037 -256727.000000 0 0 1
31.046895 -7.647298 13.632056 34.759514 -0.241507 1.167794 0.019744 -0.008483 -452648.000000 0 0 1
30.680765 -7.658398 15.009556 35.003531 -0.244617 1.127631 0.034178 -0.006968 -147427.000000 0 0 1
29.778495 -8.715098 15.204356 34.552628 -0.284713 1.115159 0.042112 -0.001454 -262511.000000 0 0 1
29.166205 -8.764198 16.578756 34.674686 -0.291908 1.072280 0.039465 -0.009255 -436424.000000 0 0 1
30.165605 -8.916198 17.544556 36.017687 -0.287392 1.062019 0.028490 -0.007145 -280721.000000 0 0 1
29.670135 -9.113998 18.816056 36.296361 -0.298029 1.025817 0.021654 -0.006766 859315.000000 0 0 1
30.859735 -9.293898 19.876956 37.865461 -0.292526 1.018156 0.024746 -0.005907 1325920.000000 0 0 1
31.828305 -8.283098 20.013256 38.499105 -0.254596 1.024136 0.025608 -0.003373 347162.000000 0 0 1
33.081295 -8.625598 19.419656 39.317885 -0.255061 1.054211 0.001279 -0.004321 460526.000000 0 0 1
34.297945 -8.016198 20.150656 40.579026 -0.229601 1.051144 0.001031 -0.000942 -25627.900000 0 0 1
34.459095 -8.550498 21.461256 41.486453 -0.243222 1.027094 0.000129 0.000776 163261.000000 0 0 1
35.617807 -8.030898 22.083356 42.670811 -0.221766 1.026836 -0.009533 0.006653 -11135.900000 0 0 1
-35.575388 -8.569998 23.530656 43.505688 0.236393 0.999332 -0.009459 0.009025 -508753.000000 0 0 1
35.113555 -7.789298 24.502856 43.520396 -0.218297 0.972761 -0.000756 -0.000808 -949.990000 0 0 1
35.044465 -8.557598 25.676156 44.278798 -0.239505 0.952221 0.000667 -0.008603 -521.513000 0 0 1
34.369185 -7.977198 26.913956 44.376092 -0.228065 0.919149 0.008780 -0.008020 177125.000000 0 0 1
35.384110 -7.410698 27.741156 45.568908 -0.206452 0.916282 -0.007884 -0.016364 639985.000000 0 0 1
34.831355 -6.658898 28.865856 45.725287 -0.188896 0.887583 -0.003990 -0.024719 294938.000000 0 0 1
-35.295282 -6.152698 29.791656 46.595659 0.172586 0.877124 -0.002728 -0.014062 444311.000000 0 0 1
-34.714454 -7.125898 30.592756 46.816541 0.202459 0.858649 0.001766 -0.011306 516336.000000 0 0 1
-33.275979 -7.003398 30.610956 45.753350 0.207437 0.837876 -0.000867 -0.017065 842378.000000 0 0 1
-32.868029 -7.685998 31.937056 46.468887 0.229716 0.813061 -0.004752 -0.011272 -210541.000000 0 0 1
-32.788449 -9.068098 31.835156 46.591737 0.269819 0.818552 -0.002708 -0.014126 262745.000000 0 0 1
-32.233079 -9.603898 33.009256 47.125548 0.289577 0.794764 -0.001750 -0.010267 -328301.000000 0 0 1
-32.229189 -11.161798 33.063256 47.502476 0.333398 0.800940 0.010268 -0.010872 -680627.000000 0 0 1
-33.556869 -11.592198 33.027356 48.489677 0.332615 0.821503 0.006223 -0.013414 -285608.000000 0 0 1
-33.699729 -12.981098 33.292856 49.118173 0.367682 0.826015 0.012663 -0.017048 316279.000000 0 0 1
-35.221702 -13.268398 33.359756 50.294055 0.360270 0.845584 0.019865 -0.018062 212002.000000 0 0 1
-35.487797 -14.596298 33.672256 51.051508 0.390214 0.850544 0.022998 -0.024247 -225420.000000 0 0 1
34.391965 -14.817298 33.636656 50.336708 -0.406803 0.838965 0.013738 -0.017854 -412741.000000 0 0 1
34.008555 -16.293598 34.016556 50.785719 -0.446791 0.836849 0.006352 -0.006864 -149835.000000 0 0 1
34.486905 -16.771598 -33.559044 50.959224 -0.452642 2.289683 0.014604 -0.016143 228464.000000 0 0 1
34.357235 -18.184598 -33.497644 51.314631 -0.486796 2.282057 0.017103 -0.017276 -469764.000000 0 0 1
35.036585 -18.725998 -32.245944 51.166651 -0.490842 2.252625 0.015825 -0.014035 -127396.000000 0 0 1
34.256895 -18.650098 -31.060344 49.860866 -0.498548 2.243292 0.018663 -0.010698 93965.300000 0 0 1
34.498945 -19.791298 -30.271544 49.982387 -0.520840 2.221372 0.013848 -0.005887 -474448.000000 0 0 1
33.397955 -19.951698 -29.176344 48.628723 -0.538500 2.214275 0.017930 -0.009543 673379.000000 0 0 1
32.157385 -20.513198 -29.526344 48.235813 -0.567822 2.229541 0.014933 -0.001929 214121.000000 0 0 1
31.209825 -19.696298 -30.179344 47.673789 -0.562969 2.256268 0.006860 0.003313 -486699.000000 0 0 1
29.836615 -20.323398 -30.413244 47.204126 -0.597967 2.270894 0.002267 0.008241 59580.600000 0 0 1
28.942125 -19.526898 -31.205044 46.826287 -0.593535 2.300166 -0.005221 0.008759 500426.000000 0 0 1
27.733795 -20.247398 -31.424944 46.547262 -0.630618 2.311922 0.002238 0.005218 91813.600000 0 0 1
26.926595 -19.686498 -32.585644 46.630719 -0.631306 2.344518 0.008529 0.009735 -92516.300000 0 0 1
27.511215 -19.848098 -33.848144 47.921924 -0.624981 2.355080 -0.004855 0.004569 -162180.000000 0 0 1
26.621605 -19.353598 33.991856 47.315092 -0.628610 0.769276 0.035610 -0.008104 -37227.900000 0 0 1
27.043615 -19.588198 32.509256 46.603716 -0.626862 0.798799 0.037263 -0.000082 -84992.700000 0 0 1
27.996315 -18.607398 32.109856 46.487329 -0.586596 0.808308 0.000029 -0.002550 -61859.000000 0 0 1
28.067495 -18.366998 30.736756 45.495924 -0.579453 0.829027 0.015116 -0.007929 -67231.900000 0 0 1
26.847875 -17.663198 30.078156 44.016956 -0.581908 0.818481 0.013640 -0.006553 102533.000000 0 0 1
26.599975 -16.388198 30.664856 43.777450 -0.552172 0.794738 0.014560 -0.007995 208321.000000 0 0 1
25.588335 -15.686998 29.973456 42.417601 -0.549962 0.786075 0.021898 -0.014274 -68568.300000 0 0 1
25.488235 -14.175798 30.377356 42.111603 -0.507568 0.765042 0.038557 -0.016768 -641100.000000 0 0 1
26.586395 -13.351598 30.150056 42.357142 -0.465403 0.778731 0.024529 -0.003474 -310042.000000 0 0 1
26.553095 -12.185898 30.935856 42.551030 -0.430252 0.756811 0.041088 -0.014775 473757.000000 0 0 1
27.956165 -11.498398 30.911756 43.235367 -0.390210 0.774223 0.030498 -0.015208 482777.000000 0 0 1
28.306025 -10.856098 29.684256 42.429247 -0.366225 0.795934 0.024033 -0.023255 361492.000000 0 0 1
29.713245 -10.641298 29.584556 43.259220 -0.343902 0.817715 0.020497 -0.017210 474813.000000 0 0 1
30.172435 -9.946498 28.309256 42.552587 -0.318437 0.842932 0.033325 -0.027041 -195324.000000 0 0 1
30.058235 -8.565698 28.181156 42.083800 -0.277612 0.837067 0.033269 -0.022129 -103838.000000 0 0 1
30.542175 -8.190398 26.930056 41.534744 -0.262002 0.865349 0.035793 -0.019457 -53261.300000 0 0 1
30.540315 -6.654598 26.691056 41.102396 -0.214542 0.864028 0.051415 -0.026104 -8403.340000 0 0 1
29.197145 -6.255698 26.534456 39.946018 -0.211066 0.844296 0.051849 -0.022648 -88921.800000 0 0 1
29.125325 -4.857198 26.402156 39.609983 -0.165248 0.841221 0.052587 -0.021248 -109912.000000 0 0 1
27.666295 -4.403498 26.446456 38.525702 -0.157841 0.814183 0.056589 -0.013796 602013.000000 0 0 1
26.821185 -4.859698 25.328656 37.209319 -0.179244 0.822069 0.062786 -0.013152 1402380.000000 0 0 1
25.449535 -4.447398 25.445056 36.261675 -0.173007 0.793006 0.067182 -0.007681 689544.000000 0 0 1
24.719635 -4.653198 24.093156 34.830917 -0.186062 0.806932 0.066795 0.001365 -385219.000000 0 0 1
25.098435 -3.719098 23.148856 34.345781 -0.147110 0.831194 0.071463 0.008321 215173.000000 0 0 1
25.089135 -4.215598 21.819756 33.516230 -0.166470 0.861868 0.072024 0.002923 19135.700000 0 0 1
25.535335 -3.122398 20.788256 33.074980 -0.121674 0.891149 0.071610 0.000652 242166.000000 0 0 1
24.542435 -2.102598 20.617356 32.122070 -0.085463 0.873896 0.066658 0.007055 409106.000000 0 0 1
24.841535 -1.203398 19.557256 31.639157 -0.048405 0.904429 0.056947 -0.003373 -861929.000000 0 0 1
23.652135 -0.423098 19.037756 30.365089 -0.017886 0.893149 0.020655 0.000652 -413426.000000 0 0 1
22.826635 -1.218998 18.190656 29.213716 -0.053352 0.898639 0.042659 -0.007116 954561.000000 0 0 1
21.661735 -0.515398 17.682456 27.967224 -0.023789 0.886334 0.046985 -0.008084 894175.000000 0 0 1
20.550735 -1.433298 17.168256 26.816712 -0.069632 0.876028 0.044782 -0.006205 -134650.000000 0 0 1
20.872635 -2.037298 15.881356 26.306557 -0.097298 0.922658 0.060447 -0.016527 793072.000000 0 0 1
19.741335 -2.794298 15.453956 25.226041 -0.140611 0.911426 0.069540 -0.018714 310681.000000 0 0 1
20.121535 -3.361798 14.097956 24.797786 -0.165546 0.966095 0.064031 -0.028705 262272.000000 0 1 0
19.165835 -4.314198 13.624956 23.907759 -0.221408 0.964416 0.063340 -0.025844 704027.000000 0 1 0
19.240335 -4.528298 12.199956 23.227890 -0.231148 1.017812 0.056619 -0.030314 -281438.000000 0 1 0
18.237535 -5.603398 11.801556 22.433958 -0.298091 1.016838 0.039057 -0.026157 -365073.000000 0 1 0
18.465135 -6.837398 12.461156 23.302181 -0.354632 1.006568 0.063540 -0.033007 472212.000000 0 1 0
17.380135 -7.760798 12.416556 22.725975 -0.419967 0.992785 0.046156 -0.011422 -244836.000000 0 1 0
17.636335 -9.298898 12.724956 23.652364 -0.485215 1.002734 0.051181 -0.026168 -157976.000000 0 1 0
18.458235 -9.994498 11.768756 24.064498 -0.496267 1.059795 0.042714 -0.030905 435735.000000 0 1 0
18.045635 -11.308898 11.557356 24.230324 -0.559809 1.073582 0.050976 -0.026624 -12026.700000 0 1 0
18.738135 -11.922098 10.318356 24.489234 -0.566647 1.135871 0.057999 -0.030142 446307.000000 0 1 0
18.080335 -11.493798 9.140356 23.292746 -0.566262 1.167544 0.043249 -0.029038 417750.000000 0 1 0
18.822335 -11.981498 8.048756 23.719592 -0.566867 1.224592 0.051350 -0.038673 158645.000000 0 1 0
18.452635 -11.333298 6.693456 22.665960 -0.550783 1.271018 0.037199 -0.019591 -108478.000000 0 1 0
18.760335 -9.955498 6.526256 22.218329 -0.487879 1.272667 0.029795 -0.018352 922549.000000 0 1 0
19.495135 -9.718198 5.297256 22.417952 -0.462442 1.332245 0.030890 -0.018579 44808.700000 0 1 0
19.819435 -8.211298 5.094356 22.049668 -0.392777 1.337650 0.039504 -0.017352 -519479.000000 0 1 0
20.633435 -7.951098 3.987256 22.469019 -0.367814 1.392396 0.053861 -0.021519 476490.000000 0 1 0
20.764035 -6.561198 3.833156 22.110802 -0.306060 1.396555 0.049794 -0.018222 -446205.000000 0 1 0
21.332035 -6.007398 2.494556 22.301734 -0.274505 1.458707 0.051831 -0.022598 -379348.000000 0 1 0
20.483235 -6.170198 1.393056 21.437697 -0.292586 1.505769 0.023980 -0.023306 186984.000000 0 1 0
20.997835 -5.503098 0.288656 21.708903 -0.256315 1.557499 0.031696 -0.015307 -156745.000000 0 1 0
-25.946959 -15.576298 -0.080444 30.263381 0.540650 1.573454 0.041686 -0.008391 -734273.000000 0 0 1
-24.868149 -14.805098 -0.469944 28.945407 0.536989 1.587033 0.042745 -0.004269 -752236.000000 0 0 1
-23.667849 -15.548898 -0.558244 28.323964 0.581254 1.590507 0.042064 -0.006474 435027.000000 0 0 1
-22.629349 -15.217998 0.534656 27.275644 0.592023 1.551193 0.041978 -0.013616 3369.250000 0 0 1
-23.080949 -15.759198 1.793556 28.005346 0.599075 1.506709 0.041789 -0.003594 -116181.000000 0 0 1
-22.287749 -15.306998 2.835856 27.186210 0.601805 1.466294 0.054964 -0.000883 -51195.600000 0 0 1
-22.598649 -15.982498 4.228956 28.000415 0.615564 1.419184 0.051201 0.002277 -288872.000000 0 0 1
-22.233449 -17.326498 4.327556 28.517741 0.661990 1.418458 0.060807 -0.003820 -2792.340000 0 0 1
-22.681349 -18.060498 5.453756 29.502011 0.672463 1.384866 0.062945 -0.010785 -67303.200000 0 0 1
-22.702649 -19.558698 5.293256 30.429780 0.711142 1.395957 0.056442 -0.008262 -7806.750000 0 0 1
-23.102649 -20.192898 6.451756 31.354596 0.718292 1.363548 0.042396 -0.007307 -277360.000000 0 0 1
-23.330449 -21.564598 6.215156 32.372363 0.746086 1.377607 0.055405 -0.010604 359071.000000 0 0 1
-24.164849 -22.264598 7.349156 33.669903 0.744493 1.350754 0.055539 -0.008105 477604.000000 0 0 1
-23.392249 -22.374198 8.543856 33.478344 0.763157 1.312736 0.058315 -0.002289 -289598.000000 0 0 1
-24.071249 -23.039298 9.597956 34.674992 0.763497 1.290336 0.059354 0.001206 222441.000000 0 0 1
-23.171149 -23.514898 10.789556 34.731356 0.792761 1.254912 0.044693 -0.001277 212895.000000 0 0 1
-22.760749 -22.438298 11.629756 34.011471 0.778264 1.221820 0.046846 0.002032 193183.000000 0 0 1
-21.992749 -22.914498 12.735656 34.219179 0.805921 1.189441 0.053160 0.000474 -157335.000000 0 0 1
-22.397949 -22.120398 13.959456 34.436123 0.779164 1.153410 0.039194 0.004073 187002.000000 0 0 1
-23.646949 -22.477098 14.541256 35.718990 0.760040 1.151518 0.027174 0.005893 -394879.000000 0 0 1
-23.917849 -21.651198 15.641656 35.853860 0.735698 1.119357 0.029355 0.011133 -338129.000000 0 0 1
-25.213669 -22.214598 16.264056 37.332787 0.722248 1.120035 0.003319 0.009175 107257.000000 0 0 1
-26.388419 -22.146898 15.477056 37.767354 0.698229 1.148562 -0.002078 0.009338 194816.000000 0 0 1
-26.462189 -23.228998 14.550956 38.099398 0.720424 1.178922 0.002956 0.003319 -371143.000000 0 0 1
-27.681949 -24.176898 14.854556 39.641778 0.717913 1.186702 0.000398 0.010733 297302.000000 0 0 1
-27.440169 -24.867398 16.006956 40.343191 0.736252 1.162801 0.000800 0.016084 527734.000000 0 0 1
-28.379689 -25.945328 16.306556 41.766860 0.740617 1.169710 -0.001922 0.013122 455453.000000 0 0 1
-28.558779 -27.143408 15.338356 42.280417 0.759994 1.199550 0.009287 0.008197 49735.300000 0 0 1
-29.275379 -26.871358 14.134856 42.177149 0.742608 1.229052 0.019646 -0.003693 1174490.000000 0 0 1
-30.590669 -27.483918 14.137456 43.485888 0.731953 1.239674 0.013237 -0.009864 991460.000000 0 0 1
-31.118769 -27.839298 12.751756 43.657893 0.729832 1.274392 0.023107 -0.015280 -150396.000000 0 0 1
-30.420079 -28.958818 12.234256 43.745530 0.760794 1.287347 0.041089 -0.020108 397778.000000 0 0 1
-30.908329 -29.419328 10.958056 44.055654 0.760721 1.319425 0.039252 -0.012428 5394.210000 0 0 1
-30.258569 -30.745258 10.476556 44.391555 0.793376 1.332545 0.044087 -0.023052 -44515.100000 0 0 1
-30.687299 -31.909048 11.135156 45.649637 0.804914 1.324384 0.032399 -0.010044 466753.000000 0 0 1
-29.769139 -32.982808 10.882056 45.743704 0.836566 1.330601 0.047946 -0.011713 297055.000000 0 0 1
-30.177929 -34.269703 11.670456 47.130876 0.848803 1.320575 0.029082 -0.004805 518264.000000 0 0 1
-31.431869 34.050121 11.244656 47.684540 -0.825361 1.332741 0.019695 -0.003894 304013.000000 0 0 1
-31.493169 32.698399 11.652756 46.869944 -0.804171 1.319542 0.024113 -0.008548 260194.000000 0 0 1
-32.890199 32.330759 12.285856 47.728245 -0.776821 1.310453 0.045642 -0.008491 1376150.000000 0 0 1
-33.997089 32.169379 11.375356 48.167102 -0.757782 1.332380 0.025402 -0.005428 636106.000000 0 0 1
-34.545787 33.364320 10.848856 49.237048 -0.768002 1.348634 0.026168 0.000644 -1154010.000000 0 0 1
35.310194 33.113118 10.339256 49.499379 0.753299 1.360370 0.009595 0.013695 -691714.000000 0 0 1
35.314633 32.291849 9.173356 48.724093 0.740716 1.381394 -0.009738 0.015054 -90060.100000 0 0 1
34.020905 32.096729 8.658756 47.566753 0.756304 1.387742 -0.002041 0.015677 -240415.000000 0 0 1
33.946755 31.629929 7.206456 46.954952 0.750083 1.416711 -0.009353 0.010731 -121187.000000 0 0 1
34.188405 30.267229 7.072856 46.205816 0.724638 1.417119 0.000566 0.009589 158804.000000 0 0 1
33.906855 29.917919 5.680756 45.574419 0.722981 1.445823 0.012821 0.000101 12415.000000 0 0 1
34.135615 28.380579 5.337356 44.712244 0.693600 1.451140 0.017445 0.002514 91305.500000 0 0 1
33.303255 27.408259 5.986756 43.544927 0.688603 1.432875 0.028705 -0.000431 289850.000000 0 0 1
33.605955 27.172179 7.384456 43.843103 0.679934 1.401560 0.015867 0.001514 -351192.000000 0 0 1
32.728085 26.084869 7.979056 42.605319 0.672920 1.382406 0.014582 0.002769 -322305.000000 0 0 1
32.937925 24.756259 7.542756 41.888810 0.644527 1.389743 0.029389 -0.001886 450540.000000 0 0 1
31.690955 24.079619 7.400256 40.483434 0.649760 1.386966 0.025077 -0.002183 -110736.000000 0 0 1
31.869335 22.796159 6.550356 39.726899 0.620921 1.405155 0.021031 0.003818 663724.000000 0 0 1
32.760225 21.737259 7.053656 39.943645 0.585825 1.393275 0.039114 -0.000129 434043.000000 0 0 1
34.118815 22.069259 7.108456 41.251374 0.574147 1.397611 0.058214 -0.009873 -999182.000000 0 0 1
35.064775 20.887559 7.125556 41.431897 0.537241 1.397955 0.046169 -0.012989 -300439.000000 0 0 1
34.939465 20.049959 6.004956 40.728694 0.520968 1.422819 0.058726 -0.022129 56685.000000 0 0 1
35.540151 18.803759 6.264756 40.693130 0.486644 1.416230 0.066111 -0.027498 -123304.000000 0 0 1
35.181915 17.686059 5.227556 39.722678 0.465808 1.438812 0.056470 -0.019759 -176003.000000 0 0 1
-35.343645 17.672859 4.035556 39.721391 -0.463671 1.469024 0.059213 -0.018389 22048.000000 0 0 1
35.395746 16.614459 3.238656 39.235035 0.438862 1.488157 0.051138 -0.013384 -1511430.000000 0 0 1
-35.130271 16.186559 2.009856 38.732159 -0.431764 1.518882 0.056233 0.000698 -658814.000000 0 0 1
-33.985689 15.412459 2.194556 37.381640 -0.425759 1.512056 0.059117 -0.017410 -347444.000000 0 0 1
-32.847559 16.170159 2.523856 36.698856 -0.457452 1.501970 0.071090 -0.021384 -892813.000000 0 0 1
-31.558549 15.337259 2.693156 35.191286 -0.452380 1.494192 0.066565 -0.017678 -109393.000000 0 0 1
-31.465049 14.533759 3.862956 34.874086 -0.432707 1.459800 0.080402 -0.022528 411009.000000 0 0 1
-30.143469 14.035459 4.030956 33.494349 -0.435769 1.450157 0.075016 -0.021099 315677.000000 0 0 1
-29.952859 13.339759 5.455356 33.239793 -0.418987 1.405929 0.086754 -0.023643 -153008.000000 0 0 1
-30.377619 12.024559 5.580856 33.144165 -0.376912 1.401609 0.086531 -0.026317 266718.000000 0 0 1
-29.861419 11.488859 6.785756 32.706952 -0.367282 1.361807 0.075565 -0.010779 18719.300000 0 0 1
-29.954789 9.935159 6.916956 32.308529 -0.320254 1.355035 0.078543 -0.023970 2268960.000000 0 0 1
-31.336779 9.471859 7.187456 33.516702 -0.293529 1.354674 0.061947 -0.024024 2131580.000000 0 0 1
-31.219009 8.138759 7.492456 33.121033 -0.255023 1.342607 0.068326 -0.022869 -354160.000000 0 0 1
-32.452909 7.266659 7.298656 34.047996 -0.220280 1.354756 0.054191 -0.019844 -270375.000000 0 0 1
-33.471289 7.520059 8.262756 35.286706 -0.221002 1.334441 0.043682 -0.021578 1134010.000000 0 0 1
-34.735903 6.937559 7.855056 36.282428 -0.197129 1.352571 0.035332 -0.017630 1135280.000000 0 0 1
-35.501705 6.173559 8.947056 37.128610 -0.172173 1.327426 0.016515 -0.014360 -205585.000000 0 0 1
35.223156 6.968559 10.001056 37.272679 0.195318 1.299146 0.030855 -0.017101 93013.300000 0 0 1
-35.128993 7.349559 10.990956 37.534827 -0.206242 1.273621 0.036968 -0.028688 -617969.000000 0 0 1
35.514713 8.282559 11.977056 38.384182 0.229120 1.253466 0.038926 -0.023298 -1101230.000000 0 0 1
34.601325 7.760159 12.849556 37.717142 0.220623 1.223154 0.022297 -0.029020 -63735.200000 0 0 1
34.179315 8.808159 13.720156 37.868878 0.252217 1.200055 0.037189 -0.020473 -321103.000000 0 0 1
33.332865 8.290759 14.892956 37.438172 0.243779 1.161677 0.032327 -0.028378 -592820.000000 0 0 1
32.015925 7.847559 14.658356 36.075906 0.240375 1.152374 0.015334 -0.022974 219705.000000 0 0 1
31.543715 7.376059 15.913156 36.092114 0.229709 1.114191 0.024182 -0.019298 -961368.000000 0 0 1
30.089255 6.986759 16.000856 34.788007 0.228158 1.092854 -0.004536 -0.013739 -1622130.000000 0 0 1
29.281525 8.098359 16.300756 34.477612 0.269824 1.078339 -0.009986 -0.016323 17089.300000 0 0 1
27.910325 7.781559 16.158156 33.175667 0.271901 1.062089 -0.002048 -0.012105 54911.200000 0 0 1
27.219905 7.206859 17.410456 33.105679 0.258825 1.017017 -0.006192 -0.012143 -649057.000000 0 0 1
27.123745 8.163859 18.427756 33.792430 0.292361 0.994023 0.005391 -0.016028 300286.000000 0 0 1
26.446365 7.703759 19.597356 33.805539 0.283454 0.952426 0.002831 -0.014381 -36846.100000 0 0 1
27.319875 6.916059 20.587656 34.900702 0.247942 0.939871 0.010801 -0.009110 -76749.600000 0 0 1
26.667785 6.699659 21.838156 35.113548 0.246133 0.899592 0.014147 -0.008935 141012.000000 0 0 1
27.359045 5.830059 22.765756 36.066419 0.209954 0.887674 0.025777 -0.010850 -739121.000000 0 0 1
26.733765 5.682859 24.190056 36.498601 0.209455 0.846289 0.032471 -0.006930 -441338.000000 0 0 1
25.454535 5.112859 24.204256 35.495361 0.198225 0.820440 0.022085 -0.003287 -263069.000000 0 0 1
24.494035 6.171859 24.223956 34.997852 0.246836 0.806325 0.020716 0.001666 424563.000000 0 0 1
22.978735 5.776259 24.179756 33.853331 0.246272 0.775244 0.017993 -0.000679 726301.000000 0 0 1
22.581335 5.253559 22.945256 32.619033 0.228584 0.790582 0.005072 0.011601 491136.000000 0 0 1
21.153935 5.204259 22.926756 31.626087 0.241228 0.759861 0.024324 -0.002409 -530265.000000 0 0 1
20.657035 4.303959 21.715756 30.278890 0.205414 0.771033 0.024052 -0.001796 1575780.000000 0 0 1
19.237335 4.432259 21.416456 29.127042 0.226447 0.744720 0.036664 -0.009126 2064620.000000 0 0 1
18.342735 3.934959 22.446156 29.253542 0.211321 0.696181 0.053339 -0.010867 1645750.000000 0 0 1
16.779935 3.986959 22.072256 28.011543 0.233277 0.663291 0.075890 -0.012308 1620180.000000 0 0 1
16.513935 3.077559 21.022256 26.909416 0.184248 0.674174 0.064943 -0.012625 -632372.000000 0 0 1
15.209535 3.104659 20.538156 25.744605 0.201360 0.647216 0.074458 -0.022466 -341170.000000 0 0 1
14.249935 2.085059 21.249356 25.669890 0.145290 0.595634 0.084149 -0.024578 -233702.000000 0 0 1
14.582135 0.693359 21.065356 25.629448 0.047513 0.606023 0.059560 -0.015181 543862.000000 0 0 1
13.695935 -0.056141 21.898256 25.828577 -0.004099 0.558916 0.057631 -0.019391 298457.000000 0 0 1
13.955735 -1.581841 21.873256 25.994309 -0.112865 0.570811 0.034825 -0.012168 -46587.600000 0 0 1
13.707135 -2.149841 20.627556 24.859675 -0.155574 0.592119 0.044382 -0.007580 64879.000000 0 1 0
13.810635 -3.578341 20.594956 25.053750 -0.253525 0.605828 0.038663 -0.000225 -124509.000000 0 0 1
13.526335 -4.283041 19.259056 23.921066 -0.306656 0.634938 0.037246 -0.002085 225961.000000 0 1 0
12.137535 -4.313441 18.988656 22.945470 -0.341460 0.596057 0.028349 -0.002661 -103253.000000 0 1 0
11.866935 -5.108941 17.873056 22.053833 -0.406536 0.625913 0.038255 -0.002267 221742.000000 0 1 0
10.379935 -5.354641 17.552356 21.083179 -0.476259 0.587139 0.038699 -0.007876 445622.000000 0 1 0
9.654635 -6.239041 18.433356 21.723863 -0.573715 0.557595 0.033328 -0.001552 -369251.000000 0 1 0
8.281835 -6.091841 18.178656 20.884512 -0.634200 0.514707 0.016502 -0.013340 -240462.000000 0 1 0
7.435535 -6.963541 19.160456 21.700257 -0.752630 0.488666 -0.001870 -0.013444 -534841.000000 0 1 0
7.498135 -8.342741 19.003856 22.067395 -0.838666 0.533222 -0.010562 -0.006881 -167696.000000 0 1 0
8.625435 -8.912041 19.613456 23.205824 -0.801739 0.563866 0.015944 -0.008472 -266791.000000 0 1 0
8.934235 -10.337941 19.098856 23.483183 -0.858106 0.620996 0.028262 -0.013550 -30204.900000 0 1 0
9.147235 -10.370041 17.762856 22.510636 -0.847969 0.661475 0.030829 -0.007954 1736.360000 0 1 0
9.600535 -11.656141 17.393956 23.034444 -0.881802 0.714947 0.032818 -0.009861 71530.900000 0 1 0
9.532935 -11.729041 15.845856 21.898365 -0.888321 0.761779 0.036963 -0.021259 207162.000000 0 1 0
10.165135 -12.807541 15.187756 22.316608 -0.899919 0.822272 0.031309 -0.023503 -125213.000000 0 1 0
9.658335 -12.993541 13.904556 21.341327 -0.931585 0.861194 0.019191 -0.014841 -648603.000000 0 1 0
10.259235 -14.193741 13.180256 21.918790 -0.944932 0.925641 0.029285 -0.021354 1927610.000000 0 1 0
11.696635 -14.167441 12.882756 22.438651 -0.880640 0.959252 0.019122 -0.019605 1713550.000000 0 1 0
12.037135 -13.411341 11.705056 21.488719 -0.839345 0.994757 0.003231 -0.013074 391909.000000 0 1 0
13.571335 -13.345241 11.377956 22.175087 -0.776999 1.032008 0.018914 -0.012480 740789.000000 0 1 0
14.126135 -14.499741 10.813056 22.950215 -0.798449 1.080199 0.025646 -0.014232 -6813.940000 0 1 0
15.349035 -14.180041 10.173556 23.241508 -0.745831 1.117721 0.031316 -0.026183 201838.000000 0 1 0
16.181435 -15.380341 9.637656 24.316211 -0.760022 1.163262 0.030572 -0.029220 4464.680000 0 1 0
16.683135 -16.168041 10.671056 25.565680 -0.769720 1.140217 0.031929 -0.020965 -279435.000000 0 0 1
15.813935 -17.158141 11.184556 25.876179 -0.826144 1.123828 0.064905 -0.012643 -184652.000000 0 0 1
16.209435 -17.876941 12.504456 27.178893 -0.834279 1.092711 0.046203 -0.013139 -708899.000000 0 0 1
17.245735 -18.784641 12.308456 28.315653 -0.828084 1.121105 0.058655 -0.020124 -595596.000000 0 0 1
17.539335 -19.307441 13.553656 29.395699 -0.833347 1.091589 0.028428 -0.020314 346383.000000 0 0 1
18.973835 -19.935441 13.564456 30.682612 -0.810107 1.112870 0.005659 -0.023545 822612.000000 0 0 1
19.945635 -18.946641 13.241156 30.530833 -0.759718 1.122204 0.013410 -0.026276 -113244.000000 0 0 1
21.270035 -19.457141 13.199256 31.705127 -0.740914 1.141410 0.003946 -0.029499 462229.000000 0 0 1
22.133435 -18.797141 12.105056 31.460353 -0.704067 1.175836 0.016785 -0.028456 -495779.000000 0 0 1
21.926235 -19.025241 10.671056 30.928805 -0.714677 1.218536 0.008189 -0.019291 -479661.000000 0 0 1
20.676635 -18.732341 10.104656 29.673690 -0.736102 1.223320 0.019695 -0.022072 -176187.000000 0 0 1
20.428035 -17.267641 9.876256 28.513444 -0.701754 1.217095 0.063568 -0.030486 -244776.000000 0 0 1
21.199535 -16.670141 8.876356 28.391963 -0.666359 1.252829 0.054369 -0.021674 -274557.000000 0 0 1
20.854135 -15.297041 8.807556 27.321556 -0.632874 1.242568 0.060294 -0.035080 79985.400000 0 0 1
-34.050049 24.800702 8.228356 42.920700 -0.629507 1.377891 0.051192 -0.000669 -568488.000000 0 0 1
-33.153379 24.092402 8.946056 41.947852 -0.628418 1.355880 0.056888 -0.011895 -218821.000000 0 0 1
-32.109439 24.786602 9.621456 41.688897 -0.657396 1.337905 0.049327 -0.000677 297514.000000 0 0 1
-31.102409 23.823602 10.308556 40.511605 -0.653646 1.313508 0.054132 -0.028879 183949.000000 0 0 1
-30.254849 23.184902 9.349056 39.246661 -0.653864 1.330271 0.046885 -0.023187 509130.000000 0 0 1
-29.368489 22.203902 9.884156 38.121096 -0.647359 1.308516 0.053417 -0.019837 509202.000000 0 0 1
-28.566979 21.432802 8.778456 36.776331 -0.643671 1.329771 0.051004 -0.025961 662399.000000 0 0 1
-29.462959 20.676002 7.899456 36.850568 -0.611908 1.354755 0.057994 -0.031125 1196580.000000 0 0 1
-28.817449 19.743302 7.022756 35.630919 -0.600667 1.372400 0.057785 -0.030001 -99430.900000 0 0 1
-29.951639 19.168202 6.173356 36.091979 -0.569293 1.398906 0.060526 -0.028328 -217794.000000 0 0 1
-30.727189 18.144602 6.754256 36.318131 -0.533410 1.383732 0.067045 -0.031933 -144578.000000 0 0 1
-31.653489 17.712802 5.799956 36.733176 -0.510172 1.412239 0.048373 -0.031881 -568221.000000 0 0 1
-32.375189 16.474402 6.320756 36.871543 -0.470710 1.398519 0.070820 -0.024658 -694370.000000 0 0 1
-33.213529 16.736502 7.404156 37.921900 -0.466768 1.374287 0.056914 -0.021754 -161698.000000 0 0 1
-33.909129 15.602502 7.786756 38.130049 -0.431243 1.365134 0.063993 -0.019864 -432062.000000 0 0 1
-34.911324 15.797102 8.926756 39.345088 -0.424925 1.341920 0.070195 -0.024117 338482.000000 0 0 1
35.237419 16.657102 8.682456 39.931438 0.441579 1.351611 0.075866 -0.020769 333994.000000 0 0 1
34.713655 17.102302 9.880456 39.939328 0.457765 1.320814 0.079907 -0.023095 -448325.000000 0 0 1
33.813515 18.324002 9.935056 39.721885 0.496614 1.317997 0.063064 -0.021761 -153829.000000 0 0 1
32.606765 18.060102 9.243056 38.403157 0.505814 1.327725 0.048697 -0.018269 148785.000000 0 0 1
31.891565 19.285902 9.087456 38.361436 0.543893 1.331632 0.037499 -0.009732 692205.000000 0 0 1
30.439525 19.209602 8.488156 36.981377 0.562955 1.339207 0.001789 -0.008096 423404.000000 0 0 1
30.057345 20.550202 8.281256 37.340781 0.599702 1.347162 -0.013546 -0.004563 735753.000000 0 0 1
28.712575 20.772002 7.802756 36.287339 0.626289 1.354077 -0.026656 -0.002621 960434.000000 0 0 1
28.469875 20.400902 6.291056 35.585221 0.621766 1.393074 -0.035722 0.008539 -454124.000000 0 0 1
28.651195 19.017102 5.975956 34.903483 0.585978 1.398735 -0.023460 0.003340 -15795.400000 0 0 1
28.429935 18.759102 4.600256 34.370444 0.583259 1.436550 -0.018893 0.001588 146210.000000 0 0 1
27.054165 18.998202 3.859356 33.282940 0.612220 1.454579 0.004163 0.007378 -128239.000000 0 0 1
26.086535 18.116102 4.378556 32.060446 0.606999 1.433796 -0.006186 -0.000108 1160740.000000 0 0 1
24.687435 18.345502 4.100256 31.029646 0.639077 1.438269 0.017854 -0.010492 1390950.000000 0 0 1
24.031635 19.693102 4.553356 31.401764 0.686498 1.425280 0.021340 -0.012173 -550961.000000 0 0 1
24.540035 20.822502 3.840456 32.412019 0.703629 1.452029 0.017908 -0.011409 218786.000000 0 0 1
23.978235 22.040402 4.354056 32.858680 0.743313 1.437897 0.028040 -0.008149 -30992.800000 0 0 1
24.788535 23.361402 4.189756 34.318808 0.755767 1.448408 0.012194 -0.002303 421826.000000 0 0 1
25.977735 23.443002 4.996556 35.346606 0.734154 1.428962 -0.001183 -0.006593 234095.000000 0 0 1
26.716155 24.500102 4.509956 36.528723 0.742157 1.447017 0.007391 -0.001674 -967922.000000 0 0 1
28.115035 24.568102 5.172056 37.693460 0.718174 1.433148 -0.008115 0.002225 -369133.000000 0 0 1
28.999865 23.516302 4.783156 37.641562 0.681359 1.443381 -0.011158 0.000896 302851.000000 0 0 1
29.600485 23.654702 3.510856 38.053380 0.674212 1.478404 -0.002482 -0.008652 -675090.000000 0 0 1
30.702045 24.703002 3.330956 39.546796 0.677542 1.486468 0.019151 -0.014070 -1196340.000000 0 0 1
30.210815 26.025702 3.435156 40.022878 0.711115 1.484861 0.018397 -0.014061 22992.300000 0 0 1
31.064265 26.957402 2.759456 41.222623 0.714734 1.503806 0.033246 -0.012555 -642445.000000 0 0 1
30.452195 28.401702 2.761956 41.732735 0.750572 1.504566 0.036112 -0.009994 -209779.000000 0 0 1
29.256715 28.528102 2.061056 40.915228 0.772790 1.520401 0.039875 -0.017603 -749413.000000 0 0 1
28.167965 28.084902 2.818656 39.876569 0.783922 1.500053 0.020823 -0.007949 -1717410.000000 0 0 1
26.790215 28.556902 2.376856 39.228327 0.817307 1.510169 0.023942 -0.003898 -390884.000000 0 0 1
26.512235 29.805002 2.973756 40.000999 0.843800 1.496386 0.018399 -0.009374 -419705.000000 0 0 1
25.318835 30.326802 2.490756 39.584873 0.875154 1.507833 0.018083 -0.005034 -520805.000000 0 0 1
25.061135 31.843802 2.805056 40.619657 0.904031 1.501685 0.019462 -0.015886 -382209.000000 0 0 1
24.904935 32.259002 4.175256 40.967447 0.913344 1.468703 0.022405 -0.035041 -217960.000000 0 0 1
26.016435 32.144402 5.011256 41.656093 0.890373 1.450204 0.012128 -0.034062 -479925.000000 0 0 1
25.694635 31.764502 6.471956 41.365251 0.890646 1.413692 0.017757 -0.038825 331066.000000 0 0 1
25.110435 30.463102 6.777056 40.055748 0.881419 1.400788 0.018568 -0.035264 305934.000000 0 0 1
25.997835 29.431202 6.539156 39.810094 0.847261 1.405790 0.010560 -0.032866 -189431.000000 0 0 1
25.335235 28.133602 7.096256 38.519222 0.837687 1.385512 0.020136 -0.020537 -93854.100000 0 0 1
24.134735 27.769002 6.487256 37.358899 0.855303 1.396265 0.017829 -0.029536 -430584.000000 0 0 1
23.728835 26.504002 6.943056 36.245354 0.840588 1.378048 0.026228 -0.022881 692881.000000 0 0 1
22.369135 25.999302 6.270256 34.866287 0.860310 1.389975 0.036995 -0.017045 911921.000000 0 0 1
22.327835 25.823302 4.892856 34.486449 0.857865 1.428438 0.029586 -0.021198 79944.300000 0 0 1
22.355235 27.062002 4.204656 35.352335 0.880357 1.451578 0.036093 -0.020110 -474558.000000 0 0 1
22.506735 26.829502 2.650256 35.119782 0.872793 1.495261 0.028054 -0.012855 29162.300000 0 0 1
23.783335 26.313002 2.302856 35.543272 0.835851 1.505961 0.017862 0.009129 594545.000000 0 0 1
23.681735 26.012702 0.957956 35.190949 0.832270 1.543571 0.027292 0.007565 458231.000000 0 0 1
25.019235 25.377502 0.483356 35.640052 0.792507 1.557234 0.037135 0.009189 215403.000000 0 0 1
26.142735 26.228202 0.327456 37.033341 0.787030 1.561954 0.031855 0.009027 951439.000000 0 0 1
27.103705 25.851502 -0.686044 37.461735 0.761756 1.589111 0.027180 0.017404 1598810.000000 0 0 1
28.108965 24.631602 -0.390544 37.376225 0.719560 1.581246 0.029796 0.005294 373489.000000 0 0 1
27.399885 23.433602 -0.570344 36.058462 0.707531 1.586614 0.031595 -0.000487 185911.000000 0 0 1
27.999415 22.343202 0.048556 35.821617 0.673513 1.569441 0.032054 -0.009420 -390850.000000 0 0 1
26.952105 21.533902 0.804956 34.507576 0.674112 1.547467 0.029188 -0.005889 83161.500000 0 0 1
26.266015 20.593102 0.005056 33.376330 0.664921 1.570645 0.036365 -0.019658 350403.000000 0 0 1
25.062335 20.094202 0.540356 32.127707 0.675819 1.553977 0.020801 -0.009158 -334052.000000 0 0 1
24.544435 18.894702 -0.265244 30.975948 0.656063 1.579359 0.027073 -0.016635 -335080.000000 0 0 1
23.297335 18.430802 0.233156 29.707147 0.669298 1.562948 0.029219 -0.015714 325358.000000 0 0 1
22.968935 17.206702 -0.386244 28.701772 0.642944 1.584254 0.036680 -0.030309 820338.000000 0 0 1
21.477835 16.769902 -0.124244 27.249631 0.662924 1.575356 0.035351 -0.014965 324611.000000 0 0 1
20.882235 15.793902 -0.953244 26.199689 0.647541 1.607188 0.031595 -0.017158 924584.000000 0 0 1
19.493735 15.598002 -0.671844 24.975082 0.674835 1.597700 0.035641 -0.013936 679114.000000 0 1 0
18.429835 16.589502 -1.179144 24.824600 0.732895 1.618313 0.034554 -0.016117 -461657.000000 0 1 0
18.508135 17.853802 -0.581744 25.722513 0.767405 1.593414 0.028436 -0.013455 41369.400000 0 0 1
17.401735 18.597202 -1.044944 25.490551 0.818594 1.611801 0.010478 -0.017976 136658.000000 0 0 1
17.504835 20.124002 -0.760444 26.682821 0.854891 1.599300 0.017686 -0.009652 -214657.000000 0 0 1
17.212535 20.510102 0.579956 26.781933 0.872593 1.549140 0.022640 -0.011492 -75954.900000 0 0 1
17.278135 21.888302 0.819956 27.898100 0.902566 1.541401 0.024817 -0.013754 474718.000000 0 0 1
16.062235 22.753502 0.313956 27.853470 0.956106 1.559524 0.019858 -0.019919 1118240.000000 0 0 1
14.886635 22.673802 1.137656 27.147881 0.989826 1.528878 0.020895 -0.012581 987390.000000 0 0 1
13.875735 23.603002 0.732356 27.389305 1.039336 1.544054 0.017499 -0.015299 467998.000000 0 0 1
12.494735 23.536102 1.409256 26.684311 1.082755 1.517960 0.021088 -0.016946 32631.500000 0 0 1
12.621335 23.941702 2.750356 27.204184 1.085650 1.469523 0.012753 -0.006590 -1178690.000000 0 0 1
11.421235 24.115002 3.358856 26.893490 1.128478 1.445575 0.000339 -0.006519 -1216770.000000 0 0 1
11.486335 24.394002 4.899856 27.404594 1.130725 1.391033 0.004400 -0.009555 143844.000000 0 0 1
12.008535 23.238702 5.645556 26.760315 1.093841 1.358232 0.011530 -0.011691 395630.000000 0 0 1
11.193135 23.026402 6.759156 26.479948 1.118330 1.312684 0.008043 0.002289 -520577.000000 0 0 1
11.785135 21.880302 7.605856 25.990114 1.076733 1.273805 0.016240 -0.004114 1092440.000000 0 0 1
13.010035 22.175502 8.321156 27.023240 1.040225 1.257784 0.029491 0.001394 951685.000000 0 0 1
14.174335 21.987802 7.549556 27.228128 0.998195 1.289844 0.019824 -0.000697 51308.100000 0 0 1
15.525235 22.112102 8.323156 28.271061 0.958652 1.271963 0.040177 -0.006704 147581.000000 0 0 1
15.623835 21.053502 9.264656 27.806258 0.932369 1.231116 0.049794 -0.008076 887075.000000 0 0 1
16.951035 20.920002 9.795056 28.651827 0.889819 1.221896 0.057461 -0.017058 703771.000000 0 0 1
17.172835 21.785102 11.086856 29.873320 0.903241 1.190572 0.039980 -0.011173 -417754.000000 0 0 1
16.483035 21.269502 12.225356 29.555735 0.911511 1.144351 0.057896 -0.013382 14863.700000 0 0 1
16.820235 21.735402 13.513056 30.625980 0.912197 1.113829 0.058605 -0.015656 98674.700000 0 0 1
18.074135 21.222702 14.305256 31.332376 0.865350 1.096666 0.023577 -0.005059 1057410.000000 0 0 1
19.299935 21.629102 13.701656 32.063077 0.842244 1.129254 0.023028 -0.002281 125936.000000 0 0 1
20.398835 21.444702 14.581156 32.993905 0.810388 1.113042 0.014030 -0.001696 941546.000000 0 0 1
21.781035 21.866102 13.966556 33.876313 0.787347 1.145840 0.012845 -0.004666 536669.000000 0 0 1
22.277935 20.919502 13.015756 33.216590 0.753961 1.168160 0.022681 0.002752 -13198.400000 0 0 1
23.587535 21.302202 12.645056 34.206038 0.734532 1.192139 0.006564 0.006839 -184954.000000 0 0 1
24.097535 20.560402 11.381556 33.659488 0.706358 1.225859 0.014100 0.003474 -265589.000000 0 0 1
23.833635 21.318502 10.211156 33.567668 0.729752 1.261702 0.019916 0.000493 186808.000000 0 0 1
24.753835 21.126402 9.178356 33.813006 0.706499 1.295903 0.038681 -0.007591 -605440.000000 0 0 1
24.547935 22.136102 8.062156 34.023616 0.733781 1.331563 0.013368 -0.011201 -110605.000000 0 0 1
24.782335 23.457502 8.451756 35.154668 0.757942 1.328002 0.016674 -0.003873 -392559.000000 0 0 1
26.108535 23.867602 8.455256 36.370446 0.740588 1.336174 0.003737 -0.001458 -1044420.000000 0 0 1
26.389375 25.063102 9.384356 37.584894 0.759627 1.318442 0.000455 -0.000106 -542902.000000 0 0 1
27.635835 25.639002 9.125856 38.786325 0.747934 1.333284 -0.011390 0.004485 -224391.000000 0 0 1
27.896995 26.798202 9.871356 39.922795 0.765311 1.320944 -0.002369 0.003464 89006.800000 0 0 1
29.133205 27.471902 9.255856 41.098903 0.756058 1.343638 -0.006154 0.005747 -3265.380000 0 0 1
28.827955 28.113702 8.024856 41.058854 0.772855 1.374082 -0.005712 -0.001289 -230020.000000 0 0 1
30.015145 28.432302 7.364356 41.994505 0.758323 1.394520 -0.004425 0.003313 -610096.000000 0 0 1
29.970775 29.408202 6.182356 42.441856 0.775924 1.424610 0.012515 -0.000917 -196941.000000 0 0 1
29.978495 30.794302 6.517756 43.468153 0.798821 1.420285 0.010569 -0.003881 178952.000000 0 0 1
30.202205 31.609102 5.369756 44.047051 0.808155 1.448583 0.002205 -0.018225 -8394.970000 0 0 1
30.274355 33.040902 5.824856 45.190338 0.829065 1.441541 -0.008249 -0.012296 163209.000000 0 0 1
29.006305 33.470602 6.280356 44.733542 0.856732 1.429936 -0.016796 -0.019667 309328.000000 0 0 1
29.100215 -34.052556 6.684556 45.288876 -0.863656 1.422657 -0.002769 -0.019878 -411699.000000 0 0 1
27.722865 -33.644656 7.183156 44.182777 -0.881597 1.407493 0.030251 -0.030048 -258629.000000 0 0 1
26.761425 -33.544656 6.150456 43.350270 -0.897407 1.428438 0.024882 -0.031733 306210.000000 0 0 1
25.564535 -32.918956 6.623156 42.202716 -0.910494 1.413208 0.007535 -0.033230 1244510.000000 0 0 1
24.246935 -33.003256 5.765256 41.356582 -0.937170 1.430937 0.034124 -0.019167 565412.000000 0 0 1
24.384835 -32.377256 4.556256 40.788066 -0.925284 1.458857 0.014957 0.001415 -40869.400000 0 0 1
23.301635 -32.425956 3.629656 40.094678 -0.947689 1.480145 0.019238 -0.008788 -159588.000000 0 0 1
23.682135 -31.900656 2.209156 39.791654 -0.932195 1.515250 0.013420 0.015512 -192820.000000 0 0 1
23.870735 -30.501556 2.248456 38.797067 -0.906751 1.512810 0.017837 0.015534 43899.800000 0 0 1
24.636935 -30.046556 1.151356 38.872866 -0.884003 1.541173 0.014000 0.023133 -268939.000000 0 0 1
24.923335 -28.479956 1.256856 37.866346 -0.851899 1.537598 0.018806 0.009003 789903.000000 0 0 1
23.764235 -27.599156 1.281556 36.443033 -0.859922 1.535623 0.004915 0.003814 768031.000000 0 0 1
23.137235 -27.510056 0.001956 35.946277 -0.871523 1.570742 0.016352 0.006162 -161180.000000 0 0 1
21.866535 -26.624556 0.016656 34.453049 -0.883207 1.570313 -0.001358 0.001211 -355347.000000 0 0 1
21.945335 -25.208556 0.090956 33.422706 -0.854492 1.568075 0.003168 -0.003381 -349185.000000 0 0 1
22.294935 -24.746856 1.388356 33.337644 -0.837473 1.529139 -0.009937 0.004337 -186086.000000 0 0 1
21.121835 -24.625356 2.374656 32.529664 -0.861833 1.497732 -0.017171 0.000895 -339722.000000 0 0 1
21.436735 -23.857956 3.492856 32.263535 -0.838802 1.462324 -0.020699 -0.002899 -218493.000000 0 0 1
20.296735 -23.660356 4.310656 31.469853 -0.861770 1.433387 -0.017261 -0.001237 168862.000000 0 0 1
20.472935 -22.717756 5.498556 31.072039 -0.837326 1.392898 -0.014630 -0.001594 -40563.500000 0 0 1
20.841035 -21.345356 5.204956 30.283073 -0.797352 1.398062 0.001820 0.000427 69089.600000 0 0 1
19.816535 -20.563756 4.613256 28.928277 -0.803901 1.410640 -0.000616 0.002186 -485052.000000 0 0 1
19.854935 -19.086056 5.068256 28.003271 -0.765656 1.388805 0.005350 0.007169 -216527.000000 0 0 1
19.565135 -18.870856 6.430056 27.932943 -0.767337 1.338517 0.033309 -0.006594 -172926.000000 0 0 1
18.266835 -19.212956 6.863556 27.384728 -0.810636 1.317461 0.032223 0.003886 -63942.100000 0 0 1
18.697051 -26.460478 -12.308144 34.658723 -0.955653 1.933843 0.039777 -0.012103 1052.510000 0 0 1
18.748151 -25.082468 -12.588444 33.750442 -0.928923 1.953022 0.050564 -0.012910 432237.000000 0 0 1
17.421151 -24.594698 -12.830944 32.757119 -0.954502 1.973274 0.036978 -0.012179 712429.000000 0 0 1
17.354051 -23.025798 -13.075344 31.659360 -0.924945 1.996543 0.034782 -0.017714 -24127.300000 0 0 1
17.495051 -22.109998 -12.008344 30.645214 -0.901399 1.973438 0.042271 -0.023697 -1253260.000000 0 0 1
18.661651 -22.112398 -11.285244 31.057561 -0.869828 1.942674 0.049496 -0.031853 -1461920.000000 0 0 1
18.627651 -22.833798 -9.902044 31.087332 -0.886499 1.894968 0.055322 -0.019069 604104.000000 0 0 1
17.734351 -22.266298 -8.899244 29.824349 -0.898214 1.873800 0.052125 -0.019709 154548.000000 0 0 1
16.368351 -22.473098 -9.114744 29.258189 -0.941294 1.887597 0.042722 -0.002235 -618425.000000 0 0 1
15.481551 -21.728698 -8.096744 27.881392 -0.951735 1.865441 0.038869 -0.011043 -1309320.000000 0 0 1
15.595151 -20.329798 -8.349644 26.948581 -0.916436 1.885817 0.035192 -0.020023 1273650.000000 0 0 1
14.456151 -19.527098 -7.897944 25.547317 -0.933524 1.885095 0.028074 -0.024191 2306540.000000 0 0 1
13.009551 -19.929298 -8.404944 25.240215 -0.992466 1.910278 0.028234 -0.005630 626105.000000 0 0 1
12.539851 -21.205498 -7.942444 25.884425 -1.036762 1.882670 0.027657 -0.006642 -895305.000000 0 0 1
11.154051 -21.287098 -8.101944 25.361288 -1.088148 1.895957 0.024676 -0.008024 -517713.000000 0 0 1
10.564251 -22.663698 -7.846444 26.207123 -1.134609 1.874861 0.023899 -0.005436 -189733.000000 0 0 1
10.870451 -23.216098 -6.552844 26.459284 -1.132887 1.821058 0.031894 -0.003790 -73920.100000 0 0 1
10.203551 -24.395898 -6.258844 27.174353 -1.174658 1.803205 0.024678 -0.002298 -365300.000000 0 0 1
10.632151 -24.982998 -4.924844 27.594328 -1.168438 1.750231 0.046572 -0.007690 -430077.000000 0 0 1
9.758151 -25.781998 -4.191344 27.883693 -1.208972 1.721683 0.051905 -0.016079 -925559.000000 0 0 1
10.381751 -26.360948 -3.075644 28.498069 -1.195620 1.678932 0.048480 -0.018832 -32623.700000 0 0 1
9.437051 -27.026418 -2.078144 28.701984 -1.234853 1.643264 0.050043 -0.014336 205874.000000 0 0 1
8.533051 -26.191358 -1.370544 27.580403 -1.255844 1.620509 0.052408 -0.014871 -198258.000000 0 0 1
7.650651 -26.995308 -0.635844 28.065699 -1.294631 1.593454 0.052229 -0.016658 -67214.500000 0 0 1
6.865051 -26.269808 0.461056 27.155926 -1.315184 1.553817 0.059181 -0.016903 -188698.000000 0 0 1
5.693151 -25.612798 0.075456 26.238009 -1.352075 1.567920 0.065335 -0.025023 -189270.000000 0 0 1
4.890251 -25.324478 1.238056 25.822017 -1.380041 1.522832 0.063434 -0.023168 -630726.000000 0 0 1
3.442351 -24.987598 1.065156 25.246077 -1.433896 1.528593 0.020879 -0.024654 -845794.000000 0 0 1
2.676851 -26.095858 0.598656 26.239622 -1.468576 1.547979 0.012324 -0.026348 -387286.000000 0 0 1
1.356151 -25.655168 0.397256 25.694058 -1.517985 1.555335 0.000827 -0.019284 150665.000000 0 0 1
0.261451 -26.631058 -0.088744 26.632490 -1.560979 1.574128 0.005137 -0.016718 284265.000000 0 0 1
-0.089949 -27.726248 0.729256 27.735983 1.567552 1.544501 0.006684 -0.009063 169810.000000 0 0 1
0.926151 -28.732778 0.734656 28.757087 -1.538574 1.545247 -0.005241 -0.013289 -64831.400000 0 0 1
0.522051 -29.946418 1.569256 29.992050 -1.553365 1.518450 0.004380 -0.005341 -104088.000000 0 0 1
0.672351 -29.676098 2.957356 29.830669 -1.548144 1.471495 -0.005684 -0.003760 87354.200000 0 0 1
0.245951 -30.787018 3.716356 31.011487 -1.562808 1.450670 0.001082 -0.003803 -228718.000000 0 0 1
0.351651 -30.492388 5.243556 30.941950 -1.559264 1.400510 -0.001459 -0.003504 -88119.500000 0 0 1
1.645551 -30.721368 5.757556 31.299517 -1.517284 1.385792 -0.006699 0.007554 -53221.200000 0 0 1
1.622251 -30.582788 7.147856 31.448855 -1.517801 1.341507 0.005396 0.006321 -369813.000000 0 0 1
2.960651 -31.024228 7.708256 32.104290 -1.475654 1.328327 0.011555 0.002658 -217491.000000 0 0 1
3.202151 -32.425818 7.474156 33.429784 -1.472362 1.345313 -0.003874 0.003234 509502.000000 0 0 1
4.556351 -32.771848 7.808956 33.996091 -1.432649 1.339025 0.004191 -0.000579 894926.000000 0 0 1
4.796751 -34.281055 7.732956 35.468270 -1.431775 1.351006 0.000522 0.011641 -188968.000000 0 0 1
4.715051 34.048262 6.435656 34.970466 1.433190 1.385710 -0.003313 0.016314 52876.600000 0 0 1
4.724051 32.603359 6.411456 33.561919 1.426903 1.378581 -0.012517 0.009027 -299576.000000 0 0 1
5.046351 32.116179 4.944756 32.884118 1.414943 1.419855 -0.001831 0.003948 938869.000000 0 0 1
6.428851 32.220829 4.529656 33.166696 1.373858 1.433796 0.003612 0.009061 870284.000000 0 0 1
7.052551 30.982939 4.373356 32.075025 1.346983 1.434023 0.004667 0.009110 -338866.000000 0 0 1
8.443551 31.087499 3.735356 32.429601 1.305588 1.455357 -0.001054 0.007105 -413547.000000 0 0 1
9.396651 31.566109 4.651556 33.261889 1.281468 1.430490 0.003276 -0.002219 -547001.000000 0 0 1
10.666951 31.417239 4.058456 33.426005 1.243483 1.449080 0.018797 -0.007540 -348063.000000 0 0 1
11.870951 31.865799 4.879556 34.353438 1.214193 1.428274 0.040561 -0.016060 -225276.000000 0 0 1
12.209051 30.859489 5.827756 33.694684 1.194060 1.396964 0.031741 -0.018818 122760.000000 0 0 1
13.376751 31.307739 6.516156 34.663702 1.167007 1.381689 0.051776 -0.017533 140160.000000 0 0 1
14.090751 30.245899 7.431456 34.184649 1.134821 1.351655 0.044644 -0.015540 -373422.000000 0 0 1
13.421051 29.802449 8.586356 33.794024 1.147665 1.313901 0.041030 -0.005087 220597.000000 0 0 1
14.220251 28.864129 9.317456 33.498783 1.113037 1.288936 0.045579 -0.011752 287861.000000 0 0 1
13.984251 28.999599 10.834956 33.969579 1.121472 1.246164 0.041996 0.001409 652252.000000 0 0 1
14.828051 30.031109 11.457156 35.397811 1.112156 1.241192 0.044776 0.006973 724698.000000 0 0 1
14.375551 30.390129 12.743656 35.952986 1.128954 1.208467 0.048273 0.006730 -216980.000000 0 0 1
15.140351 31.513239 13.442156 37.456722 1.122915 1.203738 0.046073 0.006155 778731.000000 0 0 1
16.325051 31.029389 14.127856 37.801145 1.086475 1.187757 0.037671 0.004417 774730.000000 0 0 1
17.035651 32.138919 14.642356 39.211250 1.083389 1.188101 0.037285 0.007201 -101970.000000 0 0 1
18.287851 31.828039 15.492456 39.843265 1.049275 1.171430 0.041291 0.007397 -171363.000000 0 0 1
19.371151 31.263409 14.791856 39.641408 1.016082 1.188403 0.011305 0.012066 -52607.100000 0 0 1
19.479551 29.875779 14.737156 38.590139 0.993004 1.178957 0.006500 0.016120 -10492.500000 0 0 1
20.851551 29.367159 14.220356 38.722548 0.953371 1.194760 0.011447 0.007605 975213.000000 0 0 1
21.959751 29.511399 15.139256 39.778768 0.931075 1.180366 0.007158 0.010645 1317050.000000 0 0 1
23.211651 29.238569 14.488556 40.044886 0.899804 1.200590 0.008636 0.010580 857204.000000 0 0 1
24.445351 29.175099 15.425856 41.069680 0.873378 1.185750 0.018720 0.003258 14266.300000 0 0 1
24.582451 27.968849 16.169456 40.595624 0.849749 1.161128 0.013381 0.008630 54353.100000 0 0 1
25.093151 28.151099 17.476956 41.564343 0.842768 1.136823 0.011108 0.000328 -445413.000000 0 0 1
26.134351 27.134999 17.907956 41.713396 0.804181 1.127068 0.001631 -0.002082 -395464.000000 0 0 1
25.524251 25.945129 18.298956 40.736825 0.793575 1.104927 -0.004797 0.003050 596571.000000 0 0 1
24.875151 25.928089 19.658956 40.957460 0.806121 1.070159 -0.001176 -0.001596 298013.000000 0 0 1
24.368951 24.474339 19.899456 39.860098 0.787556 1.048084 0.005695 -0.004353 -43911.200000 0 0 1
25.440551 23.562959 20.046156 40.053502 0.747101 1.046638 0.007267 -0.007336 -92248.300000 0 0 1
24.949251 22.277059 20.402456 39.178983 0.728876 1.023067 0.015607 -0.008554 -42212.700000 0 0 1
25.857851 21.014659 20.274856 39.004027 0.682437 1.024163 0.007702 -0.006655 -261259.000000 0 0 1
25.161951 19.777859 20.350356 37.926567 0.666160 1.004426 0.006325 0.009660 230467.000000 0 0 1
26.004351 18.626359 20.378856 37.927105 0.621568 1.003544 0.004930 0.007003 499285.000000 0 0 1
26.778551 18.406959 21.709556 39.079557 0.602204 0.981806 0.038651 0.014622 -62855.200000 0 0 1
25.817651 18.012659 22.623556 38.766381 0.609172 0.947657 0.022709 0.016249 -91635.500000 0 0 1
26.413251 17.757059 23.853756 39.774045 0.591878 0.927631 0.043677 0.020052 -136476.000000 0 0 1
25.550051 17.073459 24.973856 39.598000 0.589088 0.888361 0.023671 0.023564 23111.400000 0 0 1
25.347751 15.670759 24.793956 38.766241 0.553717 0.876850 0.019767 0.018778 33853.300000 0 0 1
24.122151 15.288359 25.352756 38.188668 0.564895 0.844799 0.007378 0.017868 -706609.000000 0 0 1
23.555851 14.041659 24.669756 36.886897 0.537547 0.838210 0.012374 0.012692 -88593.200000 0 0 1
22.354751 13.596059 25.273956 36.378023 0.546424 0.802712 0.008130 0.004966 43350.300000 0 0 1
21.789751 12.541359 24.623556 35.190886 0.522257 0.795799 0.010355 0.005040 -428819.000000 0 0 1
20.538851 11.988159 25.289456 34.714794 0.528335 0.754678 0.015373 -0.001474 379289.000000 0 0 1
19.280051 12.663159 25.147256 34.124192 0.581141 0.742274 0.014837 -0.001709 54566.800000 0 0 1
18.253251 11.812559 25.501556 33.511895 0.574368 0.705989 0.013048 0.001136 -904478.000000 0 0 1
16.905751 12.536859 25.528356 33.085861 0.638086 0.689477 0.007066 -0.004213 -548756.000000 0 0 1
16.739451 13.378459 26.671356 34.213355 0.674263 0.676834 0.010812 -0.003730 -1125310.000000 0 0 1
15.495451 13.943359 26.729556 33.896835 0.732724 0.662339 0.012029 -0.004249 -1298290.000000 0 0 1
15.259851 14.257359 28.195056 35.086985 0.751448 0.637517 0.008592 0.008005 -382971.000000 0 0 1
14.935551 13.031059 28.842156 34.996416 0.717404 0.602104 0.019305 0.006194 -20605.400000 0 0 1
15.012251 13.211059 30.251856 36.263957 0.721665 0.584093 0.011142 0.003903 -357486.000000 0 0 1
16.433551 13.064859 30.820256 37.291290 0.671692 0.597982 0.009893 0.016248 -102582.000000 0 0 1
17.336251 14.043759 30.346356 37.665290 0.680857 0.633965 0.018264 0.007078 1218830.000000 0 0 1
18.737851 13.667059 30.442156 38.270360 0.630175 0.651047 0.023838 0.013382 1473050.000000 0 0 1
19.649451 14.900359 30.120956 38.928057 0.648798 0.686042 0.026304 0.009867 -327546.000000 0 0 1
19.419951 15.634959 28.881856 38.154267 0.677842 0.712124 0.020257 0.006712 345300.000000 0 0 1
19.375351 14.850359 27.695356 36.918426 0.653950 0.722467 0.025503 0.003322 -443649.000000 0 0 1
19.202851 15.575859 26.391456 36.164428 0.681486 0.752821 0.003373 0.003902 -48052.200000 0 0 1
20.399351 16.232959 26.008456 36.825022 0.672149 0.786579 0.002484 0.018563 334839.000000 0 0 1
20.382451 16.693859 24.706956 36.118734 0.686238 0.817498 -0.004635 0.010754 -811886.000000 0 0 1
21.590751 17.485259 24.275956 36.894673 0.680718 0.852663 -0.001981 0.014716 -1134040.000000 0 0 1
21.418451 17.984959 22.938856 36.171811 0.698481 0.883870 -0.009679 0.009454 549894.000000 0 0 1
22.519951 18.712659 22.371656 36.848376 0.693322 0.918356 -0.005771 0.008521 251710.000000 0 0 1
22.728351 20.125059 23.013956 38.095119 0.724724 0.922137 0.002725 0.001001 -774371.000000 0 0 1
21.805751 21.060859 22.652256 37.844092 0.768023 0.929084 0.000887 0.005557 -453653.000000 0 0 1
22.098251 22.258659 23.310456 39.078869 0.789014 0.931666 0.004971 0.006273 -168834.000000 0 0 1
21.223951 23.453959 22.895956 39.048292 0.835270 0.944251 -0.005270 0.007634 -68289.100000 0 0 1
21.470551 24.080419 21.641856 38.848695 0.842631 0.979930 0.010224 0.003474 -651549.000000 0 0 1
20.569451 25.084389 21.464756 38.898132 0.883973 0.986252 0.012127 0.005747 -734111.000000 0 0 1
20.945751 26.135219 20.377456 39.204781 0.895179 1.024215 0.007731 0.002152 -223588.000000 0 0 1
21.059451 25.572059 19.019656 38.199188 0.881869 1.049612 0.001457 -0.000556 191891.000000 0 0 1
21.541051 26.532849 18.093556 38.670218 0.888863 1.083890 0.006519 -0.003533 -330814.000000 0 0 1
21.516751 26.028159 16.635556 37.645416 0.880002 1.113079 0.000798 0.010993 -873844.000000 0 0 1
20.294351 25.886499 15.998456 36.577618 0.905904 1.118109 0.008257 0.007386 -920729.000000 0 0 1
20.444151 25.500719 14.663956 35.822920 0.895014 1.149060 0.016688 0.010481 -1207220.000000 0 0 1
19.134951 25.043019 14.030856 34.498755 0.918343 1.151951 0.028795 -0.000125 -448113.000000 0 0 1
18.247951 26.077999 13.774656 34.681276 0.960241 1.162356 0.035390 -0.002651 -71087.000000 0 0 1
17.331851 26.480229 14.816056 34.944400 0.991250 1.132951 0.032496 -0.001819 483897.000000 0 0 1
15.827851 26.196409 14.498256 33.866977 1.027295 1.128413 0.051743 -0.014351 256519.000000 0 0 1
15.475551 24.793959 14.546156 32.646956 1.012797 1.108997 0.051715 -0.008015 41612.900000 0 0 1
15.341951 24.216669 15.870256 32.767172 1.006088 1.065195 0.048886 -0.000101 197250.000000 0 0 1
14.142651 24.648499 16.783756 33.003902 1.049884 1.037310 0.077073 -0.015745 300531.000000 0 0 1
14.385651 25.951089 17.260356 34.326751 1.064629 1.043932 0.059882 -0.017524 1135940.000000 0 0 1
13.218451 26.489809 17.938556 34.615448 1.107948 1.026023 0.071854 -0.016812 932100.000000 0 0 1
13.615651 27.823699 18.645156 36.155028 1.115701 1.028972 0.063431 -0.023209 -159159.000000 0 0 1
13.953551 28.946289 17.787156 36.728356 1.121612 1.065245 0.064876 -0.023932 641710.000000 0 0 1
14.649351 29.988939 18.553756 38.186147 1.116398 1.063430 0.044513 -0.016198 272373.000000 0 0 1
14.560151 31.415639 17.920056 38.988059 1.136799 1.093219 0.049857 -0.019486 -275468.000000 0 0 1
13.272251 31.976259 17.905756 38.977556 1.177370 1.093492 0.058069 -0.010967 -224270.000000 0 0 1
13.154051 33.284695 17.348656 39.772803 1.194436 1.119432 0.053029 -0.010645 -408416.000000 0 0 1
11.698551 33.785009 17.262056 39.702160 1.237453 1.120993 0.044501 -0.011182 -278496.000000 0 0 1
11.419351 -33.805308 16.649156 39.375054 -1.245033 1.134225 0.048395 -0.006126 -222057.000000 0 0 1
11.909451 -32.593128 17.165056 38.714160 -1.220471 1.111431 0.041555 -0.010908 -387043.000000 0 0 1
11.965251 -32.212968 18.684656 39.114690 -1.215149 1.072774 0.043703 -0.018054 -447039.000000 0 0 1
12.852351 -33.018668 19.422656 40.406125 -1.199596 1.069360 0.054440 -0.018928 179995.000000 0 0 1
12.667751 -32.800098 20.803656 40.854749 -1.202233 1.036529 0.052349 -0.020428 -313308.000000 0 0 1
13.712151 -33.552348 21.640056 42.214633 -1.182830 1.032563 0.061154 -0.021100 620496.000000 0 0 1
15.013651 -32.968988 21.435956 42.093517 -1.143472 1.036488 0.060900 -0.021591 551803.000000 0 0 1
15.908351 -33.242678 22.505256 43.181453 -1.124454 1.022565 0.070630 -0.020649 -838252.000000 0 0 1
17.200351 -32.532278 22.255856 43.006097 -1.084440 1.026864 0.074272 -0.021048 -1035830.000000 0 0 1
17.223251 -31.119108 22.554556 42.115879 -1.065299 1.005654 0.074441 -0.020342 -160955.000000 0 0 1
18.411451 -30.546078 22.085456 41.950111 -1.028362 1.016354 0.060512 -0.012911 -415977.000000 0 0 1
-5.110649 12.869502 18.713857 23.279846 -1.192781 0.637031 0.020419 0.002478 -135661.000000 0 1 0
-4.648249 14.145102 18.236957 23.543082 -1.253301 0.684681 0.020956 -0.004154 158117.000000 0 1 0
-5.706349 14.861002 17.654757 23.771879 -1.204175 0.733742 0.012968 -0.000351 -199847.000000 0 1 0
-5.323349 16.357002 17.416457 24.479022 -1.256160 0.779187 0.019573 -0.012439 -68252.800000 0 1 0
-5.226049 17.133102 18.619557 25.836847 -1.274735 0.766044 0.038156 -0.003290 146128.000000 0 0 1
-4.806549 18.441402 18.363757 26.465369 -1.315830 0.803935 0.034540 0.003732 -516665.000000 0 0 1
-4.054149 19.044202 19.536657 27.582579 -1.361046 0.783714 0.030434 0.002068 -641786.000000 0 0 1
-4.864249 19.404802 20.600157 28.715391 -1.325185 0.770747 0.019695 -0.001978 -102906.000000 0 0 1
-4.126149 20.134702 21.600657 29.816433 -1.368668 0.760553 0.018418 0.006824 605339.000000 0 0 1
-4.979449 20.529402 22.887257 31.146071 -1.332840 0.745371 0.010849 0.008696 471539.000000 0 0 1
-5.451849 19.434202 23.651857 31.093748 -1.297298 0.706463 0.011629 -0.003795 -352776.000000 0 0 1
-6.216049 19.812602 24.735387 32.295786 -1.266780 0.698354 0.010087 -0.010674 391817.000000 0 0 1
-5.281049 20.372002 25.889957 33.364619 -1.317149 0.682544 0.001920 -0.008616 -63651.400000 0 0 1
-4.917249 21.731902 25.657127 33.981510 -1.348275 0.715093 0.018449 -0.007329 252420.000000 0 0 1
-3.876649 22.159902 26.515567 34.773049 -1.397609 0.703578 0.017449 0.000766 -356443.000000 0 0 1
-2.433849 21.748002 26.301557 34.215071 -1.459349 0.693970 0.018119 0.004619 -1268580.000000 0 0 1
-2.184849 20.394702 26.572887 33.568374 -1.464075 0.657365 0.032821 0.004894 54847.000000 0 0 1
-0.802549 20.075902 26.531107 33.280408 -1.530842 0.648155 0.031950 0.007109 332713.000000 0 0 1
-0.345749 18.689402 26.988957 32.830124 -1.552299 0.605743 0.038732 0.013018 -168199.000000 0 0 1
-0.658449 17.673602 26.074157 31.506371 -1.533557 0.596007 0.048940 0.008924 -218467.000000 0 0 1
-0.231149 16.421402 26.557307 31.225092 -1.556721 0.553839 0.044740 0.006584 -255621.000000 0 0 1
1.251651 16.037802 26.472527 30.976965 1.492910 0.546040 0.063095 0.001062 -286159.000000 0 0 1
1.763951 15.650502 25.187597 29.706308 1.458561 0.558809 0.061591 0.004169 -155860.000000 0 0 1
1.367251 14.392502 24.653997 28.580291 1.476083 0.530365 0.073556 -0.004149 -54387.000000 0 0 1
1.572751 14.308202 23.117257 27.232439 1.461316 0.556921 0.088293 -0.014976 1513290.000000 0 0 1
2.946451 14.086002 22.695757 26.873675 1.364594 0.565100 0.068278 -0.013265 976648.000000 0 0 1
2.970551 13.669802 21.373057 25.543986 1.356816 0.579538 0.061741 -0.018521 495120.000000 0 0 1
4.360551 13.490402 20.677657 25.071315 1.258163 0.601030 0.049351 -0.020021 544148.000000 0 0 1
4.940251 14.757702 20.385557 25.646964 1.247765 0.652032 0.034921 -0.014137 -36706.500000 0 0 1
6.316951 14.661402 20.078157 25.651373 1.163976 0.671752 0.023886 -0.012370 -38866.200000 0 0 1
6.756151 15.811002 19.132857 25.723521 1.166973 0.732076 0.027786 -0.014481 -38404.500000 0 0 1
6.243951 15.715102 17.794757 24.548008 1.192601 0.759913 0.023758 -0.022451 462576.000000 0 1 0
6.690051 16.801802 16.951457 24.787279 1.191865 0.817733 0.021233 -0.012987 -62184.400000 0 1 0
6.481651 16.323602 15.491257 23.419026 1.192816 0.848004 0.013303 -0.006550 405072.000000 0 1 0
7.366651 15.350402 14.866357 22.603339 1.123358 0.853027 0.013825 -0.011589 562472.000000 0 1 0
7.483751 14.071302 15.493957 22.227702 1.081998 0.799513 0.020579 -0.017249 -56190.200000 0 1 0
8.606951 13.259802 14.783157 21.643559 0.995053 0.818896 0.021524 -0.018272 747059.000000 0 1 0
9.911551 13.820702 14.919357 22.623833 0.948651 0.850705 0.023011 -0.019045 136803.000000 0 1 0
10.827051 13.180902 14.065757 22.108974 0.883130 0.881232 0.023572 -0.014115 1213010.000000 0 1 0
12.303151 13.756202 14.209257 23.291706 0.841100 0.914664 0.037530 -0.002928 83980.600000 0 1 0
12.965251 13.279902 15.328457 24.071043 0.797386 0.880455 0.034561 -0.010335 199473.000000 0 1 0
14.314351 13.708002 15.463857 25.138433 0.763763 0.908223 0.030784 -0.006337 462986.000000 0 0 1
15.303651 13.026902 14.469757 24.764405 0.705207 0.946783 0.023304 -0.008670 -1616130.000000 0 1 0
16.616651 13.345102 14.810157 25.952756 0.676638 0.963489 0.026458 -0.013265 2.682830 0 0 1
17.499351 12.724002 13.856557 25.693028 0.628692 1.001176 0.027254 -0.016113 -86075.100000 0 0 1
18.907851 13.301602 13.748157 26.897049 0.613069 1.034286 0.021558 -0.012003 -603.290000 0 0 1
19.867351 12.780302 14.670957 27.807997 0.571638 1.015046 0.009335 -0.012081 971168.000000 0 0 1
21.119751 13.474402 14.535557 28.963525 0.567893 1.045052 0.006580 -0.015973 441810.000000 0 0 1
22.017951 13.248202 15.758757 30.143713 0.541669 1.020679 0.003612 -0.007022 -290057.000000 0 0 1
22.417651 11.912602 15.953957 29.983160 0.488446 1.009721 0.011987 -0.011422 675780.000000 0 0 1
23.351351 11.798202 17.036257 31.220461 0.467836 0.993601 0.002946 -0.008016 -3782.770000 0 0 1
23.663051 10.368402 17.427157 31.163272 0.412971 0.977350 0.012980 0.001933 -544807.000000 0 0 1
22.576751 9.829102 18.140957 30.584559 0.410616 0.935842 -0.014498 0.004065 357455.000000 0 0 1
22.573351 8.438902 17.977257 30.065811 0.357756 0.929880 -0.003363 0.007315 -442710.000000 0 0 1
21.232651 7.800602 18.336557 29.118794 0.352080 0.889609 0.019496 0.001082 -528972.000000 0 0 1
21.181251 6.391602 18.343457 28.739874 0.293068 0.878563 0.032264 0.000679 119004.000000 0 0 1
19.841151 5.961302 18.357657 27.680534 0.291871 0.845714 0.030366 0.001837 -365335.000000 0 0 1
19.714951 4.484802 17.939757 27.030124 0.223676 0.845049 0.053461 0.000391 -415732.000000 0 0 1
19.699251 4.286202 16.537457 26.075266 0.214243 0.883797 0.079938 -0.012719 271114.000000 0 0 1
19.790151 2.935102 16.100557 25.680592 0.147238 0.893159 0.073947 -0.017010 -149611.000000 0 0 1
18.655151 1.933402 16.394657 24.910590 0.103270 0.852451 0.092307 -0.018322 -147312.000000 0 1 0
18.821251 1.489702 17.737557 25.905205 0.078985 0.816590 0.075364 -0.018795 -61348.000000 0 0 1
17.617651 1.017202 18.303857 25.425332 0.057674 0.767129 0.078404 -0.011733 -280071.000000 0 0 1
17.623051 0.282802 19.650457 26.396825 0.016046 0.731123 0.056518 -0.013814 -353395.000000 0 0 1
18.233251 -0.959998 19.517857 26.726761 -0.052602 0.752074 0.058740 -0.011931 -220720.000000 0 0 1
17.362951 -1.943798 19.999957 26.556519 -0.111487 0.718021 0.043309 -0.006657 -124734.000000 0 0 1
17.656851 -3.369898 19.526957 26.540962 -0.188587 0.744054 0.036550 -0.002791 -77834.900000 0 0 1
17.235451 -3.532598 18.190257 25.306629 -0.202161 0.768730 0.043762 -0.003545 223010.000000 0 0 1
17.258351 -4.869198 17.744657 25.227616 -0.274988 0.790652 0.052928 -0.002618 -206530.000000 0 0 1
16.751651 -4.941998 16.292957 23.885175 -0.286878 0.820115 0.045915 -0.007061 528606.000000 0 1 0
15.409051 -4.439698 16.147857 22.757483 -0.280525 0.781919 0.032780 0.003452 738026.000000 0 1 0
14.945451 -4.596498 14.817057 21.541576 -0.298370 0.812294 0.033267 -0.007961 162778.000000 0 1 0
15.360551 -3.457398 13.813157 20.945248 -0.221393 0.850658 0.034058 -0.009320 -197311.000000 0 1 0
14.762451 -2.202598 13.957557 20.435136 -0.148110 0.818910 0.037819 -0.006776 435773.000000 0 1 0
15.518451 -1.154998 13.299157 20.470074 -0.074290 0.863623 0.051540 -0.012796 415822.000000 0 1 0
14.629451 0.094802 13.175257 19.687997 0.006480 0.837661 0.050077 -0.008874 -488047.000000 0 1 0
15.259951 1.227902 12.676257 19.876150 0.080293 0.879207 0.062582 -0.009286 153805.000000 0 1 0
16.070651 1.919002 13.613057 21.148610 0.118848 0.871492 0.073815 -0.015282 142200.000000 0 1 0
16.458151 3.275502 12.991057 21.221857 0.196453 0.912014 0.077815 -0.018050 -272303.000000 0 1 0
15.344451 4.087902 13.190457 20.643432 0.260362 0.877643 0.083835 -0.014258 119064.000000 0 1 0
15.352751 5.248802 12.399357 20.420601 0.329423 0.918266 0.072120 -0.021838 -1079980.000000 0 1 0
14.245751 6.214002 12.639157 20.032562 0.411319 0.888044 0.069383 -0.020663 -1121930.000000 0 1 0
14.430451 7.508002 12.102757 20.275224 0.479747 0.931135 0.045997 -0.020760 -122808.000000 0 1 0
13.404251 8.433602 12.313357 20.060367 0.561595 0.909912 0.032286 -0.011307 -512058.000000 0 1 0
13.621351 9.274602 13.578757 21.352800 0.597783 0.881591 0.048156 -0.015212 -48148.500000 0 1 0
13.370751 8.714402 14.863257 21.809039 0.577605 0.820961 0.060138 -0.016291 523951.000000 0 1 0
13.776151 9.645602 15.890957 23.137469 0.610838 0.813711 0.064064 -0.019643 -68371.800000 0 1 0
13.466651 9.244202 17.303857 23.795575 0.601575 0.756580 0.069816 -0.016913 -172413.000000 0 1 0
12.075551 9.333902 17.519257 23.234995 0.658033 0.716661 0.064147 -0.024291 -202816.000000 0 1 0
11.573951 8.667402 18.679257 23.621914 0.642778 0.658747 0.072043 -0.020447 24857.300000 0 1 0
12.147951 9.002002 20.108857 25.158992 0.637736 0.644715 0.071787 -0.020480 -661859.000000 0 0 1
13.507951 8.674002 20.157357 25.768626 0.570830 0.672536 0.063152 -0.017605 -575272.000000 0 0 1
14.002751 8.855802 21.483657 27.130237 0.563927 0.656929 0.053510 -0.010710 462432.000000 0 0 1
15.522151 8.511202 21.563757 27.899343 0.501557 0.687377 0.048298 -0.011840 276625.000000 0 0 1
16.287551 9.414402 20.849057 28.081995 0.524095 0.734098 0.056727 -0.006791 -492152.000000 0 0 1
17.107951 8.809602 19.884357 27.670900 0.475530 0.769007 0.051654 -0.008598 -211979.000000 0 0 1
17.932551 9.814902 19.051657 27.944128 0.500786 0.820608 0.051569 -0.008576 -48730.900000 0 0 1
18.776251 10.531902 19.919657 29.330211 0.511185 0.824190 0.026505 -0.005725 388760.000000 0 0 1
19.651351 11.473602 19.290657 29.832006 0.528466 0.867621 0.014536 -0.000805 601343.000000 0 0 1
20.562751 12.331702 20.191757 31.346525 0.540207 0.870889 -0.000313 0.001897 -143362.000000 0 0 1
19.813651 13.387702 20.805957 31.696990 0.594217 0.854757 0.006279 -0.001806 377050.000000 0 0 1
20.531951 14.248902 21.675857 33.082246 0.606679 0.856334 -0.003261 0.009156 415830.000000 0 0 1
21.805251 14.956902 21.051957 33.798857 0.601221 0.898403 -0.009936 0.006360 1487690.000000 0 0 1
22.984251 14.123902 21.046857 34.215940 0.551016 0.908260 -0.017701 0.007404 656626.000000 0 0 1
24.202551 14.828702 20.979057 35.295534 0.549699 0.934298 0.003022 0.008902 180955.000000 0 0 1
25.432551 13.903402 20.821257 35.688149 0.500289 0.947860 0.009671 0.004224 -162251.000000 0 0 1
25.588151 13.230802 19.577157 34.829192 0.477208 0.973885 0.001342 0.003169 96737.100000 0 0 1
26.630651 12.297302 19.749857 35.362014 0.432601 0.978214 0.010005 -0.003796 -30839.100000 0 0 1
26.904051 11.542302 18.430557 34.593903 0.405268 1.008927 0.016234 -0.002788 -314154.000000 0 0 1
27.512551 12.415702 17.445557 34.863126 0.423913 1.046734 0.018542 -0.009999 548777.000000 0 0 1
27.817251 11.815602 16.151357 34.267685 0.401666 1.079999 0.026306 -0.019038 -89643.400000 0 0 1
26.572251 11.513002 15.290157 32.747864 0.408856 1.085008 0.015620 -0.028694 -137381.000000 0 0 1
26.031451 12.672402 14.587557 32.419485 0.453041 1.104073 0.025289 -0.029445 850824.000000 0 0 1
25.087751 12.190902 13.590357 31.027587 0.452329 1.117414 0.024976 -0.023864 507692.000000 0 0 1
24.674751 13.234202 12.479557 30.654963 0.492300 1.151522 0.017519 -0.025653 70766.900000 0 0 1
23.993851 14.362502 13.057557 30.862374 0.539383 1.133944 0.004924 -0.020983 490634.000000 0 0 1
23.476051 15.141302 11.999857 30.403627 0.572830 1.165071 -0.010665 -0.014276 -210345.000000 0 0 1
22.753151 16.442202 12.467057 30.716109 0.625756 1.152855 -0.008406 -0.008649 327291.000000 0 0 1
21.417051 16.261402 12.943057 29.843692 0.649410 1.122207 0.007565 -0.016503 734370.000000 0 0 1
20.760451 17.495902 13.173757 30.176991 0.700271 1.119036 0.003430 -0.008974 -670766.000000 0 0 1
20.159751 18.333202 11.984757 29.768376 0.737982 1.156441 0.016406 -0.007831 336026.000000 0 0 1
18.931951 17.865302 11.437657 28.432512 0.756419 1.156797 0.031640 -0.007201 -415504.000000 0 0 1
17.817051 17.910302 12.242657 28.073277 0.788008 1.119540 0.033318 -0.008130 -1360810.000000 0 0 1
16.624851 17.335602 11.429957 26.599862 0.806324 1.126636 0.042192 -0.002904 -207858.000000 0 0 1
16.587551 15.938602 11.532357 25.732880 0.765449 1.106094 0.037309 0.000730 1010930.000000 0 0 1
15.447751 15.409002 10.808357 24.349351 0.784142 1.110865 0.034475 -0.005495 687148.000000 0 1 0
15.701151 14.023002 10.087557 23.343725 0.729001 1.123941 0.036183 -0.014066 -313875.000000 0 1 0
15.854251 12.893802 10.925057 23.172489 0.682781 1.079843 0.044282 -0.010604 294801.000000 0 1 0
16.392351 11.812702 10.262057 22.661838 0.624433 1.100855 0.038349 -0.011927 -397217.000000 0 1 0
16.489951 10.549102 10.998257 22.453589 0.569121 1.058911 0.033230 -0.013466 -158660.000000 0 1 0
17.139051 9.508502 10.242557 22.114896 0.506510 1.089248 0.029787 -0.017794 709112.000000 0 1 0
17.638451 8.340602 10.939657 22.368654 0.441705 1.059782 0.032938 -0.015464 641295.000000 0 1 0
19.022951 8.494702 11.635657 23.862547 0.419981 1.061444 0.036530 -0.019546 21013.200000 0 1 0
18.892151 9.339802 12.775257 24.644522 0.459137 1.025839 0.039262 -0.020439 539380.000000 0 1 0
20.026651 9.300602 13.643057 25.955750 0.434773 1.017344 0.038412 -0.024257 -242957.000000 0 0 1
19.606851 9.404902 15.152557 26.504354 0.447255 0.962219 0.028771 -0.002526 69420.200000 0 0 1
18.989151 8.258802 15.728757 26.003643 0.410245 0.921197 0.043430 -0.011614 645379.000000 0 0 1
17.609251 8.136602 15.421357 24.781208 0.432841 0.899118 0.059056 -0.017907 -6914.790000 0 1 0
16.929951 6.849102 15.983357 24.269345 0.384427 0.851863 0.065824 -0.017875 -212349.000000 0 1 0
16.520151 6.879302 17.344557 24.921353 0.394580 0.801024 0.091539 -0.009808 -134999.000000 0 1 0
15.973051 5.694902 17.714657 24.523037 0.342482 0.763576 0.106839 0.001467 875642.000000 0 1 0
14.380851 5.610702 17.718457 23.499629 0.371987 0.716683 0.088990 -0.010712 1357160.000000 0 1 0
13.855351 4.334902 17.986357 23.114306 0.303220 0.679084 0.090457 -0.008416 83476.500000 0 1 0
13.612151 3.688602 16.761457 21.905316 0.264624 0.699479 0.096811 -0.010989 -146673.000000 0 1 0
13.285951 2.168502 16.881257 21.591566 0.161791 0.673177 0.077245 -0.009237 -128276.000000 0 1 0
14.461351 1.411302 16.990957 22.356544 0.097283 0.707484 0.069679 -0.010185 -143029.000000 0 1 0
14.310151 0.025902 16.858557 22.113164 0.001810 0.703819 0.064941 -0.006950 19638.600000 0 1 0
13.406451 -0.702098 17.919057 22.390142 -0.052322 0.642984 0.060200 -0.004377 1199870.000000 0 1 0
11.999351 -0.544198 17.680557 21.374814 -0.045321 0.596747 0.053068 -0.001064 433248.000000 0 1 0
11.267951 -1.180798 18.698257 21.862887 -0.104412 0.544761 0.040696 -0.006865 -190167.000000 0 1 0
-25.464689 14.267402 28.667567 40.912571 -0.510703 0.794414 -0.018395 -0.000831 -316851.000000 0 0 1
-24.643949 14.278002 29.828057 41.241951 -0.525113 0.762306 -0.009539 -0.001687 -141932.000000 0 0 1
-23.929649 13.120802 29.863217 40.454854 -0.501543 0.740419 -0.005776 -0.002953 -237942.000000 0 0 1
-22.774749 13.160802 30.937637 40.608290 -0.523987 0.704624 -0.005370 -0.008993 299465.000000 0 0 1
-23.205749 13.389602 32.251447 41.927843 -0.523332 0.693188 -0.009374 -0.014025 201219.000000 0 0 1
-22.080849 13.448302 33.096014 41.997224 -0.547046 0.663157 -0.007233 -0.005940 -25077.200000 0 0 1
-22.548349 13.558302 -34.245654 43.185882 -0.541374 2.486485 0.002658 -0.002030 76617.200000 0 0 1
-23.222549 12.464602 -33.704534 42.786080 -0.492610 2.477936 -0.006811 -0.001102 6936.290000 0 0 1
-23.781549 12.729302 -32.445994 42.194072 -0.491456 2.448025 -0.011421 0.003610 155479.000000 0 0 1
-24.723149 11.614102 -31.902034 41.998348 -0.439169 2.433497 -0.008785 -0.004796 83320.000000 0 0 1
-24.060249 10.614402 -31.142194 40.760242 -0.415478 2.440338 0.003961 -0.004416 286648.000000 0 0 1
-23.564949 9.505802 -31.913604 40.793936 -0.383423 2.469166 0.011698 -0.008224 -142138.000000 0 0 1
-22.853949 8.506402 -30.985794 39.430715 -0.356320 2.474832 0.018145 -0.000837 -521042.000000 0 0 1
-23.656549 7.782202 -30.111114 39.075237 -0.317815 2.450568 0.022029 -0.000110 -28362.200000 0 0 1
-22.890249 6.966702 -29.211044 37.759548 -0.295445 2.455310 0.030003 0.004072 359364.000000 0 0 1
-23.735949 6.104402 -28.193894 37.357123 -0.251724 2.426012 0.038964 -0.002150 59620.800000 0 0 1
-24.343649 4.976702 -28.743874 37.994619 -0.201657 2.428779 0.034370 -0.012547 -294164.000000 0 0 1
-24.520349 4.015602 -27.746354 37.245573 -0.162325 2.411267 0.044931 -0.008378 -860313.000000 0 0 1
-25.385369 2.849102 -28.136114 38.002306 -0.111766 2.404431 0.033118 -0.005655 351976.000000 0 0 1
-26.765859 3.114402 -28.379134 39.134204 -0.115836 2.382084 0.013574 -0.006876 502457.000000 0 0 1
-27.009849 3.733202 -29.641864 40.275412 -0.137346 2.397908 0.011810 -0.004408 -1038890.000000 0 0 1
-28.432519 3.567702 -30.208474 41.637585 -0.124827 2.382571 0.010445 -0.012266 265778.000000 0 0 1
-29.362029 4.247602 -29.340604 41.725794 -0.143666 2.350652 0.008776 -0.005957 911353.000000 0 0 1
-30.721459 4.313002 -29.798484 43.015807 -0.139479 2.336069 0.008020 -0.009811 995018.000000 0 0 1
-31.155959 5.488502 -30.712074 44.091370 -0.174373 2.341381 0.013562 -0.021993 15070.400000 0 0 1
-30.328329 5.665302 -31.895284 44.375808 -0.184671 2.372805 0.018772 -0.015958 521876.000000 0 0 1
-30.353269 7.005202 -32.400474 44.946462 -0.226818 2.375850 0.022968 -0.017463 -538661.000000 0 0 1
-29.858609 8.220402 -31.555214 44.213607 -0.268655 2.365562 0.009066 -0.022532 320127.000000 0 0 1
-28.436019 8.293402 -31.433414 43.190823 -0.283780 2.385876 0.013224 -0.028863 892313.000000 0 0 1
-27.767389 7.588602 -30.377544 41.849850 -0.266777 2.383094 0.005027 -0.025076 -68333.700000 0 0 1
-27.763589 8.333702 -29.002404 41.004962 -0.291610 2.356454 -0.000476 -0.017608 -12931.600000 0 0 1
-29.046419 8.515902 -28.427934 41.525443 -0.285191 2.324838 0.004156 -0.018456 300056.000000 0 0 1
-29.537419 7.495902 -27.554674 41.084154 -0.248530 2.305933 0.002260 -0.010892 18062.000000 0 0 1
-30.957119 7.866302 -27.041794 41.850693 -0.248837 2.273324 -0.015533 -0.008332 169729.000000 0 0 1
-31.014149 8.885802 -25.998924 41.434031 -0.279033 2.249106 -0.021645 -0.004599 174295.000000 0 0 1
-30.534439 8.306802 -24.742244 40.168813 -0.265619 2.234396 -0.016104 -0.001131 -105006.000000 0 0 1
-30.000639 9.377002 -23.751744 39.396850 -0.302940 2.217908 -0.012958 0.003210 -729681.000000 0 0 1
-30.866609 10.238302 -23.048444 39.859768 -0.320275 2.187364 -0.010264 0.006197 7139.330000 0 0 1
-30.154079 11.175902 -22.232244 39.095293 -0.354931 2.175682 -0.008261 0.007906 312250.000000 0 0 1
-31.111749 12.148902 -21.450244 39.694454 -0.372283 2.141690 -0.010140 0.009744 481528.000000 0 0 1
-31.767669 11.433502 -20.367944 39.430482 -0.345476 2.113617 -0.012135 0.006869 348518.000000 0 0 1
-32.297509 12.341002 -19.338244 39.615616 -0.364984 2.080762 -0.004477 0.004357 -171373.000000 0 0 1
-31.346629 13.177102 -18.431144 38.677567 -0.397940 2.067503 -0.000404 0.002548 -344939.000000 0 0 1
-30.710699 12.483802 -17.379244 37.430341 -0.386095 2.053651 0.016469 0.000399 282768.000000 0 0 1
-31.506369 12.132302 -16.234544 37.462040 -0.367574 2.019014 0.009855 -0.005417 -178173.000000 0 0 1
-32.006299 13.312202 -15.356244 37.913482 -0.394159 1.987812 0.000092 0.002364 31005.700000 0 0 1
-32.903189 14.201602 -16.007444 39.249759 -0.407463 1.990878 -0.004132 0.005189 349363.000000 0 0 1
-33.690009 14.933902 -15.096244 39.823795 -0.417246 1.959594 -0.008202 0.009891 191586.000000 0 0 1
-34.431221 16.170702 -15.679944 41.144394 -0.439076 1.961777 -0.012524 0.014260 40139.000000 0 0 1
-35.325524 15.839502 -16.695944 42.160847 -0.421512 1.977959 -0.011970 0.007910 100129.000000 0 0 1
35.059545 16.876602 -17.065344 42.487849 0.448633 1.984117 -0.013239 0.004004 -569314.000000 0 0 1
34.641055 16.767202 -18.577244 42.734713 0.450788 2.020514 -0.020327 0.006538 -372254.000000 0 0 1
33.668415 15.825902 -18.851844 41.706274 0.439403 2.039819 0.004289 -0.000064 -636038.000000 0 0 1
32.359145 16.284002 -18.650244 40.744503 0.466226 2.046244 0.036780 -0.007783 -1347280.000000 0 0 1
31.406235 15.218002 -19.118644 39.792734 0.451214 2.071971 0.044994 -0.009400 -820037.000000 0 0 1
31.434645 14.959702 -20.522244 40.411533 0.444181 2.103462 0.041674 -0.011231 406017.000000 0 0 1
30.511285 13.927302 -20.879444 39.507713 0.428216 2.127618 0.018152 -0.012597 -56925.800000 0 0 1
30.884475 12.468702 -20.511644 39.115813 0.383710 2.122786 0.014926 0.005153 -107615.000000 0 0 1
30.857695 12.231402 -19.149844 38.321287 0.377383 2.094070 0.016445 0.007001 156763.000000 0 0 1
31.623035 11.092302 -18.795944 38.423209 0.337358 2.081948 0.009451 0.009447 -142039.000000 0 0 1
31.842765 10.932802 -17.264344 37.835768 0.330727 2.044625 0.004885 0.012426 -178542.000000 0 0 1
30.719295 10.397202 -16.601744 36.433429 0.326356 2.043925 0.015950 0.006359 12717.700000 0 0 1
30.821335 10.348202 -15.157344 35.871786 0.323922 2.007045 0.010894 0.000981 -242966.000000 0 0 1
30.261435 11.525202 -14.357344 35.421999 0.363893 1.988128 0.039352 -0.007682 -399347.000000 0 0 1
28.858075 11.612102 -14.459044 34.302964 0.382562 2.005906 0.045936 -0.000234 -164699.000000 0 0 1
28.397535 12.534802 -13.526044 33.859933 0.415683 1.981735 0.060011 0.001630 -184277.000000 0 0 1
26.872495 12.392802 -13.337244 32.459121 0.432104 1.994230 0.067206 0.002772 -513389.000000 0 0 1
26.502615 11.207002 -12.672744 31.441754 0.400060 1.985648 0.059418 -0.006698 -253838.000000 0 0 1
25.202235 10.909602 -13.102144 30.427590 0.408528 2.015955 0.060010 0.007563 -777910.000000 0 0 1
25.121735 10.009002 -14.373344 30.624740 0.379144 2.059337 0.047187 0.001855 -541314.000000 0 0 1
25.634735 8.698002 -14.203244 30.570034 0.327116 2.053994 0.033999 0.001850 1256430.000000 0 0 1
27.008855 8.536902 -14.596344 31.865501 0.306141 2.046609 0.033007 0.000197 720572.000000 0 0 1
27.882845 7.464002 -13.848544 32.014786 0.261559 2.018134 0.046019 -0.004707 -338913.000000 0 0 1
27.427405 6.124402 -13.838744 31.325415 0.219691 2.028371 0.018818 -0.012919 263940.000000 0 0 1
26.337545 5.896802 -12.978244 29.947844 0.220261 2.019016 0.037380 -0.012485 -238716.000000 0 0 1
25.751035 4.473302 -13.013944 29.197413 0.171997 2.032778 0.049714 -0.014489 223979.000000 0 0 1
24.789235 4.123602 -12.004044 27.849727 0.164837 2.016429 0.063153 -0.018788 807478.000000 0 0 1
24.370735 2.755902 -12.137644 27.365125 0.112604 2.030346 0.053638 -0.019773 -308809.000000 0 0 1
23.543235 2.340202 -10.923444 26.059203 0.099075 2.003336 0.054903 -0.016645 -435330.000000 0 0 1
24.266635 2.114002 -9.717644 26.225391 0.086896 1.950390 0.056386 -0.015765 448156.000000 0 0 1
23.463035 1.601102 -8.645544 25.056395 0.068134 1.923081 0.060954 -0.009346 -415983.000000 0 0 1
24.142135 1.147302 -7.281344 25.242364 0.047487 1.863412 0.068520 -0.008223 -158221.000000 0 0 1
24.306235 -0.225698 -6.932444 25.276526 -0.009285 1.848621 0.058959 -0.011758 545419.000000 0 0 1
25.115535 -0.928698 -7.866944 26.335173 -0.036960 1.874151 0.059951 -0.011875 -488444.000000 0 0 1
25.417735 -2.385198 -7.466744 26.598922 -0.093566 1.855336 0.074219 -0.020513 1830.390000 0 0 1
26.440875 -2.410298 -6.470144 27.327498 -0.090907 1.809829 0.081875 -0.027329 693028.000000 0 0 1
26.611295 -3.719898 -5.958544 27.522770 -0.138886 1.789019 0.091546 -0.033029 388689.000000 0 0 1
27.902565 -3.849198 -5.050544 28.616035 -0.137086 1.748219 0.084371 -0.031496 998887.000000 0 0 1
29.042895 -4.013098 -5.876644 29.902000 -0.137309 1.768614 0.067614 -0.021396 761205.000000 0 0 1
30.272115 -4.412398 -5.268644 31.042371 -0.144739 1.741346 0.063090 -0.027120 1198330.000000 0 0 1
31.404995 -4.743098 -6.310644 32.382015 -0.149897 1.766933 0.040354 -0.018451 561657.000000 0 0 1
30.954365 -5.823798 -7.033944 32.273297 -0.185968 1.790509 0.030376 -0.020392 638921.000000 0 0 1
31.831775 -5.906998 -8.157044 33.387001 -0.183482 1.817613 0.024380 -0.025448 -576844.000000 0 0 1
31.353255 -6.951398 -9.128944 33.386916 -0.218183 1.847752 0.027060 -0.025167 49445.900000 0 0 1
30.138515 -6.667898 -9.792744 32.383464 -0.217734 1.878005 0.036927 -0.017173 1068820.000000 0 0 1
28.974525 -7.025998 -9.013344 31.146879 -0.237897 1.864377 0.037137 -0.011264 397700.000000 0 0 1
27.689915 -6.162398 -9.059644 29.778913 -0.218982 1.879927 0.040985 -0.011438 -85475.500000 0 0 1
26.882665 -6.204998 -10.215544 29.420010 -0.226845 1.925413 0.034181 -0.005303 110162.000000 0 0 1
25.867135 -5.230098 -10.216344 28.299051 -0.199501 1.940151 0.052512 -0.006797 -161893.000000 0 0 1
24.506335 -5.827198 -9.825544 27.038084 -0.233448 1.942707 0.064970 -0.003304 -1299810.000000 0 0 1
24.450935 -6.319098 -8.460744 26.633877 -0.252906 1.894066 0.057871 -0.009927 1175890.000000 0 0 1
23.255635 -6.993198 -7.995244 25.566644 -0.292108 1.888853 0.050514 -0.009062 647369.000000 0 0 1
22.115835 -6.049898 -7.542344 24.137074 -0.267022 1.888599 0.052364 -0.002394 -221542.000000 0 1 0
21.631135 -5.221698 -8.561344 23.842582 -0.236866 1.938076 0.046477 -0.001856 360314.000000 0 1 0
21.551435 -3.862898 -8.103744 23.346455 -0.177358 1.925282 0.045280 0.000318 -295725.000000 0 1 0
21.466035 -2.892398 -9.300544 23.572372 -0.133936 1.976377 0.045579 0.005350 -610634.000000 0 1 0
22.655035 -2.716698 -10.020144 24.920560 -0.119346 1.984587 0.047840 0.000760 337830.000000 0 1 0
22.539835 -1.875798 -11.119144 25.203137 -0.083030 2.027711 0.048944 -0.002391 -115156.000000 0 0 1
23.849535 -1.880198 -11.962244 26.747537 -0.078673 2.034460 0.047191 -0.005307 138349.000000 0 0 1
24.879135 -1.231498 -11.243244 27.329443 -0.049459 1.994782 0.050307 -0.011248 435053.000000 0 0 1
26.104935 -1.332398 -11.939444 28.736618 -0.050996 1.999265 0.040538 -0.015303 -56552.500000 0 0 1
27.234855 -0.380098 -11.457944 29.549387 -0.013955 1.968992 0.029971 -0.011305 -494118.000000 0 0 1
28.428655 -0.700398 -12.123844 30.913857 -0.024632 1.973798 0.030807 -0.013344 -130070.000000 0 0 1
29.492215 0.179302 -11.864344 31.789708 0.006080 1.953267 0.030728 -0.012212 -358631.000000 0 0 1
29.419685 1.482702 -12.687644 32.073237 0.050356 1.977499 0.024495 -0.012428 -797698.000000 0 0 1
29.579135 1.253602 -14.055244 32.772650 0.042356 2.014039 0.022300 -0.014287 435894.000000 0 0 1
29.409685 2.473202 -14.769744 33.002903 0.083897 2.034796 0.011678 -0.010775 -258595.000000 0 0 1
29.594115 2.398702 -16.276544 33.859877 0.080877 2.072253 0.001712 -0.009651 109841.000000 0 0 1
28.619375 1.560702 -16.902644 33.274671 0.054479 2.103627 0.011072 -0.012919 69086.100000 0 0 1
28.737305 1.684502 -18.308744 34.115690 0.058550 2.137278 0.002445 -0.007809 192087.000000 0 0 1
27.725275 0.770402 -19.102044 33.677477 0.027780 2.173905 0.002373 -0.005503 242185.000000 0 0 1
27.788595 -0.601198 -18.967944 33.650413 -0.021631 2.169626 0.008123 0.002216 77769.600000 0 0 1
27.429675 -1.211198 -20.230144 34.104439 -0.044128 2.205802 -0.001154 0.000974 -24340.700000 0 0 1
27.163295 -2.709798 -20.173844 33.943653 -0.099431 2.207233 0.002452 -0.002045 -1080930.000000 0 0 1
26.020535 -2.968098 -19.474144 32.636178 -0.113577 2.210184 0.016073 -0.003151 -836278.000000 0 0 1
25.704035 -4.356798 -19.309444 32.442776 -0.167903 2.208292 0.020140 -0.002005 14222.700000 0 0 1
26.521385 -5.194698 -18.264044 32.618155 -0.193420 2.165104 0.008395 0.001616 156480.000000 0 0 1
27.871485 -5.417598 -18.634044 33.961708 -0.191984 2.151579 -0.005035 0.006804 18480.700000 0 0 1
28.752455 -5.419698 -17.541244 34.114103 -0.186309 2.110863 0.002491 -0.006111 -1681420.000000 0 0 1
30.145695 -5.258698 -18.001044 35.502879 -0.172705 2.102532 0.000287 -0.003461 -1791110.000000 0 0 1
30.641595 -6.361398 -18.739944 36.476845 -0.204699 2.110345 -0.013437 0.003432 -704277.000000 0 0 1
31.940785 -6.113098 -19.146144 37.738025 -0.189102 2.102896 0.006400 0.001292 -857176.000000 0 0 1
32.551615 -7.326098 -19.852344 38.825184 -0.221372 2.107524 0.005314 0.012756 -168420.000000 0 0 1
32.716975 -8.367298 -18.922144 38.709942 -0.250381 2.081531 0.015269 0.002191 48415.400000 0 0 1
33.622245 -9.323098 -19.430044 39.936225 -0.270494 2.078906 0.015711 0.004935 -391518.000000 0 0 1
34.355365 -10.001698 -18.302844 40.191033 -0.283295 2.043614 0.028770 -0.002418 -1188670.000000 0 0 1
33.539915 -10.794598 -17.483844 39.333625 -0.311374 2.031414 0.019374 0.000934 -31929.800000 0 0 1
34.224565 -11.540898 -16.477944 39.699317 -0.325236 1.998815 0.025680 -0.003200 -750293.000000 0 0 1
35.143825 -10.792998 -15.499144 39.897377 -0.297966 1.969773 0.048853 -0.010647 -1052540.000000 0 0 1
35.517147 -11.453598 -14.295744 39.962744 -0.311952 1.936629 0.043634 -0.010007 577856.000000 0 0 1
-35.018956 -12.691298 -14.470844 39.960001 0.347689 1.941352 0.040771 -0.004465 -63326.100000 0 0 1
-33.592889 -12.583698 -15.063544 38.906837 0.358415 1.968356 0.061470 -0.005407 -878814.000000 0 0 1
-33.584009 -12.261198 -16.445244 39.353128 0.350055 2.001917 0.063176 -0.012838 -165658.000000 0 0 1
-32.305809 -12.400198 -17.034544 38.569494 0.366496 2.028243 0.076001 -0.012573 -110197.000000 0 0 1
-32.063459 -11.671398 -18.365944 38.750417 0.349100 2.064573 0.089319 -0.018583 158339.000000 0 0 1
-31.986869 -10.270198 -18.317444 38.264416 0.310678 2.069978 0.082124 -0.017450 -131786.000000 0 0 1
-33.214389 -9.675398 -18.644844 39.299353 0.283457 2.065114 0.077883 -0.021212 -527865.000000 0 0 1
-33.412279 -8.190898 -18.450444 39.037035 0.240405 2.063080 0.078002 -0.016846 -377499.000000 0 0 1
-34.739089 -7.766398 -18.645144 40.184109 0.219947 2.053294 0.067559 -0.011496 -216331.000000 0 0 1
-34.940650 -6.397298 -18.294744 39.955877 0.181085 2.046398 0.051500 -0.012959 -307348.000000 0 0 1
23.716651 27.376102 -27.109094 45.241943 0.856900 2.213301 0.012787 0.012512 -251561.000000 0 0 1
24.275451 26.463802 -26.232494 44.472172 0.828501 2.201686 0.014769 -0.001306 15347.900000 0 0 1
25.549451 26.061302 -26.712074 45.227213 0.795315 2.202623 0.021955 -0.000483 111277.000000 0 0 1
26.437151 25.258102 -25.737564 44.713721 0.762594 2.184143 0.020223 -0.006753 -306599.000000 0 0 1
26.860251 26.096402 -24.688444 44.855485 0.770975 2.153639 0.025110 0.000267 126767.000000 0 0 1
27.353351 25.282502 -23.619944 44.105696 0.746075 2.135932 0.023144 0.002919 -204874.000000 0 0 1
27.777451 26.167202 -22.412244 44.256275 0.755557 2.101824 0.026906 -0.001391 -58877.000000 0 0 1
26.803051 26.892002 -21.716344 43.739946 0.787055 2.090344 0.033569 -0.008160 23013.000000 0 0 1
27.486351 27.546302 -20.633344 44.045807 0.786488 2.058334 0.019627 -0.009137 88818.900000 0 0 1
26.655851 28.479002 -19.764344 43.728906 0.818453 2.039774 0.028273 0.002399 -313552.000000 0 0 1
25.637051 27.781202 -19.077544 42.343904 0.825516 2.038164 0.039056 -0.008515 190460.000000 0 0 1
24.750251 28.635602 -18.384544 42.078071 0.858049 2.022963 0.034359 -0.004460 -252138.000000 0 0 1
23.844451 27.983002 -17.365444 40.659130 0.865082 2.012078 0.037328 -0.008481 -791214.000000 0 0 1
22.941851 27.114002 -17.964044 39.802066 0.868556 2.039057 0.045029 -0.006260 -612328.000000 0 0 1
21.779851 27.199902 -17.173344 38.847398 0.895609 2.028704 0.023736 -0.000060 -309929.000000 0 0 1
20.610251 26.287102 -17.603444 37.758117 0.905860 2.055805 0.016255 -0.002365 -162038.000000 0 0 1
20.052551 26.783902 -18.790444 38.373988 0.928141 2.082503 0.018829 0.002029 -360877.000000 0 0 1
19.602151 25.715102 -19.618344 37.820500 0.919481 2.116152 0.017214 -0.000703 -271840.000000 0 0 1
18.838651 26.138002 -20.891344 38.399715 0.946287 2.146052 0.007087 0.003780 232991.000000 0 0 1
17.674151 26.813402 -20.447944 38.071676 0.988013 2.137781 -0.002845 0.009607 -290998.000000 0 0 1
16.722751 26.928102 -21.503944 38.303951 1.015068 2.166876 -0.004683 -0.001710 -150662.000000 0 0 1
15.671051 27.967602 -21.137644 38.400112 1.060058 2.153709 0.004048 0.003484 -360699.000000 0 0 1
14.940351 27.631702 -19.973444 37.224501 1.075124 2.137160 0.009967 0.007020 -19100.400000 0 0 1
14.009351 28.624402 -19.566744 37.396200 1.115649 2.121431 0.001154 0.005595 270622.000000 0 0 1
13.841351 28.627302 -18.039944 36.558788 1.120434 2.086848 0.002790 0.009623 432487.000000 0 0 1
13.029551 27.481302 -17.673144 35.175718 1.128063 2.097197 0.000517 0.013107 70982.300000 0 0 1
12.554151 27.530602 -16.375044 34.404691 1.142958 2.066845 0.022679 0.009410 65162.000000 0 0 1
11.531751 26.422702 -16.084944 33.013116 1.159281 2.079710 0.026873 0.002251 -110593.000000 0 0 1
12.197251 25.180302 -16.001144 32.231307 1.119709 2.090298 0.018154 0.000967 521980.000000 0 0 1
11.252651 24.106102 -15.839544 30.961548 1.134062 2.107828 0.039701 0.001375 636112.000000 0 0 1
12.022451 22.784502 -16.057444 30.356455 1.085267 2.128175 0.029067 0.002560 -10137.100000 0 0 1
12.577151 22.759902 -17.353344 31.262380 1.065958 2.159264 0.027073 0.005192 145871.000000 0 0 1
13.532351 21.707902 -17.561444 31.028403 1.013360 2.172417 0.026862 0.003698 307215.000000 0 0 1
12.876751 20.326902 -17.839444 29.953955 1.006120 2.208762 0.035017 0.004365 370895.000000 0 0 1
12.164251 19.761902 -16.720344 28.601952 1.019028 2.195168 0.035324 -0.001155 209846.000000 0 0 1
11.617351 18.437602 -16.909644 27.583402 1.008545 2.230695 0.036644 -0.005060 -278136.000000 0 0 1
12.557651 17.270702 -17.232844 27.439800 0.942108 2.249807 0.022007 -0.004802 -417395.000000 0 0 1
13.123851 16.836102 -16.036844 26.699628 0.908677 2.215097 0.032767 -0.010641 42532.600000 0 0 1
14.173151 15.906002 -16.314144 26.833382 0.842944 2.224309 0.024760 -0.006542 -554578.000000 0 0 1
14.740851 15.304002 -15.061244 26.045081 0.804140 2.187410 0.039721 0.002160 -986762.000000 0 0 1
15.577951 15.991502 -14.121144 26.416044 0.798497 2.134792 0.021918 0.010306 444697.000000 0 0 1
16.884451 16.316002 -14.516444 27.604777 0.768278 2.124531 0.008461 0.009349 -201409.000000 0 0 1
17.835451 15.130602 -14.966044 27.767263 0.703532 2.140024 0.004464 0.004873 -720472.000000 0 0 1
18.302751 14.288002 -13.918144 27.071247 0.662829 2.110789 0.010593 0.001448 594563.000000 0 0 1
19.299751 14.836902 -13.057244 27.624367 0.655401 2.063116 0.012165 0.002271 -636911.000000 0 0 1
19.843751 13.766102 -12.115544 27.019741 0.606502 2.035766 0.020510 0.000069 -796330.000000 0 0 1
18.889251 13.164702 -11.303744 25.649324 0.608670 2.027178 0.032459 -0.004629 296012.000000 0 0 1
19.507851 12.116702 -10.484944 25.244896 0.555804 1.999101 0.040138 -0.002388 368804.000000 0 0 1
20.064851 10.849802 -11.216344 25.418946 0.495703 2.027798 0.042508 -0.011339 50798.900000 0 0 1
21.189351 11.042202 -12.086344 26.776828 0.480401 2.039100 0.048741 -0.004559 835123.000000 0 0 1
21.501851 9.948902 -12.920644 26.986168 0.433365 2.070070 0.036607 -0.006589 -327118.000000 0 0 1
22.049851 8.658302 -12.281644 26.683345 0.374171 2.049100 0.044228 -0.001617 -370297.000000 0 0 1
21.074151 7.960102 -11.519944 25.302019 0.361152 2.043503 0.041423 -0.013911 910044.000000 0 0 1
21.695951 6.911302 -10.751144 25.180697 0.308389 2.011924 0.040673 -0.005128 -880195.000000 0 0 1
21.872651 5.484502 -11.322644 25.232814 0.245682 2.036137 0.047421 -0.012601 186610.000000 0 0 1
20.713951 4.672102 -11.568544 24.181140 0.221841 2.069642 0.035870 -0.021820 373769.000000 0 1 0
19.802651 5.216802 -12.462144 23.972172 0.257587 2.117482 0.000326 -0.024273 -592806.000000 0 1 0
18.842951 4.116502 -13.013644 23.267087 0.215084 2.164356 0.004237 -0.031144 252848.000000 0 1 0
19.580451 3.254902 -13.829044 24.191546 0.164726 2.179309 0.020556 -0.024801 952099.000000 0 1 0
18.755251 2.129702 -14.045044 23.527820 0.113068 2.210496 0.017290 -0.017570 56164.000000 0 1 0
19.659551 1.052802 -14.686144 24.561945 0.053501 2.211703 0.038771 -0.014509 -115306.000000 0 1 0
20.798251 0.709102 -13.946044 25.051192 0.034081 2.161207 0.050510 -0.007253 1094380.000000 0 0 1
22.018851 0.572202 -14.718844 26.491538 0.025981 2.159887 0.038481 -0.012717 923793.000000 0 0 1
22.207151 -0.879898 -15.274144 26.967226 -0.039602 2.172923 0.034919 -0.010114 -961192.000000 0 0 1
21.282051 -1.264698 -16.215044 26.785310 -0.059356 2.221028 0.031851 -0.008106 -323007.000000 0 0 1
21.823251 -2.326998 -16.960044 27.736480 -0.106228 2.228714 0.032423 -0.011570 -98584.000000 0 0 1
20.861751 -2.837398 -18.065544 27.742159 -0.135180 2.279954 0.031044 -0.007723 -102333.000000 0 0 1
19.899951 -3.697598 -17.479144 26.743238 -0.183714 2.283116 0.042904 -0.000448 35374.700000 0 0 1
19.273251 -4.525398 -18.424144 27.044159 -0.230624 2.320281 0.038905 -0.002855 -466299.000000 0 0 1
18.341551 -5.542698 -17.801944 26.154220 -0.293468 2.319450 0.039121 0.001751 -247069.000000 0 0 1
19.084451 -6.606198 -17.181944 26.515605 -0.333246 2.275744 0.041955 0.009782 908721.000000 0 0 1
18.240951 -7.541498 -16.465144 25.704230 -0.392037 2.266026 0.047964 0.013149 43400.300000 0 0 1
18.933751 -8.698398 -15.720544 26.101428 -0.430654 2.217159 0.037837 0.011830 -202792.000000 0 0 1
19.542251 -9.605998 -16.595644 27.378645 -0.456865 2.222011 0.042390 0.007122 912408.000000 0 0 1
20.601851 -10.320898 -15.922544 28.008653 -0.464423 2.175461 0.043203 0.009486 223072.000000 0 0 1
21.348551 -11.368998 -16.738144 29.413946 -0.489341 2.176152 0.031737 0.004920 -385163.000000 0 0 1
22.373351 -10.795298 -17.513044 30.394276 -0.449556 2.184862 0.023449 0.006128 -43794.500000 0 0 1
22.905251 -11.715898 -18.464544 31.667841 -0.472800 2.193298 0.025278 0.006280 -537524.000000 0 0 1
22.143951 -11.815198 -19.792544 31.964015 -0.490136 2.238537 0.031291 0.016883 58769.600000 0 0 1
20.870151 -12.417698 -19.695844 31.268014 -0.536733 2.252226 0.042588 0.000432 45163.300000 0 0 1
20.896051 -13.774398 -20.058844 32.073918 -0.582806 2.246433 0.036084 0.003127 -31313.200000 0 0 1
19.525551 -14.490098 -19.919144 31.432187 -0.638432 2.257146 0.035705 -0.004445 171079.000000 0 0 1
18.621051 -14.047298 -20.892144 31.313764 -0.646297 2.301223 0.030571 0.005460 -7669.470000 0 0 1
17.267651 -14.410498 -20.596244 30.496549 -0.695448 2.312253 0.043220 0.000603 465305.000000 0 0 1
16.367051 -13.907998 -21.729344 30.552859 -0.704352 2.362007 0.038699 -0.003795 -408053.000000 0 0 1
16.635051 -14.540598 -22.946844 31.854538 -0.718317 2.375122 0.024897 -0.003556 269189.000000 0 0 1
15.969551 -13.777198 -23.937844 31.903889 -0.711831 2.419329 0.034568 -0.006387 -54635.800000 0 0 1
15.934851 -14.453298 -25.352554 33.250102 -0.736682 2.437935 0.032088 -0.009975 61137.300000 0 0 1
15.061151 -15.584898 -25.537934 33.494976 -0.802487 2.437873 0.041822 -0.012948 425546.000000 0 0 1
14.965151 -16.102398 -26.874874 34.720337 -0.821987 2.455991 0.044687 -0.010333 -221866.000000 0 0 1
16.038351 -17.163598 -27.214264 35.950438 -0.819276 2.429497 0.033194 -0.011126 540165.000000 0 0 1
17.384851 -16.711098 -26.994694 36.196787 -0.765640 2.412495 0.021323 -0.006600 232238.000000 0 0 1
18.204851 -17.833998 -27.189944 37.266086 -0.775108 2.388557 0.027106 -0.001096 394539.000000 0 0 1
19.725751 -17.504898 -27.025294 37.761001 -0.725818 2.368413 0.021360 -0.001225 268447.000000 0 0 1
20.124051 -17.354398 -25.688014 36.959798 -0.711632 2.339252 0.020470 0.002234 -461651.000000 0 0 1
21.479151 -16.981098 -25.725184 37.569891 -0.668974 2.325028 0.013881 0.007088 -356065.000000 0 0 1
21.914851 -16.434598 -24.338244 36.642964 -0.643456 2.297219 0.004016 0.011218 -182482.000000 0 0 1
21.606751 -15.088798 -23.929744 35.597137 -0.609609 2.308024 0.004336 0.013650 294606.000000 0 0 1
20.232451 -14.688398 -24.011744 34.665040 -0.627952 2.335993 0.029960 0.006156 624027.000000 0 0 1
20.070851 -13.304098 -23.425944 33.594835 -0.585360 2.342431 0.033439 0.010022 -220486.000000 0 0 1
20.538551 -12.302698 -24.278844 34.097665 -0.539688 2.363193 0.027010 0.010117 116513.000000 0 0 1
20.200351 -11.039998 -23.771844 33.091333 -0.500171 2.372254 0.028924 0.012238 -165587.000000 0 0 1
20.617251 -9.898698 -24.685444 33.651544 -0.447615 2.394343 0.029588 0.008851 -257196.000000 0 0 1
20.121451 -8.695198 -24.148144 32.613067 -0.407899 2.404527 0.040126 0.005335 195958.000000 0 0 1
20.118151 -7.668598 -25.131034 33.092541 -0.364176 2.433213 0.024986 0.002772 -413895.000000 0 0 1
19.430551 -6.390998 -24.623644 32.011170 -0.317769 2.448416 0.030990 -0.002215 575109.000000 0 0 1
18.084051 -6.705398 -24.217744 30.959561 -0.355075 2.469046 0.037065 -0.005909 643304.000000 0 0 1
17.474051 -5.836798 -23.270944 29.680760 -0.322374 2.471947 0.030149 -0.013348 160355.000000 0 0 1
18.122051 -5.938598 -21.795544 28.960687 -0.316672 2.422784 0.038146 -0.009822 -129689.000000 0 0 1
17.711851 -6.940898 -20.876644 28.243937 -0.373486 2.402611 0.047532 -0.006724 106935.000000 0 0 1
17.972551 -8.288698 -21.213644 29.012649 -0.432118 2.390855 0.055364 -0.006816 -303718.000000 0 0 1
17.594051 -9.345998 -20.176944 28.355024 -0.488297 2.362545 0.048101 -0.002202 -745199.000000 0 0 1
16.225051 -9.409198 -19.966044 27.393945 -0.525522 2.387435 0.048700 -0.002495 -936388.000000 0 0 1
16.000951 -10.461798 -19.009044 26.959663 -0.579058 2.353349 0.059286 0.000313 120315.000000 0 0 1
14.504551 -10.621098 -18.609244 25.874576 -0.632050 2.373460 0.047806 -0.001990 338702.000000 0 0 1
13.872851 -9.639398 -17.803544 24.542620 -0.607254 2.382431 0.049077 0.001175 216084.000000 0 1 0
13.924451 -8.294698 -18.199544 24.370387 -0.537247 2.414018 0.048227 -0.010269 -1251990.000000 0 1 0
12.826951 -7.475498 -17.569144 23.001925 -0.527674 2.439995 0.044005 0.005754 251550.000000 0 1 0
11.544851 -7.638898 -18.208144 22.872972 -0.584536 2.491545 0.026095 -0.008395 491321.000000 0 1 0
10.682251 -6.599598 -17.810944 21.792084 -0.553412 2.527528 0.016669 -0.000277 150210.000000 0 1 0
9.219651 -6.828898 -18.284144 21.585776 -0.637516 2.581199 0.005321 -0.001042 238485.000000 0 1 0
9.043251 -6.680998 -19.684144 22.668958 -0.636283 2.622622 0.011802 -0.005989 182909.000000 0 1 0
7.737551 -6.268298 -20.061144 22.396668 -0.680878 2.680844 0.013349 -0.002981 200555.000000 0 1 0
7.557851 -5.889398 -21.539844 23.574796 -0.661955 2.723047 0.026081 -0.009616 -88858.800000 0 1 0
7.653451 -7.015498 -22.409744 24.697958 -0.741936 2.707738 0.022469 -0.009655 -123123.000000 0 1 0
6.835251 -6.724398 -23.493844 25.375163 -0.777223 2.754101 0.035352 -0.014403 -236065.000000 0 0 1
6.730651 -7.879698 -24.537344 26.635926 -0.863883 2.741981 0.023793 -0.013233 -161852.000000 0 0 1
6.220551 -9.091398 -24.012344 26.418581 -0.970737 2.711480 0.033616 -0.016490 -21459.200000 0 0 1
6.074051 -10.006498 -25.085474 27.682216 -1.025238 2.704992 0.039292 -0.005944 -359654.000000 0 0 1
5.153851 -11.205898 -24.693644 27.602724 -1.139721 2.678352 0.039934 -0.013077 184319.000000 0 0 1
5.694651 -12.085698 -23.702844 27.208785 -1.130462 2.628329 0.032152 -0.021089 150881.000000 0 0 1
4.935451 -13.303298 -23.555244 27.498835 -1.215542 2.599422 0.046630 -0.021949 -266229.000000 0 0 1
5.696351 -14.346698 -22.679744 27.434412 -1.192836 2.543995 0.053032 -0.022923 -1068580.000000 0 0 1
6.742951 -15.000698 -23.275244 28.499567 -1.148351 2.526444 0.034118 -0.018093 -851108.000000 0 0 1
7.964551 -14.330098 -23.473944 28.632356 -1.063517 2.531927 0.051914 -0.019931 -51524.500000 0 0 1
8.804851 -14.097298 -22.174044 27.711865 -1.012501 2.498365 0.043324 -0.011071 -627086.000000 0 0 1
9.324951 -15.157298 -21.408144 27.838948 -1.019267 2.448071 0.044740 -0.004680 85850.700000 0 0 1
8.345251 -15.684598 -20.547144 27.163118 -1.081826 2.428642 0.039783 -0.009658 -342774.000000 0 0 1
8.746151 -15.883098 -19.083244 26.323719 -1.067448 2.381751 0.042594 -0.005424 -411085.000000 0 0 1
9.683551 -16.903198 -18.984744 27.201283 -1.050555 2.343307 0.051355 -0.003542 -687036.000000 0 0 1
10.214051 -17.123398 -17.686244 26.652220 -1.032957 2.296409 0.037339 -0.005294 -463607.000000 0 0 1
9.244351 -17.737198 -16.638244 26.017252 -1.090345 2.264655 0.028281 -0.009916 -182751.000000 0 0 1
8.837151 -19.080598 -16.813744 26.923344 -1.137062 2.245293 0.025251 -0.010804 138447.000000 0 0 1
8.198751 -19.468298 -18.031644 27.773627 -1.172205 2.277376 0.033218 -0.011613 -568737.000000 0 0 1
6.700151 -19.192298 -18.171444 27.266054 -1.234918 2.300232 0.030236 -0.010750 -374036.000000 0 0 1
6.284151 -17.829498 -18.036244 26.128292 -1.231933 2.332694 0.034495 -0.012840 -735047.000000 0 0 1
4.905751 -17.673398 -17.877644 25.612996 -1.300035 2.343385 0.029471 -0.013232 -164893.000000 0 0 1
4.495851 -16.218998 -17.514944 24.290777 -1.300389 2.376118 0.027388 -0.007872 59399.700000 0 1 0
4.912851 -16.071798 -16.199244 23.342115 -1.274135 2.337815 0.018477 -0.002287 38970.900000 0 1 0
4.797951 -14.712998 -15.721344 22.060220 -1.255567 2.364073 0.014336 0.001115 -16975.700000 0 1 0
10.450851 30.548802 -17.966644 36.949288 1.241174 2.078591 0.019937 -0.009488 -620205.000000 0 0 1
9.580151 29.972402 -18.836644 36.673469 1.261427 2.110208 0.042229 -0.005840 -644404.000000 0 0 1
8.594251 29.157202 -18.236844 35.448357 1.284158 2.111177 0.039735 -0.006910 124255.000000 0 0 1
7.545751 28.487602 -19.129144 35.134114 1.311864 2.146542 0.036334 -0.007268 -246252.000000 0 0 1
6.795651 29.486602 -19.792744 36.157893 1.344286 2.150048 0.040995 -0.018557 -643587.000000 0 0 1
5.895451 28.760302 -20.592144 35.860113 1.368611 2.182466 0.033155 -0.023465 -191379.000000 0 0 1
4.872151 29.742102 -21.216744 36.857573 1.408425 2.184185 0.031345 -0.025263 -18960.100000 0 0 1
3.916151 30.230102 -20.302044 36.624695 1.441969 2.158350 0.024168 -0.025329 -97965.500000 0 0 1
2.898251 30.953202 -20.986944 37.509364 1.477435 2.164593 0.016739 -0.024613 -884249.000000 0 0 1
1.504351 30.805202 -20.390844 36.973099 1.522001 2.154964 0.032210 -0.027309 -188341.000000 0 0 1
0.897151 29.541102 -20.790544 36.134862 1.540436 2.183840 0.033731 -0.032073 94411.200000 0 0 1
0.441551 29.445002 -22.109144 36.824140 1.555802 2.214795 0.036762 -0.037046 -950940.000000 0 0 1
-0.011549 27.990902 -22.371344 35.832495 -1.570384 2.245071 0.043001 -0.035806 238676.000000 0 0 1
-1.094849 27.584602 -21.547444 35.020012 -1.531127 2.233549 0.050024 -0.037508 125153.000000 0 0 1
-1.624349 26.339302 -21.936944 34.316568 -1.509204 2.264322 0.047321 -0.035256 960531.000000 0 0 1
-2.827949 25.841702 -21.013344 33.426807 -1.461797 2.250596 0.038865 -0.029704 1139390.000000 0 0 1
-4.044749 26.558102 -21.147444 34.189284 -1.419660 2.237680 0.037708 -0.027891 301878.000000 0 0 1
-4.976149 26.174402 -20.167244 33.415252 -1.382923 2.218722 0.040853 -0.024793 -223289.000000 0 0 1
-6.238049 27.048302 -20.081744 34.260769 -1.344133 2.197088 0.043944 -0.035421 63256.800000 0 0 1
-7.288249 26.354102 -19.446644 33.553378 -1.300989 2.189001 0.044450 -0.028007 38205.800000 0 0 1
-8.314049 27.221802 -18.949144 34.193858 -1.274376 2.158160 0.042593 -0.032066 566445.000000 0 0 1
-9.562949 26.584402 -18.347344 33.686873 -1.225488 2.146761 0.031890 -0.025257 -457349.000000 0 0 1
-9.264849 25.890702 -17.101744 32.382642 -1.227150 2.127175 0.039350 -0.028975 257072.000000 0 0 1
-10.404049 25.348402 -16.396044 31.931426 -1.181321 2.110028 0.010601 -0.018950 335813.000000 0 0 1
-10.169549 24.519602 -15.117644 30.547892 -1.177638 2.088497 0.020396 -0.014226 -295172.000000 0 0 1
-9.582149 23.249002 -15.299944 29.435046 -1.179857 2.117398 0.030865 -0.018286 -136101.000000 0 0 1
-9.806949 22.507802 -14.174444 28.349466 -1.159887 2.094383 0.048020 -0.014432 -329187.000000 0 0 1
-9.185549 21.146202 -14.139544 27.045570 -1.161005 2.120934 0.071877 -0.008088 111963.000000 0 0 1
-10.023849 20.062702 -14.600744 26.761376 -1.107448 2.147889 0.041797 -0.005748 83481.700000 0 0 1
-10.322449 19.997102 -16.012744 27.619648 -1.094275 2.189229 0.048257 0.001119 -677548.000000 0 0 1
-9.186849 20.057002 -16.994944 27.847973 -1.141279 2.227205 0.042855 0.000796 -602027.000000 0 0 1
-8.361949 18.897702 -16.965744 26.737273 -1.154209 2.258203 0.037525 0.003019 -167212.000000 0 0 1
-7.450149 18.936202 -18.049044 27.200228 -1.195963 2.296367 0.037863 0.001477 41282.100000 0 0 1
-6.904649 17.475302 -18.320544 26.243145 -1.194513 2.343548 0.032911 0.001269 515817.000000 0 0 1
-7.908349 16.485602 -18.637744 26.109051 -1.123510 2.365766 0.029183 -0.004361 107886.000000 0 0 1
-7.599049 15.610502 -19.703244 26.261209 -1.117772 2.419281 0.038012 -0.008986 208482.000000 0 0 1
-6.386149 14.639102 -19.610244 25.291260 -1.159445 2.458107 0.029774 -0.008824 184171.000000 0 0 1
-6.529949 13.511702 -18.718344 23.991305 -1.120613 2.465804 0.009671 -0.007317 -147496.000000 0 1 0
-5.340349 12.768202 -18.613444 23.194969 -1.174654 2.502232 0.009704 -0.003274 83046.600000 0 1 0
-4.439649 13.078102 -17.404044 22.218190 -1.243531 2.470792 0.015329 -0.006406 89341.700000 0 1 0
-3.781049 14.337302 -17.532544 22.961808 -1.312946 2.439593 0.019563 -0.005102 -301836.000000 0 1 0
-3.470149 14.887202 -16.291944 22.340504 -1.341789 2.388030 0.017130 0.000727 80713.900000 0 1 0
-2.632249 16.213802 -16.300344 23.141247 -1.409854 2.352352 0.033648 0.002395 191207.000000 0 1 0
-3.259249 17.330702 -16.864244 24.400382 -1.384905 2.333871 0.028881 0.008991 -270167.000000 0 1 0
-2.436549 18.474602 -16.772844 25.071417 -1.439667 2.303662 0.040030 0.000699 370995.000000 0 0 1
-3.285949 19.697802 -17.255544 26.392322 -1.405500 2.283404 0.048122 -0.010453 397349.000000 0 0 1
-3.461749 19.646002 -18.668044 27.321145 -1.396380 2.323044 0.052542 -0.013668 194051.000000 0 0 1
-4.055249 20.847702 -19.256144 28.668289 -1.378678 2.307281 0.059327 -0.008234 406717.000000 0 0 1
-3.070649 22.060502 -19.337644 29.496425 -1.432493 2.285764 0.040024 -0.009814 -122490.000000 0 0 1
-1.990249 21.854902 -20.221944 29.841662 -1.479980 2.315347 0.045984 -0.008705 248678.000000 0 0 1
-0.892749 22.745202 -20.053144 30.335948 -1.531566 2.292994 0.043041 -0.010197 233677.000000 0 0 1
0.091951 22.481302 -18.924744 29.386448 1.566706 2.270506 0.053963 -0.006825 -1023340.000000 0 0 1
-0.403349 22.565702 -17.581644 28.609225 -1.552924 2.232605 0.046700 -0.009172 -533360.000000 0 0 1
0.608051 22.147202 -16.712344 27.751949 1.543348 2.217056 0.053025 -0.010746 -249694.000000 0 0 1
0.212351 22.147902 -15.245544 26.888682 1.561209 2.173640 0.052529 -0.020376 -652962.000000 0 0 1
-0.717049 21.191202 -14.896844 25.913262 -1.536972 2.183246 0.051991 -0.011517 -515990.000000 0 0 1
-0.734849 21.228902 -13.491944 25.164237 -1.536195 2.136672 0.059058 -0.015405 204907.000000 0 0 1
-1.619649 20.158902 -12.832844 23.951753 -1.490624 2.136226 0.039835 -0.010043 333548.000000 0 1 0
-0.976449 18.878702 -12.956144 22.917689 -1.519120 2.171634 0.035132 -0.003346 480642.000000 0 1 0
-1.929449 17.880102 -12.643844 21.983803 -1.463302 2.183576 0.026479 0.001079 118651.000000 0 1 0
-1.475249 16.428302 -12.955844 20.974254 -1.481237 2.236614 0.009941 0.009168 340097.000000 0 1 0
-0.364349 16.077502 -12.074844 20.110213 -1.548138 2.214839 0.004227 0.005212 816443.000000 0 1 0
0.054451 14.758802 -12.079844 19.072174 1.567107 2.256704 0.009326 0.006665 -283036.000000 0 1 0
0.825951 14.244202 -13.273344 19.487461 1.512876 2.320091 0.000495 0.006261 -1092770.000000 0 1 0
0.185351 14.248802 -14.484144 20.318787 1.557789 2.364343 0.003443 0.005505 -393287.000000 0 1 0
0.154451 12.930502 -15.063444 19.852684 1.558852 2.432205 0.011560 -0.011063 -149690.000000 0 1 0
-0.399349 12.996602 -16.519944 21.023313 -1.540079 2.474771 0.012401 -0.005372 14806.900000 0 1 0
0.410751 13.814302 -17.352644 22.183730 1.541071 2.469024 0.017085 -0.012768 8408.710000 0 1 0
-0.018149 13.864102 -18.693244 23.273397 -1.569487 2.503448 0.020821 -0.011458 -117350.000000 0 1 0
-0.793449 15.117802 -19.221144 24.466913 -1.518360 2.474457 0.025297 -0.010450 12174.100000 0 1 0
-0.013649 16.262202 -19.291944 25.231696 -1.569957 2.441204 0.022710 -0.012780 -328663.000000 0 0 1
-0.799349 17.392502 -19.649644 26.253506 -1.524869 2.416530 0.046442 -0.012848 -253076.000000 0 0 1
0.034851 18.606202 -19.964244 27.290346 1.568923 2.391388 0.052005 -0.011995 -264634.000000 0 0 1
0.551851 18.478402 -21.252144 28.167525 1.540941 2.425675 0.048051 -0.016308 -343469.000000 0 0 1
1.308151 19.621002 -21.546344 29.170874 1.504224 2.401825 0.043934 -0.014845 -182737.000000 0 0 1
1.939051 19.564702 -22.927344 30.202658 1.472009 2.432752 0.053871 -0.024427 -142705.000000 0 0 1
2.917951 18.546402 -23.062344 29.738109 1.414743 2.458326 0.040303 -0.021233 -85858.100000 0 0 1
3.157051 18.354202 -24.391144 30.688297 1.400456 2.489479 0.034244 -0.032410 -480034.000000 0 0 1
4.224051 17.406102 -24.837044 30.621785 1.332722 2.516811 0.028634 -0.016081 168767.000000 0 0 1
5.582351 17.681002 -24.418044 30.659767 1.264975 2.492148 0.018534 -0.005635 1095920.000000 0 0 1
6.518951 16.687502 -24.775644 30.574531 1.198377 2.515522 0.019796 0.000794 15488.800000 0 0 1
6.948551 16.639002 -26.242544 31.840381 1.175205 2.539568 0.016359 -0.006593 -361228.000000 0 0 1
8.185051 17.353702 -26.452164 32.678173 1.130076 2.514054 0.001773 -0.001379 731971.000000 0 0 1
8.630351 17.456502 -27.812674 33.952279 1.111645 2.530758 0.016362 -0.006358 103809.000000 0 0 1
9.234751 16.191802 -28.456194 34.017790 1.052475 2.561678 0.018255 -0.000575 336919.000000 0 0 1
10.484751 15.726202 -27.924774 33.719971 0.982767 2.546573 0.027704 0.003111 774963.000000 0 0 1
10.919151 14.424102 -28.377844 33.653894 0.922826 2.574053 0.024911 0.013982 217316.000000 0 0 1
10.337951 13.271202 -27.452734 32.197059 0.909007 2.591827 0.024645 0.011728 -445869.000000 0 0 1
8.976251 12.996502 -27.516094 31.727237 0.966362 2.620489 0.036159 0.007905 -676499.000000 0 0 1
8.510051 12.351102 -26.349154 30.319113 0.967483 2.624097 0.036129 0.009484 99004.600000 0 0 1
7.018051 11.988202 -26.245174 29.694767 1.041171 2.654787 0.027290 0.000262 88821.600000 0 0 1
6.136751 13.080402 -26.050844 29.789312 1.132127 2.635207 0.025244 0.004566 -1130260.000000 0 0 1
4.873451 12.559702 -25.771974 29.080771 1.200658 2.659918 0.033741 -0.006684 -656438.000000 0 0 1
3.862551 13.593402 -26.282614 29.840839 1.293944 2.648261 0.046658 -0.001229 -1038640.000000 0 0 1
3.671951 13.546502 -27.712924 31.064402 1.306094 2.672794 0.040571 -0.007685 -18721.200000 0 0 1
4.331251 14.509902 -28.513304 32.284756 1.280713 2.653399 0.044952 -0.002919 -120514.000000 0 0 1
4.056951 14.385402 -29.957564 33.479162 1.295917 2.678807 0.051443 -0.006014 -315840.000000 0 0 1
4.681751 13.270602 -30.544564 33.630314 1.231637 2.709867 0.051896 -0.008041 -115134.000000 0 0 1
4.639951 13.238502 -31.978864 34.920407 1.233686 2.728203 0.052650 -0.008456 -335859.000000 0 0 1
5.645051 12.140802 -32.535124 35.182381 1.135567 2.751191 0.057788 0.001001 2122770.000000 0 0 1
7.082151 12.401702 -32.457894 35.460879 1.051926 2.727087 0.057566 0.008496 1864340.000000 0 0 1
7.617151 12.556702 -31.122914 34.414060 1.025523 2.700689 0.052903 0.007569 -785351.000000 0 0 1
7.640251 11.339602 -30.187294 33.139594 0.977894 2.716288 0.060393 0.009685 -36022.200000 0 0 1
8.780851 10.510402 -30.338834 33.286885 0.874814 2.717555 0.054952 0.015993 403234.000000 0 0 1
8.479051 9.221602 -29.757494 32.286850 0.827324 2.743133 0.049803 0.004306 517872.000000 0 0 1
9.578451 8.165002 -30.058934 32.587628 0.705906 2.745054 0.037986 0.003125 1927.660000 0 0 1
10.797351 8.252402 -29.392854 32.382476 0.652590 2.708513 0.036623 0.005203 -417592.000000 0 0 1
11.617851 7.148602 -29.707784 32.689897 0.551602 2.711137 0.013708 0.000967 -728530.000000 0 0 1
12.838151 7.082602 -28.797334 32.315133 0.504135 2.670650 0.016188 0.012988 -139405.000000 0 0 1
13.488951 5.803002 -28.737604 32.271915 0.406270 2.669203 0.017338 0.000360 13752.300000 0 0 1
14.553151 5.650302 -29.656334 33.514448 0.370339 2.657037 0.006513 0.003771 -665032.000000 0 0 1
15.543451 4.629302 -29.102884 33.316770 0.289465 2.633185 0.014199 0.002323 -294242.000000 0 0 1
16.202151 5.018502 -27.907924 32.658035 0.300371 2.595480 0.010404 -0.004885 -50594.600000 0 0 1
17.081351 3.981002 -27.553604 32.662241 0.228974 2.574734 0.014395 0.002044 -116356.000000 0 0 1
17.819351 4.213202 -26.203904 31.967560 0.232176 2.531689 0.020254 -0.003931 -19854.400000 0 0 1
18.758651 5.272502 -26.233604 32.678559 0.274001 2.502735 0.025591 -0.010076 34845.400000 0 0 1
19.113351 5.544802 -24.910144 31.883856 0.282351 2.467506 0.027393 -0.009929 -466147.000000 0 0 1
20.167051 6.628302 -25.012644 32.806656 0.317548 2.437850 0.026292 -0.013907 -562224.000000 0 0 1
19.594151 7.834202 -25.539594 33.129689 0.380354 2.451045 0.024728 -0.008479 584255.000000 0 0 1
20.480851 8.685702 -26.288124 34.437946 0.401099 2.439276 0.025752 -0.016905 -64963.400000 0 0 1
20.635851 8.275202 -27.791544 35.590550 0.381378 2.466851 0.030355 -0.014231 276045.000000 0 0 1
19.480151 8.666302 -28.521124 35.609487 0.418587 2.499663 0.025750 -0.005231 792271.000000 0 0 1
18.446751 7.667602 -28.629654 34.910340 0.393934 2.532366 0.023997 -0.007037 -276612.000000 0 0 1
17.179351 8.223602 -29.240824 34.896755 0.446456 2.564264 0.011986 0.000237 -894060.000000 0 0 1
17.267051 8.320502 -30.665854 36.163191 0.449040 2.582969 0.007860 0.004376 -433565.000000 0 0 1
16.304151 9.112602 -31.223314 36.383515 0.509660 2.602494 0.002722 0.010930 -1046790.000000 0 0 1
15.944651 8.804002 -32.683924 37.416323 0.504500 2.633184 0.000446 0.018734 154013.000000 0 0 1
15.205551 7.571602 -32.733144 36.878132 0.462006 2.662911 0.004153 0.015521 1194840.000000 0 0 1
13.813051 7.695402 -33.087904 36.671910 0.508286 2.695798 -0.002641 0.013712 1439620.000000 0 0 1
12.991051 6.388302 -33.450424 36.448713 0.457023 2.733148 -0.004688 0.011325 479396.000000 0 0 1
12.809451 5.405002 -32.421324 35.276597 0.399288 2.736486 0.005009 0.010110 413674.000000 0 0 1
12.044851 4.253402 -32.835124 35.232304 0.339461 2.770580 0.015563 -0.001304 369210.000000 0 0 1
11.711851 3.248102 -31.701024 33.951031 0.270535 2.775485 0.023860 -0.005444 -355549.000000 0 0 1
12.783451 2.373002 -31.514644 34.091356 0.183542 2.750302 0.026520 -0.010630 -190385.000000 0 0 1
12.618451 1.312802 -30.577704 33.105056 0.103665 2.748311 0.037142 -0.010039 -463773.000000 0 0 1
11.818851 0.108502 -31.074044 33.245950 0.009180 2.778130 0.042748 -0.009665 -149619.000000 0 0 1
12.457951 -0.915898 -31.878644 34.238682 -0.073387 2.768134 0.036235 -0.004601 145507.000000 0 0 1
13.582551 -1.494898 -31.250244 34.107157 -0.109619 2.729381 0.048805 -0.009927 252359.000000 0 0 1
14.198651 -2.777698 -31.950274 35.073313 -0.193191 2.716394 0.050980 -0.010355 184460.000000 0 0 1
13.302551 -3.860298 -31.903724 34.780848 -0.282435 2.731988 0.058341 -0.009419 489711.000000 0 0 1
13.812151 -5.000698 -32.664154 35.815213 -0.347370 2.718976 0.055968 -0.010540 -213057.000000 0 0 1
12.956951 -6.230998 -32.449224 35.491690 -0.448251 2.724515 0.066937 -0.016399 -303680.000000 0 0 1
13.122351 -6.825398 -31.154214 34.487203 -0.479626 2.698327 0.059263 -0.009216 144433.000000 0 0 1
12.760451 -8.147698 -31.147644 34.632208 -0.568257 2.689154 0.063874 -0.017662 -219451.000000 0 0 1
13.079151 -8.822498 -29.803464 33.721612 -0.593438 2.654738 0.043171 -0.017091 -329066.000000 0 0 1
14.458351 -8.885198 -29.515904 34.046722 -0.551040 2.619793 0.062683 -0.013251 159887.000000 0 0 1
14.686051 -9.565798 -28.254784 33.249322 -0.577326 2.586374 0.067631 -0.019278 -10647.000000 0 0 1
14.578451 -11.067998 -28.223794 33.639476 -0.649365 2.566254 0.057914 -0.017334 437777.000000 0 0 1
13.235251 -11.475398 -28.511804 33.463108 -0.714300 2.590661 0.056306 -0.023886 707037.000000 0 0 1
13.217751 -12.873998 -28.830864 34.229629 -0.772224 2.572292 0.060288 -0.026531 145457.000000 0 0 1
-10.419649 -3.061698 -17.778444 20.833054 0.285795 2.593225 0.011677 0.002009 275839.000000 0 1 0
-11.081049 -2.523898 -18.946044 22.093263 0.223947 2.601281 0.008274 -0.001057 107618.000000 0 1 0
-11.824149 -3.499598 -19.623344 23.176137 0.287756 2.580557 -0.000454 0.007826 -666807.000000 0 1 0
-12.639249 -2.814198 -20.720244 24.433559 0.219082 2.583042 0.002098 -0.007620 -1140320.000000 0 1 0
-13.642849 -2.014698 -20.257144 24.505881 0.146615 2.543878 -0.000587 -0.005548 -522256.000000 0 1 0
-14.498949 -1.649298 -21.357444 25.866583 0.113266 2.542198 0.009499 -0.005836 849736.000000 0 0 1
-15.318049 -0.338898 -21.097144 26.073875 0.022121 2.513466 0.007725 0.000190 768596.000000 0 0 1
-14.518649 0.812902 -21.457944 25.920944 -0.055932 2.546012 0.005210 0.000141 584088.000000 0 0 1
-15.141349 1.987502 -20.947244 25.922917 -0.130517 2.511646 0.003030 0.010014 14365.900000 0 0 1
-14.761249 3.336502 -21.637544 26.404735 -0.222296 2.531259 0.017751 -0.005781 976714.000000 0 0 1
-13.413249 3.678302 -21.246144 25.393774 -0.267649 2.561966 0.022468 -0.008545 951962.000000 0 0 1
-12.984549 4.847102 -21.839744 25.866335 -0.357277 2.576111 0.028022 -0.007854 -474891.000000 0 0 1
-11.767749 5.493702 -21.186344 24.849987 -0.436773 2.591679 0.015966 -0.002047 -547465.000000 0 1 0
-12.010049 6.169102 -19.951744 24.090894 -0.474517 2.546660 0.021261 -0.008785 337658.000000 0 1 0
-10.876749 6.246702 -19.087644 22.839945 -0.521321 2.560227 0.010717 -0.006681 37858.600000 0 1 0
-11.110149 6.899702 -17.680244 21.991642 -0.555737 2.504709 0.014457 -0.009183 -115009.000000 0 1 0
-11.551549 8.233702 -17.683644 22.670319 -0.619251 2.465518 0.009483 -0.011931 734331.000000 0 1 0
-12.802149 8.296702 -16.977944 22.825005 -0.575018 2.409580 0.025956 -0.005289 421106.000000 0 1 0
-13.536649 9.630202 -16.924544 23.715434 -0.618347 2.365493 0.031852 -0.004239 -238429.000000 0 1 0
-12.854249 10.578802 -16.122944 23.175247 -0.688597 2.340186 0.016587 -0.003544 293203.000000 0 1 0
-13.280549 11.857402 -16.526144 24.291652 -0.728845 2.318998 0.018568 -0.003332 121670.000000 0 1 0
-12.608349 13.007402 -15.680244 23.958986 -0.800975 2.284267 0.027653 -0.003696 -208798.000000 0 1 0
-13.106749 13.061802 -14.315644 23.395196 -0.783681 2.229264 0.034318 -0.005555 505626.000000 0 1 0
-12.473749 14.140502 -13.581144 23.237807 -0.847943 2.194988 0.034474 -0.015849 -576269.000000 0 1 0
-12.907849 14.369202 -12.122044 22.804176 -0.838921 2.131251 0.030276 -0.020137 300365.000000 0 1 0
-14.157749 15.012602 -11.962044 23.851846 -0.814695 2.096145 0.025305 -0.018149 1098000.000000 0 1 0
-15.319649 14.190002 -12.171544 24.170111 -0.747136 2.098532 0.020618 -0.011607 324628.000000 0 1 0
-16.700049 14.604802 -11.609844 25.039575 -0.718567 2.052918 0.004560 -0.008497 -383879.000000 0 0 1
-17.756449 14.043502 -12.282244 25.755872 -0.669165 2.067888 0.001347 -0.001112 -355643.000000 0 0 1
-18.956849 14.432202 -11.616844 26.506633 -0.650706 2.024460 0.042960 -0.012363 1133260.000000 0 0 1
-20.291349 13.850302 -12.268244 27.460508 -0.598933 2.033936 0.036979 -0.024533 791118.000000 0 0 1
-20.408849 12.423902 -12.286944 26.867144 -0.546829 2.045778 0.037533 -0.023276 -117825.000000 0 0 1
-21.525849 11.952002 -12.968544 27.827965 -0.506857 2.055590 0.057179 -0.021885 -635424.000000 0 0 1
-22.143849 10.639802 -12.404444 27.521367 -0.447915 2.038369 0.049344 -0.018241 8382.760000 0 0 1
-21.276449 9.542302 -12.575744 26.493247 -0.421599 2.065394 0.043933 -0.018156 554551.000000 0 0 1
-21.676349 8.466602 -11.698044 26.045953 -0.372370 2.036589 0.041509 -0.015126 -42005.400000 0 0 1
-20.526849 7.438502 -11.745244 24.791805 -0.347660 2.064346 0.043085 -0.013026 34926.300000 0 1 0
-20.499849 6.568202 -12.824244 25.056861 -0.310068 2.108082 0.058465 -0.016982 382613.000000 0 0 1
-19.406549 5.680602 -12.679044 23.867164 -0.284761 2.130852 0.056735 -0.016018 -85025.800000 0 1 0
-19.439549 4.472802 -13.667844 24.180818 -0.226152 2.171514 0.063754 -0.027986 -323338.000000 0 1 0
-20.204649 3.384802 -13.233044 24.388484 -0.165985 2.144318 0.055723 -0.031156 328795.000000 0 1 0
-20.017349 2.331702 -14.163444 24.631976 -0.115961 2.183403 0.056100 -0.033938 -405757.000000 0 1 0
-20.846649 1.091802 -13.758844 25.001612 -0.052325 2.153542 0.050925 -0.032086 747518.000000 0 0 1
-22.152549 1.167002 -14.371044 26.431500 -0.052632 2.145646 0.039731 -0.025240 815197.000000 0 0 1
-22.747849 -0.119598 -14.344944 26.893426 0.005258 2.133411 0.034922 -0.026173 -230714.000000 0 0 1
-23.971049 -0.224998 -15.291444 28.433960 0.009386 2.138608 0.045754 -0.022787 131260.000000 0 0 1
-25.132299 0.304302 -14.693244 29.113853 -0.012107 2.099810 0.064251 -0.029139 -610745.000000 0 0 1
-26.305849 -0.036198 -15.360844 30.462346 0.001376 2.099317 0.056341 -0.022020 -670644.000000 0 0 1
-27.516109 0.269202 -14.489944 31.099312 -0.009783 2.055476 0.060258 -0.016602 -705595.000000 0 0 1
-27.667789 -0.510398 -13.322444 30.712449 0.018445 2.019480 0.061015 -0.015546 188263.000000 0 0 1
-28.860299 -0.120598 -12.669044 31.518821 0.004179 1.984444 0.080592 -0.016880 262380.000000 0 0 1
-28.829709 -0.878098 -11.303744 30.978990 0.030449 1.944305 0.070901 -0.017870 -221476.000000 0 0 1
-29.297519 -2.225798 -11.243744 31.459825 0.075827 1.936279 0.061071 -0.008983 61480.600000 0 0 1
-28.599979 -3.159598 -11.962644 31.161622 0.110029 1.964802 0.060297 -0.013427 -724407.000000 0 0 1
-28.754029 -4.653098 -11.501944 31.316772 0.160433 1.946877 0.050412 -0.014955 652904.000000 0 0 1
-30.095979 -5.165698 -11.675244 32.691952 0.169984 1.935989 0.055546 -0.013637 1110970.000000 0 0 1
-30.329639 -6.525298 -11.254044 33.001818 0.211916 1.918790 0.069000 -0.016332 230149.000000 0 0 1
-29.519799 -7.664598 -12.021144 32.782198 0.254033 1.946253 0.068993 -0.023867 225750.000000 0 0 1
-28.181989 -7.783098 -11.603444 31.455381 0.269456 1.948606 0.031133 -0.013579 -358209.000000 0 0 1
-27.503549 -8.879898 -12.219244 31.378459 0.312299 1.970793 0.036681 -0.014244 -1351750.000000 0 0 1
-26.093889 -8.831498 -11.745244 29.947239 0.326349 1.973816 0.038103 -0.022757 -1992110.000000 0 0 1
-25.430979 -7.653298 -12.184844 29.219481 0.292323 2.000951 0.032066 -0.023655 -358800.000000 0 0 1
-24.131849 -7.462498 -11.725644 27.848263 0.299911 2.005404 0.037871 -0.029192 -722847.000000 0 0 1
-23.862749 -7.349298 -10.178744 26.963861 0.298764 1.957887 0.033291 -0.022568 -761362.000000 0 0 1
-24.218149 -6.236198 -9.391244 26.713374 0.252026 1.930029 0.025830 -0.014142 222570.000000 0 0 1
-25.565249 -5.820198 -9.407844 27.856134 0.223845 1.915300 0.034053 -0.019269 -499388.000000 0 0 1
-25.830929 -4.397698 -8.711244 27.612722 0.168632 1.891758 0.035197 -0.017764 -218868.000000 0 0 1
-25.570029 -4.283198 -7.334244 26.943706 0.165968 1.846481 0.026283 -0.009781 373813.000000 0 0 1
-25.694879 -2.961398 -6.857644 26.758624 0.114746 1.829966 0.045943 -0.007766 -31308.100000 0 0 1
-25.383889 -2.815498 -5.312644 26.086261 0.110465 1.775888 0.045621 -0.005208 713472.000000 0 0 1
-24.014549 -3.020798 -4.940444 24.702870 0.125133 1.772149 0.015816 -0.003714 904345.000000 0 1 0
-23.902749 -2.974298 -3.523244 24.343400 0.123797 1.716037 -0.003190 -0.001032 -603960.000000 0 1 0
-22.645349 -3.649198 -3.009744 23.134110 0.159772 1.701266 0.000373 0.001988 -490644.000000 0 1 0
-22.695949 -5.015398 -2.961244 23.431374 0.217487 1.697515 0.018050 0.002203 446843.000000 0 1 0
-21.434549 -5.543898 -2.586544 22.290467 0.253097 1.687096 0.019467 -0.006053 227463.000000 0 1 0
-21.485349 -7.079498 -2.594244 22.769928 0.318300 1.684977 0.038336 -0.004547 -65498.000000 0 1 0
-22.095349 -7.606398 -1.454644 23.413196 0.331546 1.632966 0.034866 0.006236 84032.400000 0 1 0
-22.748849 -8.797798 -1.765944 24.454651 0.369020 1.643072 0.040770 -0.004609 -138750.000000 0 1 0
-23.147049 -9.622298 -0.513244 25.072653 0.393970 1.591268 0.035192 -0.010055 262456.000000 0 0 1
-22.034349 -10.104898 0.241056 24.242104 0.429981 1.560852 0.021822 -0.006285 407401.000000 0 1 0
-22.374049 -11.015598 1.260156 24.970572 0.457499 1.520309 0.015901 -0.006724 -121214.000000 0 1 0
-21.060049 -11.347498 1.973256 24.003856 0.494216 1.488498 0.015306 -0.007960 -301575.000000 0 1 0
-20.336349 -12.235098 1.189556 23.762991 0.541622 1.520716 0.025844 -0.004866 989249.000000 0 1 0
-19.076549 -12.616598 1.820256 22.943553 0.584325 1.491377 0.001455 -0.004218 1399650.000000 0 1 0
-18.303449 -13.752198 1.076756 22.919394 0.644361 1.523799 0.011751 -0.002716 -57634.900000 0 1 0
-19.108349 -14.927898 1.047356 24.270725 0.663187 1.527630 0.026072 -0.003868 252715.000000 0 1 0
-18.644049 -16.072598 0.308356 24.617556 0.711464 1.558270 0.028688 -0.004368 -64547.800000 0 1 0
-17.422949 -16.756898 0.976156 24.193091 0.765914 1.530437 0.037322 -0.001873 -611441.000000 0 1 0
-16.237749 -16.011498 0.909756 22.822362 0.778383 1.530923 0.035877 -0.006402 -32415.600000 0 1 0
-15.108749 -16.727798 1.408856 22.584916 0.836209 1.508375 0.039733 -0.007894 427940.000000 0 1 0
-15.007449 -16.753798 2.961456 22.686637 0.840327 1.439885 0.035891 -0.003668 -632380.000000 0 1 0
-14.815449 -15.436598 3.482856 21.677555 0.805928 1.409430 0.023453 -0.009617 37801.800000 0 1 0
-14.001149 -15.338998 4.633956 21.278877 0.830965 1.351265 0.005908 -0.003100 -185693.000000 0 1 0
-14.546349 -15.846598 6.009156 22.334299 0.828153 1.298385 0.025918 -0.005163 -514095.000000 0 1 0
-15.452949 -14.958298 6.653556 22.512533 0.769134 1.270766 0.020422 -0.004161 74122.800000 0 1 0
-15.773749 -15.350698 8.012856 23.423513 0.771807 1.221660 0.023842 -0.002905 155902.000000 0 1 0
-16.804849 -16.482498 8.277756 24.951893 0.775715 1.232640 0.024534 -0.008599 -23679.600000 0 1 0
-16.257549 -17.778298 7.939756 25.365637 0.830049 1.252433 0.028373 -0.004541 26717.200000 0 0 1
-16.697949 -18.848098 8.712256 26.645370 0.845814 1.237700 0.028022 -0.006382 -184444.000000 0 0 1
-16.267749 -18.899998 10.233956 26.955212 0.860107 1.181362 0.037104 -0.010445 568339.000000 0 0 1
-14.917449 -19.313598 10.441056 26.543568 0.913125 1.166518 0.025330 -0.009366 299463.000000 0 0 1
-14.750949 -19.719698 11.749556 27.285694 0.928556 1.125625 0.041498 -0.012409 -532965.000000 0 0 1
-13.420449 -20.401498 11.958456 27.190702 0.988946 1.115421 0.037917 -0.008789 -693553.000000 0 0 1
-12.254849 -19.643098 11.947856 26.053482 1.013006 1.094389 0.021410 -0.002070 -1184680.000000 0 0 1
-11.109249 -20.416398 11.983556 26.150533 1.072468 1.094768 0.013338 -0.000698 -762140.000000 0 0 1
-9.860849 -19.601998 12.294156 25.151957 1.104709 1.060088 0.017851 0.002603 -310500.000000 0 0 1
-9.228449 -19.039798 11.179356 23.930236 1.119469 1.084715 0.009481 0.006027 242827.000000 0 1 0
-8.235949 -18.078198 11.607956 23.008624 1.143317 1.041988 0.005692 0.002457 887065.000000 0 1 0
-7.388949 -17.371498 10.485956 21.594462 1.168630 1.063764 0.000191 0.003330 1014480.000000 0 1 0
-6.341549 -18.224998 9.958056 21.714711 1.235941 1.094393 -0.002908 0.002699 254867.000000 0 1 0
-5.665349 -17.554798 8.946756 20.501502 1.258625 1.119208 -0.000087 0.005583 27703.800000 0 1 0
-4.450449 -18.320298 8.384656 20.633523 1.332488 1.152329 -0.000543 0.001789 683818.000000 0 1 0
-3.255649 -18.386898 9.162756 20.799841 1.395549 1.114618 0.000196 0.007054 -244348.000000 0 1 0
-2.257549 -19.022998 8.442356 20.934287 1.452674 1.155699 0.006341 0.001599 -839192.000000 0 1 0
-0.974549 -19.315098 9.181956 21.408669 1.520384 1.127533 0.010587 0.004429 -586688.000000 0 1 0
-0.075049 -19.975598 8.340756 21.647133 1.567039 1.175258 0.016964 0.009522 -301424.000000 0 1 0
1.173151 -20.216698 8.977256 22.151350 -1.512833 1.153523 0.021926 0.002445 310811.000000 0 1 0
2.247451 -20.775198 8.028956 22.385800 -1.463036 1.203961 0.024002 -0.005808 -340270.000000 0 1 0
2.076151 -22.144998 7.607556 23.507154 -1.477317 1.241236 0.028956 -0.003205 -87486.100000 0 1 0
2.418451 -23.064798 8.673956 24.760278 -1.466323 1.212886 0.032393 -0.002305 -191049.000000 0 1 0
1.889851 -24.425698 8.343156 25.880389 -1.493579 1.242560 0.022817 -0.006025 -184666.000000 0 0 1
2.030651 -25.341548 9.416556 27.110683 -1.490836 1.216066 0.022451 -0.009076 -111167.000000 0 0 1
1.615351 -26.627698 8.931856 28.132219 -1.510206 1.247709 0.028704 -0.003198 -510255.000000 0 0 1
1.764251 -27.782428 9.912056 29.550377 -1.507379 1.228736 0.026839 -0.008032 115540.000000 0 0 1
0.992951 -27.727758 11.101056 29.883909 -1.535001 1.190202 0.018540 -0.015900 407651.000000 0 0 1
-0.412049 -27.936028 10.962456 30.012779 1.556048 1.196885 0.000216 -0.011253 654145.000000 0 0 1
-1.233749 -28.106558 12.276656 30.695554 1.526929 1.159335 -0.003630 -0.015758 203791.000000 0 0 1
-1.028449 -29.348668 12.890356 32.071223 1.535768 1.157174 -0.015368 -0.014875 -117464.000000 0 0 1
-1.135349 -29.175148 14.260156 32.493543 1.531901 1.116465 -0.026219 -0.014438 -188068.000000 0 0 1
-0.550349 -30.281568 15.144956 33.862161 1.552624 1.107105 -0.043615 0.003023 190367.000000 0 0 1
-0.811449 -29.941738 16.478756 34.186482 1.543702 1.067831 -0.039662 0.007001 -179660.000000 0 0 1
-0.223849 -30.828748 17.399656 35.400704 1.563535 1.056978 -0.050409 0.014124 -54043.500000 0 0 1
-0.422449 -30.454078 18.865556 35.826507 1.556926 1.016223 -0.044502 0.010990 18544.100000 0 0 1
-1.811449 -30.350808 19.091356 35.901710 1.511183 1.010110 -0.047848 0.013903 -12504.700000 0 0 1
-2.217149 -30.236338 20.446456 36.567875 1.497600 0.977452 -0.020244 0.005294 -519989.000000 0 0 1
-3.728149 -30.273138 20.657656 36.838849 1.448263 0.975496 0.019616 -0.010990 -799318.000000 0 0 1
-4.318749 -29.087888 20.144056 35.644633 1.423401 0.970199 0.025881 -0.015937 -88928.700000 0 0 1
-5.625249 -28.882078 20.630656 35.936637 1.378438 0.959311 0.040473 -0.023140 47446.600000 0 0 1
-5.713249 -28.068238 21.944356 36.083542 1.369991 0.917063 0.039717 -0.028592 -314291.000000 0 0 1
-4.924449 -28.550928 23.022456 37.005935 1.399997 0.899338 0.035363 -0.025079 157346.000000 0 0 1
-4.808249 -27.582198 24.069756 36.922217 1.398206 0.860703 0.028544 -0.022814 275033.000000 0 0 1
-3.617649 -27.872508 25.058656 37.655018 1.441725 0.842660 0.036990 -0.019332 302950.000000 0 0 1
-3.698849 -29.048328 25.848356 39.059242 1.444144 0.847615 0.039153 -0.015704 102031.000000 0 0 1
-3.173649 -30.260418 25.340356 39.596700 1.466300 0.876348 0.025448 -0.016463 8084.240000 0 0 1
-3.621649 -31.431088 26.214356 41.087980 1.456077 0.878891 0.036715 -0.012120 276832.000000 0 0 1
-3.079549 -31.304118 27.531756 41.802261 1.472737 0.851815 0.033226 -0.014581 359266.000000 0 0 1
-3.651149 -32.298748 28.338156 43.122977 1.458231 0.853768 0.033019 -0.017659 288454.000000 0 0 1
-2.950749 -32.294718 29.768256 44.020505 1.479680 0.828155 0.054736 -0.017476 491410.000000 0 0 1
-1.631649 -32.779598 29.933256 44.420313 1.521061 0.831370 0.053955 -0.019596 59028.900000 0 0 1
-1.017449 -32.151358 31.011256 44.681574 1.539161 0.803697 0.060967 -0.018283 -164381.000000 0 0 1
-28.191949 3.318502 -10.399844 30.231692 -0.117172 1.921975 0.069726 -0.021680 -139782.000000 0 0 1
-28.820129 3.020302 -11.590744 31.210053 -0.104417 1.951290 0.065098 -0.030499 -440986.000000 0 0 1
-29.691269 4.052702 -11.953444 32.262682 -0.135656 1.950348 0.050346 -0.024798 205879.000000 0 0 1
-30.590629 3.697302 -13.225444 33.531612 -0.120280 1.976230 0.059731 -0.022959 193382.000000 0 0 1
-31.598279 2.783802 -12.880344 34.236005 -0.087873 1.956512 0.065566 -0.021120 42690.400000 0 0 1
-32.588069 2.661902 -13.887144 35.523523 -0.081502 1.972436 0.063604 -0.020655 -125223.000000 0 0 1
-33.561369 1.539902 -13.547044 36.225118 -0.045851 1.954080 0.043090 -0.020253 -346969.000000 0 0 1
-32.998909 0.263502 -13.643544 35.709154 -0.007985 1.962836 0.060423 -0.016460 -327493.000000 0 0 1
-33.719569 -0.642398 -12.888144 36.104380 0.019049 1.935817 0.043918 -0.008454 -415697.000000 0 0 1
-33.030849 -1.955598 -12.660244 35.427999 0.059136 1.936227 0.040099 -0.009729 -249583.000000 0 0 1
-33.225279 -2.900998 -13.677044 36.047142 0.087092 1.959967 0.052190 -0.010875 121454.000000 0 0 1
-32.729239 -4.120398 -13.227544 35.540803 0.125235 1.952152 0.059342 -0.012226 -71778.500000 0 0 1
-33.232079 -5.206098 -14.243644 36.528837 0.155396 1.971351 0.065121 -0.017503 212985.000000 0 0 1
-33.035909 -6.526798 -13.807744 36.395387 0.195055 1.959924 0.061720 -0.023011 78761.800000 0 0 1
-33.458029 -7.559098 -14.680744 37.310909 0.222197 1.975200 0.062579 -0.013681 -309847.000000 0 0 1
-33.146219 -8.947698 -14.024944 37.086819 0.263662 1.958610 0.048643 -0.012860 1596220.000000 0 0 1
-31.732779 -9.293498 -13.904744 35.870326 0.284900 1.968865 0.059299 -0.018006 1605170.000000 0 0 1
-31.052009 -9.726898 -15.069844 35.860006 0.303564 2.004507 0.069495 -0.020252 -696849.000000 0 0 1
-30.046279 -10.772998 -14.626744 35.110938 0.344269 2.000484 0.070268 -0.021334 -656517.000000 0 0 1
-30.627869 -11.900798 -14.007544 35.719835 0.370607 1.973764 0.062806 -0.016676 236787.000000 0 0 1
-29.632279 -12.886798 -13.806244 35.139065 0.410218 1.974583 0.060497 -0.017223 27007.600000 0 0 1
-29.955559 -14.222698 -14.535844 36.206511 0.443280 1.983918 0.061358 -0.022543 -252543.000000 0 0 1
-29.479649 -14.234498 -15.828744 36.362340 0.449841 2.021174 0.053608 -0.022469 -145626.000000 0 0 1
-29.731489 -15.431598 -16.491344 37.337114 0.478757 2.028275 0.059721 -0.027619 -144662.000000 0 0 1
-28.865889 -16.680498 -16.148344 37.043860 0.523982 2.021862 0.053815 -0.027171 568811.000000 0 0 1
-27.493839 -16.371698 -16.351344 35.934804 0.537080 2.043200 0.054871 -0.032338 337307.000000 0 0 1
-26.528599 -17.444598 -16.368144 35.721096 0.581683 2.046789 0.058292 -0.040467 -509958.000000 0 0 1
-25.255909 -16.890598 -16.896944 34.765787 0.589463 2.078329 0.064728 -0.051195 -1061730.000000 0 0 1
-25.368649 -16.341498 -18.223944 35.252306 0.572260 2.114089 0.060255 -0.041375 232748.000000 0 0 1
-24.054249 -15.923298 -18.560644 34.302417 0.584747 2.142527 0.036692 -0.026936 218454.000000 0 0 1
-24.072949 -15.356698 -20.029244 34.878441 0.567839 2.182495 0.036376 -0.022032 10753.500000 0 0 1
-24.518849 -16.274498 -21.002544 36.154392 0.585984 2.190646 0.035162 -0.025989 900101.000000 0 0 1
-25.946249 -16.293098 -21.143844 37.225462 0.560722 2.174863 0.047364 -0.031811 717353.000000 0 0 1
-26.525829 -17.599898 -21.832144 38.600758 0.585807 2.171943 0.048076 -0.025245 104129.000000 0 0 1
-25.963859 -17.682298 -23.120244 39.004247 0.597884 2.205281 0.040649 -0.011241 209430.000000 0 0 1
-26.394309 -18.933398 -23.694644 40.206582 0.622262 2.201016 0.032939 -0.005089 101259.000000 0 0 1
-25.753709 -19.170498 -25.125594 40.768333 0.639893 2.234834 0.029613 -0.003446 1353870.000000 0 0 1
-24.366749 -19.554098 -25.210914 40.145876 0.676258 2.249755 0.031519 -0.003970 742524.000000 0 0 1
-24.160949 -20.939898 -24.891344 40.519252 0.714100 2.232306 0.029814 -0.002699 -1160430.000000 0 0 1
-22.683949 -21.242498 -24.889744 39.815884 0.752595 2.246083 0.032743 0.002332 -787474.000000 0 0 1
-22.218149 -21.257098 -26.217344 40.408656 0.763296 2.276809 0.036450 -0.002665 -582312.000000 0 0 1
-20.904049 -21.737298 -26.302554 40.016418 0.804937 2.288019 0.031200 -0.004036 -271997.000000 0 0 1
-20.286849 -21.508998 -27.678494 40.500522 0.814631 2.323221 0.026394 -0.006070 -312656.000000 0 0 1
-20.921449 -22.305698 -28.635694 41.895754 0.817410 2.323341 0.067057 -0.002447 -37612.600000 0 0 1
-20.689149 -21.775698 -29.912724 42.390954 0.810980 2.354121 0.052652 -0.012896 151611.000000 0 0 1
-19.396749 -22.259098 -30.633174 42.545184 0.854005 2.374620 0.044956 -0.014805 482394.000000 0 0 1
-19.630949 -23.499098 -31.257854 43.756545 0.874845 2.366503 0.048822 -0.013665 43245.800000 0 0 1
-18.644949 -23.703898 -32.264414 44.164480 0.904294 2.389925 0.043316 -0.014277 -2643.850000 0 0 1
-18.976849 -24.658198 -33.485344 45.710128 0.914871 2.392869 0.054269 -0.005656 139480.000000 0 0 1
-17.994749 -24.506798 34.332195 45.859500 0.937435 0.724790 0.058743 -0.005856 -319712.000000 0 0 1
-18.573449 -24.919498 33.104649 45.407843 0.930286 0.753861 0.086865 -0.012882 -430217.000000 0 0 1
-17.778849 -24.737298 31.815177 44.048006 0.947626 0.763697 0.087172 -0.010728 -504086.000000 0 0 1
-17.112649 -23.501298 31.735917 43.038613 0.941422 0.741609 0.061225 -0.005829 -130192.000000 0 0 1
-16.581649 -23.275498 30.433657 41.748142 0.951791 0.753962 0.076731 -0.013369 371619.000000 0 0 1
-15.840749 -21.906698 30.299537 40.606584 0.944734 0.728501 0.048325 -0.010090 201787.000000 0 0 1
-16.744749 -20.834498 30.264697 40.378395 0.893802 0.723449 0.048065 -0.004679 145409.000000 0 0 1
-16.054849 -19.581898 30.222107 39.428221 0.884049 0.697408 0.042316 -0.006904 378376.000000 0 0 1
-15.125749 -19.131998 31.401287 39.760061 0.901814 0.660363 0.044399 -0.007479 424296.000000 0 0 1
-14.765649 -17.772398 31.120347 38.760270 0.877544 0.638664 0.046471 -0.004350 -464067.000000 0 0 1
-13.822849 -17.286698 32.014577 38.920871 0.896285 0.604906 0.052976 -0.012606 -150146.000000 0 0 1
-13.323449 -15.820898 31.798027 37.933226 0.870882 0.576706 0.052833 -0.015965 -246772.000000 0 0 1
-12.581049 -15.626798 30.627887 36.613482 0.892957 0.579897 0.059024 -0.022812 21093.700000 0 0 1
-12.023349 -14.316298 30.532017 35.801136 0.872232 0.549430 0.055433 -0.024304 -570478.000000 0 0 1
-10.510249 -14.343898 30.657437 35.441377 0.938438 0.525610 0.062921 -0.030021 -857784.000000 0 0 1
-10.053949 -13.018998 30.756547 34.878953 0.913205 0.491114 0.061178 -0.029761 -1263550.000000 0 0 1
-8.688949 -12.936998 30.912887 34.618930 0.979362 0.466945 0.044286 -0.024309 -1137980.000000 0 0 1
-8.306049 -11.433798 30.830257 33.914995 0.942540 0.429810 0.030422 -0.026968 -243172.000000 0 0 1
-8.921749 -10.590598 31.800787 34.684988 0.870718 0.410689 0.033242 -0.027511 127260.000000 0 0 1
-8.807749 -9.225398 31.448607 33.936695 0.808554 0.385303 0.013673 -0.019967 -218014.000000 0 0 1
-9.485549 -8.226298 32.450617 34.794973 0.714421 0.369180 -0.004864 -0.016858 697899.000000 0 0 1
-10.907749 -8.405398 32.394977 35.200344 0.656549 0.401942 0.005838 -0.015158 1247900.000000 0 0 1
-11.755849 -7.712798 33.373480 36.214312 0.580639 0.398730 0.009517 -0.019290 659913.000000 0 0 1
-11.606749 -6.163998 33.671135 36.144942 0.488194 0.372120 0.000672 -0.020823 -515505.000000 0 0 1
-11.973149 -5.279198 32.618387 35.145204 0.415277 0.381510 0.009866 -0.013749 267562.000000 0 0 1
-12.373649 -4.042598 33.122597 35.588709 0.315778 0.374460 0.011467 -0.016103 -358010.000000 0 0 1
-11.851949 -2.839698 32.223957 34.451647 0.235164 0.361581 0.005578 -0.003511 272756.000000 0 0 1
-10.439349 -2.731298 32.275047 34.031142 0.255899 0.322653 0.007161 -0.011933 278709.000000 0 0 1
-9.994849 -1.700098 31.432827 33.027412 0.168485 0.312007 0.001046 -0.007401 -286207.000000 0 0 1
-8.502649 -1.351798 31.542437 32.696295 0.157666 0.266457 0.006547 -0.010158 -232368.000000 0 0 1
-8.211149 -0.805498 32.767258 33.790013 0.097785 0.246665 0.017604 -0.023469 -372439.000000 0 0 1
-6.844549 -0.558398 32.962927 33.670673 0.081403 0.205396 0.030662 -0.032421 -386999.000000 0 0 1
-6.472049 -0.019598 34.319439 34.924371 0.003028 0.186394 0.049121 -0.038888 -358021.000000 0 0 1
-7.027449 1.249402 -34.109842 34.848635 -0.175950 2.935314 0.044911 -0.028763 267903.000000 0 0 1
-6.514049 2.422402 34.026265 34.728771 -0.356027 0.201479 0.049258 -0.016161 -346470.000000 0 0 1
-7.280749 3.705502 34.381486 35.338741 -0.470778 0.233286 0.056770 -0.017305 -823576.000000 0 0 1
-8.529049 3.800102 33.768825 35.035967 -0.419146 0.269767 0.025125 -0.007973 -191980.000000 0 0 1
-9.185749 5.060602 33.957972 35.540561 -0.503548 0.299545 0.005416 0.014894 439471.000000 0 0 1
-10.375749 5.235902 32.980033 34.967891 -0.467344 0.338807 -0.009696 0.019113 317451.000000 0 0 1
-11.208249 6.384002 33.127054 35.549712 -0.517752 0.371314 -0.005193 0.017021 682096.000000 0 0 1
-12.274649 6.420202 32.179957 35.034777 -0.481914 0.406489 -0.023602 0.019818 174737.000000 0 0 1
-12.962249 7.785502 32.206827 35.579680 -0.540882 0.438940 0.003676 0.006949 -464825.000000 0 0 1
-13.748049 7.984802 33.346156 36.942279 -0.526179 0.444896 0.002285 0.001415 -75953.700000 0 0 1
-14.442149 9.212902 33.204673 37.363130 -0.567835 0.476291 0.008737 0.003576 -506768.000000 0 0 1
-15.318049 9.404002 -34.404428 38.816781 -0.550589 2.660152 0.010774 -0.003093 31200.500000 0 0 1
-14.567449 9.720202 -33.208854 37.543586 -0.588410 2.656306 0.018749 -0.005217 1273560.000000 0 0 1
-15.522849 10.090502 -32.164994 37.112853 -0.576405 2.619306 0.034096 -0.006438 691051.000000 0 0 1
-14.710049 10.350502 -30.822264 35.686557 -0.613161 2.613350 0.047869 -0.013644 948334.000000 0 0 1
-13.722649 11.360502 -30.755014 35.542129 -0.691502 2.616568 0.054255 -0.013289 190829.000000 0 0 1
-12.571249 11.131702 -31.543614 35.734446 -0.724740 2.652422 0.052840 -0.017136 -1115060.000000 0 0 1
-11.724649 12.355502 -31.623754 35.919182 -0.811590 2.647531 0.056219 -0.017904 -530060.000000 0 0 1
-12.386049 13.439602 -32.237704 37.058152 -0.826170 2.625841 0.054222 -0.017364 200455.000000 0 0 1
-11.482949 14.519302 -32.307744 37.235179 -0.901644 2.621287 0.049069 -0.018677 77709.200000 0 0 1
-11.670049 15.579002 -31.202244 36.776016 -0.927879 2.583827 0.063827 -0.021428 931843.000000 0 0 1
-12.895449 16.334802 -31.370304 37.645907 -0.902524 2.555845 0.060271 -0.020589 862109.000000 0 0 1
-13.098749 17.380302 -30.402294 37.389191 -0.924960 2.520307 0.051090 -0.017390 -507772.000000 0 0 1
-14.539649 17.881702 -30.296424 38.066126 -0.888117 2.491271 0.037303 -0.017408 -395092.000000 0 0 1
-14.883649 18.662302 -31.443804 39.478061 -0.897566 2.492261 0.039301 -0.013772 543202.000000 0 0 1
-16.216149 19.176902 -31.522624 40.303757 -0.868857 2.468867 0.034586 -0.011368 865653.000000 0 0 1
-16.652149 20.427002 -30.679674 40.445010 -0.886854 2.431886 -0.000755 -0.007733 -385532.000000 0 0 1
-16.001549 21.553202 -31.201134 41.159456 -0.932163 2.431122 0.002759 -0.001469 33297.300000 0 0 1
-16.232849 22.826902 -30.591314 41.477720 -0.952641 2.400211 -0.007196 -0.003959 -166545.000000 0 0 1
-17.576249 23.416202 -31.069674 42.691541 -0.926910 2.385863 -0.014413 -0.000166 376633.000000 0 0 1
-18.731049 22.775802 -30.523234 42.441220 -0.882539 2.373430 -0.004789 -0.004322 229577.000000 0 0 1
-19.777649 22.812702 -31.454014 43.599653 -0.856539 2.376659 0.017148 -0.005173 407995.000000 0 0 1
-21.110549 22.062902 -31.060894 43.556928 -0.807453 2.364721 0.021800 -0.013906 393496.000000 0 0 1
-22.084149 22.701302 -30.270894 43.810795 -0.799177 2.333593 0.054132 -0.014341 1281090.000000 0 0 1
-23.093549 23.492102 -30.987254 45.226107 -0.793953 2.325624 0.064717 -0.017843 1261790.000000 0 0 1
-24.232949 22.686402 -31.711724 45.907974 -0.752448 2.333346 0.064708 -0.029923 -334338.000000 0 0 1
-23.769449 21.982502 -32.834594 46.112120 -0.746361 2.363224 0.060414 -0.024773 -188814.000000 0 0 1
-24.830649 21.722502 -33.705794 47.164698 -0.718732 2.366906 0.067522 -0.029028 -222494.000000 0 0 1
-24.584949 20.664602 34.056275 46.811060 -0.698976 0.756087 0.054339 -0.014507 -97721.900000 0 0 1
-24.534649 19.345102 -34.277021 46.379911 -0.667678 2.402454 0.055290 -0.011208 218783.000000 0 0 1
-24.223549 18.520602 33.404256 45.228722 -0.652761 0.739860 0.049448 -0.015188 -242548.000000 0 0 1
-23.986849 17.000902 33.661081 44.693041 -0.616581 0.717941 0.018689 -0.004763 -351520.000000 0 0 1
-25.077879 16.164602 33.961599 45.206023 -0.572553 0.720823 0.012100 0.003356 156719.000000 0 0 1
-25.666219 15.577802 32.810847 44.474423 -0.545505 0.741070 0.022464 -0.002828 -23713.600000 0 0 1
-26.591079 14.342802 32.954526 44.707966 -0.494656 0.742018 -0.005150 0.002380 860124.000000 0 0 1
-27.793419 14.599902 33.716692 46.070018 -0.483683 0.749752 -0.000850 0.002464 822299.000000 0 0 1
-28.780389 13.580702 33.569925 46.256741 -0.440894 0.758701 0.009679 0.004777 -52947.100000 0 0 1
-28.545069 12.262902 34.385479 46.341783 -0.405759 0.734752 0.011827 0.000914 538235.000000 0 0 1
-27.490499 11.387402 33.870267 45.084314 -0.392713 0.720820 0.012231 -0.005757 355807.000000 0 0 1
-27.685049 10.092102 34.259084 45.188464 -0.349562 0.710344 0.012003 0.000175 90162.500000 0 0 1
-26.403439 9.153802 -34.348295 44.280233 -0.333723 2.458624 0.012249 -0.007247 1276650.000000 0 0 1
-25.524529 9.099202 33.332332 42.957437 -0.342444 0.682595 0.012838 -0.007544 292233.000000 0 0 1
-24.728149 10.256102 33.143785 42.604923 -0.393160 0.679426 0.012516 -0.013858 -577053.000000 0 0 1
-23.397849 9.844802 32.429857 41.183432 -0.398271 0.664137 0.007073 -0.009560 170238.000000 0 0 1
-23.500849 9.619102 31.048207 40.109951 -0.388505 0.685540 -0.002328 -0.006241 -24151.900000 0 0 1
-22.200149 9.470102 30.522947 38.912462 -0.403207 0.669068 0.002972 -0.007534 206412.000000 0 0 1
-22.230249 9.240402 28.987487 37.680809 -0.393940 0.693066 0.017881 -0.009370 36309.600000 0 0 1
-22.773949 10.390602 28.335867 37.809241 -0.428039 0.723576 -0.009619 -0.001191 290012.000000 0 0 1
-22.655549 10.298602 26.899417 36.645787 -0.426650 0.746547 -0.006895 0.000043 -1080800.000000 0 0 1
-22.977649 11.629902 26.241587 36.767483 -0.468547 0.776005 -0.012749 0.001719 602075.000000 0 0 1
-24.284749 12.173702 26.408907 37.886388 -0.464679 0.799514 -0.021352 0.002850 545587.000000 0 0 1
-25.359689 11.476402 25.812057 37.961611 -0.424968 0.823100 -0.013044 0.008730 -466816.000000 0 0 1
-26.738129 12.115102 25.992947 39.208883 -0.425431 0.846064 -0.011193 0.006328 -378389.000000 0 0 1
-26.863609 13.358402 25.268927 39.225235 -0.461459 0.870818 -0.009916 0.005641 -321362.000000 0 0 1
-28.037729 14.072802 25.555457 40.462814 -0.465185 0.887208 -0.006020 -0.001320 -253724.000000 0 0 1
-28.157019 15.415302 24.755137 40.537218 -0.500904 0.913881 -0.002219 -0.005222 -307330.000000 0 0 1
-27.340529 16.420102 25.278137 40.695312 -0.540844 0.900579 -0.002157 -0.004245 -165864.000000 0 0 1
-27.228359 17.480402 24.405947 40.528980 -0.570725 0.924561 -0.002222 -0.006992 -387334.000000 0 0 1
-22.266549 -9.298498 31.760597 39.887301 0.395586 0.649712 0.026931 -0.002335 -319935.000000 0 0 1
-21.353149 -9.028698 30.736607 38.499524 0.400029 0.646224 0.028043 -0.008054 -549903.000000 0 0 1
-21.799449 -9.394698 29.478677 37.847968 0.406908 0.677933 0.028479 -0.004446 -584629.000000 0 0 1
-20.976549 -9.054498 28.212837 36.303770 0.407489 0.680700 0.027874 -0.016317 -801842.000000 0 0 1
-20.771649 -7.644798 28.080217 35.754761 0.352655 0.667525 0.028984 -0.018705 700636.000000 0 0 1
-19.643949 -7.179198 28.880337 35.658091 0.350386 0.626774 0.026870 -0.021924 2393390.000000 0 0 1
-18.164149 -7.491298 28.275057 34.431594 0.391169 0.607294 0.037081 -0.014052 1369320.000000 0 0 1
-17.713249 -8.834898 28.323777 34.555042 0.462666 0.609959 0.035924 -0.014324 124355.000000 0 0 1
-17.429349 -9.348698 29.636547 35.630117 0.492324 0.588483 0.043396 -0.012587 416729.000000 0 0 1
-16.017149 -8.940698 30.241027 35.369547 0.509113 0.545242 0.045579 -0.012601 -462159.000000 0 0 1
-14.974749 -9.576198 29.659387 34.577824 0.568951 0.539905 0.034677 -0.014283 -1458700.000000 0 0 1
-13.796149 -9.261298 30.366397 34.615364 0.591201 0.500689 0.013905 -0.014159 -344969.000000 0 0 1
-12.587749 -10.039498 29.889437 33.950278 0.673252 0.494115 0.021638 -0.020050 -491916.000000 0 0 1
-12.220349 -9.750798 28.549747 32.550008 0.673468 0.500997 0.035453 -0.015492 -293104.000000 0 0 1
-11.101149 -10.539598 28.215677 32.100515 0.759455 0.497080 0.033274 -0.017090 -319658.000000 0 0 1
-10.496749 -10.241098 26.854967 30.598220 0.773071 0.499829 0.027427 -0.021841 -114720.000000 0 0 1
-11.218149 -10.675298 25.680217 29.988037 0.760608 0.542639 0.032026 -0.022215 27547.400000 0 0 1
-10.526549 -10.434198 24.464707 28.604241 0.780992 0.544701 0.016167 -0.013614 139394.000000 0 0 1
-11.363149 -10.669998 23.152757 27.910933 0.753949 0.592544 0.013586 -0.015809 -244809.000000 0 0 1
-11.560949 -12.029598 22.857257 28.298780 0.805262 0.630536 0.030033 -0.015196 491256.000000 0 0 1
-12.813249 -12.277298 22.208757 28.427808 0.764041 0.674157 0.027316 -0.009915 920804.000000 0 0 1
-13.963649 -12.517298 23.245057 29.866351 0.730834 0.678838 0.036713 -0.007632 -611736.000000 0 0 1
-15.197849 -12.845098 22.697357 30.185115 0.701696 0.719798 0.026930 0.006776 -163903.000000 0 0 1
-16.193049 -12.857398 23.712457 31.461216 0.671076 0.717116 0.016830 0.010909 521180.000000 0 0 1
-17.528949 -13.610498 23.453557 32.288992 0.660221 0.757780 0.028919 0.007239 135937.000000 0 0 1
-17.376949 -15.007198 23.356357 32.752004 0.712352 0.776847 0.027803 0.006537 769736.000000 0 0 1
-18.689049 -15.570298 23.329157 33.704069 0.694615 0.806296 0.034268 0.007620 719658.000000 0 0 1
-19.561849 -15.724998 24.582147 35.131516 0.677091 0.795794 0.029000 0.004495 -58464.500000 0 0 1
-19.047649 -16.729898 25.504297 35.960695 0.720706 0.782395 0.036306 0.008211 432918.000000 0 0 1
-19.788949 -16.701798 26.723277 37.211370 0.700998 0.769659 0.027427 0.004682 182229.000000 0 0 1
-19.328249 -17.812998 27.691347 38.179769 0.744624 0.759343 0.031028 -0.000436 56636.300000 0 0 1
-19.692949 -19.130998 27.301887 38.719509 0.770925 0.788204 0.043887 0.003538 -43763.000000 0 0 1
-19.329649 -20.092798 28.243177 39.686684 0.804754 0.778947 0.040459 -0.000379 -468775.000000 0 0 1
-19.681449 -21.537798 27.922357 40.384331 0.830404 0.807350 0.057710 0.002311 -284509.000000 0 0 1
-21.013749 -21.959098 27.774907 41.173111 0.807393 0.830389 0.055674 0.002713 -391688.000000 0 0 1
-21.018849 -23.361798 27.432607 41.714668 0.838141 0.853135 0.070848 0.013008 193979.000000 0 0 1
-22.473349 -23.845898 27.274007 42.632731 0.815022 0.876632 0.068608 0.007555 357893.000000 0 0 1
-23.231449 -24.083498 28.480117 43.941235 0.803404 0.865656 0.068898 0.005741 380770.000000 0 0 1
-24.422349 -24.763798 28.119987 44.726172 0.792340 0.890897 0.055162 0.001230 173103.000000 0 0 1
-25.042649 -25.723408 29.214857 46.285374 0.798807 0.887710 0.021252 -0.008570 43557.000000 0 0 1
-25.785579 -24.987498 30.184767 46.908329 0.769681 0.871755 -0.000412 0.008825 327497.000000 0 0 1
-26.485619 -25.804378 31.136467 48.340806 0.772371 0.870946 -0.003232 0.017924 152056.000000 0 0 1
-27.603939 -24.943698 31.782157 48.931289 0.734816 0.863835 -0.017149 0.008605 -135009.000000 0 0 1
-28.652269 -24.764498 30.879727 48.865022 0.712744 0.886743 0.002156 0.007669 -21134.600000 0 0 1
-29.635139 -23.782398 31.175797 49.150526 0.676268 0.883704 0.001801 -0.004590 -162802.000000 0 0 1
-30.752319 -23.709398 30.136157 49.153114 0.656793 0.910808 0.002856 -0.006851 -612956.000000 0 0 1
-31.833319 -24.503298 30.528907 50.455782 0.656014 0.920952 0.008883 -0.009036 -496007.000000 0 0 1
-32.820539 -24.623698 29.533147 50.554140 0.643663 0.946916 0.013734 -0.012792 578655.000000 0 0 1
-33.932259 -25.688038 29.917807 52.022578 0.647991 0.958079 0.011635 -0.013851 811432.000000 0 0 1
-33.338049 -26.966138 30.033767 52.350981 0.680126 0.959780 0.004594 -0.009786 679039.000000 0 0 1
-34.341314 -27.906078 30.460677 53.720833 0.682383 0.967915 0.001259 -0.005245 452268.000000 0 0 1
-33.789819 -29.297788 30.768427 54.284513 0.714315 0.968181 -0.001672 -0.005610 -167107.000000 0 0 1
-33.145949 -29.249638 32.017327 54.583005 0.723034 0.943966 0.002849 -0.001041 5813.650000 0 0 1
-32.490359 -30.492108 32.306347 55.037189 0.753682 0.943459 0.002351 -0.009807 -280625.000000 0 0 1
-31.577009 -30.522458 33.509745 55.241569 0.768418 0.919015 -0.001290 -0.014436 -440807.000000 0 0 1
-32.210609 -30.327998 -34.049654 55.827321 0.755304 2.226744 -0.000640 -0.009216 -181445.000000 0 0 1
-31.344579 -30.618488 -32.988174 54.847006 0.773681 2.216121 0.004516 -0.007710 -37349.300000 0 0 1
-31.982579 -30.092638 -31.680804 54.149105 0.754962 2.195758 0.012062 -0.014301 -56612.200000 0 0 1
-32.111819 -28.651778 -31.544584 53.358730 0.728517 2.203317 -0.002595 -0.007491 142713.000000 0 0 1
-30.886969 -27.905738 -31.443544 52.167342 0.734734 2.217732 0.013858 -0.006451 299566.000000 0 0 1
-31.092259 -26.360408 -31.392884 51.450101 0.703223 2.227061 0.008397 0.001914 -182290.000000 0 0 1
-31.799319 -25.946218 -30.228314 50.972089 0.684383 2.205621 -0.002660 -0.000004 -85438.400000 0 0 1
-31.620209 -24.570898 -29.934444 49.996376 0.660598 2.212714 0.014224 -0.004792 -368052.000000 0 0 1
-30.312009 -24.118598 -29.283224 48.559570 0.672100 2.218099 0.022430 -0.008120 -302661.000000 0 0 1
-30.252619 -22.742598 -29.252314 47.834554 0.644624 2.228790 0.027931 -0.003262 108201.000000 0 0 1
-29.155609 -22.313998 -28.461754 46.454661 0.653248 2.230241 0.037951 -0.003747 118226.000000 0 0 1
-28.948479 -20.820398 -28.837234 45.859453 0.623511 2.250828 0.047427 -0.010975 46087.500000 0 0 1
-28.366119 -20.667898 -30.126764 46.253871 0.629672 2.280139 0.047887 -0.003827 202757.000000 0 0 1
-27.987429 -19.350298 -30.295354 45.558080 0.604926 2.298268 0.036709 -0.011180 -308933.000000 0 0 1
-27.465849 -19.037298 -31.734954 46.085777 0.606098 2.330362 0.051795 -0.004696 288498.000000 0 0 1
-28.402869 -18.687398 -32.753364 47.209370 0.581937 2.337534 0.049702 -0.017214 40775.300000 0 0 1
-29.106909 -17.518398 -32.497454 47.012668 0.541789 2.334012 0.043208 -0.017878 -543615.000000 0 0 1
-29.645609 -16.776598 -33.783124 47.975158 0.514972 2.352063 0.041462 -0.020956 371631.000000 0 0 1
-30.769199 -17.333298 34.389399 49.293180 0.513022 0.798684 0.035949 -0.023433 264611.000000 0 0 1
-32.048549 -16.998098 -33.935144 49.675334 0.487660 2.322848 0.032429 -0.018214 -253749.000000 0 0 1
-33.145479 -17.388298 33.888115 50.491385 0.483138 0.835015 0.034758 -0.025637 -360793.000000 0 0 1
-33.566059 -18.724098 34.095799 51.378942 0.508834 0.845156 0.019235 -0.022317 -219320.000000 0 0 1
-34.402080 -19.183498 33.085420 51.440788 0.508679 0.872159 0.023929 -0.018850 -806450.000000 0 0 1
-34.727669 -20.698898 33.245263 52.342171 0.537499 0.882590 0.009379 -0.024160 -429369.000000 0 0 1
-33.702299 -21.607198 33.012857 51.889928 0.570107 0.881221 0.017685 -0.019249 -602904.000000 0 0 1
-34.136347 -22.912098 33.329026 52.925215 0.591130 0.889580 0.008725 -0.013930 221410.000000 0 0 1
-32.970819 -24.004698 33.397804 52.713506 0.629310 0.884635 0.005969 -0.008930 1554050.000000 0 0 1
-32.134719 -24.001698 -34.207688 52.715155 0.641520 2.276955 -0.001495 -0.017144 713355.000000 0 0 1
-31.366139 -22.836798 -33.977224 51.573305 0.629319 2.290038 0.014118 -0.024024 -30157.100000 0 0 1
-30.007529 -23.000798 -33.193064 50.311708 0.653978 2.291280 0.023927 -0.016489 337644.000000 0 0 1
-29.107499 -23.872998 -33.901204 50.660223 0.686917 2.303912 0.021977 -0.015675 533750.000000 0 0 1
-27.763739 -23.662998 -33.497264 49.526047 0.705827 2.313601 0.038958 -0.014996 309219.000000 0 0 1
-27.274509 -24.100298 -32.113674 48.538760 0.723691 2.293759 0.047142 -0.010636 -1106540.000000 0 0 1
-27.370129 -25.507698 -31.794124 49.098197 0.750191 2.275177 0.041452 -0.013078 -65575.000000 0 0 1
-26.935639 -25.700928 -30.434624 48.086721 0.761945 2.256104 0.030771 -0.013701 155253.000000 0 0 1
-26.534789 -27.193998 -30.196334 48.532743 0.797667 2.242327 0.032115 -0.014371 650559.000000 0 0 1
-27.674719 -28.059748 -30.312754 49.720243 0.792306 2.226436 0.021493 -0.006161 757573.000000 0 0 1
-27.387959 -29.262268 -29.656564 49.858725 0.818472 2.207828 0.027834 -0.006896 440865.000000 0 0 1
-28.344229 -30.434038 -30.082584 51.328236 0.820937 2.197012 0.027019 0.003360 123116.000000 0 0 1
-28.020649 -30.893178 -31.406304 52.210163 0.834118 2.216219 0.029763 -0.007377 417557.000000 0 0 1
-28.271849 -32.294218 -31.513214 53.247503 0.851714 2.204118 0.037371 0.001980 -416177.000000 0 0 1
-27.943219 -32.801478 -32.924474 54.228972 0.865207 2.223250 0.022318 -0.007329 -395517.000000 0 0 1
-26.557819 -32.752958 -33.128274 53.624216 0.889473 2.236720 0.029853 -0.008417 -564946.000000 0 0 1
-26.276589 -33.144758 34.347772 54.486728 0.900472 0.888744 0.031476 -0.012464 -410075.000000 0 0 1
-24.851649 -33.600178 34.028546 53.893584 0.933966 0.887436 0.036747 -0.016539 -297663.000000 0 0 1
-24.680749 -34.216558 32.776471 53.424800 0.945911 0.910303 0.032421 -0.003588 -162492.000000 0 0 1
-23.540749 33.819086 32.894298 52.725063 -0.962707 0.897094 0.028159 -0.004390 -235113.000000 0 0 1
-23.258349 32.927244 31.667767 51.264038 -0.955817 0.904933 0.037637 -0.008822 -77778.700000 0 0 1
-24.275149 31.944109 31.488887 51.002538 -0.920973 0.905365 0.044523 -0.025224 238740.000000 0 0 1
-24.111249 31.139099 30.366227 49.730308 -0.911919 0.913955 0.037472 -0.012961 -280131.000000 0 0 1
-25.465419 30.547219 29.936907 49.777892 -0.875876 0.925532 0.039948 -0.009296 -47086.500000 0 0 1
-25.982389 29.553659 30.841927 49.997277 -0.849615 0.906034 0.044704 -0.017605 163300.000000 0 0 1
-27.296299 29.184059 30.494027 50.266121 -0.818809 0.918954 0.040105 -0.023979 98645.600000 0 0 1
-27.927179 28.089349 31.386787 50.537800 -0.788293 0.900707 0.049669 -0.040739 -560920.000000 0 0 1
-27.074529 27.008499 31.541817 49.571921 -0.784177 0.881125 0.047549 -0.038603 -230485.000000 0 0 1
-27.626549 25.832879 32.170167 49.653635 -0.751859 0.865983 0.041688 -0.029112 31365.300000 0 0 1
-28.630669 24.997579 31.345107 49.265707 -0.717756 0.881174 0.036939 -0.024312 135944.000000 0 0 1
-28.099649 24.729509 30.085197 48.023514 -0.721691 0.893783 0.027369 -0.013703 -228747.000000 0 0 1
-29.037079 23.948579 29.366727 47.739826 -0.689656 0.908231 0.014279 0.002480 116689.000000 0 0 1
-28.751129 23.813159 27.894687 46.602655 -0.691732 0.929089 0.010030 -0.016529 -417886.000000 0 0 1
-27.476459 23.302559 27.647357 45.413009 -0.703385 0.916252 0.006771 -0.013565 -548924.000000 0 0 1
-27.148869 22.964759 26.319067 44.239513 -0.702099 0.933628 0.005505 -0.005870 376560.000000 0 0 1
-25.838839 22.134159 26.110917 42.887604 -0.708327 0.916222 0.015166 -0.005658 366769.000000 0 0 1
-25.887319 20.873759 26.763047 42.686388 -0.678590 0.893140 0.007048 -0.012426 -14315.400000 0 0 1
-24.632049 20.400459 27.173887 41.968282 -0.691706 0.866515 0.009207 -0.006902 -327274.000000 0 0 1
-24.765549 19.172559 28.053007 42.046291 -0.658787 0.840362 0.012231 -0.007215 -381512.000000 0 0 1
-23.547149 18.802859 28.636297 41.569859 -0.673838 0.810865 0.003787 0.005581 -94445.300000 0 0 1
-23.705949 17.664559 29.422817 41.709840 -0.640392 0.787785 -0.001992 0.004688 -650180.000000 0 0 1
-22.560849 16.677859 29.589687 40.776126 -0.636578 0.758800 -0.007602 -0.000039 -451527.000000 0 0 1
-21.485149 17.200059 30.367777 40.983600 -0.675080 0.736277 0.014246 -0.003133 396299.000000 0 0 1
-20.389649 16.300459 30.341407 40.025538 -0.674404 0.710477 0.013802 -0.001914 253395.000000 0 0 1
-19.224749 16.644059 31.299127 40.326802 -0.713574 0.682280 0.018773 -0.009941 90748.100000 0 0 1
-19.569449 16.559259 32.654227 41.514707 -0.702272 0.665562 0.020438 -0.012906 250256.000000 0 0 1
-18.390749 16.841659 33.375876 41.663055 -0.741459 0.641681 0.025568 -0.012682 -550922.000000 0 0 1
-18.396949 16.505659 -33.924014 41.972887 -0.731263 2.511947 0.021823 -0.013393 116078.000000 0 0 1
-19.297349 17.229059 -33.105094 42.013990 -0.728834 2.478275 0.023711 -0.008641 -62739.000000 0 0 1
-20.654349 16.906559 -33.283574 42.664155 -0.685948 2.465669 0.025481 -0.003700 -701577.000000 0 0 1
-21.574649 17.843259 -32.467184 42.871498 -0.691017 2.429986 0.034789 -0.007169 -125266.000000 0 0 1
-21.716049 17.413659 -31.139384 41.767015 -0.675886 2.412156 0.023925 -0.010184 462402.000000 0 0 1
-22.588449 18.294959 -30.416374 42.072548 -0.680764 2.378860 0.012925 -0.007949 57270.300000 0 0 1
-22.674849 17.955159 -28.885594 40.876815 -0.669754 2.355548 0.015655 -0.012794 140960.000000 0 0 1
-23.175849 16.676059 -28.428924 40.291620 -0.623723 2.354036 -0.003553 -0.006979 625488.000000 0 0 1
-24.581149 16.469459 -28.615714 41.162301 -0.590309 2.339484 0.010587 -0.006844 716491.000000 0 0 1
-25.072459 15.172559 -27.851914 40.429739 -0.544197 2.330762 0.017102 -0.003496 -513662.000000 0 0 1
-24.770249 13.976259 -28.535634 40.288751 -0.513707 2.357852 -0.010680 0.001728 143744.000000 0 0 1
-25.671529 12.976659 -28.111324 40.220239 -0.468029 2.344703 -0.022292 0.003878 151709.000000 0 0 1
-25.011849 11.602759 -28.304604 39.514139 -0.434345 2.369304 -0.003823 0.002153 394356.000000 0 0 1
-24.200249 11.205159 -27.192884 38.087538 -0.433627 2.365930 -0.001717 0.005242 687394.000000 0 0 1
-23.178249 10.275959 -27.627314 37.497933 -0.417306 2.399076 -0.004377 0.011345 886069.000000 0 0 1
-22.277349 9.732959 -26.469384 35.939380 -0.411906 2.398679 0.025969 0.004755 479578.000000 0 0 1
-22.870049 8.668059 -25.698994 35.476931 -0.362285 2.380940 0.031991 0.000185 24252.600000 0 0 1
-21.950249 8.232659 -24.732544 34.077688 -0.358823 2.382949 0.059471 0.009973 -63551.400000 0 0 1
-22.489749 7.077359 -23.833644 33.524922 -0.304881 2.361606 0.054866 0.006503 178790.000000 0 0 1
-22.755249 5.865259 -24.521844 33.963560 -0.252263 2.377491 0.052450 -0.002920 124495.000000 0 0 1
-23.169549 4.827159 -23.712144 33.502167 -0.205402 2.357146 0.050682 0.000172 -266588.000000 0 0 1
34.066015 25.298702 -10.191544 43.639262 0.638772 1.806514 0.012608 0.002392 -537805.000000 0 0 1
35.253107 24.986802 -9.543144 44.251479 0.616596 1.788161 0.005932 0.003284 -157834.000000 0 0 1
-35.386899 23.834502 -10.195344 43.866401 -0.592746 1.805359 0.011236 -0.000650 474141.000000 0 0 1
-34.341989 23.119602 -9.286944 42.428004 -0.592524 1.791470 0.015358 -0.002294 247259.000000 0 0 1
-34.904921 22.276302 -8.320044 42.235178 -0.568035 1.769086 0.011424 -0.004441 183594.000000 0 0 1
-33.819639 21.635402 -7.650444 40.870379 -0.569121 1.759095 0.019049 0.001005 69642.200000 0 0 1
-34.143957 20.625902 -6.518744 40.419446 -0.543419 1.732781 0.020288 0.010192 -113123.000000 0 0 1
-34.723370 19.410902 -7.032344 40.397393 -0.509739 1.745767 0.025120 0.002310 409173.000000 0 0 1
-35.068812 18.628502 -5.902244 40.145724 -0.488294 1.718352 0.017935 -0.005751 -190893.000000 0 0 1
35.440872 17.361602 -6.398744 39.980301 0.455515 1.731535 0.026608 0.012925 -823796.000000 0 0 1
34.274635 17.678502 -7.048544 39.204106 0.476199 1.751570 0.034458 -0.000138 -1060730.000000 0 0 1
33.681945 16.529402 -7.574844 38.276269 0.456220 1.770011 0.048785 0.003333 16589.200000 0 0 1
32.587735 16.850802 -8.608044 37.682998 0.477226 1.801264 0.023544 -0.007786 -64807.500000 0 0 1
32.077935 15.824702 -9.396444 36.982539 0.458290 1.827690 0.042577 -0.011770 295149.000000 0 0 1
31.252925 16.247002 -10.503744 36.756482 0.479405 1.860602 0.052281 -0.011394 -146037.000000 0 0 1
30.623615 15.084702 -11.263044 35.947325 0.457697 1.889484 0.050602 -0.007352 -213551.000000 0 0 1
29.460955 14.477802 -10.737644 34.537683 0.456763 1.886932 0.047224 -0.001911 201244.000000 0 0 1
29.508205 13.913502 -9.446944 33.964164 0.440599 1.852658 0.042769 -0.004002 -815387.000000 0 0 1
28.503655 12.785202 -9.148944 32.551849 0.421644 1.855692 0.046927 0.001487 -49174.000000 0 0 1
28.836965 11.618902 -9.863944 32.616971 0.383018 1.878024 0.053139 -0.002089 926180.000000 0 0 1
27.807615 10.615002 -9.767344 31.326390 0.364658 1.887876 0.059515 -0.006517 115353.000000 0 0 1
28.287925 9.277902 -10.334444 31.513281 0.316926 1.904918 0.062301 -0.006619 -443693.000000 0 0 1
29.342065 8.799802 -9.540144 32.084383 0.291369 1.872707 0.052235 -0.005348 129969.000000 0 0 1
29.419695 7.403602 -9.528144 31.798070 0.246535 1.875117 0.047781 -0.005476 -635405.000000 0 0 1
30.540655 6.853702 -8.663944 32.477203 0.220755 1.840836 0.049244 -0.006886 614287.000000 0 0 1
31.866295 7.197602 -9.120744 33.918346 0.222141 1.843050 0.036432 -0.006397 280455.000000 0 0 1
32.832855 6.746602 -8.264444 34.522659 0.202662 1.812536 0.039780 -0.005527 -121090.000000 0 0 1
34.289295 7.011402 -8.766044 36.079897 0.201697 1.816215 0.040915 -0.003621 495948.000000 0 0 1
34.595905 6.245502 -9.893844 36.520830 0.178604 1.845134 0.036450 -0.007820 -622433.000000 0 0 1
-35.304286 6.099902 -10.110644 37.226691 -0.171092 1.845848 0.042158 -0.013808 -1123790.000000 0 0 1
-34.911050 5.462902 -11.515844 37.165029 -0.155222 1.885839 0.039869 -0.011385 593810.000000 0 0 1
-33.502029 5.344402 -11.751244 35.903207 -0.158192 1.904245 0.050065 -0.016723 987776.000000 0 0 1
-32.872419 6.421202 -12.414644 35.720458 -0.192908 1.925753 0.035983 -0.014301 -274975.000000 0 0 1
-32.135099 7.366002 -11.382944 34.878274 -0.225327 1.903249 0.032591 -0.003281 -645645.000000 0 0 1
-32.951159 8.269302 -10.672544 35.609878 -0.245879 1.875182 0.039375 -0.006819 118446.000000 0 0 1
-33.230529 9.484802 -11.313144 36.362298 -0.278032 1.887171 0.040786 -0.007811 45620.900000 0 0 1
-34.202088 10.297102 -10.390344 37.199091 -0.292435 1.853879 0.055110 -0.006854 279652.000000 0 0 1
-33.529999 10.813302 -9.274544 36.430831 -0.311966 1.828209 0.025157 0.004516 11471.200000 0 0 1
-34.416140 11.589702 -8.508144 37.298530 -0.324824 1.800932 0.033578 0.004920 -391072.000000 0 0 1
-33.757379 12.569902 -7.513144 36.796880 -0.356454 1.776421 0.043604 0.005972 62372.200000 0 0 1
-33.021009 13.608802 -8.162244 36.636167 -0.390916 1.795474 0.030596 0.006274 84103.600000 0 0 1
-32.379809 14.470202 -7.240244 36.197512 -0.420264 1.772175 0.033806 0.012312 -7426.290000 0 0 1
-31.553929 15.648902 -7.823344 36.079679 -0.460396 1.789368 0.020037 0.008494 -39057.300000 0 0 1
-32.286149 16.575302 -8.612744 37.300340 -0.474300 1.803802 0.008350 0.006100 -459466.000000 0 0 1
-31.669489 17.782102 -8.786644 37.367964 -0.511622 1.808157 0.008235 0.007607 -289341.000000 0 0 1
-32.396919 18.663402 -9.800644 38.651462 -0.522650 1.827160 -0.004883 0.005388 90334.500000 0 0 1
-32.188979 18.268902 -11.145444 38.653642 -0.516218 1.863291 -0.013494 0.004336 -84590.300000 0 0 1
-32.873749 19.166302 -11.973744 39.892368 -0.527846 1.875648 -0.005938 -0.003813 -335302.000000 0 0 1
-32.562139 19.090002 -13.476744 40.079217 -0.530258 1.913731 -0.013670 0.011928 -51989.600000 0 0 1
-31.460809 19.890602 -13.857044 39.716951 -0.563785 1.927188 -0.013417 0.005981 221709.000000 0 0 1
-31.396159 20.117602 -15.244144 40.284248 -0.569857 1.958879 -0.022845 0.006857 -301920.000000 0 0 1
-30.617679 21.437402 -15.448044 40.443127 -0.610836 1.962723 -0.011965 0.009458 -191875.000000 0 0 1
-29.261969 21.347502 -15.081744 39.235668 -0.630271 1.965342 -0.012865 0.009955 66096.600000 0 0 1
-28.600409 22.552702 -14.783544 39.308535 -0.667717 1.956369 -0.011569 0.008797 166249.000000 0 0 1
-27.870509 23.319302 -15.902744 39.666766 -0.696723 1.983305 -0.008014 0.006385 -250704.000000 0 0 1
-28.798879 23.999702 -16.754044 41.061650 -0.694751 1.991082 -0.003985 0.019840 678778.000000 0 0 1
-28.149169 24.586502 -17.895344 41.438087 -0.717944 2.017347 -0.003977 0.017004 634882.000000 0 0 1
-27.263899 25.854702 -17.591144 41.487759 -0.758875 2.008663 0.005796 0.011380 626662.000000 0 0 1
-28.102359 27.023302 -17.580644 42.767750 -0.765826 1.994427 0.008425 0.009423 147205.000000 0 0 1
-27.397539 28.231502 -17.588144 43.092756 -0.800389 1.991219 0.012476 0.004040 -150814.000000 0 0 1
-28.202689 29.484002 -17.137644 44.253778 -0.807606 1.968452 0.010411 0.002492 -22551.200000 0 0 1
-28.450049 29.707002 -15.725844 44.036501 -0.807008 1.935968 0.012148 -0.003369 474562.000000 0 0 1
-27.256939 29.863402 -14.962344 43.111892 -0.830998 1.925229 0.006927 -0.000926 94266.200000 0 0 1
-27.424899 30.581302 -13.597044 43.269165 -0.839759 1.890456 0.007184 -0.000018 -201540.000000 0 0 1
-27.544179 31.993002 -13.782544 44.409373 -0.859983 1.886360 0.010396 0.000443 110185.000000 0 0 1
-27.746349 32.756902 -12.594344 44.738037 -0.868024 1.856167 0.007455 -0.004602 32745.000000 0 0 1
-27.046779 34.163102 -12.620344 45.364290 -0.901140 1.852716 -0.004486 -0.002178 77782.200000 0 0 1
-27.459159 -33.785656 -13.594444 45.610140 0.888332 1.873453 -0.011400 -0.014237 296271.000000 0 0 1
-26.472569 -32.759356 -13.830944 44.331335 0.891141 1.888083 -0.000512 -0.015937 353513.000000 0 0 1
-26.795629 -32.055356 -15.143244 44.439503 0.874535 1.918522 0.001490 -0.014237 89376.300000 0 0 1
-26.222569 -32.728156 -16.244644 44.973812 0.895310 1.940353 -0.010089 -0.011219 -175904.000000 0 0 1
-26.610829 -32.145856 -17.486744 45.246861 0.879323 1.967602 -0.007973 -0.000268 -499192.000000 0 0 1
-25.753919 -32.624156 -18.633744 45.550151 0.902545 1.992244 -0.007146 0.000164 -855565.000000 0 0 1
-25.908859 -33.931156 -19.191644 46.807173 0.918666 1.993267 -0.001573 0.009513 -246619.000000 0 0 1
-25.528119 33.958902 -18.260444 46.242141 -0.926185 1.976742 -0.024757 -0.005261 -940053.000000 0 0 1
-25.439569 32.517502 -18.845944 45.384239 -0.906920 1.999017 -0.010614 -0.024411 -6567.050000 0 0 1
-26.674149 31.831402 -19.154444 45.734462 -0.873321 2.002940 0.011293 -0.014134 467530.000000 0 0 1
-27.348339 32.436002 -20.225944 47.001219 -0.870294 2.015653 0.015675 -0.004401 -250779.000000 0 0 1
-28.882349 32.197302 -20.269844 47.767383 -0.839618 2.009035 0.021625 -0.007455 273111.000000 0 0 1
-29.339869 30.894402 -20.453644 47.261438 -0.811201 2.018367 0.011368 -0.008551 51110.600000 0 0 1
-30.721909 30.893002 -20.763644 48.263259 -0.788175 2.015529 0.019236 -0.006001 -78646.400000 0 0 1
-31.251419 29.481702 -20.692944 47.686684 -0.756267 2.019653 0.018026 -0.003841 -793335.000000 0 0 1
-32.529949 29.359802 -21.227944 48.691078 -0.734220 2.021914 0.017181 -0.006114 -487858.000000 0 0 1
-32.609539 28.181702 -21.986944 48.384047 -0.712690 2.042523 0.013368 -0.001556 -356706.000000 0 0 1
-33.993039 27.531402 -22.115044 49.016119 -0.680756 2.038882 0.027303 -0.006085 -75529.300000 0 0 1
-34.913290 28.157002 -23.000244 50.406009 -0.678682 2.044629 0.021337 -0.000277 -207848.000000 0 0 1
35.341551 27.209102 -23.244844 50.295956 0.656110 2.051227 0.029780 -0.003169 -448578.000000 0 0 1
34.396285 27.510602 -24.382544 50.343282 0.674627 2.076389 0.038661 -0.012703 -504947.000000 0 0 1
35.082415 27.631102 -25.615504 51.482110 0.667137 2.091581 0.030486 -0.011676 -451822.000000 0 0 1
34.179405 27.906502 -26.626824 51.536320 0.684704 2.113743 0.042650 -0.019270 -464716.000000 0 0 1
34.861965 28.353602 -27.950014 52.919624 0.682805 2.127228 0.019618 -0.014924 98101.200000 0 0 1
35.459882 27.202302 -28.502284 53.007062 0.654374 2.138512 0.018729 -0.004753 -415021.000000 0 0 1
-35.061398 27.546802 -29.641924 53.542241 -0.665944 2.157498 -0.000510 -0.004009 -839295.000000 0 0 1
-34.670314 26.318702 -30.536084 53.171018 -0.649308 2.182544 -0.005880 -0.005967 697552.000000 0 0 1
-33.654689 25.435102 -30.012164 51.771734 -0.647182 2.189159 0.001264 -0.004245 1287090.000000 0 0 1
-32.313949 25.960102 -30.153234 51.257543 -0.676793 2.199713 -0.000490 0.003005 336348.000000 0 0 1
-31.311179 25.085302 -29.429884 49.757214 -0.675449 2.203677 -0.002669 0.006405 -651978.000000 0 0 1
-31.317579 23.729402 -29.847084 49.342919 -0.648412 2.220425 0.009049 -0.004122 66006.900000 0 0 1
-31.481789 22.818202 -28.790064 48.380173 -0.627181 2.208161 0.011082 -0.001434 -58418.200000 0 0 1
-31.235589 21.287002 -29.132274 47.723032 -0.598201 2.227418 0.008336 -0.003172 -440218.000000 0 0 1
-29.877809 20.993902 -29.280544 46.805743 -0.612508 2.246666 0.019011 -0.003422 -390839.000000 0 0 1
-29.776249 19.613202 -29.555384 46.312238 -0.582457 2.262924 0.015223 -0.001431 -635673.000000 0 0 1
-28.331399 19.266502 -29.895924 45.471227 -0.597204 2.288251 0.031410 -0.003577 -622761.000000 0 0 1
-27.856939 19.712002 -31.181044 46.225854 -0.615819 2.311134 0.037190 -0.009846 835885.000000 0 0 1
-26.594259 19.054402 -31.436424 45.371506 -0.621705 2.336254 0.044944 -0.014615 736505.000000 0 0 1
-26.668179 17.630802 -32.126094 45.322432 -0.584151 2.358641 0.031363 -0.010296 15336.300000 0 0 1
-27.308579 16.555402 -31.390264 44.779331 -0.544991 2.347594 0.004367 -0.002117 393731.000000 0 0 1
-27.121279 15.348902 -32.078724 44.723563 -0.514996 2.370668 -0.010418 0.002855 -16160.100000 0 0 1
-27.664659 14.134302 -31.317904 44.112616 -0.472342 2.360228 -0.003950 0.004211 563987.000000 0 0 1
-29.080149 14.110702 -31.079504 44.840858 -0.451766 2.336587 0.001856 -0.000456 771723.000000 0 0 1
-29.625669 12.812202 -30.821504 44.629563 -0.408180 2.333125 0.005071 0.003714 -42309.700000 0 0 1
-29.127289 11.991202 -29.648364 43.257524 -0.390537 2.325938 -0.005873 -0.014163 -643628.000000 0 0 1
-29.419439 12.635302 -28.449054 42.831097 -0.405666 2.297239 -0.014017 -0.010084 259532.000000 0 0 1
-29.359869 11.724902 -27.328694 41.789146 -0.379947 2.283612 -0.003576 -0.005199 36667.700000 0 0 1
-29.561789 12.410402 -26.010544 41.285177 -0.397468 2.252377 -0.014218 -0.006664 775546.000000 0 0 1
-28.256429 12.860602 -25.618044 40.250528 -0.427119 2.260702 -0.017460 -0.008970 664756.000000 0 0 1
-28.242709 13.536302 -24.394144 39.698316 -0.446939 2.232533 -0.016544 -0.002162 -71371.200000 0 0 1
-26.815739 13.926202 -23.967144 38.567433 -0.478991 2.241369 -0.004712 0.002090 -528230.000000 0 0 1
-26.006959 14.821802 -24.713544 38.817611 -0.518006 2.260953 0.003104 -0.001965 1347450.000000 0 0 1
-24.624149 14.817802 -24.274744 37.618867 -0.541712 2.272188 0.003805 -0.009065 1185710.000000 0 0 1
-24.381249 15.504502 -22.878944 36.854863 -0.566413 2.240540 0.010407 -0.005940 -1454490.000000 0 0 1
-24.405749 16.907502 -22.926144 37.511495 -0.605855 2.228342 0.029262 -0.007221 25289.900000 0 0 1
-24.673749 17.506502 -21.638144 37.195171 -0.617086 2.191670 0.030345 -0.002032 -197354.000000 0 0 1
-26.187699 17.530502 -21.353844 38.067055 -0.589905 2.166333 0.013016 -0.003237 -583574.000000 0 0 1
-26.711189 16.282702 -21.077244 37.720872 -0.547436 2.163697 0.015437 -0.004502 -635032.000000 0 0 1
-28.020149 16.465002 -20.622444 38.490391 -0.531262 2.136229 0.017243 -0.002685 -880652.000000 0 0 1
-28.983699 15.266302 -20.826144 38.818076 -0.484795 2.137088 0.001815 -0.003598 70919.500000 0 0 1
-29.558709 15.075002 -22.116544 39.876239 -0.471617 2.158714 -0.009769 0.003108 -196703.000000 0 0 1
-30.534039 15.985002 -22.479744 41.148350 -0.482281 2.148748 -0.009599 0.004354 -877739.000000 0 0 1
-30.999849 15.961302 -23.965644 42.309643 -0.475483 2.172969 -0.007967 -0.002258 -36738.000000 0 0 1
-31.974989 14.968602 -24.251044 42.831905 -0.437832 2.172674 -0.003495 -0.000991 242190.000000 0 0 1
-32.563649 15.213802 -25.508814 44.074375 -0.437067 2.188013 0.011196 -0.006969 -126697.000000 0 0 1
-33.954949 14.644602 -25.840414 45.112414 -0.407191 2.180715 0.012807 -0.002916 -130781.000000 0 0 1
-34.097902 13.265102 -26.019384 44.895859 -0.371014 2.188972 0.011610 -0.003551 20232.700000 0 0 1
-33.725229 12.400802 -24.930344 43.734346 -0.352356 2.177351 0.000294 -0.006173 -302772.000000 0 0 1
-33.693329 10.936902 -25.402314 43.590524 -0.313871 2.192903 -0.001363 -0.016003 42711.700000 0 0 1
-34.988095 10.392202 -25.366344 44.447902 -0.288722 2.178152 0.002177 -0.004301 -26735.800000 0 0 1
-34.834547 9.209602 -26.115974 44.500635 -0.258468 2.197981 -0.001812 0.002659 372316.000000 0 0 1
35.097645 8.486602 -26.430634 44.748692 0.237246 2.202655 0.009834 0.001713 415807.000000 0 0 1
34.484665 7.677102 -25.409044 43.517232 0.219051 2.194302 0.001337 0.005194 -32100.400000 0 0 1
33.388055 6.892302 -25.810964 42.760634 0.203571 2.218824 0.014775 0.007298 -118272.000000 0 0 1
32.785905 6.087002 -24.656144 41.471587 0.183569 2.207479 0.016122 0.000722 208827.000000 0 0 1
33.656425 5.029502 -24.250244 41.786662 0.148339 2.189936 0.012363 -0.001841 312900.000000 0 0 1
32.976205 4.037202 -23.513944 40.701777 0.121821 2.186720 0.019836 -0.004088 519753.000000 0 0 1
34.037515 3.080002 -22.873044 41.124384 0.090243 2.160593 0.008863 -0.006004 287053.000000 0 0 1
34.666655 2.197902 -23.727244 42.066493 0.063316 2.170068 0.013770 -0.008269 -461868.000000 0 0 1
35.499790 1.378402 -22.985044 42.313677 0.038809 2.145047 0.021271 -0.006194 -182369.000000 0 0 1
-35.155618 0.121202 -23.716544 42.407625 -0.003448 2.164279 0.024746 -0.001442 697473.000000 0 0 1
35.106655 -0.797598 -24.188144 42.640118 -0.022715 2.173974 0.021239 -0.011559 348056.000000 0 0 1
-35.543320 -2.017098 -24.338044 43.124664 0.056690 2.170460 0.023425 -0.004951 100813.000000 0 0 1
-22.924349 29.960602 27.332557 46.585750 -0.917670 0.943800 0.010764 -0.002319 -367829.000000 0 0 1
-24.221449 29.980202 26.767877 46.925582 -0.891248 0.963764 -0.000608 -0.004213 481100.000000 0 0 1
-24.359849 29.229802 25.539707 45.826413 -0.876024 0.979649 -0.008583 0.005295 -499104.000000 0 0 1
-24.472649 27.691302 25.720197 45.024962 -0.847023 0.962777 -0.002541 0.002095 27930.100000 0 0 1
-25.720899 27.262702 26.259757 45.764553 -0.814490 0.959657 -0.001876 -0.002376 301320.000000 0 0 1
-25.807529 26.979502 27.718977 46.500147 -0.807596 0.932155 0.008899 -0.008460 -1263160.000000 0 0 1
-25.060149 25.725702 28.271867 45.706906 -0.798502 0.903904 0.005851 -0.005954 552991.000000 0 0 1
-23.661249 25.728202 28.483687 45.090082 -0.827224 0.887044 0.009811 -0.003697 -151371.000000 0 0 1
-23.352549 26.398402 29.628127 46.043925 -0.846544 0.871767 0.008210 -0.013925 326957.000000 0 0 1
-21.949049 26.184902 30.298557 45.666315 -0.873173 0.845340 0.021516 -0.008869 466344.000000 0 0 1
-20.819949 26.569802 29.507947 44.834624 -0.906139 0.852436 0.027612 -0.012741 -54081.000000 0 0 1
-19.665949 26.372102 30.277217 44.709587 -0.930046 0.826849 0.030657 -0.014891 -509359.000000 0 0 1
-18.973449 25.012202 30.061137 43.465779 -0.921834 0.807088 0.032682 -0.011416 -681698.000000 0 0 1
-18.516449 24.780702 28.738807 42.223939 -0.929082 0.822176 0.044220 -0.013316 -146687.000000 0 0 1
-19.398249 24.061202 27.913407 41.646029 -0.892284 0.836246 0.050003 -0.011586 -105659.000000 0 0 1
-19.529749 22.565002 28.139927 41.017629 -0.857379 0.814758 0.043322 -0.004533 286559.000000 0 0 1
-20.254549 22.223902 29.332457 42.006447 -0.831726 0.797798 0.015665 -0.006407 233793.000000 0 0 1
-20.333449 20.800402 29.490667 41.422280 -0.796750 0.778523 0.014886 0.000547 -4504.000000 0 0 1
-20.658749 20.338702 30.898857 42.369636 -0.777592 0.753544 0.017259 -0.001668 781436.000000 0 0 1
-19.542949 20.657202 31.756187 42.627482 -0.813109 0.730307 0.017582 -0.013627 881216.000000 0 0 1
-19.928649 20.366202 33.099850 43.675316 -0.796257 0.710767 0.019984 -0.012323 122821.000000 0 0 1
-18.915549 20.954002 34.102145 44.269904 -0.836482 0.691448 0.032786 -0.010619 -440387.000000 0 0 1
-19.014049 22.374502 34.224137 45.093723 -0.866413 0.709089 0.008199 -0.007887 113986.000000 0 0 1
-18.250949 23.128002 33.294015 44.457766 -0.902720 0.724410 0.014930 -0.002056 -335917.000000 0 0 1
-16.729949 23.260202 33.511739 44.090416 -0.947266 0.707378 0.010415 -0.002330 89147.700000 0 0 1
-16.117649 21.987902 33.578836 43.252568 -0.938249 0.681953 0.029400 -0.010172 -386284.000000 0 0 1
-14.729849 21.964102 33.855100 42.959958 -0.980053 0.663142 0.021432 -0.010460 -586418.000000 0 0 1
-14.117349 20.581502 33.485388 41.763249 -0.969580 0.640511 0.041977 -0.019182 1619460.000000 0 0 1
-12.750949 20.362902 33.995314 41.628305 -1.011345 0.615232 0.026650 -0.014308 1817180.000000 0 0 1
-12.634949 20.388802 -33.410834 41.129417 -1.016017 2.518940 0.027451 -0.006133 42447.500000 0 0 1
-11.150549 20.284702 -32.917044 40.240969 -1.068182 2.528719 0.031449 -0.011423 585435.000000 0 0 1
-10.387749 21.417202 -33.208254 40.858169 -1.119205 2.519686 0.022707 -0.011513 -873913.000000 0 0 1
-9.064449 21.166602 -32.844604 40.111809 -1.166182 2.530160 0.034684 -0.011716 -247154.000000 0 0 1
-8.151949 22.458902 -32.912004 40.670094 -1.222612 2.513659 0.039711 -0.012319 253973.000000 0 0 1
-8.316449 23.447902 -31.916994 40.468036 -1.229960 2.479482 0.027010 -0.011710 114192.000000 0 0 1
-7.734249 23.052602 -30.685714 39.151680 -1.247093 2.471501 0.024150 -0.010420 -37892.700000 0 0 1
-7.444749 24.199502 -29.677314 39.010039 -1.272345 2.435281 0.014053 -0.013779 883275.000000 0 0 1
-6.271749 24.987402 -30.002574 39.545663 -1.324880 2.432084 0.024501 -0.011198 928864.000000 0 0 1
-6.129149 26.110502 -29.132734 39.598497 -1.340232 2.397500 0.029377 -0.014198 -562757.000000 0 0 1
-4.954349 26.999502 -29.517344 40.308712 -1.389317 2.392463 0.045204 -0.019560 291083.000000 0 0 1
-3.716949 26.447702 -28.998474 39.423446 -1.431171 2.397295 0.056181 -0.014707 918391.000000 0 0 1
-2.583449 26.759402 -29.783934 40.122593 -1.474551 2.407327 0.051901 -0.016984 130490.000000 0 0 1
-1.798549 28.002302 -29.332114 40.592322 -1.506656 2.378356 0.060834 -0.021597 -413508.000000 0 0 1
-1.177049 27.977802 -28.065924 39.646424 -1.528750 2.357325 0.067949 -0.026625 143021.000000 0 0 1
-0.528149 29.152602 -27.733424 40.240476 -1.552682 2.331170 0.068510 -0.030514 -799746.000000 0 0 1
0.071851 29.246402 -26.281394 39.320082 1.568340 2.302847 0.065219 -0.033425 701049.000000 0 0 1
1.223951 28.442802 -26.008904 38.561044 1.527791 2.311065 0.070305 -0.037903 660780.000000 0 0 1
2.426651 28.897002 -26.632414 39.372716 1.487017 2.313685 0.064950 -0.037945 -509289.000000 0 0 1
3.595651 28.812502 -25.661244 38.750334 1.446643 2.294574 0.056179 -0.034868 -511159.000000 0 0 1
3.969751 27.484402 -25.271934 37.547595 1.427352 2.309140 0.057554 -0.027738 -236442.000000 0 0 1
4.892051 27.428802 -24.243344 36.932520 1.394298 2.286863 0.047468 -0.016120 -134193.000000 0 0 1
5.739051 26.155002 -23.981744 35.946416 1.354795 2.301176 0.045800 -0.015086 489534.000000 0 0 1
6.687051 26.348402 -22.944344 35.572431 1.322251 2.271824 0.042315 -0.013296 77856.800000 0 0 1
7.575851 25.285302 -22.678344 34.800104 1.279693 2.280586 0.040318 -0.005966 553882.000000 0 0 1
9.040351 25.620902 -22.314544 35.158177 1.231584 2.258404 0.030282 0.003049 -109508.000000 0 0 1
9.244051 26.236702 -21.080744 34.902933 1.232045 2.219284 0.040215 -0.001660 396615.000000 0 0 1
10.561551 26.559002 -20.623944 35.245907 1.192306 2.195854 0.054100 -0.010197 1063940.000000 0 0 1
11.487351 25.400302 -20.093644 34.364067 1.146071 2.195341 0.034936 0.003482 351570.000000 0 0 1
11.778351 24.428302 -21.080944 34.349347 1.121522 2.231562 0.032422 -0.001587 -151622.000000 0 0 1
11.924851 23.191802 -20.458344 33.145219 1.095866 2.236018 0.018494 0.007259 -204604.000000 0 0 1
12.144851 22.071702 -21.562044 33.159903 1.067765 2.278703 0.014007 -0.003722 457760.000000 0 0 1
11.062751 22.072602 -22.515244 33.414374 1.106191 2.310162 0.024297 -0.012559 457194.000000 0 0 1
11.403551 21.533302 -23.780544 34.047589 1.083768 2.344026 0.011229 -0.023048 197836.000000 0 0 1
10.497751 21.934202 -25.028444 34.896060 1.124413 2.370613 0.025848 -0.021312 257321.000000 0 0 1
9.232351 21.333902 -24.900044 34.064407 1.162376 2.390538 0.018001 -0.023171 -752087.000000 0 0 1
8.537951 21.472402 -26.074524 34.840227 1.192340 2.416447 0.012248 -0.023090 -908382.000000 0 0 1
7.171551 20.744602 -26.063674 34.074693 1.237951 2.441680 0.016553 -0.024764 169083.000000 0 0 1
6.099851 21.566902 -25.626314 34.044785 1.295162 2.422986 0.031911 -0.020348 19619.900000 0 0 1
5.988751 21.760102 -24.255644 33.131607 1.302228 2.392196 0.040148 -0.016531 -1068620.000000 0 0 1
4.570651 22.070402 -23.789444 32.770888 1.366589 2.383185 0.052071 -0.017336 -341854.000000 0 0 1
4.058851 23.341602 -24.197144 33.864530 1.398629 2.366745 0.048712 -0.015083 387438.000000 0 0 1
2.644451 23.312302 -24.373744 33.830990 1.457843 2.375256 0.060556 -0.018946 311651.000000 0 0 1
2.120851 24.617102 -24.994444 35.145724 1.484855 2.361952 0.051453 -0.005494 -858678.000000 0 0 1
0.783251 24.436502 -25.333914 35.207432 1.538755 2.373967 0.063514 -0.029572 -901250.000000 0 0 1
0.495051 25.318602 -26.391154 36.575534 1.551246 2.376838 0.059202 -0.025304 -1026440.000000 0 0 1
-0.959849 25.184102 -26.729364 36.737163 -1.532701 2.385590 0.070664 -0.023082 -1089070.000000 0 0 1
-1.291849 23.854302 -27.118444 36.140096 -1.516693 2.419418 0.082595 -0.027548 503413.000000 0 0 1
-2.648349 23.840702 -27.596284 36.564295 -1.460165 2.426044 0.091532 -0.020462 725194.000000 0 0 1
-3.115149 22.412602 -27.932954 35.948279 -1.432690 2.460733 0.080489 -0.024267 -235164.000000 0 0 1
-2.355949 21.919502 -29.046094 36.464923 -1.463726 2.492362 0.085405 -0.024275 230875.000000 0 0 1
-2.722949 20.650802 -29.558094 36.160074 -1.439696 2.527720 0.072309 -0.013768 -968881.000000 0 0 1
-3.987849 20.522202 -30.362254 36.863670 -1.378869 2.538590 0.065128 -0.012195 -855574.000000 0 0 1
-3.965449 20.770202 -31.773134 38.166190 -1.382146 2.554391 0.063373 -0.008278 -6207.390000 0 0 1
-3.726649 22.096602 -32.192014 39.223379 -1.403716 2.533493 0.072124 -0.010478 -191341.000000 0 0 1
-3.327949 22.313802 -33.681334 40.539033 -1.422745 2.551407 0.056147 -0.007759 365193.000000 0 0 1
-2.049149 21.728802 -33.918494 40.333659 -1.476769 2.569828 0.062027 -0.003033 474092.000000 0 0 1
-1.609749 22.070902 33.613834 40.244326 -1.497990 0.582220 0.057311 0.000995 78448.500000 0 0 1
-0.375049 21.261602 33.143819 39.379044 -1.553158 0.570444 0.055078 0.002449 9219.610000 0 0 1
-0.682149 19.886902 32.830200 38.389793 -1.536508 0.544897 0.041565 0.009815 225429.000000 0 0 1
0.390451 19.211202 32.217077 37.512168 1.550475 0.537789 0.036359 0.001958 -126146.000000 0 0 1
0.012151 17.709402 32.051167 36.618306 1.570110 0.504788 0.036465 0.008109 296034.000000 0 0 1
-0.951249 17.575302 31.019847 35.665487 -1.516725 0.516113 0.024354 0.010415 28260.500000 0 0 1
-1.421549 16.265002 30.900277 34.948507 -1.483619 0.486091 0.027082 0.010852 -482375.000000 0 0 1
-2.182849 16.041702 29.511207 33.660249 -1.435554 0.501760 0.036522 0.004470 962490.000000 0 0 1
-3.519149 16.554002 29.632317 34.124677 -1.361329 0.518922 0.018646 0.000110 607332.000000 0 0 1
-3.559649 18.003702 29.494797 34.738270 -1.375596 0.556597 0.019705 -0.002745 -231884.000000 0 0 1
-5.020749 18.493502 29.770067 35.404440 -1.305699 0.571932 0.016979 -0.013449 351507.000000 0 0 1
-5.934049 17.954102 28.873207 34.514124 -1.251587 0.579819 0.009890 -0.012890 -326935.000000 0 0 1
-7.212249 18.508702 29.150007 35.274799 -1.199228 0.598167 0.035185 -0.019543 54756.300000 0 0 1
-8.425249 18.039802 28.319287 34.617933 -1.133865 0.612780 0.038913 -0.026746 230690.000000 0 0 1
-8.865149 16.710602 28.515037 34.219035 -1.083039 0.585729 0.049041 -0.033175 283946.000000 0 0 1
-9.796649 16.580702 29.593607 35.308293 -1.037135 0.576916 0.052179 -0.032009 -240830.000000 0 0 1
-10.338049 15.122802 29.689567 34.886168 -0.971157 0.552831 0.049372 -0.035158 231288.000000 0 0 1
-9.392749 14.095502 30.045517 34.491158 -0.983003 0.513343 0.029908 -0.018313 551919.000000 0 0 1
-8.824349 14.127602 31.363367 35.512238 -1.012472 0.488217 0.024471 -0.016220 22599.500000 0 0 1
-9.725249 13.553402 32.504007 36.534718 -0.948388 0.474165 0.058562 -0.025789 -168868.000000 0 0 1
-9.709649 12.115002 32.462657 35.984366 -0.895168 0.446110 0.022410 -0.010022 408612.000000 0 0 1
-10.229949 11.673102 33.724957 37.125273 -0.851191 0.431332 0.032679 -0.002287 -206682.000000 0 0 1
-10.578649 10.165002 33.927398 36.963541 -0.765460 0.408139 0.021995 -0.007193 -757003.000000 0 0 1
-9.479649 9.307302 33.977072 36.481927 -0.776225 0.372721 0.015966 0.000553 -338358.000000 0 0 1
-9.511449 8.506902 -33.657254 35.995080 -0.729704 2.779201 0.043565 -0.009888 86613.300000 0 0 1
-8.630849 9.090202 -32.501094 34.834529 -0.811314 2.773495 0.034500 -0.014102 -82008.300000 0 0 1
-9.219449 10.172002 -31.821634 34.656662 -0.834481 2.734300 0.041080 -0.017862 38776.000000 0 0 1
-8.353949 10.841002 -30.942044 33.833797 -0.914248 2.725142 0.050619 -0.014586 166927.000000 0 0 1
-7.322449 11.884802 -31.472264 34.429205 -1.018609 2.724117 0.043705 -0.010290 37790.600000 0 0 1
-7.885449 13.133602 -31.723184 35.228287 -1.030081 2.691722 0.052514 -0.014047 316039.000000 0 0 1
-6.958849 14.016402 -32.372934 35.956806 -1.109969 2.691320 0.037078 -0.012413 303215.000000 0 0 1
-7.499449 15.451502 -32.741614 36.973016 -1.118934 2.658482 0.039054 -0.014919 -311526.000000 0 0 1
-8.468949 15.556202 -33.722174 38.090727 -1.072255 2.657961 0.049590 -0.015844 -282768.000000 0 0 1
-8.719249 16.926402 -33.999134 38.967544 -1.095120 2.631089 0.052542 -0.022468 -357501.000000 0 0 1
-9.266049 17.202002 33.334191 38.638540 -1.076700 0.530175 0.047155 -0.025322 575902.000000 0 0 1
-10.479249 16.611202 32.939803 38.350714 -1.007998 0.537659 0.057485 -0.029441 613275.000000 0 0 1
-11.701249 17.065902 33.538615 39.408158 -0.969766 0.552800 0.064188 -0.031641 311752.000000 0 0 1
-12.974349 16.437402 32.913877 39.010834 -0.902602 0.566637 0.061295 -0.034258 -30244.800000 0 0 1
-12.959149 15.085302 32.695917 38.269163 -0.861067 0.546464 0.055157 -0.032727 504826.000000 0 0 1
-13.906849 14.478302 33.572264 39.116730 -0.805528 0.538930 0.046612 -0.024212 64738.800000 0 0 1
-13.861249 12.939402 33.485181 38.481420 -0.751015 0.515259 0.036496 -0.016706 -269854.000000 0 0 1
-14.097649 12.373002 32.202057 37.266705 -0.720337 0.527442 0.024034 -0.021277 -291993.000000 0 0 1
-13.006449 12.369802 31.340547 36.116611 -0.760315 0.520119 0.017031 -0.002032 -872849.000000 0 0 1
-13.290149 11.773702 29.948297 34.815924 -0.724968 0.535155 0.014396 0.003254 -106409.000000 0 0 1
-13.540949 10.396302 29.991567 34.509918 -0.654776 0.517475 0.002297 0.007733 101259.000000 0 0 1
-13.247849 9.914602 28.683507 33.114172 -0.642472 0.523249 -0.021039 0.014166 147173.000000 0 0 1
-13.930149 8.559802 28.274857 32.661702 -0.550999 0.524272 -0.000929 0.019273 270338.000000 0 0 1
-13.498349 7.420502 29.033187 32.866323 -0.502639 0.487788 -0.035730 0.023666 -108501.000000 0 0 1
-14.377949 6.356502 28.814217 32.823614 -0.416265 0.499441 -0.018412 0.029589 140320.000000 0 0 1
-13.706049 4.928702 28.768747 32.245754 -0.345202 0.468666 -0.011567 0.028939 137472.000000 0 0 1
-12.965449 4.497902 27.639637 30.859091 -0.333923 0.460855 -0.014492 0.033670 413540.000000 0 0 1
-13.740449 4.146702 26.467457 30.108493 -0.293096 0.496890 -0.004283 0.037262 -111202.000000 0 0 1
-12.786349 4.011702 25.303127 28.632720 -0.304022 0.487058 -0.012048 0.035813 -831868.000000 0 0 1
-12.091549 2.798102 25.424117 28.291706 -0.227407 0.454132 -0.015964 0.033424 185724.000000 0 0 1
-11.465049 2.395102 24.170887 26.859181 -0.205943 0.451230 -0.023560 0.028368 229657.000000 0 0 1
-10.430949 1.232902 24.238047 26.416049 -0.117651 0.408922 -0.024745 0.029220 616867.000000 0 0 1
-9.103749 1.576302 24.606167 26.283577 -0.171449 0.359194 -0.017671 0.021336 483171.000000 0 0 1
-8.239149 0.487602 24.890497 26.223237 -0.059112 0.320185 -0.015657 0.010521 -299289.000000 0 0 1
-6.780949 0.849302 24.660917 25.590299 -0.124599 0.270332 0.001745 0.006766 -1782890.000000 0 0 1
-6.488249 1.212702 23.319457 24.235616 -0.184775 0.275836 0.007645 0.006754 517891.000000 0 1 0
-5.100649 1.299202 22.968957 23.564327 -0.249409 0.225268 0.020344 -0.001813 546449.000000 0 1 0
-4.553549 2.617602 23.562657 24.140949 -0.521721 0.219322 0.031615 -0.000265 -1068410.000000 0 1 0
-4.496649 2.591102 24.973727 25.507267 -0.522758 0.204893 0.029016 0.005125 -341258.000000 0 0 1
-4.318349 3.862102 25.523567 26.172818 -0.729683 0.223202 0.025354 0.004113 40497.500000 0 0 1
3.973251 -23.862398 12.838856 27.386804 -1.405803 1.082868 0.038698 0.001653 277868.000000 0 0 1
3.783151 -25.153538 13.326456 28.715974 -1.421513 1.088203 0.042115 -0.007019 211120.000000 0 0 1
2.406751 -25.472558 13.519656 28.938293 -1.476592 1.084687 0.020265 -0.003858 250660.000000 0 0 1
2.183251 -26.795378 14.307256 30.454170 -1.489497 1.081736 0.009685 0.005623 -61531.600000 0 0 1
2.359651 -26.566118 15.707156 30.952243 -1.482207 1.038557 0.018148 -0.001908 27388.500000 0 0 1
2.106351 -27.711178 16.466156 32.302948 -1.494931 1.035912 0.009127 0.002099 -464052.000000 0 0 1
1.522451 -27.483398 17.813456 32.786800 -1.515458 0.996419 -0.008099 0.009669 -879553.000000 0 0 1
2.395351 -27.063218 18.803656 33.041383 -1.482517 0.965393 0.018900 -0.003929 -275150.000000 0 0 1
1.825451 -27.134808 20.098856 33.817069 -1.503624 0.934351 0.022381 -0.008414 -158839.000000 0 0 1
2.733651 -26.463428 21.091756 33.950671 -1.467862 0.900463 0.021787 -0.000932 -272283.000000 0 0 1
2.537551 -25.037278 21.098256 32.839624 -1.469790 0.873088 0.023548 -0.001617 -351118.000000 0 0 1
3.518651 -24.430098 21.861956 32.972045 -1.427751 0.845917 0.045237 -0.005005 -454158.000000 0 0 1
3.095451 -23.148298 22.567456 32.476386 -1.437862 0.802532 0.043823 -0.011722 -15782.700000 0 0 1
2.505251 -22.050798 21.847956 31.142370 -1.457669 0.793225 0.050236 -0.009168 285867.000000 0 0 1
3.360151 -21.518498 20.868456 30.163369 -1.415895 0.806751 0.049055 -0.002730 239444.000000 0 0 1
2.531251 -20.468798 20.066856 28.775991 -1.447757 0.799107 0.029875 -0.006279 466811.000000 0 0 1
2.258851 -19.289598 20.745356 28.417615 -1.454225 0.752449 0.024090 -0.007979 -79586.500000 0 0 1
1.413751 -18.389998 20.060356 27.250846 -1.494071 0.743451 0.017891 -0.010979 161626.000000 0 0 1
1.157051 -17.160998 20.879556 27.051701 -1.503475 0.689068 0.016319 -0.008547 502100.000000 0 0 1
2.256451 -16.260498 20.745456 26.455044 -1.432908 0.669426 -0.002476 0.006207 430269.000000 0 0 1
1.843051 -14.944198 21.209156 26.010656 -1.448087 0.617372 -0.002409 0.002372 908873.000000 0 0 1
2.924551 -13.813898 20.985656 25.293765 -1.362166 0.592267 -0.029423 0.010047 176398.000000 0 0 1
3.145051 -13.394698 19.647556 23.986158 -1.340176 0.610920 -0.042419 0.008002 630543.000000 0 1 0
1.993551 -12.869698 18.916256 22.965804 -1.417115 0.602943 -0.030716 0.014772 1029310.000000 0 1 0
1.423451 -11.527098 19.483756 22.682967 -1.447931 0.537562 -0.026457 0.007432 -485721.000000 0 1 0
2.095051 -10.315298 19.241056 21.932006 -1.370420 0.500579 -0.022411 0.006834 -504727.000000 0 1 0
1.629251 -9.234898 20.037956 22.123686 -1.396170 0.437711 -0.016332 -0.011993 389544.000000 0 1 0
0.131051 -8.774398 20.011356 21.850895 -1.555862 0.413266 -0.008012 -0.023268 662301.000000 0 1 0
-0.104249 -7.992398 21.176656 22.634930 1.557754 0.360915 0.006844 -0.024865 -453969.000000 0 1 0
-1.436349 -7.546198 21.192656 22.541892 1.382706 0.347740 0.013762 -0.021972 -140783.000000 0 1 0
-1.909449 -7.076798 22.567956 23.728458 1.307254 0.314043 0.011648 -0.015484 -533144.000000 0 1 0
-1.977949 -8.025298 23.602956 25.008343 1.329148 0.336842 0.001150 -0.008808 53604.300000 0 0 1
-2.147049 -7.377798 24.851956 26.012717 1.287603 0.299862 0.013621 -0.000847 -184668.000000 0 0 1
-2.360549 -8.419998 25.990156 27.421830 1.297463 0.324561 0.014186 0.002153 950263.000000 0 0 1
-1.180649 -9.227498 26.267956 27.866578 1.443539 0.340365 0.011288 0.003868 874378.000000 0 0 1
-1.412649 -10.241798 27.264456 29.158885 1.433731 0.362450 0.014328 -0.005528 36864.000000 0 0 1
-0.204049 -11.168498 27.560056 29.737749 1.552528 0.385075 0.010552 -0.007071 286504.000000 0 0 1
0.894051 -10.546798 28.191356 30.112902 -1.486229 0.359171 -0.000107 -0.007725 -359310.000000 0 0 1
1.926051 -11.459498 28.434256 30.717043 -1.404278 0.387958 -0.004140 -0.011826 35332.100000 0 0 1
2.969551 -10.857998 29.414256 31.494648 -1.303835 0.365502 0.010834 -0.013746 125476.000000 0 0 1
2.414651 -10.825098 30.702056 32.643982 -1.351329 0.346662 0.007864 -0.009964 657425.000000 0 0 1
3.271951 -10.037098 31.570256 33.288588 -1.255673 0.322706 0.021986 -0.007883 -31687.800000 0 0 1
2.756151 -10.081998 33.000856 34.616464 -1.303943 0.306722 0.022930 -0.001938 -514149.000000 0 0 1
2.871451 -11.284398 33.760656 35.712250 -1.321623 0.332123 0.012841 -0.004602 -58471.900000 0 0 1
2.364251 -11.263498 -33.705544 35.616285 -1.363896 2.812550 0.010773 -0.006842 -340148.000000 0 0 1
3.033851 -10.455098 -32.587944 34.358222 -1.288374 2.819187 0.008428 0.000375 -150517.000000 0 0 1
2.764951 -9.048998 -32.757344 34.096524 -1.274253 2.860395 0.026723 -0.000663 -187247.000000 0 0 1
3.649751 -8.378998 -31.951644 33.233054 -1.159996 2.862994 0.027884 0.000932 -447391.000000 0 0 1
3.340251 -6.877498 -31.624844 32.535950 -1.118672 2.904381 0.019278 -0.000514 22511.700000 0 0 1
3.213651 -6.046398 -32.755344 33.463399 -1.082269 2.935514 0.036754 0.001636 118623.000000 0 0 1
3.474451 -4.688398 -32.402844 32.924113 -0.933032 2.963411 0.032214 0.003459 -27646.900000 0 0 1
3.296651 -3.635698 -33.520844 33.878211 -0.834267 2.996216 0.034715 0.007638 640373.000000 0 0 1
1.954551 -3.198098 -33.818744 34.025807 -1.022211 3.031215 0.038470 0.004142 493340.000000 0 0 1
1.907951 -2.183098 33.986256 34.109703 -0.852553 0.085103 0.060795 0.003415 37508.200000 0 0 1
1.554551 -2.638098 32.543456 32.687195 -1.038304 0.093815 0.048672 -0.010310 512038.000000 0 0 1
0.147151 -2.822898 32.424056 32.547040 -1.518716 0.086960 0.040991 -0.014509 129436.000000 0 0 1
-0.076049 -3.270198 31.083856 31.255497 1.547545 0.104848 0.046980 -0.006919 746104.000000 0 0 1
-1.578749 -3.545998 30.750756 30.994767 1.151925 0.125563 0.043882 -0.015834 574288.000000 0 0 1
-2.472549 -2.455198 30.676956 30.874215 0.781877 0.113101 0.039885 -0.011397 -86348.400000 0 0 1
-3.771849 -3.038398 30.774856 31.153659 0.678114 0.156102 0.024531 -0.013939 -174124.000000 0 0 1
-4.802949 -2.023098 30.295656 30.740658 0.398665 0.170359 0.015670 -0.007546 -780672.000000 0 0 1
-4.679949 -1.746398 28.901256 29.329753 0.357162 0.171145 0.009854 -0.009327 80438.900000 0 0 1
-5.623149 -0.832698 28.354856 28.919043 0.147016 0.197853 -0.004028 -0.005991 182696.000000 0 0 1
-5.749149 0.674802 28.761756 29.338485 -0.116840 0.198608 0.012307 0.000387 -473968.000000 0 0 1
-6.501849 0.785502 29.903256 30.612020 -0.120229 0.215606 0.010866 0.006637 -635817.000000 0 0 1
-6.751849 2.124302 30.191856 31.010455 -0.304820 0.230280 0.013252 0.001367 -1444530.000000 0 0 1
-8.179749 2.296002 30.606056 31.763353 -0.273652 0.270771 -0.003911 0.008141 -1357970.000000 0 0 1
-9.007549 1.977102 29.509356 30.916775 -0.216067 0.302894 -0.019625 0.014399 -329708.000000 0 0 1
-10.329449 2.421502 29.729156 31.565549 -0.230269 0.342783 -0.022252 0.019823 84788.000000 0 0 1
-11.311949 1.824402 28.673556 30.878171 -0.159904 0.380167 -0.018193 0.026250 5654.850000 0 0 1
-11.598549 0.471102 28.910356 31.153763 -0.040595 0.381817 -0.017154 0.023481 -17022.000000 0 0 1
-11.963849 -0.129498 27.688656 30.163092 0.010824 0.407878 -0.016098 0.027203 -625571.000000 0 0 1
-12.088749 -1.671098 27.828656 30.386914 0.137365 0.413275 -0.008757 0.017975 785218.000000 0 0 1
-10.918249 -2.429498 28.266956 30.399530 0.218950 0.376796 -0.008807 0.010527 2028720.000000 0 0 1
-9.717249 -2.415898 27.454756 29.223708 0.243679 0.349720 -0.012236 0.011878 638135.000000 0 0 1
-9.792049 -3.032998 26.055056 27.999094 0.300369 0.374836 -0.013371 0.008760 -204150.000000 0 0 1
-10.688449 -2.295098 25.184956 27.455281 0.211515 0.409529 -0.007895 0.012636 743358.000000 0 0 1
-10.786849 -2.895598 23.892956 26.374494 0.262255 0.437269 0.001947 0.010359 -312514.000000 0 0 1
-9.709749 -2.484598 22.884756 24.983285 0.250512 0.412796 -0.001599 0.007081 382963.000000 0 1 0
-8.345649 -2.728698 23.207256 24.812747 0.316004 0.361702 0.003683 -0.000638 72692.300000 0 1 0
-7.534549 -2.365898 22.120456 23.487901 0.304257 0.342908 0.000917 -0.006242 -317313.000000 0 1 0
-6.029949 -2.398198 22.484556 23.402284 0.378535 0.280978 0.010225 -0.011944 285874.000000 0 1 0
-5.367749 -3.677698 22.502256 23.424127 0.600688 0.281484 0.009546 -0.011974 76152.400000 0 1 0
-5.863849 -4.580998 23.455356 24.607397 0.663189 0.307203 0.008946 -0.009917 -628375.000000 0 1 0
-5.583149 -6.090798 23.219756 24.646023 0.828856 0.341868 0.007287 -0.007557 -92750.000000 0 1 0
-6.277149 -6.756398 22.114156 23.960122 0.822152 0.395103 0.002634 -0.014418 435856.000000 0 1 0
-5.880149 -6.267998 20.846156 22.548308 0.817314 0.391046 0.008766 -0.018870 -756946.000000 0 1 0
-7.000249 -6.315798 19.813356 21.942240 0.734043 0.444146 0.016864 -0.014562 -454538.000000 0 1 0
-7.937449 -5.321998 20.204056 22.350182 0.590646 0.441815 0.009103 -0.010444 -315949.000000 0 1 0
-8.944149 -5.195298 19.217056 21.823936 0.526227 0.493776 0.016881 -0.004110 286649.000000 0 1 0
-9.743249 -3.890098 19.349456 22.010571 0.379869 0.496829 0.015900 -0.003812 -73023.700000 0 1 0
-8.905049 -2.821498 19.023256 21.193042 0.306836 0.456461 0.012751 -0.004771 -130970.000000 0 1 0
-9.602549 -1.611298 18.941556 21.297600 0.166250 0.474820 0.009252 -0.007550 -56965.300000 0 1 0
-8.619849 -0.558098 18.347256 20.278932 0.064655 0.440016 0.009401 -0.004131 225848.000000 0 1 0
-7.540649 -0.304398 19.236756 20.664144 0.040346 0.373860 0.009974 0.002315 65126.100000 0 1 0
-7.676349 0.580202 20.342656 21.750555 -0.075440 0.361773 0.013804 0.001476 -530619.000000 0 1 0
-7.714049 2.099502 20.092956 21.625017 -0.265730 0.378680 0.010330 -0.002384 -169245.000000 0 1 0
-8.770049 2.486402 19.257856 21.306360 -0.276261 0.442101 -0.000552 -0.003933 50392.300000 0 1 0
-8.468249 3.858402 18.839156 21.012194 -0.427527 0.458806 -0.004510 -0.002632 -192595.000000 0 1 0
-9.304349 4.406302 17.716356 20.490380 -0.442285 0.526406 -0.005339 0.005519 -722509.000000 0 1 0
-10.657549 4.547502 18.110756 21.500293 -0.403304 0.569169 -0.009854 0.013693 117887.000000 0 1 0
-11.447149 5.016602 17.019756 21.115767 -0.413032 0.633398 -0.006336 0.015233 -196265.000000 0 1 0
-11.557849 6.522002 16.862456 21.458397 -0.513750 0.666774 -0.007286 0.015174 -909815.000000 0 1 0
-10.340549 7.151602 16.586156 20.812807 -0.605071 0.648616 -0.009400 0.009356 -52413.100000 0 1 0
-10.632249 8.527002 16.566356 21.452241 -0.675956 0.688431 -0.010592 0.011082 -81165.000000 0 1 0
-9.442849 9.481502 16.724456 21.419003 -0.787441 0.674814 -0.008485 0.013043 -300669.000000 0 1 0
-9.096549 9.825702 18.059556 22.481975 -0.823913 0.637997 0.012663 0.026415 449606.000000 0 1 0
-8.230449 11.000402 18.145256 22.759601 -0.928451 0.648059 0.025954 0.014966 409171.000000 0 1 0
-8.815649 12.348502 17.663256 23.285012 -0.950799 0.709684 0.022167 0.015711 -75262.500000 0 1 0
-8.507249 12.621702 16.345256 22.334906 -0.977722 0.749799 0.008540 -0.002323 35825.600000 0 1 0
-9.159649 13.839902 16.010856 23.060563 -0.986150 0.803355 0.017525 -0.008680 115157.000000 0 1 0
-8.757149 14.338502 14.636256 22.282286 -1.022515 0.854155 0.014875 -0.008425 222504.000000 0 1 0
-7.506849 14.991502 14.618656 22.244168 -1.106557 0.853711 0.012636 0.002369 -117419.000000 0 1 0
-7.174249 15.487902 13.340256 21.663503 -1.137006 0.907403 0.009467 -0.012748 156899.000000 0 1 0
-6.050249 16.556902 13.394456 22.139285 -1.220450 0.921020 -0.011591 -0.007204 1458180.000000 0 1 0
-4.747249 16.010602 13.721056 21.613494 -1.282548 0.882998 -0.013524 -0.016162 882466.000000 0 1 0
-3.764249 17.042002 13.855956 22.284230 -1.353406 0.899779 -0.008476 -0.013464 -216669.000000 0 1 0
-2.349749 16.571502 14.101356 21.885708 -1.429941 0.870665 0.011766 -0.021057 -746355.000000 0 1 0
-2.171549 16.094602 15.391156 22.374975 -1.436682 0.812241 0.014007 -0.017014 -11742.000000 0 1 0
-2.545349 14.754702 15.594656 21.618819 -1.399967 0.765052 0.018377 -0.017694 -191591.000000 0 1 0
-1.366649 14.135402 16.400556 21.694597 -1.474413 0.713655 0.022122 -0.009218 -456155.000000 0 1 0
-0.197049 14.103502 15.623956 21.048886 -1.556826 0.734345 0.002339 -0.018935 -580265.000000 0 1 0
0.836551 13.616902 16.468256 21.385118 1.509439 0.691829 0.008843 -0.007579 -96890.500000 0 1 0
1.682951 14.691402 17.193156 22.677615 1.456740 0.710317 0.008360 -0.004938 -325798.000000 0 1 0
1.037451 15.351202 18.265256 23.882112 1.503318 0.700051 0.008267 -0.009631 319358.000000 0 1 0
1.958951 16.368602 18.667256 24.904519 1.451685 0.723410 0.037035 -0.015851 330163.000000 0 1 0
1.193551 17.530802 19.371256 26.153377 1.502818 0.736716 0.036095 -0.010226 380030.000000 0 0 1
0.645251 18.447702 18.452056 26.100046 1.535833 0.785586 0.022858 -0.003809 713831.000000 0 0 1
-0.639649 18.049202 17.917556 25.440551 -1.535372 0.789372 0.028937 -0.005589 455077.000000 0 0 1
-1.168949 18.989202 16.760056 25.354599 -1.509315 0.848611 0.017082 0.001298 218411.000000 0 0 1
-1.690849 20.228702 17.361956 26.711362 -1.487404 0.863233 0.010629 0.010665 -66639.200000 0 0 1
-2.477049 20.934002 16.472856 26.753003 -1.453017 0.907473 0.007500 0.006563 -668253.000000 0 0 1
-3.054449 22.196302 17.146656 28.213707 -1.434045 0.917582 0.004630 0.016978 343230.000000 0 0 1
-4.106849 21.950402 18.101156 28.746099 -1.385838 0.889641 0.008906 0.013906 534749.000000 0 0 1
-4.533849 23.109002 18.796856 30.131438 -1.377063 0.897164 0.009797 0.019648 -450869.000000 0 0 1
-5.603649 22.863702 19.830856 30.780068 -1.330445 0.870720 0.009847 0.020012 548115.000000 0 0 1
-6.934249 22.690802 19.295956 30.582515 -1.274212 0.888023 0.002779 0.015910 1384700.000000 0 0 1
-7.818949 22.055202 20.249456 30.945248 -1.230103 0.857455 -0.002894 0.008632 1774090.000000 0 0 1
-9.387249 22.116102 20.040056 31.286519 -1.169389 0.875604 0.003559 0.007157 1243510.000000 0 0 1
-9.796949 23.440102 20.240056 32.481971 -1.174906 0.898075 0.010779 0.008069 446511.000000 0 0 1
-10.799749 23.929102 19.328456 32.601008 -1.146843 0.936167 0.005219 0.004000 678635.000000 0 0 1
-11.341449 25.397502 19.500756 33.969708 -1.150809 0.959337 0.014542 -0.004476 562175.000000 0 0 1
-12.189249 25.635802 20.648456 35.101721 -1.126958 0.941908 0.018167 -0.002590 466564.000000 0 0 1
-12.753149 26.940702 20.635756 36.252981 -1.128672 0.965245 0.039440 -0.011677 -100508.000000 0 0 1
-13.665549 27.137202 21.893056 37.449711 -1.104295 0.946411 0.054056 -0.008517 113813.000000 0 0 1
-14.996849 26.675902 21.861256 37.608825 -1.058645 0.950496 0.042310 -0.011766 116221.000000 0 0 1
-15.745249 26.915702 23.043156 38.773121 -1.041491 0.934392 0.035215 -0.007129 810354.000000 0 0 1
-17.167049 26.255102 22.942056 38.863554 -0.991715 0.939337 0.037785 -0.003576 560953.000000 0 0 1
-17.204649 24.860002 23.059556 38.023187 -0.965418 0.919195 0.041691 -0.004903 25298.300000 0 0 1
-18.546449 24.384702 23.082856 38.358867 -0.920560 0.925093 0.046943 0.008567 288963.000000 0 0 1
26.526351 24.469402 23.274557 42.943031 0.745084 0.997997 0.024098 -0.020828 -182967.000000 0 0 1
26.376651 23.869102 24.519257 43.204811 0.735534 0.967315 0.034613 -0.022101 281331.000000 0 0 1
25.949151 22.540002 24.253617 42.067185 0.715206 0.956303 0.036297 -0.016652 -612462.000000 0 0 1
25.786851 21.743502 25.543257 42.310749 0.700534 0.922655 0.036846 -0.015420 -222085.000000 0 0 1
24.655451 22.030902 26.328747 42.266474 0.729241 0.898323 0.029910 -0.008328 -25477.800000 0 0 1
24.630051 21.362202 27.572967 42.699550 0.714465 0.868799 0.038812 -0.001324 875365.000000 0 0 1
23.314951 21.587902 28.442057 42.644754 0.746955 0.840684 0.040423 -0.000640 764081.000000 0 0 1
23.128351 22.946102 28.765817 43.461666 0.781443 0.847490 0.048966 -0.011115 -260922.000000 0 0 1
22.098351 23.049102 29.697007 43.606312 0.806454 0.821634 0.065236 -0.007732 -505888.000000 0 0 1
21.739851 24.453902 30.121897 44.474072 0.844084 0.826722 0.067237 -0.010605 -654420.000000 0 0 1
21.124551 25.228402 29.081107 43.913889 0.873703 0.847005 0.050492 -0.012849 116490.000000 0 0 1
20.724051 26.456702 29.618787 44.796382 0.906309 0.848396 0.050983 -0.015385 -655576.000000 0 0 1
19.380551 26.439802 30.321477 44.654908 0.938260 0.824372 0.056105 -0.010258 -1806870.000000 0 0 1
18.301051 26.872502 29.505647 43.904931 0.972914 0.833843 0.055249 -0.008333 962733.000000 0 0 1
17.168651 27.356802 30.270837 44.266022 1.010342 0.817785 0.055725 -0.003851 855781.000000 0 0 1
16.264151 26.330502 30.985347 43.793945 1.017469 0.784805 0.022969 0.014899 -696942.000000 0 0 1
16.859451 25.660202 32.064207 44.393698 0.989497 0.763718 0.036327 0.002846 1015880.000000 0 0 1
15.753151 25.051702 32.785410 44.165967 1.009451 0.734266 -0.007922 0.009056 935544.000000 0 0 1
16.159251 24.522002 34.189218 45.070529 0.988141 0.709678 0.013802 -0.000639 -96532.100000 0 0 1
16.436451 25.539402 -33.677444 45.349622 0.998953 2.407767 0.018660 -0.002565 12580.000000 0 0 1
16.712151 24.978002 -32.373744 44.173022 0.981128 2.393349 0.016689 0.006127 146007.000000 0 0 1
17.250451 26.030502 -31.371294 44.264242 0.985544 2.358489 0.020061 0.007839 -90368.900000 0 0 1
16.307151 27.056902 -31.212594 44.409741 1.028395 2.350167 0.022340 -0.009512 125130.000000 0 0 1
16.864051 28.177202 -30.513084 44.826322 1.031481 2.319508 0.025977 -0.015701 -29289.500000 0 0 1
16.221951 28.453102 -29.170654 43.859523 1.052630 2.298414 0.035167 -0.013331 3328.140000 0 0 1
16.885351 27.673002 -28.150694 42.934504 1.022929 2.285861 0.026198 -0.007115 651749.000000 0 0 1
16.411651 28.056802 -26.842294 42.154895 1.041521 2.261077 0.017778 0.001720 -76124.600000 0 0 1
17.085451 27.206802 -25.736324 41.164075 1.010054 2.246201 0.013644 -0.005023 505626.000000 0 0 1
18.483751 27.422802 -25.594254 41.817759 0.977714 2.229437 0.013952 -0.003375 5334.640000 0 0 1
19.114851 26.642002 -24.565944 40.971446 0.948441 2.213781 0.018462 -0.003811 310042.000000 0 0 1
20.639551 26.890802 -24.587844 41.876823 0.916169 2.198326 0.019726 0.002208 162887.000000 0 0 1
21.194151 26.269002 -23.437544 41.092225 0.891915 2.177746 0.014543 0.000259 -685512.000000 0 0 1
22.585251 26.337502 -23.326644 41.807773 0.861946 2.162710 0.026473 0.002668 -57756.600000 0 0 1
23.115051 26.191602 -21.840444 41.198429 0.847714 2.129548 0.030970 -0.005180 158471.000000 0 0 1
22.852951 24.900502 -21.291544 39.945240 0.828249 2.132960 0.033486 -0.007566 180549.000000 0 0 1
23.234051 24.726702 -19.952144 39.361389 0.816510 2.102377 0.024491 -0.014995 -834562.000000 0 0 1
22.654551 23.493202 -19.304044 37.918403 0.803569 2.104929 0.023164 -0.017211 278769.000000 0 0 1
23.598151 22.446702 -19.600444 38.011900 0.760396 2.112550 0.028421 -0.012299 772338.000000 0 0 1
23.464851 21.469502 -18.596844 36.842656 0.741021 2.099905 0.036212 -0.007683 -912031.000000 0 0 1
23.560151 19.994702 -19.199144 36.379609 0.703719 2.126739 0.049757 -0.014471 574212.000000 0 0 1
22.595951 19.626702 -20.208244 36.113121 0.715190 2.164677 0.027938 -0.015837 496563.000000 0 0 1
21.248051 19.860902 -19.870644 35.224673 0.751668 2.170153 0.026738 -0.019267 -200260.000000 0 0 1
20.183051 19.687202 -21.029344 35.173495 0.772962 2.211643 0.031541 -0.021736 551860.000000 0 0 1
20.254651 20.582802 -22.167244 36.404523 0.793434 2.225488 0.025213 -0.020440 -158340.000000 0 0 1
20.302651 21.970502 -21.951044 37.104567 0.824832 2.203838 0.019450 -0.013154 -29396.800000 0 0 1
19.940851 22.804502 -23.218444 38.167774 0.852291 2.224746 0.018815 -0.015170 -1455360.000000 0 0 1
18.598751 22.799702 -23.395544 37.591108 0.886528 2.242562 0.030490 -0.017043 -2081230.000000 0 0 1
18.204951 23.037502 -24.706144 38.373692 0.902040 2.270290 0.022822 -0.016540 -143263.000000 0 0 1
16.674751 23.105702 -24.807444 37.780022 0.945673 2.287136 0.023124 -0.019945 -254558.000000 0 0 1
16.068151 24.145902 -24.108344 37.715014 0.983629 2.264285 0.017647 -0.017195 -261627.000000 0 0 1
14.679151 24.210402 -24.320444 37.324322 1.025746 2.280485 0.027578 -0.016039 124661.000000 0 0 1
13.950851 25.330502 -23.515744 37.272654 1.067375 2.253524 0.017764 -0.009024 -34441.400000 0 0 1
14.057951 26.596402 -24.074644 38.530287 1.084558 2.245702 0.012551 -0.009231 453858.000000 0 0 1
13.052351 27.504602 -23.571844 38.503231 1.127714 2.229642 0.017267 -0.005366 556097.000000 0 0 1
13.127551 28.889002 -24.267444 39.947664 1.144278 2.223682 0.015256 -0.010498 202701.000000 0 0 1
12.925351 28.727202 -25.694264 40.651101 1.147997 2.255015 0.023684 -0.015609 -129968.000000 0 0 1
12.591651 29.974102 -26.390104 41.874026 1.173097 2.252641 0.028982 -0.013835 -91518.400000 0 0 1
13.519951 31.192102 -26.321284 42.994724 1.161797 2.229634 0.032405 -0.013986 -511170.000000 0 0 1
14.706951 31.113302 -27.041034 43.766990 1.129234 2.236790 0.020182 -0.006338 -562318.000000 0 0 1
15.432951 32.359302 -26.999614 44.880725 1.125779 2.216281 0.020618 -0.003428 142105.000000 0 0 1
16.814651 32.109102 -27.653324 45.589837 1.088391 2.222533 0.018144 0.008634 -200207.000000 0 0 1
17.623751 31.405302 -26.741304 44.855177 1.059417 2.209518 0.006517 0.013166 -81134.500000 0 0 1
18.759951 30.839802 -27.381734 45.307709 1.024294 2.219747 0.006420 0.011890 -339306.000000 0 0 1
19.664351 30.119902 -26.363924 44.597664 0.992407 2.203281 0.001989 0.022648 -581892.000000 0 0 1
20.216751 30.777902 -25.227904 44.636794 0.989614 2.171450 0.012517 0.021050 373126.000000 0 0 1
20.890151 32.052102 -25.398374 45.921814 0.993188 2.156851 0.010658 0.021222 340485.000000 0 0 1
22.293951 32.010702 -26.057244 46.911462 0.962455 2.159707 0.004715 0.019186 -9761.040000 0 0 1
22.131551 31.623202 -27.435984 47.355735 0.960170 2.188739 -0.001598 0.021480 1108550.000000 0 0 1
23.388651 31.763402 -28.164884 48.468581 0.936095 2.190871 0.009351 0.022112 528871.000000 0 0 1
23.324751 31.099602 -29.585554 48.852167 0.927294 2.221333 0.001267 0.022220 39926.700000 0 0 1
22.498351 31.786502 -30.511204 49.472124 0.954857 2.235385 0.007123 0.016842 296226.000000 0 0 1
21.109651 31.527602 -30.346924 48.585418 0.980793 2.245428 0.007816 0.017236 -103365.000000 0 0 1
20.256751 32.414302 -31.313014 49.411818 1.012246 2.257143 -0.006669 0.020356 -669800.000000 0 0 1
19.518251 33.353102 -30.519764 49.242740 1.041330 2.239261 -0.005320 0.019600 -266915.000000 0 0 1
18.724451 34.117802 -31.351744 49.975607 1.068861 2.248930 0.006034 0.006814 -514966.000000 0 0 1
17.230451 33.727102 -31.315094 49.143066 1.098484 2.261686 0.022295 0.000246 -468141.000000 0 0 1
16.780151 32.402802 -31.656374 48.307774 1.092962 2.285384 0.028666 -0.005402 141204.000000 0 0 1
17.196051 31.752002 -32.870984 48.830271 1.074445 2.309281 0.033770 -0.015181 -1140340.000000 0 0 1
16.678751 32.345002 -34.129335 49.891796 1.094706 2.324120 0.044197 -0.016850 -506657.000000 0 0 1
17.281451 33.582702 34.261846 50.993337 1.095542 0.834040 0.040102 -0.005458 130335.000000 0 0 1
17.014151 34.052502 32.961534 50.353916 1.107433 0.857147 0.050864 -0.021570 344510.000000 0 0 1
15.581651 -34.201156 32.787215 49.874927 -1.143305 0.853448 0.055835 -0.021393 621121.000000 0 0 1
14.465351 33.766302 32.805003 49.250154 1.166053 0.841843 0.050402 -0.015402 885155.000000 0 0 1
13.182851 34.392902 32.943407 49.415861 1.204768 0.841082 0.034729 -0.013420 729287.000000 0 0 1
12.561151 -33.755056 31.670357 47.960377 -1.214547 0.849519 0.035987 -0.011445 -1064420.000000 0 0 1
13.245651 -32.659456 31.160017 47.042895 -1.185499 0.846812 0.057248 -0.017837 -125823.000000 0 0 1
12.475151 -31.910056 30.241677 45.699454 -1.198118 0.847644 0.054666 -0.020506 -51882.200000 0 0 1
13.092351 -30.516856 29.832537 44.639314 -1.165525 0.838873 0.042736 -0.019371 7856.030000 0 0 1
12.818051 -29.585756 30.869987 44.638273 -1.161958 0.807152 0.036909 -0.015361 231601.000000 0 0 1
13.307551 -28.293056 30.627427 43.767878 -1.131151 0.795722 0.050139 -0.017786 -648377.000000 0 0 1
13.035951 -27.190556 31.695257 43.747590 -1.123740 0.760483 0.036653 -0.015736 -445017.000000 0 0 1
11.685951 -26.808756 31.803557 43.205753 -1.159729 0.743513 0.024005 -0.012699 -326321.000000 0 0 1
11.382351 -25.806556 30.834377 41.788695 -1.155398 0.740896 0.011386 -0.011732 -354620.000000 0 0 1
11.501251 -24.303056 31.240467 41.217521 -1.128783 0.710645 0.017468 -0.013760 -332284.000000 0 0 1
10.473751 -23.973856 32.109187 41.417932 -1.158905 0.683688 0.019158 -0.013028 -318783.000000 0 0 1
10.801851 -22.750356 32.691127 41.267038 -1.127512 0.656415 0.017682 -0.015103 149849.000000 0 0 1
9.860651 -22.240256 33.803384 41.647692 -1.153470 0.623824 0.014958 -0.012349 -651342.000000 0 0 1
9.804251 -23.033956 -33.831594 42.086378 -1.168381 2.504554 0.006948 -0.007608 528221.000000 0 0 1
10.971751 -23.153356 -32.994144 41.774044 -1.128268 2.481318 0.027622 -0.007291 693118.000000 0 0 1
11.529351 -21.827156 -32.370594 40.708795 -1.084835 2.490092 0.036274 -0.014890 78733.900000 0 0 1
11.992751 -20.844456 -33.331634 41.101280 -1.048703 2.516593 0.023940 -0.011109 249562.000000 0 0 1
13.200951 -20.231856 -32.911694 40.826127 -0.992677 2.508401 0.039569 -0.015751 222785.000000 0 0 1
13.622651 -19.021256 -33.817964 41.122250 -0.949293 2.536371 0.034114 -0.014548 -274142.000000 0 0 1
13.890551 -19.351456 33.636051 41.216625 -0.948221 0.616201 0.054154 -0.009465 212731.000000 0 0 1
13.782751 -18.268456 32.749266 39.952661 -0.924449 0.609906 0.031853 -0.012050 464293.000000 0 0 1
14.943651 -17.166556 32.737777 39.871862 -0.854515 0.607505 0.049932 -0.015375 -165560.000000 0 0 1
14.967151 -16.487356 33.913862 40.570907 -0.833691 0.580997 0.048854 -0.015764 65159.400000 0 0 1
15.648751 -15.271956 33.846160 40.294895 -0.773213 0.573584 0.053160 -0.013707 517176.000000 0 0 1
17.201051 -15.377156 34.053708 41.133783 -0.729471 0.595484 0.056206 -0.011473 131356.000000 0 0 1
17.878151 -16.005056 33.034731 40.829934 -0.730173 0.628209 0.059654 -0.010381 -561388.000000 0 0 1
19.261151 -16.053656 33.254991 41.648604 -0.694821 0.646054 0.072108 -0.010658 -603400.000000 0 0 1
20.028051 -16.569256 32.056027 41.270473 -0.691168 0.681339 0.083702 -0.021952 -736289.000000 0 0 1
20.033251 -15.693256 30.905997 40.034860 -0.664512 0.688851 0.076906 -0.017604 759956.000000 0 0 1
20.884751 -16.320256 29.922847 39.973745 -0.663323 0.724905 0.066608 -0.023603 42080.700000 0 0 1
21.166551 -15.497056 28.651847 38.847264 -0.631978 0.741359 0.060327 -0.017918 -210791.000000 0 0 1
22.151151 -14.516656 28.888967 39.191570 -0.580124 0.741995 0.045323 -0.016752 274895.000000 0 0 1
22.307051 -13.782056 27.725857 38.161141 -0.553430 0.757513 0.048300 -0.017320 390679.000000 0 0 1
23.180151 -12.501156 27.866497 38.342404 -0.494594 0.757174 0.034875 -0.006931 478024.000000 0 0 1
22.373951 -11.577756 28.567597 38.088656 -0.477522 0.722690 0.053395 -0.016205 63767.200000 0 0 1
23.069451 -10.416056 28.862957 38.389635 -0.424108 0.719944 0.037922 -0.016910 -531188.000000 0 0 1
22.274851 -9.118856 28.878207 37.593528 -0.388565 0.694819 0.047055 -0.023517 -246797.000000 0 0 1
21.258951 -9.158956 29.861527 37.782804 -0.406797 0.659421 0.048513 -0.028468 -506933.000000 0 0 1
20.351551 -8.147256 29.572087 36.811299 -0.380787 0.637909 0.055653 -0.022865 533843.000000 0 0 1
19.038751 -8.081956 30.472387 36.828771 -0.401447 0.596321 0.032707 -0.007706 790316.000000 0 0 1
19.207751 -7.675156 31.863727 37.988719 -0.380150 0.575780 0.029396 -0.008805 73946.900000 0 0 1
19.503051 -8.860256 32.608197 39.014967 -0.426425 0.581232 0.039168 -0.020098 -309202.000000 0 0 1
19.737351 -8.621856 34.088045 40.322379 -0.411847 0.563506 0.023839 -0.018473 -415089.000000 0 0 1
18.562051 -8.227156 -34.084296 39.673354 -0.417205 2.604350 0.010302 -0.019979 -206089.000000 0 0 1
18.775151 -7.681656 -32.812494 38.576857 -0.388360 2.587873 0.003398 -0.018570 356523.000000 0 0 1
17.450551 -7.374656 -32.048664 37.229345 -0.399839 2.607723 0.013836 -0.014327 542259.000000 0 0 1
17.765751 -6.635156 -30.942064 36.291301 -0.357438 2.591742 0.011406 -0.012812 9520.090000 0 0 1
16.558751 -6.118656 -30.464614 35.209699 -0.353951 2.616412 0.033719 -0.011202 -467595.000000 0 0 1
16.620551 -4.845556 -29.596044 34.287723 -0.283677 2.612306 0.027283 -0.003401 -118288.000000 0 0 1
17.397851 -4.882956 -28.396154 33.658135 -0.273625 2.574868 0.023420 0.001773 225405.000000 0 0 1
17.075351 -5.823856 -27.379984 32.789456 -0.328696 2.558973 0.021391 -0.006053 208007.000000 0 0 1
15.749851 -5.638856 -26.561044 31.390182 -0.343807 2.579530 0.026655 -0.012708 550366.000000 0 0 1
15.636451 -4.622056 -25.594014 30.346590 -0.287411 2.574358 0.009530 -0.007026 230052.000000 0 0 1
14.352751 -4.663656 -24.956644 29.164794 -0.314170 2.597720 0.041298 -0.014477 661695.000000 0 0 1
14.126651 -3.490256 -23.991044 28.059122 -0.242218 2.596381 0.039540 -0.002485 -7022.530000 0 0 1
14.146151 -2.201256 -24.553344 28.422277 -0.154370 2.613712 0.037177 -0.004442 160006.000000 0 0 1
13.775051 -1.227256 -23.600544 27.354046 -0.088858 2.611541 0.041546 -0.006046 -95281.600000 0 0 1
13.916751 0.228744 -24.062144 27.797753 0.016435 2.617173 0.029614 -0.008772 -601123.000000 0 0 1
13.061851 0.701744 -25.092254 28.297095 0.053673 2.661048 0.038107 -0.013001 126718.000000 0 0 1
13.374851 2.025744 -25.435764 28.809171 0.150317 2.652810 0.034014 0.002062 -304536.000000 0 0 1
12.669751 2.537744 -26.718734 29.679176 0.197683 2.691144 0.031991 -0.000893 -737275.000000 0 0 1
11.472551 3.149744 -26.397304 28.954412 0.267944 2.718163 0.037748 -0.014728 -883756.000000 0 0 1
10.883751 3.546744 -27.602514 29.882005 0.315023 2.748469 0.037409 -0.012721 354931.000000 0 0 1
9.656851 4.525744 -27.460474 29.458696 0.438260 2.771154 0.042157 -0.013943 431988.000000 0 0 1
9.920351 5.807744 -26.972984 29.320387 0.529643 2.738723 0.045020 -0.018616 116083.000000 0 0 1
8.718651 6.513744 -26.714574 28.846355 0.641645 2.754734 0.050494 -0.019660 331281.000000 0 0 1
8.169751 5.079202 -31.357824 32.800247 0.556229 2.843928 0.047855 -0.007362 -6903.740000 0 0 1
7.951551 4.046002 -30.431874 31.712714 0.470688 2.856413 0.036406 -0.000858 358636.000000 0 0 1
7.765151 2.765802 -31.035914 32.111916 0.342171 2.881990 0.028004 -0.000046 -131767.000000 0 0 1
7.582451 1.720602 -29.937654 30.930845 0.223140 2.887493 0.032605 -0.003119 -7974.100000 0 0 1
8.738751 1.521002 -29.158964 30.478261 0.172326 2.846288 0.044629 -0.012658 340146.000000 0 0 1
8.376951 0.560402 -28.179614 29.403707 0.066798 2.852032 0.048123 -0.010113 183878.000000 0 0 1
9.583751 0.062702 -27.331524 28.963156 0.006542 2.804334 0.049775 -0.016569 -86138.400000 0 0 1
10.461851 -0.702998 -28.089094 29.982357 -0.067096 2.784320 0.050617 -0.011207 -736486.000000 0 0 1
11.495351 -1.155798 -27.267144 29.613782 -0.100208 2.740817 0.046974 -0.007741 -214004.000000 0 0 1
12.223051 -2.372598 -27.930484 30.580126 -0.191724 2.722243 0.049964 -0.010441 -155393.000000 0 0 1
11.537551 -3.568798 -27.851934 30.357563 -0.299985 2.732451 0.055474 -0.014638 -186934.000000 0 0 1
12.253751 -4.608098 -28.468974 31.334828 -0.359696 2.710575 0.066289 -0.012581 -268648.000000 0 0 1
11.691051 -5.956198 -28.018204 30.938273 -0.471192 2.703627 0.053191 -0.014766 -185345.000000 0 0 1
11.789651 -6.220598 -26.647434 29.795594 -0.485508 2.677753 0.053803 -0.017815 -218952.000000 0 0 1
10.919451 -7.201498 -26.200694 29.284336 -0.583032 2.678555 0.053971 -0.020236 -431215.000000 0 0 1
10.561451 -7.031698 -24.697944 27.766481 -0.587395 2.667019 0.039792 -0.022991 -607914.000000 0 0 1
11.649551 -7.044698 -23.839544 27.452935 -0.543882 2.622720 0.029411 -0.014491 -679053.000000 0 0 1
11.220051 -7.061098 -22.544044 26.153060 -0.561706 2.610006 0.019174 -0.015120 -99526.800000 0 0 1
12.319251 -6.939098 -21.473544 25.710467 -0.512976 2.559304 0.025536 -0.013224 917303.000000 0 0 1
13.159251 -5.730898 -21.494744 25.846336 -0.410733 2.552844 0.031768 -0.009372 721273.000000 0 0 1
14.355051 -5.856398 -20.753544 25.905105 -0.387356 2.499989 0.032200 -0.008383 280305.000000 0 0 1
14.917251 -4.573598 -20.081644 25.430584 -0.297499 2.481059 0.034776 -0.007637 -260075.000000 0 0 1
15.632951 -3.738998 -20.941944 26.399513 -0.234764 2.486957 0.032948 -0.007733 58006.300000 0 0 1
16.116251 -2.588298 -20.217444 25.984185 -0.159242 2.462380 0.027799 -0.000572 121488.000000 0 0 1
17.119351 -1.781698 -21.091244 27.222917 -0.103702 2.457133 0.013702 -0.000067 -737473.000000 0 0 1
18.309751 -2.430098 -21.322644 28.210060 -0.131950 2.427751 0.022203 -0.008140 -888446.000000 0 0 1
19.119551 -1.570798 -22.077544 29.247950 -0.081973 2.426208 0.021176 -0.007041 408155.000000 0 0 1
20.634251 -1.883898 -22.252044 30.405178 -0.091047 2.391830 0.013380 -0.005736 -205690.000000 0 0 1
21.505851 -1.650698 -21.154944 30.211886 -0.076606 2.346501 0.018414 -0.008014 911434.000000 0 0 1
22.798851 -2.253998 -21.207744 31.219169 -0.098544 2.317629 0.008962 -0.007684 1241880.000000 0 0 1
23.809151 -1.657198 -22.282244 32.651499 -0.069491 2.321873 0.014472 -0.006652 -657838.000000 0 0 1
23.410051 -1.991298 -23.605644 33.304987 -0.084857 2.358552 0.014254 -0.004838 -15426.300000 0 0 1
24.153151 -1.315398 -24.579544 34.485634 -0.054407 2.364204 0.014603 0.002878 -346115.000000 0 0 1
25.538451 -1.875698 -24.871044 35.697333 -0.073314 2.341611 0.009408 0.000044 -1172020.000000 0 0 1
26.536951 -1.773098 -23.884344 35.746546 -0.066717 2.302527 0.010186 0.003861 711087.000000 0 0 1
27.838551 -2.296598 -24.184744 36.948087 -0.082311 2.284397 0.002849 0.011018 682843.000000 0 0 1
28.656251 -1.423598 -25.154884 38.157248 -0.049638 2.290607 0.003332 -0.000058 -1161660.000000 0 0 1
28.231351 -1.327898 -26.520504 38.757059 -0.047002 2.324406 0.017365 -0.004300 10743.400000 0 0 1
28.934551 -0.290998 -27.171824 39.693840 -0.010057 2.324762 0.015494 -0.012100 -496388.000000 0 0 1
28.299051 0.132802 -28.549934 40.198914 0.004693 2.360602 0.015091 -0.013928 938592.000000 0 0 1
26.944851 0.615102 -28.476024 39.208255 0.022824 2.383685 0.022504 -0.013528 823314.000000 0 0 1
26.679951 1.783602 -27.686314 38.490687 0.066752 2.373589 0.021877 -0.006525 -641636.000000 0 0 1
25.226651 2.301802 -27.712614 37.545588 0.090993 2.401055 0.022987 -0.014289 395288.000000 0 0 1
24.254951 1.448002 -27.083204 36.385427 0.059628 2.410345 0.018832 -0.010197 -282925.000000 0 0 1
22.977151 1.913502 -27.326574 35.754057 0.083087 2.440741 0.024799 -0.014983 -408969.000000 0 0 1
21.898351 1.415702 -26.288514 34.243656 0.064559 2.446025 0.029255 -0.013458 313276.000000 0 0 1
21.958551 2.099702 -25.072944 33.395198 0.095331 2.420061 0.032846 -0.014496 283536.000000 0 0 1
20.972251 1.707202 -24.141544 32.024428 0.081224 2.424695 0.036578 -0.011241 -138758.000000 0 0 1
21.149251 2.386102 -22.781844 31.176862 0.112347 2.390186 0.023389 -0.007285 -296992.000000 0 0 1
20.721651 3.739002 -22.664544 30.936201 0.178518 2.392963 0.027735 -0.013316 499693.000000 0 0 1
20.998051 4.266502 -21.378244 30.267978 0.200457 2.355053 0.028455 -0.016078 -284234.000000 0 0 1
20.610351 5.749602 -21.217944 30.133795 0.272050 2.351986 0.028518 -0.015790 -532303.000000 0 0 1
21.408651 6.680802 -21.886444 31.336558 0.302485 2.344000 0.026683 -0.012965 119827.000000 0 0 1
21.240751 8.044702 -21.498744 31.274314 0.362045 2.328734 0.015104 -0.012701 -511730.000000 0 0 1
21.661751 8.311002 -20.035644 30.655036 0.366352 2.283107 0.014182 -0.004182 681354.000000 0 0 1
23.075151 8.295202 -19.708144 31.459242 0.345101 2.247807 0.018837 -0.001438 1506910.000000 0 0 1
23.374851 8.524402 -18.311544 30.892745 0.349695 2.205260 0.029173 -0.005349 -49176.800000 0 0 1
23.141951 9.993502 -17.809844 30.864389 0.407646 2.185890 0.032787 -0.009666 1301760.000000 0 0 1
21.727651 10.157902 -17.492644 29.686131 0.437320 2.200930 0.041188 -0.014698 1453390.000000 0 0 1
21.400151 11.541302 -17.375044 29.884114 0.494598 2.191262 0.019818 -0.008675 -99517.800000 0 0 1
19.883351 11.695802 -17.122644 28.728459 0.531713 2.209328 0.020576 -0.014383 177793.000000 0 0 1
19.023751 11.530502 -18.218144 28.753371 0.544901 2.256994 0.007218 -0.014788 110798.000000 0 0 1
18.576751 10.239002 -18.479544 28.132301 0.503743 2.287470 0.011106 -0.007924 -417212.000000 0 0 1
17.910151 10.181102 -19.889744 28.636170 0.516901 2.338614 0.020036 -0.019986 6330.190000 0 0 1
18.788451 10.258902 -21.003844 29.990205 0.499784 2.346694 0.026578 -0.021915 479671.000000 0 0 1
18.037151 10.087902 -22.195544 30.327327 0.509944 2.391853 0.022750 -0.021328 -397027.000000 0 0 1
18.903751 10.383902 -23.396144 31.820697 0.502309 2.396831 0.030298 -0.021007 -461259.000000 0 0 1
19.124451 11.753002 -23.661844 32.615342 0.551052 2.382531 0.021376 -0.012119 125926.000000 0 0 1
19.891251 12.100402 -24.786044 34.006316 0.546520 2.387460 0.027199 -0.015079 -141415.000000 0 0 1
20.006851 13.639102 -24.899644 34.731707 0.598353 2.370162 0.041385 -0.023716 -80076.500000 0 0 1
20.525151 14.055202 -26.142954 36.087180 0.600438 2.381016 0.034986 -0.030340 56047.700000 0 0 1
20.627651 15.435902 -26.276904 36.800037 0.642419 2.366056 0.040234 -0.021547 -124214.000000 0 0 1
19.384951 16.146802 -26.845754 36.840060 0.694515 2.387234 0.029018 -0.015744 -410371.000000 0 0 1
18.227751 15.988102 -26.089654 35.616574 0.720035 2.392805 0.031892 -0.021510 -857000.000000 0 0 1
17.113551 15.997102 -26.941524 35.701913 0.751692 2.425877 0.022460 -0.018365 -577485.000000 0 0 1
15.834151 15.470702 -26.314914 34.388045 0.773789 2.442202 0.019790 -0.013586 -496802.000000 0 0 1
15.732551 14.021202 -26.175284 33.604356 0.727944 2.463747 0.015803 0.003351 15631.600000 0 0 1
14.377451 13.631602 -26.127714 32.790076 0.758776 2.492806 0.008751 -0.000764 -46967.700000 0 0 1
14.173451 12.070502 -25.985034 31.965696 0.705438 2.519917 0.007468 -0.001250 -803873.000000 0 0 1
12.839151 11.712002 -25.978314 31.255201 0.739520 2.552001 0.016747 0.003586 -982603.000000 0 0 1
12.709151 10.300502 -25.765854 30.520519 0.681098 2.575894 0.033701 -0.007199 134070.000000 0 0 1
11.319751 9.637802 -25.518974 29.533744 0.705315 2.614080 0.040607 -0.011253 319825.000000 0 0 1
10.734651 10.077702 -24.304644 28.416694 0.753843 2.596915 0.048124 -0.016773 -26495.500000 0 0 1
9.610251 9.307702 -23.931644 27.417400 0.769407 2.631836 0.052254 -0.013943 -56490.800000 0 0 1
8.847151 9.934702 -22.750044 26.354029 0.843238 2.612464 0.042082 -0.016192 -200961.000000 0 0 1
8.181351 11.119902 -23.206544 27.002415 0.936485 2.604940 0.030919 -0.019952 -48626.100000 0 0 1
7.541451 11.795102 -22.136944 26.192407 1.001929 2.577673 0.036006 -0.011074 23537.800000 0 0 1
8.450851 12.715902 -21.309544 26.214647 0.984233 2.519888 0.033350 -0.016362 -794486.000000 0 0 1
9.436951 12.062902 -20.642544 25.703779 0.906934 2.503266 0.044699 -0.020696 -1114080.000000 0 0 1
10.212551 12.948102 -19.873844 25.824779 0.902965 2.448956 0.042659 -0.021067 205334.000000 0 0 1
11.374651 12.213702 -19.111044 25.373001 0.820954 2.423716 0.044371 -0.022455 749905.000000 0 0 1
12.461651 11.644402 -19.875144 26.189811 0.751509 2.432401 0.041663 -0.022949 752263.000000 0 0 1
12.126751 10.498602 -20.774744 26.246308 0.713561 2.484105 0.050215 -0.028014 -386910.000000 0 0 1
13.405551 9.873002 -21.382444 27.099702 0.634796 2.480023 0.055182 -0.029365 518266.000000 0 0 1
14.200351 9.018502 -20.547344 26.555163 0.565822 2.455553 0.068695 -0.037999 206726.000000 0 0 1
14.946351 8.172202 -21.373044 27.331032 0.500359 2.468675 0.046369 -0.034406 -515746.000000 0 0 1
15.483351 7.008902 -20.560644 26.675812 0.425075 2.450829 0.074784 -0.034888 -455859.000000 0 0 1
16.301751 7.355802 -19.509444 26.466456 0.423874 2.399622 0.036813 -0.029750 -212774.000000 0 0 1
16.670451 6.111402 -18.868344 25.908832 0.351387 2.386575 0.026307 -0.037231 -57170.500000 0 0 1
17.625451 6.110802 -17.653644 25.683644 0.333735 2.328630 0.052666 -0.029994 -1869080.000000 0 0 1
18.850251 6.546902 -17.993844 26.869542 0.334277 2.304567 0.042200 -0.032917 -1623430.000000 0 0 1
19.756851 6.890402 -16.994144 26.955736 0.335570 2.252924 0.045817 -0.035132 -241579.000000 0 0 1
20.448451 5.859802 -16.108744 26.682730 0.279086 2.218948 0.044388 -0.034908 -1223250.000000 0 0 1
21.545151 5.314902 -16.754144 27.805450 0.241858 2.217487 0.038858 -0.028208 -304693.000000 0 0 1
22.138951 4.234202 -16.102844 27.701321 0.188974 2.191125 0.060493 -0.030909 -798868.000000 0 0 1
23.389351 3.799902 -16.837644 29.069008 0.161056 2.188580 0.016507 -0.002558 -801990.000000 0 0 1
24.016751 2.801302 -16.098244 29.048323 0.116115 2.158184 0.023753 -0.008436 382662.000000 0 0 1
25.363651 2.528402 -16.479944 30.352861 0.099358 2.144737 0.020147 -0.011328 224529.000000 0 0 1
25.854851 1.404902 -15.590344 30.224260 0.054285 2.112763 0.036384 -0.021243 -564683.000000 0 0 1
25.396051 0.086502 -15.955644 29.992490 0.003406 2.131743 0.040784 -0.016876 214703.000000 0 0 1
26.435051 -0.830198 -15.725344 30.769914 -0.031395 2.107217 0.032983 -0.011117 -296033.000000 0 0 1
25.992751 -2.282798 -16.083844 30.651661 -0.087600 2.123194 0.024869 -0.009486 127977.000000 0 0 1
25.145051 -2.854898 -15.080244 29.459087 -0.113053 2.108197 0.027755 -0.009745 585091.000000 0 0 1
24.932051 -4.223398 -15.302244 29.556775 -0.167803 2.114985 0.023772 -0.008555 -731103.000000 0 0 1
24.204451 -4.947898 -14.099844 28.445435 -0.201643 2.089414 0.022031 -0.007881 1627250.000000 0 0 1
22.797351 -4.711398 -13.816744 27.070628 -0.203795 2.106442 0.024856 0.004432 1339280.000000 0 0 1
21.960451 -5.249898 -14.804844 27.000116 -0.234657 2.151157 0.036770 0.005230 -195622.000000 0 0 1
20.460851 -5.382798 -14.387344 25.585477 -0.257249 2.167991 0.044375 0.008376 221422.000000 0 0 1
20.188551 -6.345898 -13.359244 25.026335 -0.304553 2.133893 0.043010 0.010579 235587.000000 0 0 1
20.561351 -6.100398 -12.035044 24.593217 -0.288420 2.082157 0.054443 0.002782 -539543.000000 0 1 0
20.447151 -7.283498 -11.064844 24.363212 -0.342197 2.042228 0.061604 0.005272 -294405.000000 0 1 0
19.134851 -7.802598 -10.975344 23.398317 -0.387186 2.059029 0.055235 0.010042 498620.000000 0 1 0
18.894951 -8.974398 -11.663744 23.949988 -0.443418 2.079453 0.053454 0.006621 -793157.000000 0 1 0
17.493251 -9.534098 -11.457644 22.982395 -0.499009 2.092710 0.065243 -0.006708 -321273.000000 0 1 0
16.492151 -8.619598 -11.832044 22.051889 -0.481602 2.137145 0.053024 -0.001053 175274.000000 0 1 0
15.182851 -9.136298 -11.991344 21.395870 -0.541706 2.165727 0.050195 -0.005900 497618.000000 0 1 0
14.127751 -8.090998 -12.420844 20.477670 -0.520106 2.222517 0.040727 -0.002351 -234165.000000 0 1 0
14.180451 -7.510198 -13.737844 21.123840 -0.487059 2.278839 0.036676 0.002432 506008.000000 0 1 0
15.216251 -6.525498 -13.860444 21.592321 -0.405128 2.267790 0.033749 0.005891 279027.000000 0 1 0
14.891551 -5.415998 -14.849644 21.716428 -0.348824 2.323751 0.019748 0.002143 -495464.000000 0 1 0
14.096251 -4.424498 -14.277844 20.545980 -0.304139 2.339107 0.034434 -0.006862 -54441.800000 0 1 0
13.768551 -3.319598 -15.120344 20.717566 -0.236585 2.388873 0.029970 -0.015974 297407.000000 0 1 0
14.950351 -2.346298 -15.427244 21.610598 -0.155670 2.365811 0.034208 -0.011361 -487960.000000 0 1 0
15.891051 -2.755298 -16.387444 22.992727 -0.171680 2.364169 0.023354 -0.003804 440987.000000 0 1 0
17.080951 -1.974198 -16.486844 23.821679 -0.115068 2.335183 0.038524 0.002677 970069.000000 0 1 0
18.106851 -2.271698 -15.313444 23.822683 -0.124809 2.268956 0.046762 -0.001225 -694852.000000 0 1 0
17.686551 -1.928998 -14.024344 22.654301 -0.108636 2.238340 0.038291 0.006316 -125510.000000 0 1 0
18.730151 -2.230698 -13.129044 22.981870 -0.118538 2.178859 0.038876 0.006590 -196321.000000 0 1 0
18.290351 -2.577198 -11.724744 21.878037 -0.139983 2.136386 0.032962 0.011237 -500122.000000 0 1 0
17.919851 -1.512998 -10.894244 21.026050 -0.084232 2.115460 0.025605 0.006290 697596.000000 0 1 0
17.496251 -1.892998 -9.632044 20.061867 -0.107775 2.071584 0.024369 0.004589 -1134400.000000 0 1 0
17.313651 -0.697898 -8.667044 19.374396 -0.040287 2.034591 0.010429 0.002984 -233018.000000 0 1 0
18.454451 -0.359098 -7.872344 20.066627 -0.019456 1.973938 0.007115 0.000657 1432260.000000 0 1 0
19.575551 0.263502 -8.521744 21.351622 0.013460 1.981347 0.017401 -0.002919 114253.000000 0 1 0
19.358851 1.606102 -9.252444 21.516329 0.082775 2.015311 0.019138 -0.007634 -810415.000000 0 1 0
19.026751 2.741802 -8.450444 20.998684 0.143117 1.984963 0.005077 -0.007010 604766.000000 0 1 0
18.696151 3.819102 -9.281444 21.219727 0.201500 2.023498 0.011853 -0.009639 -575475.000000 0 1 0
18.533151 5.220902 -8.598944 21.087374 0.274590 1.990814 0.010882 -0.007595 -626197.000000 0 1 0
18.005751 6.046302 -9.669044 21.313265 0.323967 2.041668 0.014350 -0.007492 648646.000000 0 1 0
18.303151 7.440102 -9.607144 21.969471 0.386091 2.023385 0.016866 -0.001679 -616417.000000 0 1 0
-25.778659 -29.649258 5.406356 39.659128 0.855116 1.434050 0.043830 -0.016137 -75191.000000 0 0 1
-26.023339 -28.686638 6.390856 39.255324 0.834040 1.407266 0.045339 -0.013140 596350.000000 0 0 1
-24.810549 -27.937888 6.634556 37.948732 0.844617 1.395064 0.046829 -0.004929 448358.000000 0 0 1
-24.967049 -26.686698 7.513256 37.309281 0.818678 1.368032 0.044969 -0.001445 41518.900000 0 0 1
-25.940569 -25.643708 7.168656 37.173950 0.779643 1.376740 0.047137 -0.006000 -467620.000000 0 0 1
-27.241909 -25.974108 7.437356 38.367827 0.761579 1.375718 0.046902 -0.006974 -1163980.000000 0 0 1
-27.743449 -26.087288 8.904356 39.109246 0.754642 1.341103 0.032428 -0.004307 -382685.000000 0 0 1
-27.000719 -27.064298 9.640056 39.426460 0.786574 1.323785 0.037671 -0.007385 -101957.000000 0 0 1
-27.556599 -27.302808 10.889156 40.291230 0.780772 1.297132 0.036804 -0.001047 52025.900000 0 0 1
-26.520369 -28.141138 11.712456 40.403407 0.815041 1.276687 0.020202 0.003196 1651920.000000 0 0 1
-25.296849 -27.422408 12.002356 39.191525 0.825695 1.259546 0.028389 0.008155 607447.000000 0 0 1
-25.443299 -26.785168 13.261456 39.251407 0.811085 1.226155 0.023994 0.004239 -289827.000000 0 0 1
-24.193549 -26.166128 13.939656 38.266279 0.824548 1.197936 0.038068 0.002762 114496.000000 0 0 1
-23.236849 -27.125458 14.346256 38.490995 0.862458 1.188861 0.050972 -0.000585 -298522.000000 0 0 1
-22.279249 -26.605338 15.235656 37.899000 0.873664 1.157089 0.055425 -0.004614 -114662.000000 0 0 1
-21.534749 -27.781788 15.849156 38.558643 0.911399 1.147201 0.046774 -0.008521 -309193.000000 0 0 1
-22.394049 -28.535108 16.690656 39.928985 0.905399 1.139544 0.039038 -0.002214 216042.000000 0 0 1
-21.825649 -29.790328 17.038156 40.670891 0.938497 1.138532 0.057607 -0.009115 -658025.000000 0 0 1
-22.585249 -30.699108 17.976156 42.138710 0.936512 1.130072 0.069488 -0.022940 -747095.000000 0 0 1
-23.872749 -30.925918 17.462056 42.793037 0.913405 1.150470 0.010495 -0.014365 -436293.000000 0 0 1
-24.541749 -31.736768 18.360056 44.120421 0.912555 1.141606 0.020082 -0.007179 -758277.000000 0 0 1
-25.496079 -32.768308 17.777456 45.164699 0.909570 1.166237 0.013694 -0.007026 -556091.000000 0 0 1
-24.855649 -33.729258 17.031656 45.227685 0.935721 1.184699 0.013620 -0.008028 137129.000000 0 0 1
-25.739489 34.079375 16.564356 45.807237 -0.923924 1.200802 0.011008 -0.003341 -453182.000000 0 0 1
-25.318859 33.417118 15.204756 44.597455 -0.922410 1.222887 0.006528 -0.005016 -486490.000000 0 0 1
-24.079549 32.780689 15.275256 43.448034 -0.937247 1.211543 -0.005366 -0.008487 -245020.000000 0 0 1
-23.023949 33.681996 14.954356 43.453559 -0.971184 1.219468 -0.003321 -0.006943 -527321.000000 0 0 1
-21.651049 32.975780 14.947156 42.185157 -0.989813 1.208607 0.026483 -0.012704 -80862.300000 0 0 1
-21.515649 32.285479 13.740256 41.159081 -0.982965 1.230429 0.023614 -0.013949 -265100.000000 0 0 1
-20.583249 31.255979 13.775856 39.879576 -0.988442 1.218093 0.021611 -0.012497 -318818.000000 0 0 1
-20.524449 30.395569 12.515456 38.752810 -0.976879 1.241945 0.018780 -0.012241 177062.000000 0 0 1
-19.901649 31.062729 11.405856 38.614276 -1.000992 1.270944 0.013462 -0.010934 211433.000000 0 0 1
-20.072849 30.267169 10.251656 37.737478 -0.985205 1.295682 0.025422 -0.013221 100031.000000 0 0 1
-19.388049 30.862029 8.989756 37.539006 -1.009887 1.328968 0.012764 -0.014190 595387.000000 0 0 1
-17.952049 30.903529 9.042856 36.865667 -1.044535 1.322975 0.008880 -0.017442 637079.000000 0 0 1
-17.437449 31.278579 7.748256 36.639454 -1.062222 1.357715 0.016084 -0.016828 196472.000000 0 0 1
-17.026349 30.030569 6.858556 35.196185 -1.055020 1.374675 0.023360 -0.020510 189758.000000 0 0 1
-18.166249 29.219299 6.528356 35.019986 -1.014558 1.383281 0.009946 -0.015051 579053.000000 0 0 1
-18.096249 27.906369 7.108856 34.011402 -0.995502 1.360230 0.003978 -0.011540 -161699.000000 0 0 1
-19.077349 26.930639 6.466056 33.630558 -0.954463 1.377324 0.006419 -0.006039 -312870.000000 0 0 1
-18.628049 26.423869 5.237456 32.751427 -0.956742 1.410191 0.020654 -0.012176 435750.000000 0 0 1
-19.680049 25.779629 4.551156 32.750673 -0.918777 1.431381 0.023644 -0.013975 -297675.000000 0 0 1
-19.099249 25.145979 3.229956 31.741679 -0.921221 1.468862 0.037417 -0.020361 -826017.000000 0 0 1
-18.809849 26.051379 2.187456 32.206672 -0.945438 1.502825 0.036836 -0.022320 410804.000000 0 0 1
-17.547749 26.687819 2.087056 32.008108 -0.989153 1.505546 0.039729 -0.015737 256571.000000 0 0 1
-16.182049 25.961159 2.283456 30.676614 -1.013408 1.496291 0.047486 -0.019938 -284901.000000 0 0 1
-15.823249 24.912979 1.389856 29.545954 -1.004938 1.523738 0.054943 -0.019495 176446.000000 0 0 1
-15.935549 25.175899 -0.003644 29.795429 -1.006487 1.570919 0.055796 -0.022655 -444919.000000 0 0 1
-15.533349 23.897819 -0.817244 28.514182 -0.994428 1.599461 0.055932 -0.023277 516869.000000 0 0 1
-16.563549 22.891959 -1.026044 28.274471 -0.944437 1.607093 0.057979 -0.034954 617759.000000 0 0 1
-16.340949 21.904459 -2.015844 27.402473 -0.929854 1.644427 0.058507 -0.024472 34224.200000 0 0 1
-15.307749 20.785959 -1.694344 25.869945 -0.936026 1.636338 0.059994 -0.024672 40713.800000 0 0 1
-15.854149 19.847159 -0.754144 25.413234 -0.896780 1.600476 0.058022 -0.030051 -69510.600000 0 0 1
-14.987149 18.922759 -0.140844 24.139289 -0.900942 1.576631 0.071423 -0.029786 -650717.000000 0 1 0
-15.628549 17.914259 0.839456 23.788167 -0.853436 1.535500 0.063845 -0.027585 24887.100000 0 1 0
-16.370649 16.921559 0.127656 23.544715 -0.801944 1.565374 0.055709 -0.024002 517039.000000 0 1 0
-17.149549 16.139259 1.019556 23.571640 -0.755058 1.527529 0.056459 -0.032963 64825.000000 0 1 0
-17.611549 14.774459 0.475656 22.992989 -0.698019 1.550108 0.056059 -0.030004 -365558.000000 0 1 0
-18.527849 14.977859 -0.581744 23.831825 -0.679840 1.595209 0.058191 -0.030626 82016.500000 0 1 0
-19.202149 13.806659 -0.969844 23.670381 -0.623375 1.611781 0.048659 -0.022576 -261160.000000 0 1 0
-20.578049 14.213059 -1.538244 25.056602 -0.604450 1.632226 0.066329 -0.008730 -825680.000000 0 0 1
-21.415249 13.135159 -1.955144 25.198569 -0.550182 1.648464 0.055511 -0.011123 994455.000000 0 0 1
-22.558449 12.849859 -1.158544 25.987395 -0.517786 1.615392 0.061128 -0.007041 112785.000000 0 0 1
-23.707549 13.854859 -1.115644 27.481806 -0.528875 1.611403 0.060412 -0.008022 -1106330.000000 0 0 1
-23.365349 14.950459 -0.384944 27.741736 -0.569211 1.584673 0.056147 -0.013716 -289781.000000 0 0 1
-24.353249 15.912559 -0.420144 29.094102 -0.578766 1.585238 0.049302 -0.006019 -663032.000000 0 0 1
-23.945549 17.050059 0.469356 29.399220 -0.618757 1.554831 0.038754 -0.010672 104358.000000 0 0 1
-23.869949 16.509259 1.800156 29.078697 -0.605089 1.508850 0.038827 -0.012833 88413.500000 0 0 1
-23.431549 17.455059 2.755956 29.348115 -0.640254 1.476752 0.032074 -0.022337 -283937.000000 0 0 1
-24.553849 18.360759 3.262356 30.832644 -0.642076 1.464789 0.039325 -0.024013 -409075.000000 0 0 1
-25.576049 17.596959 3.959056 31.296347 -0.602644 1.443954 0.041516 -0.020922 887034.000000 0 0 1
-26.781689 18.324559 4.109556 32.709888 -0.600056 1.444827 0.043525 -0.029074 57211.100000 0 0 1
-27.664029 18.541059 2.873556 33.426437 -0.590460 1.484724 0.036209 -0.021978 -1645170.000000 0 0 1
-28.816599 19.242259 3.169356 34.795197 -0.588752 1.479584 0.030243 -0.019843 -292549.000000 0 0 1
-29.655469 19.316759 2.002956 35.448496 -0.577340 1.514263 0.011591 -0.017618 -88375.300000 0 0 1
-30.931229 20.165759 2.226556 36.991300 -0.577748 1.510569 0.016017 -0.026932 -530761.000000 0 0 1
-31.937259 19.358859 2.822056 37.452876 -0.544931 1.495375 0.032498 -0.016914 -417512.000000 0 0 1
-33.136869 20.047959 2.965656 38.842861 -0.544091 1.494372 0.036827 -0.020168 -526688.000000 0 0 1
-33.191749 20.786359 4.312556 39.400039 -0.559498 1.461121 0.032695 -0.025829 -898056.000000 0 0 1
-32.234879 21.791059 4.505756 39.169369 -0.594442 1.455508 0.030807 -0.023447 -40654.400000 0 0 1
-32.225289 22.162559 5.901356 39.553435 -0.602449 1.421038 0.057405 -0.023576 -156773.000000 0 0 1
-31.185169 23.216959 6.323156 39.389392 -0.639964 1.409569 0.044190 -0.021919 -206380.000000 0 0 1
-31.418649 24.430539 5.680456 40.202616 -0.660920 1.429026 0.038999 -0.013316 984566.000000 0 0 1
-30.404409 25.381549 6.088356 40.071426 -0.695602 1.418268 0.029670 -0.012656 326774.000000 0 0 1
-30.790129 26.824929 5.637356 41.223642 -0.716684 1.433616 0.027051 -0.006016 -425354.000000 0 0 1
-31.858669 27.190559 6.462756 42.380048 -0.706508 1.417704 0.031437 -0.000943 -658.817000 0 0 1
-32.349159 28.524479 6.231356 43.576872 -0.722651 1.427308 0.023980 0.005212 252171.000000 0 0 1
-33.502049 28.905189 7.189156 44.828352 -0.711872 1.409730 0.024242 0.009638 -375402.000000 0 0 1
-32.949969 29.341699 8.400256 44.913250 -0.727537 1.382655 0.027858 0.001590 152319.000000 0 0 1
-33.855539 29.576959 9.447656 45.937482 -0.718049 1.363655 0.031751 0.005799 -570844.000000 0 0 1
-34.896828 28.591499 9.923356 46.192374 -0.686408 1.354282 0.031011 0.013224 -273315.000000 0 0 1
-34.350680 27.501239 10.617456 45.266077 -0.675108 1.334034 0.043035 -0.000200 865862.000000 0 0 1
-35.434302 26.929399 11.370956 45.935617 -0.649858 1.320655 0.040522 0.000977 674820.000000 0 0 1
-34.991117 25.705719 12.179156 45.094280 -0.633595 1.297318 0.059518 -0.007562 -361518.000000 0 0 1
-33.959409 26.067269 13.042256 44.753150 -0.654671 1.275079 0.051800 -0.012812 -387296.000000 0 0 1
-33.475949 24.988559 13.784256 43.989464 -0.641234 1.252074 0.058269 -0.016433 -144155.000000 0 0 1
-32.184269 25.360469 14.532356 43.476084 -0.667367 1.229975 0.050252 -0.021356 -283664.000000 0 0 1
-32.448249 26.378799 15.434456 44.575243 -0.682587 1.217219 0.037767 -0.017119 95291.200000 0 0 1
-31.322319 26.825609 16.168756 44.295932 -0.708220 1.197146 0.062403 -0.014555 -71874.600000 0 0 1
-31.733079 27.867529 17.222056 45.609063 -0.720631 1.183592 0.039663 -0.016908 -336709.000000 0 0 1
-32.068559 29.126629 16.659056 46.414191 -0.737361 1.203684 0.048549 -0.016876 177338.000000 0 0 1
-32.142919 30.119889 17.666656 47.460359 -0.752918 1.189375 0.035897 -0.014696 -126333.000000 0 0 1
-31.954349 31.492759 17.056056 47.997743 -0.778123 1.207507 0.026620 -0.013997 254265.000000 0 0 1
-30.623359 31.746669 16.631956 47.140885 -0.803407 1.210220 0.019430 -0.007124 123301.000000 0 0 1
-30.493609 32.864491 15.830056 47.544985 -0.822801 1.231367 0.016071 0.004331 343463.000000 0 0 1
-29.090799 33.000345 15.113356 46.515706 -0.848280 1.239881 0.026791 -0.001052 480237.000000 0 0 1
-28.848819 32.014929 14.109556 45.346329 -0.837371 1.254392 0.027825 -0.003432 170638.000000 0 0 1
-28.531759 30.666589 14.533256 44.336401 -0.821445 1.236828 0.033644 -0.004116 -272827.000000 0 0 1
-29.608739 29.587579 14.292856 44.231075 -0.785041 1.241750 0.054052 -0.008385 -16420.000000 0 0 1
-29.796299 29.297429 12.928856 43.741446 -0.776956 1.270739 0.064856 -0.017428 -376447.000000 0 0 1
-30.692879 28.281119 12.598456 43.595821 -0.744526 1.277632 0.075447 -0.015708 -57846.400000 0 0 1
-30.771069 28.036959 11.099456 43.082800 -0.738939 1.310227 0.061367 -0.005986 161325.000000 0 0 1
-29.527869 27.548699 10.637956 41.761130 -0.750736 1.313224 0.044863 -0.001415 -24761.500000 0 0 1
-29.393989 27.709529 9.269956 41.445828 -0.755908 1.345224 0.039165 -0.006476 1062460.000000 0 0 1
-28.108229 27.008289 8.622656 39.923306 -0.765444 1.353100 0.039737 -0.009142 1081130.000000 0 0 1
-27.828269 27.487709 7.330456 39.796008 -0.779242 1.385538 0.038689 -0.006651 207845.000000 0 0 1
-26.928099 26.588309 6.624156 38.417966 -0.779049 1.397507 0.034976 -0.007113 -58094.600000 0 0 1
-26.675599 26.928409 5.116556 38.247953 -0.790114 1.436621 0.020295 -0.011826 -224371.000000 0 0 1
-25.766219 28.007399 4.980356 38.381198 -0.827052 1.440669 0.026976 -0.009426 160976.000000 0 0 1
-25.637929 28.397289 3.645956 38.431789 -0.836420 1.475785 0.022337 -0.011664 -358498.000000 0 0 1
-24.566049 29.431089 3.314156 38.479389 -0.875254 1.484561 0.019351 -0.016834 1356740.000000 0 0 1
-23.179849 28.978139 3.449656 37.268459 -0.896111 1.478101 0.020062 -0.015144 1533550.000000 0 0 1
-22.281749 30.026089 3.134156 37.521531 -0.932384 1.487169 0.021442 -0.017444 778543.000000 0 0 1
-20.793649 29.681099 3.474356 36.406244 -0.959689 1.475218 0.008838 -0.015331 433400.000000 0 0 1
-19.882149 30.646739 3.066856 36.659624 -0.995299 1.487041 0.004385 -0.014753 119556.000000 0 0 1
-18.548249 30.189379 3.360856 35.591171 -1.019858 1.476226 0.012551 -0.014840 729712.000000 0 0 1
-17.431249 31.167019 2.985656 35.834978 -1.060852 1.487383 0.025156 -0.014221 -219634.000000 0 0 1
-17.467549 32.409819 3.649756 36.997734 -1.076470 1.471988 0.015224 -0.011846 -529153.000000 0 0 1
-16.494949 33.249847 3.143156 37.249363 -1.110281 1.486314 0.020537 0.007137 -624697.000000 0 0 1
-16.307349 -34.244950 3.860056 38.125402 1.126372 1.469376 0.019942 0.002407 169730.000000 0 0 1
-17.351249 -33.270338 3.752456 37.710240 1.090079 1.471124 0.013666 -0.001158 337865.000000 0 0 1
-17.197049 -32.229338 4.703256 36.831907 1.080644 1.442752 -0.001999 -0.009631 1721.210000 0 0 1
-18.381449 -31.235608 4.727456 36.549825 1.038892 1.441090 0.004399 -0.009650 -104519.000000 0 0 1
-18.426149 -30.282668 3.648756 35.635325 1.024171 1.468225 0.010028 -0.003627 724300.000000 0 0 1
-19.525549 -29.357608 3.811356 35.463258 0.983884 1.463115 0.014950 -0.011744 147146.000000 0 0 1
-19.825749 -28.339258 2.687456 34.690003 0.960348 1.493248 0.020283 -0.009010 76668.000000 0 0 1
-18.901949 -27.262728 2.608456 33.276780 0.964564 1.492329 0.018585 -0.004244 -24068.900000 0 0 1
-19.121049 -26.391278 1.522656 32.625643 0.943802 1.524109 0.014895 -0.004374 -220219.000000 0 0 1
-18.197149 -25.177478 1.581556 31.105353 0.944961 1.519929 0.016974 -0.009575 687144.000000 0 0 1
-16.840249 -25.544988 1.304956 30.624228 0.987954 1.528172 0.028105 -0.009453 257068.000000 0 0 1
-15.929749 -24.464498 1.497256 29.232009 0.993622 1.519554 0.029140 -0.016528 1123460.000000 0 0 1
-14.574649 -24.632398 0.714256 28.630152 1.036512 1.545846 0.040554 -0.014046 540070.000000 0 0 1
-14.705549 -24.855298 -0.676444 28.887655 1.036542 1.594215 0.035706 -0.005179 -94648.200000 0 0 1
-14.980049 -23.737298 -1.475844 28.107638 1.007839 1.623327 0.048556 -0.007885 -200165.000000 0 0 1
-15.131649 -23.993698 -2.995844 28.524366 1.008144 1.676018 0.018502 -0.002666 -878850.000000 0 0 1
-13.980249 -24.346298 -3.664344 28.312842 1.049545 1.700584 0.034068 -0.002316 -757219.000000 0 0 1
-14.115749 -24.135798 -5.084144 28.419002 1.041593 1.750664 0.023378 -0.006652 50101.100000 0 0 1
-13.059549 -24.896998 -5.884744 28.723554 1.087708 1.777133 0.039803 -0.011309 154762.000000 0 0 1
-13.213049 -26.302658 -5.747344 29.990773 1.105273 1.763626 0.021241 -0.010771 -388656.000000 0 0 1
-12.159449 -26.904568 -6.453444 30.221763 1.146324 1.785990 0.046346 -0.003733 115286.000000 0 0 1
22.623251 13.363902 28.617097 38.850271 0.533565 0.742767 0.009090 0.012594 -464549.000000 0 0 1
23.511851 12.266102 28.588417 38.994384 0.480855 0.747866 0.011136 0.004864 280186.000000 0 0 1
23.146951 11.142102 29.509297 39.124498 0.448628 0.716299 0.024337 -0.007525 -190699.000000 0 0 1
23.262451 11.374702 31.019647 40.407226 0.454787 0.695590 0.026490 -0.003029 560182.000000 0 0 1
22.215351 12.248902 31.470157 40.421877 0.503895 0.678456 0.023370 0.002731 672509.000000 0 0 1
22.396551 12.539002 32.879169 41.711770 0.510384 0.662842 0.014410 0.006176 -17290.000000 0 0 1
21.459551 13.661402 33.428032 42.006899 0.566906 0.650510 0.009454 0.014502 -95275.100000 0 0 1
20.205951 13.154102 33.789859 41.509823 0.577079 0.619755 0.015038 0.015948 -624996.000000 0 0 1
19.431151 14.005002 -34.284544 41.822717 0.624517 2.531786 0.017877 0.020597 -489693.000000 0 0 1
18.209051 13.268902 -33.713924 40.549500 0.629728 2.552466 0.010593 0.022083 6546.660000 0 0 1
17.161351 12.941302 34.187908 40.383193 0.646117 0.561256 0.005623 0.021928 468779.000000 0 0 1
16.163451 12.254602 -33.887174 39.493961 0.648708 2.602226 0.005125 0.020065 -238722.000000 0 0 1
14.851451 11.997302 34.206207 39.173530 0.679491 0.509072 0.012497 0.021221 -254274.000000 0 0 1
14.964151 10.968402 33.255354 38.080838 0.632518 0.508896 0.008967 0.024664 366175.000000 0 0 1
13.670951 10.549902 32.825980 37.090973 0.657246 0.484275 0.017241 0.021504 405210.000000 0 0 1
13.695751 9.426502 31.789247 35.874625 0.602816 0.481890 0.017142 0.023121 -72504.100000 0 0 1
14.101051 8.194302 32.349537 36.228148 0.526416 0.466964 0.009407 0.017064 -263742.000000 0 0 1
14.741751 7.429002 31.399537 35.474501 0.466797 0.484024 0.006523 -0.002684 -218374.000000 0 0 1
15.228051 6.098602 31.926477 35.894100 0.380924 0.474627 0.026795 -0.012007 222624.000000 0 0 1
14.194551 5.129702 32.205957 35.567158 0.346781 0.438247 0.016023 -0.006154 219408.000000 0 0 1
14.633751 3.812802 32.529247 35.872497 0.254882 0.435162 0.021126 -0.011989 136610.000000 0 0 1
13.442751 2.866402 32.803165 35.566437 0.210084 0.396789 0.017464 -0.007522 22871.700000 0 0 1
13.904251 1.609602 33.296044 36.118493 0.115250 0.397954 0.025550 -0.011537 -331590.000000 0 0 1
12.833651 0.822102 33.702278 36.072454 0.063971 0.364523 0.027312 -0.006992 -221653.000000 0 0 1
13.375951 -0.621498 33.944312 36.489980 -0.046430 0.375739 0.010462 -0.007772 207938.000000 0 0 1
13.674551 -1.433198 32.825715 35.588972 -0.104426 0.396660 0.001849 -0.005207 285062.000000 0 0 1
14.306451 -2.687898 33.172497 36.225873 -0.185715 0.413518 0.033651 -0.015371 41189.100000 0 0 1
14.491951 -3.766698 32.046397 35.371969 -0.254290 0.437101 0.033846 -0.019251 -913654.000000 0 0 1
14.816751 -5.147798 32.334527 35.938246 -0.334384 0.451658 0.043666 -0.014296 446916.000000 0 0 1
16.061051 -5.370598 32.989587 37.082523 -0.322698 0.474270 0.029988 -0.015480 1731280.000000 0 0 1
17.437151 -4.942598 32.291137 37.029732 -0.276207 0.511456 0.027751 -0.018112 579857.000000 0 0 1
17.500551 -3.529098 32.302157 36.907359 -0.198988 0.504900 0.025889 -0.019437 112508.000000 0 0 1
18.465451 -2.958898 31.413037 36.558266 -0.158889 0.536976 0.044416 -0.028053 -79590.600000 0 0 1
18.317451 -1.417698 31.257737 36.257206 -0.077242 0.531375 0.047881 -0.030166 -371390.000000 0 0 1
18.530251 -0.732198 32.489177 37.409262 -0.039493 0.518670 0.035203 -0.024871 171918.000000 0 0 1
18.332851 0.675802 32.432527 37.261494 0.036846 0.514775 0.040162 -0.017987 300233.000000 0 0 1
19.560251 1.507002 31.917597 37.464749 0.076892 0.551124 0.045458 -0.021016 205396.000000 0 0 1
20.021451 1.328502 30.559137 36.557957 0.066257 0.581009 0.050727 -0.018393 547296.000000 0 0 1
21.066351 2.220802 30.147707 36.845723 0.105031 0.612498 0.043351 -0.014292 490946.000000 0 0 1
20.636751 3.775402 30.071297 36.666225 0.180945 0.609147 0.040467 -0.010539 -162751.000000 0 0 1
20.344151 4.347202 31.326667 37.605089 0.210517 0.586210 0.040899 -0.015834 513885.000000 0 0 1
19.707051 5.624902 31.286637 37.401350 0.278033 0.579912 0.036079 -0.017555 -56828.300000 0 0 1
19.424551 6.202802 32.699167 38.536002 0.309093 0.557585 0.037507 -0.018005 -547471.000000 0 0 1
18.482651 5.445302 33.381831 38.543564 0.286511 0.523488 0.029261 -0.013584 -292264.000000 0 0 1
18.301851 6.021402 -34.154536 39.214122 0.317850 2.627980 0.025370 -0.007872 -325734.000000 0 0 1
17.119851 5.391702 -33.400604 37.917807 0.305105 2.648490 0.020442 -0.006171 -448941.000000 0 0 1
17.270651 4.043702 -33.061764 37.519423 0.229994 2.649171 0.011090 -0.010609 -615419.000000 0 0 1
16.049751 3.483002 -32.685684 36.579772 0.213699 2.675977 0.010172 -0.010021 -285723.000000 0 0 1
16.037451 1.984302 -33.113204 36.845916 0.123104 2.687579 0.019634 -0.017574 423294.000000 0 0 1
17.199451 1.277302 -32.665504 36.938973 0.074128 2.655810 0.016271 -0.014082 522674.000000 0 0 1
17.063751 -0.137498 -32.905634 37.067118 -0.008058 2.663189 0.025255 -0.010615 79391.800000 0 0 1
18.186551 -1.019198 -32.266394 37.052794 -0.055983 2.627669 0.019853 -0.010169 144849.000000 0 0 1
18.144451 -1.233998 -30.866294 35.825577 -0.067905 2.609154 0.025063 -0.005749 332257.000000 0 0 1
18.229951 -0.071598 -30.014314 35.116880 -0.003927 2.595764 0.026225 -0.001669 -374553.000000 0 0 1
18.145351 -0.261198 -28.452044 33.746715 -0.014394 2.573829 0.023191 -0.001360 -32615.700000 0 0 1
16.838051 -0.619998 -28.028624 32.703335 -0.036805 2.600327 0.025663 -0.006062 256987.000000 0 0 1
16.697751 -0.715998 -26.608694 31.422128 -0.042854 2.580763 0.030807 -0.005065 163917.000000 0 0 1
17.456451 -1.901598 -25.906734 31.297007 -0.108506 2.545918 0.030634 -0.000368 -470645.000000 0 0 1
18.791551 -1.617098 -25.597464 31.795716 -0.085843 2.506573 0.023046 -0.003717 -714544.000000 0 0 1
19.594651 -2.773398 -25.662324 32.406742 -0.140605 2.484681 0.023840 -0.000931 181207.000000 0 0 1
20.389351 -2.866198 -26.978084 33.937556 -0.139658 2.489693 0.024129 -0.004468 -877837.000000 0 0 1
21.289551 -1.834398 -27.167004 34.563798 -0.085952 2.475102 0.021274 -0.002323 -389835.000000 0 0 1
21.866451 -1.867098 -28.471684 35.948081 -0.085180 2.484911 0.017950 -0.005327 175246.000000 0 0 1
23.361451 -1.517198 -28.612844 36.969638 -0.064853 2.455860 0.017037 -0.010112 52911.100000 0 0 1
24.208851 -2.574198 -28.259434 37.300008 -0.105935 2.430464 0.014862 -0.006339 357768.000000 0 0 1
25.574751 -2.341398 -28.599154 38.437763 -0.091297 2.409890 0.012935 -0.007667 268957.000000 0 0 1
26.562151 -3.467198 -28.354984 39.007364 -0.129798 2.384613 0.008149 -0.003041 -337580.000000 0 0 1
26.418551 -4.558098 -29.199034 39.639623 -0.170852 2.398844 0.010734 -0.007671 245466.000000 0 0 1
27.417551 -5.530498 -28.936654 40.244732 -0.199043 2.373183 0.006277 -0.004921 -2525.660000 0 0 1
27.077851 -6.602198 -27.890424 39.429365 -0.239156 2.356541 -0.001187 0.002737 -145133.000000 0 0 1
27.062451 -6.130098 -26.592544 38.433290 -0.222758 2.334934 -0.009236 0.011202 261492.000000 0 0 1
26.635851 -7.076498 -25.652234 37.650797 -0.259677 2.320361 -0.020269 0.014635 -241039.000000 0 0 1
26.616551 -6.448298 -24.236444 36.570843 -0.237687 2.295249 -0.035370 0.020560 240608.000000 0 0 1
27.946051 -6.161598 -23.794444 37.217236 -0.217010 2.264435 -0.035525 0.020234 785248.000000 0 0 1
28.069451 -5.670598 -22.474244 36.402492 -0.199337 2.236207 -0.029308 0.009205 -184289.000000 0 0 1
29.565551 -5.425098 -22.177844 37.355191 -0.181475 2.206448 -0.019381 0.011336 -214943.000000 0 0 1
30.055051 -4.236798 -22.775944 37.947334 -0.140045 2.214546 -0.005149 -0.001273 444878.000000 0 0 1
31.368451 -3.966698 -22.284144 38.682005 -0.125787 2.184728 0.003551 -0.001702 275929.000000 0 0 1
31.984651 -2.675698 -22.771944 39.354018 -0.083461 2.187861 0.007154 -0.002165 -171237.000000 0 0 1
31.259851 -1.576598 -22.225444 38.387945 -0.050393 2.188260 0.001540 -0.000063 405523.000000 0 0 1
31.773451 -0.340998 -22.621944 39.005395 -0.010732 2.189488 0.016659 -0.003516 -8138.750000 0 0 1
30.803451 0.800102 -22.178744 37.965635 0.025969 2.194665 0.010683 -0.005094 310334.000000 0 0 1
29.743351 0.891802 -23.116744 37.680845 0.029974 2.231266 0.009149 -0.001395 359117.000000 0 0 1
28.686751 1.761602 -22.814144 36.694933 0.061331 2.241739 0.008625 0.000569 -418720.000000 0 0 1
27.475751 1.766102 -23.716544 36.338829 0.064190 2.281873 0.007465 -0.002695 123157.000000 0 0 1
26.407951 2.624502 -23.266544 35.293058 0.099058 2.290602 0.009495 -0.002923 297190.000000 0 0 1
25.469151 2.808702 -24.264144 35.289023 0.109835 2.328952 0.013167 -0.009420 -31459.100000 0 0 1
24.391351 3.923202 -24.058644 34.484023 0.159478 2.342943 0.021613 -0.007534 241376.000000 0 0 1
25.030951 5.146802 -24.023844 35.073967 0.202791 2.325329 0.018226 -0.002689 -397366.000000 0 0 1
24.094051 6.086802 -23.655444 34.309656 0.247449 2.331552 0.024993 -0.008579 -637661.000000 0 0 1
24.596551 7.485202 -23.217544 34.642068 0.295415 2.305291 0.031871 -0.010378 -163380.000000 0 0 1
25.251951 8.252202 -24.217344 35.947734 0.315854 2.309976 0.027892 -0.007621 253648.000000 0 0 1
25.491951 9.578602 -23.728144 36.119441 0.359428 2.287543 0.038380 -0.006584 -421365.000000 0 0 1
26.189151 10.531202 -24.716844 37.519331 0.382333 2.289987 0.049241 -0.003071 -331377.000000 0 0 1
25.541551 10.816802 -25.933424 37.972576 0.400598 2.322592 0.043539 -0.012197 121054.000000 0 0 1
24.337051 11.549002 -25.774484 37.282644 0.443076 2.334120 0.051443 -0.015649 86185.400000 0 0 1
23.720651 11.839802 -27.176304 37.965796 0.462955 2.368580 0.039656 -0.017571 -89255.000000 0 0 1
23.206651 10.727902 -27.942924 37.874048 0.433016 2.400580 0.033632 -0.010773 800974.000000 0 0 1
24.179851 9.859602 -28.580444 38.713289 0.387179 2.401282 0.033323 -0.013863 492494.000000 0 0 1
25.008951 10.432602 -29.746894 40.238843 0.395207 2.402764 0.032479 -0.010398 -1018830.000000 0 0 1
25.913651 11.465002 -29.419964 40.847250 0.416542 2.374949 0.026126 -0.009379 1014600.000000 0 0 1
26.910451 11.771402 -30.418144 42.284770 0.412351 2.373683 0.018671 -0.008067 502341.000000 0 0 1
27.881951 10.700702 -30.898774 42.972578 0.366451 2.373209 0.020612 -0.005857 -1083120.000000 0 0 1
27.282151 9.737902 -31.751654 42.980345 0.342838 2.402008 0.022943 -0.010513 108936.000000 0 0 1
28.127951 8.636102 -31.923394 43.415054 0.297893 2.396916 0.025701 -0.004779 100436.000000 0 0 1
27.416551 7.611402 -32.900594 43.497699 0.270801 2.428551 0.028033 -0.011398 417150.000000 0 0 1
26.320851 6.970002 -32.291674 42.238848 0.258867 2.441064 0.030162 -0.012900 -124074.000000 0 0 1
25.759551 5.954602 -33.120034 42.378631 0.227171 2.467906 0.012492 -0.014029 243739.000000 0 0 1
24.480751 5.273502 -32.557934 41.074762 0.212172 2.485941 0.030285 -0.015735 283992.000000 0 0 1
23.249651 5.945202 -32.576334 40.461206 0.250347 2.506683 0.012904 -0.011907 29673.000000 0 0 1
22.987451 6.805502 -31.523384 39.603806 0.287832 2.491402 0.021030 -0.010437 187683.000000 0 0 1
21.529951 7.379802 -31.596574 38.940259 0.330219 2.517359 0.012357 -0.012379 650879.000000 0 0 1
21.327951 8.297702 -32.623584 39.850114 0.371034 2.529865 0.008929 -0.007507 -873754.000000 0 0 1
20.015651 8.722202 -32.595744 39.232456 0.410957 2.551405 0.005793 -0.001362 -1101170.000000 0 0 1
19.675951 9.793602 -33.654024 40.195161 0.461842 2.563059 0.010714 0.007661 -387834.000000 0 0 1
19.627651 9.229802 33.840344 40.194562 0.439561 0.569977 0.019440 -0.000917 184010.000000 0 0 1
19.184251 10.230302 32.924202 39.455007 0.489905 0.583618 0.024129 0.006211 224269.000000 0 0 1
18.077351 9.694802 31.960727 37.977202 0.492261 0.570601 0.020050 0.001067 90046.700000 0 0 1
18.459151 8.683502 31.001347 37.111009 0.439703 0.581995 0.021459 -0.006953 1370500.000000 0 0 1
19.593551 9.055702 30.130307 37.064111 0.432935 0.621641 0.036941 -0.008709 719545.000000 0 0 1
19.191351 10.109702 29.043577 36.249736 0.484845 0.641485 0.038989 -0.012008 162031.000000 0 0 1
18.250151 9.600702 28.105177 34.858893 0.484279 0.633001 0.028770 -0.004178 77720.800000 0 0 1
16.922551 9.961102 28.376837 34.508566 0.532016 0.605333 0.015108 -0.003635 -914789.000000 0 0 1
15.913051 9.238502 27.525707 33.109510 0.526004 0.589258 0.031443 -0.004594 -1058150.000000 0 0 1
15.749851 9.730702 26.192147 32.074490 0.553425 0.615294 0.027445 -0.004336 -358750.000000 0 0 1
14.579451 9.334202 25.558367 30.869367 0.569476 0.595350 0.034472 -0.005136 -537315.000000 0 0 1
14.379351 7.802702 25.184207 30.031519 0.497169 0.576102 0.048876 -0.008112 -312599.000000 0 0 1
14.320751 6.964402 26.329927 30.770958 0.452640 0.543943 0.040420 -0.009080 92051.400000 0 0 1
13.821351 5.676102 26.069217 30.047495 0.389676 0.520440 0.047999 -0.013565 -181613.000000 0 0 1
13.832651 4.879102 27.350437 31.035371 0.339099 0.492261 0.051579 -0.012738 -363210.000000 0 0 1
15.033851 4.195402 27.605567 31.712543 0.272140 0.514592 0.031659 -0.010908 -17075.600000 0 0 1
15.286951 3.826002 28.912637 32.928251 0.245241 0.499025 0.017620 -0.010628 -4454.900000 0 0 1
16.498051 2.904902 29.160047 33.629339 0.174289 0.521443 0.034742 -0.016269 -31878.500000 0 0 1
16.298851 1.517602 29.022117 33.320248 0.092843 0.513551 0.031551 -0.017807 -289019.000000 0 0 1
15.355251 1.033602 29.934897 33.659324 0.067211 0.474876 0.020260 -0.015391 -169460.000000 0 0 1
15.109451 -0.500498 29.767207 33.386114 -0.033113 0.469920 0.025958 -0.015147 -488142.000000 0 0 1
14.348151 -0.944398 28.657187 32.062372 -0.065725 0.465059 0.025048 -0.020857 263713.000000 0 0 1
15.002451 -0.931398 27.413277 31.263857 -0.062004 0.501555 0.034597 -0.018008 -748608.000000 0 0 1
16.150951 -1.932698 27.176447 31.672509 -0.119098 0.539345 0.023433 -0.014109 303339.000000 0 0 1
17.376151 -1.841698 27.876677 32.900328 -0.105596 0.559902 0.019841 -0.015109 732874.000000 0 0 1
18.167051 -0.653698 27.648727 33.089593 -0.035967 0.581624 0.027785 -0.015298 -1038020.000000 0 0 1
19.668651 -0.708298 27.890747 34.135777 -0.035996 0.614515 0.030538 -0.007634 -365341.000000 0 0 1
20.321551 -1.406098 26.815337 33.674988 -0.069082 0.649645 0.024113 -0.011224 -321927.000000 0 0 1
21.694251 -1.358398 27.061407 34.710308 -0.062534 0.676712 0.039258 -0.012102 -584113.000000 0 0 1
22.677551 -1.887198 26.019987 34.566929 -0.083027 0.718579 0.044648 -0.002721 -355912.000000 0 0 1
22.834151 -1.107098 24.859887 33.773334 -0.048446 0.743535 0.042158 0.006486 209346.000000 0 0 1
22.143351 -1.687398 23.748697 32.514242 -0.076056 0.751876 0.032257 0.017266 -161492.000000 0 0 1
21.940451 -0.812798 22.512057 31.445774 -0.037029 0.772883 0.031071 0.000619 -534633.000000 0 0 1
21.032051 0.204802 22.730357 30.968665 0.009737 0.746634 0.013527 0.006995 -426941.000000 0 0 1
20.694251 0.792702 21.554957 29.891413 0.038287 0.765395 0.028404 0.003600 -157877.000000 0 0 1
-30.057579 -27.467656 -10.450944 42.037512 0.740406 1.822041 -0.005825 0.007046 48467.100000 0 0 1
-29.718629 -26.435356 -9.540644 40.902919 0.726996 1.806216 0.000265 0.006357 -148324.000000 0 0 1
-30.384279 -26.662056 -8.278444 41.262601 0.720241 1.772796 0.020419 -0.005084 -557616.000000 0 0 1
-30.533979 -25.341256 -7.498844 40.382369 0.692730 1.757576 0.041084 -0.009734 1160290.000000 0 0 1
-29.283939 -24.803056 -6.972744 39.004613 0.702741 1.750530 0.024846 -0.012437 432322.000000 0 0 1
-28.808179 -25.587256 -5.862044 38.974125 0.726254 1.721778 0.007676 -0.006394 -141843.000000 0 0 1
-27.461859 -24.995156 -5.406444 37.525207 0.738409 1.715374 -0.015956 0.008649 -336582.000000 0 0 1
-27.405159 -23.833856 -4.537144 36.601654 0.715812 1.695076 0.000727 -0.002601 -716005.000000 0 0 1
-27.951579 -22.699156 -5.116044 36.369167 0.682069 1.711934 0.017260 -0.006986 -655258.000000 0 0 1
-28.049069 -21.484856 -4.262644 35.588192 0.653646 1.690862 0.012736 -0.011509 392736.000000 0 0 1
-26.940829 -20.565256 -4.280544 34.162275 0.651990 1.696427 0.006674 -0.009331 574792.000000 0 0 1
-27.169069 -19.601256 -3.281644 33.662096 0.624981 1.668439 0.028572 -0.007306 397791.000000 0 0 1
-26.161449 -18.406956 -3.425344 32.170956 0.613132 1.677472 0.027194 -0.008325 462429.000000 0 0 1
-26.451169 -17.611756 -4.574144 32.105468 0.587417 1.713755 0.024827 -0.012104 -101111.000000 0 0 1
-25.798889 -16.386456 -4.492744 30.891477 0.565873 1.716750 0.031096 -0.014472 -271049.000000 0 0 1
-26.089359 -15.397756 -5.618044 30.810841 0.533177 1.754162 0.034361 -0.019479 -684214.000000 0 0 1
-27.346389 -14.817756 -5.508644 31.586960 0.496568 1.746089 0.018266 -0.013603 -507971.000000 0 0 1
-27.575979 -13.750156 -6.452844 31.482385 0.462549 1.777226 0.051966 -0.031159 62503.100000 0 0 1
-28.965829 -13.088556 -6.268744 32.397943 0.424401 1.765517 0.043324 -0.020322 -122966.000000 0 0 1
-30.033499 -13.805656 -6.849744 33.756869 0.430871 1.775129 0.055145 -0.014309 -1434600.000000 0 0 1
-31.115759 -13.025256 -6.579844 34.367748 0.396443 1.763440 0.051678 -0.016514 -1648790.000000 0 0 1
-32.374069 -13.618956 -7.235244 35.859518 0.398201 1.773957 0.023784 -0.009554 -623158.000000 0 0 1
-32.872309 -14.773756 -6.594944 36.638038 0.422379 1.751785 0.028200 -0.013669 64644.900000 0 0 1
-32.794409 -15.874456 -7.491344 37.196664 0.450814 1.773582 0.036073 -0.015391 -494681.000000 0 0 1
-33.562879 -17.152256 -6.993344 38.335018 0.472447 1.754251 0.025417 -0.012575 611681.000000 0 0 1
-34.977306 -17.178656 -6.888744 39.572376 0.456532 1.745767 0.023872 -0.022483 353792.000000 0 0 1
-35.409879 -16.317556 -5.811744 39.419519 0.431815 1.718769 0.032698 -0.022021 -989043.000000 0 0 1
34.333055 -16.311156 -5.615144 38.423200 -0.443519 1.717461 0.047290 -0.021993 -768958.000000 0 0 1
33.691085 -15.587156 -6.630744 37.709619 -0.433323 1.747552 0.035232 -0.019981 1169380.000000 0 0 1
32.250785 -15.718656 -6.565344 36.473182 -0.453507 1.751788 0.038460 -0.029070 1624760.000000 0 0 1
31.433945 -14.828856 -5.521144 35.191915 -0.440790 1.728334 0.050266 -0.029515 -203591.000000 0 0 1
31.512985 -15.413356 -4.249344 35.336902 -0.454899 1.691340 0.054336 -0.027267 481297.000000 0 0 1
31.010105 -14.554456 -3.244444 34.409086 -0.438825 1.665227 0.054229 -0.026503 -918983.000000 0 0 1
31.039365 -15.216856 -1.875244 34.619523 -0.455812 1.624990 0.077462 -0.022092 73578.000000 0 0 1
32.275905 -15.269656 -1.171944 35.724919 -0.441895 1.603607 0.084967 -0.013421 724989.000000 0 0 1
33.347375 -16.050256 -1.724744 37.049060 -0.448580 1.617366 0.070360 -0.013158 -206489.000000 0 0 1
33.187895 -17.594156 -2.023144 37.617599 -0.487466 1.624604 0.058811 -0.016249 -919899.000000 0 0 1
33.541115 -18.475456 -0.952344 38.304775 -0.503480 1.595661 0.074311 -0.020406 335090.000000 0 0 1
33.348285 -19.876656 -1.247744 38.842585 -0.537497 1.602925 0.066393 -0.025644 125864.000000 0 0 1
34.403355 -20.458256 -2.227644 40.088570 -0.536483 1.626393 0.064632 -0.034384 -53487.700000 0 0 1
34.289805 -19.991256 -3.564344 39.851544 -0.527832 1.660357 0.049804 -0.032957 115273.000000 0 0 1
35.195434 -20.622756 -4.475544 41.037143 -0.530024 1.680074 0.077578 -0.036124 76839.900000 0 0 1
35.118095 -20.150256 -5.921944 40.919223 -0.520921 1.716029 0.083433 -0.037646 -1074340.000000 0 0 1
33.891725 -20.402556 -6.472744 40.085031 -0.541883 1.732982 0.065234 -0.044070 -989997.000000 0 0 1
33.621225 -19.437456 -7.405744 39.535382 -0.524184 1.759229 0.060380 -0.039376 -85685.100000 0 0 1
32.450065 -19.867156 -8.312744 38.946274 -0.549369 1.785892 0.058646 -0.046611 -142145.000000 0 0 1
32.820695 -20.772956 -9.303344 39.940780 -0.564276 1.805884 0.063630 -0.048991 -172998.000000 0 0 1
31.756695 -21.039056 -10.167344 39.427204 -0.585118 1.831620 0.052310 -0.046953 -675676.000000 0 0 1
31.653635 -22.444956 -10.782044 40.273826 -0.616794 1.841821 0.050977 -0.031856 -304524.000000 0 0 1
31.365405 -23.479156 -9.885144 40.407616 -0.642584 1.817940 0.051896 -0.033157 -61524.000000 0 0 1
31.360955 -24.720156 -10.552044 41.303041 -0.667533 1.829139 0.042336 -0.022155 -319883.000000 0 0 1
30.612215 -25.729956 -9.686844 41.145756 -0.698960 1.808455 0.046399 -0.022187 412615.000000 0 0 1
29.260095 -25.316056 -9.495944 39.840040 -0.713257 1.811465 0.043102 -0.024206 629.355000 0 0 1
28.434885 -26.344056 -9.042044 39.803398 -0.747248 1.799965 0.029808 -0.018740 423124.000000 0 0 1
27.018225 -25.860956 -8.567044 38.368838 -0.763517 1.795976 0.026991 -0.028246 183118.000000 0 0 1
26.424995 -25.319256 -9.687244 37.857466 -0.764032 1.829562 0.026075 -0.021960 -828532.000000 0 0 1
25.286835 -24.615956 -9.253344 36.482786 -0.771955 1.827234 0.036856 -0.023309 -104218.000000 0 0 1
24.395235 -24.269656 -10.486444 35.973729 -0.782818 1.866594 0.066197 -0.034401 96836.800000 0 0 1
23.850335 -25.406656 -11.191744 36.600434 -0.816984 1.881556 0.056613 -0.027445 204804.000000 0 0 1
22.941535 -24.988456 -12.174844 36.041140 -0.828079 1.915379 0.058534 -0.012419 -81779.500000 0 0 1
22.300135 -26.239756 -12.843844 36.753029 -0.866383 1.927795 0.066267 -0.017021 -127240.000000 0 0 1
23.160535 -26.980456 -13.710144 38.109361 -0.861435 1.938805 0.048901 -0.008235 379141.000000 0 0 1
22.616435 -28.281056 -13.968944 38.813047 -0.896237 1.938961 0.048844 -0.008458 446489.000000 0 0 1
23.577135 -29.261956 -14.773444 40.378187 -0.892573 1.945371 0.036469 -0.011015 294565.000000 0 0 1
23.516635 -29.147656 -16.170044 40.793238 -0.891916 1.978378 0.033931 0.000644 161543.000000 0 0 1
23.795135 -30.388056 -16.756044 42.076209 -0.906481 1.980384 0.029807 0.004528 -268745.000000 0 0 1
23.678635 -30.460556 -18.302344 42.702447 -0.910017 2.013741 0.030821 0.009694 132723.000000 0 0 1
22.326735 -30.316556 -18.697044 42.037556 -0.936021 2.031714 0.031936 0.010091 107198.000000 0 0 1
22.224835 -30.236756 -20.112544 42.576039 -0.936947 2.062798 0.027425 0.015108 -402053.000000 0 0 1
20.828435 -29.855456 -20.599444 41.827132 -0.961654 2.085745 0.027491 0.009817 -417281.000000 0 0 1
20.653535 -29.751656 -21.989244 42.370466 -0.963975 2.116449 0.021482 0.011371 987373.000000 0 0 1
19.281535 -29.413656 -22.273744 41.630042 -0.990543 2.135352 0.033245 -0.002821 625646.000000 0 0 1
18.968935 -29.684956 -23.737344 42.479154 -1.002187 2.163734 0.033089 0.002343 -496201.000000 0 0 1
19.618135 -28.784356 -24.571844 42.628463 -0.972557 2.185136 0.039217 -0.006775 301854.000000 0 0 1
19.547035 -29.268656 -25.885134 43.689597 -0.981976 2.204928 0.036619 -0.005372 -345611.000000 0 0 1
20.263835 -28.273156 -26.824764 43.926783 -0.948939 2.227703 0.028978 -0.009611 372834.000000 0 0 1
19.504335 -27.074156 -27.118884 42.998405 -0.946507 2.253245 0.054363 -0.023106 375349.000000 0 0 1
18.368435 -27.268356 -27.951254 43.153623 -0.977997 2.275378 0.056492 -0.020836 -26104.200000 0 0 1
17.537535 -26.030056 -28.310984 42.268673 -0.977912 2.304717 0.053460 -0.019092 -360174.000000 0 0 1
16.886635 -25.575556 -27.149324 40.943293 -0.987239 2.295743 0.048086 -0.009999 -374529.000000 0 0 1
16.386935 -24.288156 -27.378384 40.100150 -0.977261 2.322316 0.046958 -0.001441 -354707.000000 0 0 1
15.234435 -23.924056 -26.435284 38.772060 -1.003769 2.321034 0.056893 -0.003290 -576067.000000 0 0 1
14.057735 -24.643156 -26.737624 38.984684 -1.052387 2.326567 0.062550 -0.013591 3569.920000 0 0 1
12.866335 -24.223056 -26.071194 37.841857 -1.082532 2.330837 0.054676 -0.009805 705579.000000 0 0 1
12.798135 -24.753756 -24.589344 37.164183 -1.093627 2.293801 0.044950 -0.005204 -414351.000000 0 0 1
13.741635 -24.006056 -23.845644 36.520377 -1.050900 2.282257 0.044849 -0.006406 -494487.000000 0 0 1
13.900135 -24.501356 -22.529944 36.071159 -1.054752 2.245412 0.050704 -0.011389 413138.000000 0 0 1
15.118535 -23.918556 -21.754244 35.691939 -1.007119 2.226226 0.034017 -0.019035 325550.000000 0 0 1
15.085535 -22.560156 -21.360544 34.537035 -0.981401 2.237606 0.040673 -0.020313 -370689.000000 0 0 1
16.275735 -22.248256 -20.694544 34.469531 -0.939207 2.214763 0.038307 -0.019169 -428831.000000 0 0 1
16.326735 -20.807656 -20.066244 33.199020 -0.905485 2.219837 0.035728 -0.007407 292218.000000 0 0 1
15.513235 -20.708356 -18.888944 32.035740 -0.927853 2.201386 0.030329 -0.013935 861089.000000 0 0 1
14.178935 -20.276456 -19.170244 31.299762 -0.960553 2.229981 0.028539 -0.010872 -73760.000000 0 0 1
13.243835 -20.115456 -17.994544 30.063837 -0.988545 2.212479 0.032542 -0.010844 -258448.000000 0 0 1
13.535335 -18.969656 -17.167544 28.944389 -0.951050 2.205727 0.037173 -0.019674 199869.000000 0 0 1
13.094935 -19.298156 -15.822844 28.182592 -0.974606 2.166922 0.019502 -0.009288 -140.387000 0 0 1
13.160935 -18.016156 -14.980144 26.873719 -0.939888 2.162080 0.027690 -0.011599 -339287.000000 0 0 1
11.990035 -17.234156 -14.975944 25.788679 -0.962953 2.190406 0.026343 -0.010684 -16746.200000 0 0 1
12.364435 -15.902856 -14.653444 24.909907 -0.909928 2.199699 0.030601 -0.006480 394263.000000 0 1 0
11.156135 -14.942256 -14.417944 23.571327 -0.929464 2.228970 0.033673 -0.008091 -258342.000000 0 1 0
10.477035 -14.538056 -15.514344 23.702704 -0.946337 2.284369 0.032946 0.000739 -615263.000000 0 1 0
9.384035 -13.775856 -15.063844 22.466724 -0.972803 2.305673 0.034160 -0.010110 -176377.000000 0 1 0
8.401735 -13.264756 -16.120344 22.503519 -1.006188 2.369350 0.024666 -0.004411 -185321.000000 0 1 0
8.714935 -12.070556 -16.922044 22.538943 -0.945458 2.420056 0.020303 0.004681 395510.000000 0 1 0
9.853735 -12.138856 -17.804544 23.694929 -0.888931 2.420989 0.029504 0.005364 550656.000000 0 1 0
10.032335 -10.971156 -18.681844 23.875202 -0.830067 2.469433 0.027584 0.004358 -233728.000000 0 1 0
9.275635 -11.093256 -19.842344 24.552318 -0.874398 2.511827 0.023840 0.005783 23892.700000 0 1 0
9.223835 -9.882256 -20.544444 24.592931 -0.819846 2.559620 0.007233 -0.004742 -31619.500000 0 1 0
8.734235 -10.011756 -22.007144 25.706740 -0.853442 2.598442 0.010901 -0.005374 -149901.000000 0 0 1
9.707635 -10.654256 -22.791344 26.966585 -0.831855 2.577679 0.027862 -0.005904 -216715.000000 0 0 1
9.464535 -10.597756 -24.157344 28.026186 -0.841823 2.609912 0.031546 -0.006737 -215406.000000 0 0 1
10.620535 -11.323856 -24.878544 29.325201 -0.817437 2.583690 0.045536 -0.008926 170051.000000 0 0 1
10.578535 -12.722656 -24.734744 29.758678 -0.877157 2.552018 0.041316 -0.015564 175973.000000 0 0 1
11.848135 -13.285756 -25.054144 30.734341 -0.842534 2.523843 0.043873 -0.019457 462118.000000 0 0 1
11.912735 -14.786156 -24.805144 31.238419 -0.892609 2.488254 0.043599 -0.017708 -268423.000000 0 0 1
10.912235 -15.447456 -25.525294 31.768560 -0.955781 2.503908 0.052138 -0.024025 -327752.000000 0 0 1
10.920935 -16.798056 -25.118954 32.131034 -0.994329 2.468289 0.053484 -0.023381 -49618.900000 0 0 1
9.631335 -17.492856 -25.556174 32.432709 -1.067503 2.478310 0.055062 -0.021013 -161787.000000 0 0 1
9.696135 -18.213156 -26.784254 33.810210 -1.081589 2.485193 0.053903 -0.025125 -158759.000000 0 0 1
8.485135 -18.884256 -27.107454 34.109041 -1.148505 2.489358 0.056108 -0.022038 60064.800000 0 0 1
8.598335 -19.834956 -28.330594 35.636770 -1.161753 2.489774 0.040766 -0.016192 -363809.000000 0 0 1
9.220635 -21.059256 -28.010404 36.236654 -1.158099 2.454330 0.040965 -0.013308 -9828.450000 0 0 1
9.439735 -21.846256 -29.173734 37.649359 -1.162929 2.457321 0.039675 -0.008834 -187945.000000 0 0 1
10.060835 -23.213456 -28.828414 38.355734 -1.161828 2.421290 0.029876 -0.006785 662.529000 0 0 1
10.020035 -24.077656 -29.975564 39.732468 -1.176441 2.425589 0.032788 -0.005183 147663.000000 0 0 1
10.669635 -25.365056 -29.846394 40.595990 -1.172622 2.396766 0.039703 -0.001881 182398.000000 0 0 1
10.141235 -26.344256 -28.801504 40.328539 -1.203331 2.366236 0.038514 -0.002467 166636.000000 0 0 1
10.698135 -26.048956 -27.533644 39.384003 -1.181106 2.344945 0.042270 -0.002525 -206655.000000 0 0 1
9.963835 -26.722756 -26.514204 38.940810 -1.213904 2.319766 0.031108 0.003851 309833.000000 0 0 1
8.965535 -25.767456 -25.809504 37.556265 -1.235958 2.328455 0.016738 0.001710 -135960.000000 0 0 1
9.534935 -24.695856 -25.110304 36.487363 -1.202335 2.329790 0.023348 0.002140 -1252700.000000 0 0 1
8.661135 -23.706656 -24.770344 35.363692 -1.220516 2.346818 0.013552 0.003487 -799883.000000 0 0 1
9.293435 -22.306156 -24.714344 34.564885 -1.176036 2.367439 0.033793 -0.001787 -136132.000000 0 0 1
9.980835 -22.096856 -23.495944 33.763108 -1.146541 2.340477 0.034019 0.001525 122350.000000 0 0 1
10.927635 -21.039456 -23.490744 33.374945 -1.091759 2.351590 0.038801 -0.004390 402429.000000 0 0 1
11.675535 -20.906256 -22.129044 32.604972 -1.061473 2.316789 0.032508 -0.000300 247122.000000 0 0 1
10.942735 -20.247356 -21.075144 31.206739 -1.075313 2.312221 0.030526 -0.000176 -25388.500000 0 0 1
10.819335 -18.797256 -21.225844 30.346849 -1.048526 2.345412 0.048806 -0.006693 781937.000000 0 0 1
12.116835 -17.891056 -21.058444 30.172266 -0.975498 2.343314 0.044269 -0.008681 704453.000000 0 0 1
13.016935 -18.034356 -22.117344 31.366470 -0.945598 2.353398 0.046515 -0.008595 -432330.000000 0 0 1
14.139835 -17.197356 -21.892644 31.224539 -0.882659 2.347786 0.045627 -0.011764 -97106.400000 0 0 1
15.324435 -17.439256 -22.818744 32.552435 -0.849856 2.347573 0.029204 -0.005979 271316.000000 0 0 1
16.525135 -17.897856 -22.188744 32.950776 -0.825255 2.309582 0.043229 -0.000681 54729.900000 0 0 1
17.654935 -17.553856 -22.900344 33.826917 -0.782527 2.314456 0.032065 0.000921 -488514.000000 0 0 1
18.999735 -17.948756 -22.259044 34.330930 -0.756961 2.276234 0.022410 0.006077 78668.200000 0 0 1
19.196735 -19.370656 -22.113744 35.110605 -0.789908 2.252132 0.022110 -0.009632 1121430.000000 0 0 1
20.615835 -19.664156 -22.142244 36.082830 -0.761776 2.231472 0.024046 -0.004676 1084630.000000 0 0 1
20.943635 -21.047856 -21.538444 36.681775 -0.787880 2.198355 0.017038 -0.006568 -168192.000000 0 0 1
20.813635 -21.007656 -20.116044 35.765685 -0.790037 2.168130 0.035324 -0.008972 206969.000000 0 0 1
20.867135 -22.265956 -19.514044 36.221651 -0.817817 2.139737 0.027607 -0.003226 44559.500000 0 0 1
-16.743249 13.122502 28.795567 35.801132 -0.664753 0.636266 0.033142 -0.019281 -176703.000000 0 0 1
-17.893549 13.936202 28.742377 36.613126 -0.661704 0.668053 0.024574 -0.015350 -184000.000000 0 0 1
-18.476549 13.779402 27.506477 35.886781 -0.640793 0.697455 0.029079 -0.016453 -971176.000000 0 0 1
-19.725249 14.539002 27.199137 36.609576 -0.635178 0.733327 0.040470 -0.010802 -701085.000000 0 0 1
-19.426349 15.945802 27.118097 36.973542 -0.687316 0.747419 0.019278 -0.007058 17201.500000 0 0 1
-20.474649 16.620802 26.479997 37.371814 -0.681880 0.783348 0.019762 -0.001508 -560394.000000 0 0 1
-20.472549 18.101402 26.809027 38.281979 -0.724005 0.794973 0.007873 0.010615 -860949.000000 0 0 1
-19.407649 18.754302 26.246737 37.646671 -0.768279 0.799331 0.035248 0.002254 -347526.000000 0 0 1
-18.324549 18.952102 27.169517 37.857019 -0.802232 0.770320 0.043890 -0.008767 481577.000000 0 0 1
-17.118749 19.693402 26.489287 37.182845 -0.855225 0.777875 0.041772 -0.010116 373645.000000 0 0 1
-17.288649 21.147902 26.263807 37.893517 -0.885469 0.805023 0.042036 -0.008046 -180404.000000 0 0 1
-16.147649 21.682602 25.640297 37.259986 -0.930678 0.811866 0.055203 -0.012574 15116.500000 0 0 1
-16.072349 23.220802 25.649187 38.149794 -0.965356 0.833447 0.054450 -0.012008 -71917.100000 0 0 1
-15.650949 23.872802 26.810907 39.162323 -0.990496 0.816728 0.057498 -0.009060 -187860.000000 0 0 1
-15.760449 25.283602 26.601797 39.941305 -1.013387 0.841933 0.050334 -0.010773 -126777.000000 0 0 1
-15.174949 26.086802 27.764637 41.008235 -1.043934 0.827049 0.043828 -0.008649 154236.000000 0 0 1
-13.770349 26.197802 27.658077 40.508228 -1.086856 0.819240 0.052326 -0.011999 163998.000000 0 0 1
-13.125649 27.016402 28.661397 41.516795 -1.118541 0.808814 0.062290 -0.009047 -63014.300000 0 0 1
-11.611149 26.907502 28.618977 40.961912 -1.163415 0.797255 0.075719 -0.010470 -267876.000000 0 0 1
-10.867449 27.504902 27.565037 40.428360 -1.194513 0.820543 0.081226 -0.007710 337310.000000 0 0 1
-9.477349 27.230002 27.610817 39.920550 -1.235861 0.807033 0.059143 -0.000637 -237235.000000 0 0 1
-8.678349 28.295002 26.919167 40.007029 -1.273195 0.832727 0.065158 -0.003446 -395055.000000 0 0 1
-7.294949 28.003502 26.799147 39.441179 -1.315959 0.823755 0.033330 -0.005259 251190.000000 0 0 1
-6.849649 28.637702 25.604917 39.021115 -1.336024 0.855050 0.044170 -0.010516 -414307.000000 0 0 1
-5.364449 28.388902 25.325517 38.419902 -1.384036 0.851072 0.025339 -0.007595 -548462.000000 0 0 1
-4.492749 29.134902 26.166217 39.416978 -1.417796 0.844867 0.026764 -0.010394 1225760.000000 0 0 1
-3.079949 28.929702 25.944237 38.980984 -1.464733 0.842551 0.008669 -0.009375 1206340.000000 0 0 1
-2.470549 29.763202 24.812817 38.828181 -1.487979 0.877545 0.001333 -0.012201 -786516.000000 0 0 1
-2.835649 29.338202 23.518557 37.708003 -1.474442 0.897326 -0.002210 -0.001681 -57798.300000 0 0 1
-2.463149 30.322602 22.561957 37.875707 -1.489743 0.932679 -0.008536 0.000658 -265148.000000 0 0 1
-2.827349 29.942702 21.144757 36.764929 -1.476650 0.958029 -0.007244 0.005313 269308.000000 0 0 1
-4.216249 29.830702 20.887557 36.659754 -1.430387 0.964573 -0.007924 0.010645 222333.000000 0 0 1
-4.815949 28.565302 21.240957 35.921415 -1.403773 0.938105 0.004262 0.015341 -697105.000000 0 0 1
-6.283149 28.496802 20.856157 35.868160 -1.353782 0.950265 0.022049 0.007237 -799474.000000 0 0 1
-6.483949 28.671002 19.455957 35.250563 -1.348388 0.986116 0.014524 0.009715 582703.000000 0 0 1
-7.481949 27.822902 18.824757 34.416055 -1.308098 0.992049 0.010415 0.011124 -246533.000000 0 0 1
-6.994049 26.379802 18.446357 32.940533 -1.311630 0.976423 -0.006065 0.010489 639182.000000 0 0 1
-5.993749 26.386702 17.401057 32.171102 -1.347436 0.999300 -0.013957 0.012010 529128.000000 0 0 1
-4.670349 26.627602 17.846657 32.393587 -1.397167 0.987316 -0.009312 0.016878 -370012.000000 0 0 1
-3.786849 26.799802 16.581457 31.741366 -1.430424 1.021142 -0.015414 0.011665 -80388.900000 0 0 1
-3.427049 25.659802 15.831257 30.344666 -1.438025 1.021937 0.001598 0.007320 -354161.000000 0 0 1
-2.791449 25.988402 14.666457 29.971556 -1.463795 1.059457 0.011135 -0.008572 -540965.000000 0 0 1
-2.104349 24.744602 13.978757 28.497881 -1.485958 1.058111 0.006190 -0.002177 -207025.000000 0 0 1
-1.013449 24.384002 14.784557 28.534010 -1.529258 1.026124 0.010768 0.001136 -461773.000000 0 0 1
-0.531949 23.127202 14.357757 27.226744 -1.547799 1.015329 0.009724 -0.013080 -344205.000000 0 0 1
0.719051 22.686502 15.130657 27.278767 1.539112 0.982833 -0.001494 -0.004612 -140917.000000 0 0 1
1.765851 23.615302 15.161457 28.118863 1.496160 1.001319 0.003675 -0.015062 141203.000000 0 0 1
2.920751 23.176002 15.873257 28.242134 1.445432 0.973944 0.010638 -0.013858 -51713.300000 0 0 1
3.967651 24.272102 15.963357 29.320742 1.408764 0.995076 0.016373 -0.016148 -426294.000000 0 0 1
5.197651 23.689702 16.323757 29.234955 1.354813 0.978383 0.031663 -0.017993 -435215.000000 0 0 1
6.266751 24.607202 16.333257 30.192082 1.321426 0.999197 0.050026 -0.023307 303444.000000 0 0 1
7.653451 23.914202 16.200757 29.881915 1.261059 0.997792 0.062069 -0.024815 188648.000000 0 0 1
7.994151 23.472302 14.910157 28.933858 1.242540 1.029417 0.034114 -0.008449 92091.700000 0 0 1
8.714051 24.398002 14.083657 29.488075 1.227755 1.072869 0.044885 -0.012243 -46973.600000 0 0 1
9.259451 23.607802 12.825557 28.417611 1.197015 1.102548 0.039752 -0.007933 187804.000000 0 0 1
10.435551 22.833602 13.100657 28.317862 1.142115 1.089838 0.043767 -0.008761 233131.000000 0 0 1
10.815151 22.074102 11.967357 27.339552 1.115223 1.117723 0.031302 -0.008748 105169.000000 0 0 1
12.245451 21.497202 12.060457 27.523360 1.053007 1.117212 0.048740 -0.005873 184228.000000 0 0 1
12.331051 20.524702 13.029757 27.259728 1.029796 1.072436 0.045518 -0.005899 68666.400000 0 0 1
13.607951 19.908802 13.047557 27.418524 0.971220 1.074847 0.052142 -0.002158 -84858.700000 0 0 1
13.866151 19.063702 14.296157 27.569457 0.941944 1.025641 0.060427 -0.008115 169569.000000 0 0 1
15.045251 18.258502 14.250957 27.619236 0.881584 1.028646 0.052158 -0.004060 573215.000000 0 0 1
15.334751 17.830802 15.579657 28.210242 0.860517 0.985712 0.030203 -0.010065 8355.450000 0 0 1
16.490851 16.814902 15.552157 28.223371 0.795127 0.987188 0.016404 -0.006073 -262505.000000 0 0 1
17.015951 16.513502 16.811357 29.066476 0.770414 0.954060 0.020550 -0.006095 272107.000000 0 0 1
18.196951 15.745202 16.564757 29.213551 0.713290 0.967909 0.013395 -0.006606 158956.000000 0 0 1
18.655851 15.322902 17.949057 30.083230 0.687622 0.931480 0.014205 -0.003467 -122240.000000 0 0 1
19.128651 16.357802 18.889957 31.469246 0.707474 0.926961 0.012713 0.001125 633055.000000 0 0 1
18.079751 17.116502 19.464657 31.602609 0.758037 0.907244 0.004920 -0.000628 -322210.000000 0 0 1
18.581751 17.993102 20.646157 33.095271 0.769305 0.897150 0.002256 0.004064 -240371.000000 0 0 1
17.780651 19.046002 21.187857 33.583136 0.819744 0.888074 -0.007436 0.014946 -288958.000000 0 0 1
18.505951 19.866902 22.031957 34.965284 0.820850 0.889102 -0.004207 0.014015 -581756.000000 0 0 1
17.857951 21.180702 22.414357 35.636104 0.870308 0.890557 0.001963 0.016638 -245712.000000 0 0 1
17.010451 20.970602 23.522657 35.811129 0.889289 0.854158 -0.000635 0.014346 -40491.700000 0 0 1
16.325951 22.201002 23.803447 36.414629 0.936724 0.858362 0.000267 0.002908 466815.000000 0 0 1
15.411151 22.028002 25.070067 36.759280 0.960328 0.820294 0.017614 0.006620 857902.000000 0 0 1
14.473651 20.918102 24.992907 35.660888 0.965514 0.794209 0.015280 -0.002367 554300.000000 0 0 1
13.743951 20.782302 26.236987 36.182589 0.986498 0.759577 0.019125 -0.004908 73763.500000 0 0 1
12.855451 19.515102 26.331747 35.206004 0.988299 0.725853 0.037800 -0.012396 -73179.500000 0 0 1
13.449851 18.207702 26.331047 34.723809 0.934573 0.710096 0.015944 -0.015261 -9623.790000 0 0 1
14.156951 17.809802 25.136147 33.903306 0.899175 0.735632 0.018135 -0.013065 -344301.000000 0 0 1
13.387551 17.579402 23.826117 32.495318 0.919946 0.747756 0.034012 -0.011562 -875975.000000 0 0 1
13.011551 18.711402 23.082157 32.437678 0.963177 0.779045 0.038380 -0.004779 -298890.000000 0 0 1
13.976451 19.235302 22.203457 32.532007 0.942437 0.819603 0.028153 -0.000143 -176716.000000 0 0 1
14.471551 18.294402 21.102757 31.455322 0.901544 0.835401 0.024666 -0.000120 -470853.000000 0 0 1
13.449751 17.797702 20.271957 30.143096 0.923656 0.833182 0.027901 -0.004472 -213244.000000 0 0 1
13.979551 17.034502 19.195257 29.224304 0.883584 0.854196 0.028958 -0.010516 534444.000000 0 0 1
12.834251 16.345602 18.355057 27.727329 0.905157 0.847333 0.021490 -0.004240 521851.000000 0 0 1
12.236551 17.274802 17.441457 27.429115 0.954490 0.881656 0.041835 -0.011140 -319761.000000 0 0 1
11.197351 16.556602 16.853857 26.144870 0.976149 0.870253 0.036614 -0.005177 -443614.000000 0 0 1
10.582651 17.194902 15.598057 25.513849 1.019092 0.913023 0.047980 -0.004474 -211491.000000 0 0 1
9.906051 18.396802 15.812757 26.203348 1.076852 0.922959 0.041992 -0.011206 -66445.600000 0 0 1
9.593651 18.906402 14.549957 25.713642 1.101223 0.969338 0.021736 0.002629 -575845.000000 0 0 1
8.524751 19.991302 14.435957 26.090618 1.167721 0.984475 0.026520 -0.000534 -961938.000000 0 0 1
7.334551 19.489602 14.925957 25.620780 1.210859 0.948906 0.002093 -0.003138 -1044510.000000 0 0 1
6.437351 20.537902 15.227757 26.365308 1.267057 0.955050 0.016155 -0.003294 -8335.280000 0 0 1
5.146151 20.129202 15.953657 26.195167 1.320501 0.915959 0.005223 -0.009947 229937.000000 0 0 1
4.234351 19.428502 15.089957 24.962035 1.356207 0.921638 0.000022 -0.012811 72463.300000 0 1 0
3.144551 18.919702 15.853657 24.883363 1.406097 0.880042 0.002646 -0.014486 290664.000000 0 1 0
2.096451 18.316302 14.880157 23.691793 1.456834 0.891723 0.004792 -0.016228 78013.400000 0 1 0
1.405051 19.350802 14.175057 24.028315 1.498314 0.939822 0.003273 -0.021188 244690.000000 0 1 0
0.428051 18.829502 13.282057 23.046613 1.548067 0.956587 0.006085 -0.028204 750168.000000 0 1 0
-0.514849 19.852702 12.506457 23.469263 -1.544869 1.008788 0.015908 -0.024642 397882.000000 0 1 0
-1.624949 20.296502 13.219057 24.276159 -1.490906 0.994970 0.013386 -0.019364 197917.000000 0 1 0
-2.754549 20.495302 12.341357 24.082234 -1.437198 1.032741 0.015992 -0.029427 1938450.000000 0 1 0
-4.009649 21.239902 12.993057 25.219640 -1.384213 1.029560 0.017927 -0.018044 1133550.000000 0 0 1
-4.669749 20.522602 14.012257 25.284918 -1.347064 0.983425 0.022474 -0.018535 69245.400000 0 0 1
-5.716949 21.257502 14.610957 26.420540 -1.308075 0.984818 0.009668 -0.003009 -279907.000000 0 0 1
-6.507549 20.455902 15.678657 26.582181 -1.262794 0.939963 0.011004 -0.000550 -758819.000000 0 0 1
-7.478849 19.582002 15.122357 25.847120 -1.205969 0.945831 0.009642 -0.002853 -338344.000000 0 0 1
-8.100449 18.842902 16.113057 26.082615 -1.164788 0.904893 0.007731 0.007318 399410.000000 0 0 1
-9.291949 19.602802 16.796757 27.436129 -1.128155 0.911940 0.007514 0.011403 -364067.000000 0 0 1
-10.382449 19.973602 16.002557 27.619229 -1.091428 0.952805 0.007148 0.004943 493338.000000 0 0 1
-11.599549 19.931402 16.765357 28.511182 -1.043737 0.942178 0.006778 0.014905 418494.000000 0 0 1
-12.870349 20.001802 15.912357 28.616796 -0.999033 0.981171 0.005004 -0.000381 -397014.000000 0 0 1
-13.273149 21.294702 15.458857 29.472310 -1.013415 1.018643 -0.001380 -0.000591 71904.100000 0 0 1
-14.288249 21.172002 14.480057 29.361195 -0.977139 1.055067 0.004615 0.000200 -519319.000000 0 0 1
-15.231149 22.358002 14.459157 30.674669 -0.972773 1.079951 0.009598 0.000297 -335033.000000 0 0 1
-16.307249 22.135302 15.339057 31.483084 -0.935857 1.061898 0.019088 -0.012185 29733.900000 0 0 1
-17.381049 23.044802 15.247957 32.644508 -0.924594 1.084798 0.021200 -0.017610 221098.000000 0 0 1
-18.691049 22.715002 15.968757 33.471298 -0.882277 1.073458 0.034565 -0.021458 -790161.000000 0 0 1
-19.474549 21.674102 15.381957 32.948889 -0.838801 1.085079 0.037766 -0.018660 749620.000000 0 0 1
-20.702149 21.434402 16.082657 33.862433 -0.802775 1.075899 0.031431 -0.014137 848548.000000 0 0 1
-21.793949 22.516402 15.840157 35.112321 -0.801701 1.102767 0.037391 -0.027087 -1068630.000000 0 0 1
-22.407249 22.540602 14.571857 34.964304 -0.788365 1.140914 0.044674 -0.021948 34085.600000 0 0 1
-23.093849 23.766102 14.389757 36.127808 -0.799743 1.161132 0.056440 -0.026635 -296699.000000 0 0 1
-22.379149 24.963202 13.664357 36.203624 -0.839926 1.183776 0.039461 -0.020554 -221588.000000 0 0 1
-21.235349 25.388902 14.377757 36.086788 -0.874249 1.161001 0.022034 -0.018084 70874.800000 0 0 1
-20.718449 26.603402 13.858157 36.456050 -0.909123 1.180856 0.014190 -0.010874 -189479.000000 0 0 1
-19.257249 26.917002 14.242057 36.030581 -0.949789 1.164427 0.015939 -0.013100 -159624.000000 0 0 1
-18.374449 26.013302 13.595357 34.628687 -0.955823 1.167335 0.020919 -0.007392 -696902.000000 0 0 1
-17.077849 26.501502 13.773757 34.404925 -0.998360 1.158906 0.017301 -0.012045 -728524.000000 0 0 1
-16.087449 25.993902 12.716957 33.109061 -1.016600 1.176571 0.028432 -0.015276 146197.000000 0 0 1
-14.780749 26.472802 12.979457 32.980995 -1.061575 1.166313 0.028062 -0.014052 280494.000000 0 0 1
-13.770049 25.985702 12.101557 31.801236 -1.083509 1.180419 0.031334 -0.012172 -248246.000000 0 0 1
-12.415349 26.568502 12.493857 31.876678 -1.133653 1.168053 0.024141 -0.009978 -861589.000000 0 0 1
-11.389749 25.852502 11.847757 30.634091 -1.155815 1.173691 0.014535 -0.006476 313851.000000 0 0 1
-10.053449 26.312702 11.979957 30.609630 -1.205837 1.168667 0.019863 -0.008887 365772.000000 0 0 1
-9.654349 27.584902 11.164857 31.285576 -1.234133 1.205882 0.030902 -0.020915 -654671.000000 0 0 1
-8.369649 28.021902 11.523157 31.433440 -1.280549 1.195456 0.037105 -0.026410 -127763.000000 0 0 1
-7.981149 29.257202 10.962257 32.246762 -1.304483 1.223934 0.043071 -0.029428 -340246.000000 0 0 1
-6.723749 29.798802 11.650357 32.694161 -1.348874 1.206445 0.024445 -0.029433 -14374.300000 0 0 1
-5.537449 29.124102 11.295957 31.724994 -1.382906 1.206750 0.032081 -0.031311 -499510.000000 0 0 1
-4.420949 29.663102 11.928857 32.276028 -1.422847 1.192230 0.029194 -0.034240 771633.000000 0 0 1
-3.036649 29.106802 11.366057 31.394496 -1.466845 1.200341 0.032782 -0.039895 889689.000000 0 0 1
-2.860449 29.654502 10.024257 31.433380 -1.474635 1.246223 0.056265 -0.042591 -91673.800000 0 0 1
-1.715049 29.187202 9.370157 30.702345 -1.512104 1.260655 0.037066 -0.039567 -238053.000000 0 0 1
-1.442749 30.024202 8.090657 31.128651 -1.522780 1.307867 0.027660 -0.035513 -62365.600000 0 0 1
-2.325849 29.803902 7.013157 30.706131 -1.492916 1.340367 0.044338 -0.040801 202506.000000 0 0 1
-2.153649 30.775002 6.014257 31.431039 -1.500930 1.378261 0.042591 -0.024343 75246.300000 0 0 1
10.809651 34.419402 -27.105694 45.124964 1.266494 2.215149 0.047162 -0.014875 -27251.600000 0 0 1
11.230851 34.401402 -25.743774 44.410926 1.255240 2.189123 0.039748 -0.019660 165283.000000 0 0 1
12.520851 -33.913856 -25.576174 44.283880 -1.217124 2.186521 0.042277 -0.013903 -84791.800000 0 0 1
13.009251 -33.888656 -24.121844 43.583769 -1.204261 2.157308 0.038970 -0.002825 -584149.000000 0 0 1
12.365751 -32.892556 -23.339744 42.185017 -1.211199 2.157082 0.044050 -0.006864 354462.000000 0 0 1
13.009451 -32.617456 -22.105744 41.494676 -1.191282 2.132628 0.029854 -0.006399 533819.000000 0 0 1
14.488651 -32.095956 -22.098044 41.573969 -1.146765 2.131209 0.018510 0.006313 221337.000000 0 0 1
15.390051 -33.138256 -22.349944 42.831270 -1.136016 2.119772 0.031766 0.007404 -719584.000000 0 0 1
16.707851 -32.649556 -22.183144 42.863010 -1.097807 2.114765 0.027899 0.008719 -160736.000000 0 0 1
17.669751 -33.859356 -22.228244 44.190167 -1.089816 2.097878 0.008444 0.017734 -225746.000000 0 0 1
19.015451 -33.462756 -22.033544 44.348850 -1.054044 2.090731 0.022229 0.019377 809829.000000 0 0 1
19.904651 34.245402 -22.084544 45.350521 1.044288 2.079419 0.019189 0.026380 -256664.000000 0 0 1
21.346851 -34.338056 -21.723144 45.898639 -1.014597 2.063813 0.024451 0.036045 -623138.000000 0 0 1
22.118951 -33.678556 -22.733544 46.263453 -0.989679 2.084485 0.023329 0.032294 229922.000000 0 0 1
23.480751 -33.724356 -22.349144 46.777795 -0.962588 2.068914 0.023005 0.030977 343743.000000 0 0 1
24.427951 -33.010656 -23.381344 47.255851 -0.933725 2.088380 0.032546 0.017151 182670.000000 0 0 1
24.300251 -31.609756 -23.542344 46.302493 -0.915398 2.104176 0.031821 0.012722 -518131.000000 0 0 1
23.180951 -31.243956 -24.285444 45.862011 -0.932478 2.128846 0.018063 0.023902 -317950.000000 0 0 1
22.986951 -29.690156 -24.335844 44.745263 -0.911969 2.145845 0.022578 -0.007986 -154394.000000 0 0 1
23.989951 -29.045656 -25.086094 45.260137 -0.880438 2.158276 0.025354 -0.007098 -113253.000000 0 0 1
24.055051 -27.692556 -24.766644 44.259573 -0.855576 2.164672 0.030643 -0.012352 503754.000000 0 0 1
24.718051 -26.745456 -25.799754 44.631029 -0.824773 2.187155 0.024534 -0.008486 12358.600000 0 0 1
23.820151 -26.671156 -26.860534 44.724025 -0.841804 2.215028 0.018910 -0.008312 -412173.000000 0 0 1
24.379951 -25.919556 -27.931314 45.236751 -0.815997 2.236290 0.014690 -0.008354 -1103430.000000 0 0 1
23.501251 -25.888756 -29.164394 45.531290 -0.833700 2.265991 0.008967 -0.006077 25447.800000 0 0 1
22.509551 -24.898456 -29.162974 44.464503 -0.835746 2.286132 0.029732 -0.014482 302736.000000 0 0 1
21.423151 -25.036356 -28.230494 43.390452 -0.863013 2.279191 0.019032 -0.016082 -598782.000000 0 0 1
20.784751 -23.658156 -27.945904 42.103299 -0.849962 2.296613 0.025996 -0.012525 -132139.000000 0 0 1
20.164751 -23.022156 -29.016694 42.173515 -0.851466 2.329569 0.039342 -0.013002 81769.200000 0 0 1
19.701951 -21.724956 -28.682464 41.022242 -0.834193 2.345064 0.038375 -0.006696 -751027.000000 0 0 1
18.714751 -21.092856 -29.623584 40.898743 -0.845067 2.380837 0.047604 -0.005075 -775849.000000 0 0 1
17.514851 -21.794156 -29.549584 40.680869 -0.893834 2.383830 0.043362 -0.009127 -459697.000000 0 0 1
16.421651 -21.184856 -30.192184 40.373713 -0.911386 2.415565 0.035997 -0.014223 615476.000000 0 0 1
15.128851 -22.076456 -30.215994 40.364072 -0.970009 2.416724 0.036582 -0.015282 332324.000000 0 0 1
15.248451 -23.203256 -31.016714 41.628630 -0.989398 2.411453 0.034991 -0.011532 77426.700000 0 0 1
14.336651 -24.239256 -30.648174 41.622009 -1.036677 2.398449 0.040392 -0.013293 156786.000000 0 0 1
14.848351 -25.676356 -30.958934 42.874285 -1.046494 2.377610 0.048917 -0.011769 -426958.000000 0 0 1
13.975051 -26.631356 -30.508454 42.840365 -1.087538 2.363342 0.054105 -0.016137 -479492.000000 0 0 1
14.411251 -27.900356 -30.921794 44.071208 -1.094016 2.348482 0.077917 -0.018325 381667.000000 0 0 1
13.694651 -29.121856 -30.192924 44.127527 -1.131228 2.324330 0.069215 -0.014642 210719.000000 0 0 1
13.959351 -29.425456 -28.796344 43.473559 -1.127840 2.294798 0.087431 -0.021030 -68016.300000 0 0 1
13.689751 -28.292856 -27.946064 42.058025 -1.120145 2.297573 0.067654 -0.015741 -90871.300000 0 0 1
14.514751 -28.215556 -26.645004 41.433704 -1.095676 2.269304 0.057019 -0.008631 71370.700000 0 0 1
14.264651 -29.417956 -25.857164 41.683202 -1.119305 2.239954 0.065614 -0.008999 282648.000000 0 0 1
14.978851 -29.458656 -24.609744 41.204586 -1.100395 2.210874 0.055821 -0.016915 -729121.000000 0 0 1
14.580551 -28.464356 -23.497344 39.685478 -1.097406 2.204445 0.033778 -0.012789 544359.000000 0 0 1
13.461251 -28.774056 -22.684844 39.035288 -1.133218 2.190921 0.043762 -0.011740 149211.000000 0 0 1
12.194751 -28.883556 -23.268244 39.043347 -1.171296 2.209256 0.041623 -0.007148 -488044.000000 0 0 1
10.975751 -28.474656 -22.403344 37.857403 -1.202890 2.204064 0.017803 0.001212 107695.000000 0 0 1
10.828151 -27.075956 -22.279644 36.697939 -1.190361 2.223213 0.010291 0.001072 459743.000000 0 0 1
9.757551 -26.854556 -21.353844 35.670206 -1.222280 2.212607 0.014640 0.000678 -404549.000000 0 0 1
9.459051 -25.404056 -21.052044 34.322416 -1.214356 2.231106 0.016016 0.002808 -395363.000000 0 0 1
10.325351 -24.817456 -20.121544 33.576711 -1.176529 2.213386 0.013286 0.000415 -232602.000000 0 0 1
10.077551 -23.436356 -20.029344 32.434463 -1.164701 2.236398 0.014223 0.003824 -105871.000000 0 0 1
10.425151 -22.788556 -18.672044 31.251356 -1.141745 2.211150 0.002491 -0.005705 397256.000000 0 0 1
9.597051 -23.185256 -17.554644 30.623928 -1.178340 2.181242 0.014051 -0.005185 499028.000000 0 0 1
10.002251 -22.483556 -16.407144 29.576167 -1.152217 2.158849 0.013559 -0.004951 -54925.400000 0 0 1
9.345751 -22.953256 -15.097444 29.019439 -1.184129 2.117943 0.008704 -0.005113 -47265.600000 0 0 1
9.727351 -24.266056 -14.734744 30.009590 -1.189547 2.084035 0.014570 -0.002749 79552.600000 0 0 1
8.954051 -24.682656 -13.630644 29.583830 -1.222793 2.049632 0.017488 -0.002922 -33891.800000 0 0 1
9.088351 -26.187256 -13.388844 30.783626 -1.236750 2.020761 0.020988 -0.007353 -250502.000000 0 0 1
10.417451 -26.509356 -13.083644 31.344074 -1.196363 2.001401 0.019962 -0.007455 -330876.000000 0 0 1
10.575451 -27.877056 -13.299444 32.647291 -1.208208 1.990366 0.022726 -0.006768 -256400.000000 0 0 1
11.838851 -28.551256 -12.665944 33.402975 -1.177723 1.959713 0.025879 -0.007511 765818.000000 0 0 1
13.147351 -28.203956 -13.075144 33.753153 -1.134591 1.968579 0.018820 0.000442 328818.000000 0 0 1
13.457051 -28.195356 -14.457044 34.424939 -1.125490 2.004196 0.020968 -0.002801 -569424.000000 0 0 1
14.805151 -27.606656 -15.019744 34.740648 -1.078541 2.017882 0.012770 0.006143 -124793.000000 0 0 1
15.824451 -28.500556 -14.708444 35.763574 -1.063944 1.994642 0.018011 0.007548 -1551600.000000 0 0 1
16.936751 -27.883256 -15.285744 36.027537 -1.024941 2.008962 0.032203 0.004371 -118826.000000 0 0 1
18.205151 -28.795156 -15.100644 37.264165 -1.007015 1.988029 0.030322 0.000654 469282.000000 0 0 1
18.220351 -29.942556 -15.935444 38.502938 -1.024143 1.997504 0.022615 0.006102 -730699.000000 0 0 1
19.495551 -30.469256 -16.111844 39.598530 -1.001594 1.989832 0.019308 0.008219 -380352.000000 0 0 1
19.600151 -31.520256 -17.252944 40.931119 -1.014482 2.005908 0.013688 0.009019 -85743.100000 0 0 1
19.312451 -32.860356 -16.881944 41.686614 -1.039461 1.987745 0.009314 0.018292 -245365.000000 0 0 1
19.693351 -33.791956 -17.836344 42.986736 -1.043133 1.998659 0.009176 0.022707 -81489.700000 0 0 1
19.549651 33.552502 -17.457444 42.576068 1.043226 1.993283 0.004189 0.019193 263117.000000 0 0 1
20.417551 33.074302 -16.398544 42.186468 1.017736 1.970034 0.020885 0.014323 343449.000000 0 0 1
20.292051 31.672302 -16.188444 40.950797 1.000995 1.977207 0.018900 0.011290 371970.000000 0 0 1
21.295951 31.157202 -15.066744 40.636136 0.971230 1.950637 0.024670 0.000964 294023.000000 0 0 1
22.669751 31.036702 -15.382444 41.398237 0.939946 1.951498 0.025022 0.002702 809918.000000 0 0 1
23.575851 30.694602 -14.301444 41.261491 0.915825 1.924746 0.028806 -0.004665 759211.000000 0 0 1
23.180951 29.477402 -13.391144 39.819548 0.904405 1.913777 0.023092 -0.004780 -1245480.000000 0 0 1
23.367451 28.297302 -14.140444 39.328453 0.880530 1.938579 0.025709 0.000836 192712.000000 0 0 1
23.009651 27.118502 -13.372844 37.995922 0.867182 1.930455 0.015766 0.000239 1001810.000000 0 0 1
21.473051 26.973302 -13.027444 36.856006 0.898447 1.932073 0.023680 -0.005510 -317009.000000 0 0 1
20.734051 26.495202 -14.116744 36.485326 0.906781 1.968081 0.025410 -0.011351 -889883.000000 0 0 1
19.364151 26.634102 -13.934144 35.756203 0.942150 1.971101 0.031855 -0.015845 -474020.000000 0 0 1
18.697151 28.082802 -13.865144 36.475600 0.983403 1.960724 0.033270 -0.014738 -659636.000000 0 0 1
18.563551 28.796202 -15.143444 37.458651 0.998189 1.986978 0.023025 -0.009201 148537.000000 0 0 1
17.746651 28.227202 -16.153644 37.049409 1.009535 2.021949 0.009973 0.000904 -269954.000000 0 0 1
17.773751 29.038402 -17.477244 38.269950 1.021544 2.045060 0.006153 0.011673 -160350.000000 0 0 1
17.026951 30.222002 -17.525044 38.864040 1.057727 2.038606 0.010829 0.009977 -74814.100000 0 0 1
17.246251 30.755402 -18.798844 39.959034 1.059733 2.060600 0.005956 0.014434 7498.970000 0 0 1
16.334051 31.934902 -19.246644 40.707155 1.098007 2.063270 0.001057 0.010392 2625.470000 0 0 1
16.523651 33.157502 -18.580444 41.444950 1.108479 2.035677 -0.002600 0.020881 -286314.000000 0 0 1
15.643551 34.193802 -18.958744 42.111408 1.141726 2.037791 0.002254 0.015801 16206.300000 0 0 1
15.678051 -33.329556 -18.091544 41.036137 -1.131112 2.027362 0.005874 0.009507 -973393.000000 0 0 1
14.625251 -32.545756 -18.413244 40.151858 -1.148462 2.047204 0.013605 0.004721 -1152030.000000 0 0 1
14.401751 -31.594656 -17.448644 38.859849 -1.143106 2.036459 0.020989 -0.001661 -274828.000000 0 0 1
13.199751 -30.727456 -17.757744 37.864857 -1.165057 2.058928 0.027785 0.001360 -979491.000000 0 0 1
11.949551 -31.322756 -17.736944 37.927641 -1.206341 2.057429 0.032125 -0.003325 -1018620.000000 0 0 1
10.941451 -30.356256 -17.820044 36.861519 -1.224856 2.075368 0.015779 0.001348 -504195.000000 0 0 1
9.577251 -30.944956 -18.156444 37.134492 -1.270653 2.081668 0.028579 -0.007303 -2240550.000000 0 0 1
9.172651 -31.806756 -17.159744 37.286245 -1.290028 2.049035 0.035750 -0.005690 664343.000000 0 0 1
7.957151 -32.501456 -17.522344 37.771595 -1.330695 2.053192 0.042313 -0.002474 1652990.000000 0 0 1
6.651551 -31.753056 -18.030644 37.116085 -1.364305 2.078064 0.027938 0.006846 -256097.000000 0 0 1
6.785251 -31.155456 -19.305644 37.274790 -1.356358 2.115223 0.015569 0.010780 -275011.000000 0 0 1
6.475751 -32.000956 -20.389844 38.493405 -1.371131 2.129040 0.016551 0.002756 -1172860.000000 0 0 1
6.668251 -31.444556 -21.790144 38.833440 -1.361828 2.166532 0.012695 0.006650 475478.000000 0 0 1
7.996451 -31.210556 -22.276944 39.170196 -1.319982 2.175747 0.017130 0.001353 1096340.000000 0 0 1
8.954551 -32.283256 -22.285344 40.237161 -1.300224 2.157777 0.017652 -0.004263 -29733.900000 0 0 1
8.685451 -33.512256 -23.262244 41.708996 -1.317204 2.162441 0.019645 -0.004974 -777778.000000 0 0 1
7.648651 -34.383256 -22.980244 42.057125 -1.351908 2.148863 0.015654 -0.015992 -726676.000000 0 0 1
7.581451 33.362802 -23.830744 41.694835 1.347348 2.179192 0.024454 -0.025359 -92087.300000 0 0 1
6.280851 32.575202 -23.582144 40.702707 1.380323 2.188758 0.033470 -0.031055 742642.000000 0 0 1
4.990751 33.138302 -23.808344 41.108294 1.421316 2.188496 0.040722 -0.026599 614890.000000 0 0 1
4.541951 33.940402 -22.720944 41.095273 1.437765 2.156618 0.027939 -0.022594 -912347.000000 0 0 1
3.157851 -34.307256 -22.949844 41.396318 -1.479009 2.158430 0.014752 -0.015455 -241726.000000 0 0 1
2.127051 33.572402 -22.805844 40.641567 1.507524 2.166566 0.016820 -0.023478 -669897.000000 0 0 1
1.004451 33.986002 -23.534344 41.351210 1.541250 2.176248 0.011845 -0.012319 -426247.000000 0 0 1
-0.239049 33.458302 -22.783044 40.479404 -1.563652 2.168603 0.011903 -0.018757 -317897.000000 0 0 1
-0.526049 34.016202 -21.536944 40.264359 -1.555333 2.135172 0.000767 -0.015193 848490.000000 0 0 1
-1.789649 33.610802 -20.944544 39.642941 -1.517600 2.127428 0.007650 -0.021158 1250690.000000 0 0 1
-1.943349 33.636402 -19.384444 38.870822 -1.513085 2.092882 0.010023 -0.013117 523411.000000 0 0 1
-1.044649 32.719202 -18.744044 37.722362 -1.538879 2.090813 0.010314 -0.025269 37017.000000 0 0 1
-1.439349 32.517902 -17.398244 36.907784 -1.526562 2.061671 0.005942 -0.024314 -286428.000000 0 0 1
-0.641849 31.542002 -16.586444 35.642951 -1.550450 2.054826 0.006209 -0.032787 142866.000000 0 0 1
0.671651 31.988402 -16.284244 35.901052 1.549803 2.041582 0.009517 -0.030440 -13357.500000 0 0 1
1.362051 31.088302 -15.442444 34.739124 1.527012 2.031441 0.022747 -0.029356 330152.000000 0 0 1
2.139251 31.696802 -14.254544 34.820334 1.503407 1.992564 0.030332 -0.029069 -84610.700000 0 0 1
3.197751 32.567002 -14.585044 35.826787 1.472920 1.990072 0.029322 -0.030161 114125.000000 0 0 1
3.943351 33.049102 -13.480744 35.909937 1.452040 1.955629 0.029297 -0.030984 -228261.000000 0 0 1
5.299951 33.668102 -13.801944 36.771241 1.414660 1.955567 0.039272 -0.034128 70222.300000 0 0 1
6.322751 32.723002 -14.068544 36.175903 1.379928 1.970226 0.033991 -0.029368 -199360.000000 0 0 1
7.191051 33.074002 -15.136544 37.077159 1.356705 1.991326 0.037768 -0.016067 548706.000000 0 0 1
8.150251 31.848102 -15.369944 36.289989 1.320263 2.008136 0.027367 -0.021065 270410.000000 0 0 1
8.956751 31.557102 -14.243944 35.762606 1.294243 1.980450 0.020165 -0.025042 -204728.000000 0 0 1
9.823651 30.432002 -14.388244 35.066115 1.258550 1.993599 0.023708 -0.022505 349448.000000 0 0 1
9.236051 29.014602 -14.084544 33.548862 1.262614 2.004045 0.023236 -0.016341 -210761.000000 0 0 1
8.535051 28.359002 -15.119744 33.251868 1.278455 2.042836 0.024831 -0.022191 -8729.260000 0 0 1
8.321051 26.986702 -14.644544 31.811706 1.271707 2.049187 0.028510 -0.013277 -610009.000000 0 0 1
7.480451 26.101302 -15.565544 31.297304 1.291684 2.091332 0.036968 -0.012869 -39721.000000 0 0 1
8.126651 25.676702 -16.766244 31.724476 1.264272 2.127624 0.039189 -0.004268 245626.000000 0 0 1
7.359051 24.638602 -17.399544 31.047712 1.280551 2.165681 0.031645 0.004097 598935.000000 0 0 1
8.285651 23.725302 -18.256344 31.061810 1.234805 2.199062 0.040399 0.012889 887031.000000 0 0 1
7.518051 22.873602 -19.140244 30.758278 1.253241 2.242448 0.050405 0.006185 309490.000000 0 0 1
8.443051 22.025202 -19.764844 30.774075 1.204738 2.268235 0.045649 0.003925 -156184.000000 0 0 1
7.947751 21.125902 -20.908044 30.767138 1.210966 2.317956 0.036317 -0.010855 758542.000000 0 0 1
6.912351 20.160702 -20.551244 29.607231 1.240494 2.338006 0.032560 -0.001384 810951.000000 0 0 1
6.600651 19.272602 -21.586444 29.681245 1.240829 2.385140 0.029023 0.004376 39737.900000 0 0 1
24.730651 -12.300798 -9.399544 29.176466 -0.461558 1.898809 0.025866 -0.001173 395057.000000 0 0 1
25.343651 -11.672098 -8.239544 29.093446 -0.431595 1.857935 0.027571 -0.008729 643795.000000 0 0 1
24.398751 -11.797898 -7.209744 28.044070 -0.450397 1.830802 0.035310 -0.007696 -362289.000000 0 0 1
24.849651 -11.279698 -5.855644 27.911025 -0.426107 1.782163 0.022535 -0.011609 -536235.000000 0 0 1
25.010851 -9.904698 -5.633044 27.484121 -0.377067 1.777215 0.036362 -0.012285 151839.000000 0 0 1
26.133851 -9.331098 -6.247044 28.444211 -0.342942 1.792226 0.035160 -0.015125 -1328840.000000 0 0 1
26.358051 -7.835498 -5.895744 28.122974 -0.288952 1.782005 0.075548 -0.019964 -465616.000000 0 0 1
27.063451 -7.649098 -4.710344 28.515372 -0.275451 1.736743 0.088027 -0.026996 175209.000000 0 0 1
28.457451 -7.843598 -4.872044 29.917977 -0.268948 1.734372 0.081303 -0.024355 -706613.000000 0 0 1
29.168351 -7.728398 -3.535844 30.381294 -0.259007 1.687443 0.085123 -0.028309 -550406.000000 0 0 1
29.174851 -6.423998 -2.969544 30.020957 -0.216731 1.669874 0.085344 -0.026475 347638.000000 0 0 1
29.914651 -6.488598 -1.761044 30.660880 -0.213595 1.628264 0.067505 -0.022136 -6611.530000 0 0 1
30.117951 -5.094098 -1.104644 30.565684 -0.167553 1.606944 0.063545 -0.024942 91013.700000 0 0 1
28.928751 -4.574198 -0.525144 29.292861 -0.156821 1.588725 0.082317 -0.026945 192678.000000 0 0 1
29.030251 -3.241698 -0.054744 29.210736 -0.111206 1.572670 0.070244 -0.020180 -437208.000000 0 0 1
29.583451 -3.127698 1.370456 29.779880 -0.105333 1.524761 0.067141 -0.018811 132687.000000 0 0 1
28.752451 -3.651698 2.415856 29.083925 -0.126328 1.487636 0.074815 -0.023152 756080.000000 0 0 1
29.515051 -3.538498 3.605556 29.944269 -0.119318 1.450095 0.060625 -0.018050 -167350.000000 0 0 1
29.036651 -4.609298 4.605256 29.758715 -0.157427 1.415419 0.057912 -0.020808 -370993.000000 0 0 1
29.540651 -5.850198 4.340756 30.425599 -0.195509 1.427640 0.058565 -0.021897 214509.000000 0 0 1
29.196451 -6.702598 5.450456 30.447743 -0.225659 1.390816 0.056681 -0.028710 -233995.000000 0 0 1
30.093351 -7.947598 5.407756 31.591422 -0.258203 1.398771 0.039709 -0.026507 287462.000000 0 0 1
31.449051 -7.554798 5.591756 32.823552 -0.235756 1.399603 0.047741 -0.024419 -43573.100000 0 0 1
32.370051 -8.608398 5.806256 33.994666 -0.259921 1.399156 0.051851 -0.023966 140198.000000 0 0 1
33.779651 -7.985998 5.757756 35.185121 -0.232152 1.406415 0.050672 -0.022861 -231457.000000 0 0 1
34.286751 -7.684598 4.501456 35.424532 -0.220484 1.443380 0.059886 -0.025513 422592.000000 0 0 1
-35.571332 -7.418598 4.627456 36.630160 0.205608 1.444129 0.063903 -0.022331 886705.000000 0 0 1
-34.824232 -7.397598 3.284456 35.752472 0.209315 1.478800 0.061130 -0.017476 -254443.000000 0 0 1
-34.542732 -8.636198 2.702056 35.708338 0.244993 1.495054 0.069041 -0.021260 539172.000000 0 0 1
-33.580332 -8.430598 1.641056 34.661315 0.245974 1.523433 0.077112 -0.021868 192053.000000 0 0 1
-33.294132 -9.726698 0.787956 34.694795 0.284234 1.548083 0.069503 -0.015095 148607.000000 0 0 1
-32.701432 -10.763698 1.601556 34.464559 0.317981 1.524310 0.057716 -0.011351 255081.000000 0 0 1
-32.733832 -11.945798 0.864056 34.856168 0.349920 1.546005 0.053511 -0.014292 -738245.000000 0 0 1
-32.555132 -13.198098 1.789156 35.174245 0.385159 1.519909 0.035157 -0.021653 434558.000000 0 0 1
-31.235432 -13.418498 2.229056 34.068710 0.405754 1.505321 0.031696 -0.015934 20382.900000 0 0 1
-30.270132 -13.766698 1.251356 33.277151 0.426834 1.533183 0.032143 -0.005573 281575.000000 0 0 1
-28.915432 -14.212098 1.941756 32.277800 0.456829 1.510602 0.025281 -0.004311 557642.000000 0 0 1
-28.207432 -13.161898 2.524656 31.229292 0.436581 1.489865 0.017225 -0.007819 103242.000000 0 0 1
-26.891532 -13.587198 2.858056 30.264417 0.467846 1.476219 0.027576 -0.005999 391597.000000 0 0 1
-26.124932 -12.523998 3.647256 29.200430 0.447023 1.445565 0.030127 -0.005200 122237.000000 0 0 1
-24.864532 -12.886498 4.187056 28.316749 0.478155 1.422387 0.025232 -0.003263 -33023.200000 0 0 1
-24.301632 -11.812398 4.834656 27.449517 0.452445 1.393744 0.023354 0.002697 -65116.000000 0 0 1
-22.929232 -12.111098 5.471756 26.502236 0.485948 1.362837 0.033208 0.010358 28272.200000 0 0 1
-23.082732 -13.153698 6.415056 27.331031 0.517955 1.333869 0.038192 -0.000997 -335629.000000 0 0 1
-21.874932 -13.575198 6.987556 26.676293 0.555416 1.305766 0.045632 0.003813 -186673.000000 0 0 1
-21.538732 -13.018398 8.397356 26.531326 0.543662 1.248751 0.052329 -0.001846 -429709.000000 0 0 1
-21.050432 -11.683498 8.495256 25.530261 0.506692 1.231575 0.044594 -0.006295 796254.000000 0 0 1
-22.024732 -10.633398 8.740956 25.972337 0.449788 1.227547 0.057080 -0.010369 -394998.000000 0 0 1
-22.582832 -10.553498 10.161056 26.918538 0.437167 1.183729 0.064821 -0.008710 -188390.000000 0 0 1
-23.331532 -11.708998 10.574256 28.165155 0.465129 1.185928 0.048747 -0.018513 905245.000000 0 0 1
-24.698732 -11.759998 10.160456 29.181498 0.444376 1.215166 0.043860 -0.015823 -77608.800000 0 0 1
-25.709432 -11.278998 11.177656 30.218053 0.413426 1.191895 0.047112 -0.017729 -745452.000000 0 0 1
-25.779232 -12.163798 12.278556 31.036910 0.440871 1.164063 0.033202 -0.015987 562760.000000 0 0 1
-26.784532 -11.676798 13.186956 32.057052 0.411111 1.146852 0.018780 -0.016862 428531.000000 0 0 1
-26.737832 -12.447498 14.518856 32.873227 0.435701 1.113346 0.015647 -0.009228 -107786.000000 0 0 1
-27.001432 -13.828998 14.440256 33.598207 0.473327 1.126533 0.006178 -0.008858 398165.000000 0 0 1
-26.587432 -14.368898 15.687756 34.050881 0.495473 1.091996 -0.004188 -0.002733 -837235.000000 0 0 1
-26.212632 -15.866098 15.758056 34.455065 0.544296 1.095782 -0.014329 0.011553 -285077.000000 0 0 1
-27.335832 -16.758398 15.945956 35.810127 0.549964 1.109296 -0.011935 0.012154 405342.000000 0 0 1
-26.967532 -18.120998 15.894456 36.169768 0.591656 1.115821 -0.013755 0.008623 -169711.000000 0 0 1
-28.017732 -19.055798 16.550856 37.710047 0.597268 1.116425 -0.021783 0.015086 42974.500000 0 0 1
-28.074832 -18.964298 17.973256 38.352037 0.594087 1.083047 -0.009167 0.012102 72394.200000 0 0 1
-28.808232 -20.066898 18.580756 39.722024 0.608419 1.084031 0.002589 0.006904 -51036.100000 0 0 1
-28.031632 -21.379298 18.695156 39.904332 0.651570 1.083205 -0.004484 0.008101 -475462.000000 0 0 1
-26.921532 -21.226798 19.534356 39.458040 0.667670 1.052885 0.007109 0.004044 -454709.000000 0 0 1
-26.228732 -22.416298 19.664956 39.713314 0.707186 1.052763 0.015533 0.003384 -1097900.000000 0 0 1
-24.875432 -22.269298 20.336556 39.093277 0.730175 1.023704 0.028259 0.006784 -210408.000000 0 0 1
-23.973332 -21.645498 19.389156 37.672107 0.734414 1.030160 0.026804 0.002691 -253522.000000 0 0 1
-22.725132 -21.406198 19.969056 37.059684 0.755520 1.001743 0.038522 0.004288 -341372.000000 0 0 1
-21.620132 -21.080498 18.958256 35.654355 0.772761 1.010162 0.040736 0.003181 -229004.000000 0 0 1
-21.299432 -22.192198 18.135156 35.707750 0.805923 1.038077 0.038261 0.004317 311371.000000 0 0 1
-20.054132 -21.996298 17.469556 34.513632 0.831552 1.040065 0.048331 0.004738 376689.000000 0 0 1
-19.827732 -23.058498 16.425956 34.563642 0.860590 1.075562 0.045412 0.011706 -669101.000000 0 0 1
-19.670132 -24.415898 16.871056 35.604533 0.892633 1.077144 0.051531 0.002809 1174670.000000 0 0 1
-18.387432 -24.897898 17.374856 35.494910 0.934687 1.059277 0.066967 -0.005144 1310690.000000 0 0 1
-17.251732 -24.951598 16.320856 34.446696 0.965860 1.077195 0.063577 -0.011356 -202134.000000 0 0 1
-16.710632 -23.701798 15.909456 33.077655 0.956698 1.069032 0.060486 -0.007079 -1009860.000000 0 0 1
-15.608632 -23.949398 15.118056 32.338193 0.993203 1.084337 0.056649 -0.003940 -649539.000000 0 0 1
-14.605132 -22.773898 15.339356 31.100743 1.000554 1.055015 0.049516 -0.004124 -267136.000000 0 0 1
-14.868732 -21.512098 14.787156 30.041797 0.966014 1.056159 0.054220 -0.002445 717217.000000 0 0 1
-16.035132 -20.833398 15.334756 30.435353 0.914816 1.042750 0.058713 -0.006198 1047120.000000 0 0 1
-15.570832 -19.706498 16.297156 29.939843 0.902098 0.995206 0.058298 -0.002174 34886.500000 0 0 1
-15.033632 -18.644098 15.551856 28.556483 0.892197 0.994884 0.058053 -0.002020 -168496.000000 0 0 1
-14.912032 -17.457798 16.316656 28.166943 0.863883 0.952946 0.041013 -0.003472 61700.000000 0 0 1
-14.106832 -16.301498 15.582556 26.599955 0.857446 0.944915 0.037555 -0.002366 157975.000000 0 0 1
-14.705532 -15.632698 14.522656 25.914117 0.815950 0.975910 0.053382 -0.014431 -269767.000000 0 0 1
-15.013032 -16.381298 13.373656 25.934393 0.828954 1.029004 0.049591 -0.009125 46112.100000 0 0 1
-16.009632 -15.757398 12.358756 25.638697 0.777458 1.067820 0.046647 -0.005009 70063.400000 0 0 1
-17.355132 -15.787798 12.776856 26.715225 0.738143 1.072123 0.048492 -0.015790 -408980.000000 0 0 1
-18.070332 -14.891098 11.987856 26.305711 0.689242 1.097623 0.051618 -0.014924 818427.000000 0 0 1
-19.651832 -14.807798 12.310556 27.513909 0.645742 1.106906 0.043963 -0.016956 2018140.000000 0 0 1
-20.410132 -15.872598 11.780356 28.412843 0.660984 1.143278 0.046175 -0.020957 -61662.400000 0 0 1
-20.427232 -15.878298 10.389556 27.880729 0.660752 1.188941 0.052066 -0.013085 -1276130.000000 0 0 1
-21.096132 -17.046398 9.722056 28.812235 0.679621 1.226613 0.050160 -0.011128 -38310.500000 0 0 1
-20.374532 -18.251998 9.803756 29.058057 0.730503 1.226659 0.056489 -0.005882 -172310.000000 0 0 1
-21.217132 -19.294998 9.355956 30.166166 0.737988 1.255448 0.058883 -0.009089 -40496.900000 0 0 1
-20.709232 -20.708698 9.256756 30.714981 0.785385 1.264661 0.062377 0.001524 -570697.000000 0 0 1
-19.648332 -20.929398 8.375756 29.904013 0.816958 1.286911 0.067617 -0.002035 -625860.000000 0 0 1
-19.155332 -22.226598 8.506656 30.550149 0.859480 1.288618 0.058283 0.001631 -386571.000000 0 0 1
-18.006132 -22.561598 7.552756 29.837739 0.897223 1.314885 0.049489 -0.010656 388898.000000 0 0 1
-16.766332 -22.062098 8.090256 28.866907 0.920951 1.286731 0.036459 -0.012650 227991.000000 0 0 1
-15.665632 -22.437898 7.276556 28.316419 0.961295 1.310908 0.041844 -0.014373 200992.000000 0 0 1
-14.390232 -21.965198 8.047156 27.464622 0.990818 1.273432 0.007507 -0.012777 17393.400000 0 0 1
-13.208732 -22.328598 7.347156 26.963264 1.036605 1.294819 0.013670 -0.011052 22535.400000 0 0 1
-12.103532 -21.957898 8.175056 26.371885 1.067020 1.255612 0.017075 -0.010552 1241550.000000 0 0 1
-10.707732 -22.418598 7.597156 25.980105 1.125207 1.274038 0.012473 -0.001890 817863.000000 0 0 1
-10.513332 -23.850098 7.825856 27.213992 1.155612 1.279110 0.009566 -0.002516 -637097.000000 0 0 1
-9.318432 -24.280398 7.254356 26.999937 1.204347 1.298773 0.028749 -0.009111 -299627.000000 0 0 1
-9.123032 -25.838058 7.316656 28.361390 1.231376 1.309866 0.030282 -0.009444 -626083.000000 0 0 1
-9.989232 -26.498968 6.447956 29.044040 1.210302 1.346925 0.028532 -0.012492 -427756.000000 0 0 1
-9.902332 -27.928728 6.525356 30.342220 1.230067 1.354044 0.041931 -0.005814 -53326.600000 0 0 1
-8.792732 -28.680218 5.765856 30.546885 1.273315 1.380903 0.041441 -0.009493 -1109250.000000 0 0 1
-7.548232 -28.261778 6.136056 29.889047 1.309806 1.364032 0.052668 -0.015734 -642275.000000 0 0 1
-6.352332 -28.946208 5.723656 30.182700 1.354768 1.380007 0.053962 -0.010298 1174680.000000 0 0 1
-6.155432 -30.445948 6.219856 31.678569 1.371310 1.373170 0.059032 -0.018087 -421249.000000 0 0 1
-6.416332 -30.541838 7.614356 32.124004 1.363724 1.331489 0.057698 -0.010982 237699.000000 0 0 1
-6.367332 -31.897178 8.024056 33.501618 1.373766 1.328933 0.084579 -0.014912 -36684.600000 0 0 1
-6.746132 -32.054328 9.521256 34.112235 1.363364 1.287923 0.070804 -0.017217 391541.000000 0 0 1
-5.804432 -31.377298 10.384256 33.556804 1.387876 1.256179 0.042941 -0.011621 688380.000000 0 0 1
-5.835432 -31.761098 11.748056 34.363301 1.389094 1.221882 0.026869 -0.003589 -194081.000000 0 0 1
-4.859432 -30.936798 12.584056 33.749934 1.414993 1.188705 0.020758 -0.002056 211367.000000 0 0 1
-5.583432 -29.808618 13.013656 33.001268 1.385633 1.165449 0.023773 -0.000267 575988.000000 0 0 1
-4.764432 -29.032988 13.885056 32.533199 1.408142 1.129849 0.005608 -0.010578 -333622.000000 0 0 1
-5.554432 -28.184058 14.865956 32.344853 1.376213 1.093242 0.018446 -0.014386 -188323.000000 0 0 1
-6.184432 -29.014558 15.928056 33.671869 1.360790 1.078061 0.021145 -0.014346 106765.000000 0 0 1
-5.328432 -29.481228 16.921656 34.407521 1.391987 1.056639 -0.009895 -0.000295 -422592.000000 0 0 1
-5.591432 -30.911068 17.303256 35.863086 1.391844 1.067311 0.006499 -0.005897 -78234.800000 0 0 1
-5.318432 -31.898228 16.300356 36.214421 1.405585 1.103911 0.010671 -0.004373 120173.000000 0 0 1
-5.497432 -33.196458 16.840456 37.627484 1.406683 1.106764 0.011845 -0.006146 -131514.000000 0 0 1
-4.944432 -34.251407 15.827156 38.053977 1.427430 1.141849 0.003205 -0.007125 13390.300000 0 0 1
-5.797432 34.178312 14.742156 37.670922 -1.402772 1.168709 0.028983 -0.009834 282315.000000 0 0 1
-5.320432 33.138117 13.878956 36.318965 -1.411602 1.178685 0.009553 -0.014004 16851.400000 0 0 1
-4.078432 33.520102 13.023656 36.191801 -1.449720 1.202688 0.015101 -0.020590 -12191.300000 0 0 1
-4.406432 34.065658 11.792156 36.317222 -1.442159 1.240103 0.025045 -0.023006 275777.000000 0 0 1
-3.248432 34.330883 11.013756 36.200340 -1.476456 1.261651 0.033466 -0.026270 -646940.000000 0 0 1
-3.569432 -34.321082 9.499156 35.789824 1.467168 1.302162 0.033271 -0.027833 -705679.000000 0 0 1
-3.624432 33.477163 8.542956 34.739589 -1.462951 1.322334 0.051127 -0.036240 666002.000000 0 0 1
-4.558432 32.413729 8.800256 33.895038 -1.431080 1.308155 0.052678 -0.038319 188871.000000 0 0 1
-6.054432 32.603629 9.061656 34.376829 -1.387190 1.304046 0.069645 -0.028913 -326592.000000 0 0 1
-6.846132 33.246345 8.066156 34.889136 -1.367714 1.337492 0.089122 -0.035117 -579208.000000 0 0 1
-8.139932 33.380491 8.561456 35.409239 -1.331611 1.326590 0.088799 -0.025788 -559805.000000 0 0 1
-9.182932 33.779908 7.503856 35.801066 -1.305365 1.359632 0.082690 -0.027654 -173085.000000 0 0 1
-9.164832 -33.723318 7.085256 35.657499 1.305440 1.370762 0.103582 -0.025110 29580.400000 0 0 1
-10.208232 -33.466218 6.186756 35.531278 1.274730 1.395783 0.085961 -0.014826 -805952.000000 0 0 1
-10.191432 -31.972988 5.793156 34.054338 1.262226 1.399850 0.069559 -0.011492 736256.000000 0 0 1
-11.268332 -31.153848 6.310956 33.724854 1.223737 1.382556 0.069099 -0.008138 1231150.000000 0 0 1
-12.598732 -31.464938 5.890656 34.401602 1.189940 1.398716 0.061450 -0.002831 105901.000000 0 0 1
-13.685832 -30.503288 6.353056 34.031073 1.149051 1.383011 0.045979 -0.003054 -203522.000000 0 0 1
-14.009532 -30.595228 7.724456 34.525385 1.141393 1.345154 0.071641 -0.012173 -377446.000000 0 0 1
-14.938432 -29.640658 8.110856 34.168866 1.103966 1.331133 0.059620 -0.007471 -464315.000000 0 0 1
32.336325 -13.353198 -13.017744 37.328373 -0.391618 1.927018 0.011432 -0.006586 -451596.000000 0 0 1
31.434845 -13.071698 -12.004244 36.098762 -0.394082 1.909791 0.005878 -0.007924 -172526.000000 0 0 1
30.972645 -14.182998 -11.237344 35.871159 -0.429421 1.889430 0.000892 -0.009050 858896.000000 0 0 1
32.067975 -14.865198 -10.276944 36.809573 -0.434067 1.853749 0.003383 -0.011611 862164.000000 0 0 1
33.263485 -15.326998 -10.848444 38.197710 -0.431779 1.858768 0.012173 -0.014858 -323665.000000 0 0 1
34.227145 -15.547698 -9.845044 38.860690 -0.426383 1.826930 0.028957 -0.018526 270299.000000 0 0 1
-35.582373 -15.825198 -10.296744 40.281076 0.418478 1.829288 0.022544 -0.018058 139360.000000 0 0 1
-34.945860 -14.681698 -10.781844 39.408293 0.397736 1.847923 0.017381 -0.010745 -253508.000000 0 0 1
-33.554999 -14.895798 -10.903244 38.297565 0.417788 1.859488 0.027014 -0.010420 201509.000000 0 0 1
-32.751169 -13.613798 -11.285644 37.220160 0.393945 1.878859 0.048051 -0.017708 47394.700000 0 0 1
-32.760459 -12.611198 -10.324444 36.590766 0.367467 1.856841 0.053101 -0.017390 213827.000000 0 0 1
-32.320199 -11.355798 -10.874644 35.941721 0.337880 1.878177 0.055052 -0.018170 52306.000000 0 0 1
-32.776679 -10.161698 -10.002244 35.743750 0.300632 1.854415 0.051554 -0.024774 233476.000000 0 0 1
-32.164079 -10.212498 -8.704044 34.850875 0.307445 1.823220 0.050977 -0.019430 172997.000000 0 0 1
-32.772289 -9.344698 -7.768244 34.952710 0.277769 1.794918 0.066389 -0.021746 -459368.000000 0 0 1
-32.117559 -9.120698 -6.371244 33.989961 0.276694 1.759357 0.060904 -0.008119 -422239.000000 0 0 1
-30.900159 -8.396998 -6.481344 32.670127 0.265339 1.770509 0.066113 -0.016632 624059.000000 0 0 1
-30.245279 -8.147698 -5.202144 31.752546 0.263141 1.735372 0.063550 -0.009761 431252.000000 0 0 1
-29.465119 -9.354898 -4.495944 31.239732 0.307425 1.715215 0.063537 -0.007664 -51135.500000 0 0 1
-30.195929 -10.488398 -3.988144 32.213443 0.334307 1.694919 0.065304 -0.005695 845285.000000 0 0 1
-31.168179 -10.171598 -2.953944 32.918727 0.315448 1.660652 0.047247 -0.006665 520622.000000 0 0 1
-31.863589 -11.471898 -2.488144 33.957085 0.345584 1.644135 0.055570 -0.004986 -260957.000000 0 0 1
-32.684629 -12.036498 -3.490844 35.004975 0.352850 1.670687 0.054673 -0.013335 25034.600000 0 0 1
-33.163199 -13.284998 -3.047944 35.854970 0.381019 1.655907 0.046769 -0.017249 1154440.000000 0 0 1
-34.701895 -13.311598 -2.662044 37.262671 0.366288 1.642297 0.030289 -0.012516 1035460.000000 0 0 1
-35.099803 -12.586798 -1.511144 37.318993 0.344316 1.611300 0.048118 -0.020115 44689.900000 0 0 1
34.780215 -12.731898 -1.274744 37.059271 -0.350916 1.605201 0.068902 -0.017982 -61779.700000 0 0 1
34.429305 -11.670598 -0.230844 36.354273 -0.326817 1.577146 0.068725 -0.022489 -196942.000000 0 0 1
34.845665 -12.012398 1.071956 36.873665 -0.331974 1.541721 0.078282 -0.024802 15210.500000 0 0 1
34.515605 -11.015898 1.983056 36.285114 -0.308938 1.516117 0.070333 -0.026395 -283466.000000 0 0 1
34.903005 -11.404698 3.425856 36.878495 -0.315818 1.477766 0.070496 -0.032854 514380.000000 0 0 1
33.938765 -12.203098 4.155756 36.304623 -0.345168 1.456076 0.067188 -0.038837 198281.000000 0 0 1
34.460055 -12.775798 5.323556 37.135652 -0.355033 1.426946 0.058836 -0.033002 -627491.000000 0 0 1
33.455555 -12.957898 6.440656 36.450834 -0.369525 1.393169 0.046660 -0.030817 -321512.000000 0 0 1
32.907585 -11.747698 6.887356 35.613947 -0.342889 1.376181 0.039908 -0.028636 -153054.000000 0 0 1
32.409995 -11.918198 8.195656 35.491125 -0.352384 1.337772 0.015539 -0.012413 -673139.000000 0 0 1
31.861995 -10.650698 8.804156 34.729487 -0.322599 1.314493 0.010609 -0.017842 -198766.000000 0 0 1
30.523595 -10.400898 8.406456 33.324721 -0.328410 1.315782 0.039508 -0.018176 334145.000000 0 0 1
29.898655 -9.365898 9.199756 32.654021 -0.303572 1.285195 0.039651 -0.009431 -88452.600000 0 0 1
28.371555 -9.377698 9.018456 31.212480 -0.319227 1.277679 0.054042 -0.020954 -148921.000000 0 0 1
27.959035 -8.843198 7.754756 30.332260 -0.306335 1.312266 0.059865 -0.017901 597918.000000 0 0 1
27.003245 -9.682698 7.063356 29.543542 -0.344294 1.329375 0.079805 -0.031641 304684.000000 0 0 1
26.047435 -8.987098 6.091256 28.219500 -0.332239 1.353231 0.080226 -0.036909 164613.000000 0 0 1
25.031335 -8.150198 6.691556 27.161929 -0.314774 1.321876 0.073570 -0.029255 380119.000000 0 0 1
24.005735 -7.774998 5.844956 25.901533 -0.313219 1.343175 0.072651 -0.037485 -578680.000000 0 0 1
24.337735 -6.611598 4.885456 25.688640 -0.265259 1.379451 0.067896 -0.032219 -327241.000000 0 0 1
25.083635 -6.894798 3.674356 26.272188 -0.268248 1.430479 0.064581 -0.031846 480943.000000 0 0 1
25.702035 -5.732898 3.226556 26.530574 -0.219460 1.448878 0.073437 -0.026926 -370743.000000 0 0 1
26.265765 -5.833198 1.798956 26.965772 -0.218537 1.504034 0.089438 -0.034035 -224286.000000 0 0 1
25.376235 -5.842298 0.697856 26.049429 -0.226284 1.544003 0.098783 -0.038161 -59826.200000 0 0 1
26.023935 -5.861998 -0.609844 26.682955 -0.221556 1.593653 0.101719 -0.038161 -538014.000000 0 0 1
25.145235 -6.136898 -1.809444 25.946453 -0.239379 1.640591 0.098045 -0.032412 -457214.000000 0 0 1
24.184435 -5.116298 -1.921244 24.794245 -0.208479 1.648362 0.098432 -0.025983 -352733.000000 0 1 0
23.388635 -5.291898 -3.042744 24.172106 -0.222513 1.697009 0.068877 -0.022227 115628.000000 0 1 0
22.081735 -4.430598 -3.060144 22.728785 -0.198016 1.705844 0.043802 -0.021551 -15478.800000 0 1 0
22.262135 -2.960198 -3.151044 22.678062 -0.132195 1.710194 0.048960 -0.025369 289995.000000 0 1 0
22.824335 -2.348698 -4.293644 23.343136 -0.102542 1.755786 0.061073 -0.025551 -44860.000000 0 1 0
21.888035 -1.291198 -4.926644 22.472763 -0.058923 1.791819 0.034282 -0.016006 -6639.070000 0 1 0
21.732835 -0.177198 -4.127044 22.121935 -0.008153 1.758455 0.027315 -0.011171 957849.000000 0 1 0
20.804135 0.748902 -4.742344 21.350941 0.035982 1.794778 0.022401 -0.003950 -402513.000000 0 1 0
20.973035 2.190802 -4.252244 21.511610 0.104081 1.769779 0.045915 -0.001139 -547474.000000 0 1 0
22.183935 2.809602 -4.588644 22.827099 0.125980 1.773193 0.069445 -0.000904 141600.000000 0 1 0
23.167235 2.728802 -3.571344 23.599187 0.117247 1.722713 0.092327 -0.005635 -514241.000000 0 1 0
24.145335 3.878902 -3.801244 24.748586 0.159287 1.725001 0.075378 -0.007551 -867105.000000 0 1 0
23.585135 5.136602 -3.696244 24.419367 0.214441 1.722746 0.060322 -0.000484 251787.000000 0 1 0
24.584935 6.101402 -3.609744 25.586644 0.243262 1.712348 0.055511 -0.002757 -328417.000000 0 0 1
23.963835 7.483202 -3.393644 25.333387 0.302676 1.705160 0.034751 -0.008105 -309222.000000 0 0 1
23.359635 7.701502 -2.125444 24.688118 0.318470 1.656995 0.047813 -0.010315 169242.000000 0 1 0
22.387735 8.664902 -2.441544 24.129905 0.369282 1.672153 0.034517 -0.005226 -673756.000000 0 1 0
21.444235 8.884402 -1.220644 23.243876 0.392775 1.623335 0.022052 -0.005242 -455640.000000 0 1 0
22.074135 9.485802 -0.149444 24.026448 0.405866 1.577016 0.016173 -0.005243 1500180.000000 0 1 0
20.984035 9.899302 0.759256 23.214270 0.440797 1.538084 0.001644 -0.002720 1079410.000000 0 1 0
21.448535 10.658902 1.987756 24.033372 0.461207 1.487994 0.008154 -0.002623 -242190.000000 0 1 0
22.139935 11.912702 1.678856 25.197375 0.493633 1.504119 0.001977 -0.002512 632107.000000 0 0 1
21.325935 13.023702 1.441056 25.029761 0.548248 1.513191 0.008552 -0.003386 -595892.000000 0 0 1
20.481735 13.567602 2.643956 24.709750 0.585060 1.463591 0.012573 -0.002330 667616.000000 0 1 0
19.190635 12.903902 2.650956 23.276999 0.591966 1.456661 0.038022 -0.006414 1599460.000000 0 1 0
18.246135 13.608802 3.507756 23.030963 0.640837 1.417895 0.035336 -0.010236 275736.000000 0 1 0
18.363435 13.452402 5.059056 23.319024 0.632249 1.352108 0.031401 -0.011172 -662172.000000 0 1 0
18.087335 12.117802 5.446456 22.442296 0.590280 1.325662 0.029023 -0.011104 471188.000000 0 1 0
18.254535 12.075702 6.825256 22.926725 0.584430 1.268515 0.027480 -0.016426 -307865.000000 0 1 0
18.355535 10.669102 7.395356 22.482141 0.526516 1.235612 0.012690 -0.019156 353803.000000 0 1 0
19.486835 9.990402 6.815956 22.934736 0.473736 1.269049 0.006803 -0.020768 900445.000000 0 1 0
19.607535 8.665102 7.348356 22.661371 0.416120 1.240559 0.024338 -0.019326 -190388.000000 0 1 0
20.435935 7.745602 6.419056 22.777753 0.362289 1.285114 0.020852 -0.021902 -373422.000000 0 1 0
19.948835 7.559102 5.097156 21.933468 0.362207 1.336260 0.005241 -0.018349 1112120.000000 0 1 0
20.971835 6.874502 4.357656 22.495906 0.316759 1.375855 0.015612 -0.019551 497198.000000 0 1 0
20.524035 6.706902 2.899556 21.785912 0.315844 1.437307 0.011261 -0.012553 -163792.000000 0 1 0
21.395735 5.818702 2.229556 22.284651 0.265534 1.470580 0.005603 -0.012908 396253.000000 0 1 0
21.139735 5.659902 0.876156 21.901838 0.261602 1.530782 0.018358 -0.004771 -339710.000000 0 1 0
22.167335 4.696802 0.225356 22.660570 0.208792 1.560851 0.044006 -0.013536 104955.000000 0 1 0
22.166835 3.390802 0.689356 22.435269 0.151791 1.540065 0.041957 -0.007672 601760.000000 0 1 0
23.326435 2.711302 0.233756 23.484641 0.115714 1.560843 0.060724 -0.011710 148092.000000 0 1 0
23.239335 1.185102 0.245956 23.270832 0.050951 1.560227 0.077233 -0.011794 167647.000000 0 1 0
22.255335 0.696002 -0.687244 22.276818 0.031263 1.601651 0.056739 -0.015938 1123360.000000 0 1 0
22.409935 -0.652198 -1.077044 22.445279 -0.029095 1.618800 0.066185 -0.018618 -1456760.000000 0 1 0
22.275835 -1.879898 -0.067544 22.355120 -0.084192 1.573818 0.080229 -0.011843 -246069.000000 0 1 0
23.259335 -2.009998 0.929156 23.364504 -0.086203 1.531018 0.089469 -0.011327 429225.000000 0 1 0
24.528235 -2.330198 0.362356 24.641336 -0.094716 1.556091 0.099462 -0.021202 -225481.000000 0 1 0
25.708535 -2.035598 1.320456 25.822781 -0.079015 1.519639 0.088246 -0.018339 -303100.000000 0 0 1
25.623635 -0.694798 1.856156 25.700169 -0.027109 1.498510 0.075364 -0.014721 18661.400000 0 0 1
26.491375 -0.466198 2.909356 26.654730 -0.017596 1.461429 0.068911 -0.013157 -455904.000000 0 0 1
26.193435 0.851702 3.700456 26.467240 0.032504 1.430524 0.081397 -0.008897 13088.000000 0 0 1
26.236865 2.028102 2.869556 26.471128 0.077146 1.462180 0.079783 -0.008179 601162.000000 0 0 1
27.549765 2.462702 2.510456 27.773311 0.089154 1.480282 0.074561 -0.012695 359488.000000 0 0 1
27.600695 3.630302 1.498956 27.878743 0.130779 1.517003 0.084337 -0.020537 -447060.000000 0 0 1
27.316285 3.155002 0.223956 27.498793 0.114989 1.562652 0.104192 -0.019775 279501.000000 0 0 1
27.622175 4.077102 -0.798844 27.932874 0.146544 1.599399 0.088799 -0.014503 -289121.000000 0 0 1
29.078835 3.937302 -1.253544 29.370944 0.134582 1.613489 0.074385 -0.012597 -472827.000000 0 0 1
30.090135 4.292602 -0.336844 30.396646 0.141702 1.581878 0.066417 -0.011147 -443223.000000 0 0 1
31.359915 4.047702 -0.865444 31.631900 0.128363 1.598160 0.041970 -0.008027 316853.000000 0 0 1
32.498285 4.380002 0.204356 32.792753 0.133969 1.564565 0.017551 -0.007579 363322.000000 0 0 1
32.570545 3.503402 1.382456 32.787580 0.107152 1.528620 0.022810 -0.007958 92257.500000 0 0 1
31.677915 3.892102 2.390056 32.005485 0.122252 1.496050 0.026445 -0.002390 -177851.000000 0 0 1
31.688365 2.919802 3.626556 32.028575 0.091882 1.457324 0.033910 -0.004487 -622276.000000 0 0 1
30.807215 1.856502 3.447856 31.055093 0.060189 1.459543 0.041601 -0.007165 595.539000 0 0 1
31.043865 0.781902 4.349956 31.356897 0.025182 1.431623 0.040461 -0.005743 -99484.500000 0 0 1
32.288155 -0.072298 4.033956 32.539253 -0.002239 1.446505 0.043524 -0.004788 60768.900000 0 0 1
33.509455 0.629902 4.204656 33.778091 0.018796 1.445994 0.039886 -0.007851 117290.000000 0 0 1
34.591165 -0.255498 3.933556 34.815037 -0.007386 1.457570 0.043252 -0.009302 333715.000000 0 0 1
-35.264221 0.321602 4.313856 35.528553 -0.009120 1.449077 0.051461 -0.017990 534641.000000 0 0 1
-34.889996 1.522702 3.715156 35.120262 -0.043615 1.464814 0.048357 -0.017743 159062.000000 0 0 1
-34.710619 1.489202 2.305456 34.818959 -0.042877 1.504535 0.054665 -0.010826 -861419.000000 0 0 1
-34.466724 2.867502 1.655056 34.625378 -0.083005 1.522979 0.043926 -0.008189 -31966.200000 0 0 1
-33.236449 3.486102 1.861356 33.470570 -0.104506 1.515156 0.061812 -0.020092 307056.000000 0 0 1
-32.067119 3.040002 1.183256 32.232620 -0.094519 1.534078 0.071645 -0.016028 997133.000000 0 0 1
-30.727579 3.739402 1.657356 30.998614 -0.121100 1.517305 0.078052 -0.014718 653482.000000 0 0 1
-30.374619 3.369302 2.954656 30.703414 -0.110473 1.474415 0.083174 -0.021476 432425.000000 0 0 1
-29.512619 4.349702 3.574256 30.044798 -0.146331 1.451550 0.083090 -0.020584 -172681.000000 0 0 1
-29.846459 4.436602 5.105556 30.603288 -0.147567 1.403182 0.083616 -0.023395 718442.000000 0 0 1
-31.149259 4.927802 5.456156 32.005143 -0.156899 1.399482 0.066793 -0.021101 1131160.000000 0 0 1
-32.272939 4.064602 5.293956 32.955873 -0.125285 1.409460 0.066408 -0.021291 -45398.600000 0 0 1
-32.602589 3.162102 6.517856 33.397756 -0.096687 1.374377 0.052217 -0.009362 -546021.000000 0 0 1
-33.110049 3.932102 7.630056 34.204598 -0.118205 1.345833 0.047310 -0.011545 479496.000000 0 0 1
-32.977969 3.225702 8.866256 34.301051 -0.097504 1.309344 0.033565 -0.006001 104203.000000 0 0 1
-34.036879 2.096102 9.066556 35.286048 -0.061506 1.310937 0.024846 -0.006356 -124043.000000 0 0 1
-33.701279 0.978902 8.276956 34.716602 -0.029038 1.330063 0.037569 -0.016544 617231.000000 0 0 1
-34.736704 -0.004898 8.352656 35.726817 0.000141 1.334820 0.043720 -0.010388 320591.000000 0 0 1
-34.669685 -0.968598 9.619456 35.992488 0.027931 1.300245 0.039308 -0.001569 641664.000000 0 0 1
-33.636889 -2.017598 9.533156 35.019881 0.059910 1.295096 0.040148 -0.013144 1070350.000000 0 0 1
-33.519039 -2.828598 10.734556 35.309455 0.084188 1.261893 0.034016 -0.004410 300894.000000 0 0 1
-32.208009 -3.672698 10.739956 34.149542 0.113540 1.250869 0.023585 -0.004869 297433.000000 0 0 1
-32.310349 -4.698898 9.793256 34.087331 0.144418 1.279391 0.027908 -0.007316 -587796.000000 0 0 1
-31.182879 -5.500598 9.840956 33.158301 0.174602 1.269470 0.044918 -0.013820 -531036.000000 0 0 1
-31.122489 -6.627098 8.769956 33.006664 0.209803 1.301864 0.034362 -0.007683 -388158.000000 0 0 1
-32.120989 -7.568598 8.917556 34.184271 0.231407 1.306876 0.041742 -0.011805 -601677.000000 0 0 1
-32.185719 -8.549898 7.921156 34.231067 0.259646 1.337277 0.030637 -0.010326 193445.000000 0 0 1
-33.223839 -9.687998 8.084156 35.539195 0.283731 1.341316 0.025210 -0.011973 75867.600000 0 0 1
-34.553923 -9.280198 8.282356 36.724557 0.262380 1.343313 0.022904 -0.016222 -223917.000000 0 0 1
-35.322436 -10.450798 8.498056 37.803579 0.287662 1.344064 0.016900 -0.014234 -301471.000000 0 0 1
7.912651 -23.839798 10.596756 27.262379 -1.250328 1.171581 0.069464 -0.017414 184972.000000 0 0 1
7.326851 -24.594698 9.520356 27.371867 -1.281264 1.215556 0.065890 -0.018299 12993.300000 0 0 1
6.265651 -25.431858 9.950856 28.018875 -1.329237 1.207724 0.060297 -0.011082 521123.000000 0 0 1
5.688151 -26.338768 8.803256 28.347542 -1.358102 1.255027 0.040163 -0.004337 -5546.410000 0 0 1
5.016951 -25.693328 7.772956 27.308163 -1.377960 1.282167 0.045721 -0.008158 -349151.000000 0 0 1
4.866651 -26.628998 6.698456 27.886505 -1.390034 1.328220 0.038034 -0.002269 -428153.000000 0 0 1
4.324851 -25.921258 5.394056 26.827445 -1.405473 1.368351 0.034776 -0.006431 57815.700000 0 0 1
2.936651 -25.737298 5.300556 26.441035 -1.457187 1.368962 0.028691 -0.018045 -415166.000000 0 0 1
2.246651 -26.903318 4.903356 27.438639 -1.487481 1.391129 0.017848 -0.010754 -654802.000000 0 0 1
0.718251 -26.832268 4.931956 27.291220 -1.544035 1.389082 -0.000974 -0.010763 -223103.000000 0 0 1
0.218451 -26.802178 6.278156 27.528526 -1.562646 1.340712 0.003737 -0.011652 144518.000000 0 0 1
-1.195349 -26.662278 6.375356 27.439955 1.525993 1.336315 0.006098 -0.013980 656920.000000 0 0 1
-1.994249 -27.960708 6.606156 28.799645 1.499594 1.339352 0.004981 -0.008612 -426217.000000 0 0 1
-1.778949 -28.630388 7.797156 29.726410 1.508741 1.305394 0.002602 -0.015226 89911.300000 0 0 1
-2.342649 -29.955968 7.784856 31.039524 1.492752 1.317285 0.010193 -0.014103 -70025.000000 0 0 1
-2.140349 -30.728418 9.128556 32.127050 1.501255 1.282688 0.004505 -0.007441 -436151.000000 0 0 1
-0.886949 -31.295058 9.354256 32.675212 1.542462 1.280454 -0.004512 -0.002641 -542233.000000 0 0 1
-0.912949 -31.944618 10.657056 33.687757 1.542225 1.248919 -0.016831 0.006244 -40954.100000 0 0 1
0.443151 -32.219788 11.372156 34.170705 -1.557043 1.231521 -0.003391 -0.008850 88659.500000 0 0 1
1.215251 -33.257808 10.786556 34.984403 -1.534272 1.257365 -0.006072 -0.008819 712908.000000 0 0 1
2.604151 -33.195188 11.135556 35.109867 -1.492507 1.248060 0.006063 -0.003822 738736.000000 0 0 1
2.999451 -33.894598 12.420756 36.223138 -1.482533 1.220799 0.005831 -0.009429 -801627.000000 0 0 1
2.553651 -33.210368 13.579756 35.970258 -1.494054 1.183672 -0.012871 -0.005896 108890.000000 0 0 1
3.428551 -33.445938 14.668156 36.681611 -1.468643 1.159413 -0.006130 0.000675 -413651.000000 0 0 1
3.095951 -32.644988 15.979456 36.477708 -1.476242 1.117356 -0.010437 0.007582 -67294.300000 0 0 1
3.371751 -31.224838 15.958156 35.228142 -1.463230 1.100675 -0.002052 0.003534 -540528.000000 0 0 1
4.733751 -30.963718 16.057056 35.199280 -1.419090 1.097103 0.008398 0.009527 -793198.000000 0 0 1
5.120051 -29.692208 15.284556 33.785497 -1.400038 1.101342 0.025452 0.003547 -247919.000000 0 0 1
5.182151 -29.663618 13.890756 33.162299 -1.397844 1.138594 0.029587 -0.000336 576956.000000 0 0 1
3.945951 -29.832878 13.169256 32.848143 -1.439291 1.158283 0.018444 0.007042 -44608.200000 0 0 1
4.163351 -29.688868 11.596656 32.144126 -1.431472 1.201702 0.014243 0.004311 65743.600000 0 0 1
4.868651 -30.725118 10.930456 32.972891 -1.413645 1.232905 0.014890 -0.003166 197647.000000 0 0 1
6.223151 -30.849648 11.327456 33.447566 -1.371742 1.225301 0.021775 0.000597 -620529.000000 0 0 1
6.848551 -32.160798 10.878356 34.634639 -1.360983 1.251299 0.009253 0.000467 -354577.000000 0 0 1
6.571651 -33.294658 11.663656 35.885398 -1.375923 1.239758 0.002256 -0.005559 187532.000000 0 0 1
7.002551 34.390753 11.010556 36.783039 1.369925 1.266798 0.017281 -0.005877 -274869.000000 0 0 1
6.687251 33.052093 11.742956 35.707943 1.371167 1.235699 0.030703 -0.009855 754631.000000 0 0 1
5.313851 32.667499 11.931856 35.181980 1.409544 1.224787 0.013959 -0.015157 755950.000000 0 0 1
5.262851 31.508229 12.659156 34.361611 1.405293 1.193498 0.024375 -0.014241 18348.500000 0 0 1
3.960951 31.300669 13.453456 34.298928 1.444920 1.167729 0.012485 -0.017155 -6797.510000 0 0 1
3.955651 31.847189 14.756056 35.321832 1.447222 1.139818 0.036046 -0.013395 15728.200000 0 0 1
2.789751 31.511899 15.459256 35.210383 1.482496 1.116251 0.029454 -0.013167 -300304.000000 0 0 1
3.080751 31.552459 16.989656 35.968001 1.473466 1.078836 0.021060 -0.012849 -221821.000000 0 0 1
3.504751 32.839315 17.389956 37.324448 1.464475 1.086130 0.013995 -0.003516 444962.000000 0 0 1
3.971551 32.801549 18.782456 38.006519 1.450305 1.053893 0.009068 0.000788 90506.200000 0 0 1
4.382251 34.197604 19.309356 39.516218 1.443346 1.060262 0.008408 0.004578 644370.000000 0 0 1
3.249951 -33.823628 19.552556 39.203348 -1.475005 1.048644 -0.011543 0.010490 518733.000000 0 0 1
3.720251 -32.919148 20.525656 38.971954 -1.458262 1.016109 0.003466 0.000023 304071.000000 0 0 1
2.585951 -32.075528 21.126556 38.494909 -1.490350 0.989851 -0.014928 -0.000589 306119.000000 0 0 1
1.614651 -32.798058 21.868356 39.453070 -1.521606 0.983289 -0.008044 0.004532 327107.000000 0 0 1
0.593551 -31.946928 22.403756 39.024183 -1.552219 0.959293 -0.014482 0.009003 558772.000000 0 0 1
-0.542049 -32.749948 23.124756 40.094978 1.554247 0.956052 -0.022961 0.008040 -218229.000000 0 0 1
-1.451849 -33.260658 22.162856 39.994643 1.527173 0.983460 -0.030643 0.002641 429239.000000 0 0 1
-2.240249 -34.384855 22.720156 41.273993 1.505736 0.987867 -0.010097 -0.001047 23697.000000 0 0 1
-3.565649 -33.929908 23.296956 41.312234 1.466092 0.971667 0.020763 0.002369 -1402700.000000 0 0 1
-4.443549 -33.518208 22.317356 40.512712 1.438994 0.987387 0.017976 -0.005096 -835809.000000 0 0 1
-5.564549 -32.872038 22.885656 40.438699 1.403107 0.969230 0.028577 -0.000381 620642.000000 0 0 1
-6.722549 -32.592648 21.848656 39.810014 1.367389 0.989841 0.020129 -0.004595 442354.000000 0 0 1
-7.540249 -33.711988 21.595556 40.739681 1.350751 1.012094 0.009881 0.008326 -250274.000000 0 0 1
-8.628749 -33.210178 20.843056 40.147282 1.316595 1.024923 0.025794 -0.010906 327782.000000 0 0 1
-9.847149 -34.187325 20.682856 41.152401 1.290352 1.044202 0.060324 -0.014225 272060.000000 0 0 1
-10.448149 -34.257216 21.925856 41.993617 1.274767 1.021457 0.078052 -0.019076 -453111.000000 0 0 1
-11.692549 33.930517 21.837356 42.010306 -1.238938 1.024168 0.064491 -0.018570 -181156.000000 0 0 1
-12.176549 33.489520 23.220356 42.532355 -1.222064 0.993279 0.060886 -0.017159 -2789.930000 0 0 1
-12.390849 -34.313006 24.173056 43.763594 1.224256 0.985609 0.056751 -0.018515 888769.000000 0 0 1
-11.160849 -34.025472 24.874556 43.600927 1.253840 0.963675 0.044364 -0.019822 739152.000000 0 0 1
-11.081249 -32.544938 25.245556 42.653314 1.242618 0.937410 0.034561 -0.019430 -397178.000000 0 0 1
-11.916549 -32.333288 26.349756 43.379204 1.217689 0.917977 0.039877 -0.016546 51584.000000 0 0 1
-12.307549 -30.981808 26.415256 42.533681 1.192662 0.900723 0.040420 -0.018376 28217.800000 0 0 1
-13.192049 -30.719338 27.664756 43.394085 1.165173 0.879517 0.046817 -0.014622 200212.000000 0 0 1
-12.448049 -30.621448 28.855556 43.877901 1.184687 0.853124 0.027709 -0.004313 148436.000000 0 0 1
-13.308149 -30.143398 29.836156 44.451406 1.155038 0.834959 0.042267 -0.006726 -193942.000000 0 0 1
-12.535349 -29.725598 31.086256 44.800686 1.171722 0.803934 0.023410 -0.000920 -271144.000000 0 0 1
-13.357349 -28.965638 31.964356 45.156916 1.138713 0.784345 0.033597 0.001102 351897.000000 0 0 1
-12.859549 -28.771448 33.304556 45.851474 1.150477 0.757789 0.016696 0.006671 -216672.000000 0 0 1
-12.477649 -30.013048 34.203856 47.184516 1.176794 0.759913 0.015438 0.011806 556944.000000 0 0 1
-11.166549 -30.492348 33.829656 46.892652 1.219756 0.764935 0.006392 0.010479 634149.000000 0 0 1
-10.895949 -31.467618 -34.061744 47.635440 1.237458 2.367493 0.008423 0.016379 -648964.000000 0 0 1
-9.439949 -31.886968 -33.978244 47.543795 1.282973 2.366952 0.007390 0.008585 -1050500.000000 0 0 1
-8.579849 -30.894608 -33.538544 46.399618 1.299909 2.378670 0.018631 0.004057 -606895.000000 0 0 1
-7.305549 -31.504618 -33.425044 46.509629 1.342935 2.372683 0.033897 -0.004591 178173.000000 0 0 1
-6.419349 -30.704288 -32.426144 45.115587 1.364695 2.372777 0.042509 -0.000107 -41330.600000 0 0 1
-6.899849 -30.833118 -31.073344 44.315255 1.350643 2.347859 0.030506 -0.004746 67708.500000 0 0 1
-5.980949 -30.299238 -30.145744 43.157635 1.375906 2.344100 0.028110 -0.002598 76812.800000 0 0 1
-6.498249 -30.324908 -28.685944 42.245837 1.359701 2.317229 0.030711 -0.006045 -130687.000000 0 0 1
-6.384549 -31.663788 -28.154344 42.848863 1.371829 2.287711 0.024523 0.002051 24205.200000 0 0 1
-7.038349 -31.794058 -26.887744 42.229744 1.352937 2.261009 0.029507 0.003608 38739.000000 0 0 1
-6.650749 -33.058908 -26.169344 42.684405 1.372268 2.230761 0.030174 -0.002000 1198860.000000 0 0 1
-5.391249 -33.012818 -25.449444 42.030774 1.408918 2.221185 0.003232 -0.006674 844981.000000 0 0 1
-5.300149 -34.109505 -24.556844 42.362584 1.416643 2.189135 0.015519 -0.013573 -389542.000000 0 0 1
-4.419149 -33.845128 -23.329744 41.343664 1.440961 2.170367 0.019314 -0.021451 -225683.000000 0 0 1
-4.834849 -33.011628 -22.222844 40.087382 1.425371 2.158390 0.026632 -0.009887 -205657.000000 0 0 1
-5.157549 -31.674278 -22.495444 39.190627 1.409382 2.182179 0.014321 0.004931 -143332.000000 0 0 1
-5.425249 -30.967378 -21.210844 37.925081 1.397364 2.164317 0.029579 0.003178 -81842.900000 0 0 1
-6.764349 -31.032368 -20.742244 37.934219 1.356176 2.149328 0.037462 -0.001335 314845.000000 0 0 1
-7.413349 -29.753038 -20.476244 36.871095 1.326606 2.159576 0.044753 0.001853 317228.000000 0 0 1
-7.759949 -28.807498 -21.697744 36.890119 1.307669 2.199593 0.056049 -0.014333 -437331.000000 0 0 1
-6.589449 -28.439748 -22.408444 36.801882 1.343115 2.225462 0.052020 0.003070 -396536.000000 0 0 1
-6.793449 -27.463088 -23.356544 36.686514 1.328298 2.260945 0.064656 -0.016698 -1251430.000000 0 0 1
-5.821749 -27.519608 -24.556144 37.339334 1.362321 2.288489 0.053158 -0.013347 1305180.000000 0 0 1
-4.466549 -27.052078 -24.376544 36.687613 1.407163 2.297534 0.057386 -0.011818 1298530.000000 0 0 1
-3.724449 -27.618558 -23.280444 36.313019 1.436752 2.266733 0.036147 -0.003880 465860.000000 0 0 1
-2.164549 -27.276088 -23.202444 35.875112 1.491605 2.274120 0.034104 -0.005858 1106660.000000 0 0 1
-1.664249 -25.983478 -23.069044 34.786372 1.506833 2.295834 0.035873 -0.006162 -198535.000000 0 0 1
-2.045449 -25.127188 -22.016944 33.470962 1.489572 2.288680 0.053373 -0.015224 -983902.000000 0 0 1
-2.072249 -23.611498 -22.385244 32.602089 1.483256 2.327626 0.058834 -0.013442 333703.000000 0 0 1
-2.912549 -23.251898 -23.475444 33.169718 1.446185 2.357086 0.056469 -0.022422 1660180.000000 0 0 1
-4.342349 -23.468398 -23.232244 33.307040 1.387836 2.342724 0.071719 -0.024568 1173550.000000 0 0 1
-5.133649 -23.515798 -24.567944 34.393764 1.355862 2.366440 0.063184 -0.019614 -65817.200000 0 0 1
-5.239049 -22.348298 -25.340444 34.191113 1.340527 2.405565 0.067688 -0.025843 90689.200000 0 0 1
-5.742349 -22.609098 -26.641444 35.410626 1.322072 2.422430 0.062952 -0.024365 -85514.000000 0 0 1
-5.869449 -21.356498 -27.481844 35.295923 1.302586 2.463248 0.068136 -0.019634 -12015.800000 0 0 1
-6.075249 -21.525098 -28.882644 36.530065 1.295711 2.482673 0.067663 -0.024638 332597.000000 0 0 1
-4.964249 -22.053398 -29.591944 37.238143 1.349385 2.489256 0.053894 -0.026040 133807.000000 0 0 1
-5.353349 -22.168598 -31.086044 38.554471 1.333849 2.508648 0.055365 -0.033264 3850.490000 0 0 1
-5.723849 -21.012598 -31.796544 38.539745 1.304848 2.541056 0.053450 -0.036181 86897.900000 0 0 1
-6.648249 -21.389798 -32.811044 39.727664 1.269448 2.542591 0.054559 -0.032255 166815.000000 0 0 1
-6.623149 -20.365498 -34.022544 40.201407 1.256371 2.579802 0.048874 -0.024701 -324458.000000 0 0 1
-5.502049 -20.529698 33.994856 40.092285 1.308945 0.558756 0.046732 -0.022335 -967705.000000 0 0 1
-5.629749 -20.045198 32.704856 38.769984 1.296997 0.566916 0.054320 -0.011795 454262.000000 0 0 1
-4.363549 -20.154398 31.798856 37.899968 1.357581 0.575316 0.030189 -0.010635 -282571.000000 0 0 1
-4.171649 -21.491898 31.420856 38.295882 1.379077 0.608553 0.029618 -0.010360 197794.000000 0 0 1
-2.984749 -21.899698 30.763056 37.879693 1.435339 0.623011 0.026417 -0.002263 390099.000000 0 0 1
-1.634749 -21.815998 31.510656 38.360548 1.496003 0.606875 0.020160 -0.008724 -388616.000000 0 0 1
-1.014849 -20.566898 31.474756 37.612332 1.521493 0.579347 0.008552 -0.007943 -481571.000000 0 0 1
-0.140449 -20.355798 32.539156 38.381961 1.563897 0.559026 0.012647 -0.009494 -755202.000000 0 0 1
-0.774249 -20.066298 33.902556 39.403542 1.532231 0.534755 0.010047 -0.018474 -508991.000000 0 0 1
-1.580249 -18.934698 33.838156 38.807742 1.487531 0.511639 0.009462 -0.018366 -722926.000000 0 0 1
-2.241649 -18.759098 -33.797344 38.719365 1.451864 2.631869 0.018852 -0.027157 -234485.000000 0 0 1
-3.209049 -17.541198 -33.739844 38.162399 1.389854 2.655387 0.021138 -0.031488 -101464.000000 0 0 1
-2.722449 -16.248298 -33.902344 37.693340 1.404786 2.689249 0.021060 -0.029077 -667540.000000 0 0 1
-3.717949 -15.278898 -33.796444 37.275562 1.332097 2.706106 0.026013 -0.031170 -340908.000000 0 0 1
-3.230749 -13.855398 -34.252444 37.089618 1.341713 2.747916 0.014168 -0.029456 -6982.160000 0 0 1
-2.289649 -13.275798 -33.364444 35.981599 1.400009 2.757834 0.013849 -0.020229 31888.200000 0 0 1
-2.158749 -11.887098 -33.449244 35.564241 1.391150 2.794984 0.009924 -0.014775 -240159.000000 0 0 1
-1.497149 -11.205998 34.138256 35.961596 1.437980 0.319802 0.009409 -0.014442 -4316.680000 0 0 1
-2.256949 -11.317698 32.912256 34.876937 1.373961 0.337250 0.010956 -0.015598 256659.000000 0 0 1
-1.534649 -10.919398 31.788956 33.647082 1.431168 0.333886 0.019197 -0.009497 182281.000000 0 0 1
-0.531749 -11.919698 31.141856 33.349321 1.526215 0.365884 0.007040 -0.009052 262080.000000 0 0 1
-1.213449 -13.098598 30.693756 33.393898 1.478420 0.404898 0.022590 -0.011666 393124.000000 0 0 1
-0.274949 -14.030698 30.167456 33.271783 1.551203 0.435408 0.009314 -0.010672 60721.900000 0 0 1
-0.507349 -15.456798 30.601056 34.286946 1.537984 0.467941 0.014373 -0.016145 -583792.000000 0 0 1
-1.505449 -16.080998 29.904156 33.987107 1.477452 0.495213 0.021787 -0.018944 -706701.000000 0 0 1
-1.881649 -17.385198 30.429456 35.096119 1.462983 0.521582 0.020726 -0.010274 -125.666000 0 0 1
-2.376149 -18.358198 29.337856 34.689758 1.442079 0.562882 0.028921 -0.010855 -732675.000000 0 0 1
-3.653249 -18.079698 28.863056 34.253434 1.371417 0.568643 0.031708 -0.013187 -707974.000000 0 0 1
-4.320749 -18.942198 28.023156 34.099458 1.346532 0.606222 0.032320 -0.007845 -321317.000000 0 0 1
-3.705949 -19.227598 26.625856 33.051034 1.380390 0.634112 0.035895 -0.016000 -564125.000000 0 0 1
-4.467149 -19.939798 25.663056 32.804625 1.350404 0.672447 0.054328 -0.015983 -289958.000000 0 0 1
-4.431649 -21.317098 25.847056 33.795392 1.365824 0.700050 0.032626 -0.012952 -134901.000000 0 0 1
-28.840919 34.307902 -0.634944 44.824478 -0.871756 1.584962 0.019514 -0.019313 81060.700000 0 0 1
-28.129009 -33.396056 -0.173544 43.664262 0.870798 1.574771 0.028699 -0.008837 257147.000000 0 0 1
-28.605429 -33.013256 1.086756 43.695843 0.856810 1.545923 0.023046 -0.012814 33197.500000 0 0 1
-27.898079 -31.691956 1.475156 42.247591 0.848979 1.535872 0.030902 -0.012583 169070.000000 0 0 1
-26.491289 -31.789256 1.537356 41.409040 0.876054 1.533662 0.026446 -0.019278 -367644.000000 0 0 1
-25.908099 -30.528656 1.846456 40.082887 0.867087 1.524714 0.033163 -0.012965 -189625.000000 0 0 1
-24.385549 -30.640556 1.962356 39.209049 0.898586 1.520727 0.017900 -0.010863 -411177.000000 0 0 1
-24.029949 -31.126756 3.276356 39.459446 0.913361 1.487670 0.024671 -0.015992 690192.000000 0 0 1
-22.626949 -30.968356 3.540456 38.516914 0.939796 1.478747 0.028457 -0.013222 331603.000000 0 0 1
-22.229849 -31.600756 4.876356 38.942943 0.957752 1.445249 0.037637 -0.018502 -157445.000000 0 0 1
-22.680649 -30.974956 6.068156 38.867496 0.938768 1.414031 0.036834 -0.012948 -175461.000000 0 0 1
-22.005849 -31.587456 7.137356 39.153117 0.962313 1.387478 0.028400 -0.012409 -26724.300000 0 0 1
-22.392349 -31.106256 8.578856 39.276115 0.946861 1.350597 0.035166 -0.002870 76508.500000 0 0 1
-21.930049 -29.781756 8.829956 38.024310 0.936083 1.336438 0.039761 -0.001367 667271.000000 0 0 1
-22.650349 -29.274956 10.017656 38.345988 0.912292 1.306486 0.044461 -0.007176 486773.000000 0 0 1
-22.123749 -27.932456 10.582756 37.170917 0.900925 1.282097 0.049444 -0.002489 -27778.100000 0 0 1
-20.930749 -28.221456 11.265756 36.898023 0.932654 1.260520 0.042066 -0.000750 -447562.000000 0 0 1
-20.397449 -27.042456 11.926556 35.910905 0.924565 1.232251 0.049463 -0.002123 313589.000000 0 0 1
-19.037249 -27.304256 12.598256 35.590101 0.961934 1.208971 0.043397 -0.001738 -33723.000000 0 0 1
-19.124349 -28.258556 13.649056 36.750285 0.975836 1.190280 0.050370 -0.005267 -642743.000000 0 0 1
-17.888749 -28.491056 14.257256 36.537884 1.010134 1.169942 0.058699 -0.011161 -165797.000000 0 0 1
-18.031849 -29.539256 15.344356 37.857159 1.022738 1.153465 0.090167 -0.022522 107345.000000 0 0 1
-18.037549 -30.865656 14.863256 38.716382 1.041935 1.176779 0.090463 -0.029492 -114044.000000 0 0 1
-17.977449 -31.848956 15.902256 39.880150 1.056920 1.160642 0.108195 -0.034178 142485.000000 0 0 1
-17.859949 -33.245156 15.269056 40.710714 1.077818 1.186332 0.105599 -0.038570 92957.700000 0 0 1
-17.905249 -34.286056 16.243456 41.952133 1.089522 1.173214 0.109587 -0.034700 317732.000000 0 0 1
-17.337249 33.301902 15.810156 40.737672 -1.090798 1.172231 0.100037 -0.031704 35868.300000 0 0 1
-17.313949 32.287502 16.979756 40.380289 -1.078576 1.136804 0.092385 -0.029416 -744592.000000 0 0 1
-18.615149 31.920202 17.279056 40.792019 -1.042838 1.133393 0.097064 -0.028299 -461821.000000 0 0 1
-18.604349 30.905302 18.232756 40.418967 -1.028923 1.102805 0.069685 -0.018448 -25651.500000 0 0 1
-19.251449 31.306502 19.558056 41.632114 -1.019468 1.081751 0.059009 -0.025323 84760.500000 0 0 1
-18.425249 32.191202 20.323256 42.294184 -1.050941 1.069547 0.066780 -0.022301 589201.000000 0 0 1
-19.155449 32.758402 21.459056 43.595128 -1.041666 1.056141 0.057585 -0.024417 566185.000000 0 0 1
-18.355549 33.714902 22.381856 44.436114 -1.072236 1.042936 0.046668 -0.000429 -37618.400000 0 0 1
-17.224349 33.240602 23.063556 43.972075 -1.092717 1.018663 0.047753 -0.018145 -350306.000000 0 0 1
-16.994049 34.017602 24.194656 45.070792 -1.107496 1.004139 0.050269 -0.014618 -133580.000000 0 0 1
-17.671449 33.449602 25.467756 45.604414 -1.084765 0.978281 0.032503 -0.012565 1023.510000 0 0 1
-19.072449 33.556402 25.328856 46.166453 -1.053959 0.990057 0.008613 -0.014257 -321100.000000 0 0 1
-19.775849 32.599402 26.094156 46.202924 -1.025514 0.970638 0.003836 -0.005741 -1150720.000000 0 0 1
-21.237649 32.957802 25.940956 47.012633 -0.998376 0.986291 0.044552 -0.013455 -1194660.000000 0 0 1
-21.691149 32.576802 24.685656 46.272406 -0.983362 1.008080 0.022682 -0.013456 -909421.000000 0 0 1
-23.043649 32.749602 24.473756 46.930916 -0.957637 1.022206 -0.002297 -0.007756 -904353.000000 0 0 1
-23.624249 32.210202 23.165756 46.176341 -0.937978 1.045256 -0.014203 -0.007185 -111577.000000 0 0 1
-23.170149 32.894602 22.014056 45.864248 -0.957140 1.070161 -0.009702 -0.007401 97252.100000 0 0 1
-23.574449 32.288002 20.806956 45.068826 -0.940134 1.090919 -0.011509 -0.006010 -172381.000000 0 0 1
-23.400549 33.121702 19.563356 45.026189 -0.955720 1.121326 0.010413 -0.003378 -484872.000000 0 0 1
-22.072149 33.524002 19.401156 44.580750 -0.988540 1.120546 0.055536 -0.006808 -463483.000000 0 0 1
-21.789049 34.352902 18.305456 44.609127 -1.005558 1.147956 0.062071 -0.005348 -229088.000000 0 0 1
-20.344349 -33.998756 18.404556 43.686790 1.031565 1.135935 0.077870 -0.016761 -302121.000000 0 0 1
-20.301449 -32.908056 19.254756 43.195308 1.018033 1.108773 0.080499 -0.030466 490273.000000 0 0 1
-18.989849 -32.395356 19.430856 42.280393 1.040593 1.093284 0.089211 -0.028141 132115.000000 0 0 1
-18.927549 -31.291556 20.438456 41.894439 1.026798 1.061164 0.087989 -0.029307 -112619.000000 0 0 1
-19.715349 -30.163956 20.138756 41.281094 0.991890 1.061178 0.106360 -0.031254 320161.000000 0 0 1
-19.878249 -29.283156 21.258556 41.286489 0.974421 1.029901 0.116909 -0.028341 -4387.830000 0 0 1
-20.695649 -27.976556 21.050356 40.670813 0.933888 1.026777 0.091888 -0.016723 -237741.000000 0 0 1
-19.975349 -26.890656 20.489856 39.267749 0.931896 1.021838 0.086930 -0.012478 410559.000000 0 0 1
-20.689349 -25.663956 20.302756 38.715497 0.892308 1.018775 0.070066 0.001596 784941.000000 0 0 1
-21.898449 -25.447156 19.298456 38.723768 0.860212 1.049088 0.045281 0.000287 1082210.000000 0 0 1
-23.170849 -25.938756 19.674456 39.959874 0.841700 1.056003 0.036820 0.000940 -36956.800000 0 0 1
-24.123149 -25.804756 18.664856 39.952329 0.819066 1.084700 0.034218 0.001235 -152867.000000 0 0 1
-25.562599 -25.995956 19.214056 41.211845 0.793803 1.085776 0.014569 -0.001448 -23986.800000 0 0 1
-25.984389 -27.297756 19.634656 42.495596 0.810042 1.090502 0.001914 0.003195 -64067.100000 0 0 1
-26.217659 -28.233456 18.597556 42.782739 0.822402 1.121094 0.006214 -0.002762 -248757.000000 0 0 1
-27.133839 -29.413356 19.065656 44.327079 0.825688 1.126178 -0.001207 -0.003129 1367910.000000 0 0 1
-28.549789 -29.129756 19.239756 45.097687 0.795453 1.130040 -0.017197 -0.002330 1022470.000000 0 0 1
-29.286069 -29.551656 18.130956 45.383981 0.789912 1.159824 -0.011688 -0.002251 -387789.000000 0 0 1
-30.741239 -29.045556 18.187156 46.037384 0.757044 1.164672 -0.004413 -0.003858 -72527.900000 0 0 1
-30.941139 -27.715256 17.819356 45.199767 0.730457 1.165560 0.009561 0.001950 -541230.000000 0 0 1
-32.270129 -27.390356 18.071656 46.023663 0.703787 1.167274 0.009408 0.007919 -754122.000000 0 0 1
-32.653879 -26.029256 17.426456 45.249081 0.672986 1.175455 0.008387 0.001371 -409579.000000 0 0 1
-33.084809 -26.106356 16.142256 45.130021 0.668043 1.205010 0.028703 -0.005787 316286.000000 0 0 1
-33.762389 -24.892356 15.760356 44.809788 0.635311 1.211392 0.036240 -0.005225 -18641.500000 0 0 1
-32.817569 -23.775056 15.311456 43.320743 0.626955 1.209546 0.015682 0.004147 166238.000000 0 0 1
-31.883799 -23.260056 16.257956 42.684048 0.630268 1.180037 0.000236 0.006081 486888.000000 0 0 1
-31.153529 -22.138756 15.830456 41.367502 0.617827 1.178103 0.011641 0.005515 20720.800000 0 0 1
-31.865099 -20.831656 16.212156 41.378454 0.579004 1.168207 0.022472 -0.000892 -37733.900000 0 0 1
-32.073359 -20.617356 17.569456 41.981680 0.571310 1.139000 0.018556 0.000978 -133020.000000 0 0 1
-33.020429 -19.618556 17.711156 42.295644 0.536095 1.138732 0.018003 -0.002742 -338582.000000 0 0 1
-33.532749 -19.285156 19.148756 43.162916 0.521920 1.111141 0.005722 -0.007006 -380531.000000 0 0 1
-34.387244 -20.230356 19.704456 44.497364 0.531779 1.112052 0.009934 -0.003504 -159024.000000 0 0 1
-34.782333 -19.707756 20.919056 45.119987 0.515500 1.088707 0.012341 0.002551 -122507.000000 0 0 1
35.014865 -20.019756 21.362056 45.641744 -0.519389 1.083727 0.029597 0.000391 248808.000000 0 0 1
34.515745 -21.287156 21.714556 46.000017 -0.552636 1.079175 0.027664 -0.007011 249733.000000 0 0 1
35.197856 -21.922756 22.812356 47.327580 -0.557047 1.067849 0.022642 0.006006 -269853.000000 0 0 1
34.510205 -23.218556 23.163556 47.608885 -0.592239 1.062673 0.026682 0.007367 474012.000000 0 0 1
33.383435 -22.996756 24.034356 47.127007 -0.603215 1.035622 0.042957 -0.003988 595975.000000 0 0 1
32.734055 -24.197256 24.358456 47.437958 -0.636558 1.031561 0.032267 -0.011038 -141826.000000 0 0 1
31.946335 -24.018356 25.687456 47.511000 -0.644674 0.999571 0.045379 -0.012016 734845.000000 0 0 1
30.724095 -23.249656 25.524956 46.217311 -0.647791 0.985698 0.051782 -0.011505 912528.000000 0 0 1
29.919545 -23.426956 26.683356 46.432778 -0.664288 0.958600 0.040392 -0.008087 154195.000000 0 0 1
28.663315 -24.300056 26.443256 45.949147 -0.703201 0.957594 0.025966 -0.000046 -218535.000000 0 0 1
27.628435 -23.634656 25.759556 44.558749 -0.707648 0.954394 0.030452 -0.000266 -577254.000000 0 0 1
26.480975 -24.412056 25.571256 44.171027 -0.744768 0.953399 0.017315 0.013331 79740.700000 0 0 1
25.294035 -23.643656 24.935256 42.668228 -0.751687 0.946657 0.015523 0.007961 -332187.000000 0 0 1
25.497435 -23.011456 23.651456 41.701770 -0.734195 0.967746 0.020817 0.005385 -879775.000000 0 0 1
26.499335 -22.090756 23.546156 41.768860 -0.694916 0.971907 0.027196 0.008981 -857851.000000 0 0 1
26.546505 -21.378556 22.245756 40.701759 -0.677979 0.992551 0.033354 0.001719 614070.000000 0 0 1
25.532435 -20.358056 22.062556 39.409542 -0.673117 0.976618 0.033203 -0.002811 686251.000000 0 0 1
25.706035 -19.785556 20.786256 38.527093 -0.655981 1.000926 0.020477 -0.008932 384069.000000 0 0 1
24.829635 -18.473156 20.630056 37.193648 -0.639648 0.982835 0.017874 -0.003869 433626.000000 0 0 1
25.237235 -17.252656 21.319756 37.270687 -0.599647 0.961824 0.029229 -0.014365 94049.000000 0 0 1
25.108135 -17.301256 22.763856 38.051873 -0.603352 0.929503 0.030543 -0.006061 -222026.000000 0 0 1
25.313035 -15.942156 23.404956 37.982812 -0.562044 0.906889 0.055232 -0.005086 -788692.000000 0 0 1
24.239135 -15.084756 23.243856 36.815246 -0.556677 0.887484 0.028539 -0.006402 -688674.000000 0 0 1
24.415235 -13.900956 23.990556 36.944378 -0.517582 0.864041 0.036413 -0.002836 -377975.000000 0 0 1
23.119635 -13.131456 23.857356 35.722907 -0.516541 0.839487 0.032910 -0.004387 337260.000000 0 0 1
21.962435 -13.770756 24.421056 35.614186 -0.560046 0.815216 0.042127 -0.007914 240830.000000 0 0 1
20.783435 -13.070456 24.177956 34.458113 -0.561390 0.793069 0.041534 -0.008343 -254424.000000 0 0 1
19.464935 -13.702356 24.661556 34.275802 -0.613373 0.767709 0.049990 -0.005921 -38372.400000 0 0 1
19.159835 -14.834856 23.888056 34.026628 -0.658853 0.792538 0.047158 -0.013284 421057.000000 0 0 1
17.941735 -15.433856 24.346856 33.954074 -0.710398 0.771232 0.051162 -0.014091 620092.000000 0 0 1
17.256135 -16.528756 23.497156 33.512539 -0.763872 0.793794 0.043332 -0.009692 -12924.000000 0 0 1
17.922135 -17.753356 23.602556 34.546566 -0.780667 0.818647 0.035845 -0.013500 37366.400000 0 0 1
17.438635 -18.742056 22.709256 34.221060 -0.821408 0.845169 0.034428 -0.004916 -4567.180000 0 0 1
17.803835 -20.176356 23.197556 35.527292 -0.847784 0.859323 0.018462 -0.002168 261741.000000 0 0 1
17.010235 -20.720656 24.311856 36.190607 -0.883422 0.834197 0.012359 -0.004314 566700.000000 0 0 1
17.229535 -22.057156 24.744656 37.358707 -0.907667 0.846841 0.019448 0.002032 -495089.000000 0 0 1
16.807935 -23.147956 23.725356 37.164863 -0.942762 0.878403 0.009143 0.007121 -158074.000000 0 0 1
17.569235 -23.298456 22.544056 36.874524 -0.924680 0.913003 0.013034 0.004886 392024.000000 0 0 1
18.782535 -24.033756 22.806056 38.085709 -0.907434 0.928783 0.015862 0.001979 535439.000000 0 0 1
19.791735 -23.988156 21.647856 37.891609 -0.880959 0.962695 0.011751 0.014006 -314095.000000 0 0 1
19.363635 -24.837956 20.588956 37.626846 -0.908620 0.991795 0.013792 -0.000398 -178373.000000 0 0 1
20.285935 -25.136456 19.603256 37.784232 -0.891782 1.025325 0.012161 -0.003418 -550789.000000 0 0 1
19.535335 -25.762256 18.437856 37.219318 -0.922009 1.052519 0.012866 -0.011054 71405.500000 0 0 1
18.894235 -26.961056 18.755456 37.890075 -0.959535 1.052965 0.033732 -0.015653 -91278.500000 0 0 1
18.299835 -27.579756 17.652256 37.511718 -0.984972 1.080849 0.039228 -0.021588 -163409.000000 0 0 1
17.468335 -28.860356 18.001556 38.237663 -1.026510 1.080621 0.045615 -0.017917 13552.700000 0 0 1
16.350735 -28.595756 18.796556 37.925905 -1.051379 1.052256 0.054131 -0.018980 -355940.000000 0 0 1
15.600235 -29.722656 19.151856 38.647085 -1.087459 1.052320 0.062983 -0.023093 945322.000000 0 0 1
14.243835 -29.403856 19.918156 38.264951 -1.119690 1.023322 0.050699 -0.012530 1031180.000000 0 0 1
13.299235 -28.827356 19.030656 37.014213 -1.138552 1.030786 0.057370 -0.009789 -609130.000000 0 0 1
12.104335 -28.579756 19.710056 36.766883 -1.170173 1.005008 0.038081 -0.006533 376195.000000 0 0 1
10.966135 -28.012656 18.757356 35.451423 -1.197664 1.013256 0.056753 -0.010685 316936.000000 0 0 1
10.578135 -28.970856 17.784856 35.602086 -1.220707 1.047722 0.053009 -0.015806 -276319.000000 0 0 1
9.815235 -28.381156 16.786756 34.403837 -1.237836 1.061077 0.075488 -0.015138 -273537.000000 0 0 1
9.754135 -29.229956 15.524156 34.504099 -1.248713 1.104118 0.053626 -0.014626 53227.200000 0 0 1
8.808735 -30.263456 15.602956 35.169913 -1.287554 1.111135 0.037307 -0.004106 79278.200000 0 0 1
9.131335 -31.163056 14.537556 35.578896 -1.285757 1.149876 0.035108 -0.003498 561000.000000 0 0 1
8.084035 -32.338256 14.352156 36.291856 -1.325833 1.164222 0.021634 -0.008001 195381.000000 0 0 1
7.926935 -33.201856 15.483156 37.482364 -1.336434 1.144965 0.025501 -0.008738 -182676.000000 0 0 1
7.011135 -34.205156 15.163156 38.066652 -1.368624 1.161099 0.012140 -0.006445 -448265.000000 0 0 1
6.952235 33.399602 16.083856 37.716805 1.365574 1.130246 0.022887 -0.008549 115177.000000 0 0 1
8.166135 32.688902 15.997556 37.298416 1.325993 1.127514 0.039755 -0.015195 -98928.400000 0 0 1
8.084835 31.664702 16.997256 36.836457 1.320811 1.091196 0.044716 -0.019674 300337.000000 0 0 1
9.378635 30.826102 17.238556 36.542785 1.275451 1.079537 0.053203 -0.020904 118443.000000 0 0 1
9.746635 29.976702 16.207456 35.444057 1.256438 1.095875 0.067894 -0.016060 694315.000000 0 0 1
11.008135 29.351402 16.537856 35.442693 1.211985 1.085344 0.078153 -0.023144 646318.000000 0 0 1
11.649235 28.459302 15.421056 34.401242 1.182273 1.105967 0.073601 -0.015617 -451410.000000 0 0 1
10.985635 27.373002 14.940456 33.063312 1.189143 1.101931 0.071343 -0.014625 -789793.000000 0 0 1
11.790135 26.703502 14.043856 32.393119 1.155017 1.122374 0.068736 -0.009455 -195045.000000 0 0 1
-9.342949 -9.420198 19.121357 23.273528 0.789515 0.606597 0.022561 -0.022856 72655.800000 0 1 0
-9.616349 -9.616598 17.740957 22.353851 0.785411 0.654024 0.031177 -0.026707 -57793.300000 0 1 0
-9.337849 -10.897098 17.284857 22.465717 0.862303 0.692914 0.022690 -0.027792 -156847.000000 0 1 0
-9.717949 -11.233598 15.824357 21.703514 0.857613 0.753768 0.030440 -0.019694 1214660.000000 0 1 0
-11.170149 -11.258098 15.730857 22.337790 0.789320 0.789464 0.040893 -0.014110 1518340.000000 0 1 0
-11.716849 -11.780198 14.513057 22.060971 0.788094 0.852821 0.048078 -0.008641 193955.000000 0 1 0
-11.640549 -13.319298 14.385357 22.800100 0.852555 0.888040 0.034831 -0.007376 -639356.000000 0 1 0
-10.330949 -13.736898 14.082057 22.220153 0.925979 0.884403 0.025038 -0.002069 -142721.000000 0 1 0
-9.957049 -15.044398 14.539757 23.170699 0.986140 0.892450 0.016059 0.000550 115734.000000 0 1 0
-9.487049 -15.174398 15.984257 23.995060 1.012052 0.841765 0.016490 -0.003023 -832189.000000 0 1 0
-10.493249 -14.957198 16.894957 24.885048 0.959030 0.824506 0.049872 -0.006977 -1130990.000000 0 1 0
-10.078849 -14.904498 18.256157 25.632295 0.976203 0.778123 0.032935 -0.001667 -708006.000000 0 0 1
-11.220549 -14.438298 19.193657 26.509652 0.910152 0.761176 0.038319 -0.012504 -181962.000000 0 0 1
-11.793949 -13.184598 18.824457 25.831977 0.841015 0.754335 0.038071 -0.011680 778993.000000 0 0 1
-12.821249 -13.253798 17.788557 25.621872 0.801985 0.803388 0.046960 -0.022591 416807.000000 0 0 1
-14.243649 -13.610298 18.308957 26.894974 0.762664 0.822000 0.034692 -0.016146 -71378.500000 0 0 1
-14.469849 -14.980198 18.599857 27.923781 0.802726 0.841837 0.033684 -0.009944 -123036.000000 0 0 1
-15.244349 -15.092298 19.784857 29.182327 0.780386 0.825793 0.034153 -0.001038 98534.400000 0 0 1
-15.857849 -16.494698 19.995157 30.386720 0.805080 0.852606 0.040750 -0.000613 454559.000000 0 0 1
-16.993849 -16.810598 19.173757 30.643434 0.779977 0.894761 0.042892 0.007225 315881.000000 0 0 1
-17.422049 -18.088098 19.537957 31.818844 0.804153 0.909631 0.030160 0.005395 -448420.000000 0 0 1
-18.717049 -18.553998 18.888457 32.424567 0.781023 0.948952 0.040193 0.005053 -513882.000000 0 0 1
-18.628049 -18.664498 17.468757 31.631079 0.786376 0.985717 0.046107 0.002012 26867.600000 0 0 1
-19.183049 -17.580498 16.765557 30.953953 0.741835 0.998423 0.040624 -0.004112 -656839.000000 0 0 1
-18.874749 -17.671298 15.254257 30.020381 0.752480 1.037784 0.048416 -0.015672 -254611.000000 0 0 1
-19.560349 -18.710898 14.603357 30.756511 0.763206 1.076053 0.048080 -0.019278 -87336.400000 0 0 1
-19.348149 -18.618098 13.234957 29.935740 0.766172 1.112844 0.063900 -0.022276 194582.000000 0 0 1
-19.417449 -19.999798 12.531157 30.562381 0.800171 1.148321 0.048691 -0.014387 -1275.920000 0 0 1
-18.360149 -20.798498 13.023557 30.647767 0.847586 1.131897 0.055197 -0.006032 6622.840000 0 0 1
-18.492049 -22.123698 12.515857 31.433431 0.874576 1.161275 0.046163 -0.004490 -110706.000000 0 0 1
-17.228349 -22.649498 11.777557 30.798159 0.920514 1.178392 0.048953 -0.006552 108324.000000 0 0 1
-17.317249 -24.039898 11.568857 31.806324 0.946540 1.198529 0.048453 -0.005820 -118872.000000 0 0 1
-16.303449 -24.276098 10.637357 31.117274 0.979397 1.221914 0.041966 -0.003722 -192003.000000 0 0 1
-16.414949 -25.666458 9.990457 32.062858 1.001803 1.253931 0.030902 -0.006493 71110.100000 0 0 1
-17.649649 -25.665928 9.281457 32.502237 0.968395 1.281202 0.031487 -0.003659 -30692.400000 0 0 1
-17.761949 -26.738008 8.333657 33.164103 0.984437 1.316788 0.040754 -0.002186 721220.000000 0 0 1
-18.965149 -26.719538 7.311157 33.571768 0.953533 1.351260 0.026350 -0.006493 770692.000000 0 0 1
-18.923949 -25.531648 6.509957 32.440106 0.932954 1.368748 0.033581 -0.009682 35470.000000 0 0 1
-19.967249 -25.509248 5.547957 32.866284 0.906665 1.401180 0.039251 -0.008817 195781.000000 0 0 1
-20.142849 -24.140098 4.818357 31.807158 0.875420 1.418724 0.044837 -0.012145 23617.300000 0 0 1
-21.015549 -24.160598 3.704657 32.235265 0.854904 1.455616 0.038737 -0.014915 -112407.000000 0 0 1
-21.113749 -22.953898 3.057057 31.337158 0.827131 1.473087 0.044073 -0.013883 162473.000000 0 0 1
-21.893949 -23.064698 1.715257 31.847565 0.811433 1.516912 0.020902 -0.007198 -114830.000000 0 0 1
-21.277549 -23.885098 0.791457 31.997788 0.843071 1.546059 0.009836 -0.015229 -96059.400000 0 0 1
-21.859249 -23.695998 -0.502543 32.242513 0.825696 1.586383 -0.005787 -0.008962 351084.000000 0 0 1
-20.989049 -24.362698 -1.639343 32.198893 0.859650 1.621731 -0.002672 -0.003271 -191593.000000 0 0 1
-19.654549 -23.953998 -1.756943 31.035177 0.883672 1.627438 0.013912 -0.007080 -220985.000000 0 0 1
-19.022149 -24.288898 -3.000143 30.996671 0.906407 1.667737 0.012187 -0.001209 283006.000000 0 0 1
-18.703849 -25.746198 -3.361343 31.999989 0.942525 1.676032 0.005285 0.007879 -862894.000000 0 0 1
-19.880449 -26.447018 -3.591143 33.280225 0.926203 1.678913 0.014208 0.002844 -997614.000000 0 0 1
-19.682949 -27.664798 -4.209643 34.212288 0.952407 1.694154 0.021768 -0.009850 -1040940.000000 0 0 1
-20.953749 -28.341018 -4.650443 35.551365 0.934150 1.701981 0.024925 -0.013280 -505654.000000 0 0 1
-21.376949 -27.975368 -5.956143 35.708134 0.918310 1.738380 0.018452 -0.003368 -35512.900000 0 0 1
-22.289249 -28.932338 -6.504243 37.097116 0.914371 1.747037 0.025128 -0.016655 -239094.000000 0 0 1
-22.846049 -28.574408 -7.869743 37.421540 0.896343 1.782678 0.015834 0.001998 -472503.000000 0 0 1
-21.841949 -28.497248 -8.880943 36.986958 0.916845 1.813276 0.043095 -0.001465 153370.000000 0 0 1
-22.289649 -28.456438 -10.230843 37.566840 0.906328 1.846617 0.038971 0.002301 -242534.000000 0 0 1
-22.964349 -27.153628 -10.676043 37.130294 0.868793 1.862442 0.018973 0.012241 403558.000000 0 0 1
-22.109349 -26.017028 -11.035843 35.881735 0.866417 1.883426 0.016644 0.021401 558613.000000 0 0 1
-21.695449 -25.240118 -9.904043 34.725296 0.860777 1.860023 0.001781 0.021409 120584.000000 0 0 1
-21.443449 -23.718798 -10.210243 33.565637 0.835737 1.879882 0.010543 0.018370 1095750.000000 0 0 1
-22.657249 -23.034898 -10.625243 34.012546 0.793663 1.888506 0.007136 0.022384 937123.000000 0 0 1
-22.467749 -21.656898 -10.739443 33.002373 0.767024 1.902246 0.021316 0.023210 1556030.000000 0 0 1
-23.861549 -20.888998 -10.943943 33.548378 0.719071 1.903092 0.031911 0.013388 1367890.000000 0 0 1
-24.563349 -21.007298 -12.154043 34.530935 0.707522 1.930477 0.024665 0.013322 728899.000000 0 0 1
-25.745529 -20.213398 -12.368243 34.991244 0.665603 1.932071 0.029944 -0.000297 571995.000000 0 0 1
-25.708139 -18.615398 -12.361943 34.062576 0.626721 1.942194 0.029686 -0.004722 -590265.000000 0 0 1
-24.942249 -18.108098 -13.485343 33.643328 0.627964 1.983222 0.039713 -0.001447 536964.000000 0 0 1
-24.634549 -16.706398 -13.455543 32.665217 0.595924 1.995359 0.043388 -0.013137 343917.000000 0 0 1
-23.548949 -16.281698 -12.413543 31.204851 0.604930 1.979923 0.027581 -0.010204 25408.900000 0 0 1
-24.019249 -16.576998 -11.083143 31.217900 0.604088 1.933737 0.042127 -0.010689 752032.000000 0 0 1
-22.922249 -16.482398 -10.177443 30.011320 0.623402 1.916778 0.045562 -0.007419 489684.000000 0 0 1
-23.432849 -16.884498 -8.777243 30.186499 0.624384 1.865825 0.021917 -0.007228 275401.000000 0 0 1
-23.629949 -18.270898 -8.640143 31.094249 0.658190 1.852372 0.010823 0.002112 -134933.000000 0 0 1
-24.420649 -18.447698 -7.494243 31.509512 0.646957 1.810938 0.007390 0.009358 101657.000000 0 0 1
-24.613649 -19.892798 -7.030443 32.418857 0.679722 1.789396 -0.001039 0.016843 234226.000000 0 0 1
-25.183169 -20.775098 -8.023043 33.617941 0.689776 1.811776 -0.003326 -0.000507 161788.000000 0 0 1
-25.260949 -22.119798 -7.493443 34.402801 0.719199 1.790371 -0.006933 0.011272 131317.000000 0 0 1
-25.688909 -23.137298 -8.630043 35.633303 0.733187 1.815419 -0.020118 0.021248 228372.000000 0 0 1
-26.116719 -24.391998 -8.127843 36.648526 0.751264 1.794434 -0.024071 0.014638 -332140.000000 0 0 1
-25.944359 -25.379758 -9.131543 37.424951 0.774398 1.817281 -0.023334 0.018355 266839.000000 0 0 1
-26.560259 -26.729118 -8.649143 38.661361 0.788567 1.796421 -0.030416 0.005734 -133400.000000 0 0 1
-25.913939 -27.214588 -7.502843 38.320474 0.809874 1.767861 -0.014075 -0.010026 -110141.000000 0 0 1
-26.468729 -28.459718 -7.091143 39.507385 0.821629 1.751263 0.003892 -0.014889 -227766.000000 0 0 1
-25.840769 -29.125248 -5.868543 39.375947 0.845082 1.720392 0.009631 -0.014880 -649805.000000 0 0 1
-25.895649 -28.230128 -4.765643 38.603577 0.828502 1.694563 -0.001654 -0.015113 318903.000000 0 0 1
-25.098399 -28.540388 -3.602743 38.176736 0.849480 1.665307 -0.001544 -0.012846 74618.600000 0 0 1
-25.617699 -29.651018 -2.737643 39.280327 0.858246 1.640548 0.004561 -0.014433 -351622.000000 0 0 1
-25.354219 -30.902278 -3.307943 40.108973 0.883701 1.653364 0.015815 -0.021513 -39150.100000 0 0 1
-25.854659 -31.899708 -2.444943 41.134323 0.889687 1.630269 0.018862 -0.021675 -264921.000000 0 0 1
-24.958249 -32.352618 -1.292143 40.881239 0.913711 1.602409 0.015138 -0.022679 468987.000000 0 0 1
-23.648049 -32.739548 -1.757643 40.425209 0.945255 1.614289 0.014740 -0.020477 754068.000000 0 0 1
-22.718349 -32.911818 -0.683943 39.997237 0.966624 1.587897 0.033986 -0.016103 639386.000000 0 0 1
-21.658049 -31.739018 -0.646743 38.429867 0.971994 1.587626 0.032320 -0.015602 -38945.800000 0 0 1
-22.176849 -30.458648 -0.288343 37.677912 0.941461 1.578449 0.015844 -0.014452 -274942.000000 0 0 1
-21.794649 -29.428718 -1.147643 36.638413 0.933344 1.602125 0.003717 -0.012777 -19460.600000 0 0 1
-22.467049 -28.134748 -0.649143 36.010467 0.896939 1.588824 0.007304 -0.014102 95437.400000 0 0 1
-23.864249 -28.244418 -0.437443 36.978925 0.869259 1.582626 0.000163 -0.014277 84739.800000 0 0 1
-24.537649 -27.032978 -0.071743 36.508674 0.833747 1.572761 0.008196 -0.009335 207979.000000 0 0 1
-24.092549 -26.234158 1.161157 35.637484 0.827927 1.538208 0.010786 -0.007107 -420267.000000 0 0 1
-24.139949 -26.987848 2.353157 36.285237 0.841042 1.505899 0.014289 -0.004841 -249113.000000 0 0 1
-23.725649 -26.231488 3.463557 35.538622 0.835516 1.473182 0.030462 -0.008052 -118343.000000 0 0 1
-24.611749 -25.100938 4.023357 35.383367 0.795238 1.456842 0.044472 -0.010951 -211709.000000 0 0 1
-24.787249 -23.956698 3.156357 34.616379 0.768361 1.479488 0.035547 -0.016058 -168960.000000 0 0 1
-25.669969 -22.986198 3.681657 34.653531 0.730296 1.464354 0.039089 -0.008626 -101225.000000 0 0 1
-25.933649 -21.797498 2.748857 33.988841 0.698959 1.489833 0.035346 -0.006868 737148.000000 0 0 1
-24.763449 -20.965298 2.739457 32.561891 0.702530 1.486566 0.026814 -0.003967 550863.000000 0 0 1
-24.916849 -19.993798 1.736457 31.994009 0.676215 1.516495 0.017695 -0.003741 -440412.000000 0 0 1
-23.705949 -19.091798 1.669757 30.483715 0.678000 1.515994 0.036709 -0.002582 -660246.000000 0 0 1
-22.534749 -19.817898 1.375557 30.040908 0.721338 1.524991 0.031186 -0.006544 -411957.000000 0 0 1
-21.450249 -18.966898 1.628557 28.679411 0.724032 1.513981 0.038168 -0.001227 -166590.000000 0 0 1
-19.996649 -19.451198 1.464357 27.934914 0.771572 1.518352 0.033289 -0.009791 -2492.980000 0 0 1
-19.626049 -19.586398 0.149457 27.727804 0.784387 1.565406 0.020702 -0.009560 -420817.000000 0 0 1
-18.508549 -20.418398 0.036057 27.558641 0.834421 1.569488 0.040772 -0.012339 -227358.000000 0 0 1
-18.275749 -20.969198 -1.399043 27.850810 0.853922 1.621051 0.045680 -0.009152 -87677.500000 0 0 1
-17.793749 -19.949498 -2.186943 26.821311 0.842452 1.652424 0.041549 -0.011071 -206295.000000 0 0 1
-17.693849 -20.335998 -3.525343 27.185532 0.854762 1.700840 0.041771 -0.003531 -207449.000000 0 0 1
-16.910949 -19.392698 -4.409843 26.105625 0.853653 1.740533 0.047931 -0.001129 480262.000000 0 0 1
-15.495349 -19.419798 -4.205743 25.197672 0.897328 1.738491 0.065885 -0.007676 636498.000000 0 0 1
-14.859349 -18.416198 -5.038643 24.193895 0.891885 1.780593 0.068124 -0.007375 172440.000000 0 1 0
-13.359349 -18.238898 -4.750443 23.101869 0.938613 1.777904 0.074206 -0.015324 101026.000000 0 1 0
-12.558249 -19.375398 -5.026343 23.630062 0.995720 1.785144 0.048118 -0.014068 76572.100000 0 1 0
-11.243849 -19.095798 -5.450943 22.820746 1.038643 1.811987 0.040213 -0.018147 591104.000000 0 1 0
-10.269049 -20.290998 -5.645543 23.431819 1.102289 1.814125 0.034832 -0.018138 523989.000000 0 1 0
-10.723049 -21.122598 -6.699443 24.617686 1.101041 1.846412 0.041247 -0.013258 -155884.000000 0 1 0
-9.788149 -22.170898 -6.931343 25.207144 1.155045 1.849360 0.044509 -0.010118 178546.000000 0 0 1
-10.238549 -23.284998 -7.914343 26.639367 1.156536 1.872442 0.042711 -0.007225 -209855.000000 0 0 1
-10.467049 -22.835598 -9.265043 26.774329 1.141008 1.924146 0.034797 -0.006794 -183797.000000 0 0 1
-10.699949 -23.973398 -10.061343 28.114825 1.151002 1.936778 0.039915 -0.003609 83161.800000 0 0 1
-11.369249 -23.674798 -11.459243 28.654322 1.123093 1.982219 0.047690 -0.001065 -155176.000000 0 0 1
-10.660649 -22.896198 -12.376143 28.125687 1.135039 2.026428 0.032677 0.009094 -837805.000000 0 0 1
-11.462849 -22.492798 -13.455843 28.607387 1.099480 2.060498 0.033733 0.000000 -387915.000000 0 0 1
-10.939849 -21.303898 -14.299643 27.892941 1.096396 2.109078 0.034846 0.005669 -315031.000000 0 0 1
-10.901949 -20.143898 -13.441543 26.557564 1.074732 2.101486 0.033866 0.005580 -199102.000000 0 0 1
-10.761049 -18.958198 -14.283143 26.061881 1.054526 2.150824 0.025493 0.022853 188219.000000 0 0 1
-10.241149 -17.759698 -13.392843 24.487880 1.047722 2.149474 0.038266 0.023416 747891.000000 0 1 0
-11.295449 -17.182398 -12.573343 24.102094 0.989247 2.119604 0.039180 0.008300 961496.000000 0 1 0
-10.818649 -15.963898 -11.944043 22.683681 0.975198 2.125331 0.038907 0.005473 404601.000000 0 1 0
-10.608049 -14.664698 -12.749643 22.139049 0.944555 2.184488 0.048261 0.011272 170989.000000 0 1 0
-11.834149 -14.114398 -13.164343 22.639860 0.873049 2.191328 0.053900 0.015922 30541.400000 0 1 0
-11.708849 -13.915598 -14.577743 23.307759 0.871305 2.246499 0.056655 0.012428 1047050.000000 0 1 0
-13.055749 -13.289198 -15.151143 24.012757 0.794259 2.253589 0.065234 0.013751 879145.000000 0 1 0
-13.252349 -12.017598 -14.595743 23.088593 0.736575 2.255137 0.061128 0.011919 580101.000000 0 1 0
-14.243349 -11.282798 -15.366743 23.797297 0.669933 2.272782 0.050651 0.001083 473929.000000 0 1 0
-14.239749 -9.872398 -14.719043 22.735104 0.606214 2.274984 0.038271 -0.005266 -149292.000000 0 1 0
-13.092349 -9.091298 -14.896643 21.816766 0.606956 2.322394 0.030198 0.008037 -122783.000000 0 1 0
-13.097749 -8.279198 -16.067143 22.321497 0.563695 2.374319 0.024229 0.001027 -684486.000000 0 1 0
-12.203549 -7.055498 -15.977343 21.306857 0.524199 2.418660 0.023999 0.003870 -627097.000000 0 1 0
-10.883249 -7.529198 -16.063043 20.812383 0.605212 2.452467 0.018357 0.001518 -499854.000000 0 1 0
-9.981449 -6.454398 -16.068843 19.987404 0.574009 2.504702 0.013822 0.009621 -35248.200000 0 1 0
11.249751 22.223102 15.966157 29.586167 1.102186 1.000776 0.078411 -0.015445 -45764.300000 0 0 1
12.129251 22.070702 17.067357 30.422512 1.068288 0.975190 0.083985 -0.020981 33358.400000 0 0 1
12.510451 20.756702 17.285757 29.768262 1.028380 0.951236 0.066230 -0.014877 -510736.000000 0 0 1
13.738651 20.602402 18.166957 30.712339 0.982669 0.937854 0.062601 -0.012109 -115350.000000 0 0 1
14.965351 21.118202 17.668357 31.338650 0.954291 0.971831 0.049249 -0.005693 -112977.000000 0 0 1
15.986751 20.863902 18.599957 32.199953 0.916983 0.954963 0.033483 -0.008037 -144449.000000 0 0 1
17.352651 21.359602 18.083157 32.929434 0.888537 0.989451 0.015676 0.000806 -1298350.000000 0 0 1
17.549251 22.667802 18.181457 33.946588 0.911991 1.005590 0.019263 0.000608 443228.000000 0 0 1
18.814751 23.116702 17.673557 34.651571 0.887635 1.035569 0.014899 0.004148 630522.000000 0 0 1
20.065551 22.780802 18.496157 35.548545 0.848685 1.023586 -0.005463 0.005622 -1078680.000000 0 0 1
20.373851 21.461602 18.375257 34.833091 0.811393 1.015114 0.004120 0.008823 -181145.000000 0 0 1
21.393151 20.958502 19.222457 35.586915 0.775136 1.000175 0.007081 0.003322 64623.100000 0 0 1
21.817251 19.526902 18.880957 34.839387 0.730058 0.998049 0.007925 0.004282 -57934.100000 0 0 1
22.159251 19.402602 17.537457 34.279086 0.719169 1.033741 -0.008046 0.002347 181127.000000 0 0 1
21.693251 18.180002 16.897857 32.964332 0.697515 1.032574 -0.007451 0.005839 -190925.000000 0 0 1
22.305051 16.870602 17.375757 32.924906 0.647558 1.014860 -0.005848 0.007045 711269.000000 0 0 1
23.667751 16.761702 16.936357 33.585075 0.616214 1.042246 -0.007209 0.004821 724130.000000 0 0 1
24.412251 15.687302 17.432757 33.851890 0.571155 1.029822 -0.013419 0.006142 -608184.000000 0 0 1
25.773551 15.502002 16.792157 34.446546 0.541499 1.061590 0.041581 -0.009522 -666976.000000 0 0 1
26.755051 16.537202 17.073757 35.788615 0.553620 1.073476 0.021614 -0.003507 1745960.000000 0 0 1
28.041751 16.058802 17.525357 36.760890 0.520085 1.073855 0.030469 -0.010648 1265700.000000 0 0 1
28.903451 15.252602 16.500657 36.610422 0.485568 1.103237 0.034470 -0.013040 -651275.000000 0 0 1
29.435451 16.010702 15.411257 36.882180 0.498168 1.139718 0.064939 -0.021860 154677.000000 0 0 1
29.862951 15.011902 14.492457 36.430541 0.465800 1.161667 0.079558 -0.021600 -173083.000000 0 0 1
28.928951 14.902602 13.260857 35.140035 0.475690 1.183840 0.059496 -0.009727 -149109.000000 0 0 1
28.990251 16.001402 12.355757 35.343235 0.504345 1.213659 0.061619 -0.017590 79233.200000 0 0 1
28.290051 15.764702 11.115857 34.240547 0.508394 1.240165 0.042313 -0.011806 792303.000000 0 0 1
26.832251 16.346602 11.194457 33.354114 0.547167 1.228528 0.030274 -0.010838 22296.900000 0 0 1
26.746051 17.776002 11.079057 33.971797 0.586585 1.238595 -0.004457 0.006551 74415.200000 0 0 1
27.345551 18.541702 12.098157 35.184361 0.595843 1.219782 -0.006218 -0.005220 -900813.000000 0 0 1
26.847551 18.416802 13.524857 35.254664 0.601252 1.177069 -0.004638 -0.005543 -589675.000000 0 0 1
25.658451 19.124902 13.719457 34.818694 0.640528 1.165789 -0.012922 0.009454 -426763.000000 0 0 1
25.065651 18.936902 14.979757 34.803537 0.647007 1.125850 -0.014938 0.012139 193432.000000 0 0 1
25.847351 19.616502 16.183157 36.259995 0.649196 1.108160 0.004160 0.004877 252150.000000 0 0 1
25.891251 21.054902 16.192857 37.092781 0.682741 1.119036 -0.006508 0.005397 -487729.000000 0 0 1
24.661251 21.636002 16.486557 36.716487 0.720147 1.105124 -0.005949 0.008822 -563177.000000 0 0 1
24.631751 23.165402 16.373857 37.569431 0.754729 1.119837 -0.003495 0.013061 -157939.000000 0 0 1
24.428651 23.569602 15.051557 37.132660 0.767503 1.153440 0.009638 0.005586 89410.700000 0 0 1
24.487751 24.919702 14.954157 38.003530 0.794141 1.166367 0.004204 0.010138 -340261.000000 0 0 1
24.345251 25.421102 13.485657 37.693323 0.807013 1.204914 0.001379 0.006735 247906.000000 0 0 1
22.978751 25.485202 13.098857 36.730077 0.837070 1.206144 0.013399 -0.001295 -16394.400000 0 0 1
22.913051 25.708902 11.715757 36.376015 0.842837 1.242877 0.013179 -0.011177 -249626.000000 0 0 1
22.539051 24.507502 10.905457 35.036487 0.827214 1.254278 0.026253 -0.013748 748683.000000 0 0 1
21.127851 24.175502 11.035157 33.950194 0.852569 1.239743 0.034212 -0.017378 1208420.000000 0 0 1
20.774751 22.885802 10.542657 32.657278 0.833712 1.242081 0.029092 -0.008780 -118092.000000 0 0 1
20.660051 22.851302 8.990657 32.091301 0.835716 1.286837 0.039165 -0.008984 -210695.000000 0 0 1
19.415151 23.314902 8.510557 31.511304 0.876411 1.297321 0.051845 -0.017118 85425.500000 0 0 1
19.554651 23.684602 7.161157 31.537706 0.880623 1.341732 0.039700 -0.027186 -38400.100000 0 0 1
18.259051 24.115702 6.426557 30.923464 0.922739 1.361449 0.037102 -0.021506 -903939.000000 0 0 1
17.469851 23.004602 6.033457 29.509490 0.921302 1.364886 0.045485 -0.012502 125234.000000 0 0 1
16.813051 23.278702 4.811857 29.115814 0.945293 1.404769 0.054761 -0.019510 -11344.100000 0 0 1
15.518851 24.129802 4.873357 29.100372 0.999258 1.402536 0.030711 -0.014768 -563538.000000 0 0 1
15.854351 25.492002 5.155557 30.459520 1.014405 1.400718 0.039184 -0.030973 56192.300000 0 0 1
14.757451 26.211702 5.661457 30.608622 1.058020 1.384762 0.035228 -0.035865 -360004.000000 0 0 1
14.494251 27.510702 4.949257 31.486777 1.085893 1.412957 0.043665 -0.034903 -658307.000000 0 0 1
13.909751 27.504902 3.720957 31.045874 1.102584 1.450654 0.039300 -0.024639 50705.100000 0 0 1
13.728251 28.848002 3.279257 32.115815 1.126628 1.468511 0.046095 -0.023827 -480098.000000 0 0 1
12.966351 28.926202 1.981257 31.761246 1.149393 1.508376 0.050214 -0.026746 -694628.000000 0 0 1
13.701951 28.631602 0.803157 31.751490 1.124447 1.545499 0.077140 -0.031950 88685.800000 0 0 1
13.704951 27.279402 0.369857 30.530775 1.105237 1.558682 0.045841 -0.023535 113934.000000 0 0 1
14.866251 26.989602 -0.610943 30.819106 1.067328 1.590621 0.049177 -0.030780 221852.000000 0 0 1
14.588451 27.581502 -1.829843 31.255567 1.084280 1.629374 0.052341 -0.017190 225305.000000 0 0 1
15.704551 27.349002 -2.689843 31.651794 1.049543 1.655881 0.052221 -0.018715 482435.000000 0 0 1
15.495551 27.764902 -4.172243 32.068824 1.061757 1.701269 0.062918 -0.020368 -721460.000000 0 0 1
14.702851 26.856702 -4.840343 30.998148 1.069909 1.727587 0.071963 -0.024191 -708296.000000 0 0 1
14.502351 27.487302 -6.127343 31.676715 1.085312 1.765457 0.075494 -0.017340 -404176.000000 0 0 1
13.249551 27.055902 -6.862043 30.897574 1.115414 1.794754 0.071708 -0.025909 -279521.000000 0 0 1
13.220351 25.668602 -7.129943 29.740391 1.095189 1.812894 0.062182 -0.024682 438080.000000 0 0 1
11.894151 25.310102 -7.533143 28.962395 1.131487 1.833923 0.050276 -0.022668 695763.000000 0 0 1
11.878251 23.911602 -8.056643 27.888475 1.109747 1.863861 0.049545 -0.012024 -25628.500000 0 0 1
12.278051 23.772902 -9.405443 28.361307 1.094058 1.908827 0.047406 -0.012653 141847.000000 0 0 1
11.987351 22.425902 -9.795843 27.250251 1.079907 1.938504 0.048825 -0.005906 -148391.000000 0 0 1
12.472451 21.921002 -11.174343 27.585473 1.053504 1.987863 0.045769 -0.005609 39009.800000 0 0 1
12.022751 20.601302 -11.532843 26.494653 1.042529 2.021156 0.058547 -0.008592 -35435.500000 0 0 1
11.958551 20.315602 -12.928843 26.886532 1.038773 2.072439 0.051112 -0.010919 243422.000000 0 0 1
13.252951 19.660102 -13.502443 27.285093 0.977663 2.088476 0.041827 -0.003657 265526.000000 0 0 1
14.356951 20.515602 -13.371443 28.386748 0.960200 2.061272 0.032972 -0.001133 -352444.000000 0 0 1
15.509251 19.960202 -13.990343 28.890764 0.910233 2.076302 0.032581 0.001949 1044970.000000 0 0 1
16.854351 20.751302 -13.797443 30.084134 0.888656 2.047248 0.032934 0.004810 440109.000000 0 0 1
17.001251 22.045502 -14.327943 31.310328 0.913872 2.046103 0.029041 0.001111 283374.000000 0 0 1
15.988851 23.047002 -14.068543 31.380433 0.964278 2.035684 0.033262 -0.000391 365224.000000 0 0 1
16.351651 24.447202 -14.638143 32.852966 0.981280 2.032602 0.036409 -0.006474 64399.000000 0 0 1
16.567651 24.618502 -16.019743 33.722246 0.978439 2.065817 0.018612 -0.003323 193501.000000 0 0 1
15.367251 24.858902 -16.761843 33.690901 1.017117 2.091532 0.015337 0.002124 433979.000000 0 0 1
15.570751 24.902702 -18.256543 34.581703 1.012008 2.126952 0.008064 0.011329 206417.000000 0 0 1
16.026651 23.675302 -18.849443 34.244342 0.975718 2.153687 0.011450 0.010506 14294.300000 0 0 1
15.881451 23.777902 -20.255443 35.041291 0.981935 2.187127 0.014803 0.005132 -157234.000000 0 0 1
16.267451 22.468302 -20.989743 34.785397 0.944132 2.218563 0.018864 0.000432 -432388.000000 0 0 1
15.338251 21.427102 -20.987743 33.687802 0.949522 2.243378 0.038539 0.004607 -581972.000000 0 0 1
15.806851 20.259902 -21.613043 33.577430 0.908243 2.270091 0.025650 -0.005623 -77360.200000 0 0 1
14.763751 19.121802 -21.814243 32.549545 0.913307 2.305255 0.022199 -0.002038 -343173.000000 0 0 1
14.407151 18.493302 -20.602443 31.209436 0.908963 2.291795 0.023585 -0.003973 565048.000000 0 0 1
13.493451 17.409902 -20.845543 30.326796 0.911458 2.328650 0.018662 -0.004231 672398.000000 0 0 1
11.984951 17.617702 -21.120943 30.001945 0.973429 2.351790 0.015788 0.001546 5339.040000 0 0 1
11.119651 17.385302 -20.023943 28.755063 1.001766 2.341113 0.021172 0.002905 491418.000000 0 0 1
9.758351 17.336502 -20.428243 28.514783 1.058119 2.369438 0.022895 0.003289 1016780.000000 0 0 1
8.645651 16.993302 -19.372943 27.181437 1.100159 2.364175 0.030413 -0.007716 481476.000000 0 0 1
8.677951 15.607402 -18.965543 26.049753 1.063347 2.386271 0.024368 -0.016021 332489.000000 0 0 1
7.500251 15.154002 -18.285343 24.904845 1.111209 2.395296 0.025587 -0.020899 538575.000000 0 1 0
7.277651 15.660402 -16.834743 24.116819 1.135772 2.343467 0.023440 -0.019535 824.995000 0 1 0
6.805451 16.967502 -16.693443 24.756440 1.189353 2.310822 0.035784 -0.015154 -191716.000000 0 1 0
6.347651 17.269502 -15.378343 23.979612 1.218561 2.267000 0.026748 -0.019010 -363390.000000 0 1 0
6.064951 18.723202 -15.186243 24.858880 1.257535 2.227991 0.031623 -0.019583 612903.000000 0 1 0
7.192351 19.606102 -14.918943 25.665229 1.219197 2.191110 0.028927 -0.013904 573972.000000 0 0 1
7.862551 20.038802 -16.081043 26.869560 1.196888 2.212406 0.040076 -0.008017 410736.000000 0 0 1
9.041751 21.043402 -15.771243 27.808454 1.164975 2.173824 0.036927 -0.002751 163629.000000 0 0 1
8.685651 22.290002 -15.048543 28.262048 1.199230 2.132306 0.040718 -0.007107 -25960.600000 0 0 1
8.426851 22.034002 -13.636343 27.248099 1.205512 2.094916 0.028469 -0.011901 -123292.000000 0 0 1
8.003651 23.282802 -12.784043 27.741288 1.239693 2.049728 0.032646 -0.013934 79861.300000 0 0 1
6.714851 23.713202 -13.232943 27.973486 1.294851 2.063549 0.027850 -0.012122 585217.000000 0 0 1
5.997951 24.608502 -12.344543 28.176968 1.331723 2.024289 0.012667 -0.014729 557076.000000 0 0 1
5.481251 24.052102 -11.004343 27.011910 1.346732 1.990389 0.013051 -0.014271 -255798.000000 0 0 1
6.613251 24.035302 -10.140643 26.912143 1.302293 1.957141 0.002747 -0.012535 435420.000000 0 0 1
6.205651 23.458202 -8.935543 25.858099 1.312180 1.923633 0.017015 -0.015804 284455.000000 0 0 1
7.307451 23.359702 -7.833143 25.698884 1.267617 1.880530 0.018176 -0.015635 107347.000000 0 0 1
7.332251 24.565502 -7.034343 26.583976 1.280737 1.838594 0.011869 -0.010615 880646.000000 0 0 1
8.342651 24.526502 -5.992943 26.590684 1.242925 1.798127 0.014957 -0.006414 563181.000000 0 0 1
8.559851 25.972102 -5.418743 27.878018 1.252429 1.766415 0.008240 -0.007164 37840.500000 0 0 1
8.884751 26.896902 -6.419643 29.044689 1.251755 1.793663 0.021231 -0.019859 80719.800000 0 0 1
8.864751 28.125602 -5.802543 30.054996 1.265468 1.765080 0.016449 -0.014679 -35851.300000 0 0 1
9.167351 29.291502 -6.727443 31.421185 1.267484 1.786572 0.012617 -0.009718 838437.000000 0 0 1
10.538451 29.282402 -7.185943 31.939877 1.225338 1.797722 0.029506 -0.016677 948332.000000 0 0 1
10.812251 30.445702 -8.008543 33.286368 1.229557 1.813775 0.024485 -0.019302 24925.900000 0 0 1
12.250151 30.511302 -8.565043 33.975958 1.189001 1.825637 0.061127 -0.031851 -108253.000000 0 0 1
13.231951 30.690202 -7.586343 34.271353 1.163732 1.794006 0.066131 -0.025727 -1161810.000000 0 0 1
14.352651 31.203402 -8.222843 35.316654 1.139682 1.805785 0.067292 -0.024017 -701119.000000 0 0 1
15.576551 31.370402 -7.306743 35.778758 1.109923 1.776463 0.063326 -0.028980 2878.390000 0 0 1
16.226351 30.142602 -6.982643 34.937490 1.076965 1.772012 0.062645 -0.026990 -17804.700000 0 0 1
17.451651 30.359902 -6.316243 35.583405 1.049093 1.749247 0.046425 -0.013864 741418.000000 0 0 1
18.501851 29.184102 -6.319243 35.127811 1.005773 1.751674 0.039403 -0.007289 360098.000000 0 0 1
18.349751 28.272102 -5.298443 34.118889 0.995096 1.726721 0.062790 -0.016203 617295.000000 0 0 1
19.503751 27.408502 -5.152943 34.031972 0.952331 1.722796 0.046556 -0.010549 568824.000000 0 0 1
19.748051 26.238402 -6.163243 33.412944 0.925608 1.756315 0.039725 -0.003330 -394104.000000 0 0 1
20.116251 26.683702 -7.463843 34.240217 0.924818 1.790545 0.038593 0.002373 333123.000000 0 0 1
19.677051 25.796002 -8.471843 33.531957 0.919157 1.826214 0.026436 -0.005397 -1225120.000000 0 0 1
20.158651 26.197502 -9.863343 34.495882 0.914939 1.860771 0.025987 -0.003992 266763.000000 0 0 1
21.572451 26.162402 -9.967643 35.343964 0.881259 1.856693 0.022279 -0.004077 237081.000000 0 0 1
22.183751 24.869902 -9.928343 34.773594 0.842423 1.860339 0.021036 -0.002249 70826.500000 0 0 1
23.724651 24.940002 -9.596243 35.734446 0.810367 1.842677 0.012965 0.007405 1148220.000000 0 0 1
24.479151 25.279502 -10.757143 36.796714 0.801481 1.867469 0.008747 -0.001408 -854199.000000 0 0 1
25.803651 25.596802 -10.508443 37.834535 0.781374 1.852245 0.003812 0.008547 -750565.000000 0 0 1
26.692651 25.619902 -11.727443 38.812497 0.764894 1.877750 0.010896 0.004030 -280253.000000 0 0 1
26.444751 26.734602 -12.572043 39.649969 0.790849 1.893441 0.009412 0.004284 -598853.000000 0 0 1
27.357351 26.761902 -13.604543 40.616593 0.774396 1.912349 0.019161 -0.003617 -470464.000000 0 0 1
27.273951 27.853702 -14.677143 41.654719 0.795914 1.930880 0.036536 -0.008842 -64777.200000 0 0 1
27.664151 29.153302 -14.321343 42.665221 0.811602 1.913110 0.027876 -0.005212 23703.200000 0 0 1
27.535951 29.980402 -15.418743 43.529194 0.827873 1.932872 0.033763 0.001497 -369964.000000 0 0 1
27.889451 31.471602 -15.201843 44.714419 0.845670 1.917688 0.021830 -0.000855 387008.000000 0 0 1
29.256251 31.627902 -14.834143 45.566481 0.824332 1.902389 0.027024 -0.003654 330316.000000 0 0 1
29.577251 33.005002 -14.848243 46.739857 0.840115 1.894076 0.024343 -0.006154 -201250.000000 0 0 1
15.100651 -32.695456 -29.149404 46.332604 -1.138125 2.251235 0.028245 0.000556 -279494.000000 0 0 1
16.055451 -33.076356 -28.217744 46.347210 -1.118892 2.225386 0.022785 0.004540 -446950.000000 0 0 1
16.211451 -32.031056 -27.282314 45.090180 -1.102267 2.220639 0.041171 0.000236 -641109.000000 0 0 1
17.153051 -32.502456 -26.136204 45.096984 -1.085199 2.188979 0.023247 0.007366 1014790.000000 0 0 1
18.566551 -32.457656 -26.346454 45.742233 -1.051202 2.184595 0.030046 0.005897 800123.000000 0 0 1
19.070651 -33.227156 -27.441354 47.124956 -1.049753 2.192364 0.019248 0.005088 -1890020.000000 0 0 1
20.576051 -33.109656 -27.529054 47.722866 -1.014753 2.185666 0.026201 0.015063 -833127.000000 0 0 1
20.984651 -31.847356 -27.931874 47.273663 -0.988181 2.202914 0.021776 0.004852 363286.000000 0 0 1
22.384051 -31.610656 -27.819714 47.688738 -0.954643 2.193656 0.010820 0.015005 626659.000000 0 0 1
22.999051 -30.364056 -28.584274 47.623449 -0.922548 2.214565 -0.000439 0.018846 126746.000000 0 0 1
23.152751 -30.523356 -29.971604 48.641774 -0.921861 2.234667 0.003458 0.009557 115673.000000 0 0 1
23.626051 -29.320056 -30.577104 48.505827 -0.892530 2.252839 0.004529 0.005699 200387.000000 0 0 1
23.942451 -29.341556 -32.110584 49.651359 -0.886380 2.274074 0.011238 0.003455 -210421.000000 0 0 1
25.086951 -30.088556 -32.386214 50.828566 -0.875800 2.261611 0.015415 -0.002455 -605675.000000 0 0 1
25.223451 -30.495356 -33.737044 52.003628 -0.879734 2.276729 0.016496 -0.004436 -63535.800000 0 0 1
26.533251 -31.212956 -34.085065 53.292154 -0.866261 2.264760 0.008687 -0.006866 430520.000000 0 0 1
27.664451 -30.408956 -34.406809 53.608348 -0.832622 2.267663 0.012664 -0.011931 899325.000000 0 0 1
28.834251 -31.183156 34.074617 54.450737 -0.824515 0.894655 0.023159 -0.006850 965169.000000 0 0 1
30.114151 -30.341856 33.863605 54.536538 -0.789165 0.900862 0.035176 -0.014892 -49673.600000 0 0 1
30.118651 -29.527156 32.696467 53.367078 -0.775482 0.911360 0.032627 -0.007302 -331016.000000 0 0 1
31.248251 -28.716456 32.775366 53.621942 -0.743202 0.913182 0.035238 -0.016365 -375457.000000 0 0 1
31.340551 -27.835056 31.485757 52.424931 -0.726228 0.926561 0.029099 -0.016210 -287764.000000 0 0 1
32.535051 -27.084556 31.426057 52.722858 -0.694230 0.932210 0.020464 -0.020541 143588.000000 0 0 1
32.462951 -26.076756 30.439567 51.579139 -0.676736 0.939548 0.019684 -0.017985 49374.400000 0 0 1
33.288051 -26.506556 29.163157 51.586641 -0.672468 0.969971 0.021556 -0.006805 -108098.000000 0 0 1
32.831351 -27.572156 28.341407 51.394131 -0.698549 0.986692 0.025642 -0.011876 352884.000000 0 0 1
31.657351 -27.267956 27.601567 50.075700 -0.711045 0.986998 0.025133 -0.012140 -13349.100000 0 0 1
31.028451 -28.471556 26.940587 49.991894 -0.742452 1.001667 0.014246 0.001539 444856.000000 0 0 1
29.696251 -28.248656 26.469127 48.790046 -0.760421 0.997373 0.011180 0.014143 794564.000000 0 0 1
29.144351 -29.346156 25.702527 48.695071 -0.788848 1.014757 -0.005398 0.027321 322695.000000 0 0 1
27.832351 -28.989956 24.965097 47.310816 -0.805768 1.014926 -0.004753 0.033121 1331010.000000 0 0 1
26.656251 -28.875156 25.795627 47.007922 -0.825335 0.989927 -0.006509 0.032164 1056290.000000 0 0 1
25.492751 -28.312656 25.222907 45.691157 -0.837760 0.985999 -0.013863 0.044187 1614200.000000 0 0 1
24.254351 -28.090756 26.213957 45.437161 -0.858558 0.955834 0.001374 0.034024 1040360.000000 0 0 1
24.167151 -26.781056 26.844017 44.965291 -0.836658 0.931047 -0.012669 0.026559 291182.000000 0 0 1
23.108551 -26.769656 27.795697 44.980222 -0.858668 0.904659 -0.004543 0.011732 21588.000000 0 0 1
23.032351 -25.572956 28.742267 44.839527 -0.837621 0.874992 -0.007994 0.018352 195729.000000 0 0 1
21.897451 -25.516656 29.633137 44.818756 -0.861582 0.848410 0.015813 0.011335 763528.000000 0 0 1
21.925751 -24.381456 30.451277 44.749013 -0.838379 0.822365 0.020854 0.004378 -449364.000000 0 0 1
21.444451 -23.051556 29.853697 43.387578 -0.821500 0.811970 0.027164 -0.009328 -460658.000000 0 0 1
22.299751 -22.561956 28.833917 42.868584 -0.791243 0.833064 0.029908 -0.011738 364965.000000 0 0 1
21.879451 -21.273256 28.472317 41.736490 -0.771351 0.820039 0.036343 -0.013555 -140352.000000 0 0 1
22.633451 -20.132156 29.143107 42.034480 -0.726976 0.804718 0.043312 -0.016177 -13038.700000 0 0 1
22.267151 -19.992256 30.533337 42.752789 -0.731618 0.775339 0.049008 -0.016151 654589.000000 0 0 1
23.302251 -19.260756 31.177497 43.428193 -0.690729 0.770002 0.052700 -0.018702 326855.000000 0 0 1
22.910451 -19.021356 32.663497 44.199601 -0.692915 0.739212 0.082595 -0.024592 -64203.400000 0 0 1
22.939551 -20.066356 33.620739 45.378802 -0.718688 0.736401 0.057312 -0.020638 398923.000000 0 0 1
22.022251 -19.773256 -34.147215 45.188422 -0.731641 2.427462 0.051584 -0.019028 -31087.400000 0 0 1
21.950951 -20.935656 -33.110654 44.905026 -0.761729 2.399933 0.046326 -0.013865 289414.000000 0 0 1
23.126651 -21.004956 -32.293914 44.932694 -0.737359 2.372752 0.039027 -0.004616 434432.000000 0 0 1
22.974051 -21.851356 -31.138684 44.439919 -0.760357 2.347163 0.032274 -0.005965 87399.100000 0 0 1
24.311151 -22.096256 -30.406814 44.764393 -0.737707 2.317555 0.027696 0.000453 905371.000000 0 0 1
25.349651 -22.803756 -31.115604 46.160556 -0.732577 2.310506 0.024550 0.000798 -20973.300000 0 0 1
26.191151 -23.514056 -30.269544 46.423405 -0.731591 2.281058 0.022548 0.000559 -12442.600000 0 0 1
27.166151 -24.505156 -30.991264 47.947480 -0.733945 2.273599 0.012894 0.003946 112809.000000 0 0 1
28.083851 -23.806356 -31.804124 48.651285 -0.703151 2.283281 0.015867 0.003264 -145465.000000 0 0 1
27.803851 -23.764156 -33.227254 49.414974 -0.707221 2.308260 0.018888 0.005266 -140018.000000 0 0 1
28.329651 -24.941356 -34.127973 50.885743 -0.721879 2.305919 0.014030 0.002687 52614.300000 0 0 1
27.514551 -26.028456 -33.771704 50.745039 -0.757650 2.298983 0.033144 -0.000927 20228.100000 0 0 1
27.795451 -27.302356 -34.391281 51.968894 -0.776449 2.293969 0.020960 -0.000836 32002.200000 0 0 1
27.300751 -27.439056 32.971920 50.846635 -0.787925 0.865239 0.023002 0.001611 -87251.900000 0 0 1
28.073851 -26.626956 32.138457 50.299267 -0.758953 0.877671 0.015097 -0.009932 53971.100000 0 0 1
27.492851 -26.534756 30.839957 49.102475 -0.767667 0.891722 0.015469 -0.005348 -329116.000000 0 0 1
28.425551 -25.828056 29.837777 48.635310 -0.737558 0.910311 0.019256 -0.012313 -125749.000000 0 0 1
28.609851 -24.419856 29.833667 48.009380 -0.706550 0.900251 0.010497 -0.019795 228596.000000 0 0 1
29.164851 -23.880356 31.051707 48.837162 -0.686103 0.881724 0.013267 -0.012627 -1382080.000000 0 0 1
29.590651 -22.387356 30.929617 48.305709 -0.647692 0.875922 0.008052 -0.009452 556874.000000 0 0 1
30.846751 -22.052256 30.327127 48.554697 -0.620654 0.896181 0.013292 -0.013125 1259300.000000 0 0 1
31.931551 -22.590256 31.140207 49.996561 -0.615714 0.898420 0.010918 -0.012837 150601.000000 0 0 1
33.376451 -22.178056 30.738227 50.504378 -0.586489 0.916470 0.005501 -0.017912 445613.000000 0 0 1
33.884451 -22.700556 29.513257 50.343853 -0.590265 0.944394 0.016820 -0.026461 1289800.000000 0 0 1
35.254951 -22.249756 29.353807 50.986363 -0.562981 0.957313 -0.002437 -0.024302 973641.000000 0 0 1
-35.458232 -22.546056 27.955767 50.469156 0.566362 0.983734 0.015702 -0.019023 -328894.000000 0 0 1
-35.310532 -23.938156 27.695637 50.861747 0.595761 0.994970 0.012002 -0.017482 91950.100000 0 0 1
-35.085732 -24.065556 26.315997 50.026905 0.601205 1.016862 0.015851 -0.008914 -310617.000000 0 0 1
-35.062232 -25.529156 25.918157 50.525724 0.629344 1.032156 0.015803 -0.013402 -825900.000000 0 0 1
35.016051 -26.247356 26.026567 50.915908 -0.643233 1.034253 0.025397 -0.011669 -570449.000000 0 0 1
35.076051 -27.612456 25.800397 51.560038 -0.666898 1.046741 0.026630 -0.002073 -85608.800000 0 0 1
-35.257132 -28.496056 26.682467 52.602705 0.679742 1.038811 0.019929 -0.002132 -331543.000000 0 0 1
-35.056132 -29.753556 26.007427 52.826061 0.703762 1.056041 0.026803 -0.003592 568213.000000 0 0 1
-34.001532 -30.566656 26.525097 52.858352 0.732251 1.045101 0.018341 -0.008406 1123490.000000 0 0 1
-32.515732 -30.089456 26.400807 51.571802 0.746662 1.033374 0.011171 -0.005401 268414.000000 0 0 1
-31.941232 -30.119956 25.103167 50.572948 0.756060 1.051378 0.004840 -0.005031 40808.700000 0 0 1
-30.572732 -29.803756 25.093057 49.523906 0.772662 1.039460 -0.014076 -0.006221 -289110.000000 0 0 1
-29.949132 -29.612956 23.708057 48.331663 0.779754 1.058100 -0.013145 -0.003760 -648522.000000 0 0 1
-29.959032 -30.815156 22.924557 48.709883 0.799484 1.080786 -0.015052 -0.002321 312507.000000 0 0 1
-29.346532 -30.627956 21.694857 47.644070 0.806761 1.098028 -0.013684 -0.002933 -912769.000000 0 0 1
-29.445432 -31.868256 20.838457 48.133777 0.824893 1.123058 -0.013350 -0.001949 -169789.000000 0 0 1
-28.737732 -33.007156 21.238457 48.645674 0.854434 1.118986 -0.021021 -0.007036 300215.000000 0 0 1
-27.320632 -32.935056 21.266357 47.784859 0.878307 1.109573 -0.012083 -0.002696 -43468.500000 0 0 1
-26.597032 -34.284256 21.376057 48.370943 0.910999 1.113059 -0.022549 0.002775 -551371.000000 0 0 1
-26.721332 33.653802 20.272157 47.513875 -0.899721 1.130002 -0.024295 0.002497 454097.000000 0 0 1
-27.922432 32.870602 20.233557 47.639642 -0.866613 1.132143 -0.024063 0.002235 515571.000000 0 0 1
-28.084832 31.776602 21.350357 47.479974 -0.846992 1.104400 -0.017220 -0.002966 218151.000000 0 0 1
-27.027732 30.814602 21.241357 46.165281 -0.850774 1.092671 -0.020119 -0.003320 432899.000000 0 0 1
-27.115232 29.778102 22.174957 45.974992 -0.832169 1.067488 -0.011391 -0.007099 -454416.000000 0 0 1
-26.154532 28.636702 21.876157 44.527368 -0.830670 1.057218 -0.003688 -0.009456 -83704.200000 0 0 1
-24.787132 29.013102 21.953757 44.024191 -0.863786 1.048727 -0.000429 -0.006399 -200342.000000 0 0 1
-24.060632 28.031102 21.257457 42.620842 -0.861472 1.048632 0.000043 -0.007182 884010.000000 0 0 1
-22.506332 28.346602 21.300257 41.997211 -0.899743 1.038884 -0.002314 0.002161 929572.000000 0 0 1
-22.028332 28.204102 22.609157 42.330754 -0.907728 1.007345 -0.000195 -0.000930 210352.000000 0 0 1
-20.944232 29.085202 22.852557 42.507048 -0.946708 1.003187 0.019471 -0.003453 -23885.100000 0 0 1
-20.624832 29.121802 24.340577 43.196374 -0.954571 0.972196 0.009698 0.007657 -646762.000000 0 0 1
-20.090932 27.819402 24.654807 42.254280 -0.945332 0.947781 0.019468 -0.007083 501365.000000 0 0 1
-19.798232 27.641602 26.032607 42.822012 -0.949249 0.917351 0.010214 -0.006806 376617.000000 0 0 1
-18.434032 28.267902 26.460837 42.884306 -0.992933 0.905835 0.031919 -0.003545 -156673.000000 0 0 1
-18.474832 29.641302 26.629787 43.921199 -1.013435 0.919386 0.000632 -0.000591 419955.000000 0 0 1
-17.178932 30.164502 26.894417 43.912669 -1.053099 0.911637 0.022507 -0.005353 145739.000000 0 0 1
-16.773832 30.296402 28.386247 44.777365 -1.065149 0.884157 0.006794 -0.000959 -402060.000000 0 0 1
-16.637932 29.073202 29.061077 44.346567 -1.051011 0.856194 0.009376 0.002809 197164.000000 0 0 1
-17.009532 29.203002 30.407027 45.461267 -1.043375 0.838128 -0.002030 -0.000134 -637955.000000 0 0 1
-16.685932 27.988402 31.275387 45.165482 -1.033195 0.805900 0.008341 -0.000424 -692608.000000 0 0 1
-15.283032 27.947602 31.392787 44.722998 -1.070378 0.792681 0.017029 -0.001759 -105125.000000 0 0 1
-14.830532 26.876802 32.154227 44.454487 -1.066575 0.762217 0.019121 0.001007 -482080.000000 0 0 1
-15.062932 26.777302 33.677635 45.586170 -1.058387 0.739555 0.017007 0.003622 -223369.000000 0 0 1
-16.433532 26.582002 33.971490 46.159787 -1.017087 0.743721 0.010951 -0.000211 -78812.700000 0 0 1
-16.731132 27.129902 -33.588364 46.304865 -1.018185 2.382374 0.004169 -0.003264 -567418.000000 0 0 1
-18.055832 26.679502 -32.989904 46.110114 -0.975833 2.368077 -0.009722 0.002299 -352339.000000 0 0 1
-19.137932 27.015302 -33.843644 47.344262 -0.954448 2.367194 -0.014897 0.000604 -262296.000000 0 0 1
-20.327832 26.503002 -33.274024 47.146479 -0.916503 2.354289 -0.002118 -0.006876 60787.900000 0 0 1
-21.527132 26.515202 -34.281551 48.391095 -0.888854 2.358063 0.030068 -0.024099 -1061960.000000 0 0 1
-21.433532 25.700502 33.354350 47.248542 -0.875680 0.787055 0.036501 -0.020674 3463.290000 0 0 1
-21.672932 24.322102 33.651573 46.837047 -0.842931 0.769179 0.032746 -0.019534 -412546.000000 0 0 1
-22.071032 23.493802 32.424187 45.721079 -0.816613 0.782471 0.044353 -0.020875 255745.000000 0 0 1
-23.442232 23.564102 32.059407 46.180198 -0.787991 0.803455 0.055875 -0.029971 -37829.100000 0 0 1
-23.627932 22.852302 30.836807 45.071227 -0.768712 0.817318 0.044853 -0.019597 178537.000000 0 0 1
-25.122532 22.515202 30.645057 45.576259 -0.730720 0.833362 0.029621 -0.014791 189820.000000 0 0 1
-25.477832 21.251202 31.191197 45.537065 -0.695194 0.816244 0.032685 -0.024970 -44704.500000 0 0 1
-26.733632 20.938402 30.617507 45.722374 -0.664427 0.837073 0.023893 -0.015244 35623.400000 0 0 1
-27.349132 19.545302 30.957047 45.698278 -0.620497 0.826543 0.036355 -0.014852 179217.000000 0 0 1
-28.070132 19.573802 32.232897 47.010910 -0.608924 0.815304 0.037136 -0.012379 591214.000000 0 0 1
-28.420332 18.316002 32.861781 47.149632 -0.572477 0.799636 0.018636 -0.003884 120255.000000 0 0 1
-29.233632 17.286902 32.047417 46.695601 -0.534025 0.814400 0.008702 0.000696 1099660.000000 0 0 1
-30.623832 17.568902 31.722947 47.463994 -0.520857 0.838797 0.015748 0.000538 1390720.000000 0 0 1
-31.242832 16.399502 31.277267 47.152154 -0.483372 0.845541 0.024015 0.005833 -617973.000000 0 0 1
-32.769432 16.405502 31.289227 48.187051 -0.464155 0.864095 0.021722 0.006533 -246596.000000 0 0 1
-33.317432 16.576802 32.679707 49.525800 -0.461679 0.850174 0.028403 0.007760 67965.800000 0 0 1
-34.673832 16.862302 32.751445 50.589218 -0.452637 0.866629 0.032107 0.008263 -725287.000000 0 0 1
-35.183632 17.094902 34.173961 51.942114 -0.452285 0.852738 0.024146 0.011866 84118.600000 0 0 1
34.758151 17.604202 34.214661 51.852483 0.468816 0.850182 0.018041 0.013180 -48586.800000 0 0 1
34.534951 17.981902 -33.239364 51.194403 0.480060 2.277430 0.014547 0.009058 -310627.000000 0 0 1
33.063551 18.273902 -32.956114 50.132218 0.504906 2.288138 0.007748 0.010752 -138367.000000 0 0 1
32.236651 17.132102 -33.092864 49.273200 0.488488 2.307189 0.011723 0.018952 -356184.000000 0 0 1
31.127651 17.132602 -32.260114 47.991370 0.503149 2.307981 0.011039 0.011312 -474335.000000 0 0 1
30.403351 15.761502 -32.125994 46.956024 0.478270 2.324264 0.012386 0.006878 -314465.000000 0 0 1
29.639951 15.584702 -33.291204 47.219846 0.484074 2.353256 0.009336 0.003746 -314299.000000 0 0 1
29.028151 14.315602 -33.467624 46.558048 0.458163 2.372924 0.003471 0.001414 -350823.000000 0 0 1
29.887651 13.168202 -34.040484 47.174440 0.415001 2.376889 0.006332 0.005607 -215405.000000 0 0 1
30.785151 12.568602 -33.148094 46.952012 0.387614 2.354630 0.017531 0.012686 -77796.700000 0 0 1
31.306951 11.370102 -33.604704 47.314697 0.348369 2.360633 0.021919 0.008786 -351297.000000 0 0 1
17.263451 -21.237198 10.169256 29.196903 -0.888246 1.215040 0.010771 -0.018635 68404.200000 0 0 1
16.947651 -22.518898 10.738356 30.160172 -0.925635 1.206765 0.016000 -0.019003 -174946.000000 0 0 1
18.129251 -23.206798 11.016956 31.441987 -0.907622 1.212809 -0.000503 -0.013783 -356354.000000 0 0 1
17.846851 -24.543298 11.698056 32.522732 -0.942075 1.202862 0.009146 -0.011362 302360.000000 0 0 1
17.123151 -25.460798 10.860256 32.548421 -0.978745 1.230608 0.002160 -0.008669 801923.000000 0 0 1
15.773151 -25.749908 11.246056 32.223033 -1.021199 1.214285 0.013495 -0.008329 526968.000000 0 0 1
15.052451 -26.702658 10.278756 32.330498 -1.057491 1.247253 0.019923 -0.003373 -50093.600000 0 0 1
14.738951 -26.020288 9.047156 31.243289 -1.055418 1.277018 0.009678 -0.004120 156558.000000 0 0 1
14.257851 -26.798038 7.986756 31.388046 -1.081840 1.313515 0.022865 -0.000463 -269068.000000 0 0 1
14.076051 -25.859408 6.766956 30.209865 -1.072317 1.344881 0.033343 -0.001087 -120546.000000 0 0 1
13.020351 -24.919798 6.912956 28.953668 -1.089319 1.329708 0.038071 -0.013789 160389.000000 0 0 1
12.900151 -24.076098 5.754456 27.913907 -1.078915 1.363157 0.042756 -0.002281 32345.100000 0 0 1
12.019351 -22.816098 6.062256 26.491321 -1.085945 1.339911 0.044785 -0.007626 216684.000000 0 0 1
11.598651 -22.123998 4.909156 25.457805 -1.087932 1.376746 0.063961 -0.011109 -368149.000000 0 0 1
10.731951 -21.081498 5.228556 24.226889 -1.099919 1.353269 0.061563 -0.011089 -334768.000000 0 1 0
10.019651 -20.538998 3.963056 23.193742 -1.116928 1.399086 0.058130 -0.019132 -323184.000000 0 1 0
10.904451 -20.125598 2.942456 23.078233 -1.074255 1.442949 0.052824 -0.008865 -362834.000000 0 1 0
10.207851 -19.649998 1.857056 22.220966 -1.091684 1.487126 0.047488 -0.001514 -552353.000000 0 1 0
11.130951 -19.372098 0.675256 22.352455 -1.049273 1.540582 0.037471 0.011273 49246.100000 0 1 0
12.042651 -18.331598 0.920456 21.952681 -0.989562 1.528855 0.034389 0.014891 -99912.900000 0 1 0
12.766651 -17.975098 -0.256744 22.048979 -0.953230 1.582441 0.048950 0.008048 -127861.000000 0 1 0
13.993551 -17.077998 -0.080744 22.079040 -0.884343 1.574453 0.049143 0.015745 453688.000000 0 1 0
15.095451 -17.830198 0.468356 23.366814 -0.868266 1.550751 0.051539 0.014527 667823.000000 0 1 0
16.228351 -16.979398 0.707156 23.498073 -0.808011 1.540698 0.030795 0.002433 484303.000000 0 1 0
17.349951 -17.678998 1.503456 24.815886 -0.794791 1.510175 0.020785 0.009065 94769.400000 0 1 0
17.960051 -18.669998 0.661656 25.914669 -0.804777 1.545261 0.011735 0.001819 157556.000000 0 0 1
19.025751 -19.355898 1.307856 27.172422 -0.794000 1.522646 -0.000637 0.004297 300111.000000 0 0 1
19.223651 -20.713998 0.693056 28.268336 -0.822698 1.546277 -0.009347 0.003313 458362.000000 0 0 1
18.213451 -21.702498 1.029956 28.351174 -0.872586 1.534460 -0.010115 0.005272 526641.000000 0 0 1
18.510251 -23.030998 0.555556 29.552748 -0.893797 1.551996 -0.005908 0.001649 -186884.000000 0 0 1
17.305551 -24.020698 0.657556 29.612640 -0.946481 1.548589 -0.001943 0.001476 47605.600000 0 0 1
17.040851 -24.462098 1.937456 29.875385 -0.962341 1.505900 -0.014751 -0.002004 358407.000000 0 0 1
15.994751 -25.454418 1.856156 30.119841 -1.009778 1.509132 0.001666 0.002533 -113607.000000 0 0 1
15.848351 -26.290178 3.184056 30.862306 -1.028303 1.467443 -0.002347 0.003589 450392.000000 0 0 1
16.879851 -27.282398 3.278656 32.249159 -1.016734 1.468954 -0.014737 0.004874 920524.000000 0 0 1
18.101951 -26.759548 3.838556 32.534422 -0.976040 1.452536 -0.022932 0.006904 36620.200000 0 0 1
19.199151 -27.819308 3.925856 34.028425 -0.966720 1.455169 -0.006784 0.006141 -494000.000000 0 0 1
19.777351 -28.070778 2.637856 34.439374 -0.957021 1.494127 -0.011210 0.011850 539641.000000 0 0 1
20.782051 -29.131848 2.619756 35.880655 -0.951147 1.497718 0.018234 0.012604 411917.000000 0 0 1
20.302951 -30.583748 2.878256 36.822002 -0.984748 1.492550 0.031263 0.010541 -511231.000000 0 0 1
20.077851 -30.830528 4.289856 37.041119 -0.993555 1.454723 0.047324 -0.001030 -13657.900000 0 0 1
19.548251 -32.138028 4.373756 37.869734 -1.024326 1.455043 0.042599 -0.011483 -362259.000000 0 0 1
19.231551 -32.651668 5.813756 38.337759 -1.038511 1.418563 0.050375 -0.017844 -653558.000000 0 0 1
20.307851 -33.208928 6.436656 39.454687 -1.021951 1.406923 0.045823 -0.022898 -346666.000000 0 0 1
19.772151 -33.951288 7.524756 40.003124 -1.043442 1.381565 0.045048 -0.013991 168497.000000 0 0 1
20.885251 34.111080 8.243456 40.837655 1.021402 1.367541 0.039849 -0.024066 -89018.400000 0 0 1
21.729651 -33.831398 8.947456 41.192211 -0.999859 1.351839 0.050007 -0.027626 -153242.000000 0 0 1
22.919551 34.299546 9.153556 42.255796 0.981721 1.352443 0.047767 -0.031523 -940647.000000 0 0 1
23.833651 -33.878058 10.144156 42.645864 -0.957717 1.330624 0.033400 -0.028048 -987651.000000 0 0 1
24.589451 -32.916508 9.481156 42.166693 -0.929202 1.344008 0.024937 -0.028360 -147537.000000 0 0 1
25.346351 -32.084258 10.339256 42.175080 -0.902187 1.323121 0.017543 -0.026721 -137749.000000 0 0 1
26.183251 -31.033128 9.626556 41.728747 -0.869960 1.338006 0.021217 -0.026455 -567007.000000 0 0 1
25.414951 -30.033618 8.986956 40.357197 -0.868503 1.346228 0.016732 -0.023893 112280.000000 0 0 1
26.060151 -29.361828 7.935756 40.052774 -0.844901 1.371344 0.029877 -0.027853 -154053.000000 0 0 1
25.569551 -27.896628 8.044056 38.687604 -0.828895 1.361345 0.022040 -0.026204 -72403.000000 0 0 1
26.225151 -27.105768 9.035656 38.783042 -0.801909 1.335656 0.003496 -0.015634 -34113.600000 0 0 1
25.667051 -25.840878 9.155056 37.554808 -0.788773 1.324536 0.016845 -0.015159 -686099.000000 0 0 1
26.509551 -25.027768 10.089756 37.827882 -0.756654 1.300800 0.029217 -0.024042 -383152.000000 0 0 1
27.760551 -24.660598 9.590056 38.350521 -0.726331 1.318051 0.020935 -0.012711 -629835.000000 0 0 1
28.567851 -24.012798 10.557056 38.783863 -0.698984 1.295115 0.017664 -0.014688 21423.800000 0 0 1
29.929551 -23.584998 9.982056 39.391263 -0.667391 1.314595 0.033134 -0.011433 -48258.500000 0 0 1
29.802251 -22.735498 8.875156 38.520715 -0.651693 1.338308 0.026158 -0.010238 214728.000000 0 0 1
30.967951 -22.652398 8.041256 39.202130 -0.631542 1.364207 0.027182 -0.012221 261149.000000 0 0 1
30.753051 -21.701998 6.864756 38.260316 -0.614532 1.390397 0.028896 -0.002410 25103.600000 0 0 1
30.378651 -20.386598 7.185556 37.284153 -0.591054 1.376859 0.018105 0.000585 -106625.000000 0 0 1
30.571951 -19.575998 6.045556 36.802346 -0.569544 1.405777 0.007583 0.000197 -78372.300000 0 0 1
30.531351 -18.072298 6.248756 36.025246 -0.534462 1.396460 0.032106 -0.001573 -511515.000000 0 0 1
31.486351 -17.552498 7.087956 36.738531 -0.508555 1.376649 0.038537 -0.000536 -773480.000000 0 0 1
31.215751 -16.199898 7.419256 35.943083 -0.478705 1.362885 0.043808 -0.001367 -330988.000000 0 0 1
31.877951 -15.682198 8.655056 36.565628 -0.457183 1.331829 0.037298 -0.017462 -1176540.000000 0 0 1
33.256751 -15.665498 8.633556 37.761854 -0.440218 1.340124 0.012802 -0.014291 -1150780.000000 0 0 1
33.701851 -14.990498 9.799356 38.164869 -0.418519 1.311124 0.011975 -0.022576 -491851.000000 0 0 1
35.203751 -14.884098 10.008056 39.509514 -0.400005 1.314699 0.011100 -0.025443 -644059.000000 0 0 1
-35.396232 -13.990298 9.184856 39.153331 0.376403 1.334003 0.008051 -0.018189 -785090.000000 0 0 1
-34.099232 -14.407398 8.896456 38.072007 0.399763 1.334941 0.008122 -0.022182 -564436.000000 0 0 1
-33.417432 -13.489098 7.920156 36.897282 0.383653 1.354459 0.012033 -0.021294 -437176.000000 0 0 1
-33.905832 -13.635098 6.565056 37.129790 0.382355 1.393048 0.029406 -0.023450 129161.000000 0 0 1
-32.987632 -13.235798 5.550456 35.974683 0.381571 1.415890 0.022698 -0.022367 305769.000000 0 0 1
-31.957332 -14.342498 5.158256 35.406016 0.421857 1.424587 0.001523 -0.007464 336672.000000 0 0 1
-31.005432 -14.530298 6.196956 34.797538 0.438244 1.391755 0.013883 -0.017220 130167.000000 0 0 1
-30.094632 -15.584398 5.878356 34.396445 0.477823 1.399053 0.018498 -0.009944 177001.000000 0 0 1
-29.478732 -16.271798 7.130856 34.418254 0.504365 1.362102 0.013514 -0.020691 -751464.000000 0 0 1
-30.285632 -17.195098 7.741156 35.676553 0.516379 1.352075 0.032784 -0.025152 -571181.000000 0 0 1
-30.182032 -17.093498 9.153756 35.873863 0.515307 1.312778 0.005013 -0.021880 162000.000000 0 0 1
-31.365932 -17.903698 9.776456 37.415815 0.518673 1.306436 -0.022940 -0.017016 234198.000000 0 0 1
-32.631832 -17.229598 9.676356 38.148754 0.485796 1.314347 -0.010675 -0.015237 916725.000000 0 0 1
-33.578732 -17.841698 10.588556 39.471192 0.488404 1.299210 0.013190 -0.018786 513972.000000 0 0 1
-34.214632 -19.239798 10.202556 40.557404 0.512258 1.316506 0.024570 -0.016698 -1097670.000000 0 0 1
-33.369932 -20.385198 10.203256 40.413056 0.548385 1.315560 0.024796 -0.012974 -496571.000000 0 0 1
-32.902532 -20.835698 11.497956 40.606723 0.564514 1.283715 0.027064 -0.013469 -736205.000000 0 0 1
-33.867532 -21.331598 12.603856 41.963127 0.562082 1.265731 0.041626 -0.015401 -128451.000000 0 0 1
-34.336132 -22.622298 12.407756 42.949864 0.582570 1.277730 0.035473 -0.015683 -183869.000000 0 0 1
-35.352732 -22.833798 11.457756 43.617407 0.573477 1.304990 0.034842 -0.007935 -490194.000000 0 0 1
35.459251 -24.314198 11.401556 44.480717 -0.601060 1.311577 0.027965 0.001153 -158132.000000 0 0 1
34.938051 -24.721398 12.627356 44.623593 -0.615794 1.283902 0.066321 0.001139 -111325.000000 0 0 1
34.468151 -26.027728 12.652456 45.006452 -0.646772 1.285830 0.029996 0.003384 -153969.000000 0 0 1
33.678551 -26.281198 13.961956 44.943102 -0.662646 1.254911 0.039818 -0.009124 98946.700000 0 0 1
32.445351 -25.590478 13.950956 43.614247 -0.667828 1.245202 0.037172 -0.006238 -54029.900000 0 0 1
31.808851 -25.385278 15.193256 43.440193 -0.673555 1.213491 0.024655 -0.003183 -713140.000000 0 0 1
31.696751 -23.898098 15.667056 42.676221 -0.646031 1.194891 0.041769 -0.010526 -589549.000000 0 0 1
32.867851 -23.246398 16.095156 43.356023 -0.615588 1.190461 0.050842 -0.018620 9804.560000 0 0 1
33.731851 -22.765998 15.058656 43.392299 -0.593689 1.216388 0.049061 -0.011504 9601.420000 0 0 1
34.901751 -21.992998 15.698756 44.139270 -0.562287 1.207172 0.043989 -0.015246 -386994.000000 0 0 1
34.641651 -20.695298 16.236156 43.496576 -0.538514 1.188260 0.048056 -0.011302 303198.000000 0 0 1
33.652451 -20.571198 17.266556 43.055727 -0.548675 1.158157 0.043300 -0.012361 337697.000000 0 0 1
33.634651 -19.220098 17.979256 42.707793 -0.519153 1.136268 0.046785 -0.007421 -401307.000000 0 0 1
33.281451 -18.036098 17.275456 41.610062 -0.496624 1.142661 0.055601 -0.015023 191911.000000 0 0 1
33.224851 -16.783298 17.970156 41.333961 -0.467753 1.121030 0.044512 -0.014181 -667447.000000 0 0 1
34.517151 -16.064198 18.316756 42.249210 -0.435585 1.122378 0.030363 -0.012976 -341538.000000 0 0 1
35.272551 -16.618598 19.425556 43.562403 -0.440301 1.108589 0.031216 -0.006052 -56061.400000 0 0 1
-34.878932 -15.814298 19.630656 43.034807 0.425682 1.097124 0.003396 -0.001499 -606612.000000 0 0 1
-34.646132 -15.672298 21.179056 43.526174 0.424809 1.062623 -0.000775 0.004096 -285988.000000 0 0 1
-34.046332 -16.815098 21.717156 43.743973 0.458747 1.051280 0.001546 0.005682 -38895.900000 0 0 1
-33.636332 -16.630898 23.044556 44.034546 0.459184 1.020043 -0.000792 0.005653 257172.000000 0 0 1
-32.772132 -17.844398 23.573156 44.137613 0.498610 1.007373 -0.007801 0.007666 -361072.000000 0 0 1
-33.432432 -19.094298 23.558356 45.136636 0.518922 1.021679 -0.007826 0.004011 -114677.000000 0 0 1
-32.666032 -20.228298 23.901356 45.249625 0.554451 1.014304 -0.012048 0.006910 -521885.000000 0 0 1
-31.605432 -20.677298 22.878856 44.157628 0.579345 1.026147 -0.005596 0.004101 5593.230000 0 0 1
-30.392232 -19.951698 23.021956 43.032180 0.580913 1.006296 -0.018534 0.010864 262126.000000 0 0 1
-29.322432 -20.715998 22.459756 42.348533 0.615068 1.011777 -0.003494 0.004340 656794.000000 0 0 1
-27.998632 -19.903498 22.252056 40.929533 0.617987 0.995996 0.008038 0.001518 332382.000000 0 0 1
-27.529932 -19.645498 23.570956 41.224177 0.619799 0.962128 -0.003382 0.005857 -198060.000000 0 0 1
-26.423932 -18.776198 23.520456 40.049740 0.617788 0.943101 0.023968 0.003779 -247451.000000 0 0 1
-26.067232 -18.171898 24.869056 40.350817 0.608788 0.906734 0.012235 -0.002237 -1009510.000000 0 0 1
-25.097432 -17.150098 24.845456 39.259441 0.599458 0.885564 0.016609 -0.001013 2641.900000 0 0 1
-24.847232 -16.662698 26.149756 39.734622 0.590725 0.852490 0.006230 -0.002948 34610.400000 0 0 1
-23.709532 -17.348098 26.914156 39.843070 0.631681 0.829148 0.010094 0.004548 -238752.000000 0 0 1
-24.104432 -18.655198 27.344956 40.948586 0.658643 0.839564 0.013499 0.010632 369405.000000 0 0 1
-23.066232 -19.181698 28.178256 41.158265 0.693710 0.816698 0.023093 0.004091 218339.000000 0 0 1
-23.489432 -20.454798 28.897056 42.487552 0.716451 0.822856 0.017806 0.006259 -927757.000000 0 0 1
-24.514432 -20.310898 29.795256 43.603294 0.691896 0.818488 0.017456 -0.001710 -656371.000000 0 0 1
-24.860932 -21.526298 30.409056 44.790157 0.713635 0.824502 0.019683 -0.003715 -488473.000000 0 0 1
-26.033332 -21.412498 31.391256 46.061268 0.688313 0.820971 0.015584 -0.003794 -589160.000000 0 0 1
-25.684032 -20.723298 32.559956 46.360278 0.678907 0.792139 0.034222 -0.011915 -104747.000000 0 0 1
-26.725832 -20.827398 33.470056 47.626624 0.661990 0.791528 0.051703 -0.019596 -11854.400000 0 0 1
-27.981932 -19.920898 33.286956 47.831498 0.618681 0.801094 0.025025 -0.021486 -353258.000000 0 0 1
-28.985232 -20.541398 32.545556 48.179933 0.616531 0.829153 0.031660 -0.020963 -70773.100000 0 0 1
-30.136132 -19.695898 32.492856 48.496398 0.578877 0.836580 0.033503 -0.023963 -182906.000000 0 0 1
-31.193432 -20.263998 31.581256 48.795856 0.576111 0.866875 0.022677 0.004306 -1027840.000000 0 0 1
-31.039332 -19.851698 30.219356 47.652278 0.569005 0.883870 0.009920 -0.006886 492229.000000 0 0 1
-32.025532 -20.381598 29.333356 47.973848 0.566767 0.912911 0.007368 -0.009255 -10832.100000 0 0 1
-32.517632 -19.347198 28.399056 47.309797 0.536717 0.926947 0.011305 -0.005514 -169173.000000 0 0 1
-33.728132 -19.652298 27.730256 47.882845 0.527578 0.953139 -0.010648 -0.004861 140457.000000 0 0 1
-34.243832 -18.550898 27.031656 47.407661 0.496471 0.964052 0.007870 0.002553 -332250.000000 0 0 1
-35.503532 -19.060498 26.325256 48.133383 0.492701 0.992112 -0.003519 0.005257 -267975.000000 0 0 1
34.652951 -19.406098 27.151056 48.110327 -0.510498 0.971151 0.019641 -0.000915 382416.000000 0 0 1
33.688351 -19.988398 26.269256 47.164763 -0.535503 0.980066 0.067448 -0.006356 53549.800000 0 0 1
32.363351 -20.472798 26.894456 46.795660 -0.564040 0.958533 0.062050 -0.014069 -19014.800000 0 0 1
31.614051 -19.364198 27.359456 46.075593 -0.549574 0.935029 0.052603 -0.014030 917121.000000 0 0 1
30.386651 -19.797298 27.986556 45.809703 -0.577438 0.913561 0.044894 -0.012811 706183.000000 0 0 1
-29.255209 -6.007198 33.911599 45.187943 0.202523 0.722043 0.005327 -0.003585 102195.000000 0 0 1
-30.410639 -5.651198 33.178325 45.360161 0.183734 0.750362 -0.000899 -0.003389 389504.000000 0 0 1
-30.152139 -4.439998 32.443347 44.513322 0.146202 0.754162 0.003413 0.002443 360532.000000 0 0 1
-30.926189 -4.465498 31.059347 44.057381 0.143401 0.788409 0.001865 -0.002693 140473.000000 0 0 1
-30.505269 -5.413398 30.079647 43.181726 0.175629 0.800173 -0.003486 0.002091 -364727.000000 0 0 1
-29.232569 -5.208098 29.508357 41.861802 0.176311 0.788515 0.003282 0.000045 150119.000000 0 0 1
-28.906249 -6.282698 28.432757 41.030052 0.214019 0.805190 0.014682 -0.005784 472971.000000 0 0 1
-29.768769 -6.044498 27.300027 40.841242 0.200325 0.838683 0.011350 -0.008727 457661.000000 0 0 1
-29.201759 -6.722198 26.207707 39.809227 0.226257 0.852195 0.024926 -0.008329 -66494.200000 0 0 1
-29.770529 -6.339898 24.821967 39.276058 0.209824 0.886682 0.025358 -0.002000 -72655.500000 0 0 1
-29.138379 -5.215998 24.253327 38.268468 0.177132 0.884382 0.033981 -0.013655 321544.000000 0 0 1
-29.891969 -4.813298 23.109257 38.088520 0.159653 0.918862 0.037288 -0.012741 477814.000000 0 0 1
-29.207749 -3.561798 22.465557 37.019998 0.121348 0.918706 0.038175 -0.016626 115405.000000 0 0 1
-27.986039 -3.833898 21.829157 35.699149 0.136146 0.912872 0.047637 -0.016091 -348944.000000 0 0 1
-27.415009 -2.611498 21.463157 34.915179 0.094971 0.908762 0.052126 -0.018577 -307223.000000 0 0 1
-25.994939 -2.683498 20.901257 33.463421 0.102867 0.896177 0.046155 -0.011928 -599566.000000 0 0 1
-25.949769 -3.561298 19.744057 32.800932 0.136386 0.924873 0.051786 -0.012066 -247752.000000 0 0 1
-24.677349 -3.536498 19.160357 31.441972 0.142340 0.915508 0.024554 -0.003234 -508060.000000 0 0 1
-24.753549 -4.422698 17.935357 30.886493 0.176804 0.951225 0.038407 0.001535 14165.500000 0 0 1
-25.593689 -3.888798 16.920457 30.926712 0.150790 0.991883 0.045050 -0.002502 207076.000000 0 0 1
-25.203759 -4.310598 15.623757 29.965188 0.169391 1.022309 0.052283 -0.010789 -368093.000000 0 0 1
-26.379619 -4.380798 14.652357 30.492085 0.164566 1.069538 0.057140 -0.014013 -433349.000000 0 0 1
-26.802589 -3.123598 14.269557 30.524677 0.116018 1.084363 0.055193 -0.016293 -885043.000000 0 0 1
-28.037559 -3.349098 13.689857 31.380461 0.118887 1.119365 0.045487 -0.011274 -744717.000000 0 0 1
-28.457959 -2.229598 12.658057 31.225838 0.078187 1.153411 0.038086 -0.002332 25647.600000 0 0 1
-27.761169 -2.319398 11.400357 30.100336 0.083355 1.182356 0.051612 -0.009174 378988.000000 0 0 1
-27.936259 -1.129698 10.667357 29.924961 0.040416 1.206309 0.049669 -0.006364 597090.000000 0 0 1
-29.312459 -0.974098 9.899957 30.954454 0.033219 1.245253 0.030845 -0.002500 745147.000000 0 0 1
-29.363739 -1.697398 8.692257 30.670273 0.057742 1.283448 0.032626 -0.004748 811095.000000 0 0 1
-30.685239 -1.737998 8.135657 31.792978 0.056579 1.312023 0.028461 -0.006641 476431.000000 0 0 1
-30.618969 -2.571698 6.813957 31.473241 0.083794 1.352568 0.044880 -0.004951 -165475.000000 0 0 1
-30.259189 -1.898898 5.606657 30.832757 0.062672 1.387938 0.054662 -0.015456 757352.000000 0 0 1
-31.218189 -0.881398 5.275457 31.673058 0.028226 1.403457 0.066646 -0.015459 152779.000000 0 0 1
-30.916439 -0.228098 3.922657 31.165132 0.007378 1.444595 0.060795 -0.014386 -69669.200000 0 0 1
-31.122599 -1.090098 2.821557 31.269245 0.035012 1.480439 0.063625 -0.020415 351697.000000 0 0 1
-30.721799 -0.404498 1.658257 30.769179 0.013166 1.516877 0.063693 -0.021861 -29752.600000 0 0 1
-31.401449 -1.042498 0.394157 31.421221 0.033187 1.558252 0.070504 -0.018969 399882.000000 0 0 1
-32.798389 -0.779698 0.408457 32.810198 0.023768 1.558347 0.061359 -0.017017 232037.000000 0 0 1
-33.392319 -1.337298 -0.740543 33.427290 0.040027 1.592952 0.052037 -0.016692 556157.000000 0 0 1
-34.950535 -1.185998 -0.711543 34.977890 0.033921 1.591140 0.038794 -0.010107 154706.000000 0 0 1
-35.628910 -2.127898 -0.021943 35.692403 0.059653 1.571411 0.044510 -0.010114 -206593.000000 0 0 1
34.228635 -2.029098 -0.149243 34.289050 -0.059211 1.575149 0.032774 -0.008249 -114529.000000 0 0 1
33.490115 -3.187098 0.512957 33.645334 -0.094880 1.555550 0.038633 -0.016174 -520218.000000 0 0 1
33.650135 -3.213798 1.926857 33.858128 -0.095217 1.513856 0.043434 -0.019042 72655.600000 0 0 1
33.123765 -4.316198 2.575057 33.502899 -0.129575 1.493860 0.046069 -0.008950 -389492.000000 0 0 1
33.235525 -4.307798 4.104857 33.763991 -0.128896 1.448920 0.052939 -0.003494 -142840.000000 0 0 1
32.393635 -3.439198 4.810457 32.928956 -0.105773 1.424186 0.051974 -0.012574 -102951.000000 0 0 1
32.511485 -3.809298 6.138157 33.304419 -0.116636 1.385432 0.047476 -0.013408 -177595.000000 0 0 1
32.050015 -2.658398 6.984257 32.909730 -0.082756 1.356945 0.055280 -0.009422 83958.200000 0 0 1
30.646535 -2.518998 6.855357 31.504783 -0.082011 1.351444 0.046927 -0.009904 17150.400000 0 0 1
30.197045 -1.252398 7.339957 31.101527 -0.041450 1.332549 0.059077 -0.009475 332871.000000 0 0 1
28.695295 -1.317798 7.738657 29.749678 -0.045892 1.307644 0.039129 -0.000547 521725.000000 0 0 1
27.794865 -1.344098 6.615657 28.602937 -0.048320 1.337390 0.032924 -0.008041 1171370.000000 0 0 1
26.440015 -1.684798 6.939557 27.387412 -0.063636 1.314619 0.043947 -0.000631 670125.000000 0 0 1
26.098735 -3.205598 6.948457 27.197442 -0.122214 1.312450 0.054787 -0.013308 -539038.000000 0 0 1
26.637035 -3.954798 8.037457 28.102896 -0.147393 1.280745 0.045084 -0.011576 613294.000000 0 0 1
26.148835 -5.290798 7.895857 27.822628 -0.199639 1.283049 0.053482 -0.020921 -7509.720000 0 0 1
26.531665 -6.179298 9.105557 28.723233 -0.228824 1.248221 0.052030 -0.022311 110979.000000 0 0 1
25.654035 -5.823898 10.182357 28.208645 -0.223233 1.201493 0.059800 -0.009065 845471.000000 0 0 1
26.017935 -6.471998 11.398357 29.133181 -0.243803 1.168807 0.061440 -0.012184 -186303.000000 0 0 1
24.807335 -6.513498 12.327657 28.456996 -0.256768 1.122753 0.050222 -0.019618 284023.000000 0 0 1
23.685035 -7.233298 11.824657 27.443104 -0.296399 1.125330 0.059357 -0.029077 1431.890000 0 0 1
22.563135 -7.058398 12.665957 26.820561 -0.303184 1.078957 0.065878 -0.026220 250348.000000 0 0 1
21.615635 -8.285398 12.632657 26.371718 -0.366033 1.071255 0.063624 -0.026391 440618.000000 0 0 1
22.234335 -9.436398 13.244657 27.546909 -0.401368 1.069225 0.063521 -0.030876 717895.000000 0 0 1
21.203135 -10.399198 13.441757 27.173463 -0.455983 1.053347 0.078152 -0.043619 77688.900000 0 0 1
21.624235 -11.367398 14.593757 28.457038 -0.483979 1.032313 0.054149 -0.039006 -466327.000000 0 0 1
21.386535 -10.848998 15.910057 28.778717 -0.469456 0.985026 0.056187 -0.032802 262432.000000 0 0 1
21.949435 -11.745298 16.865757 30.069644 -0.491337 0.975336 0.049110 -0.032669 -133055.000000 0 0 1
21.616535 -11.288298 18.282757 30.478836 -0.481255 0.927482 0.053788 -0.022539 142246.000000 0 0 1
20.232435 -11.394098 18.610057 29.757538 -0.512891 0.895166 0.059544 -0.030782 275891.000000 0 0 1
19.955835 -11.753498 19.980357 30.587493 -0.532274 0.858967 0.074607 -0.019582 235122.000000 0 0 1
20.443235 -10.797398 21.105657 31.304287 -0.485925 0.830902 0.071920 -0.015780 -25872.000000 0 0 1
19.681135 -9.581398 21.217357 30.484857 -0.453058 0.800989 0.066869 -0.006988 130091.000000 0 0 1
19.942535 -8.541498 20.291957 29.705646 -0.404667 0.818796 0.071418 -0.002114 -1210200.000000 0 0 1
21.061235 -7.592298 20.772257 30.540223 -0.345987 0.822815 0.059678 0.008043 -44853.400000 0 0 1
22.283435 -8.279698 20.867557 31.631626 -0.355754 0.850370 0.062837 0.000809 -567786.000000 0 0 1
23.052735 -8.176998 19.697657 31.405247 -0.340863 0.892832 0.061152 -0.007003 -1013460.000000 0 0 1
24.369235 -8.955698 19.796857 32.649344 -0.352179 0.919337 0.053561 -0.010968 -283515.000000 0 0 1
24.207135 -10.339698 19.966457 33.038676 -0.403677 0.921864 0.040288 -0.017630 372550.000000 0 0 1
25.452735 -11.023598 19.870957 34.120615 -0.408712 0.949150 0.040679 -0.021777 577805.000000 0 0 1
25.122535 -12.534398 20.141357 34.553251 -0.462792 0.948494 0.031018 -0.026101 -155787.000000 0 0 1
24.260535 -13.112998 19.217157 33.612845 -0.495526 0.962195 0.044445 -0.028496 -171798.000000 0 0 1
24.039635 -14.451598 19.430057 34.121545 -0.541270 0.964976 0.036291 -0.021240 -65621.900000 0 0 1
22.996235 -14.993098 18.423957 33.061488 -0.577766 0.979710 0.034471 -0.018603 -387959.000000 0 0 1
23.451635 -15.105898 17.067957 32.702943 -0.572238 1.021709 0.032571 -0.022255 582233.000000 0 0 1
22.489235 -15.540898 16.069257 31.709718 -0.604685 1.039373 0.024275 -0.023521 193771.000000 0 0 1
22.035935 -16.971598 16.195057 32.185360 -0.656291 1.043521 0.009026 -0.022884 -701292.000000 0 0 1
23.138535 -17.798098 15.995757 33.287059 -0.655675 1.069526 0.045385 -0.022389 -244791.000000 0 0 1
22.927835 -19.099098 16.420757 34.060276 -0.694547 1.067736 0.027731 -0.008806 382262.000000 0 0 1
24.255635 -19.929798 16.356157 35.398539 -0.687807 1.090483 0.020758 -0.006583 453290.000000 0 0 1
24.552935 -20.048998 14.978457 35.059422 -0.684759 1.129369 0.025150 -0.018830 237214.000000 0 0 1
25.517535 -21.083398 14.765157 36.244505 -0.690533 1.151217 0.027956 -0.020102 30574.400000 0 0 1
26.139535 -21.119398 13.349557 36.159576 -0.679569 1.192665 0.019282 -0.029880 -215259.000000 0 0 1
25.250935 -21.467698 12.295957 35.350563 -0.704595 1.215542 0.013144 -0.026851 173138.000000 0 0 1
25.870035 -21.512198 11.030857 35.407812 -0.693684 1.253986 0.008884 -0.024600 -64175.200000 0 0 1
24.814135 -21.415798 9.875557 34.233088 -0.712021 1.278158 -0.001201 -0.019043 261363.000000 0 0 1
24.066735 -22.540098 9.495457 34.313663 -0.752654 1.290412 0.000129 -0.020833 669122.000000 0 0 1
22.833135 -22.706298 10.237357 33.789518 -0.782613 1.262984 -0.014731 -0.006139 1083520.000000 0 0 1
21.866035 -23.658298 9.411757 33.562177 -0.824747 1.286557 -0.007563 -0.007877 137383.000000 0 0 1
22.427535 -24.949198 9.336557 34.822810 -0.838574 1.299359 -0.009929 -0.003000 52298.600000 0 0 1
22.085835 -25.652528 8.151357 34.817825 -0.859973 1.334489 -0.000258 0.002696 -167652.000000 0 0 1
20.662535 -26.225188 7.930957 34.316190 -0.903484 1.337574 -0.005152 0.020700 -350151.000000 0 0 1
19.747035 -25.223548 7.705557 32.947661 -0.906581 1.334737 -0.014814 0.017631 -964074.000000 0 0 1
18.428335 -25.741588 7.791257 32.602708 -0.949481 1.329485 -0.002872 0.003516 -35156.300000 0 0 1
17.426135 -24.595098 7.699557 31.110645 -0.954375 1.320708 -0.002271 -0.004662 -708976.000000 0 0 1
17.283535 -24.042698 6.406957 30.295561 -0.947519 1.357706 0.010551 0.000905 -115917.000000 0 0 1
16.563135 -22.857598 6.397757 28.943713 -0.943735 1.347914 0.044015 -0.003687 -371796.000000 0 0 1
16.156235 -22.391498 4.980257 28.057193 -0.945764 1.392347 0.042248 -0.000879 -178864.000000 0 0 1
15.319035 -21.272998 5.148857 26.715614 -0.946697 1.376854 0.062575 -0.002168 -101244.000000 0 0 1
14.952335 -20.700998 3.900957 25.832559 -0.945260 1.419207 0.051253 0.002474 550252.000000 0 0 1
14.129835 -19.381098 3.981457 24.313190 -0.940837 1.406298 0.060514 0.007052 681476.000000 0 1 0
15.022935 -18.306998 4.180157 24.048045 -0.883613 1.396084 0.042442 0.004118 836722.000000 0 1 0
14.211235 -17.146698 4.312057 22.683965 -0.878738 1.379540 0.019970 0.013093 583976.000000 0 1 0
15.176535 -15.954798 4.418257 22.458936 -0.810392 1.372779 0.004991 0.008551 323606.000000 0 1 0
15.805035 -15.831398 5.716057 23.089080 -0.786232 1.320630 0.025224 -0.001152 994181.000000 0 1 0
16.813635 -14.772398 5.796457 23.119710 -0.720863 1.317378 0.025785 -0.006241 1240410.000000 0 1 0
18.262835 -15.320498 5.604257 24.487885 -0.698008 1.339892 0.031410 -0.013656 -327817.000000 0 1 0
19.135235 -14.243398 5.528257 24.486593 -0.639878 1.343066 0.037939 -0.017763 -413739.000000 0 1 0
20.437135 -14.778298 5.314857 25.774450 -0.626068 1.363100 0.046454 -0.022287 -351281.000000 0 0 1
21.467435 -13.722398 5.041457 25.972510 -0.568759 1.375449 0.043725 -0.027223 -651924.000000 0 0 1
21.620035 -12.832298 6.140057 25.880380 -0.535654 1.331265 0.068249 -0.032947 -15852.400000 0 0 1
22.691135 -11.945998 5.985457 26.332872 -0.484592 1.341492 0.076199 -0.040010 -226505.000000 0 0 1
22.968535 -11.014598 7.179857 26.465549 -0.447156 1.296063 0.088436 -0.043635 -177217.000000 0 0 1
23.275835 -11.724298 8.383157 27.377015 -0.466612 1.259586 0.089000 -0.025526 277394.000000 0 0 1
23.350335 -10.911498 9.563457 27.491064 -0.437143 1.215493 0.102295 -0.038875 -152351.000000 0 0 1
23.475035 -11.861298 10.780457 28.425093 -0.467857 1.181802 0.081361 -0.039151 -713432.000000 0 0 1
22.417535 -12.704498 11.000357 28.017102 -0.515591 1.167307 0.084991 -0.048549 -605924.000000 0 0 1
22.836535 -13.645398 11.932757 29.156387 -0.538598 1.149145 0.084025 -0.045514 -855768.000000 0 0 1
21.936735 -14.774398 12.306157 29.170956 -0.592719 1.135297 0.062122 -0.042642 -1082410.000000 0 0 1
20.766535 -14.338698 12.931457 28.356125 -0.604302 1.097259 0.043466 -0.034823 -151390.000000 0 0 1
19.948335 -15.515598 13.217357 28.519614 -0.661050 1.088914 0.018219 -0.029333 1258190.000000 0 0 1
18.525735 -15.046898 13.729957 27.534046 -0.682145 1.048751 0.027829 -0.027202 672867.000000 0 0 1
18.603435 -14.629798 15.090057 28.068284 -0.666395 1.003185 0.024397 -0.039220 197492.000000 0 0 1
18.511235 -13.250598 15.203957 27.375253 -0.621261 0.981964 0.040945 -0.050166 339770.000000 0 0 1
17.065035 -12.682698 15.450557 26.282807 -0.639134 0.942388 0.051488 -0.045696 336714.000000 0 0 1
16.297935 -12.798498 14.281657 25.167240 -0.665703 0.967366 0.048401 -0.053583 399741.000000 0 0 1
14.911235 -12.475498 14.438257 24.216652 -0.696693 0.932022 0.079353 -0.049131 694945.000000 0 1 0
14.499335 -11.036798 14.309057 23.168745 -0.650627 0.905107 0.062419 -0.047251 -502264.000000 0 1 0
14.950435 -10.264498 15.395157 23.788364 -0.601655 0.866928 0.048737 -0.033188 9365.890000 0 1 0
14.629035 -8.929598 15.349557 23.007722 -0.548033 0.840423 0.047033 -0.026247 -747362.000000 0 1 0
15.304735 -8.190998 16.492957 23.944623 -0.491405 0.810970 0.058935 -0.012224 -704655.000000 0 1 0
16.672635 -7.985498 16.359557 24.685624 -0.446673 0.846357 0.057575 -0.027707 -841188.000000 0 1 0
17.390635 -8.924698 17.145057 26.000719 -0.474144 0.850767 0.065813 -0.022541 -667390.000000 0 0 1
18.861435 -8.874998 16.707557 26.714449 -0.439800 0.895136 0.052923 -0.018335 -643070.000000 0 0 1
19.424035 -7.666798 17.132457 27.010998 -0.375935 0.883723 0.064457 -0.022859 -358220.000000 0 0 1
20.565335 -7.427398 16.364257 27.310953 -0.346583 0.928316 0.056705 -0.011551 -87503.800000 0 0 1
21.311035 -6.040698 16.583657 27.670705 -0.276209 0.928143 0.055416 -0.006625 190051.000000 0 0 1
21.885935 -5.901898 17.853857 28.854579 -0.263401 0.903642 0.060190 0.002087 139573.000000 0 0 1
22.182735 -4.553098 18.027157 28.944478 -0.202442 0.898456 0.058708 -0.004725 -132389.000000 0 0 1
-5.426849 -33.239856 -6.486044 34.298797 1.408961 1.761046 0.016156 0.002242 -502552.000000 0 0 1
-6.222449 -32.123156 -6.384744 33.337381 1.379460 1.763506 0.027735 -0.010873 -172538.000000 0 0 1
-5.726649 -31.271056 -5.361944 32.240097 1.389674 1.737886 0.034449 -0.015149 -151663.000000 0 0 1
-6.491249 -29.901556 -5.340544 31.060598 1.357026 1.743594 0.045174 -0.018319 1207060.000000 0 0 1
-7.869849 -29.958956 -4.947444 31.367989 1.313912 1.729180 0.045631 -0.016724 1094400.000000 0 0 1
-8.772349 -30.299556 -6.016644 32.112571 1.288981 1.759271 0.039552 -0.014373 -442644.000000 0 0 1
-10.240349 -30.250756 -5.628644 32.429224 1.244389 1.745247 0.033056 -0.011121 -635573.000000 0 0 1
-11.187949 -30.523156 -6.596944 33.171568 1.219463 1.771005 0.027970 -0.010975 -1187110.000000 0 0 1
-12.483049 -30.467056 -6.104944 33.486390 1.181936 1.754133 0.030904 -0.006409 -296736.000000 0 0 1
-13.563449 -30.994256 -7.085544 34.566110 1.158292 1.777245 0.035723 -0.006923 208472.000000 0 0 1
-13.727749 -30.040956 -8.073444 34.001332 1.142163 1.810531 0.050621 -0.010944 -443836.000000 0 0 1
-14.932549 -30.274356 -8.738544 34.869468 1.112571 1.824104 0.074878 -0.013032 -297871.000000 0 0 1
-15.134749 -29.494256 -10.098144 34.654643 1.096690 1.866480 0.073274 -0.010597 -216883.000000 0 0 1
-15.480449 -28.111756 -9.930044 33.593465 1.067435 1.870874 0.077608 -0.012472 741075.000000 0 0 1
-14.383749 -27.248956 -9.526844 32.251489 1.085107 1.870663 0.061641 -0.008024 274208.000000 0 0 1
-14.611549 -25.750656 -9.415544 31.068410 1.054674 1.878697 0.059809 -0.005446 -307435.000000 0 0 1
-14.806249 -25.142456 -10.698344 31.077687 1.038583 1.922231 0.072428 -0.007913 314072.000000 0 0 1
-15.330949 -23.806356 -10.447344 30.181576 0.998661 1.924260 0.057692 0.004180 112726.000000 0 0 1
-15.947249 -23.120656 -11.709344 30.430054 0.966989 1.965782 0.056639 0.011801 144926.000000 0 0 1
-17.057049 -23.822456 -12.254844 31.758991 0.949408 1.966947 0.061981 0.000296 34078.900000 0 0 1
-17.373049 -23.418856 -13.585644 32.168857 0.932538 2.006803 0.068370 -0.008929 -775264.000000 0 0 1
-18.814449 -23.716756 -14.062744 33.380065 0.900156 2.005665 0.058075 0.014977 -14046.000000 0 0 1
-19.244849 -25.009356 -14.198844 34.604035 0.914928 1.993605 0.076765 0.005047 -126157.000000 0 0 1
-19.367749 -25.664656 -12.942544 34.659684 0.924328 1.953487 0.086171 -0.000977 -2023760.000000 0 0 1
-19.531249 -27.172356 -13.048244 35.917451 0.947570 1.942587 0.080860 -0.013236 283500.000000 0 0 1
-18.540649 -28.053656 -13.587844 36.268344 0.986797 1.954813 0.080093 -0.014696 50691.500000 0 0 1
-17.197649 -27.634056 -13.471044 35.225973 1.014115 1.963208 0.090604 -0.017526 -896314.000000 0 0 1
-16.306449 -28.753056 -14.056444 35.919662 1.054904 1.972873 0.082478 -0.017921 -305486.000000 0 0 1
-16.441149 -28.950056 -15.449044 36.702725 1.054303 2.005260 0.067873 -0.016551 -99378.200000 0 0 1
-15.561049 -29.975356 -15.888744 37.324528 1.091964 2.010523 0.084183 -0.011472 359327.000000 0 0 1
-16.160949 -31.419156 -15.747644 38.682398 1.095722 1.990074 0.076353 -0.015903 203201.000000 0 0 1
-16.169249 -31.899156 -14.394644 38.551349 1.101655 1.953456 0.077837 -0.014292 -83084.800000 0 0 1
-16.450049 -33.266756 -14.286244 39.766543 1.111567 1.938263 0.050890 -0.008144 -499820.000000 0 0 1
-17.112549 -33.658956 -12.897644 39.901301 1.100443 1.899946 0.062861 -0.008578 1166970.000000 0 0 1
-18.524749 -33.482056 -12.664444 40.306358 1.065443 1.890415 0.068004 -0.009111 1179310.000000 0 0 1
-19.081649 -32.160456 -12.764444 39.513735 1.035298 1.899734 0.072393 -0.014731 -204586.000000 0 0 1
-18.567649 -31.123656 -11.701044 38.083513 1.032898 1.883095 0.087605 -0.015734 -227217.000000 0 0 1
-18.990949 -31.419956 -10.401144 38.158270 1.027131 1.846869 0.076632 -0.024447 163680.000000 0 0 1
-18.809649 -30.262156 -9.578744 36.896521 1.014677 1.833416 0.084689 -0.018003 -178489.000000 0 0 1
-19.088849 -30.459856 -8.053344 36.838069 1.010984 1.791191 0.052696 -0.015473 570957.000000 0 0 1
-18.095049 -31.275156 -7.378644 36.878321 1.046279 1.772237 0.072540 -0.019223 504876.000000 0 0 1
-18.426449 -31.559156 -6.000744 37.034082 1.042321 1.733547 0.058964 -0.023265 -166031.000000 0 0 1
-17.478149 -32.471056 -5.202744 37.241424 1.077005 1.710958 0.068872 -0.017645 -673303.000000 0 0 1
-16.238649 -31.957356 -4.850444 36.173099 1.100662 1.705291 0.041002 -0.018653 -375471.000000 0 0 1
-15.833149 -32.498256 -3.612544 36.330094 1.117441 1.670398 0.035602 -0.011351 -21339.500000 0 0 1
-14.709349 -31.740256 -2.870944 35.100585 1.136831 1.652680 0.029823 -0.003281 -222790.000000 0 0 1
-13.426849 -32.101656 -3.282444 34.950980 1.174648 1.664851 0.021878 -0.008921 -1272780.000000 0 0 1
-12.481349 -31.375156 -2.596844 33.866326 1.192179 1.647551 0.024309 -0.000630 112315.000000 0 0 1
-11.053249 -31.999656 -2.592444 33.953984 1.238210 1.647222 0.027393 -0.006711 107645.000000 0 0 1
-10.948049 -33.161956 -1.782144 34.967858 1.251924 1.621784 0.027611 0.001730 751987.000000 0 0 1
-9.632649 -33.719956 -1.572244 35.104064 1.292541 1.615599 0.034465 0.000089 940568.000000 0 0 1
-8.665649 -32.965256 -0.629244 34.091018 1.313740 1.589255 0.045682 -0.003385 -483168.000000 0 0 1
-9.209249 -32.749656 0.639256 34.025856 1.296674 1.552008 0.055727 -0.007774 -105394.000000 0 0 1
-8.277149 -32.413556 1.649256 33.494325 1.320779 1.521537 0.047869 -0.011536 450864.000000 0 0 1
-7.265949 -33.474156 2.168856 34.322253 1.357051 1.507563 0.048674 -0.013222 161153.000000 0 0 1
-7.911849 34.322202 2.878056 35.339695 -1.344237 1.489266 0.064605 -0.018958 612600.000000 0 0 1
-7.000749 33.334702 3.405256 34.231690 -1.363791 1.471155 0.057468 -0.017953 90032.800000 0 0 1
-6.166249 33.577702 4.681956 34.458749 -1.389179 1.434503 0.065573 -0.026744 490595.000000 0 0 1
-5.108949 -34.327256 4.494156 34.995132 1.423050 1.442018 0.064827 -0.023932 488963.000000 0 0 1
-4.358349 -34.068156 5.695156 34.814785 1.443557 1.406473 0.054363 -0.024998 441599.000000 0 0 1
-3.043749 -33.273056 5.501756 33.861925 1.479572 1.407597 0.053876 -0.018273 183116.000000 0 0 1
-3.258849 -31.993156 4.876456 32.526327 1.469286 1.420306 0.039180 -0.017333 84101.100000 0 0 1
-3.262749 -32.018656 3.447556 32.368588 1.469245 1.464085 0.046904 -0.020689 -417677.000000 0 0 1
-3.742449 -30.736456 2.794656 31.089319 1.449633 1.480784 0.024520 -0.023848 80749.300000 0 0 1
-2.915249 -29.608156 3.039256 29.906164 1.472652 1.468994 0.008512 -0.015172 22648.000000 0 0 1
-3.308949 -28.553556 2.183156 28.827432 1.455425 1.494992 0.014596 -0.018729 281073.000000 0 0 1
-2.801649 -27.224156 2.720156 27.502784 1.468247 1.471730 0.013113 -0.019899 -23978.400000 0 0 1
-3.225349 -26.085056 1.950656 26.355987 1.447773 1.496717 0.017761 -0.016907 -287568.000000 0 0 1
-3.068649 -24.793056 2.472156 25.104258 1.447652 1.472161 0.007896 -0.014007 -392926.000000 0 0 1
-4.179849 -24.370156 3.422756 24.961789 1.400934 1.433243 0.004065 -0.009996 -400790.000000 0 1 0
-4.256049 -25.190056 4.556556 25.950242 1.403420 1.394293 0.026248 -0.013979 -540274.000000 0 0 1
-5.124349 -24.542656 5.404956 25.647894 1.364960 1.358468 0.012127 -0.009979 -625460.000000 0 0 1
-5.674449 -25.493256 6.466856 26.905867 1.351780 1.328069 0.021220 -0.014457 -561987.000000 0 0 1
-4.723049 -25.913756 7.414356 27.364258 1.390515 1.296416 0.020929 -0.014580 -71189.100000 0 0 1
-5.335349 -26.831456 8.335656 28.598534 1.374510 1.275032 0.021425 -0.017890 16098.700000 0 0 1
-4.446049 -27.371056 9.456556 29.297927 1.409767 1.242139 0.009736 -0.011167 -402430.000000 0 0 1
-4.211449 -26.465056 10.531556 28.793214 1.412987 1.196341 0.012203 -0.012678 243799.000000 0 0 1
-5.343649 -25.964556 11.277856 28.808033 1.367825 1.168554 0.010016 -0.016340 337958.000000 0 0 1
-5.082949 -24.907856 12.340756 28.258307 1.369490 1.118855 0.005361 -0.008641 238734.000000 0 0 1
-4.319549 -25.543656 13.378656 29.156908 1.403277 1.094096 0.005353 -0.012276 -313018.000000 0 0 1
-3.476849 -24.649656 14.028656 28.574415 1.430670 1.057615 -0.007369 -0.008096 -191204.000000 0 0 1
-2.522349 -25.322756 15.101956 29.591777 1.471516 1.035213 -0.011175 -0.011442 300830.000000 0 0 1
-3.122749 -26.040956 16.155956 30.804186 1.451449 1.018701 -0.016324 -0.007059 -432004.000000 0 0 1
-2.101349 -26.744556 16.788456 31.647104 1.492386 1.011618 -0.018140 0.010449 -229338.000000 0 0 1
-2.300949 -27.044956 18.298256 32.734541 1.485922 0.977630 -0.019861 -0.003961 -189549.000000 0 0 1
-2.279349 -25.856556 19.092156 32.222156 1.482870 0.936617 -0.016825 -0.006122 -155745.000000 0 0 1
-2.648649 -26.122456 20.406556 33.253956 1.469748 0.910111 0.004441 -0.009050 27697.000000 0 0 1
-2.697849 -24.845256 21.282956 32.825742 1.462634 0.865366 0.005800 -0.013903 34928.500000 0 0 1
-2.631649 -25.220056 22.661556 34.007689 1.466825 0.841472 0.010075 -0.011267 -146857.000000 0 0 1
-2.747449 -24.097556 23.604756 33.844131 1.457273 0.798956 0.021207 -0.009639 302306.000000 0 0 1
-1.833449 -22.834756 23.430956 32.768847 1.490676 0.774118 0.016480 -0.013972 426887.000000 0 0 1
-2.448149 -21.782856 22.688456 31.547619 1.458877 0.768173 0.040690 -0.010750 -282361.000000 0 0 1
-1.474949 -20.862756 22.265456 30.548005 1.500216 0.754130 0.026202 -0.007551 -449877.000000 0 0 1
-1.977649 -19.690956 21.389856 29.140535 1.470698 0.746568 0.032376 0.001236 23886.300000 0 0 1
-2.882649 -18.692856 21.890856 28.929952 1.417790 0.712569 0.042227 -0.015047 1400850.000000 0 0 1
-4.165649 -19.183256 22.367656 29.760074 1.356966 0.720313 0.046085 -0.021455 738516.000000 0 0 1
-5.274849 -19.404356 21.292356 29.286814 1.305372 0.756812 0.022393 -0.017260 -458313.000000 0 0 1
-5.104349 -20.360656 20.257456 29.171479 1.325162 0.803173 0.038127 -0.010125 -331594.000000 0 0 1
-5.197649 -21.726356 20.559156 30.359990 1.335977 0.826874 0.025719 -0.004406 6425.440000 0 0 1
-5.271349 -22.447456 19.211656 30.012716 1.340145 0.876146 0.007782 -0.002699 -8729.860000 0 0 1
-5.425749 -23.849156 19.277656 31.142399 1.347101 0.903307 0.013275 -0.010115 -135139.000000 0 0 1
-5.528249 -24.323556 17.977956 30.747420 1.347313 0.946289 0.002568 -0.016527 1598.520000 0 0 1
-6.138349 -25.756356 17.840556 31.927334 1.336837 0.977875 0.011909 -0.026702 827726.000000 0 0 1
-7.550649 -25.717956 18.059556 32.319856 1.285227 0.977887 0.035547 -0.026019 243363.000000 0 0 1
-8.209849 -26.872956 17.551756 33.130371 1.274296 1.012457 0.055152 -0.034083 561991.000000 0 0 1
-9.757849 -26.911456 17.676456 33.643709 1.222949 1.017609 0.059188 -0.033349 -275444.000000 0 0 1
-10.433449 -26.272956 16.594356 32.779532 1.192777 1.039975 0.072970 -0.033993 509034.000000 0 0 1
-11.848249 -26.324456 16.779456 33.390240 1.147872 1.044279 0.059698 -0.024598 664469.000000 0 0 1
-12.490449 -25.458456 17.888856 33.528428 1.114680 1.008012 0.063795 -0.018043 -895080.000000 0 0 1
-12.449449 -24.057056 17.637356 32.323475 1.093249 0.993630 0.051633 -0.017308 177289.000000 0 0 1
-12.687549 -23.207756 18.767556 32.431389 1.070495 0.953681 0.049151 -0.005635 404.013000 0 0 1
-11.389449 -22.570956 19.325556 31.822079 1.103470 0.918138 0.033417 -0.010272 321177.000000 0 0 1
-10.675149 -23.433156 20.200756 32.728308 1.143330 0.905585 0.040297 -0.012170 -356524.000000 0 0 1
-9.300049 -23.386256 19.914856 32.093759 1.192299 0.901389 0.036088 -0.017532 -285403.000000 0 0 1
-8.557149 -24.400356 20.783356 33.174539 1.233500 0.893761 0.029991 -0.022134 -142463.000000 0 0 1
-8.389649 -23.877856 22.118456 33.611967 1.232913 0.852566 0.032769 -0.015338 369600.000000 0 0 1
-7.429449 -24.631656 22.870656 34.423569 1.277852 0.844120 0.027956 -0.012685 539336.000000 0 0 1
-7.255949 -24.098856 24.314056 34.993956 1.278339 0.802644 0.034631 -0.016418 156434.000000 0 0 1
-6.106549 -24.600756 24.956956 35.571573 1.327488 0.793158 0.028232 -0.017067 -4275.400000 0 0 1
-6.234649 -24.278656 26.322456 36.348255 1.319432 0.760961 0.023914 -0.006202 -112007.000000 0 0 1
-5.091949 -24.797456 27.216856 37.169867 1.368270 0.749207 0.030777 -0.004699 -125124.000000 0 0 1
-3.881549 -24.170556 26.873956 36.352327 1.411566 0.738820 0.024226 0.001658 773697.000000 0 0 1
-2.809449 -24.504956 27.843356 37.197289 1.456647 0.724951 0.021426 0.004551 1741550.000000 0 0 1
-1.486949 -23.713856 27.573156 36.398309 1.508175 0.711261 0.024755 -0.000883 -33308.200000 0 0 1
-1.629049 -22.324856 27.595656 35.532706 1.497955 0.681503 0.034157 -0.005287 88689.500000 0 0 1
-0.407549 -21.673656 27.333456 34.885975 1.551995 0.670504 0.038360 -0.012974 283601.000000 0 0 1
0.609251 -21.383056 28.449756 35.594872 -1.542312 0.644724 0.019010 -0.010293 -176744.000000 0 0 1
1.074751 -22.547056 29.062356 36.798714 -1.523165 0.660370 0.026946 -0.005854 -186527.000000 0 0 1
2.182551 -22.251056 29.865056 37.306763 -1.473022 0.642623 0.025237 -0.011507 -85134.800000 0 0 1
2.833851 -23.516556 30.498856 38.616568 -1.450870 0.660335 0.025116 -0.014291 -855200.000000 0 0 1
3.255051 -24.443056 29.442756 38.404872 -1.438407 0.697203 0.031471 -0.018545 129886.000000 0 0 1
3.880551 -25.575856 29.958756 39.581690 -1.420218 0.712264 0.017172 -0.006823 -148754.000000 0 0 1
5.264851 -25.282956 30.625056 40.060462 -1.365493 0.700576 0.008268 -0.006452 -921441.000000 0 0 1
6.250651 -24.729056 29.828256 39.246932 -1.323217 0.707460 0.017489 -0.015065 -117515.000000 0 0 1
7.028551 -25.712256 29.131856 39.486525 -1.303961 0.741040 0.018644 -0.010935 85326.100000 0 0 1
8.314951 -25.170856 28.455556 38.889961 -1.251742 0.749992 0.018579 -0.009601 161797.000000 0 0 1
7.927051 -24.295556 27.409456 37.475198 -1.255411 0.750420 0.022200 -0.009969 351213.000000 0 0 1
9.049251 -23.794456 26.698656 36.890152 -1.207379 0.761598 0.008382 -0.004911 117291.000000 0 0 1
8.749651 -22.714156 25.569756 35.302998 -1.203107 0.760786 0.014185 -0.002387 -105980.000000 0 0 1
8.051951 -23.119956 24.410456 34.572195 -1.235665 0.786861 0.027587 0.000692 -59263.000000 0 0 1
7.626051 -22.026056 23.660056 33.212980 -1.237485 0.777921 0.016746 0.007366 -577250.000000 0 0 1
6.820251 -22.432756 22.473956 32.478040 -1.275646 0.806577 0.042623 -0.001515 -355321.000000 0 0 1
7.574951 -23.091656 21.422556 32.396456 -1.253819 0.848296 0.033008 0.009262 253691.000000 0 0 1
6.864651 -23.089556 20.232856 31.458218 -1.281813 0.872171 0.036065 0.003904 18007.700000 0 0 1
7.615951 -23.942356 19.162556 31.598143 -1.262822 0.919214 0.046064 -0.005306 270349.000000 0 0 1
8.868651 -23.468556 18.768356 31.331730 -1.209490 0.928519 0.045776 -0.010733 -731242.000000 0 0 1
9.611451 -24.308056 17.944956 31.706198 -1.194260 0.969179 0.054496 -0.018578 178225.000000 0 0 1
10.993151 -23.806956 17.487156 31.518584 -1.138204 0.982649 0.047094 -0.020628 237859.000000 0 0 1
10.862851 -22.727956 16.602456 30.169572 -1.124943 0.988067 0.057008 -0.018976 -60889.800000 0 0 1
12.021751 -22.631556 15.792356 30.101633 -1.082506 1.018511 0.057719 -0.029259 122293.000000 0 0 1
-11.815549 22.609202 11.807456 28.110482 -1.089233 1.137310 0.009627 0.001062 -447481.000000 0 0 1
-12.834049 21.909502 11.154856 27.733912 -1.040902 1.156867 0.004247 -0.001495 -47543.900000 0 0 1
-12.399749 20.614802 10.807256 26.372725 -1.029277 1.148573 0.007707 -0.005229 -255288.000000 0 0 1
-13.318149 19.905002 9.811956 25.881589 -0.981121 1.181963 0.013953 0.001594 -550903.000000 0 0 1
-13.222549 20.446702 8.483156 25.785022 -0.996756 1.235557 0.016630 -0.006263 58752.600000 0 0 1
-13.970149 19.891402 7.408556 25.411014 -0.958514 1.274951 0.014565 -0.008778 -277856.000000 0 0 1
-15.504349 19.869402 7.424456 26.273570 -0.908176 1.284311 0.016399 -0.007665 -447445.000000 0 0 1
-15.996549 18.963902 8.346756 26.176086 -0.870073 1.246260 0.010248 -0.004186 -387049.000000 0 0 1
-17.375149 19.187602 8.554056 27.262277 -0.834929 1.251636 0.009465 0.000173 -42190.300000 0 0 1
-18.012449 18.193902 9.550456 27.325402 -0.790410 1.213750 0.005576 -0.000890 -73065.100000 0 0 1
-18.075749 16.836102 9.079556 26.317776 -0.749905 1.218561 -0.004522 -0.004531 280940.000000 0 0 1
-18.712049 15.996302 10.044656 26.587921 -0.707312 1.183388 0.010808 -0.006440 142669.000000 0 0 1
-17.702149 15.184302 10.885356 25.737523 -0.708985 1.134112 0.014101 -0.002592 563121.000000 0 0 1
-16.972349 14.081102 10.310656 24.344356 -0.692560 1.133454 0.001411 0.006260 485663.000000 0 1 0
-16.268549 13.142602 11.123856 23.688264 -0.679511 1.081966 -0.002888 0.004065 404356.000000 0 1 0
-17.119949 12.055902 11.901656 24.084992 -0.613541 1.053937 0.007272 -0.001182 -84702.500000 0 1 0
-17.916049 11.309102 11.038656 23.890009 -0.563065 1.090478 0.001064 -0.002277 178140.000000 0 1 0
-18.891249 10.547902 11.771556 24.631424 -0.509230 1.072525 0.026677 -0.003796 754044.000000 0 1 0
-19.958149 9.881902 10.826256 24.762623 -0.459745 1.118312 0.035146 -0.003333 -84110.100000 0 1 0
-19.407349 8.830002 10.068056 23.579225 -0.426990 1.129637 0.016119 -0.001698 253842.000000 0 1 0
-18.909649 9.153302 8.782956 22.770553 -0.450810 1.174813 0.016931 -0.001555 -326953.000000 0 1 0
-19.911249 9.503202 7.631756 23.345500 -0.445305 1.237770 0.019959 -0.005983 43580.800000 0 1 0
-20.432949 8.317702 7.092056 23.172976 -0.386589 1.259757 0.008049 -0.006500 -158765.000000 0 1 0
-21.367649 8.451402 6.088456 23.771241 -0.376641 1.311783 0.020490 -0.005313 -466283.000000 0 1 0
-21.592349 7.118702 5.275756 23.339645 -0.318465 1.342783 0.031857 -0.002791 -514158.000000 0 1 0
-22.248849 6.118402 5.997256 23.841418 -0.268365 1.316517 0.035533 -0.009205 9023.100000 0 1 0
-21.844249 4.835002 5.651456 23.075689 -0.217828 1.323370 0.036918 -0.016790 -967823.000000 0 1 0
-22.859049 3.767002 6.000956 23.931943 -0.163325 1.317340 0.050677 -0.011968 -266704.000000 0 1 0
-24.006449 3.950102 5.174156 24.873375 -0.163082 1.361246 0.065715 -0.017074 120458.000000 0 1 0
-24.773449 2.775302 5.163456 25.457560 -0.111562 1.366553 0.075261 -0.021867 -395866.000000 0 0 1
-25.875399 2.894402 4.080056 26.354519 -0.111396 1.415357 0.077828 -0.016704 -307768.000000 0 0 1
-25.450969 2.897602 2.736556 25.761146 -0.113362 1.464367 0.077289 -0.012657 465550.000000 0 0 1
-26.554359 2.710102 1.864356 26.757325 -0.101706 1.501063 0.085415 -0.010214 -30103.100000 0 0 1
-26.256469 2.760902 0.337656 26.403385 -0.104766 1.558008 0.094743 -0.008204 -285818.000000 0 0 1
-25.516449 3.898002 -0.035844 25.812494 -0.151592 1.572185 0.085522 -0.017703 568807.000000 0 0 1
-25.139809 3.959102 -1.440044 25.490355 -0.156200 1.627320 0.081464 -0.012280 -438089.000000 0 0 1
-26.175369 4.593702 -2.378644 26.681641 -0.173728 1.660064 0.096549 -0.015752 -310808.000000 0 0 1
-27.364089 3.866402 -2.458144 27.744998 -0.140366 1.659510 0.093882 -0.013016 275622.000000 0 0 1
-28.515609 4.689802 -2.652944 29.020205 -0.163005 1.662341 0.081397 -0.012713 749774.000000 0 0 1
-29.886029 3.961402 -2.709544 30.268945 -0.131782 1.660432 0.077481 -0.014395 -30228.600000 0 0 1
-30.054469 3.150402 -3.844944 30.462760 -0.104442 1.697352 0.076650 -0.004381 207766.000000 0 0 1
-31.029059 2.157902 -3.645344 31.316889 -0.069433 1.687463 0.079627 -0.004020 -254916.000000 0 0 1
-31.387689 1.354802 -4.911844 31.798565 -0.043137 1.725885 0.076698 -0.010502 -441126.000000 0 0 1
-30.329369 0.575202 -5.461944 30.822626 -0.018963 1.748943 0.093496 -0.003186 332846.000000 0 0 1
-30.523279 -0.211798 -6.657244 31.241548 0.006939 1.785532 0.096182 0.000014 -458902.000000 0 0 1
-30.950959 0.508602 -7.957744 31.961637 -0.016431 1.822421 0.086561 -0.004107 -243763.000000 0 0 1
-32.325689 0.778002 -8.060844 33.324655 -0.024063 1.815108 0.090914 -0.004148 31163.600000 0 0 1
-32.634969 1.583502 -9.209544 33.946493 -0.048484 1.845535 0.073327 -0.010668 1147780.000000 0 0 1
-34.176281 1.947202 -9.302644 35.473214 -0.056914 1.836143 0.048786 -0.007324 1128730.000000 0 0 1
-34.558140 2.857802 -8.337644 35.664385 -0.082508 1.806761 0.046760 -0.001155 -313569.000000 0 0 1
35.326176 2.980402 -8.164744 36.379727 0.084169 1.797156 0.038634 0.003564 -650827.000000 0 0 1
35.006365 3.730802 -6.863644 35.867451 0.106174 1.763345 0.040485 0.001314 -468312.000000 0 0 1
33.623515 3.862202 -6.667044 34.495026 0.114365 1.765296 0.032462 -0.008766 -53115.600000 0 0 1
33.392315 4.511702 -5.470444 34.136899 0.134299 1.731740 0.032138 -0.008820 475642.000000 0 0 1
32.064745 3.968002 -4.853444 32.671835 0.123124 1.719899 0.040555 -0.015500 404194.000000 0 0 1
32.245825 2.628802 -4.416944 32.652920 0.081344 1.706482 0.031833 -0.015888 -49104.700000 0 0 1
31.004245 2.005102 -4.242344 31.357313 0.064582 1.706503 0.057765 -0.015402 -337418.000000 0 0 1
31.123495 0.651102 -3.547244 31.331754 0.020917 1.684255 0.073227 -0.012059 -217599.000000 0 0 1
32.016125 -0.287898 -4.101144 32.279010 -0.008992 1.698194 0.040263 -0.011361 65619.800000 0 0 1
31.944175 -1.503398 -3.394944 32.159231 -0.047029 1.676560 0.046966 -0.009082 364196.000000 0 0 1
33.152215 -2.462898 -3.680544 33.446698 -0.074154 1.681062 0.029737 -0.004977 425729.000000 0 0 1
32.957175 -3.795098 -3.308244 33.339505 -0.114647 1.670189 0.024724 -0.013453 764622.000000 0 0 1
34.227865 -4.422098 -3.036544 34.645667 -0.128484 1.658555 0.040799 -0.011192 867113.000000 0 0 1
33.950085 -5.923798 -2.610944 34.561780 -0.172746 1.646413 0.041493 -0.011494 178214.000000 0 0 1
33.563245 -6.007498 -1.253344 34.119676 -0.177115 1.607538 0.049092 -0.017170 4501.880000 0 0 1
33.930935 -7.242198 -0.691244 34.702098 -0.210284 1.590717 0.060215 -0.019157 -231419.000000 0 0 1
33.339915 -7.361698 0.697856 34.150132 -0.217320 1.550360 0.058750 -0.013962 2057870.000000 0 0 1
31.865195 -7.477398 0.595156 32.736162 -0.230487 1.552615 0.050853 -0.013266 2023800.000000 0 0 1
31.260505 -7.837198 1.808956 32.278679 -0.245643 1.514725 0.058588 -0.025724 -754235.000000 0 0 1
31.265345 -9.291198 2.308256 32.698260 -0.288861 1.500145 0.067762 -0.025521 -160508.000000 0 0 1
30.236365 -10.161498 1.848756 31.951709 -0.324210 1.512903 0.070356 -0.032805 1862160.000000 0 0 1
28.885995 -9.833798 2.313756 30.601597 -0.328128 1.495115 0.067566 -0.038868 -112637.000000 0 0 1
27.864305 -10.981198 2.235456 30.033372 -0.375406 1.496295 0.076278 -0.037999 -124097.000000 0 0 1
26.567975 -10.685498 2.716056 28.764807 -0.382397 1.476233 0.096083 -0.041317 758634.000000 0 0 1
25.814735 -9.575298 2.201756 27.621271 -0.355192 1.490999 0.100105 -0.041713 -861795.000000 0 0 1
25.116835 -9.766498 0.838856 26.961891 -0.370851 1.539679 0.082639 -0.039214 -680869.000000 0 0 1
25.981835 -9.832098 -0.303244 27.781610 -0.361767 1.581712 0.076103 -0.036858 354158.000000 0 0 1
25.440535 -10.094598 -1.620244 27.418003 -0.377738 1.629925 0.067333 -0.019933 -389659.000000 0 0 1
24.575435 -11.321998 -1.907144 27.125207 -0.431720 1.641163 0.044663 -0.013910 -88123.600000 0 0 1
23.397735 -11.430198 -1.134444 26.065118 -0.454419 1.614334 0.059477 -0.013297 -38747.000000 0 0 1
22.845135 -12.723198 -1.322244 26.182595 -0.508150 1.621319 0.045577 -0.007713 -587916.000000 0 0 1
21.330835 -12.798498 -1.129744 24.901454 -0.540419 1.616180 0.029677 -0.010971 -581138.000000 0 1 0
20.620835 -12.261498 -2.214144 24.092854 -0.536452 1.662827 0.032608 -0.007136 558690.000000 0 1 0
19.213635 -12.441998 -2.024444 22.979675 -0.574659 1.659008 0.024730 -0.003900 186801.000000 0 1 0
18.389535 -11.917198 -3.179144 22.142754 -0.574998 1.714869 0.029282 -0.000097 -365384.000000 0 1 0
18.379935 -12.818698 -4.295044 22.816407 -0.608998 1.760170 0.032373 -0.003864 565432.000000 0 1 0
17.573135 -12.179798 -5.305844 22.029855 -0.606075 1.814036 0.035046 -0.004238 111007.000000 0 1 0
17.595435 -12.849798 -6.677844 22.788379 -0.630768 1.868198 0.037646 -0.010281 -423608.000000 0 1 0
16.814535 -14.007898 -6.736844 22.898359 -0.694590 1.869421 0.039289 -0.016024 53323.200000 0 1 0
16.845835 -14.503998 -8.061444 23.646035 -0.710837 1.918693 0.043905 -0.021395 -527702.000000 0 1 0
15.881835 -15.657098 -8.269244 23.785664 -0.778273 1.925867 0.039689 -0.020360 -503406.000000 0 1 0
14.533135 -15.257998 -8.375244 22.675168 -0.809725 1.949114 0.038154 -0.015634 227621.000000 0 1 0
13.757135 -16.193498 -9.158244 23.137882 -0.866565 1.977748 0.036946 -0.014352 43207.200000 0 1 0
13.772735 -16.063398 -10.721044 23.720493 -0.862023 2.039773 0.039928 -0.019163 -750547.000000 0 1 0
13.002435 -15.091798 -11.365144 22.934519 -0.859631 2.089261 0.024139 -0.011106 -72299.200000 0 1 0
13.339035 -13.745398 -11.081944 22.128608 -0.800401 2.095316 0.025593 -0.003496 -193246.000000 0 1 0
13.343535 -12.828698 -12.328744 22.240129 -0.765730 2.158374 0.040562 0.005816 -218763.000000 0 1 0
14.456935 -12.927598 -13.190144 23.454331 -0.729609 2.168052 0.042219 0.004603 -43828.000000 0 1 0
14.286635 -12.178598 -14.349044 23.628822 -0.705913 2.223415 0.054260 0.003145 -59054.500000 0 1 0
15.607035 -11.919598 -15.121844 24.785611 -0.652232 2.226990 0.057079 -0.004856 243199.000000 0 1 0
16.153835 -13.115798 -15.619244 26.017904 -0.681974 2.214706 0.051080 -0.004543 225798.000000 0 0 1
17.402535 -12.887598 -16.252544 27.075516 -0.637431 2.214631 0.057106 -0.003062 172167.000000 0 0 1
18.426235 -14.030598 -16.368344 28.360298 -0.650787 2.186039 0.053731 -0.003435 -341027.000000 0 0 1
19.132535 -14.150098 -15.180044 28.226103 -0.636801 2.138624 0.042795 -0.008204 -548440.000000 0 0 1
20.265635 -14.948698 -15.391944 29.513920 -0.635542 2.119422 0.030866 -0.002966 54098.000000 0 0 1
21.156935 -14.938998 -14.074344 29.476715 -0.614811 2.068573 0.024893 -0.009344 360699.000000 0 0 1
21.953035 -13.780598 -13.914244 29.418477 -0.560561 2.063462 0.025784 0.001685 -186410.000000 0 0 1
22.719535 -13.759798 -12.743244 29.460135 -0.544554 2.018125 0.009347 0.004839 209965.000000 0 0 1
23.519835 -12.421298 -12.745544 29.494409 -0.485890 2.017654 0.013227 0.012975 -363186.000000 0 0 1
22.650135 -11.334098 -12.558844 28.270390 -0.463967 2.031122 0.019238 0.013418 109632.000000 0 0 1
23.112435 -10.060598 -13.005844 28.364630 -0.410554 2.047129 0.029661 0.008421 158473.000000 0 0 1
24.105935 -9.286998 -12.054644 28.507172 -0.367733 2.007399 0.022511 0.002805 339389.000000 0 0 1
25.360035 -9.915698 -11.999344 29.756288 -0.372721 1.985866 0.008390 0.006169 -471455.000000 0 0 1
26.311025 -9.224698 -11.266644 30.071620 -0.337211 1.954827 0.006345 0.005213 -4175.720000 0 0 1
27.749755 -9.789098 -11.479344 31.585608 -0.339135 1.942750 0.000788 0.003564 168365.000000 0 0 1
28.305265 -9.681198 -12.741244 32.515426 -0.329555 1.973440 -0.000254 -0.000664 -387611.000000 0 0 1
29.406365 -10.541898 -12.867544 33.785198 -0.344219 1.961526 -0.010733 0.000576 -447864.000000 0 0 1
30.237065 -10.351198 -14.141544 34.948686 -0.329830 1.987379 -0.010345 0.002712 -369611.000000 0 0 1
29.628955 -10.744598 -15.360944 35.061089 -0.347889 2.024302 -0.023493 0.011111 463230.000000 0 0 1
30.440175 -10.381398 -16.481544 36.138884 -0.328673 2.044361 -0.025887 0.008183 114576.000000 0 0 1
29.833355 -10.998198 -17.786944 36.433018 -0.353196 2.080833 -0.034374 0.020994 92562.600000 0 0 1
28.639745 -10.444498 -18.283244 35.547145 -0.349697 2.111032 -0.027440 0.016922 136280.000000 0 0 1
28.722115 -9.120798 -18.851344 35.546055 -0.307482 2.129793 -0.027456 0.017723 -197082.000000 0 0 1
27.342065 -8.786198 -19.461144 34.691813 -0.310921 2.166356 -0.053810 0.021652 94867.500000 0 0 1
26.986365 -9.583398 -20.601944 35.278116 -0.341229 2.194427 -0.046582 0.027892 1375340.000000 0 0 1
25.578835 -9.325498 -20.836944 34.284398 -0.349603 2.224043 -0.018453 0.032746 1097120.000000 0 0 1
25.003635 -9.913098 -22.134544 34.833738 -0.377456 2.259367 -0.011528 0.020871 -113882.000000 0 0 1
24.775735 -11.273998 -22.127544 35.079456 -0.427039 2.253359 -0.024488 0.025103 152777.000000 0 0 1
24.047035 -11.537898 -23.327444 35.433778 -0.447362 2.289407 -0.008984 0.017869 -763785.000000 0 0 1
24.207635 -12.964098 -23.939244 36.430273 -0.491672 2.287795 -0.022009 0.025859 974022.000000 0 0 1
25.394335 -13.247298 -24.714644 37.830897 -0.480828 2.282722 -0.015993 0.024297 1248360.000000 0 0 1
26.641125 -13.146198 -23.991544 38.185943 -0.458398 2.250139 -0.025946 0.030749 276946.000000 0 0 1
27.767875 -13.811398 -24.816544 39.719900 -0.461556 2.245657 -0.021016 0.026371 -103649.000000 0 0 1
28.177065 -13.128698 -26.002714 40.527161 -0.436027 2.267394 -0.007350 0.020807 -780025.000000 0 0 1
29.530525 -13.349398 -26.178704 41.660327 -0.424561 2.250271 -0.011951 0.010964 -808252.000000 0 0 1
30.052095 -12.862098 -27.554094 42.752661 -0.404403 2.271166 0.001012 0.001857 -12289.200000 0 0 1
29.783615 -13.721198 -28.642464 43.539932 -0.431713 2.288748 0.021383 -0.009828 182983.000000 0 0 1
30.464225 -13.205198 -29.745914 44.578758 -0.409019 2.301329 0.024554 -0.012953 -248734.000000 0 0 1
30.415345 -14.065098 -31.043304 45.679392 -0.433146 2.318001 0.018958 -0.011049 229416.000000 0 0 1
31.170735 -15.273798 -30.809224 46.412411 -0.455619 2.296704 0.013536 -0.018373 214000.000000 0 0 1
31.421995 -16.095498 -31.929684 47.601592 -0.473389 2.306042 0.003497 -0.015031 -258869.000000 0 0 1
30.209675 -16.660798 -32.674994 47.516964 -0.503998 2.329042 -0.005120 -0.009954 -84091.000000 0 0 1
29.487095 -15.681098 -33.408624 47.238985 -0.488759 2.356363 -0.006066 -0.011126 88810.800000 0 0 1
28.330625 -16.257598 -34.000424 47.148304 -0.520971 2.376240 -0.009590 -0.008810 53751.600000 0 0 1
27.807205 -15.216498 33.795446 46.334810 -0.500702 0.753389 0.010318 -0.002684 -522058.000000 0 0 1
27.105935 -14.116898 34.311630 45.948955 -0.480153 0.727659 0.011376 -0.013645 178414.000000 0 0 1
27.921405 -13.077998 -34.028174 45.919010 -0.438038 2.405426 0.013808 -0.025017 176748.000000 0 0 1
26.968155 -11.888898 -33.648504 44.730851 -0.415218 2.422257 0.022081 -0.024810 671562.000000 0 0 1
26.575945 -11.079198 34.083630 44.617522 -0.394980 0.701451 0.032057 -0.015374 258264.000000 0 0 1
25.439335 -10.374198 -34.241459 43.900584 -0.387214 2.465426 0.010656 -0.022192 167195.000000 0 0 1
19.696751 -29.477456 9.568756 36.721159 -0.981735 1.307175 0.009120 -0.002790 -16936.400000 0 0 1
20.282051 -29.488456 8.247056 36.727981 -0.968308 1.344321 -0.001644 -0.010123 316791.000000 0 0 1
21.573351 -30.059756 8.292156 37.917783 -0.948301 1.350327 0.019225 -0.007800 -26437.600000 0 0 1
22.290751 -29.998656 6.949156 38.014309 -0.931753 1.386959 0.014493 -0.013640 -344889.000000 0 0 1
22.774351 -28.709256 6.625756 37.239671 -0.900169 1.391922 0.018326 -0.013064 37979.600000 0 0 1
23.146251 -28.622556 5.248456 37.182603 -0.890790 1.429170 0.018520 -0.004034 -190206.000000 0 0 1
23.221751 -27.151756 4.724256 36.038676 -0.863258 1.439329 0.016970 -0.011128 215346.000000 0 0 1
24.192951 -26.338756 5.379256 36.165803 -0.827837 1.421504 0.021481 -0.013441 358427.000000 0 0 1
24.050651 -25.016756 4.925056 35.050365 -0.805085 1.429816 0.017425 -0.004637 105736.000000 0 0 1
24.848151 -23.927056 5.730356 34.968151 -0.766516 1.406180 0.001344 -0.006630 -781596.000000 0 0 1
26.195551 -23.798256 5.460956 35.810416 -0.737483 1.417703 -0.001069 -0.003216 -883174.000000 0 0 1
26.882151 -23.103156 6.498856 36.036662 -0.709940 1.389464 0.019422 0.000383 292451.000000 0 0 1
26.653351 -21.542656 6.598856 34.900316 -0.679753 1.380574 0.006161 0.000449 -299214.000000 0 0 1
26.983251 -20.859056 5.430556 34.535301 -0.658083 1.412894 0.009396 0.011275 -21962.200000 0 0 1
26.644751 -19.483956 5.518556 33.466726 -0.631392 1.405143 0.008370 0.004468 -228270.000000 0 0 1
26.918951 -18.848456 4.203356 33.129480 -0.610855 1.443577 0.019219 0.006119 1153330.000000 0 0 1
28.218951 -18.316656 3.822156 33.858794 -0.575736 1.457670 0.042783 0.009303 1109200.000000 0 0 1
28.113251 -17.844256 2.530056 33.394214 -0.565564 1.494960 0.041703 0.003572 132757.000000 0 0 1
29.065351 -16.659756 2.218856 33.574774 -0.520467 1.504661 0.045165 -0.004485 303380.000000 0 0 1
28.801651 -15.561056 3.034356 32.876875 -0.495353 1.478370 0.045582 -0.017103 549291.000000 0 0 1
30.001051 -14.795156 3.174556 33.601153 -0.458156 1.476178 0.057123 -0.020824 657368.000000 0 0 1
29.805451 -13.532856 4.023056 32.980117 -0.426208 1.448507 0.067611 -0.025741 232868.000000 0 0 1
29.389851 -13.878656 5.357756 32.940643 -0.441183 1.407422 0.062355 -0.013252 102841.000000 0 0 1
29.285351 -12.709956 6.147356 32.510994 -0.409472 1.380566 0.063715 -0.022258 -53091.200000 0 0 1
28.973451 -13.010756 7.641056 32.666900 -0.422070 1.334701 0.075289 -0.016444 -1179840.000000 0 0 1
27.659451 -13.324856 7.937456 31.711200 -0.448939 1.317802 0.069140 -0.013361 -930813.000000 0 0 1
27.266551 -13.335956 9.293756 31.744077 -0.454886 1.273672 0.072042 -0.008722 140830.000000 0 0 1
27.691951 -14.579956 10.144356 32.898742 -0.484626 1.257337 0.070141 -0.012836 196775.000000 0 0 1
28.954751 -14.410056 10.781556 34.092071 -0.461786 1.249024 0.055481 -0.000844 209613.000000 0 0 1
29.255951 -15.654556 11.344056 35.066557 -0.491324 1.241370 0.066937 -0.015044 -104276.000000 0 0 1
29.864951 -15.634356 12.746556 36.039188 -0.482272 1.209287 0.064165 -0.014422 495072.000000 0 0 1
31.256451 -15.325256 12.777256 37.082172 -0.455863 1.219020 0.036151 -0.008155 421566.000000 0 0 1
31.735451 -15.313956 14.116956 37.959775 -0.449591 1.189749 0.036687 -0.011706 158988.000000 0 0 1
33.272451 -15.319856 14.279956 39.315024 -0.431499 1.199076 0.027712 -0.011605 -118799.000000 0 0 1
33.848651 -14.080256 14.072956 39.268727 -0.394203 1.204269 0.019947 -0.008488 -393417.000000 0 0 1
35.184551 -14.031656 14.494756 40.557835 -0.379473 1.205330 0.008535 -0.009983 -679263.000000 0 0 1
-35.478232 -12.665256 14.222356 40.266476 0.342885 1.209801 -0.003243 -0.010421 -439270.000000 0 0 1
-34.873032 -12.737556 12.900756 39.303985 0.350200 1.236367 -0.002233 -0.015538 331637.000000 0 0 1
-34.254032 -11.486856 12.573856 38.254260 0.323558 1.235878 0.007267 -0.021962 186682.000000 0 0 1
-33.136832 -11.614156 11.466356 36.937997 0.337112 1.255160 0.010518 -0.020150 869002.000000 0 0 1
-31.903832 -12.215756 11.866856 36.164921 0.365673 1.236471 -0.004570 -0.010962 354502.000000 0 0 1
-31.947932 -13.613056 12.039856 36.755187 0.402803 1.237067 -0.009210 -0.012761 -695256.000000 0 0 1
-30.573132 -14.184356 12.429056 35.922052 0.434393 1.217491 -0.014745 -0.001515 341997.000000 0 0 1
-29.604232 -14.095256 11.384756 34.708781 0.444364 1.236602 -0.004811 -0.008453 -134792.000000 0 0 1
-28.589432 -15.041356 11.510856 34.294283 0.484321 1.228502 -0.004290 -0.005622 -299150.000000 0 0 1
-27.281732 -14.759656 10.750056 32.828403 0.495914 1.237180 0.014455 -0.012479 -141630.000000 0 0 1
-27.285032 -15.098156 9.386556 32.565852 0.505411 1.278415 0.010994 -0.010299 -351282.000000 0 0 1
-26.015632 -14.979956 8.806656 31.285290 0.522440 1.285444 0.024742 -0.010052 -247173.000000 0 0 1
-25.859332 -15.151956 7.255156 30.837058 0.530015 1.333296 0.037313 -0.006815 -107854.000000 0 0 1
-26.216432 -16.411056 6.690156 31.644625 0.559306 1.357774 0.047616 0.000977 -55011.700000 0 0 1
-26.084132 -16.275056 5.319456 31.201859 0.557840 1.399474 0.044412 -0.000111 -266499.000000 0 0 1
-26.673832 -17.475856 4.453156 32.198284 0.580000 1.432047 0.035627 0.001839 -508671.000000 0 0 1
-28.061232 -17.400156 4.402456 33.310356 0.555052 1.438244 0.005692 -0.010974 -1129150.000000 0 0 1
-28.480832 -18.419656 3.563456 34.104835 0.574079 1.466120 0.009487 -0.005613 -206543.000000 0 0 1
-29.995832 -18.677856 3.634156 35.522096 0.556930 1.468310 0.023575 -0.010336 -314726.000000 0 0 1
-30.782232 -17.701856 3.047656 35.639721 0.521885 1.485179 0.036851 -0.013600 -411766.000000 0 0 1
-32.153632 -17.880556 3.357056 36.943743 0.507513 1.479801 0.048932 -0.013640 396151.000000 0 0 1
-33.010232 -16.850756 2.557156 37.150538 0.471989 1.501910 0.034529 -0.018035 199894.000000 0 0 1
-32.959732 -17.245256 1.225356 37.218870 0.482052 1.537867 0.034596 -0.009915 276625.000000 0 0 1
-33.825132 -16.430156 0.409056 37.606607 0.452173 1.559919 0.051776 -0.015477 256720.000000 0 0 1
-34.063532 -17.058156 -0.968544 38.108306 0.464267 1.596215 0.048144 -0.017232 -98878.600000 0 0 1
-32.890732 -17.275656 -1.707744 37.190925 0.483638 1.616731 0.041720 -0.013386 197614.000000 0 0 1
-33.327032 -18.053556 -2.882944 38.012279 0.496456 1.646712 0.045102 -0.010956 -313258.000000 0 0 1
-32.232532 -18.833756 -3.533244 37.498404 0.528802 1.665160 0.035905 -0.002502 -879289.000000 0 0 1
-32.729032 -19.817456 -4.393944 38.512697 0.544454 1.685136 0.053965 -0.022991 -90989.100000 0 0 1
-31.733632 -20.566056 -5.058644 38.152011 0.575027 1.703780 0.033628 -0.014114 -317224.000000 0 0 1
-32.327232 -21.637156 -5.989044 39.358418 0.589835 1.723557 0.049413 -0.020144 167575.000000 0 0 1
-33.048832 -22.637356 -5.265344 40.402958 0.600565 1.701489 0.070471 -0.032129 8905.320000 0 0 1
-33.535932 -23.646756 -6.173944 41.496330 0.614152 1.720134 0.066683 -0.031890 -4192.660000 0 0 1
-34.077532 -24.843256 -5.369444 42.512310 0.629939 1.697438 0.080565 -0.029187 652231.000000 0 0 1
-33.032932 -25.596356 -4.724444 42.055540 0.659231 1.683372 0.071161 -0.025806 515513.000000 0 0 1
-33.578432 -26.878856 -4.456944 43.241743 0.675033 1.674050 0.060860 -0.022311 542470.000000 0 0 1
-32.484132 -27.836256 -3.934844 42.959969 0.708497 1.662518 0.050474 -0.019308 108039.000000 0 0 1
-31.499732 -28.212656 -4.903444 42.570305 0.730405 1.686237 0.038431 -0.018681 494771.000000 0 0 1
-30.557032 -29.174856 -4.492244 42.486288 0.762263 1.676728 0.037833 -0.018729 136468.000000 0 0 1
-29.473632 -28.874556 -3.428944 41.402809 0.775131 1.653710 0.041335 -0.020594 -575543.000000 0 0 1
-29.903332 -28.502256 -2.126544 41.365566 0.761414 1.622228 0.064443 -0.019068 -134275.000000 0 0 1
-28.964032 -28.851056 -1.114844 40.896717 0.783444 1.598060 0.051991 -0.014025 18511.500000 0 0 1
-29.535132 -28.645756 0.281856 41.145872 0.770113 1.563946 0.054210 -0.014612 278860.000000 0 0 1
-30.330732 -29.733856 0.737456 42.480576 0.775461 1.553436 0.049351 -0.011196 367662.000000 0 0 1
-31.129832 -29.450556 1.911756 42.895880 0.757685 1.526214 0.045980 -0.009402 406144.000000 0 0 1
-31.865732 -30.713256 2.444156 44.324969 0.766984 1.515627 0.032002 -0.006691 -540155.000000 0 0 1
-32.830532 -30.426656 3.446656 44.894372 0.747415 1.493948 0.034044 -0.002859 294854.000000 0 0 1
-33.442932 -31.609156 3.912656 46.183085 0.757216 1.485974 0.022714 0.003511 -455376.000000 0 0 1
-34.594732 -32.165256 3.052056 47.336183 0.749023 1.506275 0.026930 -0.004660 -493201.000000 0 0 1
-35.240732 -33.277756 3.651656 48.607127 0.756757 1.495600 0.011128 0.001970 -79317.300000 0 0 1
35.032651 -33.847256 2.824356 48.794471 -0.768190 1.512881 0.022952 -0.003844 -827499.000000 0 0 1
34.050551 34.089502 3.592756 48.316064 0.785970 1.496368 0.004520 -0.003239 -150652.000000 0 0 1
33.070751 -34.282056 4.510456 47.846402 -0.803381 1.476387 -0.002585 0.003425 846758.000000 0 0 1
32.311251 -33.122256 4.150456 46.457799 -0.797792 1.481339 0.005309 0.000026 31361.300000 0 0 1
31.257651 -33.158256 2.991156 45.666812 -0.814895 1.505250 0.010011 -0.002319 -254204.000000 0 0 1
31.827851 -33.480156 1.764256 46.228190 -0.810693 1.532623 0.016703 -0.001160 -297375.000000 0 0 1
30.860051 -33.290356 0.749056 45.399908 -0.823265 1.554297 0.021247 -0.000373 -370771.000000 0 0 1
31.311751 -33.944456 -0.569844 46.184159 -0.825720 1.583135 0.034952 -0.010732 2045880.000000 0 0 1
32.538651 -33.480156 -1.245244 46.703697 -0.799658 1.597462 0.031992 -0.002669 2958140.000000 0 0 1
33.794651 -33.452256 -0.459344 47.553579 -0.780307 1.580456 0.035588 -0.002885 1458690.000000 0 0 1
35.042451 -33.164156 -1.363544 48.266902 -0.757867 1.599050 0.026889 -0.002566 269645.000000 0 0 1
35.347951 -34.309256 -2.122044 49.306245 -0.770488 1.613848 0.027832 -0.006396 -152458.000000 0 0 1
-35.047632 -33.957356 -3.148044 48.901418 0.769600 1.635216 0.025403 -0.009397 -782797.000000 0 0 1
-34.391632 33.779902 -3.980444 48.370549 -0.776425 1.653180 0.021423 -0.010712 122614.000000 0 0 1
-33.150932 33.380802 -3.401644 47.168140 -0.788853 1.642976 0.029858 -0.008763 304144.000000 0 0 1
-32.495632 32.462702 -4.254344 46.129086 -0.784891 1.663154 0.032788 -0.015969 231891.000000 0 0 1
-31.131032 31.883402 -3.826544 44.725104 -0.797337 1.656458 0.046442 -0.012543 -787280.000000 0 0 1
-29.964732 32.629802 -4.087944 44.489329 -0.827949 1.662812 0.039280 -0.016624 891606.000000 0 0 1
-28.737832 31.863902 -3.920544 43.087607 -0.836936 1.661912 0.031855 -0.019927 1267260.000000 0 0 1
-28.434132 31.251002 -2.504844 42.324924 -0.832559 1.630012 0.033194 -0.023346 -885292.000000 0 0 1
-29.399432 30.320602 -2.010344 42.281284 -0.800822 1.618361 0.032583 -0.018290 -112544.000000 0 0 1
-29.392332 30.131502 -0.630744 42.097677 -0.797816 1.585780 0.026085 -0.008246 360490.000000 0 0 1
-30.792332 29.615002 -0.186044 42.722952 -0.765911 1.575151 0.016267 -0.002110 411753.000000 0 0 1
-31.121332 28.290102 -0.595044 42.062112 -0.737780 1.584944 0.013854 -0.010527 -558827.000000 0 0 1
-32.494232 28.080002 -0.717644 42.952027 -0.712654 1.587505 0.001979 -0.012438 -459284.000000 0 0 1
-32.957032 26.733002 -1.221344 42.453634 -0.681501 1.599569 0.007653 -0.009335 -169953.000000 0 0 1
-32.939132 25.741402 -0.233844 41.805034 -0.663348 1.576390 0.003948 -0.003563 37642.800000 0 0 1
-33.229832 24.456302 -0.679444 41.264926 -0.634464 1.587262 0.019659 -0.005549 -365062.000000 0 0 1
-33.136232 23.318102 0.405256 40.520464 -0.613208 1.560795 0.018246 -0.010664 -625967.000000 0 0 1
-31.870632 23.035602 0.904956 39.334401 -0.625855 1.547788 0.020506 -0.016664 -549670.000000 0 0 1
-31.580532 23.734502 2.071056 39.559397 -0.644495 1.518419 0.021168 -0.018324 -1012890.000000 0 0 1
-30.120332 23.738402 2.590456 38.437697 -0.667454 1.503352 0.010806 -0.021458 250152.000000 0 0 1
-29.282932 24.508302 1.700556 38.223538 -0.696868 1.526292 0.023942 -0.026407 237113.000000 0 0 1
-29.404932 25.856502 1.974956 39.205984 -0.721274 1.520401 0.009970 -0.020389 -448980.000000 0 0 1
-28.650032 26.767902 0.922356 39.219837 -0.751449 1.547277 0.010916 -0.020212 724205.000000 0 0 1
-27.233732 26.614102 0.922656 38.089866 -0.773892 1.546571 0.007450 -0.022103 135578.000000 0 0 1
-26.751032 27.446102 -0.086044 38.326409 -0.798222 1.573041 0.009204 -0.019048 119793.000000 0 0 1
-25.438532 27.042202 -0.771144 37.134812 -0.815946 1.591564 0.013556 -0.018995 -7526.210000 0 0 1
-25.806632 26.011402 -1.746744 36.682781 -0.789350 1.618432 0.015316 -0.020555 595239.000000 0 0 1
-24.704532 25.454502 -2.485544 35.558733 -0.800349 1.640753 0.009411 -0.016509 668352.000000 0 0 1
-23.778832 24.415702 -1.795644 34.128927 -0.798612 1.623434 0.015807 -0.013209 -44806.900000 0 0 1
-24.468032 23.252202 -1.415444 33.783916 -0.759925 1.612706 0.014874 -0.009617 -98530.700000 0 0 1
-23.547032 22.253802 -1.021344 32.415082 -0.757170 1.602310 0.016991 -0.020755 -456792.000000 0 0 1
-24.146232 20.802802 -0.927944 31.885077 -0.711152 1.599903 0.026663 -0.016318 -12858.700000 0 0 1
-24.977232 20.479202 0.172956 32.299996 -0.686767 1.565442 0.013314 -0.012879 690822.000000 0 0 1
-26.253432 21.116902 0.269256 33.693304 -0.677387 1.562805 -0.001235 -0.012905 896788.000000 0 0 1
-27.395132 20.655302 -0.728744 34.317136 -0.646042 1.592033 -0.001658 -0.017071 -83592.100000 0 0 1
-27.690832 19.340702 -0.392644 33.778678 -0.609686 1.582421 -0.001219 -0.015574 -33775.300000 0 0 1
-28.658132 18.775102 -1.244344 34.283252 -0.579980 1.607100 0.008978 -0.007450 -311375.000000 0 0 1
-28.647632 17.247302 -1.215844 33.460940 -0.541925 1.607141 0.021276 0.005341 -186585.000000 0 0 1
-29.072032 16.709802 -0.001044 33.532082 -0.521663 1.570827 0.031694 -0.011307 168971.000000 0 0 1
-29.165132 15.310602 0.049156 32.939670 -0.483418 1.569304 0.042420 -0.010876 -657207.000000 0 0 1
-27.904732 14.524202 0.397056 31.460835 -0.479907 1.558175 0.064748 -0.013412 -684590.000000 0 0 1
-27.644732 14.596602 1.797456 31.313301 -0.485801 1.513362 0.085557 -0.018847 262249.000000 0 0 1
-26.368332 14.107102 2.194356 29.985237 -0.491255 1.497550 0.078847 -0.013002 253586.000000 0 0 1
-26.142532 12.555802 2.206056 29.085165 -0.447750 1.494875 0.079378 -0.008652 -314503.000000 0 0 1
-25.956332 12.021502 0.901856 28.619242 -0.433730 1.539279 0.073669 -0.009286 370744.000000 0 0 1
-25.769932 10.627702 0.935556 27.891087 -0.391156 1.537247 0.078762 -0.006323 -163801.000000 0 0 1
-25.739232 10.007002 -0.468944 27.620066 -0.370800 1.587776 0.077036 -0.005996 -671374.000000 0 0 1
-26.969032 9.780602 -1.085644 28.708317 -0.347909 1.608622 0.085408 -0.018059 -386984.000000 0 0 1
-26.886732 9.218502 -2.363544 28.521281 -0.330304 1.653761 0.089231 -0.019433 98644.600000 0 0 1
-28.225932 8.836102 -3.062844 29.734844 -0.303385 1.673985 0.095136 -0.025455 216444.000000 0 0 1
-28.056232 8.042302 -4.190344 29.485416 -0.279164 1.713395 0.092480 -0.018375 64856.100000 0 0 1
-29.252132 7.951002 -4.927144 30.711275 -0.265397 1.731927 0.084005 -0.021006 -56290.600000 0 0 1
-11.183349 18.123502 -19.736244 29.035287 -1.017925 2.318195 0.053462 -0.002726 184473.000000 0 0 1
-11.175949 17.063002 -20.678344 29.045512 -0.990927 2.363038 0.048945 -0.010460 -47830.700000 0 0 1
-10.344649 17.308402 -21.800944 29.696358 -1.032095 2.395179 0.042628 -0.007562 129181.000000 0 0 1
-10.534349 16.091502 -22.759644 29.797824 -0.991157 2.439980 0.045441 -0.008183 101225.000000 0 0 1
-9.887949 14.893602 -22.373644 28.638625 -0.984708 2.467446 0.056537 -0.013498 -196791.000000 0 0 1
-10.087549 13.792602 -23.295844 28.891017 -0.939323 2.508726 0.057406 -0.017012 -191162.000000 0 0 1
-9.247549 12.594902 -22.891844 27.716154 -0.937465 2.542662 0.040455 -0.007554 -762764.000000 0 0 1
-7.875049 12.727802 -23.061444 27.492608 -1.016720 2.565915 0.027582 -0.009073 -1002740.000000 0 0 1
-7.209149 11.683402 -22.378344 26.253837 -1.017940 2.591323 0.018600 -0.006261 1413720.000000 0 0 1
-5.636049 11.862002 -22.249744 25.836471 -1.127238 2.608375 0.017287 -0.004259 1426810.000000 0 0 1
-5.053549 11.651002 -23.518644 26.728464 -1.161543 2.646469 0.011083 -0.006214 -212864.000000 0 0 1
-3.638049 11.627302 -23.447844 26.424059 -1.267558 2.662399 0.006580 -0.000811 131453.000000 0 0 1
-2.894249 11.214402 -24.732944 27.310401 -1.318225 2.703644 0.019413 -0.011151 -222857.000000 0 0 1
-2.956449 9.811702 -25.052644 27.067417 -1.278130 2.753321 0.012113 -0.003420 -103718.000000 0 0 1
-2.592249 9.584802 -26.396484 28.202172 -1.306661 2.781810 0.016813 -0.001898 -252574.000000 0 0 1
-2.304949 8.082902 -26.748974 28.038432 -1.293006 2.837140 0.016121 0.008955 -513271.000000 0 0 1
-1.129349 7.649502 -26.142224 27.261808 -1.424218 2.854009 0.011542 0.004067 -637038.000000 0 0 1
-1.310049 6.352802 -25.507894 26.319707 -1.367431 2.892578 0.013186 -0.000526 364848.000000 0 0 1
-0.031649 5.629902 -24.950344 25.577655 -1.565175 2.919662 -0.017064 0.008243 404540.000000 0 0 1
0.264451 6.250702 -23.706444 24.518089 1.528514 2.883569 -0.007106 -0.007313 806245.000000 0 1 0
1.323551 5.610902 -22.929144 23.642750 1.339142 2.895276 -0.003601 -0.006731 719618.000000 0 1 0
1.600951 6.316402 -21.558544 22.521785 1.322564 2.848070 0.006767 -0.007864 135089.000000 0 1 0
2.276751 7.565702 -21.623244 23.021471 1.278486 2.791276 0.007655 -0.011304 -27744.900000 0 1 0
2.164651 8.287402 -20.441444 22.163469 1.315307 2.744795 0.017753 -0.013163 -75895.700000 0 1 0
2.731951 9.716202 -20.569144 22.911958 1.296699 2.685425 0.011336 -0.016152 -35362.000000 0 1 0
2.546251 10.445502 -19.350144 22.136394 1.331694 2.634443 0.021627 -0.021368 557449.000000 0 1 0
3.182251 11.764102 -19.529444 23.019991 1.306614 2.583693 0.013772 -0.013216 764885.000000 0 1 0
4.468551 12.001202 -18.686944 22.653888 1.214358 2.540802 0.022632 -0.012890 567581.000000 0 1 0
5.594651 11.226302 -19.057244 22.814656 1.108468 2.559487 0.033572 -0.014739 -218774.000000 0 1 0
6.325451 10.860402 -17.899144 21.870963 1.043394 2.529413 0.028917 -0.024078 473853.000000 0 1 0
7.524151 9.887202 -18.215444 22.049308 0.920293 2.542989 0.055318 -0.035716 303575.000000 0 1 0
7.170851 8.615502 -18.777544 21.868793 0.876657 2.603418 0.057822 -0.022384 121493.000000 0 1 0
6.735651 8.603102 -20.131044 22.905049 0.906549 2.644329 0.052398 -0.004778 -148923.000000 0 1 0
6.506051 7.141902 -20.663844 22.810741 0.831954 2.704254 0.058593 -0.001036 690351.000000 0 1 0
7.696451 6.366702 -20.882744 23.148634 0.691123 2.695444 0.059949 0.000331 888120.000000 0 1 0
7.314951 4.990402 -20.734644 22.546354 0.598693 2.737972 0.051483 -0.003903 -51492.000000 0 1 0
7.126751 4.332302 -22.074544 23.597561 0.546203 2.780351 0.058098 -0.014927 24351.300000 0 1 0
6.042651 4.906302 -22.793244 24.085626 0.681982 2.812519 0.046167 -0.016461 -121516.000000 0 1 0
6.069151 4.548802 -24.158244 25.320879 0.643178 2.837383 0.048380 -0.016248 263676.000000 0 0 1
5.023451 5.255302 -25.100764 26.132386 0.807951 2.859673 0.031592 -0.014947 405102.000000 0 0 1
5.166851 6.657802 -25.073344 26.451753 0.910825 2.817342 0.037021 -0.012888 105127.000000 0 0 1
4.721151 7.316902 -23.872044 25.410643 0.997775 2.791820 0.041427 -0.024133 -773767.000000 0 0 1
4.501451 8.854202 -24.031144 26.002996 1.100454 2.749649 0.036767 -0.016829 270013.000000 0 0 1
3.537851 9.217902 -25.002144 26.881095 1.204331 2.765485 0.040029 -0.011262 7823.360000 0 0 1
2.219551 9.264002 -24.466244 26.255385 1.335640 2.770292 0.023565 -0.007297 -35524.500000 0 0 1
1.248451 9.791902 -25.521064 27.363564 1.443982 2.772530 0.017864 -0.000019 -389326.000000 0 0 1
1.261851 11.201202 -25.563164 27.938048 1.458616 2.726291 0.029117 -0.007114 125716.000000 0 0 1
0.309451 11.724802 -26.471584 28.953609 1.544410 2.724513 0.037585 -0.009934 -278033.000000 0 0 1
0.385551 13.238202 -26.561614 29.680262 1.541680 2.679060 0.031695 -0.013565 -365753.000000 0 0 1
-0.126649 13.942902 -25.446124 29.015957 -1.561713 2.640316 0.027760 -0.014885 76992.400000 0 0 1
-0.161749 15.342602 -25.599154 29.845238 -1.560254 2.601634 0.040261 -0.028084 -368196.000000 0 0 1
-0.652349 16.051202 -24.400944 29.214255 -1.530177 2.559367 0.045228 -0.019021 -107754.000000 0 0 1
-1.961449 15.638402 -24.060344 28.762945 -1.446023 2.561670 0.046016 -0.013858 -239628.000000 0 0 1
-2.392149 16.110802 -22.778844 28.002786 -1.423392 2.520854 0.037996 -0.017952 266124.000000 0 0 1
-3.713849 15.418802 -22.310244 27.372963 -1.334434 2.523606 0.036783 -0.013334 439931.000000 0 0 1
-4.918649 15.682202 -22.963844 28.239382 -1.266868 2.520400 0.036446 -0.013042 -496587.000000 0 0 1
-5.019449 15.311702 -24.331744 29.183503 -1.254018 2.556661 0.032400 -0.013511 -138678.000000 0 0 1
-6.507949 15.097402 -24.788444 29.744779 -1.163801 2.555976 0.026923 -0.014595 597236.000000 0 0 1
-7.047549 16.352802 -25.035744 30.722476 -1.163881 2.523353 0.033478 -0.012836 -326268.000000 0 0 1
-8.320349 16.200502 -25.640964 31.450651 -1.096339 2.524002 0.049384 -0.014572 -62837.600000 0 0 1
-8.952849 17.538902 -26.056274 32.660312 -1.098818 2.494428 0.048255 -0.016449 -43184.400000 0 0 1
-9.425449 18.359202 -25.007444 32.423319 -1.096493 2.451645 0.041249 -0.014918 -47304.800000 0 0 1
-10.226549 19.389802 -25.550344 33.665513 -1.085455 2.432491 0.037693 -0.013484 238450.000000 0 0 1
-10.821449 20.336102 -24.439744 33.585143 -1.081776 2.385752 0.017990 -0.006573 -303470.000000 0 0 1
-10.046249 21.434002 -24.179544 33.837758 -1.132496 2.366810 0.025311 -0.006823 -494590.000000 0 0 1
-10.571349 22.623902 -24.636544 35.079248 -1.133678 2.349435 0.022224 -0.009669 -403273.000000 0 0 1
-10.433949 23.077302 -26.136434 36.394262 -1.146172 2.371932 0.017383 -0.012768 -423369.000000 0 0 1
-11.171349 22.289902 -27.018864 36.764898 -1.106202 2.396329 0.021662 -0.014892 -104399.000000 0 0 1
-11.124249 22.947702 -28.253614 38.060644 -1.119411 2.407340 0.044246 -0.014818 -145897.000000 0 0 1
-11.678849 22.182902 -29.492624 38.707770 -1.086190 2.437085 0.036731 -0.012120 446933.000000 0 0 1
-10.874349 21.049002 -29.943044 38.182428 -1.093941 2.472218 0.035337 -0.013910 396214.000000 0 0 1
-10.777549 19.956002 -29.037484 36.845258 -1.075612 2.478501 0.048173 -0.015443 -294620.000000 0 0 1
-9.727749 18.945202 -29.529684 36.408131 -1.096433 2.516782 0.043022 -0.016021 -955249.000000 0 0 1
-8.432749 19.499102 -29.457414 36.318940 -1.162617 2.516785 0.036567 -0.012597 -557872.000000 0 0 1
-7.457449 18.741002 -30.107764 36.239704 -1.192083 2.551331 0.038810 -0.009258 84680.800000 0 0 1
-7.003949 17.384702 -29.477544 34.931486 -1.187810 2.575247 0.049211 -0.018952 -762231.000000 0 0 1
-8.034949 16.434702 -29.592874 34.790775 -1.116067 2.587913 0.042526 -0.021376 51865.600000 0 0 1
-7.652449 15.171302 -29.009154 33.619330 -1.103633 2.611720 0.032824 -0.013996 790525.000000 0 0 1
-8.903449 14.216902 -28.813684 33.340967 -1.011293 2.614380 0.046868 -0.011440 998054.000000 0 0 1
-9.776549 14.610102 -27.761754 32.859564 -0.981067 2.577101 0.061323 -0.019942 333484.000000 0 0 1
-10.987249 13.851202 -27.754154 32.906967 -0.900194 2.574400 0.085840 -0.021020 269998.000000 0 0 1
-11.915649 14.164502 -26.584924 32.394042 -0.871414 2.533385 0.073442 -0.020162 -385527.000000 0 0 1
-12.603649 15.329602 -26.891204 33.421333 -0.882678 2.505818 0.063256 -0.019718 -502006.000000 0 0 1
-13.574249 15.635602 -25.901094 33.160201 -0.855852 2.467206 0.055950 -0.021436 722315.000000 0 0 1
-14.551549 16.805402 -26.269234 34.412814 -0.857152 2.439289 0.040073 -0.016124 389076.000000 0 0 1
-13.908349 18.077002 -26.319824 34.827479 -0.914998 2.427549 0.033920 -0.006359 -31277.700000 0 0 1
-14.775349 19.058702 -26.810454 36.060303 -0.911327 2.409069 0.018786 -0.004068 -12840.100000 0 0 1
-14.142449 20.522402 -26.684794 36.513779 -0.967408 2.390311 0.009016 -0.010087 -183199.000000 0 0 1
-15.080649 21.531302 -26.957954 37.653077 -0.959798 2.368789 -0.015724 0.000923 -209136.000000 0 0 1
-14.709149 22.911802 -27.038544 38.371768 -1.000073 2.352722 -0.014341 -0.004672 -338695.000000 0 0 1
-14.170049 23.635202 -25.776884 37.734080 -1.030721 2.322822 -0.023067 -0.013194 44721.000000 0 0 1
-13.770049 24.984502 -26.100364 38.666116 -1.067076 2.311787 -0.007075 -0.015576 49111.600000 0 0 1
-13.202949 25.593802 -24.953144 38.105379 -1.094537 2.284775 0.011181 -0.016422 -360564.000000 0 0 1
-12.791149 27.035402 -25.222944 39.124459 -1.128878 2.271407 0.026066 -0.020029 -205064.000000 0 0 1
-13.782749 27.959202 -25.616604 40.347137 -1.112797 2.258682 0.027148 -0.020138 -286769.000000 0 0 1
-14.493649 28.502702 -24.510944 40.289654 -1.100371 2.224799 0.025992 -0.020438 201210.000000 0 0 1
-15.687549 29.439502 -24.936644 41.648765 -1.081197 2.212719 0.020409 -0.020941 786447.000000 0 0 1
-16.856349 28.644402 -25.045944 41.616554 -1.038898 2.216582 0.008648 -0.019728 -311339.000000 0 0 1
-17.979249 29.308402 -25.575204 42.852384 -1.020546 2.210330 0.003603 -0.015772 -284649.000000 0 0 1
-19.252249 28.486102 -25.605944 42.869236 -0.976465 2.210931 0.032428 -0.000411 -438026.000000 0 0 1
-19.797449 28.155702 -24.333344 42.152036 -0.957965 2.186185 0.036399 -0.011329 -698001.000000 0 0 1
-20.737149 27.164202 -24.389644 41.985449 -0.918774 2.190639 0.046108 -0.023401 -903372.000000 0 0 1
-21.377449 26.878802 -23.034144 41.352594 -0.898911 2.161587 0.049361 -0.028947 -13553.100000 0 0 1
-22.297149 27.856802 -22.563244 42.216871 -0.895799 2.134665 0.038149 -0.021722 35393.400000 0 0 1
-22.614849 27.600502 -21.197544 41.503674 -0.884359 2.106840 0.017085 -0.020410 -1384300.000000 0 0 1
-23.765849 28.442902 -20.769144 42.487310 -0.874743 2.081546 -0.005568 -0.009310 -1954140.000000 0 0 1
-24.936149 27.778902 -21.052344 42.856506 -0.839273 2.084296 -0.007168 -0.009622 -1024730.000000 0 0 1
-26.013329 28.711902 -20.940744 44.040678 -0.834670 2.066313 0.002622 -0.009573 -36389.900000 0 0 1
-27.330699 28.041002 -21.351744 44.600020 -0.798225 2.070014 -0.000201 -0.006496 -351511.000000 0 0 1
-27.539999 28.035002 -22.735044 45.401487 -0.794305 2.095268 -0.004589 -0.004239 122641.000000 0 0 1
-28.848319 27.543102 -23.003844 46.043727 -0.762257 2.093943 -0.009397 0.004801 350686.000000 0 0 1
-29.010279 27.275202 -24.494544 46.749498 -0.754582 2.122282 -0.008986 0.007670 -101069.000000 0 0 1
-28.551209 26.031602 -24.861244 45.944502 -0.739270 2.142558 0.000156 0.018127 -415517.000000 0 0 1
-28.564349 25.850602 -26.262234 46.624892 -0.735568 2.169130 0.021930 0.014381 -157438.000000 0 0 1
-28.615499 24.388402 -26.793064 46.168270 -0.705816 2.189936 0.020209 0.005634 49619.200000 0 0 1
-27.558949 23.467202 -26.551214 44.890669 -0.705380 2.203670 0.025110 -0.005824 -106624.000000 0 0 1
-27.891719 22.200102 -27.099504 44.779187 -0.672260 2.220789 0.028514 -0.007336 103495.000000 0 0 1
-26.896189 20.992402 -26.925204 43.463232 -0.662735 2.238894 0.029349 -0.003501 211041.000000 0 0 1
-26.721379 20.502002 -25.569784 42.286854 -0.654451 2.220154 0.029074 -0.001481 275913.000000 0 0 1
-25.984459 19.275902 -25.620614 41.269460 -0.638248 2.240576 0.014801 -0.003946 120895.000000 0 0 1
-26.869979 18.000502 -25.714984 41.319175 -0.590246 2.242538 0.015500 0.004830 -31857.600000 0 0 1
-27.471649 17.708102 -26.960074 42.368785 -0.572567 2.260514 0.016925 0.001168 431013.000000 0 0 1
-28.148639 16.443002 -26.795014 42.198234 -0.528683 2.258778 0.008840 -0.004797 -504142.000000 0 0 1
-29.026789 15.986102 -27.947204 43.349234 -0.503408 2.271426 0.001926 -0.005968 860727.000000 0 0 1
-30.265469 16.717302 -28.140364 44.579669 -0.504650 2.253944 0.000027 -0.002343 1138940.000000 0 0 1
-31.013149 16.310802 -29.278584 45.662820 -0.484177 2.266845 0.004465 0.002617 59698.800000 0 0 1
-32.357299 17.026002 -29.431614 46.937186 -0.484377 2.248547 0.011925 0.001638 -274624.000000 0 0 1
-33.450719 16.513602 -28.702954 47.069196 -0.458570 2.226609 0.009232 0.000206 208423.000000 0 0 1
-34.651269 17.101502 -29.182004 48.422734 -0.458460 2.217615 0.016885 0.001482 136146.000000 0 0 1
35.353084 16.703502 -28.395234 48.323253 0.441387 2.198898 0.009154 0.009035 -169539.000000 0 0 1
35.123955 17.558702 -27.333274 47.844624 0.463573 2.178876 0.011652 0.006267 555990.000000 0 0 1
33.894415 17.231302 -26.682834 46.451294 0.470330 2.182699 0.010178 0.005634 401860.000000 0 0 1
33.361305 18.302602 -25.714224 45.925844 0.501781 2.165070 0.015665 0.008366 -140170.000000 0 0 1
32.972515 19.485902 -26.294444 46.457344 0.533756 2.172431 0.019187 0.003989 179628.000000 0 0 1
32.366325 20.331302 -25.329554 45.853321 0.560870 2.156042 0.034521 0.003133 -586591.000000 0 0 1
31.749465 21.638302 -25.894294 46.333131 0.598224 2.163821 0.031890 -0.005432 571678.000000 0 0 1
30.447685 21.384202 -26.422484 45.634343 0.612285 2.188303 0.030986 -0.008967 38000.400000 0 0 1
29.396605 21.625702 -25.529544 44.537500 0.634256 2.181220 0.041503 -0.009082 -580153.000000 0 0 1
28.008625 21.390302 -26.127414 43.871059 0.652214 2.208747 0.023484 -0.009151 -119502.000000 0 0 1
27.659505 20.070302 -26.420484 43.196148 0.627715 2.228928 0.031167 -0.018742 538851.000000 0 0 1
26.312065 19.928602 -26.902644 42.581993 0.648217 2.254650 0.035699 -0.028866 572729.000000 0 0 1
25.823635 18.455402 -26.922554 41.620738 0.620505 2.274249 0.045265 -0.029106 -97407.400000 0 0 1
26.716825 17.592202 -27.611904 42.257443 0.582306 2.282891 0.031490 -0.024894 482264.000000 0 0 1
27.774635 17.091702 -26.792954 42.206859 0.551645 2.258547 0.032591 -0.015972 402618.000000 0 0 1
28.801915 16.190802 -27.523364 43.002650 0.512118 2.265345 0.022551 -0.000895 191634.000000 0 0 1
28.157545 15.060302 -28.096264 42.533046 0.491144 2.292381 0.027510 -0.004109 305307.000000 0 0 1
27.532145 14.071802 -27.250924 41.214651 0.472492 2.293207 0.033310 -0.009939 -73478.800000 0 0 1
28.400835 13.044802 -26.489754 40.969273 0.430570 2.273884 0.029185 -0.010769 -250131.000000 0 0 1
28.949745 13.576702 -25.316384 40.783990 0.438521 2.240487 0.030570 -0.007519 -394287.000000 0 0 1
29.787865 12.652402 -24.720744 40.724873 0.401659 2.223099 0.020775 -0.005955 -690098.000000 0 0 1
-14.218349 -31.513456 -24.009444 42.091718 1.146959 2.177799 0.048344 0.010353 -23287.800000 0 0 1
-13.401249 -30.594456 -24.661944 41.518980 1.157942 2.206808 0.043968 -0.007812 -236683.000000 0 0 1
-13.836249 -30.422456 -25.964674 42.321766 1.143955 2.231290 0.024124 0.006067 -8488.070000 0 0 1
-13.197649 -29.168256 -26.629254 41.642313 1.145893 2.264613 0.017292 0.005758 -190516.000000 0 0 1
-13.576149 -27.915656 -26.149134 40.587841 1.118146 2.270852 0.019744 0.008038 -28578.800000 0 0 1
-12.874149 -26.945056 -26.880004 40.178531 1.125072 2.303678 0.011556 0.002388 -353558.000000 0 0 1
-13.383849 -25.545856 -26.550034 39.199776 1.088201 2.314884 0.006601 0.005711 -353769.000000 0 0 1
-13.198849 -25.177656 -25.200954 37.989631 1.087954 2.296102 0.011455 -0.012759 93828.400000 0 0 1
-13.484249 -23.803756 -25.116074 37.138402 1.055392 2.313501 0.022725 -0.012637 -238711.000000 0 0 1
-13.263249 -23.159956 -23.697644 35.691394 1.050707 2.296898 0.030150 -0.008290 77092.000000 0 0 1
-11.887149 -23.060256 -23.391244 34.931790 1.094840 2.304502 0.030315 -0.022555 -46750.600000 0 0 1
-11.696249 -22.229356 -22.302844 33.591120 1.086439 2.296886 0.019653 -0.009493 -147398.000000 0 0 1
-10.216049 -22.146756 -21.925844 32.796175 1.138594 2.303052 0.023694 -0.013929 33082.900000 0 0 1
-9.467249 -21.296256 -22.799944 32.603631 1.152484 2.345224 0.033488 -0.016609 1069780.000000 0 0 1
-8.052049 -21.275656 -22.520344 32.010231 1.208993 2.351157 0.049051 -0.010173 1398390.000000 0 0 1
-7.226149 -20.194456 -23.313944 31.679224 1.227165 2.397847 0.038770 -0.003834 237391.000000 0 0 1
-7.484749 -18.869256 -22.932044 30.625952 1.193169 2.417013 0.036326 -0.012777 -109768.000000 0 0 1
-8.010949 -18.099256 -24.044844 31.143424 1.154103 2.452885 0.027163 -0.019133 -320681.000000 0 0 1
-7.019249 -17.360456 -24.985544 31.223912 1.186568 2.498434 0.034429 -0.016276 109160.000000 0 0 1
-6.437849 -18.132256 -26.022544 32.363519 1.229630 2.504906 0.045536 -0.025182 -44879.000000 0 0 1
-5.566849 -17.279856 -26.713564 32.298571 1.259137 2.544692 0.018360 -0.015925 -90693.000000 0 0 1
-5.274849 -17.780456 -28.180694 33.736036 1.282401 2.559528 0.027168 -0.006806 -423901.000000 0 0 1
-6.375949 -17.469256 -28.980634 34.434064 1.220838 2.571085 0.048168 -0.007235 -77006.800000 0 0 1
-6.199949 -17.996556 -30.277884 35.764027 1.239023 2.580364 0.045417 -0.022229 -93087.500000 0 0 1
-7.181549 -17.435456 -31.331694 36.568358 1.180079 2.599824 0.049484 -0.018291 -12585.600000 0 0 1
-6.886349 -16.219556 -32.031234 36.558114 1.169289 2.638660 0.038185 -0.019028 -15790.000000 0 0 1
-6.639149 -15.016656 -31.286544 35.333073 1.154516 2.658311 0.026894 -0.020015 78951.300000 0 0 1
-7.280849 -13.913356 -32.176364 35.803779 1.088684 2.687561 0.022753 -0.020109 145130.000000 0 0 1
-6.547549 -13.678256 -33.395364 36.677178 1.124347 2.715340 0.032509 -0.024073 61758.100000 0 0 1
-7.219349 -12.911256 -34.369619 37.417779 1.060954 2.735160 0.037508 -0.022565 -393154.000000 0 0 1
-7.623549 -11.453956 -34.066504 36.740145 0.983545 2.757739 0.015762 -0.022287 820226.000000 0 0 1
-6.528449 -10.491156 -34.054344 36.226832 1.014155 2.793517 0.007814 -0.023702 622609.000000 0 0 1
-5.999149 -10.220456 33.461342 35.498012 1.040009 0.340386 0.007133 -0.026500 -501784.000000 0 0 1
-4.865149 -9.203356 33.523091 35.102265 1.084510 0.301096 0.006941 -0.018436 -380701.000000 0 0 1
-4.790449 -8.656656 32.213087 33.698205 1.065359 0.297989 0.003907 -0.015511 -323854.000000 0 0 1
-3.934449 -7.563956 32.111297 33.223917 1.091153 0.259527 0.005197 -0.014985 -1272960.000000 0 0 1
-4.034649 -6.782456 30.821537 31.815833 1.034161 0.250662 0.009255 -0.009552 237906.000000 0 0 1
-5.092849 -5.846556 30.769787 31.731673 0.854188 0.246850 -0.008261 -0.010718 -83311.200000 0 0 1
-6.373349 -6.391556 30.637297 31.939247 0.786824 0.286508 -0.001871 -0.009205 -357397.000000 0 0 1
-7.614249 -5.451656 30.455867 31.863100 0.621371 0.298308 -0.010319 -0.007315 87086.800000 0 0 1
-8.799349 -6.113256 30.224547 32.067486 0.607187 0.340675 -0.019147 -0.003485 -387260.000000 0 0 1
-9.903949 -5.243256 29.925947 31.955316 0.486898 0.358302 -0.011027 -0.005555 311355.000000 0 0 1
-10.890649 -5.927556 28.994717 31.534675 0.498441 0.404104 0.004907 -0.003595 -764572.000000 0 0 1
-10.384349 -6.110256 27.699117 30.206142 0.531854 0.410296 0.000740 0.004339 -37769.000000 0 0 1
-11.315349 -6.578756 26.768657 29.797284 0.526632 0.454777 0.009927 -0.004538 -579849.000000 0 0 1
-10.919949 -6.372656 25.357637 28.334886 0.528258 0.462530 0.005332 -0.003580 178949.000000 0 0 1
-9.671749 -6.963856 24.977307 27.674968 0.624036 0.445203 0.006324 -0.000818 521475.000000 0 0 1
-9.183449 -6.531056 23.746757 26.284955 0.618188 0.443080 0.005288 -0.004225 -415430.000000 0 0 1
-10.006949 -6.944356 22.458557 25.548970 0.606656 0.496952 0.014290 -0.011281 197769.000000 0 0 1
-11.197149 -6.193456 22.378157 25.778226 0.505242 0.519428 0.010920 -0.005596 -296667.000000 0 0 1
-12.005749 -6.529556 21.271757 25.283606 0.498124 0.571065 0.020614 -0.008905 465060.000000 0 0 1
-13.152849 -5.452356 21.115157 25.467145 0.392976 0.593276 0.028266 -0.004026 339291.000000 0 0 1
-12.781949 -4.135756 20.665957 24.648823 0.312931 0.576427 0.015778 0.000688 -648608.000000 0 1 0
-13.790949 -3.197256 20.820357 25.177370 0.227813 0.597140 0.011062 0.003341 -254103.000000 0 0 1
-13.395949 -1.782256 20.266457 24.358923 0.132268 0.588106 0.002170 0.008315 117637.000000 0 1 0
-12.623449 -0.972256 21.162757 24.660880 0.076868 0.539139 0.008771 0.005589 41538.600000 0 1 0
-12.802549 0.420744 21.027057 24.621523 -0.032852 0.547149 0.000191 0.007115 -329808.000000 0 1 0
-12.267849 1.032744 19.675057 23.209363 -0.083985 0.559123 0.004612 -0.002638 -324307.000000 0 1 0
-12.975449 0.772744 18.521357 22.627418 -0.059484 0.611938 0.013917 0.001188 -1011970.000000 0 1 0
-14.248149 1.338744 18.523857 23.408017 -0.093684 0.657788 0.011300 0.005161 -564618.000000 0 1 0
-15.313649 0.601744 17.682557 23.399631 -0.039274 0.714110 0.021571 0.007279 -94166.500000 0 1 0
-15.603049 -0.658256 18.180957 23.967387 0.042163 0.709680 0.004994 0.011112 414991.000000 0 1 0
-16.542049 -1.263256 17.279557 23.954504 0.076218 0.765048 0.007250 0.015168 58877.100000 0 1 0
-16.772949 -2.773256 17.549057 24.433423 0.163859 0.769527 0.012836 0.016762 -135646.000000 0 1 0
-17.216549 -3.034256 18.884657 25.734151 0.174449 0.746844 0.003782 0.015970 152097.000000 0 0 1
-17.212149 -4.415856 19.148657 26.123340 0.251138 0.748061 0.009850 0.010798 -438908.000000 0 0 1
-18.118749 -4.773256 20.305557 27.629489 0.257590 0.745243 -0.000788 0.012446 -786587.000000 0 0 1
-17.600849 -4.405456 21.604757 28.212824 0.245259 0.698546 0.009815 0.009543 1000310.000000 0 0 1
-18.550949 -4.631256 22.710357 29.687481 0.244650 0.699785 0.012261 0.005333 383679.000000 0 0 1
-18.786649 -6.124156 23.138057 30.427177 0.315122 0.706805 0.013590 -0.001237 -30151.400000 0 0 1
-17.692449 -6.733156 23.778987 30.394051 0.363642 0.672356 0.042633 -0.009818 -79787.100000 0 0 1
-16.649349 -7.181156 22.957557 29.254388 0.407209 0.668494 0.025087 -0.008401 -149536.000000 0 0 1
-15.338049 -7.470156 23.729357 29.225696 0.453221 0.623338 0.028035 -0.010784 -47689.400000 0 0 1
-15.577449 -8.543256 24.614507 30.356516 0.501643 0.625197 0.032375 -0.015091 414117.000000 0 0 1
-14.512049 -8.924156 25.503027 30.669928 0.551338 0.588936 0.038032 -0.012405 403341.000000 0 0 1
-14.820849 -10.001556 26.629767 32.075429 0.593633 0.591288 0.034516 -0.014824 -233431.000000 0 0 1
-15.092449 -11.341356 26.332117 32.400443 0.644434 0.622011 0.029475 -0.018189 125202.000000 0 0 1
-14.656049 -12.138756 27.447307 33.399159 0.691726 0.606240 0.023974 -0.015716 -209729.000000 0 0 1
-14.622849 -13.635956 27.236777 33.787705 0.750489 0.633239 0.009209 -0.010410 279510.000000 0 0 1
-15.873149 -14.338756 27.292597 34.676254 0.734654 0.664754 0.019285 -0.007234 370402.000000 0 0 1
-15.783249 -15.669656 26.794217 34.822106 0.781787 0.692801 0.027993 -0.004487 -118380.000000 0 0 1
-14.928849 -16.710856 27.552447 35.514230 0.841661 0.682792 0.028154 0.000957 108425.000000 0 0 1
-13.541249 -16.630156 27.300367 34.716531 0.887421 0.665870 0.033318 -0.014806 -199037.000000 0 0 1
-12.873849 -17.571056 28.084327 35.541629 0.938477 0.659692 0.043547 -0.006496 186885.000000 0 0 1
-11.453649 -17.824056 27.495907 34.711784 0.999644 0.656521 0.040675 -0.013919 566317.000000 0 0 1
-10.562049 -18.482556 28.406787 35.497990 1.051626 0.643107 0.057896 -0.021993 831373.000000 0 0 1
-9.298949 -18.731056 27.790707 34.779969 1.109996 0.645094 0.045836 -0.015683 217947.000000 0 0 1
-8.240549 -19.453856 28.613737 35.568316 1.170117 0.636009 0.063064 -0.018103 -241886.000000 0 0 1
-8.593449 -20.755056 28.891837 36.597239 1.178244 0.660877 0.056840 -0.006399 38915.900000 0 0 1
-7.564849 -21.397156 29.614937 37.310986 1.230967 0.653876 0.055190 -0.005270 92924.200000 0 0 1
-8.005649 -22.681356 30.304107 38.689445 1.231486 0.670895 0.046638 -0.007334 14481.700000 0 0 1
-8.236249 -23.760456 29.357817 38.655872 1.237121 0.708305 0.048518 -0.007060 119667.000000 0 0 1
-8.306449 -24.997956 30.014237 39.934312 1.249989 0.720327 0.034762 -0.007872 -179835.000000 0 0 1
-8.353249 -26.200956 29.098657 40.037466 1.262169 0.757166 0.037181 -0.004877 203811.000000 0 0 1
-9.541549 -26.223356 28.311347 39.752206 1.221831 0.778175 0.039710 -0.008177 521037.000000 0 0 1
-9.665849 -27.367756 27.506737 39.988039 1.231288 0.812240 0.041008 -0.008899 -107926.000000 0 0 1
-10.890049 -27.411756 26.554787 39.688212 1.192640 0.837819 0.041289 -0.016746 -135140.000000 0 0 1
-10.860249 -26.637356 25.335797 38.332706 1.183663 0.848719 0.051239 -0.016195 23886.300000 0 0 1
-11.127449 -25.277956 25.505647 37.594324 1.156119 0.825154 0.045765 -0.008198 -306825.000000 0 0 1
-11.446749 -24.626256 24.172257 36.356272 1.135688 0.843474 0.047724 -0.021578 -262226.000000 0 0 1
-12.608849 -25.168856 23.598457 36.733384 1.106373 0.873137 0.042582 -0.013762 -130812.000000 0 0 1
-12.817049 -24.613656 22.357957 35.636877 1.090703 0.892609 0.048938 -0.018505 418373.000000 0 0 1
-14.250849 -24.888056 21.800957 36.024765 1.050769 0.920822 0.055017 -0.016269 312891.000000 0 0 1
-14.602249 -26.204656 21.439157 36.872037 1.062413 0.950289 0.068955 -0.017331 113251.000000 0 0 1
-15.889649 -26.193856 20.846857 37.056584 1.025525 0.973307 0.074473 -0.018462 135158.000000 0 0 1
-16.277649 -27.565856 20.374857 37.946977 1.037391 1.004003 0.083161 -0.028271 214990.000000 0 0 1
-15.461549 -28.092656 19.305257 37.429263 1.067664 1.028879 0.076975 -0.024836 223246.000000 0 0 1
-15.715249 -29.437756 18.981357 38.390655 1.080439 1.053621 0.094891 -0.019421 297791.000000 0 0 1
-14.661549 -29.927056 17.942157 37.848523 1.115254 1.076910 0.095115 -0.029803 179181.000000 0 0 1
-14.899749 -29.623156 16.583857 37.075034 1.104770 1.107046 0.085890 -0.028868 -301960.000000 0 0 1
-13.755549 -29.800356 15.776957 36.416874 1.138346 1.122721 0.090321 -0.031669 28858.700000 0 0 1
-13.837949 -29.197456 14.346057 35.352363 1.128210 1.152940 0.061874 -0.023708 -135443.000000 0 0 1
-13.805349 -27.796956 14.340957 34.189493 1.109833 1.137951 0.061754 -0.022072 -260926.000000 0 0 1
-14.152649 -27.266756 13.099757 33.397261 1.092030 1.167730 0.051317 -0.013116 -247618.000000 0 0 1
-13.081149 -27.126356 12.006057 32.420688 1.121465 1.191442 0.040646 -0.017119 -84003.700000 0 0 1
-13.554449 -26.580756 10.804357 31.733165 1.099233 1.223374 0.028618 -0.008764 -305579.000000 0 0 1
-12.637649 -26.911456 9.777557 31.297560 1.131762 1.253071 0.032585 -0.008037 -4450.620000 0 0 1
-12.917349 -26.213056 8.427757 30.413965 1.112939 1.290020 0.027631 -0.008283 -163871.000000 0 0 1
-14.075149 -26.621256 7.737957 31.091430 1.084439 1.319275 0.032216 -0.005134 -354189.000000 0 0 1
-14.182449 -25.831456 6.580557 30.194531 1.068692 1.351094 0.025033 -0.007853 -195320.000000 0 0 1
-15.334149 -26.103256 5.625557 30.792255 1.039662 1.387071 0.018489 -0.002915 -243360.000000 0 0 1
-15.021249 -27.388856 5.069157 31.646227 1.069149 1.409921 0.033844 -0.013374 251237.000000 0 0 1
-15.722349 -27.603556 3.841757 31.998557 1.053047 1.450446 0.035717 -0.002042 106120.000000 0 0 1
-15.296249 -28.938056 3.188057 32.886928 1.084542 1.473704 0.024070 0.012091 83716.400000 0 0 1
-13.983549 -28.884056 2.672057 32.201991 1.119928 1.487723 0.034862 0.006743 -314855.000000 0 0 1
-13.728349 -30.070656 1.971957 33.114959 1.142520 1.511212 0.029918 0.008202 648171.000000 0 0 1
-12.345049 -30.101056 1.228357 32.557375 1.181596 1.533058 0.025340 0.002402 768728.000000 0 0 1
-12.382949 -29.360056 -0.005143 31.864562 1.171672 1.570958 0.029628 0.000120 -97404.500000 0 0 1
-12.458849 -27.945056 0.037857 30.596576 1.151412 1.569559 0.026811 -0.005369 -469913.000000 0 0 1
-12.262949 -27.259056 -1.338543 29.920356 1.148053 1.615548 0.031191 -0.005129 595586.000000 0 0 1
-10.906249 -27.434856 -1.792443 29.577532 1.192419 1.631435 0.032472 -0.008701 392269.000000 0 0 1
-10.696849 -26.726556 -2.976443 28.941157 1.190089 1.673823 0.055708 -0.011767 734912.000000 0 0 1
-9.241949 -26.732956 -3.547643 28.507022 1.237945 1.695568 0.047655 -0.016154 667233.000000 0 0 1
-8.964049 -25.943056 -4.653343 27.839718 1.238111 1.738732 0.048668 -0.012683 653755.000000 0 0 1
-7.564149 -26.044156 -4.994343 27.576400 1.288137 1.752911 0.057256 -0.005524 1108970.000000 0 0 1
-6.921949 -24.905456 -5.733743 26.477744 1.299709 1.789075 0.030956 -0.007708 -139240.000000 0 0 1
-7.211149 -24.802556 -7.104843 26.788920 1.287854 1.839224 0.043017 -0.005500 159143.000000 0 0 1
-6.455649 -23.681456 -7.671143 25.716399 1.304659 1.873705 0.040885 -0.004094 48443.800000 0 0 1
-6.550249 -23.685356 -9.219343 26.246869 1.300987 1.929707 0.037855 -0.009955 358309.000000 0 0 1
-5.650749 -24.642156 -9.837643 27.128325 1.345381 1.941889 0.025099 -0.010876 233246.000000 0 0 1
-5.810249 -24.831556 -11.255843 27.875781 1.340945 1.986448 0.021252 -0.003327 1033550.000000 0 0 1
-7.204949 -25.417256 -11.757443 28.916875 1.294576 1.989520 0.026634 -0.006961 1259450.000000 0 0 1
-7.412349 -25.103556 -13.104943 29.272358 1.283684 2.034977 0.038136 0.004277 -797254.000000 0 0 1
-8.565849 -25.707656 -13.568343 30.304410 1.249164 2.035027 0.042657 0.001016 -1027880.000000 0 0 1
-8.784249 -25.730256 -15.117143 31.108473 1.241806 2.078245 0.051708 0.001997 208893.000000 0 0 1
-7.885449 -26.384756 -16.008043 31.852678 1.280382 2.097360 0.042850 0.000255 1010890.000000 0 0 1
-6.543449 -25.871756 -16.134343 31.184636 1.323073 2.114584 0.053504 0.000189 1023340.000000 0 0 1
-5.550349 -26.886556 -16.770543 32.170551 1.367220 2.119171 0.035783 0.009334 -34272.200000 0 0 1
-5.804649 -27.051856 -18.130843 33.079062 1.359427 2.150895 0.059413 0.005113 -125975.000000 0 0 1
-4.887749 -27.957056 -18.681643 33.977799 1.397715 2.152944 0.039091 0.004270 -44232.800000 0 0 1
-24.433549 14.575002 -6.141844 29.105862 -0.537854 1.783412 0.040530 -0.011288 -23384.000000 0 0 1
-24.583649 13.509702 -5.233144 28.535130 -0.502490 1.755233 0.035694 -0.003987 215162.000000 0 0 1
-23.316649 12.904002 -5.196444 27.151103 -0.505468 1.763374 0.042620 -0.009366 -437202.000000 0 0 1
-23.322249 11.407502 -4.788044 26.400450 -0.454910 1.753168 0.040441 -0.014424 -256561.000000 0 0 1
-23.862449 10.531502 -5.755344 26.710540 -0.415631 1.787970 0.032744 -0.009582 786420.000000 0 0 1
-25.290349 10.436402 -5.836944 27.974812 -0.391375 1.780991 0.056086 -0.014806 358655.000000 0 0 1
-25.792579 9.877902 -7.139944 28.527335 -0.365744 1.823770 0.059948 -0.009266 -271866.000000 0 0 1
-25.748049 10.790702 -8.210844 29.100158 -0.396853 1.856839 0.079450 -0.001845 45547.000000 0 0 1
-26.049409 10.058602 -9.392144 29.461153 -0.368497 1.895257 0.070986 -0.010426 -382939.000000 0 0 1
-26.401249 10.978502 -10.579844 30.487482 -0.394080 1.925191 0.046603 -0.015823 -270699.000000 0 0 1
-25.324839 11.686402 -11.179644 30.048359 -0.432343 1.952018 0.054650 -0.020806 221793.000000 0 0 1
-25.694389 12.620402 -12.196044 31.116228 -0.456561 1.973548 0.047739 -0.024031 -94139.700000 0 0 1
-24.630749 13.684902 -12.605544 30.868269 -0.507134 1.991459 0.036541 -0.019175 -160776.000000 0 0 1
-24.694649 14.874502 -11.819544 31.157312 -0.542136 1.959891 0.036035 -0.016705 -38220.300000 0 0 1
-23.868149 15.862102 -12.372544 31.214974 -0.586551 1.978351 0.027980 -0.017228 -174114.000000 0 0 1
-24.066649 17.201502 -11.624744 31.784114 -0.620553 1.945225 0.036927 -0.021093 157782.000000 0 0 1
-23.094649 17.385002 -10.589244 30.785275 -0.645273 1.921939 0.029128 -0.013582 336825.000000 0 0 1
-23.181849 18.659502 -10.025444 31.401985 -0.677733 1.895746 0.009386 -0.004511 -418572.000000 0 0 1
-22.022149 18.921702 -9.074844 30.419708 -0.709818 1.873730 0.009309 -0.006969 -615534.000000 0 0 1
-22.136649 18.312702 -7.811944 29.772684 -0.691142 1.836291 0.019164 -0.013160 -64668.500000 0 0 1
-23.027249 18.940102 -6.926044 30.609667 -0.688316 1.799043 0.019722 -0.009428 -160219.000000 0 0 1
-23.312849 18.153502 -5.589544 30.071274 -0.661612 1.757760 0.017055 -0.005980 480314.000000 0 0 1
-22.139149 18.100202 -4.781644 28.993505 -0.685360 1.736474 0.028886 -0.015681 573041.000000 0 0 1
-22.443949 17.510702 -3.541544 28.686199 -0.662549 1.694570 0.017876 -0.010219 -589742.000000 0 0 1
-21.255849 17.585302 -2.609344 27.710334 -0.691176 1.665101 0.024897 -0.020398 -702790.000000 0 0 1
-21.054449 18.834902 -1.982744 28.319156 -0.729813 1.640868 0.035138 -0.021200 237621.000000 0 0 1
-19.877849 18.822502 -1.199244 27.401708 -0.758135 1.614576 0.066824 -0.024072 88351.100000 0 0 1
-19.450349 20.180302 -0.641444 28.035194 -0.803815 1.593678 0.061851 -0.033749 -194520.000000 0 0 1
-20.383249 20.663102 0.283556 29.026212 -0.792216 1.561027 0.053178 -0.019414 -88765.700000 0 0 1
-20.070049 21.968802 0.668556 29.763771 -0.830534 1.548332 0.058509 -0.017195 -66574.200000 0 0 1
-20.926249 22.508402 1.808656 30.786479 -0.821808 1.512014 0.043841 -0.021884 -292216.000000 0 0 1
-20.644249 21.828802 2.997256 30.193793 -0.813280 1.471365 0.059296 -0.022028 135223.000000 0 0 1
-21.752949 21.892102 3.863556 31.102764 -0.788586 1.446256 0.045636 -0.016018 -109839.000000 0 0 1
-21.469349 21.667202 5.361856 30.970148 -0.789985 1.396790 0.047160 -0.015899 -392991.000000 0 0 1
-20.716249 22.670502 5.969056 31.284888 -0.830410 1.378823 0.053276 -0.010586 -63024.300000 0 0 1
-19.902749 22.254602 7.037956 30.674412 -0.841128 1.339293 0.047694 -0.010929 -257958.000000 0 0 1
-20.596849 21.979402 8.391956 31.268981 -0.817859 1.299086 0.040581 -0.017645 279471.000000 0 0 1
-21.491449 20.825402 8.376556 31.076461 -0.769660 1.297874 0.040017 -0.017399 1165250.000000 0 0 1
-22.041749 20.356902 9.599556 31.502279 -0.745681 1.261146 0.040394 -0.012816 425153.000000 0 0 1
-22.751949 21.277702 10.682956 32.932010 -0.751928 1.240425 0.050789 -0.016298 496127.000000 0 0 1
-23.966349 21.934302 10.281056 34.076379 -0.741156 1.264315 0.053602 -0.019654 996794.000000 0 0 1
-24.537749 22.549502 11.405156 35.222986 -0.743198 1.241055 0.049551 -0.019522 -74869.100000 0 0 1
-25.664449 23.572002 11.135256 36.582743 -0.742926 1.261503 0.045755 -0.021729 269697.000000 0 0 1
-26.358619 24.029102 12.298756 37.728423 -0.739199 1.238747 0.039532 -0.021251 264005.000000 0 0 1
-27.000759 25.285402 12.097256 38.919611 -0.752603 1.254734 0.045371 -0.020901 31034.800000 0 0 1
-27.416479 25.827102 13.474456 40.003293 -0.755556 1.227244 0.054408 -0.020105 -101223.000000 0 0 1
-26.330999 26.176902 14.291556 39.784422 -0.782463 1.203359 0.035632 -0.023266 38324.600000 0 0 1
-26.810529 26.660102 15.539156 40.878244 -0.782585 1.180857 0.035258 -0.025510 238654.000000 0 0 1
-25.755309 26.584902 16.668056 40.594544 -0.801247 1.147686 0.030686 -0.030562 -7666.200000 0 0 1
-25.539349 25.379902 17.341256 39.963945 -0.782267 1.121954 0.037421 -0.031296 5935.780000 0 0 1
-24.469149 25.576202 18.247656 39.822836 -0.807516 1.094804 0.034662 -0.024809 -194116.000000 0 0 1
-23.683549 24.283202 18.459856 38.618009 -0.797899 1.072407 0.041995 -0.018124 -467584.000000 0 0 1
-22.645149 24.459902 19.422656 38.578869 -0.823905 1.043205 0.046427 -0.025855 402663.000000 0 0 1
-22.271049 23.238902 19.980156 37.884730 -0.806662 1.015267 0.053321 -0.025096 -412645.000000 0 0 1
-20.797449 23.137902 20.417956 37.212757 -0.838618 0.990010 0.037158 -0.028642 -299196.000000 0 0 1
-19.941549 22.982102 19.292256 36.028232 -0.856116 1.005725 0.041988 -0.032271 1085220.000000 0 0 1
-18.569249 22.692902 19.648756 35.296719 -0.885005 0.980420 0.042273 -0.030405 997820.000000 0 0 1
-18.192149 21.205102 19.548656 34.099275 -0.861726 0.960285 0.038159 -0.014305 -537502.000000 0 0 1
-18.660049 20.394602 20.652156 34.505779 -0.829782 0.929153 0.039730 -0.011485 190008.000000 0 0 1
-18.049549 20.650802 21.942556 35.124316 -0.852512 0.896035 0.034660 -0.004850 242889.000000 0 0 1
-18.959249 20.485602 23.206756 36.299677 -0.824075 0.877195 0.026549 -0.001105 471226.000000 0 0 1
-19.963649 21.490202 23.416456 37.532738 -0.822207 0.897081 0.043060 -0.012011 96513.700000 0 0 1
-20.842449 21.117102 24.423956 38.430057 -0.791944 0.882085 0.025404 0.000174 385236.000000 0 0 1
-21.937549 22.235002 24.705456 39.824752 -0.792132 0.901602 0.031626 -0.005554 145012.000000 0 0 1
-21.384849 23.462502 25.150356 40.501125 -0.831692 0.900805 0.043537 -0.014743 198763.000000 0 0 1
-22.317349 24.534402 25.129956 41.611484 -0.832683 0.922388 0.027102 -0.011941 346026.000000 0 0 1
-23.053449 24.818102 23.772056 41.382488 -0.822244 0.958868 0.023071 -0.016435 112627.000000 0 0 1
-24.132949 23.973502 23.451256 41.316939 -0.782084 0.967215 0.019174 -0.019753 197079.000000 0 0 1
-24.981349 24.482302 22.419856 41.546370 -0.775309 1.000793 0.020701 -0.022665 236374.000000 0 0 1
-26.093229 23.503202 22.037556 41.459751 -0.733224 1.010378 0.025018 -0.018964 428805.000000 0 0 1
-27.217159 23.338302 22.915356 42.550718 -0.708823 1.002090 0.000829 -0.018546 427613.000000 0 0 1
-28.075009 22.336902 22.461556 42.328062 -0.672062 1.011424 0.010320 -0.013454 47878.900000 0 0 1
-29.585019 22.537302 22.754956 43.600359 -0.650998 1.021721 0.024308 -0.011171 -398736.000000 0 0 1
-30.003919 23.538102 21.828856 43.940600 -0.665219 1.050911 0.011246 -0.013265 -132292.000000 0 0 1
-31.378439 23.809602 21.968856 45.101377 -0.649102 1.062031 0.009820 -0.012225 45112.300000 0 0 1
-32.339619 22.929202 21.127756 44.921947 -0.616749 1.081141 0.024795 -0.019359 -947398.000000 0 0 1
-32.308719 21.536102 21.506256 44.386665 -0.587937 1.064981 0.019179 -0.015055 143740.000000 0 0 1
-32.853989 20.666002 20.535556 43.911015 -0.561489 1.084151 0.024434 -0.007140 -479185.000000 0 0 1
-34.380148 20.659902 20.497356 45.044064 -0.541100 1.098367 0.029600 -0.003859 -961123.000000 0 0 1
-34.926089 20.100402 19.362856 44.707695 -0.522219 1.122868 0.035072 -0.008437 284126.000000 0 0 1
34.911905 20.123402 19.412856 44.728641 0.522890 1.121853 0.044964 -0.012035 464737.000000 0 0 1
34.252335 19.226902 18.322856 43.343087 0.511501 1.134330 0.063932 -0.007652 -287644.000000 0 0 1
34.474535 17.844702 18.455556 42.982955 0.477644 1.127002 0.064234 -0.013779 207967.000000 0 0 1
33.734715 17.025802 17.565856 41.670951 0.467398 1.135657 0.070760 -0.018612 39938.900000 0 0 1
34.118215 15.553202 17.642556 41.439286 0.427718 1.131012 0.060041 -0.023293 17383.200000 0 0 1
33.314095 14.718302 16.819656 40.116806 0.416017 1.138158 0.063060 -0.021558 375357.000000 0 0 1
33.790965 13.362302 16.752356 40.012771 0.376569 1.138810 0.051651 -0.022699 560032.000000 0 0 1
32.877745 12.592302 15.725356 38.559032 0.365769 1.150725 0.058042 -0.029060 366841.000000 0 0 1
33.032285 13.048102 14.363256 38.310415 0.376198 1.186488 0.064273 -0.031639 449536.000000 0 0 1
32.281555 12.324702 13.393456 37.059165 0.364708 1.201019 0.073004 -0.033715 -226212.000000 0 0 1
32.500565 12.847902 11.970156 36.941033 0.376459 1.240806 0.081491 -0.029362 818964.000000 0 0 1
33.798535 12.411502 11.491656 37.794768 0.351933 1.261851 0.075651 -0.026913 1254420.000000 0 0 1
33.996525 12.869002 10.205356 37.756114 0.361870 1.297095 0.068885 -0.020568 34918.600000 0 0 1
35.281562 12.314002 9.534956 38.566029 0.335802 1.320968 0.070433 -0.018497 89331.000000 0 0 1
35.155225 10.993402 9.056756 37.931116 0.303076 1.329699 0.048083 -0.017304 -31081.900000 0 0 1
-34.827251 10.485602 8.764456 37.412577 -0.292442 1.334334 0.052551 -0.021647 217771.000000 0 0 1
-34.462117 10.729402 7.239256 36.812557 -0.301827 1.372854 0.043190 -0.020823 -137311.000000 0 0 1
-34.145700 12.051502 6.949956 36.870983 -0.339295 1.381168 0.073754 -0.020754 24368.800000 0 0 1
-33.752009 12.072802 5.566956 36.275910 -0.343510 1.416726 0.079780 -0.029702 -240154.000000 0 0 1
-34.608927 13.020202 4.714356 37.276382 -0.359830 1.443986 0.091942 -0.033455 440508.000000 0 0 1
35.348653 12.490502 4.440556 37.752595 0.339657 1.452901 0.082875 -0.025307 916898.000000 0 0 1
34.226385 13.350602 4.576556 37.022005 0.371915 1.446862 0.054167 -0.021085 473746.000000 0 0 1
33.864585 13.985702 5.959256 37.120381 0.391653 1.409560 0.059664 -0.011469 -1355510.000000 0 0 1
33.085155 15.157502 5.746456 36.842897 0.429599 1.414185 0.050037 -0.010965 781547.000000 0 0 1
32.276375 15.561502 6.883756 36.487132 0.449252 1.380996 0.045250 -0.007859 701537.000000 0 0 1
31.050845 14.690802 7.241156 35.105682 0.441914 1.363038 0.048082 -0.010122 -671455.000000 0 0 1
31.437115 13.486602 7.892856 35.106663 0.405256 1.344033 0.057014 -0.005576 54711.800000 0 0 1
30.426905 12.523202 8.122956 33.891142 0.390452 1.328762 0.072521 -0.004211 -314723.000000 0 0 1
30.281675 11.333002 7.050356 33.092662 0.358115 1.356102 0.081517 -0.010032 -37792.500000 0 0 1
29.667545 11.673202 5.814556 32.407343 0.374862 1.390399 0.061513 -0.011376 350504.000000 0 0 1
29.968045 10.703602 4.819356 32.185043 0.343045 1.420492 0.077388 -0.018243 22312.100000 0 0 1
29.437035 11.122402 3.392256 31.650501 0.361256 1.463411 0.054962 -0.023169 -47589.800000 0 0 1
28.048995 10.929002 3.339356 30.287629 0.371543 1.460317 0.042095 -0.017045 4246.710000 0 0 1
27.414885 11.478002 2.187256 29.801082 0.396503 1.497335 0.052523 -0.020575 695243.000000 0 0 1
25.946435 10.986802 1.949356 28.244066 0.400550 1.501723 0.081571 -0.009238 646469.000000 0 0 1
25.959935 9.683402 1.434856 27.744284 0.357028 1.519056 0.036562 -0.016621 -567717.000000 0 0 1
24.728935 9.052102 1.354556 26.368458 0.350904 1.519403 0.028364 -0.021504 -1640390.000000 0 0 1
24.824435 7.532202 1.174256 25.968548 0.294590 1.525563 0.042021 -0.015619 4701.670000 0 0 1
25.411035 6.828302 2.252656 26.408727 0.262513 1.485393 0.049210 -0.009666 1932340.000000 0 0 1
26.844055 6.946302 2.501256 27.840809 0.253211 1.480834 0.074606 -0.021523 1057230.000000 0 0 1
27.198665 6.392002 3.894856 28.209838 0.230823 1.432287 0.088314 -0.024988 -938750.000000 0 0 1
28.557165 6.203302 4.121556 29.512367 0.213901 1.430683 0.094178 -0.023252 -216079.000000 0 0 1
28.732695 5.748402 5.506256 29.814941 0.197458 1.385049 0.086378 -0.016950 -436354.000000 0 0 1
30.179565 5.810102 5.993356 31.312677 0.190191 1.378204 0.087373 -0.021892 -306336.000000 0 0 1
30.685275 7.146302 6.189556 32.108664 0.228812 1.376813 0.091110 -0.030469 -69081.600000 0 0 1
32.024735 7.054102 6.609056 33.451810 0.216808 1.371918 0.065553 -0.023335 -181900.000000 0 0 1
32.428755 8.227002 7.480956 34.282246 0.248453 1.350810 0.067928 -0.030979 -396550.000000 0 0 1
31.766285 8.264302 8.685356 33.953364 0.254517 1.312119 0.057375 -0.027665 -241091.000000 0 0 1
32.389015 9.123902 9.554356 34.979702 0.274582 1.294141 0.059469 -0.020081 -398326.000000 0 0 1
31.843195 8.882202 10.960856 34.828478 0.272021 1.250646 0.044655 -0.019232 -152541.000000 0 0 1
30.531705 9.411602 11.063756 33.810796 0.299014 1.237430 0.053440 -0.016316 192422.000000 0 0 1
29.975795 9.054002 12.307956 33.645341 0.293331 1.196288 0.047736 -0.022637 75430.700000 0 0 1
28.531615 9.598902 12.522456 32.603740 0.324535 1.176585 0.042214 -0.028359 -159837.000000 0 0 1
28.448195 11.021002 12.630556 33.019588 0.369603 1.178277 0.044095 -0.030173 296999.000000 0 0 1
28.638525 11.861302 11.452656 33.045709 0.392664 1.216884 0.050353 -0.027089 -782749.000000 0 0 1
27.454235 11.850902 10.484856 31.687712 0.407498 1.233560 0.040568 -0.026506 -676083.000000 0 0 1
27.419185 12.855402 9.502056 31.738968 0.438416 1.266752 0.034907 -0.014063 425824.000000 0 0 1
26.239885 12.884302 8.695156 30.498238 0.456438 1.281682 0.024664 -0.013582 259664.000000 0 0 1
26.253265 14.004102 7.613956 30.713533 0.490027 1.320282 0.013953 -0.006752 -72218.500000 0 0 1
26.028935 15.291602 8.102356 31.256786 0.531166 1.308583 0.012404 -0.001436 351105.000000 0 0 1
26.303485 16.366002 7.208856 31.807026 0.556583 1.342166 0.013870 0.007129 -586022.000000 0 0 1
25.846435 17.751402 7.824856 32.316850 0.601814 1.326236 0.015535 -0.005434 518210.000000 0 0 1
24.477835 18.109302 7.704356 31.408093 0.636957 1.322969 0.018510 -0.010633 1120470.000000 0 0 1
23.533335 17.342702 8.519256 30.449382 0.635091 1.287227 0.021360 -0.011318 1019690.000000 0 0 1
22.198235 18.112002 8.840956 29.982807 0.684374 1.271479 0.025046 -0.010423 525964.000000 0 0 1
21.388335 18.402802 7.720756 29.252932 0.710508 1.303701 0.031438 -0.015916 -32174.100000 0 0 1
20.521335 19.493402 7.932656 29.394641 0.759715 1.297541 0.061855 -0.025801 -195566.000000 0 0 1
19.741335 19.801202 6.651856 28.741174 0.786912 1.337239 0.053942 -0.020464 -36578.300000 0 0 1
20.498635 20.257802 5.537356 29.346803 0.779489 1.380972 0.042637 -0.015929 -154234.000000 0 0 1
19.605835 20.795102 4.622656 28.951579 0.814826 1.410441 0.039649 -0.015419 -363054.000000 0 0 1
18.257551 17.377102 32.904207 41.448627 0.760696 0.653674 0.017633 0.012980 536015.000000 0 0 1
17.267851 17.975402 32.037637 40.591919 0.805472 0.661191 0.014024 0.012089 677344.000000 0 0 1
16.738151 17.139502 31.052187 39.219466 0.797245 0.657120 0.013462 0.006492 188413.000000 0 0 1
15.929351 17.783802 29.900907 38.263194 0.840350 0.673804 0.011305 0.006731 383390.000000 0 0 1
16.809351 18.677002 29.204557 38.526495 0.837980 0.710496 0.005315 0.010935 363342.000000 0 0 1
16.365451 18.817202 27.894187 37.416583 0.854972 0.729507 0.015251 -0.004800 42274.800000 0 0 1
17.563451 19.074802 26.920867 37.377211 0.826625 0.766636 0.011148 -0.001834 139219.000000 0 0 1
18.047051 20.378802 27.027197 38.359627 0.846006 0.788974 0.011755 -0.001457 -37647.500000 0 0 1
19.057451 20.574702 26.058247 38.282333 0.823663 0.822098 0.005793 0.008796 -312240.000000 0 0 1
19.883551 21.808802 26.377287 39.582075 0.831543 0.841433 0.013566 0.008591 -436624.000000 0 0 1
19.272851 22.980802 25.884117 39.617515 0.872928 0.858795 0.002852 0.007569 265198.000000 0 0 1
19.787251 24.152302 26.442957 40.915754 0.884415 0.868099 0.019665 0.007613 -252488.000000 0 0 1
18.810051 25.283802 26.095527 40.915341 0.931174 0.879167 0.022153 0.005877 49676.600000 0 0 1
18.770051 25.569502 24.742807 40.228357 0.937562 0.908336 0.020965 0.001036 431199.000000 0 0 1
18.020851 26.776702 24.560847 40.558328 0.978419 0.920316 0.032493 0.000033 10041.000000 0 0 1
18.206851 27.597802 23.208857 40.395286 0.987618 0.958750 0.029042 -0.004014 -46097.300000 0 0 1
19.416151 28.327502 23.154357 41.419301 0.969925 0.977589 0.036606 -0.003363 -59467.800000 0 0 1
19.452951 29.304002 22.108657 41.544368 0.984758 1.009635 0.032280 -0.008363 -209430.000000 0 0 1
20.665851 30.232202 21.949357 42.694703 0.971182 1.030838 0.044940 -0.007680 -547362.000000 0 0 1
21.768451 29.612502 21.366457 42.512247 0.936893 1.044198 0.041770 -0.005902 794015.000000 0 0 1
22.911651 30.517202 21.115657 43.613235 0.926797 1.065397 0.043937 -0.013090 1440520.000000 0 0 1
23.054351 30.876402 19.586357 43.225926 0.929433 1.100539 0.027840 -0.011773 -146056.000000 0 0 1
22.038351 31.685902 19.033757 43.034511 0.963080 1.112645 0.014310 -0.007030 172109.000000 0 0 1
22.161351 31.711602 17.648157 42.523036 0.960849 1.142825 0.016073 -0.001920 -442944.000000 0 0 1
21.371251 32.826902 16.999657 42.700400 0.993698 1.161336 0.028327 -0.000405 -638334.000000 0 0 1
21.998051 34.126202 17.150657 44.075582 0.998220 1.171121 0.028440 -0.005414 311673.000000 0 0 1
22.284751 -34.009656 15.980157 43.687896 -0.990741 1.196326 0.022940 -0.010226 -350888.000000 0 0 1
23.402051 34.388102 15.026957 44.226767 0.973259 1.224123 0.003635 -0.010221 -543447.000000 0 0 1
23.154051 33.207902 14.247057 42.916820 0.961922 1.232406 0.012280 -0.005946 101328.000000 0 0 1
22.124451 33.379802 13.291157 42.194281 0.985469 1.250341 0.001512 -0.008839 -174840.000000 0 0 1
21.878051 32.090102 12.484357 40.795624 0.972411 1.259785 0.007721 -0.009661 -250426.000000 0 0 1
22.879151 31.676402 11.542457 40.744058 0.945275 1.283572 0.017514 -0.025887 158414.000000 0 0 1
22.612751 30.517702 10.770257 39.479932 0.933098 1.294491 0.020475 -0.026047 -431565.000000 0 0 1
23.868551 30.067802 9.956657 39.659998 0.899832 1.317031 0.019886 -0.022142 1101240.000000 0 0 1
24.941551 29.408402 10.634857 40.000440 0.867401 1.301692 0.008601 -0.006797 776884.000000 0 0 1
25.638351 30.117802 11.664257 41.236657 0.865566 1.284020 0.013942 -0.011806 -927946.000000 0 0 1
26.912951 29.499402 12.233657 41.763429 0.831215 1.273509 0.016331 0.002443 -49589.800000 0 0 1
26.721751 28.416502 13.116357 41.153230 0.816125 1.246418 0.013123 0.002901 -781057.000000 0 0 1
27.986751 28.125202 13.598157 41.942759 0.787866 1.240622 0.007384 0.007198 -596115.000000 0 0 1
28.134151 27.066502 14.734057 41.727909 0.766059 1.209916 -0.005423 0.002577 -365275.000000 0 0 1
29.474951 26.963702 15.120557 42.713525 0.740932 1.208952 -0.000712 -0.008186 -415348.000000 0 0 1
29.713751 25.943402 16.067657 42.592683 0.717759 1.183982 0.009500 -0.012650 43171.300000 0 0 1
30.995051 26.264502 16.866957 43.988765 0.702969 1.177281 0.023919 -0.014745 -486084.000000 0 0 1
32.148051 26.319102 16.081657 44.551229 0.686030 1.201489 0.039839 -0.007197 -1252750.000000 0 0 1
33.202451 26.599702 16.956857 45.798274 0.675434 1.191517 0.038045 -0.010791 -164646.000000 0 0 1
34.468951 26.893302 16.094257 46.587373 0.662562 1.218063 0.033702 -0.011434 213290.000000 0 0 1
34.339951 28.065002 15.311857 46.918328 0.685183 1.238355 0.036900 -0.006558 598504.000000 0 0 1
-35.602032 28.622102 15.205657 48.145004 -0.677142 1.249465 0.043670 -0.013048 1116280.000000 0 0 1
-35.627832 29.940002 14.342357 48.697529 -0.698868 1.271844 0.029901 -0.005934 192736.000000 0 0 1
35.044151 31.041502 15.051657 49.175397 0.724904 1.259723 0.034911 -0.009458 221489.000000 0 0 1
35.158651 32.223202 14.268557 49.780088 0.741861 1.280087 0.023326 -0.004365 93604.500000 0 0 1
33.958051 33.138102 14.619157 49.648794 0.773178 1.271915 0.015834 -0.001352 -735951.000000 0 0 1
33.982051 34.338702 13.830857 50.251555 0.790618 1.291965 -0.002356 -0.009127 356434.000000 0 0 1
32.919251 -33.575956 13.992657 49.059315 -0.795274 1.281561 -0.005855 -0.002182 1796380.000000 0 0 1
31.478051 -34.085856 13.488657 48.318290 -0.825152 1.287874 -0.001880 -0.000594 1050760.000000 0 0 1
30.937151 33.759802 14.330957 47.981328 0.828999 1.267489 0.007459 -0.002443 -66572.600000 0 0 1
30.119651 32.828302 13.641157 46.593690 0.828402 1.273676 -0.002272 0.000719 -303340.000000 0 0 1
29.547651 31.691502 14.573257 45.714273 0.820392 1.246344 0.002060 -0.005449 370376.000000 0 0 1
28.809951 32.114502 15.754057 45.929781 0.839585 1.220684 0.009911 -0.011391 464853.000000 0 0 1
28.459251 31.020302 16.539257 45.229803 0.828429 1.196442 0.011523 -0.008394 349822.000000 0 0 1
27.382651 31.275402 17.675357 45.170550 0.851664 1.168750 0.010342 -0.007131 524607.000000 0 0 1
27.272851 30.132702 18.547557 44.674377 0.835175 1.142664 0.002984 -0.002111 476675.000000 0 0 1
28.189851 30.231502 19.659257 45.772238 0.820331 1.126855 0.009313 -0.015502 358727.000000 0 0 1
28.094751 28.994002 20.576157 45.313854 0.801149 1.099456 0.017439 -0.027138 -221031.000000 0 0 1
26.833551 28.875702 21.188257 44.752518 0.822039 1.077588 0.017893 -0.021075 -58035.800000 0 0 1
26.853451 27.943602 22.240757 44.683375 0.805290 1.049804 -0.000206 -0.018754 616761.000000 0 0 1
25.549751 28.017102 23.127457 44.414266 0.831427 1.023101 0.010800 -0.017509 654781.000000 0 0 1
24.429151 27.319602 22.574857 43.043794 0.841196 1.018713 0.013002 -0.013135 383488.000000 0 0 1
23.299551 27.487102 23.418757 42.974969 0.867666 0.994479 0.020754 -0.011476 38514.100000 0 0 1
23.140051 26.382102 24.431597 42.759562 0.850772 0.962620 0.027243 -0.014170 -466048.000000 0 0 1
24.050251 26.440402 25.523257 43.919768 0.832701 0.950675 0.009892 -0.014911 85871.600000 0 0 1
23.698951 25.546502 26.555577 43.811673 0.822898 0.919610 0.021391 -0.013703 -338532.000000 0 0 1
24.806451 25.315902 27.638087 44.945731 0.795562 0.908510 0.034218 -0.018862 305654.000000 0 0 1
25.293551 26.484902 28.336547 46.305222 0.808403 0.912271 0.044569 -0.018964 646241.000000 0 0 1
26.322351 27.120102 27.584107 46.789411 0.800324 0.940310 0.025475 -0.012256 -612239.000000 0 0 1
26.703551 28.472802 28.183827 48.146736 0.817453 0.945456 -0.001770 -0.006103 -624905.000000 0 0 1
27.216951 28.351002 29.469717 49.122357 0.805804 0.927389 0.017031 -0.002853 99788.300000 0 0 1
27.548051 29.566002 30.097157 50.387324 0.820715 0.930646 0.015194 -0.005037 794038.000000 0 0 1
29.098351 29.790302 30.224177 51.455582 0.797148 0.942974 -0.003478 0.002749 822860.000000 0 0 1
29.720351 29.883402 28.945437 51.128810 0.788134 0.968996 -0.023599 -0.002664 -613220.000000 0 0 1
31.110951 29.953102 29.103237 52.077615 0.766439 0.977806 0.003680 -0.011664 -249653.000000 0 0 1
31.786751 30.385102 27.811997 52.030367 0.762857 1.006840 0.004087 -0.010774 -233905.000000 0 0 1
31.434051 31.725202 27.524847 52.461464 0.790008 1.018471 -0.013947 -0.008487 605192.000000 0 0 1
32.108051 32.075702 26.283907 52.446366 0.784894 1.045860 -0.002492 -0.013265 234913.000000 0 0 1
31.889451 33.584502 25.970497 53.097293 0.811281 1.059726 -0.005476 -0.009456 -555638.000000 0 0 1
32.643651 34.398002 26.866187 54.503417 0.811560 1.055346 0.005502 -0.009249 269619.000000 0 0 1
32.529351 -33.091856 26.503557 53.438452 -0.793970 1.051852 0.001213 -0.004862 -235374.000000 0 0 1
33.468851 -32.068856 27.224187 53.756226 -0.764040 1.039748 0.006427 -0.007036 -61382.800000 0 0 1
33.201051 -31.897956 28.584947 54.193067 -0.765384 1.015182 0.002585 -0.012618 509474.000000 0 0 1
33.999751 -30.838956 29.128277 54.364334 -0.736688 1.005344 0.014389 -0.013388 -59608.400000 0 0 1
33.677151 -30.453256 30.602717 54.754704 -0.735170 0.977731 0.018615 -0.017017 -467547.000000 0 0 1
33.872251 -31.521556 31.507297 55.978993 -0.749467 0.972977 0.017444 -0.013098 947419.000000 0 0 1
32.706551 -32.367656 31.608687 55.825556 -0.780190 0.968902 0.013571 -0.012875 382718.000000 0 0 1
32.675951 -33.242656 32.875970 57.040524 -0.793995 0.956527 0.024226 -0.006695 -313244.000000 0 0 1
32.317251 -32.578856 34.129471 57.189224 -0.789429 0.931312 0.021926 -0.015067 353514.000000 0 0 1
32.691351 -33.220556 -33.449594 57.369026 -0.793427 2.193287 0.019142 -0.012772 -182509.000000 0 0 1
31.986051 34.298702 -33.211124 57.467270 0.820274 2.186966 0.015986 -0.010732 30014.400000 0 0 1
32.453751 33.303202 -34.163537 57.701789 0.798315 2.204422 0.013141 -0.010999 -180824.000000 0 0 1
31.614951 32.207802 -34.180918 56.614333 0.794687 2.218994 0.022542 -0.005867 -521024.000000 0 0 1
31.826651 31.167302 33.513375 55.744800 0.774932 0.925803 -0.000790 -0.000580 864228.000000 0 0 1
33.109151 30.503902 33.628300 56.192228 0.744466 0.929230 -0.003646 -0.008488 860183.000000 0 0 1
33.317951 29.685902 32.451177 55.176240 0.727814 0.942043 -0.006208 -0.005131 65503.900000 0 0 1
34.610051 28.840002 32.453327 55.523146 0.694709 0.946532 0.005925 -0.002619 23446.800000 0 0 1
34.482951 27.871002 33.431146 55.529345 0.679754 0.924737 0.006269 -0.000778 314780.000000 0 0 1
-35.536232 27.303302 33.807965 56.136196 -0.655125 0.924481 -0.011642 -0.003776 174690.000000 0 0 1
-35.610732 25.924602 -34.232039 55.785676 -0.629272 2.231452 -0.017206 -0.000993 87351.400000 0 0 1
35.341851 24.853402 33.678666 54.781297 0.612890 0.908684 -0.017508 0.006394 80036.600000 0 0 1
34.963051 23.732502 34.372466 54.471212 0.596347 0.887928 -0.013930 -0.000546 -447428.000000 0 0 1
34.646451 22.474302 33.445748 53.142157 0.575443 0.890062 -0.018457 0.004165 -90829.200000 0 0 1
-35.503532 21.844002 32.840687 53.067616 -0.551567 0.903523 -0.005236 0.003103 191402.000000 0 0 1
35.383751 20.733802 31.997267 52.016588 0.530039 0.908238 -0.000177 0.011317 -198059.000000 0 0 1
-34.720032 20.108402 31.221767 50.839229 -0.524954 0.909516 0.007546 -0.003408 -287946.000000 0 0 1
-34.397732 20.813502 30.069827 50.205580 -0.544149 0.928627 0.003674 -0.005271 568763.000000 0 0 1
-33.208532 20.173002 29.546087 48.813193 -0.545890 0.920668 0.013751 -0.006572 662660.000000 0 0 1
-33.430832 19.198702 28.360277 47.859335 -0.521294 0.936544 0.024037 -0.005462 23321.600000 0 0 1
-34.111932 18.009302 28.774297 48.123996 -0.485755 0.929893 0.029059 -0.005745 280228.000000 0 0 1
-34.772432 17.296802 27.737647 47.725029 -0.461588 0.950597 0.045027 -0.013435 130071.000000 0 0 1
-35.436932 16.008902 28.320657 48.105308 -0.424315 0.941319 0.055537 -0.018135 76195.800000 0 0 1
-34.508032 15.030202 28.805867 47.397143 -0.410778 0.917565 0.035457 -0.016104 489816.000000 0 0 1
-35.152932 14.026402 29.574707 48.032612 -0.379653 0.907495 0.049255 -0.017683 4211.570000 0 0 1
-34.207532 12.859402 29.999947 47.281246 -0.359580 0.883435 0.042243 -0.012721 -55909.300000 0 0 1
-32.980032 13.260502 30.545037 46.867075 -0.382295 0.860923 0.030788 -0.007599 133348.000000 0 0 1
-32.272432 12.126002 31.044377 46.392921 -0.359418 0.837716 0.032835 -0.005191 327325.000000 0 0 1
-30.733132 12.327202 31.090457 45.421381 -0.381458 0.816893 0.030721 -0.002064 -267023.000000 0 0 1
-30.077832 12.318202 29.813847 44.105323 -0.388707 0.828517 0.013904 -0.004008 861896.000000 0 0 1
-28.714032 12.748602 29.860747 43.343819 -0.417841 0.810788 -0.002045 -0.003317 673269.000000 0 0 1
-27.655232 11.692502 30.215957 42.597306 -0.400002 0.782235 0.007968 -0.003101 -535673.000000 0 0 1
-27.490032 10.705702 29.184247 41.497400 -0.371369 0.790797 0.016399 -0.008597 460041.000000 0 0 1
-26.378432 9.926302 29.685727 40.934039 -0.359913 0.759459 0.013370 -0.005741 254232.000000 0 0 1
-26.043232 8.810102 28.637427 39.698489 -0.326203 0.765013 0.010017 -0.010268 -266832.000000 0 0 1
-26.863832 7.679902 28.497507 39.909325 -0.278455 0.775521 0.010111 -0.010799 -958317.000000 0 0 1
-28.142432 7.883002 28.005647 40.477827 -0.273112 0.806712 0.016451 -0.007826 -628656.000000 0 0 1
-29.106332 6.658102 27.956577 40.903289 -0.224882 0.818277 0.020055 -0.005756 231426.000000 0 0 1
-29.652832 6.274002 29.228947 42.106827 -0.208507 0.803542 0.024348 -0.006010 224495.000000 0 0 1
-30.064332 4.908102 29.209567 42.203700 -0.161826 0.806389 0.024604 -0.010492 -270581.000000 0 0 1
-30.754832 4.356802 30.443587 43.493142 -0.140726 0.795451 0.018164 0.002122 -79882.600000 0 0 1
-31.883232 5.080202 30.891297 44.683567 -0.158009 0.807462 0.017258 -0.002444 -267187.000000 0 0 1
-32.406632 4.570602 32.070427 45.821310 -0.140115 0.795536 0.018085 -0.004534 695876.000000 0 0 1
-33.923732 4.934002 32.263657 47.075551 -0.144431 0.815700 0.014819 -0.002469 741442.000000 0 0 1
-34.170032 6.300202 32.422917 47.523985 -0.182330 0.819970 0.023431 0.000075 166400.000000 0 0 1
-35.578532 6.473602 32.473897 48.603430 -0.179983 0.839090 0.024902 0.006409 529029.000000 0 0 1
35.046151 7.859802 32.675357 48.556031 0.220620 0.832618 0.032020 -0.007091 -169085.000000 0 0 1
35.268351 8.335702 34.033738 49.715549 0.232092 0.816784 0.026696 -0.004905 313675.000000 0 0 1
34.780551 9.674002 34.155606 49.697872 0.271287 0.813079 0.030923 -0.007665 -230822.000000 0 0 1
34.867851 10.162302 -33.168174 49.185030 0.283596 2.310887 0.019038 -0.000252 -448558.000000 0 0 1
33.806251 9.824602 -32.298664 47.776449 0.282825 2.313168 0.032653 0.007201 54528.200000 0 0 1
34.081251 10.124302 -30.947654 47.135872 0.288761 2.287049 0.028467 0.009473 341376.000000 0 0 1
32.896651 9.589302 -30.082244 45.596993 0.283638 2.291272 0.025313 0.011589 465477.000000 0 0 1
32.750351 8.243802 -30.218804 45.318008 0.246593 2.300725 0.028424 0.008189 -519966.000000 0 0 1
31.511751 7.851702 -29.744824 44.038554 0.244195 2.312340 0.033139 0.001443 -678128.000000 0 0 1
34.302865 6.262402 -20.720244 40.561468 0.180573 2.106953 0.005372 -0.007199 -607063.000000 0 0 1
33.755955 6.854302 -19.573944 39.617991 0.200331 2.087558 0.002069 -0.013657 162811.000000 0 0 1
34.234755 8.163902 -19.313444 40.145695 0.234096 2.072687 -0.003866 -0.002411 -341077.000000 0 0 1
-35.631195 8.214702 -18.616944 41.032353 -0.226589 2.041725 0.002235 -0.010839 -349668.000000 0 0 1
-34.507766 7.757002 -19.231844 40.259419 -0.221115 2.068829 0.003740 -0.015209 -786674.000000 0 0 1
-34.090187 8.463402 -20.350144 40.594314 -0.243345 2.095903 0.004426 -0.008240 -683382.000000 0 0 1
-32.998999 7.745302 -21.226844 39.993781 -0.230540 2.130286 -0.000630 -0.001004 337424.000000 0 0 1
-33.400449 6.588902 -22.038044 40.554642 -0.194769 2.145297 -0.000648 0.002249 -135300.000000 0 0 1
-34.281204 6.882802 -23.070244 41.890453 -0.198140 2.154032 0.004065 0.008100 -367536.000000 0 0 1
-34.418415 5.771002 -24.129044 42.428086 -0.166127 2.175726 0.004932 0.002859 -276693.000000 0 0 1
-33.239379 5.654902 -24.889444 41.908455 -0.168513 2.206694 -0.000429 0.001339 -103256.000000 0 0 1
-33.041679 4.411702 -25.424684 41.924100 -0.132734 2.222379 -0.004823 0.002652 370904.000000 0 0 1
-31.759489 4.418002 -26.325774 41.487712 -0.138221 2.258215 0.002344 0.003799 891827.000000 0 0 1
-30.560239 4.530802 -25.558584 40.096104 -0.147186 2.261959 0.011119 -0.000135 10282.800000 0 0 1
-29.443999 4.006102 -26.270564 39.662834 -0.135228 2.294744 0.007590 -0.003756 241989.000000 0 0 1
-28.200089 4.377402 -25.417404 38.215848 -0.153997 2.298426 0.003116 -0.007891 -267778.000000 0 0 1
-27.913989 5.758402 -25.467384 38.222213 -0.203437 2.300029 -0.003191 -0.002844 -68057.300000 0 0 1
-26.608049 6.081602 -25.043044 37.042249 -0.224703 2.313208 0.024774 -0.004075 192022.000000 0 0 1
-26.205269 7.502102 -25.500694 37.326707 -0.278825 2.322899 0.017943 -0.005464 131351.000000 0 0 1
-26.996349 8.424702 -24.751744 37.582273 -0.302491 2.289755 0.008759 -0.010580 -3820.720000 0 0 1
-26.774989 9.755802 -25.043544 37.937511 -0.349412 2.291783 -0.003714 -0.009392 120425.000000 0 0 1
-25.553529 10.431802 -24.315844 36.784040 -0.387584 2.293005 0.026745 -0.002001 591554.000000 0 0 1
-25.748989 10.535702 -22.916644 36.044195 -0.388386 2.259832 0.009002 -0.005235 206982.000000 0 0 1
-24.478749 10.677502 -22.304444 34.795206 -0.411314 2.266624 0.057430 -0.008906 -99623.900000 0 0 1
-24.358749 10.872802 -20.779444 33.813485 -0.419824 2.232588 0.079749 -0.021931 -874201.000000 0 0 1
-24.549849 12.222002 -20.370844 34.162021 -0.461922 2.209682 0.048807 -0.026884 1549390.000000 0 0 1
-25.898879 12.763302 -20.434144 35.372419 -0.457881 2.186687 0.049277 -0.010471 1594060.000000 0 0 1
-27.014049 12.119602 -19.512244 35.459431 -0.421723 2.153483 0.033199 -0.007995 104009.000000 0 0 1
-26.713709 12.299202 -18.116544 34.541305 -0.431475 2.122911 0.052270 -0.019964 58120.800000 0 0 1
-27.421669 11.405702 -17.323844 34.382459 -0.394170 2.098855 0.033074 -0.020409 -1268040.000000 0 0 1
-26.816459 11.340102 -15.934944 33.191005 -0.400072 2.071563 0.043742 -0.025419 325521.000000 0 0 1
-25.787889 10.381202 -15.722344 31.937073 -0.382712 2.085517 0.062717 -0.029665 137366.000000 0 0 1
-24.585949 10.570402 -16.388644 31.381363 -0.406045 2.120273 0.064949 -0.024213 -1587320.000000 0 0 1
-23.659749 9.366502 -16.195044 30.162800 -0.376953 2.137580 0.059154 -0.022707 -162676.000000 0 0 1
-22.271549 9.603202 -16.286244 29.214467 -0.407099 2.162134 0.067302 -0.019654 495639.000000 0 0 1
-21.565049 8.512002 -15.679344 27.988343 -0.375940 2.165435 0.065038 -0.019279 561486.000000 0 0 1
-20.013449 8.529602 -15.538044 26.734305 -0.402881 2.191002 0.070143 -0.018072 359377.000000 0 0 1
-19.399449 8.593602 -16.806844 27.067667 -0.417002 2.240712 0.074931 -0.022872 -302172.000000 0 0 1
-18.021449 8.747002 -16.584844 26.006532 -0.451872 2.262329 0.068075 -0.022104 -769300.000000 0 0 1
-17.326849 9.451202 -17.809844 26.584496 -0.499355 2.304915 0.054115 -0.016488 -184942.000000 0 0 1
-17.184549 8.728702 -19.019044 27.078090 -0.469979 2.349529 0.073416 -0.024376 -41409.200000 0 0 1
-16.197449 7.745602 -18.954644 26.108049 -0.446055 2.383295 0.060724 -0.015267 -847726.000000 0 0 1
-15.739949 7.290302 -20.396744 26.775392 -0.433754 2.436840 0.045827 -0.006638 110212.000000 0 0 1
-16.440849 6.222902 -21.045044 27.421158 -0.361838 2.445689 0.037361 -0.005907 -530223.000000 0 0 1
-17.584449 6.762102 -21.637844 28.690332 -0.367117 2.425210 0.049749 -0.006440 -498845.000000 0 0 1
-18.502149 5.674502 -22.263344 29.498914 -0.297587 2.426020 0.055133 -0.000003 88870.600000 0 0 1
-19.072549 4.814602 -21.283544 28.981576 -0.247270 2.395552 0.088514 -0.008295 297304.000000 0 0 1
-19.971649 3.866002 -21.788344 29.808466 -0.191210 2.390502 0.049620 0.010132 -338313.000000 0 0 1
-20.641449 2.945502 -20.769944 29.430188 -0.141741 2.354258 0.059651 0.009825 -164694.000000 0 0 1
-21.423749 1.955502 -21.382444 30.331665 -0.091025 2.353155 0.059329 0.013199 -323741.000000 0 0 1
-22.388149 1.488202 -20.516544 30.403495 -0.066375 2.311502 0.055313 0.005900 -600932.000000 0 0 1
-23.007149 0.112002 -20.941144 31.110656 -0.004868 2.309213 0.055373 0.008688 -257346.000000 0 0 1
-22.182749 -1.002398 -20.721744 30.372188 0.045157 2.321646 0.038710 0.002551 -191357.000000 0 0 1
-22.793349 -2.264298 -20.896744 31.005446 0.099015 2.310366 0.040835 -0.003271 -519788.000000 0 0 1
-23.358449 -2.736198 -22.262644 32.384089 0.116608 2.328777 0.042172 -0.002640 -510608.000000 0 0 1
-22.533649 -2.807698 -23.355744 32.575133 0.123961 2.370258 0.027838 -0.001373 -644135.000000 0 0 1
-21.930749 -4.084298 -23.571344 32.453775 0.184127 2.383728 0.027959 -0.008607 -289934.000000 0 0 1
-20.835749 -4.050398 -24.632844 32.516321 0.192002 2.430353 0.013762 -0.003685 -475473.000000 0 0 1
-21.246849 -3.825698 -25.956094 33.760678 0.178151 2.447800 0.021990 -0.011510 260483.000000 0 0 1
-20.167049 -3.915198 -26.893104 33.841951 0.191753 2.489256 0.025049 -0.016443 191573.000000 0 0 1
-20.585649 -3.891398 -28.368524 35.265919 0.186830 2.505491 0.029722 -0.020854 -376377.000000 0 0 1
-21.144349 -5.104198 -28.742114 36.045047 0.236866 2.493761 0.026730 -0.009660 202724.000000 0 0 1
-21.782449 -4.956898 -30.027184 37.425629 0.223753 2.501962 0.013742 -0.011135 18211.900000 0 0 1
-21.548649 -6.167898 -30.972674 38.232104 0.278778 2.515157 0.021551 -0.008077 74941.400000 0 0 1
-20.181649 -6.242598 -31.313114 37.772743 0.299986 2.548090 0.029233 -0.007939 -79166.800000 0 0 1
-19.766049 -7.467498 -31.858154 38.228290 0.361218 2.555966 0.026722 -0.009646 -447794.000000 0 0 1
-18.332249 -7.401998 -32.388984 37.946109 0.383752 2.593562 0.034697 -0.012920 -794839.000000 0 0 1
-18.175649 -6.892398 -33.713174 38.915774 0.362457 2.618566 0.023735 -0.015707 363109.000000 0 0 1
-18.798249 -7.654998 34.074260 39.661421 0.386714 0.537232 0.025431 -0.011598 -650452.000000 0 0 1
-18.846149 -6.999398 32.654317 38.346751 0.355608 0.551855 0.028946 -0.010619 -7916.980000 0 0 1
-17.635549 -6.852398 31.932197 37.116481 0.370602 0.534892 0.034338 -0.012761 301565.000000 0 0 1
-16.828649 -5.755998 32.360537 36.926133 0.329562 0.502547 0.024460 -0.015032 798294.000000 0 0 1
-15.430849 -5.640398 31.648957 35.659243 0.350440 0.478821 0.025494 -0.011698 497362.000000 0 0 1
-15.675249 -5.525198 30.272337 34.534846 0.338882 0.502100 0.024369 -0.016770 -330980.000000 0 0 1
-14.600149 -5.136698 29.484707 33.300119 0.338300 0.483392 0.019450 -0.009516 -627316.000000 0 0 1
-14.923449 -5.162898 28.003677 32.149195 0.333070 0.513453 0.031354 -0.007796 195129.000000 0 0 1
-15.947549 -4.294498 27.532537 32.106193 0.263049 0.540316 0.022506 -0.000901 291017.000000 0 0 1
-16.371149 -4.428398 26.162047 31.178164 0.264178 0.575143 0.031384 -0.002122 148935.000000 0 0 1
-15.467349 -3.724798 25.116797 29.731574 0.236317 0.564633 0.032096 0.000712 126536.000000 0 0 1
-15.426349 -2.280398 25.184447 29.621425 0.146762 0.554411 0.030180 0.002152 -320373.000000 0 0 1
-14.348649 -1.768498 24.469077 28.420891 0.122633 0.533654 0.024195 0.002895 -456768.000000 0 0 1
-14.226849 -0.239698 24.449927 28.288860 0.016847 0.527049 0.022279 0.015700 -628336.000000 0 0 1
-15.231149 0.419602 23.769627 28.234006 -0.027542 0.570040 0.016471 0.014171 -424611.000000 0 0 1
-15.203249 1.747802 24.230107 28.658186 -0.114460 0.563321 0.003463 0.021493 -441776.000000 0 0 1
-15.844949 2.800602 23.286357 28.304773 -0.174944 0.604651 0.005377 0.017690 167952.000000 0 0 1
-15.096849 3.112602 22.102857 26.946974 -0.203327 0.608974 0.000909 0.024422 611275.000000 0 0 1
-15.791149 4.083102 21.316957 26.841102 -0.253027 0.653122 0.011344 0.017617 -177492.000000 0 0 1
-14.751549 4.726102 20.464857 25.666215 -0.310048 0.647911 0.010610 0.017515 -718706.000000 0 0 1
-13.827649 5.495902 21.135157 25.847701 -0.378313 0.613426 -0.017064 0.028972 -130438.000000 0 0 1
-12.881749 6.001002 20.193157 24.692409 -0.435959 0.613239 -0.013122 0.030556 157438.000000 0 1 0
-11.869549 7.072102 20.657957 24.852605 -0.537339 0.589500 -0.013772 0.030755 -11612.300000 0 1 0
-12.313349 8.428102 20.587057 25.425939 -0.600226 0.627177 -0.011233 0.029973 233261.000000 0 0 1
-11.287449 9.386402 20.745657 25.414431 -0.693702 0.615830 -0.018835 0.030862 -149052.000000 0 0 1
-11.864649 10.788102 20.931757 26.368380 -0.737910 0.653731 -0.015953 0.028632 -65482.800000 0 0 1
-12.449249 11.324402 19.748557 25.946702 -0.738119 0.705758 -0.013786 0.026052 332504.000000 0 0 1
-12.990649 12.607102 19.932957 26.926172 -0.770416 0.737307 -0.017671 0.019278 -546297.000000 0 0 1
-13.306649 13.289602 18.595557 26.447592 -0.784757 0.791035 -0.016446 0.019953 284.859000 0 0 1
-12.188749 13.916702 17.988157 25.803371 -0.851493 0.799418 -0.014221 0.016688 325857.000000 0 0 1
-11.905649 15.180402 18.632757 26.821049 -0.905716 0.802785 -0.006963 0.021154 338713.000000 0 0 1
-12.842049 16.311902 18.007857 27.482344 -0.903859 0.856280 -0.009761 0.012883 452488.000000 0 0 1
-12.684449 16.625002 16.626957 26.715943 -0.919043 0.899041 -0.005268 0.009947 67128.700000 0 0 1
-12.974249 15.630702 15.644657 25.639915 -0.877999 0.914524 -0.016791 0.017039 -190500.000000 0 0 1
-13.462849 16.211902 14.283857 25.457859 -0.877774 0.975108 -0.008591 0.010172 -324501.000000 0 0 1
-14.763349 16.727302 14.203357 26.447957 -0.847684 1.003883 0.002838 0.006635 -382123.000000 0 0 1
-15.092949 17.276802 13.000757 26.368630 -0.852762 1.055217 -0.005047 0.002846 435705.000000 0 0 1
-16.282249 18.296302 13.049457 27.751659 -0.843578 1.081253 0.018466 -0.002402 363204.000000 0 0 1
-17.544649 17.701302 13.161957 28.184887 -0.789843 1.084917 0.028400 -0.004693 189537.000000 0 0 1
-18.613449 18.633402 13.385457 29.543774 -0.785934 1.100588 0.038138 -0.009127 1674810.000000 0 0 1
-20.050649 17.986702 13.495557 30.127728 -0.731190 1.106331 0.039342 -0.003739 1085660.000000 0 0 1
-20.572749 17.339902 12.356557 29.607341 -0.700333 1.140272 0.035440 -0.009549 -165380.000000 0 0 1
-21.941849 17.063002 12.553157 30.498729 -0.660961 1.146592 0.060913 -0.016522 127925.000000 0 0 1
-22.572149 16.370902 11.291357 30.083269 -0.627485 1.186036 0.052332 -0.016850 95958.400000 0 0 1
-21.936349 15.125402 11.060057 28.849714 -0.603653 1.177356 0.043590 -0.012284 331182.000000 0 0 1
-22.553149 14.479102 9.970057 28.595296 -0.570730 1.214655 0.045680 -0.010343 18497.600000 0 0 1
-21.865149 13.135902 9.628557 27.264368 -0.540985 1.209855 0.042192 -0.004747 -498928.000000 0 0 1
-22.163849 12.031402 10.422257 27.287621 -0.497329 1.178901 0.044341 -0.005683 771106.000000 0 0 1
-23.466549 11.410402 10.375057 28.080562 -0.452580 1.192353 0.056028 -0.002367 829660.000000 0 0 1
-24.044249 10.815502 9.064957 27.879642 -0.422701 1.239630 0.047706 0.009189 -259427.000000 0 0 1
-24.223949 11.865802 8.108757 28.166449 -0.455485 1.278777 0.046298 -0.001373 374553.000000 0 0 1
-25.382629 11.661802 7.303057 28.872307 -0.430677 1.315075 0.064125 -0.001832 -33984.900000 0 0 1
-25.663209 12.920502 6.455657 29.448517 -0.466415 1.349783 0.061156 -0.002380 14222.300000 0 0 1
-24.711849 13.279302 5.470757 28.582241 -0.493092 1.378204 0.063844 -0.001735 2473440.000000 0 0 1
-23.336949 13.760902 5.718657 27.688962 -0.532783 1.362767 0.067510 -0.002767 1827370.000000 0 0 1
-23.330349 15.261102 6.016957 28.520346 -0.579274 1.358228 0.059043 -0.006644 -261327.000000 0 0 1
-22.109249 15.849202 6.436357 27.954298 -0.621951 1.338466 0.018430 -0.006034 321348.000000 0 0 1
-22.285449 17.198202 6.794657 28.958362 -0.657260 1.333953 0.035209 -0.013300 709290.000000 0 0 1
-20.931549 17.997802 6.662457 28.397868 -0.710180 1.333978 0.021590 -0.006012 717670.000000 0 0 1
-20.528249 18.156602 5.321257 27.917503 -0.724168 1.379016 0.024362 -0.013400 -128846.000000 0 0 1
-19.185749 18.542202 5.299857 27.202843 -0.768342 1.374715 0.021190 -0.007393 -787785.000000 0 0 1
-18.737849 19.023002 3.906257 26.985930 -0.792950 1.425534 0.035508 -0.014962 730734.000000 0 0 1
-17.357749 19.414702 4.121457 26.366806 -0.841277 1.413840 0.026043 -0.016395 882224.000000 0 0 1
-16.961149 20.451402 3.298457 26.773498 -0.878420 1.447284 0.031209 -0.009082 -268706.000000 0 0 1
-17.201849 21.875802 3.845757 28.093489 -0.904439 1.433474 0.040402 -0.016189 -234870.000000 0 0 1
-16.517949 22.085002 5.067657 28.040525 -0.928624 1.389072 0.041549 -0.013797 93822.100000 0 0 1
-16.694249 23.401102 5.593257 29.284706 -0.951136 1.378620 0.035027 -0.015454 -343059.000000 0 0 1
-15.992849 23.728502 6.920357 29.439843 -0.977739 1.333508 0.031846 -0.001348 -16923.000000 0 0 1
-16.556249 23.123102 8.057457 29.558583 -0.949410 1.294709 0.027625 -0.002785 405074.000000 0 0 1
-15.679749 23.335102 9.162657 29.569169 -0.979153 1.255738 0.028457 -0.003487 368935.000000 0 0 1
-16.216149 22.654602 10.434057 29.750025 -0.949545 1.212452 0.020018 -0.004140 809954.000000 0 0 1
-17.387449 23.293902 10.954057 31.063171 -0.929579 1.210408 0.027818 -0.001048 -55766.000000 0 0 1
-18.253249 22.468202 11.660357 31.208414 -0.888538 1.187878 0.020327 -0.004902 654774.000000 0 0 1
-19.529849 23.284702 12.147857 32.728623 -0.872875 1.190528 0.028703 -0.013897 519778.000000 0 0 1
-20.352749 23.748502 11.103157 33.188941 -0.862246 1.229675 0.035065 -0.012085 31061.600000 0 0 1
-19.958749 25.041902 10.649257 33.746928 -0.897879 1.249747 0.013692 -0.007410 -538998.000000 0 0 1
-21.072149 25.849402 9.967757 34.807804 -0.886862 1.280365 0.015375 -0.008600 -533036.000000 0 0 1
-21.988449 26.312802 10.905957 35.983264 -0.874689 1.262869 0.019947 -0.017831 -679750.000000 0 0 1
-22.983249 27.046502 10.245057 36.941902 -0.866437 1.289784 0.027884 -0.011975 -665587.000000 0 0 1
-23.970649 27.550402 11.268857 38.217846 -0.854768 1.271489 0.024637 -0.010291 -442813.000000 0 0 1
-23.286149 28.415602 12.187557 38.706946 -0.884287 1.250479 0.032263 -0.012997 523705.000000 0 0 1
-24.166849 28.922102 13.152757 39.918912 -0.874731 1.235036 0.030774 -0.013767 -111637.000000 0 0 1
8.539851 -32.715856 28.140237 43.990103 -1.315463 0.876695 0.019840 -0.014615 -419056.000000 0 0 1
9.852251 -33.054856 27.811027 44.307376 -1.281122 0.892222 0.018902 -0.020946 -356458.000000 0 0 1
10.205551 -32.518956 26.549957 43.203425 -1.266697 0.909002 0.025247 -0.014565 526118.000000 0 0 1
11.746851 -32.645156 26.310207 43.542183 -1.225387 0.921977 0.006489 -0.005261 444449.000000 0 0 1
12.225351 -33.955356 26.070397 44.520680 -1.225204 0.945202 0.017586 -0.018117 590666.000000 0 0 1
13.649251 -33.964456 25.948967 44.869089 -1.188680 0.954121 0.031136 -0.011932 827855.000000 0 0 1
14.283951 33.484402 25.565447 44.484025 1.167584 0.958546 0.059506 -0.005349 196240.000000 0 0 1
14.291651 33.263702 24.166467 43.528648 1.164996 0.982211 0.049700 -0.017769 258464.000000 0 0 1
15.290251 32.304102 23.891537 42.990142 1.128718 0.981538 0.060265 -0.011352 -323833.000000 0 0 1
15.402251 31.818902 22.396157 41.848055 1.119982 1.006078 0.061362 -0.030475 96153.600000 0 0 1
14.441051 30.859802 21.926557 40.517221 1.133110 0.998973 0.055928 -0.015584 162530.000000 0 0 1
14.662451 29.498002 22.148957 39.695036 1.109499 0.978849 0.051049 -0.013437 -164462.000000 0 0 1
14.220351 28.852502 23.495757 39.833853 1.112874 0.939931 0.050010 -0.005172 36490.900000 0 0 1
15.119251 29.154202 24.569127 41.014646 1.092383 0.928503 0.055128 -0.007348 384947.000000 0 0 1
14.585551 28.801602 25.788667 41.319800 1.102030 0.896787 0.047866 0.000464 -264386.000000 0 0 1
15.525151 29.153102 26.977657 42.646543 1.081458 0.885907 0.045597 -0.002749 149896.000000 0 0 1
15.478551 30.504702 27.333207 43.786146 1.101234 0.896634 0.061125 -0.003335 299766.000000 0 0 1
16.259251 30.804002 28.493297 45.001308 1.085134 0.885160 0.070587 -0.007549 178367.000000 0 0 1
16.008651 32.184302 29.124067 46.263565 1.109226 0.889855 0.074681 -0.008093 -53011.300000 0 0 1
16.550351 33.229002 28.342227 46.705058 1.108694 0.918725 0.077556 -0.011062 -33086.700000 0 0 1
16.303951 -34.324956 28.769687 47.662525 -1.127358 0.922772 0.077610 -0.005862 98412.400000 0 0 1
17.101551 -33.255356 27.943327 46.682023 -1.095814 0.929058 0.070652 -0.011300 -414271.000000 0 0 1
16.897151 -33.233056 26.561317 45.776121 -1.100416 0.951768 0.082492 -0.012030 55410.200000 0 0 1
17.426051 -32.068756 25.885057 44.744927 -1.073037 0.953905 0.074901 -0.013730 -659569.000000 0 0 1
18.918551 -31.772156 25.870877 45.129632 -1.033733 0.960321 0.059347 -0.002119 -790540.000000 0 0 1
19.267851 -31.204156 27.139477 45.623466 -1.017625 0.933708 0.046044 -0.002052 -19075.800000 0 0 1
20.403751 -30.370356 26.978717 45.459022 -0.979227 0.935429 0.045319 0.001949 151806.000000 0 0 1
20.723451 -29.635256 28.336977 45.942290 -0.960551 0.906132 0.054040 0.001547 -286196.000000 0 0 1
19.597251 -28.883656 28.694277 45.184946 -0.974653 0.882735 0.045280 -0.001406 227205.000000 0 0 1
19.906451 -28.040056 29.788067 45.495499 -0.953438 0.856948 0.056109 -0.000671 -245424.000000 0 0 1
18.608351 -27.422556 30.292977 44.899128 -0.974592 0.830252 0.030056 -0.006178 -85468.200000 0 0 1
17.893651 -26.542656 29.436157 43.487730 -0.977633 0.827275 0.041602 -0.008742 725602.000000 0 0 1
16.594651 -26.213456 29.927627 43.106734 -1.006423 0.803394 0.034837 -0.015196 490215.000000 0 0 1
15.771651 -25.326756 28.958107 41.578377 -1.013833 0.800329 0.021192 -0.002023 -869247.000000 0 0 1
15.431051 -25.899256 27.712347 40.949517 -1.033463 0.827465 0.019547 0.001855 445922.000000 0 0 1
14.633751 -25.079556 26.849437 39.547731 -1.042603 0.824516 0.019013 -0.001508 2272320.000000 0 0 1
13.079451 -24.894356 27.332437 39.215597 -1.087037 0.799621 0.015476 -0.001456 2374220.000000 0 0 1
12.223351 -26.045256 27.401167 39.731469 -1.131999 0.809778 0.008454 0.003885 491694.000000 0 0 1
12.124851 -26.815456 26.187997 39.394059 -1.146148 0.843610 0.021776 0.003146 -744111.000000 0 0 1
11.332951 -28.115656 26.420967 40.211856 -1.187635 0.853905 0.007191 0.000753 -354905.000000 0 0 1
9.936951 -27.908056 26.540347 39.774270 -1.228733 0.840253 0.019817 -0.008684 -27475.500000 0 0 1
9.236951 -29.108556 26.580287 40.486305 -1.263519 0.854593 0.024135 -0.007724 -361340.000000 0 0 1
7.756551 -28.960056 26.975657 40.330323 -1.309102 0.838112 0.020734 -0.009011 196316.000000 0 0 1
6.714051 -28.679556 26.046527 39.319422 -1.340832 0.846733 0.033691 -0.013491 389778.000000 0 0 1
6.826051 -27.573956 25.191097 37.967214 -1.328121 0.845314 0.048347 -0.011243 -734309.000000 0 0 1
5.510451 -27.274456 24.441937 37.036054 -1.371443 0.850044 0.049574 -0.016972 -121520.000000 0 0 1
5.038951 -28.181756 23.455557 37.010343 -1.393864 0.884396 0.043590 -0.013644 466863.000000 0 0 1
4.226151 -29.266256 23.903237 38.022872 -1.427384 0.890975 0.050463 -0.011030 1201080.000000 0 0 1
2.706551 -28.974856 24.280487 37.899996 -1.477656 0.875457 0.015132 -0.009871 341976.000000 0 0 1
1.785951 -28.811756 23.239557 37.059194 -1.508889 0.892981 0.010677 -0.001519 -1185250.000000 0 0 1
0.564951 -28.441056 23.732857 37.046745 -1.550935 0.875492 0.001763 -0.007030 -1009650.000000 0 0 1
0.368451 -26.903356 24.041077 36.081847 -1.557102 0.841570 0.013979 -0.006720 -365421.000000 0 0 1
1.044851 -26.500156 25.255987 36.622600 -1.531389 0.809820 0.019339 -0.009760 234527.000000 0 0 1
1.145951 -25.142656 25.517717 35.841599 -1.525250 0.778514 0.022791 -0.009194 -146551.000000 0 0 1
2.434051 -24.733856 26.271167 36.164381 -1.472702 0.757672 0.032873 -0.005194 1153100.000000 0 0 1
3.618051 -24.546156 25.420557 35.521948 -1.424452 0.773271 0.035290 -0.012265 1403750.000000 0 0 1
4.737851 -23.950456 26.062527 35.711719 -1.375499 0.752762 0.044101 -0.008992 303003.000000 0 0 1
4.669451 -22.426856 26.459627 34.998278 -1.365521 0.713575 0.033382 -0.002432 -1074490.000000 0 0 1
4.692251 -21.602356 25.310007 33.604694 -1.356909 0.717930 0.025819 -0.007884 593104.000000 0 0 1
3.778751 -20.486156 25.439767 32.880743 -1.388393 0.686139 0.026199 -0.017606 217574.000000 0 0 1
3.763551 -19.597056 24.222737 31.383911 -1.381060 0.689097 0.027735 -0.021122 -572777.000000 0 0 1
4.914751 -18.864456 23.972307 30.898122 -1.315932 0.682735 0.025175 -0.007005 -683677.000000 0 0 1
4.891051 -18.181756 22.749957 29.530648 -1.308009 0.691352 0.030685 -0.005065 262794.000000 0 0 1
6.287251 -17.574256 22.429757 29.180096 -1.227231 0.694043 0.021190 -0.003053 -34745.900000 0 0 1
7.148851 -18.567956 21.912557 29.597892 -1.203279 0.737218 0.013636 -0.000712 -868318.000000 0 0 1
8.331051 -18.017056 21.418657 29.202390 -1.137680 0.747404 0.009518 0.001425 236988.000000 0 0 1
9.529551 -18.223056 22.416957 30.420586 -1.088966 0.742322 0.011208 0.007541 -11357.400000 0 0 1
9.262851 -17.612056 23.694257 30.941925 -1.086614 0.698566 0.013103 0.011817 669039.000000 0 0 1
10.356951 -17.784756 24.634387 32.100109 -1.043456 0.695983 0.019221 0.018095 723070.000000 0 0 1
10.405951 -16.851956 25.859797 32.573015 -1.017614 0.653596 0.034625 0.008958 -366836.000000 0 0 1
10.627851 -15.455456 25.539857 31.687641 -0.968411 0.633454 0.049898 0.000812 39647.000000 0 0 1
10.297351 -14.552956 26.554707 31.984002 -0.955003 0.591241 0.046970 -0.009828 -329146.000000 0 0 1
10.602351 -13.102856 26.249577 31.195111 -0.890493 0.570808 0.052646 -0.002795 -580696.000000 0 0 1
9.571351 -12.342256 25.708637 30.081157 -0.911177 0.545934 0.049684 0.000856 -530088.000000 0 0 1
9.895751 -10.967756 25.684887 29.629900 -0.836735 0.521933 0.054344 0.004974 62504.400000 0 0 1
8.859951 -10.015456 25.020187 28.369311 -0.846539 0.490822 0.055337 0.004106 152212.000000 0 0 1
7.639551 -9.801456 25.690287 28.538082 -0.908724 0.450543 0.031868 -0.001011 -576310.000000 0 0 1
6.756151 -9.125556 24.854427 27.325151 -0.933497 0.428523 0.031450 -0.002401 -205856.000000 0 0 1
5.293151 -9.338356 25.292807 27.476324 -1.055133 0.401359 0.012566 -0.006940 -1194470.000000 0 0 1
4.893751 -8.648356 26.433507 28.239567 -1.055859 0.359579 0.015885 -0.003053 1145820.000000 0 0 1
3.472851 -8.596456 26.707917 28.271409 -1.186858 0.334127 0.003443 -0.006196 1849290.000000 0 0 1
2.395451 -8.386256 25.597387 27.042442 -1.292565 0.328388 0.003530 -0.009768 -511418.000000 0 0 1
2.479151 -7.114456 24.966427 26.078423 -1.235488 0.293077 0.019391 -0.013347 -76082.000000 0 0 1
1.441251 -7.079156 24.023257 25.086022 -1.369950 0.292121 0.014535 -0.018081 -340991.000000 0 0 1
1.438251 -5.802356 23.178157 23.936642 -1.327820 0.252412 0.012980 -0.027159 -298315.000000 0 1 0
1.265651 -4.637656 23.967917 24.445260 -1.304377 0.197944 0.021643 -0.019286 -116624.000000 0 1 0
1.739951 -3.410256 23.437757 23.748383 -1.099013 0.161917 0.025741 -0.019114 -1236560.000000 0 1 0
0.942851 -2.729256 22.301157 22.487316 -1.238171 0.128762 0.017626 -0.024646 236051.000000 0 1 0
-0.263849 -2.052256 22.554157 22.648871 1.442932 0.091485 0.015811 -0.028061 302478.000000 0 1 0
-1.267649 -2.789256 23.266357 23.467216 1.144227 0.130930 0.018742 -0.019391 -539649.000000 0 1 0
-2.263449 -1.823256 23.922817 24.098726 0.678098 0.120900 0.023487 -0.027158 130392.000000 0 1 0
-1.613149 -1.146256 24.973827 25.052109 0.617785 0.079075 0.034575 -0.020915 289175.000000 0 0 1
-2.436549 -0.058256 25.331287 25.448266 0.023905 0.095920 0.030687 -0.017176 -192620.000000 0 0 1
-1.958749 0.842744 26.500277 26.585928 -0.406306 0.080292 0.047450 -0.017053 -788805.000000 0 0 1
-2.204749 0.439744 27.802917 27.893664 -0.196870 0.080686 0.048408 -0.011929 42400.500000 0 0 1
-1.342749 -0.531256 28.361267 28.398004 0.376749 0.050871 0.052544 -0.015453 -67215.700000 0 0 1
0.142251 -0.211256 28.622357 28.623490 -0.978174 0.008898 0.065287 -0.020132 -206897.000000 0 0 1
0.961351 0.176744 27.519697 27.537050 0.181819 0.035504 0.055405 -0.016475 129130.000000 0 0 1
1.620451 -0.859256 26.831557 26.894174 -0.487559 0.068253 0.045828 -0.015771 336742.000000 0 0 1
2.887151 -1.500256 27.477627 27.669593 -0.479229 0.117863 0.051962 -0.013465 -55621.000000 0 0 1
2.521851 -2.424256 28.525587 28.739273 -0.765669 0.122021 0.058081 -0.013046 -547224.000000 0 0 1
3.532851 -3.205256 29.033827 29.423083 -0.736818 0.162843 0.049957 -0.001525 -518702.000000 0 0 1
3.997351 -4.457656 28.159687 28.789190 -0.839786 0.209505 0.050086 -0.002997 196016.000000 0 0 1
4.847451 -4.079556 27.099167 27.829937 -0.699590 0.229670 0.053165 -0.007499 -243398.000000 0 0 1
5.194551 -5.139056 26.285327 27.282076 -0.780028 0.271144 0.040737 -0.008279 247855.000000 0 0 1
6.173051 -4.608356 25.121777 26.276361 -0.641275 0.297542 0.044313 -0.010213 672693.000000 0 0 1
7.425151 -4.152356 25.636937 27.011617 -0.509901 0.320405 0.041281 -0.005406 561935.000000 0 0 1
8.422851 -5.212756 25.692387 27.535722 -0.554188 0.367978 0.042274 -0.003329 501909.000000 0 0 1
9.306251 -5.110456 24.420437 26.628571 -0.502184 0.410111 0.039711 -0.000872 -418735.000000 0 0 1
8.631651 -5.691156 23.290057 25.481786 -0.582910 0.417789 0.030370 -0.007255 263568.000000 0 0 1
9.389751 -5.571656 22.095457 24.645892 -0.535535 0.458953 0.049095 -0.006136 139525.000000 0 1 0
9.408851 -4.156956 21.455257 23.793587 -0.416025 0.447055 0.046837 -0.009641 132226.000000 0 1 0
8.119551 -3.703256 21.110657 22.919447 -0.427908 0.399950 0.030578 -0.015341 -295845.000000 0 1 0
8.198351 -2.474256 20.429857 22.152064 -0.293107 0.396922 0.029506 -0.011884 99387.200000 0 1 0
6.802051 -1.860256 20.176957 21.373770 -0.266957 0.336229 0.022845 -0.009731 221782.000000 0 1 0
6.186951 -1.290256 21.330357 22.246960 -0.205598 0.288053 0.027873 -0.012222 708042.000000 0 1 0
4.927051 -0.661256 21.030157 21.609733 -0.133412 0.232125 0.009889 -0.010793 714788.000000 0 1 0
4.282151 -0.124256 22.321657 22.729026 -0.029009 0.189614 0.012173 -0.018300 -561321.000000 0 1 0
2.981151 0.352744 22.184757 22.386941 0.117777 0.134499 0.005911 -0.016128 -535510.000000 0 1 0
2.536351 0.695744 23.532157 23.678673 0.267724 0.111302 0.021799 -0.017682 503587.000000 0 1 0
1.055951 1.175744 23.619557 23.672365 0.839025 0.066808 0.023167 -0.013451 267876.000000 0 1 0
0.813351 2.519744 23.217057 23.367549 1.258564 0.113553 0.026153 -0.013827 301731.000000 0 1 0
-0.570749 2.716744 23.454757 23.618469 -1.363722 0.117810 0.020513 -0.001277 159856.000000 0 1 0
-0.978449 4.053744 22.733757 23.113068 -1.333957 0.181418 0.026318 -0.012059 -90045.400000 0 1 0
-0.639849 5.148744 23.587257 24.151142 -1.447157 0.216516 0.033118 -0.009528 18882.300000 0 1 0
-1.335249 6.348744 23.216557 24.105973 -1.363501 0.272489 0.033507 -0.011272 3068.140000 0 1 0
-0.983049 7.593744 24.015327 25.206492 -1.442057 0.308653 0.041481 -0.008990 -81500.200000 0 0 1
0.090751 8.391744 23.547857 24.998623 1.559982 0.342357 0.046576 -0.008549 -178790.000000 0 1 0
0.110651 9.555744 24.290557 26.102790 1.559217 0.374821 0.072585 -0.009614 -873300.000000 0 0 1
0.900751 10.750744 23.731057 26.068236 1.487207 0.426682 0.081464 -0.016538 1800480.000000 0 0 1
2.344651 10.565744 23.632257 25.992612 1.352424 0.429459 0.064329 -0.016673 1466750.000000 0 0 1
3.032851 10.653744 24.935617 27.285260 1.293458 0.418041 0.086399 -0.017162 -458021.000000 0 0 1
4.347051 11.458744 24.840447 27.699232 1.208204 0.458332 0.067623 -0.017115 -410823.000000 0 0 1
5.431751 10.898744 24.182987 27.075882 1.108443 0.466482 0.028783 -0.014100 -356288.000000 0 0 1
5.254451 10.783744 22.795257 25.758923 1.117395 0.484418 0.048522 -0.015141 -1071680.000000 0 0 1
6.495551 10.258744 22.044957 25.167720 1.006342 0.503453 0.026412 -0.014798 -73529.700000 0 0 1
7.417351 11.296744 21.771357 25.624705 0.989801 0.555525 0.026043 -0.016047 469030.000000 0 0 1
8.553951 10.649744 21.150457 25.177946 0.894103 0.573441 0.032064 -0.015526 906686.000000 0 0 1
9.529651 11.671744 20.455457 25.406093 0.886092 0.634885 0.021545 -0.026116 -133317.000000 0 0 1
8.973051 12.205744 19.277157 24.517435 0.936867 0.666058 0.025050 -0.029869 636857.000000 0 1 0
9.777051 13.258744 18.676557 24.903791 0.935406 0.722812 0.042875 -0.029082 1298730.000000 0 1 0
11.233951 12.938744 18.147057 24.958534 0.855807 0.756725 0.048741 -0.027639 705461.000000 0 1 0
12.181051 12.932744 19.192657 26.153240 0.815321 0.746818 0.043642 -0.029328 -891826.000000 0 0 1
13.418651 12.549744 18.698857 26.214567 0.751950 0.776600 0.051236 -0.024264 -750473.000000 0 0 1
14.462851 12.227744 19.764657 27.373956 0.701852 0.764073 0.032548 -0.010590 -238799.000000 0 0 1
14.908251 13.379744 20.401157 28.591619 0.731417 0.776264 0.021214 -0.014208 286890.000000 0 0 1
16.051051 13.078744 21.219157 29.646963 0.683713 0.773131 0.016017 -0.010107 1063000.000000 0 0 1
16.783051 14.376744 21.791857 31.036214 0.708326 0.792394 0.014164 -0.005898 332345.000000 0 0 1
16.103151 14.911744 22.923657 31.735873 0.747003 0.763636 0.007630 -0.006757 364222.000000 0 0 1
16.794351 16.054744 23.377257 32.959083 0.762887 0.782318 0.006684 0.000286 -368454.000000 0 0 1
-21.056949 12.972802 -24.523944 34.829764 -0.552160 2.351964 0.023580 0.007900 15625.900000 0 0 1
-21.016049 12.750402 -25.878754 35.692533 -0.545330 2.381899 0.026759 -0.010223 -28173.700000 0 0 1
-21.644449 13.872102 -26.439284 36.877542 -0.569957 2.370211 0.007161 -0.009538 -265056.000000 0 0 1
-21.549249 14.014102 -27.976204 37.992541 -0.576606 2.398472 0.012388 0.001645 566673.000000 0 0 1
-20.235849 14.401602 -28.441014 37.759594 -0.618527 2.423729 0.033459 -0.005550 649116.000000 0 0 1
-20.168949 14.617502 -29.864074 38.888568 -0.627146 2.446415 0.030633 -0.005691 -251906.000000 0 0 1
-18.760349 15.004602 -30.318694 38.682192 -0.674621 2.471541 0.036334 -0.010654 -579983.000000 0 0 1
-17.911549 13.916402 -30.479464 37.993256 -0.660528 2.501823 0.040024 -0.017137 796302.000000 0 0 1
-16.512549 14.326402 -30.421484 37.461670 -0.714627 2.518486 0.042412 -0.011338 1861790.000000 0 0 1
-15.783949 14.010702 -29.033834 35.894238 -0.725953 2.513027 0.069524 -0.007675 93898.600000 0 0 1
-16.275949 14.611302 -27.828074 35.394891 -0.731556 2.475460 0.071706 -0.019071 -320211.000000 0 0 1
-17.201949 13.725802 -27.223514 35.006062 -0.673472 2.461763 0.062530 -0.005380 -269874.000000 0 0 1
-17.742249 14.251002 -25.913564 34.487552 -0.676704 2.420961 0.056870 -0.003794 -1244660.000000 0 0 1
-16.842249 14.405602 -24.907644 33.340267 -0.707578 2.414446 0.122664 -0.022087 -431486.000000 0 0 1
-17.426849 15.186102 -23.835644 33.203172 -0.716799 2.371538 0.082024 -0.021524 588713.000000 0 0 1
-16.343549 15.676702 -22.802944 32.137903 -0.764575 2.359633 0.073943 -0.010185 620335.000000 0 0 1
-15.597449 16.798402 -23.219544 32.628422 -0.822452 2.362620 0.058754 -0.017313 -327581.000000 0 0 1
-14.952649 17.399402 -22.122744 31.870624 -0.860883 2.338024 0.045748 -0.005167 -189081.000000 0 0 1
-14.575849 18.904402 -22.218644 32.611346 -0.913972 2.320356 0.044382 -0.010039 228333.000000 0 0 1
-15.624749 19.866302 -22.332444 33.727448 -0.904344 2.294473 0.018907 -0.007954 355111.000000 0 0 1
-16.293349 19.857102 -23.606144 34.885924 -0.883662 2.314022 0.005165 -0.004136 230264.000000 0 0 1
-17.639149 20.626502 -23.644444 35.995164 -0.863309 2.287467 0.006165 -0.006493 132233.000000 0 0 1
-17.517049 22.026802 -23.770344 36.838244 -0.898952 2.272163 0.001525 -0.012277 -652655.000000 0 0 1
-18.730349 22.702602 -23.737344 37.811315 -0.880978 2.249500 0.027457 -0.018552 -502781.000000 0 0 1
-18.546349 24.210702 -23.993044 38.804526 -0.917109 2.237381 0.021540 -0.023407 -107456.000000 0 0 1
-18.186349 24.921302 -22.838344 38.384951 -0.940381 2.208039 0.018920 -0.016967 115223.000000 0 0 1
-17.314649 26.005602 -23.093244 38.850821 -0.983391 2.207326 0.008101 0.000849 890260.000000 0 0 1
-15.993649 26.085602 -22.203244 37.805283 -1.020784 2.198522 -0.000798 -0.009969 527971.000000 0 0 1
-15.042149 25.061502 -22.357044 36.799219 -1.030223 2.223758 0.004124 -0.019890 -323798.000000 0 0 1
-15.414849 23.783002 -21.857944 35.791318 -0.995726 2.227747 0.006356 -0.006505 -936495.000000 0 0 1
-14.310449 22.698302 -21.728044 34.526942 -1.008278 2.251457 0.025534 -0.008697 104524.000000 0 0 1
-13.358249 23.031702 -20.738444 33.748854 -1.045217 2.232540 0.028233 -0.013705 50510.100000 0 0 1
-12.566349 21.880102 -20.381444 32.435401 -1.049467 2.250253 0.029184 -0.009661 302513.000000 0 0 1
-11.701449 22.156502 -19.129244 31.523998 -1.084901 2.222844 0.022346 -0.008347 173796.000000 0 0 1
-12.388649 22.037002 -17.877544 30.963117 -1.058654 2.186315 0.025543 -0.006250 30753.000000 0 0 1
-13.328249 23.036002 -17.593544 31.903485 -1.046273 2.154912 0.023574 -0.013843 -298488.000000 0 0 1
-13.979549 22.894602 -16.199844 31.337286 -1.022616 2.114082 0.030016 -0.009236 166180.000000 0 0 1
-13.148749 23.233202 -15.086344 30.663806 -1.055793 2.085173 0.034367 -0.019185 14063.000000 0 0 1
-13.926149 23.433802 -13.931144 30.613027 -1.034596 2.043250 0.043657 -0.025058 -501123.000000 0 0 1
-13.122649 23.786502 -12.731044 30.001351 -1.066661 2.009039 0.063477 -0.028802 -590909.000000 0 0 1
-12.785049 25.142702 -12.603544 30.894372 -1.100372 1.991010 0.048685 -0.022501 209696.000000 0 0 1
-11.778549 25.285602 -11.629044 30.221359 -1.134864 1.965783 0.037464 -0.019347 -39640.400000 0 0 1
-11.159549 26.709102 -11.462044 31.133424 -1.175024 1.947824 0.046921 -0.021850 367458.000000 0 0 1
-10.570049 27.190302 -12.707744 31.820201 -1.200031 1.981616 0.034103 -0.028547 334754.000000 0 0 1
-10.478049 28.618002 -12.791144 33.051367 -1.219820 1.968181 0.019567 -0.014008 -1004680.000000 0 0 1
-10.058849 29.145202 -14.190444 33.941006 -1.238468 2.002140 0.037100 -0.025437 -571774.000000 0 0 1
-8.700649 29.126902 -14.499244 33.679456 -1.280519 2.015851 0.029902 -0.027019 -602492.000000 0 0 1
-8.136749 27.810702 -14.585844 32.440540 -1.286164 2.037134 0.033171 -0.030254 -1661460.000000 0 0 1
-6.726249 27.835902 -15.100644 32.374516 -1.333702 2.056054 0.045315 -0.034586 -780964.000000 0 0 1
-5.841849 28.583002 -14.295944 32.488293 -1.369191 2.026433 0.041541 -0.035843 -253760.000000 0 0 1
-4.510249 28.371502 -14.731644 32.284761 -1.413144 2.044633 0.051149 -0.042545 183228.000000 0 0 1
-3.507649 29.473202 -14.312944 32.951989 -1.452342 2.020121 0.034980 -0.036048 -105633.000000 0 0 1
-3.700149 30.835102 -14.742144 34.377687 -1.451369 2.013992 0.022730 -0.029856 -195174.000000 0 0 1
-4.598049 31.531602 -13.907144 34.767695 -1.425993 1.982315 0.015440 -0.022444 -99358.500000 0 0 1
-4.691849 33.032402 -14.164744 36.246282 -1.429702 1.972288 0.014639 -0.022013 132742.000000 0 0 1
-3.731849 33.781802 -13.407944 36.536417 -1.460773 1.946551 0.007880 -0.024597 151361.000000 0 0 1
-3.882549 -33.729756 -13.743944 36.628767 1.456193 1.955433 0.013435 -0.017403 779982.000000 0 0 1
-3.002249 -32.681856 -12.924344 35.272594 1.479191 1.945948 0.017632 -0.016846 357623.000000 0 0 1
-3.340249 -32.672856 -11.586444 34.826979 1.468917 1.909947 0.019309 -0.017964 167119.000000 0 0 1
-2.383149 -31.994656 -10.764144 33.840866 1.496448 1.894501 0.011060 -0.018639 117614.000000 0 0 1
-2.698249 -31.962456 -9.233744 33.378753 1.486577 1.851087 0.008151 -0.008886 89506.800000 0 0 1
-1.652449 -31.412656 -8.437444 32.568021 1.518240 1.832857 0.002028 -0.015984 -48169.400000 0 0 1
-1.985349 -31.448256 -7.054944 32.290968 1.507749 1.791053 0.007584 -0.022357 -107549.000000 0 0 1
-0.896149 -30.930856 -6.090744 31.537566 1.541832 1.765144 0.012676 -0.019938 -177856.000000 0 0 1
-1.127049 -30.968556 -4.712844 31.345376 1.534419 1.721721 0.016754 -0.015249 -70218.500000 0 0 1
-0.003649 -30.488956 -3.985444 30.748336 1.570677 1.700777 0.010358 -0.012615 293177.000000 0 0 1
-0.279549 -30.458556 -2.479244 30.560570 1.561619 1.652011 0.004253 -0.009425 -542623.000000 0 0 1
-0.512749 -31.711056 -1.879844 31.770864 1.554628 1.630000 0.013927 -0.006503 -145167.000000 0 0 1
0.414851 -32.753156 -2.054544 32.820153 -1.558131 1.633437 0.002115 -0.003615 -622045.000000 0 0 1
1.856051 -32.525456 -1.623944 32.618820 -1.513794 1.620602 0.022415 -0.001735 -1220990.000000 0 0 1
2.182551 -32.583356 -0.270944 32.657495 -1.503913 1.579093 0.005728 0.000734 1248010.000000 0 0 1
3.594151 -32.340156 -0.024844 32.539272 -1.460115 1.571560 0.009687 0.002168 1365210.000000 0 0 1
3.995151 -30.845456 0.158156 31.103511 -1.441992 1.565711 0.003892 -0.005447 -632459.000000 0 0 1
4.038951 -30.150656 -1.105444 30.440059 -1.437630 1.607120 0.023539 -0.021120 132655.000000 0 0 1
4.128251 -28.772456 -0.871144 29.080157 -1.428290 1.600757 0.019592 -0.014829 -467750.000000 0 0 1
3.742251 -27.870556 -2.059444 28.195986 -1.437322 1.643902 0.019902 -0.023735 -1293560.000000 0 0 1
2.450951 -28.063456 -2.474844 28.278783 -1.483681 1.658424 0.009165 -0.020041 -1137550.000000 0 0 1
2.043451 -27.158156 -3.509244 27.460078 -1.495695 1.698941 0.005468 -0.017805 -65466.800000 0 0 1
2.622051 -27.382656 -4.944944 27.948836 -1.475331 1.748661 -0.002049 -0.016893 -325441.000000 0 0 1
2.165051 -28.465156 -5.616044 29.094544 -1.494883 1.765043 -0.004860 -0.020413 -358107.000000 0 0 1
2.670551 -28.395256 -6.895544 29.342306 -1.477023 1.808018 0.002723 -0.027636 -581585.000000 0 0 1
1.948351 -29.259356 -7.915644 30.373729 -1.504305 1.834448 0.005042 -0.025378 -35563.900000 0 0 1
0.612251 -28.877456 -8.204544 30.026602 -1.549598 1.847559 0.004503 -0.019055 -45006.400000 0 0 1
0.320851 -29.093156 -9.592544 30.635462 -1.559768 1.889272 0.005933 -0.014523 304992.000000 0 0 1
-1.022849 -28.376956 -9.886444 30.067251 1.534767 1.905841 0.006856 -0.015510 -506246.000000 0 0 1
-0.908449 -26.959256 -9.756244 28.684683 1.537112 1.917841 0.004929 -0.014049 252556.000000 0 0 1
-2.116749 -26.181756 -9.694844 27.999196 1.490124 1.924372 0.021710 -0.015200 800115.000000 0 0 1
-3.137849 -26.549056 -8.602044 28.083689 1.453151 1.882100 0.026419 -0.015828 -440097.000000 0 0 1
-2.675249 -26.351056 -7.280444 27.468891 1.469620 1.839045 0.028164 -0.015510 -345368.000000 0 0 1
-1.942949 -27.438756 -6.723944 28.317341 1.500104 1.810536 0.011484 -0.013013 231971.000000 0 0 1
-1.530649 -27.144156 -5.282344 27.695690 1.514466 1.762700 0.019880 -0.008458 -317063.000000 0 0 1
-2.578649 -27.247156 -4.378344 27.716905 1.476438 1.729427 0.029933 -0.015096 -542739.000000 0 0 1
-2.096549 -27.057456 -3.070744 27.311735 1.493466 1.683468 0.028311 -0.007005 -325914.000000 0 0 1
-3.054649 -27.301056 -1.898244 27.536918 1.459372 1.639786 0.015029 -0.010318 379768.000000 0 0 1
-4.185949 -26.428556 -1.782944 26.817338 1.413714 1.637330 0.023557 0.000268 191008.000000 0 0 1
-4.878749 -26.490556 -0.596344 26.942668 1.388668 1.592932 0.023530 -0.008962 -739629.000000 0 0 1
-6.025649 -25.564956 -0.409244 26.268667 1.339322 1.586376 0.026952 0.007219 -681884.000000 0 0 1
-5.497849 -24.301256 -0.181044 24.916062 1.348305 1.578063 -0.002828 0.017999 376898.000000 0 1 0
-6.446349 -23.427256 0.471856 24.302559 1.302277 1.551379 0.018008 0.011514 206965.000000 0 1 0
-5.904349 -21.984356 0.589256 22.771044 1.308417 1.544916 -0.001226 0.010052 -181254.000000 0 1 0
-4.779949 -21.991856 1.418156 22.549962 1.356774 1.507865 -0.009253 0.004211 -503589.000000 0 1 0
-4.334149 -20.690256 1.664656 21.204778 1.364304 1.492212 -0.018627 0.009472 428980.000000 0 1 0
-3.260649 -20.423856 2.773956 20.867691 1.412483 1.437471 -0.011619 0.005420 609462.000000 0 1 0
-3.823749 -20.639456 4.109556 21.389171 1.387609 1.377462 -0.011528 0.021420 333602.000000 0 1 0
-2.932649 -20.383356 5.205456 21.240960 1.427902 1.323208 0.007064 0.011341 -37434.600000 0 1 0
-1.993649 -21.523956 5.535356 22.313572 1.478435 1.320108 0.000753 -0.002980 -411502.000000 0 1 0
-1.035749 -21.778756 4.555456 22.274181 1.523274 1.364826 0.016742 -0.011078 -647662.000000 0 1 0
-0.337249 -22.975956 4.858656 23.486482 1.556119 1.362421 0.017885 -0.014036 -588878.000000 0 1 0
0.587351 -23.255556 3.628256 23.544216 -1.545545 1.416076 0.018916 -0.028029 280365.000000 0 1 0
1.686551 -22.390456 3.456956 22.718440 -1.495614 1.418038 0.005313 -0.027399 -486183.000000 0 1 0
2.785751 -22.820556 4.223256 23.374646 -1.449325 1.389122 0.025303 -0.026879 -493002.000000 0 1 0
3.851451 -21.679356 4.329356 22.440398 -1.394975 1.376652 0.033989 -0.029474 90123.900000 0 1 0
4.613451 -21.506356 3.147856 22.219727 -1.359483 1.428649 0.020328 -0.022389 669909.000000 0 1 0
5.913751 -20.943456 3.442056 22.032897 -1.295594 1.413930 0.036536 -0.014177 1336820.000000 0 1 0
6.794551 -20.651856 2.201556 21.852046 -1.252947 1.469877 0.052879 -0.009331 -242946.000000 0 1 0
7.257051 -21.843656 1.584456 23.072074 -1.250042 1.502068 0.051385 -0.005730 -264054.000000 0 1 0
6.925651 -21.863356 0.232556 22.935236 -1.264026 1.560656 0.050483 -0.011672 432267.000000 0 1 0
7.965351 -22.717856 -0.549544 24.080070 -1.233569 1.593620 0.057909 -0.004093 645284.000000 0 1 0
9.267551 -22.176756 -0.670444 24.044656 -1.174959 1.598683 0.064380 -0.000158 -592278.000000 0 1 0
9.982851 -22.996656 -1.526644 25.116412 -1.161243 1.631617 0.058826 -0.002089 114106.000000 0 0 1
11.369051 -22.462956 -1.967344 25.252924 -1.102261 1.648781 0.052738 0.007444 389733.000000 0 0 1
11.276151 -21.352756 -2.842544 24.314025 -1.084931 1.687974 0.050524 0.011027 -1108110.000000 0 1 0
12.511851 -21.017356 -3.347044 24.687616 -1.033832 1.706791 0.046126 0.005300 -867027.000000 0 1 0
12.498651 -19.913856 -4.413944 23.921974 -1.010304 1.756374 0.040917 -0.003484 -26085.700000 0 1 0
12.373051 -18.681956 -3.755944 22.720365 -0.985823 1.736870 0.042108 0.000558 51149.000000 0 1 0
12.667051 -17.643956 -4.674044 22.217337 -0.948141 1.782758 0.045496 -0.003953 -545332.000000 0 1 0
13.095151 -16.314556 -4.048844 21.308234 -0.894431 1.761972 0.050387 -0.004450 -1366140.000000 0 1 0
14.351551 -16.282556 -3.536644 21.990827 -0.848349 1.732321 0.036462 -0.000012 -1242600.000000 0 1 0
15.263451 -15.793656 -4.548044 22.429828 -0.802468 1.774980 0.035117 -0.007634 283099.000000 0 1 0
16.717951 -15.631656 -4.022944 23.238387 -0.751831 1.744789 0.030546 -0.006752 395622.000000 0 1 0
17.408051 -16.777856 -3.545444 24.435770 -0.766966 1.716403 0.030088 0.000013 1399420.000000 0 1 0
18.776751 -16.407856 -3.230044 25.143932 -0.718172 1.699614 0.016150 0.001634 575961.000000 0 0 1
19.464751 -17.437256 -2.408544 26.243771 -0.730511 1.662701 0.010354 -0.008218 -733223.000000 0 0 1
20.841751 -17.159956 -2.497644 27.112375 -0.688815 1.663049 0.006739 -0.008833 -499530.000000 0 0 1
21.456251 -17.926856 -1.509144 28.000364 -0.696020 1.624720 -0.001346 -0.004702 458070.000000 0 0 1
23.018751 -18.013456 -1.570844 29.271403 -0.664013 1.624487 -0.001177 -0.011793 452914.000000 0 0 1
23.691251 -16.808756 -1.366344 29.080518 -0.617068 1.617798 0.014947 -0.013393 -1031160.000000 0 0 1
24.940751 -17.105456 -0.860744 30.255224 -0.601162 1.599250 0.028469 -0.011465 -1008780.000000 0 0 1
25.607751 -15.862756 -0.351144 30.124861 -0.554599 1.582453 0.035766 -0.018273 -315996.000000 0 0 1
24.756951 -15.291156 0.586556 29.104469 -0.553297 1.550641 0.023358 -0.021216 115445.000000 0 0 1
25.364551 -14.120756 1.126056 29.052095 -0.507982 1.532027 0.012496 -0.020487 290215.000000 0 0 1
24.590651 -13.448256 2.320556 28.123668 -0.500448 1.488190 0.033927 -0.030096 113494.000000 0 0 1
24.412651 -14.255556 3.502856 28.486285 -0.528528 1.447518 0.046494 -0.019557 276188.000000 0 0 1
25.623251 -14.596856 4.168756 29.782507 -0.517821 1.430362 0.061904 -0.012792 490838.000000 0 0 1
25.312451 -15.215656 5.561156 30.052667 -0.541238 1.384677 0.047854 -0.006407 785184.000000 0 0 1
24.529851 -16.442156 5.557156 30.048961 -0.590508 1.384789 0.038118 -0.009166 424475.000000 0 0 1
23.829751 -16.611556 6.784556 29.830036 -0.608772 1.341348 0.020232 -0.000652 86214.500000 0 0 1
23.033251 -17.953856 6.861556 29.999209 -0.662100 1.340029 0.011932 0.001676 -272231.000000 0 0 1
23.816351 -19.107556 6.981356 31.321823 -0.676134 1.346017 0.021233 -0.001782 -407750.000000 0 0 1
22.987851 -20.212856 7.222856 31.451081 -0.721251 1.339074 0.005833 0.006308 -237401.000000 0 0 1
2.014151 23.255702 -3.197144 23.560692 1.484403 1.706914 0.029685 -0.012446 298867.000000 0 1 0
2.843551 24.327302 -2.761744 24.648136 1.454437 1.683079 0.033392 -0.010070 234516.000000 0 1 0
3.477751 25.012202 -3.864744 25.546844 1.432640 1.722660 0.040816 -0.007438 343339.000000 0 0 1
4.429651 26.156202 -3.438444 26.750544 1.403034 1.699690 0.026304 0.004438 366496.000000 0 0 1
5.595351 25.715902 -2.757544 26.461663 1.356552 1.675195 0.018583 -0.000519 -133848.000000 0 0 1
6.257551 26.790702 -2.145644 27.595333 1.341338 1.648629 0.012206 -0.002655 -354154.000000 0 0 1
7.406251 26.185602 -1.340644 27.245837 1.295159 1.620022 0.000405 -0.018611 -96556.400000 0 0 1
8.368351 25.471802 -2.122744 26.895130 1.253371 1.649805 -0.000858 -0.019926 98012.100000 0 0 1
9.246651 24.717602 -1.283644 26.421736 1.212822 1.619398 -0.000912 -0.013445 241537.000000 0 0 1
10.523551 24.365802 -2.077544 26.622427 1.163097 1.648913 0.010948 -0.009992 -1467710.000000 0 0 1
11.391451 25.408802 -2.363644 27.945647 1.149335 1.655478 0.019198 -0.010604 246497.000000 0 0 1
12.305351 25.192202 -3.472844 28.251183 1.116424 1.694035 0.033918 -0.016365 557885.000000 0 0 1
13.325751 24.046202 -3.273944 27.685992 1.064755 1.689326 0.041540 -0.014235 -1345920.000000 0 0 1
12.873351 22.695602 -3.319944 26.302766 1.054830 1.697354 0.040433 -0.019297 -206074.000000 0 0 1
12.713151 22.191502 -4.621544 25.989337 1.050554 1.749572 0.047066 -0.020601 -113099.000000 0 0 1
11.767051 20.965702 -4.741344 24.505193 1.059355 1.765508 0.046123 -0.024602 335622.000000 0 1 0
10.412251 21.355202 -4.559944 24.191996 1.117138 1.760420 0.042905 -0.017174 -107484.000000 0 1 0
9.507651 20.299702 -4.679644 22.899179 1.132776 1.776605 0.022068 -0.011205 -568844.000000 0 1 0
8.070551 20.794002 -4.650244 22.784843 1.200574 1.776334 0.010831 -0.006747 -702678.000000 0 1 0
7.538551 21.250402 -3.453444 22.810866 1.229897 1.722775 0.001784 -0.003944 1262500.000000 0 1 0
6.154651 21.685302 -3.520544 22.815045 1.294252 1.725723 0.014125 0.002761 1437410.000000 0 1 0
5.695751 22.413302 -2.200844 23.230183 1.321940 1.665679 0.021626 -0.001741 9232.790000 0 1 0
5.340351 21.579002 -1.090444 22.256723 1.328192 1.619810 0.019654 -0.001336 79250.900000 0 1 0
4.949351 22.340302 0.057656 22.882056 1.352774 1.568277 0.029185 0.006770 82948.400000 0 1 0
4.136651 21.439702 1.013356 21.858627 1.380195 1.524420 0.018159 -0.000223 -328121.000000 0 1 0
3.720951 22.051602 2.186056 22.469923 1.403633 1.473354 0.029963 -0.000391 -118116.000000 0 1 0
3.326851 21.032702 3.090456 21.517281 1.413921 1.426671 0.020364 -0.002929 -233736.000000 0 1 0
2.201851 21.548802 3.993156 22.025991 1.468970 1.388495 0.028509 -0.010736 -203605.000000 0 1 0
0.929351 21.722902 3.419856 22.010079 1.528040 1.414787 0.026537 -0.009164 92252.000000 0 1 0
-0.015349 22.045802 4.459756 22.492377 -1.570100 1.371195 0.027543 -0.020291 541079.000000 0 1 0
-1.431649 22.407202 3.983156 22.803461 -1.506991 1.395222 0.027991 -0.008898 20696.000000 0 1 0
-2.359249 22.650302 5.018256 23.319200 -1.467011 1.353901 0.031073 -0.016577 366113.000000 0 1 0
-3.644749 22.888602 4.435756 23.597631 -1.412884 1.381697 0.026129 -0.013231 140429.000000 0 1 0
-4.813849 23.080902 5.378356 24.183215 -1.365180 1.346520 0.028305 -0.021250 -615542.000000 0 1 0
-4.774349 24.322702 6.005256 25.503947 -1.376969 1.333101 0.034192 -0.017073 -602463.000000 0 0 1
-5.810949 24.566402 6.874356 26.163562 -1.338525 1.304930 0.041779 -0.022258 -641323.000000 0 0 1
-6.205349 26.046902 7.142856 27.712232 -1.336919 1.310102 0.050053 -0.025181 -252475.000000 0 0 1
-5.203349 26.760302 7.835856 28.365282 -1.378750 1.290908 0.046202 -0.022609 10358.300000 0 0 1
-5.641749 28.002802 8.397156 29.774124 -1.371987 1.284888 0.058853 -0.035692 -98216.500000 0 0 1
-5.880749 29.131702 7.374956 30.620732 -1.371606 1.327556 0.064885 -0.038982 609111.000000 0 0 1
-7.177549 28.990202 6.787956 30.627199 -1.328092 1.347309 0.058383 -0.034352 -24429.100000 0 0 1
-7.441549 30.055602 5.909156 31.521960 -1.328085 1.382219 0.071921 -0.031060 -703129.000000 0 0 1
-8.922349 30.136902 5.512456 31.909690 -1.282958 1.397174 0.072653 -0.025113 -352376.000000 0 0 1
-9.727349 30.652102 6.512656 32.811390 -1.263502 1.370982 0.076624 -0.023605 -287142.000000 0 0 1
-10.168649 29.711202 7.485556 32.282975 -1.241043 1.336793 0.065584 -0.027100 -556252.000000 0 0 1
-11.132649 30.277302 8.578156 33.380168 -1.218450 1.310897 0.059808 -0.023541 -117504.000000 0 0 1
-10.557949 30.967602 9.665956 34.115881 -1.242220 1.283535 0.068187 -0.023380 472863.000000 0 0 1
-11.528849 31.439102 10.622756 35.130819 -1.219318 1.263611 0.068157 -0.018928 419998.000000 0 0 1
-10.776049 31.919002 11.857056 35.714642 -1.245205 1.232379 0.061865 -0.018948 335987.000000 0 0 1
-9.989849 33.104402 11.650756 36.488883 -1.277718 1.245810 0.064566 -0.015537 463505.000000 0 0 1
-9.170349 33.407702 12.758856 36.918264 -1.302897 1.217921 0.063516 -0.017373 70920.300000 0 0 1
-8.823249 -33.993056 12.717056 37.351052 1.316840 1.223376 0.065862 -0.019506 -608370.000000 0 0 1
-9.779249 -33.262656 13.356156 37.154070 1.284852 1.203085 0.062113 -0.012213 -452832.000000 0 0 1
-9.337949 -31.909956 13.385056 35.841349 1.286111 1.188068 0.063566 -0.006645 188586.000000 0 0 1
-10.349349 -31.018356 14.114256 35.615441 1.248759 1.163317 0.067140 -0.012718 -60467.800000 0 0 1
-10.580949 -31.073956 15.539256 36.318256 1.242602 1.128669 0.057573 -0.020408 138932.000000 0 0 1
-9.504949 -30.526356 16.277056 35.876803 1.268943 1.099891 0.067749 -0.018394 182001.000000 0 0 1
-9.695549 -30.746756 17.860056 36.855777 1.265330 1.064898 0.060469 -0.027566 118487.000000 0 0 1
-10.671249 -29.995556 18.561056 36.852703 1.228998 1.042972 0.082132 -0.033851 192457.000000 0 0 1
-11.204049 -30.678856 19.637756 38.109899 1.220641 1.029447 0.078269 -0.034465 -242810.000000 0 0 1
-11.358349 -29.746256 20.874056 38.073325 1.206041 0.990515 0.067251 -0.038261 104286.000000 0 0 1
-10.140449 -29.551756 21.583556 37.973476 1.240244 0.966255 0.053442 -0.032817 350750.000000 0 0 1
-10.302049 -28.622056 22.624356 37.910629 1.225299 0.931312 0.042569 -0.028569 -133739.000000 0 0 1
-9.178849 -28.575156 23.666256 38.221492 1.259989 0.903089 0.048729 -0.031075 -273505.000000 0 0 1
-9.083249 -29.779756 24.311056 39.501477 1.274746 0.907844 0.041889 -0.019030 697684.000000 0 0 1
-7.868749 -29.813756 25.080456 39.746780 1.312751 0.887947 0.047198 -0.016548 642549.000000 0 0 1
-7.859049 -31.008756 26.041756 41.249008 1.322577 0.887529 0.049163 -0.014481 -215591.000000 0 0 1
-7.488549 -32.260756 25.461156 41.774456 1.342710 0.915378 0.073405 -0.015948 295916.000000 0 0 1
-7.497749 -33.361756 26.398856 43.198641 1.349729 0.913342 0.075492 -0.016280 -374981.000000 0 0 1
-7.425049 34.066002 25.827256 43.389757 -1.356192 0.933234 0.068190 -0.013556 171450.000000 0 0 1
-6.113749 33.722802 25.369356 42.640468 -1.391450 0.933581 0.063615 -0.006969 594192.000000 0 0 1
-5.864349 32.465702 24.733556 41.233011 -1.392091 0.927485 0.063834 -0.006206 -324447.000000 0 0 1
-6.660549 32.260802 23.430456 40.424108 -1.367197 0.952539 0.064009 -0.004968 -7635.240000 0 0 1
-7.860749 31.578302 23.723656 40.271483 -1.326826 0.940860 0.065377 -0.010107 420564.000000 0 0 1
-8.683149 31.320802 22.562556 39.565877 -1.300356 0.963983 0.045934 -0.003481 259858.000000 0 0 1
-9.676049 30.172102 22.723056 38.991267 -1.260463 0.948659 0.044607 -0.012149 49407.800000 0 0 1
-9.089149 28.899702 22.481056 37.725366 -1.266084 0.932394 0.050225 -0.005957 56011.000000 0 0 1
-9.801149 27.890202 23.120356 37.529678 -1.232858 0.907071 0.044039 -0.007219 -269724.000000 0 0 1
-9.247549 26.530602 22.644956 36.085787 -1.235404 0.892418 0.030535 -0.010791 55622.000000 0 0 1
-7.971049 26.344702 23.222256 36.011861 -1.276986 0.869969 0.019050 -0.008374 55389.800000 0 0 1
-7.508849 24.995202 23.085856 34.843933 -1.278962 0.846578 0.022277 -0.004501 -330651.000000 0 0 1
-6.155749 24.763302 23.722856 34.840899 -1.327151 0.821818 0.008375 -0.004406 -349394.000000 0 0 1
-5.025349 25.332602 23.103256 34.651916 -1.374964 0.840992 -0.007582 0.003351 -23113.500000 0 0 1
-3.827849 24.986602 23.783256 34.707722 -1.418782 0.815858 0.016332 -0.005382 308251.000000 0 0 1
-2.614249 25.618902 23.047356 34.559269 -1.469105 0.840764 0.015155 0.011908 -53738.000000 0 0 1
-2.321649 24.868802 21.878756 33.204327 -1.477710 0.851424 0.013517 0.009715 114207.000000 0 0 1
-1.296149 25.373002 21.036556 32.984935 -1.519757 0.879206 0.013595 0.012894 58933.600000 0 0 1
-1.021649 24.280802 19.924556 31.425929 -1.528745 0.884060 0.013164 0.011596 272814.000000 0 0 1
-0.031749 23.276502 20.231956 30.840373 -1.569432 0.855261 0.018448 0.003457 436158.000000 0 0 1
0.155351 22.350402 19.214456 29.474733 1.563846 0.860714 0.014246 0.006648 -510344.000000 0 0 1
1.350351 21.454502 19.529256 29.043260 1.507939 0.833323 0.024963 0.009200 -228129.000000 0 0 1
2.568551 22.153902 19.446556 29.589886 1.455370 0.853695 0.021884 0.001368 -648566.000000 0 0 1
3.637351 21.378202 19.885656 29.422732 1.402267 0.828665 0.020441 0.005705 358923.000000 0 0 1
5.064951 21.900302 19.538656 29.783150 1.343519 0.855249 0.021292 -0.001134 562720.000000 0 0 1
6.079551 20.913602 19.537856 29.258631 1.287895 0.839596 0.022938 -0.003932 -129952.000000 0 0 1
7.224251 21.421102 18.897556 29.464742 1.245526 0.874525 0.045695 -0.010694 287951.000000 0 0 1
8.385651 20.403702 18.647456 28.885252 1.180855 0.869027 0.041386 0.001945 396154.000000 0 0 1
8.949551 19.840902 19.844856 29.454612 1.147056 0.831533 0.052517 -0.008705 57750.100000 0 0 1
9.921151 18.885802 19.467256 28.880388 1.087096 0.831098 0.041069 -0.006756 -53717.900000 0 0 1
10.403151 18.048702 20.665356 29.343451 1.047916 0.789419 0.037877 -0.010467 -143626.000000 0 0 1
9.407251 17.155402 21.170656 28.827086 1.069217 0.746012 0.040602 -0.011469 142123.000000 0 0 1
9.981051 16.333202 22.157256 29.280349 1.022263 0.712503 0.035640 -0.013272 -88528.900000 0 0 1
9.015751 15.240802 22.607456 28.716944 1.036611 0.664457 0.025667 -0.008874 -451779.000000 0 0 1
7.933351 15.760802 23.320856 29.243859 1.104465 0.647720 0.027867 0.000501 303759.000000 0 0 1
6.880151 14.861402 23.737956 28.839007 1.137222 0.603913 0.032190 -0.000293 907948.000000 0 0 1
7.284651 13.835702 24.800256 29.318006 1.086165 0.562536 0.039342 -0.001986 -476816.000000 0 0 1
7.671351 14.413302 26.024856 30.722728 1.081690 0.560314 0.038421 -0.005952 -101234.000000 0 0 1
8.073551 13.398102 26.932456 31.145602 1.028475 0.526189 0.047388 -0.006002 -315431.000000 0 0 1
9.077051 13.926702 28.027656 32.586736 0.993176 0.535342 0.034781 0.002711 1234980.000000 0 0 1
10.435151 14.220002 27.589156 32.745417 0.937721 0.568824 0.040134 0.003940 1296970.000000 0 0 1
10.566951 15.237602 26.673956 32.486072 0.964461 0.607480 0.036935 -0.000859 -884900.000000 0 0 1
11.756251 15.103202 25.693056 32.038247 0.909369 0.640245 0.034461 -0.002891 -65491.600000 0 0 1
11.599451 13.985002 24.836056 30.772670 0.878372 0.631604 0.033840 -0.009724 608651.000000 0 0 1
12.841851 13.616702 24.217856 30.607716 0.814675 0.657972 0.023982 -0.006044 204126.000000 0 0 1
12.583751 12.670202 23.111056 29.206262 0.788821 0.657856 0.021409 -0.008727 174495.000000 0 0 1
12.175251 11.335502 23.543856 28.827825 0.749696 0.615117 0.029943 -0.005867 309708.000000 0 0 1
10.905251 11.159602 24.143056 28.746276 0.796925 0.573758 0.045385 -0.010321 -258310.000000 0 0 1
10.709751 9.783602 24.744356 28.682761 0.740236 0.530230 0.033023 -0.009010 -111213.000000 0 0 1
10.651151 8.720602 23.815956 27.508102 0.686068 0.524090 0.040709 -0.003673 214081.000000 0 0 1
10.359451 7.535902 24.531756 27.675171 0.628907 0.481249 0.042408 -0.004378 -72868.200000 0 0 1
10.243251 6.248502 23.807756 26.660406 0.547748 0.466828 0.064185 -0.020452 1469540.000000 0 0 1
11.488451 5.867002 23.089056 26.448265 0.472161 0.509498 0.062222 -0.021998 1764360.000000 0 0 1
11.540951 4.525202 22.604356 25.780379 0.373677 0.501620 0.068472 -0.020616 -90393.100000 0 0 1
11.751351 3.394802 23.674956 26.648123 0.281230 0.476886 0.062022 -0.020566 110278.000000 0 0 1
13.094651 3.265602 24.129056 27.646797 0.244399 0.509965 0.055853 -0.022483 430136.000000 0 0 1
13.267551 2.181802 25.065656 28.444249 0.162988 0.492358 0.054916 -0.018816 -260843.000000 0 0 1
14.755751 1.936802 25.388356 29.428762 0.130511 0.530201 0.053869 -0.018585 -165456.000000 0 0 1
15.331551 1.304202 24.266456 28.733574 0.084862 0.565104 0.031728 -0.017192 -630343.000000 0 0 1
16.695051 1.129202 24.431256 29.612263 0.067534 0.600526 0.048649 -0.020423 -902595.000000 0 0 1
17.428151 0.047102 23.625356 29.358136 0.002703 0.635577 0.044267 -0.014163 -17577.200000 0 0 1
17.076351 -1.278298 23.935856 29.430614 -0.074718 0.620998 0.027514 -0.008601 47745.100000 0 0 1
18.111351 -2.178698 23.608256 29.834838 -0.119719 0.657867 0.019886 0.001346 -174458.000000 0 0 1
17.892151 -3.671598 23.929456 30.103631 -0.202397 0.651949 0.022205 0.012283 -580196.000000 0 0 1
16.914051 -4.247498 23.140556 28.976054 -0.246035 0.645815 0.019151 0.013053 -267397.000000 0 0 1
16.717051 -5.535798 23.658656 29.492997 -0.319781 0.639861 0.052414 0.011995 -14612.000000 0 0 1
15.897451 -6.503298 22.779256 28.529219 -0.388308 0.646074 0.044435 0.005863 152331.000000 0 0 1
16.597451 -6.768998 21.539956 28.022570 -0.387241 0.694046 0.034413 0.005158 770194.000000 0 0 1
15.957651 -7.819098 20.737056 27.309530 -0.455608 0.708507 0.048583 -0.001073 440736.000000 0 0 1
16.335551 -9.279598 21.144256 28.284992 -0.516604 0.726441 0.056418 -0.008059 187337.000000 0 0 1
15.875351 -9.576498 22.455756 29.120390 -0.542792 0.690174 0.046234 0.001082 -59870.900000 0 0 1
16.572751 -10.705998 22.887556 30.217788 -0.573558 0.711444 0.054100 -0.004173 -55334.000000 0 0 1
15.904051 -11.469298 24.064656 31.041768 -0.624784 0.683710 0.074767 -0.024528 -161695.000000 0 0 1
14.931551 -12.411498 23.689456 30.629836 -0.693494 0.686592 0.062578 -0.012137 -120224.000000 0 0 1
14.626751 -13.259198 24.759856 31.666997 -0.736396 0.673117 0.071311 -0.005979 143104.000000 0 0 1
13.550551 -14.311298 24.330556 31.311446 -0.812696 0.680831 0.064236 0.001779 -51184.600000 0 0 1
13.977451 -15.096098 23.295556 31.079644 -0.823856 0.723424 0.054537 0.000393 -570730.000000 0 0 1
13.011151 -16.009298 22.930056 30.844370 -0.888344 0.732640 0.050853 0.002261 -794325.000000 0 0 1
13.179151 -16.776598 21.588856 30.351656 -0.904918 0.779463 0.050965 -0.005989 -877016.000000 0 0 1
14.296851 -17.578698 21.581256 31.291552 -0.887995 0.809745 0.045458 -0.003113 -575141.000000 0 0 1
14.482751 -18.163098 20.305156 30.853648 -0.897660 0.852488 0.036104 -0.001791 67371.500000 0 0 1
-23.492149 -32.311556 26.711527 48.056460 0.942145 0.981428 0.026043 -0.019951 -773227.000000 0 0 1
-24.297149 -33.020656 27.588817 49.415159 0.936435 0.978453 0.027278 -0.022206 -682705.000000 0 0 1
-25.213919 -33.721756 26.822297 49.923282 0.928766 1.003599 0.007753 -0.017982 -83743.100000 0 0 1
-26.126959 34.132102 27.637037 51.102095 -0.917470 0.999385 -0.001118 -0.016268 274766.000000 0 0 1
-27.014989 -34.097056 28.599327 52.060929 0.900770 0.989218 0.008892 -0.018052 512412.000000 0 0 1
-26.412769 -33.752156 29.840157 52.223341 0.906786 0.962592 0.009404 -0.023250 -158847.000000 0 0 1
-27.389199 -33.045056 30.811007 52.834289 0.878713 0.948179 -0.001089 -0.020098 -82601.600000 0 0 1
-27.604069 -31.689356 30.447327 51.896431 0.854189 0.943826 -0.014836 -0.010089 68053.500000 0 0 1
-28.318919 -31.008056 31.455717 52.468303 0.830695 0.927897 -0.006702 -0.001600 -247582.000000 0 0 1
-28.415229 -29.488356 31.072397 51.405079 0.803929 0.921706 -0.017458 -0.006304 -292085.000000 0 0 1
-29.079879 -29.278556 29.823977 50.915054 0.788803 0.944979 -0.029181 0.003608 125273.000000 0 0 1
-29.607959 -27.980456 29.871607 50.515839 0.757145 0.938087 -0.013305 0.008166 -315305.000000 0 0 1
-30.268589 -27.737656 28.499327 49.977761 0.741794 0.963998 -0.025944 0.002273 150980.000000 0 0 1
-29.374149 -27.599556 27.374027 48.722822 0.754261 0.974198 -0.016595 0.004523 652011.000000 0 0 1
-28.653839 -26.330356 27.354187 47.566602 0.743166 0.958105 -0.012463 0.006834 115281.000000 0 0 1
-27.737309 -26.136356 26.123107 46.204806 0.755690 0.969907 -0.009784 0.008907 -112629.000000 0 0 1
-28.330499 -26.293856 24.828127 45.939307 0.748131 0.999819 -0.014527 0.004081 -370530.000000 0 0 1
-27.387779 -26.078456 23.836167 44.702787 0.760914 1.008401 -0.002209 0.009464 -556230.000000 0 0 1
-27.819189 -26.499156 22.384557 44.465502 0.761101 1.043251 -0.014450 0.009584 -25297.600000 0 0 1
-28.488789 -25.383656 21.755557 43.923175 0.727823 1.052606 -0.013542 -0.000470 365282.000000 0 0 1
-28.992779 -25.726756 20.472457 43.835701 0.725782 1.084871 -0.011708 0.004572 -12840.600000 0 0 1
-29.733359 -24.505756 19.814357 43.326821 0.689314 1.095814 -0.010737 -0.001823 615182.000000 0 0 1
-30.983349 -24.184056 20.430857 44.297363 0.662768 1.091426 -0.001002 -0.004663 602522.000000 0 0 1
-31.658129 -23.127656 19.746457 43.898156 0.630933 1.104228 0.016158 -0.004691 -233936.000000 0 0 1
-33.134599 -22.995056 20.130057 45.076528 0.606681 1.107862 0.013773 0.003557 -286316.000000 0 0 1
-33.957109 -24.082556 19.668157 46.042275 0.616877 1.129429 0.011843 0.003557 619277.000000 0 0 1
-35.304411 -23.597956 19.670457 46.799485 0.589211 1.137006 0.021045 -0.006461 470754.000000 0 0 1
35.021815 -24.413456 18.746457 46.625894 -0.608772 1.157030 0.027963 -0.012770 84169.600000 0 0 1
34.594755 -25.645656 19.313957 47.196670 -0.637920 1.149194 0.027298 -0.010810 -9217.470000 0 0 1
33.901115 -26.522256 18.461557 46.835293 -0.663881 1.165620 0.024109 -0.002049 40500.400000 0 0 1
33.521305 -27.882456 19.194557 47.639691 -0.693823 1.156101 0.017028 0.009075 685646.000000 0 0 1
32.422985 -28.036256 20.120757 47.351097 -0.712968 1.131915 0.010942 0.011876 490238.000000 0 0 1
32.563755 -27.198756 21.283957 47.467644 -0.695866 1.105834 0.014202 0.002106 -88367.800000 0 0 1
31.219865 -27.102156 22.031757 46.846612 -0.714912 1.081171 0.016254 0.003698 1090010.000000 0 0 1
30.192005 -26.371456 21.296057 45.393092 -0.717956 1.082471 0.024139 0.007551 651502.000000 0 0 1
29.148285 -25.849456 22.107157 44.794455 -0.725489 1.054659 0.027410 0.002554 240230.000000 0 0 1
28.402175 -24.702556 21.334557 43.267344 -0.715844 1.055162 0.027294 0.007192 135816.000000 0 0 1
29.197595 -23.580156 20.924557 42.969295 -0.679362 1.062184 0.036328 0.003622 238513.000000 0 0 1
29.941205 -22.941156 21.960757 43.646846 -0.653793 1.043560 0.056583 -0.004382 -112842.000000 0 0 1
30.992835 -21.930356 21.480057 43.622117 -0.615805 1.055937 0.050515 -0.009442 -264705.000000 0 0 1
30.461405 -20.669856 21.183157 42.471946 -0.596191 1.048633 0.057254 -0.016219 -389795.000000 0 0 1
31.311875 -19.785156 20.541157 42.353571 -0.563527 1.064442 0.046324 -0.015395 -801481.000000 0 0 1
30.528645 -18.442356 20.374657 41.076091 -0.543429 1.051785 0.049746 -0.007703 383345.000000 0 0 1
30.229715 -17.822556 21.640957 41.228754 -0.532716 1.018199 0.049777 -0.007676 318459.000000 0 0 1
29.009915 -18.273756 22.220257 40.856396 -0.562125 0.995763 0.069213 -0.015294 -168302.000000 0 0 1
28.880595 -18.003056 23.731257 41.489412 -0.557420 0.961874 0.057624 -0.012634 18790.800000 0 0 1
28.598965 -16.623156 24.078737 40.914736 -0.526519 0.941582 0.051060 -0.009691 36651.200000 0 0 1
28.797785 -16.400556 25.425857 41.770382 -0.517697 0.916368 0.046349 -0.010797 -57778.600000 0 0 1
28.810595 -14.849056 25.788137 41.419474 -0.475894 0.898724 0.043976 -0.015582 161624.000000 0 0 1
27.521385 -14.278656 25.971987 40.445651 -0.478590 0.873503 0.050888 -0.020858 323446.000000 0 0 1
27.526475 -13.015356 26.584317 40.420690 -0.441677 0.853047 0.041881 -0.018358 74372.600000 0 0 1
27.987855 -11.843356 25.684077 39.790160 -0.400312 0.869134 0.042756 -0.027531 198306.000000 0 0 1
27.046145 -11.681556 24.611617 38.388597 -0.407711 0.874842 0.050098 -0.017657 570029.000000 0 0 1
27.444085 -10.783356 23.579757 37.755310 -0.374389 0.896252 0.049445 -0.010463 418989.000000 0 0 1
28.517495 -11.216056 22.503257 38.018995 -0.374721 0.937388 0.059722 -0.026935 456655.000000 0 0 1
28.081025 -12.264856 21.650857 37.519731 -0.411795 0.955681 0.060988 -0.029003 64811.600000 0 0 1
28.467465 -13.544256 22.156357 38.532422 -0.444085 0.958185 0.060167 -0.029751 -222937.000000 0 0 1
27.977065 -14.687056 21.252257 38.079971 -0.483422 0.978708 0.064370 -0.027226 -408917.000000 0 0 1
28.567275 -14.723256 20.007957 37.857387 -0.475883 1.013953 0.052500 -0.027106 -313269.000000 0 0 1
27.934695 -15.734056 19.210257 37.375682 -0.512955 1.030981 0.054526 -0.034929 -217465.000000 0 0 1
28.449995 -15.909856 17.787157 37.133659 -0.509896 1.071277 0.068128 -0.038738 -236224.000000 0 0 1
27.816035 -16.844856 16.933957 36.663876 -0.544513 1.090694 0.067647 -0.040150 1140700.000000 0 0 1
26.439805 -16.527656 16.564557 35.307382 -0.558675 1.082465 0.059557 -0.036300 1117030.000000 0 0 1
26.193525 -15.633156 15.365357 34.155387 -0.538087 1.104181 0.060054 -0.036015 -609021.000000 0 0 1
26.392895 -16.139456 14.034857 33.971225 -0.548838 1.144897 0.073545 -0.037185 251404.000000 0 0 1
25.328735 -16.904756 13.507557 33.313205 -0.588520 1.153302 0.054828 -0.042295 -181195.000000 0 0 1
25.763335 -17.546556 12.179857 33.466101 -0.597906 1.198295 0.047581 -0.024113 -214132.000000 0 0 1
25.534535 -16.809456 11.047857 32.505775 -0.582190 1.224014 0.051504 -0.027904 -34446.900000 0 0 1
25.268635 -17.677756 9.917857 32.393994 -0.610453 1.259636 0.036280 -0.025029 -79522.700000 0 0 1
26.532955 -18.145356 9.180057 33.429404 -0.599825 1.292612 0.042462 -0.010332 8580.560000 0 0 1
27.437525 -18.808756 10.000157 34.736007 -0.600936 1.278773 0.040455 -0.001341 58847.800000 0 0 1
28.746715 -19.042756 9.463557 35.756944 -0.585065 1.302941 0.034316 0.005961 594380.000000 0 0 1
29.628215 -19.865356 10.371357 37.148735 -0.590643 1.287851 0.038176 -0.007826 -378551.000000 0 0 1
29.811515 -19.235456 11.635457 37.337823 -0.573019 1.253892 0.055418 -0.020876 107378.000000 0 0 1
29.730665 -20.134056 12.740957 38.100191 -0.595270 1.229821 0.032965 -0.016338 -71664.400000 0 0 1
29.818245 -19.372156 14.119957 38.259395 -0.576146 1.192800 0.051761 -0.016548 185729.000000 0 0 1
29.397255 -20.241456 15.149957 38.774170 -0.602999 1.169380 0.048962 -0.016176 70417.500000 0 0 1
29.251115 -19.603756 16.410657 38.848997 -0.590437 1.134681 0.070594 -0.023683 13688.600000 0 0 1
28.790345 -20.638756 17.457657 39.491923 -0.621955 1.112906 0.049055 -0.020368 203513.000000 0 0 1
27.459245 -21.089456 17.290457 38.700583 -0.654939 1.107639 0.017211 -0.010136 -142025.000000 0 0 1
27.240395 -22.233956 18.045657 39.522571 -0.684549 1.096636 0.021753 -0.007163 -187897.000000 0 0 1
25.862835 -22.919656 18.000857 38.964441 -0.725139 1.090568 0.014904 0.002619 12422.800000 0 0 1
24.892235 -22.236156 18.780457 38.298505 -0.729099 1.058282 0.022660 -0.003844 -16539.800000 0 0 1
23.622335 -22.828356 18.602557 37.751869 -0.768307 1.055539 0.019778 -0.000840 221183.000000 0 0 1
22.522935 -22.271856 19.561557 37.228653 -0.779793 1.017560 0.002484 -0.001135 4060.930000 0 0 1
21.856135 -21.138156 19.017157 35.863136 -0.768700 1.011877 0.009329 -0.008295 -84477.200000 0 0 1
20.744235 -20.599656 19.678257 35.240642 -0.781901 0.978345 0.010358 -0.004263 73615.100000 0 0 1
21.079635 -19.973956 21.014857 35.845977 -0.758472 0.944369 0.002445 0.005248 -386251.000000 0 0 1
21.427935 -21.024056 21.874257 37.143646 -0.775885 0.941087 0.004840 0.006151 -328636.000000 0 0 1
21.789635 -20.497356 23.117557 37.806761 -0.754848 0.912884 0.002926 0.002046 65358.000000 0 0 1
22.208535 -21.598856 24.130077 39.268183 -0.771482 0.909051 0.006838 0.000398 174802.000000 0 0 1
21.126935 -22.388556 24.591037 39.399415 -0.814383 0.896757 0.006279 0.005298 315081.000000 0 0 1
21.625135 -23.377956 25.544057 40.824920 -0.824327 0.894771 0.004375 0.004152 123799.000000 0 0 1
20.540035 -24.150856 26.346467 41.222484 -0.866019 0.877432 0.012536 -0.002321 -161292.000000 0 0 1
19.954235 -25.206656 25.666207 41.137588 -0.901183 0.897059 0.013663 0.004629 119124.000000 0 0 1
18.940335 -25.829256 26.444497 41.535504 -0.938076 0.880621 0.020959 -0.000489 284473.000000 0 0 1
18.162435 -26.942956 25.692477 41.423426 -0.977660 0.901747 0.035116 0.002318 229092.000000 0 0 1
17.407235 -26.538756 24.542307 40.120346 -0.990272 0.912567 0.030108 -0.004134 454146.000000 0 0 1
16.717335 -27.690756 24.027087 40.293276 -1.027649 0.931906 0.039420 -0.006729 146009.000000 0 0 1
15.787135 -27.153156 22.880957 38.859563 -1.044158 0.941209 0.040061 -0.014240 -39648.200000 0 0 1
14.529835 -26.674456 23.291857 38.277321 -1.072024 0.916624 0.027822 -0.007876 -367937.000000 0 0 1
14.088635 -25.896256 22.201457 36.905425 -1.072539 0.925322 0.016686 -0.002746 -660311.000000 0 0 1
12.752835 -25.232656 22.435957 36.092850 -1.102830 0.899990 0.005681 0.002840 83755.000000 0 0 1
11.625535 -26.115956 22.374657 36.301811 -1.151982 0.906696 0.014580 -0.000692 849289.000000 0 0 1
10.361535 -25.460156 22.321657 35.409565 -1.184295 0.888747 0.016332 0.000870 710259.000000 0 0 1
9.104635 -26.333156 22.218757 35.637096 -1.237915 0.897620 0.024937 0.000479 6200.800000 0 0 1
9.020335 -27.061956 20.997357 35.420402 -1.249056 0.936260 0.037403 -0.003009 35929.300000 0 0 1
7.789835 -27.750356 21.076857 35.707109 -1.297128 0.939402 0.037001 -0.000501 4440.990000 0 0 1
7.448435 -28.739656 19.903357 35.743399 -1.317207 0.980220 0.046262 -0.000224 -221958.000000 0 0 1
8.131835 -29.970856 19.832157 36.846891 -1.305850 1.002459 0.050850 -0.003125 100382.000000 0 0 1
7.697735 -30.743556 18.727957 36.812467 -1.325455 1.037076 0.034633 -0.002364 -85642.900000 0 0 1
8.301035 -32.152456 18.775557 38.147203 -1.318136 1.056196 0.035736 -0.003858 -104637.000000 0 0 1
7.818335 -32.977056 19.866157 39.284561 -1.338010 1.040605 0.034172 -0.004959 164631.000000 0 0 1
8.565135 -34.143956 19.841957 40.408842 -1.325014 1.057525 0.027403 -0.009896 -277360.000000 0 0 1
8.176535 33.633302 20.862857 40.414273 1.332314 1.028359 0.041865 -0.020223 -199904.000000 0 0 1
7.194235 32.687802 20.461257 39.228974 1.354161 1.022088 0.037024 -0.019350 159405.000000 0 0 1
7.244935 31.626002 21.405457 38.870125 1.345600 0.987604 0.041906 -0.027310 -408220.000000 0 0 1
6.357435 30.421702 21.118257 37.574961 1.364784 0.973958 0.047589 -0.029985 235377.000000 0 0 1
4.974835 30.649802 21.389157 37.704845 1.409887 0.967599 0.038594 -0.032719 466224.000000 0 0 1
4.250335 29.416602 21.165757 36.488232 1.427302 0.951981 0.036611 -0.029876 -601994.000000 0 0 1
2.781335 29.432702 21.478557 36.542416 1.476578 0.942496 0.025762 -0.020464 -1014730.000000 0 0 1
2.633835 29.140302 22.844557 37.120992 1.480657 0.907893 0.025322 -0.028526 -345090.000000 0 0 1
1.279135 28.961302 23.157957 37.103694 1.526658 0.896764 0.017315 -0.018156 -315580.000000 0 0 1
1.022435 28.362902 24.593707 37.554626 1.534764 0.856775 0.026938 -0.019461 -308852.000000 0 0 1
1.254435 29.342502 25.562197 38.935612 1.528071 0.854594 0.028190 -0.022531 209860.000000 0 0 1
1.050835 28.810902 26.854297 39.399563 1.534339 0.820865 0.029787 -0.021837 20195.400000 0 0 1
2.312335 28.211302 27.532747 39.487676 1.489014 0.799244 0.021972 -0.024800 -40957.400000 0 0 1
2.730035 27.004402 26.906087 38.218167 1.470043 0.789764 0.024076 -0.022420 550844.000000 0 0 1
3.883135 26.436202 27.517917 38.356058 1.424952 0.770685 0.015668 -0.010485 126172.000000 0 0 1
4.411335 25.163702 26.855147 37.065761 1.397254 0.760448 0.011897 0.003311 -564629.000000 0 0 1
3.517135 24.093002 26.982627 36.344258 1.425839 0.734124 0.022759 0.000281 -44566.200000 0 0 1
4.113435 22.798002 26.775827 35.406413 1.392287 0.713246 0.032597 0.012077 185310.000000 0 0 1
3.048635 21.671102 26.807927 34.606296 1.431036 0.684628 0.023740 0.010263 110791.000000 0 0 1
3.521435 20.324602 26.833147 33.845350 1.399240 0.655380 0.037703 0.011737 -112829.000000 0 0 1
4.093335 19.861502 25.638437 32.688898 1.367548 0.669203 0.049667 0.012045 -98561.900000 0 0 1
4.315635 18.322502 25.751977 31.898324 1.339475 0.631209 0.043893 0.002560 221157.000000 0 0 1
5.354835 17.898802 26.630587 32.530439 1.280099 0.611764 0.023349 0.009080 408701.000000 0 0 1
6.551935 17.569702 25.924967 31.995721 1.213858 0.626195 0.028858 0.012354 -428494.000000 0 0 1
7.780435 17.694202 26.817847 33.057780 1.156527 0.624524 0.020344 0.001250 -625395.000000 0 0 1
8.107035 18.900402 27.487317 34.329313 1.165598 0.642342 0.013209 -0.001868 225244.000000 0 0 1
8.512835 19.950302 26.584447 34.310577 1.167485 0.684369 0.008966 -0.007736 -190813.000000 0 0 1
9.069335 21.230202 27.318297 35.766795 1.167072 0.701633 -0.002792 -0.004761 439504.000000 0 0 1
10.305635 20.976802 27.980007 36.457003 1.114143 0.695896 0.007671 -0.025086 255047.000000 0 0 1
10.502335 21.665402 29.192817 37.840576 1.119422 0.689650 0.002964 -0.017175 -856584.000000 0 0 1
11.749635 21.289102 29.913187 38.549689 1.066489 0.682554 0.005847 -0.015417 -540065.000000 0 0 1
12.996435 21.772002 29.454907 38.865394 1.032635 0.710755 0.007914 -0.007588 -491649.000000 0 0 1
14.061135 21.474002 30.288817 39.702149 0.991056 0.703008 0.005578 0.011615 -893835.000000 0 0 1
15.400835 21.629202 29.604637 39.767356 0.952036 0.731092 0.002394 0.007053 -739675.000000 0 0 1
15.749635 22.982402 29.372957 40.484717 0.970010 0.758989 0.010156 0.002846 -796239.000000 0 0 1
17.063735 23.149002 28.989167 40.834043 0.935586 0.781403 0.027571 0.011753 -913337.000000 0 0 1
-8.580649 16.859402 4.354156 19.411997 -1.100012 1.344569 0.022621 -0.016520 -166186.000000 0 1 0
-8.324749 18.180002 4.715856 20.543933 -1.141386 1.339181 0.023220 -0.018088 389670.000000 0 1 0
-7.029649 18.400302 5.255556 20.386464 -1.205868 1.310056 0.014050 -0.013499 11009.800000 0 1 0
-6.939649 19.864202 5.884956 21.848980 -1.234697 1.298081 0.014378 -0.007035 -56781.700000 0 1 0
-7.058449 20.987102 5.025856 22.705492 -1.246357 1.347598 0.012531 -0.007924 -565835.000000 0 1 0
-8.372649 21.219102 4.616456 23.273659 -1.194970 1.371117 0.007846 -0.011504 -531664.000000 0 1 0
-8.476949 22.413502 3.582156 24.229229 -1.209217 1.422408 0.025598 -0.012788 43861.600000 0 1 0
-7.907949 22.249102 2.278156 23.722314 -1.229294 1.474614 0.010706 -0.012326 -133075.000000 0 1 0
-8.669449 21.394902 1.420256 23.128300 -1.185806 1.509350 0.030464 -0.012838 -721272.000000 0 1 0
-8.129649 21.262302 -0.010344 22.763496 -1.205597 1.571251 0.013078 0.002546 565905.000000 0 1 0
-6.890849 20.600402 -0.299344 21.724409 -1.247996 1.584576 0.024665 -0.005511 613206.000000 0 1 0
-5.781949 21.359402 0.166356 22.128774 -1.306434 1.563279 0.023377 -0.012982 -444036.000000 0 1 0
-4.418449 21.001702 -0.460044 21.466388 -1.363435 1.592229 0.027925 -0.014392 26698.800000 0 1 0
-4.247149 21.666102 -1.678244 22.142148 -1.377224 1.646663 0.018424 -0.008982 -698153.000000 0 1 0
-2.958549 21.610802 -2.175844 21.920631 -1.434741 1.670220 0.028736 -0.005447 -834527.000000 0 1 0
-2.875349 21.931002 -3.708044 22.427350 -1.440431 1.736895 0.021070 -0.004347 468094.000000 0 1 0
-1.601049 22.327702 -4.229944 22.781177 -1.499212 1.757557 0.036046 -0.000483 664472.000000 0 1 0
-1.623049 22.468002 -5.637044 23.221146 -1.498683 1.816001 0.033143 -0.014223 -370748.000000 0 1 0
-0.358749 23.055402 -6.263444 23.893743 -1.555237 1.836033 0.031458 -0.017983 -182318.000000 0 1 0
0.764251 22.195902 -6.163644 23.048484 1.536378 1.841512 0.034113 -0.009686 -397132.000000 0 1 0
1.852251 22.799802 -6.787744 23.860747 1.489735 1.859253 0.036440 -0.013085 126107.000000 0 1 0
3.171851 21.957702 -6.855244 23.220587 1.427336 1.870485 0.027139 -0.003762 605795.000000 0 1 0
3.100351 20.987402 -7.824244 22.611988 1.424133 1.924124 0.028091 -0.011362 -380006.000000 0 1 0
4.171651 20.108602 -7.685244 21.927642 1.366242 1.928882 0.028675 -0.007756 -219201.000000 0 1 0
4.072451 18.818802 -8.508144 21.050431 1.357679 1.986877 0.010467 -0.016134 -1045.860000 0 1 0
4.232251 18.985802 -9.930944 21.840244 1.351466 2.042841 0.023225 -0.024584 216675.000000 0 1 0
2.985851 19.160602 -10.596044 22.097966 1.416207 2.070885 0.017230 -0.019509 -98645.300000 0 1 0
3.116451 19.550802 -12.081344 23.192779 1.412723 2.118713 0.026286 -0.023159 47287.300000 0 1 0
3.508551 20.892502 -12.343144 24.518559 1.404415 2.098349 0.044103 -0.023792 -14607.800000 0 1 0
3.628451 20.976702 -13.748944 25.342082 1.399516 2.144247 0.047563 -0.015220 -3312.980000 0 0 1
4.158051 22.291902 -14.328544 26.823971 1.386388 2.134321 0.041734 -0.013180 -499251.000000 0 0 1
3.148751 23.247402 -14.369244 27.510570 1.436170 2.120362 0.055979 -0.018106 -443170.000000 0 0 1
3.539251 24.476002 -14.975344 28.911276 1.427191 2.115279 0.044219 -0.020453 -249096.000000 0 0 1
2.310151 25.273702 -15.452844 29.713417 1.479644 2.117721 0.046897 -0.018399 7596.990000 0 0 1
1.591451 25.814202 -14.372344 29.588342 1.509224 2.078010 0.049707 -0.031290 -144747.000000 0 0 1
1.437351 27.263402 -14.473444 30.900479 1.518124 2.058263 0.031052 -0.027594 -1381170.000000 0 0 1
0.782451 27.735902 -13.139744 30.700901 1.542593 2.013066 0.037468 -0.028437 -35832.200000 0 0 1
-0.635049 27.800602 -13.135244 30.754046 -1.547957 2.012086 0.040734 -0.033350 282248.000000 0 0 1
-1.292049 26.557802 -13.401644 29.775666 -1.522184 2.037659 0.035001 -0.032913 -1279150.000000 0 0 1
-1.407249 25.534902 -12.300544 28.378071 -1.515741 2.019117 0.049116 -0.031092 -633642.000000 0 0 1
-2.161549 25.801602 -11.139644 28.186639 -1.487216 1.977093 0.040154 -0.026435 -51679.000000 0 0 1
-2.523849 24.570402 -10.551244 26.858950 -1.468436 1.974513 0.059810 -0.021296 59395.100000 0 0 1
-3.393649 24.662902 -9.237544 26.553866 -1.434054 1.926105 0.032079 -0.018892 -166537.000000 0 0 1
-2.850249 25.005602 -8.007444 26.410664 -1.457302 1.878835 0.042607 -0.020878 -518755.000000 0 0 1
-2.421849 26.327202 -7.909144 27.596040 -1.479064 1.861477 0.042452 -0.024467 -84772.400000 0 0 1
-2.240349 26.652402 -6.401244 27.501738 -1.486935 1.805709 0.036156 -0.018893 438208.000000 0 0 1
-1.173549 25.950402 -5.751044 26.605922 -1.525604 1.788673 0.047783 -0.019118 232134.000000 0 0 1
-1.087749 26.329802 -4.355744 26.709814 -1.529507 1.734604 0.048178 -0.013790 639309.000000 0 0 1
-2.113449 25.721802 -3.256244 26.013090 -1.488815 1.696303 0.049666 -0.013520 219724.000000 0 0 1
-3.398349 26.227502 -3.455944 26.671598 -1.441942 1.700736 0.028611 -0.009909 -389279.000000 0 0 1
-4.296249 25.593902 -2.542244 26.076207 -1.404485 1.668444 0.026195 -0.004421 57477.700000 0 0 1
-5.482949 24.821202 -3.126644 25.611144 -1.353390 1.693183 0.004918 -0.005698 -46410.100000 0 0 1
-6.527749 25.616902 -3.662944 26.688093 -1.321285 1.708481 -0.015685 -0.000406 -434446.000000 0 0 1
-7.594849 24.850202 -4.131544 26.311288 -1.274187 1.728474 -0.007845 -0.005000 -10457.900000 0 0 1
-8.916549 25.671402 -4.164244 27.493029 -1.236499 1.722847 -0.008699 -0.004476 -74838.700000 0 0 1
-9.376749 25.865802 -2.851644 27.660350 -1.223016 1.674075 -0.004943 -0.005804 -1351660.000000 0 0 1
-10.620949 26.446802 -2.965744 28.653682 -1.188914 1.674485 0.012438 -0.006532 -893337.000000 0 0 1
-11.396449 26.498102 -1.607544 28.889663 -1.164626 1.626469 0.020687 -0.005993 -13072.400000 0 0 1
-11.921849 25.229102 -1.209944 27.930306 -1.129354 1.614130 0.028018 -0.004114 871255.000000 0 0 1
-10.923749 24.227902 -0.840144 26.589948 -1.147215 1.602398 0.019040 -0.002223 531182.000000 0 0 1
-11.566249 22.867302 -0.488044 25.630641 -1.102521 1.589839 0.030503 -0.010201 -444953.000000 0 0 1
-12.195649 22.976202 0.724156 26.022377 -1.082817 1.542965 0.045940 -0.011327 -276274.000000 0 0 1
-12.960549 21.835102 1.020956 25.412395 -1.035122 1.530610 0.052986 -0.018816 -245402.000000 0 0 1
-13.696449 21.912502 2.387356 25.950913 -1.012160 1.478671 0.062726 -0.024560 -181162.000000 0 0 1
-12.878949 21.891402 3.552756 25.646108 -1.039016 1.431819 0.058351 -0.022119 177688.000000 0 0 1
-12.495049 23.195902 3.967356 26.644249 -1.076690 1.421340 0.052120 -0.016538 20416.500000 0 0 1
-12.168849 23.295102 5.476856 26.846575 -1.089407 1.365348 0.046286 -0.013113 -127488.000000 0 0 1
-10.985449 22.625702 5.885256 25.830964 -1.118792 1.340940 0.033903 -0.009283 40663.500000 0 0 1
-11.064949 22.265802 7.237256 25.895499 -1.109593 1.287545 0.028155 -0.010960 -6216.440000 0 0 1
-9.767949 21.868402 8.026256 25.259861 -1.150715 1.247443 0.025107 -0.012276 103874.000000 0 0 1
-9.020749 22.986102 8.398856 26.082093 -1.196821 1.242938 0.028027 -0.018762 -637842.000000 0 0 1
-7.913249 22.678702 9.176356 25.712809 -1.235076 1.205872 0.027034 -0.015117 -631293.000000 0 0 1
-8.138749 22.449902 10.742456 26.184684 -1.223003 1.148060 0.027153 -0.018178 -349916.000000 0 0 1
-8.852849 21.258402 11.038456 25.537034 -1.176198 1.123807 0.028638 -0.012297 154000.000000 0 0 1
-8.411849 20.623702 12.256456 25.422765 -1.183521 1.067740 0.020348 -0.007363 -190351.000000 0 0 1
-9.432049 19.596102 12.781056 25.225506 -1.122202 1.039476 0.012997 -0.002488 -339785.000000 0 0 1
-9.560549 18.493502 11.966356 24.012650 -1.093667 1.049118 0.020083 -0.012100 81753.100000 0 1 0
-10.419849 17.550002 12.575156 23.973117 -1.035005 1.018607 0.017776 -0.007942 -320208.000000 0 1 0
-10.794149 16.421202 11.547656 22.792935 -0.989285 1.039521 0.015952 -0.015823 -138606.000000 0 1 0
-11.079849 15.236602 12.265156 22.480016 -0.942057 0.993688 0.004232 -0.012923 32727.400000 0 1 0
-11.633449 14.336202 11.302156 21.647229 -0.889098 1.021478 0.005177 -0.005938 147101.000000 0 1 0
-11.765649 12.944302 11.839056 21.122232 -0.833062 0.975804 0.002091 -0.008608 299506.000000 0 1 0
-12.601949 12.986802 13.003456 22.283537 -0.800437 0.947709 -0.003516 -0.000030 165900.000000 0 1 0
-13.118049 11.681602 13.266556 22.012372 -0.727541 0.923933 -0.000438 0.000950 -305774.000000 0 1 0
-13.939349 11.671302 14.542656 23.281185 -0.697070 0.896110 -0.006023 0.004782 903483.000000 0 1 0
-15.211149 12.347602 14.332656 24.274829 -0.681863 0.939201 0.005520 0.003233 783809.000000 0 1 0
-15.688349 12.885002 15.569256 25.584161 -0.687601 0.916564 0.011134 0.008470 177886.000000 0 0 1
-16.816049 13.922702 15.282156 26.648929 -0.691548 0.960070 0.029051 -0.000296 368019.000000 0 0 1
-18.058749 13.354402 14.935756 26.972862 -0.636746 0.983956 0.032691 -0.000365 3922.210000 0 0 1
-19.027949 14.360302 14.690756 28.001775 -0.646499 1.018508 0.059678 -0.007227 -24274.900000 0 0 1
-20.167049 13.936602 13.773156 28.118296 -0.604699 1.058903 0.060254 -0.010205 -159930.000000 0 0 1
-21.086549 13.004702 14.328756 28.619540 -0.552630 1.046431 0.062990 -0.011135 815589.000000 0 0 1
-22.339749 13.101102 13.624756 29.263240 -0.530395 1.086492 0.050176 -0.008289 31629.400000 0 0 1
-23.336849 12.125602 14.132556 29.855785 -0.479197 1.077694 0.059521 -0.013285 -649473.000000 0 0 1
-23.909549 12.358302 15.399056 31.008468 -0.477058 1.051110 0.057908 -0.014375 607025.000000 0 0 1
-24.976149 11.466202 15.778056 31.689570 -0.430384 1.049627 0.053984 -0.018113 713308.000000 0 0 1
-25.754319 12.033302 17.044056 33.144911 -0.437093 1.030689 0.040377 -0.010574 -201310.000000 0 0 1
-26.545029 13.132902 16.706256 34.003098 -0.459431 1.057197 0.041466 -0.010225 -30094.800000 0 0 1
-27.343109 13.528202 17.800056 35.319964 -0.459445 1.042612 0.029166 0.006229 -711844.000000 0 0 1
-28.351459 14.562102 17.464856 36.343930 -0.474490 1.069521 0.018981 0.000868 -752473.000000 0 0 1
-27.815649 15.882702 17.334656 36.420610 -0.518822 1.074744 0.024508 0.001865 1149360.000000 0 0 1
-28.877049 16.884902 17.170856 37.600826 -0.529106 1.096557 0.035352 0.000127 1093060.000000 0 0 1
-28.164099 18.243702 17.164956 37.691973 -0.574802 1.097974 0.032058 -0.007829 -373357.000000 0 0 1
-27.618029 18.722702 18.375556 38.091418 -0.595750 1.067396 0.027859 -0.007961 -154970.000000 0 0 1
-28.458199 19.052202 19.474756 39.396974 -0.589948 1.053743 0.028293 -0.011006 -1055120.000000 0 0 1
-27.640769 19.243102 20.750856 39.558907 -0.608161 1.018603 0.012209 -0.012881 296442.000000 0 0 1
-27.039539 18.101102 21.344256 38.914828 -0.589914 0.990243 0.012277 -0.003432 243986.000000 0 0 1
-26.214409 17.293102 20.497856 37.502116 -0.583150 0.992523 0.030448 -0.000838 -625782.000000 0 0 1
-25.759689 15.966302 21.144256 36.953537 -0.554864 0.961629 0.011390 0.004019 876634.000000 0 0 1
-26.894949 15.097202 21.389856 37.533848 -0.511508 0.964434 -0.006127 0.004204 1094630.000000 0 0 1
-26.483259 13.794702 21.755756 36.945497 -0.480215 0.941148 -0.001906 0.009899 67479.700000 0 0 1
-27.701989 12.864002 22.008456 37.646446 -0.434740 0.946398 -0.002259 0.004593 343505.000000 0 0 1
-28.506969 12.711102 20.850556 37.536183 -0.419435 0.981858 -0.000087 -0.002703 752171.000000 0 0 1
-29.703189 11.955202 21.123956 38.359194 -0.382650 0.987608 0.016651 -0.002348 927120.000000 0 0 1
-30.635929 11.653802 19.883656 38.337071 -0.363493 1.025521 0.031775 0.000792 -45425.500000 0 0 1
-30.041269 11.130102 18.678256 37.084151 -0.354814 1.042952 0.038238 -0.006778 348118.000000 0 0 1
-29.398149 9.846602 18.746356 36.230272 -0.323195 1.026960 0.044298 -0.005791 70571.600000 0 0 1
-28.463489 9.515102 17.550556 34.766786 -0.322613 1.041637 0.054957 -0.007173 -192374.000000 0 0 1
-29.060609 9.115602 16.330456 34.558602 -0.303955 1.078621 0.055402 -0.009428 360052.000000 0 0 1
-29.772489 10.149902 15.640856 35.129161 -0.328559 1.109356 0.050507 -0.009016 -225364.000000 0 0 1
-28.880219 11.135402 14.829756 34.321799 -0.368007 1.123999 0.040968 -0.005309 -52128.500000 0 0 1
-28.468609 10.626302 13.560656 33.275687 -0.357248 1.151055 0.046489 -0.014586 883680.000000 0 0 1
-27.521099 11.537402 12.952456 32.531349 -0.396965 1.161294 0.049382 -0.015472 289056.000000 0 0 1
-27.367809 11.495202 11.418556 31.804403 -0.397650 1.203574 0.062981 -0.014899 -266599.000000 0 0 1
-26.693779 10.319702 10.856456 30.609095 -0.368898 1.208224 0.073825 -0.004974 368161.000000 0 0 1
-27.442919 9.159802 10.786356 30.876548 -0.322149 1.213932 0.066814 -0.006351 -769534.000000 0 0 1
-26.722969 7.924102 10.205156 29.682548 -0.288268 1.219825 0.068690 -0.017442 -269235.000000 0 0 1
-26.340199 8.114902 8.834556 28.943170 -0.298854 1.260608 0.068933 -0.008469 24186.800000 0 0 1
-25.666829 7.019402 8.383556 27.898783 -0.266954 1.265581 0.078950 -0.025853 -367764.000000 0 0 1
-24.968349 7.423402 7.018856 26.977577 -0.288989 1.307594 0.065472 -0.008699 -836491.000000 0 0 1
-25.898009 7.725302 6.061156 27.697017 -0.289894 1.350173 0.069594 -0.012944 -301503.000000 0 0 1
-25.292539 8.260002 4.896156 27.053881 -0.315659 1.388816 0.065107 -0.003094 357538.000000 0 0 1
-26.326669 8.463702 3.713856 27.901980 -0.311052 1.437296 0.066128 -0.000738 242172.000000 0 0 1
-26.938389 7.303302 3.138556 28.086750 -0.264747 1.458817 0.085934 -0.010633 349596.000000 0 0 1
-26.090989 6.274902 2.634656 26.963967 -0.236018 1.472930 0.075603 -0.009813 62058.300000 0 0 1
-25.108969 6.634102 1.473756 26.012374 -0.258310 1.514110 0.073307 -0.004941 90766.000000 0 0 1
-24.113649 7.571102 1.833856 25.340731 -0.304229 1.498365 0.054873 0.002493 630083.000000 0 0 1
-23.094849 7.599302 0.817256 24.326721 -0.317888 1.537195 0.054829 0.007724 43067.800000 0 1 0
-21.785649 8.269402 1.208756 23.333636 -0.362780 1.518970 0.026953 0.005358 -323144.000000 0 1 0
-22.131149 9.624302 1.441156 24.176266 -0.410206 1.511151 0.023770 0.006533 727335.000000 0 1 0
-20.995349 10.437602 1.631256 23.503387 -0.461356 1.501335 0.019042 0.004621 -361181.000000 0 1 0
-21.427249 11.814102 2.144556 24.562148 -0.503886 1.483374 0.017420 0.001448 352261.000000 0 1 0
-20.385249 12.779902 2.294856 24.169208 -0.559978 1.475703 0.019771 -0.004920 666312.000000 0 1 0
-20.986949 13.952602 2.861656 25.363678 -0.586725 1.457731 0.025041 -0.006874 19461.100000 0 0 1
-20.019649 14.638902 3.817856 25.093023 -0.631378 1.418055 0.019925 -0.004000 -297590.000000 0 0 1
-19.621249 13.776802 4.850356 24.460573 -0.612159 1.371180 0.016686 -0.007484 324082.000000 0 1 0
-18.973849 14.553002 5.872756 24.622877 -0.654295 1.329967 0.017586 -0.006017 -157954.000000 0 1 0
-18.648749 13.610902 7.062456 24.143545 -0.630484 1.273936 0.020440 -0.006187 -1292840.000000 0 1 0
-17.514249 12.950302 6.756456 22.805897 -0.636692 1.270023 0.005090 0.003526 -1099780.000000 0 1 0
-17.066249 12.056102 7.718256 22.275051 -0.615028 1.216961 0.007798 -0.002353 -224198.000000 0 1 0
10.605551 -32.680456 -14.445644 37.271524 -1.256996 1.968800 0.039726 -0.013032 -120920.000000 0 0 1
11.796351 -33.037456 -13.778844 37.689308 -1.227846 1.945063 0.025985 -0.012521 -124488.000000 0 0 1
12.505551 -31.908056 -13.443144 36.813461 -1.197271 1.944611 0.020715 -0.009940 -293592.000000 0 0 1
13.906451 -31.964456 -12.791544 37.131380 -1.160436 1.922496 0.040592 -0.004343 635407.000000 0 0 1
14.855751 -32.686256 -13.594644 38.391392 -1.144210 1.932755 0.029432 -0.005727 -192344.000000 0 0 1
16.132351 -32.113356 -13.614444 38.430111 -1.105265 1.932924 0.037933 -0.003749 181071.000000 0 0 1
17.113251 -33.211356 -14.201244 39.969149 -1.094997 1.934037 0.032797 -0.004956 411727.000000 0 0 1
17.284951 -34.357656 -13.409444 40.731207 -1.104681 1.906272 0.033284 -0.010143 -587645.000000 0 0 1
18.356851 33.722002 -13.860844 40.819975 1.072295 1.917246 0.018813 0.000930 -173350.000000 0 0 1
18.403051 32.325502 -13.182444 39.463745 1.053253 1.911382 0.011433 -0.008338 -143861.000000 0 0 1
18.963851 32.329402 -11.885444 39.320244 1.040301 1.877873 0.018388 -0.014269 -308397.000000 0 0 1
18.660951 31.072102 -11.252844 37.951720 1.029958 1.871826 0.020687 -0.015622 468053.000000 0 0 1
19.566351 30.686702 -10.015744 37.746932 1.003176 1.839352 0.027905 -0.013447 1479310.000000 0 0 1
20.868751 30.142602 -10.327144 38.088464 0.965234 1.845369 0.029219 -0.009911 738394.000000 0 0 1
21.683351 29.990402 -9.218344 38.138822 0.944794 1.814919 0.016926 -0.002340 -231896.000000 0 0 1
23.046151 29.332202 -9.495744 38.492496 0.904839 1.820060 -0.004729 0.004192 -80973.300000 0 0 1
23.934351 30.161902 -10.212744 39.835833 0.900013 1.830062 0.005225 -0.004341 161298.000000 0 0 1
25.184151 29.507502 -10.372544 40.156242 0.864284 1.832063 0.005117 0.007286 -101085.000000 0 0 1
26.191451 30.199002 -11.256544 41.529286 0.856347 1.845281 0.016416 0.004376 -486663.000000 0 0 1
26.730451 31.383602 -10.761944 42.605949 0.865297 1.826155 0.016116 -0.006028 119407.000000 0 0 1
27.848751 31.803002 -11.519344 43.814143 0.851590 1.836837 0.016715 0.000248 59530.700000 0 0 1
28.172051 33.282002 -11.394744 45.068795 0.868358 1.826401 0.009479 -0.003136 -406240.000000 0 0 1
27.337751 34.153002 -12.098944 45.389036 0.895781 1.840619 0.028898 -0.007114 39476.000000 0 0 1
27.723051 -33.378256 -11.707744 44.941593 -0.877690 1.834347 0.052417 -0.012704 418761.000000 0 0 1
26.624451 -32.364656 -12.198144 43.647761 -0.882402 1.854036 0.055093 -0.022407 244173.000000 0 0 1
25.398951 -32.645456 -11.572044 42.950491 -0.909600 1.843595 0.038112 -0.020615 -15581.900000 0 0 1
24.263151 -31.812156 -11.781144 41.707423 -0.919216 1.857166 0.028757 -0.021779 713318.000000 0 0 1
24.383951 -30.331856 -11.289744 40.522301 -0.893678 1.853138 0.043140 -0.022094 -712030.000000 0 0 1
25.277951 -29.589956 -12.086244 40.750676 -0.863826 1.871916 0.037721 -0.016700 -147611.000000 0 0 1
25.724051 -28.443956 -11.366844 39.999882 -0.835568 1.858939 0.034974 -0.006675 -67831.200000 0 0 1
26.549151 -27.552256 -12.350544 40.205972 -0.803937 1.883027 0.014878 0.011468 306974.000000 0 0 1
27.830751 -28.014756 -12.729744 41.490042 -0.788693 1.882641 0.010587 0.008442 95094.000000 0 0 1
27.832051 -28.850056 -13.880344 42.421843 -0.803356 1.904133 0.014779 -0.002231 537327.000000 0 0 1
29.213951 -29.576856 -14.079844 43.891768 -0.791571 1.897355 0.007209 0.006721 772947.000000 0 0 1
29.605051 -30.578056 -13.164944 44.551008 -0.801564 1.870778 0.010035 -0.002384 128772.000000 0 0 1
30.649451 -31.360156 -13.717944 45.945949 -0.796859 1.873987 0.009268 -0.010479 88287.400000 0 0 1
31.263551 -32.372856 -12.666344 46.753050 -0.802828 1.845145 0.010976 -0.006386 -419514.000000 0 0 1
32.332351 -33.067456 -13.225044 48.101345 -0.796638 1.849325 0.003637 -0.003522 -154966.000000 0 0 1
33.162751 -33.725656 -12.255544 48.860887 -0.793814 1.824329 0.004292 -0.001660 145995.000000 0 0 1
32.630151 33.820502 -11.610744 48.408289 0.803310 1.813008 -0.001515 -0.001665 -217514.000000 0 0 1
31.787051 34.068102 -10.511344 47.765474 0.820022 1.792674 -0.000509 -0.010981 -59949.600000 0 0 1
31.458451 32.881302 -9.725444 46.533841 0.807509 1.781346 0.015116 -0.006766 -502548.000000 0 0 1
30.750651 33.299702 -8.428644 46.103305 0.825175 1.754651 0.002166 -0.004200 -213117.000000 0 0 1
29.542851 33.953302 -8.745944 45.848645 0.854747 1.762729 0.016067 -0.014673 -334994.000000 0 0 1
29.049451 -34.204656 -7.584244 45.512085 -0.866718 1.738220 0.019943 -0.007746 290533.000000 0 0 1
27.951851 -33.163156 -7.794944 44.066564 -0.870463 1.748622 0.024864 -0.016160 -395241.000000 0 0 1
28.512851 -31.891956 -8.096144 43.538800 -0.841281 1.757837 0.020882 -0.019177 -258768.000000 0 0 1
27.665751 -30.967356 -8.690944 42.425269 -0.841648 1.777110 0.024929 -0.021485 -934896.000000 0 0 1
26.615451 -30.415156 -7.775444 41.157277 -0.851926 1.760859 0.036825 -0.024515 -486010.000000 0 0 1
25.799451 -29.435956 -8.425444 40.038422 -0.851140 1.782815 0.033933 -0.023427 111177.000000 0 0 1
24.632451 -29.242356 -7.663144 38.994830 -0.870757 1.768601 0.038896 -0.031309 -636951.000000 0 0 1
23.546251 -28.396956 -8.253144 37.801156 -0.878513 1.790900 0.053891 -0.029941 -421405.000000 0 0 1
22.525751 -29.082256 -8.976544 37.865095 -0.911766 1.810141 0.064078 -0.032491 630627.000000 0 0 1
21.593751 -28.189056 -9.596244 36.783160 -0.917113 1.834737 0.080699 -0.034805 1127270.000000 0 0 1
20.374951 -28.987256 -10.249844 36.884400 -0.958131 1.852394 0.059859 -0.026884 681980.000000 0 0 1
20.686751 -29.693256 -11.402544 37.942708 -0.962301 1.876034 0.051141 -0.024472 236003.000000 0 0 1
19.612851 -30.496456 -11.916044 38.166606 -0.999274 1.888316 0.048145 -0.024003 648796.000000 0 0 1
19.376351 -31.850856 -11.170744 38.919218 -1.024262 1.861915 0.048884 -0.025516 -397861.000000 0 0 1
20.509051 -32.640256 -11.288244 40.167548 -1.009802 1.855662 0.047874 -0.025110 -574099.000000 0 0 1
20.212151 -33.946856 -10.805144 40.959385 -1.033762 1.837757 0.046156 -0.022881 490051.000000 0 0 1
21.418451 33.900002 -10.806544 41.530008 1.007313 1.834037 0.024996 -0.013270 369374.000000 0 0 1
22.396451 34.217602 -9.821144 42.058295 0.991243 1.806485 0.023579 -0.011740 576906.000000 0 0 1
23.582651 33.425102 -10.079644 42.130489 0.956364 1.812388 0.023294 -0.013289 810397.000000 0 0 1
24.814851 34.056102 -9.351644 43.163041 0.941102 1.789187 0.024976 -0.012692 18952.000000 0 0 1
24.890051 33.727402 -7.970144 42.668202 0.935034 1.758694 0.018835 -0.013961 149962.000000 0 0 1
25.407351 32.421402 -7.766044 41.916491 0.906099 1.757147 0.013451 0.009916 -355236.000000 0 0 1
25.153151 31.869202 -6.365844 41.095632 0.902637 1.726326 0.005491 0.004352 -385815.000000 0 0 1
25.825651 32.535302 -5.342644 41.881427 0.899864 1.698711 0.014232 -0.003645 -95183.200000 0 0 1
26.793551 31.667202 -4.723044 41.749409 0.868572 1.684167 0.012543 -0.002675 174580.000000 0 0 1
26.318851 30.553702 -3.680644 40.493922 0.859723 1.661816 0.011816 0.009898 -418647.000000 0 0 1
26.140451 31.127602 -2.375444 40.717238 0.872263 1.629169 0.026711 0.004816 -26982.200000 0 0 1
26.115251 30.192502 -1.310144 39.941332 0.857682 1.603604 0.023094 0.011708 -115823.000000 0 0 1
24.938351 29.181602 -1.365844 38.410321 0.863643 1.606363 0.014396 0.012415 -368407.000000 0 0 1
23.768051 29.771702 -0.906144 38.106372 0.897066 1.594578 0.002102 0.009382 -209033.000000 0 0 1
22.546851 29.150902 -1.307444 36.876076 0.912454 1.606259 0.015866 0.010358 641099.000000 0 0 1
21.325451 29.697602 -0.546544 36.565299 0.948035 1.585744 0.024784 0.000869 -117777.000000 0 0 1
21.180151 29.265702 0.766656 36.134026 0.944328 1.549578 0.038128 -0.014497 166238.000000 0 0 1
20.069451 30.003602 1.251956 36.118781 0.981248 1.536127 0.041689 -0.016860 -556196.000000 0 0 1
19.287251 29.274502 2.371956 35.137169 0.988231 1.503239 0.048796 -0.033376 -459772.000000 0 0 1
18.562051 28.222902 1.752956 33.825357 0.989031 1.518949 0.061651 -0.027534 165037.000000 0 0 1
17.986551 27.366402 2.735356 32.862108 0.989342 1.487463 0.056860 -0.032891 -248043.000000 0 0 1
17.827351 25.940302 2.088956 31.544848 0.968682 1.504526 0.042492 -0.019058 1168950.000000 0 0 1
18.998251 25.149502 1.658956 31.562369 0.923840 1.518211 0.039539 -0.019219 1602470.000000 0 0 1
19.720551 24.544002 2.755456 31.605390 0.893939 1.483502 0.044754 -0.016103 -181168.000000 0 0 1
20.906651 23.672302 2.297056 31.666108 0.847358 1.498193 0.043651 -0.006719 -429662.000000 0 0 1
20.535951 22.608102 1.514256 30.580133 0.833390 1.521258 0.040532 -0.000556 586034.000000 0 0 1
21.665551 21.822002 1.151056 30.772078 0.788996 1.533382 0.030340 -0.002974 323994.000000 0 0 1
21.257251 20.884502 -0.067344 29.799961 0.776553 1.573056 0.040332 -0.005245 -197321.000000 0 0 1
21.092451 21.542302 -1.311544 30.177515 0.795949 1.614271 0.029959 -0.000747 433821.000000 0 0 1
21.250251 20.654502 -2.385844 29.730016 0.771182 1.651133 0.051733 -0.009470 -79068.800000 0 0 1
21.124651 21.315602 -3.752744 30.243823 0.789897 1.695200 0.029928 -0.003523 353722.000000 0 0 1
22.180251 22.261602 -3.951244 31.672619 0.787229 1.695875 0.027248 0.000340 798796.000000 0 0 1
21.915751 22.958002 -5.167844 32.157061 0.808620 1.732203 0.014337 0.005201 -146442.000000 0 0 1
22.862051 24.157202 -5.405844 33.696690 0.812936 1.731919 0.020221 0.015795 -234264.000000 0 0 1
22.706651 25.304402 -4.539744 34.300350 0.839453 1.703539 0.007390 0.018826 -10400.800000 0 0 1
23.042751 25.154502 -3.191344 34.262253 0.829185 1.664076 0.021119 0.013519 -177327.000000 0 0 1
21.899851 24.930302 -2.155944 33.253143 0.850020 1.635676 0.020162 0.004201 -1243430.000000 0 0 1
20.971451 26.031102 -2.130544 33.495660 0.892632 1.634446 0.030997 0.000981 533387.000000 0 0 1
19.822351 25.726702 -1.381644 32.506887 0.914306 1.613312 0.042458 -0.002990 122649.000000 0 0 1
18.922851 24.553402 -1.942444 31.059892 0.914190 1.633376 0.050836 -0.014767 -1361490.000000 0 0 1
18.297051 24.853302 -3.184044 31.025906 0.936185 1.673603 0.048116 -0.016869 203178.000000 0 0 1
17.500851 23.820702 -3.685144 29.787345 0.937165 1.694829 0.039462 -0.018506 1333.740000 0 0 1
16.939051 24.095502 -5.125044 29.896333 0.958062 1.743074 0.044746 -0.014446 132819.000000 0 0 1
16.252351 22.924502 -5.603344 28.654304 0.954088 1.767614 0.036407 -0.018887 393761.000000 0 0 1
15.900451 23.062202 -6.961844 28.864455 0.967180 1.814389 0.037159 -0.012217 95516.600000 0 0 1
15.275351 21.849602 -7.650144 27.735647 0.960666 1.850243 0.043107 -0.016318 -41651.000000 0 0 1
16.303251 20.930102 -7.889244 27.678608 0.909031 1.859834 0.021482 -0.006884 257899.000000 0 0 1
15.680551 19.766502 -8.421944 26.599312 0.900161 1.892963 0.046405 -0.010409 277709.000000 0 0 1
16.607651 18.557102 -8.784844 26.407453 0.840779 1.909925 0.041547 -0.000064 -263021.000000 0 0 1
17.418051 18.860602 -9.877344 27.507685 0.825140 1.938074 0.016144 0.002478 -11303.200000 0 0 1
18.013451 17.638902 -10.396844 27.271040 0.774893 1.961935 0.019040 -0.000369 713.495000 0 0 1
19.397551 17.993102 -10.988144 28.648839 0.747854 1.964429 0.012634 0.002384 -170148.000000 0 0 1
19.420651 18.346902 -12.356144 29.435434 0.756975 2.003989 0.012056 0.002285 849581.000000 0 0 1
20.690551 18.953202 -12.651344 30.779527 0.741602 1.994381 0.016941 0.000508 632755.000000 0 0 1
20.762651 19.268102 -14.190444 31.681479 0.748080 2.035222 0.024332 -0.004681 -65059.200000 0 0 1
20.752251 18.104902 -14.951444 31.336705 0.717373 2.068174 0.029533 -0.003607 235101.000000 0 0 1
20.593851 18.399502 -16.322444 32.079129 0.729182 2.104608 0.035297 -0.007690 -95646.400000 0 0 1
20.652051 17.174302 -17.312244 31.955870 0.693716 2.143320 0.033677 -0.016629 -657776.000000 0 0 1
21.981151 16.772302 -17.448744 32.694644 0.651789 2.133752 0.044481 -0.008790 -311182.000000 0 0 1
22.075851 15.773302 -18.439644 32.804888 0.620395 2.167720 0.046790 -0.018431 332606.000000 0 0 1
23.200151 16.161002 -19.473944 34.331610 0.608434 2.173936 0.054762 -0.013457 712530.000000 0 0 1
24.500651 16.450802 -18.967444 35.080973 0.591302 2.142037 0.064814 -0.013045 -253236.000000 0 0 1
25.343851 16.702402 -19.986244 36.341862 0.582698 2.153102 0.072280 -0.013127 -984013.000000 0 0 1
26.742151 17.080802 -19.476044 37.231878 0.568406 2.121282 0.054111 -0.008118 -339471.000000 0 0 1
26.743051 18.335802 -18.800944 37.481567 0.601015 2.096249 0.046310 -0.012531 443829.000000 0 0 1
28.024351 18.761002 -18.337344 38.387467 0.589930 2.068821 0.044883 -0.018614 242377.000000 0 0 1
27.912451 19.981402 -17.393944 38.482601 0.621291 2.039797 0.033907 -0.016771 -56305.500000 0 0 1
27.252151 19.670302 -16.215844 37.316941 0.625200 2.020328 0.026341 -0.020603 -575026.000000 0 0 1
25.927751 20.099102 -16.187344 36.582130 0.659433 2.029173 0.024011 -0.019115 -959659.000000 0 0 1
25.092751 19.521502 -15.039644 35.169960 0.661165 2.012663 0.019633 -0.006477 -115978.000000 0 0 1
25.596951 19.842602 -13.796344 35.203293 0.659431 1.973498 0.019241 -0.008853 425549.000000 0 0 1
24.620951 19.450502 -12.820844 33.895240 0.668612 1.958700 0.029136 -0.006886 158561.000000 0 0 1
24.830851 19.770802 -11.329244 33.701744 0.672431 1.913635 0.033128 -0.006379 -363602.000000 0 0 1
24.837651 21.177702 -11.130044 34.485966 0.706028 1.899421 0.025117 -0.010634 70126.300000 0 0 1
25.383051 21.600002 -9.903944 34.769922 0.705052 1.859638 0.020931 -0.002722 75591.600000 0 0 1
24.568051 21.273402 -8.597244 33.616355 0.713651 1.829415 0.020997 0.001553 -671330.000000 0 0 1
24.784151 19.962302 -8.026944 32.820412 0.678053 1.817874 0.036015 0.001952 1102750.000000 0 0 1
23.785651 19.725202 -6.976544 31.678272 0.692347 1.792848 0.029415 0.001333 2114980.000000 0 0 1
22.293151 19.508302 -7.478144 30.552922 0.718876 1.818069 0.023358 -0.004433 901357.000000 0 0 1
21.606451 20.743602 -7.812144 30.954246 0.765027 1.825932 0.028694 0.002519 606835.000000 0 0 1
20.258351 20.473702 -8.202144 29.947427 0.790685 1.848226 0.036080 0.000406 535259.000000 0 0 1
19.437451 21.803002 -8.250544 30.352213 0.842695 1.846087 0.023436 -0.002973 -723115.000000 0 0 1
19.730651 22.653602 -9.333044 31.457749 0.854252 1.872016 0.025809 -0.005999 145543.000000 0 0 1
19.181751 22.356602 -10.625944 31.315617 0.861682 1.916988 0.021661 0.005496 518486.000000 0 0 1
17.660051 22.709402 -10.719244 30.700106 0.909830 1.927471 0.031008 -0.000125 216945.000000 0 0 1
17.519651 24.108902 -10.593844 31.629209 0.942383 1.912336 0.049476 -0.015845 201477.000000 0 0 1
16.155751 24.474402 -10.722244 31.224528 0.987348 1.921322 0.049478 -0.014872 343433.000000 0 0 1
15.818851 25.766002 -9.926044 31.822150 1.020188 1.888012 0.062731 -0.013831 236682.000000 0 0 1
16.564851 26.898802 -10.403944 33.259312 1.018825 1.888950 0.071291 -0.008312 319214.000000 0 0 1
16.293651 28.066002 -9.684144 33.866889 1.044803 1.860791 0.075168 -0.031449 -8155.090000 0 0 1
19.599751 29.617002 33.942279 49.126320 0.986189 0.808038 0.026642 -0.002591 -71762.600000 0 0 1
18.206251 29.668602 34.093510 48.724336 1.020398 0.795787 0.038685 -0.009638 -479092.000000 0 0 1
17.502151 28.436802 34.116557 47.737998 1.019076 0.774655 0.035909 -0.002853 -134934.000000 0 0 1
15.998351 28.722302 34.193556 47.435399 1.062594 0.765776 0.030357 -0.003938 -320048.000000 0 0 1
15.485151 29.150302 32.931431 46.626271 1.082488 0.786560 0.042127 -0.004176 -881085.000000 0 0 1
14.227051 29.720102 33.019620 46.647494 1.124332 0.784341 0.032566 -0.008558 -865111.000000 0 0 1
13.550051 29.724002 31.626577 45.468236 1.143078 0.801576 0.038301 -0.010907 -159810.000000 0 0 1
13.279751 28.458102 31.131317 44.219613 1.134189 0.789760 0.025886 -0.008267 -128099.000000 0 0 1
11.901251 28.200002 31.236817 43.733495 1.171444 0.775239 0.004884 0.001787 -234418.000000 0 0 1
11.405151 26.700502 31.140807 42.576333 1.167105 0.750407 -0.006309 0.012536 76515.200000 0 0 1
11.472251 26.065502 29.862317 41.264765 1.156179 0.761682 -0.002547 0.010187 748208.000000 0 0 1
12.787551 25.557902 29.605607 41.148751 1.106880 0.767746 -0.000028 0.015361 469423.000000 0 0 1
12.811851 24.813602 28.273407 39.739701 1.094175 0.779216 0.019959 0.006968 -90893.800000 0 0 1
12.710151 25.624802 27.127017 39.421484 1.110346 0.811891 0.014725 0.006860 57693.600000 0 0 1
12.892451 24.942002 25.884987 38.188366 1.093723 0.825998 0.029613 0.006642 -366508.000000 0 0 1
11.910151 23.853102 25.471077 36.872726 1.107699 0.808224 0.023013 0.003072 -664336.000000 0 0 1
12.037451 23.454002 24.134367 35.741545 1.096616 0.829497 0.035594 -0.007520 243109.000000 0 0 1
11.052351 22.501802 23.769227 34.546515 1.114233 0.812018 0.040201 -0.014506 151889.000000 0 0 1
11.100951 22.130502 22.278857 33.306721 1.105859 0.838069 0.052652 -0.016936 11927.700000 0 0 1
10.689551 23.215502 21.495357 33.395754 1.139287 0.871531 0.065089 -0.021665 106886.000000 0 0 1
10.731251 22.952502 20.073857 32.325482 1.133451 0.900789 0.075085 -0.020218 -500407.000000 0 0 1
10.333951 24.172902 19.226457 32.569562 1.166809 0.939341 0.068371 -0.026930 1153020.000000 0 0 1
8.960351 24.609202 19.125557 32.429733 1.221611 0.940042 0.072012 -0.028201 843261.000000 0 0 1
8.308151 25.093702 20.284157 33.319157 1.251071 0.916270 0.068817 -0.031934 -649893.000000 0 0 1
7.003151 25.766702 19.884457 33.292021 1.305416 0.930698 0.068094 -0.031196 -409154.000000 0 0 1
7.144851 26.891802 18.962557 33.671894 1.311107 0.972595 0.075190 -0.034224 648813.000000 0 0 1
5.804151 27.337702 18.706657 33.630003 1.361590 0.980931 0.049905 -0.030278 702358.000000 0 0 1
5.701751 28.444902 17.644057 33.954898 1.372969 1.024376 0.045711 -0.023024 -180381.000000 0 0 1
5.873651 27.853602 16.323857 32.814497 1.362965 1.050130 0.042086 -0.016819 -248729.000000 0 0 1
6.590151 28.776602 15.553457 33.368142 1.345668 1.085900 0.040903 -0.013479 208048.000000 0 0 1
7.531151 28.139002 14.502557 32.539911 1.309284 1.108857 0.044155 -0.011953 534745.000000 0 0 1
6.938951 28.300602 13.166157 31.975315 1.330352 1.146412 0.026537 -0.012169 292496.000000 0 0 1
6.508551 27.060602 12.598257 30.550834 1.334762 1.145742 0.003507 -0.011658 -109707.000000 0 0 1
5.729451 27.255402 11.279457 30.048455 1.363600 1.185994 -0.007490 -0.007598 -1277670.000000 0 0 1
6.403351 27.767102 10.146157 30.248295 1.344149 1.228736 -0.004130 -0.001876 -32266.200000 0 0 1
6.712251 29.129702 10.192557 31.582939 1.344323 1.242191 -0.009398 -0.000416 -309008.000000 0 0 1
6.988751 29.734002 8.790757 31.784130 1.339944 1.290566 -0.008286 0.008991 -82878.400000 0 0 1
5.860251 29.725402 7.919057 31.315388 1.376146 1.315140 -0.010707 -0.001500 195989.000000 0 0 1
5.761651 28.456302 7.225757 29.919380 1.371023 1.326877 -0.015630 0.014115 -1148130.000000 0 0 1
4.387751 28.166002 6.720457 29.287208 1.416257 1.339266 -0.014994 0.014786 -1037350.000000 0 0 1
3.914751 29.093002 5.757357 29.914464 1.437040 1.377127 -0.023403 0.012050 562695.000000 0 0 1
2.485451 29.059002 5.631657 29.703848 1.485473 1.380048 -0.003664 0.002509 1011160.000000 0 0 1
1.941551 30.260702 4.774957 30.696578 1.506723 1.414609 0.009759 -0.003140 -394042.000000 0 0 1
2.136351 30.127802 3.331657 30.386648 1.500005 1.460933 -0.005181 0.002745 107444.000000 0 0 1
1.060351 30.776902 2.705157 30.913749 1.536357 1.483178 0.002631 -0.002010 262634.000000 0 0 1
-0.234549 29.973202 2.490057 30.077370 -1.562971 1.487913 0.034516 -0.004709 -373763.000000 0 0 1
-0.123349 29.123202 1.387657 29.156503 -1.566561 1.523185 0.039235 -0.001621 416911.000000 0 0 1
-1.241649 28.230002 1.246257 28.284763 -1.526841 1.526721 0.044412 -0.008355 590775.000000 0 0 1
-1.690749 27.751602 -0.160543 27.803521 -1.509947 1.576571 0.050776 -0.010966 245116.000000 0 0 1
-2.554549 28.636102 -0.864143 28.762802 -1.481825 1.600845 0.049960 -0.009069 467186.000000 0 0 1
-1.834449 29.677902 -1.481743 29.771439 -1.509063 1.620588 0.044243 -0.002574 -81864.500000 0 0 1
-2.841649 30.692702 -2.048443 30.891957 -1.478476 1.637155 0.048509 0.001086 577582.000000 0 0 1
-3.909049 30.221002 -2.876043 30.608189 -1.442162 1.664898 0.012885 0.001771 649919.000000 0 0 1
-3.451849 29.689902 -4.075743 30.166491 -1.455053 1.706319 0.021066 0.002704 -414881.000000 0 0 1
-4.627949 29.318402 -4.983543 30.096882 -1.414237 1.737146 0.008285 0.001994 -118873.000000 0 0 1
-5.384449 30.318302 -5.578943 31.294030 -1.395032 1.750029 0.009174 0.008097 392297.000000 0 0 1
-6.670449 29.813202 -5.957043 31.125685 -1.350680 1.763371 0.001579 -0.002505 162483.000000 0 0 1
-7.353749 30.828202 -6.871743 32.429562 -1.336633 1.784312 0.008023 -0.000113 -648268.000000 0 0 1
-7.905749 31.922802 -6.177843 33.462395 -1.328029 1.756482 0.008203 0.005779 19789.800000 0 0 1
-8.219349 32.999102 -7.025743 34.725487 -1.326686 1.774525 0.007347 -0.003492 -26772.400000 0 0 1
-9.316349 33.903702 -6.403543 35.738784 -1.302627 1.750945 0.018767 -0.003641 -122790.000000 0 0 1
-10.607649 33.361602 -6.424843 35.592096 -1.262945 1.752305 0.022521 -0.005170 -942769.000000 0 0 1
-11.458949 34.258402 -5.774543 36.582659 -1.248009 1.729308 0.029043 -0.007841 247927.000000 0 0 1
-12.959949 33.882102 -5.990043 36.767346 -1.205465 1.734443 0.048450 -0.008936 450237.000000 0 0 1
-13.387849 34.197202 -7.284143 37.439843 -1.197648 1.766601 0.049706 -0.009287 -782827.000000 0 0 1
-14.704549 33.822002 -7.525543 37.640209 -1.160686 1.772087 0.049666 -0.013931 -943557.000000 0 0 1
-15.207549 -34.381756 -8.832943 38.618591 1.154352 1.801562 0.065472 -0.008424 -1161800.000000 0 0 1
-16.467349 33.964002 -9.045443 38.814263 -1.119344 1.806003 0.082353 -0.013241 -546327.000000 0 0 1
-17.493049 -33.859056 -8.950443 39.147833 1.093923 1.801468 0.077394 -0.023220 -209134.000000 0 0 1
-18.860349 34.329902 -9.261543 40.249610 -1.068425 1.802980 0.069162 -0.019671 15265.000000 0 0 1
-19.422649 33.492102 -8.226443 39.580734 -1.045274 1.780162 0.064039 -0.014657 251643.000000 0 0 1
-19.736249 34.183102 -7.024743 40.091782 -1.047184 1.746922 0.061061 -0.013432 -938078.000000 0 0 1
-20.047349 33.206702 -5.902443 39.235444 -1.027650 1.721806 0.044497 -0.014932 -683569.000000 0 0 1
-19.768649 33.799002 -4.646843 39.430510 -1.041562 1.688920 0.037451 -0.018475 -315492.000000 0 0 1
-20.863949 34.090502 -3.840043 40.152367 -1.021588 1.666580 0.022275 -0.012635 -519327.000000 0 0 1
-21.635249 -33.476856 -4.138343 40.073804 0.997044 1.674249 0.031680 -0.023231 -334833.000000 0 0 1
-22.332749 -33.515356 -5.339943 40.626909 0.983017 1.702616 0.042404 -0.017805 -471920.000000 0 0 1
-23.267049 -32.505956 -5.475343 40.348136 0.949559 1.706919 0.031954 -0.024083 -319620.000000 0 0 1
-23.975349 -32.450856 -6.834543 40.921710 0.934489 1.738598 0.038024 -0.021852 -404403.000000 0 0 1
-23.153149 -31.957656 -7.834143 40.233492 0.943819 1.766765 0.061410 -0.024423 -131291.000000 0 0 1
-23.527949 -32.391756 -9.149843 41.067138 0.942600 1.795484 0.030218 -0.017355 828212.000000 0 0 1
-24.761349 -31.752556 -9.915043 41.468751 0.908481 1.812232 0.019890 -0.012685 1107610.000000 0 0 1
-26.038079 -32.152656 -9.353443 42.417705 0.890092 1.793132 0.026762 -0.010392 1462530.000000 0 0 1
-27.179259 -31.533856 -9.999043 42.814449 0.859430 1.806517 -0.007139 -0.004346 724679.000000 0 0 1
-27.351839 -30.012456 -10.081743 41.839122 0.831746 1.814156 -0.013083 -0.000697 -781822.000000 0 0 1
-26.335489 -29.318056 -10.786943 40.859081 0.838939 1.837967 -0.015177 0.004476 34351.500000 0 0 1
-26.614639 -29.411556 -12.202243 41.500281 0.835278 1.869235 -0.009944 0.007038 -175561.000000 0 0 1
-25.562599 -28.755856 -13.113843 40.648722 0.844118 1.899286 -0.001514 0.010712 -153573.000000 0 0 1
-24.376649 -29.522156 -13.169443 40.487195 0.880576 1.902098 0.007523 -0.001144 116423.000000 0 0 1
-23.433649 -28.907556 -14.067543 39.782891 0.889601 1.932222 0.020041 0.001082 1015800.000000 0 0 1
-22.113249 -29.753656 -14.285743 39.728557 0.931654 1.938618 0.041774 -0.015332 572724.000000 0 0 1
-22.136749 -31.038656 -14.894443 40.930163 0.951267 1.943247 0.039161 -0.008817 -355176.000000 0 0 1
-22.719649 -32.023056 -14.100543 41.719107 0.953738 1.915574 0.023849 -0.005902 -381398.000000 0 0 1
-22.973649 -33.277656 -14.939243 43.108838 0.966568 1.924684 0.015781 -0.005528 -309784.000000 0 0 1
-23.375049 -34.357256 -14.125743 43.890210 0.973379 1.898471 0.008970 -0.012653 -119945.000000 0 0 1
-23.467049 33.223202 -14.755643 43.269071 -0.955825 1.918799 0.016910 -0.017089 -174931.000000 0 0 1
-23.834549 32.164202 -13.699943 42.312055 -0.933063 1.900522 -0.000441 -0.014918 26601.800000 0 0 1
-22.896049 31.929202 -12.630743 41.270312 -0.948694 1.881837 0.001636 -0.011579 439245.000000 0 0 1
-22.829549 32.903402 -11.586043 41.690029 -0.964220 1.852413 0.035244 -0.011706 137825.000000 0 0 1
-22.103749 32.401902 -10.319943 40.558109 -0.972134 1.828074 0.039119 -0.007186 53705.600000 0 0 1
-22.945349 31.551502 -9.575543 40.170603 -0.942025 1.811485 0.039667 0.002129 213811.000000 0 0 1
-22.356849 31.140502 -8.327043 39.228805 -0.948135 1.784692 0.038909 0.001467 256908.000000 0 0 1
-23.248449 30.106702 -7.549043 38.780045 -0.913237 1.766710 0.032247 -0.001667 88995.900000 0 0 1
-23.419249 28.918502 -8.314243 38.129616 -0.890086 1.790614 0.029783 0.009571 47893.900000 0 0 1
-23.857349 27.773202 -7.555743 37.384664 -0.861097 1.774306 0.017967 0.004887 -134360.000000 0 0 1
-22.907649 27.143802 -6.480243 36.104569 -0.869833 1.751260 0.020967 0.002162 -175293.000000 0 0 1
-22.824849 27.752202 -5.170143 36.302738 -0.882514 1.713700 0.030661 0.002208 -437962.000000 0 0 1
-21.884049 27.058802 -4.385843 35.076003 -0.890737 1.696163 0.032818 0.006072 678833.000000 0 0 1
-20.526449 27.900902 -4.437043 34.921093 -0.936516 1.698200 0.033302 -0.003337 719220.000000 0 0 1
-19.716649 27.632602 -5.575643 34.400504 -0.951048 1.733595 0.038002 -0.009126 56769.400000 0 0 1
-18.530549 28.398702 -5.518743 34.355844 -0.992656 1.732130 0.053997 -0.009491 418260.000000 0 0 1
-17.575949 28.341202 -6.778243 34.030608 -1.015688 1.771318 0.067898 -0.011128 215200.000000 0 0 1
-17.941349 28.944002 -8.057643 34.993897 -1.015899 1.803140 0.071194 -0.011829 154130.000000 0 0 1
-17.826649 30.374202 -8.185943 36.157865 -1.040064 1.799171 0.072276 -0.012155 -75983.200000 0 0 1
-17.936849 30.905002 -9.618643 37.004972 -1.044923 1.833744 0.073147 -0.014388 171278.000000 0 0 1
-16.707949 30.867302 -10.341843 36.590977 -1.074670 1.857335 0.071841 -0.020292 443162.000000 0 0 1
-16.776949 31.507002 -11.575743 37.525391 -1.081501 1.884389 0.068308 -0.016792 536559.000000 0 0 1
-15.305749 31.683202 -12.091143 37.206007 -1.120770 1.901785 0.063397 -0.017290 820579.000000 0 0 1
-15.083849 32.324402 -13.371843 38.094562 -1.134191 1.929453 0.061394 -0.012142 -247275.000000 0 0 1
-15.410849 31.514702 -14.490743 37.955926 -1.115983 1.962516 0.061583 -0.019265 -119431.000000 0 0 1
-14.968049 32.029202 -15.856343 38.747076 -1.133629 1.992403 0.091136 -0.023230 319754.000000 0 0 1
-13.584449 31.910402 -16.132343 38.250013 -1.168328 2.006182 0.073293 -0.029704 -169808.000000 0 0 1
-13.272149 32.238702 -17.450343 38.987156 -1.180259 2.034867 0.057018 -0.036126 -280379.000000 0 0 1
-11.790849 32.289102 -17.827243 38.722355 -1.220676 2.049227 0.072425 -0.036899 -512300.000000 0 0 1
-11.121849 31.039502 -17.610143 37.379986 -1.226735 2.061347 0.072136 -0.037815 686086.000000 0 0 1
-9.722549 31.006502 -17.912043 37.104884 -1.266942 2.074578 0.068265 -0.032171 893733.000000 0 0 1
-9.360549 31.082802 -19.395143 37.814442 -1.278286 2.109359 0.072829 -0.035648 -715884.000000 0 0 1
-10.123049 30.135202 -20.080943 37.601207 -1.246719 2.134181 0.059122 -0.037810 76482.400000 0 0 1
-10.059849 30.253302 -21.490543 38.448749 -1.249777 2.163903 0.071441 -0.042278 188190.000000 0 0 1
-11.402849 29.775902 -22.190743 38.846600 -1.205069 2.178812 0.072369 -0.041510 636146.000000 0 0 1
-12.211749 30.881602 -22.450443 40.085191 -1.194229 2.165265 0.065472 -0.037270 -904166.000000 0 0 1
-13.279249 30.916702 -21.549643 39.957077 -1.165106 2.140426 0.061410 -0.033443 -441620.000000 0 0 1
-14.170149 32.176502 -21.853443 41.396780 -1.155964 2.126925 0.081544 -0.034368 370437.000000 0 0 1
-15.023049 32.010602 -22.992443 42.178467 -1.131997 2.147332 0.062922 -0.033165 192124.000000 0 0 1
-15.622249 33.231402 -23.403943 43.544521 -1.131349 2.138232 0.053088 -0.028981 353638.000000 0 0 1
-16.095549 33.153802 -24.839143 44.443495 -1.118831 2.163846 0.042513 -0.025430 652302.000000 0 0 1
-14.932749 33.168502 -25.680343 44.526582 -1.147769 2.185531 0.042506 -0.022011 534883.000000 0 0 1
-15.233949 33.131702 -27.054943 45.406528 -1.139823 2.209105 0.039541 -0.002777 91691.300000 0 0 1
-15.608149 -34.328756 -27.640643 46.755566 1.144068 2.203309 0.029294 0.007017 1116620.000000 0 0 1
-16.893049 -33.867956 -27.153343 46.580227 1.108116 2.193135 0.021839 0.008580 651224.000000 0 0 1
-17.320149 -32.804956 -27.970443 46.459642 1.085021 2.216847 0.020627 0.010321 -70032.100000 0 0 1
-18.759249 -32.322056 -27.673743 46.502266 1.044924 2.208193 0.017944 -0.005954 -284449.000000 0 0 1
-19.671849 -33.246956 -28.161043 47.805712 1.036510 2.200707 0.009994 -0.001638 -2392000.000000 0 0 1
-20.897949 -32.901656 -27.695043 47.814837 1.004921 2.188561 0.020062 -0.000872 -898837.000000 0 0 1
-22.052149 -33.927056 -27.891043 49.145220 0.994430 2.174291 0.009233 0.005150 379468.000000 0 0 1
-21.839649 33.737002 -27.229543 48.544861 -0.996286 2.166287 0.016313 -0.005046 -442794.000000 0 0 1
-23.034349 33.001102 -27.269743 48.613710 -0.961422 2.166326 0.009951 -0.004352 -56593.600000 0 0 1
-22.919649 31.548202 -26.789643 47.310510 -0.942508 2.172747 0.008669 -0.003819 168306.000000 0 0 1
-22.465849 31.435702 -25.456643 46.270492 -0.950299 2.153364 0.010186 -0.009832 -261134.000000 0 0 1
-22.794749 30.170602 -24.948043 45.301994 -0.923766 2.154005 0.008082 -0.008039 -147402.000000 0 0 1
31.145635 9.672702 -26.494184 42.018490 0.301120 2.253040 0.005602 0.003261 -418985.000000 0 0 1
30.634925 8.418002 -26.255524 41.215457 0.268166 2.261437 0.010970 0.002247 796405.000000 0 0 1
29.197585 8.475402 -26.431904 40.286188 0.282513 2.286440 0.015514 -0.001705 1175160.000000 0 0 1
28.689205 7.063402 -26.004974 39.360142 0.241403 2.292538 0.019595 -0.002204 -81462.100000 0 0 1
28.944475 6.782402 -24.644144 38.614989 0.230172 2.262956 0.008116 -0.003499 162076.000000 0 0 1
28.340615 5.552802 -24.277444 37.728216 0.193480 2.269835 0.008923 -0.004109 29255.600000 0 0 1
28.307205 5.351102 -22.771944 36.721840 0.186832 2.239692 0.005676 -0.003445 -90334.300000 0 0 1
29.600995 5.171302 -22.234044 37.380663 0.172955 2.207814 0.007377 0.000044 328370.000000 0 0 1
29.446355 4.884402 -20.885644 36.430143 0.164378 2.181332 0.001689 -0.002502 -44199.800000 0 0 1
30.811705 4.591402 -20.189944 37.122445 0.147926 2.145843 -0.001174 -0.002768 243751.000000 0 0 1
31.376585 3.299702 -20.454244 37.599923 0.104779 2.145990 0.008109 -0.003072 788094.000000 0 0 1
32.323985 3.097302 -19.376844 37.813957 0.095529 2.108804 0.009346 -0.007890 295843.000000 0 0 1
32.949525 1.676802 -19.314744 38.230121 0.050846 2.100437 0.016919 -0.013791 -125375.000000 0 0 1
32.047715 0.684002 -18.904844 37.214473 0.021340 2.103654 0.018972 -0.004655 -226788.000000 0 0 1
32.755475 -0.508298 -18.736944 37.739271 -0.015517 2.090340 0.032671 -0.001690 -362454.000000 0 0 1
31.978195 -1.805298 -18.422944 36.949545 -0.056394 2.092776 0.009825 0.000179 22103.600000 0 0 1
31.552985 -2.069498 -17.037644 35.918727 -0.065494 2.065009 0.019634 -0.002965 153469.000000 0 0 1
30.344175 -1.409098 -16.708444 34.668813 -0.046404 2.073669 0.007430 -0.009127 -323409.000000 0 0 1
29.886605 -1.862698 -15.279344 33.617512 -0.062245 2.042613 0.020992 -0.010243 -372319.000000 0 0 1
29.580785 -3.249998 -15.108144 33.374261 -0.109430 2.040574 0.017512 -0.010808 221500.000000 0 0 1
28.810505 -3.504698 -13.989144 32.218383 -0.121052 2.019944 0.030859 -0.015882 -640117.000000 0 0 1
28.591525 -4.964498 -13.509944 32.010000 -0.171921 2.006506 0.024944 -0.015244 269832.000000 0 0 1
27.841575 -5.742598 -14.496944 31.910689 -0.203407 2.042380 0.019509 -0.011551 802208.000000 0 0 1
27.522035 -6.951598 -13.903344 31.608386 -0.247408 2.026242 0.014536 -0.006045 -345092.000000 0 0 1
26.912085 -8.056298 -14.811044 31.757381 -0.290866 2.055992 0.005131 0.003053 -132561.000000 0 0 1
25.641235 -7.689298 -15.310244 30.838317 -0.291347 2.090322 0.012792 0.002372 -26565.100000 0 0 1
25.388935 -8.542898 -16.369644 31.393381 -0.324581 2.119329 0.008058 0.004104 -363806.000000 0 0 1
24.088835 -8.160598 -17.074844 30.633603 -0.326636 2.162034 0.000193 0.002855 -563105.000000 0 0 1
23.883635 -6.826298 -17.562144 30.421296 -0.278393 2.186212 -0.001775 0.004974 118878.000000 0 0 1
22.596735 -6.649998 -18.147744 29.735089 -0.286210 2.227253 0.028315 0.000771 454312.000000 0 0 1
22.317335 -7.224398 -19.594344 30.564582 -0.313067 2.266701 0.010753 0.008046 -345807.000000 0 0 1
22.972135 -6.384298 -20.468144 31.423290 -0.271074 2.280183 0.011843 -0.001609 93176.400000 0 0 1
22.744035 -6.789798 -21.795344 32.224672 -0.290109 2.313600 0.018362 -0.000803 -88906.900000 0 0 1
23.200435 -5.774298 -22.804244 33.039919 -0.243931 2.332566 0.018323 0.002064 -131335.000000 0 0 1
22.771735 -6.060998 -24.157844 33.747430 -0.260132 2.368626 0.015843 0.000537 218773.000000 0 0 1
23.154035 -5.093398 -25.126814 34.545749 -0.216530 2.385247 0.013726 -0.003124 -459775.000000 0 0 1
23.129435 -5.531998 -26.604934 35.684678 -0.234765 2.412165 0.019847 -0.004471 290797.000000 0 0 1
21.866835 -5.902498 -27.176894 35.377698 -0.263646 2.446810 0.025163 -0.004187 232651.000000 0 0 1
21.823535 -6.181698 -28.557994 36.469701 -0.276028 2.470368 0.016137 -0.006075 -201955.000000 0 0 1
20.556035 -6.926698 -28.970024 36.191048 -0.325017 2.498883 0.015278 -0.011653 -221809.000000 0 0 1
20.584835 -8.248198 -28.563554 36.161372 -0.381104 2.481428 0.012889 -0.005849 -303892.000000 0 0 1
19.514735 -8.930098 -29.155634 36.202521 -0.429163 2.507059 0.007013 -0.008572 -392879.000000 0 0 1
19.372835 -10.403998 -28.943034 36.348990 -0.492839 2.491874 0.017085 0.001505 -321126.000000 0 0 1
18.818735 -10.766298 -27.680084 35.160276 -0.519656 2.477140 0.013715 -0.007797 337641.000000 0 0 1
18.776335 -12.106698 -27.221684 35.215664 -0.572700 2.454352 0.020422 -0.007585 -292069.000000 0 0 1
18.693735 -13.325898 -28.207694 36.369070 -0.619301 2.458455 0.019535 0.001057 -236524.000000 0 0 1
17.521335 -13.402498 -28.985904 36.425359 -0.652985 2.491061 0.022842 -0.004191 237954.000000 0 0 1
17.491435 -14.583998 -29.741284 37.459141 -0.695001 2.488101 0.029321 -0.007090 22470.500000 0 0 1
16.276135 -14.769798 -30.706594 37.761811 -0.736917 2.520366 0.029498 -0.012020 1436960.000000 0 0 1
15.035735 -15.168398 -30.022184 36.844065 -0.789790 2.523257 0.040991 -0.018255 1297330.000000 0 0 1
14.101635 -15.579298 -31.000044 37.450946 -0.835142 2.545883 0.046042 -0.026345 -937164.000000 0 0 1
12.930235 -16.249998 -30.337374 36.764244 -0.898679 2.541329 0.053643 -0.026623 -732857.000000 0 0 1
13.269935 -17.436698 -29.635284 36.856202 -0.920270 2.504920 0.048999 -0.027941 -517117.000000 0 0 1
12.169235 -17.844998 -28.933004 36.106134 -0.972294 2.500315 0.055190 -0.025958 -735243.000000 0 0 1
12.492535 -19.191298 -28.288654 36.395292 -0.993755 2.461098 0.051752 -0.017645 159756.000000 0 0 1
13.561735 -19.202098 -27.358824 36.071408 -0.955879 2.431748 0.053046 -0.017395 -97219.900000 0 0 1
13.565335 -20.324398 -26.539844 36.075792 -0.982258 2.397450 0.051032 -0.012729 228618.000000 0 0 1
14.637935 -20.412998 -25.429654 35.743908 -0.948693 2.362342 0.048088 -0.008202 -370329.000000 0 0 1
15.990735 -20.516298 -25.747854 36.600192 -0.908733 2.351092 0.042645 -0.009385 -200884.000000 0 0 1
16.740035 -20.731498 -24.562844 36.240269 -0.891518 2.315532 0.040623 -0.006484 -1249740.000000 0 0 1
18.205235 -21.002498 -24.728744 37.202772 -0.856622 2.297891 0.030894 -0.011211 -1170260.000000 0 0 1
18.626335 -22.297898 -25.199834 38.459956 -0.874875 2.285274 0.031939 -0.012927 251324.000000 0 0 1
18.324435 -23.384098 -24.304544 38.383744 -0.906118 2.256476 0.040698 -0.016452 -957611.000000 0 0 1
18.990335 -24.737798 -24.494644 39.655757 -0.916085 2.236588 0.035361 -0.016282 66938.100000 0 0 1
20.370535 -24.616698 -24.143644 40.048172 -0.879505 2.217884 0.045276 -0.012067 564783.000000 0 0 1
20.977735 -25.687108 -23.436544 40.609906 -0.885977 2.185987 0.056149 -0.020351 -192610.000000 0 0 1
20.653635 -25.725848 -21.953344 39.627531 -0.894329 2.157948 0.060535 -0.013960 -698588.000000 0 0 1
19.337135 -26.099898 -21.615944 39.017669 -0.933152 2.157962 0.060356 -0.013771 -1938.200000 0 0 1
19.105035 -25.925218 -20.230344 38.031383 -0.935714 2.131684 0.044986 -0.010760 92027.000000 0 0 1
17.820935 -26.574408 -19.691044 37.570229 -0.980072 2.122470 0.038304 -0.007369 -860957.000000 0 0 1
17.993935 -28.011108 -19.685644 38.677234 -0.999793 2.104787 0.041917 -0.002504 308847.000000 0 0 1
16.952435 -28.820508 -19.113844 38.514228 -1.039093 2.090105 0.028095 0.002667 338703.000000 0 0 1
15.556235 -28.681068 -19.750944 38.140528 -1.073817 2.115128 0.018964 0.006345 -601077.000000 0 0 1
14.891935 -27.541868 -19.255144 36.757105 -1.075120 2.122159 0.024688 0.008114 1394.610000 0 0 1
13.537835 -27.583498 -19.711644 36.505770 -1.114540 2.141186 0.014606 0.013268 894168.000000 0 0 1
12.452135 -26.720768 -18.999944 35.072111 -1.134709 2.143301 0.000709 0.005641 -623923.000000 0 0 1
12.139135 -27.196268 -17.702544 34.646438 -1.150979 2.107084 0.005618 0.009913 -154726.000000 0 0 1
11.302635 -26.282468 -17.013344 33.286207 -1.164661 2.107287 0.012015 0.000002 563235.000000 0 0 1
9.784835 -26.396188 -17.327744 33.056807 -1.215809 2.122549 0.019166 0.001774 -629411.000000 0 0 1
9.100435 -27.515178 -16.777744 33.487246 -1.251379 2.095572 0.021318 0.003929 478308.000000 0 0 1
7.708235 -27.174458 -16.743344 32.836072 -1.294399 2.105873 0.020566 0.012083 856134.000000 0 0 1
6.858835 -27.713548 -17.932544 33.714396 -1.328181 2.131634 0.016568 0.010107 -309600.000000 0 0 1
7.010235 -27.216918 -19.188244 34.030762 -1.318707 2.169836 0.012341 0.007797 -388961.000000 0 0 1
6.119535 -27.864618 -20.031244 34.858807 -1.354612 2.182960 0.014514 0.008653 -379900.000000 0 0 1
6.314235 -27.358928 -21.459844 35.339856 -1.343975 2.223381 0.005780 0.005408 -580622.000000 0 0 1
5.865935 -26.025318 -21.615744 34.336086 -1.349107 2.251750 0.000869 0.001810 144351.000000 0 0 1
5.699435 -25.654658 -23.001844 34.924631 -1.352187 2.289771 0.000470 0.002681 406748.000000 0 0 1
4.276935 -25.072158 -23.283644 34.482363 -1.401838 2.312077 -0.006076 0.002186 136681.000000 0 0 1
3.299135 -26.061268 -23.419644 35.193092 -1.444875 2.298908 -0.003501 0.002636 40905.000000 0 0 1
2.070535 -25.463248 -23.881444 34.971238 -1.489660 2.322505 0.000430 -0.002702 372381.000000 0 0 1
1.209235 -26.586098 -24.382244 36.093998 -1.525344 2.312467 -0.000686 -0.001120 -826039.000000 0 0 1
1.754835 -27.259838 -25.531314 37.390189 -1.506511 2.322432 -0.004286 0.002287 234715.000000 0 0 1
0.762935 -27.984438 -26.235414 38.366754 -1.543540 2.323762 0.006438 -0.006850 88095.100000 0 0 1
1.375535 -28.841138 -27.424744 39.822355 -1.523139 2.330459 0.000311 -0.004092 -296339.000000 0 0 1
1.933035 -28.021448 -28.444424 39.975285 -1.501921 2.362498 -0.001872 -0.008793 -10530.200000 0 0 1
2.224035 -28.877898 -29.551594 41.378449 -1.493933 2.366246 0.009921 -0.007288 451653.000000 0 0 1
3.680635 -29.441088 -29.589854 41.903272 -1.446425 2.354838 0.003513 -0.000903 117307.000000 0 0 1
4.102835 -30.335058 -28.587554 41.884332 -1.436362 2.322023 -0.001466 -0.008033 -99476.000000 0 0 1
5.393835 -30.844968 -28.849754 42.577151 -1.397678 2.315274 0.018110 -0.011867 302158.000000 0 0 1
5.875235 -31.956768 -27.842954 42.789993 -1.388977 2.279287 0.035850 -0.020514 153796.000000 0 0 1
5.022535 -33.087218 -27.921524 43.584417 -1.420150 2.266116 0.033399 -0.030915 154230.000000 0 0 1
5.450635 -34.211825 -27.188864 44.038537 -1.412804 2.236214 0.043204 -0.036810 672952.000000 0 0 1
4.216735 33.722428 -26.837234 43.303812 1.446400 2.239212 0.039109 -0.034668 553478.000000 0 0 1
3.506435 33.166489 -27.909894 43.488771 1.465465 2.267604 0.034832 -0.035323 -369094.000000 0 0 1
2.239535 32.755489 -27.494294 42.823752 1.502531 2.267944 0.029151 -0.037332 -800501.000000 0 0 1
1.182935 32.743249 -28.571234 43.472233 1.534684 2.287933 0.038978 -0.027988 -822878.000000 0 0 1
1.224535 31.785439 -29.610064 43.457675 1.532290 2.320407 0.062551 -0.033464 -197905.000000 0 0 1
0.248235 31.959889 -30.605534 44.251495 1.563029 2.334536 0.059176 -0.035913 -35621.600000 0 0 1
0.134135 30.821059 -31.625724 44.160413 1.566444 2.369075 0.066631 -0.030753 226876.000000 0 0 1
1.330735 30.679849 -32.378494 44.625002 1.527449 2.382656 0.070854 -0.031654 273423.000000 0 0 1
1.158235 29.590469 -33.274254 44.543387 1.531674 2.414346 0.070757 -0.025298 -639144.000000 0 0 1
2.300335 29.360799 -34.246458 45.168218 1.492609 2.431341 0.075191 -0.023059 -409892.000000 0 0 1
2.592735 30.469309 33.745558 45.539694 1.485908 0.736217 0.069064 -0.029659 133529.000000 0 0 1
3.431335 30.241209 32.607497 44.604412 1.457814 0.750955 0.036589 -0.026301 -38958.200000 0 0 1
2.960835 29.185719 31.525897 43.063382 1.469694 0.749424 0.046634 -0.032661 -8563.220000 0 0 1
2.868335 27.855209 31.976657 42.504665 1.468185 0.719236 0.051661 -0.025893 -343442.000000 0 0 1
3.963235 27.101789 31.549147 41.779933 1.425590 0.714949 0.050552 -0.021878 -662019.000000 0 0 1
3.840735 25.590839 31.782447 40.984951 1.421826 0.683343 0.061427 -0.027426 -115632.000000 0 0 1
2.888235 24.967109 30.950247 39.869991 1.455627 0.682054 0.053318 -0.013787 283205.000000 0 0 1
2.980335 23.598859 31.122737 39.171587 1.445170 0.652574 0.042672 -0.007966 -194555.000000 0 0 1
2.076035 22.796159 30.199187 37.894137 1.479977 0.648591 0.035558 0.006123 -877872.000000 0 0 1
0.715735 22.847359 30.450847 38.075821 1.539480 0.643930 0.020166 0.010642 -843165.000000 0 0 1
0.001435 22.221559 29.391687 36.846559 1.570732 0.647361 0.035353 0.007047 326276.000000 0 0 1
-1.410465 21.800559 29.904047 37.033846 -1.506188 0.630931 0.036097 0.008450 -416248.000000 0 0 1
-2.229065 22.869259 30.229787 37.971196 -1.473633 0.649933 0.040660 0.002103 -1201060.000000 0 0 1
-3.509865 22.356659 30.210477 37.746685 -1.415073 0.642921 0.030694 -0.004975 233756.000000 0 0 1
-4.699465 23.297159 30.773067 38.882184 -1.371749 0.657629 0.003124 -0.013033 1077430.000000 0 0 1
-4.752465 23.535159 32.154767 40.130022 -1.371545 0.641390 0.010904 -0.007158 32184.200000 0 0 1
-4.338365 24.867089 32.318687 41.008426 -1.398073 0.663082 0.022942 -0.010673 -302495.000000 0 0 1
-4.695565 25.615129 33.661531 42.559157 -1.389497 0.658461 0.027495 -0.005123 69690.000000 0 0 1
-6.063165 25.924939 33.870076 43.081858 -1.341052 0.666194 0.014136 -0.001691 165805.000000 0 0 1
-6.247765 26.191039 -33.592454 43.051806 -1.336627 2.465909 0.027271 -0.003246 -517642.000000 0 0 1
-7.681865 26.504749 -33.197924 43.169606 -1.288696 2.448090 0.031436 -0.000644 -789312.000000 0 0 1
-8.147665 27.761369 -33.634254 44.365990 -1.285323 2.431205 0.027873 -0.005771 297029.000000 0 0 1
-9.427965 28.151199 -33.144524 44.496472 -1.247632 2.411151 0.026302 -0.008572 336288.000000 0 0 1
-9.554165 28.511519 -31.675884 43.675512 -1.247458 2.382201 0.025063 -0.009500 -654213.000000 0 0 1
-8.874265 29.653599 -31.289754 44.012921 -1.280015 2.361605 0.028968 -0.010122 -113478.000000 0 0 1
-8.958965 29.842709 -29.905784 43.188033 -1.279150 2.335683 0.035052 -0.012169 -31753.700000 0 0 1
-8.412765 31.211109 -29.441694 43.723235 -1.307510 2.309547 0.035333 -0.020029 1058650.000000 0 0 1
-6.978565 31.305929 -29.302244 43.444022 -1.351467 2.311060 0.024723 -0.022727 684762.000000 0 0 1
-6.647965 32.648129 -29.144354 44.266117 -1.369918 2.289474 0.034326 -0.013167 -951185.000000 0 0 1
-5.142665 32.759349 -29.107914 44.123606 -1.415084 2.291203 0.035295 -0.015583 -979294.000000 0 0 1
-4.540765 34.021065 -28.692444 44.735978 -1.438111 2.267083 0.037224 -0.020373 116032.000000 0 0 1
-4.408465 -33.807368 -29.718954 45.228187 1.441128 2.287747 0.046820 -0.015278 442211.000000 0 0 1
-3.262865 -34.060850 -30.776254 46.021361 1.475293 2.303307 0.052666 -0.025983 314434.000000 0 0 1
-3.629165 33.874892 -31.819394 46.617089 -1.464069 2.322069 0.060222 -0.026030 174604.000000 0 0 1
-4.532665 34.294473 -32.825194 47.688041 -1.439389 2.329983 0.068603 -0.024923 310298.000000 0 0 1
-3.856565 -33.565598 -33.842424 47.820834 1.456402 2.357023 0.041439 -0.019996 112205.000000 0 0 1
-3.855065 -32.172488 -33.472584 46.586955 1.451540 2.372435 0.027644 -0.014136 -132094.000000 0 0 1
-2.872665 -31.427428 -34.150754 46.499564 1.479643 2.395625 0.016595 -0.016295 73755.000000 0 0 1
30.967855 19.488102 12.821057 38.770783 0.561686 1.233763 0.088101 -0.015404 -246032.000000 0 0 1
32.227665 18.969302 13.173557 39.648447 0.531997 1.232099 0.070050 -0.016696 -2977.310000 0 0 1
32.132325 17.543602 13.369557 38.974470 0.499751 1.220652 0.069167 -0.017535 184213.000000 0 0 1
33.365785 16.948902 14.137957 40.005283 0.470005 1.209591 0.080308 -0.022495 412678.000000 0 0 1
34.487665 16.882402 13.272157 40.627142 0.455229 1.238005 0.079333 -0.004390 -249054.000000 0 0 1
35.226141 15.767602 13.656757 40.939043 0.420865 1.230690 0.078151 -0.013305 -108909.000000 0 0 1
-34.891258 15.332702 12.702657 40.172741 -0.414040 1.249074 0.076173 -0.026051 462499.000000 0 0 1
-34.024999 14.262802 13.029557 39.126684 -0.396936 1.231303 0.062830 -0.026117 237590.000000 0 0 1
-34.699092 13.028102 13.016257 39.283347 -0.359173 1.233070 0.055669 -0.024643 -305367.000000 0 0 1
-33.965929 11.999402 13.868057 38.600427 -0.339592 1.203309 0.044481 -0.021189 -65936.400000 0 0 1
-33.995059 12.405402 15.246957 39.268661 -0.349902 1.172040 0.047674 -0.023770 340786.000000 0 0 1
-33.243819 11.558602 16.115257 38.709873 -0.334617 1.141415 0.040254 -0.022349 -55659.100000 0 0 1
-33.169559 12.187002 17.539857 39.451099 -0.352104 1.110072 0.043033 -0.014327 774829.000000 0 0 1
-34.420045 12.134902 18.273757 40.815751 -0.338948 1.106590 0.041636 -0.011737 962685.000000 0 0 1
-34.250050 12.949902 19.434957 41.454594 -0.361485 1.082836 0.039643 -0.017976 -422788.000000 0 0 1
-35.414908 13.185102 20.395857 42.942445 -0.356405 1.075880 0.039162 -0.011958 -312232.000000 0 0 1
35.454367 12.019102 21.110157 42.978013 0.326844 1.057347 0.043377 0.003070 409367.000000 0 0 1
34.350765 12.307002 21.971157 42.593063 0.344027 1.028810 0.047697 -0.004296 325545.000000 0 0 1
34.006745 11.154502 22.872657 42.473992 0.316951 1.002129 0.048320 -0.006431 -466321.000000 0 0 1
34.939995 10.894702 23.900927 43.712150 0.302258 0.992283 0.041620 0.001735 -98325.400000 0 0 1
34.761765 11.600302 25.137927 44.439426 0.322088 0.969554 0.041708 -0.001795 -1330990.000000 0 0 1
-35.331497 11.606202 26.102157 45.435021 -0.317389 0.958810 0.038277 -0.005977 -104273.000000 0 0 1
-34.305579 12.558302 25.879987 44.770050 -0.350920 0.954441 0.030894 -0.012513 795775.000000 0 0 1
-33.352759 12.185102 24.844437 43.337389 -0.350275 0.960294 0.021812 -0.008438 -75858.000000 0 0 1
-32.423189 13.402802 24.464607 42.771664 -0.391980 0.961877 0.018503 -0.011692 209168.000000 0 0 1
-31.450989 13.700702 25.439797 42.708982 -0.410832 0.932716 0.007305 -0.017631 -172589.000000 0 0 1
-31.964339 14.304802 26.656727 44.010537 -0.420793 0.920164 0.011031 -0.016039 -823868.000000 0 0 1
-31.028449 14.992102 27.649837 44.181910 -0.450095 0.894616 -0.005559 -0.004472 -398497.000000 0 0 1
-30.528449 16.250002 27.189117 43.992008 -0.489145 0.904541 -0.003514 -0.007242 -100260.000000 0 0 1
-29.746939 16.913502 28.159077 44.315691 -0.516996 0.882244 -0.016833 -0.010274 -13830.200000 0 0 1
-29.042439 18.165902 27.588767 43.984125 -0.558955 0.892787 -0.007775 0.001661 -36938.600000 0 0 1
-30.040039 19.022102 27.073667 44.690354 -0.564492 0.920018 0.006467 -0.012823 288522.000000 0 0 1
-29.544809 20.157802 26.325247 44.410036 -0.598733 0.936294 0.001524 -0.016606 169396.000000 0 0 1
-30.664889 21.148902 25.832737 45.331465 -0.603765 0.964457 -0.002038 -0.007910 -83930.700000 0 0 1
-31.444089 21.557102 26.895967 46.656536 -0.600975 0.956398 0.006824 -0.012687 -52383.200000 0 0 1
-32.553299 22.376502 26.548997 47.594898 -0.602206 0.979049 0.016331 -0.013386 -502633.000000 0 0 1
-32.399339 23.872402 26.314357 48.083823 -0.635011 0.991709 0.010144 -0.005944 -693836.000000 0 0 1
-33.416699 24.367602 25.490897 48.582318 -0.630058 1.018440 0.017854 -0.006639 -283364.000000 0 0 1
-33.201489 25.747802 25.199637 48.992957 -0.659623 1.030544 0.022217 -0.008303 240273.000000 0 0 1
-34.155903 26.489302 24.214227 49.544299 -0.659648 1.060153 0.044720 -0.011423 122162.000000 0 0 1
-33.875149 26.105602 22.857757 48.492321 -0.656581 1.079954 0.048464 -0.014972 586694.000000 0 0 1
-34.879706 26.611202 21.963657 49.062737 -0.651733 1.106644 0.059776 -0.017937 122203.000000 0 0 1
-34.420893 26.723202 20.538957 48.174434 -0.660163 1.130347 0.056096 -0.021706 -116165.000000 0 0 1
-34.471685 25.432102 19.945657 47.253762 -0.635626 1.135039 0.055324 -0.026658 -5841.130000 0 0 1
-33.963379 25.407202 18.671857 46.343017 -0.642269 1.156107 0.056167 -0.024946 -426897.000000 0 0 1
-34.308704 24.130502 17.935757 45.618632 -0.612961 1.166722 0.051611 -0.016624 539842.000000 0 0 1
-35.612302 24.060102 17.360657 46.352097 -0.594170 1.186897 0.046743 -0.028627 256687.000000 0 0 1
-35.603834 23.145302 16.252457 45.469554 -0.576431 1.205275 0.040831 -0.025129 -103977.000000 0 0 1
34.270555 23.062502 15.581457 44.148971 0.592343 1.210097 0.036199 -0.021121 -29502.600000 0 0 1
33.456125 22.203702 16.355357 43.356826 0.585923 1.183996 0.043727 -0.021131 -1015220.000000 0 0 1
32.227405 22.088502 15.734357 42.119799 0.600857 1.187950 0.049133 -0.017676 -1421980.000000 0 0 1
31.245505 21.059802 16.328957 41.066186 0.593070 1.161869 0.040485 -0.018056 -89517.700000 0 0 1
30.458965 21.469802 17.405957 41.129895 0.613991 1.133828 0.032337 -0.011463 -186109.000000 0 0 1
29.285055 22.106002 16.924257 40.406932 0.646602 1.138623 0.022643 -0.005232 130804.000000 0 0 1
28.470255 22.830702 18.082857 40.728197 0.675907 1.110751 0.020452 -0.008782 738741.000000 0 0 1
29.273665 23.883402 18.627757 42.123125 0.684341 1.112722 0.008404 -0.010091 -146834.000000 0 0 1
28.559435 24.536702 19.601157 42.448750 0.709779 1.090817 0.007759 -0.013367 -430883.000000 0 0 1
29.415875 25.284002 20.630857 43.934117 0.710004 1.081974 0.019154 -0.029951 53863.700000 0 0 1
30.186795 26.355102 20.087957 44.825885 0.717734 1.106121 0.033335 -0.033506 290833.000000 0 0 1
31.124565 26.747002 21.084257 46.137691 0.709899 1.096193 0.043383 -0.031481 -102934.000000 0 0 1
32.252285 27.688902 20.565057 47.220829 0.709414 1.120194 0.051474 -0.029521 74912.700000 0 0 1
33.199665 28.022802 21.567857 48.504305 0.701041 1.110003 0.057085 -0.019667 463522.000000 0 0 1
32.717545 28.908902 22.625057 49.173728 0.723675 1.092683 0.028605 -0.009322 -465659.000000 0 0 1
33.735645 28.928402 23.775927 50.400802 0.708834 1.079537 0.035921 -0.017311 279816.000000 0 0 1
34.908495 29.674702 23.499057 51.491714 0.704535 1.096890 0.063330 -0.016957 -76400.300000 0 0 1
35.522633 30.033402 24.694887 52.665929 0.701860 1.082755 0.061235 -0.014306 269173.000000 0 0 1
-34.453536 30.904302 24.508227 52.371511 -0.731147 1.083805 0.053820 -0.014901 131651.000000 0 0 1
-33.276969 30.191402 24.282157 51.073481 -0.736821 1.075337 0.042755 -0.020017 -120170.000000 0 0 1
-32.157749 31.041302 24.512187 50.975783 -0.767734 1.069162 0.039734 -0.014543 921571.000000 0 0 1
-30.733519 30.422202 24.271727 49.590082 -0.780308 1.059341 0.033738 -0.017350 -129833.000000 0 0 1
-30.427749 30.196802 22.899157 48.601091 -0.781589 1.080185 0.016899 -0.013325 374466.000000 0 0 1
-31.064289 29.060102 22.233957 47.998212 -0.752076 1.089166 0.024540 -0.011319 -54678.100000 0 0 1
-30.712809 27.628102 22.852157 47.210271 -0.732574 1.065519 0.010416 -0.003394 378451.000000 0 0 1
-29.337029 27.307802 22.586457 46.005710 -0.749590 1.057618 -0.015558 -0.005446 679396.000000 0 0 1
-28.780389 26.278302 23.291557 45.402164 -0.739985 1.032114 -0.014837 -0.003931 -377741.000000 0 0 1
-28.468599 26.476102 24.819197 46.124154 -0.749150 1.002620 0.003146 0.000553 -515354.000000 0 0 1
-29.586439 26.680502 25.638147 47.376377 -0.733798 0.998982 -0.001763 -0.005117 -10029.100000 0 0 1
-29.098719 27.276502 26.804167 48.054202 -0.753086 0.979075 0.017424 -0.017782 -888548.000000 0 0 1
-30.271489 27.792602 27.611587 49.509509 -0.742732 0.979181 0.021252 -0.015047 -134310.000000 0 0 1
-31.013189 26.705402 28.242687 49.725705 -0.710902 0.966760 0.016147 -0.007996 173936.000000 0 0 1
-31.846439 27.250202 29.237857 51.104025 -0.707779 0.961703 0.025212 0.000123 -214810.000000 0 0 1
-32.707859 26.177502 29.917827 51.479530 -0.674950 0.950643 0.011570 0.003382 7620.430000 0 0 1
-31.984479 25.296202 30.779827 51.091119 -0.669161 0.924230 0.011795 -0.003711 -124074.000000 0 0 1
-32.824039 24.339802 31.350567 51.504383 -0.638054 0.916379 -0.002536 -0.001926 -418711.000000 0 0 1
-32.107149 23.496402 32.345527 51.275559 -0.631759 0.888190 0.022002 -0.014344 -1109120.000000 0 0 1
-31.048579 22.733402 31.836137 49.943582 -0.632004 0.879623 0.019663 -0.010126 -395388.000000 0 0 1
-30.516329 21.819302 32.739097 49.791331 -0.620725 0.853266 0.024887 -0.019005 402874.000000 0 0 1
-29.499639 22.465302 33.760778 50.146870 -0.650849 0.832217 0.034643 -0.023088 -226563.000000 0 0 1
-30.136969 23.385702 -34.156030 51.203147 -0.659922 2.301064 0.052698 -0.034019 22855.700000 0 0 1
-30.130239 23.012502 -32.778544 50.118255 -0.652254 2.283688 0.041140 -0.024782 -546044.000000 0 0 1
-28.761589 22.988802 -32.078334 48.833733 -0.674307 2.287481 0.044908 -0.022359 -357547.000000 0 0 1
-28.281829 24.305202 -32.060274 49.177900 -0.709922 2.280916 0.038901 -0.021311 -380384.000000 0 0 1
-27.243389 24.483202 -31.146814 48.080697 -0.732088 2.275493 0.058271 -0.013610 -817363.000000 0 0 1
-27.488859 25.620902 -30.154024 48.180215 -0.750241 2.247029 0.033991 -0.006444 -209306.000000 0 0 1
-27.536639 26.921602 -30.711854 49.257051 -0.774105 2.244010 0.031135 -0.008000 502478.000000 0 0 1
-28.597229 27.309002 -31.595204 50.614622 -0.762360 2.244943 0.026985 -0.007529 9223.550000 0 0 1
-28.396409 28.776202 -32.011194 51.566872 -0.792041 2.240521 0.035612 -0.009633 8524.610000 0 0 1
-28.463339 29.697202 -30.955084 51.481090 -0.806610 2.215911 0.032081 -0.014965 113880.000000 0 0 1
-28.090829 31.014402 -31.424824 52.330749 -0.834822 2.214928 0.030154 -0.020004 -45183.500000 0 0 1
-28.323929 32.166002 -30.445364 52.572015 -0.848829 2.188442 0.028723 -0.008353 303570.000000 0 0 1
-27.353409 32.335802 -29.430524 51.574885 -0.868677 2.178077 0.008879 -0.002961 338221.000000 0 0 1
-27.839969 33.454202 -28.727344 52.148900 -0.876738 2.154204 -0.001903 0.004255 388028.000000 0 0 1
-26.817409 33.871302 -27.618894 51.276133 -0.901110 2.139607 0.008082 -0.002967 71146.300000 0 0 1
-25.708789 -34.282456 -28.133254 51.261180 0.927352 2.151750 -0.006813 -0.014131 -410267.000000 0 0 1
-25.812699 -32.882756 -28.418664 50.548902 0.905274 2.167842 0.007357 0.003066 -934355.000000 0 0 1
-26.222789 -31.994056 -27.269334 49.546653 0.884209 2.153612 0.003404 0.005908 95055.100000 0 0 1
-27.587889 -32.118456 -26.916054 50.171314 0.861134 2.137060 0.000687 0.003229 -127109.000000 0 0 1
-27.855639 -31.223156 -25.815694 49.165762 0.842337 2.123599 -0.003918 0.010986 538289.000000 0 0 1
-29.351979 -30.851056 -25.577474 49.674274 0.810293 2.111692 -0.006853 0.007492 503916.000000 0 0 1
-29.794729 -30.012656 -26.626294 49.974442 0.789042 2.132700 0.000582 0.003778 -203934.000000 0 0 1
-31.193569 -29.880556 -26.558504 50.707401 0.763903 2.122055 -0.005663 0.000619 -176930.000000 0 0 1
-31.835079 -29.174656 -27.792654 51.352355 0.741819 2.142677 -0.001017 -0.004937 249844.000000 0 0 1
-33.246529 -29.142656 -27.704514 52.174382 0.719714 2.130575 0.010464 -0.009062 241522.000000 0 0 1
-33.865919 -28.505756 -28.838524 52.831232 0.699670 2.148213 0.009165 -0.010429 585781.000000 0 0 1
-35.403396 -28.663956 -28.933774 53.964674 0.680591 2.136679 0.016902 -0.015493 733189.000000 0 0 1
35.047185 -27.996756 -27.978164 52.866824 -0.674027 2.128477 0.012733 -0.008874 -267076.000000 0 0 1
33.677635 -28.217656 -28.142574 52.176850 -0.697413 2.140484 0.018534 -0.014635 -509729.000000 0 0 1
32.734625 -27.547056 -27.183504 50.688646 -0.699554 2.136824 0.023718 -0.001721 -369592.000000 0 0 1
32.790235 -28.102856 -25.882664 50.347614 -0.708572 2.110730 0.025858 -0.004465 -66850.600000 0 0 1
31.843335 -27.533256 -25.027344 48.973933 -0.712936 2.107184 0.023221 0.000043 -212158.000000 0 0 1
31.567525 -28.242956 -23.710444 48.542335 -0.729870 2.081107 0.027041 0.000308 -240555.000000 0 0 1
31.004845 -29.522756 -23.867444 49.015797 -0.760917 2.079372 0.031949 -0.005114 -254961.000000 0 0 1
30.590775 -30.182456 -22.688344 48.595649 -0.778680 2.056556 0.042935 -0.004022 -30054.900000 0 0 1
31.608995 -30.646456 -21.573744 49.028157 -0.769938 2.026426 0.038987 0.001970 -818480.000000 0 0 1
32.676855 -31.518756 -21.987744 50.444719 -0.767360 2.021810 0.029084 0.002015 1055740.000000 0 0 1
33.818725 -31.357856 -21.137044 50.732592 -0.747659 2.000538 0.016744 -0.000381 244061.000000 0 0 1
34.597775 -30.091356 -21.319444 50.566930 -0.715848 2.006015 0.003182 0.005949 -1668450.000000 0 0 1
33.941615 -28.902256 -20.845244 49.212781 -0.705381 2.008183 0.002300 0.009758 -77092.600000 0 0 1
34.631705 -27.668356 -21.170044 49.122944 -0.674089 2.016353 -0.004561 0.009740 48647.200000 0 0 1
33.948435 -26.359156 -20.726844 47.716908 -0.660213 2.020136 -0.010514 0.013929 633958.000000 0 0 1
32.747505 -26.068956 -21.447744 47.031853 -0.672333 2.044321 0.009994 0.002325 366360.000000 0 0 1
31.803545 -25.307356 -20.741844 45.630601 -0.672138 2.042674 0.022894 -0.000147 -21262.700000 0 0 1
30.429245 -25.226456 -21.427744 44.960663 -0.692187 2.067567 0.017544 -0.000022 -73200.500000 0 0 1
29.755225 -26.420856 -21.753744 45.350418 -0.726112 2.071088 0.034060 -0.004995 -41578.400000 0 0 1
28.565915 -26.190356 -22.479344 44.802535 -0.742041 2.096409 0.027425 -0.011013 308392.000000 0 0 1
27.847485 -27.558356 -22.780344 45.319857 -0.780180 2.097466 0.030124 -0.010568 59642.100000 0 0 1
27.272335 -28.268356 -21.705644 44.877780 -0.803329 2.075629 0.030453 -0.004785 144197.000000 0 0 1
26.832695 -29.582456 -22.119144 45.654920 -0.834101 2.076571 0.027723 0.000257 -219957.000000 0 0 1
26.197345 -30.432156 -21.040744 45.333540 -0.860040 2.053451 0.039131 0.007128 -353493.000000 0 0 1
27.008405 -30.828856 -19.964444 45.590035 -0.851358 2.024072 0.045064 0.001611 -9066.420000 0 0 1
27.888325 -31.923556 -20.185044 46.950059 -0.852761 2.015207 0.050402 0.003823 629481.000000 0 0 1
28.856775 -32.248756 -18.970944 47.250316 -0.840851 1.983949 0.042147 0.005945 166384.000000 0 0 1
28.288125 -32.900156 -17.829944 46.909968 -0.860630 1.960688 0.035681 0.004275 -50315.400000 0 0 1
27.428665 -32.101156 -17.049944 45.535881 -0.863727 1.954577 0.020498 0.001815 -46077.200000 0 0 1
26.799905 -32.819556 -15.823144 45.229747 -0.886025 1.928196 0.020481 0.004211 -665661.000000 0 0 1
25.708335 -33.571956 -16.218244 45.288256 -0.917280 1.937041 0.033491 0.001961 -839310.000000 0 0 1
25.263535 -34.283556 -15.112344 45.188398 -0.935732 1.911796 0.030044 0.005587 -888269.000000 0 0 1
23.746435 -34.323956 -15.026644 44.360197 -0.965573 1.916375 0.026468 0.006410 -251755.000000 0 0 1
23.129235 -32.983156 -15.105544 43.023569 -0.959236 1.929541 0.023917 0.002483 -309066.000000 0 0 1
21.780635 -33.080356 -14.773444 42.272457 -0.988528 1.927814 0.025249 -0.003410 -782623.000000 0 0 1
-0.259049 -6.792898 -28.784284 29.576098 1.532680 2.909677 0.048819 -0.004053 142485.000000 0 0 1
-0.348649 -8.215298 -28.762484 29.914765 1.528383 2.863137 0.036895 -0.000351 -119429.000000 0 0 1
-0.306349 -8.789998 -30.084374 31.343699 1.535958 2.857164 0.033526 0.000031 -9475.250000 0 0 1
-0.224949 -10.358098 -30.215284 31.942201 1.549083 2.811265 0.029818 -0.002320 -61302.500000 0 0 1
1.004351 -10.863898 -29.759714 31.696586 -1.478610 2.790197 0.015513 -0.004293 -217963.000000 0 0 1
1.002751 -12.256298 -29.723864 32.167226 -1.489163 2.749318 0.017250 -0.006470 -42446.900000 0 0 1
2.348351 -12.771298 -29.167584 31.927555 -1.388950 2.722738 0.016223 -0.003602 -1145220.000000 0 0 1
3.375851 -12.432398 -30.049284 32.694347 -1.305653 2.736580 0.010410 -0.004500 653864.000000 0 0 1
4.724351 -12.666598 -29.564734 32.509009 -1.213800 2.712712 0.028090 -0.016991 1555880.000000 0 0 1
5.166451 -13.990798 -28.879414 32.503157 -1.217054 2.664886 0.037407 -0.028395 -1620570.000000 0 0 1
4.710151 -14.169598 -27.545314 31.332210 -1.249875 2.644845 0.031647 -0.018613 15512.100000 0 0 1
5.358451 -15.181698 -26.795924 31.260494 -1.231492 2.600569 0.046109 -0.025170 -118359.000000 0 0 1
5.065051 -16.626698 -27.241314 32.313945 -1.275094 2.573670 0.022313 -0.019622 -75765.100000 0 0 1
5.592651 -16.961898 -28.528994 33.658390 -1.252303 2.582250 0.029461 -0.022021 407860.000000 0 0 1
5.177651 -18.283598 -28.812774 34.514837 -1.294836 2.558555 0.019800 -0.019176 -596717.000000 0 0 1
5.407051 -18.689898 -30.252904 35.969247 -1.289182 2.570067 0.017600 -0.018429 -295638.000000 0 0 1
6.741551 -18.917498 -30.639684 36.634826 -1.228462 2.561394 0.017362 -0.019388 -153435.000000 0 0 1
6.796251 -19.594698 -31.849604 38.007085 -1.236938 2.564388 0.010128 -0.022928 279720.000000 0 0 1
8.129851 -19.566598 -32.649574 38.922242 -1.177003 2.565947 0.018434 -0.018047 276950.000000 0 0 1
8.434651 -18.339098 -33.176774 38.835090 -1.139718 2.594997 0.022097 -0.016495 -143050.000000 0 0 1
9.693651 -18.231898 -33.796094 39.604860 -1.082122 2.593139 0.021643 -0.012293 -177052.000000 0 0 1
9.842451 -16.903798 34.271320 39.460557 -1.043521 0.518637 0.019732 -0.009671 5885.970000 0 0 1
8.930551 -16.652098 33.215431 38.214028 -1.078531 0.517225 0.013576 -0.007099 126544.000000 0 0 1
9.153751 -15.387798 32.664987 37.250193 -1.034157 0.501406 0.020510 -0.005100 133929.000000 0 0 1
8.209651 -15.225898 31.441207 35.885594 -1.076290 0.502977 0.020457 -0.012488 13932.200000 0 0 1
8.465151 -16.044498 30.332627 35.343358 -1.085310 0.538991 0.024075 -0.013555 -340748.000000 0 0 1
7.639351 -15.716598 29.244787 34.068001 -1.118356 0.538607 0.016327 -0.008569 -489965.000000 0 0 1
7.677751 -16.628998 28.023237 33.477952 -1.138248 0.578899 0.011097 -0.009840 -877040.000000 0 0 1
7.137251 -17.890098 28.228777 34.173964 -1.191196 0.598766 0.010751 -0.013279 81664.100000 0 0 1
7.374451 -18.844898 27.205397 33.906435 -1.197792 0.639546 0.001664 -0.008415 -302700.000000 0 0 1
6.816151 -20.187798 27.551707 34.829638 -1.245177 0.658286 0.005831 -0.008568 -887883.000000 0 0 1
7.544151 -20.725098 28.637677 36.146375 -1.221695 0.656277 0.012404 -0.003938 437564.000000 0 0 1
6.809351 -21.704598 29.319807 37.109405 -1.266793 0.659839 0.004506 -0.000220 -413555.000000 0 0 1
7.186451 -21.914798 30.781677 38.463165 -1.253919 0.643018 -0.000151 -0.004054 -323795.000000 0 0 1
6.794451 -20.960698 31.745077 38.642792 -1.257332 0.606759 0.000298 -0.010269 206151.000000 0 0 1
6.976451 -19.552398 31.412437 37.652468 -1.228069 0.583983 -0.002142 -0.011496 -151228.000000 0 0 1
6.584351 -18.618398 32.647457 38.155666 -1.230876 0.544013 0.000759 -0.008941 -831668.000000 0 0 1
5.270751 -18.773898 33.072595 38.393184 -1.297093 0.532741 0.007350 -0.015018 -910412.000000 0 0 1
4.883351 -17.722098 33.875381 38.541683 -1.301917 0.497185 0.012943 -0.010954 139985.000000 0 0 1
3.457651 -17.800798 -34.355894 38.847795 -1.378944 2.655943 0.012693 -0.019904 108841.000000 0 0 1
3.367651 -18.907998 -33.472494 38.590949 -1.394537 2.620682 0.007692 -0.017141 -352992.000000 0 0 1
2.200351 -18.752398 -32.725264 37.781436 -1.453993 2.618289 0.010060 -0.031370 -338658.000000 0 0 1
1.850851 -19.868898 -31.681494 37.442166 -1.477911 2.579506 0.010158 -0.021445 -291683.000000 0 0 1
0.959851 -20.866698 -32.141484 38.332954 -1.524830 2.565287 0.015027 -0.026338 412759.000000 0 0 1
0.320251 -21.719898 -31.172974 37.994879 -1.556053 2.532997 0.015118 -0.026424 498224.000000 0 0 1
-0.754949 -21.066398 -30.250124 36.870491 1.534975 2.532981 0.019888 -0.025652 -35383.500000 0 0 1
-1.924749 -20.653098 -30.956414 37.263316 1.477871 2.551246 0.029713 -0.045499 -94076.600000 0 0 1
-2.574649 -19.573998 -30.304994 36.168534 1.440013 2.564189 0.041589 -0.019628 -529535.000000 0 0 1
-1.859449 -18.226298 -30.194794 35.318282 1.469128 2.596220 0.016051 -0.006696 -528166.000000 0 0 1
-2.684749 -17.109898 -29.901224 34.554879 1.415153 2.616596 0.026126 -0.008387 -368299.000000 0 0 1
-2.065249 -15.890998 -30.175034 34.166091 1.441557 2.653410 0.031288 -0.014350 -425048.000000 0 0 1
-2.951349 -14.716598 -29.687004 33.265702 1.372876 2.673479 0.023539 0.009690 251146.000000 0 0 1
-3.055849 -14.569798 -28.249224 31.931738 1.364055 2.656594 0.019126 0.003041 203787.000000 0 0 1
-3.627049 -13.303298 -27.843754 31.071013 1.304623 2.681774 0.004885 -0.000829 249570.000000 0 0 1
-3.901449 -13.177698 -26.271814 29.649304 1.282954 2.659627 0.003292 0.000901 -235793.000000 0 0 1
-4.720649 -14.106198 -25.579124 29.589879 1.247861 2.614862 0.000068 0.004929 415043.000000 0 0 1
-4.634349 -14.035998 -24.151444 28.315697 1.251890 2.592378 -0.000714 0.008062 -193465.000000 0 0 1
-5.557149 -12.962598 -23.536344 27.438483 1.165791 2.601743 0.015333 -0.003215 520857.000000 0 0 1
-6.963749 -13.265498 -23.592144 27.947388 1.087387 2.575798 0.012747 -0.008044 688543.000000 0 0 1
-7.673949 -12.082298 -23.196844 27.257384 1.004939 2.588739 -0.006668 -0.005810 30468.800000 0 0 1
-9.131549 -12.077898 -23.714444 28.136021 0.923432 2.573354 0.025737 -0.010852 -7490.190000 0 0 1
-9.931149 -13.110098 -23.173844 28.417062 0.922500 2.524372 0.018860 -0.013045 -105561.000000 0 0 1
-9.941349 -14.264798 -24.013844 29.647590 0.962144 2.514908 0.027070 -0.016458 -406276.000000 0 0 1
-10.937449 -15.297398 -23.434744 30.047053 0.950082 2.465358 0.027409 -0.025156 252697.000000 0 0 1
-10.264149 -16.476498 -22.956044 30.063395 1.013668 2.439648 0.019162 -0.017947 -80879.100000 0 0 1
-11.189949 -17.356698 -22.344444 30.426043 0.998152 2.395557 0.031605 -0.017431 142128.000000 0 0 1
-12.068549 -18.158298 -23.335344 31.936060 0.984205 2.390128 0.016920 -0.009077 777396.000000 0 0 1
-13.312849 -17.520098 -23.706444 32.344726 0.921014 2.393416 0.020450 -0.011894 519404.000000 0 0 1
-13.789249 -18.221098 -24.833944 33.747245 0.922974 2.397763 0.012805 -0.014989 -192577.000000 0 0 1
-15.013949 -17.590598 -25.512304 34.434364 0.864262 2.405201 0.026076 -0.014453 -516519.000000 0 0 1
-16.235049 -17.818198 -24.847844 34.619075 0.831855 2.371362 0.032795 -0.008886 -489429.000000 0 0 1
-17.180649 -17.028098 -25.539464 35.176626 0.780939 2.383335 0.029976 -0.011511 24252.800000 0 0 1
-17.798949 -15.744998 -24.864144 34.393796 0.724243 2.378823 0.045328 -0.011681 -144882.000000 0 0 1
-18.641849 -15.962198 -23.759944 34.159116 0.708115 2.340005 0.038103 -0.004876 -289592.000000 0 0 1
-19.273449 -14.791198 -23.460144 33.773121 0.654569 2.338715 0.048778 -0.007896 -175439.000000 0 0 1
-20.098449 -14.762098 -22.165244 33.364131 0.633500 2.297411 0.029417 -0.012926 49498.700000 0 0 1
-19.241449 -14.841798 -21.037244 32.141530 0.657023 2.284343 0.040328 -0.006357 214654.000000 0 0 1
-19.844549 -14.892298 -19.739344 31.705337 0.643788 2.242841 0.018009 -0.012003 -129396.000000 0 0 1
-20.338949 -13.565998 -19.114044 31.033141 0.588231 2.234354 0.016756 -0.010684 -453913.000000 0 0 1
-21.549649 -13.113098 -19.631944 31.964886 0.546651 2.232133 0.023488 -0.014793 -319253.000000 0 0 1
-21.969449 -11.872398 -19.077844 31.425700 0.495447 2.223174 0.019908 -0.007140 693739.000000 0 0 1
-23.469249 -11.437598 -19.200044 32.407807 0.453472 2.204894 0.026109 -0.007697 646624.000000 0 0 1
-23.722649 -10.938898 -20.541744 33.232316 0.432060 2.237152 0.020223 -0.011468 497637.000000 0 0 1
-25.079509 -10.499598 -20.596344 34.109129 0.396482 2.219102 0.024488 -0.010502 362846.000000 0 0 1
-25.466449 -9.657498 -21.833144 34.906926 0.362469 2.246527 0.026373 -0.010864 -188536.000000 0 0 1
-25.361959 -10.427698 -22.998144 35.789390 0.390086 2.268679 0.020218 -0.014715 379982.000000 0 0 1
-25.977839 -9.663098 -24.024844 36.679922 0.356116 2.284961 0.019586 -0.009877 -146178.000000 0 0 1
-25.901069 -10.273898 -25.476764 37.755580 0.377623 2.311465 0.015367 -0.007498 -507176.000000 0 0 1
-24.735649 -9.978298 -26.175744 37.370956 0.383432 2.346796 0.009860 -0.012852 -461471.000000 0 0 1
-23.950549 -11.167298 -26.314654 37.293409 0.436297 2.354082 0.014235 -0.005562 106274.000000 0 0 1
-22.909849 -10.999998 -27.442014 37.402209 0.447636 2.394548 0.028800 -0.010888 -216918.000000 0 0 1
-23.424749 -11.355598 -28.682114 38.734121 0.451389 2.404591 0.032920 -0.005710 253043.000000 0 0 1
-22.433649 -11.221698 -29.692284 38.869356 0.463821 2.440131 0.040423 -0.009102 647266.000000 0 0 1
-23.084049 -11.453198 -31.098344 40.387573 0.460565 2.449634 0.039618 -0.010709 242712.000000 0 0 1
-24.007649 -10.510398 -31.577554 41.036296 0.412657 2.448859 0.034543 -0.011195 96657.400000 0 0 1
-23.381049 -9.377398 -32.211454 40.892381 0.381427 2.477884 0.028923 -0.008071 -283827.000000 0 0 1
-24.361349 -8.301898 -32.715134 41.625435 0.328439 2.475013 0.028202 -0.003425 -631939.000000 0 0 1
-25.272539 -8.664098 -33.731584 43.030077 0.330270 2.471730 0.041993 0.000714 651228.000000 0 0 1
-26.524429 -9.216998 -33.372194 43.614237 0.334438 2.442098 0.042009 -0.009073 129090.000000 0 0 1
-27.525949 -8.278998 -32.636194 43.489548 0.292164 2.419520 0.031964 -0.005041 -1802070.000000 0 0 1
-28.811539 -8.740998 -32.646194 44.410402 0.294560 2.396614 0.024933 -0.006507 -710035.000000 0 0 1
-29.698599 -8.233098 -31.629754 44.161431 0.270431 2.369182 0.030992 -0.005732 -426633.000000 0 0 1
-31.079239 -8.802798 -31.736644 45.283804 0.276008 2.347369 0.026555 -0.014185 -1076970.000000 0 0 1
-31.148399 -10.204898 -31.453774 45.427993 0.316602 2.335589 0.020308 -0.014987 -709838.000000 0 0 1
-32.434019 -10.687098 -31.585054 46.516613 0.318299 2.317204 0.013538 -0.013241 -921565.000000 0 0 1
-32.503859 -12.179898 -31.755134 47.045077 0.358527 2.311753 0.005437 -0.016847 -484199.000000 0 0 1
-33.831149 -12.615498 -31.813054 48.122425 0.356925 2.293061 0.014932 -0.013257 -251450.000000 0 0 1
-33.658349 -14.016698 -31.828094 48.398139 0.394598 2.288465 0.017347 -0.014385 -101504.000000 0 0 1
-34.815780 -14.875698 -31.352294 49.156803 0.403791 2.262437 0.008386 -0.020935 -461768.000000 0 0 1
-34.922363 -14.982598 -29.987394 48.407577 0.405276 2.238873 0.023126 -0.020797 -222076.000000 0 0 1
-35.589113 -16.143698 -29.573744 49.008267 0.425855 2.218609 0.015260 -0.023570 -335517.000000 0 0 1
35.556028 -16.031598 -28.046774 48.040241 -0.423588 2.194220 0.030428 -0.018441 -348353.000000 0 0 1
-34.414921 -15.934098 -27.528214 46.862403 0.433612 2.198671 0.024416 -0.026670 -262862.000000 0 0 1
-34.418634 -15.897698 -26.129894 46.045092 0.432699 2.174244 0.039351 -0.026344 -1374020.000000 0 0 1
-33.104219 -15.546898 -25.510394 44.591205 0.439062 2.179854 0.030885 -0.021537 -1468650.000000 0 0 1
-32.148889 -16.537398 -25.654884 44.330685 0.475101 2.187950 0.028867 -0.015298 -575740.000000 0 0 1
-30.878159 -15.965498 -25.364904 43.031804 0.477193 2.201169 0.033996 -0.007102 335383.000000 0 0 1
-29.744199 -16.989298 -25.619744 42.775284 0.518959 2.212971 0.025671 -0.001766 -19714.500000 0 0 1
-29.694319 -18.075698 -24.667044 42.625655 0.546811 2.187918 0.035111 -0.006255 87968.800000 0 0 1
-30.348679 -19.252498 -25.187884 43.887703 0.565314 2.182077 0.035421 -0.013102 -14309.100000 0 0 1
-30.127449 -20.543098 -24.353644 43.849539 0.598456 2.159630 0.032553 -0.016401 -461729.000000 0 0 1
-28.849139 -21.100398 -24.368744 43.258933 0.631494 2.169198 0.033988 -0.002747 -633648.000000 0 0 1
-28.858779 -22.315098 -23.627644 43.463298 0.658217 2.145544 0.026859 -0.001809 -1161850.000000 0 0 1
-27.510859 -23.020998 -23.595144 42.936517 0.696779 2.152605 0.018829 -0.001565 167620.000000 0 0 1
-26.437229 -22.256598 -22.996244 41.510366 0.699753 2.157943 0.016741 -0.000440 439591.000000 0 0 1
-26.408919 -22.027598 -21.561844 40.590137 0.695189 2.130823 0.031967 -0.015835 -364395.000000 0 0 1
-26.337899 -23.192598 -20.599744 40.693132 0.721981 2.101594 0.034138 -0.005436 64348.700000 0 0 1
-26.606949 -22.707198 -19.250144 39.926365 0.706483 2.073893 0.041839 -0.015786 21595.100000 0 0 1
-26.404529 -23.668798 -18.234744 39.873764 0.730818 2.045766 0.035121 0.021795 -68229.800000 0 0 1
-26.437549 -23.133198 -16.813844 38.946042 0.718837 2.017197 0.032104 0.015728 -417016.000000 0 0 1
-27.633539 -22.537398 -16.419444 39.257419 0.684170 2.002315 0.028140 0.003441 -592640.000000 0 0 1
-27.391069 -21.372498 -15.686744 38.119920 0.662596 1.994907 0.028016 -0.003972 213329.000000 0 0 1
-28.676399 -20.891898 -14.960744 38.504949 0.629625 1.969844 0.014024 -0.002312 -356711.000000 0 0 1
-29.615579 -20.439698 -15.833344 39.313593 0.604096 1.985310 0.011365 -0.000986 -1900940.000000 0 0 1
-30.843589 -20.242398 -15.244344 39.918313 0.580786 1.962635 0.027049 0.002472 -1071920.000000 0 0 1
-31.791029 -19.702998 -16.315744 40.805406 0.554827 1.982142 0.020442 -0.005248 -676885.000000 0 0 1
-32.295489 -20.688198 -17.197644 42.032834 0.569732 1.992316 0.019336 0.002386 111437.000000 0 0 1
-33.104899 -20.005898 -18.171444 42.736070 0.543589 2.009981 0.017520 0.004090 372786.000000 0 0 1
-34.070279 -20.898798 -19.013444 44.261210 0.550216 2.014817 -0.003033 0.009481 1010240.000000 0 0 1
-35.319571 -21.356898 -18.484744 45.224716 0.543851 1.991860 -0.012674 0.020402 358081.000000 0 0 1
-35.202468 -22.296198 -17.439644 45.171621 0.564596 1.967169 0.010876 0.015539 -261793.000000 0 0 1
35.172405 -23.579898 -17.491044 45.815350 -0.590589 1.962510 -0.000769 0.026723 -18245.800000 0 0 1
33.827555 -23.303598 -17.188644 44.528762 -0.603233 1.967101 0.005144 0.015781 -313071.000000 0 0 1
33.088775 -24.513298 -17.260044 44.650621 -0.637609 1.967693 -0.003184 0.012034 -314608.000000 0 0 1
31.637385 -24.393698 -16.802544 43.339383 -0.656831 1.968928 0.003036 0.009496 -379200.000000 0 0 1
30.730015 -24.011998 -17.800044 42.869003 -0.663287 1.998980 -0.006021 -0.000022 122503.000000 0 0 1
29.390225 -24.129798 -17.335544 41.791788 -0.687424 1.998527 0.014038 -0.005375 921045.000000 0 0 1
28.300925 -23.675098 -18.379244 41.221951 -0.696633 2.032932 0.027676 0.006211 404651.000000 0 0 1
28.279025 -22.301098 -18.528544 40.501224 -0.667757 2.045957 0.028473 -0.004212 -880773.000000 0 0 1
27.038015 -21.839198 -18.881044 39.553744 -0.679432 2.068435 0.015681 -0.024052 -1185660.000000 0 0 1
33.879145 29.093502 -18.242144 48.239031 0.709548 1.958606 0.029415 -0.000495 -1041720.000000 0 0 1
33.029725 29.570302 -19.263844 48.336954 0.730192 1.980712 0.028060 -0.014108 -322380.000000 0 0 1
33.675095 29.704802 -20.498244 49.361576 0.722837 1.999033 0.039572 -0.007186 -696096.000000 0 0 1
32.753905 29.919702 -21.683644 49.378003 0.740207 2.025433 0.037586 -0.003348 -1752080.000000 0 0 1
32.011585 28.772702 -21.996144 48.336738 0.732164 2.043237 0.036688 -0.018416 127278.000000 0 0 1
31.222035 28.960002 -23.174044 48.482300 0.747829 2.069161 0.047221 -0.013453 257033.000000 0 0 1
29.991795 29.904802 -22.999744 48.195364 0.783946 2.068284 0.046225 -0.010280 -1263640.000000 0 0 1
30.224505 31.265402 -22.759044 49.081769 0.802324 2.052959 0.055610 -0.013493 -343928.000000 0 0 1
29.012555 31.961902 -22.885744 48.857433 0.833731 2.058297 0.057644 -0.005113 -663142.000000 0 0 1
29.143425 33.503702 -22.665544 49.855432 0.854887 2.042748 0.061356 -0.007223 248398.000000 0 0 1
29.691955 33.842802 -21.367144 49.834749 0.850637 2.013916 0.052415 -0.002389 1240790.000000 0 0 1
31.119255 34.082502 -21.426944 50.883581 0.830814 2.005451 0.038766 -0.007470 985354.000000 0 0 1
31.771735 33.861502 -20.029644 50.569072 0.817227 1.978045 0.039864 -0.008425 -87122.700000 0 0 1
31.539765 -33.887956 -19.167544 50.105339 -0.821273 1.963346 0.038286 -0.002929 -154657.000000 0 0 1
32.104935 -34.116956 -17.933544 50.162790 -0.815772 1.936393 0.017908 -0.007157 -271530.000000 0 0 1
31.943675 -32.847156 -17.028444 48.880486 -0.799342 1.926627 0.021689 0.000359 112376.000000 0 0 1
33.034645 -31.969256 -17.231944 49.094408 -0.769010 1.929431 0.023163 0.005131 -520559.000000 0 0 1
33.998485 -32.092456 -16.242844 49.493966 -0.756567 1.905171 0.023539 0.006118 -1760.980000 0 0 1
35.236241 -31.174856 -16.559144 49.876543 -0.724319 1.909222 0.017808 0.007931 500709.000000 0 0 1
-35.313642 -31.668856 -17.672744 50.619123 0.731038 1.927441 0.015033 0.004156 -334094.000000 0 0 1
-34.021359 -31.117956 -17.778444 49.415110 0.740855 1.938826 0.011937 0.008548 649892.000000 0 0 1
-33.021919 -31.828656 -18.757944 49.551699 0.767000 1.959029 0.009050 -0.001989 -321290.000000 0 0 1
-32.494299 -33.074156 -18.285644 49.841188 0.794241 1.946447 0.021591 -0.005681 1082700.000000 0 0 1
-31.432339 -33.671256 -19.095744 49.863743 0.819775 1.963793 0.016644 0.000621 1386970.000000 0 0 1
-30.109129 -32.893856 -19.306844 48.593411 0.829569 1.979384 0.007456 -0.003104 -1199990.000000 0 0 1
-30.302019 -31.851556 -20.252344 48.403423 0.810324 2.002487 0.000008 0.008620 650335.000000 0 0 1
-29.112079 -31.476556 -20.972044 47.729585 0.824403 2.025719 0.001061 0.007037 561519.000000 0 0 1
-28.336029 -32.565256 -21.726844 48.326826 0.854731 2.037093 -0.001872 0.013559 -397561.000000 0 0 1
-28.910409 -33.008856 -22.927944 49.508453 0.851492 2.052299 -0.002469 0.015595 61766.800000 0 0 1
-28.091589 -34.073056 -23.402944 49.978078 0.881323 2.058122 -0.004132 0.002615 293417.000000 0 0 1
-28.767259 34.041902 -24.598744 50.906821 -0.869180 2.075115 -0.008008 -0.004104 -34093.600000 0 0 1
-29.845219 33.175502 -24.271944 50.798408 -0.838193 2.068955 -0.008096 -0.010253 41622.200000 0 0 1
-30.495529 32.511002 -25.325574 51.267214 -0.817376 2.087471 -0.003619 -0.006718 524005.000000 0 0 1
-31.442189 33.408002 -26.210184 52.836347 -0.815702 2.089856 -0.003502 -0.013430 -460227.000000 0 0 1
-30.830779 34.156002 -27.272904 53.488136 -0.836521 2.105850 -0.005384 -0.017229 -404087.000000 0 0 1
-31.634879 -33.651556 -27.741994 53.877741 0.816278 2.111695 -0.008947 -0.013726 -27963.600000 0 0 1
-31.066149 -32.970156 -29.029514 53.803805 0.815123 2.140692 -0.005292 -0.011677 -51830.600000 0 0 1
-31.002279 -33.820256 -30.144624 54.896715 0.828843 2.152102 0.000278 -0.009589 15843.200000 0 0 1
-32.156489 -34.023656 -30.940364 56.115551 0.813604 2.154800 0.008162 -0.013121 -268307.000000 0 0 1
-31.875109 34.007202 -32.238924 56.673279 -0.817749 2.175910 0.014503 -0.011973 114277.000000 0 0 1
-31.142469 -34.176256 -33.234934 56.942345 0.831811 2.194024 0.014765 -0.021428 -45246.400000 0 0 1
-31.230529 33.831502 -34.386911 57.466304 -0.825354 2.212279 0.007777 -0.022747 -913378.000000 0 0 1
-30.378249 -34.358956 33.375555 56.721279 0.846811 0.941701 0.014553 -0.020266 522271.000000 0 0 1
-28.991079 34.140502 33.396315 55.869225 -0.866785 0.930094 0.027287 -0.020964 471412.000000 0 0 1
-28.746219 32.832302 32.897336 54.649243 -0.851657 0.924827 0.041594 -0.025256 -295436.000000 0 0 1
-27.329309 32.195902 33.050983 53.626809 -0.866974 0.906742 0.041322 -0.024446 91674.600000 0 0 1
-27.061859 31.735202 34.383840 54.052897 -0.864714 0.881344 0.051331 -0.026547 1702650.000000 0 0 1
-25.658909 31.321202 -34.339880 53.090721 -0.884446 2.274197 0.046033 -0.020611 1450700.000000 0 0 1
-25.312109 29.907202 33.891557 51.805223 -0.868422 0.857657 0.059075 -0.027770 -496553.000000 0 0 1
-25.578649 28.827202 -34.024984 51.409866 -0.845037 2.294064 0.065405 -0.020375 -136391.000000 0 0 1
-24.969749 27.644702 -34.314055 50.647529 -0.836195 2.315164 0.057085 -0.023070 -645134.000000 0 0 1
-24.683449 26.805102 -33.017114 49.172308 -0.826581 2.306970 0.063152 -0.029326 -684816.000000 0 0 1
-23.633849 27.245402 -32.190694 48.343681 -0.856262 2.299458 0.054157 -0.022905 -118482.000000 0 0 1
-23.934349 28.416402 -31.410194 48.651261 -0.870806 2.272630 0.040371 -0.013717 161582.000000 0 0 1
-22.845449 28.442402 -30.304944 47.426515 -0.894096 2.263977 0.053171 -0.008986 182840.000000 0 0 1
-21.564749 28.701702 -30.849704 47.334240 -0.926438 2.280675 0.037460 -0.008416 -481619.000000 0 0 1
-20.572449 28.487702 -29.890704 46.132732 -0.945357 2.275658 0.017102 -0.008915 -88081.400000 0 0 1
-20.128249 29.733702 -29.044834 46.182700 -0.975708 2.250949 0.010518 -0.005034 -591582.000000 0 0 1
-19.689349 30.765302 -29.867064 47.182791 -1.001493 2.256228 0.004314 0.002366 53261.400000 0 0 1
-19.454949 31.931302 -29.147134 47.409476 -1.023585 2.232923 -0.003666 -0.003271 -194617.000000 0 0 1
-19.048149 33.129202 -30.016424 48.593844 -1.048988 2.236611 -0.003332 0.008018 -92241.900000 0 0 1
-17.767849 32.968702 -30.582754 48.352214 -1.076491 2.255572 0.002822 0.005564 -346428.000000 0 0 1
-17.497849 34.174802 -31.328584 49.553728 -1.097587 2.255204 0.010038 0.007891 -114827.000000 0 0 1
-16.034449 34.345302 -31.776764 49.461763 -1.134010 2.268489 0.005749 0.006959 -1016710.000000 0 0 1
-15.191949 -34.183556 -30.710644 48.398909 1.152590 2.258199 0.012913 0.004520 -415067.000000 0 0 1
-13.826649 -34.247656 -31.077854 48.269153 1.187083 2.270309 0.027798 0.015858 369435.000000 0 0 1
-13.240049 33.169802 -31.206574 47.427680 -1.191015 2.288932 0.031792 0.003304 -1070490.000000 0 0 1
-13.122749 32.533902 -29.924134 46.109815 -1.187400 2.277033 0.041171 -0.009709 41920.500000 0 0 1
-12.802049 31.146802 -29.947114 45.064901 -1.180824 2.297665 0.034033 -0.015252 -75942.700000 0 0 1
-12.822249 30.560502 -28.493454 43.706192 -1.173534 2.280926 0.032362 -0.023637 43974.100000 0 0 1
-11.586849 30.830002 -27.865984 43.142289 -1.211298 2.273009 0.038442 -0.016013 -146642.000000 0 0 1
-11.543149 30.064402 -26.666354 41.811565 -1.204205 2.262402 0.040468 -0.030785 129524.000000 0 0 1
-10.255649 30.411202 -25.885394 41.231943 -1.245541 2.249519 0.048348 -0.022023 189728.000000 0 0 1
-9.057949 30.025602 -26.513754 41.067777 -1.277804 2.272618 0.049557 -0.023373 -187621.000000 0 0 1
-7.944749 30.478302 -25.751884 40.684216 -1.315802 2.256180 0.049086 -0.022809 -23947.200000 0 0 1
-6.606249 29.898702 -26.189224 40.292063 -1.353336 2.278361 0.044736 -0.022134 -396965.000000 0 0 1
-6.263549 28.672702 -25.540614 38.906025 -1.355725 2.286925 0.042653 -0.027981 259100.000000 0 0 1
-4.984249 28.183702 -25.918924 38.612878 -1.395758 2.306691 0.052091 -0.032145 300597.000000 0 0 1
-4.379449 26.919802 -25.230044 37.153875 -1.409524 2.317290 0.055510 -0.026471 -300756.000000 0 0 1
-5.050049 25.717702 -25.408064 36.503053 -1.376899 2.340682 0.065050 -0.023025 -17805.800000 0 0 1
-4.746549 24.832702 -24.394844 35.132623 -1.381933 2.338333 0.055699 -0.025031 -168166.000000 0 0 1
-5.766749 23.669302 -24.408144 34.485485 -1.331814 2.357147 0.056416 -0.019592 -60217.400000 0 0 1
-5.667349 22.936902 -25.623164 34.853505 -1.328564 2.396710 0.053083 -0.022334 824570.000000 0 0 1
-6.684649 21.905302 -25.687334 34.414617 -1.274611 2.413444 0.045784 -0.024580 472263.000000 0 0 1
-6.540549 21.026202 -27.017934 34.854679 -1.269218 2.457764 0.043376 -0.019521 -176680.000000 0 0 1
-5.495549 20.116302 -27.262534 34.323642 -1.304115 2.488616 0.054692 -0.020771 -436546.000000 0 0 1
-5.336749 19.028602 -26.399314 32.977149 -1.297362 2.498981 0.048465 -0.013992 208669.000000 0 0 1
-4.057549 18.156702 -26.591474 32.453597 -1.350935 2.531106 0.041099 -0.021014 478063.000000 0 0 1
-4.048549 17.461202 -27.866664 33.133597 -1.342962 2.569998 0.047313 -0.021023 592986.000000 0 0 1
-2.834649 16.699102 -27.980804 32.708112 -1.402651 2.597254 0.046100 -0.020397 496088.000000 0 0 1
-2.500149 16.328102 -29.443364 33.760470 -1.418857 2.630326 0.052134 -0.011838 -62833.700000 0 0 1
-1.955849 17.491502 -30.083624 34.854015 -1.459442 2.612236 0.058173 -0.016597 98645.900000 0 0 1
-1.614449 17.141102 -31.393874 35.805015 -1.476888 2.639965 0.051683 -0.020199 -46684.300000 0 0 1
-0.879749 18.247202 -32.205694 37.026221 -1.522621 2.625609 0.062228 -0.005150 894020.000000 0 0 1
0.448351 18.447402 -31.676104 36.659012 1.546497 2.614104 0.059625 -0.010384 607878.000000 0 0 1
1.050051 19.613202 -32.247704 37.758372 1.517309 2.594527 0.061825 -0.000423 265623.000000 0 0 1
0.696151 21.015902 -31.620824 37.974060 1.537683 2.554754 0.066171 -0.005175 93478.600000 0 0 1
1.480851 21.279102 -30.454364 37.181465 1.501317 2.530591 0.066200 -0.017081 -85021.100000 0 0 1
1.261551 22.577602 -29.858784 37.455127 1.514978 2.493420 0.070616 -0.021405 172291.000000 0 0 1
2.178651 22.826502 -28.627944 36.679079 1.475641 2.466258 0.068328 -0.023978 357781.000000 0 0 1
3.552551 22.732502 -28.988514 37.009744 1.415774 2.470700 0.056706 -0.021453 27848.000000 0 0 1
4.423951 22.950602 -27.902314 36.398359 1.380372 2.444297 0.046845 -0.026719 -79300.800000 0 0 1
4.786351 24.408702 -27.590454 37.147369 1.377161 2.407934 0.049067 -0.022632 -628018.000000 0 0 1
5.578551 24.935602 -28.632214 38.375879 1.350702 2.412981 0.043027 -0.026058 179106.000000 0 0 1
5.817951 26.318102 -28.438484 39.182118 1.353233 2.382997 0.033011 -0.030433 -459325.000000 0 0 1
6.583851 26.963702 -29.578974 40.562347 1.331308 2.387981 0.032392 -0.023087 -713311.000000 0 0 1
7.938051 26.606802 -29.526984 40.531189 1.280857 2.386927 0.016348 -0.013216 -589685.000000 0 0 1
8.730751 27.404002 -30.353574 41.815604 1.262369 2.383125 0.021282 -0.010518 -262411.000000 0 0 1
10.205251 27.390202 -29.904424 41.816801 1.214142 2.367606 0.016060 -0.012206 -80905.500000 0 0 1
10.924351 28.358402 -30.640884 43.155581 1.203092 2.360308 0.015956 -0.006930 158645.000000 0 0 1
12.149251 28.758902 -30.035764 43.322348 1.171086 2.336867 0.019975 -0.014214 283817.000000 0 0 1
12.975151 29.826102 -30.819984 44.808730 1.160464 2.329267 0.026700 -0.013427 -117770.000000 0 0 1
12.426851 31.104802 -31.073704 45.689281 1.190708 2.318708 0.021474 -0.011992 -84249.900000 0 0 1
13.296951 31.875902 -31.893894 47.011727 1.175596 2.316412 0.039938 -0.020350 116326.000000 0 0 1
12.849451 33.343002 -32.069414 48.013659 1.202964 2.302210 0.042642 -0.028322 -217404.000000 0 0 1
11.725451 33.532902 -32.876034 48.402224 1.234415 2.317503 0.031912 -0.023000 -356104.000000 0 0 1
11.271851 -33.983656 -32.711394 48.497204 -1.250530 2.311084 0.027911 -0.023340 467901.000000 0 0 1
9.942351 -33.672656 -33.490474 48.521232 -1.283689 2.332594 0.006889 -0.015949 491413.000000 0 0 1
10.162551 -33.400256 33.951001 48.698306 -1.275431 0.799354 0.011014 -0.008627 982256.000000 0 0 1
8.922451 -33.203356 33.222625 47.810206 -1.308277 0.802535 0.011320 -0.007171 858730.000000 0 0 1
9.120151 -32.245956 32.086067 46.394983 -1.295165 0.807115 0.017382 -0.008627 -122085.000000 0 0 1
9.076951 -30.895156 32.556307 45.790990 -1.285039 0.779911 0.004254 -0.011502 109393.000000 0 0 1
9.355851 -29.982756 31.483287 44.471282 -1.268330 0.784210 0.022722 -0.008279 -838684.000000 0 0 1
8.908051 -28.515956 31.743607 43.590936 -1.268013 0.755081 0.008624 -0.014037 600934.000000 0 0 1
7.490551 -28.455356 31.579027 43.163069 -1.313397 0.750099 0.001412 -0.008174 541416.000000 0 0 1
6.658051 -28.800556 32.660447 44.051180 -1.343610 0.735612 0.006413 0.000259 -530771.000000 0 0 1
5.175151 -29.023856 32.305037 43.735361 -1.394344 0.739734 0.012982 0.004120 -222292.000000 0 0 1
4.847251 -30.198856 31.572317 43.957683 -1.411643 0.769522 0.023473 0.002716 -35122.600000 0 0 1
5.211451 -30.161956 30.199557 42.999023 -1.399703 0.792129 0.015563 -0.007596 -550267.000000 0 0 1
4.524151 -29.169956 29.249257 41.555665 -1.416926 0.789983 0.024339 -0.008155 673394.000000 0 0 1
3.130151 -29.492356 29.054377 41.518113 -1.465058 0.795679 0.024606 -0.009459 824094.000000 0 0 1
2.574851 -28.533056 28.183737 40.188159 -1.480799 0.793584 0.024290 -0.013750 -86493.700000 0 0 1
1.188351 -29.021156 27.691707 40.130665 -1.529871 0.809254 0.022495 -0.013475 -31766.300000 0 0 1
1.202551 -30.306656 27.096797 40.671561 -1.531138 0.841648 0.026536 -0.018115 6504.970000 0 0 1
0.834951 -31.399356 27.937887 42.037390 -1.544211 0.843843 0.042292 -0.027464 -491357.000000 0 0 1
1.092151 -32.750756 27.275567 42.635212 -1.537461 0.876633 0.043150 -0.031009 1867360.000000 0 0 1
2.511851 -33.043156 27.036797 42.768539 -1.494925 0.886451 0.032346 -0.029788 1742270.000000 0 0 1
3.026351 -32.466756 25.835257 41.601797 -1.477851 0.900762 0.027252 -0.025733 410936.000000 0 0 1
4.592151 -32.502756 25.813467 41.759455 -1.430440 0.904414 0.041192 -0.016944 858158.000000 0 0 1
5.197551 -32.201356 24.548467 40.823634 -1.410769 0.925632 0.055049 -0.030645 -416458.000000 0 0 1
6.567951 -32.038356 24.718307 40.994986 -1.368595 0.923591 0.050942 -0.026678 -1053060.000000 0 0 1
7.263651 -31.295956 23.585357 39.855571 -1.342739 0.937543 0.042082 -0.013735 -902033.000000 0 0 1
8.604651 -31.076156 23.895617 40.134374 -1.300675 0.933045 0.024342 -0.010970 -453596.000000 0 0 1
9.335251 -30.833456 22.701557 39.410780 -1.276806 0.956940 0.031466 -0.005287 443481.000000 0 0 1
10.685351 -30.103556 22.955357 39.336360 -1.229716 0.947683 0.013044 0.002959 427932.000000 0 0 1
11.648251 -30.712756 23.795087 40.560588 -1.208292 0.943874 0.019400 -0.010987 290741.000000 0 0 1
12.846251 -29.959956 23.731557 40.321358 -1.165728 0.941519 0.023599 -0.007992 205098.000000 0 0 1
13.966651 -30.383156 24.707867 41.577424 -1.139918 0.934449 0.046780 -0.009493 -211393.000000 0 0 1
13.696151 -29.991256 26.048067 42.018588 -1.142408 0.902159 0.032164 -0.007845 472762.000000 0 0 1
14.838351 -29.400956 26.683527 42.386359 -1.103404 0.889847 0.030501 -0.003853 134391.000000 0 0 1
-10.994149 -13.928798 26.365547 31.780887 0.902607 0.592398 0.036636 -0.028024 395847.000000 0 0 1
-9.597349 -13.917698 26.091407 31.089756 0.967099 0.574934 0.035335 -0.028256 142503.000000 0 0 1
-8.791849 -14.287498 27.204287 31.960952 1.019165 0.552581 0.035821 -0.025111 1086070.000000 0 0 1
-7.247449 -14.020398 26.999767 31.274342 1.093703 0.528984 0.050653 -0.017056 868700.000000 0 0 1
-6.660949 -14.896898 26.073447 30.758908 1.150326 0.559216 0.042511 -0.027822 -59099.000000 0 0 1
-7.016749 -14.712498 24.689507 29.584863 1.125779 0.583514 0.036316 -0.022550 -541466.000000 0 0 1
-6.300049 -15.797398 23.763397 29.222379 1.191322 0.621181 0.036997 -0.027996 248625.000000 0 0 1
-6.841049 -17.118698 23.646457 29.983407 1.190614 0.662184 0.042133 -0.021666 -499140.000000 0 0 1
-6.854049 -17.740298 24.884587 31.319943 1.202108 0.652566 0.052065 -0.020037 -35561.800000 0 0 1
-7.388549 -19.210198 24.757437 32.195544 1.203622 0.693566 0.046167 -0.017444 119903.000000 0 0 1
-8.768049 -19.277498 24.422997 32.326203 1.143930 0.714353 0.021137 -0.010111 47653.900000 0 0 1
-9.052149 -20.510898 23.812037 32.705526 1.155173 0.755289 0.017421 -0.008010 270737.000000 0 0 1
-10.561849 -20.869498 23.782257 33.356924 1.102288 0.777081 0.006866 -0.005934 113596.000000 0 0 1
-11.036549 -21.077298 25.077577 34.567944 1.088430 0.759097 0.011313 -0.007947 222392.000000 0 0 1
-12.456249 -20.954098 25.026207 34.936276 1.034465 0.772256 0.037041 -0.009519 395326.000000 0 0 1
-13.159949 -20.819298 26.378437 36.089463 1.007105 0.751130 0.047450 -0.012406 -489879.000000 0 0 1
-13.067949 -21.881898 27.353797 37.387417 1.032436 0.750085 0.049265 -0.005421 -93170.900000 0 0 1
-11.926949 -21.767598 28.177317 37.550521 1.069550 0.722153 0.050266 -0.006667 -60047.300000 0 0 1
-11.578149 -23.053298 28.957517 38.782030 1.105363 0.727749 0.038999 -0.005028 -81190.200000 0 0 1
-12.582149 -23.560798 29.813957 40.028661 1.080298 0.730538 0.052449 -0.003594 -12202.800000 0 0 1
-12.149649 -24.819998 30.223657 40.952603 1.115576 0.740672 0.040994 0.004743 103057.000000 0 0 1
-13.144549 -25.537918 31.168037 42.384088 1.095452 0.744582 0.038401 -0.003765 164172.000000 0 0 1
-13.215149 -24.880798 32.441437 42.966744 1.082549 0.715087 0.034803 -0.000117 -194394.000000 0 0 1
-14.277449 -25.356008 33.230874 44.170846 1.057967 0.719211 0.040594 -0.004318 -197892.000000 0 0 1
-14.202949 -24.853198 -34.143575 44.555459 1.051616 2.443884 0.026784 -0.003699 138551.000000 0 0 1
-14.217149 -23.440898 -33.943154 43.631877 1.025604 2.462183 0.030789 -0.007695 280870.000000 0 0 1
-15.508749 -22.873198 -34.155921 43.935537 0.974967 2.461334 0.036112 -0.011212 -117204.000000 0 0 1
-15.600549 -21.353298 -33.891614 42.988161 0.939832 2.478990 0.032170 -0.010442 -155183.000000 0 0 1
-15.498349 -20.923298 -32.582694 41.708694 0.933260 2.467377 0.023676 -0.013147 128522.000000 0 0 1
-15.724649 -19.542998 -32.406604 40.980255 0.893246 2.482888 0.020270 -0.016170 -454034.000000 0 0 1
-15.815249 -19.065098 -30.984714 39.669290 0.878301 2.467183 0.015752 -0.016025 22956.600000 0 0 1
-16.990449 -19.442798 -30.283964 39.797189 0.852608 2.435584 0.015644 -0.014401 109420.000000 0 0 1
-16.912749 -19.305598 -28.848544 38.613284 0.851370 2.414507 0.004653 -0.012317 94859.600000 0 0 1
-16.201449 -20.415698 -27.984934 38.241917 0.899984 2.391736 0.002522 -0.002842 1566650.000000 0 0 1
-14.755849 -20.319598 -28.098224 37.684630 0.942710 2.412254 0.007003 -0.006792 989723.000000 0 0 1
-14.118249 -21.511298 -27.654464 37.773407 0.989993 2.392217 0.003002 -0.004625 648465.000000 0 0 1
-12.571849 -21.318398 -27.821324 37.236428 1.037971 2.414565 0.023345 -0.013808 -207134.000000 0 0 1
-12.132049 -20.390498 -26.839424 35.823368 1.034072 2.417673 0.024559 -0.018388 -73668.700000 0 0 1
-10.729749 -20.210698 -26.841934 35.271649 1.082740 2.435659 0.008332 -0.022109 343983.000000 0 0 1
-9.914749 -21.331798 -26.152534 35.175317 1.135714 2.409072 0.029399 -0.024924 -704474.000000 0 0 1
-9.957749 -22.625498 -26.786954 36.450114 1.156196 2.396306 0.026816 -0.023162 -194689.000000 0 0 1
-9.327349 -23.595998 -26.005514 36.332593 1.194354 2.368512 0.041438 -0.026100 -160339.000000 0 0 1
-9.545549 -25.068988 -26.438494 37.663851 1.206976 2.348941 0.039354 -0.017171 -106596.000000 0 0 1
-8.591449 -25.418058 -27.422984 38.365489 1.244847 2.367110 0.036121 -0.012042 338554.000000 0 0 1
-8.908049 -26.665868 -27.978624 39.663904 1.248390 2.353773 0.025364 -0.012656 -112335.000000 0 0 1
-8.587249 -27.941568 -27.181494 39.916233 1.272629 2.319874 0.033985 -0.003761 -190975.000000 0 0 1
-9.550949 -28.194518 -26.155904 39.626794 1.244177 2.291690 0.025850 -0.003796 318380.000000 0 0 1
-9.311549 -29.368358 -25.341254 39.892162 1.263762 2.259121 0.061502 0.002732 287536.000000 0 0 1
-10.423249 -29.590198 -24.231544 39.640783 1.232115 2.228471 0.057648 -0.004824 393740.000000 0 0 1
-10.374349 -28.564888 -23.226544 38.249867 1.222424 2.223368 0.047471 -0.006112 -111453.000000 0 0 1
-11.372049 -27.568758 -23.448444 37.936651 1.179563 2.237113 0.030750 -0.006818 26730.300000 0 0 1
-11.362449 -26.426168 -22.392044 36.453412 1.164724 2.232250 0.044819 -0.011759 -122846.000000 0 0 1
-11.867749 -26.740998 -21.126044 36.086482 1.153107 2.196204 0.043592 -0.015128 -32009.600000 0 0 1
-11.720649 -25.632448 -20.237944 34.698277 1.141923 2.193526 0.039934 -0.010553 -104882.000000 0 0 1
-12.333649 -25.930798 -18.883644 34.367386 1.126828 2.152519 0.053206 -0.009858 288534.000000 0 0 1
-13.738249 -26.168888 -18.928244 35.097416 1.087362 2.140409 0.055068 -0.010546 264791.000000 0 0 1
-14.120449 -26.579008 -17.615944 34.873374 1.082452 2.100341 0.058185 -0.012904 -612958.000000 0 0 1
-15.631949 -26.536148 -17.477944 35.411912 1.038444 2.086976 0.060805 -0.017843 -1604450.000000 0 0 1
-16.321549 -25.278878 -17.563944 34.841165 0.997478 2.099153 0.053346 -0.010162 1235480.000000 0 0 1
-17.754449 -25.401078 -17.372244 35.527878 0.960766 2.081711 0.067549 -0.013394 1297730.000000 0 0 1
-18.510549 -26.146128 -18.516144 37.001460 0.954745 2.094876 0.070656 -0.012931 -1314080.000000 0 0 1
-18.418649 -27.590178 -18.485944 37.976239 0.982162 2.079192 0.067204 -0.021138 13267.700000 0 0 1
-18.913749 -28.310708 -17.340644 38.208952 0.981818 2.041863 0.064938 -0.024532 -265100.000000 0 0 1
-20.439449 -28.579488 -17.324944 39.175399 0.949956 2.028891 0.052467 -0.018464 131635.000000 0 0 1
-20.823249 -29.487188 -18.312644 40.477832 0.955935 2.040264 0.039911 -0.016037 228531.000000 0 0 1
-22.123549 -30.029028 -18.069644 41.445217 0.935837 2.021933 0.029220 -0.000881 437159.000000 0 0 1
-22.597349 -31.136308 -19.028944 42.920981 0.942993 2.030127 0.005346 -0.008991 -409702.000000 0 0 1
-22.098149 -32.470098 -18.876144 43.576878 0.973231 2.018802 0.007573 -0.015287 -55754.800000 0 0 1
-22.355149 -33.206728 -20.041944 44.767388 0.978276 2.034977 -0.010276 0.003845 -147948.000000 0 0 1
-21.714949 34.260106 -20.015344 45.231713 -1.005875 2.029189 -0.018456 -0.000421 -365468.000000 0 0 1
-22.419849 33.351473 -19.181444 44.529744 -0.978952 2.016126 -0.019148 -0.005612 -246195.000000 0 0 1
-21.714649 32.119319 -19.111044 43.225092 -0.976317 2.028767 -0.021590 -0.013199 -369407.000000 0 0 1
-22.415549 30.934439 -18.392144 42.398907 -0.943741 2.019489 -0.006476 -0.020912 -418279.000000 0 0 1
-22.848649 31.065949 -17.070844 42.173068 -0.936647 1.987535 -0.010512 -0.018857 148194.000000 0 0 1
-23.500449 29.799829 -16.629644 41.434840 -0.903039 1.983781 -0.000511 -0.015901 659771.000000 0 0 1
-22.585949 28.546389 -16.283844 39.877123 -0.901443 1.991443 0.014810 -0.027287 41661.200000 0 0 1
-21.815749 28.141569 -17.365244 39.615988 -0.911352 2.024546 0.011588 -0.026966 -189092.000000 0 0 1
-21.481449 26.769919 -17.280544 38.427834 -0.894565 2.037213 0.023417 -0.024561 -287595.000000 0 0 1
-20.799649 26.303789 -18.542144 38.318739 -0.901723 2.075893 0.029550 -0.020765 -995824.000000 0 0 1
-20.507849 24.897049 -18.375444 37.122659 -0.881767 2.088623 0.043357 -0.023083 478119.000000 0 0 1
-19.634149 24.356339 -19.354144 36.787415 -0.892334 2.124813 0.035692 -0.011706 629747.000000 0 0 1
-18.186749 24.900809 -19.556544 36.513922 -0.939979 2.136004 0.026200 -0.015673 -191803.000000 0 0 1
-17.304249 24.516719 -18.493544 35.249364 -0.956179 2.123099 0.030612 -0.014044 378488.000000 0 0 1
-16.106149 25.254639 -18.385744 35.145987 -1.003081 2.121310 0.040756 -0.023246 -71833.500000 0 0 1
-16.301749 26.478119 -17.476644 35.668906 -1.018935 2.082850 0.032169 -0.028757 -525586.000000 0 0 1
-17.088149 27.510079 -18.007244 37.054960 -1.014963 2.078258 0.021049 -0.029905 -171096.000000 0 0 1
-16.840549 28.684379 -17.234044 37.462113 -1.039917 2.048836 0.030422 -0.036973 126814.000000 0 0 1
-18.019249 29.708259 -17.410444 38.863833 -1.025582 2.035307 0.027613 -0.030377 542368.000000 0 0 1
-18.151349 30.255309 -18.743244 39.952026 -1.030421 2.059117 0.011221 -0.031981 137322.000000 0 0 1
-18.772649 29.389509 -19.683144 40.044746 -1.002368 2.084641 0.007551 -0.028945 -416331.000000 0 0 1
-18.879249 29.862789 -21.108744 41.155695 -1.007036 2.109356 0.013413 -0.028535 66208.600000 0 0 1
-19.741649 30.976269 -21.228944 42.425582 -1.003390 2.094835 0.010341 -0.021564 58044.300000 0 0 1
-19.940249 31.219949 -22.634644 43.412277 -1.002404 2.119273 0.015686 -0.020669 -2389.660000 0 0 1
-20.632949 32.535129 -23.031644 44.885519 -1.005627 2.109612 0.007126 -0.014962 -355074.000000 0 0 1
-19.866949 33.696691 -22.941444 45.348346 -1.038073 2.101214 -0.007774 -0.007770 -279177.000000 0 0 1
-20.316449 -34.284332 -23.952444 46.496162 1.035845 2.111978 0.000839 0.002292 89272.700000 0 0 1
-19.295949 -33.115658 -24.120144 45.285338 1.043207 2.132496 0.011893 -0.000162 203650.000000 0 0 1
-19.166149 -32.119858 -23.159344 43.992974 1.032802 2.125196 0.017934 -0.004632 12850.700000 0 0 1
-18.795349 -32.506778 -21.842544 43.440218 1.046562 2.097653 0.023660 -0.016381 -292384.000000 0 0 1
-18.584949 -31.328738 -20.850444 41.971790 1.035374 2.090673 0.047055 -0.026650 458777.000000 0 0 1
-17.330449 -30.667088 -21.044444 41.032711 1.056422 2.109321 0.056254 -0.026320 572243.000000 0 0 1
-16.885249 -29.973348 -19.901544 39.743989 1.057767 2.095254 0.064457 -0.026622 -499170.000000 0 0 1
-15.604549 -29.167138 -20.092944 38.703363 1.079539 2.116655 0.075801 -0.029112 -249827.000000 0 0 1
-14.450949 -29.981498 -19.962444 38.810042 1.121656 2.111061 0.083455 -0.025664 -673732.000000 0 0 1
-13.358049 -29.278668 -20.456644 38.133347 1.142767 2.137022 0.074502 -0.025067 -457440.000000 0 0 1
-12.054249 -30.156538 -20.508744 38.410029 1.190529 2.134053 0.085358 -0.019812 837935.000000 0 0 1
-11.288949 -30.620408 -19.394444 37.963064 1.217583 2.107001 0.086284 -0.012428 425168.000000 0 0 1
-10.863349 -29.542838 -18.545044 36.533687 1.218428 2.103211 0.066854 -0.007189 -496595.000000 0 0 1
-10.246649 -30.049438 -17.198444 36.107465 1.242168 2.067253 0.056595 0.004241 344982.000000 0 0 1
-11.091549 -30.820758 -16.301944 36.588181 1.225353 2.032587 0.080638 -0.005046 269477.000000 0 0 1
-11.286549 -32.183798 -16.706744 37.977603 1.233507 2.026295 0.090516 -0.005273 283198.000000 0 0 1
-12.264849 -32.980318 -15.795944 38.569933 1.214760 1.992746 0.102332 -0.008136 166338.000000 0 0 1
-11.721249 -33.313098 -14.552344 38.195823 1.232473 1.961666 0.092025 -0.006551 -436569.000000 0 0 1
-12.716149 -33.868258 -13.725944 38.693164 1.211623 1.933430 0.091325 -0.006642 -309840.000000 0 0 1
-12.353149 -34.119425 -12.285344 38.310118 1.223422 1.897245 0.065706 -0.001385 -176182.000000 0 0 1
-12.083149 -32.936238 -11.521244 36.926107 1.219177 1.888102 0.054767 0.004824 45361.400000 0 0 1
-11.890749 -33.210798 -10.112944 36.696303 1.226978 1.849994 0.049593 -0.004904 -60261.300000 0 0 1
-10.603649 -32.575148 -9.534444 35.559574 1.256100 1.842244 0.045188 -0.008417 371852.000000 0 0 1
-9.388749 -33.113538 -10.042544 35.853978 1.294515 1.854690 0.021393 -0.000712 -443429.000000 0 0 1
-8.312549 -32.411438 -9.489544 34.780041 1.319738 1.847145 0.016689 -0.004283 363118.000000 0 0 1
-6.954849 -33.004558 -10.024444 35.187502 1.363111 1.859684 0.016566 -0.004508 434768.000000 0 0 1
-6.608249 -34.274538 -9.645744 36.213993 1.380330 1.840405 0.007220 0.001790 572257.000000 0 0 1
-5.497549 34.050384 -10.432844 36.034649 -1.410724 1.864524 0.011437 -0.000634 905300.000000 0 0 1
-4.772549 32.950063 -9.614344 34.654285 -1.426955 1.851921 0.014482 -0.006092 180289.000000 0 0 1
-4.174849 33.463926 -8.408244 34.755751 -1.446681 1.815144 0.019338 -0.002831 -82079.800000 0 0 1
-3.503749 32.471029 -7.710744 33.557407 -1.463308 1.802646 0.021030 -0.000166 7299.080000 0 0 1
-3.089149 32.859343 -6.216544 33.584590 -1.477061 1.756971 0.023330 0.004643 -277969.000000 0 0 1
-2.095249 33.846266 -6.206544 34.474352 -1.508970 1.751817 0.018553 0.004683 -158318.000000 0 0 1
-1.668149 34.314869 -4.892244 34.701974 -1.522222 1.712246 0.018321 0.006705 537830.000000 0 0 1
-0.575149 33.466612 -4.139144 33.726509 -1.553612 1.693833 0.021835 0.003975 566227.000000 0 0 1
0.725851 33.795706 -4.627144 34.118720 1.549322 1.706834 0.021822 0.004693 727245.000000 0 0 1
1.715151 33.002296 -3.925144 33.279123 1.518872 1.689018 0.015591 0.005994 832631.000000 0 0 1
3.202351 33.151796 -4.320444 33.585158 1.474498 1.699795 0.010243 0.010684 128538.000000 0 0 1
3.735851 34.364661 -3.926644 34.789438 1.462510 1.683906 0.004318 0.007271 -819929.000000 0 0 1
5.113551 34.344276 -4.171644 34.972565 1.422991 1.690364 0.018062 0.004648 -369109.000000 0 0 1
5.831751 -33.244898 -3.725144 33.957463 -1.397145 1.680718 0.020036 0.006451 -164335.000000 0 0 1
5.439851 -32.166798 -4.577644 32.943129 -1.403268 1.710203 0.011163 -0.002785 -85546.900000 0 0 1
5.622551 -30.891438 -3.942244 31.645463 -1.390757 1.695696 0.016282 -0.008707 720.046000 0 0 1
5.589451 -29.757948 -4.962544 30.682313 -1.385129 1.733249 0.010742 -0.017986 -638874.000000 0 0 1
6.555751 -29.643388 -5.955344 30.938236 -1.353146 1.764497 0.023516 -0.016084 -705856.000000 0 0 1
6.330251 -28.513388 -6.783844 29.985095 -1.352330 1.799013 0.014325 -0.015065 -26380.000000 0 0 1
6.846351 -27.134028 -6.309244 28.686836 -1.323639 1.792544 0.026466 -0.012097 73920.500000 0 0 1
5.974151 -26.521048 -5.419144 27.720455 -1.349234 1.767556 0.033580 -0.015556 -244555.000000 0 0 1
6.690051 -25.543228 -4.680144 26.816358 -1.314639 1.746220 0.043594 -0.022961 -99842.600000 0 0 1
5.840151 -25.191648 -3.491244 26.094354 -1.342992 1.704992 0.038268 -0.023752 421990.000000 0 0 1
4.713751 -24.392598 -3.855544 25.141271 -1.379904 1.724759 0.025207 -0.028693 22606.700000 0 0 1
3.879851 -24.086798 -2.755544 24.552396 -1.411090 1.683264 0.022001 -0.020065 -455260.000000 0 1 0
2.564451 -23.440298 -3.097044 23.782676 -1.461826 1.701390 0.017550 -0.020318 -231415.000000 0 1 0
1.712551 -24.235098 -3.894744 24.605728 -1.500250 1.729751 0.004044 -0.015617 -1080740.000000 0 1 0
0.440451 -23.712398 -4.069844 24.063156 -1.552224 1.740745 -0.002066 -0.008595 -265858.000000 0 1 0
-14.995149 23.147302 18.453757 33.184231 -0.995959 0.981110 0.009034 -0.008796 -113418.000000 0 0 1
-15.247549 22.730602 19.778657 33.769265 -0.979942 0.945053 0.020320 -0.011981 342688.000000 0 0 1
-14.712549 23.745502 20.651357 34.738832 -1.016095 0.934184 0.018766 -0.013208 -847203.000000 0 0 1
-14.673749 23.364002 22.144157 35.377382 -1.010007 0.894459 0.031678 -0.019658 -414439.000000 0 0 1
-13.739849 22.363402 22.510757 34.578018 -1.019863 0.861877 0.036306 -0.014536 -22207.300000 0 0 1
-12.370349 22.627702 22.374257 34.141555 -1.070498 0.856166 0.022555 -0.015693 -526120.000000 0 0 1
-11.692949 23.621402 23.364257 35.221927 -1.111145 0.845518 0.054477 -0.010758 -520146.000000 0 0 1
-11.632449 23.040702 24.650467 35.690801 -1.103264 0.808385 0.054221 -0.014842 77921.700000 0 0 1
-11.733549 24.009602 25.695087 37.072559 -1.116228 0.805012 0.074088 -0.014665 -22385.700000 0 0 1
-11.203949 23.493302 27.048107 37.537498 -1.125799 0.766183 0.070610 -0.015511 567445.000000 0 0 1
-9.793749 23.282402 26.999537 36.972459 -1.172616 0.752093 0.056243 -0.020621 181751.000000 0 0 1
-9.344749 22.505102 28.113507 37.204478 -1.177232 0.714153 0.049732 -0.018542 -607038.000000 0 0 1
-7.837149 22.209002 28.185667 36.729994 -1.231557 0.696060 0.030843 -0.012864 204573.000000 0 0 1
-6.959849 23.308302 28.354997 37.359366 -1.280625 0.709052 0.009149 -0.011989 128281.000000 0 0 1
-6.927549 24.271902 27.268687 37.157737 -1.292774 0.746805 0.014934 -0.010881 -1026110.000000 0 0 1
-5.983149 25.422002 27.694737 38.066713 -1.339650 0.756079 0.007424 -0.014422 1085430.000000 0 0 1
-4.588049 25.024502 27.713847 37.620914 -1.389468 0.742677 0.001033 -0.016161 490121.000000 0 0 1
-3.841149 26.078302 28.229187 38.622781 -1.424555 0.751164 0.013781 -0.011996 -244222.000000 0 0 1
-2.365949 25.638702 28.397917 38.332524 -1.478777 0.736490 0.016611 -0.014830 -258835.000000 0 0 1
-1.768549 25.594302 27.139737 37.346504 -1.501807 0.757289 0.016504 -0.018658 -394803.000000 0 0 1
-0.475149 25.048102 27.277997 37.036769 -1.551829 0.742898 0.027653 -0.008351 163653.000000 0 0 1
0.301251 24.684302 25.994847 35.848815 1.558593 0.759581 0.028182 -0.015944 38879.500000 0 0 1
-0.199049 23.557302 25.292817 34.564616 -1.562347 0.749904 0.028305 -0.005609 -169200.000000 0 0 1
0.459151 23.448602 24.042767 33.587235 1.551218 0.772984 0.031400 -0.001849 145164.000000 0 0 1
0.034551 22.193302 23.178657 32.090403 1.569239 0.763685 0.018392 0.004266 687571.000000 0 0 1
0.737751 20.980902 23.630857 31.609490 1.535648 0.726374 0.043881 0.004456 256983.000000 0 0 1
0.246351 19.877602 22.964457 30.373442 1.558404 0.713508 0.043610 0.005925 -299649.000000 0 0 1
1.128451 18.634102 23.021557 29.639420 1.510312 0.681354 0.053928 0.009424 116101.000000 0 0 1
2.437951 18.825902 22.528257 29.459812 1.442013 0.700203 0.052378 0.001455 -388326.000000 0 0 1
3.208251 17.667402 22.601757 28.866405 1.391162 0.671358 0.045133 -0.002591 -724710.000000 0 0 1
4.554151 17.790102 21.916857 28.593297 1.320185 0.697418 0.040575 0.001681 -146046.000000 0 0 1
5.442551 18.688202 22.599257 29.826107 1.287405 0.711014 0.027558 0.005520 -453372.000000 0 0 1
6.624451 18.912602 21.883557 29.672545 1.233884 0.741433 0.025552 -0.005688 -266947.000000 0 0 1
7.742351 19.538102 22.765157 30.982798 1.193510 0.745472 0.033398 -0.010653 -428689.000000 0 0 1
7.534551 20.755402 23.468357 32.222972 1.222573 0.754942 0.023892 -0.004736 -43252.800000 0 0 1
7.125951 21.917402 22.739857 32.376732 1.256449 0.792100 0.032734 -0.014693 32106.700000 0 0 1
5.846851 22.572402 23.316557 32.975154 1.317340 0.785415 0.027484 -0.010413 109510.000000 0 0 1
5.458851 23.753902 22.576457 33.222632 1.344910 0.823647 0.024728 -0.018686 180115.000000 0 0 1
4.413551 24.424802 23.251257 34.009871 1.392026 0.818028 0.013664 -0.014002 -187502.000000 0 0 1
4.102851 25.858602 22.708757 34.658163 1.413443 0.856321 0.020533 -0.017365 70349.800000 0 0 1
3.789851 26.124402 21.331657 33.939459 1.426732 0.891146 0.022983 -0.016668 217284.000000 0 0 1
2.956651 25.174402 20.688457 32.718565 1.453885 0.886258 0.024812 -0.009618 -381132.000000 0 0 1
2.529751 25.670102 19.270757 32.198072 1.472565 0.929161 0.016958 -0.007855 -91750.600000 0 0 1
1.447551 26.590802 19.305657 32.891861 1.516412 0.943518 0.013206 -0.010139 300672.000000 0 0 1
0.986951 26.962102 18.040057 32.455703 1.534208 0.981428 0.023070 -0.008062 -311083.000000 0 0 1
0.028051 28.113302 18.238757 33.511353 1.569799 0.995294 0.003850 0.000140 -342836.000000 0 0 1
0.692151 29.296802 18.613157 34.716441 1.547175 1.004929 0.011246 0.002425 -74201.900000 0 0 1
-0.200349 30.368502 18.682357 35.655525 -1.564199 1.019293 -0.010778 0.005376 -482331.000000 0 0 1
0.346151 31.686002 19.282257 37.093503 1.559872 1.024146 -0.018866 0.013749 -513221.000000 0 0 1
0.607851 31.591402 20.655057 37.749404 1.551558 0.991826 -0.006336 0.009667 83033.900000 0 0 1
1.008551 32.884702 21.167257 39.121267 1.540137 0.999090 -0.012715 0.003026 105912.000000 0 0 1
1.592451 32.728102 22.597257 39.803273 1.522178 0.967058 -0.007550 -0.007107 -224559.000000 0 0 1
0.546451 32.538102 23.488757 40.134129 1.554004 0.945600 -0.010731 0.000230 53179.200000 0 0 1
0.992351 32.809802 24.821637 41.153147 1.540560 0.923348 0.004634 -0.010571 -573082.000000 0 0 1
-0.016549 32.366402 25.842477 41.417603 -1.570285 0.897010 0.014539 -0.013191 29884.400000 0 0 1
-1.222549 33.175502 25.811257 42.051510 -1.533962 0.909930 0.009474 -0.005495 863040.000000 0 0 1
-2.139849 32.857602 26.841427 42.481327 -1.505763 0.886871 0.013924 -0.007400 59528.900000 0 0 1
-1.757249 33.351702 28.278847 43.762051 -1.518157 0.868207 0.038024 -0.017920 -580874.000000 0 0 1
-0.702249 32.563302 28.772997 43.459718 -1.549234 0.847231 0.040034 -0.023263 -147671.000000 0 0 1
-0.228849 33.135702 29.994397 44.695536 -1.563890 0.835128 0.052746 -0.024630 -1084580.000000 0 0 1
0.906651 32.346102 30.631437 44.557572 1.542774 0.812814 0.044771 -0.021928 -211317.000000 0 0 1
2.177251 32.392702 30.018797 44.217142 1.503683 0.824540 0.028141 -0.023203 51808.200000 0 0 1
2.264051 31.836102 28.730247 42.942873 1.499800 0.837888 0.022841 -0.022937 -1870590.000000 0 0 1
3.706951 31.738202 28.279847 42.670888 1.454525 0.846320 0.012690 -0.023070 -421910.000000 0 0 1
4.424751 30.610302 28.829867 42.281559 1.427240 0.820502 0.015039 -0.026055 -752604.000000 0 0 1
5.726951 30.611602 28.389387 42.140543 1.385850 0.831615 0.012146 -0.027567 -1176250.000000 0 0 1
6.581551 29.497402 28.988157 41.877521 1.351269 0.806246 0.008745 -0.013506 -214923.000000 0 0 1
6.659851 29.583502 30.400047 42.938328 1.349367 0.784144 0.008745 -0.021359 69095.500000 0 0 1
7.355251 28.568202 31.070907 42.844406 1.318806 0.759467 -0.001187 -0.015891 -288958.000000 0 0 1
7.522851 28.723302 32.571737 44.074248 1.314642 0.739182 0.007151 -0.010309 -67369.200000 0 0 1
6.255251 28.709702 33.207840 44.341129 1.356270 0.724370 0.027642 -0.019426 27025.500000 0 0 1
6.389951 28.438002 -34.215679 44.947348 1.349770 2.436018 0.034190 -0.018602 -8004.990000 0 0 1
6.438851 26.952002 -33.934534 43.811206 1.336291 2.456820 0.024110 -0.016256 -653747.000000 0 0 1
7.665551 26.441202 -34.323074 43.999673 1.288623 2.465583 0.005562 -0.010385 -697883.000000 0 0 1
7.788651 25.036802 -34.022294 42.953708 1.269198 2.484987 0.011036 -0.005735 211616.000000 0 0 1
9.151251 24.326402 -34.264125 43.006389 1.210986 2.492648 -0.013984 0.004003 -87490.200000 0 0 1
9.481151 23.939102 33.245161 42.050131 1.193697 0.658995 -0.020228 -0.003825 799114.000000 0 0 1
10.761151 23.283902 33.098109 41.873945 1.137867 0.659298 -0.007215 -0.002681 788380.000000 0 0 1
10.757551 21.747002 33.522278 41.381156 1.111423 0.626498 -0.000451 -0.008293 -1213440.000000 0 0 1
10.201051 20.889202 32.555707 40.003678 1.116519 0.620104 0.003803 -0.010484 281485.000000 0 0 1
9.534951 19.794602 33.213235 39.822864 1.121900 0.584434 -0.003433 -0.004732 364137.000000 0 0 1
8.196851 20.065802 33.954400 40.283074 1.182985 0.568155 0.012498 -0.010979 -516732.000000 0 0 1
8.364451 20.620902 -33.556964 40.264816 1.185446 2.556040 0.016039 -0.018517 819045.000000 0 0 1
7.078651 20.722402 -32.921844 39.539512 1.241630 2.554639 0.025510 -0.016398 749906.000000 0 0 1
7.180651 21.453002 -31.533204 38.808968 1.247802 2.519265 0.026209 -0.025138 -221772.000000 0 0 1
7.319551 22.833502 -31.613724 39.678359 1.260584 2.492694 0.011833 -0.018972 35421.500000 0 0 1
7.490851 23.377802 -30.339454 39.027130 1.260707 2.461308 0.008387 -0.022588 571362.000000 0 0 1
8.961051 23.463802 -29.771944 38.951496 1.205982 2.440804 0.007912 -0.016355 916304.000000 0 0 1
9.549751 22.183002 -29.495524 38.121768 1.164278 2.455486 0.014498 -0.027177 -451088.000000 0 0 1
10.874551 22.355002 -29.070484 38.250425 1.118049 2.434116 0.016749 -0.023099 102741.000000 0 0 1
11.650951 21.022102 -28.792664 37.505878 1.064716 2.446016 0.014554 -0.028869 64057.600000 0 0 1
11.893051 20.111802 -29.914584 37.958024 1.036764 2.478507 0.006235 -0.023249 467471.000000 0 0 1
10.735551 19.699902 -30.658414 37.990479 1.071835 2.509855 0.021165 -0.018146 326064.000000 0 0 1
11.117851 18.878402 -31.954824 38.744179 1.038564 2.540582 0.025631 -0.009483 -298279.000000 0 0 1
11.416451 17.485902 -31.719004 37.976141 0.992389 2.559356 0.030451 0.000495 127826.000000 0 0 1
11.542751 16.707002 -32.880914 38.646002 0.966209 2.588346 0.032486 0.012008 -740426.000000 0 0 1
12.840351 16.729802 -33.662304 39.722935 0.916180 2.581917 0.023318 0.021458 -839313.000000 0 0 1
13.113851 17.959602 -34.257994 40.842754 0.940097 2.565831 0.021598 0.009383 4499.040000 0 0 1
13.527151 17.936702 33.164746 40.057576 0.924638 0.595395 0.025805 0.007806 43849.200000 0 0 1
12.568851 17.268402 32.157427 38.604065 0.941621 0.586277 0.023352 -0.008119 -714289.000000 0 0 1
12.917051 17.543702 30.821057 37.743466 0.936135 0.615312 0.011131 -0.004894 349242.000000 0 0 1
11.975651 17.164002 29.789747 36.406705 0.961603 0.612438 0.018992 -0.009154 924454.000000 0 0 1
10.491351 17.630702 29.843107 36.214929 1.034016 0.602264 0.015587 -0.014574 516071.000000 0 0 1
9.666351 16.933202 30.789717 36.444181 1.052085 0.564519 0.027790 -0.009192 12902.800000 0 0 1
8.338251 17.402102 30.782217 36.330489 1.123966 0.559947 0.035636 -0.015002 -37803.100000 0 0 1
7.521851 16.571402 31.792777 36.632912 1.144699 0.519888 0.043899 -0.007299 -122904.000000 0 0 1
7.916251 16.846402 33.167572 38.033618 1.131511 0.511402 0.048725 -0.002464 495343.000000 0 0 1
7.298451 15.869302 34.041626 38.261396 1.139732 0.474082 0.061313 -0.001689 18209.000000 0 0 1
7.456951 15.918502 -33.256524 37.616501 1.132709 2.655348 0.055173 -0.004225 271059.000000 0 0 1
6.611351 16.969302 -32.726754 37.452738 1.199282 2.633789 0.048330 -0.001671 550416.000000 0 0 1
6.429951 16.907102 -31.324234 36.171840 1.207378 2.617911 0.056778 -0.009455 -261681.000000 0 0 1
5.591151 18.051602 -30.785334 36.122819 1.270436 2.591050 0.048549 -0.011286 -645552.000000 0 0 1
5.580451 17.932302 -29.360304 34.853067 1.269100 2.572522 0.036845 -0.017698 229829.000000 0 0 1
4.882551 19.001402 -28.693914 34.759650 1.319280 2.541875 0.041954 -0.020199 258845.000000 0 0 1
3.345851 18.956502 -28.794434 34.636153 1.396094 2.552312 0.052537 -0.029073 -1608190.000000 0 0 1
2.681651 17.951902 -28.099284 33.451932 1.422513 2.568061 0.057516 -0.029629 -694219.000000 0 0 1
1.317151 17.895502 -28.355004 33.555776 1.497326 2.577382 0.063216 -0.028740 -449522.000000 0 0 1
0.405351 19.043302 -27.917854 33.796719 1.549514 2.542863 0.062783 -0.035022 -1263450.000000 0 0 1
0.256251 19.232502 -26.536574 32.774144 1.557473 2.514403 0.068302 -0.035757 138638.000000 0 0 1
-0.374649 20.507302 -26.324224 33.371463 -1.552529 2.479690 0.081386 -0.030283 8253.920000 0 0 1
-0.865049 20.883302 -24.917944 32.523292 -1.529397 2.443636 0.051591 -0.026497 168040.000000 0 0 1
-2.022149 20.165802 -24.505744 31.800631 -1.470854 2.450587 0.055319 -0.024396 235803.000000 0 0 1
-2.441649 20.472702 -23.224144 31.055660 -1.452093 2.415574 0.054817 -0.014742 -340415.000000 0 0 1
-3.547649 19.537402 -22.753744 30.199813 -1.391171 2.424074 0.043544 -0.014941 -416769.000000 0 0 1
-4.817049 19.822202 -23.271544 30.946541 -1.332405 2.421875 0.041763 -0.012775 -344667.000000 0 0 1
-5.797349 18.932402 -22.779144 30.181691 -1.273649 2.426045 0.032663 -0.014821 -564432.000000 0 0 1
-7.208749 19.481202 -22.770144 30.821465 -1.216385 2.402048 0.043913 -0.012905 -731292.000000 0 0 1
-7.432149 20.284302 -21.564544 30.524077 -1.219587 2.355304 0.018627 -0.005109 197453.000000 0 0 1
-7.097849 21.636702 -21.710244 31.462056 -1.253811 2.332348 0.024704 -0.008695 -115346.000000 0 0 1
-7.751549 22.477602 -20.551944 31.427877 -1.238711 2.283577 0.030468 -0.010738 -104529.000000 0 0 1
-7.194349 22.314002 -19.273844 30.350525 -1.258905 2.258859 0.037711 -0.017007 34359.800000 0 0 1
-7.581649 23.272202 -18.295044 30.557902 -1.255858 2.212675 0.052810 -0.015461 -363073.000000 0 0 1
-6.535449 23.388502 -17.184144 29.749435 -1.298316 2.186618 0.060624 -0.023600 414342.000000 0 0 1
-5.273649 23.918202 -17.614044 30.168631 -1.353782 2.194263 0.057523 -0.022360 -385067.000000 0 0 1
-4.496949 23.990302 -16.473344 29.447040 -1.385498 2.164486 0.052152 -0.021251 305199.000000 0 0 1
-3.060749 24.523402 -16.827644 29.898746 -1.446629 2.168591 0.052746 -0.014079 682896.000000 0 0 1
-3.029549 25.902102 -17.103244 31.186824 -1.454364 2.151261 0.042819 -0.025123 618139.000000 0 0 1
-1.683749 26.326802 -17.379244 31.590720 -1.506928 2.153325 0.042283 -0.026383 893574.000000 0 0 1
-1.380449 27.786202 -17.072144 32.641028 -1.521156 2.121195 0.031671 -0.043961 -207699.000000 0 0 1
-2.269749 28.725902 -17.646444 33.789439 -1.491946 2.120280 0.034397 -0.045743 -239106.000000 0 0 1
-1.855349 29.238202 -18.901844 34.865376 -1.507425 2.143776 0.031363 -0.036341 -447580.000000 0 0 1
-3.079449 29.550102 -19.796544 35.701466 -1.466960 2.158561 0.049290 -0.037409 794780.000000 0 0 1
-3.894349 30.660702 -19.325944 36.451840 -1.444458 2.129606 0.043937 -0.031690 -48224.200000 0 0 1
-4.875649 30.339202 -18.394344 35.813279 -1.411454 2.110192 0.033265 -0.034269 -788001.000000 0 0 1
-5.371049 31.576602 -17.725344 36.607619 -1.402313 2.076243 0.038124 -0.023808 -143517.000000 0 0 1
-5.900749 32.581902 -18.538344 37.948245 -1.391633 2.081185 0.058756 -0.024093 -88143.100000 0 0 1
-6.161249 33.721202 -17.740044 38.597792 -1.390078 2.048356 0.056421 -0.031555 203520.000000 0 0 1
-6.866149 -34.023756 -18.577944 39.368769 1.371666 2.062236 0.055204 -0.017131 711054.000000 0 0 1
-8.057049 -34.419256 -19.271444 40.261517 1.340851 2.069920 0.071832 -0.025246 325597.000000 0 0 1
-8.701549 -33.284756 -19.808544 39.698493 1.315092 2.093212 0.113655 -0.032528 -123675.000000 0 0 1
29.454251 -20.392298 -26.694834 44.676760 -0.605565 2.211189 0.031062 -0.000006 320477.000000 0 0 1
28.528251 -21.377298 -26.207594 44.245768 -0.643077 2.204730 0.035452 -0.003627 856992.000000 0 0 1
27.364051 -21.542598 -27.044194 44.093801 -0.666924 2.231070 0.031084 -0.002947 727645.000000 0 0 1
26.576251 -22.831198 -26.760984 44.087538 -0.709743 2.223072 0.018887 -0.004197 113245.000000 0 0 1
27.181051 -24.106898 -27.092544 45.320614 -0.725531 2.211547 0.011720 0.004265 -816766.000000 0 0 1
28.205251 -24.572398 -26.318824 45.738599 -0.716673 2.183912 0.020753 0.007722 -460956.000000 0 0 1
28.710151 -25.989638 -26.815584 47.104242 -0.735704 2.176428 0.026637 0.000893 200917.000000 0 0 1
27.884051 -26.973088 -26.244124 46.838252 -0.768794 2.165561 0.029223 -0.004387 -378478.000000 0 0 1
28.182351 -28.288148 -26.741904 48.058232 -0.787272 2.160901 0.031029 -0.001789 357820.000000 0 0 1
27.117651 -28.863768 -27.722724 48.342875 -0.816579 2.181520 0.045593 -0.001245 -134786.000000 0 0 1
26.961651 -28.261848 -29.021774 48.661341 -0.808938 2.209809 0.025614 -0.000970 526743.000000 0 0 1
28.101451 -28.276658 -29.915494 49.841727 -0.788506 2.214560 0.011055 0.001324 538634.000000 0 0 1
28.232451 -29.662018 -30.550864 51.090722 -0.810086 2.211766 0.024433 0.000251 -993304.000000 0 0 1
28.571151 -30.787728 -29.713194 51.449672 -0.822723 2.186483 0.035903 -0.000289 951762.000000 0 0 1
29.932951 -30.801348 -29.198994 51.935401 -0.799695 2.167861 0.032859 0.000355 1541460.000000 0 0 1
31.095451 -30.856478 -30.237994 53.229556 -0.781541 2.174952 0.028905 -0.003459 -429977.000000 0 0 1
31.222551 -29.576008 -30.827464 52.914275 -0.758323 2.192711 0.034017 -0.013304 -212157.000000 0 0 1
32.473551 -29.380888 -31.478384 53.931964 -0.735441 2.194036 0.022559 -0.015879 415747.000000 0 0 1
32.564951 -27.916778 -32.153754 53.606776 -0.708696 2.214057 0.017888 0.000145 61597.800000 0 0 1
32.532951 -26.812648 -31.264754 52.486149 -0.689305 2.208904 0.003438 0.008590 140129.000000 0 0 1
31.212651 -26.333938 -31.011764 51.278021 -0.700822 2.220282 0.022644 0.008074 481634.000000 0 0 1
31.227751 -24.962198 -30.245374 50.130494 -0.674350 2.218470 0.012556 0.008531 121620.000000 0 0 1
31.831351 -25.098038 -28.958164 49.816882 -0.667670 2.191112 0.018997 0.009866 75976.300000 0 0 1
31.821951 -23.757698 -28.393894 48.818829 -0.641310 2.191512 0.015225 0.006228 -207566.000000 0 0 1
32.662151 -23.538198 -27.123774 48.544433 -0.624455 2.163663 0.013508 0.000023 -550283.000000 0 0 1
32.287451 -24.167098 -25.901284 47.931249 -0.642539 2.141690 0.019600 -0.002002 -242369.000000 0 0 1
31.512751 -23.333798 -25.050344 46.529983 -0.637365 2.139298 0.031874 -0.006821 -124408.000000 0 0 1
32.101451 -22.041398 -24.300244 45.900199 -0.601687 2.128707 0.018377 -0.005563 -236718.000000 0 0 1
32.448351 -20.988798 -25.150594 46.108324 -0.574149 2.147743 0.027352 -0.014287 -42849.000000 0 0 1
32.546451 -19.725398 -24.400544 45.207846 -0.544870 2.140926 0.016063 -0.018740 -9257.770000 0 0 1
32.701951 -18.478998 -25.222524 45.244521 -0.514342 2.162133 0.012436 -0.024505 42607.800000 0 0 1
31.563751 -18.259398 -26.028664 44.801421 -0.524455 2.190727 0.023035 -0.014572 -47526.100000 0 0 1
31.524751 -16.991698 -26.584804 44.601340 -0.494355 2.209374 0.025490 -0.013231 -264130.000000 0 0 1
30.498451 -16.922098 -27.711924 44.547319 -0.506560 2.242191 0.016086 -0.004553 -899980.000000 0 0 1
29.190251 -17.035198 -27.268674 43.426367 -0.528267 2.249686 0.015844 0.004599 -434658.000000 0 0 1
28.294351 -16.655498 -28.335274 43.368925 -0.532033 2.282803 0.009555 0.001644 -1187650.000000 0 0 1
26.964051 -16.225998 -27.850104 42.023462 -0.541716 2.295251 -0.000858 0.004924 -1414440.000000 0 0 1
26.294251 -17.301598 -27.202904 41.602054 -0.581978 2.283503 -0.005588 0.010880 26001.100000 0 0 1
25.872751 -16.956998 -25.909414 40.351416 -0.580162 2.268023 -0.003465 0.012116 -178988.000000 0 0 1
25.316351 -18.108498 -25.095184 39.982541 -0.620913 2.249332 0.004717 0.008163 -489691.000000 0 0 1
24.940651 -17.610498 -23.811344 38.718805 -0.614806 2.233159 0.000234 0.014006 -72981.400000 0 0 1
24.892151 -18.649598 -22.815144 38.574052 -0.642999 2.203669 0.010786 0.005559 -253704.000000 0 0 1
25.150351 -18.150598 -21.348644 37.653008 -0.625131 2.173636 0.007914 0.003927 102748.000000 0 0 1
24.219851 -17.267298 -20.743744 36.263807 -0.619358 2.179767 0.006105 0.001729 -220052.000000 0 0 1
24.068351 -15.937598 -21.187944 35.808121 -0.584891 2.203972 -0.009984 0.020710 -612627.000000 0 0 1
25.175351 -14.960498 -20.863444 35.956892 -0.536182 2.189813 -0.023247 0.023910 -594730.000000 0 0 1
25.313751 -14.552198 -19.555744 35.142276 -0.521739 2.160932 -0.020202 0.012372 -16821.000000 0 0 1
26.472251 -13.797398 -19.346944 35.573199 -0.480465 2.145830 -0.031291 0.018011 -324649.000000 0 0 1
26.302151 -12.870498 -18.162944 34.457879 -0.455077 2.125987 -0.025059 0.019120 -362250.000000 0 0 1
26.557451 -13.500198 -16.930344 34.266458 -0.470297 2.087572 -0.032631 0.022124 298525.000000 0 0 1
26.081451 -12.629298 -15.912544 33.059799 -0.450948 2.072963 -0.028026 0.020530 296984.000000 0 0 1
26.872851 -12.726598 -14.559244 33.107220 -0.442294 2.026128 -0.018144 0.013820 -197789.000000 0 0 1
26.691251 -13.867498 -13.858044 33.117605 -0.479167 2.002534 0.008474 0.002708 -218544.000000 0 0 1
27.322251 -13.962998 -12.655944 33.191018 -0.472447 1.962005 0.011084 -0.001813 -625442.000000 0 0 1
26.948351 -15.253398 -11.956844 33.194064 -0.515062 1.939290 0.020760 -0.021289 389826.000000 0 0 1
25.590551 -15.303998 -11.530744 31.969466 -0.538972 1.939793 0.015272 -0.023824 385073.000000 0 0 1
25.310351 -16.445698 -10.796644 32.056862 -0.576208 1.914309 0.027034 -0.020975 27484.700000 0 0 1
23.854051 -16.532798 -10.289044 30.793077 -0.606067 1.911484 0.037004 -0.021345 2244.740000 0 0 1
23.465751 -15.754998 -9.187944 29.720023 -0.591275 1.885095 0.039181 -0.022360 466696.000000 0 0 1
22.126951 -16.066398 -8.833344 28.736024 -0.628029 1.883252 0.052432 -0.025614 81436.400000 0 0 1
21.803651 -15.644198 -7.368644 27.828709 -0.622377 1.838778 0.042978 -0.026835 -314998.000000 0 0 1
21.889051 -14.265498 -6.967244 27.040294 -0.577582 1.831398 0.037283 -0.013050 376567.000000 0 0 1
21.572951 -13.986798 -5.620044 26.317440 -0.575214 1.786002 0.038944 -0.013808 -404240.000000 0 0 1
22.529751 -14.616198 -4.603644 27.247321 -0.575497 1.740568 0.033519 -0.014487 -474778.000000 0 0 1
23.818651 -14.057398 -4.665544 28.048278 -0.533171 1.737913 0.026012 -0.016807 -60724.100000 0 0 1
24.730651 -14.743598 -3.832544 29.045950 -0.537596 1.703130 0.027175 -0.024551 -739387.000000 0 0 1
26.178151 -14.443998 -4.160944 30.186721 -0.504192 1.709077 0.029925 -0.021938 -779270.000000 0 0 1
26.615251 -13.229798 -3.577544 29.936566 -0.461306 1.690587 0.045583 -0.013350 -199112.000000 0 0 1
27.797651 -12.706698 -4.113344 30.839734 -0.428754 1.704573 0.049946 -0.008305 -564628.000000 0 0 1
28.374651 -11.558598 -3.310444 30.816896 -0.386832 1.678427 0.055074 -0.022139 -1312550.000000 0 0 1
29.075651 -11.947898 -2.146844 31.508010 -0.389888 1.638986 0.062119 -0.027609 664727.000000 0 0 1
29.856151 -10.865598 -1.580344 31.811138 -0.349032 1.620496 0.070247 -0.019132 788432.000000 0 0 1
31.242551 -10.609798 -2.230244 33.070210 -0.327375 1.638287 0.065969 -0.019070 -483900.000000 0 0 1
31.030151 -10.134898 -3.517944 32.832337 -0.315691 1.678151 0.046188 -0.014699 396068.000000 0 0 1
31.994251 -10.671998 -4.447144 34.019123 -0.321954 1.701896 0.046387 -0.017921 116894.000000 0 0 1
31.588551 -10.399698 -5.974944 33.788907 -0.318047 1.748563 0.034101 -0.016729 879409.000000 0 0 1
30.463451 -11.232798 -6.386344 33.090527 -0.353263 1.765011 0.016765 -0.017562 1099920.000000 0 0 1
30.329851 -11.213998 -7.803844 33.264901 -0.354147 1.807600 0.015326 -0.011628 -34766.500000 0 0 1
29.114251 -12.067998 -8.216244 32.569662 -0.392948 1.825818 -0.006599 -0.014776 -12867.900000 0 0 1
29.299751 -13.450998 -8.114644 33.245334 -0.430381 1.817371 -0.009394 -0.010180 195216.000000 0 0 1
28.081251 -14.171298 -8.005744 32.457269 -0.467363 1.820023 -0.011580 -0.011903 137161.000000 0 0 1
28.312651 -15.699698 -8.049744 33.359933 -0.506301 1.814501 -0.000461 -0.018636 -140661.000000 0 0 1
28.874551 -16.142698 -9.261344 34.352568 -0.509775 1.843771 0.003006 -0.022041 209937.000000 0 0 1
29.165851 -17.516998 -9.161644 35.233902 -0.540860 1.833843 0.011279 -0.024574 -142154.000000 0 0 1
29.416051 -18.122998 -10.526844 36.118715 -0.552168 1.866540 0.011049 -0.032704 244444.000000 0 0 1
30.601851 -17.630198 -11.157644 37.037686 -0.522672 1.876801 0.013270 -0.021990 401876.000000 0 0 1
30.894451 -18.063698 -12.470044 37.898104 -0.529087 1.906085 0.012463 -0.005906 -308459.000000 0 0 1
30.163251 -17.404198 -13.650844 37.404189 -0.523336 1.944381 0.010016 -0.007619 -265179.000000 0 0 1
30.461251 -16.083198 -13.947444 37.162996 -0.485787 1.955522 -0.005604 0.004286 89821.900000 0 0 1
29.651751 -15.615198 -15.005444 36.718171 -0.484716 1.991788 -0.009531 0.005803 -426031.000000 0 0 1
30.371751 -14.505598 -15.830844 37.195044 -0.445569 2.010440 -0.020059 0.017895 698099.000000 0 0 1
31.393751 -14.922898 -16.745044 38.583118 -0.443731 2.019723 -0.026191 0.020195 164434.000000 0 0 1
32.719751 -14.814098 -16.326544 39.453715 -0.425144 1.997437 -0.017601 0.013450 -611419.000000 0 0 1
33.718451 -15.357898 -17.370944 40.921250 -0.427397 2.009202 -0.003221 0.011826 -110086.000000 0 0 1
35.036051 -15.388398 -16.863244 41.817421 -0.413850 1.985872 0.010386 0.006504 -74570.900000 0 0 1
-35.359632 -15.972998 -17.809944 42.692322 0.424291 2.001125 0.021795 0.001214 772157.000000 0 0 1
-33.845732 -15.987298 -17.371744 41.266267 0.441290 2.005308 0.039812 -0.003717 876080.000000 0 0 1
-33.479032 -17.008198 -16.407844 40.979772 0.470047 1.982737 0.033988 -0.001213 -43713.900000 0 0 1
-33.923332 -16.739498 -15.096444 40.729668 0.458395 1.950505 0.030576 -0.004531 -462879.000000 0 0 1
-33.367532 -17.531398 -13.915044 40.179231 0.483763 1.924446 0.018839 -0.004094 867267.000000 0 0 1
-31.967832 -17.343698 -13.595444 38.827597 0.497095 1.928526 0.029194 -0.010247 1014450.000000 0 0 1
-31.611132 -17.901298 -12.324744 38.361693 0.515269 1.897874 0.033846 0.000047 -64404.000000 0 0 1
-30.123232 -17.732998 -11.982644 36.952024 0.532056 1.901042 0.043456 -0.008196 -16472.800000 0 0 1
-29.720432 -16.325498 -11.897644 35.935775 0.502307 1.908245 0.042883 -0.019066 62731.100000 0 0 1
-28.593932 -16.070998 -11.069144 34.618144 0.512042 1.896262 0.049034 -0.023100 79873.500000 0 0 1
-28.656532 -15.980198 -9.542744 34.170565 0.508694 1.853828 0.038695 -0.014568 -195883.000000 0 0 1
-28.716632 -17.270398 -8.941544 34.682313 0.541454 1.831554 0.023134 -0.006030 -137622.000000 0 0 1
-29.008232 -17.256498 -7.526544 34.581977 0.536648 1.790196 0.035060 -0.001710 -29158.600000 0 0 1
-28.939032 -18.702698 -6.936944 35.147969 0.573755 1.769465 0.019210 -0.006970 -233670.000000 0 0 1
-29.944832 -19.550098 -7.405644 36.520445 0.578391 1.774993 0.024590 -0.012036 -692818.000000 0 0 1
-29.888332 -19.989398 -8.751644 37.006482 0.589480 1.809548 0.016455 -0.005677 -547843.000000 0 0 1
-31.105532 -20.753398 -9.229244 38.515408 0.588367 1.812776 0.026457 -0.013287 167213.000000 0 0 1
-32.270132 -19.984998 -9.543444 39.138714 0.554492 1.817116 0.026705 -0.016574 503407.000000 0 0 1
-33.385332 -20.822898 -9.798444 40.548527 0.557674 1.814859 0.021488 -0.015795 617541.000000 0 0 1
-34.771432 -20.133698 -9.920644 41.386441 0.524858 1.812861 0.017889 -0.019983 401720.000000 0 0 1
-35.012732 -19.512398 -11.185344 41.614145 0.508426 1.842930 0.011566 -0.019130 -921783.000000 0 0 1
34.894651 -19.326298 -11.361544 41.475621 -0.505792 1.848276 0.028761 -0.025684 -1064540.000000 0 0 1
34.585551 -19.038198 -12.810344 41.505641 -0.503202 1.884560 0.021416 -0.008389 -237944.000000 0 0 1
34.854151 -20.135098 -13.688644 42.516032 -0.523858 1.898600 0.018086 0.002463 211490.000000 0 0 1
34.250151 -19.977398 -14.951144 42.375771 -0.528034 1.931383 0.009298 0.003969 902736.000000 0 0 1
32.932751 -20.777398 -15.307544 41.840020 -0.562833 1.945352 0.009991 -0.004377 319018.000000 0 0 1
31.813751 -20.368598 -14.530644 40.473870 -0.569487 1.938006 0.023769 -0.006661 508630.000000 0 0 1
30.648751 -21.117698 -14.919044 40.098392 -0.603321 1.952025 0.025321 -0.004312 809693.000000 0 0 1
29.886451 -20.642098 -16.191944 39.767766 -0.604446 1.990142 0.014957 -0.007954 -851143.000000 0 0 1
29.268951 -19.408698 -15.999044 38.591948 -0.585540 1.998266 0.003576 -0.000902 -349446.000000 0 0 1
28.561951 -19.076398 -17.137444 38.384711 -0.588853 2.033608 0.002108 -0.003990 -700572.000000 0 0 1
27.827751 -17.798098 -16.934744 37.120636 -0.569016 2.044526 0.004544 -0.002978 -848246.000000 0 0 1
26.682851 -17.863598 -16.125544 35.932101 -0.589947 2.036194 0.008167 -0.008378 -31671.300000 0 0 1
26.004651 -16.629898 -16.078244 34.803812 -0.568956 2.051009 0.000435 -0.002270 -166538.000000 0 0 1
24.545851 -16.712098 -15.503744 33.498643 -0.597759 2.051967 0.009702 -0.009459 393853.000000 0 0 1
23.591951 -17.386598 -16.240944 33.505854 -0.635111 2.076839 0.015133 -0.013261 -146982.000000 0 0 1
23.111051 -16.663698 -17.339444 33.353498 -0.624699 2.117494 0.002273 -0.008489 -175361.000000 0 0 1
22.014651 -17.295698 -18.283544 33.437614 -0.665926 2.149329 0.010057 -0.000485 594353.000000 0 0 1
20.732851 -17.428098 -17.717044 32.364848 -0.699013 2.150070 0.018200 0.002808 -409639.000000 0 0 1
19.877651 -18.074698 -18.607344 32.681019 -0.737928 2.176526 0.022764 -0.007338 603278.000000 0 0 1
18.382951 -18.282898 -18.191544 31.672220 -0.782669 2.182630 0.023724 -0.003498 271295.000000 0 0 1
17.667551 -17.119598 -18.112044 30.549454 -0.769648 2.205422 0.028163 -0.003492 -29591.700000 0 0 1
16.403851 -17.510698 -17.536044 29.719080 -0.818023 2.201930 0.035295 -0.012215 881231.000000 0 0 1
15.429051 -16.290698 -17.324844 28.347710 -0.812556 2.228315 0.034417 -0.000991 22858.400000 0 0 1
14.764151 -15.781498 -18.437844 28.407568 -0.818692 2.277127 0.038938 0.007103 205419.000000 0 0 1
13.633951 -14.999498 -18.094544 27.171347 -0.833053 2.299552 0.038870 0.003549 167730.000000 0 0 1
12.845751 -14.426798 -19.281844 27.293504 -0.843305 2.355284 0.041225 -0.007972 -148729.000000 0 0 1
13.277551 -13.275198 -19.924044 27.376848 -0.785310 2.385861 0.046174 -0.017131 32884.500000 0 0 1
12.463651 -13.052198 -21.071344 27.743540 -0.808460 2.433347 0.033322 -0.007947 248321.000000 0 0 1
12.617051 -11.599098 -21.607044 27.578858 -0.743387 2.471017 0.040033 -0.005287 224459.000000 0 0 1
13.914251 -11.430198 -22.157744 28.552083 -0.687699 2.459169 0.046665 -0.004456 68796.400000 0 0 1
13.957451 -10.141598 -22.710744 28.520876 -0.628362 2.491925 0.031907 -0.007959 98983.800000 0 0 1
15.268951 -9.720898 -23.410744 29.592223 -0.566929 2.483420 0.030219 -0.000598 -9974.130000 0 0 1
15.525951 -10.348698 -24.645944 30.912348 -0.587916 2.493580 0.039581 -0.004880 -524095.000000 0 0 1
16.762451 -9.862698 -25.048044 31.712097 -0.531832 2.481373 0.029813 -0.007919 -864786.000000 0 0 1
21.748651 4.848602 -7.010444 23.359347 0.219351 1.875607 0.055530 0.008656 -372069.000000 0 1 0
21.551751 6.251602 -7.198544 23.566492 0.282326 1.881214 0.040867 0.002283 812103.000000 0 1 0
20.915851 6.879602 -6.085844 22.843801 0.317772 1.840464 0.029942 -0.000805 -353429.000000 0 1 0
20.886151 8.442002 -6.211244 23.368317 0.384114 1.839828 0.021461 -0.000939 -742974.000000 0 1 0
19.841051 8.921302 -7.014544 22.857400 0.422553 1.882712 -0.013261 -0.000616 269672.000000 0 1 0
19.827251 10.302202 -7.338044 23.518123 0.479203 1.888111 0.006235 0.008621 -153087.000000 0 1 0
19.288951 11.246802 -6.193444 23.171382 0.527878 1.841374 0.011126 0.010704 -836274.000000 0 1 0
20.082451 11.288402 -5.077844 23.590620 0.512088 1.787743 0.013013 0.003368 -307406.000000 0 1 0
19.661251 12.289002 -4.152744 23.554822 0.558626 1.748024 0.029289 0.000036 -264178.000000 0 1 0
20.589651 12.517202 -2.957544 24.276761 0.546235 1.692926 0.023501 -0.013291 -1335870.000000 0 1 0
21.818851 13.022602 -3.321744 25.625854 0.538101 1.700787 0.025779 -0.020267 -410808.000000 0 0 1
22.639251 13.369802 -2.212044 26.385231 0.533448 1.654731 0.017502 -0.018894 405816.000000 0 0 1
23.546151 12.203602 -1.655444 26.572347 0.478168 1.633136 0.016546 -0.025394 -336058.000000 0 0 1
24.636751 11.773902 -2.451544 27.415403 0.445812 1.660338 0.024205 -0.019458 472106.000000 0 0 1
25.353651 10.733702 -1.844544 27.593882 0.400480 1.637692 0.032518 -0.024777 131321.000000 0 0 1
26.783051 10.415502 -2.387944 28.836033 0.370887 1.653702 0.051448 -0.018648 853519.000000 0 0 1
27.614251 11.588202 -2.198844 30.027790 0.397327 1.644089 0.041618 -0.021632 601890.000000 0 0 1
28.993751 11.325002 -2.403944 31.219741 0.372378 1.647873 0.040733 -0.016231 228784.000000 0 0 1
29.892651 12.490502 -1.977844 32.457589 0.395795 1.631770 0.032209 -0.009179 -642242.000000 0 0 1
29.902251 12.724202 -0.560944 32.501763 0.402317 1.588056 0.042451 -0.009156 23369.300000 0 0 1
30.794251 13.729802 -0.185044 33.716874 0.419402 1.576285 0.054763 -0.008323 -32944.100000 0 0 1
32.232351 13.164402 0.089856 34.817151 0.387746 1.568216 0.066345 -0.011317 1208890.000000 0 0 1
33.304751 14.126102 0.338656 36.178279 0.401148 1.561435 0.064108 -0.014278 1254910.000000 0 0 1
33.998051 14.567502 -0.860044 36.997557 0.404815 1.594044 0.064316 -0.005210 -245620.000000 0 0 1
33.324651 15.610202 -1.763144 36.841816 0.438073 1.618672 0.027784 0.016423 -92298.900000 0 0 1
32.252651 15.118702 -2.574144 35.713231 0.438343 1.642937 0.047020 0.014119 150407.000000 0 0 1
31.770051 16.213902 -3.368244 35.826971 0.471895 1.664950 0.026200 0.020154 -237663.000000 0 0 1
30.371351 15.919102 -3.913244 34.513045 0.482779 1.684425 0.042386 0.002937 -823872.000000 0 0 1
30.434251 14.910002 -4.884144 34.240424 0.455542 1.713927 0.020232 0.005543 831408.000000 0 0 1
29.283151 14.714702 -5.733244 33.270039 0.465643 1.743985 0.027703 -0.010706 997500.000000 0 0 1
28.060851 13.998502 -5.087344 31.768703 0.462737 1.731626 0.036445 -0.013975 495369.000000 0 0 1
26.906251 13.793002 -5.906544 30.807150 0.473702 1.763717 0.047606 -0.020995 1431600.000000 0 0 1
25.842851 13.142202 -5.155444 29.447394 0.470459 1.746776 0.047820 -0.009394 925962.000000 0 0 1
24.675351 12.743102 -6.108844 28.435498 0.476705 1.787316 0.043614 -0.008107 -191841.000000 0 0 1
25.060151 11.757702 -7.071744 28.570339 0.438688 1.820917 0.048283 -0.005467 883558.000000 0 0 1
24.047951 11.236202 -7.979744 27.717007 0.437099 1.862830 0.044752 -0.009345 338278.000000 0 0 1
23.842751 12.156402 -9.146044 28.282592 0.471502 1.900096 0.041262 0.001023 268375.000000 0 0 1
23.074551 13.331902 -8.776844 28.057218 0.523917 1.888956 0.033129 0.001087 589360.000000 0 0 1
23.035951 14.207002 -9.822644 28.791983 0.552631 1.918946 0.033028 -0.005046 -261969.000000 0 0 1
22.180651 15.492002 -9.533944 28.685876 0.609683 1.909598 0.027134 -0.010412 1972350.000000 0 0 1
20.752051 15.390502 -9.248144 27.441635 0.638128 1.914537 0.018896 -0.002783 1687750.000000 0 0 1
20.588351 14.993702 -7.917344 26.671626 0.629443 1.872184 0.025457 -0.007270 -325386.000000 0 0 1
19.131151 14.544002 -7.607944 25.207335 0.650014 1.877392 0.027119 -0.008260 408054.000000 0 0 1
18.196551 15.618202 -7.770944 25.207742 0.709296 1.884177 0.041495 -0.008653 88537.100000 0 0 1
16.864951 15.200102 -7.646144 23.956903 0.733524 1.895642 0.045398 -0.008093 -126485.000000 0 1 0
16.145251 15.314002 -6.274044 23.120368 0.758981 1.845607 0.049377 -0.004710 -334998.000000 0 1 0
16.375351 14.283102 -5.263044 22.357521 0.717260 1.808430 0.033846 -0.012822 404053.000000 0 1 0
15.792751 14.695402 -4.065144 21.952021 0.749421 1.757055 0.021028 -0.005941 -442269.000000 0 1 0
15.682051 13.554202 -3.088044 20.956601 0.712745 1.718689 0.023553 0.001916 -865477.000000 0 1 0
16.895451 13.103702 -2.565644 21.534758 0.659670 1.690220 0.028176 0.002435 -2257.960000 0 1 0
16.737851 12.274002 -1.423244 20.804624 0.632732 1.639260 0.024358 0.000479 -138737.000000 0 1 0
16.756051 13.085002 -0.085444 21.260052 0.662993 1.574815 0.032668 -0.004217 -428989.000000 0 1 0
15.762151 14.081702 -0.058144 21.136298 0.729149 1.573547 0.031613 -0.005060 174230.000000 0 1 0
15.806551 14.903502 1.126356 21.753852 0.756001 1.518996 0.025752 -0.004415 -319794.000000 0 1 0
14.520251 15.689702 1.478356 21.428718 0.824090 1.501752 0.023816 -0.004592 -336782.000000 0 1 0
14.198551 16.697202 0.605756 21.926293 0.866096 1.543166 0.024654 -0.009646 256785.000000 0 1 0
13.266751 17.642702 1.101256 22.101682 0.926037 1.520949 0.020034 -0.011584 -91425.400000 0 1 0
13.477751 19.140602 0.545656 23.416023 0.957294 1.547492 0.019769 -0.010319 -44448.800000 0 1 0
13.077751 19.285902 -0.807144 23.315768 0.974921 1.605421 0.031348 -0.009878 183784.000000 0 1 0
12.622851 20.641102 -1.022144 24.216445 1.021935 1.613018 0.028665 -0.015469 818539.000000 0 1 0
11.071451 20.830602 -1.124444 23.616845 1.082268 1.618426 0.020832 -0.011478 598402.000000 0 1 0
10.413151 20.662202 0.096456 23.138055 1.103977 1.566628 0.017828 -0.021023 -1655120.000000 0 1 0
9.058651 20.617802 -0.074944 22.520180 1.156825 1.574124 0.013591 -0.011009 -1075480.000000 0 1 0
8.326551 20.477002 1.292156 22.142916 1.184588 1.512408 0.009288 -0.019952 -94984.000000 0 1 0
8.180751 21.725602 1.876156 23.290479 1.210668 1.490154 0.013854 -0.014868 176208.000000 0 1 0
7.335551 21.618602 3.005356 23.026211 1.243670 1.439904 0.015049 -0.015663 -97531.600000 0 1 0
6.719351 22.906602 3.498456 24.126775 1.285464 1.425280 0.014341 -0.010723 -249450.000000 0 1 0
7.464851 23.478902 4.534956 25.050921 1.262964 1.388763 0.011737 -0.007632 162179.000000 0 0 1
6.885551 24.685502 5.010756 26.113071 1.298779 1.377712 0.006890 -0.004038 -229246.000000 0 0 1
7.508151 25.144902 6.327856 26.994077 1.280629 1.334178 -0.003461 0.004756 -281311.000000 0 0 1
7.214151 24.303102 7.411256 26.412335 1.282240 1.286379 -0.003555 -0.007719 -71043.300000 0 0 1
8.035451 24.504902 8.531356 27.163260 1.253933 1.251312 0.001728 -0.004373 -287876.000000 0 0 1
7.711151 23.624502 9.771956 26.703372 1.255294 1.196149 0.005082 -0.009315 -140118.000000 0 0 1
6.458851 23.772302 10.403156 26.740694 1.305504 1.171209 -0.002656 -0.012123 -63599.200000 0 0 1
6.171351 22.730902 11.303056 26.125439 1.305691 1.123371 -0.016110 -0.011440 -1164520.000000 0 0 1
4.857851 23.010602 11.970756 26.389117 1.362738 1.099968 -0.006347 -0.017023 -544158.000000 0 0 1
3.715051 22.837302 11.146956 25.682651 1.409534 1.121839 -0.007609 -0.016421 344581.000000 0 0 1
2.501751 23.014502 11.882956 26.021735 1.462518 1.096565 -0.011386 -0.022438 245576.000000 0 0 1
1.354751 23.278202 10.892356 25.736228 1.512664 1.133788 0.030643 -0.019228 -365165.000000 0 0 1
1.404351 24.605102 10.355956 26.732547 1.513783 1.172996 0.028204 -0.011831 -210842.000000 0 0 1
0.790351 24.571002 9.104356 26.215417 1.538641 1.216116 0.016683 -0.020723 -14259.400000 0 0 1
-0.534049 25.379502 9.102156 26.967639 -1.549757 1.226514 0.027242 -0.027468 279522.000000 0 0 1
-1.605749 24.795502 9.805456 26.712212 -1.506127 1.194931 0.023752 -0.023970 484767.000000 0 0 1
-2.799949 25.589002 9.730056 27.519279 -1.461810 1.209409 0.021222 -0.021260 1253190.000000 0 0 1
-4.091749 24.832802 10.256256 27.177219 -1.407492 1.183826 0.033578 -0.021980 692509.000000 0 0 1
-4.496549 24.932202 11.611656 27.868695 -1.392363 1.141033 0.019500 -0.008757 -179954.000000 0 0 1
-5.523949 25.863802 11.745156 28.937846 -1.360379 1.152860 0.026137 -0.010976 -582890.000000 0 0 1
-6.164049 26.056602 13.132156 29.822735 -1.338503 1.114819 0.012857 0.014545 94355.700000 0 0 1
-7.078649 24.978002 13.428656 29.229038 -1.294642 1.093445 0.015446 -0.012702 331342.000000 0 0 1
-7.251449 24.900002 14.832656 29.876433 -1.287411 1.051273 0.009514 0.021022 -328169.000000 0 0 1
-8.391749 24.012302 15.328556 29.698093 -1.234587 1.028451 0.009825 0.005822 298496.000000 0 0 1
-9.667449 24.655402 15.255556 30.562729 -1.197116 1.048172 0.005995 0.006026 -69710.800000 0 0 1
-10.687249 23.763102 15.553256 30.344786 -1.148158 1.032643 0.004633 0.004748 -263196.000000 0 0 1
-12.122449 24.315302 15.462956 31.261649 -1.108308 1.053387 0.004972 -0.001183 -78640.400000 0 0 1
-12.489549 25.352202 16.345756 32.648227 -1.113053 1.046432 0.016291 -0.010303 198325.000000 0 0 1
-13.789749 25.846402 16.081256 33.418564 -1.080688 1.068765 0.008028 -0.012242 -8338.340000 0 0 1
-14.255849 27.018202 16.982056 34.951433 -1.085283 1.063431 0.032768 -0.013885 -161116.000000 0 0 1
-15.326449 26.573002 17.778856 35.455778 -1.047635 1.045537 0.027177 -0.019961 -217040.000000 0 0 1
-15.669849 27.570702 18.700156 36.815535 -1.053973 1.038002 0.040954 -0.019505 -191520.000000 0 0 1
-16.937849 27.127402 19.488256 37.451018 -1.012642 1.023516 0.032828 -0.024438 622013.000000 0 0 1
-18.106349 27.242402 18.667156 37.662329 -0.984199 1.052219 0.030828 -0.020155 389738.000000 0 0 1
-19.223349 26.547602 19.213756 37.993167 -0.944073 1.040584 0.028943 -0.019833 217687.000000 0 0 1
-20.444349 26.570202 18.284356 38.187232 -0.914965 1.071500 0.028281 -0.020412 -359977.000000 0 0 1
-21.065749 27.850802 18.270856 39.411383 -0.923225 1.088750 0.013890 -0.018889 58388.600000 0 0 1
-21.510449 28.180002 17.000056 39.316839 -0.918823 1.123659 0.026282 -0.019138 -660820.000000 0 0 1
-22.427649 29.382802 16.959556 40.669092 -0.918843 1.140639 0.018042 -0.013974 -428568.000000 0 0 1
-23.645249 29.108702 17.610756 41.431305 -0.888595 1.131769 0.000410 -0.016884 28789.900000 0 0 1
-24.520249 30.229702 17.573356 42.707146 -0.889305 1.146713 -0.007251 -0.007409 575136.000000 0 0 1
-25.883509 29.988502 18.292456 43.633476 -0.858738 1.138199 -0.020391 -0.009311 423183.000000 0 0 1
-26.849089 29.173702 17.621456 43.387719 -0.826868 1.152571 0.000223 -0.007651 496766.000000 0 0 1
-28.158099 29.376502 18.128256 44.547627 -0.806572 1.151694 0.024555 -0.016612 218753.000000 0 0 1
-28.626919 28.301102 19.124456 44.566777 -0.779675 1.127279 0.016219 -0.018286 -739708.000000 0 0 1
-28.815709 27.056302 18.541156 43.659627 -0.753919 1.132193 0.026936 -0.020177 181867.000000 0 0 1
-29.146559 26.036902 19.526356 43.688908 -0.729106 1.107454 0.020543 -0.016733 -33753.200000 0 0 1
-29.208019 24.703102 18.769856 42.610551 -0.702030 1.114643 0.029036 -0.022102 275026.000000 0 0 1
-30.307779 24.547902 17.868756 42.900506 -0.680781 1.141186 0.046795 -0.027170 331443.000000 0 0 1
-30.109039 23.474202 16.897256 41.750564 -0.662202 1.154125 0.043518 -0.021659 -221300.000000 0 0 1
-30.447309 21.972702 17.318856 41.349498 -0.625118 1.138628 0.041481 -0.013669 871502.000000 0 0 1
-31.772379 21.687502 16.832956 41.990239 -0.598945 1.158321 0.047614 -0.011776 426423.000000 0 0 1
-32.146429 20.355402 16.937956 41.648885 -0.564481 1.151974 0.046229 -0.012302 -83695.200000 0 0 1
-33.474219 19.916502 16.309856 42.227974 -0.536720 1.174252 0.059799 -0.023904 -197554.000000 0 0 1
-33.532519 20.028602 14.915656 41.809706 -0.538424 1.206009 0.057232 -0.027840 -114949.000000 0 0 1
-34.738141 19.574702 14.332856 42.371431 -0.513144 1.225722 0.064846 -0.028332 145505.000000 0 0 1
-34.788259 19.799302 12.783556 42.019693 -0.517417 1.261669 0.075107 -0.022932 -195313.000000 0 0 1
-34.952386 21.206502 12.532156 42.760261 -0.545350 1.273350 0.066672 -0.029403 6215.270000 0 0 1
-34.846464 21.564002 11.165356 42.472902 -0.554149 1.304788 0.046221 -0.027153 2670.040000 0 0 1
-33.597419 21.120102 10.366356 41.015931 -0.561200 1.315285 0.062786 -0.024940 -469411.000000 0 0 1
-33.613809 19.804202 9.819556 40.230812 -0.532417 1.324225 0.079647 -0.026732 832347.000000 0 0 1
-32.347289 19.532702 9.196556 38.890232 -0.543241 1.332060 0.107796 -0.031235 1012160.000000 0 0 1
-31.325139 18.691302 10.041556 37.834666 -0.537980 1.302171 0.092872 -0.034128 121117.000000 0 0 1
-31.025569 19.201802 11.321656 38.203076 -0.554203 1.269923 0.089804 -0.031212 219361.000000 0 0 1
-30.864629 18.163602 12.252356 37.850521 -0.531915 1.241155 0.063776 -0.034548 -234252.000000 0 0 1
-30.616099 18.745102 13.649456 38.406145 -0.549388 1.207457 0.046941 -0.017711 651948.000000 0 0 1
-29.367659 19.437402 13.856956 37.845570 -0.584670 1.195934 0.033484 -0.014696 617376.000000 0 0 1
-29.491069 20.791702 13.533056 38.537794 -0.614085 1.211983 0.032490 -0.008025 197863.000000 0 0 1
-28.178449 21.610902 13.659056 38.047679 -0.654249 1.203602 0.035443 -0.015722 116159.000000 0 0 1
-27.825959 21.804102 14.973656 38.391577 -0.664654 1.170138 0.036120 -0.007400 -488304.000000 0 0 1
-26.659389 22.571702 15.101656 38.056074 -0.702558 1.162740 0.039309 -0.018247 -529136.000000 0 0 1
-26.132429 22.489102 16.545056 38.241370 -0.710606 1.123368 0.043095 -0.021376 -807077.000000 0 0 1
-25.264459 21.414802 16.665556 37.075968 -0.703114 1.104594 0.057566 -0.014209 -194601.000000 0 0 1
-25.024749 21.019902 17.970656 37.296364 -0.698639 1.068050 0.051407 -0.010635 -162933.000000 0 0 1
-24.035949 19.829002 18.047156 36.008554 -0.689784 1.045822 0.051023 -0.008194 -59897.500000 0 0 1
-23.570649 19.808902 19.345156 36.362111 -0.698897 1.009819 0.043108 -0.008014 611865.000000 0 0 1
-22.569849 18.775602 19.562456 35.279045 -0.693885 0.983027 0.037590 -0.005275 699488.000000 0 0 1
-22.026149 18.657902 21.009156 35.702285 -0.702796 0.941651 0.031420 -0.010984 153531.000000 0 0 1
-22.957249 18.049102 21.889556 36.496000 -0.666273 0.927571 0.027523 0.004176 182454.000000 0 0 1
-22.572149 18.090002 23.231756 37.100735 -0.675612 0.894152 0.020622 0.005144 -284638.000000 0 0 1
-23.563349 17.297702 24.063056 37.861228 -0.633243 0.882064 0.004365 0.010413 -525654.000000 0 0 1
-23.186149 15.934002 24.125656 37.061263 -0.602098 0.861939 0.000260 0.001635 -503029.000000 0 0 1
-23.997449 15.093002 24.853556 37.701134 -0.561429 0.851008 -0.011637 -0.003777 -483602.000000 0 0 1
19.860651 25.082902 33.961548 46.658163 0.901075 0.755571 0.063778 -0.000617 57204.300000 0 0 1
20.911551 24.206202 33.590538 46.384883 0.858292 0.760966 0.050842 -0.008661 37607.100000 0 0 1
20.842351 22.862502 34.138727 46.071143 0.831588 0.736238 0.058312 -0.004965 -273890.000000 0 0 1
19.946251 21.852202 33.432832 44.644438 0.830965 0.724443 0.055664 -0.003081 -10569.600000 0 0 1
20.432751 21.380602 32.183797 43.708400 0.808063 0.743166 0.043351 0.004636 349161.000000 0 0 1
19.341651 20.726002 31.557537 42.421041 0.819935 0.731890 0.039103 0.008791 215762.000000 0 0 1
19.696151 20.146902 30.168777 41.279427 0.796711 0.751240 0.018700 0.023073 215566.000000 0 0 1
20.764551 19.201402 30.235947 41.401363 0.746306 0.752017 0.039080 0.014520 60841.000000 0 0 1
20.971051 18.777702 28.881557 40.330279 0.730274 0.772560 0.013955 0.012129 191545.000000 0 0 1
22.125551 17.735902 28.742647 40.376255 0.675717 0.778639 0.018979 0.012160 264095.000000 0 0 1
23.425551 18.273102 28.721267 41.322801 0.662457 0.802312 0.021642 0.013961 117543.000000 0 0 1
24.343751 17.224602 29.089157 41.659142 0.615780 0.797824 0.016464 0.023601 643247.000000 0 0 1
25.779751 17.678202 29.509707 42.987640 0.601091 0.814174 0.021574 0.015303 161899.000000 0 0 1
26.453551 17.954302 28.313307 42.705862 0.596294 0.845999 0.026868 0.021975 -639636.000000 0 0 1
27.737251 18.423802 28.620787 43.908325 0.586311 0.860801 0.033699 0.024083 -409636.000000 0 0 1
28.649651 18.532002 27.387587 43.752914 0.574157 0.894434 0.037974 0.017568 -137743.000000 0 0 1
28.309551 19.423902 26.351187 43.279368 0.601353 0.916170 0.049361 0.008800 87764.300000 0 0 1
29.411751 19.479002 25.467557 43.509528 0.584964 0.945506 0.045805 0.005619 -246292.000000 0 0 1
29.622251 20.769902 24.623007 43.762530 0.611503 0.973208 0.052253 -0.002332 45519.200000 0 0 1
28.614751 21.059302 23.634857 42.672059 0.634455 0.983789 0.044686 -0.004979 237328.000000 0 0 1
28.987451 21.863502 22.497957 42.713500 0.646209 1.016062 0.043225 -0.020586 301236.000000 0 0 1
30.127151 21.260302 21.588757 42.728446 0.614532 1.041119 0.052844 -0.005946 644586.000000 0 0 1
29.546551 20.142302 20.970057 41.454243 0.598348 1.040417 0.047075 0.000649 884.119000 0 0 1
30.411351 19.643102 20.031157 41.375705 0.573497 1.065429 0.061997 -0.000074 -280739.000000 0 0 1
31.423551 18.595102 20.586757 41.916965 0.534336 1.057408 0.061637 0.000869 -379639.000000 0 0 1
30.960651 17.309502 20.748657 41.093643 0.509788 1.041517 0.066065 -0.002296 -187000.000000 0 0 1
31.974751 16.406402 21.092557 41.670741 0.474076 1.040056 0.058430 -0.006807 -935301.000000 0 0 1
31.588051 14.924002 20.745557 40.631378 0.441372 1.034937 0.062771 0.000053 784653.000000 0 0 1
30.736651 14.286802 21.757357 40.277003 0.435104 1.000130 0.049332 -0.000129 1788360.000000 0 0 1
29.379951 14.777502 21.842957 39.480006 0.466028 0.984516 0.046243 0.001554 623241.000000 0 0 1
28.527551 14.268402 23.051157 39.354343 0.463777 0.945012 0.039509 -0.000390 253757.000000 0 0 1
28.156651 12.851002 22.899657 38.501163 0.428172 0.933806 0.042454 0.000345 371338.000000 0 0 1
27.502551 12.459202 24.144867 38.660013 0.425362 0.896249 0.032741 0.005389 130140.000000 0 0 1
26.876351 11.085002 23.968167 37.678754 0.391188 0.881339 0.031637 0.003848 37958.600000 0 0 1
25.725451 11.034102 23.133557 36.314070 0.405184 0.880143 0.028326 0.005662 198907.000000 0 0 1
25.478151 9.700202 22.799057 35.539092 0.363781 0.874318 0.015824 0.006393 33519.800000 0 0 1
24.142851 9.552102 22.028857 34.049823 0.376750 0.867206 0.013191 -0.002361 -565237.000000 0 0 1
22.989351 9.706802 22.773657 33.784193 0.399522 0.831061 0.008452 -0.000467 -402456.000000 0 0 1
21.944051 8.978302 22.174657 32.463313 0.388365 0.818841 -0.002749 0.011192 -54813.400000 0 0 1
20.472951 9.235802 22.547157 31.824771 0.423787 0.783457 0.001763 0.003180 57489.500000 0 0 1
20.197751 8.616702 23.802047 32.384165 0.403239 0.745144 0.022333 0.002835 987701.000000 0 0 1
18.762351 8.588902 23.901177 31.576277 0.429299 0.712187 0.027132 0.003968 747685.000000 0 0 1
18.302751 7.782002 25.134897 32.051728 0.402025 0.669394 0.029527 0.000456 -438790.000000 0 0 1
18.481151 6.383902 24.932717 31.685131 0.332596 0.665043 0.032350 -0.004218 398494.000000 0 0 1
18.058751 5.655702 26.090317 32.230577 0.303507 0.627514 0.024164 -0.009941 -8914.640000 0 0 1
18.333151 4.156502 25.873317 31.981392 0.222951 0.628328 0.033745 -0.017185 83843.300000 0 0 1
19.725051 3.927602 25.955147 32.835550 0.196547 0.659239 0.037985 -0.012878 165292.000000 0 0 1
19.973051 2.517502 25.984017 32.869891 0.125384 0.659153 0.027056 -0.008312 -677857.000000 0 0 1
21.472951 2.349302 25.780757 33.634123 0.108974 0.697413 0.033103 -0.006861 -704385.000000 0 0 1
22.257951 2.734302 26.892167 35.015445 0.122234 0.695070 0.039773 -0.013706 -136208.000000 0 0 1
23.597051 2.760902 26.451577 35.554596 0.116472 0.731803 0.038950 -0.015566 167209.000000 0 0 1
24.581651 3.393102 27.490587 37.033810 0.137167 0.734284 0.031599 -0.015658 -122645.000000 0 0 1
24.785451 2.517902 28.578457 37.912882 0.101241 0.716981 0.045209 -0.019053 -387009.000000 0 0 1
25.709951 2.834902 29.537837 39.262222 0.109821 0.719217 0.043757 -0.014716 1287220.000000 0 0 1
27.279551 2.755302 29.251477 40.092574 0.100661 0.753062 0.044223 -0.012622 960973.000000 0 0 1
27.651751 3.898402 28.519927 39.914948 0.140059 0.774862 0.034844 -0.006585 58234.000000 0 0 1
28.981051 4.021902 28.058527 40.538351 0.137896 0.806336 0.043344 -0.004989 141958.000000 0 0 1
29.519251 2.969402 27.074667 40.165173 0.100255 0.831074 0.044032 -0.007332 -868073.000000 0 0 1
28.910051 3.138102 25.847537 38.906733 0.108124 0.844178 0.027096 0.003809 -9432.150000 0 0 1
29.341551 2.108702 24.976137 38.589903 0.071744 0.866865 0.032241 0.005007 -87155.500000 0 0 1
28.816351 2.335802 23.518857 37.268951 0.080881 0.887880 0.033200 -0.005605 440181.000000 0 0 1
29.438251 3.479302 22.914857 37.467410 0.117644 0.912722 0.018361 -0.000435 -477849.000000 0 0 1
30.679251 3.234402 22.322857 38.078704 0.105038 0.944400 0.010976 0.001536 -392524.000000 0 0 1
31.398251 4.435602 21.722057 38.436603 0.140340 0.970194 0.017466 -0.001869 -433040.000000 0 0 1
30.783051 4.982802 20.577057 37.360940 0.160476 0.987517 0.009020 -0.000648 298560.000000 0 0 1
31.545851 6.076302 20.021157 37.853783 0.190288 1.013483 0.021193 0.001315 1584200.000000 0 0 1
33.105451 6.045802 19.634857 38.962164 0.180632 1.042634 0.020302 -0.004403 1705450.000000 0 0 1
33.956351 6.060402 20.774957 40.266128 0.176617 1.028690 0.031902 -0.002084 32845.400000 0 0 1
34.003951 7.295102 21.459657 40.865683 0.211333 1.017932 0.038448 -0.000032 -668564.000000 0 0 1
34.746651 7.127802 22.818657 42.176136 0.202329 0.999132 0.038498 -0.003317 -86085.900000 0 0 1
34.060651 6.295302 23.733957 41.988802 0.182764 0.970066 0.029799 0.007954 -12976.600000 0 0 1
34.874651 5.873302 24.808527 43.199537 0.166846 0.959075 0.039656 -0.002713 -219364.000000 0 0 1
34.233751 4.855802 25.704507 43.084222 0.140903 0.931525 0.031050 -0.001745 -109111.000000 0 0 1
34.049151 3.535402 25.155327 42.480987 0.103462 0.937066 0.034710 -0.002961 291468.000000 0 0 1
33.076051 2.831402 25.938627 42.129020 0.085395 0.907529 0.037073 -0.001181 214432.000000 0 0 1
33.047251 1.314902 25.764467 41.924426 0.039768 0.908987 0.033700 -0.003625 -122593.000000 0 0 1
32.341151 0.914402 24.601937 40.645313 0.028266 0.920674 0.044306 -0.010623 -138184.000000 0 0 1
32.505351 -0.453198 24.394757 40.643664 -0.013941 0.927032 0.041432 -0.011570 -244523.000000 0 0 1
31.470451 -1.121998 23.466157 39.272238 -0.035637 0.930385 0.042537 -0.009913 755257.000000 0 0 1
30.174551 -1.210998 24.081017 38.624674 -0.040112 0.897633 0.043046 -0.005480 465504.000000 0 0 1
29.228851 -1.841998 23.242857 37.389157 -0.062937 0.899953 0.048537 -0.015982 363379.000000 0 0 1
27.756851 -1.776098 23.694257 36.537859 -0.063901 0.865204 0.036684 -0.002479 7705.700000 0 0 1
27.185051 -0.496498 23.684157 36.058464 -0.018262 0.854194 0.030891 -0.001552 -133424.000000 0 0 1
25.775851 -0.565598 23.792757 35.082897 -0.021939 0.825504 0.033708 -0.002564 -181447.000000 0 0 1
25.181351 0.821502 23.414957 34.395283 0.032612 0.821996 0.029735 0.010367 -367770.000000 0 0 1
25.367951 1.340002 22.134257 33.693529 0.052774 0.854058 0.022579 -0.001090 -46207.600000 0 0 1
24.671951 2.544002 22.046457 33.184686 0.102750 0.844164 0.014016 -0.002848 -150810.000000 0 0 1
24.905551 3.441202 20.825557 32.647085 0.137301 0.879029 0.014191 -0.005393 -424617.000000 0 0 1
24.405751 2.950702 19.657957 31.476699 0.120318 0.896274 0.018097 -0.001692 -17135.700000 0 0 1
24.093451 4.024502 18.808657 30.829476 0.165509 0.914626 0.013970 -0.006366 294661.000000 0 0 1
23.655551 3.585402 17.365457 29.563479 0.150422 0.942959 0.009917 -0.006843 823630.000000 0 0 1
24.849551 3.519002 16.557657 30.067251 0.140677 0.987609 -0.001863 -0.001890 913632.000000 0 0 1
24.651951 3.474102 15.152257 29.144107 0.140004 1.024053 0.000381 -0.009149 -814227.000000 0 0 1
24.173251 2.184202 14.498257 28.272182 0.090111 1.032342 0.007010 -0.004515 -426996.000000 0 0 1
22.791951 1.951002 14.562157 27.117077 0.085392 1.003907 0.040870 -0.009375 14156.500000 0 0 1
22.566051 0.749602 13.882957 26.505189 0.033206 1.019511 0.061809 -0.012653 515448.000000 0 0 1
21.075651 0.225702 13.821757 25.204662 0.010709 0.990369 0.093895 -0.024206 772723.000000 0 0 1
20.122151 0.808002 12.955157 23.945562 0.040133 0.999140 0.100883 -0.016119 538408.000000 0 1 0
20.245551 0.659102 11.571557 23.328474 0.032544 1.051779 0.098055 -0.018662 -834329.000000 0 1 0
20.049751 -0.768698 10.961657 22.863537 -0.038321 1.070782 0.105571 -0.018054 451282.000000 0 1 0
21.046251 -1.796098 11.247357 23.930602 -0.085134 1.081507 0.088374 -0.024386 1004450.000000 0 1 0
22.202051 -1.640398 10.407257 24.575048 -0.073751 1.133503 0.089989 -0.021215 -128701.000000 0 1 0
23.306451 -2.530798 11.005457 25.898179 -0.108164 1.131889 0.081037 -0.024859 -319944.000000 0 0 1
23.725051 -2.059898 12.290657 26.798908 -0.086607 1.094349 0.076218 -0.032427 -34016.400000 0 0 1
24.528351 -2.957398 12.988557 27.912163 -0.119991 1.086781 0.046387 -0.022902 -135596.000000 0 0 1
24.772051 -2.583198 14.461757 28.800518 -0.103903 1.044730 0.037964 -0.018145 -293010.000000 0 0 1
25.668451 -1.529698 14.561357 29.550676 -0.059524 1.055539 0.023574 -0.016264 -324303.000000 0 0 1
25.836551 -1.214798 15.924757 30.374347 -0.046984 1.018923 0.025171 -0.022994 108274.000000 0 0 1
27.083051 -0.338898 16.213157 31.566960 -0.012513 1.031408 0.025170 -0.017296 86568.900000 0 0 1
28.280651 -1.059998 16.311957 32.664947 -0.037464 1.047923 0.027030 -0.020349 -712509.000000 0 0 1
29.425251 -0.286098 16.289657 33.634509 -0.009723 1.065218 0.014631 -0.016734 -596066.000000 0 0 1
30.704351 -1.130198 16.432057 34.843177 -0.036792 1.079692 0.027744 -0.013867 -250949.000000 0 0 1
31.104251 -1.786198 15.256857 34.690584 -0.057363 1.115422 0.035543 -0.011816 -386105.000000 0 0 1
32.500051 -1.894798 15.307957 35.974673 -0.058235 1.131259 0.017255 -0.010268 -613035.000000 0 0 1
32.997851 -2.604698 14.054457 35.960678 -0.078772 1.169265 0.025832 -0.019755 -292416.000000 0 0 1
33.138651 -1.721398 12.986857 35.634139 -0.051899 1.197754 0.031428 -0.020722 23550.600000 0 0 1
33.405151 -2.420598 11.798157 35.509997 -0.072335 1.232109 0.038928 -0.016711 -185397.000000 0 0 1
32.940451 -1.768598 10.476857 34.611642 -0.053639 1.263275 0.055723 -0.008355 -374309.000000 0 0 1
33.489051 -0.529798 10.223457 35.018799 -0.015819 1.274540 0.042551 -0.006979 222327.000000 0 0 1
32.456351 0.428802 9.981657 33.959271 0.013211 1.272460 0.028752 -0.005911 -14717.800000 0 0 1
32.862151 1.867202 9.546057 34.271484 0.056758 1.288520 0.030037 -0.014489 -160426.000000 0 0 1
33.447551 1.886902 8.260457 34.504119 0.056354 1.329043 0.051628 -0.016575 316751.000000 0 0 1
33.747451 3.181802 7.869957 34.798715 0.094005 1.342666 0.051353 -0.018715 -200242.000000 0 0 1
34.069451 3.237902 6.381457 34.812850 0.094754 1.386446 0.042159 -0.018084 -195978.000000 0 0 1
34.610451 4.500702 6.135057 35.436966 0.129313 1.396794 0.032296 -0.022657 275928.000000 0 0 1
35.056251 4.615802 4.759757 35.677747 0.130915 1.436988 0.043203 -0.013742 109191.000000 0 0 1
-35.555832 5.934302 4.294457 36.302555 -0.165377 1.452222 0.044778 -0.032644 146417.000000 0 0 1
34.739551 6.972702 4.233457 35.684410 0.198082 1.451880 0.060351 -0.031139 111630.000000 0 0 1
35.279951 8.235402 3.939457 36.441955 0.229324 1.462482 0.056557 -0.034464 -349943.000000 0 0 1
34.144851 9.282902 3.759057 35.583334 0.265452 1.464958 0.078829 -0.035165 915651.000000 0 0 1
33.182051 9.141502 2.699457 34.523943 0.268827 1.492526 0.087632 -0.034148 948624.000000 0 0 1
32.243051 8.064602 2.867757 33.359799 0.245091 1.484726 0.092552 -0.028003 -291195.000000 0 0 1
31.026551 8.095102 1.926457 32.123026 0.255219 1.510789 0.098695 -0.028744 95515.400000 0 0 1
31.394651 7.816502 0.621257 32.359045 0.244014 1.551596 0.094501 -0.029883 347584.000000 0 0 1
30.198051 7.557602 -0.079143 31.129502 0.245231 1.573339 0.095888 -0.028032 -76559.400000 0 0 1
30.451451 7.491002 -1.612243 31.400721 0.241209 1.622163 0.069567 -0.018254 -294354.000000 0 0 1
29.377851 7.019602 -2.414043 30.301164 0.234544 1.650549 0.075558 -0.019949 565798.000000 0 0 1
29.733651 6.885502 -3.750243 30.750032 0.227562 1.693060 0.072509 -0.016557 -1241570.000000 0 0 1
28.712351 6.233202 -4.613543 29.741162 0.213774 1.726548 0.077420 -0.015583 -1179750.000000 0 0 1
28.698851 4.814802 -4.564743 29.455785 0.166222 1.726393 0.078432 -0.017262 1117140.000000 0 0 1
27.637951 4.315502 -5.387243 28.486879 0.154893 1.761055 0.080123 -0.013032 -33062.800000 0 0 1
27.456551 2.739702 -5.344843 28.105792 0.099454 1.762130 0.092604 -0.011535 -540494.000000 0 0 1
27.099151 2.203702 -4.108043 27.497206 0.081141 1.720756 0.107140 -0.023959 586102.000000 0 0 1
26.817351 0.848002 -4.070743 27.137804 0.031611 1.721367 0.087687 -0.023672 -164389.000000 0 0 1
26.858751 0.334202 -2.614043 26.987727 0.012442 1.667809 0.094448 -0.023132 948300.000000 0 0 1
28.201151 0.412102 -2.079743 28.280737 0.014612 1.644402 0.080136 -0.016938 1236320.000000 0 0 1
28.242151 0.134502 -0.716343 28.251555 0.004762 1.596155 0.088848 -0.014321 99773.600000 0 0 1
29.572851 0.530002 -0.010243 29.577602 0.017920 1.571143 0.087905 -0.013786 -653413.000000 0 0 1
30.646351 -0.273698 -0.307443 30.649115 -0.008931 1.580828 0.058656 -0.010057 -1065340.000000 0 0 1
31.759451 0.467302 0.091957 31.763022 0.014713 1.567901 0.023896 -0.010071 -840346.000000 0 0 1
-3.204649 -21.359098 -8.420244 23.181488 1.421870 1.942530 0.007881 0.007275 393728.000000 0 1 0
-3.667649 -22.085398 -7.275744 23.540453 1.406231 1.885016 0.005247 0.010717 -702229.000000 0 1 0
-2.744949 -23.068798 -6.975044 24.256039 1.452364 1.862474 0.010423 0.007129 -94649.300000 0 1 0
-3.233949 -23.847998 -5.723044 24.737395 1.436012 1.804263 0.006900 0.014749 -145119.000000 0 1 0
-2.906349 -23.125498 -4.556344 23.748596 1.445775 1.763851 0.001118 0.013842 201208.000000 0 1 0
-3.539649 -23.687398 -3.379844 24.187710 1.422462 1.710989 0.003677 0.003332 17790.600000 0 1 0
-3.179349 -22.965098 -2.059944 23.275467 1.433228 1.659415 -0.004395 -0.003264 104337.000000 0 1 0
-1.793849 -22.968498 -1.769944 23.106331 1.492854 1.647471 0.008570 -0.006944 -376071.000000 0 1 0
-1.654949 -22.558898 -0.434444 22.623693 1.497566 1.590001 0.007887 -0.015068 -447522.000000 0 1 0
-0.272949 -22.633598 0.209356 22.636212 1.558737 1.561547 0.009844 -0.017564 -692754.000000 0 1 0
0.519051 -21.700398 -0.414344 21.710559 -1.546882 1.589882 -0.002621 -0.014017 -317921.000000 0 1 0
1.818851 -21.552398 0.166956 21.629655 -1.486604 1.563077 0.009641 -0.010851 859983.000000 0 1 0
2.752351 -20.511098 -0.491744 20.700783 -1.437405 1.594553 0.013569 -0.007344 73921.700000 0 1 0
3.446951 -20.945298 -1.612144 21.288166 -1.407689 1.646598 0.017508 -0.008018 -669720.000000 0 1 0
4.219451 -19.821098 -1.999444 20.363632 -1.361050 1.669142 0.024013 -0.009410 -233415.000000 0 1 0
5.086751 -20.121798 -3.250344 21.007773 -1.323186 1.726141 0.029463 -0.009657 -104656.000000 0 1 0
5.973551 -21.203598 -2.902144 22.219324 -1.296190 1.701784 0.029876 -0.014125 209160.000000 0 1 0
6.926351 -21.633698 -3.856244 23.040440 -1.260944 1.738956 0.034183 -0.014153 421826.000000 0 1 0
8.073751 -20.757598 -4.354244 22.694114 -1.199848 1.763860 0.050767 -0.010871 -220482.000000 0 1 0
7.739551 -19.780798 -5.356844 21.906082 -1.197842 1.817838 0.022683 -0.006655 615769.000000 0 1 0
8.975751 -19.306898 -5.916544 22.098098 -1.135622 1.841843 0.031334 -0.003640 806913.000000 0 1 0
8.681251 -18.104198 -6.885444 21.225821 -1.123670 1.901163 0.014596 -0.000797 -1039170.000000 0 1 0
9.831651 -17.805998 -7.563844 21.700845 -1.066301 1.926821 0.022019 -0.000108 -735881.000000 0 1 0
9.777851 -16.605198 -8.272844 20.970907 -1.038621 1.976311 0.019253 -0.000991 -7393.780000 0 1 0
10.116651 -16.757098 -9.820844 21.899679 -1.027644 2.035823 0.012258 0.003616 -389415.000000 0 1 0
9.150651 -17.359798 -10.636444 22.321088 -1.085691 2.067488 0.006654 -0.002877 -121127.000000 0 1 0
8.931651 -16.661098 -11.828844 22.299958 -1.078704 2.129919 0.003142 -0.000257 104800.000000 0 1 0
8.353851 -17.509498 -13.024544 23.366816 -1.125633 2.162041 0.006150 -0.001106 33145.300000 0 1 0
7.049151 -17.982398 -12.805544 23.174105 -1.197203 2.156253 0.002600 -0.002158 -426817.000000 0 1 0
6.709651 -18.640798 -13.935244 24.221680 -1.225290 2.183793 0.011589 0.001687 242155.000000 0 1 0
5.413251 -19.470598 -13.674744 24.400945 -1.299623 2.165687 0.015359 0.003431 217740.000000 0 1 0
5.634851 -20.620198 -12.892544 24.963209 -1.304041 2.113510 0.017599 -0.006229 -381690.000000 0 1 0
4.481151 -21.419698 -12.767444 25.335584 -1.364564 2.098943 0.017833 -0.002433 -266082.000000 0 0 1
4.666551 -22.949298 -12.522644 26.556800 -1.370190 2.061835 0.015715 -0.005858 -301288.000000 0 0 1
5.045651 -23.600298 -13.703744 27.752933 -1.360171 2.087224 0.014538 -0.006339 -222287.000000 0 0 1
4.825251 -24.970598 -13.589044 28.835325 -1.379912 2.061519 0.003715 -0.007213 866111.000000 0 0 1
3.373651 -25.390438 -14.031344 29.205042 -1.438699 2.071956 0.005286 -0.007951 923080.000000 0 0 1
2.322751 -24.981198 -13.151344 28.326901 -1.478083 2.053607 0.020742 -0.009495 43329.100000 0 0 1
1.035751 -25.308298 -13.622244 28.760186 -1.529894 2.064226 0.007960 -0.010030 25559.100000 0 0 1
0.459051 -26.650868 -13.060144 29.682434 -1.553573 2.026390 0.001689 -0.005911 -641807.000000 0 0 1
1.073351 -27.783208 -13.698044 30.995083 -1.532182 2.028559 0.003109 -0.000238 238976.000000 0 0 1
0.607651 -29.056108 -13.269744 31.948596 -1.549886 1.999120 -0.000608 -0.003355 -37558.400000 0 0 1
-0.829649 -29.502118 -13.601944 32.497326 1.542682 2.002651 -0.001175 -0.003130 781284.000000 0 0 1
-1.875449 -28.617888 -13.144244 31.547932 1.505356 2.000546 -0.000015 -0.006735 525847.000000 0 0 1
-3.197349 -29.002758 -13.475844 32.140028 1.460997 2.003454 0.014557 -0.004110 452547.000000 0 0 1
-4.281849 -28.151208 -12.736344 31.193577 1.419851 1.991388 0.014788 -0.009699 269354.000000 0 0 1
-4.613349 -28.264728 -11.375444 30.815233 1.409004 1.948891 0.023716 -0.017641 9609.310000 0 0 1
-5.244049 -29.499858 -11.041644 31.932109 1.394869 1.923872 0.020289 -0.012854 -323475.000000 0 0 1
-5.761649 -29.543628 -9.581644 31.588455 1.378192 1.878979 0.025680 -0.015916 -237794.000000 0 0 1
-7.047549 -29.053288 -9.316544 31.313887 1.332820 1.872892 0.035828 -0.013805 -543415.000000 0 0 1
-7.117749 -27.652928 -9.083944 29.964393 1.318869 1.878801 0.041399 -0.014310 589181.000000 0 0 1
-8.590549 -27.219588 -8.662944 29.828680 1.265088 1.865466 0.040597 -0.008339 1640400.000000 0 0 1
-9.602549 -27.264758 -9.661544 30.478212 1.232166 1.893359 0.044166 -0.002354 213821.000000 0 0 1
-9.965349 -28.565498 -10.187844 31.923158 1.235138 1.895614 0.051290 -0.007049 -387798.000000 0 0 1
-11.269149 -28.685318 -11.020444 32.730588 1.196465 1.914208 0.051076 -0.007498 172225.000000 0 0 1
-11.022649 -28.266618 -12.351544 32.757612 1.198981 1.957415 0.058466 -0.007031 113191.000000 0 0 1
-11.811049 -28.964558 -13.283244 33.983689 1.183605 1.972374 0.059268 -0.007551 -325755.000000 0 0 1
-11.946149 -28.193338 -14.654544 33.945993 1.170008 2.017175 0.066594 -0.008378 336222.000000 0 0 1
-13.033549 -27.269898 -14.834944 33.668922 1.124947 2.027077 0.049600 -0.013934 416985.000000 0 0 1
-13.115149 -26.210498 -13.888544 32.432838 1.106847 2.013324 0.049804 -0.006634 -516420.000000 0 0 1
-13.974649 -25.014198 -14.221044 31.988108 1.061322 2.031494 0.059281 -0.005460 -659600.000000 0 0 1
-13.608749 -24.297998 -15.377444 31.812836 1.060249 2.075299 0.045310 -0.005695 18715.600000 0 0 1
-14.603749 -23.378098 -15.749344 31.746603 1.012430 2.089892 0.055482 -0.004185 -572498.000000 0 0 1
-14.163149 -22.576798 -16.969444 31.595389 1.010522 2.137775 0.050717 -0.002453 539977.000000 0 0 1
-13.279249 -21.454098 -16.670844 30.241260 1.016552 2.154672 0.029253 0.004470 755158.000000 0 0 1
-13.171749 -20.650598 -17.815144 30.287316 1.003018 2.199634 0.023626 0.011218 -209666.000000 0 0 1
-13.281949 -19.124498 -17.599644 29.187396 0.963772 2.218037 0.019381 0.013401 213895.000000 0 0 1
-12.053249 -18.467698 -17.887344 28.395312 0.992549 2.252272 0.021373 0.021037 141208.000000 0 0 1
-12.210949 -17.046998 -17.842144 27.532699 0.949207 2.275797 0.029751 0.018170 346090.000000 0 0 1
-10.859649 -16.324198 -18.093144 26.679079 0.983776 2.316076 0.032145 0.012894 501384.000000 0 0 1
-10.245249 -15.864398 -16.866644 25.320504 0.997378 2.299799 0.031139 0.015459 1574900.000000 0 0 1
-8.893149 -15.366498 -17.115244 24.660676 1.046159 2.337868 0.030310 0.009246 1354780.000000 0 1 0
-8.195649 -14.717498 -15.854244 23.132887 1.062698 2.325888 0.021506 0.012465 33574.100000 0 1 0
-8.014649 -15.617798 -14.739844 22.921894 1.096665 2.269266 0.026935 0.014473 1181700.000000 0 1 0
-6.868149 -16.512998 -14.890844 23.272039 1.176638 2.265112 0.034850 0.010794 609597.000000 0 1 0
-6.547649 -17.326998 -13.644944 23.006109 1.209497 2.205701 0.029123 0.011909 -692539.000000 0 1 0
-6.154649 -16.659198 -12.474344 21.702946 1.216905 2.183127 0.029935 0.005933 174889.000000 0 1 0
-5.860649 -17.464598 -11.369844 21.647927 1.247031 2.123766 0.024591 0.001026 35354.000000 0 1 0
-4.780749 -18.582898 -11.470244 22.355003 1.318991 2.109583 0.035457 -0.001308 14170.300000 0 1 0
-3.477349 -18.041998 -11.571644 21.714249 1.380395 2.132827 0.027655 0.001169 -517796.000000 0 1 0
-2.504549 -19.046098 -11.502944 22.390720 1.440047 2.110331 0.024992 0.003749 -171584.000000 0 1 0
-1.080649 -18.707498 -11.912844 22.204823 1.513095 2.137078 0.022748 0.014408 -697657.000000 0 1 0
-0.878349 -18.618998 -13.325744 22.913185 1.523656 2.191460 0.031119 0.016555 393059.000000 0 1 0
0.327851 -17.939798 -13.743944 22.601766 -1.552523 2.224451 0.028166 0.006839 900657.000000 0 1 0
1.668651 -18.693198 -13.697144 23.234281 -1.481767 2.201265 0.025637 -0.005902 -441328.000000 0 1 0
1.749151 -19.793398 -14.602144 24.658888 -1.482655 2.204540 0.039198 0.000514 -257988.000000 0 1 0
1.035251 -20.943898 -14.247844 25.351917 -1.521407 2.167601 0.037544 0.002374 -1166360.000000 0 0 1
1.006151 -21.888898 -15.516144 26.849338 -1.524862 2.186945 0.036088 -0.003866 684467.000000 0 0 1
2.230051 -22.436598 -16.038844 27.669814 -1.471728 2.189097 0.022015 -0.004569 455876.000000 0 0 1
3.215451 -21.495198 -16.387244 27.219927 -1.422308 2.216839 0.017648 -0.006012 -259280.000000 0 0 1
4.638851 -22.097998 -16.583244 28.015075 -1.363879 2.204260 0.013101 -0.007892 430065.000000 0 0 1
4.736751 -22.564698 -17.932044 29.208913 -1.363882 2.231818 0.001862 0.005303 280269.000000 0 0 1
5.893751 -23.369598 -18.149544 30.170853 -1.323751 2.216247 0.005319 0.001813 394477.000000 0 0 1
6.155151 -23.487698 -19.640944 31.230186 -1.314501 2.250945 0.004651 0.009010 -153052.000000 0 0 1
6.496551 -22.234398 -20.184644 30.724477 -1.286525 2.287571 0.019466 -0.004539 -6649.310000 0 0 1
6.584751 -22.317498 -21.571544 31.729500 -1.283888 2.318365 0.028154 -0.001756 2730.320000 0 0 1
6.894751 -20.949798 -22.200344 31.293560 -1.252853 2.359474 0.024764 -0.012662 521720.000000 0 0 1
5.743651 -20.095098 -22.330644 30.585293 -1.292396 2.389280 0.030732 -0.014013 391610.000000 0 0 1
6.025851 -18.712598 -22.435444 29.829874 -1.259261 2.422059 0.038812 -0.017635 1701200.000000 0 0 1
4.658651 -17.881798 -22.674144 29.250274 -1.315937 2.457792 0.051933 -0.020366 785309.000000 0 0 1
4.146351 -18.010798 -23.970244 30.268031 -1.344524 2.484764 0.047578 -0.022442 -552093.000000 0 0 1
2.921251 -17.423398 -24.243744 29.997794 -1.404679 2.511859 0.055677 -0.015427 -136181.000000 0 0 1
1.646151 -17.789798 -23.444844 29.476218 -1.478526 2.490433 0.053385 -0.005372 -882177.000000 0 0 1
1.580851 -17.218798 -22.127944 28.082593 -1.479243 2.478284 0.082423 -0.012729 -153492.000000 0 0 1
0.725451 -16.083798 -21.999744 27.261760 -1.525722 2.509820 0.059018 -0.011934 43659.000000 0 0 1
0.962551 -15.224798 -20.728944 25.737329 -1.507658 2.507153 0.049651 -0.013502 -765241.000000 0 0 1
2.100951 -14.434998 -20.756444 25.369532 -1.426266 2.529007 0.048012 -0.006614 -696558.000000 0 0 1
2.169151 -13.672398 -19.596644 23.993085 -1.413456 2.526573 0.047158 -0.008304 76408.200000 0 1 0
3.393651 -12.755198 -19.481744 23.531900 -1.310760 2.546126 0.041197 -0.003249 -863102.000000 0 1 0
4.625951 -13.364398 -19.279644 23.910484 -1.237565 2.508710 0.028229 -0.001676 -618298.000000 0 1 0
5.764251 -12.578198 -19.529944 23.934418 -1.141084 2.525214 0.025925 0.001657 323126.000000 0 1 0
6.079151 -11.346398 -18.571444 22.596357 -1.078938 2.535496 0.019025 0.007996 -866498.000000 0 1 0
5.120551 -10.308498 -18.523644 21.808498 -1.109767 2.585601 0.005480 0.012748 -224453.000000 0 1 0
5.477451 -9.202898 -19.346944 22.113345 -1.033923 2.636024 0.018307 0.002211 -99847.200000 0 1 0
4.956351 -9.316098 -20.783444 23.308939 -1.081862 2.671776 0.030369 -0.004927 -585298.000000 0 1 0
3.563751 -9.254898 -20.831044 23.071321 -1.203230 2.697260 0.033017 -0.004387 -742358.000000 0 1 0
3.148451 -8.970698 -22.168444 24.121071 -1.233257 2.736457 0.035292 -0.010696 450150.000000 0 1 0
1.617251 -8.758998 -22.269544 23.984748 -1.388214 2.761116 0.044000 -0.009835 317597.000000 0 1 0
1.085551 -7.617198 -21.548144 22.880617 -1.429236 2.798635 0.044086 -0.020109 -260675.000000 0 1 0
-0.312249 -7.530398 -21.654444 22.928570 1.529355 2.806654 0.037471 -0.014810 -43633.400000 0 1 0
-0.894049 -6.668798 -22.790244 23.762731 1.437527 2.854514 0.047452 -0.013758 -253883.000000 0 1 0
-0.715549 -7.223398 -24.104844 25.174054 1.472059 2.849097 0.050167 -0.008545 -289586.000000 0 0 1
-1.307449 -6.502898 -25.149574 26.009578 1.372385 2.883722 0.053269 -0.008809 -44908.700000 0 0 1
-0.865349 -5.030498 -25.431984 25.939170 1.400443 2.943517 0.066889 -0.020068 21772.200000 0 0 1
-1.450049 -4.507098 -26.626454 27.044124 1.259529 2.965616 0.056171 -0.015325 30237.100000 0 0 1
-0.892549 -3.286298 -27.134544 27.347392 1.305597 3.016747 0.032917 -0.011951 -524635.000000 0 0 1
-1.188949 -1.981798 -26.306724 26.408045 1.030425 3.053966 0.035520 -0.016716 478969.000000 0 0 1
-2.592749 -1.738698 -26.192794 26.378170 0.590721 3.022968 0.022015 -0.018339 604715.000000 0 0 1
-3.157949 -1.064798 -27.359154 27.561381 0.325209 3.020379 0.026175 -0.015651 848182.000000 0 0 1
-4.722749 -1.116998 -27.184984 27.614768 0.232247 2.964934 0.026243 -0.016469 593841.000000 0 0 1
-5.309749 -0.156398 -26.428524 26.957091 0.029446 2.943239 0.025959 -0.015929 -717839.000000 0 0 1
-6.693849 -0.404198 -26.354894 27.194695 0.060310 2.892429 0.031367 -0.025423 -564303.000000 0 0 1
-7.332149 0.796002 -25.639134 26.678816 -0.108140 2.861499 0.032066 -0.016240 -1025560.000000 0 0 1
-7.503649 1.952802 -26.486484 27.598043 -0.254599 2.856812 0.036101 -0.014471 492181.000000 0 0 1
-8.500449 1.919002 -27.507594 28.854946 -0.222031 2.834796 0.048536 -0.018142 -609164.000000 0 0 1
-9.936649 1.614002 -27.124474 28.932319 -0.161023 2.786214 0.046134 -0.024323 -1229130.000000 0 0 1
-10.890049 2.060902 -28.091354 30.198752 -0.187034 2.765796 0.050013 -0.028616 310050.000000 0 0 1
-12.165349 1.597502 -27.690454 30.287109 -0.130569 2.724487 0.036395 -0.019605 -427045.000000 0 0 1
-13.301849 2.218502 -28.494194 31.524277 -0.165260 2.699553 0.027193 -0.015329 -1542080.000000 0 0 1
-14.516849 1.596302 -28.229084 31.783144 -0.109522 2.664161 0.018407 -0.016049 49746.500000 0 0 1
-15.649649 2.207702 -28.856064 32.900728 -0.140146 2.640513 0.016071 -0.015359 660798.000000 0 0 1
-16.183549 3.540902 -28.256744 32.754981 -0.215402 2.611322 0.013626 -0.001050 -494284.000000 0 0 1
-15.383549 4.688102 -28.592474 32.804899 -0.295807 2.629236 0.027793 -0.000469 206928.000000 0 0 1
-15.301149 5.217702 -29.927574 34.014838 -0.328635 2.646319 0.026239 -0.007782 292630.000000 0 0 1
-16.636749 5.763802 -30.564094 35.272747 -0.333509 2.618959 0.023684 0.000357 543549.000000 0 0 1
-17.117549 6.931802 -29.976694 35.208842 -0.384769 2.589439 0.026765 0.009885 161480.000000 0 0 1
-18.044949 7.614402 -30.832924 36.527640 -0.399300 2.575678 0.022924 0.009252 111758.000000 0 0 1
-18.914449 8.636002 -30.085064 36.571136 -0.428314 2.536844 0.019109 0.005118 213161.000000 0 0 1
-18.061649 9.476802 -29.268424 35.674551 -0.483205 2.532957 0.021781 0.007555 635755.000000 0 0 1
-18.677149 10.704002 -28.945124 36.072590 -0.520410 2.502124 0.038809 0.005810 6990.100000 0 0 1
-8.482749 24.953302 30.869807 40.590260 -1.243107 0.706679 0.023490 -0.007779 215043.000000 0 0 1
-9.270049 26.179302 30.793177 41.466967 -1.230475 0.733859 0.031350 -0.008578 608149.000000 0 0 1
-8.891849 27.107502 31.825777 42.740633 -1.253834 0.730822 0.026531 -0.008822 -49108.600000 0 0 1
-7.540049 27.818702 31.669397 42.821527 -1.306113 0.738369 0.020414 -0.010742 -240972.000000 0 0 1
-7.542649 28.685302 30.601297 42.616633 -1.313672 0.769786 0.038554 -0.005339 785237.000000 0 0 1
-6.210949 28.932202 30.135817 42.235241 -1.359333 0.776283 0.029655 -0.003910 543601.000000 0 0 1
-6.127249 30.083302 29.131777 42.322673 -1.369869 0.811618 0.048999 -0.011416 -218801.000000 0 0 1
-6.428549 31.341102 29.733857 43.677146 -1.368487 0.821990 0.053272 -0.013908 283396.000000 0 0 1
-5.938049 32.357802 28.916407 43.800072 -1.389304 0.849724 0.053975 -0.013166 -183315.000000 0 0 1
-6.224449 33.708702 29.517987 45.236400 -1.388199 0.859881 0.053050 -0.015655 -423202.000000 0 0 1
-5.484449 34.105202 30.644307 46.177023 -1.411352 0.845140 0.061684 -0.024925 -656151.000000 0 0 1
-6.067549 -33.819156 31.487697 46.604994 1.393273 0.828978 0.062574 -0.022157 519060.000000 0 0 1
-7.283049 -34.296956 32.398237 47.738556 1.361552 0.824860 0.031343 -0.014749 758693.000000 0 0 1
-7.036349 33.596002 33.438543 47.920117 -1.364340 0.798478 0.042511 -0.017933 -257601.000000 0 0 1
-6.861649 32.217102 32.976591 46.609864 -1.360950 0.784839 0.047416 -0.015947 -134720.000000 0 0 1
-6.849949 31.165802 34.080034 46.687018 -1.354446 0.752521 0.042009 -0.004135 -210867.000000 0 0 1
-5.780549 31.363502 -33.854104 46.510045 -1.388534 2.386033 0.039996 -0.006119 -215127.000000 0 0 1
-5.883549 30.319902 -32.865314 45.100348 -1.379129 2.387240 0.037504 -0.013722 -932536.000000 0 0 1
-4.633449 30.120702 -32.015404 44.200810 -1.418163 2.380840 0.046668 -0.014520 57234.500000 0 0 1
-3.727849 29.074102 -32.319154 43.631731 -1.443273 2.404947 0.059563 -0.009656 565978.000000 0 0 1
-2.976349 29.268202 -33.550274 44.621824 -1.469452 2.421706 0.056588 -0.015558 -190117.000000 0 0 1
-2.272149 27.912002 -33.903004 43.973357 -1.489571 2.451190 0.060542 -0.015459 -253851.000000 0 0 1
-1.310849 27.454402 -32.935844 42.897929 -1.523086 2.446153 0.079092 -0.014033 531571.000000 0 0 1
-0.958249 26.065702 -33.112134 42.151541 -1.534050 2.474380 0.086954 -0.013355 314171.000000 0 0 1
-0.326449 25.571702 34.315418 42.796803 -1.558031 0.640458 0.077001 -0.010469 144891.000000 0 0 1
-1.254549 25.457402 33.218004 41.869905 -1.521556 0.654484 0.072131 -0.008053 189797.000000 0 0 1
-0.655849 25.384302 31.961707 40.820872 -1.544965 0.671363 0.070244 -0.008774 -225398.000000 0 0 1
-0.206349 26.708502 31.347057 41.182819 -1.563071 0.705684 0.046247 -0.016356 1103580.000000 0 0 1
-1.402849 27.526102 31.208767 41.637019 -1.519876 0.723424 0.038815 -0.018787 1178750.000000 0 0 1
-1.135549 28.689402 30.442057 41.846028 -1.531236 0.756158 0.031795 -0.017287 -38330.100000 0 0 1
-2.173249 29.816902 30.532567 42.731818 -1.498039 0.774864 0.039151 -0.017735 -144199.000000 0 0 1
-2.025449 30.553802 31.706527 44.078805 -1.504602 0.767981 0.054575 -0.019259 194347.000000 0 0 1
-3.127749 31.409902 31.945277 44.909525 -1.471545 0.779414 0.048382 -0.012961 53746.500000 0 0 1
-2.881649 32.293902 33.223795 46.422198 -1.481800 0.773188 0.068280 -0.016882 -211577.000000 0 0 1
-1.740949 33.075002 33.011910 46.762943 -1.518208 0.787045 0.079293 -0.021281 -210363.000000 0 0 1
-0.886349 33.105602 34.168224 47.583968 -1.544029 0.769783 0.063626 -0.028992 -124428.000000 0 0 1
0.579551 33.396702 33.874820 47.572880 1.553445 0.778366 0.069079 -0.035077 -471337.000000 0 0 1
0.854651 -34.162956 33.422110 47.800370 -1.545785 0.796516 0.079093 -0.028918 -671546.000000 0 0 1
2.208851 -33.857656 33.359606 47.582383 -1.505649 0.793869 0.034156 -0.016252 -486738.000000 0 0 1
2.364551 -32.429656 32.766380 46.161773 -1.498012 0.781559 0.035699 -0.018993 -206.494000 0 0 1
1.873251 -31.581556 33.790100 46.289033 -1.511551 0.752503 0.034810 -0.012058 239041.000000 0 0 1
1.871651 -30.219456 33.394530 45.076748 -1.508940 0.736480 0.018929 0.002659 -279114.000000 0 0 1
1.480951 -29.191156 -34.329791 45.087153 -1.520107 2.436281 0.015457 0.010484 -58784.900000 0 0 1
0.111551 -28.861956 -34.286370 44.817185 -1.566931 2.441880 0.018846 0.004510 -4039.740000 0 0 1
-0.181949 -28.132856 -33.123624 43.458775 1.564329 2.437478 0.018066 0.003147 -917581.000000 0 0 1
-1.636049 -27.778656 -32.956584 43.133129 1.511968 2.440390 0.026772 0.004257 -944055.000000 0 0 1
-1.922549 -27.114756 -31.735564 41.785789 1.500011 2.433313 0.037847 -0.009298 277616.000000 0 0 1
-3.172549 -26.439556 -31.725734 41.420253 1.451375 2.443310 0.036850 -0.018520 135584.000000 0 0 1
-3.713049 -25.908356 -30.385114 40.103426 1.428451 2.430530 0.034046 -0.022402 -52978.100000 0 0 1
-4.228249 -26.954456 -29.557734 40.225370 1.415198 2.396173 0.032028 -0.016959 14129.800000 0 0 1
-4.740149 -26.467456 -28.291934 39.031125 1.393582 2.381621 0.036285 -0.014447 -177374.000000 0 0 1
-3.763049 -25.909556 -27.257934 37.794981 1.426567 2.376337 0.044790 -0.016659 -372243.000000 0 0 1
-2.968249 -24.893056 -27.827674 37.454695 1.452117 2.408292 0.040159 -0.016088 126103.000000 0 0 1
-1.999149 -24.416656 -26.905584 36.387912 1.489102 2.402990 0.034891 -0.014022 -903860.000000 0 0 1
-1.120649 -23.247856 -27.409994 35.958676 1.522629 2.437600 0.034779 -0.013613 356248.000000 0 0 1
-0.323649 -23.653656 -28.505744 37.042916 1.557114 2.448906 0.014729 -0.017551 435651.000000 0 0 1
0.774651 -24.535156 -28.242204 37.419193 -1.539234 2.426072 0.016925 -0.010721 -198985.000000 0 0 1
1.690751 -24.865556 -29.443134 38.575285 -1.502905 2.439147 -0.001628 -0.011160 9948.900000 0 0 1
2.474951 -23.779756 -29.884674 38.271346 -1.467092 2.466842 -0.002498 -0.007178 232366.000000 0 0 1
3.370051 -24.239156 -30.902114 39.418708 -1.432649 2.471792 0.003451 -0.004792 -790305.000000 0 0 1
4.271951 -23.142756 -31.400044 39.240279 -1.388260 2.498424 0.006052 -0.010928 -608391.000000 0 0 1
5.397151 -22.767156 -30.581864 38.506143 -1.338034 2.488498 0.003222 -0.011442 1858440.000000 0 0 1
6.562851 -23.635356 -30.572764 39.196874 -1.299949 2.465430 0.011350 -0.004822 579871.000000 0 0 1
7.222151 -24.002456 -31.965304 40.620906 -1.278521 2.476594 0.014171 -0.003473 -777144.000000 0 0 1
6.510351 -24.935756 -32.825274 41.733382 -1.315412 2.475994 -0.002770 -0.003937 208491.000000 0 0 1
6.802351 -24.788756 -34.227980 42.805479 -1.302976 2.497453 0.001609 -0.002948 -97828.900000 0 0 1
6.322251 -23.460956 33.919354 41.724212 -1.307570 0.621610 0.003551 -0.003532 449989.000000 0 0 1
4.890951 -23.467756 33.962757 41.570732 -1.365326 0.614629 0.001173 -0.000687 595968.000000 0 0 1
4.393151 -22.207456 33.534367 40.460161 -1.375495 0.593793 0.008436 -0.003075 -674572.000000 0 0 1
2.985451 -21.796056 33.936745 40.443585 -1.434671 0.575146 0.000983 -0.006111 -48944.500000 0 0 1
1.851851 -22.528556 33.496279 40.409972 -1.488781 0.593638 0.008946 -0.005829 242369.000000 0 0 1
1.576251 -23.655556 34.299590 41.695704 -1.504261 0.604798 0.008147 -0.001750 -90263.600000 0 0 1
0.253651 -24.435956 34.051646 41.912944 -1.560416 0.622476 0.014222 -0.000960 257913.000000 0 0 1
0.225051 -25.113356 32.806787 41.316057 -1.561835 0.653362 0.021459 -0.002412 -74397.100000 0 0 1
-1.115249 -25.432556 32.521387 41.300112 1.526973 0.664151 0.018380 -0.003747 -342302.000000 0 0 1
-1.156149 -26.324156 31.288327 40.905467 1.526905 0.699920 0.014914 -0.006084 203555.000000 0 0 1
-2.404849 -26.805356 30.814847 40.912897 1.481321 0.717911 0.023913 -0.009813 186103.000000 0 0 1
-2.189149 -27.923856 29.988727 41.034837 1.492559 0.751286 0.031348 -0.016442 147068.000000 0 0 1
-3.370649 -28.261856 29.031777 40.656338 1.452092 0.775491 0.038781 -0.009063 656719.000000 0 0 1
-4.418249 -28.961756 29.734237 41.742413 1.419409 0.777989 0.046464 -0.006014 484324.000000 0 0 1
-5.540049 -29.173156 28.890097 41.429492 1.383129 0.799128 0.032465 -0.004218 -304815.000000 0 0 1
-6.672149 -29.785456 29.714287 42.598471 1.350427 0.798833 0.032809 -0.006726 -317041.000000 0 0 1
-7.830149 -30.093756 28.939567 42.478746 1.316249 0.821298 0.057368 -0.007588 228043.000000 0 0 1
-9.019049 -30.340256 29.644057 43.366398 1.281852 0.818151 0.047452 -0.007625 -189590.000000 0 0 1
-9.141049 -31.528356 30.684587 44.934840 1.288603 0.819114 0.028496 -0.001233 -927070.000000 0 0 1
-9.114749 -32.793856 30.075777 45.421008 1.299698 0.847105 0.044703 -0.007869 -589244.000000 0 0 1
-10.240949 -33.239156 29.405657 45.545704 1.271926 0.868949 0.048809 -0.010695 -872180.000000 0 0 1
-10.156749 34.167002 28.867127 45.867794 -1.281848 0.890073 0.068570 -0.012105 -395652.000000 0 0 1
-10.230549 33.182402 29.905377 45.826493 -1.271731 0.859814 0.054479 -0.009697 253166.000000 0 0 1
-9.967649 31.856802 29.539587 44.573501 -1.267557 0.846356 0.060971 -0.018142 -328622.000000 0 0 1
-10.408849 30.873402 30.584517 44.686952 -1.245618 0.816992 0.058827 -0.006023 -547928.000000 0 0 1
-11.800949 30.886702 30.699657 45.118950 -1.205840 0.822466 0.048970 0.000441 -621538.000000 0 0 1
-12.333549 29.667502 31.210017 44.792211 -1.176807 0.799907 0.039445 0.000733 91784.200000 0 0 1
-12.419449 29.492102 32.751891 45.789880 -1.172224 0.773793 0.037407 -0.013854 -740518.000000 0 0 1
-13.381649 30.356102 33.262213 46.978040 -1.155601 0.784081 0.025019 -0.005084 -215923.000000 0 0 1
-13.547349 30.183602 -34.159551 47.554762 -1.148915 2.372181 0.020774 -0.012631 314099.000000 0 0 1
-14.951949 30.472502 -33.543684 47.721199 -1.114640 2.350276 0.009611 -0.009737 267963.000000 0 0 1
-15.029749 29.975102 -32.275704 46.541606 -1.106023 2.337105 0.004388 -0.011241 -44952.900000 0 0 1
-16.264349 30.375502 -31.709164 46.825967 -1.079198 2.314707 0.008116 -0.012996 172345.000000 0 0 1
-16.468049 29.946802 -30.235164 45.630830 -1.068022 2.295086 0.014127 -0.011449 -333985.000000 0 0 1
-16.603749 28.564302 -29.956054 44.597858 -1.044258 2.307288 0.007659 -0.014237 67802.800000 0 0 1
-16.417649 28.334702 -28.585094 43.468403 -1.045648 2.288433 0.011214 -0.010265 -190734.000000 0 0 1
-16.867749 26.891402 -28.174064 42.443448 -1.010578 2.296688 -0.001838 -0.016052 477058.000000 0 0 1
-18.267349 26.655902 -28.293204 42.950419 -0.970003 2.289941 0.000154 -0.001989 262793.000000 0 0 1
-18.613949 25.438302 -27.710104 41.969467 -0.939091 2.291940 -0.002580 -0.001379 -179369.000000 0 0 1
-20.043049 24.958702 -28.014954 42.538197 -0.894199 2.289731 0.012532 -0.003095 -347934.000000 0 0 1
-21.009449 25.659602 -27.273454 42.937785 -0.884711 2.259045 0.023409 -0.009049 -438927.000000 0 0 1
-22.298549 25.244702 -27.613544 43.554885 -0.847287 2.257504 0.031114 -0.013137 57345.000000 0 0 1
-23.421349 25.468302 -26.563504 43.621253 -0.827243 2.225542 0.053504 -0.027111 229060.000000 0 0 1
-23.926249 26.791902 -26.370524 44.560923 -0.841840 2.204069 0.032897 -0.014006 71838.000000 0 0 1
-25.075229 26.871702 -25.546334 44.760145 -0.819967 2.178201 0.033138 -0.008306 -44772.700000 0 0 1
-25.016549 26.536102 -24.027744 43.672931 -0.814865 2.153370 0.033579 -0.002801 -798109.000000 0 0 1
-24.717949 25.160102 -23.734544 42.512778 -0.794263 2.163122 0.027965 -0.006780 249732.000000 0 0 1
-25.828799 24.252902 -23.746744 42.652525 -0.753942 2.161263 0.026948 0.003657 305934.000000 0 0 1
-26.612299 24.092402 -22.386044 42.305948 -0.735742 2.128391 0.018310 0.002958 36046.900000 0 0 1
-25.898359 23.549202 -21.291044 40.970702 -0.737926 2.117255 0.011456 0.002831 560381.000000 0 0 1
-24.896449 24.470002 -20.801444 40.636366 -0.776760 2.108182 0.022739 0.001538 -61213.900000 0 0 1
-24.060249 24.012602 -19.648444 39.262730 -0.784407 2.094897 0.025469 -0.002727 -459753.000000 0 0 1
-24.647849 24.009102 -18.377544 39.008813 -0.772271 2.061348 0.020325 -0.002250 421991.000000 0 0 1
-23.610849 23.901502 -17.389744 37.830638 -0.791516 2.048424 0.033411 -0.006574 324830.000000 0 0 1
-24.137549 23.891302 -15.908744 37.503382 -0.780271 2.008869 0.024271 -0.005622 -131517.000000 0 0 1
-24.769349 25.106102 -15.592944 38.561339 -0.792150 1.987083 0.037259 -0.013889 -56159.400000 0 0 1
-25.213159 25.158702 -14.248244 38.362431 -0.784317 1.951325 -0.002211 -0.006396 -51173.100000 0 0 1
-25.422029 26.542402 -13.703544 39.224555 -0.806955 1.927686 -0.007563 -0.002656 -306541.000000 0 0 1
-24.197649 27.180102 -13.478144 38.806501 -0.843383 1.925504 0.018364 -0.009781 -369753.000000 0 0 1
-24.236749 27.746102 -12.177344 38.801467 -0.852806 1.890028 0.018535 -0.009320 -568195.000000 0 0 1
-22.979449 28.400902 -11.643644 38.343718 -0.890525 1.879333 0.032097 -0.010257 -51727.500000 0 0 1
-21.915249 27.460002 -11.375244 36.928661 -0.897228 1.883921 0.033111 -0.016120 1002460.000000 0 0 1
-20.956149 28.076202 -10.487044 36.570635 -0.929602 1.861641 0.034249 -0.011789 623535.000000 0 0 1
-19.993649 26.993202 -9.906444 35.021658 -0.933279 1.857577 0.067717 -0.013044 513025.000000 0 0 1
-18.964549 26.486002 -10.763844 34.307765 -0.949398 1.889930 0.056002 -0.014667 797934.000000 0 0 1
-18.211349 25.464902 -10.080444 32.889661 -0.949972 1.882303 0.057398 -0.012195 -14607.700000 0 0 1
-17.770349 24.461902 -11.184044 32.237443 -0.942538 1.925089 0.054465 -0.019049 -213906.000000 0 0 1
-17.466649 23.194602 -10.709444 30.947787 -0.925347 1.924153 0.048913 -0.025222 148218.000000 0 0 1
-17.189049 22.292202 -11.754544 30.505327 -0.913941 1.966359 0.059131 -0.017426 114393.000000 0 0 1
-16.719749 20.985602 -11.197144 29.074413 -0.898056 1.966134 0.040862 -0.008123 716676.000000 0 0 1
-17.885549 20.338602 -10.641544 29.099725 -0.849486 1.945173 0.033100 -0.003004 1100140.000000 0 0 1
-17.478649 19.017402 -10.281144 27.800479 -0.827535 1.949610 0.044197 -0.016927 -347170.000000 0 0 1
-18.629449 17.987102 -10.236644 27.845665 -0.767857 1.947246 0.032207 -0.005010 377847.000000 0 0 1
-19.253049 17.482102 -11.454944 28.416888 -0.737227 1.985702 0.013250 -0.002665 300330.000000 0 0 1
-19.976449 18.370402 -12.246544 29.774284 -0.743541 1.994690 0.013858 0.001681 -691550.000000 0 0 1
-20.574649 17.722602 -13.515944 30.332944 -0.711064 2.032625 0.024515 -0.003399 -309811.000000 0 0 1
-19.691549 17.357902 -14.545944 30.010637 -0.722494 2.076808 0.028372 -0.007651 -114876.000000 0 0 1
-20.356349 16.735002 -15.634044 30.640897 -0.688073 2.106254 0.037088 0.000624 73044.600000 0 0 1
-19.438149 16.459702 -16.841644 30.535297 -0.702618 2.155014 0.052800 -0.005819 -383290.000000 0 0 1
-19.006149 17.674702 -17.359244 31.224543 -0.749116 2.160300 0.035879 -0.004659 444087.000000 0 0 1
-18.084049 17.459102 -18.442244 31.176424 -0.767817 2.203769 0.031893 -0.001164 487422.000000 0 0 1
-17.092549 18.677302 -18.702544 31.476689 -0.829673 2.207031 0.010833 0.012093 1655400.000000 0 0 1
-15.807649 18.402902 -18.065244 30.247340 -0.861114 2.210865 0.022829 0.005223 1044590.000000 0 0 1
-14.842449 19.408202 -18.201044 30.467270 -0.917921 2.211047 0.038491 0.011369 36659.700000 0 0 1
32.155035 31.490702 2.204456 45.060739 0.774961 1.521855 0.021515 -0.014350 280996.000000 0 0 1
33.415275 31.077402 1.672556 45.663803 0.749164 1.534161 0.026389 -0.015391 476844.000000 0 0 1
33.523645 31.436102 0.319456 45.958299 0.753273 1.563845 0.034090 -0.011895 -386312.000000 0 0 1
34.898045 31.240302 -0.326744 46.839478 0.730150 1.577772 0.023839 -0.003930 62248.800000 0 0 1
-35.340491 32.069902 0.238456 47.723011 -0.736919 1.565800 0.011331 -0.001398 40614.600000 0 0 1
-34.218785 32.043702 -0.584344 46.883531 -0.752585 1.583260 0.019667 -0.004791 -930766.000000 0 0 1
-33.149359 33.072802 -0.269544 46.826946 -0.784242 1.576553 0.015081 -0.005130 -312358.000000 0 0 1
-32.633869 32.774802 1.038656 46.262683 -0.787553 1.548343 -0.000931 0.002850 -24059.800000 0 0 1
-32.061479 33.926902 1.605756 46.707082 -0.813660 1.536410 0.000038 0.003296 -142454.000000 0 0 1
-31.415089 33.759202 2.995156 46.212146 -0.821349 1.505938 0.003309 0.003977 -281194.000000 0 0 1
-31.045029 -33.841156 3.530856 46.059576 0.828464 1.494063 0.003952 0.012014 125507.000000 0 0 1
-30.385979 -33.944456 4.791356 45.809288 0.840657 1.466011 0.023675 0.003511 -428285.000000 0 0 1
-30.219089 -32.667756 5.608356 44.853420 0.824316 1.445431 0.032582 0.001497 48160.800000 0 0 1
-31.420369 -32.205356 6.209256 45.420033 0.797735 1.433659 0.017635 0.000621 181754.000000 0 0 1
-31.889919 -32.991356 7.280256 46.458569 0.802373 1.413444 0.011419 -0.007932 -1128780.000000 0 0 1
-32.857389 -32.219956 8.223256 46.747786 0.775603 1.393969 0.023166 -0.009198 1610120.000000 0 0 1
-34.259986 -32.045956 7.901156 47.572242 0.752019 1.403936 0.010035 0.003600 1278370.000000 0 0 1
-34.963573 -33.223156 7.590156 48.824584 0.759879 1.414706 0.000815 0.001448 -543984.000000 0 0 1
34.758995 -33.010256 7.477256 48.515709 -0.759600 1.416059 -0.003909 0.004852 249820.000000 0 0 1
34.102455 -32.772056 8.685156 48.087597 -0.765507 1.389189 -0.006066 0.010571 -128172.000000 0 0 1
32.747465 -32.504356 8.417656 46.901882 -0.781672 1.390345 -0.012139 0.012521 -501787.000000 0 0 1
31.866675 -32.536956 9.641156 46.552017 -0.795805 1.362181 -0.017619 0.002693 -371217.000000 0 0 1
30.485605 -32.333356 9.365956 45.415186 -0.814804 1.363076 -0.013453 -0.007330 490497.000000 0 0 1
29.654595 -32.360156 10.515356 45.134769 -0.828998 1.335659 -0.009383 0.000581 -81640.400000 0 0 1
29.804725 -31.111056 11.476456 44.586191 -0.806840 1.310466 -0.004336 -0.001793 -903115.000000 0 0 1
29.388655 -29.793056 10.993256 43.268590 -0.792231 1.313910 0.000647 -0.012588 233532.000000 0 0 1
29.835775 -29.402756 9.727556 43.003731 -0.778089 1.342619 0.009961 -0.015685 -342489.000000 0 0 1
29.440075 -28.015456 9.228256 41.674266 -0.760608 1.347508 0.011161 -0.015737 -253912.000000 0 0 1
29.692565 -27.853456 7.826456 41.457410 -0.753450 1.380874 0.018949 -0.018600 -87091.600000 0 0 1
29.148985 -26.648656 7.322756 40.167610 -0.740617 1.387466 0.009426 -0.017074 -227148.000000 0 0 1
29.470315 -26.220556 5.884056 39.882817 -0.727111 1.422722 0.002647 -0.014062 -662038.000000 0 0 1
30.622335 -25.506856 5.650556 40.252402 -0.694512 1.429953 0.027239 -0.016902 -1254890.000000 0 0 1
30.720255 -25.038156 4.336956 39.867938 -0.683843 1.461798 0.022408 -0.017613 -173977.000000 0 0 1
32.156765 -24.719256 3.913456 40.748181 -0.655369 1.474608 0.033921 -0.017954 204604.000000 0 0 1
32.969795 -25.844456 3.562056 42.043210 -0.664836 1.485971 0.028594 -0.010556 339689.000000 0 0 1
34.363455 -25.568256 3.516456 42.976135 -0.639685 1.488881 0.042377 -0.021698 422648.000000 0 0 1
35.142995 -26.884256 3.674456 44.399267 -0.653030 1.487942 0.043419 -0.022018 -527733.000000 0 0 1
35.057425 -27.412756 4.970456 44.779321 -0.663630 1.459568 0.030775 -0.013510 -5732.670000 0 0 1
35.587145 -28.735256 5.029056 46.015771 -0.679274 1.461288 0.026374 -0.012471 -340604.000000 0 0 1
34.835195 -29.659356 6.087256 46.154337 -0.705317 1.438522 0.018359 -0.005382 1373010.000000 0 0 1
33.551185 -30.157556 5.651456 45.465362 -0.732181 1.446172 0.008327 -0.004606 494114.000000 0 0 1
32.489545 -29.285056 5.897056 44.135703 -0.733571 1.436784 0.010289 -0.003062 941466.000000 0 0 1
31.028295 -29.896156 5.635856 43.454552 -0.766818 1.440735 0.008284 -0.007284 1072610.000000 0 0 1
30.802045 -30.065056 4.238156 43.250844 -0.773291 1.472649 0.003584 -0.012858 -328667.000000 0 0 1
29.631815 -29.515656 3.676256 41.984917 -0.783434 1.483123 0.012880 -0.012956 287151.000000 0 0 1
28.391155 -30.427156 3.931556 41.801036 -0.819999 1.476603 0.015733 -0.015023 -82740.800000 0 0 1
28.453335 -31.585156 3.144156 42.627456 -0.837514 1.496970 0.017636 -0.001121 -336225.000000 0 0 1
27.325565 -32.386856 3.400556 42.510689 -0.869957 1.490718 0.024409 -0.001748 -412264.000000 0 0 1
27.353005 -33.756156 2.678156 43.529730 -0.889799 1.509233 0.019892 -0.002458 -132349.000000 0 0 1
27.037515 -33.597756 1.285156 43.144965 -0.893171 1.541005 0.030173 -0.004386 341844.000000 0 0 1
26.982385 33.962102 0.742756 43.382313 0.899427 1.553674 0.032818 -0.002390 -313987.000000 0 0 1
26.895995 33.961102 -0.817844 43.329203 0.900974 1.589673 0.031191 -0.000025 107934.000000 0 0 1
28.056275 -34.425856 -1.498244 44.435783 -0.886990 1.604520 0.026692 0.003509 308706.000000 0 0 1
27.798385 -34.421556 -2.915644 44.340666 -0.891447 1.636599 0.032586 0.004808 674911.000000 0 0 1
28.973495 -33.841156 -3.808944 44.712361 -0.862736 1.656087 0.029953 0.006072 772738.000000 0 0 1
29.012905 -32.432456 -3.880044 43.688300 -0.840993 1.659725 0.028057 0.004539 -431982.000000 0 0 1
30.007875 -31.969656 -4.725644 44.100602 -0.817041 1.678158 0.014351 0.001884 -513043.000000 0 0 1
30.285065 -30.474756 -4.511944 43.200156 -0.788520 1.675430 0.012809 0.008465 -279592.000000 0 0 1
29.229725 -29.603956 -4.934744 41.894184 -0.791759 1.688861 0.013154 -0.005224 338447.000000 0 0 1
29.598765 -28.232856 -5.017844 41.211161 -0.761784 1.692859 0.008483 -0.014080 99725.400000 0 0 1
30.586735 -27.822056 -6.134644 41.800107 -0.738100 1.718090 0.026915 -0.020423 570001.000000 0 0 1
31.928415 -28.279056 -5.965044 43.066349 -0.724859 1.709751 0.024564 -0.005568 213529.000000 0 0 1
32.859385 -27.624856 -6.780544 43.460874 -0.699070 1.727451 0.029988 -0.012964 -103036.000000 0 0 1
33.243615 -28.317056 -8.089944 44.412169 -0.705541 1.753975 0.019588 -0.018455 -620030.000000 0 0 1
32.192265 -28.331656 -9.037444 43.825792 -0.721698 1.778499 0.014009 -0.017404 -100465.000000 0 0 1
32.108075 -29.415556 -9.924244 44.661997 -0.741662 1.794875 0.003001 -0.000634 267740.000000 0 0 1
31.772195 -30.802256 -9.272744 45.213218 -0.769899 1.777351 -0.001460 0.003669 92295.500000 0 0 1
32.896675 -31.233356 -8.540244 46.158959 -0.759467 1.756887 0.001820 -0.000542 -332281.000000 0 0 1
32.670895 -32.541556 -7.991844 46.799677 -0.783415 1.742404 0.007776 -0.008127 125810.000000 0 0 1
33.541095 -33.042356 -6.828044 47.575461 -0.777908 1.714814 0.012962 -0.008595 -6370.320000 0 0 1
33.129455 -34.324556 -6.386744 48.130306 -0.803114 1.703886 0.021115 -0.007327 -34828.900000 0 0 1
33.198025 34.391302 -4.983544 48.059402 0.803051 1.674679 0.022608 -0.007845 -450034.000000 0 0 1
33.003595 32.888302 -4.546344 46.813960 0.783648 1.668065 0.018627 -0.005080 -67663.300000 0 0 1
31.794705 32.316902 -5.001144 45.610271 0.793543 1.680667 0.019886 -0.010200 58318.100000 0 0 1
31.525415 31.013802 -4.555944 44.457443 0.777218 1.673455 0.034793 0.003064 178482.000000 0 0 1
30.298035 30.404502 -5.281544 43.246957 0.787152 1.693227 0.018382 -0.002257 87230.800000 0 0 1
30.509545 30.189702 -6.666044 43.436005 0.780129 1.724873 0.005540 0.006054 760442.000000 0 0 1
29.328425 29.566602 -7.212044 42.265281 0.789442 1.742273 0.001926 0.008017 726689.000000 0 0 1
29.446465 29.283702 -8.702344 42.430652 0.782627 1.777358 0.009439 0.009178 -325722.000000 0 0 1
30.214345 28.165502 -9.065244 42.289251 0.750318 1.786836 0.011626 0.006510 -5490.140000 0 0 1
30.587955 28.080602 -10.427344 42.812062 0.742687 1.816832 0.012976 0.005745 345267.000000 0 0 1
31.753085 28.988502 -10.913744 44.358780 0.739916 1.819382 0.011009 0.006650 -655392.000000 0 0 1
33.031335 28.591202 -10.512844 44.933793 0.713469 1.806948 0.012269 0.001333 168883.000000 0 0 1
34.108845 29.410002 -10.966644 46.353303 0.711557 1.809649 0.009777 0.000287 406317.000000 0 0 1
34.342195 30.733002 -10.181844 47.197178 0.729993 1.788236 0.002032 -0.006425 -713807.000000 0 0 1
35.082485 30.470702 -8.975044 47.326481 0.715162 1.761593 0.010366 0.003051 16365.300000 0 0 1
34.773675 31.539702 -8.107044 47.641215 0.736669 1.741797 0.010664 -0.001256 -1398320.000000 0 0 1
-35.563234 31.627602 -6.861344 48.084580 -0.726891 1.713978 0.010347 0.000467 -807943.000000 0 0 1
-34.262581 31.927502 -7.161944 47.377033 -0.750134 1.722547 0.022848 -0.004117 -1028800.000000 0 0 1
-33.513219 30.954802 -7.902044 46.300949 -0.745734 1.742303 0.021880 -0.005989 -2021560.000000 0 0 1
-32.271079 31.499802 -8.597844 45.908419 -0.773304 1.759191 0.034340 -0.008871 -1375610.000000 0 0 1
-31.308549 31.813502 -7.668644 45.289427 -0.793398 1.740941 0.025560 -0.005340 13644.000000 0 0 1
-30.049549 32.250202 -8.213844 44.838801 -0.820707 1.755023 0.020157 -0.016919 672354.000000 0 0 1
-30.064699 33.643702 -8.993844 46.007325 -0.841517 1.767551 0.006467 -0.010778 -649761.000000 0 0 1
-30.147299 -34.036556 -8.181944 46.198387 0.845920 1.748840 0.008310 -0.008185 554391.000000 0 0 1
-29.025079 -33.850856 -7.301744 45.184633 0.861999 1.733106 0.023761 -0.016836 656893.000000 0 0 1
-29.231479 -32.474856 -6.604544 44.189542 0.837911 1.720818 0.004252 -0.016947 -3926.130000 0 0 1
-30.169529 -32.467456 -5.555144 44.667614 0.822068 1.695485 0.010576 -0.018227 -461403.000000 0 0 1
-29.779329 -32.994256 -4.331144 44.656334 0.836568 1.667937 0.019886 -0.021137 143045.000000 0 0 1
-30.852279 -33.076956 -3.163144 45.342624 0.820183 1.640614 0.031979 -0.018380 235399.000000 0 0 1
-31.328049 -31.780656 -2.883244 44.718786 0.792570 1.635316 0.036440 -0.020568 -56361.200000 0 0 1
-32.133289 -31.823956 -1.713644 45.257585 0.780562 1.608670 0.047296 -0.019985 231365.000000 0 0 1
-32.870449 -30.502456 -1.393144 44.864318 0.748050 1.601854 0.051337 -0.014759 528125.000000 0 0 1
-33.811829 -30.493156 -0.314344 45.532089 0.733836 1.577700 0.044960 -0.014444 87384.900000 0 0 1
-34.459215 -29.260456 -0.236744 45.206944 0.703990 1.576033 0.052631 -0.013097 -398974.000000 0 0 1
-35.580052 -29.109056 0.786556 45.977123 0.685698 1.553688 0.051182 -0.008118 228444.000000 0 0 1
34.527985 -29.917756 0.455156 45.688740 -0.713983 1.560834 0.027206 0.001070 1290800.000000 0 0 1
33.392275 -29.944856 1.329256 44.872099 -0.731022 1.541169 0.029603 -0.003575 610982.000000 0 0 1
32.620025 -28.681456 1.619356 43.466242 -0.721237 1.533532 0.018942 0.002129 -1030980.000000 0 0 1
31.667495 -28.408256 0.612356 42.546847 -0.731199 1.556403 0.013987 0.000177 757526.000000 0 0 1
30.824305 -27.209256 0.855556 41.124364 -0.723186 1.549991 0.014818 0.005572 1504310.000000 0 0 1
29.494355 -27.267256 -0.010844 40.167404 -0.746182 1.571066 0.014513 -0.010646 494881.000000 0 0 1
28.488285 -28.101656 0.498456 40.019169 -0.778566 1.558341 0.015380 0.001278 -75991.300000 0 0 1
28.650585 -29.447456 0.030456 41.085394 -0.799113 1.570055 0.011865 0.003489 -383196.000000 0 0 1
28.157355 -29.851656 -1.375244 41.059095 -0.814597 1.604297 0.017981 0.007107 -240934.000000 0 0 1
26.755065 -29.827656 -1.496244 40.096899 -0.839648 1.608121 0.022899 0.018787 -170979.000000 0 0 1
26.483105 -30.021056 -2.855744 40.134448 -0.847931 1.642011 0.025160 0.015315 438935.000000 0 0 1
25.000635 -30.398256 -3.175444 39.486316 -0.882524 1.651302 0.023185 0.012011 -106532.000000 0 0 1
24.171235 -29.318956 -3.232744 38.135290 -0.881339 1.655669 0.032729 0.015620 -1557450.000000 0 0 1
22.948235 -29.796556 -3.691744 37.790014 -0.914515 1.668643 0.021835 0.018223 -873564.000000 0 0 1
21.980735 -28.624456 -3.845144 36.294590 -0.915937 1.676938 0.017991 0.014375 -491385.000000 0 0 1
22.392635 -27.757956 -4.852144 35.992742 -0.891977 1.706017 0.027326 0.004333 -126198.000000 0 0 1
21.797335 -26.506656 -4.812744 34.653847 -0.882584 1.710127 0.032563 -0.006885 -653684.000000 0 0 1
21.311335 -26.082656 -6.209844 34.249673 -0.885734 1.753116 0.035485 -0.026123 247957.000000 0 0 1
20.006035 -26.597456 -6.482944 33.907147 -0.925902 1.763178 0.033389 -0.024842 557530.000000 0 0 1
19.285335 -25.883556 -7.515244 33.141537 -0.930451 1.799548 0.052224 -0.021321 -37056.700000 0 0 1
17.801635 -26.173056 -7.646944 32.563826 -0.973516 1.807839 0.051670 -0.018165 -245141.000000 0 0 1
17.034735 -25.590856 -6.590244 31.440506 -0.983493 1.781972 0.039211 -0.017472 -548384.000000 0 0 1
15.668035 -25.861556 -6.687544 30.968219 -1.026092 1.788460 0.034981 -0.020937 -702498.000000 0 0 1
14.914135 -25.042456 -5.697144 29.698711 -1.033652 1.763824 0.035344 -0.013111 -500695.000000 0 0 1
15.207035 -25.458756 -4.383344 29.976922 -1.032349 1.717546 0.029048 -0.015435 35778.600000 0 0 1
14.653935 -24.563756 -3.473844 28.812905 -1.032905 1.691656 0.033621 -0.005039 -26068.100000 0 0 1
14.663935 -25.198256 -2.057144 29.226955 -1.043760 1.641240 0.020837 -0.001973 -3762.540000 0 0 1
13.940935 -26.421956 -2.005944 29.941496 -1.085292 1.637842 0.037491 -0.007591 386333.000000 0 0 1
14.691935 -27.541656 -1.558744 31.254207 -1.080753 1.620690 0.036285 -0.010860 -127968.000000 0 0 1
13.849735 -28.833656 -1.739744 32.034693 -1.123006 1.625131 0.038390 -0.007779 760754.000000 0 0 1
12.625535 -28.949756 -1.020644 31.599592 -1.159546 1.603101 0.049945 -0.013567 416069.000000 0 0 1
11.796635 -30.074856 -1.225544 32.328927 -1.196995 1.608714 0.052647 -0.017909 -56622.000000 0 0 1
12.313535 -31.507156 -0.870844 33.839066 -1.198231 1.596534 0.053589 -0.011637 -548784.000000 0 0 1
13.327435 -31.849456 -1.793044 34.572002 -1.174486 1.622684 0.050061 -0.009147 -127191.000000 0 0 1
14.046135 -33.007656 -1.450144 35.901283 -1.168467 1.611200 0.043419 -0.007194 -518206.000000 0 0 1
15.511935 -32.979456 -1.911344 36.495450 -1.131148 1.623192 0.028893 0.001898 42781.100000 0 0 1
16.227435 -32.002056 -1.130244 35.899006 -1.101505 1.602286 0.019782 0.006297 -108776.000000 0 0 1
17.496635 -31.691056 -1.645144 36.237574 -1.066342 1.616211 0.019450 0.007605 -187859.000000 0 0 1
18.279635 -30.686056 -0.780644 35.726579 -1.033546 1.592649 0.007193 0.007583 -7015.860000 0 0 1
17.932835 -29.334156 -1.123544 34.399733 -1.022088 1.603464 0.010328 0.005769 377014.000000 0 0 1
18.590235 -28.507256 -0.199144 34.033808 -0.992930 1.576648 -0.004884 0.012264 -119221.000000 0 0 1
18.256135 -27.051556 -0.684344 32.642632 -0.977140 1.591763 -0.009076 0.001423 -371613.000000 0 0 1
18.824435 -26.633456 -1.925444 32.671205 -0.955523 1.629764 -0.005050 -0.002915 58560.700000 0 0 1
18.224335 -27.177756 -3.100644 32.868994 -0.980103 1.665270 0.003077 -0.001586 11297.200000 0 0 1
31.822315 -29.554856 13.714956 45.543926 -0.748472 1.264912 -0.003648 -0.015506 -2636.700000 0 0 1
32.549375 -29.889956 14.911356 46.639252 -0.742832 1.245366 0.010443 -0.016353 23789.700000 0 0 1
31.730195 -30.316956 15.954956 46.695649 -0.762625 1.222093 0.016989 -0.013400 -546784.000000 0 0 1
32.539345 -30.782356 17.158056 47.966251 -0.757658 1.204981 0.009447 -0.005761 -233136.000000 0 0 1
31.761845 -31.318256 18.258456 48.197709 -0.778366 1.182271 0.003130 -0.009117 275693.000000 0 0 1
32.426855 -31.680956 19.457356 49.333281 -0.773764 1.165375 0.004260 -0.007294 7343.410000 0 0 1
33.287485 -33.000156 19.469856 50.755711 -0.781064 1.177106 0.003830 -0.001781 -345162.000000 0 0 1
34.415435 -33.000856 18.675556 51.207959 -0.764418 1.197485 0.007205 -0.000646 -332841.000000 0 0 1
35.138995 -34.223056 18.750156 52.512235 -0.772194 1.205675 0.018468 -0.009969 -157702.000000 0 0 1
-35.061263 -34.425256 17.660056 52.213676 0.776245 1.225764 0.013729 -0.002464 70722.000000 0 0 1
-33.944419 -33.566856 17.900256 50.984081 0.779806 1.212056 0.010880 -0.002527 161868.000000 0 0 1
-33.045659 -33.640256 16.818556 50.065419 0.794314 1.228202 0.007505 0.002435 -6057.790000 0 0 1
-31.815599 -32.718556 17.156656 48.755380 0.799389 1.211204 -0.002348 -0.003064 486566.000000 0 0 1
-30.725469 -32.694256 16.261556 47.722186 0.816432 1.223077 0.002021 -0.006611 162837.000000 0 0 1
-30.933059 -31.748656 15.226456 46.868713 0.798409 1.239917 0.013193 -0.004203 -620582.000000 0 0 1
-29.814389 -31.652156 14.156956 45.729380 0.815288 1.256044 0.009018 -0.001874 -381995.000000 0 0 1
-28.673109 -31.136356 14.774256 44.831891 0.826560 1.234972 0.009447 -0.010600 -124315.000000 0 0 1
-27.574009 -31.184556 13.829456 43.864067 0.846768 1.250045 0.022454 -0.004635 233303.000000 0 0 1
-26.216469 -30.894656 14.441656 43.015630 0.867129 1.228416 0.026506 -0.012063 -99440.500000 0 0 1
-25.138639 -30.961856 13.495256 42.103558 0.888828 1.244512 0.034808 -0.010840 309657.000000 0 0 1
-24.006049 -30.439156 14.193856 41.283146 0.903010 1.219817 0.027702 -0.006078 340538.000000 0 0 1
-22.697349 -30.350656 13.354056 40.182867 0.928681 1.232021 0.042420 -0.007198 467436.000000 0 0 1
-22.187949 -31.630556 12.974856 40.757135 0.959083 1.246813 0.025268 -0.016564 -167104.000000 0 0 1
-20.910049 -31.573656 12.392056 39.845815 0.985849 1.254551 0.031480 -0.023500 -188033.000000 0 0 1
-20.491949 -33.016656 12.222556 40.735861 1.015328 1.266057 0.026822 -0.018383 -10394.700000 0 0 1
-21.298249 -33.489556 11.145056 41.223513 1.004350 1.297033 0.017671 -0.010553 359464.000000 0 0 1
-21.238649 33.959102 11.043356 41.548243 -1.011896 1.301767 0.010921 -0.001143 -14241.400000 0 0 1
-22.246549 33.419702 10.014856 41.377321 -0.983483 1.326331 0.018787 -0.005825 -206551.000000 0 0 1
-21.823349 33.759102 8.730356 41.135807 -0.996925 1.356937 0.009543 -0.011405 -381605.000000 0 0 1
-22.938949 33.507002 7.941356 41.376076 -0.970480 1.377667 0.020828 -0.011136 -625147.000000 0 0 1
-22.747549 33.716502 6.410856 41.174659 -0.977273 1.414461 0.017214 -0.016963 -1001110.000000 0 0 1
-22.120149 32.676902 5.695056 39.868716 -0.975718 1.427461 0.021113 -0.016310 -33980.700000 0 0 1
-20.744849 32.418502 5.857256 38.930906 -1.001549 1.419770 0.009971 -0.017313 -213084.000000 0 0 1
-19.755649 33.584002 5.542156 39.355893 -1.039064 1.429505 0.006796 -0.010846 -1081900.000000 0 0 1
-19.664049 -34.098756 6.322956 39.867026 1.047701 1.411523 0.015790 -0.013488 -148809.000000 0 0 1
-19.042349 -34.359956 7.543656 40.001554 1.064733 1.381076 0.008712 -0.015930 -747904.000000 0 0 1
-19.048849 -33.183556 8.578456 39.212204 1.049680 1.350243 0.018533 -0.010114 -519128.000000 0 0 1
-18.375349 -32.030856 8.134556 37.812699 1.049957 1.353974 0.006981 -0.014007 -326619.000000 0 0 1
-18.473649 -30.876156 8.992256 37.087375 1.031617 1.325894 0.012339 -0.018536 31531.800000 0 0 1
-17.906649 -30.962956 10.448556 37.262918 1.046467 1.286585 0.007163 -0.010976 -36552.500000 0 0 1
-16.529249 -31.270056 10.443756 36.879595 1.084534 1.283683 0.015809 -0.016498 -479027.000000 0 0 1
-16.038849 -31.313456 11.764356 37.096863 1.097434 1.248099 0.042546 -0.020691 335229.000000 0 0 1
-14.643049 -32.022056 11.803156 37.136847 1.141905 1.247358 0.056887 -0.029465 302026.000000 0 0 1
-13.675949 -31.099056 11.364456 35.823647 1.156495 1.247986 0.054426 -0.016709 -741540.000000 0 0 1
-12.586049 -31.803256 10.827956 35.876181 1.193962 1.264201 0.072379 -0.008869 -288624.000000 0 0 1
-11.620949 -30.901556 10.050856 34.510467 1.211094 1.275273 0.079617 -0.003465 28438.300000 0 0 1
-10.826549 -30.077756 10.925256 33.782344 1.225283 1.241475 0.084884 -0.013141 -325968.000000 0 0 1
-9.878949 -29.404856 10.149056 32.638053 1.246681 1.254596 0.065127 -0.011972 76362.800000 0 0 1
-8.766049 -28.700556 10.948656 31.944304 1.274364 1.220962 0.054829 -0.008361 258689.000000 0 0 1
-9.340349 -27.741256 11.794556 31.558374 1.246023 1.187761 0.049605 -0.021034 25817.600000 0 0 1
-8.449749 -27.439456 12.865256 31.461672 1.272070 1.149528 0.044101 -0.014416 6561.760000 0 0 1
-8.849149 -26.180256 13.638256 30.817451 1.244844 1.112356 0.044464 -0.015267 127636.000000 0 0 1
-8.442949 -24.944856 13.002156 29.369802 1.244435 1.112183 0.022304 -0.012882 -357227.000000 0 0 1
-9.339949 -24.471956 12.056756 28.835337 1.206200 1.139417 0.018170 -0.012329 -299586.000000 0 0 1
-8.817349 -23.211356 11.326356 27.291006 1.207761 1.142830 0.010200 -0.009846 -758928.000000 0 0 1
-7.688949 -23.314056 10.549256 26.719879 1.252230 1.164936 0.006362 -0.009270 -862119.000000 0 0 1
-7.266049 -22.011456 10.152356 25.305533 1.251956 1.157979 0.003735 0.000100 -320057.000000 0 0 1
-6.079949 -22.071556 9.202856 24.674114 1.301998 1.188582 0.004669 -0.004217 -395397.000000 0 1 0
-4.895849 -22.580456 9.736756 25.072908 1.357283 1.171969 0.001720 -0.006414 -803154.000000 0 0 1
-3.895449 -22.702156 8.754556 24.641523 1.400862 1.207586 0.004145 -0.007818 425723.000000 0 1 0
-2.744849 -23.654356 9.224956 25.537474 1.455273 1.201207 0.009280 -0.009942 277094.000000 0 0 1
-1.949249 -23.086756 10.225356 25.325003 1.486565 1.155168 0.004354 0.001751 -1515350.000000 0 0 1
-0.934449 -23.936856 10.525256 26.165383 1.531778 1.156814 0.018176 -0.008036 -923736.000000 0 0 1
-0.084649 -23.458056 11.709556 26.218338 1.567188 1.107816 0.018229 0.005062 201961.000000 0 0 1
-0.773849 -23.516456 13.002956 26.883069 1.537902 1.065935 0.008181 0.016657 -111599.000000 0 0 1
-0.071349 -22.901056 14.058456 26.871986 1.567681 1.020237 0.017265 0.011227 -351343.000000 0 0 1
0.444651 -21.444856 13.947656 25.585478 -1.550065 0.994241 0.006050 0.009087 -466802.000000 0 0 1
1.698151 -21.185256 13.412956 25.131776 -1.490810 1.007821 0.023421 0.005452 -722264.000000 0 0 1
1.841451 -19.865756 12.920556 23.769307 -1.478366 0.996098 0.014282 0.001151 431674.000000 0 1 0
3.296451 -19.508856 12.466556 23.385403 -1.403405 1.008546 0.007413 -0.007763 624778.000000 0 1 0
3.656451 -20.113956 11.271756 23.345092 -1.390973 1.066911 0.021042 0.000523 -447140.000000 0 1 0
5.063051 -20.077056 11.178556 23.530465 -1.323766 1.075756 0.036491 -0.005035 268111.000000 0 1 0
5.687651 -21.005756 10.092156 23.988388 -1.306370 1.136568 0.046580 -0.009024 -283507.000000 0 1 0
5.559551 -20.547056 8.789756 23.029327 -1.306547 1.179187 0.036655 -0.010924 -522037.000000 0 1 0
5.926151 -21.527456 7.824956 23.659682 -1.302167 1.233720 0.036379 -0.013684 111120.000000 0 1 0
7.436351 -21.665756 7.447956 24.086850 -1.240165 1.256431 0.041226 -0.009129 86142.700000 0 1 0
7.996551 -20.493956 6.917156 23.060661 -1.198775 1.266151 0.040939 -0.017393 -466354.000000 0 1 0
8.395551 -19.491156 7.834856 22.622454 -1.164077 1.217139 0.044271 -0.011170 467794.000000 0 1 0
9.528651 -19.807756 8.876656 23.705219 -1.122418 1.186982 0.044096 -0.008790 490203.000000 0 1 0
8.911151 -20.358456 10.011456 24.374261 -1.158208 1.147532 0.059642 -0.009328 -242365.000000 0 1 0
9.770551 -20.296456 11.118856 25.120485 -1.122146 1.112277 0.066477 0.000411 211664.000000 0 0 1
8.896551 -20.290256 12.386956 25.382667 -1.157577 1.060990 0.067556 -0.007486 283043.000000 0 0 1
8.775951 -21.614456 12.918756 26.666389 -1.185109 1.065052 0.060454 -0.012867 -400853.000000 0 0 1
7.930951 -21.711256 14.024756 27.036501 -1.220564 1.025427 0.073898 -0.015802 -40276.400000 0 0 1
7.942051 -23.135156 14.680056 28.527454 -1.240112 1.030262 0.072836 -0.017519 213050.000000 0 0 1
7.348151 -24.140656 13.864256 28.792085 -1.275318 1.068397 0.075428 -0.008058 -264058.000000 0 0 1
7.346851 -25.413956 14.474156 30.155374 -1.289381 1.070158 0.078890 -0.013254 215515.000000 0 0 1
7.397751 -26.560956 13.464856 30.684091 -1.299161 1.116509 0.076861 -0.021430 1066830.000000 0 0 1
8.657451 -26.784556 12.798056 30.921742 -1.258170 1.144078 0.062203 -0.021244 731109.000000 0 0 1
8.498551 -27.891156 11.948456 31.510436 -1.275029 1.181875 0.053586 -0.017746 49301.600000 0 0 1
9.861151 -28.304556 11.376856 32.059679 -1.235553 1.208027 0.053552 -0.018751 72118.400000 0 0 1
10.755251 -28.984456 12.226256 33.245382 -1.215476 1.194199 0.045703 -0.016244 189938.000000 0 0 1
11.946351 -29.387356 11.596456 33.775876 -1.184688 1.220330 0.055712 -0.011463 -138670.000000 0 0 1
12.949751 -30.109056 12.497656 35.077667 -1.164618 1.206507 0.042522 -0.012592 -711588.000000 0 0 1
13.482551 -29.304756 13.553056 34.989044 -1.139591 1.173039 0.042759 -0.011306 468268.000000 0 0 1
14.453651 -29.965656 14.355956 36.234542 -1.121376 1.163427 0.044361 -0.009999 1208450.000000 0 0 1
15.895351 -30.106756 13.743456 36.714595 -1.085027 1.187120 0.046589 -0.005586 470510.000000 0 0 1
16.629951 -28.862656 13.650556 35.999248 -1.048079 1.181876 0.036868 -0.012448 1331770.000000 0 0 1
17.948951 -29.085456 13.094756 36.600563 -1.017890 1.204913 0.023778 -0.006707 863547.000000 0 0 1
18.785051 -27.774456 13.091456 35.995621 -0.976125 1.198564 0.008316 -0.008864 -222611.000000 0 0 1
20.043151 -27.977756 12.503356 36.617163 -0.949151 1.222325 0.001745 -0.008222 -488942.000000 0 0 1
20.862151 -26.887056 12.592456 36.286541 -0.910913 1.216396 0.003329 -0.013578 -952143.000000 0 0 1
22.230851 -26.959356 11.933856 36.924714 -0.881231 1.241693 0.005344 -0.008309 -1035910.000000 0 0 1
23.109951 -27.697256 12.697156 38.241674 -0.875442 1.232348 0.008946 -0.017052 -723907.000000 0 0 1
24.149351 -28.124156 11.846456 38.916549 -0.861291 1.261481 0.004492 -0.024091 -597149.000000 0 0 1
25.297951 -28.786156 12.645156 40.355038 -0.849805 1.252080 0.011614 -0.022465 94090.400000 0 0 1
26.141151 -27.911956 13.431556 40.532009 -0.818147 1.233029 -0.001253 -0.016581 1155150.000000 0 0 1
27.361151 -27.758156 12.675056 40.985422 -0.792601 1.256384 -0.016684 -0.011561 578236.000000 0 0 1
28.564951 -27.050656 13.376056 41.552537 -0.758177 1.243053 0.001682 -0.011878 262962.000000 0 0 1
28.521851 -25.641756 13.420356 40.633749 -0.732274 1.234200 0.014783 -0.010561 -123411.000000 0 0 1
27.680251 -25.046356 14.382556 40.004677 -0.735486 1.203041 0.011687 -0.008852 -292089.000000 0 0 1
28.310451 -24.843556 15.818156 40.852148 -0.720267 1.173198 0.008490 -0.004503 -773547.000000 0 0 1
28.610951 -26.116156 16.352356 42.048064 -0.739844 1.171363 0.004920 -0.008393 278629.000000 0 0 1
29.197251 -26.003356 17.666956 42.904258 -0.727603 1.146394 0.017077 0.008826 65098.100000 0 0 1
29.734051 -27.397056 18.228556 44.350792 -0.744515 1.147236 0.015572 0.025784 556653.000000 0 0 1
28.624951 -28.189756 18.650956 44.293434 -0.777738 1.136164 -0.002202 0.019565 630197.000000 0 0 1
29.172351 -29.291656 19.373656 45.654854 -0.787439 1.132552 0.008229 0.013070 508798.000000 0 0 1
28.126951 -30.279356 20.006856 45.915564 -0.822234 1.119946 0.001278 0.028684 -383791.000000 0 0 1
27.226451 -29.545256 20.849056 45.264610 -0.826220 1.092121 -0.003001 0.038053 632599.000000 0 0 1
26.081951 -30.276756 21.300656 45.284303 -0.859692 1.081079 -0.011141 0.035031 596391.000000 0 0 1
25.018051 -30.517356 20.225456 44.342767 -0.884100 1.097170 0.019318 0.015514 -1411890.000000 0 0 1
25.338051 -31.638556 19.411756 44.942534 -0.895531 1.124171 0.023659 0.016713 -116264.000000 0 0 1
24.555551 -31.956256 18.278656 44.252533 -0.915616 1.144992 0.025209 0.007070 -504997.000000 0 0 1
24.862151 -31.134156 16.978456 43.309701 -0.896941 1.167965 0.019370 0.013556 687293.000000 0 0 1
26.205751 -31.415956 16.524156 44.122006 -0.875574 1.186927 0.008396 -0.000045 803085.000000 0 0 1
26.601451 -30.322056 15.716056 43.290400 -0.850667 1.199270 0.001971 -0.019969 -1018040.000000 0 0 1
27.978551 -30.550156 15.143556 44.107127 -0.829307 1.220330 0.004442 -0.021762 -1117420.000000 0 0 1
28.039051 -31.599256 14.170056 44.558858 -0.845024 1.247169 0.025127 -0.008044 319505.000000 0 0 1
28.083651 -32.918056 14.705556 45.700582 -0.864483 1.243187 0.014921 -0.013006 -549729.000000 0 0 1
27.173551 -33.924256 13.951756 45.649847 -0.895442 1.260201 0.014270 -0.015002 -252899.000000 0 0 1
27.570851 -34.231456 12.652556 45.738732 -0.892757 1.290514 0.024341 -0.016480 402130.000000 0 0 1
26.720951 33.606402 12.113256 44.610878 0.899041 1.295812 0.022133 -0.019578 -56630.800000 0 0 1
27.287451 33.112402 10.786656 44.242379 0.881541 1.324506 0.018236 -0.016992 -191184.000000 0 0 1
28.512951 32.423002 10.922456 44.536945 0.849477 1.323024 -0.005965 -0.013529 -18620.900000 0 0 1
28.911751 31.847102 9.749056 44.104096 0.833672 1.347909 -0.009677 -0.011442 -1718130.000000 0 0 1
30.328951 31.415702 9.868356 44.768025 0.802997 1.348538 -0.023901 0.001039 -1590060.000000 0 0 1
30.561851 30.366402 10.811556 44.418857 0.782190 1.324926 -0.026332 0.007153 -992932.000000 0 0 1
31.876751 30.009702 10.985756 45.137526 0.755238 1.324943 -0.017766 0.009367 -1070270.000000 0 0 1
32.130451 28.949702 12.049256 44.895831 0.733370 1.299083 -0.012190 0.023628 -55646.800000 0 0 1
31.910051 27.590302 11.750856 43.789939 0.712925 1.299121 -0.006029 0.024645 199067.000000 0 0 1
32.152651 26.889002 12.977056 43.877276 0.696482 1.270547 0.009215 0.006782 -30621.300000 0 0 1
31.972951 25.373902 12.874056 42.800068 0.670830 1.265270 0.011193 0.000851 677313.000000 0 0 1
33.018951 24.816402 12.037356 43.023283 0.644512 1.287224 0.018967 0.006083 691577.000000 0 0 1
33.159151 23.413302 12.135656 42.367277 0.614801 1.280288 0.032300 -0.004275 13165.100000 0 0 1
32.103651 22.646602 11.263556 40.870291 0.614355 1.291590 0.016060 -0.003280 -351278.000000 0 0 1
30.862651 22.631902 11.890456 40.076042 0.632734 1.269564 0.014897 -0.010826 -1002650.000000 0 0 1
29.873051 22.513602 10.879256 38.956638 0.645828 1.287767 0.000967 0.004858 -788796.000000 0 0 1
28.597151 22.024302 11.535256 37.893654 0.656277 1.261476 -0.020392 0.008615 -895274.000000 0 0 1
28.133151 22.941402 12.485656 38.388458 0.684096 1.239525 -0.020026 0.009870 -781825.000000 0 0 1
27.038851 22.474902 13.179756 37.548990 0.693482 1.212156 0.009405 0.001541 -764712.000000 0 0 1
23.561651 9.558902 26.007797 36.372098 0.385408 0.774104 0.020862 -0.005820 -252233.000000 0 0 1
23.430451 8.312202 26.704127 36.485464 0.340910 0.749674 0.027610 -0.012001 -33560.600000 0 0 1
22.069751 7.964302 26.780587 35.604829 0.346325 0.719460 0.034929 -0.012905 -333270.000000 0 0 1
21.850151 6.694202 27.615417 35.844842 0.297289 0.691304 0.051048 -0.015776 -177773.000000 0 0 1
22.022351 6.763502 29.009607 37.044381 0.297976 0.671155 0.046907 -0.017408 1515920.000000 0 0 1
23.414451 6.690102 29.431757 38.199768 0.278310 0.691219 0.042852 -0.018550 1119760.000000 0 0 1
23.565751 6.561102 30.960597 39.458221 0.271540 0.668677 0.048264 -0.020040 -546332.000000 0 0 1
23.434251 7.773302 31.652267 40.142924 0.320286 0.662447 0.035069 -0.015341 168324.000000 0 0 1
23.313251 7.650202 33.088304 41.193071 0.317077 0.638066 0.025083 -0.013188 -121731.000000 0 0 1
23.430551 8.962002 33.873150 42.150901 0.365323 0.637450 0.032203 -0.011505 235662.000000 0 0 1
24.649551 9.667502 33.683442 42.844314 0.373762 0.666189 0.013968 -0.005567 122080.000000 0 0 1
25.035451 10.360102 -33.925354 43.416991 0.392361 2.467677 0.022652 -0.001022 447482.000000 0 0 1
26.157051 11.419102 -34.288291 44.612488 0.411621 2.447416 0.014493 0.002376 390691.000000 0 0 1
25.723451 12.677102 33.955376 44.445161 0.457889 0.701332 0.004649 0.006426 443673.000000 0 0 1
25.486751 13.681802 -33.879014 44.548331 0.492668 2.434879 0.001220 0.002101 -737276.000000 0 0 1
25.168851 15.094402 34.312604 45.151598 0.540218 0.707572 0.000561 0.007081 -231453.000000 0 0 1
26.259551 15.758402 33.688399 45.528008 0.540494 0.737802 -0.008221 0.010757 99793.800000 0 0 1
26.120351 17.184402 33.601725 45.898282 0.581904 0.749410 0.006815 0.002028 -32679.000000 0 0 1
26.667051 18.056102 -34.026204 46.850154 0.595187 2.383687 0.010642 -0.002420 75124.600000 0 0 1
25.992851 17.786202 -32.778854 45.458008 0.600093 2.376156 0.011198 -0.012885 492929.000000 0 0 1
26.869151 17.130602 -31.860704 45.061217 0.567578 2.356120 -0.000727 -0.007342 -167777.000000 0 0 1
26.188351 16.715802 -30.514074 43.547175 0.568100 2.347193 0.012991 -0.012645 9957.330000 0 0 1
25.324651 15.634502 -30.753114 42.796374 0.553089 2.372571 0.008013 -0.000010 -151726.000000 0 0 1
24.457351 15.282302 -29.701074 41.398847 0.558495 2.370913 0.022041 -0.015746 6196.640000 0 0 1
23.702451 13.992602 -30.111524 40.795869 0.533289 2.401050 0.020084 -0.009839 -1094420.000000 0 0 1
22.942851 14.304402 -31.261724 41.331413 0.557505 2.428538 0.019215 -0.004092 32464.600000 0 0 1
22.441651 13.148302 -31.937434 41.188654 0.529979 2.458135 0.019162 0.005994 13888.900000 0 0 1
21.672851 12.068802 -31.087914 39.772187 0.508097 2.468103 0.016094 0.003695 -1063370.000000 0 0 1
20.462051 12.538102 -30.571984 38.865740 0.549741 2.476087 0.019852 0.006109 -55673.500000 0 0 1
19.763551 11.588102 -29.784514 37.576579 0.530313 2.485915 0.018094 0.004090 -131682.000000 0 0 1
18.447351 12.154202 -29.238504 36.645866 0.582578 2.494544 0.018652 0.010929 -583419.000000 0 0 1
17.423351 12.226002 -30.188444 36.937656 0.611867 2.527473 0.007748 0.021768 86031.900000 0 0 1
16.281851 12.777402 -29.535964 36.065688 0.665381 2.530374 0.011378 0.016141 96736.500000 0 0 1
15.217251 13.441502 -30.477214 36.621022 0.723515 2.553919 0.009534 0.019355 379295.000000 0 0 1
14.392951 12.482402 -31.116224 36.485432 0.714428 2.592196 0.003030 0.028565 724557.000000 0 0 1
13.115651 12.326202 -30.453954 35.375116 0.754379 2.607805 0.014999 0.020544 510386.000000 0 0 1
12.092851 11.645202 -31.380214 35.588841 0.766543 2.650341 0.027693 0.018914 -4367.870000 0 0 1
11.824651 12.409602 -32.566134 36.801816 0.809531 2.657088 0.042027 0.021560 -1102260.000000 0 0 1
10.792351 11.881602 -33.245164 36.917316 0.833401 2.691784 0.057056 0.024522 -1152440.000000 0 0 1
10.229651 12.644202 34.365755 38.020083 0.890568 0.442032 0.059039 0.017356 -246331.000000 0 0 1
11.095651 12.810702 33.284007 37.350404 0.857016 0.470970 0.047235 0.020401 -394711.000000 0 0 1
10.410351 13.319502 32.167727 36.339334 0.907384 0.483864 0.048974 0.008089 56812.500000 0 0 1
11.138351 13.171902 30.752557 35.260198 0.868854 0.511195 0.038874 0.007935 -110844.000000 0 0 1
11.368351 11.840602 30.328067 34.485227 0.805743 0.496089 0.035116 0.010135 221136.000000 0 0 1
11.835751 11.869602 28.971827 33.471468 0.786826 0.524513 0.031176 0.010863 -685883.000000 0 0 1
12.375151 10.487602 28.623057 32.900054 0.703025 0.515593 0.024794 0.012021 -603990.000000 0 0 1
11.497151 9.452102 28.905387 32.512276 0.688087 0.475507 0.026208 0.005498 -68772.000000 0 0 1
11.992651 8.206602 28.357917 31.864454 0.600113 0.473551 0.025828 -0.007794 -17342.400000 0 0 1
11.100451 6.978202 28.686427 31.540868 0.561213 0.428716 0.024178 -0.010400 1209850.000000 0 0 1
9.848851 7.024702 27.910687 30.419611 0.619564 0.408990 0.021296 -0.014230 1469410.000000 0 0 1
8.969351 5.931402 28.210917 30.190836 0.584276 0.364170 0.024287 -0.022552 127639.000000 0 0 1
9.340251 4.573302 27.514557 29.414388 0.455320 0.361375 0.038625 -0.023811 63689.700000 0 0 1
10.541751 4.021602 28.046377 30.230796 0.364451 0.382480 0.022300 -0.017381 483147.000000 0 0 1
10.613651 2.647402 27.690007 29.772383 0.244446 0.376229 0.033342 -0.014443 -86368.000000 0 0 1
11.563251 1.819002 28.590207 30.893648 0.156030 0.388602 0.020158 -0.012173 49011.800000 0 0 1
10.971751 1.638202 29.854787 31.849196 0.148216 0.355767 0.021452 -0.014203 139867.000000 0 0 1
10.710751 0.264602 30.198707 32.042972 0.024699 0.340930 0.018079 -0.004278 202125.000000 0 0 1
9.517151 0.123702 31.165757 32.586744 0.012997 0.296402 0.030111 -0.000209 27928.700000 0 0 1
9.760051 0.861902 32.344957 33.796415 0.088081 0.294136 0.010922 -0.001726 -871687.000000 0 0 1
8.647051 1.006802 33.135653 34.260132 0.115911 0.256916 0.026517 -0.004973 -853551.000000 0 0 1
8.828251 2.234602 34.031982 35.229352 0.247912 0.261466 0.036554 -0.005114 -208423.000000 0 0 1
8.839351 3.552802 33.397987 34.730132 0.382169 0.277866 0.020122 -0.006273 196259.000000 0 0 1
10.022751 3.948402 32.709127 34.437369 0.375275 0.318153 0.002277 0.002176 -117053.000000 0 0 1
9.897351 5.356602 32.090397 34.006533 0.496074 0.337293 0.007785 -0.001631 53700.800000 0 0 1
9.825151 6.445102 32.978798 35.009628 0.580568 0.342279 0.012725 0.000028 39849.900000 0 0 1
10.014351 7.659602 32.277927 34.652868 0.652945 0.372378 0.016720 0.003709 -282971.000000 0 0 1
10.095451 8.887902 33.246922 35.864617 0.721873 0.384432 0.046252 0.000298 -84437.600000 0 0 1
8.908051 9.381002 33.827751 36.217030 0.811252 0.365266 0.048607 0.002210 -161140.000000 0 0 1
8.367551 8.547002 -33.981294 36.024929 0.796007 2.803146 0.046761 -0.001491 -384327.000000 0 0 1
7.069451 9.097502 -33.383634 35.315842 0.910190 2.809272 0.045783 0.000928 -273596.000000 0 0 1
6.409451 8.130902 -32.609544 34.213666 0.903241 2.834163 0.050414 0.001618 152437.000000 0 0 1
5.136951 8.578502 -32.157694 33.676345 1.031247 2.840134 0.054284 0.001212 326786.000000 0 0 1
4.571851 7.565502 -31.136314 32.366783 1.027219 2.864971 0.045312 -0.002309 -510729.000000 0 0 1
5.237551 7.655102 -29.920974 31.325663 0.970759 2.840991 0.047966 0.000993 123270.000000 0 0 1
4.654051 6.907902 -28.852664 30.030909 0.977921 2.860546 0.031913 0.003206 257272.000000 0 0 1
3.300351 7.421902 -28.268924 29.412735 1.152378 2.861796 0.027425 0.002729 959337.000000 0 0 1
2.231951 6.990002 -29.140134 30.049777 1.261723 2.894914 0.027435 0.004619 -120449.000000 0 0 1
0.971151 7.482002 -28.786874 29.759160 1.441720 2.885267 0.025512 0.009076 430978.000000 0 0 1
-0.175049 6.949202 -29.747324 30.548737 -1.545612 2.912030 0.021695 0.007383 562144.000000 0 0 1
-0.057349 7.557302 -31.016384 31.923849 -1.563208 2.902588 0.037152 0.006511 222706.000000 0 0 1
-0.474649 6.701002 -32.082644 32.778419 -1.500082 2.935185 0.048811 -0.000765 -478289.000000 0 0 1
-0.364249 7.348602 -33.494174 34.292773 -1.521270 2.925358 0.057845 -0.013662 286297.000000 0 0 1
0.981951 7.403102 -33.948494 34.760184 1.438926 2.925063 0.040036 -0.013270 427530.000000 0 0 1
1.632051 6.197602 -34.350285 34.943038 1.313306 2.957139 0.043003 -0.006161 -180490.000000 0 0 1
1.538651 5.817502 32.970619 33.515257 1.312230 0.180525 0.055546 -0.014168 526997.000000 0 0 1
0.189151 5.560102 32.555047 33.026982 1.536790 0.169255 0.056742 -0.012754 373115.000000 0 0 1
-0.037349 5.607202 31.171437 31.671763 -1.564136 0.177983 0.072149 -0.020261 6841.750000 0 0 1
0.670651 4.537702 30.295747 30.641031 1.424063 0.150266 0.073683 -0.024589 -303490.000000 0 0 1
0.579751 4.795202 28.894907 29.295831 1.450478 0.165630 0.068842 -0.023134 43543.000000 0 0 1
1.164951 3.784702 28.094037 28.371746 1.272194 0.140030 0.052604 -0.020173 -102689.000000 0 0 1
1.268951 4.188302 26.631657 26.988835 1.276612 0.162872 0.046235 -0.017294 317758.000000 0 0 1
2.126751 5.306502 26.363547 26.976260 1.189616 0.213540 0.043419 -0.015480 183792.000000 0 0 1
2.110651 5.586602 24.947767 25.652603 1.209568 0.234959 0.043765 -0.014228 -881036.000000 0 0 1
2.594951 7.024302 24.659617 25.771521 1.216922 0.294817 0.042522 -0.011849 594423.000000 0 0 1
4.013351 7.281802 24.750517 26.109762 1.067072 0.324089 0.032344 -0.012156 1284550.000000 0 0 1
4.765251 6.768502 23.627257 25.035325 0.957369 0.336982 0.017789 -0.017404 -632012.000000 0 0 1
6.294351 6.743202 23.698257 25.430238 0.819812 0.371200 0.029073 -0.016636 -31355.800000 0 0 1
6.980451 5.799302 24.532157 26.156936 0.693236 0.354318 0.040179 -0.020854 280090.000000 0 0 1
6.658551 4.424902 24.349937 25.628802 0.586532 0.317238 0.046850 -0.022637 -975013.000000 0 0 1
6.818651 3.782702 22.966757 24.254376 0.506489 0.327306 0.048793 -0.024854 -36932.900000 0 1 0
5.839251 4.098902 22.007357 23.134857 0.612038 0.313487 0.018836 -0.016665 49987.700000 0 1 0
4.581551 3.440902 22.177657 22.905870 0.644163 0.252830 0.015613 -0.017405 499403.000000 0 1 0
3.549951 3.832602 21.075957 21.713750 0.823666 0.242972 0.001927 -0.015722 218751.000000 0 1 0
3.062851 5.142802 21.249457 22.076432 1.033647 0.274576 -0.001163 -0.018746 -605037.000000 0 1 0
1.851351 5.359702 20.608757 21.374629 1.238207 0.268503 0.010497 -0.012145 -588919.000000 0 1 0
1.465451 6.823602 20.713957 21.858113 1.359248 0.324986 0.025246 -0.009745 156330.000000 0 1 0
2.399151 7.662602 20.018457 21.568727 1.267366 0.381454 0.022126 -0.015345 277649.000000 0 1 0
2.060851 8.959702 20.364057 22.343190 1.344715 0.424072 0.038395 -0.011343 456344.000000 0 1 0
3.006251 10.055002 19.750657 22.365801 1.280275 0.488423 0.047090 -0.023567 -262542.000000 0 1 0
2.971151 10.167102 18.283057 21.129786 1.286481 0.525099 0.016548 -0.019970 -596624.000000 0 1 0
3.702551 11.203402 17.748057 21.312405 1.251612 0.586727 0.014189 -0.020996 -228094.000000 0 1 0
5.237751 11.269602 17.948257 21.830664 1.135729 0.605605 0.027490 -0.014644 -106638.000000 0 1 0
5.832351 10.281802 17.081457 20.772769 1.054806 0.605354 0.026282 -0.015444 -479508.000000 0 1 0
7.133551 9.963802 17.481657 21.348846 0.949448 0.611379 0.025488 -0.000499 -561312.000000 0 1 0
7.183451 8.503102 18.005857 21.168741 0.869327 0.553696 0.028705 -0.001770 -73396.600000 0 1 0
7.048751 8.508802 19.399157 22.325140 0.878972 0.517744 0.027095 -0.001304 -61113.800000 0 1 0
6.786851 7.200102 19.902857 22.226707 0.814935 0.461360 0.031899 -0.011733 465174.000000 0 1 0
8.037551 6.303302 20.168457 22.607532 0.665052 0.468797 0.055528 -0.019450 328320.000000 0 1 0
8.699051 5.917802 18.992757 21.712178 0.597369 0.505874 0.047499 -0.015613 -731579.000000 0 1 0
9.916151 5.284902 19.209457 22.254516 0.489666 0.529279 0.054084 -0.018302 -450520.000000 0 1 0
9.900251 3.750302 19.147457 21.879324 0.362106 0.505073 0.052585 -0.019777 -133304.000000 0 1 0
9.144951 3.086002 20.143157 22.336076 0.325455 0.446829 0.067961 -0.023530 190111.000000 0 1 0
9.532951 1.704402 20.204957 22.405857 0.176921 0.446946 0.059212 -0.026899 173929.000000 0 1 0
8.726151 0.871602 21.223257 22.963711 0.099554 0.391839 0.057750 -0.025858 -142071.000000 0 1 0
9.063351 1.257602 22.542557 24.328846 0.137876 0.385588 0.069071 -0.025160 142661.000000 0 1 0
8.456451 0.455102 23.525357 25.003222 0.053765 0.345539 0.061249 -0.027838 -457293.000000 0 0 1
9.091351 0.818102 24.935027 26.553296 0.089745 0.350923 0.056102 -0.029867 181042.000000 0 0 1
10.378351 0.231102 25.091237 27.153890 0.022264 0.392284 0.053605 -0.026142 386694.000000 0 0 1
10.409951 -1.161798 25.247297 27.333914 -0.111145 0.393267 0.047324 -0.023965 -709887.000000 0 0 1
11.826051 -1.765398 25.236187 27.925566 -0.148186 0.442475 0.037037 -0.014654 -102675.000000 0 0 1
11.856751 -3.232898 25.146967 27.989357 -0.266192 0.454576 0.042005 -0.005539 -867224.000000 0 0 1
13.150151 -3.717898 25.230727 28.693881 -0.275535 0.496391 0.029677 0.000740 -773902.000000 0 0 1
13.300751 -5.248498 25.407337 29.154579 -0.375844 0.512605 0.027731 -0.001713 -181864.000000 0 0 1
12.862251 -5.927498 24.234617 28.069367 -0.431836 0.528859 0.040702 -0.005455 152660.000000 0 0 1
12.514751 -7.208698 24.582247 28.510896 -0.522598 0.531189 0.031487 -0.004382 -128442.000000 0 0 1
12.392851 -8.158898 23.353057 27.667953 -0.582226 0.566010 0.041895 -0.004570 156906.000000 0 0 1
11.905551 -9.473098 23.586557 28.067907 -0.672106 0.572888 0.039188 -0.001768 -178980.000000 0 0 1
12.144651 -10.269998 22.430757 27.497350 -0.701957 0.616785 0.042509 -0.004260 156243.000000 0 0 1
11.491851 -11.684198 22.414257 27.766563 -0.793697 0.631337 0.054293 0.001235 1996110.000000 0 0 1
10.028051 -11.601698 22.396457 27.143369 -0.858024 0.600387 0.044428 0.003458 1333380.000000 0 0 1
9.442151 -12.888398 22.227657 27.373961 -0.938519 0.623226 0.033741 0.002752 904710.000000 0 0 1
7.900551 -12.856698 22.538657 27.123872 -1.019777 0.589978 0.011257 0.006308 788930.000000 0 0 1
7.230451 -12.056498 21.618357 25.787437 -1.030587 0.576585 0.004727 -0.001330 -1314320.000000 0 0 1
5.917351 -11.808498 21.970657 25.635238 -1.106261 0.541282 -0.002218 -0.001599 -392145.000000 0 0 1
5.209951 -10.650998 21.220857 24.308684 -1.115865 0.509529 -0.011862 -0.007418 232214.000000 0 1 0
5.588051 -9.421998 21.778957 24.378747 -1.035476 0.466032 -0.002877 -0.010230 -395718.000000 0 1 0
4.802851 -8.376198 21.317357 23.402089 -1.050171 0.425296 -0.005342 -0.004342 -407486.000000 0 1 0
5.242951 -7.037098 21.919457 23.610842 -0.930474 0.380810 0.000963 -0.003762 103876.000000 0 1 0
4.376751 -6.008198 21.520657 22.768247 -0.941222 0.332575 -0.012705 -0.002137 50612.600000 0 1 0
5.046651 -4.753798 21.635757 22.719447 -0.755525 0.310106 0.015931 -0.021986 278807.000000 0 1 0
-7.724749 -15.536798 -21.002344 27.242656 1.109399 2.451106 0.019291 0.002174 56003.100000 0 0 1
-7.403449 -14.784698 -19.831244 25.820081 1.106548 2.446595 0.013679 0.006029 -4107.330000 0 0 1
-6.723349 -13.572498 -20.070444 25.144360 1.110863 2.495112 0.005418 -0.007845 -170528.000000 0 0 1
-6.088949 -13.029398 -18.805444 23.674569 1.133630 2.488702 -0.005095 -0.001608 -532330.000000 0 1 0
-5.049149 -13.838698 -18.391244 23.563559 1.220947 2.466254 0.003927 0.007052 -520489.000000 0 1 0
-4.416549 -13.440798 -17.196244 22.268178 1.253318 2.453146 0.024788 -0.004676 246353.000000 0 1 0
-3.428549 -14.452398 -16.600944 22.275953 1.337872 2.411692 0.028416 0.002857 1321150.000000 0 1 0
-2.156549 -14.780298 -17.215744 22.792318 1.425912 2.426955 0.021190 -0.000924 849678.000000 0 1 0
-1.530449 -15.867798 -16.600844 23.015589 1.474644 2.376455 0.022328 0.006924 -134333.000000 0 1 0
-0.074549 -16.146598 -17.013944 23.456182 1.566179 2.382339 0.030084 -0.004922 138488.000000 0 1 0
0.009151 -16.843498 -18.221744 24.814018 -1.570253 2.395479 0.042848 -0.011274 -175703.000000 0 1 0
-0.108849 -18.253298 -18.098244 25.704886 1.564833 2.351920 0.039390 -0.004692 -146682.000000 0 0 1
-0.454349 -18.760198 -19.533044 27.086736 1.546582 2.376228 0.036730 -0.016465 -1338110.000000 0 0 1
-1.755449 -18.522698 -19.839644 27.198960 1.476306 2.388280 0.041280 -0.014767 -1765240.000000 0 0 1
-2.053449 -18.611898 -21.221444 28.301397 1.460911 2.418612 0.040939 -0.016502 389759.000000 0 0 1
-3.509849 -18.158998 -21.558744 28.405065 1.379866 2.432534 0.034941 -0.010693 617468.000000 0 0 1
-3.734849 -16.764998 -21.731844 27.699951 1.351599 2.472757 0.028098 -0.001641 -401298.000000 0 0 1
-3.732749 -16.049998 -20.496544 26.299129 1.342288 2.464443 0.006471 -0.005308 -299261.000000 0 0 1
-2.620449 -14.992798 -20.297344 25.369922 1.397764 2.498184 0.025468 -0.001915 -215152.000000 0 0 1
-2.732149 -13.991698 -21.294644 25.626044 1.377954 2.551657 0.023250 -0.000310 -83776.300000 0 0 1
-1.914349 -12.889498 -20.968144 24.687385 1.423354 2.585542 0.027640 -0.001009 -76775.100000 0 1 0
-1.836449 -11.914898 -22.151044 25.219161 1.417869 2.643179 0.040690 -0.000014 -310741.000000 0 0 1
-2.915649 -11.058998 -22.351544 25.107648 1.313017 2.668643 0.027709 -0.004223 -402295.000000 0 0 1
-2.869549 -10.362098 -23.576244 25.912288 1.300639 2.713714 0.029207 0.003215 -589606.000000 0 0 1
-3.704749 -9.131098 -23.614544 25.588060 1.185361 2.746273 0.030242 -0.003979 870513.000000 0 0 1
-5.132349 -9.418698 -23.734644 26.045848 1.071869 2.717139 0.028781 -0.007982 1705210.000000 0 0 1
-5.823349 -8.170998 -23.807044 25.835091 0.951608 2.742722 0.025508 -0.013629 -585282.000000 0 0 1
-7.353549 -8.327398 -23.740244 26.211055 0.847423 2.703905 -0.004277 -0.016369 165462.000000 0 0 1
-8.087549 -8.804298 -24.867444 27.591917 0.827804 2.693461 0.000780 -0.013613 267681.000000 0 0 1
-8.226949 -7.800598 -25.876954 28.251527 0.758803 2.728662 0.003466 -0.020212 -191023.000000 0 0 1
-9.185749 -8.292598 -26.998684 29.699732 0.734342 2.711806 0.003574 -0.022079 190233.000000 0 0 1
-9.719849 -7.178398 -27.679634 30.202102 0.636120 2.729989 0.009892 -0.028404 -369745.000000 0 0 1
-10.658249 -7.529898 -28.636524 31.469797 0.615065 2.714004 0.022277 -0.031163 -397450.000000 0 0 1
-11.409349 -6.327198 -29.210864 31.991893 0.506339 2.721548 0.031129 -0.042086 -584701.000000 0 0 1
-10.593549 -5.580698 -30.027344 32.326597 0.484858 2.762158 0.010350 -0.033370 -817692.000000 0 0 1
-11.255349 -4.769898 -30.930744 33.258769 0.400845 2.765216 0.036503 -0.037710 -1028280.000000 0 0 1
-10.422649 -3.858498 -31.784084 33.671169 0.354559 2.805212 0.025786 -0.026747 -518431.000000 0 0 1
-9.555949 -4.510298 -32.686134 34.351744 0.440988 2.828914 0.019748 -0.027854 67599.900000 0 0 1
-9.015249 -3.565698 -33.608554 34.978905 0.376637 2.860755 0.013891 -0.025211 -188602.000000 0 0 1
-8.058249 -4.168698 34.164146 35.348299 0.477408 0.259570 0.008218 -0.023324 1159340.000000 0 0 1
-6.752049 -4.460998 -34.068264 35.016243 0.583852 2.908373 0.009274 -0.021748 518019.000000 0 0 1
-5.867149 -4.864098 33.753024 34.602738 0.692199 0.222070 -0.001711 -0.022311 -598825.000000 0 0 1
-4.472149 -4.348498 34.143568 34.708684 0.771381 0.180699 0.012760 -0.020237 -373591.000000 0 0 1
-4.320549 -2.971198 34.162169 34.562247 0.602416 0.152302 0.031165 -0.023798 321221.000000 0 0 1
-2.948249 -2.589998 34.254934 34.478990 0.720802 0.114065 0.030731 -0.027152 578062.000000 0 0 1
-2.741649 -1.127598 -34.143009 34.271463 0.390197 3.054985 0.046045 -0.031911 -127059.000000 0 0 1
-3.041349 -1.019798 -32.790714 32.947241 0.323530 3.044077 0.032080 -0.027493 217610.000000 0 0 1
-3.284049 0.263202 -32.236034 32.403952 -0.079974 3.039745 0.031640 -0.027954 -928614.000000 0 0 1
-3.705349 0.120202 -30.777424 30.999901 -0.032429 3.021715 0.064360 -0.029805 459080.000000 0 0 1
-4.914649 -0.579198 -30.503314 30.902126 0.117310 2.980760 0.043026 -0.032159 453411.000000 0 0 1
-6.087149 0.163702 -30.807214 31.403258 -0.026886 2.946448 0.047763 -0.033537 -31554.800000 0 0 1
-7.408949 -0.646498 -30.667524 31.556418 0.087039 2.903678 0.043551 -0.038221 310272.000000 0 0 1
-7.696249 -1.132598 -29.361674 30.374708 0.146114 2.882601 0.026998 -0.030761 1012.180000 0 0 1
-8.818749 -1.986098 -29.393884 30.752485 0.221517 2.843238 0.026047 -0.027529 -142323.000000 0 0 1
-9.165149 -2.779798 -28.121634 29.707802 0.294482 2.813342 0.025672 -0.024686 -275870.000000 0 0 1
-9.773049 -1.926298 -27.214554 28.980253 0.194609 2.790718 0.029076 -0.026539 -24782.200000 0 0 1
-10.187049 -2.516998 -26.011804 28.048622 0.242227 2.758151 0.021133 -0.021315 889627.000000 0 0 1
-11.248549 -1.704898 -25.124384 27.580268 0.150421 2.716390 0.025170 -0.018448 1375330.000000 0 0 1
-10.585049 -0.551298 -24.617944 26.802805 0.052036 2.735026 0.023032 -0.014529 961881.000000 0 0 1
-11.528649 0.129702 -23.783944 26.431091 -0.011250 2.690216 0.028798 -0.017868 723190.000000 0 0 1
-10.825449 1.374502 -23.194844 25.633579 -0.126294 2.701851 0.026245 -0.010586 314136.000000 0 0 1
-10.506149 2.376002 -24.100644 26.398212 -0.222412 2.721289 0.022995 -0.012564 -76358.500000 0 0 1
-9.841349 3.450202 -23.493644 25.704228 -0.337193 2.723831 0.022290 -0.005838 -347052.000000 0 0 1
-9.707149 4.701402 -24.409244 26.686009 -0.451028 2.725520 0.032935 -0.009430 103812.000000 0 0 1
-10.926849 5.391302 -24.627844 27.477133 -0.458353 2.682158 0.037968 -0.008235 314714.000000 0 0 1
-11.629949 4.961902 -25.812954 28.743430 -0.403266 2.686106 0.029751 -0.011270 -204680.000000 0 0 1
-13.029049 5.505002 -26.061364 29.652248 -0.399766 2.644348 0.025923 -0.003509 -420225.000000 0 0 1
-13.045149 6.905902 -26.396744 30.243271 -0.486878 2.631735 0.031519 -0.003345 -312007.000000 0 0 1
-14.321549 7.389602 -26.719334 31.203137 -0.476348 2.598864 0.036603 -0.005174 -401094.000000 0 0 1
-14.327049 8.889302 -27.057754 31.881124 -0.555325 2.584333 0.051668 -0.004943 -46779.200000 0 0 1
-14.177549 9.623002 -25.818534 30.987122 -0.596321 2.555670 0.075990 -0.012420 21828.500000 0 0 1
-14.772649 10.897202 -25.887084 31.735174 -0.635557 2.524773 0.067808 -0.014289 3471.180000 0 0 1
-14.404949 11.725802 -24.600544 30.825050 -0.683227 2.494882 0.065356 -0.011419 494512.000000 0 0 1
-15.151649 11.344602 -23.433244 30.122904 -0.642692 2.462147 0.077815 -0.006861 357693.000000 0 0 1
-14.579949 12.155002 -22.426144 29.381132 -0.694942 2.439177 0.059415 -0.005785 206320.000000 0 0 1
-15.339649 12.147002 -21.081244 28.762359 -0.669764 2.393438 0.065824 -0.010081 382448.000000 0 0 1
-16.601649 12.795802 -21.198744 29.811642 -0.656652 2.361843 0.056269 -0.014840 311712.000000 0 0 1
-17.093649 13.198402 -19.896544 29.364317 -0.657510 2.315257 0.052895 -0.007279 958218.000000 0 0 1
-18.624249 13.563702 -19.842744 30.406761 -0.629456 2.281776 0.057381 -0.014310 858213.000000 0 0 1
-18.988449 14.684202 -20.696244 31.694187 -0.658261 2.282333 0.050654 -0.011943 148897.000000 0 0 1
-20.367949 14.927802 -20.520344 32.538855 -0.632471 2.253176 0.041402 -0.013932 13833.300000 0 0 1
-20.843749 16.253402 -21.179644 33.870522 -0.662285 2.246328 0.039731 -0.009625 -146811.000000 0 0 1
-20.627849 16.212002 -22.572644 34.610134 -0.666101 2.281276 0.034463 -0.011786 218568.000000 0 0 1
-21.088849 17.401602 -23.197744 35.856528 -0.689893 2.274387 0.015094 -0.002346 -231456.000000 0 0 1
-21.001049 17.415802 -24.714244 36.812335 -0.692343 2.306835 0.011030 -0.004501 6734.850000 0 0 1
-19.723049 17.550802 -25.296844 36.564458 -0.727186 2.334834 0.012488 -0.005925 131095.000000 0 0 1
-19.735149 17.181402 -26.639824 37.341088 -0.716332 2.365161 0.011946 -0.009802 257603.000000 0 0 1
-18.633549 17.932102 -27.464664 37.723695 -0.766217 2.386267 0.000236 -0.000618 466467.000000 0 0 1
-19.098249 19.205602 -27.875744 38.867150 -0.788201 2.370581 -0.015806 -0.008759 410824.000000 0 0 1
-18.303549 20.202702 -27.273924 38.562105 -0.834679 2.356429 -0.020801 -0.015921 -1288300.000000 0 0 1
-18.907749 21.672602 -27.446714 39.755839 -0.853426 2.332813 0.015296 -0.007910 722479.000000 0 0 1
-20.065949 21.919502 -26.658074 39.921921 -0.829517 2.301985 0.029570 -0.006053 865092.000000 0 0 1
-21.212949 21.102002 -26.867274 40.213605 -0.782776 2.302468 0.048612 -0.015260 -697356.000000 0 0 1
-22.377949 21.344902 -25.870254 40.319319 -0.761775 2.267423 0.045030 -0.002017 46725.100000 0 0 1
-22.089249 20.996302 -24.514644 39.111985 -0.760037 2.248211 0.023629 0.001243 159540.000000 0 0 1
-23.060349 21.494302 -23.608144 39.384377 -0.750264 2.213584 0.024511 -0.007182 -94337.000000 0 0 1
-22.848349 21.078802 -22.103244 38.143365 -0.745136 2.188884 0.035967 0.004225 -441999.000000 0 0 1
-21.722649 21.728002 -21.571844 37.540964 -0.785521 2.182938 0.033701 0.002638 -60354.900000 0 0 1
-20.655649 20.876302 -21.213944 36.228541 -0.790711 2.196366 0.024281 0.003370 -245972.000000 0 0 1
-20.797849 20.087402 -19.844244 35.069192 -0.768023 2.172272 0.033665 -0.004683 -663728.000000 0 0 1
-21.714049 18.991702 -19.965144 35.082640 -0.718619 2.176194 0.054538 -0.006022 666730.000000 0 0 1
-22.264049 18.493502 -18.727344 34.473336 -0.693149 2.145089 0.043473 -0.005956 129338.000000 0 0 1
-23.312549 19.420102 -18.048344 35.303796 -0.694560 2.107411 0.030473 -0.004939 -531487.000000 0 0 1
-24.503549 19.470002 -18.809444 36.514381 -0.671427 2.111949 0.018280 -0.003525 -61441.100000 0 0 1
-25.358669 20.454802 -18.273644 37.354880 -0.678764 2.081957 0.016438 -0.005113 -890281.000000 0 0 1
-26.744279 20.513102 -18.977044 38.680382 -0.654298 2.083588 0.005649 0.012447 454698.000000 0 0 1
-27.651159 19.448102 -18.722744 38.643969 -0.612962 2.076580 -0.001459 0.005461 375050.000000 0 0 1
-28.021159 19.284502 -17.370044 38.194185 -0.602771 2.042924 -0.001476 -0.000947 -851525.000000 0 0 1
-29.057619 18.158702 -17.090844 38.290738 -0.558542 2.033472 -0.002253 -0.003703 83343.900000 0 0 1
-28.399659 16.893802 -17.031744 37.175549 -0.536631 2.046702 0.010004 -0.014218 450435.000000 0 0 1
-29.271399 15.824802 -16.695044 37.228532 -0.495616 2.035824 0.007143 -0.008014 363030.000000 0 0 1
-28.457309 14.745902 -15.928144 35.790583 -0.478083 2.032012 0.024592 -0.012765 -246931.000000 0 0 1
-27.945039 15.087202 -14.649244 34.973550 -0.495047 2.002993 0.025580 -0.011040 647976.000000 0 0 1
-28.941499 15.348102 -13.622644 35.478881 -0.487604 1.964883 0.002847 -0.006485 731689.000000 0 0 1
-28.249179 15.953202 -12.364944 34.719052 -0.514083 1.934933 0.004761 -0.010325 343975.000000 0 0 1
-27.717709 17.274602 -12.484344 34.964869 -0.557328 1.935908 -0.000219 -0.005186 320010.000000 0 0 1
-28.680409 18.338102 -12.403744 36.231267 -0.568884 1.920212 -0.009849 0.005439 408943.000000 0 0 1
-28.002429 19.744502 -12.432844 36.449375 -0.614140 1.918882 0.006438 -0.004829 91950.100000 0 0 1
-27.415449 20.157102 -11.212744 35.827939 -0.633992 1.889105 -0.011753 -0.009799 -24707.500000 0 0 1
-26.655739 21.317002 -11.468044 36.006374 -0.674567 1.894943 -0.016396 -0.009489 28995.500000 0 0 1
-25.954859 21.855502 -10.211044 35.434207 -0.699865 1.863111 -0.004619 0.001244 110495.000000 0 0 1
-26.647489 22.911002 -9.565844 36.421258 -0.710145 1.836558 -0.014746 -0.003603 506968.000000 0 0 1
-25.873999 24.126002 -9.687244 36.679292 -0.750452 1.838074 -0.001730 -0.004321 220952.000000 0 0 1
-26.426009 25.207302 -8.739244 37.551516 -0.761799 1.805677 0.010553 0.008315 -164308.000000 0 0 1
-26.085119 25.021402 -7.401544 36.895620 -0.764587 1.772774 0.001276 0.007105 -515158.000000 0 0 1
-27.106859 25.267902 -6.495544 37.622344 -0.750301 1.744317 0.016161 -0.003413 -537846.000000 0 0 1
-27.016639 24.564802 -5.120944 36.872108 -0.737901 1.710131 0.025040 -0.005626 -234500.000000 0 0 1
-27.139739 23.131202 -5.266844 36.046602 -0.705828 1.717433 0.030534 -0.002682 -130270.000000 0 0 1
-26.903689 22.278002 -4.161444 35.177201 -0.691621 1.689373 0.028865 -0.005832 7888.220000 0 0 1
-26.940339 20.783702 -4.579244 34.332398 -0.657102 1.704575 0.025713 0.002208 -96791.000000 0 0 1
-26.004389 20.476902 -5.585144 33.566733 -0.667035 1.737963 0.019147 -0.008251 -196586.000000 0 0 1
-26.309409 20.748602 -6.939244 34.217577 -0.667774 1.775010 0.008429 -0.001350 -479629.000000 0 0 1
-27.184789 19.680402 -7.638944 34.419245 -0.626619 1.794598 0.007931 -0.001720 -100518.000000 0 0 1
-26.596209 18.414202 -7.712444 33.255420 -0.605581 1.804843 0.007629 0.003029 225037.000000 0 0 1
-27.022939 17.916002 -8.948544 33.634785 -0.585455 1.840090 -0.004286 0.000665 34098.200000 0 0 1
-26.676769 16.412202 -9.112044 32.619621 -0.551539 1.853906 0.015306 -0.006850 635236.000000 0 0 1
-27.479559 15.534202 -8.237444 32.623505 -0.514514 1.826060 0.014445 0.002674 852335.000000 0 0 1
-27.146879 14.161602 -8.532144 31.785240 -0.480830 1.842560 0.016411 -0.008774 -185947.000000 0 0 1
-27.775839 13.160802 -7.592044 31.659802 -0.442487 1.812957 0.021591 0.001288 169169.000000 0 0 1
-29.195579 13.050902 -7.714344 32.897096 -0.420370 1.807500 0.035669 0.003048 396344.000000 0 0 1
-29.663929 12.145202 -6.726544 32.752114 -0.388606 1.777646 0.058710 -0.004460 -484041.000000 0 0 1
-30.276059 10.877602 -7.232744 32.973846 -0.344919 1.791942 0.039989 0.003307 -792293.000000 0 0 1
-29.420029 9.871702 -7.674644 31.966995 -0.323738 1.813245 0.046789 0.008688 -21446.100000 0 0 1
-30.123519 8.890902 -8.414344 32.515776 -0.287000 1.832552 0.045624 0.004941 490964.000000 0 0 1
-29.094309 7.799302 -8.893544 31.407054 -0.261912 1.857894 0.062929 -0.005021 606729.000000 0 0 1
-28.376169 8.098502 -10.096644 31.188698 -0.278007 1.900463 0.054297 -0.015270 34681.300000 0 0 1
-27.573619 7.022602 -10.451144 30.312502 -0.249384 1.922801 0.064099 -0.025150 -258839.000000 0 0 1
-26.868689 7.105402 -11.846444 30.211776 -0.258531 1.973724 0.052115 -0.026703 125692.000000 0 0 1
-25.847779 8.066902 -12.017744 29.624462 -0.302514 1.988508 0.067670 -0.026413 -154020.000000 0 0 1
-24.990949 7.688202 -13.000544 29.200515 -0.298451 2.032212 0.063771 -0.021625 -892530.000000 0 0 1
-31.276759 26.288202 -33.852564 53.059413 -0.698955 2.262711 0.011951 -0.010810 -114354.000000 0 0 1
-31.587259 27.672902 -34.004674 54.035750 -0.719440 2.251448 0.006550 -0.015948 242842.000000 0 0 1
-31.467739 28.053502 33.454221 53.818235 -0.728099 0.899994 0.017174 -0.024803 -47588.400000 0 0 1
-31.930339 29.490602 33.188902 54.687707 -0.745697 0.918667 0.018388 -0.021898 40623.900000 0 0 1
-32.014199 29.864102 31.843057 54.136436 -0.750665 0.941965 0.040953 -0.019801 77448.100000 0 0 1
-32.201629 31.285202 31.731647 54.978233 -0.770964 0.955541 0.042069 -0.018099 16193.700000 0 0 1
-32.083059 31.745602 30.241437 54.329093 -0.780111 0.980467 0.052117 -0.014991 168602.000000 0 0 1
-30.729719 31.630502 29.846197 53.250349 -0.799842 0.975821 0.028017 -0.014930 149157.000000 0 0 1
-30.550499 32.121202 28.511187 52.706663 -0.810455 0.999241 0.022825 -0.007750 542269.000000 0 0 1
-29.072469 32.078702 28.010907 51.564158 -0.834519 0.996524 0.026442 -0.010305 -99459.800000 0 0 1
-28.870539 30.924202 27.332967 50.367701 -0.819730 0.997185 0.032202 -0.014903 44631.800000 0 0 1
-27.636749 30.732402 26.684607 49.196937 -0.838384 0.997501 0.009456 -0.002612 -406146.000000 0 0 1
-27.642129 31.400202 25.277387 48.877461 -0.848963 1.027269 0.000768 -0.001307 -880065.000000 0 0 1
-27.454559 32.799602 25.260267 49.675424 -0.873875 1.037347 0.000332 -0.005616 161233.000000 0 0 1
-28.387479 33.428702 24.412997 50.192843 -0.866770 1.062850 -0.005577 -0.008142 -262108.000000 0 0 1
-28.715189 -34.059656 24.982387 51.075844 0.870330 1.059712 0.008928 -0.008213 -566990.000000 0 0 1
-29.424509 -34.105056 26.186457 52.102659 0.858940 1.044200 0.021878 -0.020589 152932.000000 0 0 1
-29.507219 -32.808556 26.731387 51.591126 0.838326 1.026122 0.003035 -0.021248 -261023.000000 0 0 1
-30.005529 -32.702956 28.233627 52.601832 0.828387 1.004225 0.017019 -0.018473 -745640.000000 0 0 1
-31.327239 -33.065956 28.429277 53.693362 0.812393 1.012815 0.017441 -0.023812 -861208.000000 0 0 1
-31.584869 -33.354556 29.763517 54.735704 0.812643 0.995876 0.014932 -0.021858 742307.000000 0 0 1
-33.088429 -33.642356 30.099927 55.970151 0.793699 1.002988 0.030253 -0.025458 658390.000000 0 0 1
-33.310229 -34.007956 31.441477 57.049793 0.795762 0.987086 0.015484 -0.025107 293624.000000 0 0 1
-34.681872 -34.132156 31.810107 58.135352 0.777410 0.991813 0.015934 -0.023577 327955.000000 0 0 1
-34.923028 34.403502 33.296323 59.260981 -0.777904 0.974165 0.011588 -0.021395 -179645.000000 0 0 1
-34.672408 33.071002 33.601834 58.523074 -0.761763 0.959214 0.005910 -0.013895 742660.000000 0 0 1
35.585015 32.559902 -34.289912 59.179714 0.741035 2.188813 -0.002504 -0.008372 686053.000000 0 0 1
-35.259722 31.188702 -33.719154 57.904788 -0.724209 2.192377 -0.004364 -0.003399 1047530.000000 0 0 1
-34.128038 31.270902 -32.804434 56.733792 -0.741738 2.187338 -0.003918 -0.007847 634224.000000 0 0 1
-33.816319 29.986902 -32.293014 55.548145 -0.725451 2.191185 -0.003705 -0.010838 406650.000000 0 0 1
-32.690999 29.857502 -31.220134 54.174427 -0.740128 2.184977 -0.004075 -0.006477 281229.000000 0 0 1
-33.060499 30.117902 -29.860424 53.774803 -0.738856 2.159504 0.005596 -0.012269 -355434.000000 0 0 1
-33.004479 31.497802 -29.674324 54.424008 -0.762044 2.147476 -0.004371 -0.003664 -545555.000000 0 0 1
-34.028739 31.904202 -28.658284 54.746053 -0.753187 2.121723 0.002659 -0.003882 -599384.000000 0 0 1
-33.730719 31.570802 -27.360904 53.694469 -0.752334 2.105477 -0.021009 -0.011908 -891076.000000 0 0 1
-34.824860 31.509002 -26.501194 53.924960 -0.735452 2.084545 0.019700 -0.012491 -563677.000000 0 0 1
-34.536387 31.070302 -25.084174 52.795278 -0.732616 2.065898 0.023506 -0.016328 -161775.000000 0 0 1
-34.235324 32.250902 -24.350644 52.963496 -0.755560 2.048524 0.027890 -0.018987 -45762.600000 0 0 1
-33.894869 32.013702 -23.015144 51.994577 -0.756864 2.029343 0.024388 -0.017432 871543.000000 0 0 1
-35.157151 31.774602 -22.061444 52.271961 -0.734904 2.006503 0.030193 -0.013946 931710.000000 0 0 1
35.235369 32.880702 -21.787944 52.890323 0.750843 1.995385 0.037585 -0.020969 88678.300000 0 0 1
-35.544224 34.054902 -21.092944 53.554089 -0.764003 1.975626 0.043440 -0.024035 -233847.000000 0 0 1
-35.300959 33.790902 -19.582744 52.644720 -0.763546 1.951937 0.041420 -0.018545 -405332.000000 0 0 1
-34.312622 32.885302 -19.252944 51.278406 -0.764161 1.955688 0.038984 -0.021232 -553091.000000 0 0 1
-34.206431 32.707802 -17.853444 50.582859 -0.763006 1.931523 0.034086 -0.011448 7049.010000 0 0 1
-33.005189 31.856802 -17.382044 49.054396 -0.767695 1.933007 0.035178 -0.005175 82253.500000 0 0 1
-32.957949 31.619102 -15.944344 48.375780 -0.764669 1.906669 0.025806 -0.001959 -757010.000000 0 0 1
-31.809809 30.871402 -15.743644 47.040086 -0.770428 1.912068 0.023799 0.001674 -497488.000000 0 0 1
-31.417699 30.603602 -14.268144 46.121927 -0.772273 1.885313 0.019947 -0.001641 -323438.000000 0 0 1
-32.374859 29.857202 -13.591544 46.090281 -0.744964 1.870136 0.012818 0.000519 -345497.000000 0 0 1
-31.923609 29.545702 -12.339344 45.214209 -0.746733 1.847211 0.017461 0.008810 -82693.100000 0 0 1
-32.790849 28.483302 -11.625944 44.963327 -0.715214 1.832333 0.015753 0.006447 -113364.000000 0 0 1
-32.368049 28.302902 -10.347844 44.224684 -0.718495 1.806969 0.020334 0.011908 749090.000000 0 0 1
-33.291969 27.383402 -9.661544 44.176366 -0.688324 1.791282 0.022882 0.007305 368772.000000 0 0 1
-32.685179 26.463802 -8.592944 42.924263 -0.680602 1.772347 0.018862 0.003837 361235.000000 0 0 1
-32.035399 27.057802 -7.440744 42.588215 -0.701364 1.746411 0.025427 -0.004385 1133210.000000 0 0 1
-30.888649 27.915602 -7.648144 42.330645 -0.734883 1.752470 0.032050 -0.008676 301968.000000 0 0 1
-30.418189 28.479802 -6.233144 42.133329 -0.752499 1.719280 0.030502 -0.006522 -337407.000000 0 0 1
-29.945559 27.477002 -5.387844 40.996963 -0.742435 1.702598 0.038228 -0.010837 224948.000000 0 0 1
-30.041489 27.832402 -4.013144 41.148985 -0.747246 1.668479 0.037127 -0.017201 -595035.000000 0 0 1
-29.242659 26.919102 -3.154744 39.871337 -0.744049 1.650002 0.036744 -0.011739 -425194.000000 0 0 1
-29.827319 25.642602 -2.983944 39.447635 -0.710100 1.646512 0.026022 -0.015205 470993.000000 0 0 1
-29.002369 24.857002 -2.097344 38.254500 -0.708583 1.625650 0.005877 -0.012555 338139.000000 0 0 1
-29.667119 23.571802 -1.593644 37.925024 -0.671405 1.612830 0.011796 -0.015723 -232014.000000 0 0 1
-29.949069 22.699702 -2.689744 37.675694 -0.648566 1.642249 -0.003503 -0.002823 283819.000000 0 0 1
-30.828339 21.668302 -2.214144 37.746579 -0.612649 1.629488 -0.009438 -0.000365 235558.000000 0 0 1
-31.385829 20.667902 -3.264544 37.721210 -0.582335 1.657449 0.010884 0.005025 226461.000000 0 0 1
-30.400029 19.718102 -3.669544 36.420198 -0.575405 1.671723 0.005986 0.001994 426962.000000 0 0 1
-30.831939 19.018202 -4.848044 36.548652 -0.552706 1.703835 0.015619 0.004666 -66004.200000 0 0 1
-29.845319 17.948502 -5.340944 35.233754 -0.541437 1.722969 0.013319 0.007846 -149143.000000 0 0 1
-29.772199 16.831202 -4.513144 34.496980 -0.514539 1.702000 0.031574 0.004564 127341.000000 0 0 1
-29.079049 15.717802 -5.044044 33.437744 -0.495536 1.722223 0.031969 0.001942 -128507.000000 0 0 1
-28.700169 14.578802 -4.010344 32.439544 -0.470003 1.694739 0.045066 0.000052 945779.000000 0 0 1
-29.829989 13.767502 -3.548244 33.044854 -0.432403 1.678380 0.059461 -0.006016 1120280.000000 0 0 1
-29.470959 12.677202 -2.735444 32.198315 -0.406232 1.655855 0.060533 -0.010308 210127.000000 0 0 1
-30.723659 11.904002 -2.208544 33.023115 -0.369644 1.637725 0.082949 -0.014157 144557.000000 0 0 1
-31.497409 11.273302 -3.216044 33.608288 -0.343706 1.666635 0.085695 -0.001437 496285.000000 0 0 1
-32.188519 10.198402 -2.525244 33.859784 -0.306828 1.645445 0.067620 0.010368 -63274.100000 0 0 1
-33.377779 9.630402 -3.312844 34.896929 -0.280898 1.665872 0.046855 0.008598 -389505.000000 0 0 1
-32.951789 8.941702 -4.444444 34.431490 -0.264976 1.700238 0.042549 -0.007706 263535.000000 0 0 1
-33.966229 8.399402 -5.276844 35.385021 -0.242423 1.720481 0.054377 -0.000550 -177550.000000 0 0 1
-33.417849 7.702402 -6.534444 34.911009 -0.226531 1.759081 0.046950 -0.005339 -11778.800000 0 0 1
-32.795249 6.434602 -6.279444 34.005350 -0.193744 1.756523 0.049026 -0.003047 732439.000000 0 0 1
-32.220089 5.854602 -7.463144 33.587334 -0.179745 1.794868 0.049875 -0.001445 -162262.000000 0 0 1
-31.330139 4.593302 -7.245544 32.483441 -0.145573 1.795742 0.058901 0.000501 338220.000000 0 0 1
-30.013539 5.031602 -6.970344 31.220430 -0.166100 1.795956 0.064572 -0.002846 310722.000000 0 0 1
-29.014389 4.066602 -6.712144 30.057027 -0.139251 1.796009 0.062812 -0.007839 711474.000000 0 0 1
-27.601519 4.685602 -6.465544 28.733290 -0.168156 1.797759 0.082442 -0.011437 553004.000000 0 0 1
-26.905779 5.074602 -7.634644 28.424642 -0.186417 1.842728 0.074784 -0.011440 81468.100000 0 0 1
-25.511669 5.014202 -7.459144 27.048591 -0.194072 1.850185 0.087433 -0.019217 -117443.000000 0 0 1
-24.661649 5.246302 -8.734244 26.683471 -0.209607 1.904271 0.078189 -0.018454 -137565.000000 0 0 1
-24.759149 4.284702 -9.766844 26.958586 -0.171358 1.941521 0.074416 -0.033051 354623.000000 0 0 1
-23.925649 4.527802 -10.887644 26.673553 -0.187033 1.991257 0.071459 -0.031448 -284446.000000 0 0 1
-24.276249 3.749102 -12.149144 27.404265 -0.153224 2.030107 0.069676 -0.035607 -45002.800000 0 0 1
-25.515509 4.222902 -12.627544 28.780704 -0.164017 2.025004 0.059727 -0.024201 111127.000000 0 0 1
-26.054719 3.486202 -13.712444 29.648492 -0.133013 2.051610 0.054869 -0.024682 -289595.000000 0 0 1
-26.745759 4.472202 -14.662144 30.827174 -0.165679 2.066470 0.056415 -0.022483 -533200.000000 0 0 1
-25.948609 5.246602 -15.533544 30.694431 -0.199502 2.101419 0.052781 -0.018432 247468.000000 0 0 1
-26.682159 6.297602 -16.206744 31.847385 -0.231781 2.104689 0.075848 -0.021968 233298.000000 0 0 1
-27.485859 5.701802 -17.421444 33.037701 -0.204544 2.126240 0.035857 -0.005720 -191150.000000 0 0 1
-28.723989 5.176302 -17.021944 33.787693 -0.178295 2.098778 0.042452 -0.016573 -446801.000000 0 0 1
-29.298209 4.535902 -18.153844 34.763796 -0.153599 2.120231 0.046452 -0.007866 49459.000000 0 0 1
-30.664379 3.877102 -17.827944 35.681531 -0.125769 2.093980 0.044892 -0.012773 -106775.000000 0 0 1
-30.628549 2.803102 -16.956244 35.120928 -0.091265 2.074641 0.040733 -0.020793 264410.000000 0 0 1
-30.321989 1.598902 -17.650344 35.121420 -0.052682 2.097345 0.051870 -0.016124 -129703.000000 0 0 1
-30.451109 0.326302 -16.813044 34.785844 -0.010715 2.075251 0.057860 -0.013403 -261822.000000 0 0 1
-29.942519 -0.885098 -17.325344 34.604991 0.029551 2.095158 0.059313 -0.004760 256098.000000 0 0 1
-30.103159 -1.990898 -16.479244 34.376290 0.066040 2.070742 0.065039 -0.017365 23911.600000 0 0 1
-29.932079 -3.382998 -17.193244 34.684026 0.112545 2.089449 0.066516 -0.008740 631802.000000 0 0 1
-31.111309 -3.726498 -17.943044 36.107522 0.119212 2.090858 0.069587 -0.009921 645535.000000 0 0 1
-30.917009 -4.829498 -18.787644 36.498781 0.154956 2.111509 0.066846 -0.006342 280667.000000 0 0 1
-31.905499 -5.023498 -19.991644 37.985026 0.156167 2.125043 0.078134 -0.011986 138580.000000 0 0 1
-31.674409 -6.247998 -20.638344 38.317710 0.194757 2.139584 0.084253 -0.010869 286128.000000 0 0 1
-32.616979 -6.386898 -21.685344 39.685185 0.193368 2.148897 0.086384 -0.011910 -380450.000000 0 0 1
-32.385619 -7.607898 -22.661044 40.252097 0.230732 2.168781 0.087125 -0.007799 -409124.000000 0 0 1
-31.103809 -7.482898 -23.205944 39.521596 0.236092 2.198356 0.083347 -0.008595 -199995.000000 0 0 1
-30.909799 -8.283698 -24.306944 40.185356 0.261843 2.220400 0.074276 -0.013506 -603506.000000 0 0 1
-29.532179 -8.093698 -24.927244 39.484491 0.267496 2.254047 0.060886 -0.005305 -654929.000000 0 0 1
-29.376999 -7.020298 -25.870104 39.768768 0.234573 2.279056 0.061860 -0.008454 42511.900000 0 0 1
-29.418389 -7.428598 -27.249144 40.781632 0.247345 2.302545 0.051732 -0.011384 -251354.000000 0 0 1
-30.798969 -7.531998 -27.923364 42.249517 0.239846 2.292834 0.056841 -0.002976 -26286.000000 0 0 1
-31.672119 -8.468998 -27.310524 42.669799 0.261283 2.265351 0.059409 -0.012520 -809218.000000 0 0 1
-32.812509 -8.640998 -28.084614 44.046261 0.257498 2.262196 0.054092 -0.018568 -914935.000000 0 0 1
-33.650279 -9.775898 -27.601964 44.606926 0.282732 2.237988 0.046930 -0.015256 -1099280.000000 0 0 1
-33.178439 -11.113398 -27.883454 44.741518 0.323212 2.243640 0.044292 -0.001939 20241.500000 0 0 1
-34.092386 -12.156298 -27.540574 45.481310 0.342515 2.221236 0.035320 -0.003807 -249417.000000 0 0 1
-35.319664 -12.257998 -28.455954 46.983811 0.334052 2.221384 0.021779 0.003820 -40822.600000 0 0 1
34.976465 -11.223298 -28.228344 46.326611 -0.310502 2.226016 0.018279 -0.000941 616643.000000 0 0 1
33.966695 -11.175998 -29.262284 46.205200 -0.317871 2.256621 0.022012 -0.006522 607044.000000 0 0 1
33.042975 -9.951498 -29.094734 45.137280 -0.292528 2.271274 0.011491 -0.000006 260030.000000 0 0 1
31.979695 -10.027498 -28.147014 43.766494 -0.303849 2.269359 0.001485 0.003571 86170.500000 0 0 1
31.386725 -8.797698 -27.940824 42.932687 -0.273287 2.279441 -0.022366 0.012801 158120.000000 0 0 1
30.175895 -8.917098 -26.951364 41.430366 -0.287327 2.279068 -0.023411 0.015633 161055.000000 0 0 1
30.455375 -9.264698 -25.615204 40.859554 -0.295311 2.248375 -0.030947 0.022706 -515882.000000 0 0 1
29.307745 -9.604398 -24.903944 39.640822 -0.316680 2.250085 -0.038898 0.032998 -627704.000000 0 0 1
29.539915 -9.788598 -23.403844 38.937939 -0.319981 2.215617 -0.045770 0.036499 -64027.400000 0 0 1
30.097575 -11.062998 -23.118744 39.531383 -0.352242 2.195454 -0.054506 0.028370 217471.000000 0 0 1
30.277325 -11.139898 -21.708744 38.885515 -0.352557 2.163099 -0.042216 0.027184 273227.000000 0 0 1
31.082445 -12.400798 -21.224244 39.627852 -0.379614 2.136001 -0.020296 0.027676 2087740.000000 0 0 1
32.499425 -12.482098 -21.588744 40.964488 -0.366700 2.125876 -0.011251 0.021350 1781850.000000 0 0 1
33.308705 -13.199198 -20.681744 41.369351 -0.377286 2.094313 0.022417 0.015284 1144370.000000 0 0 1
34.842005 -13.032798 -21.022644 42.729038 -0.357941 2.085181 0.048027 -0.006251 532293.000000 0 0 1
35.497583 -11.771198 -21.161244 42.970196 -0.320195 2.085714 0.066101 -0.007241 246463.000000 0 0 1
35.254045 -10.899898 -22.254344 43.091893 -0.299859 2.113484 0.067871 -0.006281 -639392.000000 0 0 1
-35.184612 -11.240098 -23.493644 43.774970 0.309214 2.137307 0.049630 -0.006881 -158973.000000 0 0 1
-35.513536 -12.390998 -24.270644 44.763961 0.335703 2.143840 0.044806 -0.001934 534541.000000 0 0 1
34.446855 -12.367298 -24.861244 44.244969 -0.344693 2.167477 0.041497 0.001212 299676.000000 0 0 1
34.065025 -13.704598 -25.558754 44.738035 -0.382494 2.178883 0.030686 -0.013985 -392267.000000 0 0 1
33.977735 -14.888598 -24.762944 44.602244 -0.412987 2.159394 0.027742 -0.020606 649196.000000 0 0 1
32.944215 -14.927398 -23.769044 43.279509 -0.425438 2.152201 0.009914 -0.008585 94487.600000 0 0 1
-29.226769 8.500602 -19.731344 36.273822 -0.283041 2.145940 0.012330 0.000406 450954.000000 0 0 1
-27.945889 7.882702 -19.684044 35.079499 -0.274927 2.166543 0.017855 0.004452 208228.000000 0 0 1
-27.170529 8.235202 -20.828344 35.211874 -0.294292 2.203733 0.037908 -0.013128 -237174.000000 0 0 1
-25.892509 7.383102 -20.892444 34.079707 -0.277773 2.230707 0.049362 -0.012807 -319923.000000 0 0 1
-24.945049 7.864702 -19.969144 32.907077 -0.305416 2.222868 0.053000 -0.011358 -145594.000000 0 0 1
-23.814649 7.014602 -19.868444 31.797755 -0.286449 2.245720 0.069989 -0.015687 -234449.000000 0 0 1
-22.550949 7.724802 -19.436844 30.757255 -0.330021 2.254855 0.059625 -0.012502 -561754.000000 0 0 1
-22.010749 8.637702 -20.322144 31.178077 -0.373964 2.280763 0.059890 -0.009789 -1374510.000000 0 0 1
-20.790949 9.104202 -19.939144 30.211248 -0.412740 2.291603 0.055091 -0.006740 -1106190.000000 0 0 1
-20.130049 10.089502 -20.934444 30.745208 -0.464620 2.319789 0.049206 -0.005101 147115.000000 0 0 1
-19.314149 9.392902 -21.873844 30.654983 -0.452646 2.365348 0.059960 -0.005261 186276.000000 0 0 1
-18.843349 10.251902 -22.903144 31.380364 -0.498271 2.388907 0.060230 -0.003860 261228.000000 0 0 1
-17.964249 9.603302 -23.991344 31.472563 -0.490926 2.437646 0.069347 -0.000015 123093.000000 0 0 1
-18.766949 8.775502 -24.809344 32.321995 -0.437397 2.445835 0.064251 0.000967 38531.800000 0 0 1
-18.005749 8.021502 -25.736934 32.418224 -0.419103 2.487998 0.053193 0.006461 -253243.000000 0 0 1
-18.724149 6.867702 -26.480924 33.151145 -0.351547 2.496084 0.030261 0.010603 -55277.600000 0 0 1
-18.989949 5.715402 -25.707454 32.467786 -0.292346 2.484520 0.051037 0.001833 744373.000000 0 0 1
-19.863549 4.776602 -26.421774 33.398902 -0.235990 2.483397 0.045750 0.005594 143209.000000 0 0 1
-20.038549 3.378002 -25.664734 32.735804 -0.167005 2.471873 0.048769 0.007266 117777.000000 0 0 1
-18.909649 2.509302 -25.574004 31.904562 -0.131929 2.500727 0.047956 0.011417 210633.000000 0 0 1
-17.889949 3.010202 -24.744644 30.682389 -0.166701 2.508966 0.038360 0.007474 -687350.000000 0 0 1
-17.042349 1.845602 -24.187944 29.646324 -0.107875 2.525052 0.027972 0.001298 -149653.000000 0 0 1
-17.603049 1.143702 -23.091144 29.058154 -0.064881 2.489232 0.027097 0.005106 284331.000000 0 0 1
-18.781549 0.367802 -23.324844 29.948793 -0.019581 2.463585 0.028798 0.003166 416717.000000 0 0 1
-19.194449 -0.460298 -22.089044 29.267125 0.023976 2.426053 0.032972 0.004384 -87765.800000 0 0 1
-18.437149 -1.653298 -22.020044 28.767068 0.089433 2.442552 0.038082 0.001271 202669.000000 0 0 1
-18.973849 -2.490698 -21.040244 28.441209 0.130524 2.403540 0.031037 0.011374 -181711.000000 0 0 1
-18.262849 -3.863098 -20.861944 27.994211 0.208455 2.411666 0.021193 -0.003902 -2347.120000 0 0 1
-18.611149 -4.765498 -21.898644 29.131348 0.250670 2.421464 0.029626 -0.011922 322203.000000 0 0 1
-18.709149 -6.073098 -21.429744 29.088635 0.313875 2.398981 0.038388 -0.006604 -330556.000000 0 0 1
-18.664749 -6.984098 -22.673144 30.186453 0.358057 2.420528 0.019711 -0.014250 563925.000000 0 0 1
-17.481349 -6.956998 -23.515944 30.116391 0.378752 2.466798 0.028527 -0.001590 707113.000000 0 0 1
-17.418049 -7.843598 -24.626444 31.166844 0.423115 2.481848 0.041386 -0.006986 10770.100000 0 0 1
-16.019549 -7.756198 -25.272704 30.911068 0.450904 2.528016 0.040744 -0.016744 -689368.000000 0 0 1
-15.828449 -8.431798 -26.533934 32.026312 0.489463 2.547228 0.037729 -0.045323 -489577.000000 0 0 1
-14.503649 -8.654198 -26.894774 31.758146 0.537983 2.580853 0.051939 -0.044055 -440391.000000 0 0 1
-13.664449 -9.624298 -26.035594 30.938591 0.613627 2.570896 0.057699 -0.040716 -785830.000000 0 0 1
-13.107349 -9.060998 -24.866444 29.533783 0.604857 2.571713 0.043076 -0.029314 -58095.000000 0 0 1
-12.402949 -10.021498 -24.132244 28.924536 0.679596 2.557690 0.029772 -0.028534 -326650.000000 0 0 1
-11.498849 -9.325498 -23.104244 27.440746 0.681409 2.571718 0.025706 -0.022238 -412560.000000 0 0 1
-12.199149 -8.702798 -22.077744 26.683042 0.619659 2.545272 0.022767 -0.016056 -571677.000000 0 0 1
-11.345549 -7.993898 -21.273344 25.400375 0.613796 2.563526 0.016680 -0.005166 -1315280.000000 0 0 1
-11.879049 -7.604498 -19.885044 24.379400 0.569427 2.524647 0.014425 -0.001962 451920.000000 0 1 0
-12.993249 -6.697898 -19.861344 24.660887 0.475963 2.507110 0.010122 0.009153 1046190.000000 0 1 0
-14.278049 -7.258198 -20.116144 25.713875 0.470303 2.469157 0.014122 -0.000340 257770.000000 0 0 1
-15.433549 -6.281798 -19.724444 25.820711 0.386545 2.440132 0.023990 0.004598 -31220.300000 0 0 1
-15.521849 -6.076298 -18.340244 24.783336 0.373129 2.403901 0.015878 0.006432 514969.000000 0 1 0
-15.015349 -4.768098 -18.007444 23.926209 0.307477 2.422835 0.012532 0.001603 -473855.000000 0 1 0
-14.942049 -4.451498 -16.527144 22.720633 0.289545 2.385332 0.016622 0.008251 210083.000000 0 1 0
-16.099349 -4.146198 -15.738044 22.892488 0.252061 2.328804 0.032750 -0.000021 527678.000000 0 1 0
-16.664949 -2.845198 -16.008444 23.282739 0.169099 2.328929 0.006934 -0.001809 713413.000000 0 1 0
-17.886049 -2.455798 -15.098244 23.535052 0.136449 2.267277 0.016701 -0.006168 536269.000000 0 1 0
-17.463149 -2.473798 -13.726144 22.349234 0.140722 2.232125 0.029041 -0.014704 431458.000000 0 1 0
-18.424149 -1.951198 -12.859344 22.552587 0.105511 2.177538 0.024959 -0.021893 -555351.000000 0 1 0
-17.898649 -0.789798 -12.043244 21.587615 0.044098 2.162622 0.022731 -0.023491 -285954.000000 0 1 0
-17.587749 0.277902 -12.896244 21.810989 -0.015800 2.203432 0.037973 -0.025786 655056.000000 0 1 0
-16.758949 1.258702 -12.298044 20.825191 -0.074965 2.202520 0.040398 -0.022094 -849942.000000 0 1 0
-16.247249 2.291202 -13.358044 21.157978 -0.140097 2.254086 0.040789 -0.018610 -171403.000000 0 1 0
-15.582549 1.713602 -14.453644 21.322760 -0.109529 2.315631 0.037059 -0.017603 156439.000000 0 1 0
-14.254849 1.380402 -14.092444 20.092367 -0.096536 2.348132 0.024387 -0.018357 -1022500.000000 0 1 0
-13.632249 0.402602 -15.117144 20.359969 -0.029524 2.407581 0.016603 -0.018723 -200198.000000 0 1 0
-13.269049 1.035002 -16.336944 21.072129 -0.077844 2.457965 0.014255 -0.016852 30749.600000 0 1 0
-12.786949 0.064802 -17.207044 21.438111 -0.005068 2.502501 -0.002041 -0.012662 -264175.000000 0 1 0
-12.224249 0.681502 -18.500144 22.184500 -0.055692 2.556973 0.009492 -0.012837 569292.000000 0 1 0
-11.034249 1.457602 -18.275344 21.397837 -0.131338 2.594565 -0.002007 -0.012690 227908.000000 0 1 0
-10.689549 2.120402 -19.473744 22.315673 -0.195820 2.631397 0.004116 -0.003881 225230.000000 0 1 0
-9.244549 2.677302 -19.381944 21.639995 -0.281896 2.680695 -0.000143 -0.001169 -842179.000000 0 1 0
-8.306249 1.565402 -19.403144 21.164268 -0.186276 2.730758 0.004668 -0.000497 2214000.000000 0 1 0
-6.880749 1.921402 -19.260344 20.542574 -0.272307 2.786407 0.001019 0.002562 2267410.000000 0 1 0
-6.407349 3.131402 -20.117444 21.344117 -0.454583 2.800916 0.003558 0.004314 -1871170.000000 0 1 0
-6.454549 2.800002 -21.491944 22.614262 -0.409303 2.825223 0.007576 0.004551 266588.000000 0 1 0
-5.840949 3.829402 -22.240344 23.311240 -0.580311 2.837306 0.000120 0.004015 -212212.000000 0 1 0
-5.380449 3.387302 -23.685844 24.524319 -0.561870 2.879348 0.011521 -0.001952 -195417.000000 0 1 0
-4.152549 2.712302 -23.617444 24.132631 -0.578597 2.934592 0.019771 -0.009455 -245935.000000 0 1 0
-3.744949 2.250902 -24.928644 25.308664 -0.541191 2.968081 0.028403 -0.011827 290261.000000 0 0 1
-2.315349 1.678202 -25.072744 25.235286 -0.627187 3.028032 0.016627 -0.007346 -749935.000000 0 0 1
-1.269149 2.588002 -24.976944 25.142717 -1.114860 3.026697 0.010634 -0.006988 62788.300000 0 0 1
0.038351 2.042402 -25.009944 25.093229 1.552021 3.060096 0.019234 -0.008910 356294.000000 0 0 1
0.479251 1.192002 -23.770044 23.804738 1.188519 3.087597 0.028804 -0.014732 -891425.000000 0 1 0
0.017351 -0.163498 -23.760044 23.760613 -1.465068 3.134673 0.030005 -0.021052 -205249.000000 0 1 0
0.713951 -0.873198 -22.815844 22.843707 -0.885399 3.092197 0.037244 -0.018197 -877864.000000 0 1 0
0.312551 -2.362898 -22.759644 22.884107 -1.439285 3.037249 0.048544 -0.026450 359547.000000 0 1 0
-0.866849 -2.632898 -21.987844 22.161878 1.252737 3.016188 0.041193 -0.026388 527415.000000 0 1 0
-2.062149 -2.777998 -22.752544 23.014082 0.932232 2.990690 0.046524 -0.027526 122725.000000 0 1 0
-2.859549 -1.469298 -22.758244 22.984201 0.474644 3.001256 0.039314 -0.026035 -1809200.000000 0 1 0
-3.468249 -1.206398 -21.501844 21.813148 0.334750 2.972445 0.027996 -0.023423 14818.400000 0 1 0
-4.297449 -0.077098 -21.535344 21.960078 0.017939 2.944596 0.012997 -0.014705 -481687.000000 0 1 0
-5.626949 -0.163298 -22.262344 22.963039 0.029013 2.893921 0.011134 -0.007326 -1288180.000000 0 1 0
-6.451249 -1.122898 -21.622744 22.592533 0.172333 2.847532 0.018893 -0.008026 143447.000000 0 1 0
-7.817749 -0.770398 -21.828444 23.198958 0.098228 2.796143 0.007201 -0.003373 218741.000000 0 1 0
-8.807249 -1.863098 -21.439044 23.252341 0.208468 2.744054 0.009730 -0.006670 -353744.000000 0 1 0
-8.959449 -2.865098 -22.448944 24.340000 0.309508 2.744804 0.040086 -0.014448 -46342.600000 0 1 0
-9.285249 -4.161298 -22.025944 24.262614 0.421325 2.708838 0.015185 -0.015846 -776384.000000 0 1 0
-9.896249 -5.051798 -23.094044 25.627939 0.471993 2.693160 0.006861 -0.014814 -68314.200000 0 0 1
-11.283349 -4.820598 -23.208544 26.252402 0.403759 2.655263 0.001398 -0.010307 -354598.000000 0 0 1
-11.872849 -5.454498 -24.314944 27.603126 0.430651 2.648507 0.004958 -0.025342 -456182.000000 0 0 1
-13.391849 -5.429998 -24.152344 28.145376 0.385213 2.602409 0.043771 -0.026996 -701831.000000 0 0 1
-13.915549 -4.153698 -24.174644 28.201225 0.290074 2.600642 0.028779 -0.024613 325237.000000 0 0 1
-15.309649 -4.131398 -24.497344 29.181735 0.263577 2.567113 0.031883 -0.028307 1044230.000000 0 0 1
-15.903649 -2.658298 -24.686844 29.486147 0.165619 2.563004 0.028340 -0.020808 -108441.000000 0 0 1
-15.486749 -2.109298 -25.954604 30.297359 0.135367 2.599561 0.035111 -0.026654 81345.300000 0 0 1
-16.075549 -0.876498 -26.230934 30.777482 0.054470 2.591119 0.028982 -0.019917 -678937.000000 0 0 1
-17.566449 -0.928898 -26.578324 31.872406 0.052830 2.556929 0.026662 -0.012301 -529776.000000 0 0 1
-17.993449 -1.587398 -27.806484 33.158477 0.087993 2.565493 0.037099 -0.021971 75640.900000 0 0 1
-17.425549 -0.984498 -28.959654 33.812432 0.056437 2.599207 0.035091 -0.021109 -338673.000000 0 0 1
-17.542849 -1.701698 -30.329074 35.078484 0.096700 2.615162 0.031875 -0.021433 264780.000000 0 0 1
-18.884049 -1.709498 -30.781554 36.152922 0.090280 2.589495 0.029843 -0.023131 263078.000000 0 0 1
-18.844549 -2.286498 -32.070154 37.267142 0.120745 2.607140 0.029678 -0.028626 -234562.000000 0 0 1
-20.209449 -2.893598 -32.485374 38.367880 0.142214 2.580514 0.011732 -0.017134 227915.000000 0 0 1
-21.241549 -1.983298 -32.815064 39.140328 0.093099 2.565129 0.008994 -0.022657 -73267.200000 0 0 1
-22.051949 -1.679898 -31.723944 38.671942 0.076032 2.532793 0.012204 -0.009495 -428073.000000 0 0 1
-23.236649 -0.772698 -32.172954 39.694305 0.033241 2.515833 0.021668 -0.006433 -102065.000000 0 0 1
-22.820549 0.490902 -32.561524 39.765202 -0.021508 2.530192 0.018933 -0.011354 65192.900000 0 0 1
-23.824849 1.295102 -33.164654 40.855783 -0.054306 2.517938 0.023073 -0.012129 136108.000000 0 0 1
-23.297549 2.695502 -33.666694 41.030328 -0.115187 2.533137 0.025199 -0.009659 -466540.000000 0 0 1
-22.916549 3.626402 -32.678254 40.077266 -0.156942 2.524184 0.035529 -0.011240 134705.000000 0 0 1
-23.834649 4.335602 -31.852074 40.018028 -0.179936 2.491360 0.026723 -0.010738 -416663.000000 0 0 1
-24.850749 5.259302 -32.580424 41.312274 -0.208558 2.479387 0.024898 -0.008626 -199261.000000 0 0 1
-26.005299 4.513302 -32.887244 42.168902 -0.171841 2.465292 0.017203 -0.012664 -398114.000000 0 0 1
-26.789219 5.123002 -33.883934 43.497452 -0.188952 2.463844 0.019778 -0.012093 690254.000000 0 0 1
-28.116389 4.305302 -34.121302 44.422181 -0.151944 2.446687 0.025501 -0.009987 654539.000000 0 0 1
-27.830429 3.091302 34.123212 44.141619 -0.110623 0.687178 0.016413 -0.011685 273026.000000 0 0 1
-28.987779 2.593102 33.478369 44.360080 -0.089218 0.715606 0.017513 -0.003838 154655.000000 0 0 1
-28.884729 1.115302 32.958240 43.838533 -0.038593 0.719994 0.017199 0.005732 -198141.000000 0 0 1
-29.174259 0.223702 34.018457 44.815654 -0.007668 0.708905 0.007242 0.005260 -53721.000000 0 0 1
-28.851289 -1.062898 33.707769 44.381756 0.036824 0.708258 0.010125 0.006811 -820550.000000 0 0 1
-28.676319 -1.961498 -33.899534 44.444990 0.068295 2.438321 -0.019553 0.003896 -192137.000000 0 0 1
-27.479479 -1.719498 -33.187584 43.121852 0.062492 2.449047 0.002260 -0.006926 357472.000000 0 0 1
-27.434099 -0.431698 -32.499244 42.532540 0.015735 2.440446 0.006129 -0.005169 -690451.000000 0 0 1
-27.577009 -0.491998 -30.956904 41.461589 0.017839 2.413794 0.015880 -0.006280 -522485.000000 0 0 1
-26.470449 -1.026598 -30.311964 40.256102 0.038763 2.423372 0.019334 -0.008381 -220433.000000 0 0 1
-26.377429 -0.505598 -29.032234 39.228752 0.019165 2.403979 0.019434 -0.006419 151562.000000 0 0 1
-25.181089 -1.027898 -28.190734 37.813507 0.040798 2.412111 0.020824 -0.001857 192144.000000 0 0 1
-25.371249 -2.406498 -27.847714 37.748996 0.094568 2.400465 0.010226 0.011280 462619.000000 0 0 1
-24.493249 -2.731198 -26.765744 36.383839 0.111049 2.397421 0.025329 0.002145 154363.000000 0 0 1
-24.748549 -4.197298 -26.216224 36.295983 0.167999 2.377904 0.025724 0.001970 19124.700000 0 0 1
-25.721109 -4.279298 -25.191724 36.256183 0.164863 2.338974 0.029811 0.006304 -6720.230000 0 0 1
-25.790239 -5.511098 -24.563244 36.039722 0.210523 2.320689 0.025020 0.000057 409184.000000 0 0 1
-26.762439 -5.377198 -23.335144 35.911994 0.198283 2.278100 0.029978 0.000326 448159.000000 0 0 1
-26.831009 -6.515698 -22.525144 35.633404 0.238231 2.255103 0.031933 -0.007579 394408.000000 0 0 1
-28.068499 -6.284098 -21.852844 36.123085 0.220252 2.220506 0.057580 -0.005097 576425.000000 0 0 1
-28.553409 -7.443798 -20.922744 36.172759 0.255021 2.187577 0.065950 -0.014844 -404452.000000 0 0 1
-27.643829 -7.634798 -19.897544 34.905353 0.269467 2.177354 0.053277 -0.016858 -143728.000000 0 0 1
-28.143289 -8.543598 -18.940944 34.982812 0.294733 2.142940 0.064132 -0.014584 39298.200000 0 0 1
-28.730299 -7.871798 -17.656044 34.628473 0.267426 2.105831 0.065810 -0.017160 55766.400000 0 0 1
-27.787999 -7.146898 -16.897944 33.298522 0.251738 2.103040 0.044112 -0.024282 255401.000000 0 0 1
-28.362929 -6.712498 -15.695744 33.103923 0.232389 2.064778 0.040740 -0.017485 35726.700000 0 0 1
-27.345639 -5.868398 -14.908444 31.693592 0.211395 2.060532 0.041429 -0.013790 113470.000000 0 0 1
-27.202029 -4.485098 -15.377244 31.567802 0.163411 2.079583 0.043497 -0.011196 -637337.000000 0 0 1
-26.204499 -3.914898 -14.650144 30.275880 0.148301 2.075889 0.037067 -0.014953 -1330150.000000 0 0 1
-13.644549 21.597202 -5.174644 26.065106 -1.007341 1.770652 0.039836 -0.020251 -14991.300000 0 0 1
-13.671949 20.852402 -6.363744 25.734064 -0.990457 1.820677 0.050305 -0.020822 253614.000000 0 0 1
-14.702949 19.868602 -6.298944 25.507150 -0.933720 1.820326 0.049728 -0.029155 254585.000000 0 0 1
-14.967849 19.302402 -7.713444 25.614770 -0.911212 1.876677 0.060753 -0.034857 -530208.000000 0 0 1
-13.849049 18.613402 -8.230244 24.616900 -0.931123 1.911694 0.059800 -0.033902 -210152.000000 0 1 0
-14.096749 17.733502 -9.281244 24.481358 -0.899159 1.959636 0.048784 -0.032579 -453706.000000 0 1 0
-14.491049 16.299202 -8.850544 23.536920 -0.844056 1.956302 0.039675 -0.030852 -726329.000000 0 1 0
-15.858549 16.244002 -8.588544 24.271882 -0.797405 1.932478 0.043463 -0.032135 -506125.000000 0 1 0
-16.158049 15.178402 -7.626744 23.444267 -0.754146 1.902140 0.045595 -0.019354 -439506.000000 0 1 0
-17.592449 15.365702 -7.183744 24.437783 -0.717938 1.869164 0.057521 -0.013787 350282.000000 0 1 0
-18.681049 15.089502 -8.109844 25.346483 -0.679445 1.896483 0.057542 -0.016087 223577.000000 0 0 1
-19.911149 15.462702 -7.616944 26.335657 -0.660300 1.864214 0.040078 -0.020241 -1283480.000000 0 0 1
-21.106249 14.947602 -8.367344 27.183027 -0.616213 1.883692 0.043995 -0.010359 -757143.000000 0 0 1
-21.280349 13.564002 -8.169744 26.525084 -0.567463 1.883887 0.060526 -0.014149 91715.600000 0 0 1
-22.078949 12.989602 -9.186444 27.213976 -0.531791 1.915124 0.056148 -0.012795 -185727.000000 0 0 1
-22.409049 11.510202 -8.911644 26.722043 -0.474501 1.910804 0.049995 -0.005432 -389446.000000 0 0 1
-21.356649 10.617302 -8.682844 25.381594 -0.461359 1.919939 0.049816 -0.005083 -122763.000000 0 0 1
-21.843449 9.509302 -7.902044 25.099908 -0.410595 1.891067 0.063252 -0.011543 5888.520000 0 0 1
-20.670649 8.533702 -7.680444 23.645063 -0.391527 1.901620 0.037014 0.003201 -300508.000000 0 1 0
-20.735549 7.245802 -8.346944 23.497576 -0.336175 1.933952 0.046456 -0.002664 -236925.000000 0 1 0
-19.706849 6.415302 -7.944844 22.195417 -0.314717 1.936868 0.042076 0.002479 -683295.000000 0 1 0
-19.548649 5.221502 -8.897144 22.103686 -0.261010 1.985063 0.040278 -0.009880 -811003.000000 0 1 0
-20.428049 4.179702 -8.722344 22.602088 -0.201820 1.966989 0.040160 -0.012347 -191828.000000 0 1 0
-20.328449 3.171402 -9.708944 22.750103 -0.154761 2.011709 0.039384 -0.016732 -458426.000000 0 1 0
-21.266149 2.017802 -9.480544 23.370950 -0.094600 1.988492 0.039639 -0.020417 -320951.000000 0 1 0
-20.707049 1.153302 -8.540144 22.428688 -0.055639 1.961424 0.026354 -0.019610 189362.000000 0 1 0
-21.637349 0.237402 -8.016444 23.075844 -0.010971 1.925588 0.033261 -0.016910 -518866.000000 0 1 0
-21.794249 -1.104798 -8.811244 23.533973 0.050649 1.954552 0.032107 -0.021858 41094.000000 0 1 0
-20.615049 -1.911298 -8.830044 22.507842 0.092449 1.973938 0.028766 -0.013766 537291.000000 0 1 0
-20.698749 -3.195898 -9.415444 22.963069 0.153191 1.993278 0.024667 -0.011073 -197952.000000 0 1 0
-21.716749 -4.156698 -8.773844 23.788141 0.189118 1.948549 0.031415 -0.010909 52616.000000 0 1 0
-21.294249 -4.408798 -7.403344 22.971548 0.204157 1.898937 0.009951 -0.002170 619084.000000 0 1 0
-22.254749 -5.145198 -6.649344 23.789928 0.227204 1.854072 0.021288 0.000989 -268582.000000 0 1 0
-22.313249 -6.699198 -6.798044 24.268781 0.291672 1.854710 0.021033 -0.004730 396355.000000 0 1 0
-21.107149 -7.404798 -6.432644 23.274915 0.337405 1.850818 0.009547 -0.008381 1286130.000000 0 1 0
-21.404849 -8.797498 -6.486244 24.034036 0.389957 1.844062 0.026408 -0.007473 547678.000000 0 1 0
-20.310349 -9.736798 -5.796944 23.257688 0.447033 1.822701 0.026039 -0.007406 402988.000000 0 1 0
-19.090249 -9.622598 -6.496644 22.343643 0.466889 1.865818 0.031063 -0.005465 -460017.000000 0 1 0
-18.102849 -10.280498 -5.762744 21.601181 0.516478 1.840846 0.039129 -0.005163 -565269.000000 0 1 0
-17.415649 -11.434198 -6.493844 21.822368 0.580964 1.872950 0.031775 -0.002690 -224553.000000 0 1 0
-16.338149 -11.171298 -7.366344 21.118618 0.599740 1.927095 0.028812 -0.010198 309748.000000 0 1 0
-16.801849 -10.569498 -8.565644 21.619128 0.561519 1.978178 0.035222 -0.013896 -95041.900000 0 1 0
-15.901549 -10.833698 -9.799344 21.592948 0.598064 2.041846 0.048748 -0.012088 265630.000000 0 1 0
-15.878749 -12.161498 -10.283244 22.489593 0.653598 2.045691 0.048334 -0.012907 -188377.000000 0 1 0
-15.064649 -12.184098 -11.410844 22.485623 0.680076 2.103046 0.052297 0.001207 -77481.400000 0 1 0
-15.032049 -13.537998 -12.121244 23.583139 0.733151 2.110614 0.050789 -0.001959 1115660.000000 0 1 0
-16.161249 -13.732498 -13.033144 24.892375 0.704330 2.121844 0.051569 -0.002466 929201.000000 0 1 0
-16.102849 -15.034698 -13.605244 25.892983 0.751107 2.124030 0.034494 0.000921 173354.000000 0 0 1
-16.667849 -15.115098 -15.067544 27.079776 0.736582 2.160859 0.053734 0.003967 -6267.110000 0 0 1
-16.529249 -16.477198 -15.538644 28.038609 0.783821 2.158183 0.037893 0.015436 248927.000000 0 0 1
-16.605349 -16.452998 -16.941244 28.869439 0.780790 2.197926 0.036146 0.010353 -530067.000000 0 0 1
-16.814249 -17.857698 -17.595844 30.186588 0.815484 2.193093 0.033672 0.006175 292579.000000 0 0 1
-18.116749 -18.306598 -17.205844 30.974008 0.790610 2.159752 0.027078 0.000473 -388376.000000 0 0 1
-18.988349 -18.204298 -18.293544 32.040718 0.764320 2.178455 0.021517 -0.004218 225086.000000 0 0 1
-20.493649 -18.202898 -17.845944 32.707994 0.726269 2.147918 0.019709 -0.011615 634930.000000 0 0 1
-20.983349 -16.935198 -17.352844 32.065917 0.679042 2.142614 0.012207 -0.001352 144002.000000 0 0 1
-20.480949 -16.486098 -16.111144 30.835526 0.677751 2.120561 0.009580 -0.008565 -584760.000000 0 0 1
-20.716649 -15.015898 -15.681444 30.009406 0.627192 2.120636 0.021022 -0.014432 -367440.000000 0 0 1
-21.984449 -14.664898 -15.202544 30.487581 0.588273 2.092834 0.029453 -0.017496 -85715.200000 0 0 1
-22.008949 -13.254298 -14.837144 29.668352 0.542053 2.094511 0.033361 -0.016693 -447447.000000 0 0 1
-23.356849 -12.569498 -14.552544 30.254111 0.493700 2.072603 0.033512 -0.022726 -205746.000000 0 0 1
-24.040149 -13.142698 -13.423744 30.509936 0.500304 2.026372 0.041055 -0.017520 1008960.000000 0 0 1
-25.277789 -12.495098 -13.115644 31.098460 0.459086 2.006166 0.049866 -0.017841 603405.000000 0 0 1
-26.150569 -13.076298 -11.948344 31.584882 0.463679 1.958748 0.059515 -0.020391 362710.000000 0 0 1
-27.071739 -12.076798 -11.507644 31.798647 0.419609 1.941092 0.057277 -0.025930 -88206.200000 0 0 1
-27.811279 -12.468198 -10.396644 32.202693 0.421451 1.899536 0.053950 -0.018034 -276927.000000 0 0 1
-28.437599 -11.245598 -9.750144 32.097131 0.376576 1.879443 0.070527 -0.020306 -302852.000000 0 0 1
-27.533549 -10.335098 -9.169444 30.805669 0.359090 1.873031 0.055487 -0.022740 -370316.000000 0 0 1
-28.221479 -9.348298 -8.470744 30.912717 0.319872 1.848368 0.063671 -0.020116 549513.000000 0 0 1
-27.321879 -8.220098 -7.738844 29.562557 0.292247 1.835661 0.042577 -0.011791 543244.000000 0 0 1
-26.477729 -8.639398 -6.672844 28.639766 0.315398 1.805950 0.031087 -0.014911 283084.000000 0 0 1
-25.763989 -7.557898 -6.056044 27.524182 0.285346 1.792638 0.026730 -0.007907 -484802.000000 0 0 1
-26.529649 -6.509898 -5.247644 27.816161 0.240628 1.760588 0.037443 -0.015079 -792020.000000 0 0 1
-27.108829 -7.110998 -4.067644 28.319616 0.256533 1.714928 0.034084 -0.017700 325337.000000 0 0 1
-26.304119 -7.322498 -2.924744 27.460513 0.271504 1.677506 0.051287 -0.013970 -302086.000000 0 0 1
-25.830189 -6.080698 -2.104144 26.619560 0.231201 1.649924 0.041157 -0.012545 -17592.500000 0 0 1
-26.900179 -5.464098 -1.433344 27.486914 0.200399 1.622966 0.045369 -0.019916 14869.000000 0 0 1
-26.436819 -4.316898 -0.737844 26.797116 0.161863 1.598334 0.038920 -0.015216 -400974.000000 0 0 1
-27.538229 -3.292798 -0.302744 27.736046 0.119007 1.581712 0.048399 -0.015315 129843.000000 0 0 1
-28.485469 -3.711798 0.643456 28.733489 0.129575 1.548401 0.046272 -0.014581 309693.000000 0 0 1
-27.954009 -3.676398 1.975956 28.263880 0.130765 1.500828 0.042404 -0.015899 111216.000000 0 0 1
-29.013669 -4.179098 2.972956 29.463474 0.143055 1.469721 0.034703 -0.010799 77841.200000 0 0 1
-29.241179 -5.607098 3.059056 29.930652 0.189454 1.468413 0.048823 -0.008878 96729.200000 0 0 1
-30.338469 -5.849598 3.922456 31.145243 0.190474 1.444520 0.057820 -0.012040 -222090.000000 0 0 1
-30.940739 -7.205498 3.679556 31.981052 0.228803 1.455487 0.050966 -0.006701 -751994.000000 0 0 1
-30.079049 -8.250998 4.021856 31.448426 0.267725 1.442558 0.034137 0.003910 88303.700000 0 0 1
-30.664809 -9.543498 3.726956 32.331085 0.301718 1.455265 0.050436 -0.003182 118031.000000 0 0 1
-29.867079 -10.684998 4.389856 32.023155 0.343564 1.433279 0.034458 0.002793 123037.000000 0 0 1
-30.165579 -10.728398 5.799756 32.537637 0.341700 1.391591 0.021247 -0.002163 50956.500000 0 0 1
-29.346899 -11.619498 6.506956 32.227220 0.376998 1.367490 0.021955 -0.006061 -469603.000000 0 0 1
-29.638269 -11.987198 7.967056 32.948352 0.384337 1.326571 0.034270 -0.014300 -342428.000000 0 0 1
-29.521319 -10.893398 8.849056 32.687615 0.353501 1.296660 0.059138 -0.008698 519980.000000 0 0 1
-29.417139 -11.247698 10.217656 33.110108 0.365201 1.257079 0.038762 -0.009263 -489909.000000 0 0 1
-29.585609 -9.992898 11.096256 33.140507 0.325731 1.229377 0.029817 -0.007085 -316971.000000 0 0 1
-28.420739 -9.215298 11.083656 31.867029 0.313549 1.215563 0.055425 -0.012320 196411.000000 0 0 1
-28.609669 -8.150598 12.015356 32.082927 0.277537 1.186929 0.045568 -0.016531 384627.000000 0 0 1
-27.486479 -7.079498 11.819656 30.746221 0.252084 1.176210 0.050510 -0.008865 275899.000000 0 0 1
-27.603949 -6.332198 10.595856 30.238170 0.225493 1.212784 0.046335 -0.009139 882104.000000 0 0 1
-26.581759 -5.313498 10.576456 29.097845 0.197292 1.198797 0.051191 -0.008824 171046.000000 0 0 1
-26.692849 -4.500098 9.237956 28.602428 0.167018 1.241922 0.054690 -0.015687 -162759.000000 0 0 1
-26.307889 -5.137798 8.087656 27.998432 0.192867 1.277759 0.043215 -0.007503 169417.000000 0 0 1
-26.649429 -4.321198 6.972356 27.883303 0.160751 1.318059 0.036973 -0.012077 134370.000000 0 0 1
-25.866449 -4.679198 5.636056 26.883698 0.178963 1.359584 0.032672 -0.006496 914337.000000 0 0 1
-24.506549 -4.214898 5.732256 25.518524 0.170324 1.344232 0.062044 -0.016194 849810.000000 0 0 1
-23.784249 -4.636898 4.595056 24.663857 0.192542 1.383394 0.060110 -0.011431 -42250.500000 0 1 0
-22.314749 -4.170398 4.698456 23.182229 0.184758 1.366708 0.071303 -0.009251 23114.100000 0 1 0
-22.196449 -2.766998 4.494656 22.815358 0.124020 1.372498 0.059924 -0.007062 1184630.000000 0 1 0
-20.871349 -2.224098 4.775656 21.525954 0.106162 1.347079 0.048513 -0.006523 684632.000000 0 1 0
-20.631849 -0.716798 5.132756 21.272804 0.034728 1.327109 0.048244 -0.012598 -264450.000000 0 1 0
-20.581249 0.122502 4.019956 20.970524 -0.005952 1.377907 0.034056 -0.012401 982780.000000 0 1 0
-21.878149 0.638302 3.731656 22.203290 -0.029167 1.401927 0.037090 -0.023627 168478.000000 0 1 0
-21.863149 1.585402 2.554856 22.068939 -0.072388 1.454769 0.038392 -0.008931 -456035.000000 0 1 0
-21.112949 2.724002 2.790956 21.470124 -0.128312 1.440435 0.018699 -0.008045 -151597.000000 0 1 0
-21.460949 3.757702 1.887256 21.869028 -0.173338 1.484391 0.032480 -0.000688 -195246.000000 0 1 0
-20.352549 4.342802 0.976456 20.833618 -0.210226 1.523910 0.014897 0.003987 -788551.000000 0 1 0
-20.591449 5.126002 -0.191844 21.220755 -0.243979 1.579837 0.026591 0.011214 91398.800000 0 1 0
-21.353049 4.515102 -1.238644 21.860308 -0.208381 1.627488 0.033981 -0.001674 -363539.000000 0 1 0
-20.912349 3.293402 -2.022444 21.266478 -0.156203 1.666040 0.029381 0.000073 -767723.000000 0 1 0
-20.763449 2.177102 -1.161044 20.909534 -0.104471 1.626352 0.002682 0.004138 379227.000000 0 1 0
-20.139549 1.186302 -1.904544 20.264156 -0.058836 1.664921 -0.009881 0.001535 -724673.000000 0 1 0
-19.394449 0.161402 -1.036144 19.422778 -0.008322 1.624169 -0.002452 0.001856 -506901.000000 0 1 0
-20.247649 -0.614198 -0.225444 20.258217 0.030325 1.581925 0.011110 -0.001566 575191.000000 0 1 0
-19.612649 -1.338998 0.841856 19.676322 0.068166 1.527998 0.013616 -0.005914 -297850.000000 0 1 0
-18.853549 -2.587398 0.371956 19.033898 0.136385 1.551253 -0.000823 -0.003492 -48631.300000 0 1 0
-18.011949 -3.240498 1.300356 18.347263 0.178004 1.499862 0.002200 -0.003950 678209.000000 0 1 0
-17.426749 -4.485498 0.889856 18.016745 0.251923 1.521386 0.005484 -0.000443 -228672.000000 0 1 0
-18.464849 -5.565698 0.577056 19.294057 0.292760 1.540883 0.010455 -0.003207 -439082.000000 0 1 0
-19.013149 -6.135198 1.705456 20.051161 0.312134 1.485638 0.023168 -0.007357 558525.000000 0 1 0
-20.120449 -6.974998 1.365556 21.338880 0.333698 1.506759 0.018056 -0.010798 65136.600000 0 1 0
-20.815149 -7.617998 2.589756 22.316164 0.350842 1.454486 0.028940 -0.006529 -474988.000000 0 1 0
-20.140549 -8.500898 3.410456 22.125510 0.399394 1.416038 0.033440 -0.008366 73076.500000 0 1 0
-20.965849 -8.802698 4.528356 23.185347 0.397508 1.374222 0.041751 -0.015046 417887.000000 0 1 0
-20.167749 -9.573898 5.597956 23.015967 0.443214 1.325112 0.034569 -0.007295 -20668.100000 0 1 0
-19.743949 -10.833998 5.160056 23.104658 0.501864 1.345563 0.031925 -0.000123 131859.000000 0 1 0
-18.754049 -11.394898 5.992956 22.748046 0.545987 1.304200 0.034753 -0.000967 -31277.300000 0 1 0
-18.082049 -12.646298 5.350156 22.704923 0.610313 1.332921 0.026096 -0.003116 -339112.000000 0 1 0
-18.814049 -13.813298 5.393956 23.955593 0.633313 1.343684 0.030146 0.001841 -285830.000000 0 1 0
-18.037549 -14.869398 4.822456 23.868562 0.689418 1.367354 0.021736 -0.000207 -323105.000000 0 1 0
-18.702549 -16.194898 4.567956 25.158026 0.713664 1.388213 0.028386 0.003913 -92490.700000 0 0 1
-17.799049 -17.292898 4.605356 25.240043 0.770976 1.387306 0.030268 -0.008799 46968.500000 0 0 1
-18.521049 -18.401398 5.016756 26.585871 0.782158 1.380958 0.045548 -0.014306 307315.000000 0 0 1
-17.731849 -19.762298 4.882956 26.996484 0.839499 1.388922 0.045010 -0.015278 -129604.000000 0 0 1
-17.430949 -20.051898 3.543856 26.804394 0.855209 1.438196 0.048732 -0.018559 -346942.000000 0 0 1
-16.591949 -21.104098 3.371356 27.056271 0.904530 1.445866 0.044099 -0.019122 666537.000000 0 0 1
-15.030049 -20.976498 3.597556 26.054909 0.949070 1.432278 0.034969 -0.016106 967704.000000 0 0 1
-14.498749 -22.296898 3.680456 26.849789 0.994239 1.433288 0.030031 -0.016550 581832.000000 0 0 1
-13.112249 -22.187498 4.073056 26.092258 1.037040 1.414053 0.027137 -0.010204 933049.000000 0 0 1
-12.477849 -23.570498 4.449356 27.038156 1.083919 1.405486 0.023608 -0.008615 -232778.000000 0 0 1
-12.232749 -24.386698 3.277556 27.478966 1.105857 1.451237 0.035156 -0.016681 102669.000000 0 0 1
-12.089249 -25.784018 3.584456 28.702158 1.132365 1.445585 0.042372 -0.019752 -152493.000000 0 0 1
18.134151 19.144402 -24.395144 35.923232 0.812492 2.317320 0.045737 -0.020884 408549.000000 0 0 1
17.253451 19.568002 -25.480994 36.467373 0.848174 2.344423 0.028598 -0.026861 1036380.000000 0 0 1
18.056851 19.658202 -26.663034 37.728134 0.827832 2.355640 0.035251 -0.025716 -185285.000000 0 0 1
17.246051 19.923202 -27.929024 38.397794 0.857300 2.385264 0.023781 -0.023576 5889.550000 0 0 1
16.803151 21.276102 -28.022564 38.990800 0.902327 2.372723 0.022454 -0.021818 1104870.000000 0 0 1
15.589751 21.361602 -28.810004 39.107220 0.940347 2.398963 0.008725 -0.023958 689647.000000 0 0 1
15.270351 22.798802 -29.151684 40.034855 0.980636 2.386426 0.013939 -0.013641 -472862.000000 0 0 1
14.589551 23.482702 -28.151094 39.456005 1.014870 2.365250 0.021406 -0.021430 169208.000000 0 0 1
14.417351 24.871302 -28.442294 40.440150 1.045453 2.350851 0.022514 -0.011157 -227505.000000 0 0 1
13.541251 25.573202 -27.411274 39.858902 1.083821 2.329123 0.026825 -0.018178 403112.000000 0 0 1
12.174751 25.152302 -27.367444 39.113167 1.119997 2.345772 0.016362 -0.014545 309603.000000 0 0 1
11.471051 25.864602 -26.382214 38.685706 1.153358 2.321239 0.018980 -0.017167 -342596.000000 0 0 1
9.938651 25.546502 -26.413424 38.066645 1.199772 2.337650 0.020792 -0.008214 928025.000000 0 0 1
9.151751 26.424002 -25.604394 37.915266 1.237384 2.312175 0.020017 -0.010792 230871.000000 0 0 1
9.015451 27.705602 -26.242464 39.211550 1.256201 2.304000 0.025748 -0.013226 -856669.000000 0 0 1
8.533151 28.790202 -25.293284 39.261184 1.282654 2.270814 0.030806 -0.010373 -397581.000000 0 0 1
9.452551 29.103202 -24.304844 39.077775 1.256751 2.242041 0.030009 -0.010313 -280700.000000 0 0 1
8.826351 29.750102 -23.274544 38.790171 1.282385 2.214312 0.045179 -0.017219 -151216.000000 0 0 1
9.811751 29.950902 -22.094944 38.490434 1.254220 2.182224 0.032236 -0.018759 -192992.000000 0 0 1
10.739951 30.954702 -22.280844 39.622924 1.236835 2.167988 0.020631 -0.019157 -476542.000000 0 0 1
11.489751 31.254002 -21.145244 39.445511 1.218507 2.136562 0.012717 -0.016865 -287960.000000 0 0 1
12.732451 32.118202 -21.463544 40.674044 1.193376 2.126683 0.010334 -0.000704 699404.000000 0 0 1
13.784451 31.356302 -22.111444 40.769409 1.156619 2.144033 0.010586 -0.001495 127202.000000 0 0 1
14.757251 32.239102 -22.583244 42.037353 1.141521 2.137932 0.015098 0.005145 -575608.000000 0 0 1
15.979951 31.671102 -23.285444 42.433824 1.103508 2.151661 0.007331 0.011645 -349820.000000 0 0 1
16.771951 30.874202 -22.454244 41.697814 1.073162 2.139451 -0.002235 0.012570 -454414.000000 0 0 1
17.958551 30.555002 -23.137744 42.325794 1.039437 2.149164 0.000331 0.017572 155310.000000 0 0 1
19.066751 29.814602 -22.316244 41.838573 1.001830 2.133399 -0.005784 0.017357 251533.000000 0 0 1
19.747351 30.590202 -21.365244 42.216015 0.997559 2.101445 0.006112 0.027853 -460062.000000 0 0 1
20.789051 29.812302 -20.871644 41.911615 0.961864 2.092078 0.016087 0.019938 -45203.000000 0 0 1
21.509051 30.467802 -19.636844 42.148925 0.956082 2.055439 0.029084 0.014679 129837.000000 0 0 1
22.363351 31.564302 -19.854244 43.481210 0.954387 2.044985 0.033972 0.016659 -82769.200000 0 0 1
22.922551 31.967702 -18.644044 43.531341 0.948717 2.013396 0.025861 0.010346 85725.600000 0 0 1
24.221851 32.836402 -18.811244 44.930950 0.935245 2.002777 0.044421 0.009378 942504.000000 0 0 1
25.344851 32.066402 -19.236644 45.173710 0.901945 2.010683 0.051698 0.005883 160962.000000 0 0 1
26.551251 32.683002 -18.846844 46.134055 0.888548 1.991632 0.043348 0.005480 533410.000000 0 0 1
27.880251 32.055202 -19.350344 46.682761 0.854943 1.998198 0.049197 -0.004597 389104.000000 0 0 1
28.295351 30.915402 -18.660844 45.876094 0.829619 1.989708 0.045565 -0.000480 -56495.500000 0 0 1
29.643351 30.597902 -18.960744 46.631209 0.801242 1.989537 0.040021 -0.003484 23197.200000 0 0 1
30.140351 29.367402 -18.249644 45.868666 0.772410 1.979987 0.037398 -0.007256 -701624.000000 0 0 1
30.367151 29.666702 -16.844944 45.673068 0.773731 1.948531 0.027448 0.000225 -26406.400000 0 0 1
30.874451 28.536002 -16.170444 45.044626 0.746058 1.937979 0.025533 -0.003583 -528228.000000 0 0 1
31.401551 28.839102 -14.763644 45.118914 0.742887 1.904153 0.025334 0.000648 1071060.000000 0 0 1
32.671551 29.524202 -14.634044 46.403275 0.734837 1.891639 -0.005195 0.014046 836442.000000 0 0 1
32.510951 30.926002 -14.848044 47.263558 0.760419 1.890362 0.007542 0.006500 89680.300000 0 0 1
33.843851 31.739202 -14.972644 48.754110 0.753318 1.882946 0.008200 0.004576 719233.000000 0 0 1
34.534351 31.767702 -13.740844 48.893957 0.743694 1.855667 0.005124 -0.000521 -1636500.000000 0 0 1
-35.428732 32.132802 -13.891244 49.806412 -0.736653 1.853450 0.018031 -0.009144 -1246570.000000 0 0 1
-34.630232 32.265602 -12.571944 48.973215 -0.750065 1.830414 0.012761 -0.002972 -292336.000000 0 0 1
-35.033332 33.349802 -11.737144 49.772524 -0.760784 1.808854 0.015840 -0.007269 569879.000000 0 0 1
-34.019832 33.802302 -10.834944 49.166458 -0.782191 1.792993 0.018145 -0.007479 190561.000000 0 0 1
-34.592432 -33.837056 -10.059444 49.424438 0.774360 1.775760 0.015498 -0.003320 -296322.000000 0 0 1
-33.793232 -33.227556 -9.105944 48.259416 0.776958 1.760622 0.010488 -0.004742 -519031.000000 0 0 1
-33.671732 -33.856756 -7.836944 48.388874 0.788138 1.733470 0.007259 -0.004808 186046.000000 0 0 1
-33.323832 -32.943956 -6.675044 47.332211 0.779666 1.712293 0.000739 -0.007442 37908.700000 0 0 1
-34.479832 -32.196356 -6.419444 47.609594 0.751164 1.706043 0.003023 -0.004864 -462613.000000 0 0 1
-34.226232 -31.158656 -5.535244 46.614759 0.738517 1.689822 0.033183 -0.009734 -128726.000000 0 0 1
-35.443032 -30.313656 -5.088944 46.915068 0.707550 1.679482 0.033787 -0.007847 -212220.000000 0 0 1
34.931651 -31.219256 -4.446544 47.059897 -0.729337 1.665424 0.024511 -0.006099 21947.200000 0 0 1
33.781951 -30.549856 -3.925144 45.715650 -0.735199 1.656762 0.022190 0.000526 -273358.000000 0 0 1
33.867251 -29.667056 -2.615544 45.099512 -0.719385 1.628824 0.022543 -0.008059 -534170.000000 0 0 1
34.512151 -28.478256 -2.906444 44.839124 -0.689899 1.635661 0.047401 -0.013466 448270.000000 0 0 1
33.710951 -27.507156 -2.247544 43.567457 -0.684404 1.622407 0.047962 -0.011165 257537.000000 0 0 1
34.053651 -26.053656 -2.703044 42.962199 -0.653081 1.633755 0.064485 -0.021918 -259107.000000 0 0 1
33.623751 -25.630356 -3.962144 42.463753 -0.651307 1.664239 0.060931 -0.027748 231041.000000 0 0 1
33.583751 -24.211256 -4.094044 41.603058 -0.624630 1.669363 0.065597 -0.031095 -197741.000000 0 0 1
33.169451 -23.804356 -5.492144 41.194945 -0.622480 1.704515 0.069066 -0.035045 629368.000000 0 0 1
34.306651 -23.838756 -6.382644 42.260747 -0.607277 1.722407 0.067306 -0.039872 834343.000000 0 0 1
33.891751 -23.576556 -7.719544 42.001144 -0.607796 1.755641 0.047935 -0.036718 146331.000000 0 0 1
35.078651 -23.577556 -8.724344 43.157005 -0.591778 1.774353 0.040333 -0.039257 81309.700000 0 0 1
35.560551 -24.821256 -9.077944 44.306395 -0.609382 1.777148 0.034533 -0.022346 -630900.000000 0 0 1
-34.628432 -24.665456 -9.946244 43.662808 0.618926 1.800611 0.044214 -0.021055 -286294.000000 0 0 1
-33.947132 -25.974556 -10.391344 43.989378 0.653125 1.809274 0.035789 -0.015041 -91794.200000 0 0 1
-33.255632 -26.685956 -9.385244 43.659594 0.676233 1.787451 0.019870 -0.014557 -391842.000000 0 0 1
-34.056432 -27.617956 -8.708444 44.703792 0.681380 1.766853 0.016614 -0.010570 -77883.200000 0 0 1
-33.286832 -28.940956 -8.420044 44.905337 0.715673 1.759419 0.011541 -0.010446 46791.500000 0 0 1
-32.971532 -29.677556 -9.568344 45.380970 0.732868 1.783235 0.003955 -0.004626 -466702.000000 0 0 1
-32.017132 -30.590156 -9.156244 45.218262 0.762610 1.774696 0.000165 -0.008396 -499639.000000 0 0 1
-31.411532 -31.352656 -10.363944 45.575045 0.784460 1.800207 -0.001006 -0.003212 -215609.000000 0 0 1
-30.509132 -30.649656 -11.181644 44.668084 0.787696 1.823815 -0.008915 0.004242 -37559.200000 0 0 1
-30.018332 -31.376756 -12.255544 45.119834 0.807520 1.845874 -0.013857 0.004946 -320582.000000 0 0 1
-30.294032 -30.622756 -13.538544 45.152782 0.790794 1.875320 -0.014340 0.002954 72230.000000 0 0 1
-29.536832 -29.434056 -13.730644 43.901238 0.783655 1.888896 -0.016093 0.014070 -67726.700000 0 0 1
-30.012532 -28.757456 -14.850744 44.139415 0.764046 1.913942 -0.016015 0.018302 -61762.200000 0 0 1
-28.987932 -27.742456 -15.420144 42.985171 0.763447 1.937705 -0.016822 0.020584 524317.000000 0 0 1
-27.906332 -28.461956 -16.021244 42.959592 0.795255 1.952969 -0.006158 0.014878 -206134.000000 0 0 1
-26.903132 -27.630556 -16.524144 41.955613 0.798736 1.975611 0.023305 0.015890 -275880.000000 0 0 1
-25.675832 -28.455656 -16.965344 41.914146 0.836706 1.987517 0.032867 0.009709 -412016.000000 0 0 1
-25.824332 -29.264956 -18.133244 43.036593 0.847773 2.005724 0.016830 0.012265 -158708.000000 0 0 1
-26.037232 -28.562456 -19.355344 43.224769 0.831615 2.035081 0.019081 0.015951 -502488.000000 0 0 1
-24.821432 -27.937556 -20.030044 42.400627 0.844393 2.062808 0.028023 0.010394 -392807.000000 0 0 1
-24.447932 -26.743956 -19.444544 41.122145 0.830219 2.063317 0.033272 0.011657 24454.800000 0 0 1
-23.062332 -26.465356 -19.571544 40.191187 0.854000 2.079403 0.054418 -0.004671 436154.000000 0 0 1
-22.637532 -25.227756 -18.739244 38.730567 0.839460 2.075829 0.054105 -0.002690 63100.800000 0 0 1
-22.886032 -25.482756 -17.347944 38.393912 0.839033 2.039624 0.059444 -0.005816 460161.000000 0 0 1
-22.290232 -24.470256 -16.520044 36.994050 0.831985 2.033713 0.063564 -0.015060 160047.000000 0 0 1
-22.660132 -24.751156 -15.058144 36.781096 0.829474 1.992592 0.048912 -0.005509 393566.000000 0 0 1
-23.976032 -24.319456 -14.728944 37.191771 0.792509 1.977982 0.022897 0.009112 285735.000000 0 0 1
-24.168932 -24.323756 -13.319944 36.785911 0.788591 1.941309 0.013737 0.011615 -109196.000000 0 0 1
-25.643932 -24.322856 -12.876944 37.616861 0.758965 1.920180 -0.013806 0.024566 -1116080.000000 0 0 1
-26.240132 -25.560156 -13.123044 38.911186 0.772272 1.914797 -0.000122 0.016532 653861.000000 0 0 1
-27.623432 -25.675356 -12.760744 39.813496 0.748864 1.897067 -0.015038 0.018289 655934.000000 0 0 1
-28.654032 -24.739056 -13.472344 40.181818 0.712205 1.912704 -0.012439 0.019173 -1258370.000000 0 0 1
-28.890132 -23.475156 -12.929844 39.406897 0.682357 1.905100 -0.007006 0.019223 88601.600000 0 0 1
-29.405732 -23.417456 -11.602444 39.340704 0.672516 1.870170 0.002065 0.011952 2856.970000 0 0 1
-30.818432 -24.045256 -11.302944 40.690375 0.662565 1.852278 0.000229 0.003096 1085240.000000 0 0 1
-32.007832 -23.302356 -11.645644 41.268900 0.629285 1.856872 0.028558 -0.005226 723911.000000 0 0 1
-32.262632 -23.203256 -13.022544 41.819316 0.623495 1.887462 0.025948 0.004292 -1204320.000000 0 0 1
-33.661732 -22.602756 -13.210044 42.643898 0.591319 1.885753 0.012114 -0.001778 -356473.000000 0 0 1
-34.563532 -23.663856 -13.015944 43.863773 0.600348 1.872069 0.016328 -0.000937 -1259050.000000 0 0 1
35.421051 -23.370456 -13.445944 44.515418 -0.583227 1.877640 0.023395 -0.003550 -534960.000000 0 0 1
34.420551 -24.562156 -13.272844 44.319772 -0.619789 1.874943 0.024871 0.002574 18566.300000 0 0 1
34.451851 -25.617756 -14.204044 45.221171 -0.639381 1.890307 0.008705 0.012440 -99154.400000 0 0 1
33.723651 -26.763556 -13.812044 45.214435 -0.670835 1.881237 0.012001 0.000685 92320.600000 0 0 1
33.627951 -27.769856 -14.972044 46.110368 -0.690274 1.901491 0.010662 0.004333 -165394.000000 0 0 1
32.590151 -27.515056 -15.858544 45.504831 -0.701161 1.926769 0.008814 0.000643 -506776.000000 0 0 1
32.521751 -28.435256 -16.886244 46.382899 -0.718459 1.943422 0.002053 0.002676 579790.000000 0 0 1
31.517351 -28.010856 -18.047244 45.865613 -0.726561 1.975211 0.009901 0.003659 240516.000000 0 0 1
30.185651 -27.951056 -17.642644 44.762685 -0.746980 1.975925 0.017032 0.002028 -579482.000000 0 0 1
29.328251 -27.539556 -18.684644 44.358645 -0.753955 2.005584 0.029013 0.002266 484836.000000 0 0 1
27.815351 -27.720856 -18.352844 43.347047 -0.783697 2.007984 0.026355 0.003925 373554.000000 0 0 1
27.405151 -26.940556 -17.300444 42.144290 -0.776849 1.993804 0.021359 0.003061 43563.200000 0 0 1
25.984451 -26.887956 -17.234244 41.172479 -0.802485 2.002685 0.025664 -0.000810 327642.000000 0 0 1
25.487951 -25.984756 -16.074144 39.789713 -0.795050 1.986657 0.034170 -0.003774 -236714.000000 0 0 1
25.633051 -24.631456 -16.350144 39.129134 -0.765474 2.001875 0.037075 -0.007905 46161.500000 0 0 1
25.453651 -23.926956 -15.154244 38.079373 -0.754491 1.980093 0.040255 -0.008851 -47905.800000 0 0 1
25.250451 -22.404956 -15.507544 37.149041 -0.725759 2.001424 0.037783 -0.015092 264156.000000 0 0 1
23.918851 -22.167156 -15.925544 36.292109 -0.747407 2.025076 0.037986 -0.010097 57478.700000 0 0 1
23.652551 -20.763156 -16.062044 35.334701 -0.720436 2.042684 0.038498 -0.007904 -87788.600000 0 0 1
22.136051 -20.492456 -16.149844 34.216414 -0.746861 2.062344 0.045011 -0.015214 -105770.000000 0 0 1
21.567651 -20.751956 -14.855544 33.413985 -0.766126 2.031513 0.052895 -0.024985 -329232.000000 0 0 1
20.257951 -20.289856 -14.701144 32.220901 -0.786185 2.044585 0.046284 -0.024596 -274716.000000 0 0 1
20.215651 -18.936156 -14.046044 31.057075 -0.752729 2.040100 0.030709 -0.018268 -354564.000000 0 0 1
20.087251 -19.090756 -12.687244 30.478202 -0.759969 2.000138 0.039961 -0.029753 99597.700000 0 0 1
20.006951 -17.874156 -12.008444 29.393303 -0.729155 1.991654 0.042742 -0.029293 -194531.000000 0 0 1
19.112451 -17.924156 -10.751244 28.322260 -0.753325 1.960165 0.045882 -0.021261 -85644.000000 0 0 1
19.687051 -18.634256 -9.688144 28.786726 -0.757932 1.914046 0.056717 -0.030387 145965.000000 0 0 1
18.680851 -18.869356 -8.743844 27.954992 -0.790418 1.888918 0.049888 -0.035898 151958.000000 0 0 1
19.319551 -19.584756 -7.484944 28.510210 -0.792215 1.836445 0.042598 -0.032694 -348845.000000 0 0 1
20.291751 -18.796256 -6.883544 28.503291 -0.747157 1.814708 0.047443 -0.034156 -415898.000000 0 0 1
20.810851 -19.368256 -5.694344 28.993903 -0.749509 1.768479 0.041654 -0.023023 241842.000000 0 0 1
22.149951 -18.697056 -5.290644 29.465083 -0.701066 1.751332 0.034071 -0.025628 24604.400000 0 0 1
23.146351 -18.685956 -6.270044 30.401184 -0.679174 1.778531 0.027418 -0.033645 132099.000000 0 0 1
24.288251 -17.953856 -5.854244 30.765764 -0.636553 1.762248 0.023095 -0.031470 498298.000000 0 0 1
25.406451 -17.785556 -6.965044 31.785619 -0.610753 1.791715 0.015206 -0.045360 747134.000000 0 0 1
26.381651 -18.819756 -7.034144 33.161030 -0.619640 1.784541 0.020015 -0.047233 445142.000000 0 0 1
25.865151 -19.899956 -7.804844 33.554878 -0.655785 1.805546 0.026996 -0.049803 -158224.000000 0 0 1
26.762851 -21.144856 -7.905644 35.012203 -0.668664 1.798557 0.032626 -0.056053 249420.000000 0 0 1
28.069451 -20.973156 -8.432344 36.039864 -0.641699 1.806958 0.035727 -0.046166 458862.000000 0 0 1
28.691151 -22.259356 -8.619944 37.322440 -0.659826 1.803859 0.056187 -0.046301 -196936.000000 0 0 1
-30.262349 30.312702 3.941856 43.014043 -0.786229 1.479026 0.033762 -0.004602 294822.000000 0 0 1
-29.309059 30.818402 2.999456 42.635567 -0.810495 1.500387 0.024972 -0.004656 650984.000000 0 0 1
-28.255779 31.488502 3.714756 42.470156 -0.839455 1.483217 0.031791 -0.005618 545658.000000 0 0 1
-27.517099 32.650502 2.974356 42.802953 -0.870510 1.501251 0.029249 -0.006699 -68071.800000 0 0 1
-26.476159 32.111302 2.168456 41.675231 -0.881287 1.518741 0.037227 -0.017286 326528.000000 0 0 1
-25.755239 33.031802 1.365556 41.908197 -0.908550 1.538206 0.029379 -0.023006 110089.000000 0 0 1
-24.707049 33.983402 2.013456 42.063807 -0.942157 1.522911 0.042338 -0.019453 -11356.500000 0 0 1
-23.405649 33.413902 1.934556 40.841838 -0.959751 1.523412 0.025140 -0.022128 -927522.000000 0 0 1
-22.514049 34.215502 2.575056 41.039175 -0.988813 1.508009 0.022697 -0.018165 264791.000000 0 0 1
-21.013549 33.892402 2.217556 39.939725 -1.015795 1.515245 0.017276 -0.020733 802658.000000 0 0 1
-20.656549 34.397002 0.937056 40.133836 -1.029985 1.547446 0.017088 -0.018862 -126140.000000 0 0 1
-19.295849 34.066302 0.732056 39.158378 -1.055434 1.552100 0.019626 -0.013398 51694.200000 0 0 1
-18.591149 -34.015656 -0.438544 38.767099 1.070608 1.582109 0.025964 -0.012352 9548.600000 0 0 1
-18.537149 -32.571256 -0.391044 37.478867 1.053388 1.581230 0.021978 -0.004623 57157.300000 0 0 1
-17.885649 -31.978856 0.698456 36.647394 1.060844 1.551736 0.019327 0.007279 -358978.000000 0 0 1
-17.812849 -30.460756 0.545556 35.290974 1.041643 1.555337 0.021625 0.002058 232185.000000 0 0 1
-16.705349 -30.065956 -0.267544 34.396249 1.063646 1.578575 0.028635 0.008914 417847.000000 0 0 1
-16.658849 -28.660556 -0.443744 33.153305 1.044280 1.584181 0.016449 0.012608 163633.000000 0 0 1
-15.673749 -28.208656 -1.550944 32.307895 1.063636 1.618820 0.026568 0.004479 -605446.000000 0 0 1
-16.137749 -28.539456 -2.856844 32.910318 1.056166 1.657713 0.020918 0.003776 -434752.000000 0 0 1
-15.319349 -28.232556 -3.918144 32.359102 1.073642 1.692177 0.025869 0.004995 -636492.000000 0 0 1
-16.060949 -28.349056 -5.274744 33.006756 1.055341 1.731292 0.035958 0.005680 245489.000000 0 0 1
-16.934149 -27.257356 -5.589044 32.572477 1.014885 1.743238 0.024353 0.009853 -243192.000000 0 0 1
-17.079949 -27.164656 -6.985544 32.839625 1.009500 1.785151 0.040427 0.003248 109203.000000 0 0 1
-17.931049 -25.933456 -7.411344 32.388187 0.965848 1.801671 0.035961 0.006571 428142.000000 0 0 1
-17.183049 -24.716156 -7.239444 30.960540 0.963289 1.806809 0.036456 0.006817 118905.000000 0 0 1
-17.851649 -23.549456 -7.635044 30.521339 0.922164 1.823636 0.032464 0.014341 -387966.000000 0 0 1
-17.077549 -22.325056 -7.181044 29.010656 0.917796 1.820928 0.039696 0.007504 -313687.000000 0 0 1
-15.838749 -22.200956 -7.791044 28.362806 0.951116 1.849066 0.043384 0.005296 -1263380.000000 0 0 1
-15.002349 -21.217056 -7.278444 26.985360 0.955328 1.843897 0.062616 -0.005177 269488.000000 0 0 1
-13.692249 -21.097556 -8.088944 26.419984 0.995127 1.881961 0.048806 -0.006942 229737.000000 0 0 1
-13.955949 -20.283656 -9.196544 26.282534 0.968143 1.928272 0.051600 0.011702 106795.000000 0 0 1
-12.918249 -20.428656 -10.160044 26.219032 1.006922 1.968721 0.037735 0.014456 490147.000000 0 0 1
-13.159349 -19.362456 -11.236144 25.967751 0.973871 2.018277 0.037747 0.011578 304682.000000 0 0 1
-14.292549 -19.758456 -11.996444 27.176979 0.944562 2.027976 0.039077 0.017127 -119264.000000 0 0 1
-14.694349 -18.752856 -12.900644 27.092805 0.906149 2.067085 0.026714 0.015932 410692.000000 0 0 1
-15.854449 -19.099856 -13.876744 28.438215 0.877980 2.080549 0.036709 0.016741 598418.000000 0 0 1
-17.151549 -19.193656 -13.316744 28.981161 0.841526 2.048225 0.052659 0.009576 -64618.100000 0 0 1
-18.092949 -19.648156 -14.270444 30.282840 0.826582 2.061491 0.045810 0.010558 -83286.400000 0 0 1
-19.534049 -19.450656 -13.767944 30.813363 0.783259 2.034001 0.037252 0.008079 639938.000000 0 0 1
-20.515349 -20.158756 -14.577544 32.245306 0.776631 2.039895 0.041583 -0.005592 303833.000000 0 0 1
-21.838049 -19.854456 -14.213144 32.758407 0.737857 2.019589 0.031563 -0.006565 -366666.000000 0 0 1
-22.858249 -20.422356 -15.195044 34.212008 0.729176 2.031014 0.038230 -0.016275 -418640.000000 0 0 1
-23.006749 -19.843356 -16.452544 34.550766 0.711707 2.067107 0.040285 -0.032878 -191787.000000 0 0 1
-23.818849 -20.600156 -17.271444 35.916664 0.713063 2.072449 0.052804 -0.032734 -578799.000000 0 0 1
-24.059149 -20.039556 -18.665144 36.452902 0.694499 2.108348 0.048836 -0.027298 -148260.000000 0 0 1
-22.905549 -20.038656 -19.479344 36.133872 0.718739 2.140150 0.037756 -0.026376 34277.000000 0 0 1
-23.198849 -19.632556 -20.780344 36.816389 0.702326 2.170541 0.033235 -0.021854 -464690.000000 0 0 1
-22.102749 -18.872856 -21.515944 36.161472 0.706736 2.208057 0.022480 -0.017916 -127258.000000 0 0 1
-20.971049 -19.615956 -21.925544 36.128937 0.752023 2.222912 0.016431 -0.011257 159873.000000 0 0 1
-20.166349 -18.845856 -22.830544 35.820129 0.751563 2.261872 0.022197 -0.012164 22409.000000 0 0 1
-18.736849 -19.335856 -23.072044 35.457919 0.801130 2.279287 0.025992 -0.007928 -350819.000000 0 0 1
-18.686149 -20.515456 -23.828744 36.576838 0.832028 2.280318 0.007775 -0.003328 -16249.100000 0 0 1
-17.348649 -20.809356 -24.176044 36.310962 0.875845 2.299369 0.011278 -0.002546 65737.100000 0 0 1
-17.080549 -22.289856 -24.623544 37.348383 0.916949 2.290675 0.005024 0.003905 -173116.000000 0 0 1
-17.478549 -22.497756 -25.952884 38.538304 0.910299 2.309636 0.013679 0.000750 135994.000000 0 0 1
-17.411149 -23.909856 -26.073294 39.428999 0.941394 2.293310 0.013580 -0.004778 -159470.000000 0 0 1
-17.321249 -24.325956 -27.515704 40.606548 0.952030 2.315314 0.020308 0.002936 256233.000000 0 0 1
-16.057749 -24.059456 -28.097484 40.325889 0.982273 2.341668 0.007066 0.000262 240662.000000 0 0 1
-16.171749 -24.171056 -29.507774 41.430353 0.981143 2.363461 0.021291 -0.000981 157502.000000 0 0 1
-14.786549 -24.056656 -30.212594 41.354148 1.019671 2.389970 -0.001551 -0.005907 123600.000000 0 0 1
-13.986949 -25.203956 -29.925734 41.550255 1.064160 2.374930 0.005820 0.000470 -234355.000000 0 0 1
-12.784149 -24.912156 -30.616494 41.489995 1.096669 2.400787 0.015212 0.002682 -130172.000000 0 0 1
-11.754649 -26.053256 -30.427034 41.746237 1.146963 2.387447 0.011432 0.004094 -877461.000000 0 0 1
-12.186449 -27.268556 -31.059164 43.090084 1.150519 2.375746 0.010050 0.010889 -75002.200000 0 0 1
-11.278549 -28.311556 -30.991644 43.465295 1.191694 2.364593 0.010688 0.011914 -583214.000000 0 0 1
-9.973049 -28.238656 -31.790584 43.675217 1.231300 2.386030 0.015869 0.003891 -400515.000000 0 0 1
-9.068949 -27.335056 -31.195244 42.456970 1.250454 2.396094 0.022811 -0.004285 -196526.000000 0 0 1
-8.071449 -26.936056 -32.131594 42.698228 1.279659 2.422688 0.022177 -0.004387 664.139000 0 0 1
-7.310649 -25.671256 -31.642844 41.397204 1.293361 2.440862 0.040813 -0.007797 -227533.000000 0 0 1
-7.982349 -24.433156 -31.655864 40.777331 1.255026 2.459588 0.042922 -0.014309 -9922.370000 0 0 1
-8.649549 -24.169756 -30.427294 39.809697 1.227131 2.440780 0.036245 -0.014319 -228578.000000 0 0 1
-9.122849 -22.719156 -30.232024 38.901949 1.188956 2.460895 0.037741 -0.020782 -22991.200000 0 0 1
-10.104549 -22.297056 -31.162844 39.628064 1.145302 2.475728 0.034296 -0.021720 84270.200000 0 0 1
-10.393049 -20.914656 -30.926414 38.754114 1.109610 2.494793 0.033378 -0.019570 321140.000000 0 0 1
-11.278349 -20.338956 -32.078804 39.622266 1.064490 2.514293 0.020145 -0.009747 375559.000000 0 0 1
-11.660949 -18.928356 -31.955834 38.928597 1.018654 2.533752 0.028764 -0.009855 177962.000000 0 0 1
-12.153949 -18.512456 -33.234174 39.936697 0.989846 2.553808 0.034838 -0.009286 -190932.000000 0 0 1
-12.966249 -17.180956 -33.065764 39.454449 0.924302 2.564540 0.045777 -0.015390 -101367.000000 0 0 1
-12.312849 -15.917956 -33.197694 38.821057 0.912412 2.596630 0.055145 -0.017874 -174152.000000 0 0 1
-11.394749 -15.607756 -32.162244 37.521357 0.940173 2.600549 0.031902 -0.012144 143387.000000 0 0 1
-11.097649 -14.091956 -32.217924 36.874593 0.903714 2.633586 0.026910 -0.019164 -315901.000000 0 0 1
-10.354349 -13.583856 -33.310064 37.433862 0.919499 2.667786 0.032071 -0.019403 5007.140000 0 0 1
-11.006449 -13.559556 34.231810 38.429419 0.888955 0.471758 0.040874 -0.017676 -153543.000000 0 0 1
-11.656349 -12.221956 33.831657 37.813062 0.809081 0.463019 0.041004 -0.015535 843948.000000 0 0 1
-12.808849 -11.803856 -34.229115 38.406118 0.744589 2.670871 0.039169 -0.012334 23476.300000 0 0 1
-13.673549 -11.039056 33.799742 38.095265 0.679194 0.479463 0.019653 -0.019433 1013480.000000 0 0 1
-14.697649 -10.217256 -34.112271 38.523502 0.607472 2.658349 0.032823 -0.015634 1050760.000000 0 0 1
-13.983149 -9.138656 -33.584344 37.509354 0.578865 2.680033 0.027501 -0.012844 -384109.000000 0 0 1
-14.786749 -8.516656 -32.664224 36.852854 0.522560 2.660180 0.030234 -0.017817 -446956.000000 0 0 1
-14.092249 -7.403856 -31.881304 35.634619 0.483749 2.678493 0.034304 -0.031022 -549795.000000 0 0 1
-13.909249 -6.140456 -32.555714 35.931141 0.415734 2.704671 0.031831 -0.037584 187738.000000 0 0 1
-15.053549 -5.302756 -32.710904 36.396865 0.338686 2.687658 0.032203 -0.026762 181700.000000 0 0 1
-15.649849 -4.690956 -31.450834 35.441188 0.291222 2.662490 0.038538 -0.034979 -180393.000000 0 0 1
-16.261949 -5.641756 -30.575834 35.087918 0.333937 2.628858 0.049759 -0.043048 -56469.800000 0 0 1
-16.733949 -5.127356 -29.319344 34.145845 0.297322 2.603427 0.056125 -0.045639 -584.698000 0 0 1
-15.647349 -4.696456 -28.311374 32.686849 0.291589 2.618222 0.041653 -0.044691 -334.228000 0 0 1
-15.019749 -3.511256 -28.738204 32.616041 0.229652 2.648993 0.033997 -0.037001 -665121.000000 0 0 1
-13.761049 -3.307256 -28.178954 31.533440 0.235861 2.676146 0.040711 -0.036970 -498260.000000 0 0 1
-13.104949 -2.051256 -28.816034 31.722407 0.155265 2.710192 0.024372 -0.016777 -142745.000000 0 0 1
-13.080949 -2.139256 -30.250794 33.027234 0.162105 2.728627 0.022412 -0.022828 164170.000000 0 0 1
-13.131749 -0.900256 -30.869724 33.558801 0.068449 2.738544 0.029605 -0.027374 -54617.900000 0 0 1
-13.272949 -1.080256 -32.396994 35.027180 0.081209 2.751595 0.022941 -0.027086 -138362.000000 0 0 1
-14.517349 -1.648256 -32.767134 35.876946 0.113053 2.722160 0.011996 -0.025229 290383.000000 0 0 1
-14.624449 -1.768256 -34.189419 37.227914 0.120327 2.734766 0.007955 -0.017153 -161513.000000 0 0 1
-16.080549 -1.699256 34.110428 37.749077 0.105281 0.442674 0.008185 -0.014145 54191.500000 0 0 1
-16.106749 -1.759256 32.722487 36.514154 0.108793 0.459760 0.016455 -0.007161 472889.000000 0 0 1
-17.449249 -1.724256 32.260307 36.717526 0.098496 0.497857 0.019532 -0.003419 216513.000000 0 0 1
-17.474849 -1.645256 30.736127 35.394727 0.093873 0.518867 0.028357 0.006522 233750.000000 0 0 1
-16.908549 -0.432256 30.134377 34.556715 0.025559 0.511469 0.019961 0.017483 178031.000000 0 0 1
-16.696849 -0.570256 28.746737 33.248832 0.034140 0.526455 0.015354 0.014097 141477.000000 0 0 1
-15.882549 0.621744 28.081417 32.267753 -0.039126 0.515061 0.013909 0.018302 36118.900000 0 0 1
-16.248649 1.982744 28.358447 32.743722 -0.121425 0.523504 0.017233 0.019698 -751808.000000 0 0 1
-17.564949 2.312744 28.040007 33.168030 -0.130915 0.563497 0.026006 0.015556 -534623.000000 0 0 1
-17.823849 2.938744 26.658357 32.202388 -0.163407 0.595554 0.026964 0.011825 -399945.000000 0 0 1
-17.639349 4.325744 26.699287 32.291030 -0.240487 0.597343 0.024307 0.018106 51342.200000 0 0 1
-18.228149 5.020744 25.626487 31.846351 -0.268774 0.635641 0.023357 0.018661 -390501.000000 0 0 1
-18.029649 6.531744 25.752767 32.108206 -0.347571 0.640057 0.019787 0.019379 1554500.000000 0 0 1
-16.649849 6.990744 25.640517 31.361187 -0.397516 0.613588 0.015333 0.022078 1296960.000000 0 0 1
-16.152049 7.106744 24.301747 30.032805 -0.414499 0.628052 0.004278 0.022816 374868.000000 0 0 1
-14.956649 8.090744 24.149267 29.535547 -0.495866 0.613507 0.002618 0.019092 597510.000000 0 0 1
-13.711449 7.660744 24.668317 29.244088 -0.509507 0.566971 -0.001610 0.023586 -295623.000000 0 0 1
-12.697949 8.484744 24.181127 28.599924 -0.589062 0.563303 -0.005508 0.021111 -109574.000000 0 0 1
-11.377249 8.385744 24.999867 28.718562 -0.635170 0.514554 -0.014205 0.043128 -698547.000000 0 0 1
-10.469449 9.250744 24.480587 28.186606 -0.723677 0.518591 -0.020262 0.037159 -740416.000000 0 0 1
-9.220349 9.175744 25.128227 28.295528 -0.782973 0.477681 -0.011188 0.019889 -227877.000000 0 0 1
-8.970749 10.481744 25.923367 29.366005 -0.862919 0.489075 -0.002853 -0.004431 -748114.000000 0 0 1
-9.884849 10.680744 26.970857 30.646625 -0.824079 0.494809 -0.007763 -0.001095 278019.000000 0 0 1
-9.979349 11.991744 27.479677 31.599398 -0.876736 0.516351 -0.000083 -0.010597 -431245.000000 0 0 1
-10.633549 13.084744 26.545957 31.447905 -0.888379 0.565866 0.012854 -0.025777 275805.000000 0 0 1
-12.056849 13.058744 26.494887 31.904191 -0.825268 0.590878 0.021226 -0.022290 822800.000000 0 0 1
-12.675149 12.098744 25.587677 31.012388 -0.762136 0.600454 0.016218 -0.004880 40245.000000 0 0 1
-14.200149 12.159744 25.410077 31.546404 -0.708147 0.634307 0.011768 -0.000800 -82331.600000 0 0 1
-14.708949 13.264744 24.713197 31.670944 -0.733817 0.675633 0.035447 -0.020865 755798.000000 0 0 1
-16.037849 13.049744 24.182447 31.816649 -0.683029 0.707396 0.035615 -0.005453 989420.000000 0 0 1
-16.119749 12.466744 22.743957 30.537740 -0.658299 0.730588 0.021054 0.003471 -296813.000000 0 0 1
-15.787249 11.131744 22.561257 29.701233 -0.614147 0.708088 0.016032 0.007491 -107628.000000 0 0 1
-15.752249 10.788744 21.187257 28.520698 -0.600521 0.733444 0.008770 0.016513 -386376.000000 0 0 1
-16.168849 9.327744 20.902357 28.024043 -0.523258 0.728953 0.002933 0.010159 335579.000000 0 0 1
-17.545349 9.113744 21.143657 28.947432 -0.479078 0.751866 0.012507 0.012601 -273201.000000 0 0 1
-17.962249 7.885744 20.566057 28.421647 -0.413684 0.761785 0.014258 0.005958 1181730.000000 0 0 1
-19.525949 7.722744 20.762457 29.529359 -0.376631 0.791031 0.030300 0.001732 1117930.000000 0 0 1
-19.821549 7.665744 22.148157 30.695248 -0.369022 0.764758 0.029358 0.003607 326851.000000 0 0 1
-21.201949 7.979744 22.328857 31.808439 -0.359970 0.792624 0.015476 0.004129 438535.000000 0 0 1
-21.557349 8.472744 23.747987 33.173386 -0.374486 0.772920 0.012887 0.000721 -437926.000000 0 0 1
-21.386249 9.899744 23.996487 33.633435 -0.433532 0.776357 0.008588 0.001173 513807.000000 0 0 1
-20.103649 10.539744 23.907107 32.966538 -0.482875 0.759482 0.018686 0.011059 1244540.000000 0 0 1
-18.986849 10.040744 24.907767 32.889418 -0.486442 0.711599 0.028696 0.002749 250165.000000 0 0 1
-19.359549 10.411744 26.217877 34.213646 -0.493436 0.697736 0.030889 0.000413 -289126.000000 0 0 1
-18.399849 10.096744 27.162607 34.326460 -0.501876 0.657860 0.037851 -0.003969 -280834.000000 0 0 1
-30.194999 -14.417298 20.843357 39.421339 0.445464 1.013689 0.000617 -0.007057 155773.000000 0 0 1
-29.601409 -15.676198 21.083357 39.578966 0.487028 1.009019 0.004971 -0.000834 159180.000000 0 0 1
-30.288519 -16.702998 20.353957 40.133129 0.503966 1.038909 0.002334 0.004926 292543.000000 0 0 1
-30.092889 -16.756698 18.795557 39.238270 0.508074 1.071269 0.007782 0.000078 77614.900000 0 0 1
-30.628019 -15.633498 18.109157 38.864166 0.471958 1.086077 0.016277 -0.002538 31218.500000 0 0 1
-29.807869 -15.342698 16.986957 37.582764 0.475354 1.101804 0.015232 -0.001234 -1153730.000000 0 0 1
-30.274479 -14.091798 16.228357 37.127920 0.435642 1.118432 0.009095 0.001118 1344670.000000 0 0 1
-31.608819 -14.093498 15.613057 37.967245 0.419416 1.146999 0.021838 0.005229 1487830.000000 0 0 1
-32.735869 -14.245298 16.423057 39.297359 0.410444 1.139644 0.023161 0.002850 -986394.000000 0 0 1
-33.184659 -12.945698 17.136157 39.527972 0.371952 1.122401 0.007820 0.002606 -1828820.000000 0 0 1
-34.377661 -13.137198 17.754557 40.861153 0.365019 1.121303 -0.007832 0.001775 -1219940.000000 0 0 1
-34.855046 -11.918298 18.280857 41.123105 0.329476 1.110136 -0.003009 0.008243 475919.000000 0 0 1
35.237636 -12.077798 19.301257 41.953578 -0.330204 1.092731 0.010513 0.009150 261988.000000 0 0 1
-35.587111 -12.524698 20.602657 42.985811 0.338406 1.070951 0.007970 0.006547 -42276.500000 0 0 1
34.972795 -11.973898 21.675557 42.852075 -0.329868 1.040461 0.008359 0.001749 -738296.000000 0 0 1
35.598241 -12.384798 23.092057 44.202500 -0.334807 1.021115 0.002516 0.003333 133441.000000 0 0 1
-34.444259 -11.787498 23.450857 43.304674 0.329727 0.998538 -0.005841 0.005553 92791.700000 0 0 1
-33.325779 -12.440598 22.837957 42.272311 0.357282 1.000053 -0.005872 -0.001106 -252489.000000 0 0 1
-32.140339 -11.453298 22.717057 40.990781 0.342323 0.983396 0.008518 0.000348 -256948.000000 0 0 1
-32.380059 -10.291398 21.979657 40.465867 0.307735 0.996594 0.014595 0.000572 37025.000000 0 0 1
-31.303959 -9.365398 22.074157 39.432435 0.290701 0.976656 0.026218 0.000619 45329.100000 0 0 1
-31.425949 -8.051398 21.235057 38.772966 0.250807 0.991211 0.025005 -0.003240 -46822.100000 0 0 1
-31.532419 -8.179898 19.782257 38.112227 0.253818 1.025054 0.026150 -0.001562 974661.000000 0 0 1
-32.888669 -8.362898 19.339057 39.058952 0.249002 1.052818 0.018537 -0.002946 494700.000000 0 0 1
-33.083959 -8.234598 17.818057 38.468690 0.243943 1.089213 0.017576 -0.000462 -110925.000000 0 0 1
-34.451646 -8.338898 17.488557 39.525976 0.237479 1.112459 -0.020776 0.005630 10766.600000 0 0 1
-34.606117 -8.507098 16.100357 39.104674 0.241047 1.146451 -0.020954 0.000790 -344241.000000 0 0 1
35.208451 -8.698398 15.678357 39.510859 -0.242204 1.162756 -0.012913 -0.004375 -305101.000000 0 0 1
34.626805 -9.915498 16.053257 39.433992 -0.278890 1.151528 -0.016903 0.013317 1314000.000000 0 0 1
33.186045 -9.981198 15.854057 38.108910 -0.292158 1.141732 0.000205 0.006036 1372820.000000 0 0 1
32.580885 -11.386998 16.081557 38.076164 -0.336229 1.134757 0.008166 0.004420 -76949.600000 0 0 1
32.527945 -11.816698 17.426257 38.747593 -0.348455 1.104325 0.009258 -0.005002 653746.000000 0 0 1
31.406375 -12.709698 17.496257 38.131559 -0.384539 1.094108 0.026045 -0.008909 451179.000000 0 0 1
31.168455 -13.224198 18.959957 38.805050 -0.401262 1.060318 0.029414 -0.010368 -410793.000000 0 0 1
32.040535 -14.153298 19.551657 40.114573 -0.415956 1.061692 0.028828 -0.011945 -431952.000000 0 0 1
31.839945 -14.231998 20.953357 40.686300 -0.420344 1.029791 0.033446 -0.011133 -188927.000000 0 0 1
32.693725 -15.317598 21.654057 42.099960 -0.438146 1.030548 0.021573 -0.002283 91858.200000 0 0 1
32.750545 -15.144498 23.048957 42.815983 -0.433134 1.002347 0.016883 -0.003162 -257640.000000 0 0 1
33.393945 -16.245998 23.612757 44.007389 -0.452786 1.004437 0.012707 -0.001083 -66253.400000 0 0 1
33.869735 -16.002198 25.072997 45.076429 -0.441376 0.980950 0.022026 0.008738 -206016.000000 0 0 1
34.990225 -15.164098 25.008347 45.603543 -0.408948 0.990363 0.023781 0.007473 -276924.000000 0 0 1
35.414115 -14.774498 26.295637 46.517801 -0.395239 0.970022 0.021671 0.006756 -446813.000000 0 0 1
-34.646142 -13.827698 26.182747 45.575175 0.379741 0.958808 0.014458 -0.004859 676737.000000 0 0 1
-33.404049 -14.586498 26.008237 44.777503 0.411712 0.951045 -0.008369 0.001253 714088.000000 0 0 1
-32.373459 -13.632498 25.935237 43.663742 0.398564 0.934804 0.015805 -0.002984 -33809.300000 0 0 1
-30.957379 -14.224398 25.726767 42.691443 0.430712 0.924015 -0.010407 0.002685 -291058.000000 0 0 1
-30.809829 -14.772298 24.459407 42.020577 0.447087 0.949510 -0.005430 0.002835 666004.000000 0 0 1
-29.527579 -15.369698 24.200227 41.155273 0.479929 0.942185 -0.003825 -0.004249 662165.000000 0 0 1
-29.398549 -16.764398 24.753517 41.929182 0.518254 0.939285 -0.003305 0.001028 -770299.000000 0 0 1
-29.333019 -16.725298 26.175957 42.724025 0.518209 0.911355 -0.001967 -0.001002 41354.500000 0 0 1
-29.180519 -18.014098 26.660207 43.437047 0.553067 0.909974 0.003427 -0.011091 -290397.000000 0 0 1
-28.988449 -18.064798 28.214657 44.302753 0.557284 0.880378 0.010857 -0.017298 102044.000000 0 0 1
-27.694949 -17.642098 28.611607 43.553161 0.567193 0.854050 0.011705 -0.011153 49814.300000 0 0 1
-27.283459 -18.114898 29.894427 44.342005 0.586121 0.830944 0.017698 -0.016041 246467.000000 0 0 1
-26.084929 -17.268798 30.366837 43.597932 0.584780 0.800260 0.013315 -0.013375 -96562.700000 0 0 1
-26.401509 -15.886598 30.678087 43.480670 0.541691 0.787588 0.024864 -0.019025 -163957.000000 0 0 1
-25.354439 -14.993898 30.370137 42.308507 0.534051 0.770122 0.017125 -0.016744 -221342.000000 0 0 1
-25.450459 -13.660098 31.125387 42.463088 0.492600 0.748076 0.031607 -0.009665 55523.900000 0 0 1
-24.915849 -13.686998 32.435557 43.130022 0.502328 0.719643 0.035924 -0.010961 102959.000000 0 0 1
-24.597149 -12.374798 32.877911 42.884873 0.466124 0.697181 0.038844 -0.003869 -550681.000000 0 0 1
-23.891049 -12.308298 34.236473 43.524849 0.475721 0.665520 0.045962 -0.008135 1083650.000000 0 0 1
-22.481949 -12.651298 34.257220 42.884152 0.512565 0.645446 0.025833 -0.014175 1145430.000000 0 0 1
-22.080349 -14.004598 34.059172 42.938302 0.565228 0.654731 0.029228 -0.011121 -574504.000000 0 0 1
-21.982249 -14.798098 -33.448304 42.673083 0.592501 2.471601 0.025621 -0.015419 -50630.500000 0 0 1
-20.899749 -14.452498 -32.581384 41.318528 0.605009 2.479230 0.018757 -0.013159 301839.000000 0 0 1
-20.924849 -15.240598 -31.373414 40.674516 0.629500 2.451722 0.030897 -0.010202 -244006.000000 0 0 1
-19.554549 -15.261098 -30.678804 39.452129 0.662698 2.461669 0.036052 -0.012158 -51517.100000 0 0 1
-19.234549 -14.188498 -29.797424 38.199055 0.635555 2.465553 0.023142 -0.007873 243819.000000 0 0 1
-19.843549 -14.382798 -28.511534 37.597059 0.627184 2.431566 0.029518 -0.011449 8325.580000 0 0 1
-19.651249 -13.222298 -27.526304 36.313884 0.592270 2.431054 0.037699 -0.016980 -380917.000000 0 0 1
-18.351149 -13.099598 -27.018634 35.190492 0.619948 2.446169 0.030102 -0.016602 -519373.000000 0 0 1
-18.223249 -11.910898 -26.203314 34.067139 0.578909 2.448333 0.028917 -0.014955 1183330.000000 0 0 1
-16.913649 -11.743398 -25.314904 32.631630 0.606900 2.458744 0.049653 -0.019885 846440.000000 0 0 1
-16.977249 -12.610998 -24.170544 32.116654 0.638888 2.422777 0.062732 -0.026201 940040.000000 0 0 1
-15.690349 -12.740198 -23.537644 31.024513 0.682001 2.432079 0.064272 -0.024008 1650170.000000 0 0 1
-14.541049 -13.648998 -24.169044 31.334964 0.753765 2.451697 0.040234 -0.021303 548594.000000 0 0 1
-13.729649 -12.926998 -25.080134 31.378713 0.755297 2.496880 0.046762 -0.029397 -160694.000000 0 0 1
-13.118149 -13.817598 -25.947724 32.191555 0.811360 2.508229 0.041227 -0.026539 11121.700000 0 0 1
-12.124549 -13.147098 -26.978834 32.368323 0.825838 2.556200 0.032714 -0.024815 257318.000000 0 0 1
-12.752149 -12.300698 -27.947994 33.091008 0.767380 2.576576 0.051595 -0.034267 -357515.000000 0 0 1
-11.891649 -11.626698 -28.802954 33.259609 0.774133 2.617951 0.047708 -0.031222 -325045.000000 0 0 1
-12.636849 -10.639398 -29.742244 34.021873 0.699793 2.634602 0.026172 -0.026884 15584.400000 0 0 1
-11.754449 -9.846198 -30.483454 34.122656 0.697285 2.675541 0.027669 -0.024143 -128470.000000 0 0 1
-11.314049 -10.339598 -31.717504 35.226624 0.740427 2.691449 0.036597 -0.023297 -312654.000000 0 0 1
-10.567449 -9.233098 -32.432084 35.337815 0.718110 2.733231 0.026128 -0.018245 133232.000000 0 0 1
-9.226249 -9.080698 -31.963364 34.485350 0.777448 2.756778 0.013978 -0.020423 62315.600000 0 0 1
-8.835649 -7.822598 -32.449784 34.528976 0.724659 2.792794 0.010936 -0.019243 -852924.000000 0 0 1
-7.349449 -7.628398 -32.181034 33.879578 0.804020 2.823601 0.015420 -0.020547 -764089.000000 0 0 1
-6.973249 -7.526398 -30.806854 32.470527 0.823529 2.820096 0.001780 -0.011071 -78332.800000 0 0 1
-7.246649 -6.292998 -30.203584 31.691832 0.715080 2.833917 0.011853 -0.013614 -379082.000000 0 0 1
-6.547349 -4.979398 -30.689924 31.773159 0.650201 2.879721 0.009615 -0.017739 852685.000000 0 0 1
-5.132949 -4.868798 -30.482334 31.292572 0.758994 2.913536 0.014086 -0.018263 711321.000000 0 0 1
-4.563349 -3.670998 -30.964184 31.513189 0.677450 2.954658 0.026707 -0.023298 -116274.000000 0 0 1
-3.086949 -3.575898 -30.534044 30.897316 0.858651 2.988097 0.016822 -0.013108 -507816.000000 0 0 1
-2.285449 -4.259398 -31.486714 31.855594 1.078326 2.989263 0.015830 -0.013371 153185.000000 0 0 1
-0.875849 -4.212298 -31.387064 31.680567 1.365791 3.005366 0.024178 -0.003811 806153.000000 0 0 1
-0.099149 -2.853598 -31.429644 31.559077 1.536065 3.050993 0.016098 -0.003446 -411360.000000 0 0 1
-0.200449 -2.127598 -30.232744 30.308178 1.476860 3.071024 0.008422 -0.014988 661043.000000 0 0 1
0.728851 -0.994898 -30.238734 30.263874 -0.938532 3.100830 0.018431 -0.002584 660240.000000 0 0 1
0.870351 -0.333898 -28.902614 28.917643 -0.366321 3.109351 0.020058 -0.009138 -101163.000000 0 0 1
-0.150649 0.536902 -28.471824 28.477284 -1.297241 3.122010 0.025794 -0.010719 -271356.000000 0 0 1
0.069051 1.890302 -28.907494 28.969315 1.534283 3.076251 0.032381 -0.012996 -823250.000000 0 0 1
-0.956249 2.881202 -28.476084 28.637442 -1.250343 3.035387 0.018541 -0.004688 -863012.000000 0 0 1
-2.115449 2.851102 -29.228294 29.443116 -0.932450 3.020720 0.011926 -0.014021 78343.000000 0 0 1
-3.317349 3.349302 -28.624044 29.009628 -0.790191 2.978368 0.038904 -0.014739 959064.000000 0 0 1
-4.485449 3.526302 -29.606614 30.151379 -0.666248 2.951212 0.056260 -0.018855 -144760.000000 0 0 1
-4.088749 4.387102 -30.648874 31.230081 -0.820584 2.948365 0.063039 -0.016927 640028.000000 0 0 1
-5.159349 4.723102 -31.535724 32.302143 -0.741283 2.923322 0.067894 -0.008993 73069.200000 0 0 1
-4.589149 5.445102 -32.782364 33.546875 -0.870495 2.927694 0.073470 -0.007143 -83146.500000 0 0 1
-4.219349 4.721802 -33.922844 34.508805 -0.841535 2.957048 0.068696 -0.016522 -84517.900000 0 0 1
-3.031949 3.988602 -33.819964 34.189057 -0.920829 2.994520 0.067222 -0.015804 -703674.000000 0 0 1
-2.508849 3.383502 33.654776 33.917346 -0.932761 0.124511 0.061395 -0.012573 -147881.000000 0 0 1
-3.320649 2.334902 33.148256 33.395888 -0.612834 0.121854 0.051104 -0.021139 264952.000000 0 0 1
-2.917449 1.803402 31.868517 32.052552 -0.553653 0.107212 0.046610 -0.017729 -14624.600000 0 0 1
-2.614249 2.914502 30.734487 30.982855 -0.839652 0.126705 0.054835 -0.016293 -133333.000000 0 0 1
-3.791749 3.646702 30.440457 30.891701 -0.765901 0.171132 0.044494 -0.007977 129003.000000 0 0 1
-3.656349 4.661302 29.397277 29.988273 -0.905637 0.198860 0.041508 -0.007263 427535.000000 0 0 1
-5.031449 5.291302 28.999657 29.904739 -0.810566 0.246655 0.038882 0.001034 481232.000000 0 0 1
-5.060549 5.912202 27.754807 28.825207 -0.862858 0.273373 0.037687 0.006757 23845.400000 0 0 1
-6.213649 6.713102 27.494467 28.976212 -0.824016 0.321181 0.024463 0.012332 -217974.000000 0 0 1
-6.130749 7.429102 26.165197 27.881807 -0.880857 0.352731 0.023578 0.014859 -12372.700000 0 0 1
-5.202949 8.501802 26.231927 28.061812 -1.021613 0.363126 0.040603 -0.002231 188383.000000 0 0 1
-5.098149 9.229702 25.069137 27.196326 -1.066140 0.398139 0.039399 -0.000907 94566.000000 0 0 1
-4.543249 10.700402 25.245177 27.793140 -1.169276 0.431537 0.056805 -0.011246 -443571.000000 0 0 1
-4.590549 11.493402 24.061757 27.058077 -1.190801 0.475064 0.070652 -0.017120 60397.400000 0 0 1
-4.165549 12.827602 24.244027 27.742963 -1.256806 0.507669 0.062648 -0.010654 -1320220.000000 0 0 1
-2.664649 13.094102 24.333467 27.761006 -1.370038 0.502183 0.058844 -0.011150 -706640.000000 0 0 1
-2.009349 12.524902 25.456257 28.441724 -1.411723 0.462293 0.078932 -0.015470 -295854.000000 0 0 1
-2.285549 13.052002 26.732867 29.836632 -1.397443 0.460175 0.073771 -0.018555 -543121.000000 0 0 1
-1.415349 12.576702 27.959797 30.690827 -1.458730 0.425058 0.061675 -0.012915 1043620.000000 0 0 1
-0.058349 13.027602 27.866257 30.761178 -1.566317 0.437319 0.061773 -0.012435 292098.000000 0 0 1
0.701551 12.672402 28.999397 31.655125 1.515492 0.412543 0.049132 -0.013924 -506603.000000 0 0 1
2.205251 12.783802 28.869667 31.650377 1.399974 0.422314 0.043627 -0.006854 -325891.000000 0 0 1
2.803151 14.079702 28.654067 32.049199 1.374274 0.464457 0.040984 -0.008157 -119703.000000 0 0 1
4.167251 14.022202 28.332457 31.885988 1.281920 0.476610 0.028554 -0.002205 -178684.000000 0 0 1
4.878251 15.351502 28.713167 32.922817 1.263117 0.511246 0.029283 -0.002088 -212748.000000 0 0 1
4.713751 15.729002 30.086917 34.275990 1.279628 0.499580 0.031642 0.007641 976972.000000 0 0 1
3.666151 16.703002 30.349517 34.835673 1.354732 0.513115 0.015507 0.007351 540684.000000 0 0 1
3.934451 18.133702 29.817817 35.119983 1.357139 0.556655 0.027627 0.007466 -693338.000000 0 0 1
4.903951 18.850002 30.484967 36.176021 1.316282 0.568547 0.044356 0.008546 -374331.000000 0 0 1
5.165851 19.957802 29.688207 36.144010 1.317516 0.606958 0.030628 0.006788 -384487.000000 0 0 1
6.322051 20.845602 30.157577 37.201974 1.276333 0.625544 0.035450 0.005685 -475866.000000 0 0 1
6.117451 21.701002 31.274787 38.554753 1.296029 0.624632 0.035458 -0.013026 -359106.000000 0 0 1
7.182251 22.542002 31.573137 39.453638 1.262349 0.643069 0.002592 -0.006909 -797823.000000 0 0 1
7.270951 23.966802 30.877427 39.757890 1.276245 0.681488 -0.003525 0.001263 -285638.000000 0 0 1
7.700251 23.978802 29.537617 38.816847 1.260071 0.706023 -0.011334 0.002277 219618.000000 0 0 1
7.711451 25.283902 29.030127 39.261819 1.274764 0.738620 -0.012428 0.005549 -119283.000000 0 0 1
8.279051 25.264902 27.599997 38.322549 1.254133 0.766702 0.004455 -0.002095 -171731.000000 0 0 1
7.544751 24.518402 26.668767 37.004032 1.272274 0.765986 0.013371 -0.009979 276066.000000 0 0 1
8.184851 24.790702 25.449047 36.458533 1.251906 0.798158 0.025280 -0.015767 -91329.000000 0 0 1
27.782725 2.461502 6.483256 28.635143 0.088368 1.342407 0.056461 -0.006488 19686.400000 0 0 1
28.481875 2.911002 7.612856 29.625102 0.101852 1.310907 0.049816 -0.004606 435802.000000 0 0 1
27.654685 2.663002 8.744856 29.126374 0.095999 1.265854 0.032907 0.001547 -409672.000000 0 0 1
28.086045 3.223002 10.113056 30.024782 0.114255 1.227255 0.020656 -0.001001 -323592.000000 0 0 1
28.104505 4.658502 10.245756 30.274417 0.164263 1.225549 0.022471 -0.009486 520278.000000 0 0 1
29.129705 5.357502 9.524756 31.112112 0.181886 1.259657 0.040681 -0.017628 6832.100000 0 0 1
28.891805 6.836002 9.455656 31.158895 0.232334 1.262469 0.040367 -0.018317 295485.000000 0 0 1
27.735935 7.156602 8.669156 29.927467 0.252518 1.276912 0.056329 -0.010581 525199.000000 0 0 1
27.573435 8.573602 8.487456 30.097140 0.301460 1.284916 0.072458 -0.019349 74970.700000 0 0 1
27.132355 8.853102 7.044056 29.396612 0.315401 1.328820 0.068620 -0.016734 1106940.000000 0 0 1
25.697435 8.921902 6.867556 28.055691 0.334170 1.323500 0.048040 -0.015078 1138060.000000 0 0 1
25.432535 9.152802 5.466956 27.576715 0.345454 1.371229 0.055946 -0.021359 -409505.000000 0 0 1
23.966435 9.555102 5.325856 26.344918 0.379374 1.367235 0.020327 -0.022099 -336318.000000 0 0 1
23.642335 10.885702 5.824256 26.671716 0.431496 1.350654 0.005486 -0.002895 163101.000000 0 0 1
22.286035 11.259002 5.693756 25.609594 0.467802 1.346594 -0.000072 -0.012349 -27074.700000 0 0 1
21.854735 12.642702 6.236756 26.007008 0.524452 1.328626 -0.002483 -0.005403 -519541.000000 0 0 1
22.080735 13.729002 5.367756 26.549146 0.556269 1.367211 0.001643 0.000690 356177.000000 0 0 1
21.901135 14.951802 6.077756 27.205793 0.599017 1.345496 0.034621 -0.011246 -189184.000000 0 0 1
21.716735 16.223102 5.189956 27.599660 0.641599 1.381626 0.036634 -0.008496 -387229.000000 0 0 1
20.503435 16.185002 4.486656 26.504248 0.668232 1.400697 0.052775 -0.014696 203004.000000 0 0 1
20.445735 17.339702 3.714756 27.064603 0.703381 1.433107 0.045057 -0.014300 -556995.000000 0 0 1
19.096235 17.420502 2.999956 26.021910 0.739541 1.455254 0.041073 -0.012936 -393301.000000 0 0 1
18.136035 17.996502 3.845156 25.837474 0.781536 1.421421 0.034601 -0.011800 -59545.600000 0 0 1
16.844935 18.161902 3.290156 24.988630 0.823001 1.438747 0.039815 -0.011567 110521.000000 0 1 0
16.119035 19.382402 3.913956 25.511170 0.877063 1.416767 0.031863 -0.009484 -1866660.000000 0 0 1
14.775735 19.163202 3.932356 24.515588 0.913960 1.409698 0.030456 -0.013464 -1447410.000000 0 1 0
14.099635 20.383002 4.024556 25.109032 0.965639 1.409819 0.028445 -0.013042 -620888.000000 0 0 1
12.589635 20.423502 3.851256 24.299187 1.018384 1.411632 0.022688 -0.005458 -647276.000000 0 1 0
11.890335 19.631002 4.748556 23.437258 1.026202 1.366777 0.013065 -0.005076 -248242.000000 0 1 0
10.516235 19.558102 4.405856 22.638951 1.077452 1.374932 0.014551 0.001222 188000.000000 0 1 0
9.835335 18.830602 5.613256 21.973484 1.089464 1.312477 0.022251 -0.008810 -266122.000000 0 1 0
9.521135 19.717102 6.682356 22.892575 1.120932 1.274583 0.016925 -0.005715 -108982.000000 0 1 0
9.138335 19.100302 7.876756 22.591458 1.124546 1.214654 0.023193 -0.004173 -1116610.000000 0 1 0
8.148035 19.830802 8.759356 23.159825 1.180948 1.182931 0.004861 -0.007892 -214759.000000 0 1 0
6.868735 19.843002 8.148156 22.523691 1.237552 1.200642 0.009602 -0.016637 -35892.800000 0 1 0
6.673335 21.001302 7.310656 23.217100 1.263128 1.250464 0.005374 -0.014806 -1382490.000000 0 1 0
5.307135 21.007002 6.628356 22.658219 1.323338 1.273918 0.016362 -0.017775 -560280.000000 0 1 0
4.180335 21.229402 7.440556 22.880659 1.376371 1.239584 0.024843 -0.016812 -87734.200000 0 1 0
4.025535 22.621002 7.979656 24.322614 1.394684 1.236531 0.014809 -0.013304 -689878.000000 0 1 0
4.023235 23.828502 7.048956 25.172836 1.403533 1.286979 0.005225 -0.009868 -318435.000000 0 0 1
2.824435 23.979802 6.301956 24.954418 1.453553 1.315493 0.022889 -0.014215 161978.000000 0 1 0
2.814235 25.195102 5.568356 25.956110 1.459560 1.354586 0.014449 -0.002692 875911.000000 0 0 1
1.572035 25.501202 4.603456 25.961017 1.509229 1.392532 0.018363 -0.002341 1429650.000000 0 0 1
0.375735 25.831502 5.309156 26.374131 1.556252 1.368110 0.030009 -0.012076 536889.000000 0 0 1
-0.730465 25.929402 4.410556 26.311983 -1.542632 1.402376 0.044523 -0.011670 40540.400000 0 0 1
-1.856765 26.812002 4.903456 27.319862 -1.501655 1.390335 0.038841 -0.015930 -967173.000000 0 0 1
-2.847265 27.016902 3.963756 27.454166 -1.465796 1.425913 0.044594 -0.020962 -794849.000000 0 0 1
-3.950965 27.575802 4.623956 28.238554 -1.428488 1.406309 0.036942 -0.016977 -548678.000000 0 0 1
-4.999265 28.093302 3.619456 28.763288 -1.394688 1.444626 0.041989 -0.022089 -49060.600000 0 0 1
-4.544265 29.264602 2.944856 29.761375 -1.416745 1.471685 0.037143 -0.019310 45859.400000 0 0 1
-5.410465 29.576802 1.913656 30.128432 -1.389867 1.507237 0.041216 -0.019732 -553833.000000 0 0 1
-4.870765 30.741602 1.034856 31.142276 -1.413660 1.537560 0.043323 -0.007355 -197375.000000 0 0 1
-4.606365 32.032202 1.587956 32.400650 -1.427971 1.521767 0.039644 -0.001639 91197.500000 0 0 1
-3.421165 31.993602 2.347356 32.261509 -1.464268 1.497972 0.035069 -0.013129 -904210.000000 0 0 1
-2.631065 33.318802 2.258056 33.498714 -1.491993 1.503338 0.034624 -0.013748 -1091340.000000 0 0 1
-1.761765 33.271802 1.184156 33.339448 -1.517895 1.535271 0.027450 0.000435 274589.000000 0 0 1
-0.861565 34.404802 1.018156 34.430645 -1.545760 1.541221 0.018504 -0.004070 1175850.000000 0 0 1
0.397335 34.367302 1.962156 34.425562 1.559235 1.513768 0.010616 -0.001670 -7195.950000 0 0 1
0.101235 -34.408356 3.348156 34.571019 -1.567854 1.473796 0.000888 0.001252 915647.000000 0 0 1
1.356635 34.347602 4.065256 34.613935 1.531320 1.453079 -0.003514 0.002773 1122880.000000 0 0 1
1.249935 -34.239356 5.598456 34.716545 -1.534307 1.408827 -0.008196 -0.001685 -372897.000000 0 0 1
0.325335 33.754502 6.170156 34.315347 1.561158 1.390006 0.002447 -0.003452 -374385.000000 0 0 1
0.088835 33.963302 7.541556 34.790643 1.568181 1.352292 0.014398 -0.021369 15412.200000 0 0 1
1.165935 33.392802 8.482156 34.472969 1.535895 1.322191 0.001653 -0.012656 -351651.000000 0 0 1
1.358035 32.044502 8.583356 33.201933 1.528442 1.309307 -0.000463 -0.017308 655870.000000 0 0 1
2.528635 31.869802 9.414156 33.327235 1.491620 1.284422 0.006604 -0.010996 511563.000000 0 0 1
3.010435 30.439102 9.562056 32.047380 1.472217 1.267809 0.003955 -0.008486 -411787.000000 0 0 1
2.122735 29.582202 10.197856 31.362540 1.499162 1.239615 0.013430 -0.020966 -254254.000000 0 0 1
2.733735 28.348702 10.340956 30.299465 1.474661 1.222506 0.014836 -0.020158 -741143.000000 0 0 1
2.110735 27.476402 11.427856 29.832930 1.494127 1.177688 0.012152 -0.024739 -461320.000000 0 0 1
2.707735 27.874102 12.661256 30.734423 1.473959 1.146196 0.016514 -0.017866 76901.500000 0 0 1
2.527735 27.051002 13.837856 30.489874 1.477624 1.099714 0.017011 -0.010239 700091.000000 0 0 1
1.028535 26.763202 14.298056 30.360521 1.532384 1.080438 0.007238 -0.015696 1099140.000000 0 0 1
0.368535 27.844802 14.942856 31.603129 1.557562 1.078298 0.007018 -0.018802 174921.000000 0 0 1
-0.083265 28.850402 14.012256 32.073290 -1.567910 1.118666 0.011701 -0.025421 -880895.000000 0 0 1
-0.722865 30.021702 14.731556 33.449123 -1.546723 1.114733 -0.007433 -0.018821 445560.000000 0 0 1
-2.050965 29.751002 15.199056 33.471478 -1.501968 1.099446 -0.017685 -0.012680 466773.000000 0 0 1
-2.643865 30.926602 15.659656 34.765925 -1.485515 1.103548 -0.023650 -0.001598 -1096200.000000 0 0 1
-3.977365 30.622402 16.290956 34.913410 -1.441635 1.085342 -0.026289 0.011137 -1112530.000000 0 0 1
-4.937165 30.206202 15.355156 34.242825 -1.408780 1.105800 -0.012796 -0.000838 1006100.000000 0 0 1
-6.203065 30.015002 16.065056 34.604398 -1.367000 1.088010 0.007021 0.000944 246736.000000 0 0 1
-7.273065 29.416502 15.185756 33.894472 -1.328413 1.106235 0.004084 -0.009555 -832396.000000 0 0 1
-8.426565 29.184802 15.950556 34.310055 -1.289710 1.087281 0.015442 -0.005120 -1020880.000000 0 0 1
-9.269465 28.309102 15.298456 33.486878 -1.254361 1.096346 0.025893 -0.007905 -271795.000000 0 0 1
-10.440465 27.861902 16.213956 33.884823 -1.212269 1.071848 0.030528 -0.008280 -365528.000000 0 0 1
-11.284665 28.875102 16.676556 35.202595 -1.198238 1.077274 0.034499 -0.016222 16039.400000 0 0 1
-10.804065 29.737902 17.726856 36.267231 -1.222314 1.060101 0.037954 -0.018572 -555881.000000 0 0 1
-11.770665 30.888602 18.102156 37.687429 -1.206716 1.069773 0.054160 -0.015585 -185682.000000 0 0 1
-12.784965 30.508902 18.993656 38.144559 -1.173970 1.049576 0.049148 -0.012568 -522415.000000 0 0 1
-13.825765 31.424802 18.980556 39.229217 -1.156320 1.065762 0.076864 -0.019536 -382980.000000 0 0 1
-14.944865 31.138502 19.996456 39.910068 -1.123319 1.045999 0.075220 -0.020625 55084.800000 0 0 1
-14.490565 31.104802 21.343656 40.410850 -1.134830 1.014356 0.068672 -0.018957 -607817.000000 0 0 1
-15.497965 30.653202 22.157156 40.874751 -1.102686 0.997893 0.057581 -0.014240 -631426.000000 0 0 1
-15.052565 30.552902 23.609556 41.442378 -1.113028 0.964660 0.054749 -0.005527 78354.000000 0 0 1
-14.057565 29.510702 23.781656 40.423555 -1.126243 0.941827 0.037152 -0.004635 774821.000000 0 0 1
-13.578265 29.329602 25.093556 40.917984 -1.137222 0.910609 0.057522 -0.005398 -23784.700000 0 0 1
-12.829365 30.451002 25.832856 41.942730 -1.172054 0.907259 0.052768 -0.004186 -540546.000000 0 0 1
-13.687265 31.473202 26.314256 43.247471 -1.160582 0.916681 0.043501 -0.004671 373934.000000 0 0 1
-13.034865 32.452602 27.099056 44.242942 -1.188861 0.911570 0.039239 -0.007405 19496.600000 0 0 1
-14.014865 33.533302 27.715156 45.705893 -1.174922 0.919296 0.043984 -0.012976 602449.000000 0 0 1
-14.874965 33.084402 28.774856 46.301561 -1.148270 0.900183 0.019810 -0.013220 390717.000000 0 0 1
-14.238665 33.055102 30.010956 46.861891 -1.164061 0.875761 0.034202 -0.011341 -363666.000000 0 0 1
-15.073165 32.419902 31.143456 47.414820 -1.135592 0.854190 0.014473 -0.007211 -31715.200000 0 0 1
-16.257665 33.113502 31.487256 48.500134 -1.114400 0.864238 0.010511 -0.005490 -382196.000000 0 0 1
-16.809165 32.456702 32.576756 48.961521 -1.092935 0.842828 -0.006912 -0.001985 -24949.600000 0 0 1
-18.218165 32.949802 32.974156 50.048836 -1.065724 0.851521 0.002384 -0.006354 -150575.000000 0 0 1
-18.301765 34.291602 33.370956 51.229769 -1.080546 0.861371 0.019300 -0.006798 -555271.000000 0 0 1
-19.614865 -34.227156 33.719456 51.896463 1.050407 0.863548 0.020266 -0.013693 -324147.000000 0 0 1
-19.911665 -32.727056 33.895556 51.151181 1.024212 0.846439 0.038916 -0.009371 -228204.000000 0 0 1
-19.494365 -32.190956 -33.710244 50.523940 1.026280 2.301258 0.034595 0.002037 26332.900000 0 0 1
-20.340165 -32.513756 -32.607944 50.340289 1.011775 2.275424 0.038172 -0.002299 141421.000000 0 0 1
-20.030165 -31.692056 -31.343244 48.867094 1.007161 2.267115 0.036973 0.001537 -124822.000000 0 0 1
-20.217665 -30.298556 -31.555244 48.192218 0.982368 2.284686 0.056657 0.000448 34785.200000 0 0 1
-19.422765 -29.537056 -30.647144 46.785991 0.989116 2.285045 0.056160 0.000886 212212.000000 0 0 1
-19.618865 -28.023756 -30.807244 46.036041 0.960017 2.303926 0.052709 -0.001043 157418.000000 0 0 1
-20.835065 -27.593456 -30.228844 45.926918 0.924057 2.289214 0.069547 -0.005914 -154172.000000 0 0 1
-21.150265 -26.232656 -30.461944 45.424839 0.892252 2.305815 0.062933 -0.004712 44299.600000 0 0 1
-22.557165 -25.980556 -29.873444 45.565751 0.855812 2.285789 0.064468 -0.010112 -19589.400000 0 0 1
-22.671765 -26.195356 -28.434744 44.818972 0.857379 2.258074 0.057008 -0.008707 470553.000000 0 0 1
-21.882365 -25.270456 -27.632444 43.370333 0.857128 2.261562 0.055111 -0.012747 256657.000000 0 0 1
-21.736565 -25.741856 -26.182844 42.669225 0.869559 2.231438 0.053047 -0.011057 -1177130.000000 0 0 1
-22.898965 -25.464256 -25.544444 42.723642 0.838391 2.211674 0.047193 -0.007781 -1074440.000000 0 0 1
-22.888865 -25.849156 -24.179444 42.151210 0.846062 2.181734 0.047239 -0.004435 689821.000000 0 0 1
-24.298565 -25.562456 -23.463644 42.360383 0.810741 2.157844 0.037274 0.002450 1497910.000000 0 0 1
-25.380865 -26.398156 -23.800944 43.675347 0.805042 2.147128 0.023507 0.003364 -259107.000000 0 0 1
-25.216065 -27.786456 -23.606244 44.330484 0.833856 2.132355 0.029076 0.007796 -1115600.000000 0 0 1
-26.529965 -28.611156 -23.671044 45.637218 0.823123 2.116101 0.005180 0.014902 336271.000000 0 0 1
-27.368265 -28.397456 -22.574544 45.442794 0.803852 2.090668 0.004650 0.024249 -73087.500000 0 0 1
-28.394665 -27.428156 -22.783244 45.581103 0.768086 2.094210 0.011721 0.021417 -37202.300000 0 0 1
-29.008465 -26.943656 -21.452544 45.029583 0.748512 2.067363 0.010410 0.025413 113199.000000 0 0 1
-29.777765 -27.927756 -20.748244 45.794809 0.753350 2.041002 0.001289 0.035356 240547.000000 0 0 1
-30.147865 -27.413356 -19.466144 45.158794 0.737928 2.016463 0.000781 0.032736 -859273.000000 0 0 1
-31.259465 -28.239956 -18.859544 46.155516 0.734693 1.991725 0.001154 0.026011 -651634.000000 0 0 1
-32.536665 -28.252956 -19.465344 47.283863 0.715047 1.995082 -0.000456 0.023801 468565.000000 0 0 1
-33.395065 -27.147856 -19.143944 47.103366 0.682576 1.989333 -0.007564 0.028345 -45650.600000 0 0 1
-34.032165 -27.078456 -17.734444 46.967452 0.672097 1.957989 0.002771 0.025263 -604076.000000 0 0 1
-33.136365 -26.610456 -16.762044 45.684803 0.676603 1.946478 -0.004539 0.031473 298517.000000 0 0 1
-33.827165 -26.113356 -15.600244 45.492330 0.657411 1.920820 -0.000693 0.024921 83410.200000 0 0 1
-33.447965 -26.763756 -14.256244 45.147597 0.674839 1.892064 0.031122 0.018448 -86162.800000 0 0 1
-33.977665 -28.077156 -14.123444 46.284772 0.690598 1.880884 0.025186 0.013451 277169.000000 0 0 1
-33.630765 -28.612956 -12.880144 45.995953 0.704957 1.854619 0.005668 0.004013 208859.000000 0 0 1
-34.295365 -30.046356 -12.734344 47.340459 0.719456 1.843146 0.011191 0.008213 12282.300000 0 0 1
-33.798165 -30.957856 -13.618044 47.813763 0.741565 1.859609 0.004151 0.004558 -12949.900000 0 0 1
-34.241765 -32.290856 -13.421644 48.942194 0.756084 1.848590 0.002757 -0.004352 -129352.000000 0 0 1
-33.604465 -33.242956 -14.495544 49.441632 0.779990 1.868353 -0.002038 0.018011 -562574.000000 0 0 1
-32.321765 -33.670856 -14.160644 48.774449 0.805838 1.865367 0.003609 0.010645 -748239.000000 0 0 1
-31.812765 -34.171556 -15.368244 49.152113 0.821131 1.888796 0.015780 -0.005606 22922.900000 0 0 1
-30.299165 34.354402 -15.294444 48.292695 -0.848039 1.893048 0.014761 -0.008893 361330.000000 0 0 1
-29.750165 33.882902 -16.510044 48.017756 -0.850253 1.921791 0.028046 -0.003019 -1582310.000000 0 0 1
-28.559165 33.255902 -16.315644 46.773723 -0.861233 1.927109 0.014587 -0.007072 -1345510.000000 0 0 1
9.219151 20.418902 -8.606244 23.999827 1.146695 1.937560 0.036245 -0.006361 -354265.000000 0 1 0
7.865351 20.433602 -8.996344 23.671291 1.203355 1.960650 0.040264 -0.012064 -58227.100000 0 1 0
7.527351 20.351402 -10.384644 24.055797 1.216532 2.017162 0.046494 -0.018777 76684.800000 0 1 0
7.491451 18.996402 -11.133144 23.257945 1.195160 2.069948 0.038506 -0.013804 -640906.000000 0 1 0
8.713351 18.400002 -11.395844 23.331262 1.128530 2.081094 0.039434 -0.017993 -703568.000000 0 1 0
8.480851 17.315202 -12.291544 22.865325 1.115348 2.138340 0.035304 -0.024041 -481262.000000 0 1 0
9.770951 16.622802 -12.724744 23.102124 1.039393 2.154124 0.044953 -0.028442 -301605.000000 0 1 0
9.599251 15.693702 -13.784144 22.987834 1.021845 2.213832 0.043895 -0.029083 -114644.000000 0 1 0
10.825351 15.412802 -14.417144 23.719121 0.958488 2.224119 0.049481 -0.030049 -463541.000000 0 1 0
10.744651 14.128102 -15.309544 23.439985 0.920599 2.282517 0.046907 -0.035857 -303776.000000 0 1 0
10.860051 12.879802 -14.607744 22.298345 0.870272 2.285117 0.062443 -0.039513 628923.000000 0 1 0
12.162351 12.402102 -14.282344 22.488225 0.795158 2.258938 0.074751 -0.031950 35807.200000 0 1 0
13.003651 11.645602 -15.326244 23.229480 0.730359 2.291316 0.071276 -0.033598 -206395.000000 0 1 0
13.527751 12.561302 -16.294244 24.622931 0.748371 2.293948 0.051937 -0.024429 447490.000000 0 1 0
14.474351 11.938002 -17.154344 25.422318 0.689663 2.311456 0.049238 -0.026562 -71882.400000 0 0 1
14.985751 12.822502 -18.300144 26.905103 0.707763 2.318796 0.031055 -0.021312 -605039.000000 0 0 1
15.914951 13.740602 -17.862144 27.588874 0.712209 2.275017 0.013092 -0.012151 -878997.000000 0 0 1
16.668151 14.300002 -18.853144 28.944055 0.709076 2.280178 0.012861 -0.011846 -640690.000000 0 0 1
17.769851 15.227302 -18.307444 29.711964 0.708497 2.234659 0.010742 -0.005921 -567021.000000 0 0 1
17.407951 16.528002 -17.715744 29.833860 0.759474 2.206586 0.014676 -0.010009 140326.000000 0 0 1
16.959951 17.458302 -18.687544 30.686423 0.799876 2.225576 0.030016 -0.006636 -202501.000000 0 0 1
16.856751 18.843002 -18.058844 31.069770 0.840979 2.191042 0.031804 -0.003496 184375.000000 0 0 1
18.035751 19.628602 -18.140044 32.243317 0.827664 2.168322 0.029177 -0.007926 141384.000000 0 0 1
17.788151 20.954002 -17.667044 32.674347 0.866933 2.142066 0.028491 -0.003571 -96031.800000 0 0 1
18.880251 21.986002 -18.035844 34.134144 0.861250 2.127489 0.030882 -0.009687 398418.000000 0 0 1
19.994651 22.056702 -17.144944 34.354523 0.834395 2.093309 0.027982 -0.013042 -154748.000000 0 0 1
19.770451 22.754302 -15.907544 34.083411 0.855451 2.056379 0.026498 -0.009080 -265437.000000 0 0 1
20.998651 23.358602 -15.182744 34.886721 0.838551 2.021058 0.015344 -0.013516 -313359.000000 0 0 1
21.695651 22.465502 -14.342244 34.367135 0.802829 2.001295 0.024774 -0.010448 -361428.000000 0 0 1
22.562851 23.144802 -13.476344 35.019651 0.798129 1.965812 0.019550 -0.012652 316369.000000 0 0 1
24.042851 23.160502 -13.961944 36.185679 0.766708 1.966916 0.025960 -0.013933 -135144.000000 0 0 1
24.218751 23.687902 -15.194944 37.128842 0.774318 1.992427 0.026184 -0.014812 342304.000000 0 0 1
25.496551 24.308102 -15.307744 38.409438 0.761540 1.980722 0.023954 -0.012643 71011.600000 0 0 1
25.607651 24.761902 -16.780944 39.376435 0.768609 2.011048 0.023315 -0.014520 -354759.000000 0 0 1
26.282751 23.896702 -17.632244 39.657677 0.737884 2.031536 0.020735 -0.013669 69379.300000 0 0 1
26.529151 24.490402 -18.915744 40.760042 0.745459 2.053387 0.026826 -0.013053 -636188.000000 0 0 1
26.861251 23.408502 -19.979244 40.849173 0.716821 2.081852 0.021541 -0.015166 -1069890.000000 0 0 1
28.182051 23.027502 -20.019744 41.536538 0.685080 2.073708 0.018265 -0.012949 -1282930.000000 0 0 1
28.474651 22.287602 -21.142444 41.887300 0.664113 2.099884 0.024499 -0.013692 -141129.000000 0 0 1
29.983751 22.280702 -21.438544 43.070479 0.639066 2.091805 0.030936 -0.005379 18382.100000 0 0 1
30.471851 23.513302 -21.954444 44.310345 0.657208 2.089172 0.029715 -0.004607 494509.000000 0 0 1
31.894851 23.619802 -21.852644 45.306893 0.637427 2.074103 0.031713 0.004251 672867.000000 0 0 1
32.505051 24.920502 -22.348944 46.659244 0.654082 2.070291 0.032606 -0.002808 -261813.000000 0 0 1
32.504251 25.008802 -23.789844 47.412268 0.655803 2.096435 0.036813 -0.004419 -66890.300000 0 0 1
31.248451 25.328002 -24.350444 47.020394 0.681133 2.115155 0.030782 -0.010183 -334399.000000 0 0 1
31.202851 25.738702 -25.857744 48.007516 0.689730 2.139593 0.042758 -0.014125 -447918.000000 0 0 1
31.072851 27.137602 -26.088714 48.811807 0.717897 2.134683 0.048523 -0.016756 852745.000000 0 0 1
29.719651 27.627702 -26.309544 48.360517 0.748936 2.146028 0.051372 -0.009202 1164100.000000 0 0 1
29.251251 27.340502 -27.795364 48.741368 0.751647 2.177621 0.053426 -0.007129 -205848.000000 0 0 1
28.961851 25.984002 -28.045144 47.963395 0.731255 2.195331 0.038076 -0.014100 -151292.000000 0 0 1
28.678451 25.863802 -29.456704 48.570435 0.733839 2.222415 0.041487 -0.014095 -22035.500000 0 0 1
27.958351 24.514102 -29.769904 47.632528 0.719853 2.245916 0.035925 -0.013892 643250.000000 0 0 1
26.634951 24.448502 -29.222584 46.487732 0.742623 2.250559 0.035947 -0.011028 442369.000000 0 0 1
26.180051 23.101302 -29.438114 45.669112 0.723006 2.271291 0.042611 -0.018143 71387.500000 0 0 1
24.799451 22.861002 -28.782654 44.340493 0.744748 2.277234 0.024682 -0.015248 -15487.600000 0 0 1
24.762651 22.829602 -27.351294 43.387474 0.744804 2.252860 0.021988 -0.007944 229192.000000 0 0 1
23.431351 22.879602 -26.877054 42.366029 0.773485 2.258030 0.014026 -0.013820 3432.300000 0 0 1
23.479251 23.039302 -25.347214 41.527893 0.775941 2.227319 0.012185 -0.009860 -146851.000000 0 0 1
24.030851 21.945502 -24.638944 40.818677 0.740072 2.218829 0.012417 -0.014039 358567.000000 0 0 1
24.187551 22.327002 -23.292344 40.324508 0.745420 2.186610 0.021065 -0.015252 -104113.000000 0 0 1
24.836951 21.229102 -22.404544 39.617073 0.707239 2.171869 0.034156 -0.018074 -33588.900000 0 0 1
26.137551 20.847702 -22.788344 40.461177 0.673285 2.169068 0.017824 -0.012688 -98350.300000 0 0 1
26.196251 19.435802 -22.792844 39.793312 0.638317 2.180691 0.048440 -0.014606 -35930.000000 0 0 1
27.540551 18.847002 -23.235944 40.664487 0.600136 2.179015 0.055930 -0.016750 712480.000000 0 0 1
28.642751 18.807402 -22.320544 40.894159 0.581015 2.148155 0.049679 -0.015883 896639.000000 0 0 1
29.773751 18.026102 -22.708744 41.558436 0.544407 2.148891 0.035224 -0.005797 556376.000000 0 0 1
31.013951 18.242402 -21.840444 42.091037 0.531698 2.116343 0.037408 -0.002677 190141.000000 0 0 1
31.928551 19.256002 -22.277544 43.434030 0.542693 2.109362 0.023060 -0.002448 1094140.000000 0 0 1
33.159351 19.340402 -21.524044 44.009978 0.528017 2.081822 0.010358 -0.005050 916769.000000 0 0 1
33.173651 20.417902 -20.399644 43.971892 0.551728 2.053217 0.015715 -0.007367 -159000.000000 0 0 1
32.569851 20.033302 -19.159144 42.769161 0.551439 2.035286 0.020422 -0.004901 347236.000000 0 0 1
32.907151 21.053102 -18.150244 43.076038 0.569152 2.005734 0.011901 0.001736 -84375.500000 0 0 1
32.007351 21.055602 -16.853744 41.855198 0.581864 1.985226 0.021829 -0.003248 52299.900000 0 0 1
32.218451 19.910002 -16.103844 41.155444 0.553527 1.972833 0.020660 -0.008971 300879.000000 0 0 1
32.134751 20.135702 -14.700944 40.671937 0.559751 1.940621 0.031150 -0.010311 -309933.000000 0 0 1
32.663151 18.950702 -13.876344 40.231374 0.525723 1.922943 0.025597 -0.014280 -446326.000000 0 0 1
34.068351 18.750402 -13.974144 41.321989 0.503132 1.915775 0.017686 -0.014625 476820.000000 0 0 1
34.580051 17.747102 -13.117844 41.022157 0.474166 1.896288 0.021093 -0.004585 -38418.900000 0 0 1
34.500151 18.064702 -11.614544 40.638547 0.482358 1.860639 0.026702 -0.006809 -749381.000000 0 0 1
35.192751 19.261702 -11.346344 41.692714 0.500783 1.846415 0.013856 -0.011333 -49666.400000 0 0 1
34.928751 19.850702 -10.064144 41.416844 0.516799 1.816250 0.015198 -0.003418 -27153.800000 0 0 1
33.618051 20.647502 -9.866844 40.667521 0.550780 1.815864 0.018291 -0.011864 683418.000000 0 0 1
32.387651 19.937902 -9.939444 39.309953 0.551813 1.826419 0.034639 -0.018697 -595398.000000 0 0 1
31.299751 20.713202 -9.654544 38.754630 0.584604 1.822568 0.021826 -0.013881 -740250.000000 0 0 1
29.925451 20.116002 -9.989544 37.416268 0.591826 1.841058 0.025522 -0.015197 -86886.700000 0 0 1
29.768651 19.894902 -11.388044 37.572160 0.589144 1.878738 0.038110 -0.017150 -93938.300000 0 0 1
28.566951 19.221902 -11.673944 36.357024 0.592286 1.897678 0.032766 -0.022937 -227019.000000 0 0 1
28.663551 18.538302 -13.102744 36.564323 0.574091 1.937294 0.039910 -0.010774 -289698.000000 0 0 1
29.412251 17.362502 -13.072244 36.570761 0.533268 1.936333 0.048206 -0.012844 39228.000000 0 0 1
29.248651 16.745102 -14.331944 36.623580 0.519960 1.972874 0.030098 -0.008861 185471.000000 0 0 1
30.593451 16.396502 -15.033444 37.826035 0.491991 1.979518 0.042312 -0.011263 206441.000000 0 0 1
31.268851 15.306502 -14.410044 37.678633 0.455223 1.963238 0.034035 -0.010059 503271.000000 0 0 1
32.442351 14.934702 -15.138944 38.790966 0.431424 1.971721 0.037056 -0.009953 227885.000000 0 0 1
33.189451 13.756002 -14.503144 38.744141 0.392917 1.954472 0.030724 -0.014551 -343945.000000 0 0 1
33.941351 14.109502 -13.365644 39.111811 0.393969 1.919552 0.040704 -0.005103 -208975.000000 0 0 1
34.528251 13.023002 -12.770544 39.049782 0.360671 1.903958 0.028630 -0.000196 -80955.700000 0 0 1
35.556451 13.312302 -11.648544 39.713564 0.358244 1.868488 0.048654 -0.001797 -283226.000000 0 0 1
-34.570032 13.986502 -12.092544 39.203813 -0.384452 1.884363 0.026169 -0.000160 -763274.000000 0 0 1
-33.751032 14.463602 -11.089644 38.357635 -0.404864 1.864095 0.001318 0.005898 -866530.000000 0 0 1
-32.312932 14.841702 -11.563644 37.391437 -0.430570 1.885210 0.018183 -0.006144 357375.000000 0 0 1
-31.408832 13.837802 -11.932944 36.337235 -0.414985 1.905400 0.010255 -0.006085 69912.700000 0 0 1
-31.294532 12.771102 -11.010844 35.548382 -0.387464 1.885719 0.027086 0.006187 -893082.000000 0 0 1
-30.221032 11.654102 -11.345044 34.319657 -0.368056 1.907704 0.034320 0.000934 317212.000000 0 0 1
-30.442632 10.897502 -12.514144 34.671504 -0.343756 1.940066 0.025579 -0.003404 21086.700000 0 0 1
-29.376232 10.002102 -12.735144 33.543836 -0.328171 1.960222 0.040210 -0.014727 -205442.000000 0 0 1
-29.411832 9.253602 -14.143344 33.922252 -0.304817 2.000866 0.042197 -0.019823 121426.000000 0 0 1
-30.606432 8.526802 -14.423144 34.892508 -0.271705 1.996937 0.031075 -0.017311 533200.000000 0 0 1
-30.468732 7.743702 -15.572944 35.083118 -0.248883 2.030728 0.037819 -0.026171 607752.000000 0 0 1
-31.866332 7.359902 -16.205444 36.499968 -0.226982 2.030838 0.030355 -0.023247 317602.000000 0 0 1
-32.700332 6.673002 -15.367144 36.742207 -0.201301 2.002306 0.038468 -0.027933 -809485.000000 0 0 1
-33.627332 5.968702 -16.112044 37.762691 -0.175666 2.011599 0.023848 -0.030247 -123774.000000 0 0 1
-34.786532 5.363202 -15.245644 38.357482 -0.152970 1.979546 0.020683 -0.025808 382034.000000 0 0 1
35.472151 4.578302 -15.878444 39.132587 0.128358 1.988607 0.017986 -0.020096 942728.000000 0 0 1
34.538551 4.156602 -14.847044 37.823585 0.119771 1.974181 0.022002 -0.020653 402080.000000 0 0 1
33.601551 2.950902 -15.041144 36.932480 0.087596 1.990249 0.015748 -0.014494 -249214.000000 0 0 1
34.295051 1.700402 -15.205044 37.553099 0.049541 1.987660 0.026418 -0.019927 222041.000000 0 0 1
33.556751 0.469002 -15.273044 36.871959 0.013975 1.997880 0.020056 -0.008560 -176434.000000 0 0 1
32.906551 0.077302 -13.892644 35.719079 0.002349 1.970279 0.018722 -0.018064 -79059.500000 0 0 1
33.751951 -0.526098 -12.917544 36.143242 -0.015586 1.936277 0.031681 -0.016500 523534.000000 0 0 1
33.243451 -0.347698 -11.570444 35.201180 -0.010459 1.905718 0.022956 -0.008882 -204217.000000 0 0 1
33.310951 1.003902 -10.848744 35.047433 0.030128 1.885510 0.029142 -0.013123 -462824.000000 0 0 1
32.620251 2.004702 -11.535444 34.657843 0.061379 1.910108 0.019972 -0.012660 294198.000000 0 0 1
32.792151 3.264502 -10.922044 34.717045 0.099224 1.890833 0.024616 -0.011614 -127651.000000 0 0 1
31.730851 4.296002 -11.367744 33.978348 0.134571 1.911933 0.026348 -0.012548 -110557.000000 0 0 1
32.012751 4.713702 -12.659344 34.746139 0.146194 1.943718 0.017229 -0.009332 955102.000000 0 0 1
30.973651 5.545002 -13.208144 34.125785 0.177147 1.968219 0.026262 -0.012217 77531.100000 0 0 1
31.391851 6.252802 -14.511144 35.144262 0.196612 1.996435 0.010807 -0.006112 -620823.000000 0 0 1
31.348351 5.409102 -15.672444 35.462699 0.170866 2.028558 0.003689 -0.001391 207235.000000 0 0 1
31.764151 6.037802 -16.851644 36.460859 0.187841 2.051253 -0.000181 -0.003478 -1046470.000000 0 0 1
30.838551 7.133202 -17.413444 36.126539 0.227310 2.073747 -0.002341 -0.004829 780698.000000 0 0 1
29.598451 6.848702 -18.081744 35.354243 0.227385 2.107662 -0.008567 -0.002392 1330560.000000 0 0 1
28.618651 6.160502 -17.306444 34.007234 0.212026 2.104708 -0.009638 0.002832 -483032.000000 0 0 1
27.202151 6.062902 -17.912844 33.129832 0.219299 2.142049 -0.007684 0.004680 -27427.600000 0 0 1
27.099851 5.286902 -19.102444 33.574642 0.192670 2.176030 0.002329 0.004781 -375213.000000 0 0 1
25.839451 5.509902 -19.681944 32.945639 0.210089 2.211060 0.003819 0.002891 -424532.000000 0 0 1
25.394151 4.369302 -20.542344 32.953628 0.170391 2.243843 0.016329 0.015483 -436028.000000 0 0 1
24.766251 3.378802 -19.775944 31.872738 0.135591 2.240133 0.024352 0.004115 142411.000000 0 0 1
24.421451 2.255802 -20.574344 32.012490 0.092108 2.268810 0.022510 -0.001834 106949.000000 0 0 1
23.526751 1.224502 -19.776344 30.758921 0.052000 2.269136 0.019067 -0.006444 212908.000000 0 0 1
22.282051 1.746302 -19.400744 29.596085 0.078213 2.285664 0.027722 -0.008887 157498.000000 0 0 1
21.351251 0.758402 -18.964544 28.567552 0.035505 2.296750 0.028492 -0.008086 190463.000000 0 0 1
19.941951 1.291302 -18.643644 27.330099 0.064663 2.321516 0.031720 -0.008198 -820655.000000 0 0 1
19.234051 1.583202 -19.878744 27.705951 0.082127 2.370989 0.023878 -0.011051 730960.000000 0 0 1
18.086751 2.407702 -19.657844 26.820858 0.132342 2.393417 0.024456 -0.017273 1225030.000000 0 0 1
16.834451 1.763802 -18.961544 25.417511 0.104392 2.412836 0.039333 -0.015677 -482263.000000 0 0 1
17.038651 1.680702 -17.552244 24.519822 0.098322 2.368621 0.028518 -0.018926 74744.900000 0 1 0
15.920151 1.691002 -16.681844 23.121302 0.105821 2.376752 0.022753 -0.015983 235408.000000 0 1 0
15.139451 3.033802 -16.481644 22.584320 0.197771 2.388800 0.036221 -0.019388 286762.000000 0 1 0
14.452951 3.550602 -17.625744 23.068624 0.240896 2.440375 0.036070 -0.008013 197137.000000 0 1 0
13.458751 4.458802 -17.281244 22.353082 0.319914 2.454516 0.041372 -0.020741 -525669.000000 0 1 0
-19.214849 -22.038098 -17.471244 34.060719 0.853729 2.109407 0.052153 -0.012361 105141.000000 0 0 1
-19.074049 -22.429598 -18.827244 34.948123 0.866072 2.139713 0.051877 -0.015229 156550.000000 0 0 1
-20.181449 -22.016398 -19.606944 35.727369 0.828855 2.151716 0.053475 -0.013593 84422.100000 0 0 1
-20.249749 -22.632098 -21.021444 36.934609 0.840897 2.176272 0.049344 -0.004431 -24475.000000 0 0 1
-20.208449 -24.072098 -20.992544 37.795955 0.872432 2.159662 0.043443 -0.002585 170864.000000 0 0 1
-19.800549 -24.610598 -22.213144 38.615632 0.893285 2.183690 0.040410 -0.004284 -72047.800000 0 0 1
-19.450349 -26.071518 -21.974044 39.254283 0.929836 2.164925 0.042019 -0.004930 -509908.000000 0 0 1
-20.554949 -26.913658 -22.044544 40.408079 0.918562 2.147839 0.050564 0.001324 -301767.000000 0 0 1
-20.209649 -28.286588 -21.799844 41.034061 0.950431 2.130886 0.058802 -0.008896 24162.000000 0 0 1
-21.527749 -29.076518 -21.902844 42.292109 0.933479 2.115184 0.043513 -0.004144 309442.000000 0 0 1
-22.188249 -29.163758 -23.149744 43.344594 0.920409 2.134223 0.030762 0.006028 294036.000000 0 0 1
-21.430849 -29.943758 -24.075244 43.994628 0.949609 2.149849 0.032108 -0.001930 -307181.000000 0 0 1
-21.797149 -29.622638 -25.525274 44.767801 0.936428 2.177510 0.032712 0.001875 830564.000000 0 0 1
-23.182949 -29.887898 -25.828424 45.802217 0.911072 2.169912 0.023658 0.004671 1064390.000000 0 0 1
-23.634549 -29.077208 -26.937654 46.148815 0.888287 2.194090 0.024617 0.008294 -108089.000000 0 0 1
-23.121549 -29.292758 -28.399074 46.895406 0.902598 2.221295 0.036360 -0.006163 -304889.000000 0 0 1
-23.487849 -30.553908 -28.967034 48.211092 0.915412 2.215345 0.030876 0.001155 269666.000000 0 0 1
-23.300849 -30.467148 -30.349854 48.911045 0.917899 2.240191 0.044681 -0.005680 -126320.000000 0 0 1
-24.048549 -31.681808 -31.008034 50.433797 0.921519 2.232962 0.028720 -0.000377 50140.100000 0 0 1
-23.365249 -32.924608 -30.871414 50.823310 0.953617 2.223613 0.021174 -0.002165 72759.000000 0 0 1
-24.171249 -34.007398 -31.300504 52.158163 0.952882 2.214432 0.026902 -0.002743 -213724.000000 0 0 1
-23.506949 33.473331 -31.147364 51.412049 -0.958556 2.221615 0.033554 -0.001283 510297.000000 0 0 1
-22.413849 33.271483 -32.049974 51.347571 -0.977964 2.244874 0.022709 -0.012125 414758.000000 0 0 1
-21.961249 31.918799 -32.136874 50.337708 -0.968146 2.263247 0.027499 -0.004152 73380.400000 0 0 1
-20.683449 31.618199 -32.957764 50.137109 -0.991500 2.288097 0.015495 -0.002688 3224.400000 0 0 1
-20.825249 31.333629 -34.382241 50.966908 -0.984206 2.311218 0.013075 -0.006024 223925.000000 0 0 1
-20.215949 30.079919 34.074777 49.745115 -0.979059 0.816210 0.004198 -0.003095 77666.000000 0 0 1
-20.355849 29.682559 32.572787 48.542778 -0.969675 0.835223 -0.003999 -0.008627 -174907.000000 0 0 1
-19.820349 30.699549 31.791917 48.435880 -0.997504 0.854798 -0.001644 -0.002407 -85359.500000 0 0 1
-20.232749 30.692119 30.474307 47.749907 -0.987969 0.878630 0.015731 -0.003984 -724051.000000 0 0 1
-19.839849 31.964449 29.693907 47.927796 -1.015306 0.902621 0.015485 -0.011610 -689870.000000 0 0 1
-20.700649 33.025998 29.812727 49.071703 -1.010905 0.917844 0.013049 -0.006533 -761118.000000 0 0 1
-20.101049 34.208030 29.385417 49.373517 -1.039535 0.933325 0.021664 -0.022652 -522674.000000 0 0 1
-20.990749 -33.407058 29.333427 49.163940 1.009804 0.931482 0.034100 -0.031577 -290173.000000 0 0 1
-21.346049 -33.070668 30.659687 49.893279 0.997614 0.909038 0.033620 -0.022670 -248531.000000 0 0 1
-22.400049 -32.159378 30.870957 49.889917 0.962401 0.903606 0.048463 -0.022976 -45475.300000 0 0 1
-22.210149 -30.710148 30.441747 48.611767 0.944657 0.894099 0.069070 -0.019664 -639422.000000 0 0 1
-22.023549 -30.469698 29.061887 47.518759 0.944931 0.912731 0.053921 -0.016947 -176548.000000 0 0 1
-22.091249 -29.127068 28.755987 46.511463 0.921913 0.904275 0.064342 -0.017829 275277.000000 0 0 1
-23.518949 -28.730268 28.288607 46.677774 0.884809 0.919723 0.050288 -0.009190 -52716.400000 0 0 1
-24.578649 -28.836838 29.278807 47.884463 0.864948 0.912908 0.052063 -0.003553 874574.000000 0 0 1
-25.383469 -30.006638 29.051797 48.874592 0.868671 0.934258 0.026837 -0.007134 -157736.000000 0 0 1
-26.406369 -29.828408 27.857267 48.611291 0.846176 0.960559 0.005398 0.006021 -361761.000000 0 0 1
-25.769659 -29.832968 26.591897 47.552185 0.858346 0.977358 0.002629 0.001843 -57126.100000 0 0 1
-26.761299 -29.810498 25.592857 47.537640 0.839246 1.002294 -0.004749 0.005457 -291495.000000 0 0 1
-26.307219 -29.959358 24.104517 46.590349 0.850215 1.027020 -0.004175 0.003430 -948102.000000 0 0 1
-25.441419 -28.956068 23.639557 45.216682 0.849919 1.020657 -0.015790 0.006729 194221.000000 0 0 1
-24.966649 -29.205298 22.327057 44.438502 0.863483 1.044394 -0.002413 0.002200 -596626.000000 0 0 1
-23.841449 -30.191848 22.124757 44.378680 0.902389 1.048877 0.012769 -0.009787 -1059220.000000 0 0 1
-24.224549 -31.560108 22.294457 45.606052 0.916146 1.060027 0.010679 -0.018941 697043.000000 0 0 1
-23.210749 -32.344408 21.652257 45.317986 0.948347 1.072665 0.039748 -0.012257 94694.700000 0 0 1
-22.206449 -32.976438 22.608257 45.735163 0.978144 1.053733 0.053172 -0.013613 -529056.000000 0 0 1
-21.442149 -32.027708 23.330657 45.053961 0.980843 1.026474 0.084569 -0.024058 -125310.000000 0 0 1
-20.746749 -32.748288 24.290457 45.748271 1.006093 1.011064 0.082563 -0.025843 -751240.000000 0 0 1
-19.933149 -31.862288 25.215557 45.258813 1.011763 0.979857 0.091873 -0.028167 -608985.000000 0 0 1
-18.824949 -31.196008 24.594097 43.959518 1.027851 0.977048 0.087697 -0.025398 674998.000000 0 0 1
-17.955549 -30.563208 25.511887 43.673422 1.039627 0.946962 0.098459 -0.031753 594166.000000 0 0 1
-17.014349 -31.490488 26.360677 44.452494 1.075430 0.936007 0.076392 -0.029157 -548226.000000 0 0 1
-17.678849 -32.007608 27.465327 45.731530 1.066164 0.926573 0.060999 -0.027598 760388.000000 0 0 1
-16.784649 -32.793348 28.331937 46.473936 1.097729 0.915202 0.053402 -0.025784 590196.000000 0 0 1
-17.026449 -32.528028 29.833027 47.307315 1.088574 0.888442 0.072858 -0.025156 -32857.900000 0 0 1
-16.682949 -31.174428 30.006877 46.374329 1.079427 0.867077 0.074237 -0.012249 314431.000000 0 0 1
-17.293649 -30.685408 31.196167 47.051731 1.057588 0.845953 0.073554 -0.005062 153117.000000 0 0 1
-16.902249 -29.151488 31.440987 46.087210 1.045357 0.820020 0.077040 -0.006127 64908.700000 0 0 1
-17.617249 -28.127418 30.771297 45.259163 1.011236 0.823182 0.105436 -0.007252 -2612.060000 0 0 1
-17.638149 -28.228828 29.343497 44.373549 1.012321 0.848268 0.102868 -0.007702 865644.000000 0 0 1
-16.313949 -27.709658 28.637377 43.058907 1.038693 0.843203 0.093362 -0.005763 699858.000000 0 0 1
-16.209649 -26.286198 28.514277 42.033093 1.018217 0.825245 0.083897 -0.002363 810938.000000 0 0 1
-14.919749 -26.027968 27.934547 40.992596 1.050301 0.821050 0.070066 -0.006097 564277.000000 0 0 1
-14.899149 -24.726598 27.207657 39.669206 1.028500 0.815007 0.064034 0.000970 -92171.200000 0 0 1
-15.666649 -24.695698 25.995337 39.129004 1.005475 0.844173 0.104846 -0.008226 186965.000000 0 0 1
-15.680249 -23.510898 25.239557 37.890207 0.982608 0.841797 0.064336 -0.004053 -493101.000000 0 0 1
-16.448449 -22.295598 25.730847 37.811660 0.935185 0.822351 0.067370 -0.000388 -668867.000000 0 0 1
-16.284449 -21.203898 24.924317 36.551473 0.915879 0.820444 0.049431 0.002590 326934.000000 0 0 1
-16.941449 -20.009198 25.412447 36.512644 0.868231 0.800998 0.053767 0.004003 1975.900000 0 0 1
-16.628849 -18.801698 24.514967 35.085696 0.846648 0.797194 0.037158 0.001975 -590340.000000 0 0 1
-15.309249 -18.389798 24.540697 34.275408 0.876558 0.772762 0.026584 -0.000639 -968584.000000 0 0 1
-15.210949 -17.386998 23.566457 33.000887 0.852053 0.775436 0.020614 0.000235 -262789.000000 0 0 1
-13.983549 -16.460298 23.617257 32.003998 0.866574 0.740773 0.034068 -0.007959 -298436.000000 0 0 1
-12.816749 -17.198598 23.281257 31.655612 0.930361 0.744459 -0.007695 -0.000748 -151005.000000 0 0 1
-11.633149 -16.565998 23.693757 31.163385 0.958575 0.707010 -0.007986 -0.009561 -801657.000000 0 0 1
-10.989049 -15.597698 22.609557 29.584446 0.957036 0.700937 0.000656 -0.010844 -179340.000000 0 0 1
-10.417749 -16.307898 21.525157 28.944938 1.002323 0.732270 0.026042 -0.006769 196796.000000 0 0 1
-9.242149 -17.014198 21.902057 29.233548 1.073187 0.723928 0.016433 0.000711 -1068530.000000 0 0 1
-8.897849 -18.250798 21.055357 29.250494 1.117173 0.767240 0.017722 0.002523 -103939.000000 0 0 1
-8.652149 -18.002498 19.702257 28.055811 1.122782 0.792240 0.013590 0.002389 -136033.000000 0 0 1
-8.327649 -19.186498 18.962157 28.231806 1.161296 0.834350 0.009188 0.005159 157482.000000 0 0 1
-7.993049 -18.987298 17.422457 26.980518 1.172346 0.868802 0.008138 -0.003734 52343.800000 0 0 1
-6.832149 -18.245698 17.113957 25.932051 1.212506 0.850039 0.004590 0.007450 -182696.000000 0 0 1
-6.578449 -18.219698 15.674757 24.918495 1.224301 0.890477 0.015858 0.004927 -65328.500000 0 1 0
-5.617649 -17.077698 15.406857 23.676507 1.252999 0.862260 0.005060 0.007760 -635270.000000 0 1 0
-6.141849 -15.877898 15.755957 23.196554 1.201706 0.824074 0.013206 -0.003649 -623481.000000 0 1 0
-5.285549 -14.813498 15.459257 22.053693 1.228071 0.794022 0.011202 -0.006243 -320714.000000 0 1 0
-5.315149 -13.609998 16.475157 22.020755 1.198478 0.725504 -0.006142 -0.002553 -161797.000000 0 1 0
-4.789449 -13.788298 17.782557 23.005984 1.236479 0.687313 0.000166 -0.008995 25805.100000 0 1 0
-5.426849 -14.766598 18.617357 24.374353 1.218610 0.701602 0.012020 -0.014339 347691.000000 0 1 0
-6.783649 -14.382798 19.320357 25.023169 1.130085 0.688659 0.039964 -0.023011 253285.000000 0 0 1
-6.692349 -13.465098 20.354357 25.306052 1.109540 0.636253 0.032456 -0.026516 -684186.000000 0 0 1
-7.904349 -13.204198 20.992157 26.028835 1.031389 0.632595 0.034267 -0.016754 -333820.000000 0 0 1
-7.827449 -12.139798 22.121457 26.419737 0.998102 0.578456 0.036295 -0.010691 -239884.000000 0 0 1
-7.436649 -10.855998 21.622157 25.311541 0.970190 0.546707 0.022815 -0.012496 161106.000000 0 0 1
-7.049449 -9.858598 22.580057 25.627049 0.950037 0.492608 0.017598 -0.018710 -301574.000000 0 0 1
-5.690049 -9.967898 23.274957 25.951094 1.052096 0.458138 0.019292 -0.012021 -391802.000000 0 0 1
-5.537849 -11.195598 23.965317 27.024907 1.111442 0.480452 0.024513 -0.009511 -416077.000000 0 0 1
-4.263549 -11.397398 24.520077 27.373577 1.212832 0.460665 0.019148 -0.003269 -396737.000000 0 0 1
-4.039749 -12.751298 25.267267 28.589333 1.263989 0.486872 0.027651 -0.011675 678476.000000 0 0 1
-2.682149 -13.024998 25.704587 28.940807 1.367712 0.477432 0.022473 -0.007960 1152960.000000 0 0 1
-2.564049 -14.121198 26.596997 30.222224 1.391179 0.494834 0.022615 -0.008743 -55675.500000 0 0 1
-2.610349 -15.515298 25.908717 30.311714 1.404114 0.545741 0.030579 -0.026764 101722.000000 0 0 1
-1.483749 -15.854598 25.101827 29.726613 1.477483 0.565310 0.024285 -0.020170 237569.000000 0 0 1
-1.522449 -17.203298 24.621607 30.074821 1.482529 0.611690 0.032847 -0.014177 -572911.000000 0 0 1
-0.201049 -17.996798 24.672327 30.539301 1.559625 0.630237 0.032222 -0.020782 115635.000000 0 0 1
0.171651 -18.466298 25.965797 31.863086 -1.561501 0.618209 0.032057 -0.021075 261370.000000 0 0 1
0.803051 -17.457798 26.789777 31.986118 -1.524829 0.578024 0.025002 -0.018588 -428615.000000 0 0 1
1.397151 -17.868898 28.139527 33.362891 -1.492766 0.567146 0.015490 -0.009372 112394.000000 0 0 1
2.619751 -18.613398 27.887257 33.630652 -1.430969 0.593083 0.012817 -0.015588 875708.000000 0 0 1
3.431051 -18.704898 29.038987 34.711786 -1.389382 0.579796 0.007424 -0.010644 306893.000000 0 0 1
4.207051 -17.397998 29.511657 34.515613 -1.333538 0.545200 0.005915 -0.011410 -1083180.000000 0 0 1
3.424851 -16.355098 29.974097 34.317129 -1.364373 0.508565 -0.000593 -0.014122 -387132.000000 0 0 1
4.202951 -15.337598 30.578307 34.466499 -1.303333 0.479579 0.008798 -0.014565 -66940.600000 0 0 1
3.431951 -14.301998 31.482897 34.749075 -1.335286 0.437044 0.013400 -0.013055 89221.100000 0 0 1
2.668551 -14.986298 32.480557 35.870557 -1.394577 0.438255 0.004274 -0.020772 300061.000000 0 0 1
1.779751 -14.061598 33.103053 36.009834 -1.444898 0.404554 0.004598 -0.018570 -371409.000000 0 0 1
0.921651 -14.705998 34.132001 37.176731 -1.508206 0.407534 0.001295 -0.012369 279077.000000 0 0 1
1.721951 -14.955898 -33.510884 36.737220 -1.456166 2.719364 0.012837 -0.010726 513132.000000 0 0 1
0.855251 -15.296298 -32.470634 35.903346 -1.514942 2.700745 0.010588 -0.021784 260566.000000 0 0 1
1.710051 -15.595998 -31.231054 34.950510 -1.461586 2.676053 0.014524 -0.015603 392233.000000 0 0 1
0.992451 -16.407698 -30.314894 34.484639 -1.510383 2.644733 0.014012 -0.015565 127075.000000 0 0 1
1.697251 -16.354398 -29.053784 33.383669 -1.467387 2.626606 0.013536 -0.017001 301265.000000 0 0 1
1.320051 -17.489598 -28.085544 33.112329 -1.495463 2.583355 0.029613 -0.016887 -341132.000000 0 0 1
1.953751 -18.667198 -28.456554 34.088956 -1.466514 2.558517 0.026809 -0.016218 89810.900000 0 0 1
1.600451 -19.690998 -27.536864 33.890644 -1.489696 2.519260 0.050729 -0.020899 -493385.000000 0 0 1
2.483451 -20.944098 -27.769134 34.870440 -1.452772 2.492035 0.036720 -0.016919 833364.000000 0 0 1
3.863651 -20.971698 -27.390204 34.712580 -1.388608 2.480069 0.022639 -0.013011 762256.000000 0 0 1
4.131151 -20.769498 -26.015074 33.544337 -1.374454 2.458371 0.031766 -0.017193 -932260.000000 0 0 1
5.361751 -21.552398 -25.519154 33.830186 -1.326969 2.425431 0.023543 -0.013014 -217622.000000 0 0 1
5.216751 -22.973098 -25.662334 34.835802 -1.347502 2.398923 0.023697 -0.009394 197881.000000 0 0 1
5.581751 -23.446798 -26.929904 36.140393 -1.337086 2.411551 0.009646 -0.004487 -483381.000000 0 0 1
4.801951 -24.715598 -27.272254 37.117319 -1.378899 2.396106 0.009382 0.001077 -244304.000000 0 0 1
5.148951 -25.791318 -26.398514 37.263727 -1.373748 2.358059 0.009526 0.003019 -32529.100000 0 0 1
4.819351 -27.079188 -26.847524 38.435636 -1.394668 2.344104 0.010426 0.003948 -276600.000000 0 0 1
5.258151 -28.271468 -25.962794 38.742622 -1.386910 2.305187 0.012431 0.001776 -249001.000000 0 0 1
6.656651 -28.373858 -25.888844 38.982292 -1.340359 2.297110 0.024321 0.001360 -389221.000000 0 0 1
7.042351 -29.502588 -25.087264 39.362015 -1.336478 2.261847 0.019838 0.000205 -449930.000000 0 0 1
8.482951 -29.872798 -25.422684 40.132996 -1.294111 2.256814 0.027492 -0.009382 -571319.000000 0 0 1
8.712651 -30.241968 -26.723394 41.287125 -1.290294 2.274777 0.028614 -0.008268 -186735.000000 0 0 1
10.063351 -30.592448 -26.936974 41.985349 -1.252997 2.267353 0.052283 -0.001101 175337.000000 0 0 1
10.480951 -30.440378 -28.445644 42.960699 -1.239199 2.294456 0.056958 -0.014805 -329.765000 0 0 1
10.006451 -31.388328 -29.385524 44.145954 -1.262187 2.299154 0.054291 -0.021039 24605.200000 0 0 1
10.236251 -30.880498 -30.688984 44.723593 -1.250715 2.327038 0.047925 -0.020781 54160.500000 0 0 1
-34.255184 -4.742898 -5.609744 35.034011 0.137583 1.731611 0.066191 -0.012130 -87742.300000 0 0 1
-34.020959 -4.078198 -4.370644 34.542146 0.119304 1.697667 0.074315 -0.016540 114514.000000 0 0 1
-33.213139 -2.916498 -4.424344 33.633218 0.087587 1.702726 0.074494 -0.015795 -370457.000000 0 0 1
-33.732609 -1.571198 -5.048944 34.144537 0.046544 1.719210 0.068675 -0.006636 -573129.000000 0 0 1
-34.556440 -0.890598 -4.143744 34.815389 0.025767 1.690100 0.043257 -0.003250 114524.000000 0 0 1
-35.087540 0.278202 -4.772044 35.411655 -0.007929 1.705967 0.031423 -0.005133 -91152.800000 0 0 1
35.268267 1.076602 -3.832744 35.492247 0.030517 1.678996 0.031837 -0.005340 14018.200000 0 0 1
-35.296385 1.666502 -2.736744 35.441526 -0.047179 1.648092 0.036279 -0.002957 320137.000000 0 0 1
35.079845 2.454602 -1.989344 35.221841 0.069858 1.627307 0.030750 -0.010371 -29028.100000 0 0 1
35.574563 3.961502 -1.825844 35.840992 0.110901 1.621761 0.029480 -0.019130 -514903.000000 0 0 1
-35.490212 4.705902 -3.043844 35.930010 -0.131828 1.655614 0.036690 -0.018716 434345.000000 0 0 1
-34.188810 4.655802 -3.627444 34.694518 -0.135347 1.675542 0.049165 -0.010932 148446.000000 0 0 1
-33.248289 5.687602 -2.963444 33.861180 -0.169425 1.658426 0.058118 -0.015026 -696738.000000 0 0 1
-32.785139 5.425302 -1.645544 33.271715 -0.163994 1.620274 0.060795 -0.028051 466413.000000 0 0 1
-32.932609 6.658702 -0.893044 33.610899 -0.199502 1.597370 0.065214 -0.047771 -390422.000000 0 0 1
-31.853029 6.854702 0.198756 32.582846 -0.211965 1.564696 0.070850 -0.037732 112152.000000 0 0 1
-30.606929 7.198202 -0.440344 31.445065 -0.230985 1.584800 0.093653 -0.032610 273702.000000 0 0 1
-29.637289 7.576702 0.471456 30.594077 -0.250287 1.555386 0.089047 -0.033644 -526800.000000 0 0 1
-29.698159 9.049302 1.008456 31.062638 -0.295772 1.538325 0.090704 -0.030786 116499.000000 0 0 1
-30.991519 9.329602 1.566156 32.403218 -0.292408 1.522444 0.086103 -0.037360 820235.000000 0 0 1
-31.014259 10.627802 2.120156 32.853150 -0.330134 1.506217 0.086889 -0.029128 442849.000000 0 0 1
-32.433199 11.253302 1.926856 34.384036 -0.333972 1.514728 0.090797 -0.018775 -184379.000000 0 0 1
-32.794979 11.654502 0.628356 34.809954 -0.341455 1.552744 0.066252 -0.014822 829466.000000 0 0 1
-34.077466 12.282602 0.506456 36.226958 -0.345938 1.556816 0.061257 0.005881 1214680.000000 0 0 1
-35.332634 11.347702 0.598856 37.115010 -0.310762 1.554660 0.067007 -0.019908 7892.490000 0 0 1
-35.568190 10.473502 -0.530744 37.081964 -0.286369 1.585110 0.064673 -0.014284 1025010.000000 0 0 1
34.383615 9.867802 -0.429344 35.774164 0.279480 1.582798 0.070427 -0.020562 1000070.000000 0 0 1
34.106475 8.842602 -1.560444 35.268657 0.253679 1.615055 0.053711 -0.032753 -65025.900000 0 0 1
33.648905 9.456802 -2.757844 35.061169 0.273976 1.649536 0.048694 -0.025123 276774.000000 0 0 1
33.432685 8.495802 -3.759844 34.699560 0.248849 1.679364 0.028415 -0.025862 -228999.000000 0 0 1
32.855285 9.053402 -5.097544 34.458943 0.268881 1.719272 0.023169 -0.021488 642586.000000 0 0 1
31.482025 9.424202 -4.903144 33.226108 0.290862 1.718906 0.049880 -0.024094 712779.000000 0 0 1
30.961935 9.836702 -6.140744 33.062227 0.307618 1.757614 0.042680 -0.014200 -198306.000000 0 0 1
29.488525 10.307702 -6.048144 31.818263 0.336274 1.762044 0.063185 -0.012069 532934.000000 0 0 1
28.615735 9.148802 -6.023544 30.640560 0.309442 1.768672 0.065414 -0.013754 453327.000000 0 0 1
27.276945 9.453202 -6.269044 29.541422 0.333610 1.784634 0.061142 -0.006055 -514940.000000 0 0 1
26.266605 8.297302 -6.397044 28.279001 0.305968 1.798983 0.074831 -0.006277 -239903.000000 0 0 1
26.301875 7.677302 -7.689444 28.457989 0.284002 1.844401 0.071940 -0.005918 588604.000000 0 0 1
25.353335 6.626402 -7.798844 27.340862 0.255644 1.860058 0.069890 -0.011297 20059.500000 0 0 1
25.700735 5.733202 -9.010844 27.831505 0.219482 1.900502 0.078918 -0.018407 647395.000000 0 0 1
26.898105 5.022402 -8.618344 28.688123 0.184594 1.875924 0.073908 -0.020807 1176000.000000 0 0 1
27.126705 3.959602 -9.553544 29.031134 0.144943 1.906125 0.065586 -0.018753 -228675.000000 0 0 1
28.103365 2.864802 -9.080844 29.672680 0.101587 1.881820 0.044727 -0.017312 454606.000000 0 0 1
29.472905 3.302502 -8.954444 30.979682 0.111587 1.864023 0.043289 -0.013131 1306940.000000 0 0 1
30.246205 2.698502 -7.956044 31.391296 0.088982 1.827039 0.041479 -0.008907 -10174.100000 0 0 1
30.572005 1.178602 -8.030944 31.631197 0.038533 1.827499 0.040049 -0.011585 -495670.000000 0 0 1
29.365965 0.504602 -7.694044 30.361370 0.017182 1.827006 0.059239 -0.016339 748476.000000 0 0 1
29.590105 -0.874398 -7.305244 30.491072 -0.029542 1.812736 0.058283 -0.015479 -583727.000000 0 0 1
29.404915 -1.969398 -8.365944 30.635217 -0.066875 1.847392 0.055005 -0.013691 -265095.000000 0 0 1
30.349135 -2.000598 -9.435144 31.844847 -0.065824 1.871597 0.047963 -0.009856 296427.000000 0 0 1
30.119235 -3.111398 -10.266444 31.972628 -0.102938 1.897688 0.043635 -0.020310 -653467.000000 0 0 1
31.160305 -3.343798 -11.352344 33.331986 -0.106900 1.918334 0.040232 -0.027425 414180.000000 0 0 1
32.493525 -3.555198 -10.804644 34.426863 -0.108979 1.890035 0.039915 -0.010694 982264.000000 0 0 1
33.320285 -4.057198 -11.793444 35.577908 -0.121167 1.908671 0.032117 -0.026002 -1392560.000000 0 0 1
34.757395 -4.258798 -11.410144 36.829407 -0.121922 1.885790 0.034857 -0.015019 -1126380.000000 0 0 1
34.913605 -5.428798 -10.626144 36.896430 -0.154257 1.862933 0.036189 -0.015063 -635756.000000 0 0 1
-35.043931 -5.600598 -10.216344 36.929900 0.158476 1.851094 0.039261 -0.011081 -937368.000000 0 0 1
-34.912533 -6.759298 -9.258044 36.746217 0.191241 1.825486 0.040522 -0.014022 -63340.000000 0 0 1
35.508215 -6.613898 -8.121244 37.020691 -0.184154 1.791965 0.041762 -0.009345 519450.000000 0 0 1
35.062685 -7.893698 -7.786744 36.774117 -0.221439 1.784157 0.034294 -0.002262 -583650.000000 0 0 1
34.582385 -8.044298 -6.309544 36.061925 -0.228548 1.746666 0.037934 -0.006714 554870.000000 0 0 1
-35.620044 -7.985898 -5.289144 36.885460 0.220550 1.714686 0.040852 -0.008586 1210100.000000 0 0 1
-35.615941 -9.065998 -4.307444 37.003265 0.249255 1.687468 0.059395 -0.010462 -325193.000000 0 0 1
-35.195395 -10.427198 -4.801244 37.020187 0.288028 1.700855 0.063282 -0.007273 -634488.000000 0 0 1
35.070705 -11.161498 -5.476844 37.209262 -0.308121 1.718523 0.030647 -0.008825 173186.000000 0 0 1
-35.630568 -12.180698 -6.290344 38.176894 0.329406 1.736319 0.033315 -0.004170 -30882.300000 0 0 1
34.773185 -12.469898 -7.542544 37.703617 -0.344322 1.772204 0.030945 -0.012654 79703.000000 0 0 1
34.686565 -11.377498 -8.472244 37.475114 -0.316951 1.798844 0.056246 -0.015085 87311.800000 0 0 1
33.806995 -11.711198 -9.511444 37.020705 -0.333476 1.830633 0.045423 -0.015127 -188989.000000 0 0 1
34.108055 -10.915098 -10.802444 37.405769 -0.309717 1.863760 0.015479 -0.012544 -39122.900000 0 0 1
33.808025 -9.506698 -10.790544 36.739566 -0.274118 1.868895 0.025877 -0.013374 293766.000000 0 0 1
34.251195 -8.795498 -11.896444 37.309925 -0.251363 1.895317 0.032129 -0.014776 -109951.000000 0 0 1
33.109065 -8.292498 -12.794744 36.451079 -0.245412 1.929447 0.035064 -0.018493 -247790.000000 0 0 1
33.705895 -7.689098 -13.895144 37.259691 -0.224285 1.952958 0.032907 -0.009225 289709.000000 0 0 1
32.778025 -7.099698 -14.755744 36.640641 -0.213304 1.985278 0.029839 -0.013061 7136.290000 0 0 1
33.512705 -6.569098 -16.011644 37.717730 -0.193564 2.009220 0.029123 -0.009094 241360.000000 0 0 1
34.408455 -5.449398 -15.911144 38.298854 -0.157069 1.999230 0.029616 -0.016174 844203.000000 0 0 1
33.784965 -4.137698 -15.966244 37.596081 -0.121865 2.009403 0.031246 -0.011870 109415.000000 0 0 1
34.869625 -3.038598 -15.841544 38.419765 -0.086922 1.995804 0.028708 -0.013228 172751.000000 0 0 1
35.630885 -2.869298 -17.042444 39.600981 -0.080355 2.015681 0.035280 -0.013443 -145224.000000 0 0 1
-34.355221 -2.350698 -16.786744 38.309291 0.068317 2.024380 0.051545 -0.008622 -223840.000000 0 0 1
-34.238641 -0.826598 -16.527544 38.027983 0.024138 2.020407 0.039407 -0.003660 -659994.000000 0 0 1
-34.570531 0.046502 -17.591744 38.789086 -0.001345 2.041511 0.028979 0.000061 319889.000000 0 0 1
-34.387388 1.382302 -17.208744 38.477839 -0.040176 2.034471 0.036437 -0.014902 -234542.000000 0 0 1
-34.633346 2.376802 -18.273344 39.230510 -0.068520 2.055328 0.018965 -0.017481 -182692.000000 0 0 1
-33.682529 2.337402 -19.305344 38.893091 -0.069284 2.090208 0.020057 -0.009294 218768.000000 0 0 1
-33.816209 3.562702 -19.988944 39.443462 -0.104968 2.102236 0.020261 -0.007768 136127.000000 0 0 1
-32.813099 3.749902 -21.165444 39.226741 -0.113787 2.140719 0.019856 0.003852 -103278.000000 0 0 1
-31.462159 4.026802 -20.885044 37.977199 -0.127297 2.153084 0.018008 0.005598 -263548.000000 0 0 1
-30.934859 4.445902 -22.108844 38.282274 -0.142741 2.186486 0.015272 0.003967 428091.000000 0 0 1
-29.389649 4.786702 -22.069644 37.063906 -0.161453 2.208620 0.021552 -0.001830 611146.000000 0 0 1
-28.772699 3.598002 -21.683944 36.207834 -0.124403 2.212891 0.033042 0.007894 -822728.000000 0 0 1
-27.410159 3.814802 -21.848944 35.259692 -0.138286 2.239103 0.029785 0.000851 -612828.000000 0 0 1
-26.354819 3.061602 -21.016744 33.847502 -0.115650 2.240718 0.046660 0.006527 104534.000000 0 0 1
-26.274589 3.407902 -19.623944 32.970699 -0.128983 2.208303 0.043321 0.012997 4348.050000 0 0 1
-25.669819 2.346802 -18.896544 31.961327 -0.091169 2.203381 0.051169 0.009050 -200868.000000 0 0 1
-24.883849 2.768202 -17.632444 30.623062 -0.110789 2.184366 0.056732 -0.000052 -646475.000000 0 0 1
-23.803149 3.544102 -17.988244 30.045423 -0.147806 2.212675 0.050965 0.002692 -651839.000000 0 0 1
-23.029949 3.874202 -16.846144 28.795495 -0.166664 2.195710 0.056848 -0.007714 435500.000000 0 0 1
-21.827149 4.856302 -16.975644 28.074554 -0.218923 2.220139 0.053442 -0.011839 474626.000000 0 0 1
-20.752249 4.267102 -17.703044 27.609088 -0.202795 2.266862 0.060253 -0.009507 31923.100000 0 0 1
-19.599049 5.060302 -17.510544 26.764688 -0.252673 2.283974 0.053418 -0.010280 -97693.000000 0 0 1
-18.307749 4.407002 -18.043044 26.079623 -0.236224 2.334837 0.050817 -0.008899 -160141.000000 0 0 1
-18.100049 3.167702 -17.360044 25.278790 -0.173256 2.327796 0.063566 -0.015664 587269.000000 0 0 1
-16.963649 2.390602 -17.779344 24.689784 -0.140003 2.374756 0.043298 -0.012336 -216632.000000 0 1 0
-16.940349 0.976102 -17.251044 24.197659 -0.057556 2.364453 0.035810 -0.007511 365677.000000 0 1 0
-17.849949 -0.008798 -17.793144 25.203506 0.000493 2.354601 0.026605 -0.005701 737177.000000 0 0 1
-19.203849 0.284302 -17.489744 25.976139 -0.014803 2.309460 0.033379 -0.009666 370407.000000 0 0 1
-20.305949 -0.749698 -17.988944 27.138454 0.036903 2.295426 0.027126 -0.005531 575005.000000 0 0 1
-20.398249 -1.910198 -17.165844 26.728330 0.093373 2.268206 0.023117 -0.007168 179993.000000 0 0 1
-21.313249 -2.827898 -17.704144 27.851181 0.131912 2.259672 0.030163 -0.000019 -242337.000000 0 0 1
-21.532649 -4.048998 -16.818544 27.620876 0.185870 2.225478 0.041152 -0.005968 -58467.900000 0 0 1
-22.135649 -3.643798 -15.611544 27.331017 0.163149 2.178766 0.041144 -0.012623 259235.000000 0 0 1
-22.499249 -4.709998 -14.774844 27.325744 0.206360 2.142057 0.051085 -0.026780 -124731.000000 0 0 1
-22.591949 -4.257698 -13.311544 26.565416 0.186276 2.095649 0.032799 -0.024984 -499103.000000 0 0 1
-23.611049 -3.323498 -13.141644 27.225541 0.139842 2.074526 0.029742 -0.026045 -211155.000000 0 0 1
-23.728749 -2.804598 -11.826644 26.660623 0.117648 2.030408 0.024865 -0.028140 -400621.000000 0 0 1
-24.692449 -1.604098 -11.800444 27.414241 0.064872 2.015787 0.050175 -0.024751 -418549.000000 0 0 1
-24.735649 -1.066598 -10.471944 26.882179 0.043093 1.970939 0.046421 -0.022297 377915.000000 0 0 1
-25.184099 0.266202 -10.504744 27.288447 -0.010570 1.965952 0.056423 -0.020009 -511577.000000 0 0 1
-25.774429 0.645702 -9.130844 27.351607 -0.025047 1.911162 0.070797 -0.016707 -633949.000000 0 0 1
-24.875049 0.696802 -8.063344 26.158576 -0.028005 1.884148 0.053077 -0.015090 395737.000000 0 0 1
-25.524919 1.093402 -6.862544 26.453951 -0.042810 1.833212 0.056757 -0.014249 571257.000000 0 0 1
-24.406049 1.377902 -5.788944 25.121021 -0.056398 1.803328 0.040360 -0.007663 415595.000000 0 0 1
-23.879449 2.636502 -5.970144 24.755239 -0.109963 1.814364 0.054473 -0.010548 -275500.000000 0 1 0
-22.554349 2.773602 -5.542744 23.390458 -0.122360 1.810038 0.036646 0.000388 -530357.000000 0 1 0
-22.153749 4.277402 -5.707544 23.273608 -0.190731 1.818560 0.047492 -0.003437 -499062.000000 0 1 0
-22.795349 5.248102 -4.915444 23.902554 -0.226284 1.777919 0.061107 -0.000794 432019.000000 0 1 0
-22.364049 6.595202 -5.138044 23.875654 -0.286773 1.787693 0.061953 -0.006153 -454903.000000 0 1 0
-22.882949 7.571002 -4.070444 24.444180 -0.319521 1.738096 0.058576 -0.002108 -45083.700000 0 1 0
-22.320649 7.486502 -2.730244 23.700492 -0.323616 1.686250 0.055028 -0.000134 1657370.000000 0 1 0
-20.910749 7.767802 -2.570844 22.454563 -0.355676 1.685539 0.051640 -0.002606 936856.000000 0 1 0
-20.442949 9.223902 -2.562944 22.573507 -0.423853 1.684579 0.046185 -0.004461 -494166.000000 0 1 0
-20.180449 9.774102 -3.844744 22.750069 -0.451037 1.740611 0.029806 -0.003429 386797.000000 0 1 0
-19.585749 11.026002 -3.731144 22.783672 -0.512739 1.735301 0.036235 -0.004965 -539798.000000 0 1 0
-19.522249 11.609402 -5.152844 23.290517 -0.536495 1.793884 0.042311 -0.010899 -383637.000000 0 1 0
-18.530249 11.080402 -5.997244 22.407864 -0.538920 1.841739 0.035469 -0.004264 148981.000000 0 1 0
-18.665449 11.548402 -7.311444 23.134860 -0.554060 1.892345 0.045970 -0.007491 -133285.000000 0 1 0
-17.323449 11.347902 -8.063544 22.223805 -0.579924 1.942103 0.037564 -0.005146 22744.400000 0 1 0
-16.978249 10.080102 -8.628844 21.548233 -0.535779 1.982797 0.028853 0.002507 454081.000000 0 1 0
-17.792149 9.523702 -9.670644 22.378177 -0.491468 2.017668 0.031138 0.003088 -177171.000000 0 1 0
-17.776149 10.314202 -10.991444 23.306352 -0.525754 2.061909 0.027627 0.003581 -584546.000000 0 1 0
-16.648749 9.963002 -11.691344 22.652368 -0.539259 2.113111 0.020824 -0.003205 -683047.000000 0 1 0
-16.733049 10.635402 -12.897844 23.652929 -0.566180 2.147538 0.016915 -0.006220 -97643.500000 0 1 0
-15.696849 10.068802 -13.844544 23.225917 -0.570344 2.209408 0.021947 -0.001495 -544769.000000 0 1 0
-15.979849 8.779602 -14.399844 23.233434 -0.502396 2.239271 0.028933 -0.013862 -59199.800000 0 1 0
-15.531149 7.730802 -13.569344 22.025189 -0.461855 2.234556 0.015083 -0.014613 -262268.000000 0 1 0
-15.469149 6.339102 -14.276444 21.983986 -0.388917 2.277594 0.016631 -0.019284 49282.400000 0 1 0
-14.481949 6.170502 -15.312044 21.960433 -0.402787 2.342359 0.021319 -0.018233 833586.000000 0 1 0
-14.544349 4.866502 -15.874244 22.072891 -0.322888 2.373409 0.016745 -0.024354 -362666.000000 0 1 0
31.591455 -15.990298 28.367947 45.370145 -0.468563 0.895337 0.020764 0.002135 -27365.500000 0 0 1
30.964475 -14.719998 28.493467 44.579756 -0.443761 0.877395 0.026265 0.002836 627074.000000 0 0 1
29.892035 -14.584398 29.452627 44.426294 -0.453923 0.846038 0.024030 -0.006886 675533.000000 0 0 1
30.360905 -14.571498 30.893637 45.700436 -0.447474 0.828471 0.017500 -0.014478 -326164.000000 0 0 1
30.899455 -13.331198 31.240127 45.917781 -0.407311 0.822557 0.008559 -0.014800 -96855.000000 0 0 1
31.160855 -13.359098 32.616207 47.045524 -0.405012 0.804752 -0.006733 -0.014179 -277975.000000 0 0 1
31.352725 -11.953898 33.193894 47.198767 -0.364258 0.790797 0.006372 -0.017196 -60754.700000 0 0 1
31.338705 -11.862698 -34.185663 47.869589 -0.361864 2.366193 -0.005944 -0.024656 79370.800000 0 0 1
31.369145 -10.542298 -33.813874 47.313226 -0.324214 2.366965 0.010966 -0.016652 -83323.200000 0 0 1
31.036385 -10.155798 -32.374474 45.983736 -0.316241 2.351869 0.015792 -0.012522 -82971.300000 0 0 1
29.698885 -10.394298 -32.022994 44.894736 -0.336665 2.364978 0.032062 -0.017543 -293980.000000 0 0 1
29.278665 -9.949498 -30.806634 43.649529 -0.327578 2.354309 0.018689 -0.009342 -386473.000000 0 0 1
27.941935 -10.553998 -30.359624 42.589263 -0.361146 2.364346 0.025548 0.001624 -141339.000000 0 0 1
27.401625 -10.070098 -29.119474 41.233477 -0.352179 2.354926 0.013199 0.008455 298820.000000 0 0 1
26.435575 -10.987898 -28.656684 40.506531 -0.393923 2.356692 0.018699 0.006262 -906839.000000 0 0 1
25.924735 -10.792798 -27.184374 39.084096 -0.394490 2.339961 0.014755 0.012382 -1467020.000000 0 0 1
25.069835 -9.716798 -26.919034 38.046645 -0.369762 2.356789 0.006384 0.007212 378718.000000 0 0 1
23.824335 -9.571198 -27.584534 37.684390 -0.382006 2.392032 0.013584 0.004148 89011.900000 0 0 1
22.908035 -10.796798 -27.558864 37.427796 -0.440434 2.398413 0.012446 0.013931 -1922000.000000 0 0 1
23.401135 -11.801798 -28.431064 38.668087 -0.467102 2.396845 0.012603 0.002716 -441766.000000 0 0 1
22.689435 -13.011798 -28.296474 38.533203 -0.520687 2.395490 0.005871 -0.001327 -4285.170000 0 0 1
23.401635 -14.319198 -28.829414 39.797124 -0.549115 2.380974 0.019414 -0.000566 113492.000000 0 0 1
23.577535 -14.361298 -30.191344 40.910442 -0.547091 2.400878 0.019485 -0.006099 738427.000000 0 0 1
24.729135 -15.150498 -30.539714 42.115814 -0.549675 2.382029 0.020754 -0.000038 416408.000000 0 0 1
24.873735 -15.295698 -32.096594 43.391847 -0.551328 2.403409 0.035909 -0.012069 150566.000000 0 0 1
23.857435 -16.167198 -32.606194 43.516886 -0.595574 2.417766 0.045736 -0.013761 550188.000000 0 0 1
23.856235 -16.246498 -34.062444 44.646598 -0.597872 2.438637 0.060833 -0.018708 -201535.000000 0 0 1
23.871335 -15.004798 33.877531 44.075749 -0.561162 0.694114 0.034723 -0.015755 4527.740000 0 0 1
22.769335 -14.102798 33.806907 43.130482 -0.554545 0.669989 0.046860 -0.016833 239734.000000 0 0 1
22.982835 -13.158498 32.833237 42.182676 -0.519980 0.678750 0.047709 -0.019953 -974852.000000 0 0 1
22.097135 -11.930998 32.940817 41.421365 -0.495082 0.651358 0.051782 -0.021280 -921938.000000 0 0 1
20.753235 -11.989998 32.635387 40.491052 -0.523892 0.633450 0.052127 -0.017364 -492258.000000 0 0 1
20.400935 -12.385798 31.309137 39.368365 -0.545638 0.651316 0.051700 -0.015875 -108169.000000 0 0 1
18.887535 -12.795698 31.136427 38.599818 -0.595443 0.632340 0.064788 -0.018696 237484.000000 0 0 1
18.065635 -11.729198 31.256457 37.959285 -0.575851 0.603383 0.054631 -0.015838 -649207.000000 0 0 1
16.987735 -12.018898 32.133047 38.282760 -0.615745 0.574690 0.042959 -0.010727 355447.000000 0 0 1
16.166935 -10.773298 32.626687 37.972812 -0.587803 0.537069 0.037956 -0.006490 -19098.600000 0 0 1
15.262735 -10.293698 31.621437 36.589979 -0.593360 0.527218 0.056513 -0.000462 271819.000000 0 0 1
14.546335 -9.148298 31.993067 36.315885 -0.561404 0.492896 0.061540 -0.001713 620559.000000 0 0 1
13.393835 -9.252598 33.052804 36.844175 -0.604532 0.457641 0.066798 -0.000521 -546120.000000 0 0 1
12.344235 -10.096398 32.681087 36.364417 -0.685563 0.453976 0.070191 0.000956 -99496.700000 0 0 1
11.098135 -9.815398 33.272826 36.422405 -0.724140 0.418926 0.072777 -0.001422 390340.000000 0 0 1
10.199435 -8.766798 32.549627 35.218793 -0.710005 0.391830 0.062962 0.000395 -224657.000000 0 0 1
10.627435 -7.406898 32.794167 35.259919 -0.608683 0.376195 0.065768 0.000953 388972.000000 0 0 1
9.648835 -6.536998 32.262027 34.302634 -0.595459 0.346663 0.056785 0.000443 149642.000000 0 0 1
10.062135 -5.052998 32.276957 34.184518 -0.465390 0.335645 0.062540 0.002149 -93801.200000 0 0 1
10.137735 -4.589398 33.565763 35.362362 -0.425101 0.320130 0.056313 0.003688 317349.000000 0 0 1
10.346535 -3.171098 33.560179 35.261767 -0.297399 0.311927 0.034820 0.002555 -257895.000000 0 0 1
10.113035 -2.571398 -33.864994 35.436187 -0.248989 2.842694 0.026142 -0.000633 24573.200000 0 0 1
8.756035 -2.224798 -33.677924 34.868617 -0.248822 2.879508 0.024986 0.008453 -38583.500000 0 0 1
8.527935 -1.414098 -32.558094 33.686122 -0.164324 2.882074 0.022558 0.002449 -408603.000000 0 0 1
7.040135 -1.229798 -32.279914 33.061590 -0.172939 2.923708 0.031424 0.002414 -362127.000000 0 0 1
6.373535 -0.289298 -33.107894 33.717032 -0.045359 2.951220 0.047564 0.001959 323416.000000 0 0 1
5.023635 -0.045898 -32.738014 33.121240 -0.009136 2.989324 0.054148 0.001296 231688.000000 0 0 1
4.549235 1.078602 -33.660494 33.983640 0.232797 3.003578 0.055190 0.004567 -16618.500000 0 0 1
5.344635 2.272402 -33.653184 34.150633 0.402018 2.970702 0.044401 -0.000675 266553.000000 0 0 1
5.029235 2.948902 33.992598 34.488925 0.530324 0.169856 0.062181 -0.000559 48173.100000 0 0 1
5.761635 4.297102 33.834751 34.589765 0.640816 0.209321 0.048460 0.001397 -155252.000000 0 0 1
5.339335 5.045802 32.731277 33.545567 0.757141 0.220785 0.059207 -0.018099 -106007.000000 0 0 1
6.097235 6.218502 32.696387 33.836367 0.795244 0.260315 0.061413 -0.014910 -224830.000000 0 0 1
5.536835 7.381302 31.824297 33.134966 0.927221 0.282202 0.065792 -0.012991 529905.000000 0 0 1
4.326335 7.949902 32.380897 33.622025 1.072417 0.272556 0.061126 -0.014043 359982.000000 0 0 1
3.863435 9.176202 31.918047 33.434870 1.172295 0.302370 0.058453 -0.019494 1631.920000 0 0 1
3.557235 9.328102 30.414707 32.011276 1.206474 0.317161 0.057590 -0.023037 273978.000000 0 0 1
2.390235 8.597502 29.986827 31.286419 1.299629 0.289238 0.059227 -0.023892 385600.000000 0 0 1
2.124135 8.978602 28.645867 30.095064 1.338490 0.311594 0.045859 -0.023255 -928883.000000 0 0 1
0.962535 8.253402 28.026067 29.231926 1.454698 0.288230 0.050258 -0.016338 -860636.000000 0 0 1
-0.192465 8.739502 28.671327 29.974337 -1.548777 0.295938 0.055331 -0.016368 -769661.000000 0 0 1
-1.316065 8.497502 27.860147 29.156943 -1.417140 0.299366 0.061529 -0.009991 -679569.000000 0 0 1
-2.672265 8.637602 28.482407 29.883050 -1.270760 0.307381 0.055811 -0.005658 -636576.000000 0 0 1
-3.120465 9.950202 28.867467 30.693231 -1.266902 0.346651 0.057786 -0.014062 -276005.000000 0 0 1
-4.489165 9.975602 29.182697 31.165606 -1.147930 0.358640 0.044099 -0.003218 -489398.000000 0 0 1
-4.894965 11.151302 29.999727 32.377397 -1.157162 0.385624 0.028475 -0.000568 -188633.000000 0 0 1
-4.942765 12.394802 29.336217 32.228491 -1.191344 0.426891 0.040135 -0.013299 -444546.000000 0 0 1
-6.036065 12.591002 28.503897 31.740188 -1.123768 0.455507 0.035480 -0.017355 -651027.000000 0 0 1
-6.274565 14.010302 27.981007 31.915442 -1.149729 0.501790 0.037192 -0.016814 70210.300000 0 0 1
-5.476965 14.293802 26.863797 30.918821 -1.204882 0.517923 0.044260 -0.012560 45618.200000 0 0 1
-5.741265 15.648602 26.619867 31.407931 -1.219157 0.559440 0.029086 -0.009822 902888.000000 0 0 1
-4.486865 16.298002 25.912887 30.939207 -1.302150 0.578027 0.062154 -0.010180 784251.000000 0 0 1
-4.126065 15.884802 24.611047 29.581328 -1.316663 0.588131 0.052278 -0.000454 -337903.000000 0 0 1
-3.253165 16.820102 24.036907 29.517313 -1.379746 0.619218 0.074479 0.006429 -157966.000000 0 0 1
-3.167965 16.671702 22.496857 28.179606 -1.383015 0.646266 0.074341 0.000161 -77097.400000 0 0 1
-2.370565 15.522702 22.175757 27.172376 -1.419251 0.616142 0.065774 -0.007015 306608.000000 0 0 1
-2.335965 15.335702 20.760257 25.915801 -1.419636 0.641723 0.056386 -0.005957 426873.000000 0 0 1
-1.385965 14.169302 20.317857 24.809379 -1.473292 0.611202 0.051115 -0.012566 574836.000000 0 1 0
-1.959465 12.895502 20.638757 24.414990 -1.420000 0.563611 0.058114 -0.001845 343931.000000 0 1 0
-1.298665 11.902302 19.830757 23.164849 -1.462116 0.543177 0.053907 -0.005226 -335179.000000 0 1 0
-2.089265 10.656602 19.474157 22.297331 -1.377198 0.508686 0.044684 -0.004958 -808698.000000 0 1 0
-2.185965 9.731502 20.566057 22.857018 -1.349836 0.451554 0.055938 -0.012041 842972.000000 0 1 0
-3.199865 10.030002 21.581357 24.012393 -1.261974 0.453865 0.065923 -0.009407 709982.000000 0 1 0
-4.692765 9.973202 21.187457 23.882946 -1.130995 0.479691 0.048863 -0.001892 -518914.000000 0 1 0
-5.175765 8.692102 21.181357 23.473198 -1.033725 0.445574 0.023335 -0.001121 -364453.000000 0 1 0
-6.582165 8.792002 21.153357 23.834611 -0.928157 0.478892 0.017018 0.006622 101519.000000 0 1 0
-7.418465 7.509002 21.159557 23.646259 -0.791463 0.462730 0.018846 0.014264 -46367.300000 0 1 0
-7.140965 6.792002 22.330657 24.408664 -0.760357 0.415620 0.011143 0.015327 242818.000000 0 1 0
-7.889865 5.584302 22.387857 24.385457 -0.615929 0.407581 0.005757 0.019782 255501.000000 0 1 0
-7.860965 4.975802 23.825527 25.577512 -0.564314 0.372273 -0.000070 0.019621 -147929.000000 0 0 1
-8.784165 5.654502 24.636147 26.759572 -0.571944 0.401059 -0.026686 0.021828 -50042.100000 0 0 1
-8.984065 4.808702 25.737837 27.681641 -0.491447 0.376982 -0.031852 0.037406 -343682.000000 0 0 1
-9.825165 5.399802 26.873447 29.118274 -0.502528 0.395234 -0.024474 0.038322 -370321.000000 0 0 1
-9.249165 6.508902 27.570107 29.799725 -0.613224 0.389287 -0.020258 0.032117 -285340.000000 0 0 1
-10.144865 7.023602 28.527627 31.081743 -0.605560 0.408228 -0.015305 0.029053 -112868.000000 0 0 1
-9.507865 8.140702 29.406847 31.959868 -0.708087 0.402415 -0.009915 0.019404 -155280.000000 0 0 1
-8.525665 7.630502 30.259557 32.350460 -0.730048 0.361501 -0.000149 0.013474 -255642.000000 0 0 1
-8.190165 8.615602 31.178457 33.367702 -0.810708 0.364253 0.007810 0.005075 -20364.500000 0 0 1
-7.132565 8.068102 32.166587 33.921336 -0.846866 0.323055 0.034818 0.004477 569113.000000 0 0 1
-5.795765 7.977002 31.674567 33.173809 -0.942467 0.301788 0.036254 0.001415 168365.000000 0 0 1
-4.929665 7.510402 32.685457 33.897593 -0.989950 0.268231 0.054678 -0.001655 -186189.000000 0 0 1
-3.456665 7.437202 32.275357 33.301038 -1.135719 0.248836 0.047148 -0.001121 -64840.700000 0 0 1
-2.911865 8.751902 32.192097 33.487398 -1.249605 0.279042 0.047633 -0.003822 537555.000000 0 0 1
-1.513665 8.801802 31.850437 33.078894 -1.400490 0.273384 0.044374 -0.011554 1078370.000000 0 0 1
-1.149565 10.235702 31.440387 33.084573 -1.458956 0.316587 0.040865 -0.016196 -109076.000000 0 0 1
-1.128965 11.178802 32.506987 34.393958 -1.470146 0.332784 0.043092 -0.022251 -101410.000000 0 0 1
-1.559665 12.478002 32.197077 34.565660 -1.446448 0.372348 0.048700 -0.018738 -111296.000000 0 0 1
-1.519565 13.486302 33.393546 36.046058 -1.458595 0.386024 0.041329 -0.017115 -402390.000000 0 0 1
-0.216665 13.889502 33.733915 36.482080 -1.555198 0.390626 0.044525 -0.017547 -467478.000000 0 0 1
-0.141765 14.731002 -33.947404 37.006063 -1.561173 2.732161 0.042093 -0.012828 1048590.000000 0 0 1
1.354935 14.992102 -33.507134 36.733186 1.480665 2.719360 0.034634 -0.007728 1108930.000000 0 0 1
2.040235 15.967802 -34.290698 37.881198 1.443713 2.702686 0.030064 -0.002972 80209.700000 0 0 1
3.281935 16.413302 -33.823044 37.738122 1.373443 2.682053 0.038020 -0.006691 -280158.000000 0 0 1
3.858235 17.545002 34.136106 38.574431 1.354337 0.484428 0.051515 -0.000951 -200219.000000 0 0 1
3.394035 18.852602 34.386935 39.362435 1.392674 0.508249 0.046829 0.001743 -96206.200000 0 0 1
4.068735 19.748302 33.535269 39.130094 1.367610 0.541338 0.037172 0.007794 -132089.000000 0 0 1
3.624935 21.219502 33.592641 39.898282 1.401599 0.569896 0.047799 -0.000340 -84490.600000 0 0 1
3.945835 21.837402 -33.945034 40.554988 1.392034 2.562597 0.047180 -0.012777 235869.000000 0 0 1
3.588135 23.204302 -33.885934 41.225851 1.417379 2.535637 0.050233 -0.011319 47837.200000 0 0 1
3.949735 23.898402 -32.547754 40.572038 1.407005 2.501803 0.069858 -0.013367 -51751.200000 0 0 1
3.526335 25.234402 -32.533954 41.323942 1.431952 2.477199 0.070983 -0.019235 260769.000000 0 0 1
3.182435 25.589702 -31.209624 40.484581 1.447068 2.451052 0.069210 -0.020525 -169615.000000 0 0 1
2.819135 27.064802 -31.097614 41.322059 1.467008 2.422748 0.071747 -0.019857 147388.000000 0 0 1
3.915435 27.957902 -31.177234 42.059420 1.431654 2.405751 0.059051 -0.024353 233774.000000 0 0 1
3.461835 29.158202 -30.590164 42.402160 1.452624 2.376661 0.058684 -0.028522 -546360.000000 0 0 1
4.500835 30.244602 -30.304584 43.050682 1.423066 2.351709 0.067152 -0.032972 203738.000000 0 0 1
5.289435 30.040302 -29.099474 42.156580 1.396505 2.332660 0.043293 -0.031522 272313.000000 0 0 1
6.032435 31.201002 -28.816514 42.898534 1.379812 2.307347 0.047849 -0.036468 -1428590.000000 0 0 1
7.195835 30.981202 -27.886294 42.299648 1.342578 2.290625 0.047045 -0.025944 184359.000000 0 0 1
8.349435 30.362602 -28.510954 42.479114 1.302439 2.306590 0.043452 -0.020461 449112.000000 0 0 1
9.401235 31.150502 -28.980414 43.572943 1.277689 2.298426 0.053289 -0.023012 -713524.000000 0 0 1
9.203335 32.249702 -30.045134 45.027266 1.292808 2.301327 0.056588 -0.031610 -1074050.000000 0 0 1
8.561635 33.306902 -29.348044 45.210164 1.319191 2.277259 0.064717 -0.035269 217787.000000 0 0 1
8.177635 -34.399256 -30.157754 46.472278 -1.337402 2.276988 0.049314 -0.029233 565293.000000 0 0 1
6.869935 34.418602 -31.020984 46.841622 1.373786 2.294617 0.023905 -0.022254 130336.000000 0 0 1
6.989835 33.628202 -32.173514 47.062179 1.365858 2.323533 0.012856 -0.018967 168501.000000 0 0 1
5.749535 33.475402 -32.832684 47.240288 1.400702 2.339236 0.025329 -0.019906 -87986.800000 0 0 1
5.877135 32.711802 -34.170838 47.668111 1.393029 2.370069 0.025469 -0.018171 174416.000000 0 0 1
6.613935 33.383502 33.633352 47.847724 1.375209 0.791295 0.013748 -0.011287 175941.000000 0 0 1
6.812035 32.626602 32.431687 46.504981 1.364965 0.799060 0.006270 -0.010230 -559635.000000 0 0 1
5.807035 32.944502 31.345247 45.843062 1.396321 0.817905 0.010809 -0.011509 -346229.000000 0 0 1
5.876935 34.257202 30.890517 46.500734 1.400897 0.844237 0.015261 -0.010088 112272.000000 0 0 1
4.873635 -34.204756 29.966897 45.735462 -1.429265 0.856319 0.012606 -0.018880 38086.700000 0 0 1
17.623751 -22.528498 29.356797 40.987210 -0.906950 0.772393 0.048216 -0.014733 -670911.000000 0 0 1
16.812251 -21.433098 29.624607 40.244836 -0.905637 0.743492 0.042162 -0.015151 1246850.000000 0 0 1
15.387651 -21.659398 29.773717 39.904681 -0.953100 0.728580 0.045606 -0.012259 1560320.000000 0 0 1
14.977151 -21.778698 31.282457 40.953863 -0.968375 0.701544 0.043399 -0.019683 -147392.000000 0 0 1
15.634251 -22.861498 31.884597 42.233937 -0.970979 0.715215 0.049481 -0.021839 498601.000000 0 0 1
14.920151 -23.167298 33.068792 43.045088 -0.998638 0.694715 0.062076 -0.016424 478158.000000 0 0 1
15.649251 -24.330898 33.820288 44.505096 -0.999227 0.707607 0.073647 -0.024027 214933.000000 0 0 1
15.475451 -25.637908 33.296221 44.782030 -1.027722 0.732481 0.074198 -0.028192 -72844.200000 0 0 1
16.043151 -26.599738 34.208206 46.207468 -1.028077 0.737254 0.067448 -0.021925 157468.000000 0 0 1
15.864151 -28.063918 33.898995 46.780302 -1.056293 0.760281 0.060306 -0.014703 -27289.900000 0 0 1
16.560851 -28.555408 32.781644 46.522138 -1.045246 0.788872 0.046443 -0.015230 335809.000000 0 0 1
16.048751 -29.863098 32.582337 47.021014 -1.077670 0.805249 0.058460 -0.016318 200419.000000 0 0 1
16.893851 -30.597658 31.518427 47.064107 -1.066320 0.837003 0.065650 -0.016050 -459884.000000 0 0 1
18.028751 -31.286368 31.877907 48.167143 -1.048024 0.847554 0.062305 -0.018030 -605373.000000 0 0 1
18.735751 -31.658918 30.716887 47.925386 -1.036428 0.875085 0.052354 -0.011409 -916853.000000 0 0 1
19.937751 -32.532878 30.954667 49.133425 -1.020982 0.889227 0.035966 -0.007430 -265201.000000 0 0 1
21.080051 -31.798178 31.424347 49.426534 -0.985383 0.881779 0.021293 -0.003864 196975.000000 0 0 1
22.254251 -32.487358 31.116317 50.188697 -0.970200 0.902071 0.019065 0.001945 -1286860.000000 0 0 1
23.505451 -31.718258 31.409757 50.449251 -0.933035 0.898734 0.008571 -0.002861 -942398.000000 0 0 1
23.824251 -30.797708 30.395687 49.396271 -0.912379 0.907974 -0.003577 0.001482 126344.000000 0 0 1
24.892951 -29.948038 30.766547 49.629874 -0.877316 0.902156 -0.011991 0.012024 608907.000000 0 0 1
26.034451 -29.784618 29.700207 49.467347 -0.852482 0.926795 -0.003233 0.013913 952526.000000 0 0 1
26.994051 -30.874378 29.714477 50.644409 -0.852352 0.943784 -0.006675 0.017994 1140400.000000 0 0 1
28.047951 -30.620018 28.747787 50.504538 -0.829211 0.965249 -0.012872 0.004481 26939.700000 0 0 1
29.220051 -31.548368 28.915407 51.819028 -0.823694 0.978814 -0.011849 -0.000746 -334419.000000 0 0 1
28.838351 -32.937078 28.746087 52.372122 -0.851650 0.989771 -0.020628 -0.001253 435994.000000 0 0 1
30.000751 -33.640818 29.156237 53.682733 -0.842532 0.996646 -0.012911 -0.004945 -340213.000000 0 0 1
29.708451 33.771886 29.600967 53.845609 0.849322 0.988746 -0.024318 -0.001850 -607728.000000 0 0 1
29.252851 33.496584 30.958967 54.186788 0.852925 0.962661 -0.007638 -0.000742 -445735.000000 0 0 1
28.228351 34.216513 31.505887 54.408000 0.881001 0.953212 -0.003330 -0.000617 -242802.000000 0 0 1
26.816751 34.104916 30.824787 53.220775 0.904464 0.953065 -0.016491 -0.003853 -94425.100000 0 0 1
26.144251 32.898446 31.086617 52.270521 0.899298 0.933872 -0.017915 0.003232 -89183.300000 0 0 1
24.754551 33.051449 30.854097 51.547661 0.927955 0.929101 -0.004628 0.003416 386617.000000 0 0 1
24.068851 31.651449 30.894497 50.354679 0.920651 0.910263 0.021364 -0.004480 -195812.000000 0 0 1
24.060151 31.073419 29.620017 49.211722 0.911924 0.924931 0.016589 -0.002441 186620.000000 0 0 1
23.488151 29.780949 29.600757 48.112399 0.902985 0.908104 0.049396 -0.015457 -180946.000000 0 0 1
23.034551 29.261759 28.197417 46.711191 0.903916 0.922719 0.037264 -0.015772 -356437.000000 0 0 1
22.005451 30.050679 27.645567 46.384917 0.938734 0.932282 0.060472 -0.014498 -1007.200000 0 0 1
21.549351 29.441489 26.445677 45.061620 0.938955 0.943599 0.042375 -0.008022 -298872.000000 0 0 1
20.189651 29.970369 25.987847 44.510821 0.977972 0.947328 0.066098 -0.004808 -429002.000000 0 0 1
20.169751 31.306849 25.474957 45.121071 0.998467 0.970859 0.058736 -0.014349 273480.000000 0 0 1
18.872051 31.860019 25.240377 44.813968 1.036026 0.972512 0.072580 -0.016486 98724.800000 0 0 1
18.793751 33.342485 24.791217 45.601873 1.057528 0.996023 0.091239 -0.020081 -229117.000000 0 0 1
19.124851 33.623475 23.413757 45.216170 1.053638 1.026498 0.089024 -0.023294 1113280.000000 0 0 1
20.558651 33.758513 23.340757 45.903009 1.023792 1.037378 0.077223 -0.011288 856572.000000 0 0 1
21.150151 34.114404 21.925357 45.736667 1.015817 1.070845 0.073355 -0.014369 -34217.300000 0 0 1
20.737351 -33.511918 21.395257 44.842429 -1.016664 1.073421 0.071784 -0.011767 100250.000000 0 0 1
21.321651 -33.282628 20.141557 44.362467 -1.001041 1.099522 0.074884 -0.015520 -9698.590000 0 0 1
20.935751 -31.934898 19.421057 42.840645 -0.990511 1.100296 0.062124 -0.015344 -102759.000000 0 0 1
21.521051 -30.863748 20.155457 42.684529 -0.961890 1.079016 0.052200 -0.002658 211727.000000 0 0 1
21.181251 -29.566358 19.628857 41.329251 -0.949150 1.075902 0.052469 -0.010338 -17689.600000 0 0 1
21.802751 -29.079458 18.271857 40.679671 -0.927446 1.104967 0.036273 -0.012545 -94934.100000 0 0 1
21.316751 -29.788718 17.126357 40.436168 -0.949678 1.133446 0.028327 -0.016748 391383.000000 0 0 1
21.897251 -29.167108 16.012957 39.832457 -0.926814 1.157088 0.022312 -0.008574 -166543.000000 0 0 1
21.538151 -29.946748 14.669457 39.697515 -0.947290 1.192292 0.014631 -0.015361 -132769.000000 0 0 1
22.300551 -31.117898 14.466557 40.925780 -0.948985 1.209505 0.024216 -0.009542 -50300.400000 0 0 1
22.467551 -31.491798 13.052357 40.827543 -0.951106 1.245389 0.017443 -0.011680 -90154.200000 0 0 1
21.268651 -31.757948 12.091357 40.088948 -0.980689 1.264412 0.011044 -0.005832 -60310.700000 0 0 1
20.515851 -32.918978 12.431957 40.732209 -1.013476 1.260635 0.014415 -0.010944 1001100.000000 0 0 1
19.187651 -32.812408 11.875457 39.822689 -1.041652 1.267981 0.033890 0.002421 550407.000000 0 0 1
18.138151 -33.306068 12.860657 40.046014 -1.072116 1.243856 0.044173 0.006793 -604717.000000 0 0 1
18.035351 -32.541878 14.043357 39.767620 -1.064719 1.209876 0.045636 0.008313 361798.000000 0 0 1
18.503451 -33.276258 15.205757 40.998806 -1.063316 1.190837 0.035314 -0.002543 -740935.000000 0 0 1
18.321751 -32.323258 16.482257 40.646579 -1.055125 1.153269 0.042592 -0.008873 252323.000000 0 0 1
16.987551 -31.927688 16.784557 39.870735 -1.081828 1.136277 0.064312 -0.018552 359199.000000 0 0 1
16.055151 -32.936518 17.121257 40.444030 -1.117233 1.133676 0.061269 -0.015626 -530084.000000 0 0 1
16.315851 -33.901218 18.344257 41.857035 -1.122240 1.117135 0.055064 -0.019399 120937.000000 0 0 1
17.416351 34.010924 18.241757 42.341869 1.097531 1.125394 0.038361 -0.010175 730067.000000 0 0 1
17.711151 33.497418 19.518157 42.623002 1.084428 1.095136 0.037620 -0.013936 -237097.000000 0 0 1
18.552351 32.242399 19.487857 41.994506 1.048660 1.088226 0.041810 -0.005646 -196557.000000 0 0 1
17.948551 31.056459 18.984457 40.584033 1.046761 1.084017 0.020692 -0.001699 307097.000000 0 0 1
18.997551 30.152239 18.679157 40.236493 1.008571 1.088027 0.013189 -0.008729 402917.000000 0 0 1
18.365551 28.779489 18.233257 38.704058 1.002799 1.080266 0.013071 0.002287 278604.000000 0 0 1
18.018251 27.995629 19.375557 38.520447 0.998927 1.043737 0.012577 -0.003883 -264416.000000 0 0 1
17.335051 26.920219 18.814757 37.137545 0.998692 1.039532 0.020246 -0.004461 -220075.000000 0 0 1
16.976751 25.791499 19.809957 36.685772 0.988657 1.000371 0.018417 0.000888 -295906.000000 0 0 1
16.024951 26.105369 20.770957 37.009755 1.020250 0.974926 0.018023 0.001850 -164622.000000 0 0 1
15.244451 24.969189 21.123157 36.083811 1.022670 0.945433 0.019881 -0.005671 332738.000000 0 0 1
14.079351 25.314989 22.093657 36.430845 1.063231 0.919202 0.032437 -0.016441 235521.000000 0 0 1
13.176851 26.209069 21.466957 36.350721 1.104944 0.939055 0.048584 -0.018954 50335.800000 0 0 1
11.979151 26.312299 22.224757 36.466107 1.143570 0.915413 0.056848 -0.021516 -23432.100000 0 0 1
10.966851 27.309559 21.620357 36.517443 1.188932 0.937189 0.054573 -0.027367 -304545.000000 0 0 1
11.254851 28.714189 21.804057 37.770269 1.197239 0.955402 0.043401 -0.030042 26024.800000 0 0 1
10.830451 29.478459 20.651157 37.586546 1.218703 0.989115 0.048524 -0.032722 29410.100000 0 0 1
11.160351 31.035399 20.647957 38.911278 1.225594 1.011439 0.050352 -0.032779 1791.810000 0 0 1
10.534651 31.879949 21.638757 39.944284 1.251645 0.998310 0.037230 -0.025203 -346142.000000 0 0 1
11.077751 31.769469 22.946357 40.725312 1.235287 0.972250 0.036312 -0.022521 -202215.000000 0 0 1
10.519451 32.736119 23.972887 41.916722 1.259878 0.961955 0.023237 -0.020578 -143988.000000 0 0 1
9.201351 32.372259 24.309937 41.516274 1.293864 0.945236 0.023333 -0.025168 -203634.000000 0 0 1
8.860251 33.172024 25.509557 42.774112 1.309789 0.931815 0.015744 -0.018755 -1150200.000000 0 0 1
7.552151 32.747459 26.149667 42.582110 1.344141 0.909551 0.044824 -0.028588 -727864.000000 0 0 1
6.409751 33.411759 25.610117 42.582961 1.381258 0.925523 0.044498 -0.028757 623684.000000 0 0 1
5.804051 32.875633 24.414667 41.359040 1.396051 0.939353 0.038954 -0.034491 375109.000000 0 0 1
4.974351 31.540529 24.643237 40.334083 1.414372 0.913501 0.034254 -0.035574 186721.000000 0 0 1
5.880451 30.497209 24.947557 39.837671 1.380315 0.894088 0.022511 -0.033201 -130757.000000 0 0 1
5.195851 29.278159 24.933897 38.806013 1.395160 0.873005 0.016472 -0.031913 -222485.000000 0 0 1
6.152551 28.031799 25.163077 38.168260 1.354738 0.850953 0.016640 -0.028015 213124.000000 0 0 1
7.091051 27.745339 24.133067 37.449856 1.320576 0.870545 0.028691 -0.027367 905501.000000 0 0 1
8.192251 28.675049 24.049227 38.311052 1.292517 0.892155 0.033668 -0.026337 153299.000000 0 0 1
9.433251 28.281259 24.913227 38.852087 1.248850 0.874693 0.028505 -0.025834 -742220.000000 0 0 1
9.242851 28.214179 26.296447 39.660727 1.254218 0.845931 0.019706 -0.015300 913375.000000 0 0 1
10.427251 28.196679 27.137747 40.499846 1.216589 0.836493 0.024292 0.004436 738405.000000 0 0 1
11.264551 29.512979 27.212007 41.694116 1.206181 0.859709 0.026026 0.003154 -207339.000000 0 0 1
10.673051 30.669179 27.848067 42.778819 1.235899 0.861924 0.018611 -0.005907 107351.000000 0 0 1
11.527051 31.776659 27.813187 43.774448 1.222806 0.882302 0.022209 -0.002123 -308552.000000 0 0 1
10.904351 32.969032 28.574267 44.970553 1.251377 0.882271 0.016195 -0.003023 -170097.000000 0 0 1
11.047151 32.943098 29.994317 45.901484 1.247241 0.858663 0.015905 -0.009515 34755.900000 0 0 1
10.387951 31.895329 30.672257 45.453370 1.255942 0.830093 0.016121 -0.012939 -317305.000000 0 0 1
10.509751 32.080179 32.217627 46.664421 1.254207 0.808739 0.020430 -0.018347 -301528.000000 0 0 1
10.021051 30.918979 32.926510 46.266184 1.257373 0.778916 0.018175 -0.018934 287166.000000 0 0 1
10.342751 31.000809 34.275088 47.358255 1.248780 0.761589 0.033480 -0.010659 -70685.900000 0 0 1
10.326951 29.697639 -33.763334 46.136302 1.236139 2.391781 0.014004 -0.006603 185926.000000 0 0 1
11.447651 28.878009 -34.088008 46.119198 1.193385 2.402572 0.018219 0.006900 260731.000000 0 0 1
11.321051 27.608439 -33.544604 44.895796 1.181650 2.414584 0.012962 0.001925 637058.000000 0 0 1
12.595751 26.709589 -33.792434 44.877429 1.130141 2.423397 0.005060 0.002000 757899.000000 0 0 1
12.418251 25.307229 -33.569014 43.835459 1.114617 2.443074 0.000387 -0.003500 -211533.000000 0 0 1
12.401351 24.752889 -32.278704 42.525448 1.106344 2.432640 0.006202 0.002465 -197075.000000 0 0 1
12.434251 23.251459 -32.223614 41.636549 1.079719 2.455814 0.007308 -0.012218 318728.000000 0 0 1
13.702451 22.740659 -32.618734 42.058014 1.028502 2.458406 0.004301 -0.002392 348435.000000 0 0 1
13.705351 21.356759 -32.702504 41.393255 1.000254 2.481678 0.001456 0.001379 -122534.000000 0 0 1
15.051151 20.710759 -33.144244 41.880945 0.942354 2.483879 0.012563 -0.011054 809580.000000 0 0 1
16.082951 20.913959 -32.128414 41.572707 0.915242 2.454076 0.013539 -0.007823 9934.360000 0 0 1
17.227751 20.247759 -32.600024 42.065766 0.865811 2.457476 0.015019 -0.002819 -1248520.000000 0 0 1
18.317951 20.587059 -31.635964 41.954839 0.843656 2.425000 0.013888 -0.009140 -810664.000000 0 0 1
19.054551 21.785159 -31.908614 43.079330 0.852160 2.404900 0.038393 -0.010616 550376.000000 0 0 1
20.151251 22.192959 -31.092514 43.189637 0.833578 2.374464 0.039432 -0.008864 549422.000000 0 0 1
19.825551 22.600659 -29.656254 42.229559 0.850715 2.349368 0.024311 -0.025833 -52488.500000 0 0 1
19.074851 23.800159 -29.741234 42.600921 0.895166 2.343587 0.025692 -0.012789 -33644.600000 0 0 1
18.616751 24.344749 -28.500414 41.851210 0.917945 2.319915 0.028132 -0.010670 314497.000000 0 0 1
19.774851 24.861439 -27.558434 42.054764 0.898865 2.285374 0.014829 -0.015028 524020.000000 0 0 1
20.661451 25.782979 -28.136944 43.397525 0.895227 2.276216 0.016994 -0.005670 -528295.000000 0 0 1
20.143551 27.083129 -28.400424 44.111706 0.931296 2.270289 0.006565 0.000788 -797187.000000 0 0 1
20.931051 28.008799 -29.363894 45.660048 0.929024 2.269334 0.005158 0.006459 -619742.000000 0 0 1
20.827951 27.652299 -30.718664 46.282713 0.925245 2.296575 0.017568 0.006829 -3933.260000 0 0 1
21.354951 26.391059 -31.189864 46.101296 0.890487 2.313865 0.029144 0.005983 -438820.000000 0 0 1
22.840051 26.144399 -30.950144 46.509235 0.852753 2.298909 0.041181 0.003160 -811068.000000 0 0 1
23.671551 27.111059 -31.536684 47.853049 0.853025 2.290327 0.040715 0.006116 1014260.000000 0 0 1
25.054151 26.839059 -31.172914 48.164262 0.819780 2.274729 0.050895 -0.003477 1608020.000000 0 0 1
26.122451 27.945759 -31.488694 49.546803 0.819108 2.259497 0.048658 0.001027 309284.000000 0 0 1
26.127251 29.108749 -30.704704 49.726566 0.839323 2.236320 0.040542 0.001084 774130.000000 0 0 1
27.424251 29.741959 -30.757104 50.820007 0.825919 2.220834 0.044670 -0.003080 1115320.000000 0 0 1
27.518651 30.971219 -29.760104 51.011335 0.844358 2.193707 0.032645 0.005262 13092.200000 0 0 1
27.725351 30.524149 -28.405394 50.072799 0.833410 2.173998 0.045105 -0.005195 25475.300000 0 0 1
27.041051 31.295029 -27.452524 49.641095 0.858191 2.156781 0.041737 -0.003799 -262211.000000 0 0 1
27.766051 31.380979 -26.096084 49.363195 0.846440 2.127811 0.054961 -0.002091 -357014.000000 0 0 1
27.941751 30.200909 -25.309204 48.305198 0.824234 2.122271 0.041715 0.010890 -87053.000000 0 0 1
26.769051 29.527059 -24.886644 46.986959 0.834350 2.128984 0.038561 0.007294 41270.300000 0 0 1
26.043551 30.103979 -23.616244 46.284372 0.857590 2.106263 0.032919 0.023381 -234282.000000 0 0 1
25.421951 31.344469 -23.832744 46.869510 0.889353 2.104228 0.052307 0.013869 148996.000000 0 0 1
24.730351 31.755519 -22.673144 46.196046 0.909133 2.083807 0.035562 0.024426 74225.900000 0 0 1
2.755051 -26.314888 -19.635744 32.948841 -1.466481 2.209240 -0.001611 0.009380 -354116.000000 0 0 1
2.761051 -27.367698 -18.756644 33.293032 -1.470249 2.169268 -0.000766 0.017982 135419.000000 0 0 1
2.788151 -26.841138 -17.479544 32.152060 -1.467292 2.145579 0.012768 0.015374 -277070.000000 0 0 1
2.772151 -27.980558 -16.393444 32.547526 -1.472044 2.098646 0.018407 0.003982 1038540.000000 0 0 1
3.984051 -28.781848 -16.224144 33.278977 -1.433248 2.080043 0.028487 0.005001 923410.000000 0 0 1
3.925851 -29.595408 -15.050644 33.433851 -1.438916 2.037743 0.027293 -0.006618 329358.000000 0 0 1
5.234251 -30.361508 -14.664344 34.121277 -1.400077 2.015036 0.057306 -0.008717 659820.000000 0 0 1
6.276951 -29.486208 -14.204444 33.325708 -1.361050 2.011118 0.043156 -0.003829 618689.000000 0 0 1
7.559051 -30.096748 -14.037744 34.058946 -1.324728 1.995620 0.050875 -0.004944 646188.000000 0 0 1
7.668151 -31.020648 -12.771844 34.412224 -1.328459 1.951036 0.045806 -0.019283 -893354.000000 0 0 1
7.957051 -30.227808 -11.605244 33.342417 -1.313399 1.926300 0.033842 -0.018998 -23902.700000 0 0 1
8.037451 -31.073308 -10.448344 33.753800 -1.317683 1.885512 0.031978 -0.020240 449246.000000 0 0 1
9.340351 -31.897958 -10.171244 34.758828 -1.285940 1.867765 0.032857 -0.023510 295082.000000 0 0 1
10.409551 -31.185828 -9.615944 34.254650 -1.248634 1.855340 0.033883 -0.020340 -612517.000000 0 0 1
11.510451 -32.026788 -9.425444 35.313519 -1.225771 1.840979 0.035243 -0.020233 -369387.000000 0 0 1
12.569951 -31.374188 -8.506344 34.852565 -1.189733 1.817353 0.030793 -0.027437 -515418.000000 0 0 1
13.382151 -30.467728 -9.194244 34.523884 -1.156940 1.840365 0.038720 -0.025643 -604310.000000 0 0 1
14.596451 -30.431638 -8.494644 34.803735 -1.123563 1.817360 0.028983 -0.022582 -712724.000000 0 0 1
15.718051 -29.826428 -9.343344 34.985298 -1.085795 1.841142 0.044614 -0.026747 -352509.000000 0 0 1
15.679851 -28.412058 -9.402944 33.786360 -1.066516 1.852826 0.044232 -0.025578 693786.000000 0 0 1
14.714051 -27.885668 -10.355144 33.186485 -1.085269 1.888124 0.024398 -0.019175 334830.000000 0 0 1
14.587651 -26.383678 -10.362144 31.879023 -1.065726 1.901857 0.025169 -0.021904 -740150.000000 0 0 1
13.666051 -25.859648 -9.404144 30.723286 -1.084633 1.881881 0.021945 -0.016462 373623.000000 0 0 1
13.082351 -24.623798 -9.759844 29.542070 -1.082432 1.907493 0.022172 -0.008364 121945.000000 0 0 1
12.450351 -24.422898 -11.155844 29.596318 -1.099354 1.957280 0.000891 0.001812 -561663.000000 0 0 1
13.384751 -24.074998 -12.173244 30.115527 -1.063388 1.986920 -0.001005 -0.003252 2994.700000 0 0 1
12.761251 -23.947298 -13.449344 30.285434 -1.081185 2.030950 0.002612 -0.003919 -271959.000000 0 0 1
13.514751 -23.196198 -14.574544 30.547168 -1.043248 2.068167 0.003911 -0.005791 -22815.400000 0 0 1
14.431551 -24.038098 -15.262244 31.922342 -1.030111 2.069293 0.011502 -0.005116 61540.000000 0 0 1
14.935151 -23.315098 -16.345444 32.153166 -1.001073 2.104078 0.009018 -0.013166 -537291.000000 0 0 1
15.776751 -24.244998 -17.303544 33.706653 -0.993914 2.109888 0.015595 -0.012150 2009430.000000 0 0 1
17.074851 -24.659598 -16.772144 34.364970 -0.965174 2.080661 0.036475 -0.011545 1093290.000000 0 0 1
18.123251 -23.734398 -16.726144 34.227734 -0.918657 2.081364 0.035389 -0.013530 -46280.300000 0 0 1
19.474451 -24.306598 -16.225444 35.118798 -0.895324 2.051063 0.028828 -0.009588 263627.000000 0 0 1
20.198851 -25.034058 -17.160544 36.457947 -0.891890 2.060874 0.038224 -0.005980 148647.000000 0 0 1
21.457751 -25.526798 -16.691444 37.291511 -0.871787 2.034869 0.045692 -0.004419 785516.000000 0 0 1
22.120051 -26.560898 -17.679144 38.824350 -0.876370 2.043575 0.040806 -0.002796 43634.000000 0 0 1
22.757551 -25.887798 -18.781044 39.253176 -0.849658 2.069696 0.044047 -0.005180 291577.000000 0 0 1
23.253751 -26.780798 -19.795744 40.617971 -0.855774 2.079865 0.036992 -0.011880 313303.000000 0 0 1
24.333251 -26.229918 -20.813344 41.392161 -0.822891 2.097669 0.032424 -0.010332 552666.000000 0 0 1
23.886351 -25.151408 -21.588244 40.855886 -0.811190 2.127511 0.036375 -0.013818 109842.000000 0 0 1
24.511451 -23.977898 -21.047044 40.233430 -0.774395 2.121308 0.038938 -0.009451 253993.000000 0 0 1
24.384151 -22.770398 -22.022344 39.975761 -0.751189 2.154229 0.038131 -0.010809 -275889.000000 0 0 1
24.896251 -22.938098 -23.332544 41.114320 -0.744485 2.174268 0.031109 -0.014079 260251.000000 0 0 1
23.950251 -23.558098 -24.209744 41.409060 -0.777144 2.195243 0.029537 -0.024654 400497.000000 0 0 1
22.871151 -22.595898 -24.743844 40.569964 -0.779344 2.226738 0.023589 -0.015416 -284507.000000 0 0 1
23.428051 -21.712098 -25.698474 40.996346 -0.747403 2.248297 0.010772 -0.003038 -195490.000000 0 0 1
22.613151 -20.658498 -26.185874 40.296751 -0.740257 2.278152 0.006271 0.005468 -184273.000000 0 0 1
23.173251 -20.028398 -27.476374 41.147144 -0.712732 2.301990 0.002697 0.003438 -483578.000000 0 0 1
22.343251 -19.091498 -28.038864 40.618765 -0.707080 2.332691 0.020285 0.005003 -476805.000000 0 0 1
22.882151 -18.554698 -29.227984 41.498731 -0.681340 2.352247 0.028581 0.007453 -572331.000000 0 0 1
21.995151 -17.570498 -29.934224 41.092175 -0.674030 2.386875 0.042192 0.002664 -12308.200000 0 0 1
20.824351 -18.133498 -30.558854 41.186417 -0.716437 2.406792 0.046515 -0.003352 607576.000000 0 0 1
20.057451 -17.170898 -31.195964 40.869662 -0.708017 2.439208 0.050120 -0.005873 -105959.000000 0 0 1
18.738251 -17.662598 -31.833964 40.944972 -0.755857 2.461448 0.049977 -0.011851 32358.300000 0 0 1
18.918251 -18.200598 -33.155014 42.289679 -0.766067 2.471876 0.060535 -0.014504 276099.000000 0 0 1
17.840751 -19.025698 -33.540394 42.487970 -0.817529 2.480642 0.054495 -0.016565 -172561.000000 0 0 1
18.033651 -19.668198 33.879827 43.126480 -0.828726 0.667144 0.073706 -0.018048 19739.100000 0 0 1
19.056051 -20.650098 33.923129 44.049271 -0.825523 0.691771 0.068210 -0.014123 119114.000000 0 0 1
18.990951 -21.511998 32.816274 43.592776 -0.847562 0.718504 0.061117 -0.019423 -44167.500000 0 0 1
19.581751 -22.909598 33.079435 44.749790 -0.863557 0.738902 0.050722 -0.010402 12873.600000 0 0 1
18.905351 -23.721098 34.035912 45.591075 -0.897897 0.727938 0.057087 -0.004903 61516.300000 0 0 1
19.518551 -23.636098 -33.545884 45.441889 -0.880524 2.401217 0.061569 -0.012595 123240.000000 0 0 1
18.585051 -24.266098 -32.444824 44.574816 -0.917206 2.386012 0.057415 -0.012031 393702.000000 0 0 1
18.692451 -25.652628 -32.342334 45.315468 -0.941083 2.365584 0.057252 -0.017113 -126378.000000 0 0 1
19.703051 -26.018558 -31.444234 45.320144 -0.922659 2.337583 0.041984 -0.014666 -115843.000000 0 0 1
20.030451 -27.508438 -31.444984 46.332712 -0.941422 2.316757 0.038937 -0.008733 155496.000000 0 0 1
18.985851 -28.253128 -30.843404 45.934925 -0.979117 2.306972 0.041871 -0.012973 120065.000000 0 0 1
19.283251 -29.636488 -30.974134 47.005980 -0.993958 2.290205 0.037752 -0.009523 158790.000000 0 0 1
18.054151 -30.521088 -30.592664 46.833752 -1.036628 2.282623 0.043361 -0.005268 636231.000000 0 0 1
16.904951 -30.453528 -31.409754 46.901678 -1.064041 2.304592 0.044962 -0.013202 46059.200000 0 0 1
17.061451 -31.092558 -32.624964 48.189507 -1.068928 2.314494 0.042591 -0.014454 -292397.000000 0 0 1
15.745451 -31.745438 -33.131524 48.511751 -1.110361 2.322602 0.053510 -0.027853 1032760.000000 0 0 1
14.727451 -30.773638 -33.495444 47.810662 -1.124436 2.347014 0.061014 -0.024565 533439.000000 0 0 1
13.508051 -31.427728 -33.809544 48.096308 -1.164856 2.350340 0.040683 -0.024671 83488.600000 0 0 1
12.412451 -30.515638 -34.392760 47.624942 -1.184479 2.377714 0.043609 -0.016499 36466.100000 0 0 1
11.847951 -29.624108 -33.423944 46.207378 -1.190339 2.379433 0.047307 -0.022536 -235528.000000 0 0 1
11.184551 -28.636558 -34.164044 45.960076 -1.198446 2.408849 0.026274 -0.015433 -561291.000000 0 0 1
10.181451 -27.767678 -33.415884 44.624289 -1.219353 2.417087 0.027888 -0.016655 -744839.000000 0 0 1
9.059551 -28.515848 -33.072174 44.598181 -1.263179 2.406187 0.030218 -0.007295 -219599.000000 0 0 1
8.153551 -27.692548 -32.317804 43.333568 -1.284456 2.412518 0.012809 -0.003788 582694.000000 0 0 1
7.094351 -28.406648 -31.425964 42.951818 -1.326060 2.391545 0.002876 -0.002544 1521300.000000 0 0 1
6.043051 -29.173768 -32.149454 43.831662 -1.366545 2.394218 0.006841 0.001260 1521230.000000 0 0 1
6.451451 -30.481778 -32.652074 45.132228 -1.362225 2.379620 0.007790 0.002734 480745.000000 0 0 1
5.185751 -31.360728 -32.980514 45.805039 -1.406921 2.374627 0.017608 -0.006573 595256.000000 0 0 1
4.653651 -31.772788 -31.772864 45.173902 -1.425364 2.350889 0.019860 -0.018038 -395663.000000 0 0 1
3.630951 -32.708618 -31.915684 45.843739 -1.460240 2.340864 0.037734 -0.038532 -1462400.000000 0 0 1
2.835251 -33.046308 -30.618404 45.139603 -1.485210 2.316249 0.033892 -0.050063 56322.200000 0 0 1
1.756351 -32.154828 -30.416504 44.296518 -1.516229 2.327677 0.033399 -0.038315 -151554.000000 0 0 1
0.578151 -32.531978 -31.092404 45.004460 -1.553026 2.333493 0.031927 -0.016520 -929099.000000 0 0 1
-0.526949 -31.495958 -30.877744 44.110182 1.554067 2.346213 0.016010 -0.006579 -334678.000000 0 0 1
-1.147549 -31.473678 -29.595204 43.217883 1.534352 2.325113 0.013641 -0.012298 63186.000000 0 0 1
-1.866049 -30.261948 -29.423104 42.249103 1.509211 2.341193 0.021233 -0.002775 -278544.000000 0 0 1
-2.549349 -30.204408 -28.086824 41.324026 1.486593 2.318113 0.018494 -0.002290 -691171.000000 0 0 1
-1.691749 -30.115628 -26.975594 40.465983 1.514680 2.300467 0.006559 -0.000861 -470827.000000 0 0 1
-2.346749 -30.175898 -25.770854 39.752094 1.493184 2.276132 0.015723 -0.002522 101347.000000 0 0 1
-1.321249 -30.471008 -24.612944 39.192156 1.527463 2.249786 0.002365 0.000317 146615.000000 0 0 1
-1.883749 -30.518458 -23.345744 38.470100 1.509150 2.222893 0.019415 -0.001059 -647696.000000 0 0 1
-1.009549 -30.960788 -22.345744 38.195836 1.538201 2.195714 0.010656 0.006581 -270326.000000 0 0 1
-1.592049 -30.914888 -20.954744 37.381362 1.519344 2.165866 -0.008661 0.015275 -121761.000000 0 0 1
-1.658449 -29.643518 -20.411244 36.029259 1.514908 2.173071 -0.014397 0.014780 321874.000000 0 0 1
-0.440849 -29.277468 -19.764744 35.327179 1.555740 2.164551 0.007459 0.010762 173687.000000 0 0 1
-0.481949 -27.844408 -19.206144 33.829267 1.553489 2.174551 0.005362 0.008941 -581587.000000 0 0 1
-1.287749 -27.697518 -18.076544 33.099430 1.524336 2.148532 0.009818 0.009277 -263511.000000 0 0 1
-1.115849 -26.496538 -17.328244 31.679326 1.528708 2.149560 0.013439 0.007240 47268.100000 0 0 1
-1.946349 -26.385358 -16.002644 30.920220 1.497163 2.114777 0.012014 0.006552 -9100.080000 0 0 1
-1.950249 -25.074398 -15.482444 29.533625 1.493174 2.122608 0.006947 0.005538 80637.500000 0 0 1
-2.949249 -25.094078 -14.494544 29.129069 1.453805 2.091623 0.013099 0.002557 -147665.000000 0 0 1
-2.775749 -23.849298 -13.589544 27.589301 1.454931 2.085832 0.017310 -0.004936 -463062.000000 0 0 1
-1.730949 -24.007198 -12.701044 27.215038 1.498820 2.056343 0.019128 -0.006750 -889612.000000 0 0 1
-1.322949 -22.821198 -12.105544 25.866996 1.512891 2.057813 0.017820 -0.004233 28251.500000 0 0 1
-0.034349 -22.881198 -11.260444 25.501922 1.569295 2.028125 0.016881 -0.003969 175432.000000 0 0 1
0.271351 -21.537198 -10.823944 24.105649 -1.558198 2.036466 0.013871 -0.000322 357705.000000 0 1 0
1.418351 -21.545898 -9.953844 23.776385 -1.505062 2.002748 0.003604 -0.004100 830269.000000 0 1 0
1.929551 -20.113498 -9.574044 22.359300 -1.475156 2.013286 0.011014 -0.000676 -981730.000000 0 1 0
2.396251 -19.424398 -10.701344 22.306233 -1.448054 2.071162 0.015041 0.005339 402739.000000 0 1 0
3.410351 -18.425198 -10.485444 21.472377 -1.387776 2.080963 0.013661 0.006915 610210.000000 0 1 0
4.754751 -18.869798 -9.900044 21.833182 -1.323958 2.041418 0.013027 -0.002954 -841737.000000 0 1 0
4.597851 -19.083298 -8.535844 21.404979 -1.334367 1.980981 0.011857 -0.007449 -426562.000000 0 1 0
5.612651 -19.937598 -8.043644 22.219584 -1.296387 1.941216 0.012648 -0.010382 -306470.000000 0 1 0
5.160951 -21.022098 -7.055644 22.767217 -1.330056 1.885888 0.021616 -0.011424 -439492.000000 0 1 0
4.246751 -21.898998 -7.627644 23.575029 -1.379249 1.900273 0.010222 -0.012636 -408488.000000 0 1 0
3.996451 -22.911898 -6.672644 24.196092 -1.398107 1.850191 0.017221 -0.015268 645576.000000 0 1 0
2.884551 -23.918998 -7.150444 25.131016 -1.450779 1.859309 0.005083 -0.020018 551833.000000 0 0 1
3.344551 -24.552798 -8.331644 26.142728 -1.435411 1.895152 0.009746 -0.019946 -81383.100000 0 0 1
2.384051 -25.279948 -9.067544 26.962564 -1.476768 1.913783 0.000902 -0.014783 -102126.000000 0 0 1
3.008951 -26.029398 -10.227444 28.127993 -1.455709 1.942930 0.002241 -0.014218 175116.000000 0 0 1
3.769451 -27.164798 -9.794144 29.121475 -1.432914 1.913803 0.000101 -0.018441 -28573.900000 0 0 1
4.483751 -27.729988 -10.861244 30.116821 -1.410491 1.939747 0.019114 -0.017118 116171.000000 0 0 1
4.665451 -29.264078 -10.901544 31.575249 -1.412701 1.923308 0.024287 -0.018317 197430.000000 0 0 1
3.468751 -29.954668 -11.207044 32.170052 -1.455510 1.926627 0.022538 -0.019836 147811.000000 0 0 1
3.714151 -31.380888 -11.107244 33.495163 -1.452987 1.908803 0.035990 -0.021947 311005.000000 0 0 1
2.488351 -32.275228 -11.445544 34.334862 -1.493851 1.910651 0.032097 -0.020362 327890.000000 0 0 1
2.064451 -32.270078 -12.843044 34.793156 -1.506909 1.948864 0.034352 -0.018489 800713.000000 0 0 1
0.951451 -33.155108 -13.014844 35.630782 -1.542107 1.944719 0.032256 -0.024167 168078.000000 0 0 1
0.642351 -33.416618 -14.503344 36.433913 -1.551576 1.980211 0.037687 -0.012937 -125253.000000 0 0 1
-0.259649 -32.477388 -15.022744 35.784508 1.562802 2.004034 0.025254 -0.005718 -235129.000000 0 0 1
-0.461649 -32.691828 -16.394844 36.575397 1.556676 2.035601 0.007882 -0.000518 586792.000000 0 0 1
-1.619749 -31.784278 -16.959644 36.062355 1.519880 2.060412 0.002197 0.006410 819166.000000 0 0 1
-2.894949 -31.997948 -16.381844 36.064030 1.480569 2.042319 0.006638 0.005147 -270326.000000 0 0 1
-3.853249 -31.228658 -17.059344 35.792427 1.448029 2.067601 0.001438 0.022369 662097.000000 0 0 1
-5.297149 -31.292188 -16.463544 35.753449 1.403106 2.049326 0.007134 0.013716 531983.000000 0 0 1
-5.572349 -30.422168 -15.350544 34.528229 1.389637 2.031501 0.005793 0.009167 -505307.000000 0 0 1
-6.908549 -30.233328 -14.974744 34.438716 1.346146 2.020638 0.023234 0.006816 -200970.000000 0 0 1
-7.455949 -31.215248 -13.953244 34.995370 1.336333 1.980914 0.022259 0.000192 -84617.700000 0 0 1
-7.749349 -32.499158 -14.412944 36.386545 1.336720 1.978069 0.019627 0.002023 -114902.000000 0 0 1
-8.479749 -33.197938 -13.397144 36.789845 1.320714 1.943520 0.031331 0.003767 312455.000000 0 0 1
-8.935649 34.244642 -13.841644 38.001742 -1.315552 1.943610 0.042184 -0.006972 -621752.000000 0 0 1
-7.829849 33.459359 -14.174344 37.171861 -1.340922 1.962019 0.035620 -0.007207 -516817.000000 0 0 1
-8.170249 32.163569 -14.633244 36.268167 -1.322036 1.986106 0.044218 -0.021093 -499937.000000 0 0 1
-7.028849 -21.767998 -3.008544 23.071667 1.258467 1.701569 0.022776 -0.007675 254984.000000 0 1 0
-6.991249 -20.913798 -4.121044 22.433179 1.248186 1.755549 0.018436 -0.003740 -366741.000000 0 1 0
-5.910449 -21.135498 -4.989344 22.506360 1.298116 1.794339 0.008230 0.003705 -54984.400000 0 1 0
-5.786449 -20.134298 -6.168444 21.838559 1.290946 1.857150 -0.001186 0.006125 170931.000000 0 1 0
-6.775549 -20.355598 -7.177744 22.622521 1.249473 1.893660 0.010485 -0.000141 -228839.000000 0 1 0
-6.974549 -19.225598 -7.987644 21.956102 1.222787 1.943141 -0.000256 -0.006902 316988.000000 0 1 0
-8.050949 -19.451198 -9.120844 22.942465 1.178361 1.979645 0.008395 -0.010363 452235.000000 0 1 0
-7.636749 -20.431198 -10.000944 23.995264 1.213097 2.000705 0.028241 -0.001318 -500958.000000 0 1 0
-8.498249 -20.685098 -11.115544 24.972962 1.180981 2.032086 0.025421 0.004824 -63303.600000 0 1 0
-7.961249 -21.560598 -12.273944 26.055529 1.217076 2.061298 0.024361 0.003466 -237468.000000 0 0 1
-7.006949 -20.805898 -13.058244 25.544089 1.245950 2.107382 0.032046 0.000748 87776.400000 0 0 1
-6.715749 -21.600698 -14.138844 26.675801 1.269366 2.129426 0.028743 0.004077 214829.000000 0 0 1
-5.594149 -21.033598 -15.053344 26.463369 1.310851 2.175887 0.029089 0.009419 2076890.000000 0 0 1
-4.196849 -21.143798 -14.586444 26.027641 1.374852 2.165691 0.026342 0.004754 2013750.000000 0 0 1
-3.215749 -20.321698 -15.200444 25.580578 1.413856 2.207090 0.030334 0.006220 404516.000000 0 0 1
-3.449349 -18.762898 -15.120844 24.343054 1.388988 2.241014 0.040454 0.004021 -828198.000000 0 1 0
-4.452649 -18.202498 -15.950944 24.608731 1.330890 2.275991 0.038156 0.000783 -349046.000000 0 1 0
-4.369549 -18.362198 -17.370344 25.651357 1.337177 2.314707 0.041147 -0.006242 251458.000000 0 0 1
-5.685549 -17.913698 -18.096544 26.090438 1.263467 2.337282 0.023160 0.008745 838318.000000 0 0 1
-6.830849 -18.702098 -17.794544 26.703460 1.220605 2.300134 0.033010 0.011370 227140.000000 0 0 1
-7.799949 -18.669598 -18.831044 27.640574 1.175049 2.320310 0.022627 0.009750 266269.000000 0 0 1
-8.971649 -19.626198 -18.481244 28.411873 1.142032 2.279007 0.023544 0.013627 -144445.000000 0 0 1
-8.509149 -20.938498 -18.317144 29.091994 1.184795 2.251871 0.036210 0.012049 621419.000000 0 0 1
-9.552749 -21.906798 -18.114944 29.988565 1.159592 2.219384 0.036687 0.015169 316068.000000 0 0 1
-9.011249 -23.328398 -18.263044 30.967007 1.202175 2.201556 0.042511 0.000278 -793025.000000 0 0 1
-8.635849 -23.640298 -19.603244 31.901861 1.220555 2.232530 0.043971 -0.005499 1399210.000000 0 0 1
-7.439249 -24.480398 -19.687244 32.283431 1.275778 2.226636 0.050939 -0.009758 1268920.000000 0 0 1
-6.109149 -23.789098 -19.317744 31.247690 1.319424 2.237264 0.067453 -0.006059 -1410930.000000 0 0 1
-5.569449 -23.010298 -20.347444 31.217160 1.333322 2.280756 0.057262 -0.009679 -163333.000000 0 0 1
-4.994649 -21.783898 -20.031744 30.012589 1.345410 2.301568 0.061004 -0.009901 54724.500000 0 0 1
-3.814249 -21.718598 -19.048044 29.138874 1.396948 2.283258 0.044392 -0.007631 -895725.000000 0 0 1
-2.627249 -22.280498 -19.506644 29.729316 1.453421 2.286491 0.044858 -0.013297 12801.800000 0 0 1
-1.641949 -22.226698 -18.438644 28.925866 1.497057 2.261974 0.055450 -0.008156 -268909.000000 0 0 1
-0.309449 -22.875698 -18.642644 29.511718 1.557270 2.254545 0.028505 -0.009198 -382269.000000 0 0 1
0.441051 -22.135298 -19.655444 29.605784 -1.550874 2.296826 0.026430 -0.011050 1688790.000000 0 0 1
1.838651 -22.595698 -19.704444 30.036833 -1.489603 2.286316 0.026088 -0.011230 1864130.000000 0 0 1
2.639951 -21.962498 -20.845144 30.394748 -1.451168 2.326518 0.035897 -0.010028 -55792.500000 0 0 1
2.091051 -22.262698 -22.086444 31.429464 -1.477145 2.350025 0.020241 -0.014669 36889.000000 0 0 1
1.132651 -21.320898 -22.566544 31.066260 -1.517722 2.383866 0.029187 -0.015497 -246019.000000 0 0 1
0.887851 -21.463798 -24.087444 32.275190 -1.529455 2.413304 0.035102 -0.021621 100425.000000 0 0 1
0.193451 -20.451698 -24.758944 32.114089 -1.561338 2.451156 0.031450 -0.019031 32904.200000 0 0 1
-1.200749 -20.311598 -24.501144 31.848216 1.511749 2.448556 0.036663 -0.021641 247417.000000 0 0 1
-1.703449 -19.085798 -25.303454 31.740104 1.481780 2.493452 0.034116 -0.018416 -8682.010000 0 0 1
-1.169249 -17.863198 -24.837644 30.616491 1.505434 2.517084 0.033545 -0.011223 -279791.000000 0 0 1
-1.523649 -16.804498 -25.691544 30.737080 1.480374 2.560473 0.026689 -0.003785 38184.700000 0 0 1
-1.035249 -15.400098 -25.191514 29.543987 1.503674 2.591887 0.025122 0.003471 688857.000000 0 0 1
0.369051 -15.174298 -25.349554 29.546496 -1.546480 2.602071 0.038415 -0.012080 152727.000000 0 0 1
0.918951 -13.923298 -25.093964 28.712536 -1.504891 2.634114 0.040979 -0.010449 163376.000000 0 0 1
0.537551 -12.706998 -25.990604 28.935588 -1.528518 2.686506 0.029384 0.002318 -178500.000000 0 0 1
1.127051 -11.533298 -25.512074 28.020584 -1.473384 2.715230 0.029314 0.001868 -37664.100000 0 0 1
0.825151 -10.435698 -26.389214 28.389704 -1.491890 2.763945 0.022187 0.004469 -310452.000000 0 0 1
1.683351 -9.130598 -26.132854 27.733149 -1.388480 2.800222 0.041952 0.000553 1786680.000000 0 0 1
3.102351 -9.120398 -26.422554 28.123968 -1.242919 2.791973 0.036546 -0.010644 915163.000000 0 0 1
3.382351 -9.389698 -27.763604 29.502956 -1.225047 2.796502 0.030364 -0.004314 -176034.000000 0 0 1
4.849351 -8.931898 -28.052044 29.836424 -1.073401 2.793997 0.028276 -0.011279 -484233.000000 0 0 1
4.958351 -7.527698 -28.340884 29.739825 -0.988343 2.833655 0.035457 -0.012206 1100450.000000 0 0 1
6.229251 -7.065998 -28.865844 30.363940 -0.848251 2.826159 0.050666 -0.013300 878600.000000 0 0 1
7.510151 -7.274798 -28.027384 29.914199 -0.769481 2.784525 0.060760 -0.021641 -504072.000000 0 0 1
7.973151 -8.587198 -27.682034 30.060042 -0.822461 2.741157 0.047156 -0.020649 257961.000000 0 0 1
8.564651 -9.344398 -28.721424 31.394127 -0.828910 2.725973 0.061669 -0.023821 -402355.000000 0 0 1
9.025451 -10.726998 -28.230874 31.519986 -0.871330 2.680687 0.053625 -0.030465 -130482.000000 0 0 1
7.920151 -11.497498 -27.821434 31.128017 -0.967587 2.676488 0.056522 -0.028883 -8274.860000 0 0 1
8.199251 -12.682798 -27.146914 31.065029 -0.996895 2.633911 0.051931 -0.029577 -107873.000000 0 0 1
9.037651 -13.780898 -27.923804 32.424237 -0.990348 2.608425 0.062076 -0.034916 510155.000000 0 0 1
8.270951 -14.245198 -29.025384 33.373750 -1.044754 2.625405 0.068996 -0.037898 -46951.100000 0 0 1
8.877151 -15.290098 -29.703084 34.566806 -1.044777 2.604686 0.071302 -0.032893 502742.000000 0 0 1
7.885951 -15.891998 -30.819394 35.560918 -1.110176 2.619274 0.046808 -0.030893 422600.000000 0 0 1
7.419551 -14.819098 -31.619184 35.699134 -1.106609 2.658824 0.048397 -0.026966 92996.000000 0 0 1
6.689251 -15.438398 -32.644894 36.725731 -1.161928 2.665698 0.038523 -0.021372 -380090.000000 0 0 1
5.855351 -14.420998 -33.476094 36.917465 -1.185103 2.706384 0.034368 -0.014562 461804.000000 0 0 1
6.594151 -13.527698 -34.323970 37.478212 -1.117235 2.728386 0.040521 -0.009405 288494.000000 0 0 1
5.630351 -12.732298 33.871304 36.620725 -1.154439 0.389967 0.017395 -0.010298 -258375.000000 0 0 1
6.242951 -11.715498 32.849953 35.430873 -1.081192 0.384046 0.042324 -0.007253 -208146.000000 0 0 1
6.307151 -12.275998 31.601847 34.484156 -1.096186 0.411764 0.038733 -0.013841 148614.000000 0 0 1
6.664351 -11.341598 30.641017 33.345424 -1.039543 0.405521 0.048073 -0.008947 -477227.000000 0 0 1
7.151051 -11.934098 29.318867 32.452368 -1.030957 0.443062 0.037152 -0.005494 -42044.700000 0 0 1
6.159151 -12.569698 28.532827 31.781357 -1.115181 0.456082 0.024606 -0.010214 346635.000000 0 0 1
6.508551 -12.282498 27.197367 30.543702 -1.083512 0.472483 0.022913 -0.007282 344001.000000 0 0 1
5.610851 -13.072498 26.181167 29.796398 -1.165365 0.497729 0.007542 -0.017718 -310650.000000 0 0 1
5.686551 -14.430798 26.546847 30.746055 -1.195424 0.528781 0.008408 -0.003777 3835.180000 0 0 1
5.258151 -15.325198 25.510247 30.220565 -1.240277 0.565846 -0.007138 -0.002827 539946.000000 0 0 1
3.703451 -15.375698 25.338677 29.869318 -1.334435 0.557996 -0.001719 -0.012079 248925.000000 0 0 1
3.098751 -14.119198 25.007477 28.884735 -1.354751 0.524114 -0.010001 -0.013578 134972.000000 0 0 1
1.726951 -14.370498 24.670827 28.603204 -1.451197 0.530568 -0.008332 -0.014014 823061.000000 0 0 1
0.893651 -13.074198 24.644057 27.911697 -1.502550 0.488731 -0.008855 -0.015747 -238337.000000 0 0 1
1.300951 -12.275498 23.521357 26.563783 -1.465211 0.483298 -0.018384 -0.008527 757797.000000 0 0 1
0.436451 -11.097898 23.252557 25.768881 -1.531489 0.445605 -0.012034 -0.005698 2163220.000000 0 0 1
-1.043749 -11.414398 22.765257 25.487935 1.479608 0.466434 -0.001505 -0.008686 762433.000000 0 0 1
-1.044949 -12.161398 21.561257 24.776588 1.485083 0.515133 0.002924 -0.010279 -486630.000000 0 1 0
-2.234749 -12.877098 21.384657 25.062269 1.398963 0.548589 0.021749 -0.014803 -130466.000000 0 0 1
-2.275749 -13.728598 20.113757 24.458468 1.406523 0.605243 0.032910 -0.016879 -469044.000000 0 1 0
-1.361249 -14.757998 20.000357 24.893087 1.478819 0.637728 0.036428 -0.020481 -678982.000000 0 1 0
-1.507449 -15.391198 18.714757 24.277634 1.473165 0.690600 0.038942 -0.020692 128497.000000 0 1 0
-2.396949 -16.637898 18.834557 25.244911 1.427715 0.728651 0.022426 -0.015757 -105946.000000 0 0 1
-2.401249 -17.511998 17.688157 25.006139 1.434526 0.785050 0.014172 -0.003408 -18950.700000 0 0 1
-3.383649 -18.537498 17.914357 26.000233 1.390254 0.810678 0.010263 0.011884 457486.000000 0 0 1
-3.063749 -19.818798 17.158957 26.393202 1.417422 0.863044 0.013889 0.010588 747772.000000 0 0 1
-2.008249 -20.628098 17.721457 27.269058 1.473747 0.863377 0.018240 0.003050 173945.000000 0 0 1
-2.033249 -21.938098 17.257457 27.986319 1.478379 0.906330 0.008214 -0.019540 -4871.710000 0 0 1
-0.976849 -22.883998 17.855257 29.042070 1.528135 0.908656 0.021329 -0.008280 970768.000000 0 0 1
0.345151 -22.803798 17.313657 28.633810 -1.555662 0.921460 0.030291 -0.006333 460503.000000 0 0 1
1.263851 -23.734998 17.898257 29.753908 -1.517598 0.925365 0.029087 0.005441 284613.000000 0 0 1
2.629551 -23.657598 17.202057 29.368474 -1.460100 0.945013 0.034254 -0.001141 -173463.000000 0 0 1
3.315951 -22.472198 17.516157 28.684682 -1.424296 0.913922 0.037715 0.000146 2909.840000 0 0 1
4.453151 -22.178698 16.718657 28.128966 -1.372646 0.934330 0.038430 -0.006675 404477.000000 0 0 1
5.033851 -20.772498 16.887357 27.240029 -1.333047 0.902122 0.045935 -0.012212 -236696.000000 0 0 1
5.697151 -20.642298 18.165257 28.080929 -1.301506 0.867298 0.045456 -0.009867 -26454.900000 0 0 1
6.105151 -19.345198 18.599957 27.522136 -1.265099 0.828722 0.041245 0.005770 1166190.000000 0 0 1
7.218651 -18.682298 17.652457 26.697311 -1.202078 0.848369 0.038856 -0.005288 242647.000000 0 0 1
6.670751 -18.104698 16.520957 25.401201 -1.217777 0.862685 0.030737 -0.007849 -614671.000000 0 0 1
7.636151 -17.693598 15.614857 24.803185 -1.163368 0.889822 0.045729 -0.007741 -356151.000000 0 1 0
7.021051 -16.724098 14.595057 23.281029 -1.173324 0.893219 0.029883 -0.007040 412986.000000 0 1 0
5.918751 -17.304898 13.880357 22.959866 -1.241242 0.921597 0.025625 -0.005557 276840.000000 0 1 0
5.455251 -16.360098 12.922757 21.550179 -1.248942 0.927722 0.016133 -0.008102 -111764.000000 0 1 0
6.065251 -16.470998 11.489857 20.978510 -1.217967 0.991188 0.016437 -0.008494 -615622.000000 0 1 0
7.409651 -16.139798 11.399057 21.102950 -1.140407 1.000164 0.031783 -0.005035 -824689.000000 0 1 0
7.844451 -16.291398 10.061157 20.692316 -1.122051 1.063030 0.030833 -0.011439 -350206.000000 0 1 0
9.301451 -15.896898 9.897057 20.908852 -1.041397 1.077714 0.032775 -0.006527 -407510.000000 0 1 0
10.013151 -16.408998 8.784057 21.134760 -1.022894 1.142171 0.039132 -0.007037 -67092.600000 0 1 0
11.363951 -15.960498 8.898257 21.518733 -0.952059 1.144488 0.035357 -0.001938 344722.000000 0 1 0
12.194151 -16.775698 7.891957 22.190186 -0.942248 1.207186 0.027308 -0.013102 -179554.000000 0 1 0
12.550451 -18.091598 8.269457 23.520282 -0.964300 1.211529 0.042487 -0.016009 173406.000000 0 1 0
13.464751 -18.852998 7.490357 24.348317 -0.950606 1.258091 0.048822 -0.014185 430895.000000 0 1 0
14.084451 -20.043098 8.342757 25.878546 -0.958255 1.242552 0.051652 -0.011385 342236.000000 0 0 1
13.101951 -20.942098 8.900557 26.257428 -1.011746 1.224971 0.048715 -0.010088 170517.000000 0 0 1
13.644951 -22.101798 9.450557 27.640319 -1.017704 1.221846 0.047705 -0.010607 -447835.000000 0 0 1
12.646651 -23.135998 10.015057 28.204850 -1.070550 1.207794 0.051459 -0.014826 -61475.200000 0 0 1
12.244051 -22.657598 11.301557 28.124878 -1.075357 1.157277 0.056995 -0.016979 -420313.000000 0 0 1
11.382451 -23.460598 12.086357 28.740910 -1.119080 1.136769 0.065884 -0.011560 -329538.000000 0 0 1
11.774351 -24.875598 12.457557 30.209625 -1.128712 1.145742 0.036491 -0.016065 -255622.000000 0 0 1
12.928051 -24.917098 13.267157 31.048571 -1.092189 1.129288 0.001322 -0.018499 -440.602000 0 0 1
13.002251 -26.153628 13.930557 32.359407 -1.109432 1.125755 0.014230 -0.018310 -784407.000000 0 0 1
14.212051 -26.269568 14.806657 33.336312 -1.074883 1.110560 0.030051 -0.013268 -803319.000000 0 0 1
14.019651 -25.616678 16.033657 33.314306 -1.070039 1.068677 0.039637 -0.019970 405020.000000 0 0 1
14.884051 -26.203568 16.986557 34.593425 -1.054226 1.057520 0.047856 -0.014570 -246095.000000 0 0 1
14.424351 -25.748688 18.380957 34.769476 -1.060158 1.013784 0.042494 -0.014402 67426.100000 0 0 1
14.625351 -24.359798 18.703257 34.016356 -1.030091 0.988634 0.017481 -0.013498 1167710.000000 0 0 1
15.995651 -24.149798 19.141457 34.719864 -0.985787 0.986861 0.017550 -0.015042 1215620.000000 0 0 1
16.425851 -22.703498 19.503157 34.141332 -0.944476 0.962771 -0.002861 -0.010217 6477.450000 0 0 1
16.551251 -21.829898 18.465557 33.037330 -0.922073 0.977701 -0.008435 -0.011457 604083.000000 0 0 1
15.336151 -21.119098 18.157057 31.794537 -0.942719 0.962982 0.002408 -0.010259 228323.000000 0 0 1
15.539651 -19.972498 17.120557 30.553149 -0.909582 0.975984 -0.001374 -0.007322 275485.000000 0 0 1
16.380051 -18.934698 17.637257 30.625181 -0.857612 0.957083 -0.003368 -0.013038 989591.000000 0 0 1
17.761751 -19.116298 17.290357 31.302861 -0.822112 0.985607 -0.000141 -0.010240 1029030.000000 0 0 1
18.747951 -17.893198 17.496757 31.269613 -0.762075 0.976960 0.013971 -0.009682 189928.000000 0 0 1
19.058151 -17.727798 18.835757 32.129016 -0.749249 0.944370 0.012614 -0.004016 -45634.500000 0 0 1
19.164151 -16.343798 19.180157 31.658535 -0.706136 0.919969 0.024522 -0.005976 -183108.000000 0 0 1
19.593751 -16.051798 20.612357 32.656463 -0.686357 0.887713 0.029673 0.000267 685643.000000 0 0 1
21.013051 -16.159398 20.782057 33.683354 -0.655561 0.905893 0.032962 0.000893 620805.000000 0 0 1
21.494951 -16.022698 22.111257 34.751510 -0.640561 0.881146 0.044866 -0.003148 -124739.000000 0 0 1
33.137305 -1.419098 -8.048344 34.130201 -0.042799 1.808851 0.042848 -0.007487 -161774.000000 0 0 1
34.496285 -1.050498 -8.277044 35.490938 -0.030443 1.806180 0.032494 -0.007716 278495.000000 0 0 1
35.355230 -2.120998 -8.118344 36.337287 -0.059919 1.796114 0.043334 -0.013817 402151.000000 0 0 1
-34.546895 -1.971298 -8.895244 35.728131 0.057000 1.822413 0.035822 -0.005963 876885.000000 0 0 1
-33.632729 -2.996798 -8.569344 34.836402 0.088869 1.819335 0.057274 -0.004870 491375.000000 0 0 1
-32.366139 -2.926998 -9.222844 33.781579 0.090189 1.847321 0.090325 -0.005004 331297.000000 0 0 1
-31.345829 -3.971698 -8.755444 32.787088 0.126034 1.841116 0.083691 -0.003095 -293314.000000 0 0 1
-30.879829 -3.629198 -7.478144 31.979017 0.116990 1.806827 0.082972 -0.005615 6872.180000 0 0 1
-29.930899 -4.507298 -6.950744 31.056196 0.149467 1.796520 0.071312 -0.013999 -145984.000000 0 0 1
-29.785779 -4.403298 -5.376444 30.585745 0.146769 1.747497 0.071604 -0.019060 -200250.000000 0 0 1
-29.192289 -3.196898 -5.004544 29.790189 0.109077 1.739590 0.069990 -0.014221 452605.000000 0 0 1
-29.384089 -2.945898 -3.603844 29.750474 0.099921 1.692230 0.074652 -0.018647 -313314.000000 0 0 1
-29.004179 -1.530498 -3.195244 29.219760 0.052719 1.680368 0.081268 -0.016888 -90907.400000 0 0 1
-27.604609 -1.424698 -3.012644 27.805039 0.051565 1.679358 0.072844 -0.010003 436687.000000 0 0 1
-27.199699 -0.091198 -2.894444 27.353423 0.003353 1.676811 0.090424 -0.017044 -999998.000000 0 0 1
-25.743459 0.099202 -2.537544 25.868410 -0.003853 1.669049 0.071172 -0.007707 -995326.000000 0 0 1
-25.471149 -0.542598 -1.320344 25.511118 0.021299 1.622575 0.060769 -0.007168 -37087.700000 0 0 1
-24.144049 -0.368998 -0.912644 24.164109 0.015282 1.608574 0.045718 -0.005339 -356974.000000 0 1 0
-23.831649 -1.090598 0.348756 23.859139 0.045731 1.556179 0.045608 -0.008869 -165485.000000 0 1 0
-23.996749 -2.498998 0.211056 24.127443 0.103765 1.562049 0.042387 -0.009589 582275.000000 0 1 0
-23.123149 -3.294198 1.043656 23.379927 0.141511 1.526143 0.027689 -0.009379 125434.000000 0 1 0
-23.223349 -4.777698 0.940756 23.728366 0.202897 1.531139 0.024752 -0.005924 -619138.000000 0 1 0
-24.370949 -5.326298 1.528356 24.992969 0.215168 1.509607 0.020288 -0.005394 -102833.000000 0 1 0
-24.364249 -6.743198 1.360056 25.316736 0.270007 1.517049 0.007440 -0.005592 1804.530000 0 0 1
-25.615589 -7.437598 1.952456 26.744875 0.282584 1.497728 0.010624 -0.001984 -59643.500000 0 0 1
-25.712079 -7.453598 3.396356 26.985225 0.282153 1.444602 0.019804 -0.000487 108138.000000 0 0 1
-26.906869 -8.054198 3.856256 28.349963 0.290848 1.434350 0.022702 0.006178 -141162.000000 0 0 1
-26.805559 -8.208698 5.434256 28.556118 0.297164 1.379328 0.028591 0.001525 -93198.000000 0 0 1
-26.029599 -9.332598 5.828756 28.259721 0.344261 1.363048 0.030598 0.002481 67510.900000 0 0 1
-26.119759 -9.663998 7.219256 28.770685 0.354369 1.317162 0.027355 -0.002700 270762.000000 0 0 1
-25.398109 -8.550998 8.102656 27.997081 0.324758 1.277185 0.038292 -0.003224 1007340.000000 0 0 1
-23.974749 -8.377998 7.973456 26.618705 0.336186 1.266582 0.044593 -0.007216 859777.000000 0 0 1
-23.704649 -7.071698 8.519256 26.162894 0.289920 1.239125 0.046158 -0.007814 306037.000000 0 0 1
-22.351349 -6.507398 7.986356 24.611195 0.283310 1.240312 0.055215 -0.012050 283548.000000 0 1 0
-21.218449 -7.004898 8.625256 23.951748 0.318867 1.202411 0.046438 -0.016495 439059.000000 0 1 0
-19.998349 -6.602798 7.983956 22.522754 0.318898 1.208434 0.043800 -0.015599 742602.000000 0 1 0
-18.676649 -6.889898 8.717956 21.732250 0.353416 1.158021 0.037508 -0.016486 -74231.300000 0 1 0
-18.564249 -5.955998 9.804956 21.822979 0.310457 1.104820 0.034461 -0.011028 176008.000000 0 1 0
-17.492649 -6.263698 10.663656 21.422891 0.343851 1.049771 0.027631 -0.015721 -344684.000000 0 1 0
-17.318149 -5.174598 11.746556 21.556352 0.290352 0.994499 0.018568 -0.006833 -481982.000000 0 1 0
-18.400649 -5.123798 12.613056 22.889438 0.271578 0.987183 0.027465 -0.005947 -283315.000000 0 1 0
-18.543749 -3.813398 13.068756 23.004456 0.202816 0.966605 0.032632 -0.001587 -277962.000000 0 1 0
-19.678449 -3.642798 14.058156 24.456964 0.183044 0.958422 0.028434 -0.004259 -402932.000000 0 1 0
-19.416349 -4.383198 15.247456 25.073730 0.222026 0.917125 0.021900 -0.003616 -69144.700000 0 0 1
-20.443549 -4.205398 16.176356 26.406411 0.202878 0.911461 0.009519 0.006087 -404019.000000 0 0 1
-20.459549 -5.213998 17.388156 27.351908 0.249533 0.881855 0.006075 0.013428 -534471.000000 0 0 1
-21.366149 -4.962698 18.426656 28.647554 0.228223 0.872101 -0.009761 0.011833 53941.000000 0 0 1
-21.329849 -5.798498 19.553856 29.511664 0.265434 0.846537 -0.002458 0.011684 -790715.000000 0 0 1
-22.192649 -5.489398 20.796056 30.905066 0.242485 0.832673 -0.003215 0.006658 -656597.000000 0 0 1
-21.865049 -4.196498 21.285156 30.801767 0.189621 0.807874 -0.002510 -0.000599 -65894.500000 0 0 1
-22.550649 -3.760998 22.394556 32.003016 0.165259 0.795729 -0.002889 -0.004797 -649833.000000 0 0 1
-22.519949 -2.292998 22.814556 32.138916 0.101471 0.781478 0.001195 0.002652 -32274.800000 0 0 1
-23.416849 -1.487698 22.064356 32.208661 0.063446 0.816132 0.006455 -0.000605 22977.200000 0 0 1
-23.105049 -0.127598 22.173556 32.023837 0.005522 0.805975 0.011372 -0.002431 -97932.100000 0 0 1
-24.292449 0.643002 21.575456 32.496720 -0.026463 0.844738 0.014805 -0.002744 723480.000000 0 0 1
-25.399469 0.643302 22.492456 33.933132 -0.025322 0.846182 0.015508 -0.007166 166812.000000 0 0 1
-26.545589 1.307202 22.021956 34.515846 -0.049204 0.878866 0.023152 -0.008363 195677.000000 0 0 1
-27.703449 1.320602 23.026256 36.047657 -0.047633 0.877894 0.027780 -0.010427 -271067.000000 0 0 1
-27.344119 2.164602 24.095256 36.509830 -0.078997 0.850022 0.023118 -0.007973 397758.000000 0 0 1
-28.328169 2.217802 25.132656 37.934868 -0.078130 0.846617 0.021906 -0.009149 -88403.300000 0 0 1
-27.918219 3.125302 26.277856 38.467131 -0.111481 0.818763 0.029558 -0.004265 -360949.000000 0 0 1
-26.770429 2.631902 26.908156 38.047755 -0.097999 0.785237 0.024906 -0.003901 -133317.000000 0 0 1
-26.412459 3.557202 27.912556 38.592518 -0.133873 0.762280 0.019558 -0.007717 791571.000000 0 0 1
-25.267869 3.125702 28.954956 38.556772 -0.123077 0.721267 0.025911 -0.002681 940219.000000 0 0 1
-25.708059 2.188902 29.930756 39.516398 -0.084940 0.711434 0.019965 -0.005686 463824.000000 0 0 1
-24.643649 1.933002 30.832956 39.518567 -0.078278 0.675788 0.023112 -0.007192 158863.000000 0 0 1
-24.991449 0.911702 31.852456 40.496700 -0.036464 0.665603 0.018543 -0.009320 -35489.100000 0 0 1
-25.024149 -0.371098 31.299356 40.074873 0.014829 0.674496 0.010500 -0.011784 -145334.000000 0 0 1
-25.447419 -1.323498 32.258056 41.108454 0.051962 0.668574 0.012616 -0.003976 -617803.000000 0 0 1
-26.031089 -2.546698 31.543056 40.976428 0.097523 0.692291 0.010783 0.003972 -542286.000000 0 0 1
-27.286929 -2.456098 30.924656 41.315170 0.089768 0.724990 -0.005152 0.006396 -115202.000000 0 0 1
-27.447699 -1.569098 29.821856 40.560835 0.057105 0.744779 -0.005860 0.006781 -37247.500000 0 0 1
-28.962859 -1.421598 29.402656 41.296299 0.049044 0.778465 -0.000493 -0.004412 1043690.000000 0 0 1
-29.740299 -0.847698 30.408056 42.542377 0.028496 0.774500 0.009830 -0.000961 -1111630.000000 0 0 1
-31.029329 -0.550098 29.979356 43.149550 0.017726 0.802685 0.003351 -0.005784 -258428.000000 0 0 1
-31.956639 -0.130398 31.162456 44.635663 0.004080 0.797984 0.012003 -0.003794 -100242.000000 0 0 1
-32.201119 -1.159598 32.094656 45.478827 0.035996 0.787378 0.003696 -0.009486 -116643.000000 0 0 1
-32.699939 -0.709598 33.340256 46.705056 0.021697 0.775820 0.011039 -0.005985 -10175.900000 0 0 1
-32.807899 -1.989298 34.226856 47.453063 0.060561 0.765151 0.022304 -0.014183 -153813.000000 0 0 1
-33.716679 -2.965998 33.801756 47.834823 0.087742 0.786065 0.027479 -0.013658 -45142.200000 0 0 1
-33.921229 -3.945998 -34.047844 48.223193 0.115808 2.354697 0.011326 -0.002385 -498543.000000 0 0 1
-34.971113 -4.906398 34.223856 49.176456 0.139389 0.801068 0.005499 -0.015412 -785398.000000 0 0 1
34.990075 -4.499698 -34.326644 49.222669 -0.127897 2.342524 0.007499 -0.022076 -387317.000000 0 0 1
34.058845 -5.300398 33.730356 48.226922 -0.154386 0.796226 0.001804 -0.017433 108483.000000 0 0 1
32.573635 -4.907798 33.963956 47.314675 -0.149543 0.770114 0.018451 -0.016271 -243288.000000 0 0 1
32.027455 -5.500698 -33.706744 46.820510 -0.170090 2.374475 0.015741 -0.012896 163412.000000 0 0 1
31.521565 -6.834498 -33.972744 46.845136 -0.213515 2.382141 0.022259 -0.018957 -1006810.000000 0 0 1
30.029435 -6.886898 -34.288244 46.096421 -0.225440 2.409590 0.017360 -0.023585 -916845.000000 0 0 1
29.270195 -6.882398 -33.085444 44.707475 -0.230938 2.403930 0.019041 -0.021619 217156.000000 0 0 1
27.929935 -7.018998 -33.570244 44.230181 -0.246209 2.432556 0.039152 -0.018226 57138.700000 0 0 1
26.860295 -6.898298 -32.464044 42.696324 -0.251388 2.434644 0.038168 -0.012890 30133.600000 0 0 1
25.623635 -7.448898 -32.878144 42.344174 -0.282907 2.459809 0.034938 -0.017427 -186564.000000 0 0 1
24.561935 -7.028098 -32.074844 41.005834 -0.278691 2.468989 0.026290 -0.011826 -182868.000000 0 0 1
23.176135 -7.527398 -32.570844 40.677449 -0.314043 2.499276 0.026252 -0.018699 104581.000000 0 0 1
23.043635 -8.934898 -32.658644 40.956422 -0.369891 2.493770 0.037784 -0.017386 136693.000000 0 0 1
22.824335 -9.591098 -31.419544 40.001590 -0.397810 2.474231 0.036007 -0.013849 -374057.000000 0 0 1
22.655135 -11.108698 -31.474644 40.339950 -0.455889 2.465838 0.036235 -0.016833 240488.000000 0 0 1
21.422535 -11.539298 -32.040944 40.233102 -0.494089 2.492087 0.040600 -0.021368 -338228.000000 0 0 1
21.414935 -12.955398 -32.125744 40.724749 -0.544066 2.479733 0.039512 -0.013712 -1603450.000000 0 0 1
20.167835 -13.560298 -32.791844 40.815785 -0.591942 2.503798 0.032883 -0.008761 376847.000000 0 0 1
18.904735 -13.262498 -32.204444 39.628387 -0.611761 2.519500 0.016800 -0.009080 321124.000000 0 0 1
18.624535 -11.924498 -32.569444 39.367952 -0.569496 2.545096 0.022898 -0.013139 -1577760.000000 0 0 1
17.235935 -11.467898 -31.975244 38.092078 -0.587089 2.567011 0.022796 -0.012054 497230.000000 0 0 1
16.158035 -11.909298 -32.767044 38.426458 -0.635162 2.591969 0.023459 -0.001871 -380128.000000 0 0 1
14.945935 -11.577298 -32.122344 37.272776 -0.659068 2.609639 0.055447 -0.011131 -725253.000000 0 0 1
13.762535 -11.861698 -33.005944 37.676247 -0.711353 2.638387 0.061762 -0.012778 -1518640.000000 0 0 1
13.484535 -13.232798 -33.226944 38.222630 -0.775976 2.624581 0.063560 -0.011633 691959.000000 0 0 1
12.284735 -13.412198 -33.991444 38.551525 -0.829245 2.650281 0.059078 -0.012723 1185640.000000 0 0 1
10.932335 -13.374698 -33.205044 37.429580 -0.885542 2.661893 0.052103 -0.008955 71211.200000 0 0 1
10.735435 -12.137498 -32.600344 36.405369 -0.846620 2.680309 0.075972 0.001083 45129.600000 0 0 1
9.576535 -12.211198 -31.761344 35.349772 -0.905738 2.687109 0.074530 -0.015578 1913490.000000 0 0 1
8.342735 -11.281498 -32.244044 35.164639 -0.934045 2.731152 0.067686 -0.008066 886207.000000 0 0 1
8.717835 -9.944698 -32.411444 35.005705 -0.851043 2.754182 0.066007 -0.003667 691539.000000 0 0 1
7.630035 -9.049198 -32.735444 34.809693 -0.870279 2.794635 0.070697 0.002197 569218.000000 0 0 1
8.063335 -7.542198 -32.822744 34.629968 -0.752016 2.817102 0.073127 0.007677 40542.100000 0 0 1
8.277735 -6.887098 -31.617744 33.401119 -0.693953 2.813341 0.057395 -0.000148 428590.000000 0 0 1
9.005135 -5.672098 -31.821544 33.554073 -0.562096 2.818840 0.058601 0.000217 251384.000000 0 0 1
9.316235 -4.860198 -30.512444 32.271086 -0.480850 2.809936 0.062136 0.001023 -386819.000000 0 0 1
8.108935 -4.380398 -29.985744 31.370170 -0.495284 2.843397 0.063259 -0.001055 40761.600000 0 0 1
8.384535 -3.431598 -28.933144 30.318363 -0.388478 2.838141 0.060147 -0.005885 -282407.000000 0 0 1
7.103235 -2.871098 -28.321444 29.339450 -0.384118 2.877396 0.050507 -0.005011 -633107.000000 0 0 1
6.440135 -2.061098 -29.316144 30.085873 -0.309739 2.914902 0.047752 0.005414 1405890.000000 0 0 1
5.053435 -1.689598 -29.088944 29.572937 -0.322662 2.960425 0.045587 -0.004335 1595680.000000 0 0 1
4.014635 -2.836898 -29.196244 29.607194 -0.615168 2.974786 0.034609 -0.006661 -495421.000000 0 0 1
4.001035 -3.675098 -28.075644 28.596441 -0.742963 2.950451 0.036294 -0.009481 716295.000000 0 0 1
2.796935 -4.469398 -27.952044 28.444949 -1.011624 2.955159 0.048386 -0.012187 933724.000000 0 0 1
2.860635 -5.445998 -26.779744 27.477206 -1.087136 2.915799 0.045615 -0.021180 -14182.000000 0 0 1
2.766935 -4.859998 -25.526144 26.131581 -1.053235 2.925913 0.055672 -0.024182 10479.100000 0 0 1
3.134635 -5.812298 -24.555244 25.427716 -1.076197 2.878876 0.057665 -0.027282 -72799.800000 0 0 1
3.097035 -5.285098 -23.072344 23.871677 -1.040739 2.882081 0.056735 -0.032355 30026.300000 0 1 0
4.140635 -4.393698 -22.761044 23.548133 -0.815042 2.882315 0.052559 -0.031720 -143560.000000 0 1 0
4.016035 -3.929098 -21.449944 22.173553 -0.774457 2.885417 0.050191 -0.032038 -58222.100000 0 1 0
4.897935 -2.712198 -21.075244 21.806231 -0.505713 2.881936 0.058102 -0.031610 731639.000000 0 1 0
6.271535 -3.130698 -21.083344 22.218029 -0.463001 2.820622 0.053243 -0.024987 339079.000000 0 1 0
7.124635 -2.106898 -20.607344 21.905754 -0.287526 2.795565 0.070266 -0.015615 -263884.000000 0 1 0
8.561835 -2.500298 -20.311044 22.183215 -0.284127 2.727804 0.058575 -0.017239 -1419800.000000 0 1 0
9.343335 -2.812498 -21.467744 23.581181 -0.292389 2.714988 0.067665 -0.024969 54042.100000 0 1 0
10.547835 -3.479498 -21.192744 23.926891 -0.318638 2.658859 0.061358 -0.026200 -184854.000000 0 1 0
11.645335 -2.610298 -20.582044 23.791764 -0.220505 2.616128 0.043503 -0.017925 -1481030.000000 0 1 0
11.482535 -2.534598 -19.178644 22.496515 -0.217251 2.591577 0.053032 -0.015067 262569.000000 0 1 0
12.482835 -1.785198 -18.498244 22.387343 -0.142049 2.543270 0.038409 -0.015882 -7074.890000 0 1 0
12.504435 -0.242698 -18.516844 22.344872 -0.019407 2.547549 0.029284 -0.014686 -39486.000000 0 1 0
12.900735 0.280702 -19.771444 23.609696 0.021755 2.563358 0.028327 -0.017043 158223.000000 0 1 0
12.767335 1.701002 -19.839044 23.653455 0.132451 2.565757 0.033709 -0.020860 -89135.400000 0 1 0
13.232935 2.420702 -21.098644 25.022453 0.180930 2.573983 0.037677 -0.016541 319202.000000 0 0 1
14.620435 2.732802 -21.225844 25.918367 0.184784 2.530375 0.035748 -0.019001 447622.000000 0 0 1
14.791635 3.796402 -22.160944 26.913056 0.251236 2.538221 0.040649 -0.021008 -269403.000000 0 0 1
16.181235 3.901002 -22.837144 28.259252 0.236568 2.511766 0.033050 -0.016514 200824.000000 0 0 1
16.417735 2.879402 -23.825344 29.077139 0.173618 2.531132 0.025094 -0.012560 69417.700000 0 0 1
16.893635 1.655502 -23.235744 28.775604 0.097684 2.510665 0.028591 -0.013162 -839411.000000 0 0 1
8.961351 27.394202 3.410856 29.023818 1.254643 1.453005 -0.008102 -0.002333 23378.900000 0 0 1
9.000451 27.698502 4.775656 29.513082 1.256615 1.408267 -0.004088 -0.000238 -539513.000000 0 0 1
10.255251 28.086302 5.216056 30.351569 1.220704 1.398084 0.006828 -0.003685 -758354.000000 0 0 1
10.296951 28.498302 6.690056 31.031230 1.224074 1.353499 0.007173 -0.008498 -30721.500000 0 0 1
10.063451 27.456302 7.583956 30.209898 1.219475 1.317040 0.002609 -0.006083 112074.000000 0 0 1
10.286051 28.061802 8.860256 31.173253 1.219454 1.282597 0.009993 -0.005843 -590952.000000 0 0 1
10.399051 27.199902 10.124856 30.829979 1.205624 1.236177 0.025110 -0.001808 -328821.000000 0 0 1
11.486851 26.392402 10.433856 30.616531 1.160290 1.223038 0.039317 -0.008712 -629185.000000 0 0 1
12.009051 25.551602 9.482956 29.783017 1.131442 1.246754 0.030377 -0.010464 -540330.000000 0 0 1
13.266251 24.750502 9.875956 29.767688 1.078766 1.232620 0.048844 -0.012417 -634856.000000 0 0 1
14.339551 25.580502 10.097256 31.015147 1.059877 1.239194 0.056597 -0.016268 -1130550.000000 0 0 1
15.474051 24.942402 10.570456 31.197824 1.015518 1.225134 0.061289 -0.020145 -432835.000000 0 0 1
16.680351 25.828302 10.916356 32.626708 0.997367 1.229633 0.055961 -0.022240 -334673.000000 0 0 1
17.255951 26.457902 9.735356 33.053980 0.992873 1.271834 0.040945 -0.019993 2359000.000000 0 0 1
18.725151 26.337302 9.692156 33.737555 0.952743 1.279409 0.042453 -0.030811 2343710.000000 0 0 1
19.590851 27.152602 10.692156 35.148079 0.945780 1.261695 0.037082 -0.025110 -626614.000000 0 0 1
19.650051 28.560802 10.503056 36.223723 0.968164 1.276622 0.034846 -0.025937 445795.000000 0 0 1
18.453051 29.227802 10.898156 36.242921 1.007642 1.265372 0.032453 -0.007793 302798.000000 0 0 1
18.671051 30.694902 11.261956 37.651252 1.024312 1.267034 0.038642 0.008836 -595076.000000 0 0 1
18.939451 31.671902 10.187856 38.283215 1.031857 1.301433 0.043973 -0.016059 1011020.000000 0 0 1
17.833751 31.880302 9.280456 37.689829 1.060767 1.322005 0.060180 -0.021851 1503610.000000 0 0 1
16.433351 32.394802 9.766356 37.614624 1.101339 1.308144 0.061047 -0.012661 441223.000000 0 0 1
16.491751 33.691902 10.255456 38.888256 1.115594 1.303924 0.050849 -0.007248 1389520.000000 0 0 1
15.200951 34.374802 10.094156 38.917707 1.154438 1.308425 0.055411 0.001160 1532040.000000 0 0 1
15.242351 -32.935456 10.124956 37.677424 -1.137353 1.298725 0.052279 -0.000633 56028.300000 0 0 1
16.017851 -32.440256 9.035756 37.290570 -1.112149 1.326054 0.049651 -0.002684 243527.000000 0 0 1
15.866251 -31.000656 8.926656 35.950852 -1.097750 1.319870 0.032351 -0.001080 168233.000000 0 0 1
16.568851 -30.301756 7.701756 35.384181 -1.070417 1.351379 0.025079 0.004448 -218902.000000 0 0 1
15.877251 -30.477656 6.523456 34.978995 -1.090532 1.383202 0.022642 0.010371 -262544.000000 0 0 1
16.426451 -29.706056 5.446256 34.379351 -1.065678 1.411710 0.008862 0.009124 -26192.100000 0 0 1
16.040651 -30.159456 4.000456 34.393297 -1.081986 1.454217 0.011692 -0.002405 -40471.100000 0 0 1
16.502451 -31.450356 3.618056 35.700786 -1.087573 1.469278 0.012829 0.000072 -37024.600000 0 0 1
16.365351 -31.660556 2.246756 35.710831 -1.093720 1.507839 0.003877 -0.008037 -208831.000000 0 0 1
16.718151 -33.129956 1.906956 37.158135 -1.103457 1.519454 0.025669 -0.008591 -558356.000000 0 0 1
18.067651 -33.481256 1.884456 38.091806 -1.075946 1.521305 0.027882 0.002878 -452421.000000 0 0 1
18.209551 34.067702 1.328356 38.651786 1.079923 1.536422 0.055035 -0.004555 13581.200000 0 0 1
19.632451 33.540502 1.606456 38.897032 1.041229 1.529484 0.074641 -0.009213 52914.900000 0 0 1
19.864451 33.261902 2.961356 38.855117 1.032428 1.494507 0.063750 -0.026913 1118880.000000 0 0 1
21.261351 32.999402 3.230756 39.388366 0.998442 1.488681 0.036314 -0.021873 929476.000000 0 0 1
21.597251 33.067002 4.709956 39.775011 0.992220 1.452103 0.046589 -0.019887 -128281.000000 0 0 1
21.102751 32.004802 5.550356 38.735512 0.987868 1.427013 0.058923 -0.032264 700294.000000 0 0 1
21.875251 30.788602 5.457356 38.160809 0.953059 1.427295 0.043860 -0.037012 409923.000000 0 0 1
21.137951 29.752702 6.314856 37.039353 0.953088 1.399469 0.053157 -0.043448 199506.000000 0 0 1
19.889251 29.317202 5.824656 35.902747 0.974704 1.407842 0.053141 -0.039933 -609860.000000 0 0 1
19.048051 29.074902 6.895156 35.436159 0.990818 1.374967 0.055946 -0.050233 -675081.000000 0 0 1
17.608151 28.872702 6.377056 34.414339 1.023162 1.384417 0.060511 -0.041011 -532974.000000 0 0 1
16.851351 30.042102 6.150356 34.990324 1.059604 1.394105 0.049725 -0.045387 -168954.000000 0 0 1
17.203351 30.894202 5.026456 35.716554 1.062711 1.429596 0.062649 -0.045142 -438362.000000 0 0 1
17.042851 32.435702 5.295956 37.021354 1.087008 1.427252 0.061433 -0.034341 1746280.000000 0 0 1
15.646351 32.865202 5.288356 36.781741 1.126470 1.426520 0.046501 -0.026174 1269530.000000 0 0 1
15.728651 34.221602 5.685956 38.089875 1.139978 1.420959 0.044648 -0.023934 943970.000000 0 0 1
14.348251 -33.852956 5.775256 37.218927 -1.169908 1.414997 0.043907 -0.015389 1107010.000000 0 0 1
13.542251 -33.959556 4.604756 36.848986 -1.191346 1.445506 0.051055 -0.018037 -1159550.000000 0 0 1
12.526551 -33.072856 4.700456 35.676639 -1.208737 1.438660 0.040106 -0.013485 -1469380.000000 0 0 1
11.867551 -32.938556 3.357356 35.171850 -1.224981 1.475195 0.046259 -0.014797 -795003.000000 0 0 1
10.917351 -31.917256 3.464656 33.910229 -1.241220 1.468446 0.051487 -0.018129 -94760.300000 0 0 1
10.294751 -31.783456 2.166856 33.479325 -1.257557 1.506029 0.050829 -0.010543 -858326.000000 0 0 1
9.434551 -30.570056 2.131356 32.063714 -1.271450 1.504275 0.065566 -0.014806 -597379.000000 0 0 1
8.899351 -30.134456 0.883256 31.433486 -1.283637 1.542693 0.060214 -0.003560 -17200.700000 0 0 1
7.795751 -30.826956 0.370256 31.799560 -1.323102 1.559153 0.050051 -0.005933 -604973.000000 0 0 1
8.079951 -31.415156 -1.046444 32.454471 -1.319054 1.603045 0.059429 -0.010400 -541204.000000 0 0 1
9.080851 -32.366756 -0.927644 33.629292 -1.297267 1.598384 0.047502 -0.009877 -577084.000000 0 0 1
9.142451 -33.113656 -2.140344 34.419176 -1.301414 1.633021 0.026829 0.001553 -187305.000000 0 0 1
10.334551 -34.095656 -2.287144 35.700808 -1.276494 1.634904 0.040513 -0.004687 -15937.800000 0 0 1
10.481751 33.831802 -1.221544 35.439386 1.270355 1.605272 0.042220 -0.004799 240922.000000 0 0 1
11.758051 33.213102 -1.180644 35.252742 1.230546 1.604293 0.059089 -0.014849 -143761.000000 0 0 1
11.932551 32.249102 -0.010244 34.385905 1.216406 1.571094 0.051713 -0.013730 -231356.000000 0 0 1
12.260751 32.874402 1.273856 35.109472 1.213818 1.534506 0.044919 -0.015548 305697.000000 0 0 1
13.560051 33.369602 1.562356 36.053381 1.184820 1.527448 0.053554 -0.016446 20240.200000 0 0 1
14.698451 32.372802 1.813156 35.599583 1.144590 1.519842 0.063382 -0.028705 -430233.000000 0 0 1
15.299351 31.917102 0.629956 35.400118 1.123808 1.553000 0.060923 -0.025513 166396.000000 0 0 1
16.198551 30.842802 0.823856 34.847528 1.087195 1.547152 0.062766 -0.026643 83798.600000 0 0 1
16.969551 30.187102 -0.348144 34.631604 1.058676 1.580849 0.058896 -0.018666 195856.000000 0 0 1
17.954251 30.941602 -1.047244 35.788749 1.045016 1.600062 0.055528 -0.010855 285602.000000 0 0 1
17.365051 31.736202 -2.005444 36.231937 1.070130 1.626175 0.047780 -0.017310 -628921.000000 0 0 1
18.401251 32.537602 -2.738044 37.480641 1.056102 1.643914 0.040547 -0.002884 -709209.000000 0 0 1
19.069151 33.384602 -1.882744 38.492972 1.051826 1.619727 0.025017 0.009130 -237036.000000 0 0 1
19.863751 34.337202 -2.586244 39.752996 1.046343 1.635900 0.025740 0.017980 -1294550.000000 0 0 1
20.803351 -33.734656 -1.649744 39.667721 -1.018205 1.612397 0.023911 0.015969 -343092.000000 0 0 1
21.781951 34.258302 -1.062744 40.610516 1.004458 1.596968 0.016524 0.013027 1436450.000000 0 0 1
22.728051 33.422402 -1.834344 40.459684 0.973603 1.616149 0.007765 0.018002 483526.000000 0 0 1
23.595651 34.103802 -2.900244 41.572051 0.965543 1.640617 0.015340 0.017951 -725780.000000 0 0 1
22.800151 -34.380856 -3.997644 41.447211 -0.985222 1.667398 0.004144 0.011483 140634.000000 0 0 1
23.615851 -33.812156 -5.007344 41.545683 -0.961116 1.691616 0.013446 0.007934 525950.000000 0 0 1
22.734151 -33.251256 -6.195244 40.753757 -0.971088 1.723405 0.025989 -0.002062 -40487.200000 0 0 1
21.981751 -32.091256 -5.955644 39.351185 -0.970225 1.722726 0.034002 0.005322 -101578.000000 0 0 1
21.319051 -31.805856 -7.180344 38.957307 -0.980292 1.756169 0.036953 -0.005745 -37631.100000 0 0 1
20.306851 -30.633056 -7.006444 37.414470 -0.985401 1.759174 0.050276 -0.004132 178965.000000 0 0 1
19.285051 -30.946056 -6.080444 36.966787 -1.013505 1.736031 0.035456 0.001316 -381785.000000 0 0 1
18.477451 -29.823856 -5.882744 35.573659 -1.016124 1.736927 0.032099 -0.011236 337588.000000 0 0 1
17.194751 -29.961156 -5.021044 34.907610 -1.049788 1.715135 0.030548 -0.005180 880821.000000 0 0 1
16.067951 -30.612956 -5.635944 35.029930 -1.087448 1.732388 0.036603 -0.011154 -327276.000000 0 0 1
15.068351 -30.660056 -4.689444 34.483113 -1.114000 1.707211 0.036340 -0.015937 -144079.000000 0 0 1
13.824151 -31.489256 -5.139244 34.772003 -1.157118 1.719138 0.031956 -0.015104 314381.000000 0 0 1
14.170051 -32.841956 -5.116144 36.132525 -1.163465 1.712868 0.027950 -0.005396 -640924.000000 0 0 1
13.104551 -33.658356 -5.422744 36.524243 -1.199513 1.719817 0.028450 -0.002231 -814205.000000 0 0 1
13.393951 33.643802 -5.397744 36.612005 1.191920 1.718767 0.033530 -0.003804 -210475.000000 0 0 1
13.379951 33.078902 -4.098044 35.916999 1.186429 1.685143 0.058871 -0.013457 32560.400000 0 0 1
13.611351 31.639402 -4.033444 34.678369 1.164527 1.687370 0.061383 -0.015397 -207741.000000 0 0 1
12.530851 30.670102 -4.568844 33.444756 1.182925 1.707834 0.050961 -0.016623 -160416.000000 0 0 1
11.459951 30.412702 -3.680244 32.707906 1.210436 1.683554 0.039790 -0.014780 244376.000000 0 0 1
11.642351 29.143002 -3.023844 31.527805 1.190729 1.666854 0.046103 -0.023216 444943.000000 0 0 1
10.453351 28.812302 -2.047844 30.718316 1.222757 1.637511 0.040160 -0.021002 292116.000000 0 0 1
10.408151 29.632102 -0.890944 31.419498 1.233012 1.599157 0.027798 -0.015338 -379595.000000 0 0 1
9.625051 29.024002 0.085956 30.578451 1.250585 1.567985 0.011418 0.001911 -411124.000000 0 0 1
8.224451 29.647802 0.152756 30.767793 1.300195 1.565831 -0.009159 0.015451 -450012.000000 0 0 1
7.313251 28.967402 0.968956 29.892020 1.323499 1.538375 -0.014772 0.008175 -477593.000000 0 0 1
6.064051 29.607602 0.883456 30.235133 1.368776 1.541573 -0.005686 0.018790 142489.000000 0 0 1
4.906751 28.833102 1.608256 29.291815 1.402233 1.515864 -0.001554 0.017594 413955.000000 0 0 1
4.486051 27.709102 0.860856 28.083092 1.410291 1.540138 0.001735 0.007045 -759988.000000 0 0 1
3.292751 27.222102 1.344056 27.453443 1.450422 1.521819 0.012957 0.001440 -526783.000000 0 0 1
2.884451 25.853002 0.620356 26.020811 1.459685 1.546953 0.021372 -0.003476 292530.000000 0 0 1
1.655051 25.318002 1.078056 25.394933 1.505519 1.528332 0.037871 -0.012656 -95055.900000 0 0 1
1.140951 24.403402 0.184056 24.430752 1.524077 1.563262 0.037398 -0.010378 320116.000000 0 1 0
-0.259849 23.901702 0.617956 23.911100 -1.559925 1.544950 0.044510 -0.003485 1088030.000000 0 1 0
-1.391749 24.804502 0.562656 24.849886 -1.514746 1.548152 0.050815 -0.012005 596026.000000 0 1 0
-2.532149 24.085502 0.957356 24.237155 -1.466049 1.531287 0.039804 -0.008019 889786.000000 0 1 0
-3.842449 24.944302 1.278056 25.270853 -1.417957 1.520200 0.043695 -0.014483 995523.000000 0 0 1
-4.927749 24.110902 1.728256 24.669924 -1.369194 1.500684 0.025616 -0.015426 1196320.000000 0 1 0
-6.171349 24.794502 1.948356 25.625162 -1.326853 1.494690 0.013561 -0.011397 776260.000000 0 0 1
-6.975449 25.294602 0.721656 26.248705 -1.301716 1.543300 0.013798 -0.007606 -771829.000000 0 0 1
-6.752649 26.655902 0.319856 27.499776 -1.322689 1.559165 0.019885 -0.013457 -379228.000000 0 0 1
-7.573749 27.025402 -0.725244 28.075968 -1.297560 1.596631 0.007266 -0.006754 -744522.000000 0 0 1
-7.134449 28.249202 -1.601244 29.180160 -1.323415 1.625698 0.001303 0.001467 88321.900000 0 0 1
-7.525549 29.501102 -1.023044 30.463018 -1.321029 1.604386 0.018984 -0.011443 111754.000000 0 0 1
-7.260949 30.512202 -1.985344 31.427017 -1.337173 1.634012 0.016491 -0.004895 -368380.000000 0 0 1
-7.653449 31.932302 -1.534644 32.872516 -1.335556 1.617498 0.019004 -0.007759 -801208.000000 0 0 1
-7.498049 33.014902 -2.436044 33.943170 -1.347473 1.642626 0.014684 0.003643 378388.000000 0 0 1
-6.221749 33.168002 -3.051844 33.884218 -1.385368 1.660985 0.016934 0.009200 181268.000000 0 0 1
-5.084249 33.645502 -2.131944 34.094201 -1.420819 1.633368 0.020361 0.001276 -835511.000000 0 0 1
-5.180749 -33.843056 -1.882644 34.289021 1.418894 1.625729 0.022069 0.003623 -205691.000000 0 0 1
-4.358349 -33.481656 -0.835444 33.774464 1.441353 1.595535 0.031436 0.003652 -451391.000000 0 0 1
-4.182249 -31.958856 -0.754644 32.240179 1.440672 1.594205 0.034729 -0.009482 -463608.000000 0 0 1
-5.390249 -31.289556 -0.624044 31.756582 1.400201 1.590448 0.038542 -0.014413 -725741.000000 0 0 1
-5.603849 -30.325156 -1.625044 30.881369 1.388066 1.623443 0.050652 -0.011201 85717.600000 0 0 1
-7.041849 -29.781456 -1.461444 30.637535 1.338610 1.618516 0.076058 -0.015165 121347.000000 0 0 1
-7.191449 -29.369156 -0.154544 30.237198 1.330657 1.575907 0.060073 -0.011594 -918576.000000 0 0 1
-8.477549 -28.905256 0.077056 30.122891 1.285509 1.568238 0.043535 -0.011324 -400489.000000 0 0 1
-8.534549 -28.308656 1.514056 29.605926 1.277980 1.519634 0.044892 -0.009917 -439000.000000 0 0 1
-7.547449 -27.367456 1.606856 28.434549 1.301703 1.514256 0.051096 -0.012940 -924741.000000 0 0 1
-7.434049 -26.900156 2.961256 28.065147 1.301169 1.465086 0.049392 -0.010315 114817.000000 0 0 1
-8.286649 -25.642956 3.332056 27.153864 1.258234 1.447776 0.037098 -0.005733 188998.000000 0 0 1
-7.839149 -24.335356 2.989856 25.741038 1.259162 1.454382 0.031560 -0.008461 -504146.000000 0 0 1
-8.793249 -23.388856 3.466156 25.226455 1.211185 1.432959 0.027687 -0.006720 185180.000000 0 0 1
-8.205249 -22.034156 4.009256 23.851714 1.214318 1.401904 0.006397 0.007540 -46135.200000 0 1 0
-7.478949 -22.234256 5.169256 24.021199 1.246315 1.353904 0.003250 0.007207 -773527.000000 0 1 0
-6.743849 -21.082656 5.458356 22.798060 1.261205 1.329026 -0.008364 0.017164 -214394.000000 0 1 0
-7.563649 -19.873256 6.004656 22.095497 1.207130 1.295576 -0.006046 0.005071 -39720.300000 0 1 0
-8.229149 -20.231856 7.182956 22.992210 1.184491 1.253069 0.000962 0.001837 68201.000000 0 1 0
-8.928649 -19.168256 7.832656 22.549796 1.134878 1.216053 0.001894 -0.000328 -217747.000000 0 1 0
-26.806119 28.904702 -5.695444 39.830740 -0.823050 1.714279 0.046859 -0.005654 -242505.000000 0 0 1
-26.165429 29.910402 -4.886444 40.039220 -0.852083 1.693143 0.043141 -0.016970 -118190.000000 0 0 1
-25.323849 29.288802 -3.962844 38.920886 -0.857872 1.672791 0.023822 -0.011185 -655907.000000 0 0 1
-24.335949 30.159902 -3.214944 38.886938 -0.891864 1.653565 0.018592 -0.015126 -1027070.000000 0 0 1
-24.848749 31.098502 -2.257144 39.870689 -0.896645 1.627438 0.022171 -0.020269 -144930.000000 0 0 1
-23.959749 32.086002 -1.795344 40.084964 -0.929388 1.615600 0.022960 -0.020757 -200498.000000 0 0 1
-22.781349 31.585502 -0.938544 38.955290 -0.945944 1.594892 0.021026 -0.014216 348777.000000 0 0 1
-21.806749 30.808802 -1.683344 37.782935 -0.954849 1.615364 0.023826 -0.017933 147623.000000 0 0 1
-20.628049 30.677802 -0.922544 36.979656 -0.978828 1.595746 0.018456 -0.012545 65491.800000 0 0 1
-19.468349 30.060602 -1.761944 35.857507 -0.996084 1.619953 0.027848 -0.015683 476122.000000 0 0 1
-18.318249 29.823902 -0.947144 35.013146 -1.019991 1.597851 0.027887 -0.009441 497252.000000 0 0 1
-17.216949 29.240902 -1.670844 33.974187 -1.038655 1.619996 0.033329 -0.003874 -397246.000000 0 0 1
-15.970249 29.637702 -0.947744 33.679971 -1.076555 1.598940 0.040644 -0.007713 -1217960.000000 0 0 1
-15.729649 28.998202 0.287556 32.990911 -1.073779 1.562080 0.037198 -0.010856 -914653.000000 0 0 1
-14.588749 29.534402 0.828356 32.951459 -1.111994 1.545655 0.038246 -0.012081 -712697.000000 0 0 1
-14.037549 28.839902 2.081556 32.142271 -1.117812 1.505990 0.037090 -0.016301 -144395.000000 0 0 1
-14.951849 28.945702 3.173956 32.733552 -1.093998 1.473680 0.028126 -0.016485 92648.900000 0 0 1
-14.521149 28.402402 4.425656 32.204761 -1.098178 1.432938 0.041661 -0.023589 717880.000000 0 0 1
-13.249549 29.039302 5.126156 32.328146 -1.142747 1.411558 0.051361 -0.016709 808673.000000 0 0 1
-13.447549 30.173602 5.955556 33.567119 -1.151547 1.392430 0.049112 -0.025205 -208907.000000 0 0 1
-13.436649 31.354102 5.245956 34.512944 -1.165927 1.418205 0.042197 -0.008754 23855.600000 0 0 1
-13.061249 32.625402 6.071156 35.663314 -1.189997 1.399728 0.052484 -0.014829 614378.000000 0 0 1
-14.124849 33.086802 6.953956 36.641579 -1.167315 1.379855 0.056548 -0.016839 579693.000000 0 0 1
-13.876449 34.138202 7.788256 37.664699 -1.184717 1.362515 0.068252 -0.016655 115995.000000 0 0 1
-15.093049 -34.395356 8.705156 38.556716 1.157286 1.343057 0.052647 -0.016207 352818.000000 0 0 1
-15.243549 33.568502 9.781856 38.143083 -1.144536 1.311447 0.045579 -0.021351 -407802.000000 0 0 1
-16.524049 33.696402 10.323256 38.923788 -1.114874 1.302367 0.048412 -0.026117 -850219.000000 0 0 1
-16.791649 33.006302 11.741656 38.848963 -1.100181 1.263756 0.059283 -0.018347 400392.000000 0 0 1
-16.062849 33.587902 12.864156 39.390973 -1.124713 1.238117 0.080056 -0.029069 513264.000000 0 0 1
-14.706949 33.164702 12.822756 38.478758 -1.153401 1.231056 0.083523 -0.025094 -353050.000000 0 0 1
-13.972249 33.183902 14.146556 38.684882 -1.172272 1.196426 0.089744 -0.026175 -460145.000000 0 0 1
-14.259349 32.099702 15.084756 38.226558 -1.152759 1.165148 0.084223 -0.020873 133661.000000 0 0 1
-13.404249 30.990702 14.928456 36.918238 -1.162569 1.154512 0.072497 -0.017872 -59885.600000 0 0 1
-14.121849 29.821602 14.170656 35.910472 -1.128536 1.165152 0.076043 -0.014359 242904.000000 0 0 1
-14.060249 29.973302 12.794756 35.493594 -1.132179 1.202013 0.075664 -0.013934 971001.000000 0 0 1
-15.301749 29.628502 12.144756 35.489248 -1.094073 1.221529 0.052750 -0.016666 659903.000000 0 0 1
-15.195149 29.571302 10.577156 34.888833 -1.096132 1.262782 0.040534 -0.011887 -102114.000000 0 0 1
-14.367449 28.512202 10.186556 33.513209 -1.104029 1.261953 0.040216 -0.008856 36107.500000 0 0 1
-14.374249 28.324102 8.777356 32.953236 -1.101173 1.301184 0.036338 -0.011210 86923.300000 0 0 1
-13.513149 27.049602 8.420756 31.387820 -1.107493 1.299188 0.038163 -0.009396 718378.000000 0 0 1
-12.117549 27.259802 8.241156 30.949126 -1.152508 1.301264 0.050476 -0.014756 405648.000000 0 0 1
-11.458549 26.010302 8.098056 29.553555 -1.155838 1.293233 0.050392 -0.018392 -921764.000000 0 0 1
-10.216149 26.152102 7.281956 29.005672 -1.198382 1.317029 0.052172 -0.023316 -1116820.000000 0 0 1
-10.504849 26.655702 6.001456 29.272782 -1.195392 1.364314 0.054249 -0.018605 794721.000000 0 0 1
-9.432249 26.320402 5.108756 28.422355 -1.226691 1.390070 0.049627 -0.018751 315150.000000 0 0 1
-9.793049 26.678102 3.679456 28.655947 -1.218986 1.442040 0.038047 -0.015313 -76847.900000 0 0 1
-9.497749 27.983502 3.293156 29.734298 -1.243591 1.459816 0.042355 -0.014286 19261.600000 0 0 1
-9.893949 28.394702 2.029356 30.137478 -1.235509 1.503409 0.030206 -0.012366 -84225.400000 0 0 1
-9.587949 29.886802 1.804256 31.438909 -1.260360 1.513376 0.037058 -0.013251 486253.000000 0 0 1
-10.575649 30.747102 2.363056 32.600807 -1.239516 1.498248 0.036015 -0.016180 282781.000000 0 0 1
-10.109149 32.028602 2.214856 33.659052 -1.265064 1.504946 0.042385 -0.014092 -161195.000000 0 0 1
-11.036149 33.121202 2.858656 35.028310 -1.249161 1.489096 0.051029 -0.005720 -102407.000000 0 0 1
-12.271149 33.341902 2.241556 35.598990 -1.218142 1.507788 0.053387 0.000261 -473419.000000 0 0 1
-12.306949 34.179402 1.142556 36.345535 -1.225180 1.539355 0.039666 0.002386 35549.900000 0 0 1
-13.760249 -34.323056 0.728656 36.985775 1.189511 1.551094 0.035928 0.003468 1062720.000000 0 0 1
-14.576049 33.491402 0.068656 36.525880 -1.160303 1.568917 0.027467 0.008610 582562.000000 0 0 1
-14.713849 33.471302 -1.344744 36.587344 -1.156628 1.607559 0.030681 0.000592 455395.000000 0 0 1
-13.397849 33.270502 -2.180844 35.933059 -1.187969 1.631525 0.037965 0.002053 451475.000000 0 0 1
-13.050549 31.870202 -2.279244 34.514077 -1.182135 1.636883 0.032084 0.001871 803987.000000 0 0 1
-11.626349 31.728902 -2.423644 33.878743 -1.219562 1.642396 0.026312 0.004973 833437.000000 0 0 1
-11.119049 30.228902 -2.401644 32.298415 -1.218328 1.645223 0.002944 0.000687 -8180.890000 0 0 1
-11.290549 29.561502 -3.632944 31.852114 -1.205960 1.685102 0.012561 -0.008241 -95339.100000 0 0 1
-10.260449 29.823602 -4.586844 31.871039 -1.239443 1.715217 0.005787 0.002115 -118793.000000 0 0 1
-10.428649 29.236502 -6.018344 31.618827 -1.228166 1.762305 0.011104 -0.002138 -643202.000000 0 0 1
-10.539949 27.842602 -6.082844 30.385884 -1.208913 1.772345 0.020345 -0.006639 96912.200000 0 0 1
-10.521849 27.368302 -7.465244 30.256621 -1.203763 1.820102 0.013097 -0.003896 -287107.000000 0 0 1
-10.933949 25.899902 -7.537344 29.106145 -1.171332 1.832742 0.025798 -0.013063 -372160.000000 0 0 1
-10.069249 24.969002 -6.947244 27.804766 -1.187474 1.823330 -0.003355 -0.006240 -63897.300000 0 0 1
-10.559149 23.599402 -7.092744 26.809222 -1.150079 1.838548 0.050272 -0.017273 -91304.300000 0 0 1
-9.967849 22.585002 -6.088344 25.426526 -1.155161 1.812594 0.016327 -0.008628 -635364.000000 0 0 1
-8.623649 22.217002 -6.155444 24.614060 -1.200542 1.823558 0.002484 -0.014551 -382181.000000 0 1 0
-8.230749 21.113702 -5.321644 23.277747 -1.199088 1.801451 0.012112 -0.009597 -142885.000000 0 1 0
-8.341649 21.208802 -3.747844 23.096379 -1.196070 1.733787 0.004135 -0.011348 511341.000000 0 1 0
-9.690349 20.962602 -3.335744 23.333682 -1.137787 1.714246 0.020003 -0.016817 552072.000000 0 1 0
-10.039149 19.574502 -3.236744 22.235605 -1.096907 1.716881 0.020689 -0.015682 839025.000000 0 1 0
-11.445949 19.393602 -2.525744 22.660558 -1.037620 1.682488 0.030515 -0.019305 873008.000000 0 1 0
-11.442449 19.454602 -1.110344 22.597434 -1.039127 1.619952 0.033587 -0.020142 225545.000000 0 1 0
-11.093049 18.211702 -0.506844 21.330230 -1.023700 1.594560 0.031739 -0.020924 -322530.000000 0 1 0
-11.063049 18.313302 1.004556 21.419085 -1.027368 1.523879 0.036657 -0.020676 245156.000000 0 1 0
-12.338449 18.314302 1.626756 22.142658 -0.977936 1.497263 0.052235 -0.020879 223328.000000 0 1 0
-12.095749 18.395602 3.052956 22.226692 -0.989142 1.433005 0.045846 -0.020432 210443.000000 0 1 0
-13.355649 18.414402 3.962156 23.090306 -0.943303 1.398349 0.042267 -0.017861 80878.300000 0 1 0
-14.032449 17.158502 3.882256 22.503238 -0.885288 1.397409 0.038014 -0.014979 160309.000000 0 1 0
-15.133049 17.262102 4.764656 23.445496 -0.851025 1.366148 0.036506 -0.018033 -281418.000000 0 1 0
-15.518549 15.912602 5.361256 22.864368 -0.797935 1.334112 0.018679 -0.015219 -636921.000000 0 1 0
-14.738849 15.474502 6.417856 22.313286 -0.809742 1.279050 0.024379 -0.010560 -490329.000000 0 1 0
-15.207049 15.881402 7.716356 23.302691 -0.807086 1.233289 0.014001 -0.006620 -328592.000000 0 1 0
-14.111149 15.714802 8.833856 22.893591 -0.839113 1.174650 0.009157 -0.000464 1562500.000000 0 1 0
-12.880849 16.450202 8.706656 22.634736 -0.906495 1.175958 0.017634 -0.009196 813593.000000 0 1 0
-12.033249 16.021902 7.638456 21.444030 -0.926624 1.206594 0.019240 -0.013725 -133985.000000 0 1 0
-10.854849 17.034302 7.357856 21.497284 -1.003447 1.221466 0.022002 -0.025534 1118250.000000 0 1 0
-9.879749 17.056702 8.416256 21.433009 -1.045789 1.167255 0.029650 -0.022871 405696.000000 0 1 0
-9.105449 18.249302 8.400956 22.057250 -1.107991 1.180059 0.032666 -0.022196 284616.000000 0 1 0
-7.823049 18.282102 9.278956 21.943891 -1.166466 1.134209 0.035062 -0.020326 629528.000000 0 1 0
-6.744049 17.452802 8.724456 20.644578 -1.202055 1.134481 0.019375 -0.019164 531304.000000 0 1 0
-5.611249 17.487802 9.559056 20.704707 -1.260308 1.090902 0.029001 -0.024393 35567.200000 0 1 0
-4.598049 18.561702 9.139156 21.194409 -1.327968 1.124967 0.025521 -0.023463 -1138980.000000 0 1 0
-5.090349 19.882102 9.380156 22.565393 -1.320154 1.142098 0.032007 -0.027063 39834.800000 0 1 0
-4.448849 20.911702 8.650256 23.063357 -1.361177 1.186330 0.032902 -0.027272 2935340.000000 0 1 0
-2.900949 21.445802 8.829456 23.373002 -1.436344 1.183417 0.034635 -0.024766 3643860.000000 0 1 0
-1.786249 20.597302 8.517156 22.360265 -1.484290 1.180021 0.025637 -0.010077 -3130.490000 0 1 0
-0.670849 21.320902 8.129756 22.828136 -1.539342 1.206675 0.031502 -0.020236 -734086.000000 0 1 0
0.590051 20.474802 8.034556 22.002721 1.541986 1.196990 0.032737 -0.014982 -300752.000000 0 1 0
1.041051 20.014802 9.276456 22.084581 1.518829 1.137304 0.021242 -0.009882 -138203.000000 0 1 0
2.293451 19.337902 9.180256 21.528852 1.452749 1.130269 0.015957 -0.019068 158036.000000 0 1 0
3.157951 19.441502 10.417056 22.281376 1.409769 1.084310 0.000778 -0.014361 -809993.000000 0 1 0
3.693551 18.206702 10.884456 21.531319 1.370645 1.040815 0.002335 -0.015091 131644.000000 0 1 0
4.623351 18.300402 11.938056 22.333769 1.323338 1.006846 -0.003256 -0.006385 -253723.000000 0 1 0
6.043451 18.802302 11.558356 22.883301 1.259805 1.041298 0.003119 -0.009078 -500365.000000 0 1 0
6.865651 17.850502 10.944156 22.035247 1.203619 1.051043 -0.000602 -0.005053 -73988.700000 0 1 0
7.476251 16.963102 11.898656 22.027691 1.155673 1.000159 0.000233 -0.003054 70496.100000 0 1 0
8.792451 16.235302 11.407156 21.702890 1.074453 1.017370 0.006839 -0.000654 776695.000000 0 1 0
9.763451 17.173902 10.993456 22.608051 1.053857 1.062988 0.016700 -0.005816 -1180030.000000 0 1 0
10.884851 16.559502 10.525456 22.438411 0.989294 1.082545 0.015694 -0.001444 -1240490.000000 0 1 0
12.034951 17.488902 10.171956 23.540825 0.968069 1.123978 0.029119 -0.002609 248853.000000 0 1 0
12.961551 16.930702 9.189956 23.218651 0.917408 1.163857 0.018028 0.002251 425735.000000 0 1 0
13.530951 18.019102 8.509356 24.087005 0.926705 1.209726 0.021857 0.003949 25460.400000 0 1 0
14.403551 17.640202 7.273656 23.907009 0.886064 1.261648 0.024762 -0.000605 1104460.000000 0 1 0
15.624651 16.962802 7.654856 24.299448 0.826438 1.250317 0.027961 -0.004768 1265260.000000 0 1 0
16.551351 16.704902 6.581856 24.419701 0.790015 1.297891 0.028454 -0.004558 -219468.000000 0 1 0
17.936351 16.520102 7.172256 25.417862 0.744319 1.284737 0.028076 -0.003648 -849470.000000 0 0 1
18.210851 15.385902 8.011056 25.150310 0.701511 1.246621 0.033846 -0.010888 284248.000000 0 0 1
19.201251 15.785802 8.947356 26.418455 0.688086 1.225285 0.038438 -0.011277 -212426.000000 0 0 1
19.406251 14.723102 10.004856 26.333808 0.649032 1.181082 0.026678 -0.015041 -154289.000000 0 0 1
20.220951 13.653602 9.537956 26.196952 0.593901 1.198145 0.033255 -0.017643 554041.000000 0 0 1
20.173351 12.553702 10.446556 25.955540 0.556649 1.156573 0.033105 -0.023682 -428226.000000 0 0 1
20.941351 11.270102 10.055156 25.819790 0.493719 1.170777 0.020441 -0.025784 -972686.000000 0 0 1
22.325251 11.458302 10.099356 27.050074 0.474187 1.188170 0.015065 -0.028892 119292.000000 0 0 1
23.146851 10.612902 9.350356 27.126363 0.429903 1.218881 0.025698 -0.022312 -156505.000000 0 0 1
23.249351 9.107602 9.840756 26.838801 0.373362 1.195378 0.037111 -0.026737 -1253930.000000 0 0 1
22.179351 8.368002 9.370656 25.490317 0.360775 1.194352 0.043096 -0.034647 -6887.620000 0 0 1
22.019251 6.975802 9.759456 25.075012 0.306802 1.171022 0.041831 -0.027918 -736727.000000 0 0 1
23.145351 6.051702 9.289656 25.663750 0.255740 1.200410 0.038180 -0.020910 -373827.000000 0 0 1
22.982051 5.806802 7.884056 24.981032 0.247487 1.249706 0.032205 -0.013272 728420.000000 0 1 0
24.138351 5.206002 7.326256 25.757261 0.212420 1.282380 0.026823 -0.011243 -36995.200000 0 0 1
23.997151 4.879502 5.808256 25.167611 0.200602 1.337914 0.042862 -0.019825 -450437.000000 0 0 1
23.105551 3.810802 5.623156 24.083367 0.163459 1.335134 0.042825 -0.012059 451601.000000 0 1 0
23.001551 3.575502 4.262156 23.664774 0.154212 1.389703 0.056872 -0.013299 159642.000000 0 1 0
22.030351 2.383702 3.936556 22.505885 0.107781 1.394980 0.049031 -0.011775 42029.700000 0 1 0
22.459551 1.145602 4.457156 22.926188 0.050963 1.375137 0.046918 -0.012972 345698.000000 0 1 0
21.791251 0.093402 3.838556 22.126949 0.004286 1.396435 0.041395 -0.010348 -423925.000000 0 1 0
22.353151 -1.302398 4.230756 22.787253 -0.058199 1.384049 0.049675 -0.014796 -256741.000000 0 1 0
22.102651 -1.628898 5.628256 22.866083 -0.073564 1.322101 0.034758 -0.014150 631153.000000 0 1 0
22.427751 -2.970298 5.817756 23.359644 -0.131672 1.319095 0.034633 -0.016727 -577366.000000 0 1 0
22.260451 -3.364298 7.281556 23.661514 -0.149998 1.257981 0.060395 -0.017458 -205317.000000 0 1 0
22.345551 -4.761998 7.473156 24.038476 -0.209966 1.254674 0.053871 -0.020530 562568.000000 0 1 0
22.475851 -5.143098 8.833556 24.691032 -0.224955 1.204924 0.078101 -0.025565 -206187.000000 0 1 0
22.134951 -6.678498 8.991856 24.807497 -0.293032 1.199885 0.078275 -0.033920 -174345.000000 0 1 0
20.762051 -6.963198 8.987656 23.671224 -0.323592 1.181338 0.067322 -0.026849 -198139.000000 0 1 0
20.485251 -8.347298 8.992856 23.878743 -0.386937 1.184668 0.070342 -0.035485 -341952.000000 0 1 0
-26.249049 -33.378456 4.955256 42.751473 0.904399 1.454627 0.026658 -0.016128 -123601.000000 0 0 1
-27.112199 -34.309056 5.542056 44.078306 0.902038 1.444731 0.033704 -0.017364 -129814.000000 0 0 1
-26.976999 -34.317356 6.950256 44.201193 0.904586 1.412900 0.051365 -0.009263 -21413.900000 0 0 1
-27.721819 33.364402 7.658256 44.049193 -0.877508 1.396051 0.056951 -0.008938 66874.900000 0 0 1
-29.128499 33.447402 7.591656 44.998126 -0.854308 1.401275 0.043995 -0.005839 -358140.000000 0 0 1
-29.617459 32.188102 7.981256 44.463111 -0.826967 1.390315 0.047077 -0.001639 84301.800000 0 0 1
-31.163149 32.163002 7.916156 45.478193 -0.801186 1.395840 0.032408 0.000983 240368.000000 0 0 1
-31.740159 32.408502 6.638156 45.845543 -0.795816 1.425492 0.024809 0.007495 -311180.000000 0 0 1
-33.132119 32.520102 6.697256 46.905730 -0.776076 1.427525 0.004282 0.013418 -417235.000000 0 0 1
-33.849399 32.463702 5.339456 47.203639 -0.764505 1.457438 -0.001413 0.013171 -388802.000000 0 0 1
-33.693649 31.252502 4.625456 46.188480 -0.747829 1.470485 -0.001504 0.005734 95684.000000 0 0 1
-34.328401 31.200502 3.393356 46.512636 -0.737701 1.497776 0.002046 0.007629 -367306.000000 0 0 1
-33.918239 30.009002 2.587856 45.361703 -0.724323 1.513716 0.006712 -0.000595 77237.500000 0 0 1
-34.420454 28.858602 3.275756 45.036842 -0.697729 1.497997 0.016047 -0.002964 441842.000000 0 0 1
-33.760289 27.753202 2.752556 43.790111 -0.688052 1.507897 0.012175 -0.005100 -400982.000000 0 0 1
-33.921309 26.385602 3.466956 43.114672 -0.661087 1.490297 0.028714 -0.007099 -330936.000000 0 0 1
-35.226044 25.882602 3.301556 43.837011 -0.633674 1.495411 0.029160 -0.007903 28271.800000 0 0 1
35.560866 25.019302 4.330556 43.695473 0.613113 1.471526 0.036372 -0.006133 785840.000000 0 0 1
34.114635 24.438202 4.144856 42.168873 0.621619 1.472346 0.049171 -0.005612 58195.300000 0 0 1
33.819425 23.492002 3.131556 41.296904 0.607113 1.494893 0.034453 -0.011622 109142.000000 0 0 1
34.187955 22.171102 3.395756 40.888937 0.575324 1.487652 0.032967 -0.011090 -664930.000000 0 0 1
33.622995 21.141602 2.339356 39.786250 0.561316 1.511964 0.039291 -0.008106 402753.000000 0 0 1
32.208045 20.971002 2.268256 38.500468 0.577156 1.511847 0.036394 -0.015067 771889.000000 0 0 1
31.574025 20.318202 3.319756 37.693091 0.571799 1.482609 0.029760 -0.007627 -684839.000000 0 0 1
31.844525 18.784402 3.298256 37.118809 0.532944 1.481822 0.035786 -0.009656 -943763.000000 0 0 1
31.294725 18.139702 2.195256 36.238484 0.525315 1.510181 0.036625 -0.019150 179934.000000 0 0 1
31.595355 16.778302 2.009556 35.830380 0.488168 1.514682 0.027351 -0.008702 -306689.000000 0 0 1
30.860385 15.791202 2.974256 34.793269 0.472962 1.485208 0.039199 -0.006685 1148410.000000 0 0 1
29.415635 15.862802 2.974056 33.552243 0.494563 1.482040 0.026467 -0.004547 1060480.000000 0 0 1
28.899185 15.051602 3.993756 32.827788 0.480173 1.448836 0.031293 -0.006768 -139110.000000 0 0 1
27.356175 15.068302 3.956556 31.481238 0.503472 1.444783 0.009593 0.004060 -347832.000000 0 0 1
26.780825 14.497702 2.827656 30.584172 0.496175 1.478209 0.013704 -0.005980 -35202.700000 0 0 1
25.443035 14.957502 2.775956 29.644237 0.531462 1.477017 -0.008122 0.003966 -131518.000000 0 0 1
24.642735 14.485402 1.541756 28.626356 0.531413 1.516912 -0.007593 -0.005822 -665683.000000 0 0 1
24.960435 14.900302 0.267456 29.070841 0.538179 1.561596 0.008264 -0.010227 39111.100000 0 0 1
26.154635 14.355902 -0.260144 29.836630 0.501987 1.579515 0.019057 -0.012862 -782365.000000 0 0 1
26.674625 15.185602 -1.479144 30.729887 0.517533 1.618949 0.033240 -0.015933 -34892.700000 0 0 1
27.039375 16.525702 -1.233544 31.713534 0.548594 1.609703 0.022126 -0.023523 738186.000000 0 0 1
28.034345 16.691702 -0.216544 32.627968 0.537032 1.577433 0.035931 -0.020414 -344518.000000 0 0 1
28.880415 17.985902 -0.196444 34.023662 0.556995 1.576570 0.059964 -0.015211 442350.000000 0 0 1
29.929685 18.007202 -1.184244 34.949217 0.541632 1.604688 0.051495 -0.011444 678179.000000 0 0 1
30.622485 19.240402 -1.258344 36.187194 0.560976 1.605577 0.052536 -0.001408 -50387.500000 0 0 1
30.002595 20.289802 -2.178344 36.284665 0.594620 1.630867 0.051149 -0.002809 -379957.000000 0 0 1
30.848645 21.424302 -2.308944 37.629387 0.607023 1.632195 0.035308 0.004758 344155.000000 0 0 1
30.384365 22.424802 -3.221044 37.900613 0.635801 1.655886 0.037937 -0.000223 -365755.000000 0 0 1
31.402955 23.576502 -3.435044 39.418226 0.643996 1.658051 0.029406 0.007998 -135449.000000 0 0 1
31.820155 24.221502 -2.246544 40.053094 0.650631 1.626915 0.030036 0.012078 175306.000000 0 0 1
32.963095 23.671102 -1.638544 40.614917 0.622777 1.611151 0.036379 0.007353 -714121.000000 0 0 1
33.151065 24.251702 -0.210144 41.075324 0.631589 1.575912 0.030050 -0.007830 126155.000000 0 0 1
33.474075 25.620002 -0.329944 42.154561 0.653265 1.578623 0.047760 -0.011665 414971.000000 0 0 1
34.448645 26.116202 0.594556 43.233304 0.648678 1.557044 0.036501 -0.014211 339837.000000 0 0 1
34.588115 27.656902 0.432956 44.288027 0.674501 1.561020 0.031738 -0.006865 -392646.000000 0 0 1
35.157435 28.117002 -0.786344 45.024763 0.674586 1.588262 0.024050 -0.007622 -31561.300000 0 0 1
34.339005 28.183302 -1.910344 44.464763 0.687258 1.613773 0.028085 -0.007317 -364839.000000 0 0 1
35.026395 27.520502 -3.172044 44.657454 0.665965 1.641887 0.023074 -0.003249 1163460.000000 0 0 1
-35.172781 28.316602 -3.792044 45.313729 -0.677826 1.654579 0.028294 -0.004360 1207050.000000 0 0 1
-34.578563 27.681002 -4.935544 44.567639 -0.675061 1.681767 0.025756 -0.009870 -88018.400000 0 0 1
-35.407604 27.845902 -6.222844 45.473250 -0.666417 1.708073 0.012934 -0.001738 -367206.000000 0 0 1
34.797025 26.938402 -6.113044 44.428366 0.658784 1.708827 0.007541 0.008102 -621205.000000 0 0 1
33.766805 27.190402 -7.031544 43.919900 0.677928 1.731588 0.002831 0.005934 1081080.000000 0 0 1
32.431275 26.351802 -6.832944 42.342581 0.682342 1.732878 0.019456 0.006535 731203.000000 0 0 1
32.565495 24.941602 -7.113244 41.631637 0.653594 1.742500 0.014521 0.005335 -297033.000000 0 0 1
33.336525 24.172002 -6.240444 41.647961 0.627368 1.721201 0.015652 0.004020 -392929.000000 0 0 1
33.476415 22.653502 -6.466344 40.934888 0.594917 1.729427 0.012717 0.002746 -356366.000000 0 0 1
32.422365 21.880302 -5.961744 39.566396 0.593648 1.722049 0.019070 0.001393 -148268.000000 0 0 1
32.527805 20.482902 -6.215644 38.938946 0.561975 1.731107 0.026136 -0.005194 -584010.000000 0 0 1
31.381995 19.610002 -5.716644 37.444115 0.558513 1.724067 0.041616 -0.006434 607757.000000 0 0 1
30.133095 19.797902 -6.410544 36.620423 0.581291 1.746757 0.038058 -0.011643 -1661.960000 0 0 1
29.137795 19.021502 -5.911444 35.295520 0.578349 1.739074 0.061188 -0.019545 -374379.000000 0 0 1
27.878915 18.796202 -6.789944 34.302105 0.593206 1.770058 0.039746 -0.016123 359098.000000 0 0 1
28.140825 17.782902 -7.709344 34.169746 0.563564 1.798375 0.034095 -0.014770 337252.000000 0 0 1
26.955145 17.582102 -8.461944 33.276337 0.577971 1.827913 0.045408 -0.014850 97966.400000 0 0 1
27.151875 16.525502 -9.545544 33.187858 0.546742 1.862539 0.046408 -0.016860 -351819.000000 0 0 1
26.220525 16.768102 -10.565544 32.868159 0.568960 1.898059 0.038188 -0.009759 9950.900000 0 0 1
26.252975 15.762802 -11.543744 32.725259 0.540728 1.931302 0.040778 -0.005893 154441.000000 0 0 1
25.301735 16.015602 -12.756444 32.548489 0.564320 1.973515 0.041014 0.002374 1064010.000000 0 0 1
23.882435 15.919102 -12.458244 31.288917 0.587930 1.980315 0.041160 -0.000744 1778400.000000 0 0 1
23.015135 15.864302 -13.604244 31.087746 0.603508 2.023733 0.042139 -0.000616 54746.800000 0 0 1
23.048735 14.501202 -14.314544 30.764187 0.561581 2.054769 0.041587 -0.006959 -291300.000000 0 0 1
24.310135 14.116802 -14.870744 31.802606 0.526105 2.057365 0.054345 -0.010319 637884.000000 0 0 1
24.655535 14.712702 -16.130244 32.932412 0.538012 2.082655 0.063146 -0.015386 -1251400.000000 0 0 1
26.057135 14.289202 -16.494944 33.988803 0.501598 2.077509 0.064212 -0.012663 -899340.000000 0 0 1
26.209795 12.899202 -16.714944 33.656085 0.457349 2.090519 0.070874 -0.011382 278266.000000 0 0 1
27.472325 12.718902 -17.344544 34.890289 0.433588 2.091069 0.056725 0.005208 397341.000000 0 0 1
27.798635 11.260102 -17.798544 34.876097 0.384860 2.106372 0.029406 0.008066 -195691.000000 0 0 1
26.996655 10.860602 -18.907644 34.702608 0.382483 2.147004 0.035526 -0.003632 184658.000000 0 0 1
27.296185 9.563402 -19.491744 34.877907 0.336993 2.163803 0.012232 0.002238 777356.000000 0 0 1
28.709385 9.333002 -20.159744 36.300812 0.314309 2.159583 0.011204 -0.002965 253353.000000 0 0 1
28.793155 10.021402 -21.408044 37.252900 0.334935 2.182995 0.018524 -0.013223 329959.000000 0 0 1
29.290765 9.217702 -22.488844 38.061306 0.304885 2.202919 0.010165 -0.005611 944356.000000 0 0 1
30.823215 8.840702 -22.565944 39.210335 0.279321 2.184024 -0.003374 -0.003438 477833.000000 0 0 1
31.713695 9.912702 -22.731444 40.258398 0.302947 2.170792 -0.005076 0.001825 -335503.000000 0 0 1
32.990555 9.327402 -22.738344 41.138904 0.275538 2.156422 -0.011253 0.009497 -459665.000000 0 0 1
34.171485 10.283802 -22.534244 42.204728 0.292325 2.134035 -0.002057 0.002503 -286548.000000 0 0 1
34.209905 10.930402 -21.291044 41.750447 0.309258 2.105934 -0.003962 0.001822 349355.000000 0 0 1
35.264945 11.875702 -21.128944 42.791131 0.324828 2.087215 -0.015191 0.006549 175574.000000 0 0 1
35.218350 12.663802 -19.834644 42.357020 0.345183 2.058131 -0.019249 0.008678 -261084.000000 0 0 1
35.469863 11.787102 -18.779644 41.829678 0.320832 2.036392 -0.009801 0.002651 158783.000000 0 0 1
35.554877 12.470702 -17.546744 41.563877 0.337339 2.006627 0.005275 0.006110 -248005.000000 0 0 1
-35.211616 11.686902 -16.328744 40.534793 -0.320464 1.985406 0.000388 0.002842 -695808.000000 0 0 1
35.230972 10.588502 -16.100044 40.156558 0.291957 1.983330 0.000932 -0.000352 111453.000000 0 0 1
-35.423082 9.709202 -15.186244 39.745255 -0.267522 1.962853 0.006608 -0.010648 -66335.000000 0 0 1
35.002545 8.429802 -15.011244 39.007398 0.236333 1.965821 0.021099 -0.003847 429540.000000 0 0 1
33.796125 8.562402 -14.251444 37.664259 0.248133 1.958843 0.034276 -0.003906 808254.000000 0 0 1
34.052255 8.496002 -12.862044 37.378741 0.244507 1.922077 0.027797 -0.011350 -550445.000000 0 0 1
32.859405 8.719702 -11.901644 36.019756 0.259386 1.907545 0.037464 -0.013292 -269262.000000 0 0 1
32.422135 10.048902 -12.005644 36.004315 0.300551 1.910757 0.054619 -0.016865 -161476.000000 0 0 1
31.817095 10.470402 -10.791944 35.191233 0.317919 1.882484 0.038672 -0.007261 -695796.000000 0 0 1
32.551185 10.531402 -9.439844 35.490854 0.312905 1.840016 0.057078 -0.002658 -330689.000000 0 0 1
33.644345 11.426602 -9.340544 36.739011 0.327406 1.827859 0.055138 -0.004922 -74388.900000 0 0 1
33.463935 12.815702 -8.952344 36.935370 0.365740 1.815613 0.061902 -0.002403 -746156.000000 0 0 1
32.956615 13.027702 -7.501444 36.223350 0.376447 1.779394 0.045202 -0.005128 -283560.000000 0 0 1
33.906885 12.689802 -6.538144 36.789336 0.358117 1.749464 0.053757 -0.005224 27737.300000 0 0 1
33.467985 13.099802 -5.244444 36.320999 0.373082 1.715694 0.043685 -0.003281 451675.000000 0 0 1
34.537705 12.784702 -4.128244 37.058657 0.354526 1.682426 0.052419 0.006633 721759.000000 0 0 1
-35.625984 13.678302 -4.213644 38.393508 -0.366587 1.680767 0.051160 0.016287 -12073.700000 0 0 1
-34.647086 13.364102 -3.245744 37.276730 -0.368136 1.657978 0.039047 0.011715 147495.000000 0 0 1
-33.469759 14.365802 -3.169344 36.560166 -0.405437 1.657594 0.031805 0.011500 62516.500000 0 0 1
-33.757109 15.542702 -2.403644 37.241046 -0.431492 1.635384 0.043582 0.007714 509650.000000 0 0 1
-32.669219 16.467002 -2.388044 36.662552 -0.466884 1.635978 0.045224 0.008453 250285.000000 0 0 1
-32.840149 17.619002 -1.358444 37.292760 -0.492426 1.607231 0.043323 0.008232 229871.000000 0 0 1
-33.783209 18.641602 -1.722344 38.623581 -0.504225 1.615404 0.025039 0.007898 535600.000000 0 0 1
-34.165351 19.389602 -0.586944 39.288323 -0.516196 1.585736 0.010848 0.005932 -3816.390000 0 0 1
-35.456072 20.218602 -0.777144 40.823141 -0.518252 1.589834 0.007204 0.008123 88224.600000 0 0 1
-35.222204 21.440302 -1.436744 41.259598 -0.546803 1.605625 0.003463 0.008663 202773.000000 0 0 1
-35.622172 21.409402 -2.812544 41.655876 -0.541164 1.638366 -0.005390 0.018039 -116488.000000 0 0 1
-35.266695 22.789002 -3.398044 42.126299 -0.573692 1.651547 0.024252 -0.008793 -588551.000000 0 0 1
-33.898389 22.975402 -3.596844 41.108480 -0.595652 1.658405 0.020069 0.001284 -637358.000000 0 0 1
-33.727909 24.085702 -4.439944 41.682202 -0.620138 1.677518 0.019744 -0.005750 632802.000000 0 0 1
-32.263329 24.326802 -4.935944 40.707238 -0.646061 1.692350 0.014776 -0.012222 612697.000000 0 0 1
-31.780479 23.265902 -5.764044 39.806095 -0.631934 1.716110 0.008778 -0.007257 -501454.000000 0 0 1
-30.561639 23.675202 -6.309744 39.170675 -0.659104 1.732585 0.019744 0.001407 -824367.000000 0 0 1
-30.084089 22.705702 -7.365044 38.403713 -0.646529 1.763771 0.028455 -0.009675 20954.600000 0 0 1
-30.868749 22.657302 -8.569544 39.238630 -0.633175 1.790966 0.023790 -0.016781 -121182.000000 0 0 1
-30.094699 22.307702 -9.645944 38.682925 -0.637878 1.822815 -0.001899 -0.011454 -123304.000000 0 0 1
-30.911829 22.286602 -11.004044 39.665133 -0.624664 1.851908 0.001969 0.003366 65684.200000 0 0 1
-31.431799 23.553102 -11.250444 40.856812 -0.643079 1.849763 0.004251 0.003485 -196893.000000 0 0 1
-32.121129 23.546402 -12.445044 41.726239 -0.632565 1.873660 -0.007655 0.011638 -741893.000000 0 0 1
-32.582859 24.969202 -12.831044 43.008597 -0.653870 1.873746 0.012625 0.012679 96662.600000 0 0 1
-31.624039 25.994302 -13.103844 42.982488 -0.688000 1.880593 0.002599 0.007032 -422244.000000 0 0 1
-30.872029 25.888102 -14.278044 42.745041 -0.697816 1.911370 -0.003782 0.004028 -38009.700000 0 0 1
-29.544239 26.720802 -14.208144 42.293435 -0.735259 1.913402 -0.005249 0.009997 1527230.000000 0 0 1
-28.500469 26.107102 -13.342844 40.888739 -0.741598 1.903205 -0.001220 0.007450 1080760.000000 0 0 1
-28.833879 25.927802 -11.957444 40.578614 -0.732380 1.869910 0.003714 0.004980 -1000200.000000 0 0 1
-28.989989 27.129402 -11.039244 41.210299 -0.752256 1.841984 0.012382 0.013029 -92241.400000 0 0 1
-27.751129 27.747702 -10.837044 40.712426 -0.785336 1.840230 0.011560 0.011259 -224821.000000 0 0 1
-28.034619 29.013502 -10.225844 41.620800 -0.802555 1.819029 0.004094 0.009839 312907.000000 0 0 1
-26.810749 29.869202 -9.821944 41.321375 -0.839306 1.810790 0.015039 0.008965 193752.000000 0 0 1
-27.193269 31.186302 -9.414444 42.434550 -0.853690 1.794516 0.007854 -0.003043 -466992.000000 0 0 1
-26.113029 31.885702 -8.885444 42.160875 -0.884602 1.783139 0.024287 0.007445 -690372.000000 0 0 1
34.033025 -25.207838 33.812144 54.193569 -0.637514 0.897055 0.001093 0.000176 -163343.000000 0 0 1
33.681715 -23.863198 33.996626 53.475982 -0.616402 0.881834 0.000969 -0.003270 554930.000000 0 0 1
32.570045 -23.846698 -33.907534 52.718058 -0.631990 2.269449 -0.006312 0.005242 580414.000000 0 0 1
32.227615 -22.417498 -33.460584 51.582691 -0.607766 2.276643 -0.009138 0.004929 -116298.000000 0 0 1
31.610755 -21.713898 34.353049 51.486553 -0.601890 0.840321 -0.011604 0.000576 -229508.000000 0 0 1
31.042985 -20.504298 -33.985254 50.389390 -0.583730 2.311019 -0.009992 0.005172 250764.000000 0 0 1
30.736375 -19.535598 33.702893 49.621057 -0.566175 0.824117 -0.008815 0.003295 198500.000000 0 0 1
31.944205 -19.127198 33.060583 49.792410 -0.539514 0.844683 0.020093 -0.014155 240627.000000 0 0 1
31.769605 -18.696898 31.703727 48.621066 -0.531932 0.860501 0.022657 -0.007331 -140659.000000 0 0 1
33.029745 -18.577698 30.812647 48.841725 -0.512354 0.888126 0.020199 -0.007425 -290962.000000 0 0 1
33.900185 -17.523998 31.044437 49.194208 -0.477099 0.887879 0.011465 -0.010695 -309660.000000 0 0 1
34.794855 -17.358898 29.985047 49.103119 -0.462761 0.913909 0.027444 -0.013892 -626915.000000 0 0 1
-35.394542 -16.334098 30.357917 49.408293 0.432365 0.909134 0.022244 -0.018758 -1156640.000000 0 0 1
-34.519535 -16.044998 29.323797 48.051278 0.435101 0.914407 0.027625 -0.014960 -2716.080000 0 0 1
-33.393559 -15.252498 29.619367 47.170704 0.428453 0.891920 0.017299 -0.019707 -93307.300000 0 0 1
-32.215629 -15.897498 30.334417 47.018656 0.458411 0.869568 0.032956 -0.020297 -1021710.000000 0 0 1
-31.294419 -15.003298 30.898097 46.466461 0.447052 0.843363 0.023127 -0.017211 48691.300000 0 0 1
-30.326319 -15.618798 31.754127 46.604260 0.475595 0.821182 0.019763 -0.018141 34610.900000 0 0 1
-29.336179 -14.544298 32.187957 45.915276 0.460266 0.793956 0.027265 -0.018037 -391712.000000 0 0 1
-29.789319 -13.763498 33.256670 46.720911 0.432811 0.778717 0.038082 -0.020944 708976.000000 0 0 1
-28.770039 -12.837598 33.690144 46.125317 0.419701 0.751882 0.035112 -0.018750 418257.000000 0 0 1
-28.945739 -12.326498 -33.721694 46.118879 0.402589 2.390862 0.021375 -0.012796 -137232.000000 0 0 1
-29.014989 -13.412798 -32.798584 45.798688 0.433012 2.369062 0.039730 -0.016176 248592.000000 0 0 1
-28.943809 -12.923898 -31.453644 44.655380 0.419954 2.352323 0.033429 -0.012146 -477470.000000 0 0 1
-29.053329 -14.093998 -30.486244 44.408870 0.451663 2.327447 0.033583 -0.012306 -1052610.000000 0 0 1
-30.317519 -14.634998 -30.450094 45.393208 0.449732 2.306093 0.022653 -0.013645 -985335.000000 0 0 1
-30.421659 -15.455798 -29.311664 44.983693 0.470069 2.280497 0.027925 -0.008613 76770.100000 0 0 1
-31.621179 -16.405898 -29.308824 46.130896 0.478595 2.259246 0.018919 -0.013774 -313367.000000 0 0 1
-31.562669 -17.528798 -30.117794 47.016405 0.506953 2.266050 0.020109 -0.012524 373115.000000 0 0 1
-32.773049 -18.271098 -30.062844 48.079937 0.508586 2.246271 0.018482 -0.011534 -79602.800000 0 0 1
-32.592489 -19.620098 -30.719684 48.897010 0.541876 2.250102 0.026263 -0.010961 731128.000000 0 0 1
-33.785729 -20.427698 -30.758984 50.048790 0.543813 2.232650 0.008892 -0.010689 461749.000000 0 0 1
-33.441869 -21.702798 -31.268364 50.666366 0.575651 2.235902 0.000875 -0.014062 187646.000000 0 0 1
-34.691141 -22.581498 -31.567354 52.056672 0.577029 2.222326 0.005111 -0.009458 187476.000000 0 0 1
-35.497027 -22.907798 -30.458054 52.081659 0.573095 2.195446 -0.001824 -0.001321 225304.000000 0 0 1
35.007505 -24.136598 -30.654474 52.419438 -0.603623 2.195420 0.004028 0.000607 30719.700000 0 0 1
-35.487637 -25.443868 -30.921724 53.506222 0.622030 2.186960 0.006279 0.006789 -194255.000000 0 0 1
-35.131837 -25.623548 -32.235504 54.128919 0.630156 2.208724 0.009225 0.007603 -206533.000000 0 0 1
-34.452813 -26.878078 -32.380534 54.386822 0.662514 2.208528 -0.001016 0.003292 -408898.000000 0 0 1
-34.619903 -27.486558 -33.811064 55.652822 0.671043 2.223750 0.001442 -0.008473 1015200.000000 0 0 1
35.280148 -27.967498 -33.891744 56.351753 -0.670290 2.216089 0.013362 -0.006306 683076.000000 0 0 1
35.172105 -29.137278 34.143067 57.024617 -0.691832 0.928866 0.005162 -0.004812 -63880.500000 0 0 1
-35.467565 -30.411028 -34.078927 57.828644 0.708793 2.200999 0.011230 -0.012239 -170678.000000 0 0 1
35.414871 -30.759448 -32.770394 57.221110 -0.715163 2.180589 0.019291 -0.016446 66877.600000 0 0 1
-35.086584 -31.903268 -32.381014 57.423140 0.737915 2.169899 0.013985 -0.019611 -88887.100000 0 0 1
-35.398400 -32.388578 -30.950914 57.096636 0.741026 2.143706 0.016658 -0.024258 -30004.400000 0 0 1
34.770095 -33.283308 -30.814584 57.151349 -0.763554 2.140254 0.028629 -0.022948 342230.000000 0 0 1
34.416235 -33.415858 -29.459864 56.293697 -0.770651 2.121544 0.033825 -0.024217 125876.000000 0 0 1
33.289105 34.391587 -29.127184 56.029801 0.801686 2.117474 0.037673 -0.021283 457386.000000 0 0 1
32.036815 -33.969168 -29.591314 55.280265 -0.814665 2.135655 0.042702 -0.016093 -496167.000000 0 0 1
31.058425 34.073989 -28.979264 54.456039 0.831664 2.131945 0.055535 -0.014837 773884.000000 0 0 1
29.654005 34.382986 -29.653984 54.230143 0.859112 2.149355 0.044073 -0.003522 812210.000000 0 0 1
29.498915 34.008272 -30.989754 54.654491 0.856285 2.173670 0.036882 0.000507 -869471.000000 0 0 1
28.265025 34.400526 -31.481484 54.528814 0.882996 2.186259 0.033589 -0.001703 -663828.000000 0 0 1
27.986925 33.860858 -32.905304 54.887017 0.880088 2.213685 0.035669 -0.008864 -8890.050000 0 0 1
27.819535 32.461649 -32.996844 54.004415 0.862254 2.228123 0.024356 -0.000584 19537.000000 0 0 1
27.677035 32.115099 -34.375886 54.581126 0.859487 2.252108 0.037282 -0.005392 -28872.400000 0 0 1
27.541125 30.571509 34.351373 53.601749 0.837498 0.875175 0.029467 -0.011854 -306706.000000 0 0 1
28.796845 30.017859 -34.187543 53.843460 0.806156 2.258731 0.021402 -0.012002 -527235.000000 0 0 1
28.825545 28.624409 -34.206837 53.107217 0.781897 2.270654 0.023235 -0.013130 1154250.000000 0 0 1
30.286075 28.052809 -33.982764 53.469941 0.747136 2.259516 0.027146 -0.007517 1088530.000000 0 0 1
30.764855 28.276599 -32.675574 53.044655 0.743279 2.234453 0.022487 -0.012544 25662.400000 0 0 1
31.983625 27.537769 -32.587904 53.322157 0.710843 2.228311 0.042189 -0.012993 562352.000000 0 0 1
32.723215 27.739949 -31.212874 53.052399 0.703166 2.199801 0.036096 -0.019670 -125183.000000 0 0 1
33.606135 28.818099 -30.965744 54.025294 0.708846 2.181167 0.029060 -0.019045 33029.300000 0 0 1
33.102815 30.177319 -31.011814 54.481185 0.739200 2.176354 0.023181 -0.013071 815704.000000 0 0 1
31.955185 30.562709 -29.967974 53.416219 0.763129 2.166423 0.031150 -0.006789 673598.000000 0 0 1
32.344725 30.438069 -28.631694 52.843459 0.755038 2.143398 0.029485 -0.012417 -642235.000000 0 0 1
31.323105 30.505539 -27.692714 51.755301 0.772176 2.135387 0.041268 -0.011717 -619808.000000 0 0 1
31.853115 30.941279 -26.324764 51.623414 0.770878 2.105910 0.051920 -0.017359 -43360.800000 0 0 1
32.315375 32.253459 -26.270994 52.675745 0.784439 2.092930 0.046505 -0.018104 79795.400000 0 0 1
32.674455 32.721329 -24.973444 52.554526 0.786115 2.065978 0.046831 -0.025948 109820.000000 0 0 1
32.980295 34.253189 -25.018444 53.729911 0.804328 2.055147 0.049864 -0.023996 474847.000000 0 0 1
31.798365 -33.781048 -25.107474 52.751118 -0.815622 2.066853 0.051831 -0.015590 571135.000000 0 0 1
31.883545 -32.348068 -25.012744 51.851666 -0.792630 2.074178 0.049881 -0.016839 -775899.000000 0 0 1
32.563095 -31.545568 -26.167284 52.346965 -0.769528 2.094258 0.044511 -0.019396 1118030.000000 0 0 1
33.900985 -31.959228 -26.499384 53.599313 -0.755924 2.087938 0.050280 -0.022897 1500570.000000 0 0 1
34.958325 -31.392418 -25.665894 53.537898 -0.731707 2.070764 0.056190 -0.020224 702121.000000 0 0 1
-34.889472 -31.588148 -26.301414 53.915218 0.735778 2.080397 0.033509 -0.015824 385528.000000 0 0 1
-34.264819 -32.876978 -26.083434 54.178585 0.764731 2.073087 0.036599 -0.015326 23292.800000 0 0 1
-33.986359 -33.268528 -24.747444 53.612532 0.774725 2.050592 0.046163 -0.012185 -176785.000000 0 0 1
-32.676829 -32.708458 -24.116244 52.146060 0.785882 2.051581 0.021709 -0.006210 252977.000000 0 0 1
-32.754249 -31.285808 -23.917844 51.222123 0.762472 2.056628 0.008496 -0.002891 -214590.000000 0 0 1
-32.773839 -30.942298 -22.513244 50.382502 0.756661 2.034034 0.005663 0.003190 4735.520000 0 0 1
-32.712219 -29.447428 -22.235144 49.311681 0.732924 2.038581 0.000031 0.016597 -87390.300000 0 0 1
-33.806609 -28.755398 -22.783244 49.888234 0.704834 2.045062 -0.001021 0.011823 -458993.000000 0 0 1
-33.603679 -28.146358 -24.034644 49.990887 0.697250 2.072341 -0.006880 0.010723 243560.000000 0 0 1
-34.785211 -27.182778 -24.356244 50.419648 0.663325 2.074954 -0.005020 -0.000371 410950.000000 0 0 1
-34.770644 -25.906208 -23.734744 49.431441 0.640332 2.071628 -0.010754 0.007841 275121.000000 0 0 1
35.515236 -25.024388 -24.360244 49.809371 -0.613813 2.081819 -0.001376 0.010487 638995.000000 0 0 1
-35.466005 -24.526198 -25.818854 50.259179 0.605026 2.110305 0.000820 0.012736 598542.000000 0 0 1
-34.273398 -23.695198 -25.823644 49.020290 0.604903 2.125622 -0.008619 0.005261 575770.000000 0 0 1
-34.133031 -23.095898 -27.069304 49.307520 0.594878 2.151951 -0.000823 -0.002357 50590.800000 0 0 1
-32.909749 -22.159198 -27.213074 48.110633 0.592603 2.172000 0.012627 -0.013119 -270622.000000 0 0 1
-32.777209 -20.951598 -26.489384 47.063811 0.568754 2.168614 0.016043 -0.004517 470368.000000 0 0 1
-33.797269 -19.958598 -26.744464 47.495972 0.533434 2.168915 0.006681 -0.009664 376452.000000 0 0 1
-35.089906 -19.948198 -25.926174 47.972894 0.516927 2.141749 0.021574 -0.019285 -320575.000000 0 0 1
-35.035644 -19.373598 -24.588944 46.983495 0.505119 2.121577 0.012919 -0.022211 184124.000000 0 0 1
-34.090480 -20.030898 -23.738644 46.118553 0.531237 2.111490 -0.005696 -0.007698 473702.000000 0 0 1
-34.740751 -21.354198 -23.148644 46.891164 0.551139 2.087098 0.018014 0.005901 592035.000000 0 0 1
35.616658 -20.959998 -22.101044 46.864955 -0.531912 2.061889 0.011696 0.000342 -196561.000000 0 0 1
34.955215 -22.132298 -21.781844 46.756330 -0.564447 2.055401 0.017801 0.012234 -374516.000000 0 0 1
33.809785 -22.019098 -20.766844 45.378453 -0.577263 2.046132 0.002921 0.008963 -278328.000000 0 0 1
32.637025 -21.373998 -21.179444 44.391351 -0.579812 2.068157 0.007403 0.003859 37694.900000 0 0 1
31.571935 -21.533598 -20.229944 43.240416 -0.598576 2.057651 0.017232 0.001369 -216248.000000 0 0 1
30.202705 -21.251998 -20.773344 42.371956 -0.613168 2.083186 0.008843 0.002995 -1416750.000000 0 0 1
29.720805 -22.142498 -21.759444 42.977783 -0.640304 2.101680 0.010858 0.004447 1296510.000000 0 0 1
28.351005 -21.933698 -22.190544 42.157880 -0.658465 2.125119 0.025632 -0.006624 1142850.000000 0 0 1
28.044675 -20.859098 -23.186444 41.943020 -0.639509 2.156527 0.035149 -0.000399 -397333.000000 0 0 1
28.348545 -19.590698 -22.622344 41.221425 -0.604704 2.151725 0.018589 0.000085 46692.300000 0 0 1
28.623225 -18.630998 -23.618044 41.523669 -0.577011 2.175824 0.005879 0.003869 -691480.000000 0 0 1
29.320935 -17.444098 -23.007644 41.150522 -0.536688 2.164108 -0.002926 0.014870 -340217.000000 0 0 1
28.527825 -16.810298 -22.017544 39.764245 -0.532485 2.157600 -0.019400 0.008619 647018.000000 0 0 1
29.306305 -16.127598 -20.986844 39.489322 -0.503082 2.131115 -0.021096 0.009071 359497.000000 0 0 1
30.210575 -16.916498 -20.036244 40.003722 -0.510452 2.095388 -0.013296 0.000954 769770.000000 0 0 1
31.445885 -17.296398 -20.668244 41.414796 -0.502872 2.093304 -0.011732 0.001286 642871.000000 0 0 1
32.384395 -17.939198 -19.810744 41.988444 -0.505868 2.062144 -0.010346 0.007283 -1142050.000000 0 0 1
33.634355 -18.246598 -20.528044 43.423597 -0.497066 2.063193 0.003153 -0.002300 -1323820.000000 0 0 1
34.379525 -17.069898 -20.815544 43.664860 -0.460855 2.067706 0.003416 0.001692 107511.000000 0 0 1
35.492980 -17.391498 -21.628244 45.055485 -0.455614 2.071492 0.025700 -0.000810 161515.000000 0 0 1
-34.937907 -16.177798 -22.108944 44.398017 0.433648 2.092054 0.036682 -0.013400 -224351.000000 0 0 1
-34.107162 -15.628298 -21.136844 43.061681 0.429662 2.083862 0.046232 -0.011801 -388052.000000 0 0 1
-33.248819 -14.649698 -21.680144 42.309884 0.415016 2.108789 0.052536 -0.017470 -460847.000000 0 0 1
-32.096189 -14.322198 -20.693344 40.786091 0.419712 2.102918 0.060755 -0.018972 114855.000000 0 0 1
-30.965489 -15.157998 -20.640144 40.182608 0.455223 2.110240 0.068652 -0.025122 161028.000000 0 0 1
-31.231539 -16.493098 -20.235344 40.705042 0.485867 2.091074 0.057421 -0.026604 -834221.000000 0 0 1
-29.965399 -17.353198 -20.269344 40.123620 0.524916 2.100378 0.041783 -0.037956 -321709.000000 0 0 1
-30.209469 -18.646898 -19.758344 40.628943 0.553009 2.078660 0.035003 -0.030748 787719.000000 0 0 1
-29.057709 -19.514698 -19.742644 40.186389 0.591399 2.084351 0.045598 -0.037146 573637.000000 0 0 1
-29.490479 -20.884098 -19.156744 40.900058 0.616184 2.058252 0.029202 -0.004173 -25335.000000 0 0 1
-30.351639 -21.551698 -20.067344 42.289431 0.617450 2.065219 0.020420 0.005466 163140.000000 0 0 1
-30.483429 -22.926398 -19.792544 42.972130 0.644840 2.049456 0.010274 0.022713 96371.700000 0 0 1
-31.474979 -23.624298 -20.766744 44.497634 0.643868 2.056344 -0.006436 0.023950 193198.000000 0 0 1
-30.948369 -23.828198 -22.088144 44.871713 0.656137 2.085470 -0.005970 0.013313 -107804.000000 0 0 1
-31.840149 -24.555098 -22.902344 46.273808 0.656931 2.088552 -0.002170 0.014648 -251400.000000 0 0 1
-31.430569 -24.857398 -24.399144 46.915766 0.669147 2.117721 0.003655 0.015876 -63434.000000 0 0 1
-30.255189 -25.623308 -24.590244 46.654158 0.702695 2.125951 -0.001853 0.009893 -170612.000000 0 0 1
-30.116909 -25.986758 -25.916524 47.476373 0.711914 2.148238 0.009733 0.006654 780899.000000 0 0 1
-28.643649 -26.235488 -26.412284 46.971994 0.741545 2.167959 0.019335 0.004506 877457.000000 0 0 1
-27.924469 -25.029188 -26.629424 45.993070 0.730777 2.188283 0.030318 -0.006483 -324106.000000 0 0 1
-26.549259 -25.319798 -26.658874 45.350313 0.761699 2.199187 0.030115 -0.004680 -33715.000000 0 0 1
-25.632889 -24.096498 -26.794344 44.222427 0.754513 2.221692 0.041640 -0.001689 -113536.000000 0 0 1
-25.588069 -23.564898 -28.099944 44.717564 0.744261 2.250274 0.049698 -0.008305 -184716.000000 0 0 1
-24.523649 -22.663198 -28.253124 43.740930 0.745991 2.273024 0.059346 -0.012070 -52393.500000 0 0 1
-24.463049 -22.082698 -29.672614 44.345804 0.734303 2.303819 0.045712 -0.007948 1074.570000 0 0 1
-24.181349 -23.088798 -30.623084 45.338764 0.762289 2.312342 0.041801 -0.013043 36994.100000 0 0 1
-23.998449 -22.573898 -31.917254 45.871751 0.754820 2.340320 0.043120 -0.010845 -362704.000000 0 0 1
-23.365349 -23.617698 -32.847254 46.719132 0.790769 2.350515 0.043595 -0.021893 -540245.000000 0 0 1
-24.299549 -24.471598 -33.418264 48.021949 0.788926 2.340463 0.038430 -0.023045 -653528.000000 0 0 1
-23.822949 -25.404908 -34.329862 48.902778 0.817523 2.349001 0.051381 -0.010564 -224574.000000 0 0 1
-19.995449 -14.530398 -11.996944 27.475027 0.628412 2.022667 0.030805 0.010779 57471.300000 0 0 1
-20.135749 -13.999298 -10.727444 26.767644 0.607528 1.983144 0.037949 0.005960 217652.000000 0 0 1
-19.288649 -14.643898 -9.766244 26.112741 0.649362 1.954118 0.028029 -0.002279 227039.000000 0 0 1
-19.476549 -14.110898 -8.336644 25.454922 0.626985 1.904459 0.037876 -0.012146 327046.000000 0 0 1
-20.700349 -14.621098 -7.822544 26.523068 0.614956 1.870182 0.052756 -0.011679 440166.000000 0 0 1
-21.100049 -14.136398 -6.534544 26.224990 0.590286 1.822622 0.057852 -0.015208 318233.000000 0 0 1
-22.268549 -14.988298 -5.933244 27.490739 0.592423 1.788335 0.060808 -0.018857 -104820.000000 0 0 1
-22.053449 -16.332498 -5.473244 27.983236 0.637450 1.767655 0.051456 -0.020582 38827.000000 0 0 1
-21.534849 -16.299698 -4.176544 27.328985 0.647902 1.724222 0.051263 -0.017593 -231997.000000 0 0 1
-21.275549 -17.652998 -3.442244 27.859045 0.692609 1.694672 0.034003 -0.010388 -482040.000000 0 0 1
-22.411749 -18.405198 -3.192744 29.175871 0.687553 1.680447 0.030754 -0.010895 -517180.000000 0 0 1
-22.131749 -19.352698 -2.204944 29.482249 0.718508 1.645655 0.018119 -0.005395 -161167.000000 0 0 1
-23.214949 -20.400198 -1.944344 30.965827 0.720951 1.633628 -0.004809 -0.010896 -268826.000000 0 0 1
-23.300449 -21.373998 -2.970944 31.758231 0.742303 1.664482 -0.018027 -0.009193 -329991.000000 0 0 1
-24.424549 -22.195298 -2.843044 33.125108 0.737617 1.656730 -0.015399 -0.006506 -448387.000000 0 0 1
-24.463849 -23.231198 -4.018044 33.975184 0.759560 1.689338 -0.026735 -0.001178 -940688.000000 0 0 1
-23.406849 -24.158098 -3.956244 33.869546 0.801191 1.687872 -0.029828 0.004137 -527451.000000 0 0 1
-23.337049 -24.826898 -5.210744 34.469473 0.816321 1.722548 -0.030205 0.000944 495215.000000 0 0 1
-21.994349 -24.637098 -6.007544 33.568268 0.842011 1.750731 -0.016771 0.008132 939690.000000 0 0 1
-21.473149 -23.367698 -6.500744 32.394523 0.827624 1.772842 -0.018696 0.015837 246413.000000 0 0 1
-21.242949 -22.474898 -5.419544 31.396742 0.813570 1.744280 -0.022010 0.013940 -838641.000000 0 0 1
-21.157949 -20.990198 -5.792144 30.361096 0.781418 1.762748 -0.003595 0.025112 -668718.000000 0 0 1
-19.970449 -20.704798 -6.438044 29.478058 0.803450 1.790972 0.007505 0.027692 -804588.000000 0 0 1
-20.008749 -19.391398 -7.040944 28.739368 0.769731 1.818309 0.002026 0.022978 -34847.600000 0 0 1
-18.730649 -19.016298 -7.799244 27.808003 0.792966 1.855078 0.022618 0.023570 -382683.000000 0 0 1
-18.604049 -19.747798 -8.992744 28.582435 0.815212 1.890858 0.020885 0.021796 -1109840.000000 0 0 1
-17.449149 -19.466598 -9.690344 27.880531 0.839994 1.925771 0.030679 0.023429 -894240.000000 0 0 1
-17.395949 -18.089798 -10.394244 27.164318 0.804949 1.963452 0.032148 0.025145 -297193.000000 0 0 1
-17.046149 -16.999998 -9.559544 25.902819 0.784043 1.948787 0.035671 0.002852 -334902.000000 0 0 1
-15.652249 -16.935598 -9.388044 24.898650 0.824759 1.957406 0.044999 0.007565 -294923.000000 0 1 0
-15.131449 -15.803498 -8.487144 23.467913 0.807119 1.940832 0.030565 -0.003532 -68587.100000 0 1 0
-15.729149 -16.014498 -7.255644 23.590563 0.794387 1.883430 0.007252 0.001388 27851.300000 0 1 0
-16.029749 -14.822798 -6.547244 22.793302 0.746298 1.862145 0.023723 -0.002340 -30987.400000 0 1 0
-16.765049 -15.128398 -5.204544 23.173748 0.734127 1.797316 0.023593 -0.010244 -29391.000000 0 1 0
-17.338949 -14.058398 -4.564944 22.784127 0.681291 1.772518 0.036379 -0.007349 -125573.000000 0 1 0
-17.539849 -14.422298 -3.209844 22.933645 0.688167 1.711220 0.025929 -0.008201 -52442.500000 0 1 0
-18.455349 -13.418598 -2.397244 22.943528 0.628673 1.675472 0.037903 -0.004159 -113336.000000 0 1 0
-19.737149 -13.420998 -2.963644 24.051225 0.597168 1.694332 0.048311 -0.013854 -180357.000000 0 1 0
-20.546149 -12.511998 -2.259844 24.161979 0.546989 1.664462 0.050360 -0.010921 -1391110.000000 0 1 0
-22.012849 -12.520398 -2.549344 25.452407 0.517145 1.671126 0.036251 -0.011726 -1248010.000000 0 0 1
-22.372649 -11.982998 -3.809444 25.663973 0.491728 1.719782 0.046825 -0.011888 404414.000000 0 0 1
-23.770649 -12.129898 -4.012244 26.986595 0.471845 1.720025 0.041946 -0.010334 55607.200000 0 0 1
-24.345049 -11.375398 -5.162244 27.362928 0.437112 1.760592 0.050769 -0.015800 -139964.000000 0 0 1
-23.946249 -11.941598 -6.395144 27.512224 0.462594 1.805390 0.054801 -0.022730 523975.000000 0 0 1
-24.679749 -11.274598 -7.421144 28.129699 0.428524 1.837775 0.059578 -0.026695 59009.000000 0 0 1
-24.029149 -11.597198 -8.776544 28.087768 0.449656 1.888587 0.075976 -0.032945 144073.000000 0 0 1
-22.900649 -10.768998 -8.983744 26.853653 0.439565 1.911918 0.070656 -0.029642 -78936.800000 0 0 1
-22.090049 -11.258498 -10.019544 26.741640 0.471349 1.954847 0.048569 -0.027690 323660.000000 0 0 1
-20.707449 -10.525598 -10.079044 25.321410 0.470266 1.980180 0.044896 -0.022572 246624.000000 0 0 1
-20.769449 -9.169698 -10.485844 25.008125 0.415762 2.003468 0.036616 -0.029347 274534.000000 0 0 1
-19.670249 -8.448798 -9.974544 23.617629 0.405694 2.006816 0.044802 -0.020211 -308588.000000 0 1 0
-19.529049 -7.082198 -10.547044 23.297670 0.347899 2.040596 0.043633 -0.026375 -125790.000000 0 1 0
-18.909849 -7.166298 -11.816944 23.421750 0.362248 2.099632 0.044495 -0.027327 456575.000000 0 1 0
-18.847249 -5.911698 -12.445244 23.346329 0.303945 2.133022 0.049038 -0.038118 57854.800000 0 1 0
-18.172349 -5.915798 -13.880644 23.619975 0.314719 2.198967 0.057177 -0.025566 137903.000000 0 1 0
-18.918349 -6.704898 -14.765544 24.917481 0.340600 2.205051 0.053109 -0.026570 347745.000000 0 1 0
-18.325349 -6.566398 -16.019144 25.210097 0.344070 2.259356 0.055378 -0.024478 -212396.000000 0 0 1
-18.916149 -7.444798 -17.147544 26.594811 0.374950 2.271519 0.046682 -0.021431 -209717.000000 0 0 1
-20.236149 -7.176698 -17.553744 27.733385 0.340809 2.256149 0.041638 -0.025588 162614.000000 0 0 1
-20.580849 -8.098198 -18.573544 28.881286 0.374875 2.269335 0.047007 -0.025269 521496.000000 0 0 1
-22.004849 -7.856698 -19.196844 30.240038 0.342936 2.258566 0.028165 -0.020434 -3431.070000 0 0 1
-22.038749 -6.700298 -20.068044 30.550398 0.295144 2.287474 0.031966 -0.020654 101400.000000 0 0 1
-23.242949 -6.635098 -20.786144 31.879821 0.278071 2.281036 0.019751 -0.014901 275446.000000 0 0 1
-24.559249 -6.281698 -20.063144 32.328721 0.250409 2.240302 0.040996 -0.017523 -462720.000000 0 0 1
-24.447549 -4.936298 -19.545244 31.687004 0.199235 2.235495 0.039166 -0.007226 315019.000000 0 0 1
-25.661249 -4.500298 -18.946344 32.213605 0.173608 2.199562 0.047993 -0.008168 -164459.000000 0 0 1
-25.770009 -3.060398 -18.362344 31.790487 0.118205 2.186588 0.044032 -0.008015 -123405.000000 0 0 1
-26.057529 -2.067898 -19.304244 32.494997 0.079193 2.206903 0.049239 -0.005375 711244.000000 0 0 1
-27.396599 -2.025498 -19.816044 33.872583 0.073798 2.195698 0.057965 0.003035 475687.000000 0 0 1
-27.543019 -0.753198 -20.726544 34.478614 0.027339 2.215726 0.056595 0.001973 -72831.700000 0 0 1
-27.124809 -0.827298 -22.107544 35.002617 0.030490 2.254408 0.043208 0.005809 120949.000000 0 0 1
-27.813339 -1.679998 -23.040744 36.156328 0.060329 2.261725 0.037028 0.012022 26055.000000 0 0 1
-27.222169 -1.627398 -24.507444 36.664829 0.059711 2.302877 0.031293 0.011477 -589439.000000 0 0 1
-27.395769 -0.406898 -25.256644 37.263813 0.014852 2.315535 0.025150 0.015960 291464.000000 0 0 1
-26.881049 0.859202 -24.741344 36.543989 -0.031952 2.314515 0.030876 0.015724 1062750.000000 0 0 1
-25.347239 0.827302 -24.357444 35.163220 -0.032627 2.336018 0.035075 0.012129 314989.000000 0 0 1
-24.464349 0.871202 -25.440614 35.305640 -0.035596 2.375438 0.034712 0.005898 -257850.000000 0 0 1
-23.147349 0.780202 -24.914744 34.016951 -0.033693 2.392668 0.039080 0.005080 68216.500000 0 0 1
-22.152449 0.169902 -25.904144 34.084960 -0.007669 2.434090 0.041318 -0.002885 -355667.000000 0 0 1
-21.981649 0.966002 -27.009984 34.837699 -0.043918 2.458001 0.036323 0.001554 280378.000000 0 0 1
-21.114449 0.465602 -28.036404 35.100950 -0.022048 2.495988 0.022781 -0.002810 253122.000000 0 0 1
-21.036749 1.291002 -29.339874 36.125333 -0.061292 2.518657 0.031153 0.005559 -303333.000000 0 0 1
-20.362349 2.527502 -29.189664 35.679826 -0.123495 2.528896 0.034086 0.003275 192772.000000 0 0 1
-20.223349 3.260102 -30.390624 36.649722 -0.159830 2.548504 0.022022 0.002505 -133611.000000 0 0 1
-19.576849 2.633502 -31.604724 37.269920 -0.133718 2.582988 0.018957 0.001320 -257264.000000 0 0 1
-18.167349 2.688102 -31.662174 36.602892 -0.146898 2.615983 0.010111 0.002704 27286.900000 0 0 1
-17.627949 2.126402 -32.865464 37.355118 -0.120047 2.646262 0.002036 0.006360 262424.000000 0 0 1
-16.087349 2.101202 -32.871414 36.657164 -0.129877 2.683111 0.009711 -0.009402 -239684.000000 0 0 1
-15.452749 3.305302 -32.863644 36.465484 -0.210722 2.693387 0.013280 -0.005818 155195.000000 0 0 1
-14.043949 3.134502 -33.087644 36.081155 -0.219593 2.731375 0.007798 -0.004925 836065.000000 0 0 1
-13.401249 4.519102 -33.490604 36.354316 -0.325240 2.742021 0.013425 -0.003910 -445982.000000 0 0 1
-13.246949 5.314902 -32.345984 35.355233 -0.381555 2.726020 0.024301 -0.013762 113599.000000 0 0 1
-12.810549 6.619802 -32.732784 35.768241 -0.476955 2.726640 0.024432 -0.003458 -235944.000000 0 0 1
-12.494049 7.358202 -31.423494 34.607519 -0.532245 2.709273 0.035809 -0.014770 383102.000000 0 0 1
-11.261149 6.949502 -30.800784 33.523086 -0.552914 2.735809 0.052703 -0.023842 845636.000000 0 0 1
-11.404949 5.996902 -29.725124 32.397819 -0.484086 2.732555 0.047194 -0.020622 25608.000000 0 0 1
-10.076649 5.230702 -29.469584 31.580935 -0.478804 2.773860 0.062050 -0.027477 29623.100000 0 0 1
-9.615749 4.388902 -30.514214 32.293069 -0.428187 2.808132 0.049849 -0.030467 141503.000000 0 0 1
-10.340949 3.208802 -30.741054 32.592085 -0.300880 2.802949 0.053605 -0.028628 -429560.000000 0 0 1
-9.976949 2.547902 -32.117164 33.727489 -0.250035 2.831335 0.041655 -0.027983 -156567.000000 0 0 1
-10.558149 1.273402 -32.251734 33.959835 -0.120029 2.823080 0.045662 -0.028920 93086.400000 0 0 1
-10.151749 0.618902 -33.397514 34.911817 -0.060890 2.845984 0.040029 -0.023249 -773934.000000 0 0 1
-10.708749 1.039502 34.081007 35.738955 -0.096767 0.305790 0.035300 -0.014291 -470523.000000 0 0 1
-12.089049 0.952902 33.858127 35.964230 -0.078661 0.343924 -0.001488 -0.003838 -461494.000000 0 0 1
-12.371149 0.937202 32.490337 34.778523 -0.075613 0.364767 -0.005078 0.006617 -834718.000000 0 0 1
-13.852249 0.859602 32.182637 35.047765 -0.061976 0.407156 -0.001403 0.023495 -646437.000000 0 0 1
-14.488249 2.118102 32.353947 35.513006 -0.145166 0.424985 -0.001984 0.025710 80904.300000 0 0 1
-15.833049 2.024902 31.920697 35.689165 -0.127200 0.463689 0.002933 0.025202 148020.000000 0 0 1
-16.520249 3.405302 31.691127 35.900449 -0.203282 0.489113 0.011778 0.017295 50199.400000 0 0 1
-17.091249 3.944402 32.897471 37.281532 -0.226814 0.489843 0.015089 0.009619 439292.000000 0 0 1
-16.378649 5.084502 33.365186 37.514636 -0.301002 0.474785 0.006033 0.015420 22914.700000 0 0 1
-17.072849 5.664002 -34.138860 38.587884 -0.320329 2.656655 0.014476 0.011976 -930503.000000 0 0 1
-18.293649 6.173602 34.379423 39.429883 -0.325471 0.511701 0.018140 0.006308 -1701050.000000 0 0 1
-19.321949 5.721702 -33.581254 39.163455 -0.287897 2.601117 0.017220 0.010865 947896.000000 0 0 1
-20.677049 6.432402 -34.003234 40.312976 -0.301599 2.574528 0.013278 0.005183 653081.000000 0 0 1
-20.797849 7.750102 -33.509104 40.192967 -0.356700 2.556581 0.015433 0.000057 126301.000000 0 0 1
-20.310849 8.692302 34.396190 40.880124 -0.404378 0.570943 0.009241 -0.000824 -330913.000000 0 0 1
-20.218849 10.139102 -33.951674 40.796071 -0.464821 2.553912 0.004910 0.001463 -546655.000000 0 0 1
-19.385049 10.315302 -32.820664 39.489005 -0.489017 2.551941 0.007896 0.001080 228372.000000 0 0 1
-19.091349 11.671602 -32.527154 39.480649 -0.548727 2.539012 0.025075 -0.000120 -199647.000000 0 0 1
-18.260749 12.517202 -33.473954 40.132790 -0.600908 2.557259 0.020809 -0.010157 -955256.000000 0 0 1
-18.907549 12.837202 34.159892 41.099724 -0.596455 0.589630 0.029123 -0.013206 26013.700000 0 0 1
-18.039849 13.037002 33.037431 39.835554 -0.625784 0.592861 0.033984 -0.015446 312043.000000 0 0 1
-18.717849 12.616602 31.694377 38.911053 -0.593091 0.618871 0.044729 -0.019848 -107192.000000 0 0 1
-18.920749 11.201102 31.568327 38.471011 -0.534517 0.608381 0.018626 -0.007366 -326656.000000 0 0 1
-17.754549 10.469302 31.372637 37.537616 -0.532788 0.581271 0.023089 -0.004880 -328306.000000 0 0 1
-18.037149 8.946202 31.471647 37.360913 -0.460433 0.569134 0.021510 0.003329 -137231.000000 0 0 1
-18.737349 8.370202 30.415007 36.690886 -0.420116 0.593564 0.023242 0.003321 38491.400000 0 0 1
-18.764449 6.992102 30.509387 36.494064 -0.356687 0.580826 0.022068 0.001080 -191065.000000 0 0 1
-19.137249 6.269702 29.226877 35.493010 -0.316598 0.603324 0.022218 0.009175 1124520.000000 0 0 1
-20.544449 6.344102 28.887377 36.011145 -0.299509 0.639861 0.039057 0.000249 1048310.000000 0 0 1
-20.929249 5.244602 28.072577 35.406339 -0.245531 0.655294 0.021911 0.001909 -357233.000000 0 0 1
-22.433849 5.317202 27.779007 36.100186 -0.232722 0.692742 0.010706 0.007057 -292967.000000 0 0 1
-22.845549 6.338002 26.894157 35.852267 -0.270622 0.722525 0.013872 0.006091 800496.000000 0 0 1
-24.273449 6.435102 26.819517 36.740949 -0.259147 0.752529 0.011412 -0.001603 320271.000000 0 0 1
-24.882249 7.274402 25.634107 36.457518 -0.284427 0.791017 0.009481 -0.004966 -17670.700000 0 0 1
-24.827749 6.667302 24.376417 35.427104 -0.262353 0.811967 0.010520 -0.003097 -9344.040000 0 0 1
-25.670939 5.573502 24.278167 35.769965 -0.213795 0.824764 0.007905 0.003784 -798527.000000 0 0 1
-25.726889 4.848002 22.905557 34.785636 -0.186257 0.852002 0.010838 0.000275 -558527.000000 0 0 1
-26.523759 5.478702 21.979857 34.880368 -0.203694 0.889050 0.018453 0.001417 -298179.000000 0 0 1
-26.653019 4.688002 20.804557 34.134885 -0.174109 0.915391 0.030420 0.007750 -53218.000000 0 0 1
-27.296699 5.462002 19.649157 34.073928 -0.197489 0.956159 0.047814 0.004896 -111481.000000 0 0 1
-28.697679 5.472902 19.737257 35.257180 -0.188446 0.976642 0.050549 0.003141 -490768.000000 0 0 1
-29.376179 5.855602 18.589257 35.253488 -0.196753 1.015373 0.049339 0.002652 317254.000000 0 0 1
-30.908899 5.950302 18.828957 36.678273 -0.190184 1.031707 0.042467 0.000486 402569.000000 0 0 1
-31.274419 7.042702 19.672857 37.612634 -0.221496 1.020384 0.053047 -0.010020 1171340.000000 0 0 1
-32.640389 6.892802 20.155957 38.976509 -0.208116 1.027301 0.060308 -0.011185 1561620.000000 0 0 1
-33.156669 8.127302 20.961857 40.060169 -0.240379 1.020125 0.054533 -0.005062 153767.000000 0 0 1
-32.720259 8.081702 22.311857 40.419651 -0.242147 0.986029 0.042347 -0.002984 26933.600000 0 0 1
-33.392969 9.031402 23.057157 41.572696 -0.264139 0.982887 0.034267 0.005151 -135659.000000 0 0 1
-0.681149 31.928902 11.368256 33.899203 -1.549466 1.228815 -0.007309 0.003022 -323343.000000 0 0 1
-0.947049 32.278402 12.746356 34.716879 -1.541465 1.194851 -0.019510 0.000344 335547.000000 0 0 1
-0.302449 33.529402 13.036956 35.976026 -1.561776 1.199977 -0.027862 -0.006193 -440148.000000 0 0 1
0.004151 33.788202 14.517456 36.774979 1.570673 1.164985 -0.037793 0.003636 -61218.500000 0 0 1
-1.109649 34.025002 15.363656 37.349350 -1.538195 1.146862 -0.028071 0.017811 71975.500000 0 0 1
-0.609349 34.209702 16.685356 38.066732 -1.552986 1.117069 -0.037602 0.005043 -121248.000000 0 0 1
-1.546849 -34.125056 17.779656 38.510107 1.525499 1.090899 -0.011585 0.011892 -547465.000000 0 0 1
-2.474649 33.719802 18.090656 38.346066 -1.497539 1.079495 -0.022604 0.014623 -249054.000000 0 0 1
-3.263649 34.120302 19.190356 39.282517 -1.475435 1.060402 -0.002693 0.008979 -319028.000000 0 0 1
-4.313849 33.086802 19.613356 38.704386 -1.441148 1.039388 -0.008309 0.005088 -216500.000000 0 0 1
-5.367349 32.965602 18.677756 38.267452 -1.409396 1.060902 -0.002299 -0.000402 -309244.000000 0 0 1
-6.428949 32.357202 19.373956 38.257941 -1.374664 1.039787 0.024348 -0.019267 -754566.000000 0 0 1
-7.633749 32.118202 18.487356 37.836957 -1.337449 1.060305 0.008868 -0.022196 -296293.000000 0 0 1
-8.504349 33.247402 18.258056 38.872487 -1.320376 1.081856 0.031263 -0.024710 359893.000000 0 0 1
-9.026849 33.133702 16.924556 38.285334 -1.304814 1.112898 0.060559 -0.019346 62477.000000 0 0 1
-10.081249 34.225202 16.609856 39.355855 -1.284341 1.135099 0.111553 -0.031746 384096.000000 0 0 1
-11.301049 34.103402 17.335656 39.890860 -1.250808 1.121228 0.107436 -0.031785 -21445.000000 0 0 1
-12.104449 -33.671856 16.976456 39.604439 1.225699 1.127798 0.088535 -0.032618 501088.000000 0 0 1
-13.501749 -33.672456 17.713456 40.371996 1.189451 1.116582 0.111129 -0.039124 919555.000000 0 0 1
-13.347049 -33.391756 19.060556 40.699605 1.190539 1.083405 0.096784 -0.030020 411130.000000 0 0 1
-14.600349 -33.445956 19.739056 41.490149 1.159196 1.074977 0.073270 -0.038688 422021.000000 0 0 1
-14.616449 -32.996256 21.199756 41.854786 1.153801 1.039667 0.071680 -0.043847 -290742.000000 0 0 1
-14.332149 -31.659756 21.375356 40.800202 1.145705 1.019369 0.114669 -0.035228 75290.700000 0 0 1
-14.319749 -31.277256 22.732356 41.232050 1.141448 0.986842 0.060370 -0.026744 53798.400000 0 0 1
-14.549149 -29.761556 22.937456 40.293360 1.116103 0.965189 0.080737 -0.027791 -249697.000000 0 0 1
-14.604849 -29.478856 24.285056 40.890934 1.110808 0.934901 0.075146 -0.028920 -113321.000000 0 0 1
-14.742049 -28.119856 24.594856 40.161689 1.087931 0.911709 0.058217 -0.016136 -213834.000000 0 0 1
-16.018749 -27.319956 24.298956 39.917660 1.040482 0.916341 0.091540 -0.014879 322953.000000 0 0 1
-17.088749 -27.452556 25.266556 41.037386 1.014009 0.907527 0.106749 -0.014443 273053.000000 0 0 1
-18.160749 -26.675456 24.829756 40.717435 0.973070 0.914980 0.114669 -0.014063 -817042.000000 0 0 1
-19.344749 -26.500356 25.791456 41.733528 0.940231 0.904596 0.098593 -0.003196 -17504.300000 0 0 1
-20.110649 -27.662956 26.052856 42.993356 0.942186 0.919807 0.102991 -0.006910 451504.000000 0 0 1
-21.032949 -28.113356 25.071156 43.142886 0.928482 0.950693 0.095198 -0.006755 690691.000000 0 0 1
-22.372449 -27.336356 24.744956 43.129058 0.884928 0.959729 0.069507 0.000164 654900.000000 0 0 1
-22.260049 -26.135656 24.042556 41.912132 0.865309 0.959851 0.072382 0.001769 258216.000000 0 0 1
-23.487649 -26.032856 23.341056 42.121065 0.836750 0.983464 0.042168 0.001704 111785.000000 0 0 1
-23.938149 -24.568256 23.172256 41.395502 0.798388 0.976679 0.046163 0.009232 -168451.000000 0 0 1
-24.279049 -23.857356 24.335156 41.843105 0.776638 0.950125 0.040383 0.007062 174044.000000 0 0 1
-24.828849 -22.582056 24.007156 41.264567 0.738044 0.949873 0.017391 0.011263 193097.000000 0 0 1
-25.187789 -21.747056 25.253456 41.774348 0.712220 0.921632 0.023390 0.011660 37999.700000 0 0 1
-26.247269 -22.393356 25.930456 43.159820 0.706331 0.926294 0.001194 0.015436 2315.750000 0 0 1
-26.667539 -21.578356 26.963856 43.632930 0.680303 0.904638 -0.006232 0.010388 60868.800000 0 0 1
-27.755239 -22.241056 27.932556 45.224391 0.675550 0.905053 -0.005938 0.010877 2183180.000000 0 0 1
-29.158789 -22.130756 27.559956 45.820918 0.649220 0.925455 -0.010176 0.005077 1549090.000000 0 0 1
-29.553999 -22.843556 26.426556 45.756199 0.658024 0.955070 -0.014598 0.008327 -423022.000000 0 0 1
-31.109559 -22.868856 26.262956 46.696168 0.633901 0.973484 -0.009169 0.002887 698899.000000 0 0 1
-31.628139 -23.426656 25.040556 46.649510 0.637516 1.004179 -0.011578 0.000085 250742.000000 0 0 1
-31.376359 -24.767456 24.829156 47.057303 0.668224 1.014980 -0.021001 0.000731 -594035.000000 0 0 1
-31.860999 -25.214556 23.394256 46.884841 0.669470 1.048383 -0.009175 -0.003648 1572470.000000 0 0 1
-33.270479 -25.537856 23.215856 47.938323 0.654660 1.065249 0.001517 -0.003619 1237370.000000 0 0 1
-33.417469 -26.117956 21.894956 47.731163 0.663399 1.094249 0.013919 -0.005297 -456629.000000 0 0 1
-34.669288 -26.944756 21.687356 48.972654 0.660679 1.112026 0.019354 -0.003576 -715377.000000 0 0 1
-34.845986 -28.146856 22.486856 50.121322 0.679449 1.105544 0.017891 0.003511 -64787.600000 0 0 1
-33.827969 -29.113556 22.429856 49.950266 0.710636 1.105101 0.003687 -0.000448 -402899.000000 0 0 1
-33.921519 -30.208056 21.322456 50.178115 0.727557 1.131906 0.010452 -0.001619 -86051.100000 0 0 1
-34.047589 -29.684956 19.978556 49.392080 0.717053 1.154376 -0.000661 0.001503 333425.000000 0 0 1
-34.488443 -30.679056 19.144056 49.971512 0.727009 1.177647 0.005597 -0.004493 -282361.000000 0 0 1
-34.974179 -30.203656 17.750056 49.502712 0.712336 1.204064 0.000301 0.001406 -205505.000000 0 0 1
-33.873659 -29.885056 16.921256 48.237643 0.722922 1.212382 0.017182 -0.003462 394762.000000 0 0 1
-34.259847 -29.386956 15.643256 47.770721 0.708986 1.237177 0.010600 0.001154 123747.000000 0 0 1
-34.908996 -30.468256 14.727156 48.619355 0.717577 1.263055 0.007021 0.002137 100695.000000 0 0 1
-33.928479 -31.393456 14.310556 48.388870 0.746609 1.270566 0.020153 -0.010666 -77316.700000 0 0 1
-34.262800 -32.223156 13.214256 48.855786 0.754730 1.296910 0.022812 -0.005639 -124950.000000 0 0 1
-34.509125 -31.447756 11.824556 48.162861 0.739017 1.322749 0.020404 -0.008820 -381033.000000 0 0 1
-35.581438 -30.579956 11.731656 48.361185 0.709946 1.325768 0.012342 -0.009383 -394730.000000 0 0 1
-35.572569 -29.843056 10.527356 47.611352 0.698035 1.347844 0.014974 0.000529 42078.700000 0 0 1
34.495865 -28.864456 10.398056 46.165366 -0.696752 1.343612 0.024762 0.008680 72098.600000 0 0 1
34.587975 -27.903356 9.368756 45.416944 -0.678835 1.363021 0.026819 -0.025551 1089780.000000 0 0 1
33.326455 -27.217856 9.152156 43.991206 -0.684844 1.361220 0.026889 -0.021228 884374.000000 0 0 1
33.345905 -26.203056 8.003056 43.157831 -0.666019 1.384280 0.030019 -0.018031 -113208.000000 0 0 1
34.025835 -25.006256 8.219656 43.018984 -0.633780 1.378544 0.033587 -0.022690 -253848.000000 0 0 1
34.183725 -24.288656 6.992756 42.513109 -0.617760 1.405561 0.043185 -0.031805 -19202.200000 0 0 1
34.770825 -22.833556 7.183556 42.213564 -0.581062 1.399792 0.054819 -0.035191 -482735.000000 0 0 1
34.036505 -21.989156 8.016656 41.307062 -0.573591 1.375482 0.033168 -0.020252 -553423.000000 0 0 1
34.459595 -20.653256 7.880456 40.940472 -0.539939 1.377102 0.051996 -0.022298 179518.000000 0 0 1
33.630085 -19.633356 8.734056 39.909084 -0.528425 1.350162 0.054069 -0.014767 272313.000000 0 0 1
33.996195 -19.756556 10.127556 40.603327 -0.526437 1.318708 0.046209 -0.016872 -216892.000000 0 0 1
33.349255 -18.779556 10.899356 39.794980 -0.512859 1.293363 0.037257 -0.008914 -258182.000000 0 0 1
33.665905 -18.834356 12.395756 40.518895 -0.510069 1.259886 0.023848 -0.012782 315132.000000 0 0 1
34.876155 -18.177856 12.755756 41.345978 -0.480473 1.257167 0.004895 -0.011566 411328.000000 0 0 1
35.363032 -18.493656 14.041156 42.305004 -0.481851 1.232476 0.005594 0.000550 -414867.000000 0 0 1
-34.684577 -17.650256 14.402656 41.496842 0.470726 1.216342 0.014254 -0.006599 -437933.000000 0 0 1
-33.486079 -18.015256 13.756856 40.436592 0.493578 1.223658 0.015859 -0.009405 -203718.000000 0 0 1
-32.420069 -17.297556 14.352656 39.449525 0.490122 1.198427 0.008626 -0.007577 -291398.000000 0 0 1
-31.134719 -17.501956 13.538556 38.196619 0.512113 1.208477 0.022229 -0.005698 -446500.000000 0 0 1
-30.597059 -18.779856 13.589956 38.386845 0.550490 1.208923 0.013755 -0.004908 -980355.000000 0 0 1
-29.517369 -18.926456 12.775456 37.318870 0.570162 1.221398 -0.012545 0.002165 -932420.000000 0 0 1
-29.037279 -20.383756 12.718856 37.688597 0.612057 1.226566 -0.012691 -0.000214 197774.000000 0 0 1
-29.607179 -21.191356 11.675156 38.235688 0.621219 1.260493 -0.004435 0.005540 53448.600000 0 0 1
-28.561779 -21.931656 11.069556 37.673702 0.654838 1.272568 0.002018 0.005170 -445673.000000 0 0 1
-28.950099 -22.624256 9.749056 38.013278 0.663353 1.311434 0.021344 -0.004451 225305.000000 0 0 1
-29.732239 -23.784656 9.910456 39.343780 0.674718 1.316160 0.024179 -0.009693 106289.000000 0 0 1
-31.104309 -23.572956 10.190556 40.336208 0.648518 1.315388 0.030742 -0.012942 -130369.000000 0 0 1
-32.023839 -24.831356 10.299556 41.811522 0.659561 1.321902 0.039875 -0.017507 238612.000000 0 0 1
-32.548719 -25.277856 9.048456 42.193171 0.660319 1.354664 0.039416 -0.012754 -138599.000000 0 0 1
-33.320089 -26.422556 9.318456 43.534049 0.670453 1.355077 0.046010 -0.011390 -3339.450000 0 0 1
-33.380049 -27.317756 8.048656 43.877879 0.685852 1.386319 0.041686 -0.018725 -234718.000000 0 0 1
-32.136319 -27.793056 7.624056 43.166227 0.713052 1.393244 0.030292 -0.016161 -627611.000000 0 0 1
-32.178359 -28.561256 6.463056 43.508197 0.725917 1.421696 0.027946 -0.012777 -482511.000000 0 0 1
-30.793899 -28.789856 5.862356 42.561570 0.751777 1.432619 0.042361 -0.010631 -547835.000000 0 0 1
-30.199609 -27.703856 5.313556 41.324979 0.742323 1.441860 0.051990 -0.010267 -1125930.000000 0 0 1
-29.039729 -28.083856 4.643856 40.664164 0.768666 1.456346 0.046978 -0.010759 -716939.000000 0 0 1
-28.311589 -26.861156 4.123456 39.243734 0.759115 1.465529 0.038222 -0.012442 -210742.000000 0 0 1
-28.831989 -26.390856 2.907756 39.194590 0.741222 1.496540 0.044170 -0.011437 -3700.040000 0 0 1
-28.064719 -25.309656 2.414656 37.868690 0.733826 1.506989 0.039405 -0.015167 -185135.000000 0 0 1
-28.394499 -24.951456 0.955856 37.811855 0.720946 1.545514 0.042987 -0.013471 -25709.400000 0 0 1
-27.801909 -25.762056 -0.046944 37.902927 0.747334 1.572035 0.036787 -0.013481 -321813.000000 0 0 1
-27.847829 -25.146456 -1.353744 37.545685 0.734467 1.606860 0.033687 -0.019815 329442.000000 0 0 1
-29.214819 -24.929556 -2.067844 38.461206 0.706418 1.624587 0.066278 -0.023575 310511.000000 0 0 1
-30.003729 -23.887956 -1.577244 38.384188 0.672399 1.611899 0.056315 -0.014337 -659452.000000 0 0 1
-31.261019 -23.882156 -2.190444 39.400593 0.652376 1.626419 0.069705 -0.019777 364222.000000 0 0 1
-32.118349 -22.533956 -2.057244 39.288672 0.611793 1.623183 0.056831 -0.018613 359125.000000 0 0 1
-32.558889 -22.407956 -0.743744 39.531644 0.602782 1.589611 0.063311 -0.023632 -68398.900000 0 0 1
-33.364129 -21.255156 -0.656744 39.564859 0.567229 1.587396 0.074535 -0.008134 -228280.000000 0 0 1
-33.716799 -20.797756 0.812056 39.623586 0.552707 1.550301 0.061919 -0.014839 -214584.000000 0 0 1
-34.646157 -21.604856 1.467256 40.856809 0.557582 1.534876 0.062653 -0.020790 -141435.000000 0 0 1
-34.641889 -21.377856 2.893556 40.809874 0.552905 1.499833 0.062285 -0.024638 -1215170.000000 0 0 1
-35.609763 -22.190056 3.776156 42.127344 0.557264 1.481039 0.076804 -0.022055 -86976.400000 0 0 1
34.286125 -22.008156 3.560956 40.897160 -0.570658 1.483615 0.051948 -0.014457 -364052.000000 0 0 1
33.747625 -20.666556 3.708656 39.746230 -0.549477 1.477352 0.043928 -0.015834 -229712.000000 0 0 1
32.486335 -20.529956 2.784056 38.530403 -0.563586 1.498477 0.037201 -0.006348 451967.000000 0 0 1
31.420515 -21.381156 3.115756 38.132801 -0.597508 1.488997 0.032419 -0.009566 -1319550.000000 0 0 1
30.245295 -20.889556 2.609656 36.850532 -0.604438 1.499920 0.034570 -0.011314 -889982.000000 0 0 1
29.021605 -21.800856 2.777456 36.403916 -0.644265 1.494427 0.025329 0.002430 -338038.000000 0 0 1
29.003755 -22.965456 1.961956 37.046987 -0.669727 1.517813 0.021893 -0.006972 -203445.000000 0 0 1
27.826795 -23.690756 2.235956 36.613958 -0.705286 1.509690 0.012348 -0.001221 -17027.100000 0 0 1
27.372505 -24.783956 1.288856 36.948067 -0.735808 1.535906 0.014581 -0.002389 -239941.000000 0 0 1
27.048605 -24.361556 0.010856 36.402095 -0.733179 1.570498 0.011010 -0.009307 41530.500000 0 0 1
26.328825 -25.431256 -0.584544 36.610073 -0.768059 1.586764 0.006422 -0.006997 -415531.000000 0 0 1
25.687635 -25.006656 -1.943144 35.902134 -0.771966 1.624946 0.000215 -0.008663 -307438.000000 0 0 1
26.458815 -24.500656 -3.011144 36.185881 -0.746991 1.654106 0.002726 -0.028210 -278736.000000 0 0 1
26.845305 -25.470356 -4.051944 37.226706 -0.759122 1.679857 0.010368 -0.026313 -524095.000000 0 0 1
25.757335 -25.881456 -5.053444 36.862275 -0.787802 1.708319 0.015543 -0.024188 -102651.000000 0 0 1
25.307435 -24.808156 -5.895544 35.925872 -0.775436 1.735645 0.012169 -0.031663 947944.000000 0 0 1
24.170035 -24.106656 -5.346644 34.552974 -0.784085 1.726158 0.016731 -0.037533 -247288.000000 0 0 1
23.490035 -22.968756 -6.116244 33.417868 -0.774178 1.754857 0.016131 -0.040906 -247277.000000 0 0 1
22.700135 -23.447956 -7.160944 33.412301 -0.801602 1.786793 0.020128 -0.031568 -132967.000000 0 0 1
21.775335 -22.537456 -7.738344 32.279778 -0.802595 1.812881 0.032137 -0.033001 -133609.000000 0 0 1
22.203335 -21.223756 -8.470044 31.861850 -0.762845 1.839868 0.037707 -0.029278 -860903.000000 0 0 1
22.763935 -21.424356 -9.772644 32.752165 -0.755092 1.873793 0.041381 -0.029835 138973.000000 0 0 1
22.496935 -20.373556 -10.649644 32.165335 -0.735909 1.908256 0.043105 -0.038991 -382492.000000 0 0 1
23.240835 -20.378156 -11.983444 33.151298 -0.719863 1.940648 0.045315 -0.033516 158384.000000 0 0 1
24.630635 -20.122156 -11.843344 33.938682 -0.684995 1.927261 0.045342 -0.028364 288341.000000 0 0 1
25.258235 -19.678756 -13.037544 34.571800 -0.661868 1.957476 0.038002 -0.020490 -1934310.000000 0 0 1
26.721165 -19.775356 -13.102144 35.731660 -0.637111 1.946236 0.022550 -0.021904 -1940450.000000 0 0 1
27.189285 -21.084456 -13.220944 36.859257 -0.659603 1.937657 0.020772 -0.019220 -7239.490000 0 0 1
27.749285 -21.609556 -12.034444 37.172887 -0.661644 1.900479 0.028564 -0.036419 -245946.000000 0 0 1
27.912765 -23.144856 -12.214744 38.262341 -0.692285 1.895720 0.024909 -0.013028 -339013.000000 0 0 1
28.884255 -23.389756 -13.189444 39.437828 -0.680673 1.911803 0.025910 -0.022260 49404.400000 0 0 1
28.924555 -24.799756 -13.495344 40.420070 -0.708771 1.911210 0.020940 -0.011930 -72318.600000 0 0 1
-4.297349 -9.245898 -27.448944 29.281365 1.135716 2.785942 0.031886 0.004776 65025.200000 0 0 1
-3.986949 -7.961898 -26.953234 28.385989 1.106546 2.822518 0.017143 0.006812 24014.700000 0 0 1
-4.391449 -6.971298 -27.835654 29.029424 1.008658 2.853816 0.010867 0.006411 -164339.000000 0 0 1
-4.458349 -5.568698 -27.172874 28.093635 0.895684 2.884862 0.009307 -0.004995 -328116.000000 0 0 1
-5.422649 -5.387098 -26.175084 27.268314 0.782109 2.857472 0.009094 -0.004741 -75024.700000 0 0 1
-5.158249 -4.184098 -25.465484 26.317391 0.681501 2.886459 0.013718 -0.012729 169329.000000 0 0 1
-5.780949 -4.027498 -24.073244 25.083086 0.608497 2.856872 0.010901 -0.012000 72599.200000 0 0 1
-5.138649 -4.947898 -23.215444 24.286709 0.766489 2.843474 0.016033 -0.018228 463247.000000 0 1 0
-5.556849 -4.725898 -21.907644 23.090204 0.704763 2.820164 0.018150 -0.014402 -210516.000000 0 1 0
-4.938649 -5.736598 -20.872444 22.202651 0.860007 2.793684 0.024718 -0.016327 -470218.000000 0 1 0
-5.361349 -7.087198 -20.916044 22.725610 0.923159 2.739830 0.016913 -0.015461 60511.300000 0 1 0
-4.512149 -7.889598 -20.150044 22.104966 1.051287 2.717863 0.025206 -0.022471 -1389500.000000 0 1 0
-4.890949 -9.343598 -20.019744 22.627734 1.088562 2.656740 0.015541 -0.023176 1186680.000000 0 1 0
-6.102549 -9.619598 -19.241244 22.360752 1.005475 2.607031 0.011268 -0.015549 930671.000000 0 1 0
-7.297949 -9.191998 -19.815444 23.030517 0.899758 2.606849 0.005568 -0.006810 -1123000.000000 0 1 0
-8.536249 -9.155798 -18.885844 22.657698 0.820402 2.556261 0.016492 -0.003440 50928.700000 0 1 0
-9.270949 -10.380898 -18.961244 23.521104 0.841819 2.508392 0.041586 -0.001285 278360.000000 0 1 0
-10.059349 -10.579498 -17.790844 23.013700 0.810595 2.454439 0.041762 0.003168 -86015.300000 0 1 0
-10.798549 -11.920498 -17.834244 24.015978 0.834742 2.407739 0.042492 0.005558 -155538.000000 0 1 0
-11.927249 -11.963098 -18.674744 25.181760 0.786899 2.406246 0.054079 -0.005148 167682.000000 0 0 1
-11.554149 -12.371198 -19.975144 26.183034 0.819535 2.438590 0.044174 -0.008130 -840128.000000 0 0 1
-12.740249 -12.392798 -20.958244 27.479872 0.771575 2.438237 0.048623 -0.018234 780572.000000 0 0 1
-13.772649 -13.401298 -20.941744 28.422479 0.771733 2.399125 0.047821 -0.005879 686031.000000 0 0 1
-14.459749 -13.478198 -19.686744 27.898280 0.750279 2.354153 0.040776 0.000107 -340161.000000 0 0 1
-15.718049 -14.413898 -19.807744 29.106086 0.742144 2.319290 0.034046 0.004855 430838.000000 0 0 1
-15.449449 -15.801498 -19.945244 29.768869 0.796663 2.305010 0.033359 0.001725 -231588.000000 0 0 1
-15.895349 -16.382998 -21.154544 31.122010 0.800505 2.318190 0.050162 -0.003609 80806.800000 0 0 1
-15.385949 -17.795798 -21.449744 31.835662 0.857897 2.310088 0.022228 -0.003358 -227860.000000 0 0 1
-15.825349 -18.808998 -20.552644 32.041087 0.871333 2.267179 0.016620 0.010564 174694.000000 0 0 1
-15.325449 -20.056498 -21.021944 32.848967 0.918323 2.265239 0.012925 0.007077 -56816.100000 0 0 1
-16.023149 -21.178098 -20.317244 33.437158 0.923091 2.223863 0.014116 0.009411 -48106.500000 0 0 1
-15.518949 -22.407998 -20.835444 34.308481 0.965079 2.223450 0.015642 0.003327 222187.000000 0 0 1
-16.284949 -23.483498 -20.366644 35.092370 0.964471 2.189982 0.026287 0.004005 -125907.000000 0 0 1
-15.743649 -24.770998 -20.961044 36.067024 1.004634 2.190961 0.035663 -0.005634 -40781.200000 0 0 1
-16.105349 -25.069338 -22.297244 37.215871 0.999760 2.213214 0.027437 -0.012156 550131.000000 0 0 1
-15.321249 -26.234258 -22.654044 37.897001 1.042212 2.211524 0.029394 -0.009046 412340.000000 0 0 1
-15.746849 -26.718058 -24.108944 39.281791 1.038229 2.231590 0.032776 -0.006481 -259614.000000 0 0 1
-16.997149 -27.363458 -24.190244 40.284362 1.014961 2.214907 0.045632 -0.006345 -220990.000000 0 0 1
-16.964649 -28.749338 -23.946144 41.082132 1.037697 2.193071 0.046296 0.002088 -131394.000000 0 0 1
-17.830049 -29.456118 -25.031344 42.569258 1.026482 2.199398 0.048208 -0.004548 -158629.000000 0 0 1
-17.293149 -29.568368 -26.354294 43.219095 1.041589 2.226584 0.041429 -0.000549 -41252.800000 0 0 1
-17.445549 -28.299988 -27.053294 42.861606 1.018368 2.253867 0.071924 -0.009994 14198.200000 0 0 1
-16.379249 -27.840468 -28.079244 42.799713 1.039005 2.286385 0.068129 -0.009300 -332067.000000 0 0 1
-16.516749 -28.377048 -29.414784 44.082756 1.043683 2.301324 0.062874 -0.000103 401817.000000 0 0 1
-15.239949 -28.502358 -30.038724 44.124431 1.079783 2.319614 0.033101 0.012651 414271.000000 0 0 1
-15.442349 -28.607318 -31.544864 45.298159 1.075815 2.341141 0.039219 0.011176 11202.700000 0 0 1
-15.594349 -29.925688 -32.029394 46.525397 1.090410 2.330116 0.021796 0.015092 98045.100000 0 0 1
-16.261849 -29.986408 -33.272014 47.651436 1.073878 2.343729 0.031692 0.011320 74651.300000 0 0 1
-16.266549 -31.402138 -33.891314 48.982814 1.092847 2.334917 0.027006 0.004063 492901.000000 0 0 1
-15.022449 -31.668488 34.295953 49.038551 1.127866 0.796285 0.025332 0.008911 159763.000000 0 0 1
-15.295049 -32.814088 33.499789 49.324829 1.134625 0.824169 0.023393 0.000898 756351.000000 0 0 1
-14.000749 -33.351778 32.809156 48.834443 1.173347 0.834100 0.018262 -0.003458 904113.000000 0 0 1
-13.050949 -34.029079 33.616547 49.582030 1.204574 0.825760 0.022513 0.003031 -52961.500000 0 0 1
-12.021249 34.177283 32.925999 48.956291 -1.232579 0.833135 0.025690 -0.001487 -146041.000000 0 0 1
-11.238849 33.197774 33.808188 48.696996 -1.244365 0.803411 0.031700 -0.003121 62330.600000 0 0 1
-10.481749 33.820295 -33.986674 49.079256 -1.270259 2.335725 0.027167 0.002855 -219313.000000 0 0 1
-9.969449 32.978434 -32.993824 47.702824 -1.277229 2.334572 0.027266 -0.008293 -125505.000000 0 0 1
-9.046749 33.756269 -32.049134 47.418101 -1.308948 2.312960 0.014847 -0.004400 87084.200000 0 0 1
-9.773149 -34.170031 -31.220844 47.305883 1.292218 2.291586 0.019659 0.006340 -297179.000000 0 0 1
-8.957249 -33.366778 -30.467564 46.063507 1.308531 2.293514 0.019788 0.006305 -605297.000000 0 0 1
-9.753049 -32.524918 -29.444304 44.943957 1.279464 2.285156 0.022910 0.017925 355729.000000 0 0 1
-10.173949 -32.981928 -28.156084 44.543034 1.271587 2.255069 0.044675 0.012676 -20426.600000 0 0 1
-10.624449 -34.307681 -27.991284 45.534689 1.270481 2.232833 0.056052 0.001399 -34250.600000 0 0 1
-11.068649 34.231400 -26.518514 44.693795 -1.258059 2.205995 0.057417 -0.006237 252375.000000 0 0 1
-9.972349 34.071566 -25.643134 43.793717 -1.286061 2.196347 0.063722 -0.010331 -284607.000000 0 0 1
-10.356949 33.770962 -24.324044 42.888266 -1.273221 2.173837 0.065845 -0.020483 -168374.000000 0 0 1
-9.243249 33.852902 -23.287344 42.115995 -1.304252 2.156677 0.074918 -0.015608 233003.000000 0 0 1
-8.222749 32.866976 -23.403744 41.177505 -1.325646 2.175310 0.057583 -0.023393 114264.000000 0 0 1
-7.336949 32.868227 -22.314644 40.399189 -1.351174 2.155982 0.066298 -0.023413 -304192.000000 0 0 1
-6.334849 31.727509 -22.226544 39.252826 -1.373724 2.172734 0.059736 -0.027764 66841.000000 0 0 1
-5.253549 31.667329 -23.143144 39.573029 -1.406396 2.195456 0.040002 -0.032671 155319.000000 0 0 1
-4.501549 30.463869 -23.014744 38.444631 -1.424091 2.212607 0.036254 -0.028810 660977.000000 0 0 1
-2.981749 30.709939 -23.351544 38.694777 -1.474006 2.218655 0.037981 -0.030226 658181.000000 0 0 1
-2.634949 30.784109 -24.759044 39.593112 -1.485410 2.246360 0.040506 -0.027326 -86718.000000 0 0 1
-3.159349 31.880959 -25.444424 40.912049 -1.472021 2.242001 0.041590 -0.031909 -609343.000000 0 0 1
-2.495149 32.118839 -26.831924 41.926098 -1.493267 2.265270 0.041005 -0.026665 -470034.000000 0 0 1
-1.489649 33.106628 -26.779964 42.607914 -1.525831 2.250446 0.041124 -0.031217 -9639.780000 0 0 1
-1.933549 -34.349629 -26.571654 43.470547 1.514565 2.228444 0.031614 -0.026982 50768.900000 0 0 1
-0.826449 -33.409538 -27.109984 43.032912 1.546064 2.252327 0.012682 -0.017691 -313469.000000 0 0 1
0.289651 -33.362528 -26.287564 42.475619 -1.562115 2.238120 0.013891 -0.021279 -613559.000000 0 0 1
1.180051 -32.367108 -26.760974 42.013949 -1.534354 2.261338 0.001784 -0.010990 -368508.000000 0 0 1
2.347551 -32.076188 -25.839514 41.256191 -1.497740 2.247618 0.001590 -0.007114 -605653.000000 0 0 1
2.054651 -31.318488 -24.676044 39.924635 -1.505285 2.237076 -0.006338 -0.002938 -41168.200000 0 0 1
3.213451 -30.652098 -24.266644 39.226871 -1.466342 2.237785 -0.012190 0.002163 -463274.000000 0 0 1
3.092051 -29.995588 -22.878144 37.851097 -1.468076 2.219840 -0.006086 0.005224 -181093.000000 0 0 1
3.067451 -30.919878 -21.806144 37.959927 -1.471913 2.182730 0.000915 0.007145 297466.000000 0 0 1
3.022051 -30.204888 -20.606544 36.689205 -1.471076 2.167177 0.002815 0.013148 -503276.000000 0 0 1
3.071751 -31.145648 -19.393444 36.818375 -1.472489 2.125549 0.007512 0.016378 -60553.000000 0 0 1
1.869951 -31.902438 -19.231744 37.297752 -1.512249 2.112536 0.014677 0.008848 467907.000000 0 0 1
1.820151 -33.188348 -19.790744 38.684014 -1.516008 2.107842 0.006363 0.014184 -317915.000000 0 0 1
2.261751 -34.270749 -18.793244 39.150808 -1.504895 2.071476 0.007150 -0.001940 1339810.000000 0 0 1
3.678751 -34.074997 -18.485744 38.940485 -1.463252 2.065440 0.004714 0.003250 1142470.000000 0 0 1
4.150951 33.800667 -17.578844 38.324030 1.448601 2.047317 0.021400 -0.013250 -84415.100000 0 0 1
5.087251 32.899882 -18.376644 38.026088 1.417383 2.075176 0.028354 -0.017497 -199039.000000 0 0 1
6.316651 33.483433 -18.750044 38.892216 1.384338 2.073850 0.045623 -0.015991 -488028.000000 0 0 1
7.176751 32.685049 -19.494044 38.727715 1.354653 2.098281 0.037665 -0.019435 -37589.800000 0 0 1
8.544851 33.332023 -19.785444 39.692594 1.319845 2.092626 0.027857 -0.018748 -98173.100000 0 0 1
9.231551 33.589407 -18.589444 39.484645 1.302583 2.060996 0.032156 -0.013329 -205196.000000 0 0 1
10.448051 34.291555 -18.792044 40.474849 1.275049 2.053628 0.030217 -0.005160 113497.000000 0 0 1
11.325751 34.326944 -17.499044 40.160033 1.252105 2.021649 0.024454 -0.005264 -184547.000000 0 0 1
12.139951 33.184228 -17.405344 39.389305 1.220085 2.028490 0.019533 -0.011472 -104167.000000 0 0 1
12.754251 33.280427 -16.085144 39.102296 1.204825 1.994743 0.021954 -0.013457 382687.000000 0 0 1
13.952051 32.377979 -15.697744 38.592906 1.163929 1.989692 0.018677 -0.009750 340810.000000 0 0 1
13.673651 31.233289 -14.883344 37.202164 1.158142 1.982386 0.035105 -0.013031 -623595.000000 0 0 1
14.829451 30.502029 -14.619444 36.932567 1.118266 1.977780 0.027537 -0.000829 -352750.000000 0 0 1
14.576851 29.324299 -13.661644 35.482948 1.109478 1.966026 0.035294 -0.014155 -142452.000000 0 0 1
14.351551 29.728009 -12.292844 35.225496 1.121034 1.927274 0.037271 -0.018999 -613204.000000 0 0 1
13.091251 29.393819 -11.804244 34.274154 1.151796 1.922403 0.065659 -0.020424 -400437.000000 0 0 1
12.789151 27.928629 -11.457444 32.784809 1.141374 1.927806 0.056906 -0.019788 -774732.000000 0 0 1
12.357251 27.245759 -12.623944 32.471480 1.144996 1.970093 0.036523 -0.017245 192744.000000 0 0 1
11.813851 25.908729 -12.432844 31.070966 1.142981 1.982470 0.045072 -0.019773 1326540.000000 0 0 1
10.638751 25.753059 -11.362244 30.091588 1.179043 1.957987 0.039219 -0.014293 237030.000000 0 0 1
9.430351 26.426069 -11.607244 30.364399 1.228025 1.963042 0.028609 -0.017047 214076.000000 0 0 1
8.710151 26.578779 -10.357244 29.825672 1.254115 1.925443 0.012606 -0.004836 354926.000000 0 0 1
7.688451 27.719139 -10.302044 30.554788 1.300228 1.914702 0.019753 -0.011366 137118.000000 0 0 1
8.358351 28.932009 -10.554944 31.911283 1.289557 1.907904 0.026695 -0.019345 155191.000000 0 0 1
7.435551 29.991579 -10.696544 32.698597 1.327775 1.904056 0.016978 -0.014574 271087.000000 0 0 1
8.144251 31.265969 -11.293844 34.226314 1.315976 1.907074 0.028156 -0.023809 241322.000000 0 0 1
8.977851 31.881959 -10.319144 34.692158 1.296308 1.872816 0.012908 -0.023450 -251136.000000 0 0 1
9.319551 33.218811 -10.693544 36.120566 1.297277 1.871352 0.027780 -0.025738 123644.000000 0 0 1
10.539551 33.409482 -11.627544 36.911724 1.265212 1.891263 0.034842 -0.029488 -712757.000000 0 0 1
11.741951 33.056482 -11.029644 36.773053 1.229489 1.875424 0.039927 -0.021875 -1189230.000000 0 0 1
12.754451 33.278202 -11.968744 37.594754 1.204797 1.894797 0.060459 -0.019446 -695628.000000 0 0 1
14.155251 32.915931 -11.481144 37.625075 1.164662 1.880888 0.048233 -0.024041 -325781.000000 0 0 1
14.517751 33.918864 -10.546144 38.372849 1.166376 1.849213 0.053811 -0.020670 -157100.000000 0 0 1
15.922751 33.915700 -10.407444 38.886033 1.131861 1.841739 0.031116 -0.022369 133870.000000 0 0 1
16.403751 -33.823888 -9.438044 38.758420 -1.119241 1.816779 0.037620 -0.028894 23643.900000 0 0 1
16.076151 -34.113130 -8.079344 38.567138 -1.130404 1.781847 0.032593 -0.026171 174935.000000 0 0 1
16.822151 -33.296078 -7.206044 37.993956 -1.102974 1.761615 0.032715 -0.013516 -910059.000000 0 0 1
17.227751 -34.099263 -5.997244 38.671981 -1.102979 1.726505 0.030931 -0.007102 157713.000000 0 0 1
18.119751 33.682873 -6.231144 38.751625 1.077250 1.732294 0.026968 -0.010778 -130295.000000 0 0 1
19.457151 34.081395 -6.457044 39.772046 1.052047 1.733869 0.030235 -0.006316 -833643.000000 0 0 1
20.369351 32.961509 -7.021944 39.378665 1.017265 1.750074 0.021093 -0.008111 37987.800000 0 0 1
20.588351 31.825039 -6.251044 38.415997 0.996587 1.734243 0.025794 -0.000243 -98563.300000 0 0 1
21.404251 31.942939 -5.110344 38.789289 0.980436 1.702927 0.016793 0.007967 -480975.000000 0 0 1
21.825951 30.525799 -4.524544 37.797725 0.950074 1.690788 0.004486 0.004855 24346.100000 0 0 1
22.606651 29.833749 -5.465544 37.828368 0.922351 1.715786 0.000312 0.006428 28838.900000 0 0 1
22.998951 28.537119 -5.053344 36.998043 0.892449 1.707809 0.005433 0.010306 -284849.000000 0 0 1
23.738851 27.807009 -6.184744 37.081179 0.864158 1.738369 0.000302 0.019869 -299188.000000 0 0 1
24.935651 28.440949 -6.629044 38.400762 0.850975 1.744293 0.007796 0.016899 166069.000000 0 0 1
25.973251 27.591099 -7.008444 38.535656 0.815593 1.753683 -0.002792 0.023165 169925.000000 0 0 1
26.624751 26.648049 -5.922244 38.132255 0.785835 1.726736 0.000469 0.026677 -613543.000000 0 0 1
27.599751 27.291589 -5.097844 39.147990 0.779784 1.701387 0.018736 0.017006 145557.000000 0 0 1
28.218051 26.342549 -4.305744 38.842344 0.751037 1.681876 0.022170 0.023669 240695.000000 0 0 1
29.575551 26.760659 -3.660744 40.053054 0.735474 1.662321 0.027905 0.011118 298941.000000 0 0 1
29.373451 27.770919 -2.706244 40.513545 0.757362 1.637645 0.036467 -0.003981 -2301.420000 0 0 1
30.481751 27.939319 -1.866044 41.391120 0.741907 1.615895 0.043179 -0.011512 -275503.000000 0 0 1
30.282151 29.072199 -0.930044 41.988884 0.765016 1.592948 0.046156 -0.015082 -31250.300000 0 0 1
30.162751 30.300499 -1.657844 42.786215 0.787676 1.609553 0.046769 -0.000970 114856.000000 0 0 1
29.685951 31.353919 -0.897544 43.187145 0.812717 1.591580 0.043213 -0.008501 -305878.000000 0 0 1
32.642105 23.157202 19.537057 44.536048 0.617025 1.116667 0.047786 -0.011456 -41905.900000 0 0 1
33.233925 22.708702 20.715157 45.269157 0.599429 1.095502 0.048828 -0.023607 233753.000000 0 0 1
33.999685 23.768102 21.317757 46.640626 0.610100 1.096105 0.054084 -0.024748 197386.000000 0 0 1
33.815305 23.813702 22.844257 47.248569 0.613558 1.066158 0.057743 -0.020757 -561562.000000 0 0 1
32.525545 24.195402 23.189057 46.701829 0.639579 1.051195 0.037330 -0.020802 -362022.000000 0 0 1
32.462355 24.439302 24.584807 47.492069 0.645323 1.026681 0.043140 -0.018382 -356498.000000 0 0 1
31.057895 24.885502 24.990847 46.993866 0.675510 1.010084 0.050162 -0.022281 -244343.000000 0 0 1
30.810215 26.249802 24.819747 47.479903 0.705645 1.020732 0.039839 -0.029255 44417.900000 0 0 1
29.494485 26.575102 25.204757 47.025955 0.733378 1.005134 0.026619 -0.031451 -85441.200000 0 0 1
29.333675 28.077202 25.295917 47.840120 0.763516 1.013658 0.009640 -0.017767 -201505.000000 0 0 1
29.398575 28.792302 24.115607 47.695233 0.774980 1.040697 0.007153 -0.023170 244084.000000 0 0 1
29.267085 30.136002 24.503067 48.632716 0.800025 1.042759 -0.004628 -0.015828 -409028.000000 0 0 1
29.503245 31.209902 23.456557 48.935769 0.813501 1.070901 0.003177 -0.017527 -249362.000000 0 0 1
30.877575 31.322002 23.153157 49.704739 0.792543 1.086242 -0.016263 -0.017029 -10880.600000 0 0 1
30.945675 32.185702 22.074457 49.807989 0.805038 1.111641 -0.010409 -0.010381 166562.000000 0 0 1
32.413115 32.578202 21.786057 50.858445 0.787938 1.128112 -0.013142 -0.025410 88695.500000 0 0 1
32.914445 33.432002 22.791057 52.158332 0.793199 1.118581 -0.011010 -0.007851 -666935.000000 0 0 1
34.276205 33.648302 22.621657 53.092426 0.776154 1.130640 0.002611 -0.004918 -697451.000000 0 0 1
34.798625 -33.968256 23.387357 53.960681 -0.773324 1.122518 0.004860 0.003934 -373221.000000 0 0 1
34.279605 -32.742356 22.921757 52.655105 -0.762466 1.120404 -0.002391 0.005977 34138.800000 0 0 1
34.540595 -31.670556 23.771747 52.546862 -0.742079 1.101351 0.013821 0.002782 -451628.000000 0 0 1
33.708375 -30.384056 23.393057 51.055660 -0.733577 1.094842 0.009464 0.013551 1324670.000000 0 0 1
32.299825 -30.259456 23.683857 50.197992 -0.752795 1.079455 -0.002844 0.022427 1025620.000000 0 0 1
31.508755 -30.953756 22.741157 49.679944 -0.776513 1.095330 -0.003342 0.029921 -257840.000000 0 0 1
30.839705 -32.340356 23.003657 50.260862 -0.809146 1.095406 -0.018301 0.021907 -191588.000000 0 0 1
29.866195 -32.340756 24.012277 50.144825 -0.825157 1.071442 -0.019558 0.022216 46522.000000 0 0 1
29.406715 -33.676756 24.200527 50.838413 -0.852984 1.074663 -0.024049 0.017888 -615446.000000 0 0 1
28.639385 -33.844456 25.482497 51.137258 -0.868509 1.049141 -0.023847 0.016470 -627712.000000 0 0 1
28.350325 33.653102 25.648257 50.932359 0.870714 1.043065 -0.020749 0.006333 21114.900000 0 0 1
27.539505 33.453502 26.783127 50.940131 0.882058 1.017169 -0.019069 0.012911 -777479.000000 0 0 1
27.192255 31.957202 26.880117 49.831939 0.865782 1.001054 -0.016161 -0.004643 219008.000000 0 0 1
26.417405 31.461202 25.797807 48.509930 0.872323 1.010066 -0.022939 0.002839 798165.000000 0 0 1
25.022135 31.817802 25.850767 48.028552 0.904391 1.002452 -0.022159 0.009416 169416.000000 0 0 1
24.478335 31.685702 24.395687 46.886267 0.913028 1.023575 0.010719 -0.000749 -162116.000000 0 0 1
24.867535 32.677802 23.482357 47.303848 0.920298 1.051332 0.022921 -0.008477 -819352.000000 0 0 1
26.147035 32.572902 22.996357 47.681168 0.894397 1.067524 0.001159 -0.002307 -1490390.000000 0 0 1
26.329515 33.510202 21.798657 47.868135 0.904826 1.097986 0.017188 0.005285 432293.000000 0 0 1
27.632875 33.610802 21.219957 48.410209 0.882699 1.117049 0.017075 0.003350 736467.000000 0 0 1
27.453565 34.247302 19.962257 48.218954 0.895064 1.143961 0.006307 -0.000669 -75804.700000 0 0 1
28.752645 -34.266556 19.222357 48.686861 -0.872672 1.164929 0.014019 -0.003128 -432338.000000 0 0 1
29.516235 33.502002 18.828757 48.457345 0.848562 1.171724 0.018603 -0.013089 -10594.700000 0 0 1
30.570105 33.971602 17.979857 49.110857 0.838052 1.195974 0.018789 -0.004672 -69175.800000 0 0 1
31.479625 32.805202 17.531757 48.728949 0.806016 1.202763 0.011251 -0.009561 -485074.000000 0 0 1
32.486045 32.562802 18.480757 49.570329 0.786578 1.188751 0.005353 -0.008322 -63993.900000 0 0 1
33.282725 31.443102 18.136357 49.247699 0.756984 1.193651 0.020425 -0.017487 374398.000000 0 0 1
34.141995 30.788402 19.277957 49.852192 0.733795 1.173743 0.036765 -0.027999 427873.000000 0 0 1
35.302157 31.534302 19.582657 51.226310 0.729084 1.178537 0.057859 -0.022099 215418.000000 0 0 1
-35.025507 30.953602 20.449257 51.020424 -0.723761 1.158401 0.053875 -0.021947 -310405.000000 0 0 1
-34.022469 31.962602 20.973157 51.176260 -0.754191 1.148537 0.029917 -0.017063 -691821.000000 0 0 1
-33.197109 32.392102 19.915657 50.477021 -0.773125 1.165219 0.030261 -0.020078 291746.000000 0 0 1
-32.120599 33.296802 20.164157 50.467842 -0.803376 1.159776 0.027131 -0.003102 341520.000000 0 0 1
-32.391219 -34.262456 20.907957 51.577607 0.813465 1.153414 0.006452 -0.008723 -634081.000000 0 0 1
-32.560459 -34.378756 22.305157 52.341211 0.812555 1.130565 0.021214 -0.005806 196379.000000 0 0 1
-32.305539 -33.269856 23.113557 51.814743 0.800103 1.108415 0.022088 -0.004723 -212458.000000 0 0 1
-32.423089 -33.637356 24.599327 52.800145 0.803777 1.086150 0.018134 -0.007023 -94152.100000 0 0 1
-33.743199 -33.934456 25.030667 54.006342 0.788224 1.088882 0.023360 -0.001617 198311.000000 0 0 1
-33.683729 34.152302 26.250827 54.681617 -0.792305 1.070066 0.032420 -0.007213 838294.000000 0 0 1
-35.105021 33.931502 26.884767 55.735984 -0.768401 1.067450 0.023217 -0.014388 786482.000000 0 0 1
-35.050573 33.154902 28.078457 55.822844 -0.757612 1.043739 0.039803 -0.019839 82429.000000 0 0 1
34.948615 33.216202 28.726157 56.124093 0.759989 1.033479 0.034569 -0.019625 155443.000000 0 0 1
34.723565 32.218202 29.853187 55.990635 0.747990 1.008439 0.038355 -0.014023 -171771.000000 0 0 1
34.707045 30.819802 29.563527 55.031275 0.726145 1.003667 0.036140 -0.014219 117061.000000 0 0 1
-35.421375 30.240102 28.951187 54.838935 -0.706652 1.014633 0.036828 -0.016118 -241001.000000 0 0 1
-35.630237 28.778902 28.596417 53.995315 -0.679425 1.012657 0.048391 -0.015826 295957.000000 0 0 1
34.527525 28.597502 27.679917 52.689134 0.691732 1.017677 0.043858 -0.011393 834659.000000 0 0 1
34.248725 27.363802 27.084957 51.530065 0.674114 1.017359 0.055616 -0.015192 7846.840000 0 0 1
33.914285 26.215302 28.000847 51.200275 0.658051 0.992153 0.044730 -0.013008 26918.200000 0 0 1
35.128475 25.862402 28.660627 52.194876 0.634626 0.989500 0.025361 -0.001509 449219.000000 0 0 1
35.011475 24.595902 29.255827 51.833050 0.612408 0.971061 0.015423 -0.003356 -11172.700000 0 0 1
35.440525 23.425502 28.395677 51.098917 0.584056 0.981591 0.033640 -0.006236 -362673.000000 0 0 1
34.678315 23.348802 27.209247 49.880809 0.592579 0.993828 0.035646 -0.000609 -90156.000000 0 0 1
35.129565 22.386402 26.311907 49.270211 0.567362 1.007433 0.031782 -0.005267 -806655.000000 0 0 1
34.862165 20.891202 26.454817 48.494022 0.539869 0.993778 0.035998 -0.006283 692899.000000 0 0 1
33.470395 20.622402 26.114707 47.196702 0.552202 0.984456 0.053430 -0.000345 1584120.000000 0 0 1
32.894395 19.431502 26.573137 46.537684 0.533571 0.963070 0.050523 0.001826 -419178.000000 0 0 1
32.933015 19.185902 28.105647 47.356200 0.527507 0.935402 0.037023 0.022564 239971.000000 0 0 1
31.926405 19.896002 28.913527 47.446161 0.557292 0.915497 0.021453 0.013434 1042650.000000 0 0 1
31.966705 21.312302 28.886117 48.067579 0.588028 0.926110 0.029744 0.001850 -1441370.000000 0 0 1
31.063145 22.066902 29.872377 48.417207 0.617664 0.905899 0.031055 -0.003796 248193.000000 0 0 1
29.671325 21.885302 29.595987 47.278709 0.635512 0.894396 0.038454 -0.007646 499498.000000 0 0 1
29.146635 22.488402 28.438727 46.518982 0.657158 0.913049 0.039747 -0.010970 -743386.000000 0 0 1
28.845055 24.031702 28.590627 47.190929 0.694619 0.919962 0.034066 -0.013288 -364722.000000 0 0 1
30.035445 24.790602 28.559967 48.294653 0.690025 0.938041 0.034786 -0.018215 -57133.800000 0 0 1
29.934095 26.144302 28.965767 49.179164 0.717920 0.940995 0.019408 -0.009909 -305032.000000 0 0 1
30.365255 26.312502 30.457437 50.418765 0.714014 0.922174 0.014389 -0.005711 -465209.000000 0 0 1
31.708295 26.009702 30.708187 51.233907 0.686985 0.928080 0.009716 0.003560 -429208.000000 0 0 1
32.123175 26.042002 32.070047 52.331368 0.681227 0.911164 0.021310 -0.002494 37214.300000 0 0 1
31.536775 24.904102 32.989902 51.991500 0.668419 0.883403 0.024630 -0.002521 -126898.000000 0 0 1
31.825345 24.953802 34.350503 53.061302 0.664962 0.866662 0.018808 -0.007921 -100876.000000 0 0 1
31.144805 23.854102 -33.905814 51.851916 0.653606 2.283520 0.007007 -0.007672 -627960.000000 0 0 1
31.559615 23.347502 -32.557154 51.000817 0.636935 2.263169 0.000264 -0.009531 -506000.000000 0 0 1
31.520885 24.385702 -31.619204 50.872415 0.658458 2.241502 -0.005812 -0.014683 242568.000000 0 0 1
31.761075 23.927902 -30.318934 50.005480 0.645656 2.222211 0.021545 -0.016931 -261512.000000 0 0 1
33.100555 24.422502 -29.735844 50.757519 0.635665 2.196714 0.024471 -0.003931 64853.300000 0 0 1
33.437515 23.864302 -28.475324 49.984161 0.619860 2.176921 0.026379 -0.010811 -1040220.000000 0 0 1
34.642575 24.385502 -28.047414 50.807658 0.613350 2.155595 0.033266 0.002779 -734784.000000 0 0 1
35.172285 23.452502 -26.913204 50.114169 0.588087 2.137718 0.026835 0.006048 -30372.100000 0 0 1
-35.135827 22.466302 -27.253054 49.819574 -0.568897 2.149615 0.020192 0.007633 39867.900000 0 0 1
-35.330616 21.289902 -26.528504 49.043591 -0.542322 2.142323 0.007575 0.011578 420424.000000 0 0 1
-34.240646 20.171302 -26.790424 47.927341 -0.532369 2.163951 0.015190 0.015851 376527.000000 0 0 1
-32.935749 20.400202 -26.335274 46.845260 -0.554558 2.167811 0.011287 0.010782 -51681.200000 0 0 1
-32.146199 19.191602 -26.390114 45.805390 -0.538218 2.184789 -0.003016 0.002696 226953.000000 0 0 1
-30.815279 19.428102 -25.652644 44.554356 -0.562523 2.184330 0.002699 0.001550 -18029.800000 0 0 1
-30.965269 19.370502 -24.251644 43.842975 -0.558999 2.156934 0.003404 -0.003599 1024610.000000 0 0 1
-29.638469 19.578902 -23.732944 42.720309 -0.583784 2.159811 0.010780 0.007367 978895.000000 0 0 1
-29.822719 20.090802 -22.260344 42.291344 -0.592838 2.125107 0.003863 0.007174 300888.000000 0 0 1
-30.440319 19.088002 -21.446344 41.843882 -0.560082 2.108928 -0.004546 0.007296 30687.300000 0 0 1
-31.049179 19.624702 -20.312944 41.973755 -0.563654 2.075952 0.000165 0.006286 -713269.000000 0 0 1
-31.860489 18.575602 -19.478344 41.707908 -0.527848 2.056712 -0.001604 0.005005 419488.000000 0 0 1
-32.749009 18.942002 -18.430744 42.083124 -0.524385 2.024125 -0.008966 0.001355 445401.000000 0 0 1
-33.779659 19.789102 -18.915444 43.479511 -0.529934 2.020882 -0.010494 0.004757 -1080910.000000 0 0 1
-34.797084 20.143902 -17.795044 43.969050 -0.524757 1.987466 -0.005880 -0.001126 -166825.000000 0 0 1
-34.336394 20.840702 -16.604244 43.462900 -0.545519 1.962791 0.003257 -0.007329 391159.000000 0 0 1
-35.455873 20.877202 -15.745244 44.055524 -0.532160 1.936274 0.008543 0.000799 -172944.000000 0 0 1
-35.163665 21.699902 -14.445344 43.772560 -0.552907 1.907110 0.010247 0.001389 -147868.000000 0 0 1
-35.284095 23.135302 -14.599944 44.647149 -0.580362 1.903931 0.012183 -0.005626 790499.000000 0 0 1
34.641235 23.645102 -14.565444 44.398853 0.598933 1.905044 0.015009 0.002669 569137.000000 0 0 1
34.528035 25.161102 -14.761244 45.201333 0.629739 1.903465 0.005357 -0.002512 -275555.000000 0 0 1
34.993915 25.840202 -13.618244 45.582306 0.636049 1.874191 0.011530 0.000961 45821.200000 0 0 1
35.055655 27.277602 -13.798944 46.512120 0.661258 1.872004 0.011206 0.006447 173498.000000 0 0 1
-35.095625 27.865702 -14.723344 47.169663 -0.671068 1.888237 0.012008 0.013805 115619.000000 0 0 1
-35.291718 27.571302 -16.070044 47.580756 -0.663197 1.915314 0.022865 0.015946 -318540.000000 0 0 1
-34.292462 28.177002 -16.817444 47.463067 -0.687814 1.932991 0.032845 0.010779 -1238300.000000 0 0 1
-34.199859 27.560702 -18.262844 47.568415 -0.678311 1.964843 0.027373 0.005317 -384849.000000 0 0 1
-33.740729 26.210502 -18.390644 46.514976 -0.660447 1.977267 0.017253 0.004729 489829.000000 0 0 1
-32.356189 26.110902 -18.049544 45.326462 -0.678985 1.980363 0.023429 0.010451 131069.000000 0 0 1
-31.777649 24.816602 -18.643544 44.421441 -0.663014 2.003908 0.011165 0.013255 -308674.000000 0 0 1
-31.460559 24.937202 -20.030644 44.864880 -0.670243 2.033608 0.008254 0.013587 197371.000000 0 0 1
-30.938929 23.678402 -20.470044 44.010302 -0.653239 2.054566 0.005473 0.016891 -8931.580000 0 0 1
-30.670169 23.814902 -22.035544 44.647217 -0.660237 2.086961 -0.001059 0.015962 796574.000000 0 0 1
-31.852269 23.870402 -22.874944 45.908890 -0.643123 2.092397 0.010591 0.010492 958898.000000 0 0 1
-31.605369 23.358702 -24.169244 46.137627 -0.636472 2.122162 0.015746 0.007899 -377837.000000 0 0 1
-32.610959 23.975702 -25.089704 47.621446 -0.633964 2.125695 -0.002958 0.019899 -351012.000000 0 0 1
-32.324969 25.346002 -25.195274 48.188435 -0.664970 2.120986 -0.011567 0.016347 116672.000000 0 0 1
-33.286539 25.976002 -26.011034 49.591534 -0.662660 2.122931 0.000584 0.003809 195204.000000 0 0 1
-32.836379 27.495202 -26.202774 50.207562 -0.697098 2.119860 0.001856 0.007734 760217.000000 0 0 1
-31.631269 27.639202 -26.955714 49.910652 -0.718146 2.141328 -0.006323 -0.003559 -40865.500000 0 0 1
-31.453289 29.029302 -27.082484 50.650475 -0.745342 2.134941 -0.000826 -0.011455 930498.000000 0 0 1
-30.103859 29.338902 -27.845334 50.421980 -0.772530 2.155852 0.002046 -0.000633 1119440.000000 0 0 1
-28.936759 29.015702 -27.114544 49.137007 -0.786760 2.155336 -0.033618 0.003437 107234.000000 0 0 1
-27.743609 29.085002 -27.899814 48.928977 -0.808998 2.177558 0.016042 0.000341 1025970.000000 0 0 1
-26.722069 30.186302 -27.491614 48.796215 -0.846197 2.169287 0.004773 -0.004734 268798.000000 0 0 1
-26.181389 30.236902 -26.131014 47.776199 -0.857158 2.149509 0.002582 -0.008718 492251.000000 0 0 1
-27.139529 30.574002 -25.136204 47.991169 -0.844837 2.122064 -0.007621 -0.007617 209541.000000 0 0 1
-26.432089 31.152202 -23.842044 47.302833 -0.867184 2.099055 -0.024510 -0.012358 121186.000000 0 0 1
-25.778899 32.327402 -24.178044 47.897707 -0.897623 2.099929 -0.018649 -0.008477 -474727.000000 0 0 1
-24.847349 32.678002 -23.180344 47.144150 -0.920692 2.084827 -0.007763 0.004350 -308663.000000 0 0 1
-24.135449 33.949302 -23.648744 47.899249 -0.952775 2.087157 -0.015234 0.013843 170524.000000 0 0 1
-24.898249 -33.717956 -23.347144 47.978250 0.934743 2.079012 -0.037142 0.008860 556937.000000 0 0 1
-24.012349 -32.664356 -23.591944 46.905574 0.936884 2.097824 -0.012056 0.007280 172304.000000 0 0 1
16.183451 8.668202 -25.291324 31.252086 0.491737 2.513702 0.014272 -0.006634 1127470.000000 0 0 1
14.926351 8.047302 -24.868544 30.099825 0.494462 2.543129 0.022061 -0.009601 1136130.000000 0 0 1
14.770551 6.733902 -25.337624 30.091690 0.427750 2.571802 0.027664 -0.018913 -928350.000000 0 0 1
13.381151 6.172202 -25.237104 29.224351 0.432179 2.613092 0.018996 -0.012510 -928232.000000 0 0 1
12.863251 6.147902 -23.935544 27.859831 0.445847 2.604386 0.043393 -0.032922 823677.000000 0 0 1
11.631751 5.400302 -23.831844 27.063216 0.434659 2.647921 0.048861 -0.034776 711018.000000 0 0 1
10.830651 5.644802 -22.552244 25.647037 0.480454 2.645253 0.065043 -0.038017 -153428.000000 0 0 1
11.486051 4.976502 -21.495144 24.874407 0.408850 2.614249 0.054689 -0.032818 87064.400000 0 1 0
10.983351 5.253102 -20.203744 23.588564 0.446120 2.599258 0.066108 -0.030315 -363618.000000 0 1 0
11.128251 6.750402 -19.699344 23.610803 0.545259 2.557724 0.048459 -0.036341 -142600.000000 0 1 0
10.930751 6.876302 -18.291344 22.390581 0.561527 2.526849 0.045867 -0.031365 -656621.000000 0 1 0
11.156051 8.148202 -17.791344 22.525154 0.630828 2.481350 0.041443 -0.031487 -568533.000000 0 1 0
12.600251 8.527202 -17.507444 23.194613 0.594950 2.426155 0.031943 -0.025107 -683342.000000 0 1 0
13.052851 7.862902 -16.340844 22.343351 0.542175 2.391098 0.034322 -0.030470 352097.000000 0 1 0
14.463951 8.019202 -16.227444 23.169881 0.506236 2.346709 0.022851 -0.023593 167520.000000 0 1 0
14.940051 7.545402 -14.802744 22.344114 0.467676 2.294934 0.021455 -0.026426 255720.000000 0 1 0
16.337751 7.203802 -14.817244 23.202749 0.415286 2.263472 0.016482 -0.028051 1250670.000000 0 1 0
16.995251 7.596902 -13.621744 23.067366 0.420358 2.202500 0.025806 -0.026572 -210787.000000 0 1 0
17.371651 9.095302 -13.390144 23.744362 0.482327 2.169933 0.034211 -0.030993 -824057.000000 0 1 0
16.294351 10.002602 -13.305044 23.293392 0.550555 2.178756 0.032225 -0.020231 255478.000000 0 1 0
16.726451 11.355402 -13.257644 24.176113 0.596416 2.151219 0.044779 -0.024670 -382180.000000 0 1 0
15.661551 12.420602 -12.903844 23.792114 0.670497 2.144038 0.058684 -0.021963 -288318.000000 0 1 0
15.196951 12.267302 -11.556344 22.693239 0.679129 2.105100 0.089408 -0.024425 37574.800000 0 1 0
15.692451 13.244602 -10.671444 23.142001 0.701007 2.050063 0.081761 -0.019556 -319585.000000 0 1 0
15.253451 14.766802 -10.771844 23.806697 0.769189 2.040331 0.079463 -0.015005 2056.230000 0 1 0
14.064651 15.271602 -10.200744 23.132043 0.826517 2.027485 0.083309 -0.019175 312627.000000 0 1 0
13.774351 16.585302 -10.606444 24.027102 0.877723 2.027995 0.063508 -0.013422 88349.400000 0 1 0
12.532151 17.186602 -9.921544 23.470644 0.940753 2.007242 0.053019 -0.011101 51828.000000 0 1 0
12.755551 17.203202 -8.546744 23.058644 0.932781 1.950508 0.060081 -0.003980 1160790.000000 0 1 0
11.545951 17.235302 -7.746744 22.144450 0.980558 1.928184 0.053819 -0.007885 873222.000000 0 1 0
11.886551 16.966002 -6.281144 21.646895 0.959661 1.865194 0.045658 -0.011618 274890.000000 0 1 0
12.783351 17.966902 -5.823144 22.806416 0.952398 1.828984 0.042816 -0.004061 340273.000000 0 1 0
13.346651 17.519802 -4.601844 22.500078 0.919783 1.776775 0.043217 -0.014155 54138.300000 0 1 0
14.401351 18.471702 -3.955744 23.753959 0.908591 1.738106 0.032965 -0.014989 -365070.000000 0 1 0
15.631751 18.524302 -4.603244 24.671669 0.869883 1.758476 0.034155 -0.016909 -656023.000000 0 1 0
16.202051 19.803702 -4.402844 25.963014 0.885096 1.741201 0.021478 -0.011368 -251399.000000 0 0 1
17.556151 19.931602 -5.152344 27.056124 0.848680 1.762398 0.016646 -0.006530 460081.000000 0 0 1
18.665951 19.201702 -4.633844 27.177115 0.799545 1.742139 0.020750 -0.018918 503719.000000 0 0 1
18.629151 17.869002 -5.018244 26.296944 0.764574 1.762804 0.013188 -0.015809 -352602.000000 0 0 1
19.754051 16.931402 -4.445644 26.394292 0.708608 1.740035 0.034034 -0.021158 -212571.000000 0 0 1
21.042751 17.166602 -4.894744 27.594349 0.684299 1.749122 0.030221 -0.024315 -814932.000000 0 0 1
21.936151 16.275802 -4.335944 27.656769 0.638337 1.728223 0.039476 -0.027846 105533.000000 0 0 1
23.443651 16.545302 -4.624944 29.064444 0.614573 1.730603 0.048995 -0.023715 744341.000000 0 0 1
24.021951 17.793202 -4.165744 30.182869 0.637526 1.709255 0.052225 -0.025588 1359090.000000 0 0 1
25.462351 17.776402 -4.135544 31.327855 0.609480 1.703191 0.043578 -0.015331 927837.000000 0 0 1
26.089251 19.071602 -3.537744 32.509855 0.631239 1.679833 0.056488 -0.017821 -235601.000000 0 0 1
26.186251 20.154802 -4.424944 33.339405 0.655972 1.703913 0.055838 -0.019042 168132.000000 0 0 1
26.350851 21.291502 -3.614044 34.069880 0.679600 1.677074 0.070649 0.002648 -229084.000000 0 0 1
26.306951 22.656902 -4.326044 34.987219 0.710990 1.694760 0.046138 0.005696 104879.000000 0 0 1
27.419751 23.093302 -5.099844 36.209829 0.699957 1.712108 0.044844 0.013338 354120.000000 0 0 1
27.444751 22.536702 -6.399444 36.084209 0.687515 1.749087 0.040238 0.003160 -125914.000000 0 0 1
28.577351 23.146402 -7.239944 37.481164 0.680782 1.765180 0.029883 0.007523 -436191.000000 0 0 1
28.240751 24.334602 -7.931944 38.113365 0.711238 1.780443 0.007712 0.008097 803435.000000 0 0 1
29.377951 25.100002 -8.404844 39.543843 0.707033 1.784975 0.016630 0.009007 727694.000000 0 0 1
30.261051 24.406202 -9.497444 40.019937 0.678705 1.810400 0.021589 -0.000543 -43231.600000 0 0 1
29.670651 24.318802 -10.826344 39.861778 0.686593 1.845848 0.016817 0.003985 268563.000000 0 0 1
30.491551 23.570802 -11.720344 40.282550 0.658076 1.866019 0.013698 -0.003475 -208632.000000 0 0 1
29.828351 23.010202 -12.964744 39.840739 0.657070 1.902246 0.011745 -0.003034 -267060.000000 0 0 1
29.785351 23.928302 -14.036744 40.703328 0.676785 1.922881 0.022393 -0.002318 235659.000000 0 0 1
29.269851 23.185002 -15.143444 40.293825 0.669913 1.956084 0.026449 -0.003543 -81817.300000 0 0 1
29.444451 24.038502 -16.409444 41.401632 0.684662 1.978332 0.032322 -0.007277 732623.000000 0 0 1
30.809451 24.352702 -16.755544 42.696892 0.668878 1.974068 0.025473 -0.001910 817267.000000 0 0 1
30.886251 24.909202 -18.050744 43.591951 0.678681 1.997733 0.036561 -0.015434 702654.000000 0 0 1
32.300051 25.435102 -18.486144 45.077436 0.667050 1.993357 0.023564 -0.011298 1292250.000000 0 0 1
33.245351 24.384502 -18.773844 45.302478 0.632838 1.998092 0.027497 -0.004284 236169.000000 0 0 1
34.599151 24.795502 -18.655644 46.475275 0.621814 1.983852 0.021146 0.002074 -157547.000000 0 0 1
35.486051 23.564102 -18.780844 46.553698 0.586181 1.986051 0.010841 -0.007462 -672874.000000 0 0 1
35.491751 22.946402 -20.033644 46.771237 0.573930 2.013443 0.011312 0.001786 -447517.000000 0 0 1
-34.832832 23.321302 -20.972444 46.872729 -0.589976 2.034690 0.014713 0.001058 -686007.000000 0 0 1
-34.768932 22.361002 -22.190144 46.917966 -0.571532 2.063439 0.021030 0.002880 -108195.000000 0 0 1
-34.382032 21.066002 -21.836744 45.855686 -0.549708 2.067131 0.012900 -0.000009 198408.000000 0 0 1
-34.102832 20.322402 -22.991844 45.876225 -0.537411 2.095748 0.007768 0.005076 -27151.900000 0 0 1
-33.991832 18.787402 -22.743444 45.007503 -0.504916 2.100556 -0.003391 0.002631 537640.000000 0 0 1
-35.251432 18.122802 -22.609144 45.631927 -0.474865 2.089169 -0.009538 0.002173 412893.000000 0 0 1
-35.070432 16.747102 -22.790844 45.053559 -0.445509 2.101176 -0.012244 0.000110 -381021.000000 0 0 1
35.003951 15.870202 -22.421344 44.495579 0.425664 2.098905 -0.008643 0.001410 -207518.000000 0 0 1
34.067351 15.759802 -23.483244 44.276613 0.433288 2.129840 0.018110 -0.001667 1172240.000000 0 0 1
32.904451 14.939602 -23.216244 42.952166 0.426200 2.141844 0.021044 0.003490 512622.000000 0 0 1
33.105651 13.562202 -23.883444 43.015536 0.388810 2.159434 -0.001591 -0.000519 -605294.000000 0 0 1
33.069351 13.593502 -25.286824 43.792565 0.390005 2.186365 -0.000156 0.007369 329849.000000 0 0 1
33.858951 12.529702 -25.804544 44.376756 0.354429 2.191353 -0.001199 0.009162 -325881.000000 0 0 1
33.731751 12.538902 -27.373194 45.214454 0.355895 2.221075 0.019551 0.009366 -298435.000000 0 0 1
32.412651 12.345402 -27.826134 44.466646 0.363918 2.246922 0.014563 0.009072 -27109.100000 0 0 1
31.799551 13.481302 -28.357484 44.688968 0.400978 2.258225 0.023507 0.008089 -225328.000000 0 0 1
32.125951 13.661502 -29.856904 45.936348 0.402081 2.278331 0.020603 0.008714 46030.600000 0 0 1
33.504651 13.929102 -30.089274 47.137521 0.393998 2.263123 0.017640 0.010665 226444.000000 0 0 1
33.778351 13.931302 -31.483344 48.231308 0.391178 2.282015 0.021577 0.008216 -76879.000000 0 0 1
35.276051 14.105302 -31.884614 49.598265 0.380381 2.269019 0.037702 0.006025 821440.000000 0 0 1
-35.056532 13.145502 -31.363644 48.840995 -0.358753 2.268107 0.025418 0.005146 337607.000000 0 0 1
-34.766132 13.241002 -29.966934 47.770547 -0.363898 2.248890 0.014111 0.005647 -858521.000000 0 0 1
-33.599532 12.307702 -29.613324 46.447358 -0.351127 2.262133 0.008115 0.002682 -234101.000000 0 0 1
-33.978032 10.972502 -29.876884 46.556747 -0.312358 2.267549 0.005584 -0.001033 677747.000000 0 0 1
-32.971832 9.992602 -29.594944 45.418658 -0.294266 2.280492 0.010246 -0.006207 405318.000000 0 0 1
-33.491132 8.657202 -30.169314 45.899788 -0.252955 2.288009 0.008521 -0.002150 -710993.000000 0 0 1
-33.691832 8.771802 -31.616614 47.028654 -0.254700 2.308086 0.015608 -0.008409 138362.000000 0 0 1
-34.051832 7.596502 -32.282004 47.532745 -0.219492 2.317404 0.008199 -0.006216 -247963.000000 0 0 1
-35.246432 6.790102 -31.676534 47.872949 -0.190315 2.293852 0.006277 0.010547 -470943.000000 0 0 1
-35.006232 6.061702 -30.510724 46.830383 -0.171460 2.280377 0.009659 0.003762 283815.000000 0 0 1
35.121151 5.290802 -30.145144 46.585594 0.149520 2.274560 0.007451 0.012409 91138.700000 0 0 1
35.332151 4.389202 -28.862354 45.832974 0.123594 2.252001 0.000186 0.014731 578171.000000 0 0 1
-34.867132 3.442802 -29.082024 45.533876 -0.098422 2.263591 0.005199 0.016138 912122.000000 0 0 1
-35.164832 2.271002 -28.298394 45.194269 -0.064492 2.247402 0.007895 0.021586 703254.000000 0 0 1
-33.997632 1.166402 -28.310644 44.257113 -0.034295 2.264886 0.010422 0.019455 1238150.000000 0 0 1
-32.917132 1.517002 -27.417764 42.866918 -0.046053 2.264777 0.021315 0.006670 645859.000000 0 0 1
-32.123632 0.346002 -27.176634 42.078699 -0.010771 2.272936 0.020871 0.005263 515459.000000 0 0 1
-31.147732 0.509502 -25.967684 40.555658 -0.016356 2.265682 0.027096 0.001980 534374.000000 0 0 1
-31.834432 0.463302 -24.706244 40.299432 -0.014552 2.230733 0.023431 0.001561 629605.000000 0 0 1
-30.945532 0.831502 -23.659644 38.962753 -0.026863 2.223375 0.038351 0.007494 96463.800000 0 0 1
-31.488232 0.498402 -22.264944 38.567926 -0.015827 2.186204 0.045542 0.012751 -425747.000000 0 0 1
-31.316232 -0.859298 -21.892544 38.219475 0.027433 2.180728 0.057926 0.007613 398705.000000 0 0 1
-31.847632 -1.214498 -20.612644 37.955603 0.038116 2.144888 0.049958 0.003603 169270.000000 0 0 1
-33.360932 -1.251598 -20.277244 39.060017 0.037499 2.116630 0.034945 0.005648 84548.700000 0 0 1
-34.084832 -2.324998 -20.896244 40.047901 0.068107 2.119734 0.039707 -0.001083 508471.000000 0 0 1
-35.454332 -2.117798 -20.565144 41.041685 0.059662 2.095642 0.034946 -0.000035 613289.000000 0 0 1
34.967851 -3.428998 -20.300544 40.578575 -0.097749 2.094715 0.021336 -0.006783 -3972.270000 0 0 1
34.499251 -4.202198 -21.421744 40.825824 -0.121208 2.123171 0.015591 0.006890 52900.200000 0 0 1
35.469551 -4.878798 -22.192244 42.123478 -0.136691 2.125672 0.025501 0.001252 -567326.000000 0 0 1
34.848851 -5.736398 -23.320844 42.322694 -0.163145 2.154388 0.028122 -0.003733 -656611.000000 0 0 1
34.146251 -6.853198 -22.791344 41.621847 -0.198070 2.150267 0.034391 -0.001054 599948.000000 0 0 1
33.460351 -7.533498 -23.863344 41.782866 -0.221454 2.178675 0.045916 0.000051 1048330.000000 0 0 1
32.113751 -6.934998 -24.445544 40.950846 -0.212685 2.210488 0.014974 0.010214 -66628.300000 0 0 1
32.156951 -5.853398 -25.356094 41.367418 -0.180055 2.230583 0.000719 0.013004 -847915.000000 0 0 1
30.877151 -5.414298 -25.610564 40.479798 -0.173585 2.255799 -0.029865 0.019169 -835607.000000 0 0 1
30.925251 -4.197498 -26.621464 41.020635 -0.134906 2.277036 -0.010179 -0.005346 -30052.000000 0 0 1
30.990851 -4.583598 -27.940844 41.977768 -0.146837 2.299108 -0.002372 -0.009017 261123.000000 0 0 1
30.940351 -3.506698 -28.844544 42.445376 -0.112856 2.317971 -0.010219 -0.003581 -58192.900000 0 0 1
30.748351 -3.915298 -30.309544 43.352729 -0.126652 2.344988 -0.008453 0.000947 21630.600000 0 0 1
30.381651 -2.840298 -31.152734 43.607394 -0.093216 2.366550 -0.010049 -0.011701 277.772000 0 0 1
29.712151 -3.306898 -32.292604 44.006360 -0.110842 2.394720 0.008547 -0.018541 -1086010.000000 0 0 1
29.240651 -2.197398 -33.242094 44.326979 -0.075008 2.418751 0.023314 -0.015226 -1074770.000000 0 0 1
28.291151 -1.315498 -32.660054 43.229607 -0.046465 2.427216 0.025554 -0.017054 12012.700000 0 0 1
27.015351 -1.843398 -32.386384 42.214988 -0.068130 2.445225 0.036574 -0.018265 -498858.000000 0 0 1
26.135351 -2.199698 -33.612584 42.634505 -0.083968 2.478982 0.052028 -0.027786 -1021100.000000 0 0 1
26.704851 -3.297398 -34.297612 43.592982 -0.122854 2.476353 0.053719 -0.028475 -100906.000000 0 0 1
26.018251 -3.592098 33.300196 42.411739 -0.137193 0.667834 0.058930 -0.024779 -413284.000000 0 0 1
26.572551 -4.838198 32.610607 42.343362 -0.180102 0.691725 0.042920 -0.034192 384334.000000 0 0 1
27.817151 -4.818898 31.913127 42.608254 -0.171532 0.724261 0.052183 -0.034896 307138.000000 0 0 1
28.018951 -3.838698 30.916707 41.900358 -0.136156 0.740898 0.071861 -0.033863 -330565.000000 0 0 1
28.742651 -2.472998 31.341467 42.597456 -0.085828 0.744009 0.055126 -0.029960 -354439.000000 0 0 1
30.012151 -2.625198 31.895757 43.874368 -0.087249 0.756884 0.051964 -0.032951 -431845.000000 0 0 1
30.576151 -1.341698 32.243307 44.455956 -0.043852 0.759346 0.046292 -0.023080 769420.000000 0 0 1
32.031951 -1.482298 32.802220 45.871873 -0.046243 0.774053 0.034029 -0.023014 953000.000000 0 0 1
33.025551 -1.772198 31.824067 45.897701 -0.053610 0.804642 0.041089 -0.024516 783939.000000 0 0 1
34.325151 -2.063298 32.368607 47.224992 -0.060038 0.815626 0.025284 -0.021983 679649.000000 0 0 1
35.207151 -2.604498 31.247777 47.146054 -0.073842 0.846262 0.010907 -0.017097 -228198.000000 0 0 1
35.399851 -1.730298 30.164227 46.540563 -0.048840 0.865673 0.012449 -0.007096 -150969.000000 0 0 1
-34.881532 -2.219798 29.294467 45.604984 0.063553 0.873233 0.009005 -0.006866 -235176.000000 0 0 1
-34.541532 -1.377398 28.083837 44.538933 0.039855 0.888540 0.011177 -0.004460 556182.000000 0 0 1
35.573751 -1.151698 27.256307 44.829950 -0.032364 0.917266 0.020516 -0.010298 669773.000000 0 0 1
-35.131932 -0.850798 25.991207 43.709488 0.024213 0.933984 0.026704 -0.017026 105968.000000 0 0 1
-26.109239 15.164002 12.414656 32.646026 -0.526175 1.180696 0.053461 -0.014902 186144.000000 0 0 1
-27.410519 14.719402 12.757256 33.626551 -0.492806 1.181670 0.029144 -0.011798 388867.000000 0 0 1
-28.197759 15.685602 13.416756 34.945115 -0.507645 1.176739 0.038394 -0.013398 343896.000000 0 0 1
-29.525569 15.053802 13.914156 35.944122 -0.471502 1.173306 0.037498 -0.017240 51242.400000 0 0 1
-30.445799 15.772102 14.654456 37.288858 -0.477974 1.166906 0.045360 -0.021320 121357.000000 0 0 1
-31.592379 14.985502 15.018256 38.055114 -0.442909 1.165115 0.050305 -0.010779 974783.000000 0 0 1
-32.676599 15.743002 15.845956 39.581518 -0.448967 1.158911 0.059577 -0.017643 286596.000000 0 0 1
-32.129139 16.069602 17.129056 39.798470 -0.463773 1.125866 0.050435 -0.009525 79729.700000 0 0 1
-33.060649 16.549302 18.044656 41.139950 -0.464107 1.116738 0.047247 -0.016130 -168104.000000 0 0 1
-32.367839 16.711702 19.418956 41.280187 -0.476607 1.081032 0.026095 -0.008496 288673.000000 0 0 1
-31.908639 15.531002 20.103556 40.786348 -0.452978 1.055378 0.020027 -0.007388 799113.000000 0 0 1
-30.590799 15.669402 20.661356 40.102603 -0.473380 1.029541 0.020563 -0.004897 935125.000000 0 0 1
-30.488689 16.296302 22.079656 41.020005 -0.490868 1.002419 0.030928 -0.012582 -506469.000000 0 0 1
-30.902949 17.689402 22.070056 41.892655 -0.519892 1.015937 0.012960 -0.004902 248025.000000 0 0 1
-31.277999 18.286002 23.292756 43.072538 -0.529040 0.999433 0.004922 -0.008766 -237988.000000 0 0 1
-32.180039 17.440502 24.312356 43.941059 -0.496655 0.984482 0.002220 -0.015164 1101680.000000 0 0 1
-33.449679 16.976202 23.791156 44.419495 -0.469641 1.005576 0.038603 -0.011973 871011.000000 0 0 1
-34.426672 18.009902 23.723456 45.523122 -0.481986 1.022622 0.048930 -0.015466 -1283450.000000 0 0 1
35.497379 17.303602 23.623456 46.016803 0.453566 1.031694 0.015713 -0.020158 -966607.000000 0 0 1
35.108725 16.653602 24.797856 46.096623 0.442913 1.002788 0.029629 -0.005697 -43817.100000 0 0 1
34.102895 15.701402 24.452156 44.804569 0.431479 0.993511 0.051627 -0.003252 500600.000000 0 0 1
33.479475 15.034002 25.753356 44.834493 0.422065 0.958914 0.072134 -0.009518 -204710.000000 0 0 1
32.712355 15.983902 26.493456 45.027619 0.454502 0.941740 0.048224 -0.006168 1001940.000000 0 0 1
32.021365 15.448102 27.725956 45.085921 0.449494 0.908463 0.044363 0.005647 844137.000000 0 0 1
31.075925 14.236802 27.670556 43.977941 0.429594 0.890283 0.047620 0.008332 -180987.000000 0 0 1
31.783825 12.998202 27.493256 43.989134 0.388204 0.895663 0.049332 -0.002459 226201.000000 0 0 1
30.900445 11.887802 27.351956 42.945160 0.367259 0.880320 0.045341 0.001754 293859.000000 0 0 1
31.636175 10.548202 27.055656 42.943226 0.321830 0.889200 0.043938 -0.005978 -55204.100000 0 0 1
32.426535 10.049102 28.087856 44.061233 0.300518 0.879582 0.053308 -0.006324 11365.300000 0 0 1
33.131715 8.879602 27.599156 44.025802 0.261855 0.893247 0.040979 -0.002053 597929.000000 0 0 1
34.250575 8.272302 28.494856 45.315446 0.236985 0.890773 0.036727 -0.000633 487342.000000 0 0 1
35.541134 8.825102 28.445156 46.370050 0.243384 0.910390 0.034262 -0.003402 -214599.000000 0 0 1
-34.701261 8.106602 29.095656 46.004910 -0.229495 0.886088 0.046208 -0.003421 -274884.000000 0 0 1
-33.464259 8.989402 29.176156 45.298058 -0.262432 0.870960 0.052645 -0.009787 -746208.000000 0 0 1
-32.824639 9.127102 27.957956 44.072760 -0.271206 0.883617 0.046411 -0.005413 224842.000000 0 0 1
-31.637659 9.902502 28.152756 43.492283 -0.303338 0.866753 0.034173 -0.004171 528208.000000 0 0 1
-30.865429 10.362202 26.896056 42.230886 -0.323899 0.880350 0.018795 -0.002228 -46217.100000 0 0 1
-30.264119 9.318402 26.160556 41.074617 -0.298691 0.880322 0.018391 -0.005646 -51872.200000 0 0 1
-29.519029 9.880302 25.127556 40.004844 -0.322989 0.891671 0.016966 -0.004921 -136250.000000 0 0 1
-28.673889 8.927002 24.245556 38.597024 -0.301817 0.891595 0.009677 -0.003709 218888.000000 0 0 1
-27.881679 9.515302 23.244956 37.526750 -0.328880 0.902788 0.010312 -0.005544 -35553.000000 0 0 1
-27.434739 8.553202 22.288556 36.367594 -0.302215 0.911111 0.000198 0.002929 -89028.500000 0 0 1
-26.579139 9.234502 21.226056 35.245881 -0.334387 0.924507 0.006522 0.009904 -190118.000000 0 0 1
-25.247799 9.495302 21.642356 34.583286 -0.359721 0.894635 0.010842 -0.005448 226331.000000 0 0 1
-24.345849 10.230002 20.877156 33.663466 -0.397794 0.901834 0.010592 -0.007341 7243.500000 0 0 1
-23.657949 9.549502 19.698356 32.232232 -0.383648 0.913298 0.017493 -0.004416 -465648.000000 0 0 1
-24.587849 9.121302 18.692556 32.205157 -0.355231 0.951550 0.015377 0.004877 591478.000000 0 0 1
-24.094649 8.185202 17.743256 31.022134 -0.327479 0.961909 0.027792 0.003196 -523127.000000 0 0 1
-23.845449 6.764202 18.261056 30.786783 -0.276407 0.935836 0.025692 0.005392 319370.000000 0 0 1
-22.637149 6.599802 19.050656 30.313782 -0.283684 0.891239 0.025251 0.006926 1229430.000000 0 0 1
-22.614149 5.295002 19.678356 30.441328 -0.230002 0.867893 0.023343 0.007763 -196149.000000 0 0 1
-22.761649 4.012002 18.831956 29.813275 -0.174469 0.887099 0.018302 0.006351 -4709.730000 0 0 1
-24.076749 3.750502 18.335756 30.495181 -0.154531 0.925710 0.030278 0.000911 698156.000000 0 0 1
-24.179449 2.769602 17.272256 29.843714 -0.114047 0.953593 0.037194 0.005380 -145421.000000 0 0 1
-23.998149 1.235302 17.570456 29.768407 -0.051429 0.939442 0.037703 0.007030 -689080.000000 0 0 1
-22.717849 0.742202 17.845656 28.898425 -0.032659 0.905197 0.010760 0.014112 -215886.000000 0 0 1
-22.725149 -0.582698 18.374656 29.230120 0.025636 0.891018 0.009736 0.008022 -224293.000000 0 0 1
-21.329049 -1.199398 18.632356 28.346633 0.056174 0.853560 0.011132 0.015185 -129662.000000 0 0 1
-20.636049 -0.543798 19.652256 28.501814 0.026346 0.809985 0.003592 0.016529 -314359.000000 0 0 1
-19.722249 -1.431998 20.230156 28.289166 0.072481 0.774000 -0.001189 0.014162 101424.000000 0 0 1
-18.750849 -0.970798 21.370256 28.446874 0.051727 0.720867 0.004809 0.016099 611491.000000 0 0 1
-19.390549 -0.595498 22.522456 29.725562 0.030701 0.711046 0.007929 0.008074 -21638.200000 0 0 1
-18.368549 -0.747898 23.494656 29.832228 0.040694 0.663958 0.014518 0.006590 212202.000000 0 0 1
-18.860049 -0.752398 24.960556 31.293720 0.039873 0.647454 0.019446 0.015711 -45111.700000 0 0 1
-19.387149 0.474802 25.407956 31.963279 -0.024486 0.651936 0.024982 0.002324 522590.000000 0 0 1
-20.820749 0.328002 25.407156 32.850187 -0.015752 0.686570 0.014314 0.001862 614124.000000 0 0 1
-21.480849 1.634902 25.925156 33.707766 -0.075963 0.693341 0.019199 -0.001101 -67042.800000 0 0 1
-21.163849 2.776902 25.099156 32.948252 -0.130464 0.704748 0.020524 0.003468 314893.000000 0 0 1
-22.292349 3.223402 24.360156 33.177648 -0.143601 0.746259 0.016195 0.000065 -444950.000000 0 0 1
-21.954349 4.284502 23.315556 32.310456 -0.192733 0.764671 0.020536 0.004093 -85957.900000 0 0 1
-21.338649 3.844502 22.129556 30.981210 -0.178254 0.775188 0.022105 0.002479 1188360.000000 0 0 1
-20.007149 3.280302 22.222656 30.081437 -0.162511 0.739583 0.014833 0.010335 461885.000000 0 0 1
-19.769049 2.544602 20.946056 28.914141 -0.128013 0.760600 0.018375 0.011741 -132978.000000 0 0 1
-19.148249 3.293802 19.920356 27.826699 -0.170349 0.772924 0.018973 0.015389 74862.500000 0 0 1
-18.708749 2.548802 18.860156 26.687435 -0.135402 0.785966 0.015023 0.006790 -62590.500000 0 0 1
-18.288849 3.528102 17.737856 25.720829 -0.190569 0.809818 0.009293 0.007378 393081.000000 0 0 1
-16.903549 3.865402 17.663156 24.751937 -0.224809 0.776163 0.010124 0.000350 523531.000000 0 1 0
-16.659249 4.806102 16.551756 23.970603 -0.280868 0.808613 0.012155 0.006177 -752818.000000 0 1 0
-15.220149 5.265402 16.559756 23.099847 -0.333062 0.771483 0.006612 0.006066 -952315.000000 0 1 0
-14.730249 6.149202 17.605356 23.764290 -0.395462 0.736488 -0.001264 0.008114 287163.000000 0 1 0
-15.367549 7.444802 17.669856 24.572555 -0.451130 0.768306 0.002245 -0.000062 -161857.000000 0 1 0
-14.965049 8.565202 16.555756 23.904151 -0.519838 0.805724 -0.007977 0.010172 -17990.500000 0 1 0
-15.324449 8.289402 15.279256 23.173446 -0.495850 0.850851 -0.008396 0.008780 922811.000000 0 1 0
-16.706449 8.397202 14.876956 23.894398 -0.465751 0.898719 0.007659 0.007204 860706.000000 0 1 0
-17.104449 7.655602 13.646156 23.181630 -0.420839 0.941393 0.002973 0.004315 -185766.000000 0 1 0
-16.994349 6.260402 13.770356 22.751335 -0.352955 0.920710 0.007862 0.003774 517056.000000 0 1 0
-17.695449 5.631702 12.685056 22.489011 -0.308121 0.971507 0.017250 0.011333 118066.000000 0 1 0
-17.551449 4.097402 12.543756 21.958777 -0.229343 0.962779 0.025062 0.005182 -239857.000000 0 1 0
-18.181949 3.459302 13.592456 22.963120 -0.188013 0.937351 0.025187 0.006682 27316.600000 0 1 0
-17.879549 2.107602 13.551156 22.533399 -0.117336 0.925568 0.020592 0.000730 -329841.000000 0 1 0
-18.664749 1.349502 14.619456 23.747053 -0.072177 0.907608 0.033096 0.004493 -752412.000000 0 1 0
-19.920349 1.049802 14.116056 24.437378 -0.052651 0.954959 0.041503 0.006111 -728913.000000 0 1 0
-20.699549 0.378502 15.073256 25.608937 -0.018283 0.941478 0.026726 0.005340 -462819.000000 0 0 1
-22.049649 -0.084398 14.516056 26.399053 0.003828 0.988587 0.037994 0.004964 -569027.000000 0 0 1
-22.087449 -1.156398 13.623456 25.976744 0.052308 1.018729 0.038229 -0.001433 277747.000000 0 0 1
-23.404949 -1.580898 13.352456 26.992202 0.067443 1.053332 0.061238 -0.005723 -64874.400000 0 0 1
-23.411049 -2.694798 12.291256 26.578452 0.114604 1.090038 0.058839 -0.011196 -307747.000000 0 0 1
-22.977249 -3.949398 12.693756 26.545869 0.170220 1.072213 0.049691 -0.010246 158608.000000 0 0 1
-23.076349 -4.940098 11.680456 26.331645 0.210893 1.111196 0.067454 -0.016291 -249401.000000 0 0 1
-23.112349 -6.430098 12.221556 26.923842 0.271349 1.099625 0.058225 -0.016823 316650.000000 0 0 1
-24.130749 -6.562198 13.211756 28.282609 0.265522 1.084750 0.049002 -0.018711 411576.000000 0 0 1
-24.248549 -7.933598 13.561656 28.893816 0.316201 1.082228 0.056500 -0.027800 -231452.000000 0 0 1
-25.005949 -8.269898 14.866956 30.244257 0.319394 1.056913 0.051129 -0.020844 -30902.500000 0 0 1
-26.371999 -7.946898 14.692656 31.217137 0.292684 1.080758 0.060930 -0.025057 -323627.000000 0 0 1
-27.045099 -8.201098 15.862956 32.408776 0.294425 1.059320 0.048450 -0.019272 760374.000000 0 0 1
-28.567139 -7.699898 15.845156 33.562462 0.263280 1.079114 0.044058 -0.020607 1984920.000000 0 0 1
-29.565809 -8.272798 14.982656 34.162205 0.272832 1.116785 0.035870 -0.016695 897615.000000 0 0 1
-29.789349 -9.639698 15.075756 34.750648 0.312961 1.122061 0.034750 -0.018694 -496071.000000 0 0 1
-30.238329 -10.403298 16.366856 35.922961 0.331358 1.097739 0.027572 -0.014715 -955639.000000 0 0 1
-29.185629 -10.550998 17.257756 35.509923 0.346895 1.063291 0.033590 -0.002319 -432417.000000 0 0 1
-29.431199 -10.961598 18.546456 36.473595 0.356532 1.037366 0.033316 0.004308 -235881.000000 0 0 1
-28.114459 -10.884398 19.335856 35.815754 0.369376 1.000514 0.027290 0.015091 1046470.000000 0 0 1
-27.116179 -11.861998 18.901056 35.117575 0.412369 1.002470 0.017511 0.007900 1252420.000000 0 0 1
-25.840029 -11.680098 19.530056 34.431888 0.424529 0.967684 0.015557 -0.000801 553919.000000 0 0 1
-24.788449 -12.714898 19.109856 33.783464 0.473943 0.969566 0.020544 0.001874 -135177.000000 0 0 1
-24.411049 -12.427398 17.734456 32.632047 0.470892 0.996234 0.013935 0.007077 516748.000000 0 0 1
-23.300949 -13.248598 17.336256 31.921863 0.517001 0.996691 0.017324 -0.001400 466354.000000 0 0 1
-23.232649 -13.122798 15.785256 31.002228 0.514168 1.036582 0.010643 -0.007356 -608541.000000 0 0 1
-22.720549 -11.907898 15.371356 29.904849 0.482743 1.030945 0.018697 -0.010755 -258456.000000 0 0 1
-22.541949 -11.970398 13.984756 29.103321 0.488161 1.069548 0.020679 -0.018857 -70475.100000 0 0 1
-21.231849 -11.367798 13.459156 27.589258 0.491575 1.061182 0.033974 -0.024808 -670566.000000 0 0 1
-21.213049 -9.953998 13.678556 27.132608 0.438738 1.042414 0.037566 -0.025043 1508210.000000 0 0 1
-19.937049 -9.265098 13.427956 25.761172 0.435025 1.022484 0.040766 -0.020012 1249510.000000 0 0 1
-19.305949 -9.425098 12.024456 24.619904 0.454160 1.060537 0.045140 -0.006208 -527489.000000 0 1 0
-18.631149 -10.644398 11.710456 24.444994 0.519066 1.071220 0.033392 -0.010738 348882.000000 0 1 0
-18.482249 -10.714998 10.323556 23.727211 0.525393 1.120654 0.045434 -0.003659 -116733.000000 0 1 0
-17.634049 -12.001298 9.926456 23.527120 0.597570 1.135239 0.016149 0.004578 860055.000000 0 1 0
-16.224449 -11.937798 9.902956 22.445764 0.634345 1.113867 0.027387 -0.006706 626705.000000 0 1 0
-15.514249 -11.888498 11.165156 22.509754 0.653849 1.051794 0.031314 -0.005622 37532.800000 0 1 0
-14.022449 -12.240498 11.115756 21.679920 0.717652 1.032445 0.028795 -0.005999 -75312.300000 0 1 0
-13.721649 -13.587098 10.748756 22.100422 0.780471 1.062878 0.031283 -0.009599 444759.000000 0 1 0
-12.344149 -13.918598 10.579956 21.401889 0.845276 1.053713 0.031403 -0.012483 527902.000000 0 1 0
-12.061449 -15.415098 10.484556 22.204273 0.906852 1.079027 0.028934 -0.007184 -264914.000000 0 1 0
-12.360849 -16.000598 9.238056 22.229517 0.913035 1.142220 0.022825 -0.005627 -5847.550000 0 1 0
-12.404349 -17.387498 9.482756 23.369117 0.951129 1.152963 0.026125 -0.005652 -136759.000000 0 1 0
-12.833849 -18.073498 8.172756 23.625261 0.953329 1.217563 0.015418 -0.014130 -375406.000000 0 1 0
-11.924949 -17.846198 7.133156 22.617982 0.981728 1.249944 0.018407 -0.018222 -214871.000000 0 1 0
-12.115549 -18.734898 6.080656 23.124821 0.996756 1.304718 0.006599 -0.007445 -252343.000000 0 1 0
-11.300949 -18.449598 4.815156 22.164947 1.021214 1.351808 0.015801 -0.007404 -166865.000000 0 1 0
-11.429749 -19.363498 3.740656 22.794226 1.037560 1.405945 0.017013 -0.005199 -90962.500000 0 1 0
-10.606249 -19.100798 2.652556 22.008386 1.063910 1.449978 0.022213 -0.015598 -133758.000000 0 1 0
-10.993149 -20.103898 1.533056 22.964458 1.070400 1.503989 0.030102 -0.010527 191485.000000 0 1 0
-10.749449 -21.500298 1.848956 24.108756 1.107175 1.494029 0.018694 -0.012893 -73852.800000 0 1 0
-11.199049 -22.445798 0.839956 25.098568 1.107999 1.537324 0.024052 -0.011149 639214.000000 0 0 1
-10.174549 -22.589298 -0.394944 24.778092 1.147598 1.586736 0.024460 -0.002595 780585.000000 0 1 0
-10.304749 -21.664098 -1.435644 24.032937 1.126809 1.630568 0.032402 -0.009962 -87336.300000 0 1 0
-11.392949 -21.970498 -2.288644 24.854375 1.092414 1.663009 0.048298 0.001879 -22812.400000 0 1 0
-12.532549 -20.965398 -2.363544 24.539744 1.032016 1.667261 0.053763 0.003846 208122.000000 0 1 0
-13.380749 -20.854298 -1.185844 24.806298 1.000327 1.618619 0.057289 -0.002482 451589.000000 0 1 0
-14.288949 -19.796898 -1.304744 24.449818 0.945604 1.624186 0.064164 0.003135 -54137.500000 0 1 0
25.788951 -20.577398 -3.965244 33.229843 -0.673468 1.690409 0.029865 -0.030829 -622339.000000 0 0 1
24.517251 -20.635298 -3.391144 32.224385 -0.699635 1.676227 0.005936 -0.027955 -406920.000000 0 0 1
24.504751 -21.590498 -2.357744 32.744334 -0.722260 1.642863 -0.004580 -0.030931 372595.000000 0 0 1
23.080051 -21.807798 -1.745344 31.801180 -0.757063 1.625707 -0.010420 -0.027944 650507.000000 0 0 1
22.220951 -22.581498 -2.560844 31.784472 -0.793445 1.651453 0.002341 -0.028201 -596129.000000 0 0 1
21.098751 -22.955698 -1.803844 31.230998 -0.827524 1.628587 -0.004583 -0.026829 -633038.000000 0 0 1
20.095851 -23.715498 -2.682144 31.200353 -0.867830 1.656868 0.010164 -0.023456 -380620.000000 0 0 1
19.599151 -22.809298 -3.646744 30.293391 -0.860950 1.691470 0.013357 -0.024693 -692716.000000 0 0 1
18.632451 -23.526998 -4.378744 30.329215 -0.900977 1.715676 0.021917 -0.019383 -69203.700000 0 0 1
17.867051 -22.560898 -5.351344 29.272214 -0.900985 1.754643 0.018454 -0.002118 466293.000000 0 0 1
16.805051 -21.832198 -4.693944 27.947947 -0.914783 1.739549 0.019615 -0.000772 588782.000000 0 0 1
17.229051 -20.806798 -3.800644 27.280175 -0.879185 1.710570 0.007156 -0.009086 -608638.000000 0 0 1
16.224751 -20.444398 -2.715244 26.240970 -0.899968 1.674455 0.031925 0.006797 -282243.000000 0 0 1
15.790551 -21.400098 -1.757844 26.653250 -0.935102 1.636797 0.027019 0.001395 -88378.500000 0 0 1
15.139551 -20.715298 -0.739844 25.668599 -0.939671 1.599623 0.046719 0.012602 -270669.000000 0 0 1
14.813451 -21.620898 0.508956 26.213749 -0.970110 1.551379 0.034570 0.005212 -331339.000000 0 0 1
13.875751 -22.638198 0.284156 26.553818 -1.020920 1.560095 0.053684 -0.002983 -456260.000000 0 0 1
13.194351 -22.833498 1.507456 26.414617 -1.046822 1.513696 0.059298 -0.003661 118194.000000 0 0 1
12.230551 -24.042698 1.381156 27.010097 -1.100212 1.519639 0.057117 -0.003742 178519.000000 0 0 1
12.890351 -25.300258 1.535556 28.436283 -1.099582 1.516770 0.032836 -0.005230 -120259.000000 0 0 1
11.997651 -26.334318 1.258256 28.965897 -1.143304 1.527343 0.039633 -0.015093 -9880.470000 0 0 1
12.450251 -27.652898 1.980156 30.390995 -1.147749 1.505594 0.032434 -0.009839 27475.600000 0 0 1
12.213051 -27.585058 3.364556 30.354807 -1.153995 1.459727 0.052132 -0.014170 191047.000000 0 0 1
12.351751 -28.813598 4.022456 31.606477 -1.165815 1.443183 0.060297 -0.016410 -127440.000000 0 0 1
11.987151 -28.758048 5.531356 31.643531 -1.175868 1.395092 0.058575 -0.010309 -199390.000000 0 0 1
11.971751 -29.995738 6.192556 32.884874 -1.191053 1.381355 0.045216 -0.004523 59857.100000 0 0 1
11.854551 -30.047738 7.615556 33.187252 -1.195020 1.339261 0.038390 -0.005429 -237998.000000 0 0 1
12.150051 -31.456308 8.179156 34.699016 -1.202198 1.332840 0.031361 -0.000319 -73801.600000 0 0 1
11.916451 -31.664748 9.571156 35.160562 -1.210859 1.295104 0.036086 -0.001028 203932.000000 0 0 1
11.005651 -32.740598 9.764556 35.894536 -1.246516 1.295290 0.037495 0.000079 -44979.900000 0 0 1
10.731951 -33.024848 11.244556 36.500074 -1.256595 1.257633 0.036648 -0.001229 102422.000000 0 0 1
11.827251 -33.482248 12.083856 37.509524 -1.231238 1.242792 0.033448 0.002061 739304.000000 0 0 1
11.541151 -33.778208 13.446056 38.143964 -1.241558 1.210546 0.047446 0.000066 -452413.000000 0 0 1
10.549551 33.933928 13.740656 38.100002 1.269383 1.201835 0.042424 -0.003196 -434379.000000 0 0 1
10.943851 32.672969 13.270656 36.924261 1.247590 1.203169 0.051594 -0.001946 -326016.000000 0 0 1
9.975151 31.685029 13.412256 35.823642 1.265797 1.187050 0.043193 -0.001807 -455047.000000 0 0 1
10.127851 30.576949 12.271256 34.468927 1.250944 1.206802 0.041760 0.000145 50648.100000 0 0 1
9.710351 30.845969 10.943456 34.139771 1.265816 1.244488 0.026418 0.001502 2206.740000 0 0 1
10.479251 31.885829 10.371556 35.129617 1.253267 1.271093 0.019255 -0.002310 -118326.000000 0 0 1
10.149851 32.278509 8.956656 35.002047 1.266139 1.312029 0.006355 0.002493 670896.000000 0 0 1
8.826051 32.845810 8.882156 35.151659 1.308286 1.315346 0.010825 -0.002612 932739.000000 0 0 1
8.295151 33.044278 7.549756 34.896026 1.324847 1.352722 -0.002990 -0.001182 16950.900000 0 0 1
8.901951 34.227663 6.712956 35.997797 1.316353 1.383216 0.014651 0.005290 -185576.000000 0 0 1
8.536451 -33.376298 7.126356 35.180012 -1.320400 1.366816 0.012880 0.003523 -41600.400000 0 0 1
8.965651 -32.397198 6.261156 34.193032 -1.300812 1.386645 0.035753 -0.008040 -331652.000000 0 0 1
8.205951 -31.082468 6.519656 32.801881 -1.312680 1.370705 0.033861 -0.008230 89892.800000 0 0 1
8.350251 -30.610928 7.826556 32.680432 -1.304489 1.328958 0.032196 -0.008822 164402.000000 0 0 1
7.737651 -29.318568 7.897656 31.334050 -1.312763 1.316001 0.044656 -0.009714 -12409.500000 0 0 1
8.606351 -28.193258 7.330956 30.375517 -1.274518 1.327046 0.059804 -0.014000 -203750.000000 0 0 1
9.581251 -27.635788 8.205656 30.378775 -1.237067 1.297288 0.062199 -0.011147 226601.000000 0 0 1
10.311451 -26.510148 7.822456 29.500929 -1.199841 1.302427 0.055958 -0.015509 -229676.000000 0 0 1
9.527551 -25.330108 7.164756 27.995042 -1.211031 1.311987 0.050630 -0.014060 -238988.000000 0 0 1
9.147851 -25.684878 5.851056 27.886036 -1.228647 1.359405 0.055723 -0.013485 -470671.000000 0 0 1
8.323551 -24.756798 5.226256 26.636335 -1.246457 1.373307 0.049161 -0.012276 -19585.000000 0 0 1
8.221451 -25.097978 3.735456 26.673103 -1.254238 1.430289 0.053448 -0.012237 179918.000000 0 0 1
7.301551 -26.140178 3.458556 27.360248 -1.298416 1.444049 0.049494 -0.013538 -294688.000000 0 0 1
7.672951 -27.458958 3.833856 28.767465 -1.298313 1.437128 0.050826 -0.008850 -400914.000000 0 0 1
6.734051 -28.581598 3.345356 29.554130 -1.339408 1.457359 0.047779 -0.005387 -983323.000000 0 0 1
5.503351 -28.502818 4.001256 29.303713 -1.380062 1.433824 0.034451 -0.002880 -803559.000000 0 0 1
4.537251 -29.248868 3.278756 29.779745 -1.416897 1.460472 0.027782 0.007339 145294.000000 0 0 1
4.333551 -30.691888 3.690656 31.215263 -1.430528 1.452287 0.029640 0.005071 225553.000000 0 0 1
5.517751 -31.432958 3.362856 32.090267 -1.397026 1.465810 0.032746 -0.002406 568017.000000 0 0 1
5.452851 -32.740138 3.849356 33.413587 -1.405762 1.455337 0.015722 0.007731 145570.000000 0 0 1
6.520351 -33.636038 3.177156 34.409190 -1.379321 1.478330 0.015890 0.001449 170442.000000 0 0 1
6.266351 -33.965538 1.811456 34.586216 -1.388356 1.518397 0.020848 0.002794 142855.000000 0 0 1
7.281251 33.997158 1.375956 34.795353 1.359811 1.531242 0.008121 0.003868 -134924.000000 0 0 1
6.939651 33.341140 -0.002744 34.055695 1.365585 1.570877 0.024653 0.004616 471862.000000 0 0 1
5.819751 32.471809 -0.121744 32.989433 1.393454 1.574487 0.001599 0.008954 -460559.000000 0 0 1
4.615851 33.168401 -0.280844 33.489219 1.432520 1.579183 0.010313 0.006231 -719220.000000 0 0 1
3.443351 32.161519 -0.216744 32.346050 1.464138 1.577497 0.022897 0.008598 -292069.000000 0 0 1
3.360151 31.190049 -1.257044 31.395699 1.463479 1.610846 0.021470 0.012567 -33503.400000 0 0 1
2.388451 30.208889 -0.971344 30.318726 1.491896 1.602840 0.024567 0.006826 -1032.070000 0 0 1
2.252151 29.177439 -2.109544 29.340165 1.493761 1.642758 0.022191 0.007301 -55948.000000 0 0 1
1.874751 29.807999 -3.325944 30.051512 1.507985 1.681698 0.029839 -0.004744 94999.400000 0 0 1
1.704551 28.881599 -4.384644 29.262217 1.511846 1.721203 0.031879 -0.014480 -7404.710000 0 0 1
1.432351 29.586869 -5.771044 30.178459 1.522422 1.763212 0.031717 -0.012416 -379569.000000 0 0 1
0.097151 29.972699 -5.918844 30.551675 1.567555 1.765761 0.045847 -0.005948 -442872.000000 0 0 1
-0.111549 30.803279 -7.081644 31.607026 -1.567175 1.796767 0.031524 -0.011286 -178330.000000 0 0 1
0.034951 30.107389 -8.458744 31.273094 1.569635 1.844688 0.044991 -0.020696 -108350.000000 0 0 1
-1.062049 29.292499 -8.911244 30.636395 -1.534556 1.865934 0.039650 -0.011043 467496.000000 0 0 1
-1.111249 29.065499 -10.316144 30.861966 -1.532582 1.911624 0.046606 -0.020152 123296.000000 0 0 1
-1.406649 30.318719 -11.201644 32.352437 -1.524434 1.924354 0.040242 -0.026342 584798.000000 0 0 1
-0.155149 31.000279 -11.353944 33.014442 -1.565792 1.921872 0.038476 -0.024870 608199.000000 0 0 1
-0.381649 32.292249 -11.809344 34.385980 -1.558978 1.921368 0.032385 -0.034044 164036.000000 0 0 1
-0.734649 33.382149 -10.720944 35.069163 -1.548793 1.881479 0.032424 -0.025757 776558.000000 0 0 1
0.425051 33.678245 -9.914944 35.109984 1.558176 1.857088 0.030362 -0.033540 376042.000000 0 0 1
0.163151 34.426011 -8.800744 35.533504 1.566057 1.821076 0.027884 -0.016705 -964229.000000 0 0 1
1.299851 -34.141603 -7.863444 35.059556 -1.532742 1.797009 0.022199 -0.025640 -632197.000000 0 0 1
2.166251 -33.100688 -8.278944 34.189021 -1.505445 1.815380 0.023482 -0.023475 -271825.000000 0 0 1
3.096951 -32.828518 -7.260744 33.764199 -1.476737 1.787532 0.015408 -0.023898 -1102320.000000 0 0 1
4.374951 -32.099248 -7.769644 33.314701 -1.435336 1.806184 0.005560 -0.021314 369393.000000 0 0 1
5.280351 -32.941488 -8.467944 34.419905 -1.411854 1.819367 0.019593 -0.021426 185073.000000 0 0 1
5.953851 -33.831118 -7.592144 35.180017 -1.396593 1.788316 0.026982 -0.011192 -1780030.000000 0 0 1
6.469351 33.744362 -8.317544 35.351322 1.381378 1.808305 0.018417 -0.014259 268527.000000 0 0 1
5.440551 32.787969 -8.613344 34.334242 1.406363 1.824373 0.015658 -0.017431 -19404.800000 0 0 1
4.494851 33.212565 -9.559144 34.851906 1.436278 1.848636 0.028829 -0.022176 -220859.000000 0 0 1
3.438951 32.104879 -9.727544 33.722021 1.464087 1.863417 0.024512 -0.029927 59872.000000 0 0 1
4.006551 31.047449 -10.506644 33.020995 1.442460 1.894606 0.003605 -0.022283 178227.000000 0 0 1
3.102451 29.998489 -10.693744 31.998292 1.467742 1.911550 0.010801 -0.026056 72017.100000 0 0 1
3.841251 28.965839 -11.551544 31.419949 1.438952 1.947277 0.006744 -0.024462 90013.200000 0 0 1
4.087151 29.418879 -12.882344 32.374836 1.432750 1.980036 0.017994 -0.025690 233367.000000 0 0 1
5.254751 28.914109 -13.512844 32.345557 1.391022 2.001780 0.018936 -0.024561 111270.000000 0 0 1
5.306451 29.430819 -14.981744 33.448231 1.392410 2.035221 0.019143 -0.022127 -5856.590000 0 0 1
4.277251 28.840199 -15.768344 33.146532 1.423561 2.066574 0.022781 -0.020881 195050.000000 0 0 1
4.237251 29.246459 -17.112244 34.148771 1.426917 2.095676 0.034322 -0.015513 419085.000000 0 0 1
3.035851 28.601559 -17.895644 33.875059 1.465049 2.127374 0.028335 -0.010490 508683.000000 0 0 1
3.305451 27.353439 -18.476544 33.174076 1.450537 2.161514 0.044033 -0.002517 -538377.000000 0 0 1
2.245751 26.949299 -19.274544 33.208676 1.487656 2.190025 0.039501 -0.007689 -220244.000000 0 0 1
2.565251 25.619959 -20.027144 32.619768 1.471002 2.231861 0.055835 -0.003631 142947.000000 0 0 1
2.851751 24.534089 -19.196544 31.281964 1.455079 2.231486 0.056152 -0.013231 73692.600000 0 0 1
3.495851 23.473559 -19.889344 30.964737 1.422956 2.268321 0.065370 -0.005977 315685.000000 0 0 1
4.236251 22.405959 -19.035544 29.703952 1.383934 2.266391 0.063537 -0.007676 1114730.000000 0 0 1
3.276651 21.386359 -18.632344 28.553056 1.418766 2.281743 0.057259 -0.002790 659635.000000 0 0 1
4.008651 20.348359 -18.017744 27.472970 1.376286 2.286085 0.042291 -0.001135 333659.000000 0 0 1
3.147951 19.126559 -17.617044 26.193417 1.407673 2.308480 0.040302 -0.015087 -292264.000000 0 0 1
2.393951 19.269259 -16.476444 25.465831 1.447193 2.274442 0.045294 -0.017266 -335335.000000 0 0 1
1.616751 18.083759 -16.242244 24.360761 1.481630 2.300620 0.029510 -0.011887 -12836.900000 0 1 0
2.255151 17.027959 -15.321244 23.016898 1.439124 2.299163 0.018872 -0.007402 255919.000000 0 1 0
3.383651 16.256059 -15.729644 22.872040 1.365579 2.329145 0.024732 -0.015189 16126.400000 0 1 0
3.134551 15.316859 -16.790544 22.942405 1.368936 2.391838 0.028231 -0.016682 -258485.000000 0 1 0
3.054651 15.709359 -18.306744 24.315668 1.378745 2.423221 0.028009 -0.016933 -403760.000000 0 1 0
4.298351 16.049859 -18.891944 25.159080 1.309125 2.420220 0.031847 -0.014699 -375258.000000 0 0 1
4.291751 16.504259 -20.266044 26.486265 1.316392 2.442075 0.035440 -0.015819 -497170.000000 0 0 1
4.734451 15.482159 -21.281544 26.739790 1.274027 2.491249 0.023267 -0.015133 565635.000000 0 0 1
3.780151 14.424259 -21.544144 26.201124 1.314491 2.536168 0.015778 -0.011890 117394.000000 0 0 1
2.668251 14.843659 -22.287044 26.910334 1.392939 2.546678 0.021762 -0.010283 220926.000000 0 0 1
1.772651 13.641159 -22.816444 26.642327 1.441572 2.599049 0.035070 -0.000683 826389.000000 0 0 1
1.003451 12.911159 -21.844444 25.394579 1.493233 2.606460 0.028658 -0.002416 294404.000000 0 0 1
-0.069949 12.193959 -22.399344 25.503492 -1.565060 2.643061 0.012192 0.001420 -158272.000000 0 0 1
-0.587649 11.080459 -21.454044 24.153631 -1.517811 2.664280 0.005779 -0.002906 -694846.000000 0 1 0
-1.500949 11.517359 -20.485944 23.549444 -1.441206 2.625820 0.010006 -0.004037 -175071.000000 0 1 0
-1.924949 10.602459 -19.450644 22.236122 -1.391196 2.635679 -0.000433 -0.002550 376045.000000 0 1 0
-3.015249 9.565559 -19.851544 22.241300 -1.265436 2.673772 -0.004539 -0.004430 -335955.000000 0 1 0
-2.696049 8.628259 -20.796744 22.676421 -1.267941 2.731562 -0.001521 0.000824 -920819.000000 0 1 0
-3.682249 7.657059 -21.022244 22.674308 -1.122548 2.757502 -0.000073 0.007867 -858414.000000 0 1 0
-3.245549 6.468659 -21.879944 23.045804 -1.105762 2.822152 -0.003735 0.006778 -311416.000000 0 1 0
-2.469749 5.599459 -21.105844 21.975219 -1.155394 2.859368 0.001473 0.003239 -164586.000000 0 1 0
-2.145349 4.498259 -21.900944 22.460815 -1.125775 2.917848 0.007051 0.001009 -585343.000000 0 1 0
-1.414149 3.328059 -21.231044 21.536783 -1.168996 2.972893 0.007199 0.004256 -27084.000000 0 1 0
-0.021849 3.471059 -21.038944 21.323365 -1.564502 2.978080 0.013614 -0.001753 -49277.400000 0 1 0
0.428351 2.453959 -20.130044 20.283591 1.397982 3.018470 0.027121 -0.007324 -689769.000000 0 1 0
1.936651 2.396859 -20.022544 20.258278 0.891199 2.988890 0.027613 -0.016179 -634959.000000 0 1 0
2.575751 1.824759 -21.171144 21.405176 0.616366 2.993583 0.035895 -0.019237 -336549.000000 0 1 0
3.958751 2.075759 -21.046344 21.515787 0.482935 2.932316 0.042878 -0.018913 -46278.700000 0 1 0
4.729651 1.234559 -22.091044 22.625383 0.255328 2.923830 0.050009 -0.015229 178761.000000 0 1 0
6.139951 1.216159 -21.935344 22.810904 0.195542 2.863630 0.053429 -0.017770 -1014.160000 0 1 0
6.653051 0.589859 -23.061944 24.009670 0.088429 2.859688 0.052015 -0.018088 513034.000000 0 1 0
8.216851 0.442359 -23.112944 24.534068 0.053784 2.799562 0.042266 -0.019633 783562.000000 0 1 0
8.658151 1.738059 -23.450144 25.057807 0.198109 2.781437 0.041980 -0.022118 782014.000000 0 0 1
10.072251 1.746559 -23.750544 25.857089 0.171696 2.735146 0.038994 -0.016212 795111.000000 0 0 1
13.277751 -20.886198 22.442757 33.409718 -1.004526 0.834237 0.025989 0.010082 -277343.000000 0 0 1
12.445551 -22.011298 22.398557 33.779940 -1.056194 0.845880 0.023700 0.016017 -332828.000000 0 0 1
11.108251 -21.678198 22.098457 32.888894 -1.097265 0.834008 0.007070 0.015543 207528.000000 0 0 1
10.671551 -21.584498 20.583657 31.677429 -1.111632 0.863489 0.027394 -0.000646 -390943.000000 0 0 1
11.123751 -20.418398 19.987557 30.661886 -1.071961 0.860749 0.033325 -0.003053 -136437.000000 0 0 1
10.774251 -20.319798 18.590257 29.573237 -1.083255 0.891022 0.052416 -0.019035 159127.000000 0 0 1
11.278451 -18.999298 18.002657 28.500394 -1.035078 0.887099 0.053275 -0.015517 64218.700000 0 0 1
10.556351 -17.870598 18.461957 27.778385 -1.037235 0.843817 0.056713 -0.014114 -114761.000000 0 0 1
10.819251 -16.676298 17.717957 26.628577 -0.995279 0.842802 0.056282 -0.014040 -85349.300000 0 0 1
9.952551 -15.514898 18.301957 25.975507 -1.000431 0.788958 0.049544 -0.001861 1184860.000000 0 0 1
8.568051 -15.614298 17.953257 25.289074 -1.068928 0.781410 0.031802 -0.004446 349506.000000 0 0 1
7.759051 -14.613898 18.586757 24.884462 -1.082707 0.727375 0.015068 0.001563 -239535.000000 0 1 0
6.278051 -14.813098 18.328157 24.387766 -1.169928 0.720417 0.002187 0.004902 -774065.000000 0 1 0
5.901651 -14.690798 16.969157 23.207786 -1.188804 0.750741 0.000249 -0.001135 -126540.000000 0 1 0
4.504751 -14.824998 16.805057 22.857893 -1.275800 0.744839 -0.013859 0.005394 289174.000000 0 1 0
3.858051 -16.234798 16.699257 23.607592 -1.337483 0.785029 -0.021896 0.010410 301979.000000 0 1 0
2.502551 -16.321098 16.274457 23.184024 -1.418649 0.792639 -0.012402 0.011588 -49739.800000 0 1 0
1.891751 -17.546898 16.554057 24.197297 -1.463400 0.817388 -0.005493 0.011656 1004470.000000 0 1 0
0.378051 -17.572998 16.149557 23.869675 -1.549286 0.827699 0.000518 0.013843 676415.000000 0 1 0
0.159951 -17.401298 14.785257 22.834942 -1.561605 0.866518 -0.003934 0.010359 66818.000000 0 1 0
-1.237349 -17.491798 14.509457 22.760017 1.500175 0.879550 0.001770 0.013313 488196.000000 0 1 0
-1.507249 -18.409598 13.283557 22.751659 1.489106 0.947333 -0.003641 0.015742 -766284.000000 0 1 0
-2.896649 -18.532298 13.272257 22.978021 1.415748 0.955003 -0.008405 0.013220 -784459.000000 0 1 0
-3.216649 -19.632398 12.433557 23.459992 1.408395 1.012208 0.006998 0.002457 602302.000000 0 1 0
-4.771749 -19.790098 12.350557 23.810792 1.334195 1.025472 0.004397 -0.005032 660125.000000 0 1 0
-5.390349 -20.273098 13.527357 24.960845 1.310922 0.998049 -0.001642 -0.003910 -123861.000000 0 1 0
-5.604349 -21.649598 13.490457 26.117164 1.317491 1.027996 -0.025590 0.003734 -378646.000000 0 0 1
-6.345449 -22.191198 14.739657 27.385607 1.292284 1.002465 -0.014051 -0.002931 -1047730.000000 0 0 1
-7.693449 -21.912698 14.691357 27.480747 1.233146 1.006756 0.003531 0.000303 -1417220.000000 0 0 1
-8.351549 -22.823198 15.533657 28.843392 1.220007 1.002079 0.000309 -0.001849 -649638.000000 0 0 1
-9.820149 -22.423298 15.605657 29.030607 1.158013 1.003257 0.020495 -0.001469 -550352.000000 0 0 1
-10.082749 -21.229198 16.275457 28.587256 1.127391 0.965111 0.007088 0.004510 -246803.000000 0 0 1
-11.414949 -20.775498 16.127057 28.670618 1.068381 0.973397 0.036219 -0.003314 254638.000000 0 0 1
-11.611949 -19.375598 16.809357 28.156805 1.030886 0.931051 0.038455 0.005718 -254156.000000 0 0 1
-11.755249 -19.592998 18.204557 29.214335 1.030397 0.898048 0.039613 0.003030 -111924.000000 0 0 1
-12.276949 -18.480798 18.867957 29.124958 0.984428 0.866067 0.030379 -0.000769 -151588.000000 0 0 1
-12.725249 -18.747598 20.323257 30.437463 0.974463 0.839674 0.027969 0.002618 -278641.000000 0 0 1
-13.904449 -19.510098 20.402357 31.467980 0.951611 0.865377 0.047918 0.001805 -107845.000000 0 0 1
-14.006349 -20.269598 21.575057 32.749313 0.966134 0.851581 0.032804 0.007631 -1027290.000000 0 0 1
-15.369749 -20.882498 21.578857 33.733588 0.936308 0.876708 0.043500 -0.004123 -1432690.000000 0 0 1
-15.359749 -22.006598 20.702557 33.894072 0.961440 0.913724 0.036280 -0.004832 395912.000000 0 0 1
-16.551449 -22.209098 19.949757 34.134840 0.930339 0.946607 0.060100 -0.003948 -6703.440000 0 0 1
-17.719049 -22.873598 20.655257 35.550047 0.911705 0.950816 0.070937 -0.007271 -545553.000000 0 0 1
-18.379549 -22.088798 21.632157 35.967667 0.876801 0.925502 0.058910 -0.005912 336573.000000 0 0 1
-19.316649 -22.875998 22.393057 37.388410 0.869558 0.928632 0.068883 -0.001741 502785.000000 0 0 1
-19.875649 -22.113898 23.617857 37.971951 0.838653 0.899525 0.055442 0.000041 399053.000000 0 0 1
-20.961149 -21.220298 23.374057 37.894820 0.791542 0.906108 0.056623 0.004674 356080.000000 0 0 1
-21.080649 -20.225598 24.357127 38.036012 0.764701 0.875816 0.050725 0.005883 -182953.000000 0 0 1
-22.028149 -19.140898 23.885107 37.710896 0.715381 0.884891 0.038447 0.005495 -112670.000000 0 0 1
-21.565449 -18.453798 22.738157 36.368050 0.707800 0.895379 0.053642 0.005210 -475571.000000 0 0 1
-22.498349 -17.528198 22.291557 36.198438 0.661859 0.907376 0.036665 0.003189 -269614.000000 0 0 1
-22.154349 -16.966198 20.911257 34.870442 0.653548 0.927690 0.040249 0.004188 244328.000000 0 0 1
-21.131149 -15.966598 20.900957 33.738816 0.647073 0.902700 0.044685 0.010111 -98099.000000 0 0 1
-21.048349 -15.449598 19.575057 32.632896 0.633186 0.927475 0.037013 0.010012 310658.000000 0 0 1
-19.982549 -14.341098 19.414657 31.335256 0.622494 0.902590 0.029837 0.003914 284555.000000 0 0 1
-19.938549 -13.964498 18.037057 30.296672 0.610979 0.933098 0.026320 0.002091 -414215.000000 0 0 1
-18.962749 -12.997998 17.805057 29.078409 0.600893 0.911815 0.043631 -0.012985 -406209.000000 0 0 1
-18.906049 -12.926398 16.230957 28.070882 0.599714 0.954259 0.046145 -0.021724 74703.600000 0 0 1
-18.344349 -11.884898 15.482557 26.785733 0.574882 0.954502 0.041949 -0.019694 -718451.000000 0 0 1
-16.975649 -11.646798 15.551457 25.800550 0.601328 0.923845 0.061222 -0.025923 -391980.000000 0 0 1
-16.491749 -10.297098 14.854557 24.467649 0.558152 0.918378 0.047948 -0.030653 -23083.000000 0 1 0
-16.921749 -9.139998 15.498757 24.700134 0.495236 0.892488 0.041713 -0.016672 95028.200000 0 1 0
-16.713449 -7.956998 14.780357 23.687806 0.444332 0.896990 0.040810 -0.014132 -859809.000000 0 1 0
-16.987749 -6.700498 15.736857 24.106616 0.375697 0.859518 0.039349 -0.000943 775692.000000 0 1 0
-16.018149 -6.480598 16.783557 24.088732 0.384447 0.799955 0.031633 0.000201 1007990.000000 0 1 0
-14.638449 -6.445598 16.432357 22.931469 0.414775 0.771902 0.034185 -0.003306 199396.000000 0 1 0
-13.652449 -6.434098 17.652457 23.224905 0.440407 0.707382 0.030938 -0.003495 242212.000000 0 1 0
-13.640449 -7.574898 18.502757 24.203160 0.506923 0.700567 0.037641 -0.015696 13829.600000 0 1 0
-13.249549 -8.784598 17.908857 23.946751 0.585468 0.725961 0.052250 -0.015700 -589328.000000 0 1 0
-13.283549 -9.971298 18.916857 25.173933 0.643917 0.720545 0.050596 -0.017891 -202817.000000 0 0 1
-14.466149 -10.591798 19.318257 26.356227 0.631997 0.748122 0.049840 -0.018439 -178498.000000 0 0 1
-15.373849 -9.830198 20.131457 27.171006 0.568895 0.736362 0.046325 -0.015997 20187.200000 0 0 1
-16.809949 -10.362198 20.438557 28.419784 0.552415 0.768194 0.034750 -0.002787 1039730.000000 0 0 1
-17.775649 -10.310098 19.390557 28.253593 0.525593 0.814401 0.038681 -0.005548 305894.000000 0 0 1
-18.100449 -9.016698 18.937557 27.704840 0.462165 0.818185 0.030597 -0.007201 -882700.000000 0 0 1
-19.248049 -8.917598 17.922457 27.770945 0.433858 0.869292 0.034060 -0.014663 -296023.000000 0 0 1
-20.532049 -9.198098 18.394757 29.060921 0.421179 0.885410 0.021102 -0.003902 -683382.000000 0 0 1
-21.438349 -9.325398 17.336357 29.105242 0.410299 0.932729 0.023757 -0.005054 56296.200000 0 0 1
-22.917749 -9.343498 17.789457 30.479320 0.387124 0.947572 0.019888 -0.003111 -133625.000000 0 0 1
-23.394249 -8.184198 18.473857 30.912059 0.336531 0.930259 0.023940 0.000367 230855.000000 0 0 1
-24.702249 -8.513198 18.887357 32.239849 0.331885 0.944882 0.024284 0.007088 -640718.000000 0 0 1
-25.385099 -7.489098 19.709857 32.999519 0.286881 0.930695 0.042014 -0.005406 -531291.000000 0 0 1
-25.047849 -7.449198 21.095657 33.584401 0.289069 0.891638 0.046752 -0.012987 395037.000000 0 0 1
-25.758549 -6.415898 21.763957 34.326905 0.244111 0.884055 0.047281 -0.015955 -612199.000000 0 0 1
-25.792829 -6.617298 23.251257 35.350808 0.251139 0.852996 0.036233 -0.014234 662805.000000 0 0 1
-24.679949 -6.262898 24.081067 35.045992 0.248519 0.813268 0.018633 -0.013383 376096.000000 0 0 1
-23.504249 -7.030898 24.014617 34.330527 0.290661 0.796082 0.020828 -0.010833 27327.000000 0 0 1
-22.487549 -6.792198 25.169787 34.428796 0.293330 0.750911 0.019955 -0.003993 302018.000000 0 0 1
-21.878849 -5.520998 25.046167 33.711658 0.247184 0.733325 0.013001 -0.002107 -418054.000000 0 0 1
-20.973549 -5.192898 26.023307 33.824081 0.242712 0.692939 0.020442 -0.007288 -374668.000000 0 0 1
-20.544949 -3.707898 26.043237 33.378041 0.178555 0.675730 0.016893 -0.007420 374234.000000 0 0 1
-19.667349 -3.279998 27.107267 33.650660 0.165253 0.634194 0.023666 -0.002058 128481.000000 0 0 1
-20.213549 -3.369398 28.407717 35.027686 0.165171 0.624924 0.019410 -0.004986 380841.000000 0 0 1
-21.137249 -2.172898 28.889517 35.862361 0.102440 0.634165 0.023170 -0.005856 201236.000000 0 0 1
-22.335849 -2.213998 28.172077 36.020242 0.098800 0.672739 0.027670 -0.009429 -765637.000000 0 0 1
-23.299949 -1.400298 28.833757 37.097628 0.060027 0.680529 0.027058 -0.002057 -359939.000000 0 0 1
-24.520649 -1.097798 28.014647 37.246313 0.044740 0.719485 0.033582 -0.012133 -1413410.000000 0 0 1
-24.119449 -0.343598 26.853287 36.096605 0.014245 0.731867 0.021902 -0.013787 351349.000000 0 0 1
-25.156499 0.085802 25.974677 36.159931 -0.003411 0.769401 0.026150 -0.013106 180692.000000 0 0 1
-26.062869 -1.000298 25.296767 36.334558 0.038361 0.800681 0.025029 -0.014404 414865.000000 0 0 1
-27.092909 -1.557198 26.125757 37.669693 0.057413 0.804393 0.020804 -0.010493 322761.000000 0 0 1
-27.442979 -2.895898 25.795627 37.774564 0.105135 0.819094 0.015219 -0.008299 -223550.000000 0 0 1
-26.361979 -3.989498 25.940237 37.199004 0.150196 0.799121 0.021444 -0.013210 -41298.500000 0 0 1
-26.107999 -4.154098 27.323857 38.019433 0.157789 0.768892 0.015780 -0.011728 -157435.000000 0 0 1
-25.238359 -5.244098 27.536457 37.719117 0.204868 0.752416 0.013879 -0.008583 -62217.300000 0 0 1
-24.877649 -5.692798 28.984557 38.618776 0.224959 0.721932 0.010009 -0.000920 -344153.000000 0 0 1
-25.937219 -6.204198 29.721827 39.932673 0.234789 0.731313 0.017387 0.001985 -510998.000000 0 0 1
-25.457529 -7.002298 30.787787 40.558671 0.268420 0.708878 0.029968 0.001333 -49391.300000 0 0 1
-26.487469 -7.860098 31.570207 41.952891 0.288470 0.718923 0.015425 0.002045 -51308.800000 0 0 1
-27.283529 -8.644298 30.701387 41.972491 0.306827 0.750329 0.007167 -0.000856 603218.000000 0 0 1
-28.374999 -9.217098 31.439547 43.342134 0.314080 0.759209 0.014424 0.006223 963127.000000 0 0 1
-29.420259 -10.038398 30.603977 43.622522 0.328820 0.793207 0.006865 -0.004963 277520.000000 0 0 1
-28.951809 -11.316598 30.347527 43.442433 0.372617 0.797401 0.013098 -0.010605 177767.000000 0 0 1
-29.901789 -12.025898 29.575557 43.743031 0.382384 0.828312 0.001101 -0.002755 285933.000000 0 0 1
-29.245249 -13.193498 28.730057 43.067031 0.423796 0.840486 -0.000371 -0.007807 416116.000000 0 0 1
-28.356769 -12.652398 27.729497 41.630692 0.419678 0.841851 0.008584 -0.006563 85228.900000 0 0 1
-27.503569 -13.712798 27.353217 41.142261 0.462513 0.843510 0.011010 -0.005558 -699523.000000 0 0 1
-26.177529 -13.176998 26.780297 39.699882 0.466340 0.830416 0.024585 -0.011950 -300494.000000 0 0 1
-25.354789 -12.689598 27.868887 39.756334 0.464033 0.794008 0.022573 -0.013696 71989.100000 0 0 1
-25.521469 -11.329798 28.355317 39.796152 0.417796 0.777722 0.027084 -0.017265 -761891.000000 0 0 1
-25.592269 -10.065198 27.504607 38.894419 0.374709 0.785322 0.026494 -0.010165 33234.300000 0 0 1
-24.415849 -9.574898 26.883977 37.557430 0.373729 0.773013 0.025524 -0.009676 -43532.900000 0 0 1
-23.887049 -10.376098 25.833997 36.683101 0.409790 0.789433 0.026139 -0.017148 -17302.300000 0 0 1
-24.695049 -10.291798 24.493227 36.272368 0.394867 0.829481 0.028249 -0.009669 -531974.000000 0 0 1
-25.789799 -11.135998 24.394707 37.205186 0.407615 0.855713 0.023406 -0.007882 -221097.000000 0 0 1
-26.466069 -10.985898 23.095557 36.804178 0.393450 0.892425 0.032128 0.003285 1836.310000 0 0 1
-27.859229 -11.653598 23.002957 37.961546 0.396185 0.919832 0.028679 -0.003448 410365.000000 0 0 1
-28.923669 -10.991798 23.682857 38.965061 0.363171 0.917513 0.027279 -0.006435 148728.000000 0 0 1
-28.854099 -10.912998 25.100237 39.770271 0.361585 0.887786 0.024553 -0.011351 369074.000000 0 0 1
-30.255089 -10.572898 25.806257 41.147533 0.336192 0.892889 0.009465 -0.008812 855936.000000 0 0 1
-30.699439 -9.275798 25.566697 41.014046 0.293427 0.897758 0.014093 -0.012774 -145873.000000 0 0 1
-32.048629 -8.995898 25.885187 42.167330 0.273653 0.909845 0.012664 -0.003162 102514.000000 0 0 1
-32.567379 -9.151098 27.332827 43.490921 0.273926 0.891209 0.000199 -0.003840 -473947.000000 0 0 1
-32.861809 -10.416298 27.815677 44.295707 0.306954 0.891875 0.000229 -0.012838 -365203.000000 0 0 1
-33.514089 -10.314698 28.990747 45.497808 0.298572 0.879950 0.003456 -0.014523 -1158520.000000 0 0 1
-34.011259 -11.674498 29.580037 46.562197 0.330652 0.882425 0.010510 -0.012461 -28730.800000 0 0 1
-35.197902 -12.136298 28.999157 47.192511 0.332036 0.909062 0.003637 -0.014112 328617.000000 0 0 1
34.843985 -11.546298 29.436567 47.052436 -0.319984 0.894881 0.007940 -0.012062 90062.300000 0 0 1
33.601765 -12.128098 28.729187 45.842508 -0.346384 0.893494 0.010741 -0.008595 21278.200000 0 0 1
33.482185 -11.695898 27.391567 44.812372 -0.336066 0.913157 0.018212 -0.008269 -84677.600000 0 0 1
32.443845 -12.422098 26.766847 43.856307 -0.365661 0.914318 0.025178 -0.000559 -29555.700000 0 0 1
32.334225 -12.052698 25.266047 42.768478 -0.356800 0.938792 0.029335 -0.009751 37020.400000 0 0 1
32.019465 -10.678698 25.107707 42.067537 -0.321906 0.931236 0.033394 -0.022401 68459.400000 0 0 1
32.223655 -10.227498 23.779547 41.333189 -0.307335 0.957809 0.026692 -0.017707 -295176.000000 0 0 1
31.756065 -8.767698 23.453857 40.440123 -0.269384 0.952111 0.036182 -0.001807 -1065220.000000 0 0 1
30.399865 -8.529398 23.442057 39.324705 -0.273540 0.932142 0.039917 -0.012555 -1131320.000000 0 0 1
30.202665 -7.147398 23.052757 38.661555 -0.232373 0.931949 0.043719 -0.003683 -675835.000000 0 0 1
28.715605 -6.838998 23.122557 37.496806 -0.233807 0.906311 0.049930 0.001095 -210944.000000 0 0 1
27.950725 -7.743398 22.237657 36.547457 -0.270259 0.916678 0.049756 0.012277 -860762.000000 0 0 1
26.638955 -7.390698 22.405257 35.584433 -0.270633 0.889711 0.055904 -0.003808 -1435440.000000 0 0 1
14.577051 -17.216098 26.567267 34.852606 -0.868215 0.703976 0.032517 0.002500 99565.800000 0 0 1
13.792351 -18.400798 26.594857 35.158281 -0.927582 0.712955 0.014238 0.007922 553248.000000 0 0 1
14.593951 -19.552798 26.375757 35.930153 -0.929612 0.746479 0.028391 0.000501 -110303.000000 0 0 1
13.713551 -20.837398 26.200167 36.176061 -0.988733 0.760864 0.002301 -0.003890 499971.000000 0 0 1
12.919651 -21.219198 27.290327 36.904386 -1.023883 0.738488 0.010815 -0.006411 -844932.000000 0 0 1
11.724451 -20.650398 27.603347 36.412175 -1.054421 0.710432 0.013854 -0.001449 -1237180.000000 0 0 1
11.248851 -21.127498 29.014387 37.613063 -1.081545 0.689772 0.005087 -0.004631 203482.000000 0 0 1
11.937151 -20.561198 30.110007 38.364970 -1.044788 0.668373 0.016913 -0.004848 -90841.100000 0 0 1
11.050051 -19.769598 30.843067 38.265329 -1.061114 0.633380 0.016050 -0.006547 43690.600000 0 0 1
10.712151 -18.319798 30.296117 36.989456 -1.041680 0.611048 0.017426 -0.006400 -164759.000000 0 0 1
11.862951 -17.524798 30.281917 36.943777 -0.975726 0.609952 0.023990 -0.002269 -587912.000000 0 0 1
11.623351 -16.249598 29.755027 35.840108 -0.949875 0.591302 0.035496 -0.005448 -79084.000000 0 0 1
12.756551 -15.206898 29.910787 35.897556 -0.872802 0.585879 0.038955 -0.010799 177400.000000 0 0 1
12.349251 -13.895998 29.420227 34.801617 -0.844264 0.563540 0.054153 -0.008542 -122620.000000 0 0 1
12.741851 -12.848898 30.170657 35.181209 -0.789581 0.540253 0.056620 -0.002589 -578409.000000 0 0 1
12.159151 -11.472898 29.795247 34.164734 -0.756367 0.511308 0.060912 -0.002916 -306952.000000 0 0 1
12.573851 -10.713198 28.638837 33.061417 -0.705667 0.523187 0.062578 -0.000198 494914.000000 0 0 1
13.984851 -10.528898 28.503577 33.449778 -0.645341 0.550753 0.067610 -0.003501 309905.000000 0 0 1
14.448851 -9.481698 27.474887 32.458301 -0.580739 0.561482 0.059247 -0.004808 22143.700000 0 0 1
14.471251 -8.049498 27.849627 32.400822 -0.507622 0.536438 0.050012 -0.007789 785146.000000 0 0 1
15.736751 -7.756898 28.490547 33.459319 -0.457964 0.551961 0.051652 -0.012411 568642.000000 0 0 1
16.140651 -6.255398 28.232497 33.116831 -0.369733 0.550024 0.043030 -0.013147 -685950.000000 0 0 1
17.512051 -6.139498 28.427987 33.948723 -0.337198 0.578324 0.040090 -0.017782 -679299.000000 0 0 1
17.929651 -4.805698 28.107457 33.683768 -0.261876 0.583660 0.030913 -0.012196 -240923.000000 0 0 1
19.386951 -4.726698 27.637717 34.088692 -0.239143 0.625349 0.035119 -0.017531 -1451030.000000 0 0 1
19.620851 -5.528698 26.511137 33.442259 -0.274655 0.655499 0.036528 -0.013229 -623461.000000 0 0 1
20.896851 -5.481098 25.973817 33.784020 -0.256515 0.693803 0.045245 -0.004515 -102156.000000 0 0 1
22.062851 -6.030198 26.889457 35.301212 -0.266803 0.704841 0.061822 -0.018314 -426387.000000 0 0 1
22.454751 -5.043798 27.792387 36.084242 -0.220953 0.691628 0.053279 -0.016702 -320389.000000 0 0 1
23.530951 -5.430798 28.616877 37.444958 -0.226822 0.700937 0.065183 -0.031179 -101012.000000 0 0 1
24.097451 -4.180398 29.366337 38.217072 -0.171769 0.694445 0.057732 -0.027320 -56651.600000 0 0 1
24.682951 -3.283498 28.425617 37.789484 -0.132251 0.719387 0.058345 -0.022374 282049.000000 0 0 1
25.118551 -2.071098 29.030627 38.444874 -0.082267 0.714954 0.058155 -0.028321 -188762.000000 0 0 1
25.987851 -1.170398 28.115517 38.304315 -0.045006 0.746597 0.058329 -0.025401 968583.000000 0 0 1
27.399351 -1.428798 28.215657 39.355930 -0.052100 0.771400 0.059019 -0.023320 878077.000000 0 0 1
28.163851 -0.737898 27.220867 39.175536 -0.026194 0.802594 0.054364 -0.009878 1321140.000000 0 0 1
29.714151 -0.764298 27.519237 40.507077 -0.025716 0.823894 0.052005 -0.013328 1064210.000000 0 0 1
30.059351 0.123402 28.590377 41.484810 0.004105 0.810444 0.041288 -0.007080 298031.000000 0 0 1
31.457351 0.062302 28.858867 42.689612 0.001981 0.828454 0.040231 -0.012742 575530.000000 0 0 1
31.930351 1.097202 29.906217 43.762232 0.034349 0.818414 0.044561 -0.015821 8153.750000 0 0 1
32.161851 2.377202 29.320237 43.585686 0.073780 0.832940 0.040364 -0.009111 20980.100000 0 0 1
32.485951 3.402802 30.220297 44.499241 0.104366 0.824234 0.037507 -0.008469 -108496.000000 0 0 1
32.673951 4.777002 29.488077 44.271362 0.145174 0.841861 0.035149 -0.005564 89486.100000 0 0 1
32.751851 5.996002 30.213117 44.960741 0.181069 0.833905 0.035804 -0.001741 1206220.000000 0 0 1
31.429851 6.341402 30.711347 44.398601 0.199091 0.806930 0.033462 -0.005720 1083580.000000 0 0 1
31.376051 7.353002 31.832257 45.296973 0.230197 0.791547 0.034561 -0.004393 -305395.000000 0 0 1
31.512251 6.738302 33.113287 46.205156 0.210659 0.771798 0.028603 -0.000714 42002.200000 0 0 1
31.489451 7.688902 34.166724 47.096388 0.239488 0.759088 0.034338 -0.006680 -133386.000000 0 0 1
31.719851 7.120902 -33.232024 46.488962 0.220832 2.367187 0.036841 0.000268 -248719.000000 0 0 1
30.718751 6.244902 -32.788894 45.362452 0.200560 2.378671 0.035553 0.002270 -150446.000000 0 0 1
30.861651 4.864802 -33.151644 45.553697 0.156346 2.385830 0.035755 -0.005239 -88039.200000 0 0 1
31.783751 3.973602 -32.281614 45.476356 0.124375 2.360089 0.034200 -0.009390 56249.400000 0 0 1
32.006151 2.673102 -32.814994 45.916914 0.083325 2.366935 0.042500 -0.016785 39953.300000 0 0 1
32.161551 1.764202 -31.754004 45.230460 0.054799 2.349067 0.027291 -0.014765 -140329.000000 0 0 1
31.949651 0.315402 -32.148184 45.325329 0.009872 2.359267 0.023474 -0.025240 147728.000000 0 0 1
32.965851 -0.281398 -32.975894 46.628705 -0.008536 2.356329 0.019326 -0.022689 519644.000000 0 0 1
33.449351 -1.589998 -32.545154 46.696619 -0.047499 2.341930 0.007892 -0.015086 467818.000000 0 0 1
34.343251 -1.696198 -31.253314 46.466177 -0.049349 2.308518 0.011611 -0.012316 -162630.000000 0 0 1
33.756351 -1.523198 -29.971384 45.167413 -0.045093 2.296366 0.015095 -0.012827 248620.000000 0 0 1
34.740251 -1.414998 -28.942204 45.238683 -0.040708 2.264991 0.021898 -0.011273 128445.000000 0 0 1
34.058151 -0.908698 -27.655414 43.881719 -0.026674 2.252641 0.019968 -0.011967 -107657.000000 0 0 1
33.552551 0.377802 -27.798654 43.573863 0.011260 2.262651 0.016675 -0.003266 164428.000000 0 0 1
32.875051 0.776902 -26.620984 42.308975 0.023628 2.251325 0.014706 -0.003221 8425.580000 0 0 1
32.330151 2.238102 -26.710794 41.996598 0.069116 2.260130 0.016472 -0.004644 -35226.500000 0 0 1
31.360051 2.464902 -27.689044 41.907179 0.078439 2.292578 0.024027 -0.010434 6143.150000 0 0 1
30.715451 3.686202 -27.643804 41.487431 0.119440 2.300056 0.021030 0.001718 67756.600000 0 0 1
29.709851 3.914302 -28.801104 41.563212 0.130996 2.336365 0.032574 -0.005569 49199.600000 0 0 1
28.824351 5.003802 -28.601764 40.913838 0.171883 2.344897 0.031530 -0.003955 -200910.000000 0 0 1
28.029551 5.207902 -29.712194 41.177572 0.183706 2.376853 0.027864 -0.006267 66983.100000 0 0 1
26.766951 6.091502 -29.373184 40.203980 0.223764 2.390002 0.020459 -0.012300 -112121.000000 0 0 1
25.786251 5.316602 -28.761194 38.992349 0.203330 2.400322 0.031258 -0.012278 -638036.000000 0 0 1
24.878151 6.186002 -28.170674 38.089052 0.243710 2.403273 0.028309 -0.014893 -318666.000000 0 0 1
23.490451 5.618902 -27.777064 36.809491 0.234788 2.425866 0.035477 -0.013822 4763.440000 0 0 1
22.738951 5.266902 -28.892184 37.142407 0.227611 2.462075 0.027189 -0.017614 207848.000000 0 0 1
21.406951 4.860802 -28.616194 36.066210 0.223280 2.487228 0.031384 -0.011348 323455.000000 0 0 1
20.659751 4.442602 -29.901224 36.614822 0.211811 2.526366 0.019508 -0.008322 -236285.000000 0 0 1
21.065151 3.203902 -30.345164 37.078761 0.150938 2.529413 0.023973 -0.014419 -173981.000000 0 0 1
20.251551 2.689002 -31.353624 37.421996 0.132008 2.564110 0.009522 -0.015051 -239010.000000 0 0 1
20.253051 3.331502 -32.784574 38.679623 0.163034 2.582229 0.022934 -0.015501 161533.000000 0 0 1
21.541951 3.140802 -33.372714 39.845430 0.144779 2.563588 0.025058 -0.015166 402712.000000 0 0 1
21.641451 3.624602 34.083268 40.535901 0.165944 0.572006 0.027148 -0.021507 -720334.000000 0 0 1
23.031051 3.383602 33.509154 40.801243 0.145871 0.607149 0.039325 -0.017528 -424420.000000 0 0 1
23.243851 1.981602 33.356954 40.704910 0.085047 0.610289 0.048375 -0.022406 -555116.000000 0 0 1
24.527551 1.677402 32.917138 41.084698 0.068282 0.641495 0.053003 -0.025761 -1113690.000000 0 0 1
24.818651 0.214702 32.776375 41.113286 0.008651 0.648119 0.049267 -0.023555 -282095.000000 0 0 1
24.194851 -0.433498 31.682237 39.866563 -0.017915 0.652272 0.054353 -0.023710 1226310.000000 0 0 1
22.758851 -0.541998 31.745247 39.064303 -0.023810 0.622127 0.054845 -0.030290 715621.000000 0 0 1
22.026751 -1.632898 32.624667 39.398134 -0.073997 0.595129 0.054662 -0.029934 -146597.000000 0 0 1
22.242351 -2.957398 32.193567 39.241485 -0.132187 0.608693 0.050751 -0.031361 310033.000000 0 0 1
21.567851 -3.917598 32.990503 39.609255 -0.179682 0.586471 0.047856 -0.028318 -118135.000000 0 0 1
21.562651 -5.280298 32.306617 39.198813 -0.240156 0.602055 0.043520 -0.029590 -231131.000000 0 0 1
22.872751 -5.760398 32.440157 40.108711 -0.246715 0.628678 0.051317 -0.022805 -175825.000000 0 0 1
22.951251 -7.131898 32.075167 40.080422 -0.301282 0.643051 0.055563 -0.028555 -1112530.000000 0 0 1
24.328251 -7.749398 32.050207 40.977222 -0.308373 0.672692 0.047049 -0.024412 -610959.000000 0 0 1
25.010351 -7.281798 30.861847 40.385589 -0.283319 0.701028 0.063576 -0.026093 -55174.900000 0 0 1
26.193251 -8.015398 30.620147 41.084381 -0.296961 0.729813 0.053784 -0.026270 198489.000000 0 0 1
26.659451 -7.870398 29.139867 40.271595 -0.287066 0.761816 0.052507 -0.025539 78828.200000 0 0 1
25.730651 -8.487598 28.295217 39.175567 -0.318624 0.763722 0.050314 -0.019364 17080.100000 0 0 1
26.105951 -8.108698 26.984297 38.411248 -0.301160 0.791878 0.057411 -0.015057 360839.000000 0 0 1
25.385351 -9.031998 25.968277 37.421176 -0.341829 0.803841 0.051774 -0.015447 1351630.000000 0 0 1
23.991351 -8.682098 25.766817 36.261448 -0.347223 0.780468 0.058385 -0.022167 1206840.000000 0 0 1
23.318851 -9.626598 24.935247 35.471210 -0.391513 0.791229 0.072193 -0.022628 1086310.000000 0 0 1
21.874351 -9.228898 24.440187 34.073194 -0.399246 0.770899 0.044610 -0.003964 476700.000000 0 0 1
20.939351 -9.226198 25.477117 34.244162 -0.415022 0.731783 0.039560 -0.009598 -136164.000000 0 0 1
19.683451 -8.977998 24.857017 32.953209 -0.427931 0.716190 0.048634 -0.003782 -44303.400000 0 0 1
18.457551 -8.819398 25.749147 32.885887 -0.445747 0.671347 0.045785 -0.009808 -250820.000000 0 0 1
17.853951 -10.002698 26.325017 33.344026 -0.510680 0.660807 0.055316 -0.017051 257763.000000 0 0 1
18.575951 -10.725198 27.314457 34.730036 -0.523614 0.665709 0.056478 -0.016218 -149641.000000 0 0 1
17.743951 -11.882898 27.927157 35.156467 -0.590091 0.652831 0.056745 -0.016210 134343.000000 0 0 1
17.303051 -12.903498 27.028367 34.589427 -0.640766 0.673881 0.059476 -0.014970 -278025.000000 0 0 1
16.510351 -13.816498 27.681527 35.067852 -0.696803 0.661013 0.062598 -0.013397 -760659.000000 0 0 1
17.220051 -14.934698 28.399287 36.415585 -0.714444 0.676344 0.065781 -0.011006 350973.000000 0 0 1
16.276051 -15.632498 29.266107 36.956594 -0.765232 0.656874 0.049557 -0.007921 945292.000000 0 0 1
16.958251 -16.598298 30.033617 38.276676 -0.774672 0.668672 0.055279 -0.014944 -526245.000000 0 0 1
17.220351 -17.969698 29.391267 38.513596 -0.806689 0.702638 0.050607 -0.010014 447722.000000 0 0 1
18.321151 -17.844798 28.474197 38.273768 -0.772228 0.731817 0.048357 -0.014503 634753.000000 0 0 1
18.519251 -18.989598 27.695597 38.348580 -0.797937 0.763809 0.036215 -0.011059 224513.000000 0 0 1
19.545951 -18.619798 26.580967 37.885207 -0.761136 0.793130 0.043348 -0.013682 -57469.800000 0 0 1
20.881051 -18.391998 26.943597 38.732949 -0.722105 0.801507 0.052554 -0.019941 -109765.000000 0 0 1
21.529151 -17.858098 25.771897 38.034283 -0.692463 0.826307 0.037796 -0.014604 -324120.000000 0 0 1
22.999751 -17.525698 26.040307 38.913188 -0.651134 0.837678 0.041252 -0.013598 -625660.000000 0 0 1
23.790251 -18.642398 26.286517 40.056161 -0.664670 0.854969 0.037860 -0.019308 71429.600000 0 0 1
25.155451 -18.302898 26.440517 40.827610 -0.629005 0.866348 0.031948 -0.019410 -85647.000000 0 0 1
26.106051 -19.451998 26.697737 42.103151 -0.640367 0.883948 0.020921 -0.011960 -323662.000000 0 0 1
25.893551 -20.073798 27.941677 43.060082 -0.659462 0.864659 0.029348 -0.015779 -56916.100000 0 0 1
26.635651 -21.270298 28.044427 44.140383 -0.673865 0.882340 0.027075 -0.009957 -66751.100000 0 0 1
26.049151 -22.407898 28.911907 44.906242 -0.710395 0.871305 0.029179 -0.008746 -107476.000000 0 0 1
26.005151 -22.136698 30.297317 45.653354 -0.705215 0.845124 0.032730 -0.012657 445325.000000 0 0 1
25.217051 -23.152098 31.002497 46.185215 -0.742733 0.834883 0.030426 -0.007111 37905.700000 0 0 1
25.164851 -22.892998 32.514147 47.058781 -0.738160 0.808027 0.028326 -0.010049 67904.500000 0 0 1
24.631951 -23.971098 33.285600 47.846397 -0.771802 0.801436 0.019040 -0.003351 178002.000000 0 0 1
24.362951 -23.700298 -34.164416 48.191958 -0.771612 2.358767 0.037902 0.002903 -633256.000000 0 0 1
23.977151 -25.032678 -33.484074 48.194626 -0.806932 2.338893 0.025208 0.005047 1435320.000000 0 0 1
22.647551 -25.558728 -33.776484 48.031355 -0.845715 2.350709 0.033850 -0.002772 1161120.000000 0 0 1
22.447151 -26.095018 33.737059 48.197653 -0.860406 0.795437 0.028507 -0.011443 -721807.000000 0 0 1
21.262751 -27.028398 33.593531 48.074569 -0.904229 0.797106 0.038601 -0.015752 -279644.000000 0 0 1
21.525551 -28.377838 33.992662 49.235679 -0.921856 0.808745 0.039784 -0.004745 -840379.000000 0 0 1
20.433351 -29.182068 33.827711 49.126663 -0.959935 0.811265 0.064877 -0.002471 -717271.000000 0 0 1
20.717051 -30.700478 34.159711 50.384535 -0.977176 0.825785 0.050081 -0.004539 -70091.900000 0 0 1
21.107651 -31.088358 -33.371514 50.256113 -0.974333 2.296991 0.043490 -0.007919 520755.000000 0 0 1
21.770951 -32.357958 -33.491164 51.406905 -0.978549 2.280345 0.017078 0.001603 -91536.900000 0 0 1
22.128451 -32.896918 -32.138234 51.036670 -0.978656 2.251974 0.010710 0.008692 -966870.000000 0 0 1
23.052651 -33.973668 -32.319614 52.251242 -0.974616 2.237683 0.002311 0.006783 422090.000000 0 0 1
23.630951 -34.412811 -31.121214 52.069121 -0.969059 2.211414 0.005112 0.012850 9167.270000 0 0 1
24.698951 -33.414528 -30.585454 51.594950 -0.934264 2.205327 0.008108 0.014073 -1001580.000000 0 0 1
25.226951 -33.780338 -29.341154 51.365491 -0.929350 2.178792 0.016733 0.017254 -379452.000000 0 0 1
26.157351 -32.831188 -28.931464 50.981600 -0.898057 2.174249 0.021080 0.011529 -540202.000000 0 0 1
26.564951 -32.867098 -27.509484 50.425336 -0.891043 2.147840 0.022396 0.009285 -169340.000000 0 0 1
27.241851 -34.047320 -27.190514 51.387377 -0.895984 2.128369 0.025248 0.012783 13921.900000 0 0 1
27.918751 -33.828058 -25.929194 50.952108 -0.880810 2.104695 0.026175 0.004016 466418.000000 0 0 1
-26.664109 -30.787156 9.205056 41.755918 0.857041 1.348521 0.047035 -0.009847 142586.000000 0 0 1
-26.843399 -32.025056 9.858856 42.934477 0.873193 1.339103 0.049267 -0.010469 -46547.700000 0 0 1
-25.663549 -32.266156 10.595356 42.567407 0.898885 1.319244 0.041090 -0.015787 208711.000000 0 0 1
-25.622839 -33.628756 11.302256 43.762588 0.919702 1.309573 0.035202 -0.011751 66857.200000 0 0 1
-25.514399 34.089702 10.500656 43.856084 -0.928289 1.329013 0.036116 -0.005767 -105268.000000 0 0 1
-25.622289 32.924202 11.292256 43.220594 -0.909477 1.306458 0.032034 -0.006331 -43883.800000 0 0 1
-25.505179 31.543902 10.607156 41.929031 -0.890857 1.315038 0.037421 -0.000762 -152618.000000 0 0 1
-26.653579 31.313502 9.840356 42.282162 -0.865615 1.335912 0.040898 -0.007714 -288709.000000 0 0 1
-26.606189 30.091602 9.159956 41.198284 -0.846794 1.346584 0.039460 -0.004973 318738.000000 0 0 1
-25.664049 30.007802 7.860356 40.260362 -0.863265 1.374296 0.037991 -0.003872 474801.000000 0 0 1
-24.314849 29.736102 8.135256 39.263596 -0.885363 1.362089 0.030824 -0.005564 -459976.000000 0 0 1
-23.599349 29.642702 6.963256 38.524096 -0.898422 1.389047 0.015186 -0.008330 298147.000000 0 0 1
-22.262249 28.821202 6.984356 37.081675 -0.913096 1.381314 0.048903 -0.006098 480254.000000 0 0 1
-22.462849 27.411802 6.980756 36.120872 -0.884302 1.376312 0.042591 -0.008355 292386.000000 0 0 1
-22.934449 26.764002 5.764256 35.714526 -0.862302 1.408689 0.027835 -0.007436 -672675.000000 0 0 1
-23.280049 25.287702 6.025956 34.896141 -0.826712 1.397244 0.032113 -0.000304 -970401.000000 0 0 1
-24.324049 25.036502 6.906156 35.583434 -0.799831 1.375473 0.027996 -0.005866 -488322.000000 0 0 1
-24.580249 23.692302 7.261856 34.903414 -0.767006 1.361210 0.031559 -0.021757 -88838.600000 0 0 1
-25.198209 22.790602 6.175256 34.532521 -0.735270 1.391005 0.026588 -0.028450 -312022.000000 0 0 1
-26.511149 23.135702 5.773156 35.657132 -0.717513 1.408173 0.033154 -0.027575 153778.000000 0 0 1
-26.845259 22.731702 4.464356 35.458830 -0.702615 1.444559 0.032134 -0.027353 -77968.600000 0 0 1
-26.329659 23.630002 3.305856 35.532472 -0.731414 1.477624 0.018521 -0.021227 309314.000000 0 0 1
-24.910149 23.575802 3.118656 34.439221 -0.757885 1.480117 0.018508 -0.021961 769864.000000 0 0 1
-24.633449 24.470102 2.104056 34.785338 -0.782072 1.510273 0.019317 -0.018151 -421205.000000 0 0 1
-23.314149 25.225702 2.205056 34.420166 -0.824759 1.506690 0.028494 -0.012761 -443835.000000 0 0 1
-23.059949 26.129402 1.125756 34.867954 -0.847718 1.538504 0.019575 -0.025258 -573023.000000 0 0 1
-21.723649 26.534902 1.112456 34.311157 -0.884767 1.538368 0.023305 -0.024967 -889611.000000 0 0 1
-21.311449 27.226202 -0.209144 34.575825 -0.906659 1.576845 0.031574 -0.017915 14874.700000 0 0 1
-21.163449 26.316502 -1.343944 33.797278 -0.893506 1.610572 0.032870 -0.017761 588779.000000 0 0 1
-19.995149 25.470602 -1.273344 32.406464 -0.905251 1.610099 0.029402 -0.022231 369792.000000 0 0 1
-19.727849 24.563702 -2.486444 31.602941 -0.894150 1.649555 0.037140 -0.027285 300441.000000 0 0 1
-20.795349 23.643902 -2.758344 31.608370 -0.849411 1.658174 0.027121 -0.028664 360384.000000 0 0 1
-20.368049 22.600002 -3.595144 30.635642 -0.837296 1.688419 0.032085 -0.018979 465642.000000 0 0 1
-21.496749 22.099702 -4.579944 31.168620 -0.799228 1.718271 0.029373 -0.015212 527608.000000 0 0 1
-21.729349 23.059102 -5.572044 32.170397 -0.815079 1.744878 0.016042 -0.012269 -951704.000000 0 0 1
-22.942949 22.738102 -6.137344 32.879586 -0.780914 1.758559 0.010091 -0.002966 -695975.000000 0 0 1
-23.096349 23.237602 -7.594744 33.631943 -0.788447 1.798580 0.004064 0.000476 -457307.000000 0 0 1
-22.337749 22.604302 -8.566944 32.913857 -0.791329 1.834112 0.003313 -0.002315 -71417.700000 0 0 1
-22.110749 23.485202 -9.627444 33.661960 -0.815533 1.860850 0.008481 -0.001704 -263079.000000 0 0 1
-21.523549 22.900602 -10.912344 33.268302 -0.816386 1.904993 0.016810 0.001493 -104336.000000 0 0 1
-22.423149 22.142702 -11.683444 33.609518 -0.779105 1.925831 -0.006580 -0.002473 297789.000000 0 0 1
-21.768649 21.642202 -12.860544 33.281414 -0.782485 1.967541 -0.006570 0.001148 -80234.200000 0 0 1
-22.721649 21.251302 -13.970944 34.103935 -0.751973 1.992875 -0.019336 -0.010214 -263658.000000 0 0 1
-23.459549 20.078902 -13.732044 33.794700 -0.707906 1.989238 -0.014473 0.003112 95291.500000 0 0 1
-24.546549 19.880502 -14.591844 34.794961 -0.680755 2.003544 -0.003781 -0.007306 118500.000000 0 0 1
-25.248689 18.509702 -14.573544 34.532499 -0.632594 2.006473 0.039847 -0.011486 -206282.000000 0 0 1
-24.574349 17.636102 -15.428544 33.955422 -0.622482 2.042468 0.035453 -0.014239 101874.000000 0 0 1
-25.325049 16.468102 -15.734744 34.060808 -0.576565 2.051001 0.045311 -0.033390 -478489.000000 0 0 1
-24.799349 15.746702 -16.966444 33.923834 -0.565733 2.094549 0.050201 -0.021900 720060.000000 0 0 1
-23.523749 15.118802 -16.749744 32.595994 -0.571229 2.110473 0.054244 -0.022625 634853.000000 0 0 1
-23.184349 14.359702 -17.872344 32.605762 -0.554541 2.150929 0.063832 -0.030546 -259820.000000 0 0 1
-22.283949 13.180902 -17.535844 31.270055 -0.534144 2.166132 0.071563 -0.025650 517554.000000 0 0 1
-20.975949 13.537502 -17.043644 30.228135 -0.573122 2.169817 0.066206 -0.030271 617100.000000 0 0 1
-20.305649 12.313402 -16.810444 29.095193 -0.545114 2.186795 0.060568 -0.029640 -673600.000000 0 0 1
-19.134649 12.520002 -15.862844 27.830110 -0.579399 2.177288 0.052558 -0.025706 -440491.000000 0 0 1
-18.103449 13.323002 -16.402744 27.826017 -0.634440 2.201205 0.041629 -0.015107 -239848.000000 0 0 1
-17.061749 13.458102 -15.480444 26.680853 -0.667867 2.189780 0.033921 -0.004175 -572421.000000 0 0 1
-16.224649 14.681802 -15.770944 26.972527 -0.735520 2.195311 0.008021 0.001108 -403769.000000 0 0 1
-15.528949 14.502302 -16.990244 27.205393 -0.751226 2.245310 0.030305 -0.000208 -26604.800000 0 0 1
-14.735649 15.613102 -17.354544 27.605950 -0.814302 2.250615 0.021780 0.005897 222197.000000 0 0 1
-13.912349 15.394602 -18.654544 27.902315 -0.835932 2.303075 0.021602 0.001259 864998.000000 0 0 1
-12.907449 14.363102 -18.652744 26.848199 -0.838726 2.338866 0.028465 0.001784 21757.200000 0 0 1
-12.116949 14.378202 -19.792244 27.299927 -0.870538 2.381820 0.039829 -0.001394 -79483.600000 0 0 1
-11.220949 13.131702 -19.883544 26.338310 -0.863700 2.426342 0.035777 -0.007508 -249043.000000 0 0 1
-11.821949 12.019602 -20.457744 26.509405 -0.793688 2.452332 0.041841 0.002321 -253585.000000 0 0 1
-11.103749 10.853502 -20.168644 25.453211 -0.774002 2.485499 0.027581 0.012341 -152516.000000 0 0 1
-11.572449 9.813002 -21.093744 25.983891 -0.703310 2.518026 0.035984 0.003412 58062.900000 0 0 1
-11.198149 10.082502 -22.440044 27.029816 -0.733021 2.550255 0.045714 -0.007414 -127611.000000 0 0 1
-11.616349 9.006602 -23.301444 27.550240 -0.659521 2.578822 0.038144 0.018806 128563.000000 0 0 1
-11.231749 9.180002 -24.748844 28.686754 -0.685217 2.611435 0.047168 -0.004603 338041.000000 0 0 1
-9.826849 9.119402 -25.023944 28.388875 -0.748076 2.649763 0.052311 -0.007546 330045.000000 0 0 1
-9.615549 8.551102 -26.326374 29.302868 -0.726872 2.686962 0.035628 -0.011172 -4324.770000 0 0 1
-9.432049 9.686602 -27.377574 30.534003 -0.798712 2.682886 0.058742 -0.014509 -602884.000000 0 0 1
-8.124149 10.169902 -27.376714 30.313580 -0.896762 2.697771 0.048209 -0.012570 -440544.000000 0 0 1
-7.980049 11.393302 -26.736214 30.138242 -0.959791 2.661862 0.034046 -0.016013 786763.000000 0 0 1
-6.469449 11.852402 -26.688974 29.910442 -1.071157 2.673203 0.030480 -0.008266 1017050.000000 0 0 1
-5.982849 12.073402 -27.990924 31.065307 -1.110723 2.692946 0.032467 -0.015549 800522.000000 0 0 1
-4.562549 12.261502 -28.066984 30.966383 -1.214567 2.705406 0.039687 -0.017290 822439.000000 0 0 1
-4.023649 12.537502 -29.532964 32.335347 -1.260251 2.722193 0.048192 -0.012435 368477.000000 0 0 1
-2.651949 12.902802 -29.449654 32.261389 -1.368086 2.720995 0.050167 -0.018818 184692.000000 0 0 1
-1.963049 12.665202 -30.665454 33.235989 -1.417024 2.745714 0.051113 -0.012857 58738.100000 0 0 1
-0.440249 12.583402 -30.489224 32.986794 -1.535824 2.749956 0.041393 -0.011845 -901622.000000 0 0 1
0.003651 11.574002 -29.634704 31.814669 1.570481 2.769254 0.028518 0.003542 818519.000000 0 0 1
1.410251 11.274702 -29.780154 31.874210 1.446362 2.777094 0.034853 0.000564 1154190.000000 0 0 1
1.807951 10.521302 -31.076884 32.859385 1.400621 2.810703 0.042985 -0.002643 -718911.000000 0 0 1
1.641051 11.321802 -32.232694 34.202672 1.426853 2.800539 0.042932 -0.011253 85809.500000 0 0 1
1.707651 10.482302 -33.400934 35.048782 1.409307 2.833732 0.047902 -0.012141 -77923.200000 0 0 1
1.759451 11.222402 34.105824 35.947812 1.415282 0.321510 0.046826 -0.021173 451675.000000 0 0 1
2.951551 12.012702 33.997398 36.177890 1.329866 0.348961 0.040226 -0.018047 402043.000000 0 0 1
2.849351 12.777702 32.803358 35.319240 1.351392 0.379723 0.050198 -0.016546 -328503.000000 0 0 1
4.220351 13.284102 32.371207 35.244485 1.263182 0.406587 0.066791 -0.009068 -697288.000000 0 0 1
5.113751 12.283102 32.063427 34.714383 1.176297 0.393337 0.051553 -0.012161 -52356.100000 0 0 1
6.311751 12.780302 31.452637 34.531763 1.112068 0.425501 0.063407 -0.003933 561477.000000 0 0 1
7.157151 11.574902 30.948277 33.808268 1.017005 0.414282 0.061238 -0.000248 367872.000000 0 0 1
6.540051 10.894002 29.823287 32.417279 1.030130 0.402764 0.044345 -0.003966 712245.000000 0 0 1
7.473951 9.913702 29.359447 31.876614 0.924803 0.400069 0.040375 -0.001598 462838.000000 0 0 1
6.994051 9.039102 28.193867 30.422298 0.912264 0.385129 0.029152 -0.001416 17887.000000 0 0 1
6.076151 8.040602 28.609537 30.332762 0.923668 0.338694 0.035267 -0.008516 -43418.700000 0 0 1
5.605051 7.316302 27.468237 28.973244 0.917068 0.323731 0.036428 -0.013589 -36960.600000 0 0 1
4.786551 6.097202 27.997907 29.051157 0.905244 0.270097 0.046934 -0.021773 -43094.100000 0 0 1
5.557251 5.095502 28.604467 29.581458 0.742080 0.257723 0.045519 -0.021741 -167230.000000 0 0 1
4.740651 4.349402 29.448177 30.142763 0.742383 0.215092 0.047689 -0.016688 -680371.000000 0 0 1
5.404551 3.132202 30.049857 30.692242 0.525246 0.204955 0.052516 -0.009764 -205992.000000 0 0 1
5.577951 1.915602 29.257797 29.846302 0.330804 0.198912 0.051461 -0.015655 146321.000000 0 0 1
6.754151 1.959602 28.476097 29.331667 0.282380 0.242123 0.064925 -0.017788 -279101.000000 0 0 1
6.954651 0.630002 27.826557 28.689394 0.090341 0.245874 0.063537 -0.017503 -237624.000000 0 0 1
7.254551 -0.424898 28.681037 29.587344 -0.058503 0.248150 0.044093 -0.005073 108623.000000 0 0 1
7.438651 -1.516298 27.802137 28.819984 -0.201086 0.266561 0.054024 0.000451 -170127.000000 0 0 1
8.064051 -2.719498 28.559547 29.800542 -0.325260 0.289605 0.040916 0.010663 513388.000000 0 0 1
9.454951 -2.454898 28.743287 30.357852 -0.254032 0.327605 0.035625 -0.001612 85664.700000 0 0 1
10.178851 -3.631198 29.004357 30.952339 -0.342666 0.356669 0.034120 -0.000225 922213.000000 0 0 1
11.755851 -3.475498 29.051197 31.531748 -0.287452 0.399304 0.029574 0.002211 1651960.000000 0 0 1
12.488951 -4.632098 28.557097 31.510919 -0.355168 0.436445 0.032351 -0.001381 468345.000000 0 0 1
12.469751 -5.802398 29.366407 32.427586 -0.435519 0.438005 0.041881 -0.000949 -814045.000000 0 0 1
11.699451 -6.981098 28.749987 31.814692 -0.537992 0.442532 0.055478 -0.002073 -1083280.000000 0 0 1
10.322051 -6.866798 28.756797 31.315348 -0.587025 0.407039 0.049240 0.000832 -915909.000000 0 0 1
9.724751 -8.142198 28.386087 31.090772 -0.697054 0.420201 0.046823 -0.005386 526699.000000 0 0 1
8.183051 -8.081598 28.265357 30.515651 -0.779161 0.386437 0.047248 -0.002103 58148.600000 0 0 1
7.566451 -7.673198 29.458407 31.367609 -0.792403 0.350694 0.048873 0.004430 -464092.000000 0 0 1
6.200351 -7.485698 29.168787 30.745701 -0.879040 0.321663 0.038327 0.014221 -528371.000000 0 0 1
5.449151 -6.896598 30.324087 31.572243 -0.902108 0.282123 0.030178 0.004888 -412118.000000 0 0 1
5.453751 -7.740598 31.477497 32.870854 -0.957013 0.292205 0.031892 -0.004154 -179725.000000 0 0 1
4.899351 -7.082298 32.615627 33.733391 -0.965612 0.258147 0.031345 0.004508 -142451.000000 0 0 1
5.543451 -5.859898 33.365253 34.326496 -0.813141 0.237211 0.042592 0.014005 -141311.000000 0 0 1
5.559751 -4.722498 32.580847 33.387489 -0.704150 0.220263 0.043362 0.008333 -35843.900000 0 0 1
6.393951 -3.738798 33.153627 33.970931 -0.529123 0.219800 0.039644 0.009556 -155469.000000 0 0 1
6.440551 -2.408298 32.357697 33.080223 -0.357830 0.209388 0.040768 0.007235 -162867.000000 0 0 1
5.205351 -1.737598 32.357137 32.819190 -0.322180 0.167999 0.055068 0.003457 -194280.000000 0 0 1
5.254751 -0.525498 31.689647 32.126660 -0.099673 0.165129 0.053158 -0.003691 659900.000000 0 0 1
3.879551 0.078302 31.181487 31.422001 0.020180 0.123807 0.059082 -0.005940 1024280.000000 0 0 1
2.949751 0.242002 32.248557 32.384086 0.081858 0.091520 0.050239 -0.001951 340893.000000 0 0 1
1.896951 1.176702 32.010737 32.088476 0.555221 0.069622 0.049279 -0.005872 -80971.600000 0 0 1
0.821951 1.211402 33.054922 33.087323 0.974637 0.044259 0.040718 -0.007041 -489402.000000 0 0 1
1.313451 1.835502 34.258496 34.332765 0.949689 0.065787 0.038301 -0.002176 185876.000000 0 0 1
0.401651 1.744602 -33.484694 33.532517 1.344514 3.088179 0.028097 -0.006336 -169792.000000 0 0 1
0.635051 2.800302 -32.389624 32.516653 1.347789 3.053172 0.035024 -0.003681 -461065.000000 0 0 1
1.798651 2.582402 -31.665934 31.821931 0.962421 3.042535 0.023817 -0.002503 -724862.000000 0 0 1
2.293451 3.788002 -31.203904 31.516543 1.026378 3.000623 0.023919 0.004495 -323716.000000 0 0 1
3.506551 3.656502 -30.279544 30.700434 0.806329 2.975815 0.023426 0.005345 -255699.000000 0 0 1
3.144851 2.901602 -29.149474 29.461860 0.745190 2.995840 0.025732 0.005671 -84239.800000 0 0 1
4.209251 2.763702 -28.241814 28.687208 0.580986 2.965149 0.037410 -0.004665 -172771.000000 0 0 1
3.818551 2.082102 -26.934054 27.282957 0.499196 2.981495 0.032001 -0.008935 11071.000000 0 0 1
3.962551 0.709802 -26.985084 27.283702 0.177248 2.993505 0.042955 -0.010527 -62351.500000 0 0 1
3.369051 0.174002 -25.839834 26.059121 0.051601 3.011771 0.053165 -0.016342 -211251.000000 0 0 1
3.788151 -1.268698 -25.595884 25.905771 -0.323171 2.986764 0.055580 -0.017320 -37271.800000 0 0 1
5.094451 -1.414198 -25.101314 25.652083 -0.270778 2.933997 0.051693 -0.022395 -228436.000000 0 0 1
5.477851 -2.790198 -25.100914 25.842754 -0.471108 2.901408 0.052866 -0.023102 560571.000000 0 0 1
6.885051 -3.158598 -24.521444 25.664798 -0.430116 2.841979 0.051188 -0.027082 1439170.000000 0 0 1
7.999551 -2.639898 -25.244264 26.612680 -0.318753 2.819517 0.046635 -0.020010 -512819.000000 0 0 1
9.246651 -3.138298 -24.927944 26.772222 -0.327199 2.768247 0.040488 -0.020581 -310436.000000 0 0 1
-28.849679 -4.048298 17.825457 34.153178 0.139414 1.021688 0.057815 -0.021748 -452077.000000 0 0 1
-30.219849 -3.890098 18.013257 35.395615 0.128023 1.036876 0.046288 -0.006902 -724554.000000 0 0 1
-30.771789 -4.842798 18.878257 36.424501 0.156098 1.025952 0.043005 -0.014787 387500.000000 0 0 1
-32.291069 -4.694898 19.126157 37.822811 0.144381 1.040629 0.040628 -0.015538 223330.000000 0 0 1
-33.177569 -4.724398 18.034557 38.056750 0.141446 1.077098 0.028795 -0.015406 -489577.000000 0 0 1
-34.490313 -4.784998 18.510057 39.434757 0.137855 1.082203 0.011885 -0.005427 -497270.000000 0 0 1
-35.493907 -4.928898 17.330457 39.805228 0.137984 1.120334 0.000755 -0.004993 98373.500000 0 0 1
34.448215 -5.062298 17.805257 39.106694 -0.145910 1.098088 0.006687 -0.005668 -256790.000000 0 0 1
33.494815 -5.054198 16.778857 37.801819 -0.149765 1.110890 0.004061 -0.010506 211704.000000 0 0 1
32.056325 -5.451498 17.180457 36.776281 -0.168448 1.084719 0.011867 -0.003394 -144078.000000 0 0 1
31.477235 -4.629298 18.130857 36.619321 -0.146021 1.052827 0.024964 -0.007609 28779.300000 0 0 1
30.355105 -5.311998 18.660157 36.025701 -0.173241 1.026323 0.040176 -0.010770 -57625.500000 0 0 1
29.856505 -4.667898 19.967457 36.220153 -0.155089 0.986898 0.037150 -0.012138 -141261.000000 0 0 1
28.935975 -3.603798 19.885857 35.294834 -0.123906 0.972275 0.040218 -0.012677 637702.000000 0 0 1
29.606515 -2.335998 19.646357 35.608734 -0.078738 0.986361 0.040832 -0.011756 38833.700000 0 0 1
28.586735 -1.186298 19.865157 34.831496 -0.041474 0.963899 0.028313 -0.003741 -65660.700000 0 0 1
29.092845 0.114202 19.660257 35.113136 0.003925 0.976517 0.025842 -0.008134 -46880.000000 0 0 1
28.089015 1.071802 19.909357 34.445957 0.038139 0.954535 0.021720 -0.013108 -50350.700000 0 0 1
28.415415 2.482602 19.402857 34.497390 0.087147 0.973457 0.017528 -0.011277 -163407.000000 0 0 1
28.398165 2.403202 18.004057 33.710194 0.084424 1.007373 0.003761 -0.011198 135171.000000 0 0 1
28.499485 3.635702 17.371757 33.574051 0.126885 1.026968 -0.005586 -0.006308 29482.100000 0 0 1
28.487085 3.392002 15.827857 32.764931 0.118514 1.066635 -0.003257 -0.012608 -129890.000000 0 0 1
28.500535 4.582802 15.083357 32.569774 0.159432 1.089296 -0.014329 -0.004190 397500.000000 0 0 1
27.826625 4.380502 13.832257 31.382179 0.156140 1.114342 0.006571 -0.002562 -145030.000000 0 0 1
27.262175 5.691202 13.188757 30.814919 0.205803 1.128519 0.006866 -0.004988 228039.000000 0 0 1
26.094035 6.246002 13.777157 30.161585 0.234945 1.096426 0.010732 -0.007746 255655.000000 0 0 1
25.749435 7.408802 13.039157 29.798378 0.280159 1.117891 0.020957 -0.020891 178317.000000 0 0 1
24.511935 8.114402 13.707357 29.233031 0.319684 1.082752 0.022199 -0.027588 781681.000000 0 0 1
23.186935 7.636902 13.673157 27.980554 0.318172 1.060236 0.021953 -0.014117 703070.000000 0 0 1
22.960135 6.495002 14.475957 27.908890 0.275679 1.025483 0.028415 -0.011370 -145833.000000 0 0 1
21.542335 5.927602 14.140557 26.441709 0.268516 1.006546 0.051450 -0.008834 213580.000000 0 0 1
21.495235 5.544502 12.795157 25.622307 0.252438 1.047918 0.073204 -0.010758 816837.000000 0 0 1
20.525835 4.494502 12.717357 24.560977 0.215566 1.026534 0.089454 -0.008280 -69284.400000 0 1 0
19.947535 4.324302 11.313657 23.336721 0.213480 1.064661 0.080955 -0.008063 -738045.000000 0 1 0
20.833835 3.792002 10.370257 23.579020 0.180041 1.115411 0.081109 -0.019430 165794.000000 0 1 0
20.333135 3.598502 9.079257 22.557005 0.175163 1.156547 0.080348 -0.018864 -819453.000000 0 1 0
21.304935 2.871402 8.183557 23.002517 0.133969 1.207061 0.064610 -0.012051 -1158500.000000 0 1 0
21.725835 1.641102 8.729057 23.471292 0.075394 1.189738 0.066224 -0.007928 713490.000000 0 1 0
22.494135 0.913902 7.763557 23.813738 0.040606 1.238715 0.054437 -0.003564 1126530.000000 0 1 0
24.071535 1.079702 7.852157 25.342867 0.044824 1.255775 0.052481 -0.000952 1100560.000000 0 0 1
24.753335 0.449402 8.945357 26.323923 0.018153 1.224072 0.032261 0.001060 598416.000000 0 0 1
24.614135 1.265602 10.164157 26.660222 0.051372 1.179650 0.036826 -0.003520 -965428.000000 0 0 1
25.239535 0.690902 11.422057 27.712359 0.027367 1.145968 0.019123 -0.001757 -587625.000000 0 0 1
26.642755 0.637802 11.293057 28.944365 0.023934 1.169986 0.010901 -0.004560 -70306.800000 0 0 1
27.166565 0.004802 12.422157 29.871930 0.000177 1.141922 0.016293 -0.009206 -408649.000000 0 0 1
28.693245 0.088102 12.545757 31.316227 0.003070 1.158608 0.031028 -0.011300 21726.200000 0 0 1
29.309625 1.314902 12.943857 32.067530 0.044832 1.155300 0.023544 -0.010466 -214618.000000 0 0 1
30.697535 1.203302 13.014257 33.364014 0.039179 1.170090 0.016487 -0.006778 -622774.000000 0 0 1
31.400105 2.519802 13.309957 34.197528 0.080077 1.171025 0.011426 -0.009974 -566462.000000 0 0 1
31.264555 3.480402 12.265557 33.764322 0.110865 1.199021 0.016196 -0.019487 184377.000000 0 0 1
31.935845 4.694402 12.520857 34.622354 0.145950 1.200769 0.012987 -0.017904 607994.000000 0 0 1
33.410465 4.732302 11.996057 35.812836 0.140705 1.229228 0.014618 -0.015321 387529.000000 0 0 1
34.274945 3.835602 12.670557 36.742709 0.111443 1.218722 0.015785 -0.016506 419264.000000 0 0 1
35.602284 3.958402 12.185857 37.837635 0.110729 1.242895 0.011620 -0.011354 824124.000000 0 0 1
-34.536051 3.037002 12.813257 36.961355 -0.087712 1.216782 0.026899 -0.003196 70161.900000 0 0 1
-34.442171 1.680002 12.452357 36.662607 -0.048739 1.224254 0.008816 -0.001537 133793.000000 0 0 1
-35.556270 0.847502 12.764557 37.787571 -0.023831 1.226220 0.026390 -0.001541 141968.000000 0 0 1
35.303684 0.702302 14.271757 38.085776 0.019891 1.186694 0.021766 0.001543 -256707.000000 0 0 1
-35.100995 -0.133398 15.029157 38.183415 0.003800 1.166247 0.025840 -0.002378 254047.000000 0 0 1
-35.543679 -0.331698 16.360857 39.129794 0.009332 1.139424 0.032853 -0.007437 326502.000000 0 0 1
-34.443575 -1.135598 17.145857 38.491945 0.032958 1.109131 0.027883 -0.010469 742144.000000 0 0 1
-33.175929 -0.473798 17.241957 37.391868 0.014280 1.091545 0.038989 -0.005191 657968.000000 0 0 1
-32.286179 -1.233798 18.082057 37.025402 0.038196 1.060577 0.050714 -0.011274 233855.000000 0 0 1
-32.492159 -1.095098 19.630757 37.977707 0.033691 1.027568 0.048980 -0.013355 -50384.500000 0 0 1
-33.731339 -1.513098 20.204157 39.348451 0.044827 1.031575 0.039743 -0.019714 412935.000000 0 0 1
-33.707939 -1.297498 21.606557 40.059355 0.038473 1.001115 0.039067 -0.018690 25085.700000 0 0 1
-34.283238 -2.485398 22.346757 40.998721 0.072369 0.994336 0.023587 -0.013582 -146256.000000 0 0 1
-33.391819 -3.568998 22.404057 40.369457 0.106478 0.982463 0.033202 -0.016254 88720.900000 0 0 1
-33.958069 -4.745998 22.956757 41.263636 0.138861 0.980817 0.019393 -0.006924 -78504.800000 0 0 1
-34.006759 -4.714098 24.526917 42.193033 0.137745 0.950468 0.014835 -0.015888 -729966.000000 0 0 1
-32.763519 -4.764898 25.120867 41.559720 0.144421 0.921718 0.023602 -0.020515 -1039340.000000 0 0 1
-32.906209 -4.613398 26.461407 42.477148 0.139291 0.898280 0.016928 -0.016769 525230.000000 0 0 1
-31.780059 -3.691998 27.062397 41.904371 0.115655 0.868708 0.016240 -0.012666 150621.000000 0 0 1
-31.835059 -2.312298 26.750837 41.646428 0.072506 0.873259 0.014901 -0.009601 -47212.300000 0 0 1
-31.285399 -1.965498 25.458437 40.382810 0.062742 0.888692 0.022856 -0.013809 -193789.000000 0 0 1
-31.166239 -0.395498 25.293587 40.140458 0.012689 0.889080 0.023988 -0.011309 -823626.000000 0 0 1
-32.349359 0.310502 25.316997 41.079530 -0.009598 0.906770 0.036486 -0.016066 -1129180.000000 0 0 1
-32.207329 1.650202 24.958527 40.779446 -0.051192 0.912163 0.035259 -0.013346 304036.000000 0 0 1
-33.514089 2.318502 24.423287 41.533920 -0.069070 0.942172 0.045173 -0.006992 291323.000000 0 0 1
-34.112894 1.679902 23.298157 41.343871 -0.049206 0.972154 0.050371 -0.006201 453426.000000 0 0 1
-35.383304 2.165702 22.866057 42.184417 -0.061131 0.997922 0.040756 0.001539 642908.000000 0 0 1
-35.313349 3.550002 22.249257 41.888716 -0.100192 1.010837 0.039590 0.002776 -425384.000000 0 0 1
-34.559442 3.565302 21.062357 40.628675 -0.102801 1.025804 0.054072 -0.008273 246301.000000 0 0 1
-35.384489 3.472802 19.894957 40.742259 -0.097831 1.060641 0.045285 -0.011383 274545.000000 0 0 1
-34.646233 2.701702 18.756257 39.489971 -0.077822 1.075875 0.049329 -0.007846 96907.600000 0 0 1
-33.631809 3.434802 18.118557 38.355945 -0.101777 1.078808 0.052580 -0.001361 -180734.000000 0 0 1
-33.095739 2.672002 17.073757 37.336051 -0.080561 1.095840 0.046356 0.003041 -76993.300000 0 0 1
-32.182609 3.514002 16.129957 36.169656 -0.108759 1.108558 0.047402 0.005785 -56304.000000 0 0 1
-32.853879 4.577302 15.471957 36.602056 -0.138432 1.134366 0.055253 -0.004171 124584.000000 0 0 1
-32.042479 5.418302 14.594257 35.624020 -0.167513 1.148699 0.049212 -0.002638 -193379.000000 0 0 1
-32.620099 6.823502 14.190357 36.221502 -0.206208 1.168246 0.050659 -0.020758 -315925.000000 0 0 1
-31.913189 7.478602 13.164557 35.322608 -0.230188 1.188885 0.058823 -0.016293 61346.100000 0 0 1
-32.213799 8.832302 13.107057 35.882215 -0.267601 1.196863 0.047891 -0.022819 -476361.000000 0 0 1
-31.467829 9.560202 11.979657 35.001912 -0.294947 1.221478 0.053353 -0.020781 -111515.000000 0 0 1
-31.862799 10.885102 11.643757 35.627243 -0.329194 1.237858 0.045963 -0.014393 -204292.000000 0 0 1
-30.968569 11.448002 10.745157 34.721281 -0.354085 1.256162 0.053780 -0.021762 -541997.000000 0 0 1
-31.124239 12.960902 10.597857 35.341446 -0.394585 1.266239 0.051453 -0.015210 387142.000000 0 0 1
-30.227119 13.463002 9.590557 34.451559 -0.419018 1.288691 0.058802 -0.019557 465637.000000 0 0 1
-30.458039 14.833902 9.381357 35.153188 -0.453216 1.300652 0.052490 -0.016868 655851.000000 0 0 1
-29.423709 15.535002 8.362457 34.307748 -0.485777 1.324567 0.060892 -0.020159 -214335.000000 0 0 1
-28.137119 15.631402 8.846857 33.381208 -0.507090 1.302566 0.066682 -0.011023 -859179.000000 0 0 1
-27.403629 16.608402 8.118857 33.056220 -0.544868 1.322650 0.047691 -0.025188 965856.000000 0 0 1
-25.911069 16.717002 8.661757 32.029169 -0.572971 1.296953 0.051804 -0.015881 944834.000000 0 0 1
-25.779299 17.235402 9.954957 32.568888 -0.589323 1.260166 0.054629 -0.016800 169056.000000 0 0 1
-26.042869 18.602502 10.082657 33.555090 -0.620261 1.265600 0.047715 -0.022086 -362902.000000 0 0 1
-26.041879 19.042202 11.544057 34.264415 -0.631370 1.227162 0.050311 -0.010562 -815397.000000 0 0 1
-24.813849 19.142402 12.174357 33.621029 -0.657082 1.200271 0.045845 -0.006435 -551301.000000 0 0 1
-24.872749 19.562302 13.540057 34.419041 -0.666452 1.166482 0.052215 -0.013492 -244528.000000 0 0 1
-25.400309 18.533102 14.545457 34.644218 -0.630343 1.137514 0.036707 -0.005481 98629.400000 0 0 1
-24.565949 17.397502 14.759657 33.526204 -0.616205 1.114928 0.051360 -0.011379 584213.000000 0 0 1
-25.128749 16.700102 15.867157 34.089794 -0.586558 1.086651 0.049851 -0.005735 -438673.000000 0 0 1
-24.159049 15.606802 16.312857 33.065710 -0.573560 1.054863 0.053912 -0.004946 127077.000000 0 0 1
-22.997149 16.234802 16.872257 32.819364 -0.614707 1.030845 0.046331 -0.007555 711565.000000 0 0 1
-21.866449 15.366802 17.038157 31.695094 -0.612574 1.003250 0.040043 -0.021077 526953.000000 0 0 1
-21.974549 14.092602 17.994357 31.706136 -0.570245 0.967287 0.046160 -0.011283 -601653.000000 0 0 1
-22.201949 14.401802 19.347457 32.782045 -0.575442 0.939509 0.039018 -0.001641 157180.000000 0 0 1
-22.512049 13.300402 20.151257 33.011607 -0.533637 0.914194 0.033523 -0.007890 -583001.000000 0 0 1
-22.348149 13.527502 21.677857 33.946466 -0.544313 0.878132 0.016595 -0.000974 584374.000000 0 0 1
-20.973649 13.739702 22.008857 33.362601 -0.579948 0.850395 0.018298 0.004400 545524.000000 0 0 1
-20.511549 15.070802 21.940957 33.604438 -0.633668 0.859365 0.022027 0.012616 -906914.000000 0 0 1
-19.161949 15.240402 22.693557 33.383344 -0.671897 0.823324 0.031081 0.000251 932926.000000 0 0 1
-18.026249 14.832802 21.915357 32.019377 -0.688516 0.816960 0.024845 -0.008315 172350.000000 0 0 1
-17.663649 15.782602 20.947257 31.620920 -0.729216 0.846713 0.029595 -0.004244 -1976820.000000 0 0 1
-16.497749 15.332302 19.984457 30.110359 -0.748800 0.845032 0.022509 0.001650 1009910.000000 0 0 1
-15.289949 15.011502 20.658257 29.763926 -0.776209 0.803669 0.024407 0.004868 241261.000000 0 0 1
-14.711449 16.081102 21.441557 30.573991 -0.829849 0.793576 0.021926 0.000203 -1653710.000000 0 0 1
-13.710249 15.532702 22.449257 30.548402 -0.847639 0.745314 0.020245 -0.009003 -367892.000000 0 0 1
-12.510449 15.047302 21.884757 29.357711 -0.877195 0.729584 -0.000600 0.011203 -7659.430000 0 0 1
-11.677749 14.517902 22.921557 29.538738 -0.893397 0.682524 0.017559 0.000703 844758.000000 0 0 1
-10.314649 13.912902 22.444457 28.349858 -0.932839 0.657217 0.004869 0.004031 28573.500000 0 0 1
-9.801749 12.911102 23.355957 28.430117 -0.921451 0.606722 0.010401 0.004321 1667680.000000 0 0 1
-8.632449 12.159202 22.841557 27.278234 -0.953422 0.578370 0.006700 0.019868 1994830.000000 0 0 1
-7.268049 12.907002 22.787157 27.178479 -1.057944 0.576407 0.014173 0.017354 -767612.000000 0 0 1
-7.061649 13.657002 21.606557 26.518368 -1.093585 0.618452 0.003868 0.008714 -81123.400000 0 0 1
-6.239249 14.820402 21.711457 27.017770 -1.172327 0.637478 0.028911 0.002574 -221142.000000 0 0 1
-6.834449 15.974202 22.543857 28.462436 -1.166520 0.656626 0.030437 -0.002199 153700.000000 0 0 1
-7.932949 16.678902 21.973157 28.704304 -1.126836 0.698978 -0.000284 -0.005598 325157.000000 0 0 1
-7.464049 17.611702 20.982757 28.392959 -1.169932 0.739193 0.014734 0.002166 -489230.000000 0 0 1
-8.571649 17.880702 19.956457 28.132771 -1.123780 0.782197 0.011033 0.005220 1053210.000000 0 0 1
-9.757349 18.614302 20.255457 29.188724 -1.087988 0.803839 -0.003291 0.013100 858878.000000 0 0 1
-10.696449 18.065902 21.203857 29.839476 -1.036221 0.780449 0.002081 0.000954 55481.500000 0 0 1
-11.969949 18.931902 21.307257 30.914329 -1.006991 0.810363 0.008163 -0.002657 -182150.000000 0 0 1
-12.767349 18.837702 20.162957 30.404095 -0.975156 0.845756 0.004690 0.002659 109161.000000 0 0 1
-13.959349 19.607402 20.315457 31.496530 -0.952100 0.869765 0.013012 -0.007069 606321.000000 0 0 1
-14.869149 19.635902 19.047457 31.136246 -0.922676 0.912531 0.018274 -0.001647 -23414.000000 0 0 1
-15.561049 18.452802 18.685357 30.525312 -0.870211 0.912049 0.024824 0.005998 207516.000000 0 0 1
-16.197749 18.642602 17.411157 30.216916 -0.855456 0.956718 0.036222 -0.000578 -1140770.000000 0 0 1
-16.994549 17.381002 17.081657 29.710215 -0.796640 0.958263 0.032909 -0.006391 812965.000000 0 0 1
-18.160049 17.020902 17.843057 30.624714 -0.753030 0.948828 0.034653 -0.001593 858314.000000 0 0 1
-19.174549 18.015502 17.987657 31.871263 -0.754243 0.971108 0.045119 -0.005694 -579454.000000 0 0 1
33.900145 -9.609298 11.571356 37.087123 -0.276213 1.253494 -0.012175 -0.005015 -293670.000000 0 0 1
32.607365 -10.115898 11.790856 36.119190 -0.300819 1.238258 -0.007000 -0.000664 249914.000000 0 0 1
32.783385 -11.416798 12.340156 36.842544 -0.335115 1.229251 -0.005626 -0.006294 728932.000000 0 0 1
31.393915 -12.160398 12.384956 35.872556 -0.369553 1.218292 0.038017 -0.000773 694222.000000 0 0 1
30.536235 -11.599998 13.368856 35.295154 -0.363039 1.182326 0.034221 0.011699 -612871.000000 0 0 1
29.235105 -11.943298 13.005956 34.153896 -0.387835 1.180130 0.046754 0.001598 -32648.000000 0 0 1
28.351375 -12.523698 14.205956 34.094760 -0.415957 1.141027 0.058907 -0.008750 4946.620000 0 0 1
28.124965 -11.562398 15.220556 34.005412 -0.390045 1.106725 0.063328 -0.016224 88645.700000 0 0 1
27.314995 -12.123098 16.240256 34.012121 -0.417708 1.073007 0.062172 -0.020243 657573.000000 0 0 1
25.775235 -11.958398 16.070356 32.643872 -0.434393 1.056074 0.059092 -0.027152 284598.000000 0 0 1
25.242235 -10.647598 16.307356 31.882152 -0.399171 1.033880 0.054093 -0.022130 22614.900000 0 0 1
24.803335 -10.008298 15.153956 30.741077 -0.383525 1.055314 0.060835 -0.026007 -631543.000000 0 0 1
24.573135 -8.503498 15.435756 30.239229 -0.333150 1.035083 0.076039 -0.023094 -498776.000000 0 0 1
25.730735 -7.741598 15.563356 31.051910 -0.292254 1.045806 0.060111 -0.007027 -561647.000000 0 0 1
25.594135 -6.650898 16.441656 31.138758 -0.254237 1.014538 0.066862 -0.013038 283510.000000 0 0 1
26.834805 -5.713698 16.406456 31.967560 -0.209788 1.031862 0.058100 -0.013580 351905.000000 0 0 1
27.074635 -5.044598 15.164256 31.439441 -0.184210 1.067481 0.067179 -0.009532 63557.300000 0 0 1
28.361985 -4.469798 15.270056 32.520084 -0.156313 1.082007 0.048683 -0.016490 119985.000000 0 0 1
28.821525 -3.702898 13.999856 32.255042 -0.127777 1.121828 0.046470 -0.009407 -110663.000000 0 0 1
29.019625 -4.449198 12.870056 32.055769 -0.152132 1.157654 0.030803 -0.005049 282823.000000 0 0 1
29.308805 -3.662598 11.698956 31.769265 -0.124321 1.193673 0.026703 -0.007538 12266.500000 0 0 1
29.595485 -4.483798 10.401156 31.688818 -0.150359 1.236369 0.034856 -0.005168 587550.000000 0 0 1
30.874675 -5.128298 10.510356 33.015338 -0.164598 1.246810 0.035802 -0.006504 673420.000000 0 0 1
31.106105 -6.006398 9.411756 33.049171 -0.190746 1.282019 0.039628 -0.005215 426795.000000 0 0 1
32.498615 -6.710698 9.416856 34.494501 -0.203630 1.294291 0.020739 -0.006944 1090060.000000 0 0 1
33.630895 -5.816998 9.388656 35.398042 -0.171271 1.302353 0.021048 -0.006026 1134290.000000 0 0 1
34.865245 -6.483398 9.068956 36.604176 -0.183856 1.320432 0.027811 -0.012204 1829270.000000 0 0 1
-35.220288 -5.464598 8.702656 36.688782 0.153928 1.331312 0.038524 -0.011500 872481.000000 0 0 1
-35.335493 -4.956498 7.383056 36.437254 0.139360 1.366760 0.044349 -0.012698 7079.400000 0 0 1
-34.217900 -4.125898 7.188556 35.207429 0.119998 1.365173 0.048219 -0.004398 -150346.000000 0 0 1
-34.203122 -3.388398 5.817056 34.859331 0.098745 1.403140 0.054916 -0.008185 -233770.000000 0 0 1
-33.664749 -4.098298 4.716556 34.239703 0.121142 1.432606 0.059991 -0.014830 109033.000000 0 0 1
-33.745559 -3.386298 3.507056 34.095882 0.100013 1.467755 0.060560 -0.015273 51840.400000 0 0 1
-32.893759 -3.953498 2.343556 33.213277 0.119616 1.500177 0.068735 -0.015224 -157469.000000 0 0 1
-33.455599 -5.163798 1.816856 33.900485 0.153139 1.517177 0.068926 -0.010956 144903.000000 0 0 1
-34.525808 -4.941798 0.919956 34.889814 0.142168 1.544426 0.053765 -0.011140 -56620.000000 0 0 1
-34.011829 -4.877298 -0.569044 34.364464 0.142429 1.587356 0.071171 -0.011714 -1027580.000000 0 0 1
-33.780739 -6.217198 -1.046944 34.364050 0.182009 1.601267 0.067511 -0.020355 -197600.000000 0 0 1
-32.930319 -6.304798 -2.137744 33.596523 0.189170 1.634469 0.066497 -0.021218 -32492.000000 0 0 1
-31.451399 -5.963798 -1.812144 32.063082 0.187395 1.627345 0.076050 -0.025348 -777386.000000 0 0 1
-30.810459 -6.987998 -1.143544 31.613671 0.223033 1.606977 0.086005 -0.020938 -636136.000000 0 0 1
-29.625079 -6.602198 -0.512944 30.356176 0.219275 1.587695 0.056812 -0.025235 -642239.000000 0 0 1
-28.954619 -7.646998 0.342056 29.949350 0.258207 1.559375 0.030873 -0.019586 -509831.000000 0 0 1
-28.611099 -8.827998 -0.309544 29.943686 0.299284 1.581134 0.027423 -0.013515 505892.000000 0 0 1
-28.279199 -9.822498 0.655956 29.943695 0.334303 1.548888 0.031920 -0.007876 -276641.000000 0 0 1
-27.972929 -11.171998 0.050356 30.121435 0.379977 1.569125 0.018602 -0.006497 -213493.000000 0 0 1
-26.796539 -11.195898 -0.728444 29.050530 0.395766 1.595874 0.022161 -0.007877 46437.400000 0 0 1
-26.500249 -12.473598 -1.353744 29.320410 0.439932 1.616983 0.023076 0.001839 -219789.000000 0 0 1
-27.503129 -13.154298 -2.327344 30.575712 0.446124 1.646987 0.018572 -0.000804 -383184.000000 0 0 1
-28.484359 -13.946298 -1.752344 31.763637 0.455303 1.625993 0.027376 -0.007323 -169210.000000 0 0 1
-29.094269 -14.917398 -2.573844 32.796798 0.473777 1.649356 0.028160 -0.010511 103629.000000 0 0 1
-29.883679 -15.997398 -1.800244 33.943952 0.491505 1.623857 0.029909 -0.010214 -325055.000000 0 0 1
-29.066279 -16.468698 -0.797044 33.417090 0.515492 1.594650 0.007611 0.000163 -186691.000000 0 0 1
-29.760239 -17.308998 0.098056 34.427937 0.526791 1.567948 0.019713 0.004020 -135542.000000 0 0 1
-29.827439 -18.780398 -0.314444 35.248806 0.561925 1.579717 0.023938 0.000331 310383.000000 0 0 1
-28.666079 -19.573198 -0.073844 34.711088 0.599089 1.572924 0.027169 -0.009537 442053.000000 0 0 1
-28.954739 -20.966398 -0.079644 35.748750 0.626724 1.573024 0.043053 -0.010675 340470.000000 0 0 1
-29.872559 -21.587798 1.029456 36.870891 0.625775 1.542872 0.053166 -0.010346 -60513.900000 0 0 1
-29.249239 -21.679298 2.263256 36.477833 0.637840 1.508712 0.052812 -0.014315 -313578.000000 0 0 1
-30.092189 -22.265098 3.220756 37.571901 0.637003 1.484969 0.062989 -0.018596 -154327.000000 0 0 1
-29.462739 -22.407898 4.607456 37.301415 0.650219 1.446960 0.046335 -0.017883 -199250.000000 0 0 1
-29.158639 -21.157798 5.161956 36.394017 0.627708 1.428481 0.034357 -0.016975 3733.970000 0 0 1
-28.358839 -21.346698 6.322456 36.053831 0.645249 1.394523 0.029604 -0.019294 289392.000000 0 0 1
-28.223219 -20.044998 7.127556 35.343374 0.617559 1.367738 0.021504 -0.009381 379226.000000 0 0 1
-27.214169 -20.231098 8.112456 34.867181 0.639266 1.335977 0.013724 -0.012942 -93506.300000 0 0 1
-26.862689 -18.965498 8.685656 34.010804 0.614752 1.312556 0.018696 -0.011649 109926.000000 0 0 1
-25.800659 -19.115098 9.806956 33.574356 0.637636 1.274378 0.015647 -0.006476 -127136.000000 0 0 1
-26.091859 -19.942498 10.921556 34.608796 0.652602 1.249737 0.015570 0.000341 -137058.000000 0 0 1
-25.012549 -20.056098 11.845956 34.178961 0.675863 1.216867 0.019716 0.006178 193807.000000 0 0 1
-24.704549 -18.776698 12.718656 33.535703 0.649902 1.181803 0.010276 0.000448 -256407.000000 0 0 1
-24.132449 -17.696198 11.971756 32.231250 0.632724 1.190244 0.012732 -0.006980 62799.600000 0 0 1
-23.962249 -16.417398 12.568356 31.649391 0.600680 1.162428 0.007232 -0.000425 -31478.200000 0 0 1
-23.015449 -16.343098 13.769956 31.407315 0.617467 1.116944 0.026095 0.007025 -278081.000000 0 0 1
-23.565049 -16.947398 14.939656 32.645354 0.623480 1.095463 0.007004 -0.008843 -70100.900000 0 0 1
-22.550949 -17.104698 15.925456 32.476702 0.648913 1.058287 0.024344 -0.008919 -552994.000000 0 0 1
-23.063749 -17.880098 17.122356 33.835034 0.659464 1.040193 0.014365 0.013399 29486.400000 0 0 1
-24.101449 -17.200098 17.814556 34.555486 0.619831 1.029165 0.008492 0.008327 -355523.000000 0 0 1
-24.726549 -18.121698 18.598756 35.856825 0.632457 1.025472 -0.003637 0.009255 -340095.000000 0 0 1
-25.857529 -17.569898 19.531956 36.862046 0.596827 1.012353 0.003995 0.006186 -94277.900000 0 0 1
-25.394809 -16.780998 20.587256 36.746882 0.583933 0.976115 0.014824 0.004484 -289398.000000 0 0 1
-26.339889 -15.863698 21.067856 37.273331 0.542086 0.970089 0.021115 -0.003183 -95434.100000 0 0 1
-25.752319 -15.053398 22.276856 37.229626 0.528978 0.929339 0.025523 -0.001895 -16352.100000 0 0 1
-24.620849 -14.295798 21.975756 35.965121 0.526061 0.913436 0.022765 -0.001663 -434616.000000 0 0 1
-23.986149 -13.744498 23.089856 36.019273 0.520344 0.874942 0.021437 -0.002692 -707613.000000 0 0 1
-22.724249 -13.016398 22.693856 34.652983 0.520178 0.856761 0.025179 0.000770 -599361.000000 0 0 1
-23.061849 -11.915898 21.778156 33.884002 0.476913 0.872744 0.028040 -0.004230 853070.000000 0 0 1
-21.904849 -11.175998 21.345956 32.563403 0.471780 0.855926 0.025154 0.001231 170865.000000 0 0 1
-21.754949 -9.759998 21.963456 32.418032 0.421717 0.826428 0.021833 -0.009935 116923.000000 0 0 1
-21.237849 -9.710598 23.320256 33.002671 0.428851 0.786090 0.024242 -0.014104 252421.000000 0 0 1
-19.829749 -9.791998 23.342256 32.155297 0.458678 0.758421 0.016747 -0.002652 -42063.700000 0 0 1
-19.164049 -9.901698 24.757956 32.836882 0.476903 0.716715 0.019446 -0.009435 318338.000000 0 0 1
-19.264849 -11.224798 25.222056 33.664263 0.527570 0.723907 0.016052 -0.003925 -171246.000000 0 0 1
-18.466849 -11.303898 26.360056 34.112391 0.549282 0.687647 0.017100 -0.005129 -897928.000000 0 0 1
-18.644549 -12.623198 27.118556 35.247417 0.595153 0.692931 0.021511 -0.019729 407064.000000 0 0 1
-19.823149 -12.892398 27.867656 36.548289 0.576636 0.703645 0.030573 -0.014177 23388.600000 0 0 1
-21.040949 -13.061798 27.170556 36.763722 0.555559 0.739124 0.017234 -0.006676 622663.000000 0 0 1
-22.214149 -13.462898 28.157056 38.308457 0.544857 0.745117 0.008011 -0.010542 377862.000000 0 0 1
-22.336549 -14.715098 28.822056 39.321323 0.582530 0.748092 0.010696 -0.008783 331588.000000 0 0 1
-21.299249 -14.915098 29.825956 39.569001 0.610903 0.717015 0.006378 -0.011387 697562.000000 0 0 1
-21.766349 -15.716298 31.039456 41.039296 0.625369 0.713104 0.001881 -0.005950 -562069.000000 0 0 1
-21.947149 -17.095198 30.706856 41.434698 0.661758 0.736103 0.008857 -0.005037 -285396.000000 0 0 1
-22.014949 -18.014598 31.773956 42.647017 0.685794 0.730194 0.017005 -0.003419 219581.000000 0 0 1
-23.301749 -18.181498 32.647456 44.038560 0.662590 0.735735 0.016371 0.000650 242008.000000 0 0 1
-23.685849 -16.974998 33.311156 44.258368 0.621828 0.718715 0.026947 -0.004292 -558908.000000 0 0 1
-24.965449 -17.179398 33.831156 45.419737 0.602713 0.730478 0.032085 -0.013865 -287155.000000 0 0 1
-25.641619 -15.990998 -34.223144 45.655539 0.557617 2.418246 0.032420 -0.009998 15298.300000 0 0 1
-25.393419 -15.912698 -32.814744 44.439252 0.559782 2.401518 0.047604 -0.020191 4827.840000 0 0 1
-25.662139 -14.627098 -32.325344 43.788415 0.518059 2.401219 0.055590 -0.022183 -332264.000000 0 0 1
-25.277759 -14.427598 -30.821844 42.392296 0.518644 2.384830 0.044638 -0.010351 -285327.000000 0 0 1
-26.011399 -15.124198 -29.864544 42.393693 0.526664 2.352454 0.041680 0.000495 37766.500000 0 0 1
-25.288689 -15.080498 -28.637344 41.073552 0.537719 2.342310 0.052658 0.004206 -34179.500000 0 0 1
-26.044449 -15.827198 -27.536644 41.074083 0.546062 2.305563 0.041999 0.007585 -190929.000000 0 0 1
-27.196609 -15.136198 -27.093644 41.265307 0.507856 2.287061 0.055509 0.003901 -122480.000000 0 0 1
-27.195899 -13.923198 -26.324144 40.329058 0.473169 2.281984 0.035462 -0.002322 -1360820.000000 0 0 1
-26.416799 -14.031298 -25.047144 39.013895 0.488256 2.267908 0.040304 -0.003422 -400142.000000 0 0 1
-25.038649 -13.888398 -25.400844 38.275638 0.506428 2.296457 0.028705 -0.006927 159662.000000 0 0 1
-24.208149 -14.031598 -24.278644 37.045550 0.525302 2.285472 0.020811 -0.011092 -270320.000000 0 0 1
-23.667449 -15.483898 -24.191344 37.217205 0.579341 2.278386 0.022779 -0.008444 -711505.000000 0 0 1
-22.731849 -15.754598 -25.214444 37.426094 0.606055 2.310018 0.038256 -0.003597 24052.300000 0 0 1
-22.381749 -17.106498 -25.237144 37.821798 0.652594 2.301326 0.042899 -0.002095 -364363.000000 0 0 1
-21.342449 -17.428198 -26.321944 38.106259 0.684780 2.333324 0.037071 0.003402 -276107.000000 0 0 1
-21.688949 -17.289498 -27.690644 39.193227 0.673005 2.355359 0.038485 -0.001749 446374.000000 0 0 1
-22.607249 -18.316198 -28.153044 40.486599 0.680924 2.339727 0.044053 -0.003630 492122.000000 0 0 1
-23.140149 -18.085298 -29.581144 41.684393 0.663392 2.359791 0.033846 -0.008205 34844.800000 0 0 1
-22.310949 -18.639498 -30.582344 42.195842 0.695981 2.381499 0.035943 -0.000383 434671.000000 0 0 1
-22.947849 -18.505998 -31.849944 43.399248 0.678654 2.394816 0.027389 -0.008273 -660488.000000 0 0 1
-22.103649 -19.052398 -32.971244 44.030309 0.711395 2.417092 0.023766 -0.011436 -1011650.000000 0 0 1
-20.954249 -18.232598 -33.077044 43.192581 0.716056 2.443087 0.021758 -0.008657 338413.000000 0 0 1
-19.733249 -18.902298 -32.758244 42.659120 0.763894 2.446364 0.018597 -0.009053 324074.000000 0 0 1
-19.226249 -20.123698 -33.603844 43.632903 0.808201 2.449871 0.017993 -0.007386 -1055940.000000 0 0 1
-18.988349 -19.768198 33.883656 43.582579 0.805517 0.680181 0.022197 -0.010528 -93395.200000 0 0 1
-18.822949 -20.821698 32.935556 43.273518 0.835772 0.705786 0.029503 -0.010051 -371692.000000 0 0 1
-20.103849 -21.349098 32.269656 43.603663 0.815429 0.737626 0.039022 -0.006977 -50105.400000 0 0 1
-21.007049 -21.905498 33.223856 44.999684 0.806332 0.740231 0.029024 -0.007380 682215.000000 0 0 1
-22.221549 -22.493998 32.702056 45.488479 0.791491 0.768565 0.034322 -0.000141 771210.000000 0 0 1
-22.110749 -23.673998 31.717756 45.336073 0.819528 0.795939 0.047645 0.007935 -674636.000000 0 0 1
-21.555949 -24.854398 32.259556 46.076882 0.856350 0.795224 0.055557 0.007044 -299589.000000 0 0 1
-21.762849 -25.954758 31.380356 46.173562 0.873021 0.823555 0.061036 0.009986 -63615.800000 0 0 1
-21.222449 -27.312168 31.854356 47.021770 0.910218 0.826522 0.083902 0.002414 142426.000000 0 0 1
-22.081949 -27.921648 32.826656 48.423344 0.901657 0.825881 0.061237 -0.003857 -26111.600000 0 0 1
-21.566649 -29.016608 33.531156 49.309455 0.931628 0.823014 0.066738 -0.011831 -1125770.000000 0 0 1
-22.559549 -29.473368 -34.172644 50.451782 0.917498 2.314927 0.058375 -0.016912 639765.000000 0 0 1
-23.632049 -30.319938 34.179456 51.439359 0.908729 0.844024 0.045376 -0.014468 312600.000000 0 0 1
-24.616649 -29.563498 33.526556 51.029499 0.876449 0.853959 0.036790 -0.011801 -2503250.000000 0 0 1
-25.900929 -29.456078 34.286256 52.096699 0.849532 0.852468 0.016031 -0.012876 -1871920.000000 0 0 1
-26.777569 -28.551508 33.707756 51.656942 0.817449 0.859877 0.013942 -0.004447 -279582.000000 0 0 1
-27.667029 -28.210218 -34.037244 52.151845 0.795119 2.281882 0.016435 0.002167 112577.000000 0 0 1
-28.793019 -27.211668 34.405956 52.471732 0.757170 0.855681 0.001977 -0.002773 57793.800000 0 0 1
-29.673669 -27.730108 33.432056 52.604068 0.751553 0.882087 -0.018312 0.001863 -1040410.000000 0 0 1
-30.756719 -26.889808 33.327356 52.723337 0.718419 0.886513 -0.011050 -0.003766 -705746.000000 0 0 1
